# sigma_xx, sigma_yy, sigma_xy, epsilon_xx, epsilon_yy, epsilon_xy, vonMises, epsPlastic, hardening, epsilonP__xx, epsilonP__yy, epsilonP__xy, yieldValue, iteration
   0.00000,   0.00000,   0.00000,   0.00000,   0.00000,   0.00000,   0.00000,   0.00000,274640135.82653,   0.00000,   0.00000,   0.00000,-474640135.82653,   0.00000
   0.00000,   0.00000,   0.00000,   0.00000,   0.00000,   0.00000,   0.00000,   0.00000,274640135.82653,   0.00000,   0.00000,   0.00000,-474640135.82653,   0.00000
1061711.64463,3323019.56307,452261.58369,  -0.00000,   0.00001,   0.00001,3042239.91291,   0.00000,274640135.82653,   0.00000,   0.00000,   0.00000,-471597895.91362,   0.00000
2151000.21510,6673616.05198,910038.55254,  -0.00000,   0.00003,   0.00001,6106841.57913,   0.00000,274640135.82653,   0.00000,   0.00000,   0.00000,-468533294.24740,   0.00000
3232015.70782,10004908.69280,1362300.13623,  -0.00000,   0.00004,   0.00002,9152905.90031,   0.00000,274640135.82653,   0.00000,   0.00000,   0.00000,-465487229.92622,   0.00000
4351638.89670,13352747.48912,1809046.33475,  -0.00001,   0.00005,   0.00002,12204271.26738,   0.00000,274640135.82653,   0.00000,   0.00000,   0.00000,-462435864.55915,   0.00000
5490565.93367,16708859.36319,2261307.91844,  -0.00001,   0.00007,   0.00003,15262101.49314,   0.00000,274640135.82653,   0.00000,   0.00000,   0.00000,-459378034.33339,   0.00000
6629492.97064,20064971.23727,2713569.50213,  -0.00001,   0.00008,   0.00004,18320017.47693,   0.00000,274640135.82653,   0.00000,   0.00000,   0.00000,-456320118.34960,   0.00000
7807027.70378,23437629.26684,3160315.70065,  -0.00001,   0.00009,   0.00004,21383561.72866,   0.00000,274640135.82653,   0.00000,   0.00000,   0.00000,-453256574.09787,   0.00000
8995593.20725,26799256.52608,3607061.89917,  -0.00001,   0.00010,   0.00005,24435186.19059,   0.00000,274640135.82653,   0.00000,   0.00000,   0.00000,-450204949.63594,   0.00000
10192431.78847,30180187.63340,4053808.09769,  -0.00001,   0.00012,   0.00005,27503090.15024,   0.00000,274640135.82653,   0.00000,   0.00000,   0.00000,-447137045.67629,   0.00000
11427878.06586,33577664.89623,4500554.29621,  -0.00001,   0.00013,   0.00006,30579396.39235,   0.00000,274640135.82653,   0.00000,   0.00000,   0.00000,-444060739.43418,   0.00000
12674355.11359,36964111.38872,4947300.49473,  -0.00001,   0.00014,   0.00006,33643957.56536,   0.00000,274640135.82653,   0.00000,   0.00000,   0.00000,-440996178.26117,   0.00000
13929105.23906,40369861.72929,5388531.30808,  -0.00002,   0.00016,   0.00007,36722451.78721,   0.00000,274640135.82653,   0.00000,   0.00000,   0.00000,-437917684.03932,   0.00000
15214189.98296,43772854.37729,5829762.12144,  -0.00002,   0.00017,   0.00008,39793519.74578,   0.00000,274640135.82653,   0.00000,   0.00000,   0.00000,-434846616.08075,   0.00000
16499274.72685,47175847.02528,6276508.31996,  -0.00002,   0.00018,   0.00008,42867272.11515,   0.00000,274640135.82653,   0.00000,   0.00000,   0.00000,-431772863.71138,   0.00000
17822967.16691,50595385.82877,6712223.74815,  -0.00002,   0.00020,   0.00009,45945110.38519,   0.00000,274640135.82653,   0.00000,   0.00000,   0.00000,-428695025.44134,   0.00000
19146659.60697,54014924.63226,7153454.56150,  -0.00002,   0.00021,   0.00009,49025677.12938,   0.00000,274640135.82653,   0.00000,   0.00000,   0.00000,-425614458.69715,   0.00000
20500686.66545,57431705.74317,7594685.37485,  -0.00002,   0.00022,   0.00010,52099206.44358,   0.00000,274640135.82653,   0.00000,   0.00000,   0.00000,-422540929.38295,   0.00000
21862986.80168,60867790.70216,8030400.80304,  -0.00002,   0.00023,   0.00010,55186850.27483,   0.00000,274640135.82653,   0.00000,   0.00000,   0.00000,-419453285.55170,   0.00000
23263894.63408,64320421.81666,8466116.23123,  -0.00002,   0.00025,   0.00011,58283851.21436,   0.00000,274640135.82653,   0.00000,   0.00000,   0.00000,-416356284.61217,   0.00000
24656529.38873,67753749.08307,8901831.65941,  -0.00002,   0.00026,   0.00012,61365059.04440,   0.00000,274640135.82653,   0.00000,   0.00000,   0.00000,-413275076.78213,   0.00000
26068467.99146,71195349.42723,9337547.08760,  -0.00002,   0.00027,   0.00012,64451210.01689,   0.00000,274640135.82653,   0.00000,   0.00000,   0.00000,-410188925.80964,   0.00000
27499710.44228,74645222.84914,9767747.13062,  -0.00002,   0.00029,   0.00013,67539973.39635,   0.00000,274640135.82653,   0.00000,   0.00000,   0.00000,-407100162.43018,   0.00000
28969560.58926,78111642.42655,10197947.17364,  -0.00002,   0.00030,   0.00013,70638506.10662,   0.00000,274640135.82653,   0.00000,   0.00000,   0.00000,-404001629.71991,   0.00000
30431137.65850,81558758.15588,10633662.60183,  -0.00002,   0.00031,   0.00014,73723698.46535,   0.00000,274640135.82653,   0.00000,   0.00000,   0.00000,-400916437.36118,   0.00000
31920291.65357,85033450.81104,11058347.25968,  -0.00002,   0.00032,   0.00014,76825525.43414,   0.00000,274640135.82653,   0.00000,   0.00000,   0.00000,-397814610.39239,   0.00000
33420476.41897,88497112.69587,11488547.30270,  -0.00002,   0.00034,   0.00015,79918781.82853,   0.00000,274640135.82653,   0.00000,   0.00000,   0.00000,-394721353.99800,   0.00000
34939965.03246,91969047.65844,11918747.34572,  -0.00002,   0.00035,   0.00015,83017354.74760,   0.00000,274640135.82653,   0.00000,   0.00000,   0.00000,-391622781.07893,   0.00000
36478757.49403,95449255.69877,12343432.00357,  -0.00002,   0.00036,   0.00016,86118934.33512,   0.00000,274640135.82653,   0.00000,   0.00000,   0.00000,-388521201.49141,   0.00000
38017549.95560,98929463.73910,12768116.66143,  -0.00002,   0.00038,   0.00017,89221025.99606,   0.00000,274640135.82653,   0.00000,   0.00000,   0.00000,-385419109.83047,   0.00000
39594950.11334,102426217.93493,13192801.31928,  -0.00002,   0.00039,   0.00017,92333521.67794,   0.00000,274640135.82653,   0.00000,   0.00000,   0.00000,-382306614.14859,   0.00000
41183381.04142,105911941.36042,13611970.59197,  -0.00002,   0.00040,   0.00018,95432990.04560,   0.00000,274640135.82653,   0.00000,   0.00000,   0.00000,-379207145.78093,   0.00000
42791115.81757,109405937.86367,14031139.86465,  -0.00002,   0.00041,   0.00018,98538090.76795,   0.00000,274640135.82653,   0.00000,   0.00000,   0.00000,-376102045.05858,   0.00000
44398850.59373,112899934.36692,14450309.13734,  -0.00002,   0.00043,   0.00019,101643790.26086,   0.00000,274640135.82653,   0.00000,   0.00000,   0.00000,-372996345.56567,   0.00000
46045193.06606,116410477.02566,14869478.41002,  -0.00002,   0.00044,   0.00019,104760298.97262,   0.00000,274640135.82653,   0.00000,   0.00000,   0.00000,-369879836.85391,   0.00000
47691535.53838,119921019.68441,15288647.68271,  -0.00002,   0.00045,   0.00020,107877449.89560,   0.00000,274640135.82653,   0.00000,   0.00000,   0.00000,-366762685.93093,   0.00000
49348908.78104,123420531.57282,15702301.57023,  -0.00002,   0.00047,   0.00020,110981803.37835,   0.00000,274640135.82653,   0.00000,   0.00000,   0.00000,-363658332.44818,   0.00000
51025585.87179,126928316.53899,16115955.45775,  -0.00002,   0.00048,   0.00021,114092016.80577,   0.00000,274640135.82653,   0.00000,   0.00000,   0.00000,-360548119.02076,   0.00000
52740870.65870,130452647.66065,16529609.34527,  -0.00001,   0.00049,   0.00021,117213439.74766,   0.00000,274640135.82653,   0.00000,   0.00000,   0.00000,-357426696.07887,   0.00000
54456155.44562,133976978.78231,16943263.23279,  -0.00001,   0.00050,   0.00022,120335593.37859,   0.00000,274640135.82653,   0.00000,   0.00000,   0.00000,-354304542.44794,   0.00000
56182471.00286,137490279.13364,17351401.73514,  -0.00001,   0.00052,   0.00023,123445197.19356,   0.00000,274640135.82653,   0.00000,   0.00000,   0.00000,-351194938.63297,   0.00000
57917059.63786,141022883.33306,17765055.62266,  -0.00001,   0.00053,   0.00023,126574090.08241,   0.00000,274640135.82653,   0.00000,   0.00000,   0.00000,-348066045.74412,   0.00000
59681982.89128,144552729.83989,18167678.73984,  -0.00001,   0.00054,   0.00024,129693603.88697,   0.00000,274640135.82653,   0.00000,   0.00000,   0.00000,-344946531.93956,   0.00000
61457936.91502,148071545.57639,18575817.24220,  -0.00001,   0.00055,   0.00024,132805390.97090,   0.00000,274640135.82653,   0.00000,   0.00000,   0.00000,-341834744.85563,   0.00000
63242164.01652,151609665.16097,18983955.74455,  -0.00001,   0.00057,   0.00025,135934213.11887,   0.00000,274640135.82653,   0.00000,   0.00000,   0.00000,-338705922.70766,   0.00000
65056725.73644,155145027.05296,19386578.86173,  -0.00001,   0.00058,   0.00025,139056275.76036,   0.00000,274640135.82653,   0.00000,   0.00000,   0.00000,-335583860.06617,   0.00000
66871287.45636,158680388.94496,19789201.97892,  -0.00001,   0.00059,   0.00026,142179149.53979,   0.00000,274640135.82653,   0.00000,   0.00000,   0.00000,-332460986.28674,   0.00000
68705153.02436,162224023.91471,20186309.71094,  -0.00000,   0.00060,   0.00026,145306114.45886,   0.00000,274640135.82653,   0.00000,   0.00000,   0.00000,-329334021.36767,   0.00000
70550049.36270,165756628.11412,20588932.82812,  -0.00000,   0.00062,   0.00027,148425548.33384,   0.00000,274640135.82653,   0.00000,   0.00000,   0.00000,-326214587.49269,   0.00000
72414249.54912,169297505.39129,20986040.56014,  -0.00000,   0.00063,   0.00027,151549195.84479,   0.00000,274640135.82653,   0.00000,   0.00000,   0.00000,-323090939.98174,   0.00000
74297753.58362,172846655.74620,21377632.90699,   0.00000,   0.00064,   0.00028,154677127.97939,   0.00000,274640135.82653,   0.00000,   0.00000,   0.00000,-319963007.84714,   0.00000
76192288.38846,176384775.33079,21774740.63901,   0.00000,   0.00065,   0.00028,157797693.57856,   0.00000,274640135.82653,   0.00000,   0.00000,   0.00000,-316842442.24797,   0.00000
78095096.27105,179942198.76345,22166332.98586,   0.00000,   0.00067,   0.00029,160933136.97270,   0.00000,274640135.82653,   0.00000,   0.00000,   0.00000,-313706998.85383,   0.00000
80028238.77205,183496864.50353,22557925.33272,   0.00001,   0.00068,   0.00029,164064826.77016,   0.00000,274640135.82653,   0.00000,   0.00000,   0.00000,-310575309.05637,   0.00000
81953108.19531,187032226.39553,22949517.67957,   0.00001,   0.00069,   0.00030,167181142.63491,   0.00000,274640135.82653,   0.00000,   0.00000,   0.00000,-307458993.19162,   0.00000
83905554.54440,190595165.21336,23341110.02642,   0.00001,   0.00070,   0.00030,170320545.75770,   0.00000,274640135.82653,   0.00000,   0.00000,   0.00000,-304319590.06883,   0.00000
85869031.66383,194147073.26086,23727186.98810,   0.00001,   0.00072,   0.00031,173448244.96221,   0.00000,274640135.82653,   0.00000,   0.00000,   0.00000,-301191890.86432,   0.00000
87851812.63134,197707254.38611,24113263.94979,   0.00001,   0.00073,   0.00031,176582862.26658,   0.00000,274640135.82653,   0.00000,   0.00000,   0.00000,-298057273.55995,   0.00000
89826320.52109,201248131.66327,24493825.52631,   0.00002,   0.00074,   0.00032,179699865.45348,   0.00000,274640135.82653,   0.00000,   0.00000,   0.00000,-294940270.37305,   0.00000
91839436.10702,204805555.09594,24879902.48799,   0.00002,   0.00075,   0.00032,182832161.76168,   0.00000,274640135.82653,   0.00000,   0.00000,   0.00000,-291807974.06484,   0.00000
93852551.69295,208362978.52861,25260464.06451,   0.00002,   0.00077,   0.00033,185963190.44800,   0.00000,274640135.82653,   0.00000,   0.00000,   0.00000,-288676945.37853,   0.00000
95884971.12696,211928675.03902,25635510.25586,   0.00002,   0.00078,   0.00033,189099059.39205,   0.00000,274640135.82653,   0.00000,   0.00000,   0.00000,-285541076.43448,   0.00000
97928421.33130,215483340.77910,26016071.83238,   0.00003,   0.00079,   0.00034,192228016.82594,   0.00000,274640135.82653,   0.00000,   0.00000,   0.00000,-282412119.00059,   0.00000
99991175.38373,219046279.59694,26391118.02373,   0.00003,   0.00080,   0.00034,195361936.23932,   0.00000,274640135.82653,   0.00000,   0.00000,   0.00000,-279278199.58721,   0.00000
102064960.20650,222598187.64443,26766164.21508,   0.00003,   0.00081,   0.00035,198486817.49914,   0.00000,274640135.82653,   0.00000,   0.00000,   0.00000,-276153318.32739,   0.00000
104138745.02926,226150095.69193,27135695.02126,   0.00003,   0.00083,   0.00035,201610502.39756,   0.00000,274640135.82653,   0.00000,   0.00000,   0.00000,-273029633.42897,   0.00000
106231833.70011,229710276.81718,27510741.21261,   0.00004,   0.00084,   0.00036,204743723.92546,   0.00000,274640135.82653,   0.00000,   0.00000,   0.00000,-269896411.90106,   0.00000
108344226.21904,233278731.02018,27880272.01880,   0.00004,   0.00085,   0.00036,207882088.69254,   0.00000,274640135.82653,   0.00000,   0.00000,   0.00000,-266758047.13399,   0.00000
110467649.50830,236836154.45285,28244287.43981,   0.00004,   0.00086,   0.00037,211009363.91985,   0.00000,274640135.82653,   0.00000,   0.00000,   0.00000,-263630771.90668,   0.00000
112610376.64565,240401850.96326,28613818.24600,   0.00004,   0.00087,   0.00037,214146341.72780,   0.00000,274640135.82653,   0.00000,   0.00000,   0.00000,-260493794.09873,   0.00000
114744830.70525,243948243.62559,28977833.66701,   0.00005,   0.00089,   0.00038,217265888.62043,   0.00000,274640135.82653,   0.00000,   0.00000,   0.00000,-257374247.20610,   0.00000
116898588.61294,247502909.36568,29336333.70286,   0.00005,   0.00090,   0.00038,220390768.42532,   0.00000,274640135.82653,   0.00000,   0.00000,   0.00000,-254249367.40121,   0.00000
119071650.36870,251065848.18351,29700349.12388,   0.00005,   0.00091,   0.00039,223525446.79621,   0.00000,274640135.82653,   0.00000,   0.00000,   0.00000,-251114689.03032,   0.00000
121255742.89481,254617756.23101,30058849.15973,   0.00006,   0.00092,   0.00039,226649277.57552,   0.00000,274640135.82653,   0.00000,   0.00000,   0.00000,-247990858.25101,   0.00000
123459139.26899,258177937.35626,30417349.19558,   0.00006,   0.00093,   0.00040,229780821.38982,   0.00000,274640135.82653,   0.00000,   0.00000,   0.00000,-244859314.43671,   0.00000
125654262.56543,261718814.63342,30770333.84626,   0.00006,   0.00095,   0.00040,232895013.50771,   0.00000,274640135.82653,   0.00000,   0.00000,   0.00000,-241745122.31882,   0.00000
127876962.78770,265287268.83642,31123318.49695,   0.00006,   0.00096,   0.00040,236033271.54500,   0.00000,274640135.82653,   0.00000,   0.00000,   0.00000,-238606864.28153,   0.00000
130102420.70255,268825388.42100,31476303.14763,   0.00007,   0.00097,   0.00041,239146751.03796,   0.00000,274640135.82653,   0.00000,   0.00000,   0.00000,-235493384.78856,   0.00000
132355455.54324,272391084.93142,31829287.79831,   0.00007,   0.00098,   0.00041,242284407.90815,   0.00000,274640135.82653,   0.00000,   0.00000,   0.00000,-232355727.91838,   0.00000
134600217.30618,275937477.59375,32176757.06383,   0.00007,   0.00099,   0.00042,245404760.91158,   0.00000,274640135.82653,   0.00000,   0.00000,   0.00000,-229235374.91495,   0.00000
136856009.83945,279472839.48575,32524226.32935,   0.00008,   0.00100,   0.00042,248516747.25026,   0.00000,274640135.82653,   0.00000,   0.00000,   0.00000,-226123388.57627,   0.00000
139131106.22080,283016474.45549,32866180.20969,   0.00008,   0.00102,   0.00043,251634559.96040,   0.00000,274640135.82653,   0.00000,   0.00000,   0.00000,-223005575.86613,   0.00000
141425506.45024,286568382.50299,33213649.47521,   0.00008,   0.00103,   0.00043,254762580.90890,   0.00000,274640135.82653,   0.00000,   0.00000,   0.00000,-219877554.91763,   0.00000
143719906.67968,290120290.55049,33550087.97039,   0.00009,   0.00104,   0.00044,257887492.30969,   0.00000,274640135.82653,   0.00000,   0.00000,   0.00000,-216752643.51684,   0.00000
146017064.60171,293641863.97957,33892041.85074,   0.00009,   0.00105,   0.00044,260990068.61615,   0.00000,274640135.82653,   0.00000,   0.00000,   0.00000,-213650067.21038,   0.00000
148341799.44956,297191014.33449,34228480.34592,   0.00010,   0.00106,   0.00044,264114946.98114,   0.00000,274640135.82653,   0.00000,   0.00000,   0.00000,-210525188.84539,   0.00000
150677565.06776,300729133.91907,34564918.84111,   0.00010,   0.00107,   0.00045,267231749.24039,   0.00000,274640135.82653,   0.00000,   0.00000,   0.00000,-207408386.58614,   0.00000
153013330.68595,304267253.50365,34901357.33629,   0.00010,   0.00109,   0.00045,270349790.59868,   0.00000,274640135.82653,   0.00000,   0.00000,   0.00000,-204290345.22785,   0.00000
155360127.07447,307794342.31790,35232280.44630,   0.00011,   0.00110,   0.00046,273457672.90119,   0.00000,274640135.82653,   0.00000,   0.00000,   0.00000,-201182462.92534,   0.00000
157706923.46300,311321431.13214,35563203.55632,   0.00011,   0.00111,   0.00046,276566784.73733,   0.00000,274640135.82653,   0.00000,   0.00000,   0.00000,-198073351.08920,   0.00000
160084054.46994,314845762.25381,35888611.28117,   0.00011,   0.00112,   0.00047,279672933.28014,   0.00000,274640135.82653,   0.00000,   0.00000,   0.00000,-194967202.54639,   0.00000
162461185.47689,318370093.37547,36214019.00602,   0.00012,   0.00113,   0.00047,282780366.83971,   0.00000,274640135.82653,   0.00000,   0.00000,   0.00000,-191859768.98682,   0.00000
164849347.25417,321883393.72680,36539426.73087,   0.00012,   0.00114,   0.00048,285879954.20604,   0.00000,274640135.82653,   0.00000,   0.00000,   0.00000,-188760181.62049,   0.00000
167237509.03144,325396694.07813,36859319.07055,   0.00013,   0.00115,   0.00048,288978699.19141,   0.00000,274640135.82653,   0.00000,   0.00000,   0.00000,-185661436.63512,   0.00000
169644974.65681,328918267.50721,37179211.41023,   0.00013,   0.00117,   0.00048,292085936.41956,   0.00000,274640135.82653,   0.00000,   0.00000,   0.00000,-182554199.40697,   0.00000
172063471.05250,332428810.16596,37499103.74991,   0.00013,   0.00118,   0.00049,295185442.20561,   0.00000,274640135.82653,   0.00000,   0.00000,   0.00000,-179454693.62092,   0.00000
174501271.29628,335947625.90245,37818996.08959,   0.00014,   0.00119,   0.00049,298293551.08725,   0.00000,274640135.82653,   0.00000,   0.00000,   0.00000,-176346584.73928,   0.00000
176930798.46231,339447137.79087,38133373.04411,   0.00014,   0.00120,   0.00050,301384598.30091,   0.00000,274640135.82653,   0.00000,   0.00000,   0.00000,-173255537.52562,   0.00000
179371356.39867,342935618.90895,38442234.61345,   0.00015,   0.00121,   0.00050,304465944.39752,   0.00000,274640135.82653,   0.00000,   0.00000,   0.00000,-170174191.42901,   0.00000
181820187.41279,346443403.87511,38751096.18280,   0.00015,   0.00122,   0.00050,307564871.83195,   0.00000,274640135.82653,   0.00000,   0.00000,   0.00000,-167075263.99458,   0.00000
184291079.96757,349929127.30060,39059957.75215,   0.00016,   0.00123,   0.00051,310647421.37259,   0.00000,274640135.82653,   0.00000,   0.00000,   0.00000,-163992714.45394,   0.00000
186742668.67427,353406577.64835,39368819.32150,   0.00016,   0.00124,   0.00051,313723855.95603,   0.00000,274640135.82653,   0.00000,   0.00000,   0.00000,-160916279.87050,   0.00000
189232865.07713,356900574.15160,39672165.50568,   0.00017,   0.00125,   0.00052,316814489.89651,   0.00000,274640135.82653,   0.00000,   0.00000,   0.00000,-157825645.93001,   0.00000
191723061.48000,360394570.65484,39975511.68986,   0.00017,   0.00127,   0.00052,319906475.45593,   0.00000,274640135.82653,   0.00000,   0.00000,   0.00000,-154733660.37060,   0.00000
194216015.57545,363858232.53967,40273342.48887,   0.00017,   0.00128,   0.00052,322972760.89539,   0.00000,274640135.82653,   0.00000,   0.00000,   0.00000,-151667374.93114,   0.00000
196717242.74865,367341198.27258,40571173.28789,   0.00018,   0.00129,   0.00053,326056654.85720,   0.00000,274640135.82653,   0.00000,   0.00000,   0.00000,-148583480.96933,   0.00000
199221227.61443,370793829.38708,40869004.08690,   0.00018,   0.00130,   0.00053,329116979.27416,   0.00000,274640135.82653,   0.00000,   0.00000,   0.00000,-145523156.55237,   0.00000
201752789.40605,374274037.42740,41161319.50075,   0.00019,   0.00131,   0.00054,332200503.82445,   0.00000,274640135.82653,   0.00000,   0.00000,   0.00000,-142439632.00208,   0.00000
204267805.04217,377715637.77156,41453634.91459,   0.00019,   0.00132,   0.00054,335252899.28518,   0.00000,274640135.82653,   0.00000,   0.00000,   0.00000,-139387236.54135,   0.00000
206810397.60412,381184815.04156,41745950.32844,   0.00020,   0.00133,   0.00054,338330598.26524,   0.00000,274640135.82653,   0.00000,   0.00000,   0.00000,-136309537.56129,   0.00000
209336444.01057,384615384.61538,42032750.35712,   0.00020,   0.00134,   0.00055,341375131.27708,   0.00000,274640135.82653,   0.00000,   0.00000,   0.00000,-133265004.54945,   0.00000
211909371.19094,388081804.19280,42319550.38580,   0.00021,   0.00135,   0.00055,344452798.33600,   0.00000,274640135.82653,   0.00000,   0.00000,   0.00000,-130187337.49053,   0.00000
214446448.36772,391501342.99629,42600835.02931,   0.00021,   0.00136,   0.00055,347489570.61222,   0.00000,274640135.82653,   0.00000,   0.00000,   0.00000,-127150565.21431,   0.00000
217030406.31843,394956731.80337,42882119.67283,   0.00022,   0.00137,   0.00056,350559589.57780,   0.00000,274640135.82653,   0.00000,   0.00000,   0.00000,-124080546.24872,   0.00000
219578514.26554,398365239.83652,43163404.31634,   0.00022,   0.00138,   0.00056,353590694.38443,   0.00000,274640135.82653,   0.00000,   0.00000,   0.00000,-121049441.44210,   0.00000
222165229.90883,401790294.02518,43439173.57469,   0.00023,   0.00139,   0.00056,356636905.14107,   0.00000,274640135.82653,   0.00000,   0.00000,   0.00000,-118003230.68546,   0.00000
224751945.55212,405215348.21384,43714942.83303,   0.00023,   0.00141,   0.00057,359684537.14272,   0.00000,274640135.82653,   0.00000,   0.00000,   0.00000,-114955598.68381,   0.00000
227330388.11765,408621098.55442,43990712.09138,   0.00024,   0.00142,   0.00057,362717331.91154,   0.00000,274640135.82653,   0.00000,   0.00000,   0.00000,-111922803.91499,   0.00000
229947438.37936,412043395.05049,44260965.96456,   0.00024,   0.00143,   0.00058,365765443.90267,   0.00000,274640135.82653,   0.00000,   0.00000,   0.00000,-108874691.92386,   0.00000
232528638.63748,415418810.77265,44525704.45257,   0.00025,   0.00144,   0.00058,368772559.53771,   0.00000,274640135.82653,   0.00000,   0.00000,   0.00000,-105867576.28882,   0.00000
235156719.66952,418830076.49839,44795958.32575,   0.00025,   0.00145,   0.00058,371815333.92808,   0.00000,274640135.82653,   0.00000,   0.00000,   0.00000,-102824801.89845,   0.00000
237776527.62381,422222038.37605,45055181.42860,   0.00026,   0.00146,   0.00059,374839358.56397,   0.00000,274640135.82653,   0.00000,   0.00000,   0.00000,-99800777.26256,   0.00000
240388062.50034,425594696.40562,45319919.91661,   0.00026,   0.00147,   0.00059,377850588.38863,   0.00000,274640135.82653,   0.00000,   0.00000,   0.00000,-96789547.43789,   0.00000
243018901.22497,428975627.51295,45579143.01945,   0.00027,   0.00148,   0.00059,380869353.63375,   0.00000,274640135.82653,   0.00000,   0.00000,   0.00000,-93770782.19278,   0.00000
245641466.87184,432337254.77219,45838366.12230,   0.00027,   0.00149,   0.00060,383873341.20983,   0.00000,274640135.82653,   0.00000,   0.00000,   0.00000,-90766794.61670,   0.00000
248283336.36680,435707155.10918,46092073.83998,   0.00028,   0.00150,   0.00060,386884933.53189,   0.00000,274640135.82653,   0.00000,   0.00000,   0.00000,-87755202.29464,   0.00000
250936236.63209,439066024.67583,46345781.55766,   0.00029,   0.00151,   0.00060,389889968.34892,   0.00000,274640135.82653,   0.00000,   0.00000,   0.00000,-84750167.47761,   0.00000
253580863.81962,442405590.39441,46593973.89017,   0.00029,   0.00152,   0.00061,392878307.29822,   0.00000,274640135.82653,   0.00000,   0.00000,   0.00000,-81761828.52831,   0.00000
256244794.85525,445753429.19073,46842166.22268,   0.00030,   0.00153,   0.00061,395876349.52848,   0.00000,274640135.82653,   0.00000,   0.00000,   0.00000,-78763786.29804,   0.00000
258900452.81312,449081964.13897,47090358.55519,   0.00030,   0.00154,   0.00061,398859670.46386,   0.00000,274640135.82653,   0.00000,   0.00000,   0.00000,-75780465.36267,   0.00000
261556110.77100,452410499.08720,47333035.50253,   0.00031,   0.00155,   0.00062,401842477.72283,   0.00000,274640135.82653,   0.00000,   0.00000,   0.00000,-72797658.10370,   0.00000
264222799.49920,455728003.26511,47575712.44988,   0.00031,   0.00156,   0.00062,404818869.55483,   0.00000,274640135.82653,   0.00000,   0.00000,   0.00000,-69821266.27170,   0.00000
266908792.07549,459053780.52076,47812874.01206,   0.00032,   0.00157,   0.00062,407803138.05192,   0.00000,274640135.82653,   0.00000,   0.00000,   0.00000,-66836997.77461,   0.00000
269586511.57404,462360253.92833,48050035.57423,   0.00033,   0.00158,   0.00062,410772712.63359,   0.00000,274640135.82653,   0.00000,   0.00000,   0.00000,-63867423.19294,   0.00000
272275261.84291,465655696.56557,48281681.75125,   0.00033,   0.00159,   0.00063,413734071.14080,   0.00000,274640135.82653,   0.00000,   0.00000,   0.00000,-60906064.68573,   0.00000
274964012.11179,468951139.20281,48513327.92826,   0.00034,   0.00160,   0.00063,416696917.62317,   0.00000,274640135.82653,   0.00000,   0.00000,   0.00000,-57943218.20336,   0.00000
277644489.30291,472227277.99196,48744974.10527,   0.00034,   0.00161,   0.00063,419645065.01156,   0.00000,274640135.82653,   0.00000,   0.00000,   0.00000,-54995070.81497,   0.00000
280344270.34212,475511689.85886,48971104.89711,   0.00035,   0.00162,   0.00064,422601238.42458,   0.00000,274640135.82653,   0.00000,   0.00000,   0.00000,-52038897.40195,   0.00000
283055082.15166,478785070.95543,49197235.68895,   0.00035,   0.00163,   0.00064,425551266.13336,   0.00000,274640135.82653,   0.00000,   0.00000,   0.00000,-49088869.69317,   0.00000
285757620.88345,482039148.20391,49417851.09563,   0.00036,   0.00164,   0.00064,428484737.36111,   0.00000,274640135.82653,   0.00000,   0.00000,   0.00000,-46155398.46542,   0.00000
288460159.61525,485293225.45240,49638466.50231,   0.00037,   0.00165,   0.00065,431419690.26825,   0.00000,274640135.82653,   0.00000,   0.00000,   0.00000,-43220445.55828,   0.00000
291173729.11737,488536271.93055,49859081.90899,   0.00037,   0.00166,   0.00065,434348576.09899,   0.00000,274640135.82653,   0.00000,   0.00000,   0.00000,-40291559.72754,   0.00000
293887298.61950,491779318.40870,50074181.93050,   0.00038,   0.00166,   0.00065,437277049.46446,   0.00000,274640135.82653,   0.00000,   0.00000,   0.00000,-37363086.36207,   0.00000
296611898.89196,495011334.11652,50289281.95201,   0.00038,   0.00167,   0.00065,440199526.71546,   0.00000,274640135.82653,   0.00000,   0.00000,   0.00000,-34440609.11107,   0.00000
299328226.08667,498224045.97625,50498866.58835,   0.00039,   0.00168,   0.00066,443105488.14641,   0.00000,274640135.82653,   0.00000,   0.00000,   0.00000,-31534647.68012,   0.00000
302044553.28138,501436757.83598,50708451.22469,   0.00040,   0.00169,   0.00066,446012930.11907,   0.00000,274640135.82653,   0.00000,   0.00000,   0.00000,-28627205.70746,   0.00000
304771911.24642,504638438.92538,50912520.47587,   0.00040,   0.00170,   0.00066,448912580.16429,   0.00000,274640135.82653,   0.00000,   0.00000,   0.00000,-25727555.66224,   0.00000
307510299.98180,507829089.24445,51116589.72704,   0.00041,   0.00171,   0.00066,451806385.67938,   0.00000,274640135.82653,   0.00000,   0.00000,   0.00000,-22833750.14715,   0.00000
310248688.71718,511019739.56351,51315143.59305,   0.00042,   0.00172,   0.00067,454699846.98924,   0.00000,274640135.82653,   0.00000,   0.00000,   0.00000,-19940288.83729,   0.00000
312978804.37480,514191086.03449,51513697.45906,   0.00042,   0.00173,   0.00067,457578710.92924,   0.00000,274640135.82653,   0.00000,   0.00000,   0.00000,-17061424.89729,   0.00000
315700646.95468,517343128.65739,51712251.32507,   0.00043,   0.00174,   0.00067,460442962.43210,   0.00000,274640135.82653,   0.00000,   0.00000,   0.00000,-14197173.39443,   0.00000
318441793.38264,520503444.35804,51905289.80591,   0.00043,   0.00175,   0.00067,463315700.58398,   0.00000,274640135.82653,   0.00000,   0.00000,   0.00000,-11324435.24255,   0.00000
321193970.58094,523652729.28835,52098328.28676,   0.00044,   0.00176,   0.00068,466182749.28813,   0.00000,274640135.82653,   0.00000,   0.00000,   0.00000,-8457386.53840,   0.00000
323946147.77923,526802014.21866,52285851.38243,   0.00045,   0.00177,   0.00068,469049481.89048,   0.00000,274640135.82653,   0.00000,   0.00000,   0.00000,-5590653.93605,   0.00000
326690051.89977,529931995.30089,52473374.47811,   0.00045,   0.00177,   0.00068,471901646.20715,   0.00000,274640135.82653,   0.00000,   0.00000,   0.00000,-2738489.61938,   0.00000
329331882.51369,532936012.36994,52649141.43427,   0.00046,   0.00178,   0.00068,474640135.45943,   0.00000,274640135.82653,   0.00000,   0.00000,   0.00000,  -5.77718,   0.00000
329364791.88185,532933642.10467,52642933.34084,   0.00046,   0.00178,   0.00068,474640590.54390,   0.00000,274640592.40536,   0.00000,   0.00000,   0.00000,  -1.86146,   1.00000
330332280.13678,532861918.84455,52461461.72718,   0.00047,   0.00179,   0.00069,474653939.31235,   0.00001,274653941.39917,   0.00000,   0.00001,   0.00000,  -2.08681,   1.00000
331308409.23508,532787057.61010,52276534.63174,   0.00047,   0.00180,   0.00069,474667237.63936,   0.00002,274667240.50852,   0.00000,   0.00002,   0.00001,  -2.86916,   1.00000
332264987.72576,532710707.21115,52095695.93047,   0.00048,   0.00181,   0.00069,474680405.80621,   0.00004,274680414.28276,   0.00001,   0.00003,   0.00001,  -8.47655,   1.00000
333230345.22046,532631198.99310,51911376.15411,   0.00049,   0.00182,   0.00069,474693534.52891,   0.00005,274693538.85389,   0.00001,   0.00004,   0.00002,  -4.32498,   1.00000
334201302.71009,532547729.23436,51726820.61830,   0.00049,   0.00183,   0.00070,474706690.17215,   0.00006,274706698.08400,   0.00001,   0.00006,   0.00002,  -7.91185,   1.00000
335151020.91480,532464234.87025,51544324.63454,   0.00050,   0.00184,   0.00070,474719800.01355,   0.00007,274719806.99220,   0.00001,   0.00007,   0.00003,  -6.97865,   1.00000
336111523.08866,532376157.23050,51360331.72983,   0.00051,   0.00184,   0.00070,474732786.63249,   0.00008,274732792.94620,   0.00001,   0.00008,   0.00003,  -6.31370,   1.00000
337077556.39987,532284082.99148,51176098.97508,   0.00051,   0.00185,   0.00070,474745811.30137,   0.00010,274745814.00790,   0.00002,   0.00009,   0.00004,  -2.70653,   1.00000
338025721.48812,532192758.40962,50990642.04110,   0.00052,   0.00186,   0.00070,474758692.48107,   0.00011,274758702.02307,   0.00002,   0.00010,   0.00004,  -9.54200,   1.00000
338993792.81682,532097292.83240,50798553.36187,   0.00053,   0.00187,   0.00071,474771650.62171,   0.00012,274771659.85884,   0.00002,   0.00011,   0.00005,  -9.23713,   1.00000
339941829.47674,531998679.75885,50615795.65560,   0.00053,   0.00188,   0.00071,474784492.71882,   0.00013,274784501.39437,   0.00002,   0.00012,   0.00005,  -8.67555,   1.00000
340899785.92792,531898580.99252,50424226.21152,   0.00054,   0.00189,   0.00071,474797282.93129,   0.00014,274797288.05788,   0.00002,   0.00013,   0.00006,  -5.12660,   1.00000
341851060.26077,531793240.25438,50240822.03438,   0.00055,   0.00189,   0.00071,474809999.21786,   0.00015,274810001.77055,   0.00003,   0.00014,   0.00006,  -2.55269,   1.00000
342796952.44843,531689926.00863,50047778.81639,   0.00055,   0.00190,   0.00071,474822685.04892,   0.00017,274822692.03955,   0.00003,   0.00015,   0.00006,  -6.99063,   1.00000
343736352.15230,531581439.94184,49862902.55222,   0.00056,   0.00191,   0.00072,474835307.44557,   0.00018,274835309.52491,   0.00003,   0.00016,   0.00007,  -2.07933,   1.00000
344684591.53687,531469372.84080,49674448.72855,   0.00057,   0.00192,   0.00072,474847881.73498,   0.00019,274847881.75441,   0.00003,   0.00017,   0.00007,  -0.01943,   1.00000
345626330.62635,531357384.64561,49481644.92809,   0.00057,   0.00193,   0.00072,474860429.06074,   0.00020,274860439.04610,   0.00004,   0.00018,   0.00008,  -9.98536,   1.00000
346575716.92568,531239803.08618,49290569.28851,   0.00058,   0.00193,   0.00072,474872952.47666,   0.00021,274872959.55862,   0.00004,   0.00019,   0.00008,  -7.08197,   1.00000
347520974.46612,531120871.30286,49097063.24843,   0.00059,   0.00194,   0.00072,474885385.88989,   0.00022,274885392.14267,   0.00004,   0.00020,   0.00009,  -6.25278,   1.00000
348458627.87076,531000139.43315,48904508.19228,   0.00059,   0.00195,   0.00073,474897816.58176,   0.00024,274897817.95725,   0.00004,   0.00021,   0.00009,  -1.37549,   1.00000
349391187.74139,530876188.16942,48714793.38772,   0.00060,   0.00196,   0.00073,474910160.54926,   0.00025,274910164.15141,   0.00005,   0.00022,   0.00009,  -3.60215,   1.00000
350319893.67979,530750930.49135,48522611.40107,   0.00061,   0.00197,   0.00073,474922414.75488,   0.00026,274922423.11824,   0.00005,   0.00023,   0.00010,  -8.36336,   1.00000
351257488.40880,530621830.25592,48326825.51230,   0.00061,   0.00197,   0.00073,474934632.03805,   0.00027,274934639.03422,   0.00005,   0.00024,   0.00010,  -6.99617,   1.00000
352187567.27766,530490987.40517,48131997.24437,   0.00062,   0.00198,   0.00073,474946846.94428,   0.00028,274946848.51368,   0.00005,   0.00025,   0.00011,  -1.56940,   1.00000
353112766.37985,530356938.33987,47939984.51017,   0.00063,   0.00199,   0.00073,474958975.60130,   0.00029,274958979.20538,   0.00006,   0.00026,   0.00011,  -3.60407,   1.00000
354046849.49733,530218939.18838,47744336.83866,   0.00063,   0.00200,   0.00073,474971067.80315,   0.00030,274971067.84022,   0.00006,   0.00027,   0.00011,  -0.03707,   1.00000
354974568.82223,530081063.71566,47544352.39422,   0.00064,   0.00200,   0.00074,474983134.35418,   0.00031,274983142.71347,   0.00006,   0.00028,   0.00012,  -8.35930,   1.00000
355897533.40138,529939986.64192,47347188.92618,   0.00065,   0.00201,   0.00074,474995135.26376,   0.00032,274995139.27542,   0.00006,   0.00029,   0.00012,  -4.01166,   1.00000
356815824.24462,529795710.12400,47152815.52806,   0.00066,   0.00202,   0.00074,475007050.41575,   0.00033,275007057.89178,   0.00007,   0.00030,   0.00013,  -7.47603,   1.00000
357730675.25441,529650089.80340,46955912.78176,   0.00066,   0.00203,   0.00074,475018886.58063,   0.00035,275018891.24384,   0.00007,   0.00031,   0.00013,  -4.66321,   1.00000
358651694.83272,529501882.35280,46753537.55154,   0.00067,   0.00203,   0.00074,475030750.49868,   0.00036,275030755.86562,   0.00007,   0.00032,   0.00013,  -5.36694,   1.00000
359568151.82992,529350463.85067,46553956.02031,   0.00068,   0.00204,   0.00074,475042539.03796,   0.00037,275042543.07275,   0.00007,   0.00033,   0.00014,  -4.03479,   1.00000
360480138.56146,529195856.78362,46357139.66000,   0.00068,   0.00205,   0.00074,475054252.21452,   0.00038,275054253.13924,   0.00008,   0.00034,   0.00014,  -0.92472,   1.00000
361388867.53509,529039859.54038,46157760.21994,   0.00069,   0.00205,   0.00075,475065876.82778,   0.00039,275065879.00323,   0.00008,   0.00035,   0.00015,  -2.17546,   1.00000
362303658.51879,528881167.88318,45952913.04362,   0.00070,   0.00206,   0.00075,475077529.80266,   0.00040,275077536.96353,   0.00008,   0.00036,   0.00015,  -7.16087,   1.00000
363214084.86736,528719271.60375,45750834.04093,   0.00071,   0.00207,   0.00075,475089117.60876,   0.00041,275089118.32411,   0.00008,   0.00037,   0.00015,  -0.71535,   1.00000
364108169.54437,528557138.45536,45552617.32213,   0.00071,   0.00208,   0.00075,475100577.13412,   0.00042,275100578.37276,   0.00009,   0.00038,   0.00016,  -1.23864,   1.00000
365008340.37951,528392279.10611,45348922.93776,   0.00072,   0.00208,   0.00075,475112065.44828,   0.00043,275112071.08522,   0.00009,   0.00039,   0.00016,  -5.63694,   1.00000
365920493.05120,528221299.89350,45143278.77656,   0.00073,   0.00209,   0.00075,475123454.75143,   0.00044,275123455.22995,   0.00009,   0.00040,   0.00016,  -0.47852,   1.00000
366813481.95784,528051807.73887,44939735.74259,   0.00073,   0.00210,   0.00075,475134780.34905,   0.00045,275134789.13502,   0.00009,   0.00041,   0.00017,  -8.78597,   1.00000
367714392.39004,527876074.19866,44737781.87726,   0.00074,   0.00210,   0.00075,475146084.46546,   0.00046,275146092.90229,   0.00010,   0.00042,   0.00017,  -8.43683,   1.00000
368597456.61420,527703691.84033,44532595.17196,   0.00075,   0.00211,   0.00075,475157330.62255,   0.00047,275157339.31974,   0.00010,   0.00043,   0.00018,  -8.69719,   1.00000
369489614.60084,527526729.63599,44323680.19642,   0.00076,   0.00212,   0.00075,475168542.34255,   0.00048,275168549.10753,   0.00010,   0.00044,   0.00018,  -6.76499,   1.00000
370381049.97327,527344819.61300,44119175.41686,   0.00076,   0.00212,   0.00076,475179605.92194,   0.00049,275179614.03608,   0.00011,   0.00045,   0.00018,  -8.11414,   1.00000
371274026.11575,527160031.27424,43912829.06935,   0.00077,   0.00213,   0.00076,475190786.41466,   0.00050,275190789.93489,   0.00011,   0.00045,   0.00019,  -3.52023,   1.00000
372156909.96245,526976858.83722,43701315.66315,   0.00078,   0.00214,   0.00076,475201758.14935,   0.00051,275201762.20361,   0.00011,   0.00046,   0.00019,  -4.05426,   1.00000
373043404.21323,526787329.43770,43495019.76951,   0.00078,   0.00214,   0.00076,475212777.02468,   0.00052,275212782.58732,   0.00011,   0.00047,   0.00019,  -5.56264,   1.00000
373915722.42549,526599556.22874,43287156.54781,   0.00079,   0.00215,   0.00076,475223674.03892,   0.00053,275223676.35715,   0.00012,   0.00048,   0.00020,  -2.31823,   1.00000
374797167.07069,526406946.60728,43075510.74033,   0.00080,   0.00215,   0.00076,475234527.83073,   0.00054,275234535.59189,   0.00012,   0.00049,   0.00020,  -7.76116,   1.00000
375675047.40749,526211119.52898,42866517.92403,   0.00081,   0.00216,   0.00076,475245317.03317,   0.00055,275245321.29778,   0.00012,   0.00050,   0.00020,  -4.26461,   1.00000
376547172.37046,526015563.43405,42653178.34659,   0.00081,   0.00217,   0.00076,475256092.89128,   0.00056,275256096.27529,   0.00013,   0.00051,   0.00021,  -3.38401,   1.00000
377419248.63424,525814919.54546,42444117.43947,   0.00082,   0.00217,   0.00076,475266721.23804,   0.00057,275266729.10459,   0.00013,   0.00052,   0.00021,  -7.86655,   1.00000
378285658.08663,525614566.93504,42230698.05130,   0.00083,   0.00218,   0.00076,475277345.67209,   0.00058,275277351.49685,   0.00013,   0.00053,   0.00021,  -5.82476,   1.00000
379156657.18079,525409441.81910,42017187.21494,   0.00084,   0.00219,   0.00076,475288014.46090,   0.00059,275288016.27461,   0.00014,   0.00053,   0.00022,  -1.81371,   1.00000
380017580.78150,525204234.89512,41803653.91084,   0.00084,   0.00219,   0.00076,475298478.57387,   0.00060,275298487.11259,   0.00014,   0.00054,   0.00022,  -8.53872,   1.00000
380883096.21213,524994237.03770,41590025.36206,   0.00085,   0.00220,   0.00076,475308996.37535,   0.00061,275309000.68451,   0.00014,   0.00055,   0.00022,  -4.30916,   1.00000
381735291.28652,524786103.41052,41374731.16180,   0.00086,   0.00220,   0.00076,475319383.18777,   0.00062,275319389.38634,   0.00014,   0.00056,   0.00023,  -6.19857,   1.00000
382595612.71929,524571193.87257,41160937.67738,   0.00087,   0.00221,   0.00076,475329750.12071,   0.00063,275329752.79566,   0.00015,   0.00057,   0.00023,  -2.67495,   1.00000
383453925.95420,524354588.39803,40944363.28407,   0.00087,   0.00221,   0.00076,475340030.76182,   0.00064,275340038.41750,   0.00015,   0.00058,   0.00023,  -7.65568,   1.00000
384305622.73026,524136709.21388,40728785.80092,   0.00088,   0.00222,   0.00076,475350312.03931,   0.00065,275350320.78639,   0.00015,   0.00058,   0.00023,  -8.74708,   1.00000
385159069.72063,523915115.57931,40511972.32668,   0.00089,   0.00223,   0.00076,475360451.12823,   0.00066,275360457.83175,   0.00016,   0.00059,   0.00024,  -6.70352,   1.00000
386007038.88649,523693805.01422,40290800.87928,   0.00090,   0.00223,   0.00076,475370578.00197,   0.00067,275370585.70404,   0.00016,   0.00060,   0.00024,  -7.70207,   1.00000
386848497.88719,523471253.53822,40070645.16815,   0.00090,   0.00224,   0.00076,475380705.63774,   0.00068,275380710.52868,   0.00016,   0.00061,   0.00024,  -4.89093,   1.00000
387691956.64088,523244885.33533,39849212.75202,   0.00091,   0.00224,   0.00077,475390691.05999,   0.00069,275390691.10020,   0.00017,   0.00062,   0.00025,  -0.04021,   1.00000
388539805.68577,523013547.35578,39627722.89960,   0.00092,   0.00225,   0.00077,475400713.63640,   0.00070,275400715.94638,   0.00017,   0.00063,   0.00025,  -2.30998,   1.00000
389377843.30150,522780537.55007,39411323.60626,   0.00092,   0.00225,   0.00077,475410553.46849,   0.00071,275410556.39822,   0.00017,   0.00063,   0.00025,  -2.92973,   1.00000
390211628.81467,522549339.26510,39185186.69301,   0.00093,   0.00226,   0.00077,475420377.12579,   0.00071,275420382.37628,   0.00018,   0.00064,   0.00026,  -5.25049,   1.00000
391048726.23888,522311643.74835,38964374.72729,   0.00094,   0.00226,   0.00077,475430251.45051,   0.00072,275430258.96177,   0.00018,   0.00065,   0.00026,  -7.51126,   1.00000
391878501.68311,522075255.79091,38737867.52141,   0.00095,   0.00227,   0.00076,475439934.08810,   0.00073,275439940.09578,   0.00018,   0.00066,   0.00026,  -6.00768,   1.00000
392711573.14861,521832355.15582,38516685.22657,   0.00095,   0.00227,   0.00076,475449667.76912,   0.00074,275449672.14295,   0.00019,   0.00067,   0.00026,  -4.37383,   1.00000
393533682.63851,521592909.32851,38288284.32350,   0.00096,   0.00228,   0.00076,475459274.94996,   0.00075,275459276.21997,   0.00019,   0.00067,   0.00027,  -1.27001,   1.00000
394364006.25057,521346178.70844,38061320.02675,   0.00097,   0.00228,   0.00076,475468854.97111,   0.00076,275468859.02669,   0.00019,   0.00068,   0.00027,  -4.05558,   1.00000
395181467.02185,521099973.77913,37837847.33966,   0.00098,   0.00229,   0.00076,475478317.61392,   0.00077,275478325.90064,   0.00019,   0.00069,   0.00027,  -8.28672,   1.00000
396008215.10910,520847878.99645,37610399.70429,   0.00098,   0.00229,   0.00076,475487757.02640,   0.00078,275487766.41007,   0.00020,   0.00070,   0.00028,  -9.38367,   1.00000
396829756.32656,520596059.05991,37378587.88248,   0.00099,   0.00230,   0.00076,475497193.94531,   0.00079,275497199.51984,   0.00020,   0.00070,   0.00028,  -5.57453,   1.00000
397638723.55411,520344797.98600,37150245.89812,   0.00100,   0.00230,   0.00076,475506513.40705,   0.00079,275506517.10688,   0.00020,   0.00071,   0.00028,  -3.69983,   1.00000
398455962.32504,520086093.30237,36923291.85573,   0.00101,   0.00231,   0.00076,475515806.26160,   0.00080,275515814.85489,   0.00021,   0.00072,   0.00028,  -8.59329,   1.00000
399273145.41956,519826749.37460,36687987.95428,   0.00101,   0.00231,   0.00076,475525034.14959,   0.00081,275525034.16094,   0.00021,   0.00073,   0.00029,  -0.01135,   1.00000
400077011.66384,519566577.70666,36461484.03328,   0.00102,   0.00232,   0.00076,475534141.37800,   0.00082,275534144.06034,   0.00021,   0.00073,   0.00029,  -2.68234,   1.00000
400887112.14059,519303999.71944,36224198.59507,   0.00103,   0.00232,   0.00076,475543286.91089,   0.00083,275543289.70970,   0.00022,   0.00074,   0.00029,  -2.79881,   1.00000
401699357.72825,519035510.39476,35990686.47186,   0.00104,   0.00233,   0.00076,475552302.51199,   0.00084,275552303.15516,   0.00022,   0.00075,   0.00029,  -0.64316,   1.00000
402505550.84616,518765897.73299,35758172.75283,   0.00104,   0.00233,   0.00076,475561313.02003,   0.00084,275561315.68493,   0.00022,   0.00076,   0.00030,  -2.66491,   1.00000
403300833.86154,518498266.88905,35523627.98481,   0.00105,   0.00234,   0.00076,475570201.34135,   0.00085,275570208.57471,   0.00023,   0.00076,   0.00030,  -7.23335,   1.00000
404101247.51922,518226737.97331,35283710.57514,   0.00106,   0.00234,   0.00076,475579141.23736,   0.00086,275579143.41809,   0.00023,   0.00077,   0.00030,  -2.18073,   1.00000
404894122.70548,517953357.57993,35048476.61640,   0.00107,   0.00234,   0.00076,475587897.29079,   0.00087,275587899.18989,   0.00023,   0.00078,   0.00030,  -1.89911,   1.00000
405691081.55260,517674683.25429,34813247.10074,   0.00107,   0.00235,   0.00076,475596694.38823,   0.00088,275596702.67108,   0.00024,   0.00078,   0.00030,  -8.28285,   1.00000
406488341.32089,517395056.43992,34569558.65305,   0.00108,   0.00235,   0.00076,475605425.65743,   0.00088,275605430.44977,   0.00024,   0.00079,   0.00031,  -4.79234,   1.00000
407273147.03972,517114755.32848,34334564.84413,   0.00109,   0.00236,   0.00076,475614044.91865,   0.00089,275614049.87538,   0.00024,   0.00080,   0.00031,  -4.95674,   1.00000
408068215.43707,516829147.09464,34090096.46207,   0.00110,   0.00236,   0.00075,475622636.15830,   0.00090,275622642.72290,   0.00025,   0.00081,   0.00031,  -6.56460,   1.00000
408851983.12097,516544171.83029,33848898.93043,   0.00110,   0.00236,   0.00075,475631117.99776,   0.00091,275631122.46010,   0.00025,   0.00081,   0.00031,  -4.46233,   1.00000
409639727.27190,516253816.74229,33607735.08825,   0.00111,   0.00237,   0.00075,475639649.67218,   0.00092,275639650.69582,   0.00025,   0.00082,   0.00032,  -1.02364,   1.00000
410417309.30398,515965380.55700,33364402.56371,   0.00112,   0.00237,   0.00075,475648051.19199,   0.00092,275648061.17964,   0.00026,   0.00083,   0.00032,  -9.98765,   1.00000
411194547.54593,515674522.67945,33117933.99271,   0.00113,   0.00238,   0.00075,475656398.98342,   0.00093,275656402.65883,   0.00026,   0.00083,   0.00032,  -3.67541,   1.00000
411980067.55977,515375535.81774,32872769.38426,   0.00113,   0.00238,   0.00075,475664722.07018,   0.00094,275664729.17844,   0.00026,   0.00084,   0.00032,  -7.10826,   1.00000
412755663.90578,515078431.79919,32625386.20241,   0.00114,   0.00238,   0.00075,475672930.05253,   0.00095,275672938.61708,   0.00027,   0.00085,   0.00032,  -8.56455,   1.00000
413525632.77324,514780287.28660,32379005.58446,   0.00115,   0.00239,   0.00075,475681142.26645,   0.00095,275681148.50239,   0.00027,   0.00085,   0.00033,  -6.23594,   1.00000
414299836.95244,514476839.52761,32130651.03598,   0.00115,   0.00239,   0.00075,475689225.00413,   0.00096,275689226.89645,   0.00027,   0.00086,   0.00033,  -1.89233,   1.00000
415069360.26535,514173529.81487,31877886.95007,   0.00116,   0.00239,   0.00075,475697291.91676,   0.00097,275697301.38150,   0.00028,   0.00086,   0.00033,  -9.46474,   1.00000
415837803.13076,513866395.20706,31627331.85933,   0.00117,   0.00240,   0.00074,475705310.15715,   0.00098,275705313.18997,   0.00028,   0.00087,   0.00033,  -3.03282,   1.00000
416605189.68497,513555397.72995,31378957.17077,   0.00118,   0.00240,   0.00074,475713257.73449,   0.00098,275713262.67511,   0.00028,   0.00088,   0.00033,  -4.94062,   1.00000
417372484.94256,513241706.32757,31127331.50450,   0.00118,   0.00240,   0.00074,475721143.37586,   0.00099,275721145.45879,   0.00029,   0.00088,   0.00034,  -2.08293,   1.00000
418125933.97919,512932675.86333,30872196.48689,   0.00119,   0.00241,   0.00074,475728966.97412,   0.00100,275728975.70352,   0.00029,   0.00089,   0.00034,  -8.72940,   1.00000
418888627.12862,512616334.57758,30612907.68699,   0.00120,   0.00241,   0.00074,475736782.40147,   0.00101,275736788.86453,   0.00029,   0.00090,   0.00034,  -6.46306,   1.00000
419650395.53804,512296024.94889,30355779.36836,   0.00121,   0.00241,   0.00074,475744534.57132,   0.00101,275744540.57463,   0.00030,   0.00090,   0.00034,  -6.00331,   1.00000
420402195.04946,511976339.15567,30101676.33261,   0.00121,   0.00242,   0.00074,475752176.47144,   0.00102,275752181.70457,   0.00030,   0.00091,   0.00034,  -5.23313,   1.00000
421163184.27294,511649173.00573,29843374.02307,   0.00122,   0.00242,   0.00073,475759802.85213,   0.00103,275759806.86297,   0.00030,   0.00091,   0.00035,  -4.01083,   1.00000
421915229.04498,511323712.13928,29582640.43166,   0.00123,   0.00242,   0.00073,475767312.68270,   0.00103,275767317.54052,   0.00031,   0.00092,   0.00035,  -4.85782,   1.00000
422661925.64111,510997213.95451,29322901.07266,   0.00124,   0.00243,   0.00073,475774828.24401,   0.00104,275774830.02901,   0.00031,   0.00093,   0.00035,  -1.78500,   1.00000
423413511.37717,510664698.70559,29060912.77731,   0.00124,   0.00243,   0.00073,475782211.58411,   0.00105,275782215.69309,   0.00031,   0.00093,   0.00035,  -4.10897,   1.00000
424159768.65326,510331134.38481,28799909.18650,   0.00125,   0.00243,   0.00073,475789601.05987,   0.00106,275789603.47004,   0.00032,   0.00094,   0.00035,  -2.41017,   1.00000
424906283.94024,509994511.89892,28535535.79762,   0.00126,   0.00243,   0.00073,475796920.78428,   0.00106,275796927.24875,   0.00032,   0.00094,   0.00035,  -6.46446,   1.00000
425648349.45303,509657903.82886,28266731.80932,   0.00127,   0.00244,   0.00072,475804240.37456,   0.00107,275804249.18503,   0.00032,   0.00095,   0.00036,  -8.81047,   1.00000
426385886.62512,509318726.08836,28001875.80283,   0.00127,   0.00244,   0.00072,475811399.19597,   0.00108,275811400.03028,   0.00033,   0.00095,   0.00036,  -0.83431,   1.00000
427132523.06914,508971603.01749,27732764.11971,   0.00128,   0.00244,   0.00072,475818535.35918,   0.00108,275818537.60264,   0.00033,   0.00096,   0.00036,  -2.24346,   1.00000
427865225.50292,508628184.11770,27465471.80898,   0.00129,   0.00244,   0.00072,475825624.15652,   0.00109,275825627.99779,   0.00033,   0.00096,   0.00036,  -3.84127,   1.00000
428598391.10916,508281528.57604,27194744.54284,   0.00129,   0.00245,   0.00072,475832649.32854,   0.00109,275832655.67416,   0.00034,   0.00097,   0.00036,  -6.34563,   1.00000
429340590.83605,507926769.46615,26919757.59413,   0.00130,   0.00245,   0.00071,475839665.03698,   0.00110,275839670.97632,   0.00034,   0.00098,   0.00036,  -5.93934,   1.00000
430073835.60969,507572471.33048,26647573.39157,   0.00131,   0.00245,   0.00071,475846569.42816,   0.00111,275846578.08057,   0.00034,   0.00098,   0.00036,  -8.65241,   1.00000
430793467.97657,507221964.15903,26377171.83870,   0.00132,   0.00245,   0.00071,475853432.88170,   0.00111,275853438.13230,   0.00034,   0.00099,   0.00037,  -5.25061,   1.00000
431527825.40220,506860861.24349,26098011.63748,   0.00132,   0.00246,   0.00071,475860221.23859,   0.00112,275860221.90144,   0.00035,   0.00099,   0.00037,  -0.66284,   1.00000
432257020.98473,506498644.69007,25819838.99581,   0.00133,   0.00246,   0.00070,475867004.77575,   0.00113,275867009.16924,   0.00035,   0.00100,   0.00037,  -4.39349,   1.00000
432977638.89078,506136860.95147,25544387.00277,   0.00134,   0.00246,   0.00070,475873682.71940,   0.00113,275873688.82055,   0.00035,   0.00100,   0.00037,  -6.10115,   1.00000
433707228.07003,505766647.83308,25264620.91666,   0.00134,   0.00246,   0.00070,475880356.88472,   0.00114,275880358.02581,   0.00036,   0.00101,   0.00037,  -1.14109,   1.00000
434429123.97393,505397733.66937,24982090.15157,   0.00135,   0.00246,   0.00070,475886911.71697,   0.00115,275886916.49948,   0.00036,   0.00101,   0.00037,  -4.78251,   1.00000
435145996.45935,505027727.05534,24700535.92665,   0.00136,   0.00247,   0.00070,475893474.66149,   0.00115,275893478.80296,   0.00036,   0.00102,   0.00037,  -4.14147,   1.00000
435868516.48275,504650553.33435,24416320.96840,   0.00137,   0.00247,   0.00069,475899912.59339,   0.00116,275899920.83495,   0.00037,   0.00102,   0.00038,  -8.24156,   1.00000
436577898.79142,504277238.13872,24133822.86695,   0.00137,   0.00247,   0.00069,475906316.20259,   0.00116,275906316.40742,   0.00037,   0.00103,   0.00038,  -0.20483,   1.00000
437296166.37980,503895182.86722,23846976.18834,   0.00138,   0.00247,   0.00069,475912697.39539,   0.00117,275912703.21819,   0.00037,   0.00103,   0.00038,  -5.82280,   1.00000
438007121.32755,503514297.71605,23557259.76158,   0.00139,   0.00247,   0.00069,475918975.99349,   0.00118,275918980.29752,   0.00038,   0.00104,   0.00038,  -4.30403,   1.00000
438726155.00082,503123674.56704,23268642.39779,   0.00139,   0.00248,   0.00068,475925251.39571,   0.00118,275925252.66423,   0.00038,   0.00104,   0.00038,  -1.26851,   1.00000
439432941.62436,502737766.27677,22976258.99374,   0.00140,   0.00248,   0.00068,475931467.50029,   0.00119,275931475.66659,   0.00038,   0.00105,   0.00038,  -8.16630,   1.00000
440140575.34844,502347914.86572,22680235.28545,   0.00141,   0.00248,   0.00068,475937635.18103,   0.00119,275937640.33032,   0.00039,   0.00105,   0.00038,  -5.14929,   1.00000
440845517.70660,501954564.96733,22387539.08559,   0.00142,   0.00248,   0.00067,475943632.62287,   0.00120,275943639.78507,   0.00039,   0.00106,   0.00038,  -7.16220,   1.00000
441553454.00559,501555009.05904,22095088.75275,   0.00142,   0.00248,   0.00067,475949694.89814,   0.00120,275949695.15202,   0.00039,   0.00106,   0.00038,  -0.25388,   1.00000
442254460.82391,501156407.66269,21799622.73403,   0.00143,   0.00248,   0.00067,475955635.38501,   0.00121,275955642.19429,   0.00040,   0.00106,   0.00039,  -6.80928,   1.00000
442959065.87566,500752363.97240,21498969.67784,   0.00144,   0.00248,   0.00067,475961638.97605,   0.00121,275961642.38035,   0.00040,   0.00107,   0.00039,  -3.40430,   1.00000
443661932.80939,500345380.34413,21196059.30004,   0.00144,   0.00248,   0.00066,475967467.93211,   0.00122,275967475.51886,   0.00040,   0.00107,   0.00039,  -7.58675,   1.00000
444359960.28164,499937199.28028,20894105.46551,   0.00145,   0.00249,   0.00066,475973312.73909,   0.00123,275973314.16867,   0.00040,   0.00108,   0.00039,  -1.42958,   1.00000
445050680.95233,499529077.78804,20594516.09350,   0.00146,   0.00249,   0.00066,475979048.09584,   0.00123,275979048.22494,   0.00041,   0.00108,   0.00039,  -0.12910,   1.00000
445750649.74789,499112218.16292,20285034.68721,   0.00147,   0.00249,   0.00065,475984769.10898,   0.00124,275984774.63074,   0.00041,   0.00109,   0.00039,  -5.52176,   1.00000
446442763.17234,498694605.21316,19983347.27580,   0.00147,   0.00249,   0.00065,475990393.84445,   0.00124,275990399.73354,   0.00041,   0.00109,   0.00039,  -5.88909,   1.00000
447136554.31625,498273257.80567,19672376.90001,   0.00148,   0.00249,   0.00065,475995963.51819,   0.00125,275995966.58667,   0.00042,   0.00109,   0.00039,  -3.06848,   1.00000
447825567.86698,497850657.51978,19362353.39266,   0.00149,   0.00249,   0.00065,476001539.07128,   0.00125,276001539.62189,   0.00042,   0.00110,   0.00039,  -0.55062,   1.00000
448515610.87255,497423481.84238,19048505.92226,   0.00149,   0.00249,   0.00064,476007051.83569,   0.00126,276007057.78714,   0.00042,   0.00110,   0.00039,  -5.95146,   1.00000
449206074.89364,496990987.89482,18736291.71942,   0.00150,   0.00249,   0.00064,476012515.30024,   0.00126,276012524.04371,   0.00043,   0.00111,   0.00040,  -8.74347,   1.00000
449890275.18087,496559013.63542,18420812.21054,   0.00151,   0.00249,   0.00064,476017879.29069,   0.00127,276017884.38991,   0.00043,   0.00111,   0.00040,  -5.09922,   1.00000
450574984.90908,496121631.52416,18106922.25270,   0.00151,   0.00249,   0.00063,476023188.04376,   0.00127,276023193.29829,   0.00043,   0.00111,   0.00040,  -5.25453,   1.00000
451260793.60311,495679450.20832,17789127.23764,   0.00152,   0.00249,   0.00063,476028442.71325,   0.00128,276028448.50673,   0.00043,   0.00112,   0.00040,  -5.79348,   1.00000
451942448.34205,495236587.95766,17466785.56728,   0.00153,   0.00249,   0.00063,476033700.89666,   0.00128,276033708.24515,   0.00044,   0.00112,   0.00040,  -7.34850,   1.00000
452617507.16365,494793432.72166,17146563.15774,   0.00153,   0.00249,   0.00062,476038856.25069,   0.00129,276038865.38473,   0.00044,   0.00113,   0.00040,  -9.13404,   1.00000
453300820.23549,494340079.40810,16821847.86207,   0.00154,   0.00250,   0.00062,476044018.93196,   0.00129,276044021.46822,   0.00044,   0.00113,   0.00040,  -2.53626,   1.00000
453978146.56274,493886926.85531,16493724.08865,   0.00155,   0.00250,   0.00061,476049063.87128,   0.00130,276049073.15013,   0.00045,   0.00113,   0.00040,  -9.27886,   1.00000
454650807.84680,493432419.67046,16166527.41360,   0.00155,   0.00250,   0.00061,476054126.61006,   0.00130,276054132.29278,   0.00045,   0.00114,   0.00040,  -5.68273,   1.00000
455329887.19025,492968415.29830,15835923.10080,   0.00156,   0.00250,   0.00061,476059073.12605,   0.00131,276059082.03419,   0.00045,   0.00114,   0.00040,  -8.90813,   1.00000
455997372.04357,492508302.86915,15506744.85568,   0.00157,   0.00250,   0.00060,476063984.45564,   0.00131,276063987.44748,   0.00045,   0.00114,   0.00040,  -2.99184,   1.00000
456666054.23251,492042936.57157,15173542.27356,   0.00158,   0.00250,   0.00060,476068838.84217,   0.00131,276068841.35162,   0.00046,   0.00115,   0.00040,  -2.50946,   1.00000
457342238.40282,491566398.93842,14841296.35582,   0.00158,   0.00250,   0.00060,476073694.51697,   0.00132,276073698.47792,   0.00046,   0.00115,   0.00040,  -3.96094,   1.00000
458006435.89744,491095604.71913,14500476.06390,   0.00159,   0.00250,   0.00059,476078388.62298,   0.00132,276078398.16807,   0.00046,   0.00115,   0.00040,  -9.54508,   1.00000
458672316.16657,490617531.80234,14165577.73233,   0.00160,   0.00250,   0.00059,476083151.60610,   0.00133,276083160.52139,   0.00047,   0.00116,   0.00040,  -8.91529,   1.00000
459339810.80954,490134461.74995,13821115.23083,   0.00160,   0.00250,   0.00058,476087860.73232,   0.00133,276087870.62291,   0.00047,   0.00116,   0.00041,  -9.89059,   1.00000
460001324.14835,489650650.40548,13478505.14113,   0.00161,   0.00250,   0.00058,476092470.43683,   0.00134,276092480.18985,   0.00047,   0.00116,   0.00041,  -9.75303,   1.00000
460663586.82410,489160729.74566,13137265.15896,   0.00162,   0.00250,   0.00058,476097034.92082,   0.00134,276097041.87794,   0.00047,   0.00117,   0.00041,  -6.95713,   1.00000
461327442.47245,488665555.13235,12786399.65722,   0.00162,   0.00249,   0.00057,476101542.97794,   0.00134,276101552.41245,   0.00048,   0.00117,   0.00041,  -9.43451,   1.00000
461979726.47704,488173758.99692,12442342.26432,   0.00163,   0.00249,   0.00057,476106020.37507,   0.00135,276106021.06361,   0.00048,   0.00117,   0.00041,  -0.68855,   1.00000
462639000.36211,487671833.33793,12089053.87472,   0.00164,   0.00249,   0.00056,476110373.62966,   0.00135,276110382.84399,   0.00048,   0.00118,   0.00041,  -9.21433,   1.00000
463293674.10276,487168331.13983,11736652.54338,   0.00164,   0.00249,   0.00056,476114747.01766,   0.00136,276114754.00278,   0.00048,   0.00118,   0.00041,  -6.98512,   1.00000
463949509.82655,486658850.69884,11380055.67990,   0.00165,   0.00249,   0.00056,476119067.46020,   0.00136,276119076.95744,   0.00049,   0.00118,   0.00041,  -9.49724,   1.00000
464600732.26096,486147782.34832,11024351.77880,   0.00166,   0.00249,   0.00055,476123408.40371,   0.00136,276123409.53266,   0.00049,   0.00119,   0.00041,  -1.12895,   1.00000
465252175.50134,485631113.17029,10665165.75457,   0.00166,   0.00249,   0.00055,476127577.73085,   0.00137,276127585.56735,   0.00049,   0.00119,   0.00041,  -7.83650,   1.00000
465905295.14311,485107416.60257,10306505.30184,   0.00167,   0.00249,   0.00054,476131817.60042,   0.00137,276131824.62297,   0.00049,   0.00119,   0.00041,  -7.02255,   1.00000
466547082.33299,484588279.39833,9944261.62192,   0.00167,   0.00249,   0.00054,476135902.54802,   0.00138,276135910.34029,   0.00050,   0.00119,   0.00041,  -7.79226,   1.00000
467196248.94999,484057435.51029,9577405.30880,   0.00168,   0.00249,   0.00053,476139998.14795,   0.00138,276140002.42387,   0.00050,   0.00120,   0.00041,  -4.27592,   1.00000
467841090.01543,483525218.56227,9205936.08225,   0.00169,   0.00249,   0.00053,476144101.05329,   0.00138,276144103.67469,   0.00050,   0.00120,   0.00041,  -2.62140,   1.00000
468486031.87007,482986559.73013,8836285.15289,   0.00169,   0.00249,   0.00053,476148046.23003,   0.00139,276148051.31012,   0.00050,   0.00120,   0.00041,  -5.08009,   1.00000
469126375.75102,482446163.94195,8467494.52781,   0.00170,   0.00249,   0.00052,476152005.70118,   0.00139,276152009.64576,   0.00051,   0.00121,   0.00041,  -3.94458,   1.00000
469767827.26058,481899178.83045,8094355.81815,   0.00171,   0.00249,   0.00052,476155915.30200,   0.00140,276155922.39529,   0.00051,   0.00121,   0.00041,  -7.09330,   1.00000
470398974.24245,481356139.45641,7716850.06567,   0.00171,   0.00248,   0.00051,476159787.29827,   0.00140,276159791.43135,   0.00051,   0.00121,   0.00041,  -4.13307,   1.00000
471036672.07511,480801141.84283,7335230.79433,   0.00172,   0.00248,   0.00051,476163555.39438,   0.00140,276163560.36749,   0.00051,   0.00121,   0.00041,  -4.97311,   1.00000
471669753.41782,480244315.32747,6954470.09807,   0.00173,   0.00248,   0.00050,476167339.14223,   0.00141,276167340.63965,   0.00052,   0.00122,   0.00041,  -1.49742,   1.00000
472303655.37355,479680362.15374,6574801.17630,   0.00173,   0.00248,   0.00050,476171070.40492,   0.00141,276171077.47857,   0.00052,   0.00122,   0.00041,  -7.07365,   1.00000
472938592.81947,479109454.19042,6190701.46619,   0.00174,   0.00248,   0.00049,476174763.03907,   0.00141,276174770.23613,   0.00052,   0.00122,   0.00041,  -7.19707,   1.00000
473568773.82310,478536926.55786,5802358.09895,   0.00175,   0.00248,   0.00049,476178359.60825,   0.00142,276178365.38974,   0.00052,   0.00122,   0.00041,  -5.78149,   1.00000
474194515.41727,477962680.71108,5409358.63707,   0.00175,   0.00248,   0.00048,476181965.55477,   0.00142,276181971.71724,   0.00053,   0.00123,   0.00041,  -6.16247,   1.00000
474821066.32513,477381059.50540,5017393.93009,   0.00176,   0.00247,   0.00048,476185531.07839,   0.00142,276185535.59889,   0.00053,   0.00123,   0.00041,  -4.52050,   1.00000
475448563.36137,476792154.31151,4620939.06789,   0.00176,   0.00247,   0.00047,476189047.81571,   0.00143,276189056.69463,   0.00053,   0.00123,   0.00041,  -8.87892,   1.00000
476065807.84083,476206732.03943,4225483.52909,   0.00177,   0.00247,   0.00047,476192531.00021,   0.00143,276192535.97459,   0.00053,   0.00123,   0.00041,  -4.97438,   1.00000
476689470.52979,475608312.59189,3825634.64274,   0.00178,   0.00247,   0.00046,476195915.61955,   0.00143,276195918.68453,   0.00054,   0.00124,   0.00041,  -3.06498,   1.00000
477308451.53370,475007862.62832,3426618.06060,   0.00178,   0.00247,   0.00046,476199312.49506,   0.00144,276199314.16897,   0.00054,   0.00124,   0.00041,  -1.67391,   1.00000
477922875.04801,474405276.94589,3023145.09013,   0.00179,   0.00247,   0.00045,476202609.83225,   0.00144,276202613.53552,   0.00054,   0.00124,   0.00041,  -3.70327,   1.00000
478538152.79587,473795298.47939,2614903.82972,   0.00180,   0.00246,   0.00045,476205979.35230,   0.00144,276205979.98763,   0.00054,   0.00124,   0.00041,  -0.63533,   1.00000
479154312.58021,473177253.62836,2202243.56485,   0.00180,   0.00246,   0.00044,476209194.10985,   0.00144,276209197.03402,   0.00054,   0.00124,   0.00041,  -2.92416,   1.00000
479765738.84686,472557066.70607,1790413.33530,   0.00181,   0.00246,   0.00044,476212423.13626,   0.00145,276212427.55802,   0.00055,   0.00125,   0.00041,  -4.42175,   1.00000
480372622.46772,471934361.05272,1379513.96572,   0.00181,   0.00246,   0.00043,476215560.52231,   0.00145,276215563.09733,   0.00055,   0.00125,   0.00041,  -2.57502,   1.00000
480980095.57557,471304112.97768,963888.99983,   0.00182,   0.00246,   0.00043,476218761.90509,   0.00145,276218766.91471,   0.00055,   0.00125,   0.00041,  -5.00962,   1.00000
481588534.34794,470665315.90945,543659.46816,   0.00183,   0.00245,   0.00042,476221821.27150,   0.00146,276221822.49465,   0.00055,   0.00125,   0.00041,  -1.22315,   1.00000
482192195.19961,470024277.01108,118742.17597,   0.00183,   0.00245,   0.00042,476224882.23657,   0.00146,276224892.20625,   0.00055,   0.00125,   0.00041,  -9.96968,   1.00000
482791418.52537,469380426.99850,-305362.64882,   0.00184,   0.00245,   0.00041,476227862.06964,   0.00146,276227867.64274,   0.00056,   0.00126,   0.00041,  -5.57310,   1.00000
483385901.82892,468734323.36831,-728657.20563,   0.00184,   0.00245,   0.00040,476230852.83811,   0.00146,276230857.33386,   0.00056,   0.00126,   0.00041,  -4.49575,   1.00000
483991463.35780,468068258.12217,-1162182.73080,   0.00185,   0.00245,   0.00040,476233809.87805,   0.00147,276233810.62960,   0.00056,   0.00126,   0.00041,  -0.75155,   1.00000
484582200.58784,467410726.21963,-1589485.45393,   0.00186,   0.00244,   0.00039,476236660.93012,   0.00147,276236667.96527,   0.00056,   0.00126,   0.00041,  -7.03515,   1.00000
485173009.95407,466745349.77008,-2026930.90146,   0.00186,   0.00244,   0.00039,476239593.31046,   0.00147,276239595.87952,   0.00056,   0.00126,   0.00041,  -2.56906,   1.00000
485764909.99345,466070553.57839,-2463791.33929,   0.00187,   0.00244,   0.00038,476242374.20404,   0.00148,276242377.46839,   0.00057,   0.00126,   0.00041,  -3.26435,   1.00000
486351863.65339,465393254.10002,-2905356.10123,   0.00187,   0.00244,   0.00038,476245171.16701,   0.00148,276245174.65112,   0.00057,   0.00127,   0.00041,  -3.48411,   1.00000
486939364.84707,464707203.32482,-3346215.80514,   0.00188,   0.00243,   0.00037,476247930.08835,   0.00148,276247934.45255,   0.00057,   0.00127,   0.00041,  -4.36420,   1.00000
487527251.83783,464012204.80129,-3791897.10585,   0.00189,   0.00243,   0.00036,476250656.60228,   0.00148,276250657.65243,   0.00057,   0.00127,   0.00041,  -1.05015,   1.00000
488105457.17894,463320114.25933,-4236916.49398,   0.00189,   0.00243,   0.00036,476253339.93425,   0.00149,276253340.75941,   0.00057,   0.00127,   0.00041,  -0.82516,   1.00000
488684013.41905,462618917.88001,-4686792.59688,   0.00190,   0.00243,   0.00035,476255978.18104,   0.00149,276255987.76164,   0.00058,   0.00127,   0.00041,  -9.58060,   1.00000
489262856.59489,461908513.25424,-5141537.36814,   0.00190,   0.00242,   0.00035,476258590.47306,   0.00149,276258599.05313,   0.00058,   0.00127,   0.00041,  -8.58007,   1.00000
489836715.99377,461195544.05668,-5595472.80721,   0.00191,   0.00242,   0.00034,476261226.01932,   0.00149,276261226.64868,   0.00058,   0.00128,   0.00041,  -0.62936,   1.00000
490406173.16220,460478565.28498,-6054511.77878,   0.00192,   0.00242,   0.00033,476263754.73735,   0.00150,276263762.92871,   0.00058,   0.00128,   0.00041,  -8.19136,   1.00000
490975805.92745,459752110.19492,-6518466.27265,   0.00192,   0.00241,   0.00033,476266262.93769,   0.00150,276266264.40610,   0.00058,   0.00128,   0.00041,  -1.46841,   1.00000
491545749.63959,459016261.50197,-6981844.84582,   0.00193,   0.00241,   0.00032,476268725.01519,   0.00150,276268730.69600,   0.00059,   0.00128,   0.00041,  -5.68081,   1.00000
492105913.98282,458282837.60106,-7450192.83353,   0.00193,   0.00241,   0.00032,476271153.10085,   0.00150,276271158.39773,   0.00059,   0.00128,   0.00041,  -5.29688,   1.00000
492670797.60013,457534557.25338,-7917715.98155,   0.00194,   0.00240,   0.00031,476273599.22259,   0.00150,276273607.95119,   0.00059,   0.00128,   0.00041,  -8.72859,   1.00000
493225890.26345,456788624.61311,-8390230.42180,   0.00194,   0.00240,   0.00030,476276010.59122,   0.00151,276276019.20238,   0.00059,   0.00128,   0.00041,  -8.61116,   1.00000
493786558.64278,456026134.85898,-8862514.09539,   0.00195,   0.00240,   0.00030,476278340.73763,   0.00151,276278344.30157,   0.00059,   0.00129,   0.00041,  -3.56394,   1.00000
494337430.40161,455265838.95500,-9339842.02638,   0.00196,   0.00240,   0.00029,476280623.35566,   0.00151,276280631.44151,   0.00059,   0.00129,   0.00041,  -8.08586,   1.00000
494882829.65372,454502420.48281,-9821876.43877,   0.00196,   0.00239,   0.00028,476282929.72575,   0.00151,276282937.65656,   0.00060,   0.00129,   0.00041,  -7.93081,   1.00000
495433679.50299,453722047.78504,-10303772.03380,   0.00197,   0.00239,   0.00028,476285153.01311,   0.00152,276285158.72420,   0.00060,   0.00129,   0.00041,  -5.71110,   1.00000
495973615.08880,452945542.72281,-10790022.80477,   0.00197,   0.00239,   0.00027,476287441.62586,   0.00152,276287451.04862,   0.00060,   0.00129,   0.00041,  -9.42276,   1.00000
496518494.82063,452151489.98378,-11281679.09337,   0.00198,   0.00238,   0.00026,476289656.83221,   0.00152,276289660.43724,   0.00060,   0.00129,   0.00041,  -3.60503,   1.00000
497053946.74516,451359729.06837,-11772949.31936,   0.00198,   0.00238,   0.00026,476291825.74487,   0.00152,276291831.08175,   0.00060,   0.00129,   0.00041,  -5.33688,   1.00000
497588951.78905,450557358.90774,-12269306.14751,   0.00199,   0.00237,   0.00025,476293966.25269,   0.00152,276293970.85972,   0.00060,   0.00130,   0.00041,  -4.60703,   1.00000
498123865.53591,449744655.26197,-12765265.27079,   0.00200,   0.00237,   0.00024,476296074.05713,   0.00153,276296078.52246,   0.00061,   0.00130,   0.00041,  -4.46533,   1.00000
498652924.84528,448928492.45507,-13265912.27769,   0.00200,   0.00237,   0.00024,476298203.09478,   0.00153,276298207.26732,   0.00061,   0.00130,   0.00041,  -4.17255,   1.00000
499177864.22167,448107074.62733,-13766680.31243,   0.00201,   0.00236,   0.00023,476300244.03243,   0.00153,276300246.37234,   0.00061,   0.00130,   0.00041,  -2.33991,   1.00000
499702099.58875,447274632.70892,-14272594.87249,   0.00201,   0.00236,   0.00022,476302249.87297,   0.00153,276302256.01175,   0.00061,   0.00130,   0.00041,  -6.13878,   1.00000
500220340.50157,446438586.28677,-14783192.95852,   0.00202,   0.00236,   0.00022,476304279.96605,   0.00153,276304287.51837,   0.00061,   0.00130,   0.00041,  -7.55232,   1.00000
500734447.96031,445596982.14460,-15294013.99355,   0.00202,   0.00235,   0.00021,476306224.60308,   0.00154,276306229.82255,   0.00061,   0.00130,   0.00041,  -5.21947,   1.00000
501246296.91493,444746547.49463,-15808939.67397,   0.00203,   0.00235,   0.00020,476308250.40386,   0.00154,276308252.90214,   0.00061,   0.00130,   0.00041,  -2.49828,   1.00000
501759118.65513,443882667.46837,-16324659.08369,   0.00203,   0.00235,   0.00020,476310133.31630,   0.00154,276310136.49350,   0.00062,   0.00130,   0.00041,  -3.17720,   1.00000
502260602.38214,443022743.93966,-16844524.74870,   0.00204,   0.00234,   0.00019,476312091.12829,   0.00154,276312093.63343,   0.00062,   0.00130,   0.00041,  -2.50514,   1.00000
502762413.25775,442148536.20874,-17370770.28154,   0.00204,   0.00234,   0.00018,476313907.16010,   0.00154,276313913.97270,   0.00062,   0.00131,   0.00041,  -6.81260,   1.00000
503262218.05506,441265890.14814,-17895545.28567,   0.00205,   0.00233,   0.00018,476315805.87374,   0.00154,276315814.38310,   0.00062,   0.00131,   0.00041,  -8.50936,   1.00000
503752044.85283,440384441.76599,-18425637.56874,   0.00206,   0.00233,   0.00017,476317676.07491,   0.00155,276317679.43606,   0.00062,   0.00131,   0.00041,  -3.36115,   1.00000
504246310.39961,439483706.37351,-18956074.83146,   0.00206,   0.00232,   0.00016,476319462.77564,   0.00155,276319465.23130,   0.00062,   0.00131,   0.00041,  -2.45565,   1.00000
504725501.34032,438592022.98630,-19491272.84001,   0.00207,   0.00232,   0.00015,476321262.17040,   0.00155,276321266.23857,   0.00062,   0.00131,   0.00041,  -4.06817,   1.00000
505212538.52373,437675768.43586,-20026137.55917,   0.00207,   0.00232,   0.00015,476323041.52993,   0.00155,276323048.06476,   0.00063,   0.00131,   0.00041,  -6.53483,   1.00000
505689497.04503,436760427.66965,-20566390.78257,   0.00208,   0.00231,   0.00014,476324791.38909,   0.00155,276324795.20724,   0.00063,   0.00131,   0.00041,  -3.81816,   1.00000
506164815.88130,435832755.95471,-21111922.50831,   0.00208,   0.00231,   0.00013,476326511.06396,   0.00155,276326517.50570,   0.00063,   0.00131,   0.00041,  -6.44174,   1.00000
506634211.19181,434901558.68214,-21656600.12605,   0.00209,   0.00230,   0.00012,476328255.04283,   0.00156,276328262.37304,   0.00063,   0.00131,   0.00041,  -7.33022,   1.00000
507098448.91259,433962801.13730,-22207387.83708,   0.00209,   0.00230,   0.00012,476329917.74781,   0.00156,276329922.99868,   0.00063,   0.00131,   0.00041,  -5.25087,   1.00000
507556729.07198,433020470.80081,-22757321.80018,   0.00210,   0.00230,   0.00011,476331601.58075,   0.00156,276331606.46570,   0.00063,   0.00131,   0.00041,  -4.88495,   1.00000
508013089.21574,432065442.56928,-23312566.63877,   0.00210,   0.00229,   0.00010,476333257.86048,   0.00156,276333266.40186,   0.00063,   0.00132,   0.00040,  -8.54138,   1.00000
508467401.82144,431097580.60056,-23873126.74809,   0.00211,   0.00229,   0.00009,476334897.43816,   0.00156,276334903.34709,   0.00064,   0.00132,   0.00040,  -5.90893,   1.00000
508915570.96090,430126040.16592,-24432802.04681,   0.00211,   0.00228,   0.00009,476336556.36184,   0.00156,276336564.05437,   0.00064,   0.00132,   0.00040,  -7.69253,   1.00000
509359247.79111,429147071.67988,-24993272.39578,   0.00212,   0.00228,   0.00008,476338129.70858,   0.00156,276338138.19862,   0.00064,   0.00132,   0.00040,  -8.49003,   1.00000
509795839.20124,428163642.71454,-25558319.84606,   0.00212,   0.00227,   0.00007,476339734.00969,   0.00157,276339739.79998,   0.00064,   0.00132,   0.00040,  -5.79029,   1.00000
510230064.45808,427166995.32840,-26128708.40712,   0.00213,   0.00227,   0.00006,476341311.69057,   0.00157,276341319.83146,   0.00064,   0.00132,   0.00040,  -8.14089,   1.00000
510662787.93169,426157796.10088,-26698992.10441,   0.00213,   0.00226,   0.00006,476342870.67007,   0.00157,276342875.05632,   0.00064,   0.00132,   0.00040,  -4.38626,   1.00000
511085091.33412,425148715.85001,-27274831.72439,   0.00214,   0.00226,   0.00005,476344392.47136,   0.00157,276344397.53582,   0.00064,   0.00132,   0.00040,  -5.06446,   1.00000
511501081.98814,424135835.50493,-27849759.41936,   0.00214,   0.00225,   0.00004,476345937.69963,   0.00157,276345944.84135,   0.00064,   0.00132,   0.00040,  -7.14173,   1.00000
511914388.63866,423109363.85707,-28430050.47061,   0.00215,   0.00225,   0.00003,476347464.63262,   0.00157,276347471.96925,   0.00065,   0.00132,   0.00040,  -7.33663,   1.00000
512324856.43613,422069151.17164,-29015704.79611,   0.00215,   0.00224,   0.00002,476348971.85505,   0.00158,276348979.54966,   0.00065,   0.00132,   0.00040,  -7.69461,   1.00000
512725869.22013,421029667.75857,-29601521.84207,   0.00216,   0.00224,   0.00002,476350444.54430,   0.00158,276350450.86438,   0.00065,   0.00132,   0.00040,  -6.32008,   1.00000
513126812.15175,419971642.53176,-30191586.39153,   0.00216,   0.00223,   0.00001,476351961.70468,   0.00158,276351965.48655,   0.00065,   0.00132,   0.00040,  -3.78187,   1.00000
513518260.75628,418914262.15289,-30781832.18185,   0.00217,   0.00223,   0.00000,476353443.81658,   0.00158,276353444.06451,   0.00065,   0.00132,   0.00040,  -0.24793,   1.00000
513907697.35338,417843675.50952,-31372030.14351,   0.00217,   0.00222,  -0.00001,476354899.47471,   0.00158,276354900.08873,   0.00065,   0.00132,   0.00040,  -0.61402,   1.00000
514285270.34693,416771780.61050,-31973304.19783,   0.00218,   0.00222,  -0.00002,476356321.55856,   0.00158,276356329.12430,   0.00065,   0.00133,   0.00040,  -7.56574,   1.00000
514664720.95881,415682951.44538,-32567897.81647,   0.00218,   0.00221,  -0.00002,476357790.75558,   0.00158,276357794.39177,   0.00065,   0.00133,   0.00040,  -3.63620,   1.00000
515032169.79996,414592670.47061,-33173571.76184,   0.00219,   0.00221,  -0.00003,476359227.12957,   0.00158,276359233.27438,   0.00065,   0.00133,   0.00040,  -6.14481,   1.00000
515397293.70901,413488830.10042,-33779210.88275,   0.00219,   0.00220,  -0.00004,476360645.13277,   0.00159,276360650.93888,   0.00066,   0.00133,   0.00040,  -5.80611,   1.00000
515759992.32341,412371323.75760,-34384823.76046,   0.00220,   0.00220,  -0.00005,476362042.86083,   0.00159,276362047.77289,   0.00066,   0.00133,   0.00040,  -4.91207,   1.00000
516114478.13159,411248715.30262,-34994816.38476,   0.00220,   0.00219,  -0.00006,476363470.27853,   0.00159,276363477.61854,   0.00066,   0.00133,   0.00040,  -7.34000,   1.00000
516459381.34261,410126365.75152,-35605105.93338,   0.00221,   0.00219,  -0.00007,476364870.70165,   0.00159,276364871.87940,   0.00066,   0.00133,   0.00040,  -1.17775,   1.00000
516800325.91442,408989110.31660,-36220784.18082,   0.00221,   0.00218,  -0.00007,476366244.95840,   0.00159,276366251.28239,   0.00066,   0.00133,   0.00040,  -6.32399,   1.00000
517132902.16594,407846690.31333,-36840797.40021,   0.00222,   0.00218,  -0.00008,476367664.47865,   0.00159,276367664.58046,   0.00066,   0.00133,   0.00040,  -0.10181,   1.00000
517462673.77255,406690218.03475,-37460785.82184,   0.00222,   0.00217,  -0.00009,476369054.40505,   0.00159,276369058.68089,   0.00066,   0.00133,   0.00040,  -4.27584,   1.00000
517783913.34824,405528525.14569,-38085066.45027,   0.00223,   0.00217,  -0.00010,476370481.62575,   0.00160,276370487.52790,   0.00066,   0.00133,   0.00040,  -5.90215,   1.00000
518099641.70212,404356799.19545,-38710785.47198,   0.00223,   0.00216,  -0.00011,476371831.38810,   0.00160,276371833.24591,   0.00066,   0.00133,   0.00040,  -1.85782,   1.00000
518408207.09562,403180875.01894,-39335399.22206,   0.00224,   0.00216,  -0.00012,476373208.21725,   0.00160,276373208.55036,   0.00067,   0.00133,   0.00039,  -0.33311,   1.00000
518710663.53761,401988364.67197,-39970754.67067,   0.00224,   0.00215,  -0.00013,476374569.12886,   0.00160,276374577.52975,   0.00067,   0.00133,   0.00039,  -8.40089,   1.00000
519007354.39914,400792745.28881,-40599589.23257,   0.00225,   0.00214,  -0.00013,476375960.91677,   0.00160,276375970.91132,   0.00067,   0.00133,   0.00039,  -9.99455,   1.00000
519297669.54784,399580347.33890,-41239139.14131,   0.00225,   0.00214,  -0.00014,476377350.63543,   0.00160,276377359.12060,   0.00067,   0.00133,   0.00039,  -8.48516,   1.00000
519579716.99417,398368820.20977,-41873731.50260,   0.00226,   0.00213,  -0.00015,476378702.85418,   0.00160,276378706.65098,   0.00067,   0.00133,   0.00039,  -3.79680,   1.00000
519856748.18371,397141444.70969,-42513677.49029,   0.00226,   0.00213,  -0.00016,476380041.60935,   0.00160,276380043.72041,   0.00067,   0.00133,   0.00039,  -2.11106,   1.00000
520127075.10105,395904707.09103,-43156137.93019,   0.00227,   0.00212,  -0.00017,476381476.08315,   0.00161,276381484.47069,   0.00067,   0.00134,   0.00039,  -8.38754,   1.00000
520385133.53119,394671467.00771,-43800687.79134,   0.00227,   0.00212,  -0.00018,476382819.55117,   0.00161,276382824.82237,   0.00067,   0.00134,   0.00039,  -5.27120,   1.00000
520640227.10611,393418297.96750,-44448878.42084,   0.00228,   0.00211,  -0.00019,476384214.29961,   0.00161,276384222.32478,   0.00067,   0.00134,   0.00039,  -8.02517,   1.00000
520887727.89037,392160866.16389,-45095806.27017,   0.00228,   0.00211,  -0.00020,476385644.93806,   0.00161,276385652.11982,   0.00068,   0.00134,   0.00039,  -7.18177,   1.00000
521127311.71331,390890923.65672,-45749761.78015,   0.00229,   0.00210,  -0.00020,476387001.39824,   0.00161,276387007.35900,   0.00068,   0.00134,   0.00039,  -5.96076,   1.00000
521357442.58626,389615419.06060,-46407763.13144,   0.00229,   0.00209,  -0.00021,476388392.67224,   0.00161,276388402.38708,   0.00068,   0.00134,   0.00039,  -9.71485,   1.00000
521585309.36457,388325955.20215,-47060390.77719,   0.00230,   0.00209,  -0.00022,476389766.98759,   0.00161,276389776.41279,   0.00068,   0.00134,   0.00039,  -9.42519,   1.00000
521803621.33723,387030934.47215,-47717023.84348,   0.00230,   0.00208,  -0.00023,476391187.36116,   0.00161,276391190.89950,   0.00068,   0.00134,   0.00039,  -3.53834,   1.00000
522012305.95552,385730364.51856,-48377624.41331,   0.00230,   0.00208,  -0.00024,476392640.84666,   0.00162,276392646.35523,   0.00068,   0.00134,   0.00039,  -5.50857,   1.00000
522214462.27210,384417944.01418,-49040017.46789,   0.00231,   0.00207,  -0.00025,476394017.91465,   0.00162,276394021.31409,   0.00068,   0.00134,   0.00039,  -3.39944,   1.00000
522406862.00203,383099911.58815,-49706348.17234,   0.00231,   0.00206,  -0.00026,476395436.82273,   0.00162,276395437.95292,   0.00068,   0.00134,   0.00039,  -1.13018,   1.00000
522591359.77514,381777597.22621,-50371283.51907,   0.00232,   0.00206,  -0.00027,476396880.76161,   0.00162,276396889.09414,   0.00068,   0.00134,   0.00039,  -8.33252,   1.00000
522769431.74612,380438403.38800,-51041424.62754,   0.00232,   0.00205,  -0.00028,476398331.93563,   0.00162,276398336.03026,   0.00069,   0.00134,   0.00039,  -4.09463,   1.00000
522942832.86610,379083517.48942,-51711464.54511,   0.00233,   0.00205,  -0.00029,476399766.84043,   0.00162,276399771.76201,   0.00069,   0.00134,   0.00039,  -4.92159,   1.00000
523102861.18626,377734456.44622,-52383973.73320,   0.00233,   0.00204,  -0.00030,476401291.08196,   0.00162,276401297.53874,   0.00069,   0.00134,   0.00039,  -6.45678,   1.00000
523255955.79307,376372912.05136,-53058379.51306,   0.00234,   0.00203,  -0.00030,476402740.62870,   0.00163,276402743.84387,   0.00069,   0.00134,   0.00038,  -3.21516,   1.00000
523404273.27613,374990922.50398,-53735886.69748,   0.00234,   0.00203,  -0.00031,476404251.15993,   0.00163,276404257.21962,   0.00069,   0.00134,   0.00038,  -6.05969,   1.00000
523539081.88640,373619508.65734,-54412550.75640,   0.00235,   0.00202,  -0.00032,476405782.93504,   0.00163,276405784.18311,   0.00069,   0.00134,   0.00038,  -1.24807,   1.00000
523671991.08756,372220415.56999,-55090465.67574,   0.00235,   0.00202,  -0.00033,476407246.05828,   0.00163,276407255.52624,   0.00069,   0.00134,   0.00038,  -9.46796,   1.00000
523791470.92301,370827477.37800,-55770673.11896,   0.00235,   0.00201,  -0.00034,476408812.99170,   0.00163,276408818.52866,   0.00069,   0.00134,   0.00038,  -5.53696,   1.00000
523901475.54327,369420077.71861,-56458104.33206,   0.00236,   0.00200,  -0.00035,476410305.01057,   0.00163,276410311.79432,   0.00070,   0.00134,   0.00038,  -6.78376,   1.00000
524005299.33831,368005489.49318,-57141760.05353,   0.00236,   0.00200,  -0.00036,476411911.66655,   0.00163,276411912.75035,   0.00070,   0.00134,   0.00038,  -1.08380,   1.00000
524098708.48321,366589659.82126,-57825984.11427,   0.00237,   0.00199,  -0.00037,476413476.91094,   0.00164,276413481.43600,   0.00070,   0.00134,   0.00038,  -4.52506,   1.00000
524184476.64730,365156171.10391,-58515239.84501,   0.00237,   0.00198,  -0.00038,476415048.34649,   0.00164,276415051.60078,   0.00070,   0.00134,   0.00038,  -3.25429,   1.00000
524263951.39920,363715722.56775,-59200567.53406,   0.00238,   0.00198,  -0.00039,476416726.47941,   0.00164,276416731.06985,   0.00070,   0.00135,   0.00038,  -4.59044,   1.00000
524333415.60708,362260265.18979,-59893140.56741,   0.00238,   0.00197,  -0.00040,476418338.36762,   0.00164,276418342.62522,   0.00070,   0.00135,   0.00038,  -4.25761,   1.00000
524392293.23770,360803347.48033,-60586304.53407,   0.00239,   0.00196,  -0.00041,476419918.62048,   0.00164,276419922.50619,   0.00070,   0.00135,   0.00038,  -3.88571,   1.00000
524444793.21484,359339663.21985,-61275411.71877,   0.00239,   0.00196,  -0.00042,476421606.94683,   0.00164,276421613.07715,   0.00070,   0.00135,   0.00038,  -6.13032,   1.00000
524484125.36048,357868991.33293,-61973127.75042,   0.00239,   0.00195,  -0.00043,476423355.31480,   0.00164,276423363.03867,   0.00071,   0.00135,   0.00038,  -7.72387,   1.00000
524517789.48626,356385846.88358,-62667743.90677,   0.00240,   0.00195,  -0.00044,476425025.70080,   0.00165,276425026.59711,   0.00071,   0.00135,   0.00038,  -0.89630,   1.00000
524540484.02040,354897147.42667,-63365734.83925,   0.00240,   0.00194,  -0.00045,476426733.29112,   0.00165,276426740.69216,   0.00071,   0.00135,   0.00037,  -7.40104,   1.00000
524556705.97885,353402046.81467,-64059454.01850,   0.00241,   0.00193,  -0.00046,476428559.03518,   0.00165,276428567.65729,   0.00071,   0.00135,   0.00037,  -8.62212,   1.00000
524562220.26191,351891202.31531,-64760449.61885,   0.00241,   0.00193,  -0.00047,476430328.92583,   0.00165,276430329.02217,   0.00071,   0.00135,   0.00037,  -0.09634,   1.00000
524556756.28644,350389182.53761,-65458022.87698,   0.00242,   0.00192,  -0.00048,476432172.56209,   0.00165,276432176.63554,   0.00071,   0.00135,   0.00037,  -4.07345,   1.00000
524540431.19651,348871215.61026,-66162891.85109,   0.00242,   0.00191,  -0.00049,476433957.59249,   0.00165,276433959.06239,   0.00071,   0.00135,   0.00037,  -1.46990,   1.00000
524519726.87766,347334227.63688,-66864839.69993,   0.00243,   0.00191,  -0.00050,476435804.40691,   0.00166,276435812.13012,   0.00072,   0.00135,   0.00037,  -7.72322,   1.00000
524488174.28840,345806393.64398,-67563266.90784,   0.00243,   0.00190,  -0.00051,476437748.18923,   0.00166,276437752.03961,   0.00072,   0.00135,   0.00037,  -3.85038,   1.00000
524445430.15869,344262315.02713,-68268985.85080,   0.00243,   0.00189,  -0.00052,476439624.88193,   0.00166,276439627.96590,   0.00072,   0.00135,   0.00037,  -3.08397,   1.00000
524393976.93839,342714451.93745,-68972703.23701,   0.00244,   0.00189,  -0.00053,476441544.77309,   0.00166,276441546.89090,   0.00072,   0.00135,   0.00037,  -2.11781,   1.00000
524335252.93480,341146139.30768,-69678426.81397,   0.00244,   0.00188,  -0.00054,476443541.33824,   0.00166,276443550.29634,   0.00072,   0.00135,   0.00037,  -8.95811,   1.00000
524263736.86366,339589322.04288,-70383158.89303,   0.00245,   0.00187,  -0.00055,476445562.08436,   0.00167,276445567.51618,   0.00072,   0.00135,   0.00037,  -5.43182,   1.00000
524182710.69109,338013997.32745,-71092486.12152,   0.00245,   0.00187,  -0.00056,476447592.03393,   0.00167,276447596.44560,   0.00073,   0.00135,   0.00037,  -4.41168,   1.00000
524092905.71130,336435062.21213,-71799693.07041,   0.00246,   0.00186,  -0.00057,476449665.06410,   0.00167,276449669.84071,   0.00073,   0.00135,   0.00036,  -4.77661,   1.00000
523992230.97226,334854309.90036,-72507509.79245,   0.00246,   0.00185,  -0.00058,476451704.80509,   0.00167,276451713.20982,   0.00073,   0.00135,   0.00036,  -8.40474,   1.00000
523886651.84630,333254844.17781,-73212021.19600,   0.00246,   0.00185,  -0.00059,476453828.57696,   0.00167,276453832.61721,   0.00073,   0.00135,   0.00036,  -4.04025,   1.00000
523765095.02205,331662301.25562,-73922840.22443,   0.00247,   0.00184,  -0.00060,476456062.00970,   0.00168,276456064.99443,   0.00073,   0.00135,   0.00036,  -2.98473,   1.00000
523637029.99881,330055893.94742,-74630824.14566,   0.00247,   0.00183,  -0.00061,476458208.04469,   0.00168,276458212.21043,   0.00073,   0.00135,   0.00036,  -4.16574,   1.00000
523497359.85316,328444474.15983,-75341623.03947,   0.00248,   0.00183,  -0.00062,476460411.56112,   0.00168,276460417.61220,   0.00074,   0.00135,   0.00036,  -6.05109,   1.00000
523352518.97027,326814503.77604,-76048915.77315,   0.00248,   0.00182,  -0.00063,476462693.16129,   0.00168,276462701.89459,   0.00074,   0.00135,   0.00036,  -8.73330,   1.00000
523195322.81020,325196493.64438,-76755174.75678,   0.00249,   0.00181,  -0.00064,476464994.91136,   0.00168,276464999.64437,   0.00074,   0.00135,   0.00036,  -4.73300,   1.00000
523027811.78679,323559730.50050,-77465781.81299,   0.00249,   0.00181,  -0.00065,476467307.72816,   0.00169,276467314.21658,   0.00074,   0.00135,   0.00036,  -6.48841,   1.00000
522848554.56640,321918135.53492,-78179047.96633,   0.00249,   0.00180,  -0.00066,476469679.79933,   0.00169,276469689.07493,   0.00074,   0.00135,   0.00035,  -9.27559,   1.00000
522663480.16234,320275059.02313,-78884946.92640,   0.00250,   0.00179,  -0.00067,476472092.07276,   0.00169,276472098.03307,   0.00074,   0.00135,   0.00035,  -5.96031,   1.00000
522466705.99361,318627305.18591,-79593450.37875,   0.00250,   0.00179,  -0.00068,476474565.88083,   0.00169,276474567.79778,   0.00075,   0.00136,   0.00035,  -1.91696,   1.00000
522258206.27945,316974933.41156,-80304511.05772,   0.00251,   0.00178,  -0.00069,476477098.89047,   0.00169,276477098.94851,   0.00075,   0.00136,   0.00035,  -0.05804,   1.00000
522041770.38655,315322276.13000,-81011202.38034,   0.00251,   0.00177,  -0.00070,476479583.31101,   0.00170,276479587.41303,   0.00075,   0.00136,   0.00035,  -4.10202,   1.00000
521813771.92745,313648196.93203,-81723957.55588,   0.00251,   0.00177,  -0.00071,476482183.32725,   0.00170,276482187.16232,   0.00075,   0.00136,   0.00035,  -3.83507,   1.00000
521580095.07319,311972942.57952,-82429251.12483,   0.00252,   0.00176,  -0.00072,476484815.86552,   0.00170,276484821.85642,   0.00075,   0.00136,   0.00035,  -5.99090,   1.00000
521332301.97217,310294063.13711,-83140084.51829,   0.00252,   0.00175,  -0.00074,476487436.80741,   0.00170,276487442.14184,   0.00076,   0.00136,   0.00035,  -5.33443,   1.00000
521078162.50090,308611735.86345,-83845241.48596,   0.00253,   0.00174,  -0.00075,476490180.65176,   0.00171,276490189.34947,   0.00076,   0.00136,   0.00034,  -8.69771,   1.00000
520813051.40940,306927467.30487,-84550997.40810,   0.00253,   0.00174,  -0.00076,476492903.81312,   0.00171,276492907.94133,   0.00076,   0.00136,   0.00034,  -4.12821,   1.00000
520536163.30788,305238952.30566,-85259091.68959,   0.00254,   0.00173,  -0.00077,476495687.63825,   0.00171,276495690.67041,   0.00076,   0.00136,   0.00034,  -3.03216,   1.00000
520251211.22252,303533212.98375,-85966252.55831,   0.00254,   0.00172,  -0.00078,476498480.79342,   0.00171,276498482.43724,   0.00076,   0.00136,   0.00034,  -1.64382,   1.00000
519959588.41092,301839305.68812,-86665871.76870,   0.00254,   0.00172,  -0.00079,476501436.38314,   0.00172,276501443.56662,   0.00077,   0.00136,   0.00034,  -7.18349,   1.00000
519654204.97430,300126992.63444,-87372648.18145,   0.00255,   0.00171,  -0.00080,476504343.79679,   0.00172,276504350.90907,   0.00077,   0.00136,   0.00034,  -7.11229,   1.00000
519339933.70232,298427237.88999,-88075065.13287,   0.00255,   0.00170,  -0.00081,476507347.69393,   0.00172,276507349.22126,   0.00077,   0.00136,   0.00033,  -1.52733,   1.00000
519014202.77358,296708647.43602,-88781325.19949,   0.00256,   0.00170,  -0.00082,476510370.45537,   0.00173,276510373.50053,   0.00077,   0.00136,   0.00033,  -3.04516,   1.00000
518683287.15354,294989537.56488,-89479999.32109,   0.00256,   0.00169,  -0.00083,476513428.41581,   0.00173,276513433.28485,   0.00078,   0.00136,   0.00033,  -4.86903,   1.00000
518338073.43520,293266764.05758,-90184128.89433,   0.00256,   0.00168,  -0.00084,476516479.36081,   0.00173,276516480.61873,   0.00078,   0.00136,   0.00033,  -1.25792,   1.00000
517986997.56919,291541839.36935,-90882132.75019,   0.00257,   0.00168,  -0.00085,476519651.08749,   0.00173,276519658.85939,   0.00078,   0.00136,   0.00033,  -7.77189,   1.00000
517624207.32962,289813295.81498,-91582173.52589,   0.00257,   0.00167,  -0.00086,476522898.13620,   0.00174,276522904.78391,   0.00078,   0.00136,   0.00033,  -6.64771,   1.00000
517253103.42152,288082875.98572,-92279395.85461,   0.00258,   0.00166,  -0.00088,476526196.01347,   0.00174,276526202.56444,   0.00079,   0.00136,   0.00032,  -6.55097,   1.00000
516871097.56667,286350504.86829,-92977222.92551,   0.00258,   0.00165,  -0.00089,476529469.54714,   0.00174,276529472.20057,   0.00079,   0.00136,   0.00032,  -2.65343,   1.00000
516483317.40107,284601186.89890,-93670434.88351,   0.00259,   0.00165,  -0.00090,476532830.66946,   0.00175,276532835.14405,   0.00079,   0.00136,   0.00032,  -4.47459,   1.00000
516084101.51283,282863944.33722,-94363876.92218,   0.00259,   0.00164,  -0.00091,476536305.10174,   0.00175,276536306.14213,   0.00079,   0.00136,   0.00032,  -1.04039,   1.00000
515674038.07516,281124779.15517,-95057924.72864,   0.00259,   0.00163,  -0.00092,476539748.69994,   0.00175,276539749.01976,   0.00080,   0.00136,   0.00032,  -0.31982,   1.00000
515258235.15874,279368932.28137,-95747230.09571,   0.00260,   0.00163,  -0.00093,476543284.94950,   0.00176,276543286.68975,   0.00080,   0.00136,   0.00031,  -1.74026,   1.00000
514828474.66151,277625070.03335,-96440216.89973,   0.00260,   0.00162,  -0.00094,476546842.19629,   0.00176,276546852.05204,   0.00080,   0.00136,   0.00031,  -9.85575,   1.00000
514393007.22356,275864709.80460,-97128373.30971,   0.00261,   0.00161,  -0.00095,476550510.47943,   0.00176,276550513.21017,   0.00080,   0.00136,   0.00031,  -2.73074,   1.00000
513947287.10535,274118134.57383,-97815463.93420,   0.00261,   0.00161,  -0.00096,476554182.61576,   0.00177,276554184.35020,   0.00081,   0.00136,   0.00031,  -1.73445,   1.00000
513495896.42827,272355234.42283,-98497652.10152,   0.00261,   0.00160,  -0.00097,476557946.66320,   0.00177,276557952.13583,   0.00081,   0.00136,   0.00031,  -5.47264,   1.00000
513030846.46282,270604599.95340,-99183503.64492,   0.00262,   0.00159,  -0.00099,476561742.22583,   0.00177,276561747.30945,   0.00081,   0.00136,   0.00030,  -5.08362,   1.00000
512560990.86840,268853713.64361,-99862706.24888,   0.00262,   0.00158,  -0.00100,476565675.57284,   0.00178,276565677.24399,   0.00081,   0.00136,   0.00030,  -1.67115,   1.00000
512079575.79292,267085035.88990,-100544196.88468,   0.00263,   0.00158,  -0.00101,476569536.41938,   0.00178,276569541.86933,   0.00082,   0.00136,   0.00030,  -5.44995,   1.00000
511591369.85436,265331372.00275,-101220988.92098,   0.00263,   0.00157,  -0.00102,476573491.08456,   0.00178,276573496.98188,   0.00082,   0.00136,   0.00030,  -5.89733,   1.00000
511097625.82363,263561839.32253,-101892694.35837,   0.00264,   0.00156,  -0.00103,476577548.17553,   0.00179,276577550.81104,   0.00082,   0.00136,   0.00029,  -2.63552,   1.00000
510590581.72952,261804899.86923,-102568047.70934,   0.00264,   0.00156,  -0.00104,476581624.54638,   0.00179,276581631.62413,   0.00083,   0.00136,   0.00029,  -7.07775,   1.00000
510074908.91089,260031098.80985,-103241967.18662,   0.00264,   0.00155,  -0.00105,476585729.30268,   0.00180,276585729.89268,   0.00083,   0.00136,   0.00029,  -0.59000,   1.00000
509556111.14727,258274066.63939,-103907383.31526,   0.00265,   0.00154,  -0.00106,476589999.70760,   0.00180,276590000.60286,   0.00083,   0.00136,   0.00029,  -0.89526,   1.00000
509023044.69533,256513606.58541,-104578088.80656,   0.00265,   0.00154,  -0.00107,476594254.41330,   0.00180,276594261.86427,   0.00084,   0.00136,   0.00029,  -7.45096,   1.00000
508482687.47411,254752665.14141,-105245668.73972,   0.00266,   0.00153,  -0.00109,476598569.45931,   0.00181,276598577.00125,   0.00084,   0.00136,   0.00028,  -7.54194,   1.00000
507937476.29781,252976576.68817,-105907143.82504,   0.00266,   0.00152,  -0.00110,476602888.78136,   0.00181,276602890.98622,   0.00084,   0.00136,   0.00028,  -2.20486,   1.00000
507386009.12383,251216412.72988,-106564616.87273,   0.00266,   0.00152,  -0.00111,476607393.88490,   0.00182,276607396.95275,   0.00085,   0.00136,   0.00028,  -3.06785,   1.00000
506820299.31390,249452864.80319,-107227356.84198,   0.00267,   0.00151,  -0.00112,476611886.25216,   0.00182,276611893.89779,   0.00085,   0.00136,   0.00027,  -7.64564,   1.00000
506251406.48075,247690738.06569,-107882354.54088,   0.00267,   0.00150,  -0.00113,476616419.18120,   0.00183,276616424.68717,   0.00085,   0.00136,   0.00027,  -5.50597,   1.00000
505671682.26823,245926888.64663,-108538745.49301,   0.00268,   0.00149,  -0.00114,476621022.54312,   0.00183,276621029.73805,   0.00085,   0.00136,   0.00027,  -7.19493,   1.00000
505088531.82050,244164775.38018,-109188051.16945,   0.00268,   0.00149,  -0.00115,476625771.59501,   0.00183,276625772.14150,   0.00086,   0.00136,   0.00027,  -0.54649,   1.00000
504496909.22079,242417563.49487,-109836473.12196,   0.00268,   0.00148,  -0.00116,476630514.61665,   0.00184,276630519.12897,   0.00086,   0.00136,   0.00026,  -4.51232,   1.00000
503896736.38827,240653785.88534,-110483307.80875,   0.00269,   0.00147,  -0.00118,476635282.17043,   0.00184,276635285.79107,   0.00087,   0.00136,   0.00026,  -3.62064,   1.00000
503293454.95744,238892148.37547,-111122989.82152,   0.00269,   0.00147,  -0.00119,476640181.10202,   0.00185,276640190.06471,   0.00087,   0.00136,   0.00026,  -8.96269,   1.00000
502678049.62386,237143994.58856,-111766347.24574,   0.00270,   0.00146,  -0.00120,476645113.46834,   0.00185,276645118.97264,   0.00087,   0.00136,   0.00025,  -5.50431,   1.00000
502054072.45216,235379340.42784,-112408060.75067,   0.00270,   0.00145,  -0.00121,476650066.08446,   0.00186,276650068.43688,   0.00088,   0.00136,   0.00025,  -2.35241,   1.00000
501429461.80055,233634112.73677,-113040972.03441,   0.00271,   0.00145,  -0.00122,476655179.83495,   0.00186,276655188.79984,   0.00088,   0.00136,   0.00025,  -8.96489,   1.00000
500794824.70833,231887190.10859,-113674671.39373,   0.00271,   0.00144,  -0.00123,476660270.44215,   0.00187,276660278.51602,   0.00088,   0.00136,   0.00024,  -8.07386,   1.00000
500157737.84690,230143110.02152,-114301123.18960,   0.00271,   0.00143,  -0.00124,476665497.82453,   0.00187,276665505.71136,   0.00089,   0.00136,   0.00024,  -7.88684,   1.00000
499510673.94016,228397332.61598,-114928387.24352,   0.00272,   0.00143,  -0.00126,476670695.52081,   0.00188,276670701.97330,   0.00089,   0.00136,   0.00024,  -6.45250,   1.00000
498855869.46394,226667742.88187,-115555320.44402,   0.00272,   0.00142,  -0.00127,476675997.35647,   0.00188,276676005.67762,   0.00089,   0.00136,   0.00023,  -8.32115,   1.00000
498200624.30194,224925844.00834,-116172062.77046,   0.00273,   0.00141,  -0.00128,476681388.30475,   0.00189,276681392.46518,   0.00090,   0.00136,   0.00023,  -4.16044,   1.00000
497533952.88594,223197861.60610,-116792545.83783,   0.00273,   0.00140,  -0.00129,476686796.15562,   0.00189,276686801.90380,   0.00090,   0.00136,   0.00023,  -5.74818,   1.00000
496862867.37144,221456207.87074,-117407215.32477,   0.00273,   0.00140,  -0.00130,476692308.69414,   0.00190,276692317.36144,   0.00090,   0.00136,   0.00022,  -8.66730,   1.00000
496188670.49953,219732765.41776,-118017121.80153,   0.00274,   0.00139,  -0.00131,476697912.00230,   0.00190,276697916.87001,   0.00091,   0.00136,   0.00022,  -4.86771,   1.00000
495504738.53996,218007640.48208,-118627918.75696,   0.00274,   0.00138,  -0.00132,476703479.79971,   0.00191,276703484.20266,   0.00091,   0.00136,   0.00022,  -4.40295,   1.00000
494815218.93960,216284904.45959,-119235715.29719,   0.00275,   0.00138,  -0.00134,476709204.69940,   0.00191,276709211.94472,   0.00092,   0.00136,   0.00021,  -7.24532,   1.00000
494123014.77660,214579304.35656,-119838561.44919,   0.00275,   0.00137,  -0.00135,476714905.62323,   0.00192,276714914.29850,   0.00092,   0.00136,   0.00021,  -8.67527,   1.00000
493422607.18687,212858994.56770,-120439863.99765,   0.00275,   0.00136,  -0.00136,476720739.33070,   0.00192,276720746.64927,   0.00092,   0.00136,   0.00021,  -7.31858,   1.00000
492724006.23783,211158872.65687,-121032106.56383,   0.00276,   0.00136,  -0.00137,476726632.98210,   0.00193,276726637.33641,   0.00093,   0.00136,   0.00020,  -4.35431,   1.00000
492016047.94849,209458666.84420,-121625474.13982,   0.00276,   0.00135,  -0.00138,476732594.82121,   0.00193,276732603.23147,   0.00093,   0.00136,   0.00020,  -8.41026,   1.00000
491302977.61599,207759897.57596,-122215618.72803,   0.00277,   0.00134,  -0.00139,476738614.89298,   0.00194,276738620.56250,   0.00094,   0.00136,   0.00020,  -5.66952,   1.00000
490583604.50026,206076955.60742,-122805310.25382,   0.00277,   0.00134,  -0.00141,476744629.36689,   0.00195,276744633.27238,   0.00094,   0.00136,   0.00019,  -3.90549,   1.00000
489860528.26874,204381190.22145,-123389011.73973,   0.00278,   0.00133,  -0.00142,476750747.15864,   0.00195,276750753.04314,   0.00094,   0.00136,   0.00019,  -5.88450,   1.00000
489135838.14412,202704614.48874,-123968071.52566,   0.00278,   0.00132,  -0.00143,476756946.10747,   0.00196,276756952.47341,   0.00095,   0.00135,   0.00018,  -6.36594,   1.00000
488406406.84897,201029695.96107,-124543944.42464,   0.00278,   0.00132,  -0.00144,476763198.78277,   0.00196,276763202.23767,   0.00095,   0.00135,   0.00018,  -3.45491,   1.00000
487672291.18483,199356481.33446,-125116631.20708,   0.00279,   0.00131,  -0.00145,476769496.12829,   0.00197,276769502.25571,   0.00096,   0.00135,   0.00018,  -6.12742,   1.00000
486941705.96464,197706204.83896,-125680471.03291,   0.00279,   0.00130,  -0.00146,476775958.04808,   0.00197,276775965.43585,   0.00096,   0.00135,   0.00017,  -7.38777,   1.00000
486197750.70929,196052870.38777,-126249691.43293,   0.00280,   0.00130,  -0.00147,476782413.62298,   0.00198,276782417.62358,   0.00097,   0.00135,   0.00017,  -4.00061,   1.00000
485453681.54158,194402775.67601,-126811506.16785,   0.00280,   0.00129,  -0.00149,476788891.70016,   0.00199,276788894.01536,   0.00097,   0.00135,   0.00016,  -2.31520,   1.00000
484700988.47032,192753214.89560,-127374399.44784,   0.00280,   0.00128,  -0.00150,476795437.46774,   0.00199,276795444.97392,   0.00097,   0.00135,   0.00016,  -7.50617,   1.00000
483953192.01862,191110687.16355,-127925609.17189,   0.00281,   0.00128,  -0.00151,476802101.69153,   0.00200,276802104.85500,   0.00098,   0.00135,   0.00015,  -3.16347,   1.00000
483195807.06622,189482942.41171,-128480864.37954,   0.00281,   0.00127,  -0.00152,476808774.75420,   0.00201,276808780.33997,   0.00098,   0.00135,   0.00015,  -5.58576,   1.00000
482443652.74556,187862415.29598,-129024472.69450,   0.00282,   0.00126,  -0.00153,476815560.74504,   0.00201,276815563.60580,   0.00099,   0.00135,   0.00014,  -2.86076,   1.00000
481678253.29535,186238808.29959,-129573515.18607,   0.00282,   0.00126,  -0.00154,476822332.79281,   0.00202,276822335.15720,   0.00099,   0.00135,   0.00014,  -2.36439,   1.00000
480917903.59801,184639221.99271,-130113769.97510,   0.00283,   0.00125,  -0.00156,476829261.00217,   0.00202,276829266.10746,   0.00100,   0.00135,   0.00014,  -5.10529,   1.00000
480153114.51886,183039171.76035,-130651150.08247,   0.00283,   0.00124,  -0.00157,476836127.44297,   0.00203,276836132.19651,   0.00100,   0.00135,   0.00013,  -4.75354,   1.00000
479385403.12735,181444079.68369,-131185263.16379,   0.00283,   0.00124,  -0.00158,476843155.88425,   0.00204,276843157.07581,   0.00101,   0.00135,   0.00013,  -1.19156,   1.00000
478614093.13204,179851287.21385,-131716313.24002,   0.00284,   0.00123,  -0.00159,476850224.33593,   0.00204,276850228.70377,   0.00101,   0.00135,   0.00012,  -4.36784,   1.00000
477843405.75281,178278893.95405,-132243026.97275,   0.00284,   0.00123,  -0.00160,476857363.51537,   0.00205,276857371.80933,   0.00102,   0.00135,   0.00012,  -8.29397,   1.00000
477073732.67840,176710142.80744,-132762602.36019,   0.00285,   0.00122,  -0.00161,476864529.30344,   0.00206,276864533.66791,   0.00102,   0.00135,   0.00011,  -4.36447,   1.00000
476300607.20951,175160643.88943,-133282038.50245,   0.00285,   0.00121,  -0.00163,476871789.80757,   0.00206,276871792.39745,   0.00103,   0.00134,   0.00011,  -2.58988,   1.00000
475519980.09274,173595437.77920,-133799745.47829,   0.00285,   0.00121,  -0.00164,476879066.47111,   0.00207,276879071.78189,   0.00103,   0.00134,   0.00010,  -5.31077,   1.00000
474740510.17193,172050872.77279,-134313212.91671,   0.00286,   0.00120,  -0.00165,476886415.40364,   0.00208,276886420.38643,   0.00103,   0.00134,   0.00010,  -4.98279,   1.00000
473962387.79438,170510034.42681,-134819633.87699,   0.00286,   0.00119,  -0.00166,476893777.33445,   0.00209,276893785.96536,   0.00104,   0.00134,   0.00009,  -8.63090,   1.00000
473186823.86157,168993196.66576,-135321544.40287,   0.00287,   0.00119,  -0.00167,476901329.36464,   0.00209,276901332.23914,   0.00104,   0.00134,   0.00009,  -2.87450,   1.00000
472402868.15020,167474425.98796,-135824981.74332,   0.00287,   0.00118,  -0.00168,476908828.82867,   0.00210,276908836.33343,   0.00105,   0.00134,   0.00008,  -7.50476,   1.00000
471620535.43977,165959435.35523,-136321454.30149,   0.00288,   0.00117,  -0.00169,476916347.56739,   0.00211,276916355.82399,   0.00105,   0.00134,   0.00008,  -8.25659,   1.00000
470841269.15005,164468776.77556,-136813445.27080,   0.00288,   0.00117,  -0.00171,476924048.56216,   0.00211,276924054.63016,   0.00106,   0.00134,   0.00007,  -6.06800,   1.00000
470063878.80777,162981965.86864,-137298546.51070,   0.00288,   0.00116,  -0.00172,476931765.48447,   0.00212,276931767.37061,   0.00106,   0.00134,   0.00007,  -1.88614,   1.00000
469273744.60319,161491947.77937,-137789311.36262,   0.00289,   0.00116,  -0.00173,476939459.98537,   0.00213,276939464.73333,   0.00107,   0.00134,   0.00006,  -4.74796,   1.00000
468496109.70828,160028896.28859,-138267576.10919,   0.00289,   0.00115,  -0.00174,476947276.87277,   0.00214,276947283.24716,   0.00107,   0.00134,   0.00006,  -6.37439,   1.00000
467711655.70390,158567424.90824,-138747066.13884,   0.00290,   0.00114,  -0.00175,476955169.13561,   0.00214,276955171.15960,   0.00108,   0.00133,   0.00005,  -2.02399,   1.00000
466934237.97590,157128239.50758,-139218625.18249,   0.00290,   0.00114,  -0.00176,476963088.99015,   0.00215,276963092.82039,   0.00108,   0.00133,   0.00005,  -3.83024,   1.00000
466150159.35606,155690684.18006,-139691434.34537,   0.00291,   0.00113,  -0.00178,476971082.41039,   0.00216,276971083.22274,   0.00109,   0.00133,   0.00004,  -0.81235,   1.00000
465368428.34241,154257025.32779,-140157511.22436,   0.00291,   0.00113,  -0.00179,476979075.41224,   0.00217,276979084.60824,   0.00109,   0.00133,   0.00003,  -9.19600,   1.00000
464584623.51329,152826167.35032,-140620873.08092,   0.00291,   0.00112,  -0.00180,476987119.58361,   0.00217,276987125.42480,   0.00110,   0.00133,   0.00003,  -5.84119,   1.00000
463809902.83933,151421663.30341,-141075920.58637,   0.00292,   0.00111,  -0.00181,476995309.46619,   0.00218,276995311.63819,   0.00110,   0.00133,   0.00002,  -2.17200,   1.00000
463032284.75241,150033405.69680,-141531735.96336,   0.00292,   0.00111,  -0.00182,477003465.15874,   0.00219,277003471.26561,   0.00111,   0.00133,   0.00002,  -6.10687,   1.00000
462252868.51672,148647966.43090,-141984915.25608,   0.00293,   0.00110,  -0.00183,477011668.59412,   0.00220,277011668.66842,   0.00111,   0.00133,   0.00001,  -0.07431,   1.00000
461477880.18394,147270550.92714,-142430934.67862,   0.00293,   0.00110,  -0.00185,477019979.53372,   0.00220,277019989.15036,   0.00112,   0.00133,   0.00001,  -9.61664,   1.00000
460701226.95104,145896026.93659,-142874352.23427,   0.00294,   0.00109,  -0.00186,477028336.84405,   0.00221,277028346.77855,   0.00112,   0.00133,   0.00000,  -9.93450,   1.00000
459931726.44658,144557305.49545,-143313710.95124,   0.00294,   0.00108,  -0.00187,477036660.76844,   0.00222,277036665.27983,   0.00113,   0.00132,  -0.00001,  -4.51139,   1.00000
459157211.53019,143207118.83589,-143750940.45155,   0.00295,   0.00108,  -0.00188,477045114.29382,   0.00223,277045115.52284,   0.00114,   0.00132,  -0.00001,  -1.22902,   1.00000
458391100.07519,141879463.72589,-144180698.18044,   0.00295,   0.00107,  -0.00189,477053582.50755,   0.00224,277053590.85784,   0.00114,   0.00132,  -0.00002,  -8.35028,   1.00000
457619075.28884,140553692.70270,-144611854.17310,   0.00295,   0.00107,  -0.00190,477062126.79239,   0.00224,277062131.56329,   0.00115,   0.00132,  -0.00002,  -4.77089,   1.00000
456855695.05134,139250468.85089,-145035623.42279,   0.00296,   0.00106,  -0.00191,477070692.48472,   0.00225,277070695.73340,   0.00115,   0.00132,  -0.00003,  -3.24868,   1.00000
456097588.66171,137955623.03720,-145452388.28097,   0.00296,   0.00106,  -0.00193,477079373.97349,   0.00226,277079379.25627,   0.00116,   0.00132,  -0.00003,  -5.28278,   1.00000
455337281.66566,136676846.52941,-145870310.61022,   0.00297,   0.00105,  -0.00194,477088020.43137,   0.00227,277088029.73413,   0.00116,   0.00132,  -0.00004,  -9.30276,   1.00000
454575870.75698,135400957.34933,-146285831.30935,   0.00297,   0.00105,  -0.00195,477096705.88130,   0.00228,277096713.53767,   0.00117,   0.00132,  -0.00005,  -7.65637,   1.00000
453830200.33124,134153224.59953,-146689585.93399,   0.00298,   0.00104,  -0.00196,477105499.31070,   0.00228,277105502.40694,   0.00117,   0.00131,  -0.00005,  -3.09623,   1.00000
453072328.25191,132901792.64045,-147099426.98190,   0.00298,   0.00103,  -0.00197,477114263.82933,   0.00229,277114269.33036,   0.00118,   0.00131,  -0.00006,  -5.50103,   1.00000
452324815.55704,131659872.42628,-147498517.06119,   0.00298,   0.00103,  -0.00198,477123119.19491,   0.00230,277123122.32192,   0.00118,   0.00131,  -0.00007,  -3.12700,   1.00000
451577566.36033,130438672.71105,-147898193.64860,   0.00299,   0.00102,  -0.00199,477132051.37569,   0.00231,277132055.38057,   0.00119,   0.00131,  -0.00007,  -4.00489,   1.00000
450834109.38434,129221292.91042,-148291770.64208,   0.00299,   0.00102,  -0.00201,477140983.29900,   0.00232,277140988.25435,   0.00119,   0.00131,  -0.00008,  -4.95535,   1.00000
450100265.82731,128026481.93702,-148678377.23181,   0.00300,   0.00101,  -0.00202,477149929.67730,   0.00233,277149937.20099,   0.00120,   0.00131,  -0.00008,  -7.52369,   1.00000
449366992.78838,126852408.10006,-149065678.05293,   0.00300,   0.00101,  -0.00203,477158958.43283,   0.00234,277158964.12272,   0.00121,   0.00131,  -0.00009,  -5.68989,   1.00000
448633129.54818,125681178.72488,-149450789.26218,   0.00301,   0.00100,  -0.00204,477168018.95191,   0.00234,277168020.45927,   0.00121,   0.00130,  -0.00010,  -1.50737,   1.00000
447903286.16380,124513679.32661,-149829938.93638,   0.00301,   0.00100,  -0.00205,477177069.60634,   0.00235,277177074.30710,   0.00122,   0.00130,  -0.00010,  -4.70076,   1.00000
447185858.87763,123373774.13674,-150201471.35183,   0.00302,   0.00099,  -0.00206,477186252.27821,   0.00236,277186257.57986,   0.00122,   0.00130,  -0.00011,  -5.30165,   1.00000
446460949.24135,122230737.22870,-150575507.49781,   0.00302,   0.00099,  -0.00207,477195381.08204,   0.00237,277195384.20174,   0.00123,   0.00130,  -0.00012,  -3.11970,   1.00000
445748703.04687,121115358.81751,-150941980.12792,   0.00302,   0.00098,  -0.00209,477204637.85708,   0.00238,277204638.98505,   0.00123,   0.00130,  -0.00012,  -1.12797,   1.00000
445036126.29967,120002789.45942,-151306395.04475,   0.00303,   0.00098,  -0.00210,477213916.56991,   0.00239,277213920.91998,   0.00124,   0.00130,  -0.00013,  -4.35007,   1.00000
444326740.19934,118906648.39169,-151668796.77819,   0.00303,   0.00097,  -0.00211,477223125.34960,   0.00240,277223128.30039,   0.00124,   0.00130,  -0.00014,  -2.95079,   1.00000
443630392.81302,117838221.36682,-152023748.61174,   0.00304,   0.00097,  -0.00212,477232454.71664,   0.00240,277232461.50951,   0.00125,   0.00129,  -0.00014,  -6.79287,   1.00000
442933880.23803,116772526.43329,-152376740.15912,   0.00304,   0.00096,  -0.00213,477241814.78428,   0.00241,277241820.17944,   0.00126,   0.00129,  -0.00015,  -5.39516,   1.00000
442237218.95662,115709566.11404,-152727778.15745,   0.00305,   0.00096,  -0.00214,477251199.53602,   0.00242,277251204.20430,   0.00126,   0.00129,  -0.00016,  -4.66828,   1.00000
441553950.70520,114674430.41909,-153071454.99190,   0.00305,   0.00095,  -0.00215,477260703.99616,   0.00243,277260712.14320,   0.00127,   0.00129,  -0.00016,  -8.14704,   1.00000
440874123.59679,113655470.15274,-153413365.39310,   0.00306,   0.00095,  -0.00216,477270138.39231,   0.00244,277270141.69014,   0.00127,   0.00129,  -0.00017,  -3.29782,   1.00000
440194286.38539,112639157.78352,-153753412.67216,   0.00306,   0.00094,  -0.00218,477279594.86863,   0.00245,277279595.03837,   0.00128,   0.00129,  -0.00018,  -0.16975,   1.00000
439521901.20343,111631781.25926,-154086982.77481,   0.00307,   0.00094,  -0.00219,477289155.82981,   0.00246,277289156.08847,   0.00128,   0.00129,  -0.00018,  -0.25865,   1.00000
438854713.50437,110658608.29111,-154421822.93256,   0.00307,   0.00093,  -0.00220,477298683.74948,   0.00247,277298683.97101,   0.00129,   0.00128,  -0.00019,  -0.22154,   1.00000
438193442.10883,109676159.58896,-154747318.94722,   0.00307,   0.00093,  -0.00221,477308261.99204,   0.00248,277308271.51290,   0.00129,   0.00128,  -0.00020,  -9.52086,   1.00000
437545039.61650,108734212.04222,-155069558.98947,   0.00308,   0.00092,  -0.00222,477317902.26361,   0.00249,277317908.17969,   0.00130,   0.00128,  -0.00020,  -5.91608,   1.00000
436890459.40604,107775838.75028,-155390818.65644,   0.00308,   0.00092,  -0.00223,477327548.75664,   0.00249,277327552.86335,   0.00131,   0.00128,  -0.00021,  -4.10671,   1.00000
436248912.25426,106857950.59834,-155708886.44753,   0.00309,   0.00091,  -0.00224,477337241.67620,   0.00250,277337245.42599,   0.00131,   0.00128,  -0.00022,  -3.74979,   1.00000
435612270.32650,105943258.88818,-156021623.05596,   0.00309,   0.00091,  -0.00225,477346919.14355,   0.00251,277346925.08276,   0.00132,   0.00128,  -0.00022,  -5.93922,   1.00000
434975917.97107,105031036.60773,-156332706.43025,   0.00310,   0.00090,  -0.00226,477356618.89324,   0.00252,277356625.03048,   0.00132,   0.00127,  -0.00023,  -6.13724,   1.00000
434346368.00008,104140262.52698,-156641438.56553,   0.00310,   0.00090,  -0.00228,477366355.86362,   0.00253,277366357.79678,   0.00133,   0.00127,  -0.00024,  -1.93316,   1.00000
433731440.86569,103277421.13813,-156943214.24544,   0.00311,   0.00089,  -0.00229,477376205.23681,   0.00254,277376206.28933,   0.00133,   0.00127,  -0.00025,  -1.05251,   1.00000
433113768.33965,102411094.99284,-157244432.60872,   0.00311,   0.00089,  -0.00230,477385953.07170,   0.00255,277385956.26274,   0.00134,   0.00127,  -0.00025,  -3.19104,   1.00000
432510884.90650,101572705.85619,-157538763.25161,   0.00312,   0.00089,  -0.00231,477395815.88644,   0.00256,277395820.69178,   0.00135,   0.00127,  -0.00026,  -4.80534,   1.00000
431911831.83238,100749713.98328,-157831929.92798,   0.00312,   0.00088,  -0.00232,477405588.71444,   0.00257,277405597.79114,   0.00135,   0.00126,  -0.00027,  -9.07670,   1.00000
431316501.58279,99934934.23492,-158122564.21113,   0.00313,   0.00088,  -0.00233,477415505.96535,   0.00258,277415509.94158,   0.00136,   0.00126,  -0.00027,  -3.97623,   1.00000
430726312.45861,99123078.67608,-158408113.58089,   0.00313,   0.00087,  -0.00234,477425401.66763,   0.00259,277425405.32248,   0.00136,   0.00126,  -0.00028,  -3.65486,   1.00000
430149956.84410,98351523.45861,-158690894.99213,   0.00313,   0.00087,  -0.00235,477435340.57351,   0.00260,277435341.10031,   0.00137,   0.00126,  -0.00029,  -0.52679,   1.00000
429572123.32648,97563739.11011,-158969319.61661,   0.00314,   0.00086,  -0.00236,477445246.59616,   0.00261,277445247.29582,   0.00138,   0.00126,  -0.00030,  -0.69966,   1.00000
429008243.76351,96816214.93775,-159245054.84418,   0.00314,   0.00086,  -0.00237,477455192.48472,   0.00262,277455192.58910,   0.00138,   0.00126,  -0.00030,  -0.10438,   1.00000
428444955.85798,96070780.86733,-159519416.92564,   0.00315,   0.00086,  -0.00238,477465147.20715,   0.00263,277465153.48237,   0.00139,   0.00125,  -0.00031,  -6.27522,   1.00000
427897095.39230,95353228.95832,-159787142.69135,   0.00315,   0.00085,  -0.00240,477475220.00498,   0.00263,277475223.87581,   0.00139,   0.00125,  -0.00032,  -3.87083,   1.00000
427346432.21225,94631560.35652,-160054636.51330,   0.00316,   0.00085,  -0.00241,477485188.93807,   0.00264,277485191.38853,   0.00140,   0.00125,  -0.00033,  -2.45046,   1.00000
426811309.21199,93937757.85568,-160315548.75487,   0.00316,   0.00084,  -0.00242,477495260.84047,   0.00265,277495267.40886,   0.00140,   0.00125,  -0.00033,  -6.56839,   1.00000
426273357.98880,93239723.29486,-160576292.60117,   0.00317,   0.00084,  -0.00243,477505234.54818,   0.00266,277505239.76673,   0.00141,   0.00125,  -0.00034,  -5.21855,   1.00000
425757889.70335,92588598.00936,-160829912.70446,   0.00317,   0.00084,  -0.00244,477515324.87294,   0.00267,277515330.18319,   0.00142,   0.00125,  -0.00035,  -5.31025,   1.00000
425236297.17116,91920262.22617,-161082916.35363,   0.00318,   0.00083,  -0.00245,477525422.27454,   0.00268,277525423.09361,   0.00142,   0.00124,  -0.00035,  -0.81907,   1.00000
424720876.38972,91285102.21693,-161338169.19130,   0.00318,   0.00083,  -0.00246,477535463.21410,   0.00269,277535467.46397,   0.00143,   0.00124,  -0.00036,  -4.24987,   1.00000
424219095.50650,90659197.77026,-161584034.74196,   0.00319,   0.00082,  -0.00247,477545567.56997,   0.00270,277545572.13973,   0.00143,   0.00124,  -0.00037,  -4.56975,   1.00000
423729591.68161,90054729.03382,-161824640.29794,   0.00319,   0.00082,  -0.00248,477555661.83241,   0.00271,277555664.08784,   0.00144,   0.00124,  -0.00038,  -2.25544,   1.00000
423236173.08001,89451411.53011,-162067633.33176,   0.00320,   0.00082,  -0.00249,477565800.13314,   0.00272,277565803.06684,   0.00144,   0.00124,  -0.00038,  -2.93371,   1.00000
422763424.28779,88876394.07976,-162300753.18830,   0.00320,   0.00081,  -0.00250,477576005.57096,   0.00273,277576010.99897,   0.00145,   0.00123,  -0.00039,  -5.42800,   1.00000
422290021.16355,88315176.37371,-162536887.08503,   0.00321,   0.00081,  -0.00251,477586153.10977,   0.00274,277586157.43634,   0.00146,   0.00123,  -0.00040,  -4.32657,   1.00000
421822044.31528,87756115.86412,-162768436.68821,   0.00321,   0.00081,  -0.00252,477596273.74245,   0.00275,277596279.40861,   0.00146,   0.00123,  -0.00041,  -5.66616,   1.00000
421370218.48108,87224716.95521,-162993714.30302,   0.00321,   0.00080,  -0.00253,477606498.00566,   0.00276,277606504.06375,   0.00147,   0.00123,  -0.00041,  -6.05809,   1.00000
420922378.79897,86707502.17715,-163218590.66465,   0.00322,   0.00080,  -0.00254,477616621.20065,   0.00277,277616630.63214,   0.00147,   0.00123,  -0.00042,  -9.43149,   1.00000
420483788.68595,86198763.93498,-163437800.57609,   0.00322,   0.00080,  -0.00255,477626846.59014,   0.00278,277626849.21284,   0.00148,   0.00122,  -0.00043,  -2.62270,   1.00000
420044505.99730,85703576.39699,-163660144.97921,   0.00323,   0.00079,  -0.00256,477636998.96440,   0.00279,277637004.69392,   0.00149,   0.00122,  -0.00044,  -5.72952,   1.00000
419626204.13457,85236464.22790,-163872831.24833,   0.00323,   0.00079,  -0.00257,477647219.77280,   0.00280,277647225.32981,   0.00149,   0.00122,  -0.00044,  -5.55701,   1.00000
419208693.75543,84770694.64256,-164084579.73148,   0.00324,   0.00079,  -0.00258,477657445.60033,   0.00281,277657454.76918,   0.00150,   0.00122,  -0.00045,  -9.16885,   1.00000
418799032.14232,84325374.18864,-164294872.90224,   0.00324,   0.00078,  -0.00260,477667696.98823,   0.00282,277667702.05297,   0.00150,   0.00122,  -0.00046,  -5.06474,   1.00000
418401890.75552,83900964.00109,-164500267.00924,   0.00325,   0.00078,  -0.00261,477677930.73594,   0.00283,277677930.93490,   0.00151,   0.00121,  -0.00047,  -0.19896,   1.00000
418005535.22981,83477770.02021,-164704770.93511,   0.00325,   0.00078,  -0.00262,477688162.23514,   0.00284,277688167.87451,   0.00151,   0.00121,  -0.00047,  -5.63937,   1.00000
417621722.74358,83075417.71117,-164904430.43618,   0.00326,   0.00077,  -0.00263,477698380.57655,   0.00285,277698385.63039,   0.00152,   0.00121,  -0.00048,  -5.05384,   1.00000
417245786.50178,82693333.78021,-165102727.14970,   0.00326,   0.00077,  -0.00264,477708614.37743,   0.00286,277708619.78649,   0.00153,   0.00121,  -0.00049,  -5.40906,   1.00000
416875303.84732,82312846.25555,-165296744.38098,   0.00327,   0.00077,  -0.00265,477718820.99412,   0.00287,277718825.04721,   0.00153,   0.00121,  -0.00050,  -4.05308,   1.00000
416519818.25940,81971686.76969,-165488935.36978,   0.00327,   0.00077,  -0.00266,477729052.44339,   0.00288,277729054.86480,   0.00154,   0.00121,  -0.00050,  -2.42141,   1.00000
416157988.52728,81612373.23754,-165680828.91384,   0.00328,   0.00076,  -0.00267,477739281.41172,   0.00289,277739282.60319,   0.00154,   0.00120,  -0.00051,  -1.19147,   1.00000
415824559.60495,81299960.56689,-165862823.38452,   0.00328,   0.00076,  -0.00268,477749574.78104,   0.00290,277749579.74430,   0.00155,   0.00120,  -0.00052,  -4.96326,   1.00000
415487839.16395,80981792.46421,-166045318.98233,   0.00329,   0.00076,  -0.00269,477759760.87266,   0.00290,277759764.87283,   0.00155,   0.00120,  -0.00053,  -4.00017,   1.00000
415163083.07140,80690309.80535,-166225322.49625,   0.00329,   0.00076,  -0.00270,477770077.93081,   0.00291,277770082.47440,   0.00156,   0.00120,  -0.00054,  -4.54359,   1.00000
414846817.46957,80412605.32473,-166401943.74799,   0.00330,   0.00075,  -0.00271,477780259.43489,   0.00292,277780259.85221,   0.00157,   0.00120,  -0.00054,  -0.41731,   1.00000
414535376.57000,80142355.64713,-166576589.73924,   0.00330,   0.00075,  -0.00272,477790555.33442,   0.00293,277790560.66155,   0.00157,   0.00119,  -0.00055,  -5.32713,   1.00000
414232393.56641,79885799.21537,-166747905.52518,   0.00331,   0.00075,  -0.00273,477800714.69828,   0.00294,277800720.66852,   0.00158,   0.00119,  -0.00056,  -5.97023,   1.00000
413941426.19230,79655785.11335,-166916784.76146,   0.00331,   0.00074,  -0.00274,477811006.81248,   0.00295,277811012.03111,   0.00158,   0.00119,  -0.00057,  -5.21863,   1.00000
413655840.79586,79426893.17479,-167081592.78053,   0.00332,   0.00074,  -0.00275,477821267.46739,   0.00296,277821271.56199,   0.00159,   0.00119,  -0.00057,  -4.09460,   1.00000
413373973.07468,79211064.62263,-167246549.45303,   0.00332,   0.00074,  -0.00276,477831420.89182,   0.00297,277831426.02663,   0.00159,   0.00119,  -0.00058,  -5.13481,   1.00000
413108828.13557,79022157.90439,-167405705.05432,   0.00333,   0.00074,  -0.00277,477841673.07696,   0.00298,277841674.50511,   0.00160,   0.00118,  -0.00059,  -1.42815,   1.00000
412851537.68798,78852905.02316,-167563761.22585,   0.00333,   0.00074,  -0.00278,477851935.16445,   0.00299,277851935.34868,   0.00161,   0.00118,  -0.00060,  -0.18423,   1.00000
412599571.61563,78684583.01171,-167717816.02407,   0.00334,   0.00073,  -0.00278,477862158.25633,   0.00300,277862163.43055,   0.00161,   0.00118,  -0.00060,  -5.17422,   1.00000
412360126.69485,78536327.20264,-167867420.07516,   0.00334,   0.00073,  -0.00279,477872358.59685,   0.00301,277872366.66347,   0.00162,   0.00118,  -0.00061,  -8.06661,   1.00000
412128508.73097,78407605.53270,-168015980.00932,   0.00335,   0.00073,  -0.00280,477882579.08016,   0.00302,277882581.51934,   0.00162,   0.00118,  -0.00062,  -2.43918,   1.00000
411897482.96812,78279218.06272,-168163968.05044,   0.00335,   0.00073,  -0.00281,477892791.34408,   0.00303,277892799.84242,   0.00163,   0.00117,  -0.00063,  -8.49834,   1.00000
411686165.35945,78189915.06629,-168307076.42555,   0.00335,   0.00073,  -0.00282,477902993.49112,   0.00304,277903000.79323,   0.00163,   0.00117,  -0.00064,  -7.30211,   1.00000
411472876.06928,78082156.91124,-168446747.38221,   0.00336,   0.00072,  -0.00283,477913152.57651,   0.00305,277913159.70313,   0.00164,   0.00117,  -0.00064,  -7.12662,   1.00000
411274579.73912,78012953.45373,-168584948.63179,   0.00336,   0.00072,  -0.00284,477923331.62947,   0.00306,277923337.74193,   0.00165,   0.00117,  -0.00065,  -6.11245,   1.00000
411084028.23277,77963045.79622,-168722157.12121,   0.00337,   0.00072,  -0.00285,477933521.28681,   0.00307,277933526.62087,   0.00165,   0.00117,  -0.00066,  -5.33406,   1.00000
410898673.04124,77913703.20012,-168855490.29769,   0.00337,   0.00072,  -0.00286,477943675.76919,   0.00308,277943681.09892,   0.00166,   0.00116,  -0.00067,  -5.32973,   1.00000
410725720.89759,77884066.88557,-168984496.54520,   0.00338,   0.00072,  -0.00287,477953801.51367,   0.00309,277953809.08374,   0.00166,   0.00116,  -0.00067,  -7.57006,   1.00000
410553237.63695,77854467.55421,-169113022.39786,   0.00338,   0.00071,  -0.00288,477963929.98538,   0.00310,277963939.35587,   0.00167,   0.00116,  -0.00068,  -9.37049,   1.00000
410395667.33744,77863188.50940,-169240126.52704,   0.00339,   0.00071,  -0.00289,477974085.03550,   0.00311,277974088.00617,   0.00167,   0.00116,  -0.00069,  -2.97067,   1.00000
410243209.47592,77872298.57302,-169363405.44059,   0.00339,   0.00071,  -0.00290,477984197.87435,   0.00312,277984201.65236,   0.00168,   0.00116,  -0.00070,  -3.77801,   1.00000
410103074.59277,77900940.97280,-169482406.22587,   0.00340,   0.00071,  -0.00291,477994279.30531,   0.00313,277994288.20339,   0.00168,   0.00115,  -0.00070,  -8.89808,   1.00000
409963331.78820,77929446.46222,-169600968.96032,   0.00340,   0.00071,  -0.00292,478004375.01927,   0.00314,278004376.48233,   0.00169,   0.00115,  -0.00071,  -1.46306,   1.00000
409844901.85542,77984650.15454,-169710575.14171,   0.00341,   0.00071,  -0.00293,478014514.31162,   0.00315,278014518.25342,   0.00170,   0.00115,  -0.00072,  -3.94180,   1.00000
409732198.82877,78070697.73872,-169823517.48362,   0.00341,   0.00071,  -0.00293,478024592.69939,   0.00316,278024596.95159,   0.00170,   0.00115,  -0.00073,  -4.25220,   1.00000
409617279.03245,78137768.77218,-169933179.27441,   0.00342,   0.00070,  -0.00294,478034624.49015,   0.00317,278034631.73487,   0.00171,   0.00115,  -0.00073,  -7.24472,   1.00000
409517094.39609,78242868.26956,-170041472.91094,   0.00342,   0.00070,  -0.00295,478044676.25512,   0.00318,278044684.29220,   0.00171,   0.00115,  -0.00074,  -8.03707,   1.00000
409421877.18354,78348078.99013,-170146030.77790,   0.00343,   0.00070,  -0.00296,478054696.44435,   0.00319,278054700.83465,   0.00172,   0.00114,  -0.00075,  -4.39030,   1.00000
409334116.17135,78472062.60517,-170249710.59719,   0.00343,   0.00070,  -0.00297,478064726.53391,   0.00320,278064726.85179,   0.00172,   0.00114,  -0.00076,  -0.31789,   1.00000
409258479.21045,78615242.63503,-170349184.31841,   0.00344,   0.00070,  -0.00298,478074720.44700,   0.00321,278074724.99375,   0.00173,   0.00114,  -0.00077,  -4.54675,   1.00000
409194934.86552,78777565.45817,-170444469.39157,   0.00344,   0.00070,  -0.00299,478084689.37115,   0.00322,278084695.07288,   0.00173,   0.00114,  -0.00077,  -5.70173,   1.00000
409131538.47066,78939352.89481,-170539384.79519,   0.00345,   0.00070,  -0.00300,478094659.67531,   0.00322,278094666.12662,   0.00174,   0.00114,  -0.00078,  -6.45131,   1.00000
409080190.15455,79120232.02947,-170630125.33538,   0.00345,   0.00070,  -0.00301,478104604.18771,   0.00323,278104609.02248,   0.00175,   0.00113,  -0.00079,  -4.83476,   1.00000
409036132.33167,79319656.16107,-170720013.25182,   0.00346,   0.00070,  -0.00301,478114556.15413,   0.00324,278114561.18793,   0.00175,   0.00113,  -0.00080,  -5.03380,   1.00000
409004045.56090,79538062.18746,-170805733.64849,   0.00346,   0.00069,  -0.00302,478124481.02201,   0.00325,278124485.14632,   0.00176,   0.00113,  -0.00080,  -4.12431,   1.00000
408971996.67725,79755766.62177,-170891105.71075,   0.00347,   0.00069,  -0.00303,478134407.13559,   0.00326,278134409.86926,   0.00176,   0.00113,  -0.00081,  -2.73367,   1.00000
408951869.84949,79992403.72733,-170972320.74453,   0.00347,   0.00069,  -0.00304,478144305.42644,   0.00327,278144306.34376,   0.00177,   0.00113,  -0.00082,  -0.91732,   1.00000
408938897.18918,80247415.94749,-171052690.25424,   0.00348,   0.00069,  -0.00305,478154209.59178,   0.00328,278154212.10186,   0.00177,   0.00112,  -0.00083,  -2.51008,   1.00000
408933393.32781,80514601.05834,-171130326.55888,   0.00348,   0.00069,  -0.00306,478163965.75171,   0.00329,278163971.52013,   0.00178,   0.00112,  -0.00083,  -5.76842,   1.00000
408932194.54731,80787591.79456,-171206206.86084,   0.00349,   0.00069,  -0.00307,478173842.15736,   0.00330,278173849.73486,   0.00178,   0.00112,  -0.00084,  -7.57750,   1.00000
408947506.79278,81079874.79222,-171274643.29995,   0.00349,   0.00069,  -0.00307,478183654.12630,   0.00331,278183662.11995,   0.00179,   0.00112,  -0.00085,  -7.99365,   1.00000
408956001.47095,81382711.22373,-171350275.39336,   0.00350,   0.00069,  -0.00308,478193432.91857,   0.00332,278193440.86905,   0.00179,   0.00112,  -0.00086,  -7.95048,   1.00000
408990041.98710,81711898.71682,-171413723.09119,   0.00350,   0.00069,  -0.00309,478203230.16625,   0.00333,278203234.49431,   0.00180,   0.00112,  -0.00086,  -4.32807,   1.00000
409021887.82904,82052060.49882,-171481064.45961,   0.00351,   0.00069,  -0.00310,478212947.41406,   0.00334,278212957.08386,   0.00180,   0.00111,  -0.00087,  -9.66980,   1.00000
409067341.62898,82398813.84010,-171540057.31660,   0.00351,   0.00069,  -0.00311,478222714.40329,   0.00335,278222723.16412,   0.00181,   0.00111,  -0.00088,  -8.76083,   1.00000
409110549.52302,82756506.33551,-171602952.10935,   0.00352,   0.00069,  -0.00312,478232412.96078,   0.00336,278232418.24026,   0.00182,   0.00111,  -0.00089,  -5.27947,   1.00000
409165315.13226,83132750.85420,-171661697.59521,   0.00352,   0.00069,  -0.00312,478242079.32239,   0.00337,278242085.46500,   0.00182,   0.00111,  -0.00089,  -6.14261,   1.00000
409228858.92512,83514925.19292,-171715393.25620,   0.00353,   0.00069,  -0.00313,478251830.11737,   0.00338,278251833.76899,   0.00183,   0.00111,  -0.00090,  -3.65162,   1.00000
409294783.79361,83908503.49620,-171769695.46630,   0.00353,   0.00069,  -0.00314,478261465.14690,   0.00338,278261473.72589,   0.00183,   0.00111,  -0.00091,  -8.57899,   1.00000
409372158.57265,84320541.24997,-171819855.81219,   0.00353,   0.00069,  -0.00315,478271078.42892,   0.00339,278271085.93221,   0.00184,   0.00110,  -0.00092,  -7.50329,   1.00000
409456179.80144,84750429.11261,-171869157.06871,   0.00354,   0.00069,  -0.00316,478280705.15745,   0.00340,278280708.16754,   0.00184,   0.00110,  -0.00092,  -3.01009,   1.00000
409551536.89502,85198672.17624,-171914301.19729,   0.00354,   0.00069,  -0.00316,478290297.67593,   0.00341,278290302.97711,   0.00185,   0.00110,  -0.00093,  -5.30118,   1.00000
409642080.51048,85639091.43317,-171960616.79836,   0.00355,   0.00069,  -0.00317,478299773.89474,   0.00342,278299780.26770,   0.00185,   0.00110,  -0.00094,  -6.37295,   1.00000
409748241.75017,86104302.97566,-172001302.09313,   0.00355,   0.00069,  -0.00318,478309345.11263,   0.00343,278309348.45314,   0.00186,   0.00110,  -0.00094,  -3.34051,   1.00000
409865612.19524,86587778.30523,-172037826.68112,   0.00356,   0.00069,  -0.00319,478318881.16173,   0.00344,278318889.49458,   0.00186,   0.00110,  -0.00095,  -8.33285,   1.00000
409980331.51758,87081889.13188,-172078231.36654,   0.00356,   0.00069,  -0.00320,478328358.97663,   0.00345,278328360.59890,   0.00187,   0.00109,  -0.00096,  -1.62227,   1.00000
410108261.31032,87582085.76605,-172110284.41138,   0.00357,   0.00069,  -0.00320,478337873.08466,   0.00346,278337875.46571,   0.00187,   0.00109,  -0.00097,  -2.38105,   1.00000
410245189.66922,88112574.87384,-172142333.28361,   0.00357,   0.00069,  -0.00321,478347290.39814,   0.00347,278347293.08868,   0.00188,   0.00109,  -0.00097,  -2.69053,   1.00000
410379229.48404,88622996.85491,-172171409.23390,   0.00358,   0.00069,  -0.00322,478356658.64743,   0.00348,278356663.80562,   0.00188,   0.00109,  -0.00098,  -5.15819,   1.00000
410521715.98656,89169444.90814,-172202245.73907,   0.00358,   0.00069,  -0.00323,478366089.91153,   0.00348,278366093.62968,   0.00189,   0.00109,  -0.00099,  -3.71815,   1.00000
410679921.56840,89734564.15557,-172225601.55794,   0.00359,   0.00069,  -0.00323,478375458.93389,   0.00349,278375459.58216,   0.00189,   0.00109,  -0.00100,  -0.64827,   1.00000
410837316.24461,90297994.46773,-172248650.73710,   0.00359,   0.00069,  -0.00324,478384819.53008,   0.00350,278384826.70045,   0.00190,   0.00108,  -0.00100,  -7.17037,   1.00000
410996565.68217,90872545.77785,-172272272.47546,   0.00360,   0.00069,  -0.00325,478394084.34969,   0.00351,278394087.25839,   0.00190,   0.00108,  -0.00101,  -2.90870,   1.00000
411175657.64185,91471982.22955,-172286891.54253,   0.00360,   0.00069,  -0.00326,478403398.30872,   0.00352,278403402.70220,   0.00191,   0.00108,  -0.00102,  -4.39348,   1.00000
411344833.48062,92062766.22625,-172305989.31667,   0.00361,   0.00070,  -0.00326,478412628.98936,   0.00353,278412638.85525,   0.00191,   0.00108,  -0.00102,  -9.86589,   1.00000
411540616.18509,92697422.19435,-172315416.69160,   0.00361,   0.00070,  -0.00327,478421932.07634,   0.00354,278421941.12087,   0.00192,   0.00108,  -0.00103,  -9.04454,   1.00000
411726403.14526,93323351.16474,-172329318.24979,   0.00362,   0.00070,  -0.00328,478431158.05760,   0.00355,278431164.27604,   0.00192,   0.00108,  -0.00104,  -6.21844,   1.00000
411920795.86052,93948763.89754,-172336366.82289,   0.00362,   0.00070,  -0.00329,478440312.57262,   0.00356,278440313.59365,   0.00193,   0.00107,  -0.00105,  -1.02102,   1.00000
412114032.38434,94602948.60502,-172349815.30939,   0.00362,   0.00070,  -0.00329,478449440.86008,   0.00357,278449444.13897,   0.00193,   0.00107,  -0.00105,  -3.27890,   1.00000
412324785.60728,95263360.15290,-172351597.29077,   0.00363,   0.00070,  -0.00330,478458578.48771,   0.00357,278458581.79670,   0.00194,   0.00107,  -0.00106,  -3.30900,   1.00000
412532258.39003,95934094.71348,-172357169.90268,   0.00363,   0.00070,  -0.00331,478467645.76375,   0.00358,278467652.11753,   0.00194,   0.00107,  -0.00107,  -6.35378,   1.00000
412759129.84519,96629343.85627,-172353648.26825,   0.00364,   0.00070,  -0.00331,478476776.54318,   0.00359,278476778.97857,   0.00195,   0.00107,  -0.00107,  -2.43539,   1.00000
412982599.18414,97334834.51573,-172353891.53505,   0.00364,   0.00070,  -0.00332,478485836.85565,   0.00360,278485839.02612,   0.00195,   0.00107,  -0.00108,  -2.17047,   1.00000
413209669.67195,98038968.43446,-172350523.42290,   0.00365,   0.00071,  -0.00333,478494858.33471,   0.00361,278494863.62666,   0.00196,   0.00107,  -0.00109,  -5.29195,   1.00000
413438114.48347,98754085.86462,-172347636.32328,   0.00365,   0.00071,  -0.00334,478503776.54086,   0.00362,278503784.18489,   0.00196,   0.00106,  -0.00109,  -7.64403,   1.00000
413680919.80101,99492812.73597,-172338862.83368,   0.00366,   0.00071,  -0.00334,478512795.89551,   0.00363,278512799.90550,   0.00197,   0.00106,  -0.00110,  -4.00999,   1.00000
413929782.03459,100243201.47900,-172327274.87217,   0.00366,   0.00071,  -0.00335,478521667.59084,   0.00363,278521674.63626,   0.00197,   0.00106,  -0.00111,  -7.04542,   1.00000
414181381.53353,100997299.90280,-172313789.25991,   0.00367,   0.00071,  -0.00336,478530663.69785,   0.00364,278530670.11015,   0.00198,   0.00106,  -0.00112,  -6.41230,   1.00000
414445597.15707,101782069.99793,-172296717.59140,   0.00367,   0.00071,  -0.00336,478539537.21096,   0.00365,278539537.65373,   0.00198,   0.00106,  -0.00112,  -0.44277,   1.00000
414692905.05201,102538974.33263,-172284865.19121,   0.00368,   0.00071,  -0.00337,478548310.97024,   0.00366,278548314.52948,   0.00199,   0.00106,  -0.00113,  -3.55924,   1.00000
414965680.08767,103339010.87445,-172263008.82927,   0.00368,   0.00072,  -0.00338,478557161.18847,   0.00367,278557163.24761,   0.00199,   0.00106,  -0.00114,  -2.05914,   1.00000
415228107.46214,104130162.17866,-172245604.22044,   0.00368,   0.00072,  -0.00338,478565926.75468,   0.00368,278565934.23640,   0.00200,   0.00105,  -0.00114,  -7.48172,   1.00000
415515790.18298,104964287.61571,-172218135.72307,   0.00369,   0.00072,  -0.00339,478574773.12559,   0.00369,278574778.05566,   0.00200,   0.00105,  -0.00115,  -4.93007,   1.00000
415782547.34650,105764798.04423,-172197479.29087,   0.00369,   0.00072,  -0.00340,478583407.20845,   0.00369,278583412.74567,   0.00201,   0.00105,  -0.00116,  -5.53722,   1.00000
416074425.20502,106608230.60503,-172166711.75470,   0.00370,   0.00072,  -0.00340,478592116.29590,   0.00370,278592121.12004,   0.00201,   0.00105,  -0.00116,  -4.82414,   1.00000
416371123.94121,107468168.43019,-172134725.95430,   0.00370,   0.00073,  -0.00341,478600845.83994,   0.00371,278600846.73084,   0.00202,   0.00105,  -0.00117,  -0.89090,   1.00000
416662181.32726,108319997.41373,-172103901.84104,   0.00371,   0.00073,  -0.00341,478609452.34195,   0.00372,278609457.85014,   0.00202,   0.00105,  -0.00118,  -5.50819,   1.00000
416951587.09948,109169377.60950,-172072678.09678,   0.00371,   0.00073,  -0.00342,478618066.28843,   0.00373,278618072.59056,   0.00203,   0.00105,  -0.00118,  -6.30213,   1.00000
417256969.88285,110055014.09090,-172036071.42803,   0.00371,   0.00073,  -0.00343,478626673.89057,   0.00374,278626682.10479,   0.00203,   0.00104,  -0.00119,  -8.21422,   1.00000
417556690.32869,110932582.73996,-172000619.79802,   0.00372,   0.00073,  -0.00343,478635169.08581,   0.00374,278635177.44064,   0.00204,   0.00104,  -0.00120,  -8.35483,   1.00000
417865869.19226,111827426.99830,-171960601.74455,   0.00372,   0.00074,  -0.00344,478643644.83375,   0.00375,278643654.06257,   0.00204,   0.00104,  -0.00120,  -9.22882,   1.00000
418179574.05807,112738611.40978,-171919269.97432,   0.00373,   0.00074,  -0.00345,478652141.25527,   0.00376,278652149.63783,   0.00204,   0.00104,  -0.00121,  -8.38256,   1.00000
418502573.75893,113666963.74991,-171873326.73678,   0.00373,   0.00074,  -0.00345,478660618.12205,   0.00377,278660627.30361,   0.00205,   0.00104,  -0.00122,  -9.18156,   1.00000
418819833.69315,114587275.75519,-171828521.17011,   0.00374,   0.00074,  -0.00346,478668982.85468,   0.00378,278668991.39245,   0.00205,   0.00104,  -0.00122,  -8.53777,   1.00000
419150128.59656,115530093.53710,-171777492.99914,   0.00374,   0.00075,  -0.00346,478677449.39109,   0.00378,278677456.27602,   0.00206,   0.00104,  -0.00123,  -6.88493,   1.00000
419480877.77177,116483756.92251,-171726668.48021,   0.00374,   0.00075,  -0.00347,478685815.37883,   0.00379,278685823.23919,   0.00206,   0.00104,  -0.00124,  -7.86037,   1.00000
419805859.38367,117429427.89766,-171676967.78716,   0.00375,   0.00075,  -0.00347,478694069.33814,   0.00380,278694077.04869,   0.00207,   0.00104,  -0.00124,  -7.71054,   1.00000
420135056.40121,118391265.26229,-171625850.96436,   0.00375,   0.00075,  -0.00348,478702344.42395,   0.00381,278702351.63854,   0.00207,   0.00103,  -0.00125,  -7.21459,   1.00000
420486721.99662,119377271.36834,-171561871.82500,   0.00376,   0.00076,  -0.00349,478710649.94267,   0.00382,278710654.16960,   0.00208,   0.00103,  -0.00126,  -4.22693,   1.00000
420820321.08750,120366058.79676,-171509460.95902,   0.00376,   0.00076,  -0.00349,478718845.28909,   0.00382,278718853.32884,   0.00208,   0.00103,  -0.00126,  -8.03975,   1.00000
421170149.55880,121360098.21755,-171445113.69684,   0.00377,   0.00076,  -0.00350,478727060.68653,   0.00383,278727065.03655,   0.00209,   0.00103,  -0.00127,  -4.35001,   1.00000
421515334.97439,122364039.78841,-171384159.73187,   0.00377,   0.00076,  -0.00350,478735216.22362,   0.00384,278735217.79395,   0.00209,   0.00103,  -0.00128,  -1.57033,   1.00000
421869265.49659,123384927.74650,-171318405.78398,   0.00377,   0.00077,  -0.00351,478743352.12614,   0.00385,278743356.14571,   0.00209,   0.00103,  -0.00128,  -4.01957,   1.00000
422223330.97485,124416699.40913,-171252714.24891,   0.00378,   0.00077,  -0.00351,478751396.31211,   0.00386,278751399.40145,   0.00210,   0.00103,  -0.00129,  -3.08934,   1.00000
422575137.99566,125445549.05135,-171186488.13666,   0.00378,   0.00077,  -0.00352,478759442.71546,   0.00386,278759449.00363,   0.00210,   0.00103,  -0.00129,  -6.28817,   1.00000
422935536.28361,126491285.46315,-171115405.36023,   0.00379,   0.00078,  -0.00352,478767479.42175,   0.00387,278767485.23482,   0.00211,   0.00103,  -0.00130,  -5.81307,   1.00000
423293614.94208,127534046.11190,-171043783.23738,   0.00379,   0.00078,  -0.00353,478775518.70785,   0.00388,278775527.97587,   0.00211,   0.00102,  -0.00131,  -9.26802,   1.00000
423656606.51585,128588811.29062,-170968879.55645,   0.00379,   0.00078,  -0.00354,478783433.85787,   0.00389,278783439.94607,   0.00212,   0.00102,  -0.00131,  -6.08820,   1.00000
424023116.36133,129659328.60871,-170892349.61923,   0.00380,   0.00079,  -0.00354,478791371.68207,   0.00389,278791376.49778,   0.00212,   0.00102,  -0.00132,  -4.81571,   1.00000
424389528.73575,130740774.90345,-170815771.91865,   0.00380,   0.00079,  -0.00355,478799217.08747,   0.00390,278799220.11499,   0.00213,   0.00102,  -0.00133,  -3.02752,   1.00000
424753509.70644,131819169.04137,-170738615.27911,   0.00381,   0.00079,  -0.00355,478807066.44752,   0.00391,278807070.96483,   0.00213,   0.00102,  -0.00133,  -4.51731,   1.00000
425131518.48193,132933009.67671,-170655356.23461,   0.00381,   0.00080,  -0.00356,478814925.25078,   0.00392,278814929.21228,   0.00213,   0.00102,  -0.00134,  -3.96149,   1.00000
425497750.69935,134020380.20753,-170574232.02042,   0.00381,   0.00080,  -0.00356,478822653.72794,   0.00393,278822658.61094,   0.00214,   0.00102,  -0.00134,  -4.88300,   1.00000
425877864.19853,135143169.06726,-170486946.21487,   0.00382,   0.00080,  -0.00357,478830391.31353,   0.00393,278830396.48970,   0.00214,   0.00102,  -0.00135,  -5.17617,   1.00000
426255383.18519,136262781.41829,-170399046.99272,   0.00382,   0.00081,  -0.00357,478838134.27394,   0.00394,278838142.31902,   0.00215,   0.00102,  -0.00136,  -8.04508,   1.00000
426632566.42173,137393368.64177,-170310985.27738,   0.00382,   0.00081,  -0.00358,478845793.67873,   0.00395,278845797.43924,   0.00215,   0.00102,  -0.00136,  -3.76051,   1.00000
427007138.71548,138520767.01979,-170222297.82903,   0.00383,   0.00081,  -0.00358,478853458.86452,   0.00395,278853460.71868,   0.00216,   0.00101,  -0.00137,  -1.85416,   1.00000
427386240.09610,139660379.72707,-170130106.29386,   0.00383,   0.00082,  -0.00359,478860997.06463,   0.00396,278860997.52419,   0.00216,   0.00101,  -0.00137,  -0.45957,   1.00000
427768253.93886,140815395.63453,-170036073.52993,   0.00384,   0.00082,  -0.00359,478868559.95330,   0.00397,278868562.63337,   0.00216,   0.00101,  -0.00138,  -2.68008,   1.00000
428153084.11889,141985730.72378,-169940168.33468,   0.00384,   0.00082,  -0.00360,478876147.97595,   0.00398,278876156.53189,   0.00217,   0.00101,  -0.00139,  -8.55595,   1.00000
428536763.85951,143149709.11475,-169841904.64476,   0.00384,   0.00083,  -0.00360,478883599.45548,   0.00398,278883605.23035,   0.00217,   0.00101,  -0.00139,  -5.77488,   1.00000
428923163.48215,144328972.90075,-169741735.30662,   0.00385,   0.00083,  -0.00360,478891076.41103,   0.00399,278891083.35690,   0.00218,   0.00101,  -0.00140,  -6.94588,   1.00000
429311688.01353,145506161.78800,-169637580.47844,   0.00385,   0.00083,  -0.00361,478898526.60189,   0.00400,278898534.31807,   0.00218,   0.00101,  -0.00140,  -7.71619,   1.00000
429694632.39105,146693150.19728,-169536415.49741,   0.00385,   0.00084,  -0.00361,478905926.78658,   0.00401,278905933.93635,   0.00218,   0.00101,  -0.00141,  -7.14977,   1.00000
430076889.52722,147891217.66366,-169434889.20162,   0.00386,   0.00084,  -0.00362,478913241.95784,   0.00401,278913246.52637,   0.00219,   0.00101,  -0.00142,  -4.56853,   1.00000
430466545.76777,149105706.89678,-169328036.43399,   0.00386,   0.00085,  -0.00362,478920548.75530,   0.00402,278920554.05678,   0.00219,   0.00101,  -0.00142,  -5.30148,   1.00000
430858206.18035,150318085.50357,-169217144.57167,   0.00386,   0.00085,  -0.00363,478927829.67463,   0.00403,278927835.41474,   0.00220,   0.00101,  -0.00143,  -5.74011,   1.00000
431238844.59206,151521792.77186,-169110479.77399,   0.00387,   0.00085,  -0.00363,478935042.60245,   0.00403,278935045.21223,   0.00220,   0.00101,  -0.00143,  -2.60979,   1.00000
431631976.03328,152760336.04789,-168997096.74954,   0.00387,   0.00086,  -0.00363,478942265.23175,   0.00404,278942272.97184,   0.00220,   0.00101,  -0.00144,  -7.74009,   1.00000
432018965.57899,153991546.36518,-168884583.00233,   0.00387,   0.00086,  -0.00364,478949393.49674,   0.00405,278949393.73804,   0.00221,   0.00100,  -0.00144,  -0.24130,   1.00000
432408110.81144,155237705.56104,-168769953.50733,   0.00388,   0.00087,  -0.00364,478956540.98846,   0.00405,278956547.50536,   0.00221,   0.00100,  -0.00145,  -6.51690,   1.00000
432799154.41392,156481727.01980,-168651237.32635,   0.00388,   0.00087,  -0.00365,478963672.28865,   0.00406,278963676.01746,   0.00222,   0.00100,  -0.00145,  -3.72881,   1.00000
433189156.84231,157736910.72344,-168531984.20612,   0.00388,   0.00088,  -0.00365,478970717.63574,   0.00407,278970720.85036,   0.00222,   0.00100,  -0.00146,  -3.21463,   1.00000
433568084.99063,158983520.07588,-168416903.91617,   0.00389,   0.00088,  -0.00366,478977686.54492,   0.00408,278977695.22429,   0.00222,   0.00100,  -0.00147,  -8.67937,   1.00000
433958942.99045,160264717.43955,-168294870.46177,   0.00389,   0.00088,  -0.00366,478984683.21008,   0.00408,278984691.50035,   0.00223,   0.00100,  -0.00147,  -8.29027,   1.00000
434338641.48120,161520455.44833,-168175074.40974,   0.00389,   0.00089,  -0.00366,478991549.79945,   0.00409,278991558.57604,   0.00223,   0.00100,  -0.00148,  -8.77659,   1.00000
434725144.98358,162809271.35085,-168051597.44472,   0.00390,   0.00089,  -0.00367,478998480.82983,   0.00410,278998484.44435,   0.00224,   0.00100,  -0.00148,  -3.61452,   1.00000
435113377.73866,164095908.45701,-167923951.00963,   0.00390,   0.00090,  -0.00367,479005379.53733,   0.00410,279005386.55902,   0.00224,   0.00100,  -0.00149,  -7.02170,   1.00000
435500310.08449,165393774.02280,-167795616.79138,   0.00390,   0.00090,  -0.00367,479012199.99017,   0.00411,279012207.70304,   0.00224,   0.00100,  -0.00149,  -7.71287,   1.00000
435881067.49541,166684658.14927,-167668053.13087,   0.00391,   0.00091,  -0.00368,479018915.76028,   0.00412,279018923.96311,   0.00225,   0.00100,  -0.00150,  -8.20283,   1.00000
436263404.45523,167990147.75391,-167538154.43824,   0.00391,   0.00091,  -0.00368,479025671.14186,   0.00412,279025676.97200,   0.00225,   0.00100,  -0.00150,  -5.83015,   1.00000
436642469.95402,169291961.61385,-167407411.70084,   0.00391,   0.00092,  -0.00369,479032440.49783,   0.00413,279032442.25253,   0.00225,   0.00100,  -0.00151,  -1.75470,   1.00000
437017230.67739,170601906.44670,-167277482.67292,   0.00391,   0.00092,  -0.00369,479039002.91806,   0.00413,279039011.47510,   0.00226,   0.00100,  -0.00151,  -8.55703,   1.00000
437401202.77774,171931022.72357,-167140187.64791,   0.00392,   0.00093,  -0.00369,479045696.79001,   0.00414,279045700.09923,   0.00226,   0.00100,  -0.00152,  -3.30922,   1.00000
437771165.64486,173248669.59131,-167008564.44410,   0.00392,   0.00093,  -0.00370,479052194.17600,   0.00415,279052203.56431,   0.00227,   0.00100,  -0.00152,  -9.38830,   1.00000
438155151.21850,174586919.86997,-166866163.71531,   0.00392,   0.00094,  -0.00370,479058786.19621,   0.00415,279058791.95781,   0.00227,   0.00100,  -0.00153,  -5.76160,   1.00000
438520213.51456,175912278.14542,-166732794.31758,   0.00392,   0.00094,  -0.00370,479065226.86776,   0.00416,279065230.66315,   0.00227,   0.00099,  -0.00154,  -3.79539,   1.00000
438891417.87891,177253601.45457,-166593551.98121,   0.00393,   0.00095,  -0.00371,479071671.18812,   0.00417,279071673.77033,   0.00228,   0.00099,  -0.00154,  -2.58221,   1.00000
439263678.82169,178609184.38279,-166451775.71698,   0.00393,   0.00095,  -0.00371,479078149.98445,   0.00417,279078156.95673,   0.00228,   0.00099,  -0.00155,  -6.97228,   1.00000
439629725.19954,179958128.90687,-166310659.93416,   0.00393,   0.00096,  -0.00371,479084530.64480,   0.00418,279084537.46317,   0.00228,   0.00099,  -0.00155,  -6.81837,   1.00000
439994006.98614,181318517.49839,-166168550.49186,   0.00394,   0.00096,  -0.00372,479090838.39531,   0.00418,279090842.42670,   0.00229,   0.00099,  -0.00156,  -4.03139,   1.00000
440359758.49240,182676761.16700,-166022112.89486,   0.00394,   0.00097,  -0.00372,479097116.92985,   0.00419,279097126.60003,   0.00229,   0.00099,  -0.00156,  -9.67018,   1.00000
440718707.13275,184044810.47601,-165878025.50098,   0.00394,   0.00097,  -0.00372,479103368.99749,   0.00420,279103370.86171,   0.00229,   0.00099,  -0.00157,  -1.86422,   1.00000
441079094.91879,185410714.26530,-165729589.46879,   0.00394,   0.00098,  -0.00372,479109592.24257,   0.00420,279109594.70133,   0.00230,   0.00099,  -0.00157,  -2.45876,   1.00000
441432587.93541,186786418.13432,-165583453.87287,   0.00395,   0.00098,  -0.00373,479115773.41181,   0.00421,279115779.48655,   0.00230,   0.00099,  -0.00158,  -6.07474,   1.00000
441779912.93496,188155787.05421,-165437918.11594,   0.00395,   0.00099,  -0.00373,479121862.05954,   0.00421,279121862.80285,   0.00230,   0.00099,  -0.00158,  -0.74332,   1.00000
442132832.43352,189540897.41754,-165286268.62009,   0.00395,   0.00099,  -0.00373,479127948.73122,   0.00422,279127954.63040,   0.00231,   0.00099,  -0.00159,  -5.89918,   1.00000
442483674.61767,190937556.19657,-165133439.55566,   0.00395,   0.00100,  -0.00374,479133968.48851,   0.00423,279133974.22979,   0.00231,   0.00099,  -0.00159,  -5.74128,   1.00000
442830874.71902,192330295.26523,-164979601.86671,   0.00395,   0.00100,  -0.00374,479140000.72030,   0.00423,279140009.07545,   0.00231,   0.00099,  -0.00159,  -8.35515,   1.00000
443175913.13098,193734606.68176,-164824532.92029,   0.00396,   0.00101,  -0.00374,479145965.79908,   0.00424,279145972.59583,   0.00232,   0.00099,  -0.00160,  -6.79675,   1.00000
443509774.20631,195130979.77989,-164673405.72032,   0.00396,   0.00101,  -0.00374,479151869.40900,   0.00424,279151870.36020,   0.00232,   0.00099,  -0.00160,  -0.95119,   1.00000
443844966.80891,196525255.88948,-164517841.35622,   0.00396,   0.00102,  -0.00375,479157745.90440,   0.00425,279157749.29627,   0.00232,   0.00099,  -0.00161,  -3.39187,   1.00000
444174341.68652,197944957.89857,-164364104.02161,   0.00396,   0.00102,  -0.00375,479163497.02146,   0.00426,279163506.93046,   0.00233,   0.00099,  -0.00161,  -9.90899,   1.00000
444503607.66429,199346932.48644,-164206189.21032,   0.00396,   0.00103,  -0.00375,479169326.83157,   0.00426,279169331.66793,   0.00233,   0.00099,  -0.00162,  -4.83635,   1.00000
444823100.39368,200756781.60321,-164051884.19033,   0.00397,   0.00104,  -0.00376,479175003.63116,   0.00427,279175006.07482,   0.00233,   0.00099,  -0.00162,  -2.44366,   1.00000
445147648.89239,202182150.87700,-163891213.82753,   0.00397,   0.00104,  -0.00376,479180688.51567,   0.00427,279180693.21366,   0.00234,   0.00099,  -0.00163,  -4.69799,   1.00000
445468435.18173,203603515.49864,-163729468.36972,   0.00397,   0.00105,  -0.00376,479186388.84873,   0.00428,279186396.78053,   0.00234,   0.00099,  -0.00163,  -7.93180,   1.00000
445779331.54695,205032902.41169,-163571237.82511,   0.00397,   0.00105,  -0.00376,479191947.81894,   0.00428,279191951.69945,   0.00234,   0.00099,  -0.00164,  -3.88051,   1.00000
446086457.96194,206458293.82509,-163411906.27876,   0.00397,   0.00106,  -0.00376,479197516.05979,   0.00429,279197523.43073,   0.00235,   0.00099,  -0.00164,  -7.37094,   1.00000
446398399.95684,207899068.28845,-163246108.84433,   0.00398,   0.00106,  -0.00377,479203108.08800,   0.00429,279203109.58719,   0.00235,   0.00099,  -0.00164,  -1.49919,   1.00000
446696740.56461,209330583.21653,-163085674.50563,   0.00398,   0.00107,  -0.00377,479208507.39983,   0.00430,279208517.08689,   0.00235,   0.00099,  -0.00165,  -9.68706,   1.00000
446994834.65441,210775499.02669,-162922160.38462,   0.00398,   0.00108,  -0.00377,479213965.67109,   0.00430,279213973.71898,   0.00236,   0.00099,  -0.00165,  -8.04789,   1.00000
447286717.53608,212214848.73357,-162759025.50049,   0.00398,   0.00108,  -0.00377,479219331.56997,   0.00431,279219333.10291,   0.00236,   0.00099,  -0.00166,  -1.53295,   1.00000
447579728.28637,213652164.62797,-162591305.62777,   0.00398,   0.00109,  -0.00378,479224666.33966,   0.00431,279224676.31210,   0.00236,   0.00099,  -0.00166,  -9.97243,   1.00000
447857727.89134,215095962.93159,-162430364.65923,   0.00398,   0.00109,  -0.00378,479229901.56533,   0.00432,279229907.86665,   0.00236,   0.00099,  -0.00167,  -6.30132,   1.00000
448140198.60807,216555021.81993,-162262779.83089,   0.00398,   0.00110,  -0.00378,479235154.96184,   0.00433,279235156.77708,   0.00237,   0.00099,  -0.00167,  -1.81524,   1.00000
448411478.27634,218006669.52315,-162098973.35750,   0.00399,   0.00111,  -0.00378,479240336.72286,   0.00433,279240343.02283,   0.00237,   0.00099,  -0.00167,  -6.29998,   1.00000
448683844.74985,219456311.21734,-161930534.28767,   0.00399,   0.00111,  -0.00378,479245508.48713,   0.00434,279245513.89174,   0.00237,   0.00099,  -0.00168,  -5.40461,   1.00000
448953257.32262,220917894.88266,-161760339.07171,   0.00399,   0.00112,  -0.00379,479250620.15748,   0.00434,279250622.53288,   0.00238,   0.00099,  -0.00168,  -2.37540,   1.00000
449211501.58365,222372198.24719,-161593903.01812,   0.00399,   0.00112,  -0.00379,479255659.43569,   0.00435,279255668.92457,   0.00238,   0.00099,  -0.00169,  -9.48888,   1.00000
449466720.60279,223838499.08288,-161425648.76894,   0.00399,   0.00113,  -0.00379,479260650.07999,   0.00435,279260654.10343,   0.00238,   0.00099,  -0.00169,  -4.02344,   1.00000
449717993.33673,225300691.82794,-161256182.03196,   0.00399,   0.00114,  -0.00379,479265655.95012,   0.00435,279265658.05212,   0.00238,   0.00099,  -0.00169,  -2.10199,   1.00000
449958913.45437,226771836.77935,-161089776.07766,   0.00399,   0.00114,  -0.00379,479270516.87359,   0.00436,279270521.36269,   0.00239,   0.00099,  -0.00170,  -4.48910,   1.00000
450200815.71853,228241029.92649,-160918648.94074,   0.00399,   0.00115,  -0.00379,479275368.75259,   0.00436,279275370.81680,   0.00239,   0.00099,  -0.00170,  -2.06420,   1.00000
450431574.24537,229703160.62916,-160751232.34609,   0.00399,   0.00115,  -0.00380,479280152.86596,   0.00437,279280158.92467,   0.00239,   0.00099,  -0.00171,  -6.05872,   1.00000
450666252.62903,231180300.88545,-160576912.37058,   0.00399,   0.00116,  -0.00380,479284964.56064,   0.00437,279284968.72609,   0.00239,   0.00099,  -0.00171,  -4.16545,   1.00000
450882609.73132,232647557.10339,-160411218.92809,   0.00400,   0.00117,  -0.00380,479289634.10854,   0.00438,279289637.21947,   0.00240,   0.00099,  -0.00171,  -3.11094,   1.00000
451102759.51360,234129769.92397,-160238552.94851,   0.00400,   0.00117,  -0.00380,479294319.87198,   0.00438,279294328.50878,   0.00240,   0.00099,  -0.00172,  -8.63680,   1.00000
451316676.21984,235607275.95284,-160066046.81276,   0.00400,   0.00118,  -0.00380,479298921.41188,   0.00439,279298926.63724,   0.00240,   0.00099,  -0.00172,  -5.22536,   1.00000
451519453.38813,237077928.42891,-159897197.86317,   0.00400,   0.00119,  -0.00380,479303459.13099,   0.00439,279303464.40384,   0.00241,   0.00099,  -0.00172,  -5.27285,   1.00000
451720935.85403,238561197.59146,-159724814.53051,   0.00400,   0.00119,  -0.00381,479308053.94971,   0.00440,279308058.73007,   0.00241,   0.00099,  -0.00173,  -4.78036,   1.00000
451909073.20816,240037274.75444,-159557475.73850,   0.00400,   0.00120,  -0.00381,479312471.71530,   0.00440,279312480.52786,   0.00241,   0.00099,  -0.00173,  -8.81256,   1.00000
452100721.83928,241528175.42839,-159383028.80792,   0.00400,   0.00121,  -0.00381,479316919.55701,   0.00440,279316927.36298,   0.00241,   0.00099,  -0.00174,  -7.80597,   1.00000
452281190.16318,243012336.91020,-159212185.30293,   0.00400,   0.00121,  -0.00381,479321313.68290,   0.00441,279321314.79051,   0.00242,   0.00099,  -0.00174,  -1.10761,   1.00000
452455419.51133,244492150.49435,-159041411.80859,   0.00400,   0.00122,  -0.00381,479325601.01625,   0.00441,279325610.66081,   0.00242,   0.00099,  -0.00174,  -9.64457,   1.00000
452625914.27882,245984240.89813,-158868372.14429,   0.00400,   0.00123,  -0.00381,479329846.88584,   0.00442,279329852.94897,   0.00242,   0.00099,  -0.00175,  -6.06313,   1.00000
452780323.46902,247467400.03061,-158702427.98036,   0.00400,   0.00123,  -0.00381,479334067.12366,   0.00442,279334068.68665,   0.00242,   0.00099,  -0.00175,  -1.56299,   1.00000
452940479.88453,248951147.59747,-158528064.22088,   0.00400,   0.00124,  -0.00381,479338232.75885,   0.00443,279338241.27259,   0.00242,   0.00099,  -0.00175,  -8.51373,   1.00000
453091833.38976,250444820.16450,-158354885.20688,   0.00400,   0.00125,  -0.00381,479342386.72067,   0.00443,279342393.83233,   0.00243,   0.00099,  -0.00176,  -7.11166,   1.00000
453224955.74649,251929737.79470,-158190145.97377,   0.00400,   0.00125,  -0.00382,479346404.89222,   0.00443,279346408.58202,   0.00243,   0.00099,  -0.00176,  -3.68979,   1.00000
453358895.70445,253412948.45163,-158020483.80338,   0.00400,   0.00126,  -0.00382,479350410.65428,   0.00444,279350412.93075,   0.00243,   0.00099,  -0.00176,  -2.27648,   1.00000
453488790.20307,254908528.10827,-157848367.93607,   0.00400,   0.00127,  -0.00382,479354359.84055,   0.00444,279354366.85225,   0.00243,   0.00099,  -0.00177,  -7.01169,   1.00000
453607499.82775,256397787.79682,-157679749.82015,   0.00400,   0.00127,  -0.00382,479358259.04353,   0.00444,279358263.26480,   0.00244,   0.00099,  -0.00177,  -4.22127,   1.00000
453726972.02623,257885357.24215,-157506176.59510,   0.00400,   0.00128,  -0.00382,479362146.34599,   0.00445,279362149.87792,   0.00244,   0.00099,  -0.00177,  -3.53192,   1.00000
453830312.02427,259380785.43292,-157338508.32224,   0.00400,   0.00129,  -0.00382,479365935.14863,   0.00445,279365939.98713,   0.00244,   0.00099,  -0.00177,  -4.83850,   1.00000
453922458.14003,260870031.35427,-157174294.03730,   0.00400,   0.00129,  -0.00382,479369671.01982,   0.00446,279369673.31747,   0.00244,   0.00099,  -0.00178,  -2.29766,   1.00000
454020213.26924,262360142.74903,-157001516.06035,   0.00400,   0.00130,  -0.00382,479373360.47367,   0.00446,279373365.99045,   0.00244,   0.00099,  -0.00178,  -5.51678,   1.00000
454103836.64364,263857661.95600,-156833235.91665,   0.00400,   0.00131,  -0.00382,479377070.02899,   0.00446,279377074.39337,   0.00245,   0.00099,  -0.00178,  -4.36438,   1.00000
454174080.74949,265349741.31513,-156669674.26466,   0.00400,   0.00131,  -0.00382,479380607.14250,   0.00447,279380616.27726,   0.00245,   0.00099,  -0.00179,  -9.13476,   1.00000
454245014.74335,266840240.07641,-156501073.71744,   0.00400,   0.00132,  -0.00382,479384143.02073,   0.00447,279384149.75296,   0.00245,   0.00099,  -0.00179,  -6.73223,   1.00000
454306531.37278,268340660.14328,-156333309.30771,   0.00400,   0.00133,  -0.00382,479387662.12265,   0.00447,279387668.97737,   0.00245,   0.00099,  -0.00179,  -6.85471,   1.00000
454361641.06086,269837705.28175,-156165335.53224,   0.00399,   0.00133,  -0.00383,479391094.54913,   0.00448,279391101.62974,   0.00245,   0.00099,  -0.00180,  -7.08061,   1.00000
454405497.09172,271328872.43785,-156000729.09690,   0.00399,   0.00134,  -0.00383,479394476.48716,   0.00448,279394479.08920,   0.00246,   0.00099,  -0.00180,  -2.60204,   1.00000
454438112.19816,272814224.07342,-155839480.19057,   0.00399,   0.00135,  -0.00383,479397797.72594,   0.00448,279397801.51306,   0.00246,   0.00099,  -0.00180,  -3.78712,   1.00000
454465974.46875,274312133.64722,-155675363.37209,   0.00399,   0.00135,  -0.00383,479401078.19281,   0.00449,279401080.42539,   0.00246,   0.00099,  -0.00180,  -2.23258,   1.00000
454487380.63435,275806927.42325,-155510968.60066,   0.00399,   0.00136,  -0.00383,479404272.43660,   0.00449,279404273.97717,   0.00246,   0.00099,  -0.00181,  -1.54057,   1.00000
454497489.61416,277296035.71811,-155349882.60613,   0.00399,   0.00137,  -0.00383,479407410.72070,   0.00449,279407413.36239,   0.00246,   0.00099,  -0.00181,  -2.64169,   1.00000
454496316.50631,278779522.41694,-155192097.85594,   0.00399,   0.00138,  -0.00383,479410491.63708,   0.00450,279410498.70425,   0.00246,   0.00099,  -0.00181,  -7.06717,   1.00000
454490151.00493,280275625.80686,-155031313.41419,   0.00399,   0.00138,  -0.00383,479413534.12553,   0.00450,279413542.73806,   0.00247,   0.00099,  -0.00181,  -8.61252,   1.00000
454484494.10344,281770260.78496,-154865353.46734,   0.00399,   0.00139,  -0.00383,479416576.61237,   0.00450,279416580.69460,   0.00247,   0.00099,  -0.00182,  -4.08223,   1.00000
454455621.06979,283255275.33459,-154711085.66957,   0.00398,   0.00140,  -0.00383,479419514.14236,   0.00450,279419518.19076,   0.00247,   0.00099,  -0.00182,  -4.04840,   1.00000
454425053.17281,284740312.90121,-154552832.95146,   0.00398,   0.00140,  -0.00383,479422337.22636,   0.00451,279422341.28166,   0.00247,   0.00099,  -0.00182,  -4.05530,   1.00000
454379591.87528,286232514.56362,-154398676.78483,   0.00398,   0.00141,  -0.00383,479425183.87756,   0.00451,279425186.64601,   0.00247,   0.00100,  -0.00182,  -2.76845,   1.00000
454326295.11365,287706837.46395,-154246861.98760,   0.00398,   0.00142,  -0.00383,479427897.09236,   0.00451,279427904.54841,   0.00247,   0.00100,  -0.00182,  -7.45605,   1.00000
454274708.18709,289195061.48782,-154087054.20536,   0.00398,   0.00143,  -0.00383,479430654.77912,   0.00452,279430661.89446,   0.00248,   0.00100,  -0.00183,  -7.11534,   1.00000
454205775.26253,290691965.06230,-153932436.18571,   0.00398,   0.00143,  -0.00383,479433332.39368,   0.00452,279433334.89273,   0.00248,   0.00100,  -0.00183,  -2.49905,   1.00000
454124225.20675,292168479.41984,-153783766.01955,   0.00397,   0.00144,  -0.00383,479435906.05338,   0.00452,279435911.33017,   0.00248,   0.00100,  -0.00183,  -5.27679,   1.00000
454037097.69302,293657694.37869,-153631794.46426,   0.00397,   0.00145,  -0.00383,479438447.65445,   0.00452,279438451.49208,   0.00248,   0.00100,  -0.00183,  -3.83763,   1.00000
453938443.57419,295141724.92101,-153482939.07880,   0.00397,   0.00145,  -0.00383,479440935.74106,   0.00453,279440940.83206,   0.00248,   0.00100,  -0.00184,  -5.09100,   1.00000
453833041.28226,296623484.92890,-153333553.13691,   0.00397,   0.00146,  -0.00383,479443342.26540,   0.00453,279443349.26058,   0.00248,   0.00100,  -0.00184,  -6.99518,   1.00000
453716101.98740,298100183.97110,-153187264.98704,   0.00397,   0.00147,  -0.00383,479445702.73992,   0.00453,279445707.21580,   0.00248,   0.00100,  -0.00184,  -4.47587,   1.00000
453587619.19179,299571873.74479,-153044063.29441,   0.00396,   0.00148,  -0.00383,479448014.66198,   0.00453,279448014.89036,   0.00248,   0.00100,  -0.00184,  -0.22838,   1.00000
453453188.53880,301056268.92508,-152897383.24058,   0.00396,   0.00148,  -0.00383,479450284.79174,   0.00453,279450289.23353,   0.00249,   0.00100,  -0.00184,  -4.44179,   1.00000
453306294.68822,302520964.57244,-152756656.68030,   0.00396,   0.00149,  -0.00383,479452460.39039,   0.00454,279452467.15938,   0.00249,   0.00100,  -0.00184,  -6.76899,   1.00000
453153341.79677,303998407.16536,-152612396.86215,   0.00396,   0.00150,  -0.00383,479454606.46531,   0.00454,279454612.68394,   0.00249,   0.00100,  -0.00185,  -6.21863,   1.00000
452988697.22999,305470968.46570,-152471145.20060,   0.00395,   0.00151,  -0.00383,479456699.50787,   0.00454,279456709.29185,   0.00249,   0.00100,  -0.00185,  -9.78397,   1.00000
452812356.87275,306938701.47922,-152332892.90320,   0.00395,   0.00151,  -0.00383,479458747.91364,   0.00454,279458757.13671,   0.00249,   0.00100,  -0.00185,  -9.22307,   1.00000
452622501.87256,308418476.44074,-152195721.44891,   0.00395,   0.00152,  -0.00383,479460693.13671,   0.00454,279460698.34761,   0.00249,   0.00100,  -0.00185,  -5.21089,   1.00000
452427393.01897,309879634.54342,-152059745.32928,   0.00395,   0.00153,  -0.00383,479462612.82958,   0.00455,279462619.88271,   0.00249,   0.00100,  -0.00185,  -7.05313,   1.00000
452213889.11173,311349928.99310,-151928443.68347,   0.00394,   0.00153,  -0.00383,479464465.34146,   0.00455,279464465.75831,   0.00249,   0.00100,  -0.00185,  -0.41685,   1.00000
451993211.89415,312818543.70454,-151796374.09010,   0.00394,   0.00154,  -0.00383,479466228.35759,   0.00455,279466234.85059,   0.00249,   0.00100,  -0.00186,  -6.49299,   1.00000
451767880.67895,314283013.97052,-151662488.53043,   0.00394,   0.00155,  -0.00383,479468029.18486,   0.00455,279468032.73719,   0.00250,   0.00100,  -0.00186,  -3.55233,   1.00000
451523369.04076,315742391.16828,-151536193.46463,   0.00393,   0.00156,  -0.00383,479469702.84945,   0.00455,279469708.17529,   0.00250,   0.00100,  -0.00186,  -5.32583,   1.00000
451271597.86047,317200276.67030,-151409085.90122,   0.00393,   0.00156,  -0.00383,479471301.26922,   0.00456,279471307.63969,   0.00250,   0.00100,  -0.00186,  -6.37047,   1.00000
451007833.78701,318653651.26540,-151284826.15652,   0.00393,   0.00157,  -0.00383,479472854.80214,   0.00456,279472860.96423,   0.00250,   0.00100,  -0.00186,  -6.16208,   1.00000
450736728.53928,320105650.19720,-151159717.99294,   0.00392,   0.00158,  -0.00383,479474330.09156,   0.00456,279474338.96327,   0.00250,   0.00100,  -0.00186,  -8.87171,   1.00000
450446532.08802,321566909.34670,-151038989.86818,   0.00392,   0.00159,  -0.00383,479475740.45891,   0.00456,279475746.25951,   0.00250,   0.00100,  -0.00186,  -5.80059,   1.00000
450151224.52074,323010050.30899,-150919479.67098,   0.00392,   0.00159,  -0.00383,479477127.59997,   0.00456,279477133.66380,   0.00250,   0.00100,  -0.00186,  -6.06383,   1.00000
449836643.05497,324462474.63956,-150804273.31424,   0.00391,   0.00160,  -0.00383,479478444.81742,   0.00456,279478451.63708,   0.00250,   0.00100,  -0.00187,  -6.81966,   1.00000
449514448.42806,325913668.99750,-150688103.69347,   0.00391,   0.00161,  -0.00383,479479686.34200,   0.00456,279479696.24117,   0.00250,   0.00100,  -0.00187,  -9.89917,   1.00000
449187206.87326,327346925.41255,-150573172.31028,   0.00391,   0.00162,  -0.00383,479480913.01926,   0.00456,279480920.68415,   0.00250,   0.00100,  -0.00187,  -7.66489,   1.00000
448840395.53229,328789501.20114,-150462428.17796,   0.00390,   0.00162,  -0.00382,479482068.35638,   0.00457,279482077.66217,   0.00250,   0.00100,  -0.00187,  -9.30579,   1.00000
448478361.97991,330230908.58502,-150355302.70238,   0.00390,   0.00163,  -0.00382,479483084.52321,   0.00457,279483087.88393,   0.00250,   0.00100,  -0.00187,  -3.36072,   1.00000
448106710.22813,331664923.34466,-150249888.73154,   0.00390,   0.00164,  -0.00382,479484154.71440,   0.00457,279484158.82511,   0.00250,   0.00100,  -0.00187,  -4.11071,   1.00000
447731822.66144,333101175.55951,-150139717.26936,   0.00389,   0.00165,  -0.00382,479485125.75898,   0.00457,279485128.97513,   0.00250,   0.00100,  -0.00187,  -3.21614,   1.00000
447332225.35080,334529997.63482,-150040481.21528,   0.00389,   0.00165,  -0.00382,479486004.88045,   0.00457,279486012.02861,   0.00250,   0.00100,  -0.00187,  -7.14816,   1.00000
446924623.57754,335957939.01335,-149940134.81304,   0.00388,   0.00166,  -0.00382,479486822.13159,   0.00457,279486824.29721,   0.00250,   0.00100,  -0.00187,  -2.16562,   1.00000
446504255.24929,337395092.98962,-149839073.03929,   0.00388,   0.00167,  -0.00382,479487640.54658,   0.00457,279487647.81958,   0.00251,   0.00100,  -0.00187,  -7.27300,   1.00000
446071201.94498,338814779.61479,-149743833.04688,   0.00387,   0.00168,  -0.00382,479488375.99808,   0.00457,279488377.92293,   0.00251,   0.00100,  -0.00187,  -1.92485,   1.00000
445617701.43705,340230521.18625,-149655706.18462,   0.00387,   0.00168,  -0.00382,479488990.23003,   0.00457,279488993.97567,   0.00251,   0.00100,  -0.00187,  -3.74563,   1.00000
445163408.27477,341658526.49924,-149558462.55677,   0.00387,   0.00169,  -0.00382,479489661.87076,   0.00457,279489667.51015,   0.00251,   0.00100,  -0.00187,  -5.63939,   1.00000
444688628.68278,343069510.47713,-149471591.11798,   0.00386,   0.00170,  -0.00382,479490171.94919,   0.00457,279490174.93420,   0.00251,   0.00100,  -0.00188,  -2.98501,   1.00000
444200836.54232,344476484.38970,-149387173.67364,   0.00386,   0.00171,  -0.00382,479490637.99194,   0.00457,279490642.97685,   0.00251,   0.00100,  -0.00188,  -4.98491,   1.00000
443704258.90303,345895806.96463,-149298100.99388,   0.00385,   0.00171,  -0.00382,479491089.42568,   0.00457,279491097.15129,   0.00251,   0.00100,  -0.00188,  -7.72561,   1.00000
443190223.63388,347294764.42715,-149218516.72928,   0.00385,   0.00172,  -0.00382,479491481.27414,   0.00457,279491487.69485,   0.00251,   0.00100,  -0.00188,  -6.42071,   1.00000
442659680.55026,348693471.63799,-149142140.26245,   0.00384,   0.00173,  -0.00382,479491734.22362,   0.00458,279491738.72425,   0.00251,   0.00101,  -0.00188,  -4.50063,   1.00000
442115453.15174,350101015.62265,-149064694.47549,   0.00384,   0.00174,  -0.00381,479491997.11976,   0.00458,279492006.77431,   0.00251,   0.00101,  -0.00188,  -9.65455,   1.00000
441562673.05194,351495241.01929,-148989263.02922,   0.00383,   0.00174,  -0.00381,479492150.08844,   0.00458,279492154.48010,   0.00251,   0.00101,  -0.00188,  -4.39166,   1.00000
440991492.38781,352894746.57130,-148916407.72607,   0.00383,   0.00175,  -0.00381,479492343.04613,   0.00458,279492349.08664,   0.00251,   0.00101,  -0.00188,  -6.04051,   1.00000
440403655.61044,354281520.85564,-148850044.78583,   0.00382,   0.00176,  -0.00381,479492342.47588,   0.00458,279492351.93357,   0.00251,   0.00101,  -0.00188,  -9.45769,   1.00000
439810170.57783,355663917.13054,-148781431.78405,   0.00382,   0.00177,  -0.00381,479492380.92165,   0.00458,279492390.69414,   0.00251,   0.00101,  -0.00188,  -9.77248,   1.00000
439192447.43914,357053794.19260,-148715247.16205,   0.00381,   0.00177,  -0.00381,479490106.58348,   0.00458,279492390.69414,   0.00251,   0.00101,  -0.00188,-2284.11065,   0.00000
438547147.37461,358416094.32883,-148649062.54005,   0.00380,   0.00178,  -0.00381,479471555.76258,   0.00458,279492390.69414,   0.00251,   0.00101,  -0.00188,-20834.93156,   0.00000
437863239.61391,359761848.30956,-148582877.91804,   0.00380,   0.00179,  -0.00381,479433968.91043,   0.00458,279492390.69414,   0.00251,   0.00101,  -0.00188,-58421.78370,   0.00000
437168301.08288,361118633.06062,-148511177.91087,   0.00379,   0.00180,  -0.00381,479395328.72589,   0.00458,279492390.69414,   0.00251,   0.00101,  -0.00188,-97061.96825,   0.00000
436445785.62601,362447840.88585,-148439477.90370,   0.00379,   0.00180,  -0.00381,479340551.47736,   0.00458,279492390.69414,   0.00251,   0.00101,  -0.00188,-151839.21678,   0.00000
435703966.32106,363768775.63333,-148367777.89653,   0.00378,   0.00181,  -0.00381,479279837.44399,   0.00458,279492390.69414,   0.00251,   0.00101,  -0.00188,-212553.25014,   0.00000
434942843.16802,365081437.30306,-148296077.88936,   0.00377,   0.00182,  -0.00380,479213266.20827,   0.00458,279492390.69414,   0.00251,   0.00101,  -0.00188,-279124.48587,   0.00000
434143112.31882,366377552.81728,-148224377.88219,   0.00377,   0.00183,  -0.00380,479128229.92816,   0.00458,279492390.69414,   0.00251,   0.00101,  -0.00188,-364160.76597,   0.00000
433324077.62153,367665395.25376,-148152677.87502,   0.00376,   0.00183,  -0.00380,479037554.60985,   0.00458,279492390.69414,   0.00251,   0.00101,  -0.00188,-454836.08429,   0.00000
432485739.07616,368944964.61249,-148075462.48269,   0.00376,   0.00184,  -0.00380,478936210.24797,   0.00458,279492390.69414,   0.00251,   0.00101,  -0.00188,-556180.44617,   0.00000
431608792.83462,370207987.81571,-148003762.47552,   0.00375,   0.00185,  -0.00380,478821911.25362,   0.00458,279492390.69414,   0.00251,   0.00101,  -0.00188,-670479.44052,   0.00000
430712542.74499,371462737.94119,-147926547.08318,   0.00374,   0.00186,  -0.00380,478697179.60190,   0.00458,279492390.69414,   0.00251,   0.00101,  -0.00188,-795211.09224,   0.00000
429788715.72953,372689911.14083,-147849331.69084,   0.00374,   0.00186,  -0.00380,478556649.10679,   0.00458,279492390.69414,   0.00251,   0.00101,  -0.00188,-935741.58735,   0.00000
428853857.94374,373928115.11080,-147772116.29851,   0.00373,   0.00187,  -0.00380,478421516.08249,   0.00458,279492390.69414,   0.00251,   0.00101,  -0.00188,-1070874.61165,   0.00000
427872119.38403,375130469.07719,-147694900.90617,   0.00372,   0.00188,  -0.00380,478258195.73502,   0.00458,279492390.69414,   0.00251,   0.00101,  -0.00188,-1234194.95911,   0.00000
426879350.05398,376343853.81391,-147617685.51383,   0.00372,   0.00189,  -0.00380,478100616.31680,   0.00458,279492390.69414,   0.00251,   0.00101,  -0.00188,-1391774.37733,   0.00000
425859003.79810,377529661.62480,-147540470.12150,   0.00371,   0.00189,  -0.00379,477927506.93980,   0.00458,279492390.69414,   0.00251,   0.00101,  -0.00188,-1564883.75434,   0.00000
424800049.84605,378698923.28019,-147463254.72916,   0.00370,   0.00190,  -0.00379,477737239.33001,   0.00458,279492390.69414,   0.00251,   0.00101,  -0.00188,-1755151.36412,   0.00000
423721792.04592,379859911.85783,-147380523.95165,   0.00369,   0.00191,  -0.00379,477537269.36568,   0.00458,279492390.69414,   0.00251,   0.00101,  -0.00188,-1955121.32846,   0.00000
422624230.39770,381012627.35771,-147303308.55932,   0.00369,   0.00191,  -0.00379,477337918.09784,   0.00458,279492390.69414,   0.00251,   0.00101,  -0.00188,-2154472.59629,   0.00000
421488061.05331,382148796.70210,-147220577.78181,   0.00368,   0.00192,  -0.00379,477116787.21541,   0.00458,279492390.69414,   0.00251,   0.00101,  -0.00188,-2375603.47873,   0.00000
420332587.86084,383276692.96874,-147143362.38948,   0.00367,   0.00193,  -0.00379,476896562.00731,   0.00458,279492390.69414,   0.00251,   0.00101,  -0.00188,-2595828.68683,   0.00000
419157810.82029,384396316.15762,-147060631.61197,   0.00367,   0.00194,  -0.00379,476667145.90952,   0.00458,279492390.69414,   0.00251,   0.00101,  -0.00188,-2825244.78461,   0.00000
417955456.85390,385488362.42067,-146977900.83447,   0.00366,   0.00194,  -0.00379,476422697.66401,   0.00458,279492390.69414,   0.00251,   0.00101,  -0.00188,-3069693.03013,   0.00000
416722768.26909,386583166.37631,-146900685.44213,   0.00365,   0.00195,  -0.00379,476178366.80274,   0.00458,279492390.69414,   0.00251,   0.00101,  -0.00188,-3314023.89139,   0.00000
415462502.75845,387650393.40611,-146817954.66463,   0.00364,   0.00196,  -0.00379,475914121.98225,   0.00458,279492390.69414,   0.00251,   0.00101,  -0.00188,-3578268.71188,   0.00000
414163629.55164,388701074.28041,-146735223.88712,   0.00363,   0.00197,  -0.00378,475634173.75452,   0.00458,279492390.69414,   0.00251,   0.00101,  -0.00188,-3858216.93961,   0.00000
412845452.49674,389743482.07695,-146652493.10962,   0.00363,   0.00197,  -0.00378,475350803.57437,   0.00458,279492390.69414,   0.00251,   0.00101,  -0.00188,-4141587.11977,   0.00000
411507971.59377,390777616.79575,-146569762.33212,   0.00362,   0.00198,  -0.00378,475064140.65071,   0.00458,279492390.69414,   0.00251,   0.00101,  -0.00188,-4428250.04343,   0.00000
410131882.99462,391795205.35905,-146487031.55461,   0.00361,   0.00199,  -0.00378,474762351.40323,   0.00458,279492390.69414,   0.00251,   0.00101,  -0.00188,-4730039.29090,   0.00000
408728217.46964,392785216.99651,-146409816.16228,   0.00360,   0.00200,  -0.00378,474451350.15248,   0.00458,279492390.69414,   0.00251,   0.00101,  -0.00188,-5041040.54166,   0.00000
407313521.17432,393786259.40431,-146327085.38477,   0.00359,   0.00200,  -0.00378,474143757.17775,   0.00458,279492390.69414,   0.00251,   0.00101,  -0.00188,-5348633.51638,   0.00000
405871247.95317,394759724.88627,-146244354.60727,   0.00358,   0.00201,  -0.00378,473822036.09541,   0.00458,279492390.69414,   0.00251,   0.00101,  -0.00188,-5670354.59873,   0.00000
404390367.03585,395716644.21273,-146161623.82976,   0.00358,   0.00202,  -0.00378,473485895.57098,   0.00458,279492390.69414,   0.00251,   0.00101,  -0.00188,-6006495.12315,   0.00000
402870878.42236,396657017.38369,-146078893.05226,   0.00357,   0.00202,  -0.00378,473135606.43952,   0.00458,279492390.69414,   0.00251,   0.00101,  -0.00188,-6356784.25462,   0.00000
401343116.73113,397578086.70657,-145996162.27476,   0.00356,   0.00203,  -0.00377,472783292.96917,   0.00458,279492390.69414,   0.00251,   0.00101,  -0.00188,-6709097.72497,   0.00000
399785020.42147,398501913.72203,-145913431.49725,   0.00355,   0.00204,  -0.00377,472428757.11801,   0.00458,279492390.69414,   0.00251,   0.00101,  -0.00188,-7063633.57612,   0.00000
398180043.33790,399389890.73390,-145836216.10492,   0.00354,   0.00205,  -0.00377,472054184.93565,   0.00458,279492390.69414,   0.00251,   0.00101,  -0.00188,-7438205.75848,   0.00000
396555762.40624,400269594.66803,-145753485.32741,   0.00353,   0.00205,  -0.00377,471672812.74942,   0.00458,279492390.69414,   0.00251,   0.00101,  -0.00188,-7819577.94472,   0.00000
394912177.62649,401141025.52440,-145670754.54991,   0.00352,   0.00206,  -0.00377,471289911.48201,   0.00458,279492390.69414,   0.00251,   0.00101,  -0.00188,-8202479.21213,   0.00000
393249288.99867,402004183.30302,-145593539.15757,   0.00351,   0.00207,  -0.00377,470910759.45020,   0.00458,279492390.69414,   0.00251,   0.00101,  -0.00188,-8581631.24393,   0.00000
391547792.67467,402850794.92615,-145510808.38007,   0.00350,   0.00207,  -0.00377,470513850.44091,   0.00458,279492390.69414,   0.00251,   0.00101,  -0.00188,-8978540.25323,   0.00000
389799415.57676,403661556.54568,-145433592.98773,   0.00349,   0.00208,  -0.00377,470097849.06179,   0.00458,279492390.69414,   0.00251,   0.00101,  -0.00188,-9394541.63235,   0.00000
388051038.47884,404472318.16522,-145350862.21023,   0.00348,   0.00209,  -0.00377,469687322.54795,   0.00458,279492390.69414,   0.00251,   0.00101,  -0.00188,-9805068.14618,   0.00000
386264053.68476,405266533.62926,-145273646.81789,   0.00347,   0.00210,  -0.00377,469269949.73656,   0.00458,279492390.69414,   0.00251,   0.00101,  -0.00188,-10222440.95757,   0.00000
384438461.19451,406044202.93780,-145196431.42555,   0.00346,   0.00210,  -0.00376,468840940.75366,   0.00458,279492390.69414,   0.00251,   0.00101,  -0.00188,-10651449.94047,   0.00000
382593564.85617,406813599.16858,-145119216.03322,   0.00345,   0.00211,  -0.00376,468411822.85064,   0.00458,279492390.69414,   0.00251,   0.00101,  -0.00188,-11080567.84350,   0.00000
380721091.59200,407555418.47353,-145042000.64088,   0.00344,   0.00212,  -0.00376,467970694.33287,   0.00458,279492390.69414,   0.00251,   0.00101,  -0.00188,-11521696.36127,   0.00000
378829314.47975,408288964.70073,-144964785.24854,   0.00343,   0.00212,  -0.00376,467529749.30461,   0.00458,279492390.69414,   0.00251,   0.00101,  -0.00188,-11962641.38952,   0.00000
376879625.82324,408997691.69468,-144887569.85621,   0.00342,   0.00213,  -0.00376,467067116.01256,   0.00458,279492390.69414,   0.00251,   0.00101,  -0.00188,-12425274.68157,   0.00000
374929937.16673,409706418.68863,-144810354.46387,   0.00341,   0.00214,  -0.00376,466616246.78383,   0.00458,279492390.69414,   0.00251,   0.00101,  -0.00188,-12876143.91030,   0.00000
372933367.73630,410379295.67900,-144733139.07153,   0.00340,   0.00215,  -0.00376,466143084.19498,   0.00458,279492390.69414,   0.00251,   0.00101,  -0.00188,-13349306.49916,   0.00000
370917494.45779,411043899.59161,-144661439.06436,   0.00339,   0.00215,  -0.00376,465676172.45696,   0.00458,279492390.69414,   0.00251,   0.00101,  -0.00188,-13816218.23718,   0.00000
368863013.48312,411691957.34872,-144589739.05719,   0.00338,   0.00216,  -0.00376,465199776.83672,   0.00458,279492390.69414,   0.00251,   0.00101,  -0.00188,-14292613.85741,   0.00000
366789228.66035,412331742.02809,-144512523.66485,   0.00337,   0.00217,  -0.00376,464719884.04034,   0.00458,279492390.69414,   0.00251,   0.00101,  -0.00188,-14772506.65380,   0.00000
364687866.91175,412943949.78162,-144440823.65768,   0.00336,   0.00217,  -0.00375,464234587.62855,   0.00458,279492390.69414,   0.00251,   0.00101,  -0.00188,-15257803.06559,   0.00000
362556170.54474,413558915.22773,-144369123.65051,   0.00335,   0.00218,  -0.00375,463753111.20860,   0.00458,279492390.69414,   0.00251,   0.00101,  -0.00188,-15739279.48554,   0.00000
360396897.25189,414146303.74801,-144302939.02851,   0.00334,   0.00219,  -0.00375,463266722.54178,   0.00458,279492390.69414,   0.00251,   0.00101,  -0.00188,-16225668.15236,   0.00000
358190743.18512,414697842.26470,-144231239.02134,   0.00333,   0.00219,  -0.00375,462754720.66024,   0.00458,279492390.69414,   0.00251,   0.00101,  -0.00188,-16737670.03389,   0.00000
355973558.34802,415260411.55172,-144165054.39934,   0.00332,   0.00220,  -0.00375,462263286.48706,   0.00458,279492390.69414,   0.00251,   0.00101,  -0.00188,-17229104.20707,   0.00000
353709492.73699,415787130.83517,-144093354.39217,   0.00331,   0.00221,  -0.00375,461746870.72690,   0.00458,279492390.69414,   0.00251,   0.00101,  -0.00188,-17745519.96724,   0.00000
351426123.27789,416305577.04086,-144027169.77017,   0.00329,   0.00221,  -0.00375,461239065.40429,   0.00458,279492390.69414,   0.00251,   0.00101,  -0.00188,-18253325.28984,   0.00000
