# sigma_xx, sigma_yy, sigma_xy, epsilon_xx, epsilon_yy, epsilon_xy, vonMises, epsPlastic, hardening, epsilonP__xx, epsilonP__yy, epsilonP__xy, yieldValue, iteration
   0.00000,   0.00000,   0.00000,   0.00000,   0.00000,   0.00000,   0.00000,   0.00000,274640135.82653,   0.00000,   0.00000,   0.00000,-474640135.82653,   0.00000
   0.00000,   0.00000,   0.00000,   0.00000,   0.00000,   0.00000,   0.00000,   0.00000,274640135.82653,   0.00000,   0.00000,   0.00000,-474640135.82653,   0.00000
-2226361.94284,-2944682.80292,-359160.43004,  -0.00000,  -0.00001,  -0.00000,2731099.27094,   0.00000,274640135.82653,   0.00000,   0.00000,   0.00000,-471909036.55559,   0.00000
-4452723.88568,-5889365.60585,-713993.62598,  -0.00001,  -0.00002,  -0.00001,5460496.22568,   0.00000,274640135.82653,   0.00000,   0.00000,   0.00000,-469179639.60085,   0.00000
-6657449.65804,-8812412.23828,-1068826.82193,  -0.00001,  -0.00003,  -0.00001,8169407.98898,   0.00000,274640135.82653,   0.00000,   0.00000,   0.00000,-466470727.83755,   0.00000
-8862175.43040,-11735458.87072,-1419332.78377,  -0.00002,  -0.00004,  -0.00002,10876624.92000,   0.00000,274640135.82653,   0.00000,   0.00000,   0.00000,-463763510.90653,   0.00000
-11045265.03227,-14636869.33268,-1765511.51152,  -0.00002,  -0.00005,  -0.00002,13561667.12336,   0.00000,274640135.82653,   0.00000,   0.00000,   0.00000,-461078468.70317,   0.00000
-13228354.63414,-17538279.79463,-2107363.00518,  -0.00003,  -0.00005,  -0.00003,16245029.27643,   0.00000,274640135.82653,   0.00000,   0.00000,   0.00000,-458395106.55010,   0.00000
-15411444.23602,-20439690.25658,-2449214.49883,  -0.00003,  -0.00006,  -0.00003,18928400.87324,   0.00000,274640135.82653,   0.00000,   0.00000,   0.00000,-455711734.95329,   0.00000
-17572897.66740,-23319464.54805,-2782411.52429,  -0.00003,  -0.00007,  -0.00004,21587937.29718,   0.00000,274640135.82653,   0.00000,   0.00000,   0.00000,-453052198.52935,   0.00000
-19719205.77945,-26192747.98838,-3115608.54975,  -0.00004,  -0.00008,  -0.00004,24238976.59037,   0.00000,274640135.82653,   0.00000,   0.00000,   0.00000,-450401159.23616,   0.00000
-21859023.04036,-29050886.10936,-3448805.57521,  -0.00004,  -0.00009,  -0.00004,26878051.69460,   0.00000,274640135.82653,   0.00000,   0.00000,   0.00000,-447762084.13193,   0.00000
-23998840.30126,-31909024.23035,-3773348.13247,  -0.00005,  -0.00010,  -0.00005,29513811.25595,   0.00000,274640135.82653,   0.00000,   0.00000,   0.00000,-445126324.57058,   0.00000
-26123512.24283,-34760671.50019,-4097890.68974,  -0.00005,  -0.00011,  -0.00005,32141086.97378,   0.00000,274640135.82653,   0.00000,   0.00000,   0.00000,-442499048.85275,   0.00000
-28226548.01391,-37590682.59954,-4418106.01291,  -0.00006,  -0.00012,  -0.00006,34746240.17118,   0.00000,274640135.82653,   0.00000,   0.00000,   0.00000,-439893895.65535,   0.00000
-30344729.10433,-40427184.55004,-4733994.10198,  -0.00006,  -0.00012,  -0.00006,37358265.10840,   0.00000,274640135.82653,   0.00000,   0.00000,   0.00000,-437281870.71813,   0.00000
-32426128.70492,-43235559.47891,-5045554.95695,  -0.00006,  -0.00013,  -0.00007,39939685.58240,   0.00000,274640135.82653,   0.00000,   0.00000,   0.00000,-434700450.24413,   0.00000
-34507528.30552,-46043934.40779,-5357115.81193,  -0.00007,  -0.00014,  -0.00007,42521137.15669,   0.00000,274640135.82653,   0.00000,   0.00000,   0.00000,-432118998.66984,   0.00000
-36588927.90612,-48852309.33666,-5660022.19871,  -0.00007,  -0.00015,  -0.00007,45099353.67992,   0.00000,274640135.82653,   0.00000,   0.00000,   0.00000,-429540782.14661,   0.00000
-38648691.33623,-51639048.09504,-5962928.58549,  -0.00008,  -0.00016,  -0.00008,47657114.38380,   0.00000,274640135.82653,   0.00000,   0.00000,   0.00000,-426983021.44273,   0.00000
-40701963.91519,-54410641.53409,-6261507.73818,  -0.00008,  -0.00017,  -0.00008,50201267.39284,   0.00000,274640135.82653,   0.00000,   0.00000,   0.00000,-424438868.43369,   0.00000
-42746582.02597,-57190889.44133,-6560086.89086,  -0.00008,  -0.00018,  -0.00009,52749002.67681,   0.00000,274640135.82653,   0.00000,   0.00000,   0.00000,-421891133.14972,   0.00000
-44784709.28560,-59955992.02923,-6850011.57535,  -0.00009,  -0.00019,  -0.00009,55281529.18284,   0.00000,274640135.82653,   0.00000,   0.00000,   0.00000,-419358606.64369,   0.00000
-46801200.37474,-62699458.44665,-7139936.25984,  -0.00009,  -0.00019,  -0.00009,57793603.42853,   0.00000,274640135.82653,   0.00000,   0.00000,   0.00000,-416846532.39800,   0.00000
-48817691.46388,-65442924.86407,-7425533.71024,  -0.00009,  -0.00020,  -0.00010,60304117.21238,   0.00000,274640135.82653,   0.00000,   0.00000,   0.00000,-414336018.61415,   0.00000
-50819037.23369,-68179900.43034,-7706803.92653,  -0.00010,  -0.00021,  -0.00010,62804625.22600,   0.00000,274640135.82653,   0.00000,   0.00000,   0.00000,-411835510.60053,   0.00000
-52813892.15234,-70901730.67728,-7983746.90873,  -0.00010,  -0.00022,  -0.00010,65291553.08320,   0.00000,274640135.82653,   0.00000,   0.00000,   0.00000,-409348582.74333,   0.00000
-54793601.75166,-73617070.07307,-8260689.89093,  -0.00011,  -0.00023,  -0.00011,67770084.63752,   0.00000,274640135.82653,   0.00000,   0.00000,   0.00000,-406870051.18901,   0.00000
-56751675.18050,-76310773.29837,-8528978.40494,  -0.00011,  -0.00024,  -0.00011,70225016.59724,   0.00000,274640135.82653,   0.00000,   0.00000,   0.00000,-404415119.22929,   0.00000
-58724893.92867,-79010967.37482,-8797266.91894,  -0.00011,  -0.00024,  -0.00011,72688452.79603,   0.00000,274640135.82653,   0.00000,   0.00000,   0.00000,-401951683.03050,   0.00000
-60667822.03817,-81698179.74898,-9061228.19885,  -0.00012,  -0.00025,  -0.00012,75133508.80075,   0.00000,274640135.82653,   0.00000,   0.00000,   0.00000,-399506627.02578,   0.00000
-62604259.29652,-84370246.80380,-9325189.47876,  -0.00012,  -0.00026,  -0.00012,77566568.16198,   0.00000,274640135.82653,   0.00000,   0.00000,   0.00000,-397073567.66455,   0.00000
-64540696.55487,-87042313.85862,-9580496.29048,  -0.00012,  -0.00027,  -0.00012,79996575.39534,   0.00000,274640135.82653,   0.00000,   0.00000,   0.00000,-394643560.43119,   0.00000
-66455497.64274,-89692744.74295,-9835803.10219,  -0.00013,  -0.00028,  -0.00013,82406156.97645,   0.00000,274640135.82653,   0.00000,   0.00000,   0.00000,-392233978.85008,   0.00000
-68355153.41127,-92336684.77614,-10082455.44572,  -0.00013,  -0.00029,  -0.00013,84804303.09489,   0.00000,274640135.82653,   0.00000,   0.00000,   0.00000,-389835832.73164,   0.00000
-70248318.32865,-94965479.48999,-10329107.78924,  -0.00013,  -0.00030,  -0.00013,87190450.69551,   0.00000,274640135.82653,   0.00000,   0.00000,   0.00000,-387449685.13102,   0.00000
-72147974.09718,-97609419.52318,-10571432.89866,  -0.00014,  -0.00030,  -0.00014,89587234.88965,   0.00000,274640135.82653,   0.00000,   0.00000,   0.00000,-385052900.93688,   0.00000
-74019502.84407,-100216578.06655,-10813758.00809,  -0.00014,  -0.00031,  -0.00014,91951509.62439,   0.00000,274640135.82653,   0.00000,   0.00000,   0.00000,-382688626.20214,   0.00000
-75882377.12278,-102832391.07811,-11047428.64932,  -0.00014,  -0.00032,  -0.00014,94316523.32282,   0.00000,274640135.82653,   0.00000,   0.00000,   0.00000,-380323612.50371,   0.00000
-77738760.55034,-105433058.77033,-11281099.29055,  -0.00015,  -0.00033,  -0.00015,96669535.36324,   0.00000,274640135.82653,   0.00000,   0.00000,   0.00000,-377970600.46329,   0.00000
-79573507.80741,-108012090.29207,-11510442.69768,  -0.00015,  -0.00034,  -0.00015,99000630.08475,   0.00000,274640135.82653,   0.00000,   0.00000,   0.00000,-375639505.74178,   0.00000
-81408255.06449,-110591121.81380,-11735458.87072,  -0.00015,  -0.00034,  -0.00015,101330316.04073,   0.00000,274640135.82653,   0.00000,   0.00000,   0.00000,-373309819.78580,   0.00000
-83227857.00222,-113163662.48439,-11956147.80966,  -0.00016,  -0.00035,  -0.00016,103650229.04126,   0.00000,274640135.82653,   0.00000,   0.00000,   0.00000,-370989906.78527,   0.00000
-85040968.08881,-115721057.83565,-12172509.51451,  -0.00016,  -0.00036,  -0.00016,105956635.73897,   0.00000,274640135.82653,   0.00000,   0.00000,   0.00000,-368683500.08756,   0.00000
-86838933.85606,-118271962.33575,-12384543.98525,  -0.00016,  -0.00037,  -0.00016,108253301.02530,   0.00000,274640135.82653,   0.00000,   0.00000,   0.00000,-366386834.80123,   0.00000
-88615263.45283,-120801230.66538,-12596578.45600,  -0.00017,  -0.00038,  -0.00016,110529592.11288,   0.00000,274640135.82653,   0.00000,   0.00000,   0.00000,-364110543.71365,   0.00000
-90391593.04960,-123330498.99500,-12804285.69265,  -0.00017,  -0.00038,  -0.00017,112804525.60486,   0.00000,274640135.82653,   0.00000,   0.00000,   0.00000,-361835610.22167,   0.00000
-92167922.64636,-125859767.32462,-13007665.69520,  -0.00017,  -0.00039,  -0.00017,115078111.72158,   0.00000,274640135.82653,   0.00000,   0.00000,   0.00000,-359562024.10495,   0.00000
-93907470.75331,-128360908.63262,-13206718.46366,  -0.00018,  -0.00040,  -0.00017,117321523.56973,   0.00000,274640135.82653,   0.00000,   0.00000,   0.00000,-357318612.25680,   0.00000
-95662164.17959,-130868540.79175,-13401443.99802,  -0.00018,  -0.00041,  -0.00017,119571956.96742,   0.00000,274640135.82653,   0.00000,   0.00000,   0.00000,-355068178.85911,   0.00000
-97386566.96719,-133363191.24860,-13596169.53238,  -0.00018,  -0.00042,  -0.00018,121805863.27446,   0.00000,274640135.82653,   0.00000,   0.00000,   0.00000,-352834272.55207,   0.00000
-99119624.22299,-135849187.23726,-13782240.59854,  -0.00019,  -0.00042,  -0.00018,124033187.72378,   0.00000,274640135.82653,   0.00000,   0.00000,   0.00000,-350606948.10275,   0.00000
-100815899.98897,-138307056.20428,-13968311.66471,  -0.00019,  -0.00043,  -0.00018,126231843.57644,   0.00000,274640135.82653,   0.00000,   0.00000,   0.00000,-348408292.25009,   0.00000
-102518666.60609,-140780070.49064,-14150055.49678,  -0.00019,  -0.00044,  -0.00018,128441396.56012,   0.00000,274640135.82653,   0.00000,   0.00000,   0.00000,-346198739.26641,   0.00000
-104199797.05272,-143231448.60652,-14327472.09475,  -0.00019,  -0.00045,  -0.00019,130629196.84841,   0.00000,274640135.82653,   0.00000,   0.00000,   0.00000,-344010938.97812,   0.00000
-105874436.64821,-145667681.40306,-14500561.45862,  -0.00020,  -0.00046,  -0.00019,132803557.49138,   0.00000,274640135.82653,   0.00000,   0.00000,   0.00000,-341836578.33515,   0.00000
-107549076.24370,-148103914.19960,-14673650.82250,  -0.00020,  -0.00046,  -0.00019,134978080.17324,   0.00000,274640135.82653,   0.00000,   0.00000,   0.00000,-339662055.65328,   0.00000
-109193425.20051,-150527165.29385,-14838085.71818,  -0.00020,  -0.00047,  -0.00019,137133370.10955,   0.00000,274640135.82653,   0.00000,   0.00000,   0.00000,-337506765.71698,   0.00000
-110831283.30618,-152935271.06876,-15002520.61386,  -0.00021,  -0.00048,  -0.00020,139276649.20994,   0.00000,274640135.82653,   0.00000,   0.00000,   0.00000,-335363486.61659,   0.00000
-112469141.41185,-155343376.84367,-15162628.27545,  -0.00021,  -0.00049,  -0.00020,141418712.23479,   0.00000,274640135.82653,   0.00000,   0.00000,   0.00000,-333221423.59174,   0.00000
-114091854.19817,-157744991.76744,-15318408.70293,  -0.00021,  -0.00050,  -0.00020,143551300.78280,   0.00000,274640135.82653,   0.00000,   0.00000,   0.00000,-331088835.04373,   0.00000
-115692930.81402,-160124970.52072,-15469861.89632,  -0.00021,  -0.00050,  -0.00020,145662222.86448,   0.00000,274640135.82653,   0.00000,   0.00000,   0.00000,-328977912.96205,   0.00000
-117287516.57872,-162489803.95466,-15616987.85562,  -0.00022,  -0.00051,  -0.00020,147759748.53887,   0.00000,274640135.82653,   0.00000,   0.00000,   0.00000,-326880387.28766,   0.00000
-118873447.87522,-164863291.85679,-15759786.58081,  -0.00022,  -0.00052,  -0.00020,149860089.08226,   0.00000,274640135.82653,   0.00000,   0.00000,   0.00000,-324780046.74427,   0.00000
-120452888.32058,-167221634.43959,-15902585.30601,  -0.00022,  -0.00053,  -0.00021,151948416.01585,   0.00000,274640135.82653,   0.00000,   0.00000,   0.00000,-322691719.81068,   0.00000
-122002038.12726,-169566995.32010,-16041056.79711,  -0.00022,  -0.00053,  -0.00021,154019124.43079,   0.00000,274640135.82653,   0.00000,   0.00000,   0.00000,-320621011.39574,   0.00000
-123559842.40213,-171903701.73241,-16175201.05411,  -0.00023,  -0.00054,  -0.00021,156084702.69943,   0.00000,274640135.82653,   0.00000,   0.00000,   0.00000,-318555433.12710,   0.00000
-125102501.35767,-174233917.29357,-16305018.07702,  -0.00023,  -0.00055,  -0.00021,158140936.35145,   0.00000,274640135.82653,   0.00000,   0.00000,   0.00000,-316499199.47508,   0.00000
-126623524.14272,-176542496.68426,-16430507.86583,  -0.00023,  -0.00056,  -0.00021,160175596.38380,   0.00000,274640135.82653,   0.00000,   0.00000,   0.00000,-314464539.44273,   0.00000
-128129401.60843,-178844585.22379,-16551670.42054,  -0.00023,  -0.00056,  -0.00022,162200964.59609,   0.00000,274640135.82653,   0.00000,   0.00000,   0.00000,-312439171.23043,   0.00000
-129635279.07414,-181146673.76333,-16672832.97525,  -0.00024,  -0.00057,  -0.00022,164226591.84112,   0.00000,274640135.82653,   0.00000,   0.00000,   0.00000,-310413543.98541,   0.00000
-131134665.68871,-183433616.98353,-16789668.29587,  -0.00024,  -0.00058,  -0.00022,166238880.01969,   0.00000,274640135.82653,   0.00000,   0.00000,   0.00000,-308401255.80684,   0.00000
-132603761.66460,-185707578.50144,-16897849.14829,  -0.00024,  -0.00059,  -0.00022,168232430.75896,   0.00000,274640135.82653,   0.00000,   0.00000,   0.00000,-306407705.06756,   0.00000
-134072857.64049,-187981540.01934,-17006030.00071,  -0.00024,  -0.00059,  -0.00022,170226271.35385,   0.00000,274640135.82653,   0.00000,   0.00000,   0.00000,-304413864.47268,   0.00000
-135535462.76523,-190240356.21791,-17114210.85314,  -0.00025,  -0.00060,  -0.00022,172208097.14895,   0.00000,274640135.82653,   0.00000,   0.00000,   0.00000,-302432038.67758,   0.00000
-136982922.57064,-192492681.56533,-17213737.23736,  -0.00025,  -0.00061,  -0.00022,174179452.53950,   0.00000,274640135.82653,   0.00000,   0.00000,   0.00000,-300460683.28703,   0.00000
-138415237.05670,-194738516.06161,-17308936.38750,  -0.00025,  -0.00062,  -0.00023,176141668.71925,   0.00000,274640135.82653,   0.00000,   0.00000,   0.00000,-298498467.10728,   0.00000
-139841060.69162,-196969205.23855,-17404135.53763,  -0.00025,  -0.00062,  -0.00023,178091884.38824,   0.00000,274640135.82653,   0.00000,   0.00000,   0.00000,-296548251.43829,   0.00000
-141251739.00720,-199193403.56434,-17495007.45366,  -0.00025,  -0.00063,  -0.00023,180032988.64733,   0.00000,274640135.82653,   0.00000,   0.00000,   0.00000,-294607147.17920,   0.00000
-142640781.15230,-201395965.71965,-17581552.13560,  -0.00026,  -0.00064,  -0.00023,181952693.05841,   0.00000,274640135.82653,   0.00000,   0.00000,   0.00000,-292687442.76812,   0.00000
-144036314.14854,-203613673.19430,-17663769.58344,  -0.00026,  -0.00065,  -0.00023,183883797.48012,   0.00000,274640135.82653,   0.00000,   0.00000,   0.00000,-290756338.34641,   0.00000
-145403720.12315,-205794599.17912,-17741659.79718,  -0.00026,  -0.00065,  -0.00023,185781210.16973,   0.00000,274640135.82653,   0.00000,   0.00000,   0.00000,-288858925.65680,   0.00000
-146777616.94891,-207990670.48329,-17815222.77683,  -0.00026,  -0.00066,  -0.00023,187690061.99559,   0.00000,274640135.82653,   0.00000,   0.00000,   0.00000,-286950073.83094,   0.00000
-148129877.60418,-210165105.61697,-17888785.75648,  -0.00026,  -0.00067,  -0.00023,189578814.35918,   0.00000,274640135.82653,   0.00000,   0.00000,   0.00000,-285061321.46735,   0.00000
-149466992.94012,-212333049.89950,-17958021.50203,  -0.00027,  -0.00067,  -0.00023,191458599.17148,   0.00000,274640135.82653,   0.00000,   0.00000,   0.00000,-283181536.65505,   0.00000
-150797617.42491,-214485848.86269,-18022930.01348,  -0.00027,  -0.00068,  -0.00023,193325176.37995,   0.00000,274640135.82653,   0.00000,   0.00000,   0.00000,-281314959.44658,   0.00000
-152113096.59036,-216632156.97474,-18083511.29084,  -0.00027,  -0.00069,  -0.00024,195182830.98976,   0.00000,274640135.82653,   0.00000,   0.00000,   0.00000,-279457304.83677,   0.00000
-153413430.43647,-218771974.23565,-18139765.33409,  -0.00027,  -0.00070,  -0.00024,197031600.40340,   0.00000,274640135.82653,   0.00000,   0.00000,   0.00000,-277608535.42313,   0.00000
-154707273.43143,-220896646.17721,-18191692.14326,  -0.00027,  -0.00070,  -0.00024,198867201.65429,   0.00000,274640135.82653,   0.00000,   0.00000,   0.00000,-275772934.17224,   0.00000
-155985971.10706,-223014827.26763,-18243618.95242,  -0.00027,  -0.00071,  -0.00024,200695144.08239,   0.00000,274640135.82653,   0.00000,   0.00000,   0.00000,-273944991.74414,   0.00000
-157264668.78268,-225133008.35805,-18291218.52749,  -0.00028,  -0.00072,  -0.00024,202522308.73130,   0.00000,274640135.82653,   0.00000,   0.00000,   0.00000,-272117827.09523,   0.00000
-158528221.13897,-227244698.59733,-18334490.86845,  -0.00028,  -0.00072,  -0.00024,204340678.21263,   0.00000,274640135.82653,   0.00000,   0.00000,   0.00000,-270299457.61390,   0.00000
-159770137.32477,-229334752.66612,-18373435.97533,  -0.00028,  -0.00073,  -0.00024,206137890.94443,   0.00000,274640135.82653,   0.00000,   0.00000,   0.00000,-268502244.88210,   0.00000
-161005562.65943,-231409661.41557,-18408053.84810,  -0.00028,  -0.00074,  -0.00024,207921978.64134,   0.00000,274640135.82653,   0.00000,   0.00000,   0.00000,-266718157.18519,   0.00000
-162232333.52590,-233493224.63321,-18442671.72088,  -0.00028,  -0.00075,  -0.00024,209710900.32889,   0.00000,274640135.82653,   0.00000,   0.00000,   0.00000,-264929235.49764,   0.00000
-163437468.22187,-235555151.68037,-18468635.12546,  -0.00028,  -0.00075,  -0.00024,211477585.89239,   0.00000,274640135.82653,   0.00000,   0.00000,   0.00000,-263162549.93414,   0.00000
-164642602.91785,-237617078.72753,-18494598.53004,  -0.00029,  -0.00076,  -0.00024,213244739.63851,   0.00000,274640135.82653,   0.00000,   0.00000,   0.00000,-261395396.18802,   0.00000
-165826101.44335,-239657369.60421,-18516234.70052,  -0.00029,  -0.00077,  -0.00024,214990828.37258,   0.00000,274640135.82653,   0.00000,   0.00000,   0.00000,-259649307.45395,   0.00000
-166994454.64950,-241691169.62974,-18533543.63691,  -0.00029,  -0.00077,  -0.00024,216728311.51924,   0.00000,274640135.82653,   0.00000,   0.00000,   0.00000,-257911824.30729,   0.00000
-168162807.85566,-243724969.65527,-18546525.33920,  -0.00029,  -0.00078,  -0.00024,218465183.36813,   0.00000,274640135.82653,   0.00000,   0.00000,   0.00000,-256174952.45840,   0.00000
-169316015.74248,-245752278.82966,-18559507.04149,  -0.00029,  -0.00079,  -0.00024,220194606.95184,   0.00000,274640135.82653,   0.00000,   0.00000,   0.00000,-254445528.87469,   0.00000
-170462732.77815,-247764442.68470,-18568161.50969,  -0.00029,  -0.00079,  -0.00024,221910991.62799,   0.00000,274640135.82653,   0.00000,   0.00000,   0.00000,-252729144.19854,   0.00000
-171579159.17514,-249763624.83746,-18572488.74378,  -0.00029,  -0.00080,  -0.00024,223610946.57342,   0.00000,274640135.82653,   0.00000,   0.00000,   0.00000,-251029189.25311,   0.00000
-172704240.04033,-251754152.52202,-18572488.74378,  -0.00029,  -0.00081,  -0.00024,225305814.98508,   0.00000,274640135.82653,   0.00000,   0.00000,   0.00000,-249334320.84145,   0.00000
-173805521.11798,-253746843.82363,-18568161.50969,  -0.00030,  -0.00082,  -0.00024,226996800.33932,   0.00000,274640135.82653,   0.00000,   0.00000,   0.00000,-247643335.48721,   0.00000
-174900311.34449,-255724389.80590,-18563834.27559,  -0.00030,  -0.00082,  -0.00024,228675872.98096,   0.00000,274640135.82653,   0.00000,   0.00000,   0.00000,-245964262.84557,   0.00000
-175973465.40052,-257680299.61769,-18550852.57330,  -0.00030,  -0.00083,  -0.00024,230333029.41730,   0.00000,274640135.82653,   0.00000,   0.00000,   0.00000,-244307106.40923,   0.00000
-177053110.30769,-259651354.74881,-18537870.87101,  -0.00030,  -0.00084,  -0.00024,232003249.77881,   0.00000,274640135.82653,   0.00000,   0.00000,   0.00000,-242636886.04772,   0.00000
-178111119.04437,-261600773.70946,-18520561.93462,  -0.00030,  -0.00084,  -0.00024,233652653.79936,   0.00000,274640135.82653,   0.00000,   0.00000,   0.00000,-240987482.02717,   0.00000
-179153982.46172,-263543701.81895,-18498925.76414,  -0.00030,  -0.00085,  -0.00024,235293772.18712,   0.00000,274640135.82653,   0.00000,   0.00000,   0.00000,-239346363.63941,   0.00000
-180190355.02792,-265471484.60911,-18477289.59365,  -0.00030,  -0.00086,  -0.00024,236922989.21027,   0.00000,274640135.82653,   0.00000,   0.00000,   0.00000,-237717146.61626,   0.00000
-181211582.27478,-267392776.54812,-18451326.18907,  -0.00030,  -0.00086,  -0.00024,238543959.65507,   0.00000,274640135.82653,   0.00000,   0.00000,   0.00000,-236096176.17146,   0.00000
-182217664.20231,-269307577.63599,-18421035.55039,  -0.00030,  -0.00087,  -0.00024,240156728.87293,   0.00000,274640135.82653,   0.00000,   0.00000,   0.00000,-234483406.95360,   0.00000
-183223746.12983,-271222378.72386,-18386417.67762,  -0.00030,  -0.00088,  -0.00024,241769147.46819,   0.00000,274640135.82653,   0.00000,   0.00000,   0.00000,-232870988.35834,   0.00000
-184214682.73801,-273130688.96058,-18347472.57074,  -0.00031,  -0.00088,  -0.00024,243373434.50891,   0.00000,274640135.82653,   0.00000,   0.00000,   0.00000,-231266701.31762,   0.00000
-185183983.17571,-275017363.02681,-18308527.46387,  -0.00031,  -0.00089,  -0.00024,244958064.56809,   0.00000,274640135.82653,   0.00000,   0.00000,   0.00000,-229682071.25844,   0.00000
-186153283.61341,-276904037.09305,-18260927.88881,  -0.00031,  -0.00090,  -0.00024,246541435.60441,   0.00000,274640135.82653,   0.00000,   0.00000,   0.00000,-228098700.22212,   0.00000
-187100947.88063,-278769074.98880,-18213328.31374,  -0.00031,  -0.00090,  -0.00024,248105178.66930,   0.00000,274640135.82653,   0.00000,   0.00000,   0.00000,-226534957.15723,   0.00000
-188033466.82851,-280627622.03341,-18165728.73868,  -0.00031,  -0.00091,  -0.00024,249661857.99740,   0.00000,274640135.82653,   0.00000,   0.00000,   0.00000,-224978277.82913,   0.00000
-188972476.62753,-282501314.39736,-18109474.69542,  -0.00031,  -0.00092,  -0.00024,251229926.05979,   0.00000,274640135.82653,   0.00000,   0.00000,   0.00000,-223410209.76674,   0.00000
-189883359.40492,-284338225.27148,-18053220.65216,  -0.00031,  -0.00092,  -0.00023,252765851.00721,   0.00000,274640135.82653,   0.00000,   0.00000,   0.00000,-221874284.81932,   0.00000
-190785587.71412,-286183790.61380,-17992639.37480,  -0.00031,  -0.00093,  -0.00023,254306439.19887,   0.00000,274640135.82653,   0.00000,   0.00000,   0.00000,-220333696.62766,   0.00000
-191681325.17217,-288014210.63677,-17927730.86335,  -0.00031,  -0.00094,  -0.00023,255834284.22894,   0.00000,274640135.82653,   0.00000,   0.00000,   0.00000,-218805851.59759,   0.00000
-192561917.31088,-289838139.80861,-17858495.11780,  -0.00031,  -0.00094,  -0.00023,257354286.76905,   0.00000,274640135.82653,   0.00000,   0.00000,   0.00000,-217285849.05747,   0.00000
-193442509.44960,-291662068.98044,-17789259.37225,  -0.00031,  -0.00095,  -0.00023,258875061.86636,   0.00000,274640135.82653,   0.00000,   0.00000,   0.00000,-215765073.96017,   0.00000
-194286320.09849,-293457871.13064,-17715696.39260,  -0.00031,  -0.00096,  -0.00023,260367786.24871,   0.00000,274640135.82653,   0.00000,   0.00000,   0.00000,-214272349.57782,   0.00000
-195151766.91786,-295275309.45133,-17637806.17886,  -0.00031,  -0.00096,  -0.00023,261880695.65454,   0.00000,274640135.82653,   0.00000,   0.00000,   0.00000,-212759440.17199,   0.00000
-195980432.24741,-297064620.75039,-17555588.73102,  -0.00031,  -0.00097,  -0.00023,263365643.22716,   0.00000,274640135.82653,   0.00000,   0.00000,   0.00000,-211274492.59937,   0.00000
-196802606.72582,-298838786.73010,-17473371.28318,  -0.00031,  -0.00098,  -0.00023,264838800.70928,   0.00000,274640135.82653,   0.00000,   0.00000,   0.00000,-209801335.11725,   0.00000
-197616126.73603,-300621607.17802,-17386826.60124,  -0.00031,  -0.00098,  -0.00023,266316938.70753,   0.00000,274640135.82653,   0.00000,   0.00000,   0.00000,-208323197.11900,   0.00000
-198408010.57576,-302382791.45544,-17295954.68520,  -0.00031,  -0.00099,  -0.00022,267774855.59592,   0.00000,274640135.82653,   0.00000,   0.00000,   0.00000,-206865280.23061,   0.00000
-199199894.41549,-304143975.73287,-17200755.53507,  -0.00031,  -0.00100,  -0.00022,269232810.09115,   0.00000,274640135.82653,   0.00000,   0.00000,   0.00000,-205407325.73538,   0.00000
-199976632.93588,-305898669.15915,-17105556.38494,  -0.00031,  -0.00100,  -0.00022,270684066.41953,   0.00000,274640135.82653,   0.00000,   0.00000,   0.00000,-203956069.40700,   0.00000
-200753371.45627,-307653362.58544,-17006030.00071,  -0.00031,  -0.00101,  -0.00022,272135394.70538,   0.00000,274640135.82653,   0.00000,   0.00000,   0.00000,-202504741.12114,   0.00000
-201493328.48683,-309379928.99009,-16902176.38239,  -0.00031,  -0.00101,  -0.00022,273559062.95856,   0.00000,274640135.82653,   0.00000,   0.00000,   0.00000,-201081072.86797,   0.00000
-202233285.51740,-311106495.39474,-16798322.76406,  -0.00031,  -0.00102,  -0.00022,274983664.02667,   0.00000,274640135.82653,   0.00000,   0.00000,   0.00000,-199656471.79986,   0.00000
-202973242.54796,-312833061.79939,-16685814.67755,  -0.00031,  -0.00103,  -0.00022,276407615.75967,   0.00000,274640135.82653,   0.00000,   0.00000,   0.00000,-198232520.06686,   0.00000
-203698054.25919,-314553137.35290,-16573306.59103,  -0.00031,  -0.00103,  -0.00022,277825007.80474,   0.00000,274640135.82653,   0.00000,   0.00000,   0.00000,-196815128.02179,   0.00000
-204401229.79993,-316251576.73592,-16460798.50451,  -0.00031,  -0.00104,  -0.00021,279223181.31364,   0.00000,274640135.82653,   0.00000,   0.00000,   0.00000,-195416954.51289,   0.00000
-205089260.02133,-317943525.26780,-16339635.94980,  -0.00031,  -0.00105,  -0.00021,280613325.80436,   0.00000,274640135.82653,   0.00000,   0.00000,   0.00000,-194026810.02217,   0.00000
-205777290.24274,-319635473.79968,-16218473.39508,  -0.00031,  -0.00105,  -0.00021,282004475.61101,   0.00000,274640135.82653,   0.00000,   0.00000,   0.00000,-192635660.21552,   0.00000
-206450175.14480,-321320931.48041,-16092983.60627,  -0.00031,  -0.00106,  -0.00021,283388435.90908,   0.00000,274640135.82653,   0.00000,   0.00000,   0.00000,-191251699.91745,   0.00000
-207107914.72752,-322999898.31000,-15967493.81746,  -0.00031,  -0.00107,  -0.00021,284765991.35307,   0.00000,274640135.82653,   0.00000,   0.00000,   0.00000,-189874144.47346,   0.00000
-207759163.45910,-324663719.82025,-15837676.79456,  -0.00031,  -0.00107,  -0.00021,286131148.51780,   0.00000,274640135.82653,   0.00000,   0.00000,   0.00000,-188508987.30873,   0.00000
-208395266.87134,-326321050.47935,-15703532.53755,  -0.00031,  -0.00108,  -0.00020,287489227.00237,   0.00000,274640135.82653,   0.00000,   0.00000,   0.00000,-187150908.82416,   0.00000
-209031370.28359,-327978381.13845,-15565061.04646,  -0.00031,  -0.00108,  -0.00020,288847667.81162,   0.00000,274640135.82653,   0.00000,   0.00000,   0.00000,-185792468.01491,   0.00000
-209637183.05715,-329622730.09526,-15426589.55536,  -0.00031,  -0.00109,  -0.00020,290192438.05231,   0.00000,274640135.82653,   0.00000,   0.00000,   0.00000,-184447697.77422,   0.00000
-210236504.97956,-331251933.73274,-15283790.83016,  -0.00031,  -0.00110,  -0.00020,291524897.04728,   0.00000,274640135.82653,   0.00000,   0.00000,   0.00000,-183115238.77925,   0.00000
-210842317.75313,-332896282.68955,-15136664.87086,  -0.00031,  -0.00110,  -0.00020,292870534.60634,   0.00000,274640135.82653,   0.00000,   0.00000,   0.00000,-181769601.22019,   0.00000
-211426494.35620,-334518995.47588,-14989538.91157,  -0.00031,  -0.00111,  -0.00019,294197214.75783,   0.00000,274640135.82653,   0.00000,   0.00000,   0.00000,-180442921.06870,   0.00000
-211995525.63994,-336135217.41106,-14838085.71818,  -0.00031,  -0.00112,  -0.00019,295517057.94678,   0.00000,274640135.82653,   0.00000,   0.00000,   0.00000,-179123077.87975,   0.00000
-212542920.75320,-337729803.17576,-14682305.29069,  -0.00031,  -0.00112,  -0.00019,296817358.97519,   0.00000,274640135.82653,   0.00000,   0.00000,   0.00000,-177822776.85134,   0.00000
-213096806.71760,-339339534.25979,-14526524.86321,  -0.00031,  -0.00113,  -0.00019,298131610.49257,   0.00000,274640135.82653,   0.00000,   0.00000,   0.00000,-176508525.33395,   0.00000
-213629056.51151,-340927629.17335,-14366417.20162,  -0.00031,  -0.00113,  -0.00019,299426378.58142,   0.00000,274640135.82653,   0.00000,   0.00000,   0.00000,-175213757.24511,   0.00000
-214146160.98609,-342509233.23575,-14201982.30594,  -0.00031,  -0.00114,  -0.00018,300714490.20849,   0.00000,274640135.82653,   0.00000,   0.00000,   0.00000,-173925645.61804,   0.00000
-214663265.46067,-344090837.29816,-14037547.41026,  -0.00031,  -0.00115,  -0.00018,302003836.58681,   0.00000,274640135.82653,   0.00000,   0.00000,   0.00000,-172636299.23972,   0.00000
-215165224.61590,-345665950.50942,-13868785.28048,  -0.00030,  -0.00115,  -0.00018,303286598.71091,   0.00000,274640135.82653,   0.00000,   0.00000,   0.00000,-171353537.11562,   0.00000
-215667183.77114,-347241063.72069,-13700023.15070,  -0.00030,  -0.00116,  -0.00018,304570615.93381,   0.00000,274640135.82653,   0.00000,   0.00000,   0.00000,-170069519.89272,   0.00000
-216132361.43656,-348788049.91032,-13522606.55273,  -0.00030,  -0.00117,  -0.00018,305827564.51366,   0.00000,274640135.82653,   0.00000,   0.00000,   0.00000,-168812571.31287,   0.00000
-216597539.10197,-350335036.09995,-13349517.18886,  -0.00030,  -0.00117,  -0.00017,307086394.37666,   0.00000,274640135.82653,   0.00000,   0.00000,   0.00000,-167553741.44986,   0.00000
-217069207.61853,-351897167.60892,-13167773.35679,  -0.00030,  -0.00118,  -0.00017,308358215.22504,   0.00000,274640135.82653,   0.00000,   0.00000,   0.00000,-166281920.60149,   0.00000
-217497603.79412,-353416026.77692,-12986029.52472,  -0.00030,  -0.00118,  -0.00017,309591452.66141,   0.00000,274640135.82653,   0.00000,   0.00000,   0.00000,-165048683.16512,   0.00000
-217932490.82085,-354950031.26427,-12799958.45855,  -0.00030,  -0.00119,  -0.00017,310838330.37312,   0.00000,274640135.82653,   0.00000,   0.00000,   0.00000,-163801805.45341,   0.00000
-218367377.84759,-356484035.75161,-12613887.39239,  -0.00030,  -0.00120,  -0.00016,312086567.77828,   0.00000,274640135.82653,   0.00000,   0.00000,   0.00000,-162553568.04825,   0.00000
-218780628.70384,-357996404.06847,-12423489.09212,  -0.00030,  -0.00120,  -0.00016,313315718.90005,   0.00000,274640135.82653,   0.00000,   0.00000,   0.00000,-161324416.92648,   0.00000
-219178734.24075,-359502281.53418,-12228763.55777,  -0.00030,  -0.00121,  -0.00016,314538679.53368,   0.00000,274640135.82653,   0.00000,   0.00000,   0.00000,-160101456.29285,   0.00000
-219561694.45833,-361001668.14874,-12034038.02341,  -0.00030,  -0.00121,  -0.00016,315756010.76149,   0.00000,274640135.82653,   0.00000,   0.00000,   0.00000,-158884125.06503,   0.00000
-219944654.67590,-362501054.76331,-11834985.25495,  -0.00029,  -0.00122,  -0.00015,316974284.67212,   0.00000,274640135.82653,   0.00000,   0.00000,   0.00000,-157665851.15441,   0.00000
-220312469.57414,-363993950.52673,-11635932.48649,  -0.00029,  -0.00123,  -0.00015,318186987.31063,   0.00000,274640135.82653,   0.00000,   0.00000,   0.00000,-156453148.51590,   0.00000
-220665139.15303,-365480355.43901,-11432552.48394,  -0.00029,  -0.00123,  -0.00015,319393691.43347,   0.00000,274640135.82653,   0.00000,   0.00000,   0.00000,-155246444.39306,   0.00000
-221011317.88078,-366951615.03195,-11224845.24729,  -0.00029,  -0.00124,  -0.00015,320588555.35053,   0.00000,274640135.82653,   0.00000,   0.00000,   0.00000,-154051580.47600,   0.00000
-221342351.28919,-368416383.77374,-11017138.01064,  -0.00029,  -0.00124,  -0.00014,321777953.96677,   0.00000,274640135.82653,   0.00000,   0.00000,   0.00000,-152862181.85976,   0.00000
-221664730.22941,-369889806.98372,-10809430.77399,  -0.00029,  -0.00125,  -0.00014,322974811.77245,   0.00000,274640135.82653,   0.00000,   0.00000,   0.00000,-151665324.05408,   0.00000
-221974127.46733,-371332939.55503,-10593069.06915,  -0.00029,  -0.00126,  -0.00014,324146570.77126,   0.00000,274640135.82653,   0.00000,   0.00000,   0.00000,-150493565.05527,   0.00000
-222274870.23707,-372784726.59453,-10376707.36430,  -0.00028,  -0.00126,  -0.00013,325325870.10270,   0.00000,274640135.82653,   0.00000,   0.00000,   0.00000,-149314265.72383,   0.00000
-222575613.00680,-374236513.63403,-10160345.65946,  -0.00028,  -0.00127,  -0.00013,326506735.12570,   0.00000,274640135.82653,   0.00000,   0.00000,   0.00000,-148133400.70083,   0.00000
-222839574.28671,-375660173.65190,-9939656.72052,  -0.00028,  -0.00127,  -0.00013,327662141.68037,   0.00000,274640135.82653,   0.00000,   0.00000,   0.00000,-146977994.14616,   0.00000
-223110026.41776,-377098978.98911,-9714640.54748,  -0.00028,  -0.00128,  -0.00013,328831694.64225,   0.00000,274640135.82653,   0.00000,   0.00000,   0.00000,-145808441.18428,   0.00000
-223373987.69767,-378522639.00699,-9489624.37444,  -0.00028,  -0.00129,  -0.00012,329989960.79311,   0.00000,274640135.82653,   0.00000,   0.00000,   0.00000,-144650175.03342,   0.00000
-223622803.65824,-379939808.17371,-9264608.20141,  -0.00028,  -0.00129,  -0.00012,331143035.44125,   0.00000,274640135.82653,   0.00000,   0.00000,   0.00000,-143497100.38528,   0.00000
-223856474.29947,-381350486.48929,-9030937.56018,  -0.00027,  -0.00130,  -0.00012,332290253.77398,   0.00000,274640135.82653,   0.00000,   0.00000,   0.00000,-142349882.05255,   0.00000
-224074999.62137,-382754673.95373,-8801594.15304,  -0.00027,  -0.00130,  -0.00011,333432746.81169,   0.00000,274640135.82653,   0.00000,   0.00000,   0.00000,-141207389.01484,   0.00000
-224293524.94326,-384158861.41816,-8563596.27771,  -0.00027,  -0.00131,  -0.00011,334576264.12453,   0.00000,274640135.82653,   0.00000,   0.00000,   0.00000,-140063871.70200,   0.00000
-224490414.09467,-385541412.71212,-8329925.63648,  -0.00027,  -0.00132,  -0.00011,335702157.46907,   0.00000,274640135.82653,   0.00000,   0.00000,   0.00000,-138937978.35746,   0.00000
-224693794.09722,-386939109.32541,-8087600.52706,  -0.00027,  -0.00132,  -0.00011,336842079.79300,   0.00000,274640135.82653,   0.00000,   0.00000,   0.00000,-137798056.03353,   0.00000
-224860392.60995,-388308678.91707,-7845275.41763,  -0.00027,  -0.00133,  -0.00010,337957437.15890,   0.00000,274640135.82653,   0.00000,   0.00000,   0.00000,-136682698.66763,   0.00000
-225026991.12268,-389678248.50873,-7602950.30821,  -0.00026,  -0.00133,  -0.00010,339074586.02326,   0.00000,274640135.82653,   0.00000,   0.00000,   0.00000,-135565549.80326,   0.00000
-225193589.63541,-391047818.10039,-7356297.96469,  -0.00026,  -0.00134,  -0.00010,340193227.93975,   0.00000,274640135.82653,   0.00000,   0.00000,   0.00000,-134446907.88677,   0.00000
-225345042.82880,-392410896.84090,-7109645.62116,  -0.00026,  -0.00135,  -0.00009,341307033.49692,   0.00000,274640135.82653,   0.00000,   0.00000,   0.00000,-133333102.32961,   0.00000
-225481350.70285,-393767484.73027,-6858666.04354,  -0.00026,  -0.00135,  -0.00009,342415786.91035,   0.00000,274640135.82653,   0.00000,   0.00000,   0.00000,-132224348.91618,   0.00000
-225611167.72576,-395108927.30030,-6607686.46593,  -0.00026,  -0.00136,  -0.00009,343513408.07773,   0.00000,274640135.82653,   0.00000,   0.00000,   0.00000,-131126727.74880,   0.00000
-225717184.96113,-396452533.48738,-6352379.65421,  -0.00025,  -0.00136,  -0.00008,344612488.52541,   0.00000,274640135.82653,   0.00000,   0.00000,   0.00000,-130027647.30112,   0.00000
-225831856.66470,-397787485.20627,-6092745.60840,  -0.00025,  -0.00137,  -0.00008,345706796.54352,   0.00000,274640135.82653,   0.00000,   0.00000,   0.00000,-128933339.28301,   0.00000
-225916237.72959,-399109455.22286,-5837438.79668,  -0.00025,  -0.00138,  -0.00008,346790173.19850,   0.00000,274640135.82653,   0.00000,   0.00000,   0.00000,-127849962.62803,   0.00000
-226000618.79448,-400431425.23946,-5573477.51677,  -0.00025,  -0.00138,  -0.00007,347875045.21136,   0.00000,274640135.82653,   0.00000,   0.00000,   0.00000,-126765090.61517,   0.00000
-226069854.54003,-401746904.40491,-5309516.23686,  -0.00025,  -0.00139,  -0.00007,348955388.23460,   0.00000,274640135.82653,   0.00000,   0.00000,   0.00000,-125684747.59193,   0.00000
-226139090.28558,-403062383.57036,-5045554.95695,  -0.00024,  -0.00139,  -0.00007,350037691.29929,   0.00000,274640135.82653,   0.00000,   0.00000,   0.00000,-124602444.52723,   0.00000
-226193180.71179,-404371371.88466,-4781593.67705,  -0.00024,  -0.00140,  -0.00006,351115515.91933,   0.00000,274640135.82653,   0.00000,   0.00000,   0.00000,-123524619.90720,   0.00000
-226232125.81866,-405673869.34782,-4508977.92894,  -0.00024,  -0.00140,  -0.00006,352188577.06961,   0.00000,274640135.82653,   0.00000,   0.00000,   0.00000,-122451558.75692,   0.00000
-226264580.07439,-406961221.49164,-4240689.41494,  -0.00024,  -0.00141,  -0.00006,353250812.37979,   0.00000,274640135.82653,   0.00000,   0.00000,   0.00000,-121389323.44674,   0.00000
-226288379.86192,-408257228.10365,-3968073.66683,  -0.00023,  -0.00142,  -0.00005,354321556.31685,   0.00000,274640135.82653,   0.00000,   0.00000,   0.00000,-120318579.50968,   0.00000
-226290543.47897,-409531598.54518,-3691130.68463,  -0.00023,  -0.00142,  -0.00005,355374852.24137,   0.00000,274640135.82653,   0.00000,   0.00000,   0.00000,-119265283.58516,   0.00000
-226292707.09601,-410805968.98671,-3414187.70243,  -0.00023,  -0.00143,  -0.00004,356430229.72211,   0.00000,274640135.82653,   0.00000,   0.00000,   0.00000,-118209906.10442,   0.00000
-226279725.39372,-412073848.57710,-3137244.72023,  -0.00023,  -0.00143,  -0.00004,357481384.71918,   0.00000,274640135.82653,   0.00000,   0.00000,   0.00000,-117158751.10735,   0.00000
-226266743.69143,-413341728.16748,-2855974.50394,  -0.00022,  -0.00144,  -0.00004,358534526.16458,   0.00000,274640135.82653,   0.00000,   0.00000,   0.00000,-116105609.66195,   0.00000
-226223471.35046,-414596626.05557,-2574704.28764,  -0.00022,  -0.00145,  -0.00003,359577280.53444,   0.00000,274640135.82653,   0.00000,   0.00000,   0.00000,-115062855.29209,   0.00000
-226195344.32884,-415858014.79481,-2289106.83725,  -0.00022,  -0.00145,  -0.00003,360628334.22659,   0.00000,274640135.82653,   0.00000,   0.00000,   0.00000,-114011801.59994,   0.00000
-226130435.81738,-417091276.51242,-2003509.38685,  -0.00022,  -0.00146,  -0.00003,361656075.52194,   0.00000,274640135.82653,   0.00000,   0.00000,   0.00000,-112984060.30459,   0.00000
-226072018.15707,-418339683.54937,-1717911.93646,  -0.00021,  -0.00146,  -0.00002,362699056.18138,   0.00000,274640135.82653,   0.00000,   0.00000,   0.00000,-111941079.64515,   0.00000
-225991964.32628,-419566454.41583,-1427987.25197,  -0.00021,  -0.00147,  -0.00002,363724961.82563,   0.00000,274640135.82653,   0.00000,   0.00000,   0.00000,-110915174.00090,   0.00000
-225911910.49549,-420793225.28230,-1138062.56748,  -0.00021,  -0.00147,  -0.00001,364753086.15465,   0.00000,274640135.82653,   0.00000,   0.00000,   0.00000,-109887049.67188,   0.00000
-225816711.34536,-422013505.29762,-843810.64889,  -0.00020,  -0.00148,  -0.00001,365777281.84787,   0.00000,274640135.82653,   0.00000,   0.00000,   0.00000,-108862853.97866,   0.00000
-225712857.72703,-423242439.78113,-553885.96440,  -0.00020,  -0.00149,  -0.00001,366810736.96092,   0.00000,274640135.82653,   0.00000,   0.00000,   0.00000,-107829398.86561,   0.00000
-225596022.40642,-424441083.62596,-255306.81172,  -0.00020,  -0.00149,  -0.00000,367820301.40817,   0.00000,274640135.82653,   0.00000,   0.00000,   0.00000,-106819834.41836,   0.00000
-225470532.61761,-425648381.93899,43272.34097,  -0.00020,  -0.00150,   0.00000,368839184.95738,   0.00000,274640135.82653,   0.00000,   0.00000,   0.00000,-105800950.86914,   0.00000
-225329897.50946,-426849189.40087,341851.49365,  -0.00019,  -0.00150,   0.00000,369854376.33134,   0.00000,274640135.82653,   0.00000,   0.00000,   0.00000,-104785759.49519,   0.00000
-225189262.40131,-428049996.86276,640430.64634,  -0.00019,  -0.00151,   0.00001,370871906.59968,   0.00000,274640135.82653,   0.00000,   0.00000,   0.00000,-103768229.22685,   0.00000
-225026991.12268,-429229168.15415,943337.03312,  -0.00019,  -0.00151,   0.00001,371872756.42414,   0.00000,274640135.82653,   0.00000,   0.00000,   0.00000,-102767379.40239,   0.00000
-224871210.69519,-430423484.76489,1246243.41990,  -0.00018,  -0.00152,   0.00002,372889054.37668,   0.00000,274640135.82653,   0.00000,   0.00000,   0.00000,-101751081.44985,   0.00000
-224693794.09722,-431596165.20514,1553477.04078,  -0.00018,  -0.00153,   0.00002,373888768.11237,   0.00000,274640135.82653,   0.00000,   0.00000,   0.00000,-100751367.71416,   0.00000
-224501232.17991,-432762354.79425,1856383.42756,  -0.00018,  -0.00153,   0.00002,374884936.43152,   0.00000,274640135.82653,   0.00000,   0.00000,   0.00000,-99755199.39501,   0.00000
-224308670.26260,-433928544.38336,2167944.28253,  -0.00017,  -0.00154,   0.00003,375883660.66278,   0.00000,274640135.82653,   0.00000,   0.00000,   0.00000,-98756475.16374,   0.00000
-224100963.02595,-435088243.12132,2475177.90341,  -0.00017,  -0.00154,   0.00003,376878901.19209,   0.00000,274640135.82653,   0.00000,   0.00000,   0.00000,-97761234.63444,   0.00000
-223878110.46996,-436241451.00814,2786738.75839,  -0.00017,  -0.00155,   0.00004,377870874.64322,   0.00000,274640135.82653,   0.00000,   0.00000,   0.00000,-96769261.18331,   0.00000
-223655257.91397,-437394658.89495,3098299.61336,  -0.00016,  -0.00155,   0.00004,378865339.08308,   0.00000,274640135.82653,   0.00000,   0.00000,   0.00000,-95774796.74345,   0.00000
-223417260.03864,-438541375.93063,3409860.46834,  -0.00016,  -0.00156,   0.00004,379856524.63469,   0.00000,274640135.82653,   0.00000,   0.00000,   0.00000,-94783611.19184,   0.00000
-223157625.99283,-439666456.79581,3725748.55741,  -0.00016,  -0.00157,   0.00005,380831511.49799,   0.00000,274640135.82653,   0.00000,   0.00000,   0.00000,-93808624.32854,   0.00000
-222904482.79816,-440806682.98034,4041636.64648,  -0.00015,  -0.00157,   0.00005,381822156.25640,   0.00000,274640135.82653,   0.00000,   0.00000,   0.00000,-92817979.57013,   0.00000
-222644848.75235,-441931763.84553,4361851.96965,  -0.00015,  -0.00158,   0.00006,382802376.04950,   0.00000,274640135.82653,   0.00000,   0.00000,   0.00000,-91837759.77703,   0.00000
-222354924.06786,-443043863.00842,4677740.05872,  -0.00015,  -0.00158,   0.00006,383773678.15530,   0.00000,274640135.82653,   0.00000,   0.00000,   0.00000,-90866457.67122,   0.00000
-222064999.38337,-444155962.17132,4997955.38189,  -0.00014,  -0.00159,   0.00006,384747745.79167,   0.00000,274640135.82653,   0.00000,   0.00000,   0.00000,-89892390.03486,   0.00000
-221775074.69888,-445268061.33422,5318170.70506,  -0.00014,  -0.00159,   0.00007,385724411.28032,   0.00000,274640135.82653,   0.00000,   0.00000,   0.00000,-88915724.54621,   0.00000
-221470004.69505,-446373669.64597,5642713.26232,  -0.00014,  -0.00160,   0.00007,386698277.54915,   0.00000,274640135.82653,   0.00000,   0.00000,   0.00000,-87941858.27738,   0.00000
-221149789.37188,-447472787.10657,5967255.81959,  -0.00013,  -0.00160,   0.00008,387669235.75122,   0.00000,274640135.82653,   0.00000,   0.00000,   0.00000,-86970900.07531,   0.00000
-220829574.04871,-448571904.56718,6291798.37685,  -0.00013,  -0.00161,   0.00008,388642859.07015,   0.00000,274640135.82653,   0.00000,   0.00000,   0.00000,-85997276.75638,   0.00000
-220487722.55506,-449649385.85730,6616340.93412,  -0.00013,  -0.00162,   0.00009,389600519.59087,   0.00000,274640135.82653,   0.00000,   0.00000,   0.00000,-85039616.23566,   0.00000
-220137216.59321,-450735521.61562,6945210.72548,  -0.00012,  -0.00162,   0.00009,390568751.03293,   0.00000,274640135.82653,   0.00000,   0.00000,   0.00000,-84071384.79360,   0.00000
-219780219.78022,-451806512.05459,7269753.28275,  -0.00012,  -0.00163,   0.00009,391526350.02316,   0.00000,274640135.82653,   0.00000,   0.00000,   0.00000,-83113785.80337,   0.00000
-219414568.49903,-452886156.96176,7598623.07411,  -0.00012,  -0.00163,   0.00010,392494612.12369,   0.00000,274640135.82653,   0.00000,   0.00000,   0.00000,-82145523.70284,   0.00000
-219042426.36670,-453950656.54959,7931820.09957,  -0.00011,  -0.00164,   0.00010,393452755.96864,   0.00000,274640135.82653,   0.00000,   0.00000,   0.00000,-81187379.85789,   0.00000
-218639993.59569,-455002174.43513,8260689.89093,  -0.00011,  -0.00164,   0.00011,394402674.97587,   0.00000,274640135.82653,   0.00000,   0.00000,   0.00000,-80237460.85066,   0.00000
-218252706.14402,-456060183.17182,8593886.91639,  -0.00010,  -0.00165,   0.00011,395361012.17635,   0.00000,274640135.82653,   0.00000,   0.00000,   0.00000,-79279123.65018,   0.00000
-217850273.37301,-457111701.05736,8927083.94185,  -0.00010,  -0.00166,   0.00012,396316815.56302,   0.00000,274640135.82653,   0.00000,   0.00000,   0.00000,-78323320.26351,   0.00000
-217426204.43152,-458141582.77242,9260280.96731,  -0.00010,  -0.00166,   0.00012,397257016.57118,   0.00000,274640135.82653,   0.00000,   0.00000,   0.00000,-77383119.25535,   0.00000
-216993481.02183,-459180118.95567,9593477.99277,  -0.00009,  -0.00167,   0.00012,398207941.25921,   0.00000,274640135.82653,   0.00000,   0.00000,   0.00000,-76432194.56732,   0.00000
-216560757.61215,-460218655.13891,9931002.25233,  -0.00009,  -0.00167,   0.00013,399162054.89563,   0.00000,274640135.82653,   0.00000,   0.00000,   0.00000,-75478080.93090,   0.00000
-216121543.35131,-461242046.00283,10268526.51188,  -0.00008,  -0.00168,   0.00013,400105900.44506,   0.00000,274640135.82653,   0.00000,   0.00000,   0.00000,-74534235.38147,   0.00000
-215667183.77114,-462258946.01559,10606050.77144,  -0.00008,  -0.00168,   0.00014,401047437.60049,   0.00000,274640135.82653,   0.00000,   0.00000,   0.00000,-73592698.22604,   0.00000
-215197678.87163,-463269355.17721,10943575.03099,  -0.00008,  -0.00169,   0.00014,401986731.14287,   0.00000,274640135.82653,   0.00000,   0.00000,   0.00000,-72653404.68366,   0.00000
-214719519.50393,-464288418.80702,11281099.29055,  -0.00007,  -0.00169,   0.00015,402936981.79796,   0.00000,274640135.82653,   0.00000,   0.00000,   0.00000,-71703154.02857,   0.00000
-214228378.43393,-465277191.79816,11622950.78420,  -0.00007,  -0.00170,   0.00015,403864289.04720,   0.00000,274640135.82653,   0.00000,   0.00000,   0.00000,-70775846.77933,   0.00000
-213743728.21508,-466281110.10864,11960475.04376,  -0.00006,  -0.00170,   0.00016,404807301.08825,   0.00000,274640135.82653,   0.00000,   0.00000,   0.00000,-69832834.73828,   0.00000
-213243932.67689,-467278537.56796,12302326.53741,  -0.00006,  -0.00171,   0.00016,405748610.84588,   0.00000,274640135.82653,   0.00000,   0.00000,   0.00000,-68891524.98065,   0.00000
-212728991.81936,-468269474.17615,12644178.03107,  -0.00005,  -0.00172,   0.00016,406687911.03088,   0.00000,274640135.82653,   0.00000,   0.00000,   0.00000,-67952224.79565,   0.00000
-212207560.11069,-469245265.46499,12986029.52472,  -0.00005,  -0.00172,   0.00017,407617082.24764,   0.00000,274640135.82653,   0.00000,   0.00000,   0.00000,-67023053.57889,   0.00000
-211670983.08268,-470214565.90269,13332208.25247,  -0.00005,  -0.00173,   0.00017,408544742.92602,   0.00000,274640135.82653,   0.00000,   0.00000,   0.00000,-66095392.90051,   0.00000
-211125751.58647,-471192520.80859,13674059.74612,  -0.00004,  -0.00173,   0.00018,409483258.85326,   0.00000,274640135.82653,   0.00000,   0.00000,   0.00000,-65156876.97327,   0.00000
-210574029.23912,-472155330.39514,14020238.47387,  -0.00004,  -0.00174,   0.00018,410412144.95078,   0.00000,274640135.82653,   0.00000,   0.00000,   0.00000,-64227990.87575,   0.00000
-210022306.89177,-473118139.98170,14366417.20162,  -0.00003,  -0.00174,   0.00019,411344092.47030,   0.00000,274640135.82653,   0.00000,   0.00000,   0.00000,-63296043.35623,   0.00000
-209433803.05459,-474052822.54662,14708268.69527,  -0.00003,  -0.00175,   0.00019,412255879.83152,   0.00000,274640135.82653,   0.00000,   0.00000,   0.00000,-62384255.99501,   0.00000
-208866935.38790,-475009141.28203,15054447.42302,  -0.00002,  -0.00175,   0.00020,413189165.56542,   0.00000,274640135.82653,   0.00000,   0.00000,   0.00000,-61450970.26111,   0.00000
-208269777.08254,-475952478.31515,15404953.38487,  -0.00002,  -0.00176,   0.00020,414116508.80656,   0.00000,274640135.82653,   0.00000,   0.00000,   0.00000,-60523627.01997,   0.00000
-207666127.92602,-476880670.02893,15751132.11262,  -0.00001,  -0.00176,   0.00020,415033403.95183,   0.00000,274640135.82653,   0.00000,   0.00000,   0.00000,-59606731.87470,   0.00000
-207062478.76951,-477808861.74271,16097310.84037,  -0.00001,  -0.00177,   0.00021,415953436.61572,   0.00000,274640135.82653,   0.00000,   0.00000,   0.00000,-58686699.21081,   0.00000
-206450175.14480,-478745707.92468,16447816.80222,  -0.00001,  -0.00178,   0.00021,416885577.17367,   0.00000,274640135.82653,   0.00000,   0.00000,   0.00000,-57754558.65285,   0.00000
-205816235.34961,-479660917.93617,16793995.52997,  -0.00000,  -0.00178,   0.00022,417802620.15990,   0.00000,274640135.82653,   0.00000,   0.00000,   0.00000,-56837515.66663,   0.00000
-205175804.70327,-480560982.62832,17144501.49181,   0.00000,  -0.00179,   0.00022,418710262.99194,   0.00000,274640135.82653,   0.00000,   0.00000,   0.00000,-55929872.83459,   0.00000
-204526719.58874,-481469701.78866,17495007.45366,   0.00001,  -0.00179,   0.00023,419629669.98939,   0.00000,274640135.82653,   0.00000,   0.00000,   0.00000,-55010465.83714,   0.00000
-203877634.47421,-482378420.94901,17841186.18141,   0.00001,  -0.00180,   0.00023,420551760.45839,   0.00000,274640135.82653,   0.00000,   0.00000,   0.00000,-54088375.36814,   0.00000
-203206913.18919,-483265503.93886,18191692.14326,   0.00002,  -0.00180,   0.00024,421459984.51577,   0.00000,274640135.82653,   0.00000,   0.00000,   0.00000,-53180151.31076,   0.00000
-202527537.43598,-484161241.39692,18542198.10510,   0.00002,  -0.00181,   0.00024,422380120.83966,   0.00000,274640135.82653,   0.00000,   0.00000,   0.00000,-52260014.98687,   0.00000
-201841670.83163,-485041833.53563,18892704.06695,   0.00003,  -0.00181,   0.00025,423290431.09965,   0.00000,274640135.82653,   0.00000,   0.00000,   0.00000,-51349704.72688,   0.00000
-201155804.22727,-485922425.67435,19243210.02880,   0.00003,  -0.00182,   0.00025,424204017.44397,   0.00000,274640135.82653,   0.00000,   0.00000,   0.00000,-50436118.38256,   0.00000
-200454792.30358,-486796526.96191,19593715.99064,   0.00004,  -0.00182,   0.00025,425116486.19215,   0.00000,274640135.82653,   0.00000,   0.00000,   0.00000,-49523649.63438,   0.00000
-199732144.20940,-487648992.07900,19948549.18659,   0.00004,  -0.00183,   0.00026,426015403.40768,   0.00000,274640135.82653,   0.00000,   0.00000,   0.00000,-48624732.41885,   0.00000
-199015986.96637,-488516602.51542,20299055.14843,   0.00005,  -0.00183,   0.00026,426930175.93291,   0.00000,274640135.82653,   0.00000,   0.00000,   0.00000,-47709959.89362,   0.00000
-198278193.55285,-489362576.78136,20649561.11028,   0.00005,  -0.00184,   0.00027,427830876.63029,   0.00000,274640135.82653,   0.00000,   0.00000,   0.00000,-46809259.19624,   0.00000
-197546890.99048,-490223696.36664,21004394.30623,   0.00006,  -0.00185,   0.00027,428748683.09162,   0.00000,274640135.82653,   0.00000,   0.00000,   0.00000,-45891452.73491,   0.00000
-196793952.25763,-491063179.78143,21354900.26807,   0.00006,  -0.00185,   0.00028,429651879.45733,   0.00000,274640135.82653,   0.00000,   0.00000,   0.00000,-44988256.36919,   0.00000
-196041013.52477,-491902663.19622,21705406.22992,   0.00007,  -0.00186,   0.00028,430558458.71804,   0.00000,274640135.82653,   0.00000,   0.00000,   0.00000,-44081677.10849,   0.00000
-195266438.62143,-492720510.44053,22060239.42586,   0.00007,  -0.00186,   0.00029,431451812.65328,   0.00000,274640135.82653,   0.00000,   0.00000,   0.00000,-43188323.17325,   0.00000
-194483209.24990,-493547012.15304,22410745.38771,   0.00008,  -0.00187,   0.00029,432356900.68809,   0.00000,274640135.82653,   0.00000,   0.00000,   0.00000,-42283235.13844,   0.00000
-193693489.02722,-494358368.54620,22765578.58365,   0.00008,  -0.00187,   0.00030,433253022.74125,   0.00000,274640135.82653,   0.00000,   0.00000,   0.00000,-41387113.08528,   0.00000
-192910259.65568,-495184870.25870,23116084.54550,   0.00009,  -0.00188,   0.00030,434164994.22285,   0.00000,274640135.82653,   0.00000,   0.00000,   0.00000,-40475141.60368,   0.00000
-192105394.11366,-495989735.80072,23466590.50735,   0.00009,  -0.00188,   0.00031,435063259.08427,   0.00000,274640135.82653,   0.00000,   0.00000,   0.00000,-39576876.74226,   0.00000
-191285383.25231,-496788110.49160,23821423.70329,   0.00010,  -0.00189,   0.00031,435961696.87597,   0.00000,274640135.82653,   0.00000,   0.00000,   0.00000,-38678438.95056,   0.00000
-190458881.53980,-497571339.86313,24171929.66514,   0.00010,  -0.00189,   0.00031,436849847.75687,   0.00000,274640135.82653,   0.00000,   0.00000,   0.00000,-37790288.06966,   0.00000
-189623725.35911,-498363223.70286,24526762.86108,   0.00011,  -0.00190,   0.00032,437751362.29073,   0.00000,274640135.82653,   0.00000,   0.00000,   0.00000,-36888773.53580,   0.00000
-188782078.32726,-499139962.22325,24877268.82293,   0.00011,  -0.00190,   0.00032,438642600.59113,   0.00000,274640135.82653,   0.00000,   0.00000,   0.00000,-35997535.23540,   0.00000
-187931776.82723,-499925355.21183,25227774.78477,   0.00012,  -0.00191,   0.00033,439546556.23829,   0.00000,274640135.82653,   0.00000,   0.00000,   0.00000,-35093579.58824,   0.00000
-187074984.47605,-500695602.88107,25582607.98072,   0.00013,  -0.00191,   0.00033,440441737.25731,   0.00000,274640135.82653,   0.00000,   0.00000,   0.00000,-34198398.56922,   0.00000
-186196555.95438,-501444214.37983,25933113.94256,   0.00013,  -0.00192,   0.00034,441322842.21393,   0.00000,274640135.82653,   0.00000,   0.00000,   0.00000,-33317293.61260,   0.00000
-185324618.28386,-502207971.19793,26283619.90441,   0.00014,  -0.00192,   0.00034,442220585.16228,   0.00000,274640135.82653,   0.00000,   0.00000,   0.00000,-32419550.66425,   0.00000
-184431044.44286,-502950091.84554,26638453.10036,   0.00014,  -0.00193,   0.00035,443105874.31308,   0.00000,274640135.82653,   0.00000,   0.00000,   0.00000,-31534261.51345,   0.00000
-183543961.45300,-503707357.81250,26988959.06220,   0.00015,  -0.00193,   0.00035,444007044.95330,   0.00000,274640135.82653,   0.00000,   0.00000,   0.00000,-30633090.87323,   0.00000
-182635242.29266,-504442987.60897,27339465.02405,   0.00015,  -0.00194,   0.00036,444895078.92734,   0.00000,274640135.82653,   0.00000,   0.00000,   0.00000,-29745056.89919,   0.00000
-181720032.28117,-505163472.08609,27689970.98590,   0.00016,  -0.00194,   0.00036,445773692.23317,   0.00000,274640135.82653,   0.00000,   0.00000,   0.00000,-28866443.59336,   0.00000
-180796167.80148,-505892611.03142,28040476.94774,   0.00016,  -0.00195,   0.00036,446665364.49191,   0.00000,274640135.82653,   0.00000,   0.00000,   0.00000,-27974771.33462,   0.00000
-179865812.47066,-506606604.65740,28390982.90959,   0.00017,  -0.00195,   0.00037,447547648.36858,   0.00000,274640135.82653,   0.00000,   0.00000,   0.00000,-27092487.45795,   0.00000
-178926802.67163,-507329252.75158,28741488.87144,   0.00018,  -0.00196,   0.00037,448443073.15732,   0.00000,274640135.82653,   0.00000,   0.00000,   0.00000,-26197062.66921,   0.00000
-177981302.02147,-508036755.52642,29091994.83328,   0.00018,  -0.00196,   0.00038,449329142.27975,   0.00000,274640135.82653,   0.00000,   0.00000,   0.00000,-25310993.54678,   0.00000
-177014165.20082,-508722622.13077,29438173.56103,   0.00019,  -0.00197,   0.00038,450201542.49173,   0.00000,274640135.82653,   0.00000,   0.00000,   0.00000,-24438593.33480,   0.00000
-176038373.91197,-509417143.20332,29788679.52288,   0.00019,  -0.00197,   0.00039,451088090.76472,   0.00000,274640135.82653,   0.00000,   0.00000,   0.00000,-23552045.06181,   0.00000
-175056091.77198,-510096518.95653,30134858.25063,   0.00020,  -0.00198,   0.00039,451964511.80196,   0.00000,274640135.82653,   0.00000,   0.00000,   0.00000,-22675624.02457,   0.00000
-174073809.63199,-510775894.70974,30485364.21248,   0.00020,  -0.00198,   0.00040,452845528.02199,   0.00000,274640135.82653,   0.00000,   0.00000,   0.00000,-21794607.80454,   0.00000
-173076382.17266,-511448779.61180,30831542.94023,   0.00021,  -0.00199,   0.00040,453726058.22321,   0.00000,274640135.82653,   0.00000,   0.00000,   0.00000,-20914077.60332,   0.00000
-172078954.71333,-512121664.51387,31177721.66798,   0.00022,  -0.00199,   0.00041,454610334.45062,   0.00000,274640135.82653,   0.00000,   0.00000,   0.00000,-20029801.37591,   0.00000
-171059891.08352,-512772913.24545,31528227.62982,   0.00022,  -0.00200,   0.00041,455482991.57907,   0.00000,274640135.82653,   0.00000,   0.00000,   0.00000,-19157144.24746,   0.00000
-170040827.45370,-513424161.97703,31874406.35757,   0.00023,  -0.00200,   0.00041,456358540.08400,   0.00000,274640135.82653,   0.00000,   0.00000,   0.00000,-18281595.74253,   0.00000
-169006618.50455,-514068919.85746,32216257.85123,   0.00023,  -0.00201,   0.00042,457233751.43155,   0.00000,274640135.82653,   0.00000,   0.00000,   0.00000,-17406384.39497,   0.00000
-167972409.55540,-514713677.73790,32562436.57898,   0.00024,  -0.00201,   0.00042,458113676.47063,   0.00000,274640135.82653,   0.00000,   0.00000,   0.00000,-16526459.35590,   0.00000
-166916564.43576,-515336799.44784,32908615.30673,   0.00025,  -0.00202,   0.00043,458981305.87340,   0.00000,274640135.82653,   0.00000,   0.00000,   0.00000,-15658829.95313,   0.00000
-165860719.31612,-515959921.15779,33250466.80038,   0.00025,  -0.00202,   0.00043,459851840.72593,   0.00000,274640135.82653,   0.00000,   0.00000,   0.00000,-14788295.10060,   0.00000
-164789728.87715,-516576552.01660,33596645.52813,   0.00026,  -0.00203,   0.00044,460724085.17233,   0.00000,274640135.82653,   0.00000,   0.00000,   0.00000,-13916050.65420,   0.00000
-163718738.43817,-517193182.87540,33938497.02178,   0.00026,  -0.00203,   0.00044,461599245.05970,   0.00000,274640135.82653,   0.00000,   0.00000,   0.00000,-13040890.76683,   0.00000
-162626111.82871,-517788177.56372,34280348.51543,   0.00027,  -0.00204,   0.00045,462462320.50649,   0.00000,274640135.82653,   0.00000,   0.00000,   0.00000,-12177815.32004,   0.00000
-161533485.21925,-518383172.25204,34622200.00909,   0.00028,  -0.00204,   0.00045,463329288.76631,   0.00000,274640135.82653,   0.00000,   0.00000,   0.00000,-11310847.06022,   0.00000
-160425713.29045,-518971676.08922,34964051.50274,   0.00028,  -0.00205,   0.00045,464197224.72879,   0.00000,274640135.82653,   0.00000,   0.00000,   0.00000,-10442911.09774,   0.00000
-159311450.51051,-519545034.60705,35305902.99639,   0.00029,  -0.00205,   0.00046,465056156.32846,   0.00000,274640135.82653,   0.00000,   0.00000,   0.00000,-9583979.49807,   0.00000
-158203678.58171,-520133538.44423,35643427.25595,   0.00029,  -0.00206,   0.00046,465930922.25710,   0.00000,274640135.82653,   0.00000,   0.00000,   0.00000,-8709213.56943,   0.00000
-157074270.48242,-520700406.11092,35980951.51551,   0.00030,  -0.00206,   0.00047,466793840.53110,   0.00000,274640135.82653,   0.00000,   0.00000,   0.00000,-7846295.29543,   0.00000
-155923226.21265,-521245637.60713,36322803.00916,   0.00031,  -0.00207,   0.00047,467646024.02605,   0.00000,274640135.82653,   0.00000,   0.00000,   0.00000,-6994111.80048,   0.00000
-154778672.79403,-521806014.42267,36660327.26871,   0.00031,  -0.00207,   0.00048,468514088.00336,   0.00000,274640135.82653,   0.00000,   0.00000,   0.00000,-6126047.82317,   0.00000
-153627628.52426,-522351245.91888,36993524.29417,   0.00032,  -0.00208,   0.00048,469372188.89799,   0.00000,274640135.82653,   0.00000,   0.00000,   0.00000,-5267946.92854,   0.00000
-152461438.93515,-522889986.56394,37331048.55373,   0.00033,  -0.00208,   0.00049,470232591.61085,   0.00000,274640135.82653,   0.00000,   0.00000,   0.00000,-4407544.21568,   0.00000
-151288758.49490,-523413581.88966,37668572.81329,   0.00033,  -0.00209,   0.00049,471084110.64629,   0.00000,274640135.82653,   0.00000,   0.00000,   0.00000,-3556025.18024,   0.00000
-150107423.58645,-523945831.68358,38001769.83875,   0.00034,  -0.00209,   0.00049,471948850.82401,   0.00000,274640135.82653,   0.00000,   0.00000,   0.00000,-2691285.00252,   0.00000
-148919597.82686,-524462936.15815,38334966.86420,   0.00035,  -0.00210,   0.00050,472804735.11400,   0.00000,274640135.82653,   0.00000,   0.00000,   0.00000,-1835400.71253,   0.00000
-147710135.89679,-524958404.46224,38668163.88966,   0.00035,  -0.00210,   0.00050,473649252.18426,   0.00000,274640135.82653,   0.00000,   0.00000,   0.00000,-990883.64227,   0.00000
-146500673.96671,-525453872.76634,39001360.91512,   0.00036,  -0.00211,   0.00051,474497831.22671,   0.00000,274640135.82653,   0.00000,   0.00000,   0.00000,-142304.59982,   0.00000
-146298158.85304,-525536835.12954,39056427.63655,   0.00036,  -0.00211,   0.00051,474640135.88407,   0.00000,274640135.82653,   0.00000,   0.00000,   0.00000,  -6.42905,   0.00000
-146298158.85304,-525536835.12954,39056427.63655,   0.00036,  -0.00211,   0.00051,475349376.32838,   0.00000,274640135.82653,   0.00000,   0.00000,   0.00000,  -6.42905,   0.00000
-144900716.14867,-525114411.92344,39308939.80200,   0.00037,  -0.00211,   0.00052,474644590.24356,   0.00000,274644595.62191,   0.00000,  -0.00000,   0.00000,849783.06964,   1.00000
-143486450.83224,-524683546.39315,39562028.33302,   0.00038,  -0.00212,   0.00052,474648994.31429,   0.00001,274648999.89921,   0.00000,  -0.00001,   0.00000,838406.23346,   1.00000
-142077860.20275,-524250893.12083,39813151.59422,   0.00038,  -0.00212,   0.00052,474653487.62375,   0.00001,274653496.42753,   0.00000,  -0.00001,   0.00000,855156.13348,   1.00000
-140663056.23332,-523812203.20967,40065809.26264,   0.00039,  -0.00213,   0.00053,474657878.30825,   0.00002,274657882.81680,   0.00000,  -0.00002,   0.00000,833427.50801,   1.00000
-139254221.26076,-523372970.83861,40312272.81582,   0.00040,  -0.00213,   0.00053,474662350.81270,   0.00002,274662355.62320,   0.00001,  -0.00002,   0.00000,849053.94855,   1.00000
-137813703.86127,-522920991.03857,40559541.84292,   0.00040,  -0.00214,   0.00054,474666757.35974,   0.00002,274666761.76661,   0.00001,  -0.00002,   0.00001,835609.38902,   1.00000
-136385553.81200,-522468341.68460,40806987.40715,   0.00041,  -0.00214,   0.00054,474671132.34861,   0.00003,274671137.54147,   0.00001,  -0.00003,   0.00001,829072.60545,   1.00000
-134948592.64340,-522009898.76548,41052649.14231,   0.00042,  -0.00215,   0.00055,474675590.15191,   0.00003,274675594.24028,   0.00001,  -0.00003,   0.00001,843615.60707,   1.00000
-133509252.03621,-521546681.42380,41298703.90634,   0.00042,  -0.00215,   0.00055,474680000.39776,   0.00004,274680008.72014,   0.00001,  -0.00003,   0.00001,834840.52449,   1.00000
-132052934.72933,-521075651.89968,41541149.24412,   0.00043,  -0.00215,   0.00055,474684363.30420,   0.00004,274684363.65355,   0.00001,  -0.00004,   0.00001,822817.29208,   1.00000
-130598407.66526,-520601344.23005,41782795.79247,   0.00044,  -0.00216,   0.00056,474688743.48009,   0.00004,274688744.22881,   0.00001,  -0.00004,   0.00001,826891.32512,   1.00000
-129130922.08259,-520119485.95438,42023839.34063,   0.00044,  -0.00216,   0.00056,474693137.83929,   0.00005,274693139.50885,   0.00001,  -0.00005,   0.00001,828892.29034,   1.00000
-127665468.90777,-519635562.40319,42259868.56134,   0.00045,  -0.00217,   0.00057,474697547.28946,   0.00005,274697554.55313,   0.00001,  -0.00005,   0.00001,831845.49331,   1.00000
-126182685.60433,-519142315.77902,42496518.72685,   0.00046,  -0.00217,   0.00057,474701911.59777,   0.00006,274701917.23126,   0.00001,  -0.00005,   0.00001,821217.88050,   1.00000
-124716562.15734,-518650180.38429,42732178.63860,   0.00046,  -0.00218,   0.00057,474706309.52495,   0.00006,274706316.38826,   0.00002,  -0.00006,   0.00002,827325.19686,   1.00000
-123218191.01476,-518144133.41096,42968650.66674,   0.00047,  -0.00218,   0.00058,474710646.18533,   0.00006,274710653.38652,   0.00002,  -0.00006,   0.00002,814878.00365,   1.00000
-121736518.73888,-517639232.66747,43204131.69592,   0.00048,  -0.00219,   0.00058,474715017.70054,   0.00007,274715026.86794,   0.00002,  -0.00006,   0.00002,820978.36756,   1.00000
-120242067.40240,-517127764.60841,43434789.09674,   0.00049,  -0.00219,   0.00059,474719402.26415,   0.00007,274719410.29782,   0.00002,  -0.00007,   0.00002,822095.52948,   1.00000
-118730075.02972,-516606580.18534,43666076.97359,   0.00049,  -0.00219,   0.00059,474723740.94403,   0.00008,274723742.82466,   0.00002,  -0.00007,   0.00002,811808.81645,   1.00000
-117219986.87735,-516082015.70664,43896558.97693,   0.00050,  -0.00220,   0.00059,474728099.88522,   0.00008,274728102.16595,   0.00002,  -0.00007,   0.00002,816086.64809,   1.00000
-115707317.40918,-515553483.51786,44123297.57638,   0.00051,  -0.00220,   0.00060,474732412.28892,   0.00008,274732414.08026,   0.00002,  -0.00008,   0.00002,806476.91483,   1.00000
-114181674.61168,-515016893.35022,44349409.60741,   0.00051,  -0.00221,   0.00060,474736742.11586,   0.00009,274736743.65157,   0.00002,  -0.00008,   0.00002,809043.41816,   1.00000
-112657974.53914,-514476915.75436,44574717.83883,   0.00052,  -0.00221,   0.00061,474741092.81437,   0.00009,274741100.27416,   0.00002,  -0.00009,   0.00002,813357.29463,   1.00000
-111131438.41613,-513931626.65832,44800498.93262,   0.00053,  -0.00221,   0.00061,474745412.48953,   0.00010,274745416.10958,   0.00003,  -0.00009,   0.00002,805021.23318,   1.00000
-109587253.95806,-513377410.95272,45022721.92697,   0.00053,  -0.00222,   0.00061,474749668.84172,   0.00010,274749676.22669,   0.00003,  -0.00009,   0.00003,793907.98980,   1.00000
-108049904.19178,-512821801.18583,45242859.96804,   0.00054,  -0.00222,   0.00062,474754024.96031,   0.00010,274754031.37320,   0.00003,  -0.00010,   0.00003,810893.42112,   1.00000
-106494852.69459,-512257146.59770,45459447.40957,   0.00055,  -0.00223,   0.00062,474758330.73105,   0.00011,274758331.25875,   0.00003,  -0.00010,   0.00003,799895.50597,   1.00000
-104936684.07506,-511685674.13491,45680719.19528,   0.00056,  -0.00223,   0.00063,474762596.63724,   0.00011,274762597.79930,   0.00003,  -0.00010,   0.00003,792981.54593,   1.00000
-103380655.17604,-511112051.08862,45896991.93227,   0.00056,  -0.00223,   0.00063,474766881.24597,   0.00012,274766885.27738,   0.00003,  -0.00011,   0.00003,796164.43193,   1.00000
-101826639.87452,-510535023.65028,46112464.65245,   0.00057,  -0.00224,   0.00063,474771194.52861,   0.00012,274771200.30023,   0.00003,  -0.00011,   0.00003,800573.10070,   1.00000
-100239766.88063,-509943577.05781,46324537.04473,   0.00058,  -0.00224,   0.00064,474775447.50911,   0.00012,274775453.75521,   0.00003,  -0.00011,   0.00003,788450.09231,   1.00000
-98669919.53462,-509353743.77182,46535666.14112,   0.00058,  -0.00225,   0.00064,474779739.53435,   0.00013,274779742.56683,   0.00004,  -0.00012,   0.00003,794312.06537,   1.00000
-97081966.69331,-508753086.59873,46747444.07898,   0.00059,  -0.00225,   0.00065,474783984.30890,   0.00013,274783984.65420,   0.00004,  -0.00012,   0.00003,784971.05159,   1.00000
-95496071.72878,-508148929.82425,46958414.49062,   0.00060,  -0.00225,   0.00065,474788253.87764,   0.00013,274788255.06584,   0.00004,  -0.00012,   0.00004,789521.47877,   1.00000
-93907127.85794,-507540327.86308,47165715.90632,   0.00061,  -0.00226,   0.00065,474792473.48611,   0.00014,274792479.04737,   0.00004,  -0.00013,   0.00004,780256.72363,   1.00000
-92305240.73316,-506922966.65288,47372341.63901,   0.00061,  -0.00226,   0.00066,474796715.84162,   0.00014,274796724.98510,   0.00004,  -0.00013,   0.00004,783628.32326,   1.00000
-90700119.39942,-506299743.20628,47579490.71718,   0.00062,  -0.00227,   0.00066,474800924.89361,   0.00015,274800931.80153,   0.00004,  -0.00014,   0.00004,775738.92143,   1.00000
-89082182.41807,-505668963.02672,47781768.17003,   0.00063,  -0.00227,   0.00066,474805152.34541,   0.00015,274805154.30053,   0.00004,  -0.00014,   0.00004,777964.42276,   1.00000
-87460951.24868,-505032201.36771,47984574.95514,   0.00064,  -0.00227,   0.00067,474809334.33293,   0.00015,274809338.11954,   0.00004,  -0.00014,   0.00004,770173.78371,   1.00000
-85841840.15243,-504391880.28013,48186573.77647,   0.00064,  -0.00228,   0.00067,474813543.32942,   0.00016,274813550.94081,   0.00004,  -0.00015,   0.00004,774846.78156,   1.00000
-84209931.87337,-503743879.79149,48383692.36830,   0.00065,  -0.00228,   0.00068,474817771.69374,   0.00016,274817780.25253,   0.00005,  -0.00015,   0.00004,777217.81631,   1.00000
-82584161.62207,-503092825.76877,48582598.57227,   0.00066,  -0.00228,   0.00068,474821906.09610,   0.00017,274821908.50413,   0.00005,  -0.00015,   0.00004,758012.06252,   1.00000
-80935985.73369,-502429606.32802,48779544.48891,   0.00067,  -0.00229,   0.00068,474826115.04982,   0.00017,274826123.82623,   0.00005,  -0.00016,   0.00005,773336.09394,   1.00000
-79299547.59857,-501767186.49572,48972762.84891,   0.00067,  -0.00229,   0.00069,474830297.37731,   0.00017,274830298.40887,   0.00005,  -0.00016,   0.00005,765230.92585,   1.00000
-77644550.78172,-501092925.06186,49166624.38039,   0.00068,  -0.00230,   0.00069,474834425.46398,   0.00018,274834430.31854,   0.00005,  -0.00016,   0.00005,756769.54752,   1.00000
-75991745.50916,-500415047.81716,49359675.90241,   0.00069,  -0.00230,   0.00069,474838588.70176,   0.00018,274838591.92770,   0.00005,  -0.00017,   0.00005,761575.65889,   1.00000
-74320400.63448,-499726497.17963,49549188.86634,   0.00070,  -0.00230,   0.00070,474842696.90896,   0.00018,274842704.33129,   0.00005,  -0.00017,   0.00005,751940.24285,   1.00000
-72651277.16572,-499034287.17191,49737890.47459,   0.00070,  -0.00231,   0.00070,474846841.39314,   0.00019,274846846.82002,   0.00006,  -0.00017,   0.00005,756816.82681,   1.00000
-70978632.85391,-498337052.47729,49922980.13735,   0.00071,  -0.00231,   0.00070,474850938.02757,   0.00019,274850944.37157,   0.00006,  -0.00018,   0.00005,747992.27595,   1.00000
-69293064.33436,-497628934.33625,50111499.68735,   0.00072,  -0.00231,   0.00071,474855071.04234,   0.00020,274855076.20918,   0.00006,  -0.00018,   0.00005,753630.35710,   1.00000
-67603918.93527,-496915683.02086,50296405.16059,   0.00073,  -0.00232,   0.00071,474859161.70073,   0.00020,274859163.53173,   0.00006,  -0.00018,   0.00005,744905.00942,   1.00000
-65917103.81698,-496200112.31749,50476328.55336,   0.00073,  -0.00232,   0.00071,474863265.53500,   0.00020,274863273.83135,   0.00006,  -0.00019,   0.00005,748481.03854,   1.00000
-64226578.51478,-495478008.65633,50656825.84601,   0.00074,  -0.00232,   0.00072,474867344.88573,   0.00021,274867347.01716,   0.00006,  -0.00019,   0.00006,741131.99979,   1.00000
-62523233.95170,-494746194.95002,50836563.05607,   0.00075,  -0.00233,   0.00072,474871444.22232,   0.00021,274871448.30980,   0.00006,  -0.00019,   0.00006,745643.47323,   1.00000
-60816133.88957,-494007715.47176,51016867.03167,   0.00076,  -0.00233,   0.00072,474875507.77596,   0.00021,274875513.09267,   0.00006,  -0.00020,   0.00006,738412.00318,   1.00000
-59105271.27827,-493263907.40968,51193576.81931,   0.00076,  -0.00233,   0.00073,474879527.15334,   0.00022,274879533.74939,   0.00007,  -0.00020,   0.00006,729813.55187,   1.00000
-57381611.02272,-492510218.22529,51369509.71585,   0.00077,  -0.00234,   0.00073,474883579.58379,   0.00022,274883583.61906,   0.00007,  -0.00020,   0.00006,734533.62201,   1.00000
-55654132.24830,-491751086.14668,51541851.92516,   0.00078,  -0.00234,   0.00074,474887587.41488,   0.00023,274887589.78654,   0.00007,  -0.00021,   0.00006,726035.75487,   1.00000
-53929008.24295,-490988184.91359,51713376.71004,   0.00079,  -0.00234,   0.00074,474891618.97814,   0.00023,274891627.36847,   0.00007,  -0.00021,   0.00006,731150.02116,   1.00000
-52184849.70832,-490212122.15944,51885504.08621,   0.00079,  -0.00234,   0.00074,474895624.25221,   0.00023,274895627.95664,   0.00007,  -0.00021,   0.00006,723886.41641,   1.00000
-50443106.29169,-489433638.23382,52052645.92694,   0.00080,  -0.00235,   0.00074,474899646.25695,   0.00024,274899652.57984,   0.00007,  -0.00022,   0.00006,727667.86575,   1.00000
-48691025.28534,-488644928.71150,52221767.38596,   0.00081,  -0.00235,   0.00075,474903567.77571,   0.00024,274903574.64650,   0.00007,  -0.00022,   0.00007,708574.07566,   1.00000
-46947758.95205,-487857052.27861,52384507.90949,   0.00082,  -0.00235,   0.00075,474907580.73747,   0.00024,274907587.86152,   0.00008,  -0.00022,   0.00007,724487.35603,   1.00000
-45185346.01512,-487054266.93727,52551994.19220,   0.00083,  -0.00236,   0.00075,474911565.59652,   0.00025,274911573.58352,   0.00008,  -0.00023,   0.00007,718969.80691,   1.00000
-43418888.92086,-486247121.49832,52711746.19131,   0.00083,  -0.00236,   0.00076,474915506.04683,   0.00025,274915508.57201,   0.00008,  -0.00023,   0.00007,709284.78547,   1.00000
-41648346.31891,-485431341.34016,52876235.09237,   0.00084,  -0.00236,   0.00076,474919412.11205,   0.00025,274919416.96657,   0.00008,  -0.00023,   0.00007,703952.89234,   1.00000
-39865122.44202,-484606527.36940,53035729.42975,   0.00085,  -0.00237,   0.00076,474923342.86177,   0.00026,274923350.38302,   0.00008,  -0.00023,   0.00007,707921.14536,   1.00000
-38077771.92426,-483774372.18087,53195801.09753,   0.00086,  -0.00237,   0.00077,474927246.48122,   0.00026,274927249.70083,   0.00008,  -0.00024,   0.00007,701259.93798,   1.00000
-36292898.91277,-482939719.55596,53350886.98694,   0.00087,  -0.00237,   0.00077,474931170.00294,   0.00027,274931173.86073,   0.00008,  -0.00024,   0.00007,705202.50352,   1.00000
-34503840.58638,-482097664.27632,53506556.85451,   0.00087,  -0.00237,   0.00077,474935055.39170,   0.00027,274935064.03810,   0.00008,  -0.00024,   0.00007,698573.50352,   1.00000
-32695435.45927,-481241411.74971,53662777.70289,   0.00088,  -0.00238,   0.00078,474938913.43720,   0.00027,274938921.90874,   0.00009,  -0.00025,   0.00008,692257.46604,   1.00000
-30889538.43998,-480382616.08632,53814008.90552,   0.00089,  -0.00238,   0.00078,474942803.71528,   0.00028,274942805.05545,   0.00009,  -0.00025,   0.00008,696289.48562,   1.00000
-29079336.48116,-479517649.91846,53961673.43215,   0.00090,  -0.00238,   0.00078,474946645.32100,   0.00028,274946646.72462,   0.00009,  -0.00025,   0.00008,688352.07578,   1.00000
-27271749.86623,-478647333.07707,54112651.74676,   0.00090,  -0.00238,   0.00079,474950528.68477,   0.00028,274950530.11370,   0.00009,  -0.00026,   0.00008,695323.93473,   1.00000
-25437771.77833,-477760143.60260,54261429.14174,   0.00091,  -0.00239,   0.00079,474954302.67341,   0.00029,274954308.07885,   0.00009,  -0.00026,   0.00008,675953.09601,   1.00000
-23628448.09595,-476879654.11570,54407999.22321,   0.00092,  -0.00239,   0.00079,474958180.31913,   0.00029,274958183.92372,   0.00009,  -0.00026,   0.00008,692974.46935,   1.00000
-21777490.22282,-475975079.23859,54552303.19504,   0.00093,  -0.00239,   0.00079,474961949.90105,   0.00029,274961958.03035,   0.00009,  -0.00027,   0.00008,674295.87534,   1.00000
-19944275.95998,-475073462.03552,54695823.60795,   0.00094,  -0.00239,   0.00080,474965758.35142,   0.00030,274965763.51324,   0.00010,  -0.00027,   0.00008,679424.20791,   1.00000
-18106559.65039,-474165387.24463,54835780.27021,   0.00094,  -0.00240,   0.00080,474969521.64160,   0.00030,274969528.38111,   0.00010,  -0.00027,   0.00008,671701.03627,   1.00000
-16249282.41074,-473242266.47642,54976238.74094,   0.00095,  -0.00240,   0.00080,474973257.35270,   0.00030,274973264.93304,   0.00010,  -0.00027,   0.00008,666180.09346,   1.00000
-14394682.46873,-472315073.72250,55115844.02470,   0.00096,  -0.00240,   0.00081,474977029.99735,   0.00031,274977036.30448,   0.00010,  -0.00028,   0.00009,671921.41351,   1.00000
-12520420.57458,-471374041.33269,55251788.47735,   0.00097,  -0.00240,   0.00081,474980764.78747,   0.00031,274980772.08811,   0.00010,  -0.00028,   0.00009,665118.32018,   1.00000
-10656726.89420,-470432058.91425,55388393.31250,   0.00098,  -0.00241,   0.00081,474984467.37708,   0.00031,274984472.57623,   0.00010,  -0.00028,   0.00009,658384.32845,   1.00000
-8780676.27015,-469478736.24120,55524042.43740,   0.00099,  -0.00241,   0.00081,474988211.56479,   0.00032,274988212.82203,   0.00010,  -0.00029,   0.00009,665006.30309,   1.00000
-6899968.97146,-468518574.24185,55656113.96914,   0.00099,  -0.00241,   0.00082,474991904.58685,   0.00032,274991914.02410,   0.00011,  -0.00029,   0.00009,657610.51178,   1.00000
-5014555.91946,-467551541.94238,55784615.50159,   0.00100,  -0.00241,   0.00082,474995575.52829,   0.00032,274995576.14399,   0.00011,  -0.00029,   0.00009,650238.66523,   1.00000
-3132035.22716,-466578951.29240,55916393.43703,   0.00101,  -0.00242,   0.00082,474999278.82797,   0.00033,274999282.54695,   0.00011,  -0.00029,   0.00009,657658.35905,   1.00000
-1229715.28638,-465591979.44930,56044472.78226,   0.00102,  -0.00242,   0.00083,475002954.45522,   0.00033,275002955.91987,   0.00011,  -0.00030,   0.00009,651365.76550,   1.00000
662342.93272,-464605406.05488,56169102.00568,   0.00103,  -0.00242,   0.00083,475006583.32402,   0.00033,275006585.06261,   0.00011,  -0.00030,   0.00009,643101.09413,   1.00000
2574138.44150,-463602820.39610,56294159.65143,   0.00103,  -0.00242,   0.00083,475010185.51404,   0.00034,275010190.72613,   0.00011,  -0.00030,   0.00010,638517.17271,   1.00000
4498104.97068,-462588477.73757,56418202.23767,   0.00104,  -0.00242,   0.00083,475013836.47865,   0.00034,275013839.41496,   0.00011,  -0.00031,   0.00010,645715.50412,   1.00000
6419498.84870,-461569990.25581,56540224.59661,   0.00105,  -0.00243,   0.00084,475017373.24393,   0.00034,275017378.52085,   0.00012,  -0.00031,   0.00010,625914.85880,   1.00000
8345396.38911,-460544144.76980,56659795.73201,   0.00106,  -0.00243,   0.00084,475021026.61103,   0.00035,275021026.79802,   0.00012,  -0.00031,   0.00010,644813.43683,   1.00000
10268709.45372,-459512653.68108,56781490.75538,   0.00107,  -0.00243,   0.00084,475024568.09626,   0.00035,275024574.09484,   0.00012,  -0.00031,   0.00010,626560.55870,   1.00000
12204271.03309,-458470659.91888,56898011.80650,   0.00107,  -0.00243,   0.00084,475028148.29742,   0.00035,275028157.01315,   0.00012,  -0.00032,   0.00010,632449.72225,   1.00000
14152388.03388,-457415147.01076,57016494.61807,   0.00108,  -0.00243,   0.00085,475031646.76746,   0.00036,275031646.83257,   0.00012,  -0.00032,   0.00010,615635.10215,   1.00000
16112698.38620,-456348929.08947,57129776.75938,   0.00109,  -0.00243,   0.00085,475035168.13117,   0.00036,275035173.68965,   0.00012,  -0.00032,   0.00010,621773.28220,   1.00000
18055046.79022,-455286206.77766,57242347.69357,   0.00110,  -0.00244,   0.00085,475038722.28621,   0.00036,275038730.09813,   0.00012,  -0.00033,   0.00010,626595.01282,   1.00000
20025074.52677,-454201822.14186,57356683.29497,   0.00111,  -0.00244,   0.00085,475042199.74774,   0.00037,275042202.90341,   0.00013,  -0.00033,   0.00010,611490.46941,   1.00000
21992265.08098,-453114468.50037,57465985.55880,   0.00112,  -0.00244,   0.00086,475045695.99122,   0.00037,275045705.22725,   0.00013,  -0.00033,   0.00011,616305.75180,   1.00000
23964346.26406,-452017918.31895,57575808.60047,   0.00112,  -0.00244,   0.00086,475049180.07866,   0.00037,275049181.05785,   0.00013,  -0.00033,   0.00011,611280.91167,   1.00000
25941550.65155,-450913500.63240,57682018.48170,   0.00113,  -0.00244,   0.00086,475052618.44059,   0.00038,275052621.82922,   0.00013,  -0.00034,   0.00011,604749.70278,   1.00000
27915672.41662,-449804720.93878,57787326.99678,   0.00114,  -0.00244,   0.00086,475056100.34054,   0.00038,275056101.15297,   0.00013,  -0.00034,   0.00011,611165.31629,   1.00000
29917688.64667,-448673505.93452,57894340.59753,   0.00115,  -0.00244,   0.00087,475059492.37518,   0.00038,275059500.35344,   0.00013,  -0.00034,   0.00011,596727.32137,   1.00000
31901921.13124,-447547346.48363,57996536.25321,   0.00116,  -0.00245,   0.00087,475062916.58951,   0.00039,275062919.57210,   0.00013,  -0.00034,   0.00011,599896.07652,   1.00000
33906007.76483,-446403566.43988,58099004.15354,   0.00117,  -0.00245,   0.00087,475066318.66893,   0.00039,275066324.12626,   0.00014,  -0.00035,   0.00011,596971.80974,   1.00000
35907140.29238,-445256755.03080,58196428.49909,   0.00117,  -0.00245,   0.00087,475069753.05076,   0.00039,275069759.16698,   0.00014,  -0.00035,   0.00011,601971.29547,   1.00000
37921486.09882,-444095127.10849,58295757.25481,   0.00118,  -0.00245,   0.00087,475073104.01704,   0.00040,275073105.65552,   0.00014,  -0.00035,   0.00011,586120.93482,   1.00000
39932610.85290,-442929012.01478,58394158.62154,   0.00119,  -0.00245,   0.00088,475076486.73610,   0.00040,275076492.12510,   0.00014,  -0.00035,   0.00011,592782.93978,   1.00000
41972120.81378,-441740959.55939,58490067.92439,   0.00120,  -0.00245,   0.00088,475079786.28698,   0.00040,275079793.50758,   0.00014,  -0.00036,   0.00012,577559.01445,   1.00000
43993565.44470,-440556654.84727,58585299.97206,   0.00121,  -0.00245,   0.00088,475083119.12373,   0.00040,275083123.67366,   0.00014,  -0.00036,   0.00012,582272.25533,   1.00000
46035126.00899,-439355502.87643,58676612.82315,   0.00122,  -0.00245,   0.00088,475086425.13686,   0.00041,275086433.68749,   0.00014,  -0.00036,   0.00012,578423.98910,   1.00000
48073346.86811,-438149798.61507,58766984.58735,   0.00122,  -0.00246,   0.00089,475089776.13396,   0.00041,275089784.63237,   0.00015,  -0.00036,   0.00012,585256.36698,   1.00000
50125073.67114,-436928576.57306,58859215.21866,   0.00123,  -0.00246,   0.00089,475093046.43924,   0.00041,275093049.75359,   0.00015,  -0.00037,   0.00012,569960.01946,   1.00000
52173710.83111,-435704151.85072,58946373.60646,   0.00124,  -0.00246,   0.00089,475096339.02238,   0.00042,275096347.07023,   0.00015,  -0.00037,   0.00012,575266.12272,   1.00000
54235967.85579,-434463975.37675,59035378.14616,   0.00125,  -0.00246,   0.00089,475099555.81019,   0.00042,275099559.39231,   0.00015,  -0.00037,   0.00012,560140.91059,   1.00000
56295113.62264,-433220556.74889,59119305.71454,   0.00126,  -0.00246,   0.00089,475102797.29545,   0.00042,275102804.26004,   0.00015,  -0.00037,   0.00012,565514.29532,   1.00000
58374058.89576,-431958269.24999,59203363.32892,   0.00127,  -0.00246,   0.00090,475106040.02000,   0.00043,275106041.93328,   0.00015,  -0.00038,   0.00012,563968.36079,   1.00000
60443470.39024,-430694170.34366,59288155.91141,   0.00127,  -0.00246,   0.00090,475109238.07832,   0.00043,275109245.04914,   0.00015,  -0.00038,   0.00012,557653.69518,   1.00000
62524332.68686,-429418188.23924,59367545.90259,   0.00128,  -0.00246,   0.00090,475112486.41912,   0.00043,275112495.56088,   0.00016,  -0.00038,   0.00012,565612.93830,   1.00000
64604410.49780,-428134551.00595,59449067.82736,   0.00129,  -0.00246,   0.00090,475115647.92052,   0.00043,275115648.68821,   0.00016,  -0.00038,   0.00013,548396.14382,   1.00000
66695869.35243,-426838905.04507,59525166.38923,   0.00130,  -0.00246,   0.00090,475118846.17974,   0.00044,275118850.26909,   0.00016,  -0.00039,   0.00013,556540.11569,   1.00000
68801242.32076,-425526655.76056,59603048.88566,   0.00131,  -0.00246,   0.00091,475121961.78873,   0.00044,275121970.40357,   0.00016,  -0.00039,   0.00013,542105.27873,   1.00000
70902991.69089,-424209656.38943,59679942.59516,   0.00132,  -0.00246,   0.00091,475125127.93097,   0.00044,275125134.06501,   0.00016,  -0.00039,   0.00013,549398.07268,   1.00000
73010262.98843,-422883256.27981,59753109.14248,   0.00133,  -0.00246,   0.00091,475128263.58198,   0.00045,275128269.84619,   0.00016,  -0.00039,   0.00013,544290.59706,   1.00000
75122715.49879,-421546015.81830,59826659.60137,   0.00133,  -0.00246,   0.00091,475131386.93348,   0.00045,275131387.45937,   0.00016,  -0.00040,   0.00013,540880.69254,   1.00000
77254829.09442,-420188949.64447,59900213.12530,   0.00134,  -0.00246,   0.00091,475134501.07443,   0.00045,275134504.05851,   0.00017,  -0.00040,   0.00013,540440.85790,   1.00000
79378010.74608,-418831137.70840,59970383.38534,   0.00135,  -0.00246,   0.00091,475137573.45013,   0.00045,275137577.43683,   0.00017,  -0.00040,   0.00013,532692.67137,   1.00000
81511852.93030,-417459578.05712,60039166.94644,   0.00136,  -0.00246,   0.00092,475140705.38480,   0.00046,275140712.52086,   0.00017,  -0.00040,   0.00013,543129.64598,   1.00000
83645828.83230,-416080935.44693,60105938.19949,   0.00137,  -0.00246,   0.00092,475143742.09362,   0.00046,275143742.86685,   0.00017,  -0.00040,   0.00013,524748.07119,   1.00000
85799403.84487,-414682045.54779,60172658.44110,   0.00138,  -0.00246,   0.00092,475146772.44470,   0.00046,275146774.91550,   0.00017,  -0.00041,   0.00013,524798.67892,   1.00000
87934713.19940,-413287331.29398,60238751.09482,   0.00138,  -0.00246,   0.00092,475149825.15016,   0.00047,275149834.57108,   0.00017,  -0.00041,   0.00014,529330.62909,   1.00000
90099081.40103,-411867106.00944,60302011.91851,   0.00139,  -0.00246,   0.00092,475152821.01332,   0.00047,275152826.53492,   0.00017,  -0.00041,   0.00014,517390.36022,   1.00000
92259483.62235,-410441947.89167,60364232.94578,   0.00140,  -0.00246,   0.00093,475155857.51857,   0.00047,275155864.79635,   0.00018,  -0.00041,   0.00014,525161.69174,   1.00000
94425468.63615,-409006660.77069,60422652.60549,   0.00141,  -0.00246,   0.00093,475158872.53021,   0.00047,275158879.13984,   0.00018,  -0.00042,   0.00014,520801.08358,   1.00000
96582357.47402,-407569025.80684,60481805.98390,   0.00142,  -0.00246,   0.00093,475161852.93373,   0.00048,275161860.15984,   0.00018,  -0.00042,   0.00014,514821.69729,   1.00000
98758690.60212,-406110601.60500,60540827.76978,   0.00143,  -0.00246,   0.00093,475164841.33480,   0.00048,275164846.74827,   0.00018,  -0.00042,   0.00014,515564.33448,   1.00000
100940622.99003,-404641822.99873,60596022.91422,   0.00144,  -0.00246,   0.00093,475167808.22119,   0.00048,275167810.65899,   0.00018,  -0.00042,   0.00014,511437.29770,   1.00000
103127709.85798,-403161276.88534,60651494.37063,   0.00144,  -0.00246,   0.00093,475170759.00896,   0.00048,275170761.93850,   0.00018,  -0.00042,   0.00014,509045.02580,   1.00000
105319944.44403,-401668892.99269,60707231.44207,   0.00145,  -0.00246,   0.00093,475173694.17786,   0.00049,275173701.03681,   0.00018,  -0.00043,   0.00014,506730.86901,   1.00000
107517787.08448,-400165934.70851,60759116.38067,   0.00146,  -0.00246,   0.00094,475176615.87794,   0.00049,275176618.70128,   0.00019,  -0.00043,   0.00014,502835.65277,   1.00000
109734858.02877,-398641596.84292,60810777.34307,   0.00147,  -0.00246,   0.00094,475179537.39318,   0.00049,275179546.33968,   0.00019,  -0.00043,   0.00014,504345.08763,   1.00000
111943419.90747,-397115897.05157,60859036.06616,   0.00148,  -0.00246,   0.00094,475182431.68275,   0.00050,275182432.45851,   0.00019,  -0.00043,   0.00014,497005.02363,   1.00000
114157101.80658,-395578063.86163,60907524.94561,   0.00149,  -0.00246,   0.00094,475185304.48141,   0.00050,275185308.23853,   0.00019,  -0.00043,   0.00015,495028.84018,   1.00000
116366410.75030,-394035199.12579,60954924.52396,   0.00149,  -0.00246,   0.00094,475188225.86814,   0.00050,275188232.96698,   0.00019,  -0.00044,   0.00015,503259.09355,   1.00000
118590321.79288,-392472934.64855,61003849.63333,   0.00150,  -0.00246,   0.00094,475191087.33205,   0.00050,275191089.10391,   0.00019,  -0.00044,   0.00015,491274.82347,   1.00000
120833760.11314,-390890085.93130,61048357.16420,   0.00151,  -0.00246,   0.00095,475193940.90606,   0.00051,275193949.42384,   0.00019,  -0.00044,   0.00015,491803.16646,   1.00000
123068816.81492,-389305642.56398,61089449.76859,   0.00152,  -0.00246,   0.00095,475196763.91279,   0.00051,275196768.99829,   0.00020,  -0.00044,   0.00015,484623.68331,   1.00000
125298813.17130,-387714810.68538,61133538.25367,   0.00153,  -0.00246,   0.00095,475199643.44787,   0.00051,275199648.45941,   0.00020,  -0.00044,   0.00015,494738.23380,   1.00000
127543992.05371,-386105347.79238,61174986.18991,   0.00154,  -0.00246,   0.00095,475202444.98488,   0.00051,275202452.31752,   0.00020,  -0.00045,   0.00015,481574.49447,   1.00000
129808543.11013,-384474894.66961,61211953.58492,   0.00155,  -0.00245,   0.00095,475205259.04088,   0.00052,275205263.42343,   0.00020,  -0.00045,   0.00015,482653.18934,   1.00000
132054574.06408,-382848930.07410,61248319.58173,   0.00155,  -0.00245,   0.00095,475208097.71795,   0.00052,275208101.89646,   0.00020,  -0.00045,   0.00015,487186.04290,   1.00000
134315294.87640,-381202656.36040,61286111.63324,   0.00156,  -0.00245,   0.00095,475210872.44300,   0.00052,275210876.54125,   0.00020,  -0.00045,   0.00015,476069.31573,   1.00000
136580976.10614,-379543545.54069,61324030.49906,   0.00157,  -0.00245,   0.00095,475213640.45068,   0.00052,275213645.71699,   0.00020,  -0.00045,   0.00015,474970.67584,   1.00000
138856067.13191,-377870772.68415,61356129.19134,   0.00158,  -0.00245,   0.00096,475216478.43410,   0.00053,275216482.46666,   0.00021,  -0.00046,   0.00015,486404.04762,   1.00000
141132152.64963,-376187035.69787,61390163.15145,   0.00159,  -0.00245,   0.00096,475219226.12714,   0.00053,275219232.55843,   0.00021,  -0.00046,   0.00016,471391.17406,   1.00000
143413700.99803,-374491509.11670,61420185.25959,   0.00160,  -0.00245,   0.00096,475221959.53174,   0.00053,275221968.95874,   0.00021,  -0.00046,   0.00016,468894.04657,   1.00000
145690270.88221,-372790780.64533,61449039.84516,   0.00161,  -0.00245,   0.00096,475224751.53571,   0.00053,275224758.37588,   0.00021,  -0.00046,   0.00016,477835.03656,   1.00000
147981538.15961,-371068968.37251,61479225.76377,   0.00161,  -0.00244,   0.00096,475227479.45559,   0.00054,275227488.34136,   0.00021,  -0.00046,   0.00016,467506.56157,   1.00000
150278205.63249,-369335149.31673,61505366.81056,   0.00162,  -0.00244,   0.00096,475230202.70682,   0.00054,275230206.17682,   0.00021,  -0.00047,   0.00016,465296.92606,   1.00000
152569121.48110,-367594851.82006,61534423.73156,   0.00163,  -0.00244,   0.00096,475232986.47002,   0.00054,275232987.94064,   0.00021,  -0.00047,   0.00016,476104.76866,   1.00000
154875929.66429,-365835557.18163,61556548.13776,   0.00164,  -0.00244,   0.00096,475235685.07262,   0.00054,275235692.89763,   0.00022,  -0.00047,   0.00016,462822.13610,   1.00000
157186831.51189,-364061574.56871,61582806.88740,   0.00165,  -0.00244,   0.00097,475238405.19499,   0.00055,275238407.02430,   0.00022,  -0.00047,   0.00016,464266.69444,   1.00000
159503018.96544,-362275283.86049,61604970.63529,   0.00166,  -0.00244,   0.00097,475241110.43608,   0.00055,275241111.32445,   0.00022,  -0.00047,   0.00016,462460.81147,   1.00000
161823834.33351,-360475391.56358,61627135.03018,   0.00166,  -0.00243,   0.00097,475243813.89251,   0.00055,275243816.19688,   0.00022,  -0.00048,   0.00016,462433.74492,   1.00000
164149874.61174,-358663044.82844,61645181.64367,   0.00167,  -0.00243,   0.00097,475246504.62339,   0.00055,275246512.37799,   0.00022,  -0.00048,   0.00016,460823.26321,   1.00000
166480467.84973,-356836966.60996,61663206.71904,   0.00168,  -0.00243,   0.00097,475249203.31421,   0.00056,275249210.24543,   0.00022,  -0.00048,   0.00016,460995.59695,   1.00000
168815566.95726,-354997088.11499,61681195.58848,   0.00169,  -0.00243,   0.00097,475251904.34463,   0.00056,275251910.43388,   0.00022,  -0.00048,   0.00016,461278.78283,   1.00000
171142646.51083,-353154644.70457,61695689.81978,   0.00170,  -0.00243,   0.00097,475254567.02749,   0.00056,275254573.87822,   0.00023,  -0.00048,   0.00017,454892.51429,   1.00000
173487314.98093,-351288195.11244,61709470.07804,   0.00171,  -0.00243,   0.00097,475257263.31234,   0.00056,275257270.32166,   0.00023,  -0.00048,   0.00017,460420.78315,   1.00000
175823298.87255,-349417894.71198,61723850.38611,   0.00172,  -0.00242,   0.00097,475259934.79801,   0.00057,275259940.43623,   0.00023,  -0.00049,   0.00017,455822.85905,   1.00000
178176685.23983,-347523418.42086,61737473.84629,   0.00172,  -0.00242,   0.00097,475262638.21405,   0.00057,275262645.45187,   0.00023,  -0.00049,   0.00017,461676.72957,   1.00000
180532244.80859,-345617370.38363,61748754.38532,   0.00173,  -0.00242,   0.00097,475265256.30550,   0.00057,275265261.71145,   0.00023,  -0.00049,   0.00017,446434.00231,   1.00000
182881885.69989,-343705973.85232,61758752.35554,   0.00174,  -0.00242,   0.00098,475267932.51901,   0.00057,275267936.69895,   0.00023,  -0.00049,   0.00017,456361.88419,   1.00000
185249344.28059,-341771316.99028,61763829.02701,   0.00175,  -0.00241,   0.00098,475270635.28926,   0.00058,275270639.52956,   0.00023,  -0.00049,   0.00017,461020.47945,   1.00000
187618321.61475,-339823589.52836,61770634.68645,   0.00176,  -0.00241,   0.00098,475273260.39510,   0.00058,275273265.14223,   0.00024,  -0.00050,   0.00017,447761.87961,   1.00000
189981158.37397,-337870512.01560,61776135.49569,   0.00177,  -0.00241,   0.00098,475275948.71850,   0.00058,275275950.64435,   0.00024,  -0.00050,   0.00017,457892.69651,   1.00000
192358337.79149,-335893923.11790,61782627.16948,   0.00177,  -0.00241,   0.00098,475278585.13775,   0.00058,275278592.19750,   0.00024,  -0.00050,   0.00017,450311.89446,   1.00000
194727551.57028,-333914247.87412,61785563.16835,   0.00178,  -0.00240,   0.00098,475281196.39319,   0.00059,275281199.79979,   0.00024,  -0.00050,   0.00017,444450.85976,   1.00000
197113425.75588,-331909707.61360,61787580.57617,   0.00179,  -0.00240,   0.00098,475283843.05706,   0.00059,275283849.91972,   0.00024,  -0.00050,   0.00017,451618.71862,   1.00000
199503171.14646,-329890521.24513,61789389.77189,   0.00180,  -0.00240,   0.00098,475286505.68849,   0.00059,275286510.40501,   0.00024,  -0.00050,   0.00017,453314.37911,   1.00000
201884915.25895,-327868093.51192,61787620.81913,   0.00181,  -0.00240,   0.00098,475289131.25221,   0.00059,275289138.01919,   0.00025,  -0.00051,   0.00018,447643.78396,   1.00000
204282982.58877,-325820585.28190,61784872.13424,   0.00182,  -0.00239,   0.00098,475291808.25356,   0.00060,275291811.06976,   0.00025,  -0.00051,   0.00018,455322.35723,   1.00000
206672258.57124,-323768626.73722,61782636.83580,   0.00183,  -0.00239,   0.00098,475294458.31788,   0.00060,275294461.86116,   0.00025,  -0.00051,   0.00018,451467.59409,   1.00000
209065205.86625,-321701831.87771,61780147.61293,   0.00183,  -0.00239,   0.00098,475297116.09020,   0.00060,275297125.14116,   0.00025,  -0.00051,   0.00018,453529.22937,   1.00000
211462535.75551,-319621255.89916,61773286.16711,   0.00184,  -0.00238,   0.00099,475299788.71882,   0.00060,275299791.58722,   0.00025,  -0.00051,   0.00018,454019.09521,   1.00000
213873804.98146,-317516051.06872,61767233.76070,   0.00185,  -0.00238,   0.00099,475302415.97074,   0.00061,275302422.38633,   0.00025,  -0.00051,   0.00018,447893.25178,   1.00000
216278077.71845,-315405507.79551,61759787.55842,   0.00186,  -0.00238,   0.00099,475305114.90509,   0.00061,275305117.52070,   0.00025,  -0.00052,   0.00018,458800.22933,   1.00000
218684758.19152,-313281633.37196,61749801.09940,   0.00187,  -0.00237,   0.00099,475307729.07742,   0.00061,275307732.66473,   0.00026,  -0.00052,   0.00018,445137.38488,   1.00000
221106940.09842,-311132152.22572,61738682.31567,   0.00188,  -0.00237,   0.00099,475310391.15024,   0.00061,275310400.39500,   0.00026,  -0.00052,   0.00018,454039.98905,   1.00000
223520217.98742,-308977906.13355,61728024.17845,   0.00188,  -0.00237,   0.00099,475313044.38970,   0.00062,275313048.29288,   0.00026,  -0.00052,   0.00018,450630.59929,   1.00000
225937500.42342,-306809470.60443,61712903.00119,   0.00189,  -0.00236,   0.00099,475315702.91255,   0.00062,275315703.60868,   0.00026,  -0.00052,   0.00018,451861.38908,   1.00000
228357053.34807,-304624678.36104,61701516.73109,   0.00190,  -0.00236,   0.00099,475318381.62306,   0.00062,275318386.92532,   0.00026,  -0.00053,   0.00018,456588.38030,   1.00000
230780448.89481,-302425598.03081,61685636.01996,   0.00191,  -0.00236,   0.00099,475321077.04243,   0.00062,275321079.06592,   0.00026,  -0.00053,   0.00018,458064.47172,   1.00000
233207599.96682,-300212162.76618,61665246.47695,   0.00192,  -0.00235,   0.00099,475323777.21272,   0.00063,275323780.84238,   0.00027,  -0.00053,   0.00019,459678.42451,   1.00000
235624909.27360,-297992768.40376,61649395.65018,   0.00193,  -0.00235,   0.00099,475326467.66465,   0.00063,275326474.12589,   0.00027,  -0.00053,   0.00019,458208.44329,   1.00000
238068177.86110,-295738139.07470,61629186.13607,   0.00193,  -0.00235,   0.00099,475329163.69438,   0.00063,275329170.12761,   0.00027,  -0.00053,   0.00019,458653.05119,   1.00000
240502341.67529,-293478431.02525,61609375.56298,   0.00194,  -0.00234,   0.00099,475331843.23468,   0.00063,275331849.16648,   0.00027,  -0.00053,   0.00019,455753.18810,   1.00000
242928565.15861,-291213533.03387,61588089.07263,   0.00195,  -0.00234,   0.00099,475334591.07626,   0.00064,275334596.77125,   0.00027,  -0.00054,   0.00019,467407.13341,   1.00000
245368727.09864,-288923586.40493,61563230.83073,   0.00196,  -0.00233,   0.00099,475337309.51294,   0.00064,275337311.27770,   0.00027,  -0.00054,   0.00019,461774.40299,   1.00000
247799740.88717,-286628485.86182,61538757.58953,   0.00197,  -0.00233,   0.00099,475340005.75969,   0.00064,275340009.51160,   0.00027,  -0.00054,   0.00019,459001.31381,   1.00000
250244611.32456,-284307131.07380,61512896.19082,   0.00198,  -0.00233,   0.00099,475342767.88662,   0.00064,275342772.48048,   0.00028,  -0.00054,   0.00019,470013.70854,   1.00000
252690793.90272,-281969895.53416,61488381.66605,   0.00198,  -0.00232,   0.00099,475345473.63960,   0.00065,275345475.13867,   0.00028,  -0.00054,   0.00019,459761.01502,   1.00000
255129438.60034,-279628509.71879,61458236.35972,   0.00199,  -0.00232,   0.00099,475348233.44431,   0.00065,275348238.82107,   0.00028,  -0.00054,   0.00019,470147.86090,   1.00000
257580697.87164,-277260518.96225,61428510.83911,   0.00200,  -0.00231,   0.00100,475350980.94938,   0.00065,275350984.68233,   0.00028,  -0.00055,   0.00019,467130.74640,   1.00000
260023283.99362,-274887458.62994,61397246.26606,   0.00201,  -0.00231,   0.00100,475353792.87394,   0.00065,275353802.39074,   0.00028,  -0.00055,   0.00019,479365.56405,   1.00000
262467080.67507,-272498181.95403,61367274.98913,   0.00202,  -0.00230,   0.00100,475356557.99817,   0.00066,275356562.20131,   0.00029,  -0.00055,   0.00019,469541.28244,   1.00000
264924673.87456,-270083321.70183,61331665.02523,   0.00202,  -0.00230,   0.00100,475359378.59071,   0.00066,275359383.60663,   0.00029,  -0.00055,   0.00020,480046.77987,   1.00000
267371815.76102,-267662082.65575,61300471.45235,   0.00203,  -0.00230,   0.00100,475362197.49349,   0.00066,275362202.21880,   0.00029,  -0.00055,   0.00020,479600.91265,   1.00000
269821403.92883,-265225765.19612,61264532.76121,   0.00204,  -0.00229,   0.00100,475365032.14757,   0.00066,275365041.45204,   0.00029,  -0.00055,   0.00020,483140.08072,   1.00000
272262402.45257,-262784906.30025,61224785.08022,   0.00205,  -0.00229,   0.00100,475367852.94171,   0.00067,275367858.48850,   0.00029,  -0.00056,   0.00020,479406.48299,   1.00000
274725238.59683,-260305291.15930,61188454.00947,   0.00206,  -0.00228,   0.00100,475370713.50849,   0.00067,275370718.71218,   0.00029,  -0.00056,   0.00020,486799.80078,   1.00000
277179317.36946,-257820991.98647,61148275.13592,   0.00206,  -0.00228,   0.00100,475373557.43132,   0.00067,275373558.43173,   0.00030,  -0.00056,   0.00020,483362.58299,   1.00000
279623880.88481,-255331876.91224,61106496.34416,   0.00207,  -0.00227,   0.00100,475376465.70985,   0.00067,275376473.22196,   0.00030,  -0.00056,   0.00020,496188.67877,   1.00000
282079969.36072,-252815256.49778,61064905.21440,   0.00208,  -0.00227,   0.00100,475379375.64216,   0.00068,275379380.89415,   0.00030,  -0.00056,   0.00020,495037.87137,   1.00000
284526228.21003,-250292998.74367,61023558.08842,   0.00209,  -0.00226,   0.00100,475382274.13814,   0.00068,275382278.78820,   0.00030,  -0.00057,   0.00020,493436.06368,   1.00000
286974214.52698,-247755426.61741,60977358.40239,   0.00210,  -0.00226,   0.00100,475385196.32323,   0.00068,275385202.47918,   0.00030,  -0.00057,   0.00020,497896.18386,   1.00000
289433347.42535,-245190051.51947,60931268.47940,   0.00211,  -0.00225,   0.00100,475388114.87895,   0.00068,275388122.68307,   0.00030,  -0.00057,   0.00020,497374.09924,   1.00000
291882352.43835,-242620042.69529,60883532.43429,   0.00211,  -0.00225,   0.00100,475391118.08913,   0.00069,275391120.34120,   0.00031,  -0.00057,   0.00020,510652.55240,   1.00000
294342190.44016,-240022092.16829,60835853.32350,   0.00212,  -0.00224,   0.00100,475394111.56807,   0.00069,275394116.94712,   0.00031,  -0.00057,   0.00021,510555.64523,   1.00000
296791864.46788,-237418364.09094,60788361.81848,   0.00213,  -0.00224,   0.00100,475397101.54472,   0.00069,275397106.41012,   0.00031,  -0.00057,   0.00021,509428.65442,   1.00000
299232101.33866,-234811012.36123,60735094.23681,   0.00214,  -0.00223,   0.00100,475400157.40407,   0.00070,275400164.47877,   0.00031,  -0.00058,   0.00021,521216.04322,   1.00000
301693317.49975,-232163644.74097,60682648.14076,   0.00215,  -0.00223,   0.00100,475403183.94420,   0.00070,275403186.27121,   0.00031,  -0.00058,   0.00021,515140.14360,   1.00000
304133661.84494,-229522347.63508,60629536.34197,   0.00215,  -0.00222,   0.00100,475406233.05102,   0.00070,275406240.45261,   0.00032,  -0.00058,   0.00021,520764.55723,   1.00000
306573713.28091,-226864767.06640,60575556.87335,   0.00216,  -0.00222,   0.00100,475409331.56033,   0.00070,275409336.37850,   0.00032,  -0.00058,   0.00021,527999.98429,   1.00000
309023777.03298,-224178828.73751,60521489.92634,   0.00217,  -0.00221,   0.00100,475412434.25247,   0.00071,275412437.94251,   0.00032,  -0.00058,   0.00021,529083.34641,   1.00000
311463741.68217,-221489466.49506,60461596.61646,   0.00218,  -0.00220,   0.00100,475415605.68086,   0.00071,275415610.71810,   0.00032,  -0.00058,   0.00021,541360.72800,   1.00000
313903585.11778,-218782089.70122,60402623.36999,   0.00218,  -0.00220,   0.00100,475418738.13569,   0.00071,275418742.64227,   0.00032,  -0.00059,   0.00021,534525.02167,   1.00000
316342521.19960,-216058382.17598,60342708.19511,   0.00219,  -0.00219,   0.00100,475421913.53390,   0.00072,275421919.93427,   0.00033,  -0.00059,   0.00021,542407.90823,   1.00000
318780382.57997,-213318364.18863,60281834.18855,   0.00220,  -0.00219,   0.00100,475425141.49415,   0.00072,275425143.41154,   0.00033,  -0.00059,   0.00021,550446.98786,   1.00000
321216982.83854,-210562046.82604,60219981.22258,   0.00221,  -0.00218,   0.00100,475428406.20284,   0.00072,275428414.04211,   0.00033,  -0.00059,   0.00022,558651.67468,   1.00000
323654130.95275,-207788170.28967,60154845.96053,   0.00222,  -0.00217,   0.00100,475431631.62549,   0.00072,275431638.04602,   0.00033,  -0.00059,   0.00022,550852.10883,   1.00000
326078261.26465,-205009702.82223,60092071.71282,   0.00222,  -0.00217,   0.00100,475434947.60852,   0.00073,275434955.02351,   0.00034,  -0.00060,   0.00022,566909.20514,   1.00000
328512161.36969,-202203200.07923,60024891.80524,   0.00223,  -0.00216,   0.00100,475438268.85586,   0.00073,275438277.51725,   0.00034,  -0.00060,   0.00022,568032.25712,   1.00000
330934866.95169,-199390758.57510,59957759.23930,   0.00224,  -0.00216,   0.00100,475441598.52597,   0.00073,275441599.62218,   0.00034,  -0.00060,   0.00022,568160.29164,   1.00000
333356673.88973,-196562773.91309,59885450.87621,   0.00225,  -0.00215,   0.00100,475444960.34492,   0.00074,275444963.21792,   0.00034,  -0.00060,   0.00022,575452.25721,   1.00000
335775189.30465,-193717857.15516,59816188.26236,   0.00226,  -0.00214,   0.00100,475448383.34570,   0.00074,275448388.26668,   0.00034,  -0.00060,   0.00022,586170.53318,   1.00000
338192555.87696,-190854270.33569,59747641.90728,   0.00226,  -0.00214,   0.00100,475451777.76643,   0.00074,275451781.69325,   0.00035,  -0.00061,   0.00022,580970.65381,   1.00000
340598262.56939,-187987972.34410,59673173.34908,   0.00227,  -0.00213,   0.00100,475455249.02805,   0.00075,275455251.40790,   0.00035,  -0.00061,   0.00022,594257.64553,   1.00000
343011551.62034,-185092676.58663,59598266.95811,   0.00228,  -0.00212,   0.00100,475458736.31028,   0.00075,275458743.49357,   0.00035,  -0.00061,   0.00022,598318.27104,   1.00000
345402895.34159,-182204381.84696,59522675.51353,   0.00229,  -0.00212,   0.00100,475462264.12758,   0.00075,275462269.48731,   0.00035,  -0.00061,   0.00022,604371.96306,   1.00000
347801500.69772,-179287062.61183,59446604.05464,   0.00229,  -0.00211,   0.00100,475465814.06084,   0.00076,275465819.79868,   0.00036,  -0.00061,   0.00023,608791.75253,   1.00000
350196900.26748,-176353688.78692,59369357.99180,   0.00230,  -0.00210,   0.00100,475469420.33605,   0.00076,275469426.87761,   0.00036,  -0.00062,   0.00023,618789.31641,   1.00000
352600168.56514,-173391862.78377,59287440.27502,   0.00231,  -0.00210,   0.00100,475473047.31211,   0.00076,275473052.17968,   0.00036,  -0.00062,   0.00023,622193.28358,   1.00000
354981111.44859,-170437268.67585,59204820.52842,   0.00232,  -0.00209,   0.00100,475476703.34853,   0.00077,275476712.42569,   0.00036,  -0.00062,   0.00023,628471.50854,   1.00000
357367275.71689,-167452948.08489,59125732.77552,   0.00232,  -0.00208,   0.00100,475480409.97734,   0.00077,275480411.71238,   0.00037,  -0.00062,   0.00023,635477.61915,   1.00000
359732183.32218,-164476637.83715,59041820.73726,   0.00233,  -0.00208,   0.00100,475484130.05538,   0.00077,275484136.35244,   0.00037,  -0.00062,   0.00023,640134.33612,   1.00000
362103105.90340,-161471225.35909,58957275.68487,   0.00234,  -0.00207,   0.00100,475487885.44920,   0.00078,275487892.68347,   0.00037,  -0.00063,   0.00023,645898.06908,   1.00000
364469715.02089,-158450020.89253,58871457.94865,   0.00235,  -0.00206,   0.00100,475491705.42819,   0.00078,275491710.70210,   0.00037,  -0.00063,   0.00023,656839.76172,   1.00000
366824850.71883,-155423640.19124,58781407.25324,   0.00235,  -0.00206,   0.00100,475495524.86068,   0.00078,275495526.58142,   0.00038,  -0.00063,   0.00023,656817.42099,   1.00000
369174167.28143,-152381003.67587,58694186.22829,   0.00236,  -0.00205,   0.00100,475499409.78065,   0.00079,275499414.72220,   0.00038,  -0.00063,   0.00023,669608.31905,   1.00000
371529712.24812,-149309840.70344,58602092.96881,   0.00237,  -0.00204,   0.00100,475503326.66280,   0.00079,275503330.70197,   0.00038,  -0.00063,   0.00024,674775.07403,   1.00000
373861148.42200,-146245963.09791,58513416.84802,   0.00238,  -0.00203,   0.00100,475507290.78681,   0.00079,275507291.41251,   0.00039,  -0.00064,   0.00024,682867.10369,   1.00000
376198414.88821,-143153577.73963,58419822.08509,   0.00238,  -0.00203,   0.00100,475511272.26665,   0.00080,275511282.13906,   0.00039,  -0.00064,   0.00024,688430.06915,   1.00000
378522463.82210,-140055562.94460,58326064.08761,   0.00239,  -0.00202,   0.00100,475515280.87258,   0.00080,275515282.71761,   0.00039,  -0.00064,   0.00024,690544.30086,   1.00000
380848523.76893,-136932432.80445,58229717.56126,   0.00240,  -0.00201,   0.00100,475519404.56955,   0.00081,275519407.29401,   0.00039,  -0.00064,   0.00024,712378.80350,   1.00000
383153489.02735,-133813499.74778,58134396.21482,   0.00241,  -0.00200,   0.00100,475523482.32836,   0.00081,275523485.80291,   0.00040,  -0.00064,   0.00024,704856.07187,   1.00000
385461186.29852,-130670203.13077,58032327.54512,   0.00241,  -0.00200,   0.00100,475527678.22964,   0.00081,275527680.76668,   0.00040,  -0.00065,   0.00024,725445.23425,   1.00000
387763571.48280,-127507134.28669,57934686.28589,   0.00242,  -0.00199,   0.00100,475531872.82114,   0.00082,275531873.16919,   0.00040,  -0.00065,   0.00024,725475.25726,   1.00000
390043723.19623,-124352998.42885,57832201.94287,   0.00243,  -0.00198,   0.00100,475536088.49961,   0.00082,275536092.31546,   0.00041,  -0.00065,   0.00024,730583.84384,   1.00000
392332871.09421,-121159975.02502,57731655.51956,   0.00244,  -0.00197,   0.00100,475540423.41261,   0.00082,275540426.32401,   0.00041,  -0.00065,   0.00025,750984.87423,   1.00000
394609062.31266,-117962126.11770,57626730.73496,   0.00244,  -0.00196,   0.00100,475544760.79418,   0.00083,275544765.20043,   0.00041,  -0.00065,   0.00025,752351.16908,   1.00000
396871032.56133,-114759010.68839,57521559.99796,   0.00245,  -0.00196,   0.00100,475549118.05395,   0.00083,275549118.07868,   0.00041,  -0.00066,   0.00025,755319.53508,   1.00000
399125716.14739,-111541237.07342,57414892.42135,   0.00246,  -0.00195,   0.00100,475553541.25503,   0.00084,275553544.07214,   0.00042,  -0.00066,   0.00025,768561.65094,   1.00000
401372868.74979,-108308934.71748,57306713.38577,   0.00246,  -0.00194,   0.00100,475558041.82465,   0.00084,275558043.95449,   0.00042,  -0.00066,   0.00025,781973.68083,   1.00000
403605419.33454,-105071568.40253,57198261.77886,   0.00247,  -0.00193,   0.00100,475562558.32391,   0.00085,275562559.14068,   0.00042,  -0.00066,   0.00025,785228.49939,   1.00000
405839341.91146,-101805704.97340,57088695.44258,   0.00248,  -0.00192,   0.00100,475567125.39820,   0.00085,275567129.44663,   0.00043,  -0.00067,   0.00025,795427.81472,   1.00000
408049089.58423,-98549096.61918,56978411.80466,   0.00249,  -0.00192,   0.00100,475571731.01976,   0.00085,275571736.09806,   0.00043,  -0.00067,   0.00025,802384.08877,   1.00000
410261003.95285,-95264546.48774,56862839.96157,   0.00249,  -0.00191,   0.00100,475576388.57557,   0.00086,275576390.94721,   0.00043,  -0.00067,   0.00026,811439.10362,   1.00000
412462965.70380,-91965622.85855,56749814.29485,   0.00250,  -0.00190,   0.00100,475581130.49139,   0.00086,275581132.60007,   0.00044,  -0.00067,   0.00026,827252.93698,   1.00000
414650858.77056,-88662352.59302,56632322.78453,   0.00251,  -0.00189,   0.00100,475585878.72404,   0.00087,275585883.51767,   0.00044,  -0.00067,   0.00026,829565.42712,   1.00000
416829679.03423,-85345355.80065,56513223.55616,   0.00251,  -0.00188,   0.00100,475590708.12631,   0.00087,275590713.43009,   0.00045,  -0.00068,   0.00026,844084.15786,   1.00000
418991641.54094,-82023416.23479,56397918.45053,   0.00252,  -0.00187,   0.00100,475595561.29306,   0.00088,275595570.99552,   0.00045,  -0.00068,   0.00026,849653.07855,   1.00000
421145423.21577,-78688380.94791,56276843.34323,   0.00253,  -0.00186,   0.00100,475600493.66911,   0.00088,275600499.80318,   0.00045,  -0.00068,   0.00026,862888.46921,   1.00000
423298339.99755,-75325565.85130,56154466.02181,   0.00253,  -0.00186,   0.00100,475605492.67467,   0.00088,275605493.20616,   0.00046,  -0.00068,   0.00026,875002.95723,   1.00000
425426295.23558,-71972942.95949,56031372.05819,   0.00254,  -0.00185,   0.00100,475610516.74742,   0.00089,275610523.41788,   0.00046,  -0.00069,   0.00027,882264.75028,   1.00000
427546976.31441,-68601530.74723,55908233.21361,   0.00255,  -0.00184,   0.00100,475615554.45673,   0.00089,275615558.38587,   0.00046,  -0.00069,   0.00027,883937.29475,   1.00000
429648514.22490,-65231789.99595,55783091.23816,   0.00256,  -0.00183,   0.00100,475620682.53807,   0.00090,275620691.40882,   0.00047,  -0.00069,   0.00027,902013.48143,   1.00000
431749450.79727,-61835028.88267,55652429.39296,   0.00256,  -0.00182,   0.00100,475625879.77612,   0.00090,275625884.31490,   0.00047,  -0.00069,   0.00027,913442.41132,   1.00000
433832450.27594,-58434018.16281,55525502.00471,   0.00257,  -0.00181,   0.00100,475631103.68094,   0.00091,275631108.14461,   0.00048,  -0.00070,   0.00027,919801.45535,   1.00000
435904330.56108,-55020596.13780,55396851.10274,   0.00258,  -0.00180,   0.00100,475636416.67147,   0.00091,275636416.86492,   0.00048,  -0.00070,   0.00027,935706.54511,   1.00000
437966115.53215,-51595229.05272,55262322.96663,   0.00258,  -0.00179,   0.00100,475641799.13307,   0.00092,275641802.69451,   0.00048,  -0.00070,   0.00027,950284.91420,   1.00000
440009508.55731,-48165988.63569,55131509.83369,   0.00259,  -0.00178,   0.00100,475647215.06648,   0.00092,275647220.50025,   0.00049,  -0.00070,   0.00028,956935.35916,   1.00000
442045428.77376,-44718710.56404,54996370.56967,   0.00260,  -0.00177,   0.00100,475652633.84879,   0.00093,275652641.27949,   0.00049,  -0.00071,   0.00028,958493.01617,   1.00000
444059625.89406,-41274220.63542,54863358.91042,   0.00260,  -0.00177,   0.00100,475658167.24353,   0.00093,275658169.89534,   0.00050,  -0.00071,   0.00028,978634.07533,   1.00000
446071102.57114,-37803624.00860,54724661.82873,   0.00261,  -0.00176,   0.00099,475663760.04140,   0.00094,275663766.59838,   0.00050,  -0.00071,   0.00028,991793.53824,   1.00000
448056676.93833,-34344697.32065,54585275.13254,   0.00262,  -0.00175,   0.00099,475669393.29632,   0.00094,275669399.47845,   0.00051,  -0.00071,   0.00028,999338.06819,   1.00000
450031343.41582,-30867621.34916,54449790.68402,   0.00262,  -0.00174,   0.00099,475675053.29250,   0.00095,275675055.36678,   0.00051,  -0.00072,   0.00028,1004580.87229,   1.00000
451986324.38394,-27394618.47604,54308144.47973,   0.00263,  -0.00173,   0.00099,475680795.42371,   0.00095,275680802.29706,   0.00051,  -0.00072,   0.00028,1021944.04126,   1.00000
453936137.86805,-23895924.82658,54164890.96316,   0.00264,  -0.00172,   0.00099,475686622.21214,   0.00096,275686629.45761,   0.00052,  -0.00072,   0.00029,1037452.82945,   1.00000
455867661.47624,-20394564.19086,54021146.61725,   0.00264,  -0.00171,   0.00099,475692482.76423,   0.00097,275692483.34575,   0.00052,  -0.00072,   0.00029,1043486.50809,   1.00000
457785456.42512,-16882811.55614,53875566.96049,   0.00265,  -0.00170,   0.00099,475698422.51190,   0.00097,275698428.52470,   0.00053,  -0.00072,   0.00029,1061066.58710,   1.00000
459684686.12414,-13368659.02496,53729486.12266,   0.00266,  -0.00169,   0.00099,475704396.20208,   0.00098,275704400.99998,   0.00053,  -0.00073,   0.00029,1067279.67920,   1.00000
461569760.30886,-9844529.91608,53581557.21225,   0.00266,  -0.00168,   0.00099,475710463.97409,   0.00098,275710465.52624,   0.00054,  -0.00073,   0.00029,1085118.47331,   1.00000
463435976.44438,-6318276.93334,53433115.32907,   0.00267,  -0.00167,   0.00099,475716549.18420,   0.00099,275716557.99403,   0.00054,  -0.00073,   0.00029,1091525.78246,   1.00000
465287602.46909,-2782475.85302,53282812.56659,   0.00267,  -0.00166,   0.00099,475722735.47404,   0.00099,275722743.28290,   0.00055,  -0.00073,   0.00030,1109619.55829,   1.00000
467133145.64380,777516.68206,53126611.13906,   0.00268,  -0.00165,   0.00099,475729005.74922,   0.00100,275729008.02585,   0.00055,  -0.00074,   0.00030,1125397.76364,   1.00000
468946288.82107,4316844.77364,52975260.95085,   0.00269,  -0.00164,   0.00099,475735245.09991,   0.00100,275735250.88764,   0.00056,  -0.00074,   0.00030,1122987.66271,   1.00000
470748325.83769,7872396.80358,52820680.55209,   0.00269,  -0.00163,   0.00099,475741648.56229,   0.00101,275741652.80722,   0.00056,  -0.00074,   0.00030,1153195.54416,   1.00000
472532103.50542,11429193.42420,52661413.44060,   0.00270,  -0.00162,   0.00099,475748071.87436,   0.00102,275748076.06728,   0.00057,  -0.00074,   0.00030,1158669.97010,   1.00000
474301972.04893,15002376.98231,52505850.21395,   0.00271,  -0.00161,   0.00099,475754524.87240,   0.00102,275754532.80446,   0.00057,  -0.00075,   0.00030,1166370.00194,   1.00000
476048693.88731,18568636.79794,52348301.42450,   0.00271,  -0.00160,   0.00099,475761087.01270,   0.00103,275761088.90280,   0.00058,  -0.00075,   0.00031,1186039.50600,   1.00000
477783782.90541,22150825.15929,52186114.19496,   0.00272,  -0.00159,   0.00099,475767662.59160,   0.00103,275767664.03262,   0.00058,  -0.00075,   0.00031,1191239.65791,   1.00000
479494064.07293,25725648.37717,52026113.95916,   0.00273,  -0.00158,   0.00099,475774337.65956,   0.00104,275774346.19347,   0.00059,  -0.00075,   0.00031,1212429.10670,   1.00000
481192284.50752,29316097.81287,51861449.04269,   0.00273,  -0.00157,   0.00099,475781039.84033,   0.00105,275781048.77902,   0.00059,  -0.00076,   0.00031,1217984.70111,   1.00000
482865432.15410,32898648.58426,51698985.91241,   0.00274,  -0.00155,   0.00099,475787853.89627,   0.00105,275787857.90489,   0.00060,  -0.00076,   0.00031,1239250.25484,   1.00000
484526061.36335,36496508.50355,51531829.51117,   0.00274,  -0.00154,   0.00099,475794680.62684,   0.00106,275794688.97668,   0.00060,  -0.00076,   0.00032,1245187.18439,   1.00000
486167920.26291,40101034.81711,51366900.42294,   0.00275,  -0.00153,   0.00099,475801616.60710,   0.00107,275801625.51786,   0.00061,  -0.00076,   0.00032,1266417.72528,   1.00000
487786972.62681,43696780.77451,51195868.54753,   0.00276,  -0.00152,   0.00099,475808648.27781,   0.00107,275808652.64463,   0.00062,  -0.00077,   0.00032,1285025.81923,   1.00000
489386817.14245,47300862.33915,51029795.53950,   0.00276,  -0.00151,   0.00099,475815647.07459,   0.00108,275815652.99778,   0.00062,  -0.00077,   0.00032,1282214.20040,   1.00000
490966873.10952,50902073.42771,50856270.02786,   0.00277,  -0.00150,   0.00099,475822803.51831,   0.00109,275822809.60498,   0.00063,  -0.00077,   0.00032,1313002.94967,   1.00000
492528793.58374,54511421.93386,50683523.94590,   0.00277,  -0.00149,   0.00099,475829929.22620,   0.00109,275829932.92079,   0.00063,  -0.00077,   0.00032,1309092.47125,   1.00000
494073935.32504,58132235.95454,50511633.78821,   0.00278,  -0.00148,   0.00099,475837223.51368,   0.00110,275837229.00711,   0.00064,  -0.00078,   0.00033,1343125.03197,   1.00000
495589698.70134,61730774.02967,50336403.00330,   0.00279,  -0.00147,   0.00099,475844473.14344,   0.00111,275844481.93177,   0.00065,  -0.00078,   0.00033,1337473.22215,   1.00000
497092783.88350,65349230.18577,50159192.88516,   0.00279,  -0.00146,   0.00099,475851826.52787,   0.00111,275851835.89088,   0.00065,  -0.00078,   0.00033,1358477.29050,   1.00000
498569523.71276,68956987.87755,49984269.36377,   0.00280,  -0.00145,   0.00099,475859291.28370,   0.00112,275859293.60793,   0.00066,  -0.00078,   0.00033,1380084.15147,   1.00000
500031517.82894,72578230.53161,49804534.09913,   0.00280,  -0.00143,   0.00099,475866778.04386,   0.00113,275866779.94814,   0.00066,  -0.00079,   0.00033,1387873.38673,   1.00000
501473992.71095,76203329.63099,49622855.69104,   0.00281,  -0.00142,   0.00099,475874361.84900,   0.00113,275874366.14405,   0.00067,  -0.00079,   0.00034,1408947.93817,   1.00000
502888497.64671,79811270.68369,49440692.45076,   0.00281,  -0.00141,   0.00098,475881977.16886,   0.00114,275881981.29137,   0.00068,  -0.00079,   0.00034,1416927.45880,   1.00000
504287436.41887,83437459.40366,49260669.65136,   0.00282,  -0.00140,   0.00098,475889699.80572,   0.00115,275889707.91065,   0.00068,  -0.00079,   0.00034,1440349.93306,   1.00000
505659703.60563,87046199.34190,49076003.72131,   0.00283,  -0.00139,   0.00098,475897450.85989,   0.00116,275897455.49946,   0.00069,  -0.00080,   0.00034,1446989.36073,   1.00000
507009472.32164,90652310.68471,48890779.25143,   0.00283,  -0.00138,   0.00098,475905233.35932,   0.00116,275905235.92727,   0.00070,  -0.00080,   0.00034,1455899.58653,   1.00000
508344227.02976,94275868.17814,48703505.74819,   0.00284,  -0.00137,   0.00098,475913115.55277,   0.00117,275913122.19178,   0.00070,  -0.00080,   0.00035,1478565.61816,   1.00000
509649536.59522,97881192.06841,48519968.42796,   0.00284,  -0.00135,   0.00098,475921039.39850,   0.00118,275921042.53910,   0.00071,  -0.00080,   0.00035,1487860.85207,   1.00000
510935581.02699,101488497.06904,48330336.05729,   0.00285,  -0.00134,   0.00098,475929052.41162,   0.00118,275929055.44200,   0.00072,  -0.00080,   0.00035,1508233.35212,   1.00000
512200758.70408,105097271.94600,48138795.98563,   0.00285,  -0.00133,   0.00098,475937162.23457,   0.00119,275937168.07163,   0.00072,  -0.00081,   0.00035,1530070.72069,   1.00000
513445583.63866,108712299.08786,47947895.98862,   0.00286,  -0.00132,   0.00098,475945252.80367,   0.00120,275945255.41470,   0.00073,  -0.00081,   0.00036,1528411.94442,   1.00000
514666312.42057,112318089.43396,47753898.75257,   0.00286,  -0.00131,   0.00098,475953499.81463,   0.00121,275953501.25979,   0.00074,  -0.00081,   0.00036,1561574.23520,   1.00000
515861706.10465,115914967.83713,47560710.91980,   0.00287,  -0.00130,   0.00098,475961710.84651,   0.00121,275961713.83841,   0.00074,  -0.00081,   0.00036,1558505.39397,   1.00000
517034275.34359,119511951.84867,47369804.65818,   0.00288,  -0.00128,   0.00098,475970028.75794,   0.00122,275970032.92143,   0.00075,  -0.00082,   0.00036,1582028.26869,   1.00000
518182028.69756,123094244.27880,47173026.78057,   0.00288,  -0.00127,   0.00098,475978430.16803,   0.00123,275978434.99463,   0.00076,  -0.00082,   0.00036,1601199.57701,   1.00000
519310699.27554,126686533.97925,46975523.84348,   0.00289,  -0.00126,   0.00098,475986877.17759,   0.00124,275986879.81739,   0.00076,  -0.00082,   0.00037,1612812.22393,   1.00000
520417340.92452,130278076.00899,46776147.12069,   0.00289,  -0.00125,   0.00098,475995419.87771,   0.00125,275995424.28031,   0.00077,  -0.00082,   0.00037,1635393.38959,   1.00000
521495918.63817,133849575.40343,46576476.26819,   0.00290,  -0.00124,   0.00098,476003990.66845,   0.00125,276003990.76605,   0.00078,  -0.00082,   0.00037,1643208.38541,   1.00000
522554837.24671,137430332.37907,46376064.66196,   0.00290,  -0.00122,   0.00098,476012591.57636,   0.00126,276012601.32363,   0.00079,  -0.00083,   0.00037,1655323.35137,   1.00000
523587331.44648,140994755.61362,46174045.71732,   0.00291,  -0.00121,   0.00098,476021296.17888,   0.00127,276021299.15290,   0.00079,  -0.00083,   0.00038,1675852.50139,   1.00000
524594552.98349,144553034.51395,45975713.40986,   0.00291,  -0.00120,   0.00098,476030029.46718,   0.00128,276030035.90681,   0.00080,  -0.00083,   0.00038,1687149.94627,   1.00000
525584379.11264,148123869.40210,45771104.35900,   0.00292,  -0.00119,   0.00098,476038874.78349,   0.00129,276038877.37149,   0.00081,  -0.00083,   0.00038,1711293.62543,   1.00000
526546184.22621,151673692.50978,45566266.97175,   0.00292,  -0.00117,   0.00098,476047731.99904,   0.00129,276047738.61724,   0.00082,  -0.00083,   0.00038,1719080.67029,   1.00000
527481582.27751,155206074.40499,45359905.06173,   0.00293,  -0.00116,   0.00098,476056679.84978,   0.00130,276056684.29268,   0.00083,  -0.00084,   0.00038,1739498.80982,   1.00000
528396400.69829,158746166.36133,45152807.28404,   0.00293,  -0.00115,   0.00098,476065674.76792,   0.00131,276065675.42399,   0.00083,  -0.00084,   0.00039,1752461.87644,   1.00000
529288127.58862,162282620.12881,44943925.75197,   0.00294,  -0.00114,   0.00098,476074758.87720,   0.00132,276074764.45735,   0.00084,  -0.00084,   0.00039,1775757.09037,   1.00000
530152121.85983,165797363.98616,44734893.51276,   0.00294,  -0.00112,   0.00098,476083864.45458,   0.00133,276083870.52424,   0.00085,  -0.00084,   0.00039,1783345.15947,   1.00000
530995033.87457,169319018.13647,44525120.39023,   0.00295,  -0.00111,   0.00098,476093013.14813,   0.00134,276093023.06562,   0.00086,  -0.00084,   0.00039,1796787.87699,   1.00000
531810142.96364,172821467.19926,44318098.13383,   0.00295,  -0.00110,   0.00098,476102257.89434,   0.00135,276102263.37723,   0.00086,  -0.00084,   0.00040,1818439.17751,   1.00000
532602158.02522,176316333.21117,44106456.87664,   0.00296,  -0.00109,   0.00098,476111528.04929,   0.00135,276111528.48061,   0.00087,  -0.00085,   0.00040,1827809.71017,   1.00000
533370742.96773,179806013.02154,43893101.22369,   0.00296,  -0.00107,   0.00098,476120885.93380,   0.00136,276120889.82472,   0.00088,  -0.00085,   0.00040,1851378.77509,   1.00000
534111995.22506,183273169.01103,43679686.58182,   0.00297,  -0.00106,   0.00098,476130260.54915,   0.00137,276130265.02486,   0.00089,  -0.00085,   0.00040,1858746.13150,   1.00000
534832523.52822,186748660.81913,43464252.88468,   0.00297,  -0.00105,   0.00098,476139745.08159,   0.00138,276139752.53830,   0.00090,  -0.00085,   0.00041,1885763.46465,   1.00000
535525812.03418,190201239.70789,43248793.96890,   0.00298,  -0.00103,   0.00097,476149249.85356,   0.00139,276149252.87905,   0.00091,  -0.00085,   0.00041,1893112.00553,   1.00000
536195495.61216,193647381.49529,43031688.62753,   0.00298,  -0.00102,   0.00097,476158842.04569,   0.00140,276158847.81948,   0.00091,  -0.00085,   0.00041,1916854.98835,   1.00000
536840634.81072,197084282.92691,42814239.15268,   0.00299,  -0.00101,   0.00097,476168465.38359,   0.00141,276168472.29564,   0.00092,  -0.00085,   0.00041,1927716.37966,   1.00000
537459939.64884,200511384.95315,42600645.58077,   0.00299,  -0.00100,   0.00097,476178128.83315,   0.00142,276178132.03200,   0.00093,  -0.00086,   0.00042,1939802.28703,   1.00000
538054527.65876,203917637.54623,42381614.22682,   0.00300,  -0.00098,   0.00097,476187854.90468,   0.00142,276187860.68346,   0.00094,  -0.00086,   0.00042,1958739.00172,   1.00000
538626783.22303,207327872.51011,42161893.79167,   0.00300,  -0.00097,   0.00097,476197636.64519,   0.00143,276197637.28139,   0.00095,  -0.00086,   0.00042,1973591.98362,   1.00000
539173091.36138,210716307.64131,41940991.12521,   0.00301,  -0.00096,   0.00097,476207477.86301,   0.00144,276207487.35077,   0.00096,  -0.00086,   0.00042,1993683.41577,   1.00000
539694918.09970,214094490.13775,41719810.06187,   0.00301,  -0.00094,   0.00097,476217360.73382,   0.00145,276217365.55327,   0.00097,  -0.00086,   0.00043,2004716.66347,   1.00000
540191098.47885,217450461.93651,41497506.86154,   0.00301,  -0.00093,   0.00097,476227310.85181,   0.00146,276227315.21507,   0.00098,  -0.00086,   0.00043,2024625.31616,   1.00000
540664636.62199,220809358.31439,41274548.10588,   0.00302,  -0.00092,   0.00097,476237310.06826,   0.00147,276237313.01894,   0.00098,  -0.00086,   0.00043,2039924.76272,   1.00000
541112037.15188,224143883.26547,41051760.14215,   0.00302,  -0.00090,   0.00097,476247314.84741,   0.00148,276247317.37091,   0.00099,  -0.00086,   0.00043,2046795.59006,   1.00000
541535679.74319,227468965.41374,40827503.13394,   0.00303,  -0.00089,   0.00097,476257406.12820,   0.00149,276257412.23099,   0.00100,  -0.00087,   0.00044,2070943.55309,   1.00000
541934289.52443,230783789.45227,40606002.05695,   0.00303,  -0.00088,   0.00097,476267597.96870,   0.00150,276267602.59303,   0.00101,  -0.00087,   0.00044,2096268.42315,   1.00000
542308457.16038,234074263.40494,40380524.79565,   0.00304,  -0.00086,   0.00097,476277787.84703,   0.00151,276277791.88477,   0.00102,  -0.00087,   0.00044,2101819.47169,   1.00000
542658455.31954,237353186.84059,40154875.94616,   0.00304,  -0.00085,   0.00097,476288004.13599,   0.00152,276288007.06975,   0.00103,  -0.00087,   0.00044,2112991.38722,   1.00000
542984797.46625,240621502.17570,39927843.99430,   0.00305,  -0.00084,   0.00097,476298307.93522,   0.00153,276298310.82739,   0.00104,  -0.00087,   0.00045,2137241.35527,   1.00000
543286978.25444,243877805.56295,39700667.63596,   0.00305,  -0.00082,   0.00097,476308637.09537,   0.00154,276308640.15222,   0.00105,  -0.00087,   0.00045,2148536.03655,   1.00000
543564098.63181,247108943.86616,39473813.81002,   0.00305,  -0.00081,   0.00097,476318963.56718,   0.00155,276318971.43104,   0.00106,  -0.00087,   0.00045,2154953.00340,   1.00000
543818214.47259,250329557.63738,39244439.78368,   0.00306,  -0.00080,   0.00097,476329447.87911,   0.00156,276329451.93862,   0.00107,  -0.00087,   0.00046,2192234.00787,   1.00000
544047948.91843,253536857.24356,39016176.75629,   0.00306,  -0.00078,   0.00097,476339886.73083,   0.00157,276339894.83922,   0.00108,  -0.00087,   0.00046,2190538.08417,   1.00000
544254242.65589,256732162.29005,38786636.61597,   0.00307,  -0.00077,   0.00097,476350422.26329,   0.00158,276350424.05188,   0.00109,  -0.00087,   0.00046,2214915.99646,   1.00000
544436122.06188,259901865.54240,38557507.69757,   0.00307,  -0.00075,   0.00097,476360946.26364,   0.00159,276360952.77900,   0.00109,  -0.00087,   0.00046,2221097.16300,   1.00000
544594782.63859,263059120.77254,38327153.48327,   0.00307,  -0.00074,   0.00097,476371562.63044,   0.00160,276371566.57970,   0.00110,  -0.00087,   0.00047,2245426.04923,   1.00000
544729879.01033,266191034.69651,38096088.74934,   0.00308,  -0.00073,   0.00097,476382235.02722,   0.00161,276382239.67097,   0.00111,  -0.00087,   0.00047,2264405.49943,   1.00000
544841185.97202,269309422.35392,37866194.48330,   0.00308,  -0.00071,   0.00097,476392867.16448,   0.00162,276392874.27209,   0.00112,  -0.00087,   0.00047,2262687.77306,   1.00000
544929552.87222,272414670.66306,37635142.41818,   0.00309,  -0.00070,   0.00097,476403586.82554,   0.00163,276403592.49462,   0.00113,  -0.00087,   0.00047,2287017.33456,   1.00000
544995015.71113,275506433.46417,37402960.65947,   0.00309,  -0.00068,   0.00097,476414392.51358,   0.00164,276414393.89045,   0.00114,  -0.00087,   0.00048,2311396.34042,   1.00000
545037228.43346,278572143.10896,37171328.87828,   0.00309,  -0.00067,   0.00097,476425181.50030,   0.00165,276425191.06440,   0.00115,  -0.00087,   0.00048,2317123.55963,   1.00000
545056823.92388,281623966.06907,36938621.48305,   0.00310,  -0.00066,   0.00097,476436061.14064,   0.00166,276436070.18316,   0.00116,  -0.00087,   0.00048,2341431.44772,   1.00000
545053655.42414,284649687.02945,36706514.00957,   0.00310,  -0.00064,   0.00097,476446936.91811,   0.00167,276446943.67745,   0.00117,  -0.00087,   0.00048,2346952.15511,   1.00000
545027763.34372,287661396.82407,36474510.12347,   0.00311,  -0.00063,   0.00096,476457830.23592,   0.00168,276457838.13695,   0.00118,  -0.00087,   0.00049,2358245.91777,   1.00000
544979611.48311,290658595.13930,36241500.15969,   0.00311,  -0.00061,   0.00096,476468809.69153,   0.00169,276468813.17340,   0.00119,  -0.00087,   0.00049,2382541.02466,   1.00000
544909320.63256,293629586.57169,36009150.89839,   0.00311,  -0.00060,   0.00096,476479779.35204,   0.00170,276479781.06088,   0.00120,  -0.00087,   0.00049,2387841.00041,   1.00000
544817075.56950,296585698.89059,35775848.36938,   0.00312,  -0.00059,   0.00096,476490822.02375,   0.00171,276490828.45430,   0.00121,  -0.00087,   0.00050,2412069.10167,   1.00000
544704068.18980,299527157.23993,35537403.70511,   0.00312,  -0.00057,   0.00096,476501941.16198,   0.00172,276501950.38793,   0.00122,  -0.00087,   0.00050,2435351.90013,   1.00000
544568055.60133,302442424.88639,35305029.70010,   0.00312,  -0.00056,   0.00096,476513000.52277,   0.00173,276513009.10930,   0.00123,  -0.00087,   0.00050,2428468.25275,   1.00000
544410950.22313,305341475.91555,35070689.30067,   0.00313,  -0.00054,   0.00096,476524203.30503,   0.00174,276524204.59223,   0.00124,  -0.00087,   0.00050,2465565.84422,   1.00000
544232416.49499,308215045.95272,34838206.57692,   0.00313,  -0.00053,   0.00096,476535329.61276,   0.00175,276535331.77085,   0.00125,  -0.00087,   0.00051,2457537.21878,   1.00000
544033774.71480,311073399.62704,34600672.03541,   0.00314,  -0.00051,   0.00096,476546526.25888,   0.00176,276546531.80740,   0.00126,  -0.00086,   0.00051,2480709.59322,   1.00000
543812993.94227,313915166.91637,34366588.38942,   0.00314,  -0.00050,   0.00096,476557808.48549,   0.00177,276557812.85912,   0.00127,  -0.00086,   0.00051,2505793.01501,   1.00000
543571898.85342,316730584.68779,34133342.41583,   0.00314,  -0.00048,   0.00096,476569074.05907,   0.00178,276569082.72765,   0.00128,  -0.00086,   0.00051,2510426.09383,   1.00000
543311171.19761,319530226.54205,33895127.56874,   0.00315,  -0.00047,   0.00096,476580414.85696,   0.00179,276580424.14822,   0.00129,  -0.00086,   0.00052,2533551.66638,   1.00000
543029598.60112,322303028.80145,33662046.39570,   0.00315,  -0.00046,   0.00096,476591757.24738,   0.00180,276591757.49790,   0.00130,  -0.00086,   0.00052,2538911.42285,   1.00000
542728537.94404,325049700.60571,33429863.15256,   0.00315,  -0.00044,   0.00096,476603076.20183,   0.00181,276603078.16976,   0.00131,  -0.00086,   0.00052,2543193.87162,   1.00000
542407039.31570,327791116.68446,33192225.34236,   0.00316,  -0.00043,   0.00096,476614492.88832,   0.00182,276614499.82639,   0.00132,  -0.00086,   0.00052,2573102.09119,   1.00000
542066994.43649,330504803.41790,32954531.34298,   0.00316,  -0.00041,   0.00096,476625963.95104,   0.00183,276625964.82293,   0.00133,  -0.00085,   0.00053,2590105.25443,   1.00000
541707147.51231,333191797.11882,32722057.99310,   0.00316,  -0.00040,   0.00096,476637418.35841,   0.00184,276637419.88881,   0.00134,  -0.00085,   0.00053,2595048.17825,   1.00000
541328195.54030,335863916.73586,32485771.90908,   0.00317,  -0.00038,   0.00096,476648879.14264,   0.00186,276648887.97584,   0.00135,  -0.00085,   0.00053,2605194.92848,   1.00000
540930608.37617,338507805.12230,32253740.36347,   0.00317,  -0.00037,   0.00096,476660398.54842,   0.00187,276660401.37457,   0.00136,  -0.00085,   0.00054,2622678.27379,   1.00000
540514270.29804,341136756.45515,32017930.86005,   0.00317,  -0.00035,   0.00096,476671922.50335,   0.00188,276671927.53837,   0.00137,  -0.00085,   0.00054,2632783.58642,   1.00000
540080844.49800,343738010.78010,31782198.70715,   0.00318,  -0.00034,   0.00096,476683488.24407,   0.00189,276683493.96567,   0.00138,  -0.00085,   0.00054,2649165.78254,   1.00000
539628769.76603,346321792.38991,31546011.21543,   0.00318,  -0.00032,   0.00096,476695125.57151,   0.00190,276695131.96619,   0.00139,  -0.00084,   0.00054,2672773.50961,   1.00000
539158716.31569,348881807.79914,31311898.01341,   0.00318,  -0.00031,   0.00096,476706696.43409,   0.00191,276706698.77599,   0.00141,  -0.00084,   0.00055,2663564.23388,   1.00000
538670236.21302,351421598.49004,31080643.86457,   0.00319,  -0.00029,   0.00096,476718393.88386,   0.00192,276718395.30364,   0.00142,  -0.00084,   0.00055,2700606.66962,   1.00000
538166004.19554,353936360.29985,30846274.08916,   0.00319,  -0.00028,   0.00096,476730066.52357,   0.00193,276730071.41185,   0.00143,  -0.00084,   0.00055,2703023.02447,   1.00000
537643166.47625,356435517.52165,30612490.50569,   0.00319,  -0.00026,   0.00096,476741760.33727,   0.00194,276741763.39919,   0.00144,  -0.00083,   0.00055,2713818.77392,   1.00000
537105886.67703,358907598.23338,30374704.10552,   0.00320,  -0.00025,   0.00096,476753481.09584,   0.00195,276753488.91797,   0.00145,  -0.00083,   0.00056,2728696.70975,   1.00000
536549449.11071,361363493.13273,30141802.81262,   0.00320,  -0.00023,   0.00095,476765232.76283,   0.00196,276765233.73709,   0.00146,  -0.00083,   0.00056,2740262.46974,   1.00000
535978211.66867,363791791.76747,29909185.61975,   0.00320,  -0.00022,   0.00095,476777007.96386,   0.00198,276777014.81937,   0.00147,  -0.00083,   0.00056,2755747.24595,   1.00000
535392567.38238,366192625.00689,29676886.82225,   0.00320,  -0.00020,   0.00095,476788824.31658,   0.00199,276788831.34581,   0.00148,  -0.00082,   0.00056,2771028.10017,   1.00000
534790259.07088,368578519.74374,29441023.67888,   0.00321,  -0.00019,   0.00095,476800656.43585,   0.00200,276800659.73710,   0.00149,  -0.00082,   0.00057,2780791.84384,   1.00000
534169581.11171,370948245.46659,29210111.83251,   0.00321,  -0.00017,   0.00095,476812505.29384,   0.00201,276812507.23237,   0.00150,  -0.00082,   0.00057,2792217.37044,   1.00000
533538776.33179,373281966.24426,28975914.01369,   0.00321,  -0.00016,   0.00095,476824348.63889,   0.00202,276824351.69274,   0.00151,  -0.00081,   0.00057,2798355.58809,   1.00000
532890109.68716,375599747.80229,28746699.99415,   0.00322,  -0.00014,   0.00095,476836205.66015,   0.00203,276836214.90848,   0.00152,  -0.00081,   0.00058,2809584.47195,   1.00000
532226645.75775,377899967.81315,28513095.87863,   0.00322,  -0.00013,   0.00095,476848136.97479,   0.00204,276848142.79582,   0.00153,  -0.00081,   0.00058,2831710.33961,   1.00000
531550475.31373,380173011.75115,28279976.75786,   0.00322,  -0.00011,   0.00095,476860097.75268,   0.00205,276860103.88296,   0.00154,  -0.00080,   0.00058,2846342.37245,   1.00000
530859865.02010,382421296.18245,28052469.12519,   0.00323,  -0.00010,   0.00095,476872047.26515,   0.00206,276872048.86641,   0.00155,  -0.00080,   0.00058,2849166.28748,   1.00000
530155192.58867,384652017.47519,27820642.43641,   0.00323,  -0.00008,   0.00095,476884055.93919,   0.00208,276884057.90821,   0.00156,  -0.00080,   0.00059,2871088.16469,   1.00000
529437403.80561,386858789.47233,27590208.55519,   0.00323,  -0.00007,   0.00095,476896040.27205,   0.00209,276896047.44036,   0.00157,  -0.00079,   0.00059,2872974.28818,   1.00000
528706767.73233,389041850.22384,27361172.77116,   0.00323,  -0.00005,   0.00095,476908009.63429,   0.00210,276908017.35550,   0.00158,  -0.00079,   0.00059,2874735.27584,   1.00000
527964183.36761,391204375.19800,27127081.91530,   0.00324,  -0.00004,   0.00095,476920097.42886,   0.00211,276920102.08076,   0.00159,  -0.00078,   0.00059,2908778.99831,   1.00000
527206964.84606,393345930.65555,26899516.24293,   0.00324,  -0.00002,   0.00095,476932115.32913,   0.00212,276932119.08072,   0.00160,  -0.00078,   0.00060,2898818.36080,   1.00000
526440664.48414,395458016.57286,26671769.20552,   0.00324,  -0.00001,   0.00095,476944215.70212,   0.00213,276944217.66263,   0.00161,  -0.00078,   0.00060,2924780.90172,   1.00000
525660202.39306,397555829.20974,26440662.28163,   0.00324,   0.00001,   0.00095,476956322.88428,   0.00214,276956328.86659,   0.00162,  -0.00077,   0.00060,2934067.97704,   1.00000
524867324.34460,399630111.57087,26215296.75240,   0.00325,   0.00002,   0.00095,476968418.45401,   0.00216,276968423.03944,   0.00163,  -0.00077,   0.00060,2936066.56920,   1.00000
524065506.13484,401678974.77226,25986364.55532,   0.00325,   0.00004,   0.00095,476980535.98141,   0.00217,276980544.29289,   0.00164,  -0.00076,   0.00061,2948691.33783,   1.00000
523252587.67418,403705343.73116,25758942.14024,   0.00325,   0.00005,   0.00095,476992639.98531,   0.00218,276992645.26650,   0.00165,  -0.00076,   0.00061,2949711.85970,   1.00000
522428968.97535,405710585.94517,25530941.06954,   0.00325,   0.00007,   0.00095,477004854.17927,   0.00219,277004861.79362,   0.00166,  -0.00075,   0.00061,2983795.57277,   1.00000
521592926.74400,407696996.30097,25305237.22336,   0.00326,   0.00008,   0.00095,477016999.26694,   0.00220,277017008.45207,   0.00167,  -0.00075,   0.00061,2972527.14169,   1.00000
520746747.47424,409662243.86482,25079007.83300,   0.00326,   0.00010,   0.00094,477029263.14789,   0.00221,277029270.20812,   0.00168,  -0.00075,   0.00062,3006453.53426,   1.00000
519891933.45375,411601472.12079,24855634.06623,   0.00326,   0.00011,   0.00094,477041420.42751,   0.00222,277041425.71198,   0.00169,  -0.00074,   0.00062,2986002.44557,   1.00000
519028327.11669,413520246.11139,24627528.73865,   0.00326,   0.00013,   0.00094,477053689.05482,   0.00224,277053692.90865,   0.00170,  -0.00074,   0.00062,3019008.68207,   1.00000
518150754.09985,415424417.88941,24404726.03829,   0.00327,   0.00015,   0.00094,477065978.15304,   0.00225,277065979.62508,   0.00171,  -0.00073,   0.00062,3029293.43785,   1.00000
517269977.34514,417296895.70971,24179076.85395,   0.00327,   0.00016,   0.00094,477078249.46666,   0.00226,277078254.70469,   0.00172,  -0.00072,   0.00062,3031783.21228,   1.00000
516376358.21230,419155644.15215,23954489.80086,   0.00327,   0.00018,   0.00094,477090541.76188,   0.00227,277090546.74902,   0.00173,  -0.00072,   0.00063,3041254.18735,   1.00000
515478749.30060,420982186.02828,23735621.09611,   0.00327,   0.00019,   0.00094,477102829.93127,   0.00228,277102831.84541,   0.00174,  -0.00071,   0.00063,3044670.75412,   1.00000
514566408.94416,422803465.58876,23508734.76748,   0.00328,   0.00021,   0.00094,477115164.90414,   0.00229,277115166.61994,   0.00175,  -0.00071,   0.00063,3062094.62729,   1.00000
513650623.97940,424592936.46496,23287620.95171,   0.00328,   0.00022,   0.00094,477127486.45060,   0.00231,277127494.03134,   0.00176,  -0.00070,   0.00063,3065224.09577,   1.00000
512728768.75841,426358533.60250,23067462.01375,   0.00328,   0.00024,   0.00094,477139840.00061,   0.00232,277139848.72430,   0.00177,  -0.00070,   0.00064,3076865.89819,   1.00000
511795657.40062,428111575.53645,22844145.04560,   0.00328,   0.00025,   0.00094,477152214.38083,   0.00233,277152218.62480,   0.00178,  -0.00069,   0.00064,3085446.02986,   1.00000
510856267.85655,429840446.29280,22626097.66651,   0.00329,   0.00027,   0.00094,477164615.61753,   0.00234,277164618.29320,   0.00179,  -0.00069,   0.00064,3097540.01025,   1.00000
509909709.37917,431550252.53384,22405436.40993,   0.00329,   0.00029,   0.00094,477176989.25168,   0.00235,277176995.50500,   0.00180,  -0.00068,   0.00064,3096491.66357,   1.00000
508958054.14134,433236862.60462,22185803.94253,   0.00329,   0.00030,   0.00094,477189395.43018,   0.00236,277189399.65397,   0.00181,  -0.00067,   0.00065,3107689.95592,   1.00000
507997718.87010,434906987.58264,21966687.15501,   0.00329,   0.00032,   0.00094,477201863.62428,   0.00238,277201869.09950,   0.00182,  -0.00067,   0.00065,3128426.05808,   1.00000
507036685.59438,436547800.33420,21749159.11504,   0.00329,   0.00033,   0.00094,477214323.44056,   0.00239,277214326.52982,   0.00183,  -0.00066,   0.00065,3129659.44707,   1.00000
506065365.29443,438176854.98329,21528540.15641,   0.00330,   0.00035,   0.00094,477226795.28370,   0.00240,277226800.39414,   0.00184,  -0.00066,   0.00065,3137953.29765,   1.00000
505086529.53267,439786833.18771,21313907.44487,   0.00330,   0.00036,   0.00093,477239251.95167,   0.00241,277239257.04012,   0.00185,  -0.00065,   0.00065,3137654.18197,   1.00000
504111195.62691,441364944.37926,21095999.27608,   0.00330,   0.00038,   0.00093,477251742.18732,   0.00242,277251744.71750,   0.00186,  -0.00064,   0.00066,3149397.32254,   1.00000
503121469.06377,442937368.44337,20878793.69769,   0.00330,   0.00039,   0.00093,477264284.81583,   0.00243,277264290.86009,   0.00187,  -0.00064,   0.00066,3167993.29069,   1.00000
502132304.08031,444481799.96185,20663238.36224,   0.00330,   0.00041,   0.00093,477276816.13563,   0.00245,277276824.04654,   0.00188,  -0.00063,   0.00066,3168443.42308,   1.00000
501136988.25687,446008662.98493,20449413.15568,   0.00331,   0.00043,   0.00093,477289331.37800,   0.00246,277289337.74234,   0.00189,  -0.00062,   0.00066,3167122.26268,   1.00000
500139294.37797,447514655.76375,20232467.11345,   0.00331,   0.00044,   0.00093,477301869.80909,   0.00247,277301875.18654,   0.00190,  -0.00062,   0.00066,3176644.37777,   1.00000
499134839.69404,449005303.57447,20016209.21158,   0.00331,   0.00046,   0.00093,477314473.38896,   0.00248,277314478.04229,   0.00191,  -0.00061,   0.00067,3196642.57441,   1.00000
498128179.18326,450472706.11544,19806479.77460,   0.00331,   0.00047,   0.00093,477327018.83042,   0.00249,277327024.26714,   0.00192,  -0.00060,   0.00067,3185550.95796,   1.00000
497116263.88053,451926045.75148,19588885.10030,   0.00331,   0.00049,   0.00093,477339623.83951,   0.00251,277339631.73637,   0.00193,  -0.00060,   0.00067,3204312.26975,   1.00000
496101689.26233,453358251.94682,19376801.76572,   0.00332,   0.00050,   0.00093,477352257.14915,   0.00252,277352267.06056,   0.00194,  -0.00059,   0.00067,3214482.40126,   1.00000
495085986.39529,454768645.81298,19166963.73956,   0.00332,   0.00052,   0.00093,477364838.50675,   0.00253,277364843.42082,   0.00195,  -0.00058,   0.00068,3202446.79774,   1.00000
494065018.27845,456164908.79610,18953583.58325,   0.00332,   0.00053,   0.00093,477377478.82891,   0.00254,277377483.35473,   0.00196,  -0.00057,   0.00068,3221520.30546,   1.00000
493042547.61677,457541189.89542,18741460.15605,   0.00332,   0.00055,   0.00093,477390141.59495,   0.00255,277390148.79887,   0.00197,  -0.00057,   0.00068,3230800.16458,   1.00000
492018796.10233,458897730.41458,18530601.32384,   0.00332,   0.00057,   0.00093,477402831.37120,   0.00257,277402839.58221,   0.00198,  -0.00056,   0.00068,3239939.33306,   1.00000
490990388.18440,460238907.40434,18321524.41964,   0.00333,   0.00058,   0.00092,477415508.90746,   0.00258,277415511.71288,   0.00198,  -0.00055,   0.00068,3237748.35189,   1.00000
489965697.96639,461556048.89288,18109910.77197,   0.00333,   0.00060,   0.00092,477428158.37715,   0.00259,277428166.58622,   0.00199,  -0.00054,   0.00068,3235795.18741,   1.00000
488936136.77689,462859345.23850,17899133.26368,   0.00333,   0.00061,   0.00092,477440882.31288,   0.00260,277440887.09552,   0.00200,  -0.00054,   0.00069,3254954.69935,   1.00000
487906037.52877,464143772.33785,17689667.46312,   0.00333,   0.00063,   0.00092,477453628.17439,   0.00261,277453632.63232,   0.00201,  -0.00053,   0.00069,3263632.87817,   1.00000
486871772.32618,465413733.25384,17482000.45055,   0.00333,   0.00064,   0.00092,477466352.35829,   0.00263,277466359.81709,   0.00202,  -0.00052,   0.00069,3261097.93599,   1.00000
485837310.16298,466665245.73618,17275643.82755,   0.00334,   0.00066,   0.00092,477479108.86066,   0.00264,277479111.97404,   0.00203,  -0.00051,   0.00069,3269568.33147,   1.00000
484803291.55781,467898975.24430,17066329.35752,   0.00334,   0.00068,   0.00092,477491882.67258,   0.00265,277491887.15642,   0.00204,  -0.00050,   0.00069,3277454.39624,   1.00000
483769617.51973,469114105.43011,16859273.38104,   0.00334,   0.00069,   0.00092,477504597.55740,   0.00266,277504602.98497,   0.00205,  -0.00050,   0.00070,3264096.68972,   1.00000
482732024.05306,470316248.03086,16653115.83365,   0.00334,   0.00071,   0.00092,477517376.28292,   0.00267,277517384.82912,   0.00206,  -0.00049,   0.00070,3282822.88464,   1.00000
481695336.54415,471501226.23905,16444033.68451,   0.00334,   0.00072,   0.00092,477530188.02015,   0.00269,277530189.56848,   0.00206,  -0.00048,   0.00070,3290414.27972,   1.00000
480663003.94331,472663771.43874,16241042.91024,   0.00334,   0.00074,   0.00092,477542972.28629,   0.00270,277542979.15949,   0.00207,  -0.00047,   0.00070,3288105.61271,   1.00000
479627694.50067,473814256.17786,16034698.09844,   0.00335,   0.00075,   0.00091,477555829.20386,   0.00271,277555832.91413,   0.00208,  -0.00046,   0.00070,3306123.81331,   1.00000
478593669.35423,474947943.71591,15826319.73631,   0.00335,   0.00077,   0.00091,477568620.87020,   0.00272,277568625.38759,   0.00209,  -0.00045,   0.00070,3291790.43589,   1.00000
477556040.36854,476068953.95929,15623207.05912,   0.00335,   0.00078,   0.00091,477581479.76824,   0.00274,277581485.70865,   0.00210,  -0.00045,   0.00071,3310580.34617,   1.00000
476524236.14896,477169459.15790,15417616.46797,   0.00335,   0.00080,   0.00091,477594322.66749,   0.00275,277594326.73506,   0.00211,  -0.00044,   0.00071,3306868.56690,   1.00000
475493758.22507,478253724.10786,15213437.89011,   0.00335,   0.00082,   0.00091,477607186.03279,   0.00276,277607191.81480,   0.00212,  -0.00043,   0.00071,3314227.94069,   1.00000
474464758.24664,479321970.09567,15010672.24906,   0.00335,   0.00083,   0.00091,477620074.97047,   0.00277,277620080.81171,   0.00212,  -0.00042,   0.00071,3321472.33816,   1.00000
473433212.17545,480379019.92091,14805437.48892,   0.00336,   0.00085,   0.00091,477632944.47285,   0.00278,277632950.48067,   0.00213,  -0.00041,   0.00071,3317498.37624,   1.00000
472403363.61024,481420399.52349,14601640.14072,   0.00336,   0.00086,   0.00091,477645838.11286,   0.00280,277645844.08515,   0.00214,  -0.00040,   0.00071,3324592.89594,   1.00000
471379551.89932,482442241.82227,14399672.02039,   0.00336,   0.00088,   0.00091,477658709.26709,   0.00281,277658719.06491,   0.00215,  -0.00039,   0.00072,3320628.32470,   1.00000
470353497.88342,483452977.98713,14198746.24948,   0.00336,   0.00089,   0.00091,477671653.77753,   0.00282,277671660.08395,   0.00216,  -0.00039,   0.00072,3338429.97899,   1.00000
469334103.52669,484445082.87942,13995360.94134,   0.00336,   0.00091,   0.00090,477684572.45525,   0.00283,277684580.53959,   0.00217,  -0.00038,   0.00072,3333823.53221,   1.00000
468312708.11333,485426371.77013,13793060.10944,   0.00336,   0.00092,   0.00090,477697563.06538,   0.00285,277697567.00065,   0.00217,  -0.00037,   0.00072,3351484.79625,   1.00000
467292947.45091,486393350.52862,13592957.07170,   0.00337,   0.00094,   0.00090,477710491.02216,   0.00286,277710493.17640,   0.00218,  -0.00036,   0.00072,3336474.37298,   1.00000
466285055.44972,487338292.88584,13390042.79406,   0.00337,   0.00096,   0.00090,477723436.16958,   0.00287,277723438.96200,   0.00219,  -0.00035,   0.00072,3342024.70657,   1.00000
465270495.11816,488277144.75758,13188593.03732,   0.00337,   0.00097,   0.00090,477736404.07947,   0.00288,277736409.95198,   0.00220,  -0.00034,   0.00072,3348941.55476,   1.00000
464262720.86650,489198273.31555,12988982.36723,   0.00337,   0.00099,   0.00090,477749352.88017,   0.00290,277749360.88300,   0.00221,  -0.00033,   0.00073,3344105.48683,   1.00000
463253795.70566,490109704.76788,12786206.79570,   0.00337,   0.00100,   0.00090,477762369.96035,   0.00291,277762376.39576,   0.00221,  -0.00032,   0.00073,3361070.19124,   1.00000
462251843.02290,491003886.03365,12585290.09954,   0.00337,   0.00102,   0.00090,477775365.42649,   0.00292,277775371.44396,   0.00222,  -0.00031,   0.00073,3356009.79027,   1.00000
461247569.02114,491888890.27845,12386191.34700,   0.00338,   0.00103,   0.00090,477788340.84361,   0.00293,277788348.89982,   0.00223,  -0.00030,   0.00073,3351616.42245,   1.00000
460255973.33428,492753334.97970,12184323.78554,   0.00338,   0.00105,   0.00089,477801336.91424,   0.00294,277801344.23200,   0.00224,  -0.00029,   0.00073,3356342.12340,   1.00000
459263272.43108,493608372.87793,11983640.75088,   0.00338,   0.00106,   0.00089,477814404.85710,   0.00296,277814405.25057,   0.00225,  -0.00028,   0.00073,3373359.08809,   1.00000
458272500.43028,494451326.68241,11785111.06269,   0.00338,   0.00108,   0.00089,477827395.42337,   0.00297,277827405.03292,   0.00225,  -0.00027,   0.00073,3357516.74346,   1.00000
457289366.63279,495278657.92371,11584126.39565,   0.00338,   0.00109,   0.00089,477840377.10778,   0.00298,277840381.88248,   0.00226,  -0.00026,   0.00074,3351534.85286,   1.00000
456310795.67666,496092856.42278,11384057.08962,   0.00338,   0.00111,   0.00089,477853459.40827,   0.00299,277853464.06761,   0.00227,  -0.00025,   0.00074,3378622.84059,   1.00000
455334217.07158,496895725.98813,11186123.13856,   0.00338,   0.00113,   0.00089,477866480.76116,   0.00301,277866484.46749,   0.00228,  -0.00024,   0.00074,3362494.48648,   1.00000
454361317.08996,497686930.25420,10985421.39021,   0.00339,   0.00114,   0.00089,477879520.73109,   0.00302,277879525.30146,   0.00228,  -0.00023,   0.00074,3367552.25392,   1.00000
453391886.86541,498466324.23244,10786265.06987,   0.00339,   0.00116,   0.00088,477892584.92787,   0.00303,277892587.63552,   0.00229,  -0.00022,   0.00074,3372835.99730,   1.00000
452425994.33671,499234071.44412,10588648.32771,   0.00339,   0.00117,   0.00088,477905666.09174,   0.00304,277905671.38215,   0.00230,  -0.00021,   0.00074,3378042.09305,   1.00000
451473775.50704,499983434.71452,10388315.81738,   0.00339,   0.00119,   0.00088,477918766.43895,   0.00306,277918770.09596,   0.00231,  -0.00020,   0.00074,3381562.16202,   1.00000
450519470.14662,500725720.07277,10189803.10559,   0.00339,   0.00120,   0.00088,477931846.49028,   0.00307,277931850.54278,   0.00231,  -0.00019,   0.00074,3376444.57822,   1.00000
449573195.81585,501454186.71801,9988840.31668,   0.00339,   0.00122,   0.00088,477944901.93709,   0.00308,277944906.32592,   0.00232,  -0.00018,   0.00074,3369644.51769,   1.00000
448630655.65081,502171817.25841,9789449.30519,   0.00340,   0.00123,   0.00088,477957976.77765,   0.00309,277957982.70755,   0.00233,  -0.00017,   0.00075,3374480.42051,   1.00000
447691916.02002,502878776.26967,9591623.40295,   0.00340,   0.00125,   0.00088,477971076.67379,   0.00311,277971079.55006,   0.00233,  -0.00016,   0.00075,3379241.80278,   1.00000
446757256.26504,503575475.19702,9391070.33721,   0.00340,   0.00126,   0.00087,477984188.26382,   0.00312,277984195.76391,   0.00234,  -0.00015,   0.00075,3383680.06501,   1.00000
445830534.73841,504258927.43342,9192367.25172,   0.00340,   0.00128,   0.00087,477997283.65782,   0.00313,277997287.41726,   0.00235,  -0.00014,   0.00075,3376759.62941,   1.00000
444911976.08945,504929647.44555,8991208.36420,   0.00340,   0.00129,   0.00087,478010348.83118,   0.00314,278010353.21361,   0.00236,  -0.00013,   0.00075,3369476.90032,   1.00000
443993346.00789,505593244.59875,8791390.02815,   0.00340,   0.00131,   0.00087,478023482.17495,   0.00316,278023483.63662,   0.00236,  -0.00012,   0.00075,3385486.10648,   1.00000
443082722.92442,506244207.05215,8593410.92061,   0.00340,   0.00132,   0.00087,478036583.26152,   0.00317,278036588.81090,   0.00237,  -0.00011,   0.00075,3378285.43932,   1.00000
442176338.15394,506885774.51303,8392722.81624,   0.00341,   0.00134,   0.00087,478049704.71617,   0.00318,278049712.52920,   0.00238,  -0.00010,   0.00075,3382347.58606,   1.00000
441277999.57382,507515143.21665,8193875.90015,   0.00341,   0.00135,   0.00086,478062804.61548,   0.00319,278062810.41120,   0.00238,  -0.00009,   0.00075,3374949.82963,   1.00000
440383933.65522,508135450.01089,7992331.65156,   0.00341,   0.00137,   0.00086,478075923.22730,   0.00321,278075926.50192,   0.00239,  -0.00008,   0.00075,3378875.85003,   1.00000
439504227.67193,508739998.42791,7792440.17945,   0.00341,   0.00138,   0.00086,478089048.62892,   0.00322,278089054.20504,   0.00240,  -0.00007,   0.00076,3381084.98050,   1.00000
438622303.45318,509339604.49114,7594340.57699,   0.00341,   0.00140,   0.00086,478102153.57633,   0.00323,278102162.51090,   0.00240,  -0.00006,   0.00076,3375264.71793,   1.00000
437744720.69889,509930609.87858,7393545.88000,   0.00341,   0.00141,   0.00086,478115287.93359,   0.00324,278115288.55423,   0.00241,  -0.00005,   0.00076,3378994.94982,   1.00000
436881651.62863,510506440.70931,7194405.36748,   0.00341,   0.00143,   0.00086,478128418.89715,   0.00326,278128425.28235,   0.00242,  -0.00004,   0.00076,3380887.23972,   1.00000
436022941.58561,511074038.56465,6992586.94688,   0.00342,   0.00144,   0.00085,478141570.70619,   0.00327,278141579.21257,   0.00242,  -0.00003,   0.00076,3384438.65926,   1.00000
435165827.33275,511634754.87732,6792765.07149,   0.00342,   0.00146,   0.00085,478154664.57010,   0.00328,278154667.74865,   0.00243,  -0.00002,   0.00076,3366717.62560,   1.00000
434319617.10961,512183563.06746,6590110.08795,   0.00342,   0.00147,   0.00085,478167807.08695,   0.00329,278167810.90221,   0.00244,  -0.00001,   0.00076,3379854.48539,   1.00000
433481502.21225,512721947.55134,6389287.07565,   0.00342,   0.00149,   0.00085,478180925.16043,   0.00331,278180925.71055,   0.00244,   0.00001,   0.00076,3371645.02738,   1.00000
432647744.86137,513252665.57035,6185804.22832,   0.00342,   0.00150,   0.00085,478194054.82236,   0.00332,278194057.11859,   0.00245,   0.00002,   0.00076,3374967.90861,   1.00000
431822058.50087,513773299.88939,5984150.69704,   0.00342,   0.00152,   0.00084,478207151.87546,   0.00333,278207159.71516,   0.00246,   0.00003,   0.00076,3366603.24895,   1.00000
431007312.36996,514282545.91246,5783997.91256,   0.00343,   0.00153,   0.00084,478220311.49840,   0.00335,278220316.33781,   0.00246,   0.00004,   0.00076,3379523.38834,   1.00000
430194003.23383,514786111.72349,5581484.97258,   0.00343,   0.00155,   0.00084,478233396.94519,   0.00336,278233405.72508,   0.00247,   0.00005,   0.00076,3361269.13492,   1.00000
429391708.07760,515278584.27073,5380491.27674,   0.00343,   0.00156,   0.00084,478246543.11053,   0.00337,278246548.65074,   0.00247,   0.00006,   0.00076,3374031.32050,   1.00000
428586939.75880,515767896.42192,5176971.57517,   0.00343,   0.00158,   0.00084,478259664.47325,   0.00338,278259670.30248,   0.00248,   0.00007,   0.00076,3367554.54215,   1.00000
427800961.04630,516242073.42864,4970998.31507,   0.00343,   0.00159,   0.00083,478272744.33892,   0.00340,278272751.98614,   0.00249,   0.00008,   0.00077,3356301.45511,   1.00000
427015394.54489,516711620.95434,4766562.85637,   0.00343,   0.00161,   0.00083,478285887.39815,   0.00341,278285895.82143,   0.00249,   0.00009,   0.00077,3371221.81893,   1.00000
426248512.93398,517166342.16157,4563963.32081,   0.00344,   0.00162,   0.00083,478298991.46968,   0.00342,278298999.25399,   0.00250,   0.00010,   0.00077,3359857.79345,   1.00000
425475190.57409,517620592.73127,4358702.19341,   0.00344,   0.00164,   0.00083,478312126.47240,   0.00343,278312127.23047,   0.00251,   0.00011,   0.00077,3365116.81808,   1.00000
424720543.47025,518060370.14226,4155269.97255,   0.00344,   0.00165,   0.00082,478325207.37048,   0.00345,278325214.14401,   0.00251,   0.00013,   0.00077,3353567.33214,   1.00000
423970145.00815,518494025.32763,3949209.27776,   0.00344,   0.00167,   0.00082,478338311.04818,   0.00346,278338315.45302,   0.00252,   0.00014,   0.00077,3356228.11559,   1.00000
423223978.35235,518921618.54917,3740544.14335,   0.00344,   0.00168,   0.00082,478351424.37974,   0.00347,278351431.15886,   0.00252,   0.00015,   0.00077,3358873.02919,   1.00000
422485655.19771,519341098.24257,3533693.49874,   0.00344,   0.00169,   0.00082,478364507.44046,   0.00348,278364514.80433,   0.00253,   0.00016,   0.00077,3349620.42881,   1.00000
421762285.34715,519748941.27476,3328556.35765,   0.00345,   0.00171,   0.00082,478377595.50481,   0.00350,278377602.41840,   0.00253,   0.00017,   0.00077,3349608.41777,   1.00000
421043073.55869,520151135.95457,3120807.42329,   0.00345,   0.00172,   0.00081,478390697.38670,   0.00351,278390703.71119,   0.00254,   0.00018,   0.00077,3352072.31623,   1.00000
420331666.76476,520545789.99812,2910556.58276,   0.00345,   0.00174,   0.00081,478403766.76149,   0.00352,278403771.69151,   0.00255,   0.00019,   0.00077,3342516.76391,   1.00000
419627945.17509,520932958.50382,2702105.39431,   0.00345,   0.00175,   0.00081,478416802.37755,   0.00353,278416806.43302,   0.00255,   0.00020,   0.00077,3332982.20895,   1.00000
418935513.36575,521311069.42882,2495298.19700,   0.00345,   0.00177,   0.00081,478429884.63610,   0.00355,278429890.79492,   0.00256,   0.00021,   0.00077,3344638.02373,   1.00000
418239825.49419,521687601.30166,2285946.20734,   0.00345,   0.00178,   0.00080,478442943.62085,   0.00356,278442952.11550,   0.00256,   0.00023,   0.00077,3337694.58063,   1.00000
417570098.56601,522047959.28789,2074044.27252,   0.00346,   0.00179,   0.00080,478456002.34084,   0.00357,278456004.11416,   0.00257,   0.00024,   0.00077,3334315.78863,   1.00000
416896896.66059,522406922.27557,1863917.38722,   0.00346,   0.00181,   0.00080,478469030.09500,   0.00358,278469032.88866,   0.00257,   0.00025,   0.00077,3327353.33508,   1.00000
416235052.14947,522757365.29050,1651176.81201,   0.00346,   0.00182,   0.00080,478482101.60331,   0.00360,278482110.09887,   0.00258,   0.00026,   0.00077,3338696.82074,   1.00000
415584248.83653,523099335.02529,1440265.33641,   0.00346,   0.00184,   0.00079,478495100.35555,   0.00361,278495105.10592,   0.00259,   0.00027,   0.00077,3316712.33191,   1.00000
414937296.37432,523436643.56949,1226779.78940,   0.00346,   0.00185,   0.00079,478508107.57364,   0.00362,278508112.15856,   0.00259,   0.00028,   0.00077,3318775.66304,   1.00000
414301650.79622,523765761.86335,1015011.82331,   0.00347,   0.00186,   0.00079,478521161.63159,   0.00363,278521166.99764,   0.00260,   0.00029,   0.00077,3329966.25664,   1.00000
413676886.33083,524086878.25261,800732.67958,   0.00347,   0.00188,   0.00079,478534134.41157,   0.00365,278534138.59152,   0.00260,   0.00030,   0.00077,3307753.65593,   1.00000
413055846.79317,524403634.98163,583903.86212,   0.00347,   0.00189,   0.00078,478547113.95470,   0.00366,278547121.68338,   0.00261,   0.00032,   0.00077,3309692.48520,   1.00000
412446095.23356,524712566.03592,368831.39228,   0.00347,   0.00191,   0.00078,478560150.40714,   0.00367,278560151.74118,   0.00261,   0.00033,   0.00077,3320693.22566,   1.00000
411847007.44037,525013869.82463,155524.73432,   0.00347,   0.00192,   0.00078,478573089.98490,   0.00368,278573097.80205,   0.00262,   0.00034,   0.00077,3298323.57898,   1.00000
411251536.36741,525311127.42178,-64635.28586,   0.00348,   0.00193,   0.00077,478586053.98377,   0.00370,278586054.72845,   0.00262,   0.00035,   0.00077,3300133.17966,   1.00000
410670771.30679,525599192.26190,-283009.60157,   0.00348,   0.00195,   0.00077,478599005.33846,   0.00371,278599010.24355,   0.00263,   0.00036,   0.00077,3298828.91102,   1.00000
410093530.16793,525883387.28940,-499610.91782,   0.00348,   0.00196,   0.00077,478611966.62390,   0.00372,278611976.28469,   0.00263,   0.00037,   0.00077,3300558.74810,   1.00000
409534412.14797,526157015.36015,-718771.56701,   0.00348,   0.00198,   0.00077,478624890.13917,   0.00373,278624892.43118,   0.00264,   0.00038,   0.00077,3286957.85951,   1.00000
408978680.40418,526426966.61246,-940450.82902,   0.00348,   0.00199,   0.00076,478637816.52820,   0.00375,278637818.71418,   0.00264,   0.00040,   0.00077,3288622.87064,   1.00000
408426345.33460,526693316.39207,-1160334.95747,   0.00349,   0.00200,   0.00076,478650751.48893,   0.00376,278650754.98465,   0.00265,   0.00041,   0.00077,3290244.01324,   1.00000
407891986.24744,526949449.92100,-1382781.84885,   0.00349,   0.00202,   0.00076,478663633.14292,   0.00377,278663640.55537,   0.00265,   0.00042,   0.00077,3276465.10004,   1.00000
407360918.73307,527202210.18903,-1603433.70587,   0.00349,   0.00203,   0.00075,478676534.66353,   0.00378,278676535.57104,   0.00266,   0.00043,   0.00077,3277987.18364,   1.00000
406844304.14466,527446593.71409,-1826610.71906,   0.00349,   0.00204,   0.00075,478689423.49150,   0.00380,278689427.23555,   0.00266,   0.00044,   0.00077,3276272.84241,   1.00000
406334232.00657,527686147.42934,-2052340.33064,   0.00349,   0.00206,   0.00075,478702276.09181,   0.00381,278702280.16281,   0.00267,   0.00045,   0.00077,3265575.51069,   1.00000
405838559.01614,527917626.78593,-2276272.53358,   0.00350,   0.00207,   0.00074,478715126.11521,   0.00382,278715128.91234,   0.00267,   0.00046,   0.00077,3263688.69803,   1.00000
405338015.99038,528149385.55734,-2502751.11894,   0.00350,   0.00208,   0.00074,478727947.66209,   0.00383,278727951.70557,   0.00268,   0.00047,   0.00077,3256243.90113,   1.00000
404863047.93321,528368255.12911,-2731749.69434,   0.00350,   0.00210,   0.00074,478740750.06877,   0.00385,278740756.97923,   0.00268,   0.00049,   0.00077,3250997.36222,   1.00000
404391037.87576,528584291.83673,-2958914.32781,   0.00350,   0.00211,   0.00073,478753569.41969,   0.00386,278753570.47389,   0.00269,   0.00050,   0.00077,3252291.79584,   1.00000
403925232.98879,528795928.62927,-3188646.60617,   0.00351,   0.00212,   0.00073,478766343.53970,   0.00387,278766344.29648,   0.00269,   0.00051,   0.00077,3241431.44619,   1.00000
403470295.23815,529001481.10652,-3416469.99221,   0.00351,   0.00214,   0.00073,478779154.92491,   0.00388,278779160.97043,   0.00270,   0.00052,   0.00077,3251523.29251,   1.00000
403032767.80021,529198005.34314,-3646900.63877,   0.00351,   0.00215,   0.00072,478791921.01044,   0.00390,278791923.93822,   0.00270,   0.00053,   0.00077,3237164.91072,   1.00000
402589878.00315,529395202.25727,-3879869.64893,   0.00351,   0.00216,   0.00072,478804657.78528,   0.00391,278804660.20393,   0.00271,   0.00054,   0.00077,3229628.92361,   1.00000
402169107.31508,529581779.41385,-4110930.87285,   0.00352,   0.00218,   0.00072,478817417.96479,   0.00392,278817425.03544,   0.00271,   0.00055,   0.00077,3236151.04860,   1.00000
401754182.72108,529764400.02876,-4344572.81491,   0.00352,   0.00219,   0.00071,478830142.37020,   0.00393,278830149.11582,   0.00272,   0.00057,   0.00077,3225110.85266,   1.00000
401345041.68780,529943114.29316,-4580788.35415,   0.00352,   0.00220,   0.00071,478842830.62588,   0.00394,278842832.37444,   0.00272,   0.00058,   0.00077,3214063.66153,   1.00000
400949801.80472,530114819.28351,-4815175.07779,   0.00352,   0.00221,   0.00071,478855501.37683,   0.00396,278855508.77770,   0.00273,   0.00059,   0.00077,3211642.39746,   1.00000
400568301.20725,530279504.74650,-5052043.00041,   0.00353,   0.00223,   0.00070,478868171.96423,   0.00397,278868178.44505,   0.00273,   0.00060,   0.00077,3209283.43377,   1.00000
400189077.18141,530441932.28490,-5291330.35971,   0.00353,   0.00224,   0.00070,478880849.66195,   0.00398,278880855.21509,   0.00274,   0.00061,   0.00076,3210423.65550,   1.00000
399826857.90917,530596230.40974,-5528940.78522,   0.00353,   0.00225,   0.00070,478893474.54939,   0.00399,278893475.82978,   0.00274,   0.00062,   0.00076,3195587.26817,   1.00000
399466771.03284,530748381.46603,-5768972.70454,   0.00353,   0.00227,   0.00069,478906093.66688,   0.00401,278906103.30743,   0.00275,   0.00063,   0.00076,3196688.22541,   1.00000
399120216.90023,530893805.29012,-6011459.25208,   0.00354,   0.00228,   0.00069,478918721.95870,   0.00402,278918723.33406,   0.00275,   0.00065,   0.00076,3194206.91209,   1.00000
398779035.55207,531035974.77941,-6252227.43497,   0.00354,   0.00229,   0.00068,478931292.44544,   0.00403,278931300.79059,   0.00275,   0.00066,   0.00076,3182830.11321,   1.00000
398451261.68518,531171554.95984,-6495457.26683,   0.00354,   0.00230,   0.00068,478943864.54704,   0.00404,278943870.45029,   0.00276,   0.00067,   0.00076,3180286.71673,   1.00000
398136799.31486,531300615.68220,-6741133.23070,   0.00354,   0.00232,   0.00068,478956425.18182,   0.00405,278956432.13749,   0.00276,   0.00068,   0.00076,3177719.43360,   1.00000
397827490.00918,531426664.18562,-6985098.80755,   0.00355,   0.00233,   0.00067,478968944.81125,   0.00407,278968950.60968,   0.00277,   0.00069,   0.00076,3166247.19015,   1.00000
397531370.68263,531546323.98998,-7231517.90888,   0.00355,   0.00234,   0.00067,478981451.64591,   0.00408,278981460.77799,   0.00277,   0.00070,   0.00076,3163623.79302,   1.00000
397248363.02354,531659684.32988,-7480375.66657,   0.00355,   0.00235,   0.00067,478993956.78997,   0.00409,278993962.39418,   0.00278,   0.00071,   0.00076,3160967.73758,   1.00000
396967094.03778,531771569.04653,-7727298.09506,   0.00356,   0.00237,   0.00066,479006465.87102,   0.00410,279006469.03476,   0.00278,   0.00072,   0.00076,3161740.34998,   1.00000
396702009.71006,531875911.78879,-7976901.76295,   0.00356,   0.00238,   0.00066,479018913.83470,   0.00412,279018918.15562,   0.00279,   0.00074,   0.00076,3146731.45033,   1.00000
396441535.91648,531977312.40529,-8229111.28480,   0.00356,   0.00239,   0.00065,479031318.73471,   0.00413,279031324.15748,   0.00279,   0.00075,   0.00076,3135363.57135,   1.00000
396190756.54495,532073947.35206,-8483485.02671,   0.00356,   0.00240,   0.00065,479043766.09845,   0.00414,279043769.93125,   0.00279,   0.00076,   0.00076,3144958.65788,   1.00000
395956107.28399,532163481.90823,-8736233.81095,   0.00357,   0.00241,   0.00064,479056150.13347,   0.00415,279056156.80537,   0.00280,   0.00077,   0.00075,3129654.39206,   1.00000
395730998.11219,532248388.46291,-8991135.86776,   0.00357,   0.00243,   0.00064,479068581.15596,   0.00416,279068583.05862,   0.00280,   0.00078,   0.00075,3139199.31110,   1.00000
395513321.38849,532329222.64242,-9248917.18920,   0.00357,   0.00244,   0.00064,479080908.78566,   0.00418,279080916.94529,   0.00281,   0.00079,   0.00075,3115461.67292,   1.00000
395305269.21736,532405796.63758,-9504522.96063,   0.00358,   0.00245,   0.00063,479093288.68367,   0.00419,279093289.02338,   0.00281,   0.00080,   0.00075,3124732.03046,   1.00000
395104498.09355,532478386.48241,-9763042.48882,   0.00358,   0.00246,   0.00063,479105564.40496,   0.00420,279105568.52880,   0.00282,   0.00081,   0.00075,3100974.80178,   1.00000
394921383.98158,532543360.09531,-10023455.49606,   0.00358,   0.00247,   0.00062,479117916.68516,   0.00421,279117921.11916,   0.00282,   0.00082,   0.00075,3119084.84569,   1.00000
394745351.70708,532604464.37191,-10286780.48746,   0.00359,   0.00249,   0.00062,479130175.53936,   0.00422,279130180.84784,   0.00282,   0.00084,   0.00075,3095301.88033,   1.00000
394570304.34222,532664636.67098,-10548101.36188,   0.00359,   0.00250,   0.00061,479142442.02737,   0.00423,279142444.34684,   0.00283,   0.00085,   0.00075,3095913.73136,   1.00000
394418990.23709,532714719.81504,-10811917.73271,   0.00359,   0.00251,   0.00061,479154675.84962,   0.00425,279154682.87036,   0.00283,   0.00086,   0.00075,3089311.17923,   1.00000
394268263.08076,532763651.50244,-11078016.87013,   0.00360,   0.00252,   0.00061,479166922.37447,   0.00426,279166926.06119,   0.00284,   0.00087,   0.00075,3090186.56784,   1.00000
394132943.73797,532806060.60207,-11342541.15039,   0.00360,   0.00253,   0.00060,479179104.47616,   0.00427,279179108.85680,   0.00284,   0.00088,   0.00074,3074671.53375,   1.00000
394009577.63229,532842962.36241,-11609458.22227,   0.00360,   0.00254,   0.00060,479191274.77555,   0.00428,279191281.22214,   0.00285,   0.00089,   0.00074,3071781.47698,   1.00000
393894973.43559,532875686.42777,-11878395.03692,   0.00361,   0.00255,   0.00059,479203486.77750,   0.00429,279203492.01475,   0.00285,   0.00090,   0.00074,3081232.49328,   1.00000
393786858.54616,532904791.94429,-12150313.65858,   0.00361,   0.00257,   0.00059,479215602.50362,   0.00431,279215609.42217,   0.00285,   0.00091,   0.00074,3057425.30098,   1.00000
393690478.46657,532928477.60891,-12424587.00310,   0.00362,   0.00258,   0.00058,479227710.83282,   0.00432,279227716.29786,   0.00286,   0.00092,   0.00074,3054540.29956,   1.00000
393606002.97535,532947155.46215,-12696916.94368,   0.00362,   0.00259,   0.00058,479239805.87438,   0.00433,279239811.20431,   0.00286,   0.00093,   0.00074,3051315.55762,   1.00000
393533085.66306,532960491.86408,-12971606.78846,   0.00362,   0.00260,   0.00057,479251892.27351,   0.00434,279251895.38339,   0.00287,   0.00095,   0.00074,3048421.67819,   1.00000
393463483.52173,532972003.24333,-13244636.92058,   0.00363,   0.00261,   0.00057,479263924.48427,   0.00435,279263933.51414,   0.00287,   0.00096,   0.00074,3036611.68137,   1.00000
393413466.49709,532974723.31540,-13524035.14494,   0.00363,   0.00262,   0.00056,479275991.92882,   0.00436,279275996.17481,   0.00287,   0.00097,   0.00073,3042641.92657,   1.00000
393366584.23943,532975685.32829,-13801758.43842,   0.00363,   0.00263,   0.00056,479288004.78948,   0.00438,279288012.67385,   0.00288,   0.00098,   0.00073,3030835.57146,   1.00000
393334046.59774,532970126.51387,-14082248.67573,   0.00364,   0.00264,   0.00055,479299969.30425,   0.00439,279299969.32163,   0.00288,   0.00099,   0.00073,3015608.50017,   1.00000
393309551.51798,532960625.85357,-14364636.89200,   0.00364,   0.00265,   0.00055,479311960.70348,   0.00440,279311964.13388,   0.00289,   0.00100,   0.00073,3025093.86796,   1.00000
393299514.25215,532945082.10273,-14645500.35223,   0.00365,   0.00266,   0.00054,479323897.35552,   0.00441,279323897.48130,   0.00289,   0.00101,   0.00073,3009491.64926,   1.00000
393288920.66304,532928750.68576,-14928563.02602,   0.00365,   0.00268,   0.00054,479335833.48040,   0.00442,279335835.01206,   0.00289,   0.00102,   0.00073,3010421.25733,   1.00000
393300785.90338,532902864.18029,-15214088.64348,   0.00365,   0.00269,   0.00053,479347745.41167,   0.00443,279347746.57656,   0.00290,   0.00103,   0.00073,3003791.47018,   1.00000
393314986.91233,532874929.39677,-15502248.91368,   0.00366,   0.00270,   0.00053,479359606.75886,   0.00445,279359613.37124,   0.00290,   0.00104,   0.00072,2992402.99189,   1.00000
393339932.77236,532841866.86013,-15792709.52751,   0.00366,   0.00271,   0.00052,479371466.32434,   0.00446,279371469.31476,   0.00291,   0.00105,   0.00072,2989585.97229,   1.00000
393375854.54371,532804157.73755,-16081177.79621,   0.00367,   0.00272,   0.00052,479383307.41057,   0.00447,279383312.72490,   0.00291,   0.00106,   0.00072,2986359.37086,   1.00000
393422338.87300,532761352.39487,-16371951.11199,   0.00367,   0.00273,   0.00051,479395140.10806,   0.00448,279395145.26841,   0.00292,   0.00108,   0.00072,2983565.30460,   1.00000
393482368.88050,532712149.02577,-16665518.75711,   0.00368,   0.00274,   0.00051,479406913.33742,   0.00449,279406918.04200,   0.00292,   0.00109,   0.00072,2968457.20058,   1.00000
393553106.72125,532658383.86247,-16957092.24698,   0.00368,   0.00275,   0.00050,479418678.03742,   0.00450,279418678.15940,   0.00292,   0.00110,   0.00072,2965249.81651,   1.00000
393630661.86447,532600347.78318,-17254721.43067,   0.00368,   0.00276,   0.00049,479430471.75418,   0.00452,279430478.33551,   0.00293,   0.00111,   0.00072,2975313.13539,   1.00000
393721860.36744,532536464.00915,-17550855.23673,   0.00369,   0.00277,   0.00049,479442216.60802,   0.00453,279442216.95590,   0.00293,   0.00112,   0.00071,2959796.22563,   1.00000
393823129.23694,532467519.75047,-17849261.74729,   0.00369,   0.00278,   0.00048,479453939.70725,   0.00454,279453944.93402,   0.00294,   0.00113,   0.00071,2957110.09329,   1.00000
393929063.72502,532395296.45042,-18150856.52661,   0.00370,   0.00279,   0.00048,479465576.49682,   0.00455,279465579.44931,   0.00294,   0.00114,   0.00071,2933540.58186,   1.00000
394050635.40260,532316806.48861,-18449487.90401,   0.00370,   0.00280,   0.00047,479477278.61794,   0.00456,279477284.34190,   0.00294,   0.00115,   0.00071,2951304.95336,   1.00000
394176702.69878,532235036.85820,-18751342.32812,   0.00371,   0.00281,   0.00047,479488888.33603,   0.00457,279488895.85852,   0.00295,   0.00116,   0.00071,2927776.25823,   1.00000
394320926.01472,532145126.80567,-19055054.80151,   0.00371,   0.00282,   0.00046,479500526.42345,   0.00458,279500530.94350,   0.00295,   0.00117,   0.00071,2933761.25384,   1.00000
394466353.18035,532053270.07501,-19361414.46432,   0.00372,   0.00283,   0.00046,479512112.41732,   0.00460,279512121.75746,   0.00296,   0.00118,   0.00070,2922617.75901,   1.00000
394629741.14213,531953266.49617,-19669591.20767,   0.00372,   0.00284,   0.00045,479523731.34975,   0.00461,279523736.36965,   0.00296,   0.00119,   0.00070,2928670.43542,   1.00000
394794579.65618,531851914.02129,-19976130.77725,   0.00373,   0.00285,   0.00044,479535299.16068,   0.00462,279535304.70528,   0.00296,   0.00120,   0.00070,2917044.94622,   1.00000
394980277.59576,531741022.47561,-20285088.11352,   0.00373,   0.00286,   0.00044,479546840.67970,   0.00463,279546848.21574,   0.00297,   0.00121,   0.00070,2910855.51243,   1.00000
395166827.79881,531628192.09721,-20596700.15604,   0.00374,   0.00287,   0.00043,479558340.93216,   0.00464,279558347.73165,   0.00297,   0.00122,   0.00070,2899815.08619,   1.00000
395362566.57563,531510290.12497,-20910522.79640,   0.00374,   0.00288,   0.00043,479569833.27112,   0.00465,279569837.49625,   0.00298,   0.00123,   0.00069,2897411.39182,   1.00000
395575743.67570,531384190.37508,-21226093.96939,   0.00375,   0.00289,   0.00042,479581350.42516,   0.00466,279581351.73558,   0.00298,   0.00124,   0.00069,2903661.10521,   1.00000
395801408.05838,531252238.09020,-21540224.77164,   0.00375,   0.00289,   0.00041,479592801.31818,   0.00467,279592805.36679,   0.00298,   0.00125,   0.00069,2888470.39975,   1.00000
396027572.21593,531118323.67023,-21857017.08330,   0.00376,   0.00290,   0.00041,479604210.78046,   0.00469,279604215.41954,   0.00299,   0.00126,   0.00069,2877552.41047,   1.00000
396270854.87414,530976170.67327,-22175529.89156,   0.00376,   0.00291,   0.00040,479615643.56572,   0.00470,279615650.39181,   0.00299,   0.00127,   0.00069,2883926.03832,   1.00000
396514469.39923,530832032.63678,-22496689.42932,   0.00377,   0.00292,   0.00039,479627034.95633,   0.00471,279627042.08177,   0.00300,   0.00128,   0.00068,2873080.75446,   1.00000
396774999.19445,530679622.09690,-22819526.44036,   0.00378,   0.00293,   0.00039,479638454.48998,   0.00472,279638459.07382,   0.00300,   0.00129,   0.00068,2879553.02364,   1.00000
397047594.19675,530521294.80229,-23140938.32413,   0.00378,   0.00294,   0.00038,479649811.42944,   0.00473,279649816.13292,   0.00300,   0.00130,   0.00068,2864544.01945,   1.00000
397328533.75760,530357806.16735,-23464512.74374,   0.00379,   0.00295,   0.00038,479661158.40679,   0.00474,279661164.54528,   0.00301,   0.00131,   0.00068,2862463.33757,   1.00000
397620865.87963,530187662.51154,-23790948.87316,   0.00379,   0.00296,   0.00037,479672451.53400,   0.00475,279672455.87726,   0.00301,   0.00132,   0.00068,2848170.83201,   1.00000
397918187.75696,530013794.43610,-24118798.38570,   0.00380,   0.00297,   0.00036,479683778.31530,   0.00476,279683787.61121,   0.00302,   0.00133,   0.00067,2858448.56538,   1.00000
398227250.03164,529833947.27620,-24445241.92271,   0.00380,   0.00297,   0.00036,479695057.42170,   0.00477,279695060.01318,   0.00302,   0.00134,   0.00067,2843597.90204,   1.00000
398544263.41513,529648847.66766,-24773822.98337,   0.00381,   0.00298,   0.00035,479706315.14505,   0.00478,279706324.55255,   0.00302,   0.00135,   0.00067,2841709.15246,   1.00000
398871779.75773,529456225.69514,-25109535.47871,   0.00382,   0.00299,   0.00034,479717532.39118,   0.00480,279717535.58499,   0.00303,   0.00136,   0.00067,2828302.61081,   1.00000
399213149.01470,529258174.08448,-25437515.18052,   0.00382,   0.00300,   0.00034,479728811.30813,   0.00481,279728816.69795,   0.00303,   0.00137,   0.00066,2846102.87000,   1.00000
399556570.51134,529055689.19327,-25773188.93791,   0.00383,   0.00301,   0.00033,479740002.84223,   0.00482,279740010.32107,   0.00304,   0.00138,   0.00066,2824116.64952,   1.00000
399918906.73964,528843118.88801,-26111166.98414,   0.00383,   0.00302,   0.00032,479751178.78373,   0.00483,279751183.03874,   0.00304,   0.00139,   0.00066,2818947.04762,   1.00000
400277845.82550,528630723.44305,-26446733.84417,   0.00384,   0.00303,   0.00032,479762355.34141,   0.00484,279762360.06804,   0.00304,   0.00140,   0.00066,2820117.97964,   1.00000
400655504.73227,528408162.18533,-26784608.74181,   0.00385,   0.00303,   0.00031,479773515.53383,   0.00485,279773516.69448,   0.00305,   0.00141,   0.00065,2815073.56605,   1.00000
401040358.73409,528180176.87553,-27124547.75615,   0.00385,   0.00304,   0.00030,479784664.44892,   0.00486,279784667.04926,   0.00305,   0.00142,   0.00065,2813579.30385,   1.00000
401443623.94505,527941919.11914,-27466765.44306,   0.00386,   0.00305,   0.00030,479795795.66453,   0.00487,279795797.70058,   0.00306,   0.00143,   0.00065,2808711.63472,   1.00000
401846306.80824,527702214.82718,-27807365.89682,   0.00386,   0.00306,   0.00029,479806882.50635,   0.00488,279806884.90093,   0.00306,   0.00144,   0.00065,2797835.46399,   1.00000
402263969.83566,527453783.96865,-28149411.37097,   0.00387,   0.00306,   0.00028,479817997.46187,   0.00489,279818001.28211,   0.00306,   0.00145,   0.00064,2805292.81006,   1.00000
402680313.83397,527203043.40615,-28494100.82807,   0.00388,   0.00307,   0.00028,479829072.16958,   0.00491,279829077.61078,   0.00307,   0.00146,   0.00064,2795248.87998,   1.00000
403114640.47763,526941816.61981,-28841045.01072,   0.00388,   0.00308,   0.00027,479840127.69109,   0.00492,279840135.58531,   0.00307,   0.00147,   0.00064,2790688.95602,   1.00000
403555496.45803,526674980.77001,-29189989.68905,   0.00389,   0.00309,   0.00026,479851182.39726,   0.00493,279851188.91596,   0.00308,   0.00148,   0.00064,2789578.64198,   1.00000
404006663.51863,526401661.68085,-29537556.79257,   0.00390,   0.00310,   0.00025,479862184.76277,   0.00494,279862186.53912,   0.00308,   0.00149,   0.00063,2775591.83376,   1.00000
404468245.55900,526120252.65702,-29889827.14460,   0.00390,   0.00310,   0.00025,479873266.26560,   0.00495,279873266.41076,   0.00309,   0.00150,   0.00063,2796399.42718,   1.00000
404935184.25638,525833775.00870,-30242257.49470,   0.00391,   0.00311,   0.00024,479884202.94108,   0.00496,279884208.17431,   0.00309,   0.00151,   0.00063,2761581.25931,   1.00000
405412924.47302,525540034.70160,-30595084.92223,   0.00392,   0.00312,   0.00023,479895220.51391,   0.00497,279895229.62256,   0.00309,   0.00152,   0.00063,2781724.73365,   1.00000
405900577.79027,525239649.31012,-30946541.50888,   0.00393,   0.00312,   0.00022,479906195.43681,   0.00498,279906196.52228,   0.00310,   0.00153,   0.00062,2768010.39862,   1.00000
406401296.98353,524929214.47612,-31303508.67609,   0.00393,   0.00313,   0.00022,479917190.54340,   0.00499,279917199.20321,   0.00310,   0.00154,   0.00062,2777059.68656,   1.00000
406903787.94043,524615311.64638,-31659781.10669,   0.00394,   0.00314,   0.00021,479928104.56652,   0.00500,279928112.90216,   0.00311,   0.00155,   0.00062,2754614.15373,   1.00000
407419788.68213,524292200.74304,-32017282.48405,   0.00395,   0.00315,   0.00020,479939055.99393,   0.00501,279939059.73671,   0.00311,   0.00156,   0.00061,2762990.84203,   1.00000
407941254.07902,523963125.80042,-32376688.43104,   0.00395,   0.00315,   0.00019,479949996.57173,   0.00502,279950004.87635,   0.00311,   0.00157,   0.00061,2762549.61232,   1.00000
408468822.83414,523629036.87427,-32733755.54057,   0.00396,   0.00316,   0.00019,479960943.66828,   0.00503,279960945.01513,   0.00312,   0.00158,   0.00061,2761284.76776,   1.00000
409008301.74874,523285099.25351,-33094676.27622,   0.00397,   0.00317,   0.00018,479971779.39701,   0.00505,279971788.52394,   0.00312,   0.00159,   0.00061,2736864.09152,   1.00000
409556658.88279,522932701.71754,-33459985.18666,   0.00398,   0.00317,   0.00017,479982717.45025,   0.00506,279982718.20183,   0.00313,   0.00160,   0.00060,2758566.85179,   1.00000
410114063.01164,522573205.09846,-33823897.07094,   0.00398,   0.00318,   0.00016,479993590.62601,   0.00507,279993596.39579,   0.00313,   0.00161,   0.00060,2745518.42740,   1.00000
410677109.35557,522208550.78939,-34185432.70559,   0.00399,   0.00319,   0.00016,480004470.78653,   0.00508,280004470.95958,   0.00314,   0.00161,   0.00060,2744553.21208,   1.00000
411251875.50174,521833319.63738,-34552278.11674,   0.00400,   0.00319,   0.00015,480015381.99985,   0.00509,280015385.39167,   0.00314,   0.00162,   0.00059,2754531.68733,   1.00000
