# sigma_xx, sigma_yy, sigma_xy, epsilon_xx, epsilon_yy, epsilon_xy, vonMises, epsPlastic, hardening, epsilonP__xx, epsilonP__yy, epsilonP__xy, yieldValue, iteration
   0.00000,   0.00000,   0.00000,   0.00000,   0.00000,   0.00000,1181185.37500,   0.00000,274640576.00000,   0.00000,   0.00000,   0.00000,-473459392.00000,   0.00000
   0.00000,   0.00000,   0.00000,   0.00000,   0.00000,   0.00000,1181185.37500,   0.00000,274640576.00000,   0.00000,   0.00000,   0.00000,-473459392.00000,   0.00000
-1200213.91154,-1017902.93764,704935.76577,  -0.00000,  -0.00000,   0.00001,1269679.87500,   0.00000,274640576.00000,   0.00000,   0.00000,   0.00000,-473370912.00000,   0.00000
-2409543.37178,-2057075.48890,1409871.53153,  -0.00001,  -0.00000,   0.00002,2845178.25000,   0.00000,274640576.00000,   0.00000,   0.00000,   0.00000,-471795392.00000,   0.00000
-3618872.83202,-3096248.04016,2102653.23237,  -0.00001,  -0.00001,   0.00003,4572884.00000,   0.00000,274640576.00000,   0.00000,   0.00000,   0.00000,-470067680.00000,   0.00000
-4816048.22733,-4147574.65634,2795434.93321,  -0.00001,  -0.00001,   0.00004,6260758.50000,   0.00000,274640576.00000,   0.00000,   0.00000,   0.00000,-468379824.00000,   0.00000
-6043608.78496,-5229286.43485,3488216.63405,  -0.00002,  -0.00001,   0.00005,7933852.00000,   0.00000,274640576.00000,   0.00000,   0.00000,   0.00000,-466706720.00000,   0.00000
-7259015.27766,-6323152.27828,4168844.26997,  -0.00002,  -0.00001,   0.00005,9568536.00000,   0.00000,274640576.00000,   0.00000,   0.00000,   0.00000,-465072032.00000,   0.00000
-8474421.77036,-7417018.12171,4855548.93834,  -0.00002,  -0.00002,   0.00006,11212830.00000,   0.00000,274640576.00000,   0.00000,   0.00000,   0.00000,-463427744.00000,   0.00000
-9720213.42538,-8541269.12746,5530099.54179,  -0.00003,  -0.00002,   0.00007,12870596.00000,   0.00000,274640576.00000,   0.00000,   0.00000,   0.00000,-461769984.00000,   0.00000
-10953851.01547,-9677674.19814,6204650.14524,  -0.00003,  -0.00002,   0.00008,14534322.00000,   0.00000,274640576.00000,   0.00000,   0.00000,   0.00000,-460106256.00000,   0.00000
-12166218.99194,-10804963.72012,6873123.71623,  -0.00003,  -0.00003,   0.00009,16184515.00000,   0.00000,274640576.00000,   0.00000,   0.00000,   0.00000,-458456064.00000,   0.00000
-13408972.13073,-11962638.40441,7535520.25475,  -0.00004,  -0.00003,   0.00010,17850280.00000,   0.00000,274640576.00000,   0.00000,   0.00000,   0.00000,-456790304.00000,   0.00000
-14660840.81821,-13141582.70233,8191839.76081,  -0.00004,  -0.00003,   0.00011,19520198.00000,   0.00000,274640576.00000,   0.00000,   0.00000,   0.00000,-455120384.00000,   0.00000
-15912709.50569,-14320527.00026,8848159.26687,  -0.00004,  -0.00003,   0.00012,21192218.00000,   0.00000,274640576.00000,   0.00000,   0.00000,   0.00000,-453448352.00000,   0.00000
-17152424.12825,-15511625.36310,9504478.77293,  -0.00005,  -0.00004,   0.00012,22864026.00000,   0.00000,274640576.00000,   0.00000,   0.00000,   0.00000,-451776544.00000,   0.00000
-18401254.29950,-16723993.33957,10148644.21406,  -0.00005,  -0.00004,   0.00013,24530814.00000,   0.00000,274640576.00000,   0.00000,   0.00000,   0.00000,-450109760.00000,   0.00000
-19680469.63307,-17966746.47836,10792809.65519,  -0.00005,  -0.00004,   0.00014,26218590.00000,   0.00000,274640576.00000,   0.00000,   0.00000,   0.00000,-448421984.00000,   0.00000
-20938415.35301,-19200384.06845,11430898.06386,  -0.00006,  -0.00005,   0.00015,27886418.00000,   0.00000,274640576.00000,   0.00000,   0.00000,   0.00000,-446754160.00000,   0.00000
-22205476.62166,-20455291.27217,12062909.44006,  -0.00006,  -0.00005,   0.00016,29554866.00000,   0.00000,274640576.00000,   0.00000,   0.00000,   0.00000,-445085712.00000,   0.00000
-23481653.43899,-21731468.08950,12694920.81627,  -0.00006,  -0.00005,   0.00017,31230940.00000,   0.00000,274640576.00000,   0.00000,   0.00000,   0.00000,-443409632.00000,   0.00000
-24757830.25633,-23007644.90684,13320855.16001,  -0.00007,  -0.00006,   0.00017,32896672.00000,   0.00000,274640576.00000,   0.00000,   0.00000,   0.00000,-441743904.00000,   0.00000
-26043122.62236,-24305091.33780,13940712.47129,  -0.00007,  -0.00006,   0.00018,34562936.00000,   0.00000,274640576.00000,   0.00000,   0.00000,   0.00000,-440077632.00000,   0.00000
-27316260.92347,-25614691.83368,14560569.78256,  -0.00007,  -0.00006,   0.00019,36226184.00000,   0.00000,274640576.00000,   0.00000,   0.00000,   0.00000,-438414400.00000,   0.00000
-28619784.38689,-26954677.49189,15174350.06138,  -0.00008,  -0.00007,   0.00020,37903316.00000,   0.00000,274640576.00000,   0.00000,   0.00000,   0.00000,-436737264.00000,   0.00000
-29923307.85031,-28294663.15009,15782053.30773,  -0.00008,  -0.00007,   0.00021,39573444.00000,   0.00000,274640576.00000,   0.00000,   0.00000,   0.00000,-435067136.00000,   0.00000
-31214677.24881,-29646802.87322,16389756.55408,  -0.00008,  -0.00007,   0.00021,41244252.00000,   0.00000,274640576.00000,   0.00000,   0.00000,   0.00000,-433396320.00000,   0.00000
-32515162.19600,-31020212.20997,16985305.73550,  -0.00009,  -0.00008,   0.00022,42914248.00000,   0.00000,274640576.00000,   0.00000,   0.00000,   0.00000,-431726336.00000,   0.00000
-33846032.30550,-32424006.70904,17580854.91693,  -0.00009,  -0.00008,   0.00023,44610276.00000,   0.00000,274640576.00000,   0.00000,   0.00000,   0.00000,-430030304.00000,   0.00000
-35155632.80139,-33818685.65942,18176404.09835,  -0.00009,  -0.00009,   0.00024,46298780.00000,   0.00000,274640576.00000,   0.00000,   0.00000,   0.00000,-428341792.00000,   0.00000
-36474348.84597,-35234634.22342,18759799.21485,  -0.00010,  -0.00009,   0.00024,47988496.00000,   0.00000,274640576.00000,   0.00000,   0.00000,   0.00000,-426652080.00000,   0.00000
-37802180.43925,-36671852.40104,19343194.33134,  -0.00010,  -0.00009,   0.00025,49693424.00000,   0.00000,274640576.00000,   0.00000,   0.00000,   0.00000,-424947152.00000,   0.00000
-39130012.03252,-38109070.57866,19926589.44784,  -0.00010,  -0.00010,   0.00026,51401988.00000,   0.00000,274640576.00000,   0.00000,   0.00000,   0.00000,-423238592.00000,   0.00000
-40466959.17450,-39567558.36990,20497830.49941,  -0.00011,  -0.00010,   0.00027,53110596.00000,   0.00000,274640576.00000,   0.00000,   0.00000,   0.00000,-421529984.00000,   0.00000
-41813021.86516,-41047315.77476,21069071.55098,  -0.00011,  -0.00011,   0.00027,54832412.00000,   0.00000,274640576.00000,   0.00000,   0.00000,   0.00000,-419808160.00000,   0.00000
-43168200.10452,-42548342.79325,21634235.57009,  -0.00011,  -0.00011,   0.00028,56559720.00000,   0.00000,274640576.00000,   0.00000,   0.00000,   0.00000,-418080864.00000,   0.00000
-44502108.73026,-44040254.26304,22193322.55673,  -0.00012,  -0.00011,   0.00029,58268600.00000,   0.00000,274640576.00000,   0.00000,   0.00000,   0.00000,-416371968.00000,   0.00000
-45875518.06702,-45583820.50877,22752409.54337,  -0.00012,  -0.00012,   0.00030,60011480.00000,   0.00000,274640576.00000,   0.00000,   0.00000,   0.00000,-414629088.00000,   0.00000
-47218542.24145,-47097001.59218,23305419.49755,  -0.00012,  -0.00012,   0.00030,61723492.00000,   0.00000,274640576.00000,   0.00000,   0.00000,   0.00000,-412917088.00000,   0.00000
-48601067.12690,-48661837.45154,23852352.41927,  -0.00013,  -0.00013,   0.00031,63461908.00000,   0.00000,274640576.00000,   0.00000,   0.00000,   0.00000,-411178672.00000,   0.00000
-49971437.94742,-50238827.37582,24399285.34098,  -0.00013,  -0.00013,   0.00032,65199188.00000,   0.00000,274640576.00000,   0.00000,   0.00000,   0.00000,-409441392.00000,   0.00000
-51363078.38156,-51824932.84879,24934064.19777,  -0.00013,  -0.00014,   0.00032,66933588.00000,   0.00000,274640576.00000,   0.00000,   0.00000,   0.00000,-407706992.00000,   0.00000
-52742564.75078,-53423192.38669,25468843.05456,  -0.00014,  -0.00014,   0.00033,68667624.00000,   0.00000,274640576.00000,   0.00000,   0.00000,   0.00000,-405972960.00000,   0.00000
-54122051.12000,-55021451.92460,26003621.91135,  -0.00014,  -0.00014,   0.00034,70401632.00000,   0.00000,274640576.00000,   0.00000,   0.00000,   0.00000,-404238944.00000,   0.00000
-55541038.20023,-56671366.23844,26526246.70321,  -0.00014,  -0.00015,   0.00034,72158232.00000,   0.00000,274640576.00000,   0.00000,   0.00000,   0.00000,-402482336.00000,   0.00000
-56938755.66683,-58312165.00359,27048871.49507,  -0.00015,  -0.00015,   0.00035,73904664.00000,   0.00000,274640576.00000,   0.00000,   0.00000,   0.00000,-400735904.00000,   0.00000
-58345588.68213,-59974233.38235,27571496.28693,  -0.00015,  -0.00016,   0.00036,75665080.00000,   0.00000,274640576.00000,   0.00000,   0.00000,   0.00000,-398975488.00000,   0.00000
-59752421.69744,-61636301.76112,28081967.01387,  -0.00015,  -0.00016,   0.00037,77414936.00000,   0.00000,274640576.00000,   0.00000,   0.00000,   0.00000,-397225632.00000,   0.00000
-61177485.81013,-63340909.36714,28592437.74080,  -0.00015,  -0.00017,   0.00037,79192048.00000,   0.00000,274640576.00000,   0.00000,   0.00000,   0.00000,-395448528.00000,   0.00000
-62602549.92282,-65045516.97315,29096831.43527,  -0.00016,  -0.00017,   0.00038,80966240.00000,   0.00000,274640576.00000,   0.00000,   0.00000,   0.00000,-393674336.00000,   0.00000
-64036729.58421,-66771394.19279,29595148.09728,  -0.00016,  -0.00018,   0.00038,82749904.00000,   0.00000,274640576.00000,   0.00000,   0.00000,   0.00000,-391890672.00000,   0.00000
-65470909.24560,-68497271.41242,30093464.75929,  -0.00016,  -0.00018,   0.00039,84537280.00000,   0.00000,274640576.00000,   0.00000,   0.00000,   0.00000,-390103296.00000,   0.00000
-66923320.00438,-70265687.85930,30585704.38883,  -0.00017,  -0.00019,   0.00040,86346648.00000,   0.00000,274640576.00000,   0.00000,   0.00000,   0.00000,-388293920.00000,   0.00000
-68375730.76315,-72034104.30619,31071866.98591,  -0.00017,  -0.00019,   0.00040,88152968.00000,   0.00000,274640576.00000,   0.00000,   0.00000,   0.00000,-386487616.00000,   0.00000
-69815987.45700,-73814674.81799,31558029.58299,  -0.00017,  -0.00020,   0.00041,89963024.00000,   0.00000,274640576.00000,   0.00000,   0.00000,   0.00000,-384677552.00000,   0.00000
-71277513.76448,-75604360.87850,32032038.11515,  -0.00018,  -0.00021,   0.00042,91774496.00000,   0.00000,274640576.00000,   0.00000,   0.00000,   0.00000,-382866080.00000,   0.00000
-72757271.16934,-77436586.16624,32506046.64730,  -0.00018,  -0.00021,   0.00042,93613264.00000,   0.00000,274640576.00000,   0.00000,   0.00000,   0.00000,-381027312.00000,   0.00000
-74237028.57421,-79268811.45399,32980055.17945,  -0.00018,  -0.00022,   0.00043,95453376.00000,   0.00000,274640576.00000,   0.00000,   0.00000,   0.00000,-379187200.00000,   0.00000
-75704631.91414,-81113190.80667,33447986.67914,  -0.00019,  -0.00022,   0.00043,97289088.00000,   0.00000,274640576.00000,   0.00000,   0.00000,   0.00000,-377351488.00000,   0.00000
-77202620.41640,-82987955.32166,33909841.14637,  -0.00019,  -0.00023,   0.00044,99143616.00000,   0.00000,274640576.00000,   0.00000,   0.00000,   0.00000,-375496960.00000,   0.00000
-78700608.91865,-84862719.83665,34365618.58113,  -0.00019,  -0.00023,   0.00045,100992272.00000,   0.00000,274640576.00000,   0.00000,   0.00000,   0.00000,-373648304.00000,   0.00000
-80207712.96960,-86758753.96526,34815318.98343,  -0.00020,  -0.00024,   0.00045,102847704.00000,   0.00000,274640576.00000,   0.00000,   0.00000,   0.00000,-371792864.00000,   0.00000
-81702662.95563,-88666942.15880,35265019.38573,  -0.00020,  -0.00024,   0.00046,104704688.00000,   0.00000,274640576.00000,   0.00000,   0.00000,   0.00000,-369935888.00000,   0.00000
-83227998.10397,-90605515.51466,35708642.75557,  -0.00020,  -0.00025,   0.00046,106580752.00000,   0.00000,274640576.00000,   0.00000,   0.00000,   0.00000,-368059824.00000,   0.00000
-84732063.63868,-92534973.32183,36152266.12541,  -0.00021,  -0.00026,   0.00047,108445848.00000,   0.00000,274640576.00000,   0.00000,   0.00000,   0.00000,-366194720.00000,   0.00000
-86266514.33572,-94494816.29131,36589812.46278,  -0.00021,  -0.00026,   0.00048,110330736.00000,   0.00000,274640576.00000,   0.00000,   0.00000,   0.00000,-364309840.00000,   0.00000
-87810080.58145,-96475928.87441,37021281.76769,  -0.00021,  -0.00027,   0.00048,112224160.00000,   0.00000,274640576.00000,   0.00000,   0.00000,   0.00000,-362416416.00000,   0.00000
-89341492.76225,-98469195.52244,37446674.04013,  -0.00021,  -0.00027,   0.00049,114114696.00000,   0.00000,274640576.00000,   0.00000,   0.00000,   0.00000,-360525888.00000,   0.00000
-90894174.55668,-100471577.71917,37872066.31258,  -0.00022,  -0.00028,   0.00049,116018816.00000,   0.00000,274640576.00000,   0.00000,   0.00000,   0.00000,-358621760.00000,   0.00000
-92434702.28618,-102486113.98082,38285304.52010,  -0.00022,  -0.00029,   0.00050,117914352.00000,   0.00000,274640576.00000,   0.00000,   0.00000,   0.00000,-356726224.00000,   0.00000
-94005615.17800,-104531035.40479,38704619.76008,  -0.00022,  -0.00029,   0.00050,119842576.00000,   0.00000,274640576.00000,   0.00000,   0.00000,   0.00000,-354798000.00000,   0.00000
-95576528.06981,-106575956.82876,39111780.93513,  -0.00023,  -0.00030,   0.00051,121760824.00000,   0.00000,274640576.00000,   0.00000,   0.00000,   0.00000,-352879744.00000,   0.00000
-97144402.44540,-108654301.93128,39518942.11019,  -0.00023,  -0.00030,   0.00051,123695944.00000,   0.00000,274640576.00000,   0.00000,   0.00000,   0.00000,-350944640.00000,   0.00000
-98733546.43461,-110741762.58250,39920026.25278,  -0.00023,  -0.00031,   0.00052,125638992.00000,   0.00000,274640576.00000,   0.00000,   0.00000,   0.00000,-349001584.00000,   0.00000
-100331805.97251,-112850492.84733,40321110.39537,  -0.00024,  -0.00032,   0.00052,127597832.00000,   0.00000,274640576.00000,   0.00000,   0.00000,   0.00000,-347042752.00000,   0.00000
-101908795.89679,-114950107.56347,40716117.50550,  -0.00024,  -0.00032,   0.00053,129541440.00000,   0.00000,274640576.00000,   0.00000,   0.00000,   0.00000,-345099136.00000,   0.00000
-103516170.98339,-117080107.44193,41105047.58316,  -0.00024,  -0.00033,   0.00053,131507576.00000,   0.00000,274640576.00000,   0.00000,   0.00000,   0.00000,-343132992.00000,   0.00000
-105132661.61868,-119231376.93402,41487900.62837,  -0.00025,  -0.00034,   0.00054,133484592.00000,   0.00000,274640576.00000,   0.00000,   0.00000,   0.00000,-341155984.00000,   0.00000
-106736998.18904,-121394800.49102,41870753.67357,  -0.00025,  -0.00034,   0.00054,135466736.00000,   0.00000,274640576.00000,   0.00000,   0.00000,   0.00000,-339173840.00000,   0.00000
-108371719.92173,-123588609.21035,42247529.68630,  -0.00025,  -0.00035,   0.00055,137471936.00000,   0.00000,274640576.00000,   0.00000,   0.00000,   0.00000,-337168640.00000,   0.00000
-110006441.65441,-125782417.92968,42618228.66658,  -0.00026,  -0.00036,   0.00055,139474592.00000,   0.00000,274640576.00000,   0.00000,   0.00000,   0.00000,-335165984.00000,   0.00000
-111629009.32217,-127988380.71393,42988927.64685,  -0.00026,  -0.00036,   0.00056,141481968.00000,   0.00000,274640576.00000,   0.00000,   0.00000,   0.00000,-333158608.00000,   0.00000
-113281962.15224,-130224728.66050,43353549.59466,  -0.00026,  -0.00037,   0.00056,143512016.00000,   0.00000,274640576.00000,   0.00000,   0.00000,   0.00000,-331128560.00000,   0.00000
-114934914.98232,-132461076.60707,43712094.51001,  -0.00026,  -0.00038,   0.00057,145538432.00000,   0.00000,274640576.00000,   0.00000,   0.00000,   0.00000,-329102144.00000,   0.00000
-116596983.36109,-134718694.16726,44070639.42536,  -0.00027,  -0.00039,   0.00057,147580672.00000,   0.00000,274640576.00000,   0.00000,   0.00000,   0.00000,-327059904.00000,   0.00000
-118268167.28855,-136997581.34108,44423107.30824,  -0.00027,  -0.00039,   0.00058,149632656.00000,   0.00000,274640576.00000,   0.00000,   0.00000,   0.00000,-325007920.00000,   0.00000
-119948466.76471,-139297738.12852,44769498.15866,  -0.00027,  -0.00040,   0.00058,151694432.00000,   0.00000,274640576.00000,   0.00000,   0.00000,   0.00000,-322946144.00000,   0.00000
-121628766.24087,-141597894.91595,45115889.00908,  -0.00028,  -0.00041,   0.00059,153757152.00000,   0.00000,274640576.00000,   0.00000,   0.00000,   0.00000,-320883424.00000,   0.00000
-123318181.26572,-143919321.31701,45456202.82704,  -0.00028,  -0.00041,   0.00059,155829488.00000,   0.00000,274640576.00000,   0.00000,   0.00000,   0.00000,-318811088.00000,   0.00000
-125016711.83927,-146262017.33170,45796516.64499,  -0.00028,  -0.00042,   0.00060,157917072.00000,   0.00000,274640576.00000,   0.00000,   0.00000,   0.00000,-316723504.00000,   0.00000
-126715242.41282,-148604713.34638,46124676.39802,  -0.00029,  -0.00043,   0.00060,159995216.00000,   0.00000,274640576.00000,   0.00000,   0.00000,   0.00000,-314645360.00000,   0.00000
-128422888.53507,-150968678.97468,46452836.15105,  -0.00029,  -0.00044,   0.00060,162089264.00000,   0.00000,274640576.00000,   0.00000,   0.00000,   0.00000,-312551312.00000,   0.00000
-130139650.20601,-153353914.21661,46780995.90408,  -0.00029,  -0.00044,   0.00061,164199648.00000,   0.00000,274640576.00000,   0.00000,   0.00000,   0.00000,-310440928.00000,   0.00000
-131865527.42565,-155760419.07216,47097001.59218,  -0.00030,  -0.00045,   0.00061,166316592.00000,   0.00000,274640576.00000,   0.00000,   0.00000,   0.00000,-308323984.00000,   0.00000
-133612674.25891,-158176039.47640,47413007.28028,  -0.00030,  -0.00046,   0.00062,168448544.00000,   0.00000,274640576.00000,   0.00000,   0.00000,   0.00000,-306192032.00000,   0.00000
-135347667.02724,-160603813.94557,47729012.96839,  -0.00030,  -0.00047,   0.00062,170586928.00000,   0.00000,274640576.00000,   0.00000,   0.00000,   0.00000,-304053648.00000,   0.00000
-137091775.34426,-163052858.02837,48038941.62403,  -0.00031,  -0.00047,   0.00062,172739120.00000,   0.00000,274640576.00000,   0.00000,   0.00000,   0.00000,-301901456.00000,   0.00000
-138857153.27491,-165511017.65986,48342793.24720,  -0.00031,  -0.00048,   0.00063,174902640.00000,   0.00000,274640576.00000,   0.00000,   0.00000,   0.00000,-299737936.00000,   0.00000
-140619492.68933,-168002600.96989,48640567.83791,  -0.00031,  -0.00049,   0.00063,177083312.00000,   0.00000,274640576.00000,   0.00000,   0.00000,   0.00000,-297557264.00000,   0.00000
-142393986.16867,-170482030.21501,48938342.42863,  -0.00032,  -0.00050,   0.00064,179265344.00000,   0.00000,274640576.00000,   0.00000,   0.00000,   0.00000,-295375232.00000,   0.00000
-144186710.74541,-173003998.68736,49230039.98687,  -0.00032,  -0.00051,   0.00064,181474800.00000,   0.00000,274640576.00000,   0.00000,   0.00000,   0.00000,-293165776.00000,   0.00000
-145958165.70852,-175516851.61102,49521737.54512,  -0.00032,  -0.00051,   0.00064,183674112.00000,   0.00000,274640576.00000,   0.00000,   0.00000,   0.00000,-290966464.00000,   0.00000
-147760005.83395,-178060089.69700,49807358.07091,  -0.00033,  -0.00052,   0.00065,185895328.00000,   0.00000,274640576.00000,   0.00000,   0.00000,   0.00000,-288745248.00000,   0.00000
-149570961.50808,-180624597.39660,50086901.56423,  -0.00033,  -0.00053,   0.00065,188126016.00000,   0.00000,274640576.00000,   0.00000,   0.00000,   0.00000,-286514560.00000,   0.00000
-151381917.18220,-183189105.09620,50366445.05755,  -0.00033,  -0.00054,   0.00065,190356560.00000,   0.00000,274640576.00000,   0.00000,   0.00000,   0.00000,-284284016.00000,   0.00000
-153201988.40502,-185774882.40942,50639911.51841,  -0.00033,  -0.00055,   0.00066,192597200.00000,   0.00000,274640576.00000,   0.00000,   0.00000,   0.00000,-282043376.00000,   0.00000
-155031175.17654,-188381929.33627,50907300.94680,  -0.00034,  -0.00055,   0.00066,194851072.00000,   0.00000,274640576.00000,   0.00000,   0.00000,   0.00000,-279789504.00000,   0.00000
-156860361.94805,-190988976.26311,51174690.37520,  -0.00034,  -0.00056,   0.00067,197119712.00000,   0.00000,274640576.00000,   0.00000,   0.00000,   0.00000,-277520864.00000,   0.00000
-158698664.26826,-193617292.80358,51436002.77113,  -0.00034,  -0.00057,   0.00067,199391920.00000,   0.00000,274640576.00000,   0.00000,   0.00000,   0.00000,-275248656.00000,   0.00000
-160567351.75079,-196275994.50636,51697315.16706,  -0.00035,  -0.00058,   0.00067,201687952.00000,   0.00000,274640576.00000,   0.00000,   0.00000,   0.00000,-272952624.00000,   0.00000
-162414769.61970,-198925580.66045,51952550.53052,  -0.00035,  -0.00059,   0.00068,203972304.00000,   0.00000,274640576.00000,   0.00000,   0.00000,   0.00000,-270668272.00000,   0.00000
-164292572.65092,-201605551.97686,52201708.86153,  -0.00035,  -0.00060,   0.00068,206276800.00000,   0.00000,274640576.00000,   0.00000,   0.00000,   0.00000,-268363776.00000,   0.00000
-166158221.61722,-204297677.35819,52450867.19253,  -0.00036,  -0.00061,   0.00068,208598288.00000,   0.00000,274640576.00000,   0.00000,   0.00000,   0.00000,-266042288.00000,   0.00000
-168045140.19714,-206998918.28822,52693948.49107,  -0.00036,  -0.00061,   0.00069,210942032.00000,   0.00000,274640576.00000,   0.00000,   0.00000,   0.00000,-263698544.00000,   0.00000
-169941174.32575,-209721428.83187,52937029.78961,  -0.00036,  -0.00062,   0.00069,213309984.00000,   0.00000,274640576.00000,   0.00000,   0.00000,   0.00000,-261330592.00000,   0.00000
-171846324.00306,-212465208.98915,53174034.05569,  -0.00037,  -0.00063,   0.00069,215692512.00000,   0.00000,274640576.00000,   0.00000,   0.00000,   0.00000,-258948064.00000,   0.00000
-173751473.68037,-215208989.14642,53404961.28930,  -0.00037,  -0.00064,   0.00069,218071280.00000,   0.00000,274640576.00000,   0.00000,   0.00000,   0.00000,-256569296.00000,   0.00000
-175665738.90638,-217974038.91732,53635888.52292,  -0.00037,  -0.00065,   0.00070,220464944.00000,   0.00000,274640576.00000,   0.00000,   0.00000,   0.00000,-254175632.00000,   0.00000
-177589119.68108,-220760358.30183,53860738.72407,  -0.00038,  -0.00066,   0.00070,222869296.00000,   0.00000,274640576.00000,   0.00000,   0.00000,   0.00000,-251771280.00000,   0.00000
-179512500.45578,-223546677.68635,54079511.89275,  -0.00038,  -0.00067,   0.00070,225268320.00000,   0.00000,274640576.00000,   0.00000,   0.00000,   0.00000,-249372256.00000,   0.00000
-181444996.77917,-226354266.68449,54298285.06144,  -0.00038,  -0.00068,   0.00071,227678272.00000,   0.00000,274640576.00000,   0.00000,   0.00000,   0.00000,-246962304.00000,   0.00000
-183398762.71619,-229170971.23133,54517058.23013,  -0.00039,  -0.00069,   0.00071,230085232.00000,   0.00000,274640576.00000,   0.00000,   0.00000,   0.00000,-244555344.00000,   0.00000
-185349490.13698,-232021099.45671,54729754.36635,  -0.00039,  -0.00069,   0.00071,232473056.00000,   0.00000,274640576.00000,   0.00000,   0.00000,   0.00000,-242167520.00000,   0.00000
-187312371.62269,-234859073.61717,54936373.47011,  -0.00039,  -0.00070,   0.00071,234826096.00000,   0.00000,274640576.00000,   0.00000,   0.00000,   0.00000,-239814480.00000,   0.00000
-189293484.20579,-237739587.00487,55142992.57387,  -0.00040,  -0.00071,   0.00072,237270848.00000,   0.00000,274640576.00000,   0.00000,   0.00000,   0.00000,-237369728.00000,   0.00000
-191274596.78890,-240620100.39258,55343534.64516,  -0.00040,  -0.00072,   0.00072,239794560.00000,   0.00000,274640576.00000,   0.00000,   0.00000,   0.00000,-234846016.00000,   0.00000
-193264824.92069,-243521883.39390,55537999.68399,  -0.00040,  -0.00073,   0.00072,242331248.00000,   0.00000,274640576.00000,   0.00000,   0.00000,   0.00000,-232309328.00000,   0.00000
-195255053.05249,-246423666.39523,55732464.72283,  -0.00041,  -0.00074,   0.00072,244840384.00000,   0.00000,274640576.00000,   0.00000,   0.00000,   0.00000,-229800192.00000,   0.00000
-197254396.73299,-249346719.01017,55926929.76166,  -0.00041,  -0.00075,   0.00073,247354608.00000,   0.00000,274640576.00000,   0.00000,   0.00000,   0.00000,-227285968.00000,   0.00000
-199275010.02710,-252278887.17382,56115317.76803,  -0.00041,  -0.00076,   0.00073,249879280.00000,   0.00000,274640576.00000,   0.00000,   0.00000,   0.00000,-224761296.00000,   0.00000
-201283469.25629,-255223209.40238,56297628.74193,  -0.00042,  -0.00077,   0.00073,252404768.00000,   0.00000,274640576.00000,   0.00000,   0.00000,   0.00000,-222235808.00000,   0.00000
-203322313.64780,-258197916.79327,56479939.71584,  -0.00042,  -0.00078,   0.00073,254951936.00000,   0.00000,274640576.00000,   0.00000,   0.00000,   0.00000,-219688640.00000,   0.00000
-205361158.03931,-261172624.18416,56656173.65728,  -0.00043,  -0.00079,   0.00074,257487056.00000,   0.00000,274640576.00000,   0.00000,   0.00000,   0.00000,-217153520.00000,   0.00000
-207409117.97951,-264168601.18867,56832407.59872,  -0.00043,  -0.00080,   0.00074,260033424.00000,   0.00000,274640576.00000,   0.00000,   0.00000,   0.00000,-214607152.00000,   0.00000
-209466193.46841,-267185847.80680,57002564.50770,  -0.00043,  -0.00081,   0.00074,262592048.00000,   0.00000,274640576.00000,   0.00000,   0.00000,   0.00000,-212048528.00000,   0.00000
-211523268.95730,-270203094.42493,57166644.38421,  -0.00044,  -0.00082,   0.00074,265151760.00000,   0.00000,274640576.00000,   0.00000,   0.00000,   0.00000,-209488816.00000,   0.00000
-213589459.99490,-273241610.65668,57330724.26073,  -0.00044,  -0.00083,   0.00075,267734336.00000,   0.00000,274640576.00000,   0.00000,   0.00000,   0.00000,-206906240.00000,   0.00000
-215676920.64611,-276289242.43713,57494804.13724,  -0.00044,  -0.00084,   0.00075,270336768.00000,   0.00000,274640576.00000,   0.00000,   0.00000,   0.00000,-204303808.00000,   0.00000
-217752227.23240,-279349028.28251,57652806.98129,  -0.00045,  -0.00085,   0.00075,272946848.00000,   0.00000,274640576.00000,   0.00000,   0.00000,   0.00000,-201693728.00000,   0.00000
-219848803.43231,-282417929.67658,57810809.82535,  -0.00045,  -0.00086,   0.00075,275574432.00000,   0.00000,274640576.00000,   0.00000,   0.00000,   0.00000,-199066144.00000,   0.00000
-221954495.18091,-285508100.68427,57956658.60447,  -0.00045,  -0.00087,   0.00075,278213056.00000,   0.00000,274640576.00000,   0.00000,   0.00000,   0.00000,-196427520.00000,   0.00000
-224069302.47821,-288619541.30559,58108584.41606,  -0.00046,  -0.00088,   0.00076,280870432.00000,   0.00000,274640576.00000,   0.00000,   0.00000,   0.00000,-193770144.00000,   0.00000
-226184109.77551,-291730981.92691,58254433.19518,  -0.00046,  -0.00089,   0.00076,283518784.00000,   0.00000,274640576.00000,   0.00000,   0.00000,   0.00000,-191121792.00000,   0.00000
-228298917.07281,-294842422.54822,58394204.94184,  -0.00046,  -0.00090,   0.00076,286154848.00000,   0.00000,274640576.00000,   0.00000,   0.00000,   0.00000,-188485728.00000,   0.00000
-230453225.08113,-298005517.94548,58533976.68850,  -0.00047,  -0.00091,   0.00076,288824064.00000,   0.00000,274640576.00000,   0.00000,   0.00000,   0.00000,-185816512.00000,   0.00000
-232577147.92712,-301138228.18041,58673748.43516,  -0.00047,  -0.00092,   0.00076,291456512.00000,   0.00000,274640576.00000,   0.00000,   0.00000,   0.00000,-183184064.00000,   0.00000
-234740571.48413,-304322593.19129,58807443.14936,  -0.00047,  -0.00093,   0.00076,294122816.00000,   0.00000,274640576.00000,   0.00000,   0.00000,   0.00000,-180517760.00000,   0.00000
-236894879.49245,-307485688.58855,58935060.83109,  -0.00048,  -0.00094,   0.00077,296769248.00000,   0.00000,274640576.00000,   0.00000,   0.00000,   0.00000,-177871328.00000,   0.00000
-239067418.59815,-310691323.21305,59062678.51283,  -0.00048,  -0.00095,   0.00077,299451072.00000,   0.00000,274640576.00000,   0.00000,   0.00000,   0.00000,-175189504.00000,   0.00000
-241239957.70385,-313896957.83755,59184219.16210,  -0.00049,  -0.00096,   0.00077,302132192.00000,   0.00000,274640576.00000,   0.00000,   0.00000,   0.00000,-172508384.00000,   0.00000
-243433766.42318,-317111708.01074,59305759.81137,  -0.00049,  -0.00097,   0.00077,304818176.00000,   0.00000,274640576.00000,   0.00000,   0.00000,   0.00000,-169822400.00000,   0.00000
-245615421.07758,-320338612.24887,59427300.46064,  -0.00049,  -0.00098,   0.00077,307481120.00000,   0.00000,274640576.00000,   0.00000,   0.00000,   0.00000,-167159456.00000,   0.00000
-247818345.34560,-323574632.03568,59542764.07745,  -0.00050,  -0.00099,   0.00077,310113504.00000,   0.00000,274640576.00000,   0.00000,   0.00000,   0.00000,-164527072.00000,   0.00000
-250030385.16232,-326831921.43612,59652150.66179,  -0.00050,  -0.00100,   0.00078,312766688.00000,   0.00000,274640576.00000,   0.00000,   0.00000,   0.00000,-161873888.00000,   0.00000
-252251540.52773,-330110480.45019,59761537.24613,  -0.00050,  -0.00101,   0.00078,315498272.00000,   0.00000,274640576.00000,   0.00000,   0.00000,   0.00000,-159142304.00000,   0.00000
-254472695.89314,-333389039.46425,59870923.83048,  -0.00051,  -0.00102,   0.00078,318262816.00000,   0.00000,274640576.00000,   0.00000,   0.00000,   0.00000,-156377760.00000,   0.00000
-256715120.87218,-336676714.02701,59974233.38235,  -0.00051,  -0.00103,   0.00078,321045664.00000,   0.00000,274640576.00000,   0.00000,   0.00000,   0.00000,-153594912.00000,   0.00000
-258945391.78628,-339976542.65469,60071465.90177,  -0.00052,  -0.00104,   0.00078,323843040.00000,   0.00000,274640576.00000,   0.00000,   0.00000,   0.00000,-150797536.00000,   0.00000
-261206047.86271,-343306756.44469,60174775.45365,  -0.00052,  -0.00105,   0.00078,326687904.00000,   0.00000,274640576.00000,   0.00000,   0.00000,   0.00000,-147952672.00000,   0.00000
-263466703.93913,-346636970.23470,60265930.94060,  -0.00052,  -0.00106,   0.00078,329540832.00000,   0.00000,274640576.00000,   0.00000,   0.00000,   0.00000,-145099744.00000,   0.00000
-265727360.01556,-349967184.02470,60363163.46002,  -0.00053,  -0.00107,   0.00078,332409216.00000,   0.00000,274640576.00000,   0.00000,   0.00000,   0.00000,-142231360.00000,   0.00000
-267997131.64068,-353318667.42832,60448241.91451,  -0.00053,  -0.00109,   0.00079,335296608.00000,   0.00000,274640576.00000,   0.00000,   0.00000,   0.00000,-139343968.00000,   0.00000
-270266903.26580,-356670150.83195,60539397.40146,  -0.00053,  -0.00110,   0.00079,338192672.00000,   0.00000,274640576.00000,   0.00000,   0.00000,   0.00000,-136447904.00000,   0.00000
-272567060.05323,-360052019.39789,60624475.85595,  -0.00054,  -0.00111,   0.00079,341116064.00000,   0.00000,274640576.00000,   0.00000,   0.00000,   0.00000,-133524512.00000,   0.00000
-274867216.84067,-363433887.96383,60703477.27798,  -0.00054,  -0.00112,   0.00079,344035328.00000,   0.00000,274640576.00000,   0.00000,   0.00000,   0.00000,-130605248.00000,   0.00000
-277176489.17681,-366837026.14339,60782478.70000,  -0.00055,  -0.00113,   0.00079,346967712.00000,   0.00000,274640576.00000,   0.00000,   0.00000,   0.00000,-127672864.00000,   0.00000
-279485761.51294,-370240164.32296,60861480.12203,  -0.00055,  -0.00114,   0.00079,349894464.00000,   0.00000,274640576.00000,   0.00000,   0.00000,   0.00000,-124746112.00000,   0.00000
-281804149.39777,-373664572.11614,60934404.51159,  -0.00055,  -0.00115,   0.00079,352827712.00000,   0.00000,274640576.00000,   0.00000,   0.00000,   0.00000,-121812864.00000,   0.00000
-284143806.89622,-377098095.45803,61007328.90115,  -0.00056,  -0.00116,   0.00079,355765056.00000,   0.00000,274640576.00000,   0.00000,   0.00000,   0.00000,-118875520.00000,   0.00000
-286462194.78104,-380522503.25121,61074176.25825,  -0.00056,  -0.00117,   0.00079,358679936.00000,   0.00000,274640576.00000,   0.00000,   0.00000,   0.00000,-115960640.00000,   0.00000
-288810967.82819,-383977296.20672,61141023.61535,  -0.00057,  -0.00118,   0.00079,361615904.00000,   0.00000,274640576.00000,   0.00000,   0.00000,   0.00000,-113024672.00000,   0.00000
-291159740.87534,-387432089.16222,61207870.97245,  -0.00057,  -0.00120,   0.00080,364545440.00000,   0.00000,274640576.00000,   0.00000,   0.00000,   0.00000,-110095136.00000,   0.00000
-293517629.47118,-390908151.73135,61268641.29708,  -0.00057,  -0.00121,   0.00080,367483136.00000,   0.00000,274640576.00000,   0.00000,   0.00000,   0.00000,-107157440.00000,   0.00000
-295896787.68064,-394393329.84917,61323334.58925,  -0.00058,  -0.00122,   0.00080,370425600.00000,   0.00000,274640576.00000,   0.00000,   0.00000,   0.00000,-104214976.00000,   0.00000
-298263791.82518,-397890662.03192,61384104.91389,  -0.00058,  -0.00123,   0.00080,373373792.00000,   0.00000,274640576.00000,   0.00000,   0.00000,   0.00000,-101266784.00000,   0.00000
-300652065.58333,-401397109.76336,61432721.17360,  -0.00059,  -0.00124,   0.00080,376327776.00000,   0.00000,274640576.00000,   0.00000,   0.00000,   0.00000,-98312800.00000,   0.00000
-303040339.34149,-404903557.49480,61487414.46577,  -0.00059,  -0.00125,   0.00080,379287488.00000,   0.00000,274640576.00000,   0.00000,   0.00000,   0.00000,-95353088.00000,   0.00000
-305437728.64835,-408431274.83987,61536030.72548,  -0.00059,  -0.00126,   0.00080,382266080.00000,   0.00000,274640576.00000,   0.00000,   0.00000,   0.00000,-92374496.00000,   0.00000
-307856387.56882,-411968107.73363,61584646.98518,  -0.00060,  -0.00127,   0.00080,385264416.00000,   0.00000,274640576.00000,   0.00000,   0.00000,   0.00000,-89376160.00000,   0.00000
-310253776.87568,-415495825.07870,61627186.21243,  -0.00060,  -0.00129,   0.00080,388258400.00000,   0.00000,274640576.00000,   0.00000,   0.00000,   0.00000,-86382176.00000,   0.00000
-312681551.34485,-419053927.58608,61669725.43967,  -0.00061,  -0.00130,   0.00080,391292128.00000,   0.00000,274640576.00000,   0.00000,   0.00000,   0.00000,-83348448.00000,   0.00000
-315109325.81402,-422612030.09346,61712264.66692,  -0.00061,  -0.00131,   0.00080,394338528.00000,   0.00000,274640576.00000,   0.00000,   0.00000,   0.00000,-80302048.00000,   0.00000
-317546215.83188,-426191402.21447,61748726.86170,  -0.00061,  -0.00132,   0.00080,397411520.00000,   0.00000,274640576.00000,   0.00000,   0.00000,   0.00000,-77229056.00000,   0.00000
-320004375.46337,-429779889.88417,61785189.05648,  -0.00062,  -0.00133,   0.00080,400508384.00000,   0.00000,274640576.00000,   0.00000,   0.00000,   0.00000,-74132192.00000,   0.00000
-322441265.48124,-433359262.00518,61815574.21880,  -0.00062,  -0.00134,   0.00080,403602112.00000,   0.00000,274640576.00000,   0.00000,   0.00000,   0.00000,-71038464.00000,   0.00000
-324908540.66142,-436969019.28850,61845959.38112,  -0.00063,  -0.00135,   0.00080,406734784.00000,   0.00000,274640576.00000,   0.00000,   0.00000,   0.00000,-67905792.00000,   0.00000
-327375815.84161,-440578776.57182,61876344.54343,  -0.00063,  -0.00137,   0.00080,409876672.00000,   0.00000,274640576.00000,   0.00000,   0.00000,   0.00000,-64763904.00000,   0.00000
-329843091.02179,-444188533.85515,61900652.67329,  -0.00063,  -0.00138,   0.00080,413023872.00000,   0.00000,274640576.00000,   0.00000,   0.00000,   0.00000,-61616704.00000,   0.00000
-332340751.36429,-447828676.30079,61924960.80314,  -0.00064,  -0.00139,   0.00081,416206976.00000,   0.00000,274640576.00000,   0.00000,   0.00000,   0.00000,-58433600.00000,   0.00000
-334817142.09317,-451459703.19773,61949268.93299,  -0.00064,  -0.00140,   0.00081,419384800.00000,   0.00000,274640576.00000,   0.00000,   0.00000,   0.00000,-55255776.00000,   0.00000
-337314802.43567,-455099845.64338,61967500.03039,  -0.00065,  -0.00141,   0.00081,422576896.00000,   0.00000,274640576.00000,   0.00000,   0.00000,   0.00000,-52063680.00000,   0.00000
-339821578.32687,-458761257.70264,61985731.12778,  -0.00065,  -0.00142,   0.00081,425790016.00000,   0.00000,274640576.00000,   0.00000,   0.00000,   0.00000,-48850560.00000,   0.00000
-342319238.66937,-462401400.14828,62003962.22517,  -0.00066,  -0.00144,   0.00081,428987040.00000,   0.00000,274640576.00000,   0.00000,   0.00000,   0.00000,-45653536.00000,   0.00000
-344856399.72289,-466093197.36986,62016116.29009,  -0.00066,  -0.00145,   0.00081,432224608.00000,   0.00000,274640576.00000,   0.00000,   0.00000,   0.00000,-42415968.00000,   0.00000
-347363175.61408,-469754609.42912,62028270.35502,  -0.00066,  -0.00146,   0.00081,435425216.00000,   0.00000,274640576.00000,   0.00000,   0.00000,   0.00000,-39215360.00000,   0.00000
-349900336.66760,-473446406.65070,62040424.41995,  -0.00067,  -0.00147,   0.00081,438642336.00000,   0.00000,274640576.00000,   0.00000,   0.00000,   0.00000,-35998240.00000,   0.00000
-352437497.72111,-477138203.87229,62046501.45241,  -0.00067,  -0.00148,   0.00081,441842112.00000,   0.00000,274640576.00000,   0.00000,   0.00000,   0.00000,-32798464.00000,   0.00000
-354974658.77463,-480830001.09387,62052578.48487,  -0.00068,  -0.00150,   0.00081,445028192.00000,   0.00000,274640576.00000,   0.00000,   0.00000,   0.00000,-29612384.00000,   0.00000
-357542204.99046,-484552183.47776,62058655.51734,  -0.00068,  -0.00151,   0.00081,448232960.00000,   0.00000,274640576.00000,   0.00000,   0.00000,   0.00000,-26407616.00000,   0.00000
-360088481.59267,-488265250.31297,62058655.51734,  -0.00069,  -0.00152,   0.00081,451422496.00000,   0.00000,274640576.00000,   0.00000,   0.00000,   0.00000,-23218080.00000,   0.00000
-362656027.80850,-491987432.69687,62058655.51734,  -0.00069,  -0.00153,   0.00081,454644384.00000,   0.00000,274640576.00000,   0.00000,   0.00000,   0.00000,-19996192.00000,   0.00000
-365223574.02433,-495709615.08076,62058655.51734,  -0.00070,  -0.00154,   0.00081,457858144.00000,   0.00000,274640576.00000,   0.00000,   0.00000,   0.00000,-16782432.00000,   0.00000
-367821505.40248,-499462182.62698,62058655.51734,  -0.00070,  -0.00156,   0.00081,461006624.00000,   0.00000,274640576.00000,   0.00000,   0.00000,   0.00000,-13633952.00000,   0.00000
-370398167.16701,-503205634.62450,62052578.48487,  -0.00070,  -0.00157,   0.00081,464273216.00000,   0.00000,274640576.00000,   0.00000,   0.00000,   0.00000,-10367360.00000,   0.00000
-372996098.54516,-506958202.17072,62046501.45241,  -0.00071,  -0.00158,   0.00081,467530592.00000,   0.00000,274640576.00000,   0.00000,   0.00000,   0.00000,-7109984.00000,   0.00000
-375594029.92331,-510710769.71693,62034347.38748,  -0.00071,  -0.00159,   0.00081,470767744.00000,   0.00000,274640576.00000,   0.00000,   0.00000,   0.00000,-3872832.00000,   0.00000
-378201076.85015,-514484606.87677,62022193.32256,  -0.00072,  -0.00160,   0.00081,474018784.00000,   0.00000,274640576.00000,   0.00000,   0.00000,   0.00000,-621792.00000,   0.00000
-378701586.34760,-515204993.37888,62019878.82777,  -0.00072,  -0.00161,   0.00081,474640128.00000,   0.00000,274640576.00000,   0.00000,   0.00000,   0.00000,-448.00000,   0.00000
-378860319.36034,-515395455.98095,61607762.91575,  -0.00072,  -0.00162,   0.00081,474640128.00000,   0.00001,274649984.00000,  -0.00000,  -0.00001,   0.00001,  32.00000,   2.00000
-379042259.37962,-515630008.68299,61103641.50552,  -0.00073,  -0.00163,   0.00081,477901408.00000,   0.00002,274661568.00000,  -0.00001,  -0.00002,   0.00001,  32.00000,   2.00000
-379233667.34001,-515857940.97907,60601297.66753,  -0.00073,  -0.00164,   0.00081,477925728.00000,   0.00003,274673216.00000,  -0.00001,  -0.00003,   0.00002, 160.00000,   2.00000
-379423483.43443,-516085064.56631,60096784.19194,  -0.00074,  -0.00165,   0.00081,477936128.00000,   0.00004,274684832.00000,  -0.00002,  -0.00004,   0.00002,  32.00000,   2.00000
-379606722.17608,-516311867.33163,59593377.55253,  -0.00074,  -0.00166,   0.00081,477965632.00000,   0.00005,274696512.00000,  -0.00002,  -0.00005,   0.00003, -32.00000,   2.00000
-379801049.23731,-516534372.25484,59086216.74657,  -0.00075,  -0.00168,   0.00081,477987744.00000,   0.00006,274708224.00000,  -0.00002,  -0.00007,   0.00004,  64.00000,   2.00000
-379978054.25910,-516754823.10852,58590157.28690,  -0.00075,  -0.00169,   0.00080,477991200.00000,   0.00007,274719904.00000,  -0.00003,  -0.00008,   0.00004,  96.00000,   2.00000
-380166077.42783,-516970751.49442,58090348.70101,  -0.00075,  -0.00170,   0.00080,478013472.00000,   0.00008,274731616.00000,  -0.00003,  -0.00009,   0.00005,  64.00000,   2.00000
-380351059.88154,-517183540.55306,57594274.81642,  -0.00076,  -0.00171,   0.00080,478026080.00000,   0.00009,274743296.00000,  -0.00004,  -0.00010,   0.00006, 128.00000,   2.00000
-380543448.11943,-517394466.04641,57092154.42008,  -0.00076,  -0.00172,   0.00080,478065280.00000,   0.00010,274755072.00000,  -0.00004,  -0.00011,   0.00006,  96.00000,   2.00000
-380722200.36489,-517600696.95803,56603600.16020,  -0.00077,  -0.00174,   0.00080,478051744.00000,   0.00011,274766784.00000,  -0.00005,  -0.00012,   0.00007,   0.00000,   2.00000
-380908500.19433,-517805187.41085,56109080.62783,  -0.00077,  -0.00175,   0.00080,478090784.00000,   0.00013,274778560.00000,  -0.00005,  -0.00014,   0.00007,   0.00000,   2.00000
-381093354.21531,-518008785.85023,55612667.33559,  -0.00078,  -0.00176,   0.00080,478101504.00000,   0.00014,274790304.00000,  -0.00005,  -0.00015,   0.00008,  96.00000,   2.00000
-381273539.56736,-518206727.38729,55125856.22420,  -0.00078,  -0.00177,   0.00080,478116448.00000,   0.00015,274802080.00000,  -0.00006,  -0.00016,   0.00009,  64.00000,   2.00000
-381464685.37832,-518400016.42607,54635548.75273,  -0.00079,  -0.00179,   0.00080,478138720.00000,   0.00016,274813856.00000,  -0.00006,  -0.00017,   0.00009,  32.00000,   2.00000
-381639019.40585,-518591772.03772,54156480.56286,  -0.00079,  -0.00180,   0.00080,478141920.00000,   0.00017,274825632.00000,  -0.00007,  -0.00018,   0.00010,  64.00000,   2.00000
-381820602.24711,-518781312.76503,53671643.27016,  -0.00080,  -0.00181,   0.00080,478181440.00000,   0.00018,274837472.00000,  -0.00007,  -0.00019,   0.00010, -64.00000,   2.00000
-382004473.96268,-518967397.05269,53187218.11860,  -0.00080,  -0.00182,   0.00080,478175104.00000,   0.00019,274849248.00000,  -0.00008,  -0.00021,   0.00011,  96.00000,   2.00000
-382180279.46238,-519150784.78430,52710265.29390,  -0.00081,  -0.00184,   0.00080,478206912.00000,   0.00020,274861088.00000,  -0.00008,  -0.00022,   0.00011,  32.00000,   2.00000
-382367054.89684,-519329501.47998,52229935.61788,  -0.00081,  -0.00185,   0.00080,478229504.00000,   0.00021,274872960.00000,  -0.00008,  -0.00023,   0.00012, 160.00000,   2.00000
-382550803.66229,-519505003.03504,51753552.64619,  -0.00082,  -0.00186,   0.00080,478242528.00000,   0.00022,274884832.00000,  -0.00009,  -0.00024,   0.00013,  64.00000,   2.00000
-382731704.49630,-519677519.18915,51281123.12534,  -0.00082,  -0.00187,   0.00080,478255424.00000,   0.00023,274896672.00000,  -0.00009,  -0.00025,   0.00013, 192.00000,   2.00000
-382911189.87663,-519849113.53424,50806838.36551,  -0.00083,  -0.00188,   0.00080,478266336.00000,   0.00024,274908544.00000,  -0.00010,  -0.00027,   0.00014,  64.00000,   2.00000
-383086396.87152,-520015585.82682,50342292.01053,  -0.00083,  -0.00190,   0.00080,478281152.00000,   0.00026,274920416.00000,  -0.00010,  -0.00028,   0.00014,  64.00000,   2.00000
-383272565.37142,-520177431.32687,49874405.84377,  -0.00084,  -0.00191,   0.00080,478303840.00000,   0.00027,274932288.00000,  -0.00011,  -0.00029,   0.00015,  32.00000,   2.00000
-383443660.74004,-520340221.73977,49411892.99663,  -0.00084,  -0.00192,   0.00080,478305056.00000,   0.00028,274944128.00000,  -0.00011,  -0.00030,   0.00015,  32.00000,   2.00000
-383624273.02964,-520496241.15135,48951845.42353,  -0.00085,  -0.00193,   0.00080,478329728.00000,   0.00029,274956032.00000,  -0.00012,  -0.00031,   0.00016, -32.00000,   2.00000
-383811982.55665,-520650101.14784,48486451.10193,  -0.00085,  -0.00195,   0.00079,478369600.00000,   0.00030,274968000.00000,  -0.00012,  -0.00033,   0.00016, 192.00000,   2.00000
-383987042.59435,-520800473.11272,48034231.84933,  -0.00086,  -0.00196,   0.00079,478355808.00000,   0.00031,274979904.00000,  -0.00012,  -0.00034,   0.00017,  64.00000,   2.00000
-384172976.65648,-520946155.98349,47578647.43253,  -0.00086,  -0.00197,   0.00079,478378656.00000,   0.00032,274991808.00000,  -0.00013,  -0.00035,   0.00017,  32.00000,   2.00000
-384340218.69570,-521095533.16156,47126335.34472,  -0.00087,  -0.00198,   0.00079,478396896.00000,   0.00033,275003744.00000,  -0.00013,  -0.00036,   0.00018,  96.00000,   2.00000
-384520945.28112,-521235914.75229,46678477.36803,  -0.00087,  -0.00200,   0.00079,478404672.00000,   0.00034,275015648.00000,  -0.00014,  -0.00037,   0.00018, 128.00000,   2.00000
-384707306.70252,-521372108.63891,46231144.75156,  -0.00088,  -0.00201,   0.00079,478446560.00000,   0.00035,275027680.00000,  -0.00014,  -0.00039,   0.00019,  96.00000,   2.00000
-384884034.61103,-521509165.40964,45785053.63659,  -0.00088,  -0.00202,   0.00079,478429152.00000,   0.00036,275039584.00000,  -0.00015,  -0.00040,   0.00019,  32.00000,   2.00000
-385066434.65054,-521642056.02063,45339525.58022,  -0.00089,  -0.00203,   0.00079,478470944.00000,   0.00038,275051584.00000,  -0.00015,  -0.00041,   0.00020, 128.00000,   2.00000
-385248791.50680,-521768093.88465,44905500.05299,  -0.00089,  -0.00204,   0.00079,478468800.00000,   0.00039,275063520.00000,  -0.00016,  -0.00042,   0.00020,  64.00000,   2.00000
-385426061.12779,-521896025.14088,44467459.92247,  -0.00090,  -0.00206,   0.00079,478497056.00000,   0.00040,275075520.00000,  -0.00016,  -0.00043,   0.00021, 128.00000,   2.00000
-385604814.58491,-522019237.36798,44034980.23507,  -0.00090,  -0.00207,   0.00079,478493088.00000,   0.00041,275087456.00000,  -0.00017,  -0.00045,   0.00021,  64.00000,   2.00000
-385794402.57287,-522137821.37804,43599018.45360,  -0.00091,  -0.00208,   0.00079,478516256.00000,   0.00042,275099424.00000,  -0.00017,  -0.00046,   0.00022,  32.00000,   2.00000
-385964223.39406,-522258629.78328,43172025.16785,  -0.00091,  -0.00209,   0.00079,478536128.00000,   0.00043,275111392.00000,  -0.00017,  -0.00047,   0.00022,  96.00000,   2.00000
-386148932.15152,-522372517.92538,42743299.41483,  -0.00092,  -0.00211,   0.00078,478542336.00000,   0.00044,275123360.00000,  -0.00018,  -0.00048,   0.00023,  64.00000,   2.00000
-386331323.24755,-522484301.13858,42318163.46014,  -0.00092,  -0.00212,   0.00078,478555360.00000,   0.00045,275135328.00000,  -0.00018,  -0.00050,   0.00023,  64.00000,   2.00000
-386518129.87677,-522590284.95578,41899445.95745,  -0.00093,  -0.00213,   0.00078,478598880.00000,   0.00046,275147360.00000,  -0.00019,  -0.00051,   0.00024, 160.00000,   2.00000
-386695732.52590,-522697639.45277,41481296.68418,  -0.00093,  -0.00214,   0.00078,478581440.00000,   0.00047,275159328.00000,  -0.00019,  -0.00052,   0.00024,  32.00000,   2.00000
-386884327.67345,-522800586.72019,41059532.13828,  -0.00094,  -0.00216,   0.00078,478604704.00000,   0.00048,275171296.00000,  -0.00020,  -0.00053,   0.00025,  96.00000,   2.00000
-387069380.76305,-522899701.20536,40647103.21337,  -0.00094,  -0.00217,   0.00078,478619168.00000,   0.00050,275183296.00000,  -0.00020,  -0.00054,   0.00025,  32.00000,   2.00000
-387252277.02732,-522996947.64551,40238062.20769,  -0.00095,  -0.00218,   0.00078,478632160.00000,   0.00051,275195264.00000,  -0.00021,  -0.00056,   0.00026,  96.00000,   2.00000
-387433945.99104,-523093632.28377,39826452.19296,  -0.00095,  -0.00219,   0.00078,478643616.00000,   0.00052,275207232.00000,  -0.00021,  -0.00057,   0.00026,   0.00000,   2.00000
-387625560.57090,-523184464.60807,39417046.18109,  -0.00096,  -0.00221,   0.00078,478668224.00000,   0.00053,275219232.00000,  -0.00022,  -0.00058,   0.00026, 128.00000,   2.00000
-387801739.70519,-523275731.09728,39017964.65172,  -0.00096,  -0.00222,   0.00078,478670720.00000,   0.00054,275231200.00000,  -0.00022,  -0.00059,   0.00027,  64.00000,   2.00000
-387993072.47791,-523360517.36304,38616697.10895,  -0.00097,  -0.00223,   0.00078,478676864.00000,   0.00055,275243168.00000,  -0.00023,  -0.00061,   0.00027,  96.00000,   2.00000
-388178209.35713,-523445790.96810,38217035.99419,  -0.00098,  -0.00224,   0.00077,478706720.00000,   0.00056,275255168.00000,  -0.00023,  -0.00062,   0.00028,  96.00000,   2.00000
-388378259.75432,-523524356.87985,37815134.72851,  -0.00098,  -0.00225,   0.00077,478712928.00000,   0.00057,275267136.00000,  -0.00023,  -0.00063,   0.00028,  96.00000,   2.00000
-388559062.92670,-523606081.48423,37421854.98567,  -0.00099,  -0.00227,   0.00077,478732192.00000,   0.00058,275279136.00000,  -0.00024,  -0.00064,   0.00029,  96.00000,   2.00000
-388753885.73650,-523679766.82688,37032158.83985,  -0.00099,  -0.00228,   0.00077,478739840.00000,   0.00060,275291104.00000,  -0.00024,  -0.00065,   0.00029, 128.00000,   2.00000
-388947577.42869,-523753231.83863,36639619.09820,  -0.00100,  -0.00229,   0.00077,478751136.00000,   0.00061,275303072.00000,  -0.00025,  -0.00067,   0.00029,   0.00000,   2.00000
-389138200.50047,-523823680.72438,36256075.32099,  -0.00100,  -0.00230,   0.00077,478765088.00000,   0.00062,275315008.00000,  -0.00025,  -0.00068,   0.00030,  96.00000,   2.00000
-389327856.84791,-523894113.00974,35869629.25029,  -0.00101,  -0.00232,   0.00077,478776320.00000,   0.00063,275326976.00000,  -0.00026,  -0.00069,   0.00030, 160.00000,   2.00000
-389519555.38405,-523960719.27171,35487686.44181,  -0.00101,  -0.00233,   0.00077,478771936.00000,   0.00064,275338880.00000,  -0.00026,  -0.00070,   0.00031, 160.00000,   2.00000
-389716943.38564,-524023801.12642,35106187.74394,  -0.00102,  -0.00234,   0.00077,478813344.00000,   0.00065,275350880.00000,  -0.00027,  -0.00072,   0.00031, 128.00000,   2.00000
-389916377.51145,-524083216.90409,34729126.26252,  -0.00102,  -0.00235,   0.00077,478808928.00000,   0.00066,275362816.00000,  -0.00027,  -0.00073,   0.00031,  96.00000,   2.00000
-390113770.02537,-524141290.19185,34354992.18025,  -0.00103,  -0.00236,   0.00076,478821344.00000,   0.00067,275374752.00000,  -0.00028,  -0.00074,   0.00032,  64.00000,   2.00000
-390309083.20785,-524197965.66428,33983754.37376,  -0.00104,  -0.00238,   0.00076,478833792.00000,   0.00068,275386656.00000,  -0.00028,  -0.00075,   0.00032,  96.00000,   2.00000
-390502402.02644,-524253369.29398,33615397.68790,  -0.00104,  -0.00239,   0.00076,478846208.00000,   0.00069,275398592.00000,  -0.00029,  -0.00077,   0.00033, 160.00000,   2.00000
-390706384.01694,-524304472.02880,33242970.96820,  -0.00105,  -0.00240,   0.00076,478869408.00000,   0.00070,275410560.00000,  -0.00029,  -0.00078,   0.00033,  64.00000,   2.00000
-390899714.96524,-524355087.37623,32881744.77805,  -0.00105,  -0.00241,   0.00076,478854048.00000,   0.00072,275422400.00000,  -0.00030,  -0.00079,   0.00033,  96.00000,   2.00000
-391102803.19427,-524400204.80456,32522337.15100,  -0.00106,  -0.00243,   0.00076,478878304.00000,   0.00073,275434304.00000,  -0.00030,  -0.00080,   0.00034,  96.00000,   2.00000
-391304690.22075,-524445465.36133,32159784.17261,  -0.00106,  -0.00244,   0.00076,478889408.00000,   0.00074,275446208.00000,  -0.00031,  -0.00081,   0.00034,  96.00000,   2.00000
-391503540.80985,-524488262.05501,31805986.15306,  -0.00107,  -0.00245,   0.00076,478902944.00000,   0.00075,275458112.00000,  -0.00031,  -0.00083,   0.00034, 128.00000,   2.00000
-391701183.21968,-524531220.87903,31449009.63857,  -0.00107,  -0.00246,   0.00076,478914016.00000,   0.00076,275469984.00000,  -0.00032,  -0.00084,   0.00035, 128.00000,   2.00000
-391912647.46677,-524566568.63002,31095209.67500,  -0.00108,  -0.00247,   0.00076,478921408.00000,   0.00077,275481856.00000,  -0.00032,  -0.00085,   0.00035,  32.00000,   2.00000
-392121829.10800,-524600840.18318,30744176.82509,  -0.00109,  -0.00249,   0.00075,478933600.00000,   0.00078,275493728.00000,  -0.00033,  -0.00086,   0.00035,  32.00000,   2.00000
-392317074.80473,-524638447.52586,30396821.40144,  -0.00109,  -0.00250,   0.00075,478933824.00000,   0.00079,275505536.00000,  -0.00033,  -0.00088,   0.00036, 128.00000,   2.00000
-392521023.62814,-524669491.24130,30057239.67835,  -0.00110,  -0.00251,   0.00075,478959168.00000,   0.00080,275517408.00000,  -0.00033,  -0.00089,   0.00036, 128.00000,   2.00000
-392727805.56065,-524698577.13634,29715666.98199,  -0.00110,  -0.00252,   0.00075,478953376.00000,   0.00081,275529216.00000,  -0.00034,  -0.00090,   0.00036, 128.00000,   2.00000
-392943976.45960,-524722407.32138,29375915.51734,  -0.00111,  -0.00253,   0.00075,478977536.00000,   0.00083,275541056.00000,  -0.00034,  -0.00091,   0.00037, -64.00000,   2.00000
-393146150.36283,-524749801.60591,29039763.31122,  -0.00111,  -0.00255,   0.00075,478977728.00000,   0.00084,275552832.00000,  -0.00035,  -0.00092,   0.00037, 128.00000,   2.00000
-393358508.68698,-524773133.01048,28699486.01669,  -0.00112,  -0.00256,   0.00075,479000960.00000,   0.00085,275564672.00000,  -0.00035,  -0.00094,   0.00037,  64.00000,   2.00000
-393560175.11862,-524796475.04501,28369969.72230,  -0.00113,  -0.00257,   0.00075,478985248.00000,   0.00086,275576384.00000,  -0.00036,  -0.00095,   0.00038,   0.00000,   2.00000
-393771323.20994,-524814889.51773,28042278.29888,  -0.00113,  -0.00258,   0.00075,479009408.00000,   0.00087,275588160.00000,  -0.00036,  -0.00096,   0.00038, 160.00000,   2.00000
-393979825.84145,-524832247.54909,27717236.15243,  -0.00114,  -0.00259,   0.00074,479021760.00000,   0.00088,275599904.00000,  -0.00037,  -0.00097,   0.00038,  32.00000,   2.00000
-394190343.96464,-524846872.18873,27396037.47760,  -0.00114,  -0.00260,   0.00074,479016928.00000,   0.00089,275611616.00000,  -0.00037,  -0.00099,   0.00039,   0.00000,   2.00000
-394410777.69334,-524857553.32878,27070696.31738,  -0.00115,  -0.00262,   0.00074,479040032.00000,   0.00090,275623328.00000,  -0.00038,  -0.00100,   0.00039,  96.00000,   2.00000
-394616158.01444,-524870708.14338,26754810.44521,  -0.00116,  -0.00263,   0.00074,479041376.00000,   0.00091,275635008.00000,  -0.00038,  -0.00101,   0.00039,  96.00000,   2.00000
-394830617.28180,-524878790.60725,26440746.21810,  -0.00116,  -0.00264,   0.00074,479065632.00000,   0.00092,275646752.00000,  -0.00039,  -0.00102,   0.00040,  96.00000,   2.00000
-395036170.01289,-524889685.17129,26125267.98899,  -0.00117,  -0.00265,   0.00074,479047712.00000,   0.00093,275658368.00000,  -0.00039,  -0.00103,   0.00040,  64.00000,   2.00000
-395249874.48820,-524894313.13284,25817599.44069,  -0.00117,  -0.00266,   0.00074,479072992.00000,   0.00094,275670016.00000,  -0.00040,  -0.00105,   0.00040, -32.00000,   2.00000
-395461043.21193,-524898484.06460,25512536.26790,  -0.00118,  -0.00267,   0.00074,479085184.00000,   0.00096,275681696.00000,  -0.00040,  -0.00106,   0.00040, 160.00000,   2.00000
-395674746.93379,-524900964.48097,25205174.13389,  -0.00118,  -0.00269,   0.00073,479079552.00000,   0.00097,275693280.00000,  -0.00041,  -0.00107,   0.00041,  64.00000,   2.00000
-395885063.46836,-524901860.04594,24906391.03167,  -0.00119,  -0.00270,   0.00073,479092576.00000,   0.00098,275704864.00000,  -0.00041,  -0.00108,   0.00041,  64.00000,   2.00000
-396109423.96857,-524896723.11092,24604501.19790,  -0.00120,  -0.00271,   0.00073,479098976.00000,   0.00099,275716416.00000,  -0.00042,  -0.00109,   0.00041, 128.00000,   2.00000
-396318769.64723,-524894473.96070,24311904.00512,  -0.00120,  -0.00272,   0.00073,479100032.00000,   0.00100,275727936.00000,  -0.00042,  -0.00111,   0.00042,  64.00000,   2.00000
-396537678.35206,-524888369.04819,24015126.93902,  -0.00121,  -0.00273,   0.00073,479123392.00000,   0.00101,275739520.00000,  -0.00043,  -0.00112,   0.00042,  96.00000,   2.00000
-396741656.54000,-524885213.54006,23727607.03944,  -0.00121,  -0.00274,   0.00073,479124480.00000,   0.00102,275751040.00000,  -0.00043,  -0.00113,   0.00042,   0.00000,   2.00000
-396959747.12656,-524876109.71111,23436902.76033,  -0.00122,  -0.00276,   0.00073,479130912.00000,   0.00103,275762528.00000,  -0.00044,  -0.00114,   0.00042,  32.00000,   2.00000
-397174367.69152,-524865587.51904,23154698.24043,  -0.00123,  -0.00277,   0.00073,479144096.00000,   0.00104,275774016.00000,  -0.00044,  -0.00115,   0.00043, 128.00000,   2.00000
-397390787.04994,-524852507.64778,22875927.02288,  -0.00123,  -0.00278,   0.00073,479139392.00000,   0.00105,275785440.00000,  -0.00045,  -0.00117,   0.00043,  96.00000,   2.00000
-397605282.61494,-524840173.95356,22593616.16268,  -0.00124,  -0.00279,   0.00072,479150720.00000,   0.00106,275796864.00000,  -0.00045,  -0.00118,   0.00043, 160.00000,   2.00000
-397820745.75866,-524824076.54182,22320678.47160,  -0.00124,  -0.00280,   0.00072,479146752.00000,   0.00107,275808224.00000,  -0.00046,  -0.00119,   0.00043, -96.00000,   2.00000
-398041200.68817,-524806567.62034,22042558.06545,  -0.00125,  -0.00281,   0.00072,479187136.00000,   0.00108,275819680.00000,  -0.00046,  -0.00120,   0.00044,  64.00000,   2.00000
-398255961.50456,-524787848.95066,21775355.36406,  -0.00126,  -0.00282,   0.00072,479154144.00000,   0.00109,275830976.00000,  -0.00047,  -0.00121,   0.00044,  32.00000,   2.00000
-398475524.03046,-524767473.59815,21502941.30349,  -0.00126,  -0.00284,   0.00072,479194528.00000,   0.00110,275842368.00000,  -0.00047,  -0.00122,   0.00044,   0.00000,   2.00000
-398685205.94477,-524748475.77151,21240445.21964,  -0.00127,  -0.00285,   0.00072,479178368.00000,   0.00111,275853664.00000,  -0.00048,  -0.00124,   0.00044,  96.00000,   2.00000
-398908666.97069,-524723087.88747,20974486.71308,  -0.00127,  -0.00286,   0.00072,479185024.00000,   0.00112,275864928.00000,  -0.00048,  -0.00125,   0.00045,   0.00000,   2.00000
-399117742.57438,-524701341.96409,20717455.92183,  -0.00128,  -0.00287,   0.00072,479185600.00000,   0.00114,275876160.00000,  -0.00049,  -0.00126,   0.00045,  96.00000,   2.00000
-399335557.77781,-524674715.32793,20462026.03373,  -0.00129,  -0.00288,   0.00072,479209984.00000,   0.00115,275887424.00000,  -0.00049,  -0.00127,   0.00045, 128.00000,   2.00000
-399556071.61347,-524646493.81783,20203667.78484,  -0.00129,  -0.00289,   0.00071,479204320.00000,   0.00116,275898624.00000,  -0.00050,  -0.00128,   0.00045, -32.00000,   2.00000
-399773578.79658,-524617356.96140,19953522.91650,  -0.00130,  -0.00290,   0.00071,479217184.00000,   0.00117,275909824.00000,  -0.00050,  -0.00129,   0.00045,  96.00000,   2.00000
-399993260.58935,-524585751.39469,19706341.88357,  -0.00130,  -0.00291,   0.00071,479212192.00000,   0.00118,275920960.00000,  -0.00051,  -0.00131,   0.00046,  96.00000,   2.00000
-400210547.27013,-524553950.42765,19461259.55475,  -0.00131,  -0.00292,   0.00071,479224128.00000,   0.00119,275932096.00000,  -0.00051,  -0.00132,   0.00046,   0.00000,   2.00000
-400430843.41759,-524520664.83456,19213064.14601,  -0.00132,  -0.00293,   0.00071,479218304.00000,   0.00120,275943168.00000,  -0.00052,  -0.00133,   0.00046, 128.00000,   2.00000
-400659398.63196,-524481729.93098,18972362.06262,  -0.00132,  -0.00295,   0.00071,479243360.00000,   0.00121,275954304.00000,  -0.00052,  -0.00134,   0.00046,  96.00000,   2.00000
-400874487.61507,-524447269.30901,18734235.91691,  -0.00133,  -0.00296,   0.00071,479242944.00000,   0.00122,275965376.00000,  -0.00053,  -0.00135,   0.00046,  96.00000,   2.00000
-401092130.23729,-524410394.66795,18498848.79305,  -0.00133,  -0.00297,   0.00071,479237824.00000,   0.00123,275976384.00000,  -0.00053,  -0.00136,   0.00047,   0.00000,   2.00000
-401323541.51109,-524366520.08994,18265592.87063,  -0.00134,  -0.00298,   0.00071,479244960.00000,   0.00124,275987360.00000,  -0.00054,  -0.00137,   0.00047,  32.00000,   2.00000
-401541663.99089,-524327130.39570,18034769.45265,  -0.00135,  -0.00299,   0.00070,479244256.00000,   0.00125,275998304.00000,  -0.00054,  -0.00139,   0.00047, -32.00000,   2.00000
-401769056.18573,-524283082.46548,17805263.05098,  -0.00135,  -0.00300,   0.00070,479268352.00000,   0.00126,276009312.00000,  -0.00055,  -0.00140,   0.00047,  32.00000,   2.00000
-401987952.11228,-524241152.36860,17578842.32662,  -0.00136,  -0.00301,   0.00070,479250752.00000,   0.00127,276020192.00000,  -0.00055,  -0.00141,   0.00047,  32.00000,   2.00000
-402220866.39114,-524192216.24948,17354393.40765,  -0.00136,  -0.00302,   0.00070,479257664.00000,   0.00128,276031040.00000,  -0.00056,  -0.00142,   0.00048,   0.00000,   2.00000
-402440807.47631,-524147855.67615,17132207.52778,  -0.00137,  -0.00303,   0.00070,479256800.00000,   0.00129,276041856.00000,  -0.00056,  -0.00143,   0.00048,  96.00000,   2.00000
-402670144.85539,-524098735.14154,16911218.48206,  -0.00138,  -0.00304,   0.00070,479280800.00000,   0.00130,276052736.00000,  -0.00057,  -0.00144,   0.00048, 192.00000,   2.00000
-402902302.67040,-524047027.44141,16692601.83471,  -0.00138,  -0.00305,   0.00070,479275264.00000,   0.00131,276063520.00000,  -0.00057,  -0.00145,   0.00048,  96.00000,   2.00000
-403125945.87218,-523997032.18473,16482827.35375,  -0.00139,  -0.00306,   0.00070,479257728.00000,   0.00132,276074240.00000,  -0.00058,  -0.00146,   0.00048,  64.00000,   2.00000
-403359538.18042,-523942915.49008,16268111.18949,  -0.00139,  -0.00307,   0.00070,479280896.00000,   0.00133,276084960.00000,  -0.00058,  -0.00148,   0.00048,  96.00000,   2.00000
-403596105.09388,-523886287.57399,16055646.84118,  -0.00140,  -0.00308,   0.00069,479275232.00000,   0.00134,276095648.00000,  -0.00059,  -0.00149,   0.00049, -96.00000,   2.00000
-403830603.42394,-523829029.95508,15850751.89697,  -0.00141,  -0.00309,   0.00069,479286944.00000,   0.00135,276106336.00000,  -0.00059,  -0.00150,   0.00049,   0.00000,   2.00000
-404057663.27460,-523774780.85646,15642477.54162,  -0.00141,  -0.00310,   0.00069,479268032.00000,   0.00136,276116896.00000,  -0.00059,  -0.00151,   0.00049,  32.00000,   2.00000
-404293726.19678,-523715105.78918,15441249.35992,  -0.00142,  -0.00311,   0.00069,479292032.00000,   0.00137,276127520.00000,  -0.00060,  -0.00152,   0.00049,  64.00000,   2.00000
-404532803.49159,-523652951.53178,15242108.73054,  -0.00142,  -0.00312,   0.00069,479286144.00000,   0.00138,276138080.00000,  -0.00060,  -0.00153,   0.00049,   0.00000,   2.00000
-404770687.21630,-523591420.76481,15038400.06768,  -0.00143,  -0.00314,   0.00069,479296512.00000,   0.00139,276148608.00000,  -0.00061,  -0.00154,   0.00049, -64.00000,   2.00000
-405011271.43291,-523527061.44077,14842802.64500,  -0.00144,  -0.00315,   0.00069,479290880.00000,   0.00140,276159104.00000,  -0.00061,  -0.00155,   0.00050, 128.00000,   2.00000
-405243796.25273,-523465010.41066,14649682.26984,  -0.00144,  -0.00316,   0.00069,479272192.00000,   0.00141,276169504.00000,  -0.00062,  -0.00156,   0.00050,-160.00000,   2.00000
-405485717.71856,-523398407.16503,14457522.83301,  -0.00145,  -0.00317,   0.00069,479295424.00000,   0.00142,276179936.00000,  -0.00062,  -0.00157,   0.00050,  32.00000,   2.00000
-405725713.58182,-523331746.21755,14266770.04064,  -0.00145,  -0.00318,   0.00069,479306240.00000,   0.00143,276190368.00000,  -0.00063,  -0.00159,   0.00050,   0.00000,   2.00000
-405973373.53691,-523260475.12131,14078605.77446,  -0.00146,  -0.00319,   0.00068,479282880.00000,   0.00144,276200672.00000,  -0.00063,  -0.00160,   0.00050, -32.00000,   2.00000
-406208242.90783,-523194264.55558,13892272.29595,  -0.00147,  -0.00320,   0.00068,479280832.00000,   0.00145,276210944.00000,  -0.00064,  -0.00161,   0.00050,  96.00000,   2.00000
-406451983.88095,-523123245.18329,13706907.41660,  -0.00147,  -0.00320,   0.00068,479303968.00000,   0.00146,276221248.00000,  -0.00064,  -0.00162,   0.00050,   0.00000,   2.00000
-406698051.39841,-523049500.87201,13529533.95218,  -0.00148,  -0.00321,   0.00068,479298016.00000,   0.00147,276231488.00000,  -0.00065,  -0.00163,   0.00051, -32.00000,   2.00000
-406947248.41719,-522974231.70893,13348068.93206,  -0.00148,  -0.00322,   0.00068,479290880.00000,   0.00147,276241664.00000,  -0.00065,  -0.00164,   0.00051, -32.00000,   2.00000
-407183465.63228,-522904118.45157,13168417.21564,  -0.00149,  -0.00323,   0.00068,479288704.00000,   0.00148,276251808.00000,  -0.00066,  -0.00165,   0.00051,  96.00000,   2.00000
-407432727.53036,-522826370.46537,12996320.54538,  -0.00150,  -0.00324,   0.00068,479295264.00000,   0.00149,276261952.00000,  -0.00066,  -0.00166,   0.00051, 128.00000,   2.00000
-407668868.00351,-522753696.11600,12825975.47459,  -0.00150,  -0.00325,   0.00068,479292960.00000,   0.00150,276272032.00000,  -0.00067,  -0.00167,   0.00051,   0.00000,   2.00000
-407923788.27653,-522672312.56644,12651636.08099,  -0.00151,  -0.00326,   0.00068,479281408.00000,   0.00151,276282016.00000,  -0.00067,  -0.00168,   0.00051,  96.00000,   2.00000
-408160274.79243,-522597857.55802,12484559.55231,  -0.00151,  -0.00327,   0.00068,479296512.00000,   0.00152,276292064.00000,  -0.00068,  -0.00169,   0.00051,  64.00000,   2.00000
-408404350.77433,-522518960.59792,12319849.92519,  -0.00152,  -0.00328,   0.00067,479272704.00000,   0.00153,276301952.00000,  -0.00068,  -0.00170,   0.00051,  32.00000,   2.00000
-408657005.82526,-522435548.96900,12156082.71274,  -0.00153,  -0.00329,   0.00067,479295552.00000,   0.00154,276311904.00000,  -0.00069,  -0.00171,   0.00052, 160.00000,   2.00000
-408896414.68334,-522357025.39829,11993992.60662,  -0.00153,  -0.00330,   0.00067,479293152.00000,   0.00155,276321792.00000,  -0.00069,  -0.00172,   0.00052,-192.00000,   2.00000
-409143827.27657,-522274429.39703,11834195.76100,  -0.00154,  -0.00331,   0.00067,479268992.00000,   0.00156,276331584.00000,  -0.00070,  -0.00173,   0.00052, 128.00000,   2.00000
-409388938.14455,-522191905.10951,11675661.10970,  -0.00155,  -0.00332,   0.00067,479279328.00000,   0.00157,276341344.00000,  -0.00070,  -0.00174,   0.00052,  96.00000,   2.00000
-409631625.74743,-522109193.32515,11524402.12696,  -0.00155,  -0.00333,   0.00067,479289664.00000,   0.00158,276351136.00000,  -0.00071,  -0.00175,   0.00052,  32.00000,   2.00000
-409877589.34698,-522024808.25350,11368790.73184,  -0.00156,  -0.00334,   0.00067,479282272.00000,   0.00159,276360832.00000,  -0.00071,  -0.00176,   0.00052,  32.00000,   2.00000
-410126242.45157,-521937886.84106,11220882.51609,  -0.00156,  -0.00335,   0.00067,479275712.00000,   0.00159,276370496.00000,  -0.00071,  -0.00177,   0.00052, 128.00000,   2.00000
-410378169.75073,-521849136.40091,11068555.67064,  -0.00157,  -0.00336,   0.00067,479268320.00000,   0.00160,276380096.00000,  -0.00072,  -0.00178,   0.00052,  64.00000,   2.00000
-410627969.64049,-521760332.32589,10923422.92314,  -0.00158,  -0.00336,   0.00067,479278496.00000,   0.00161,276389696.00000,  -0.00072,  -0.00179,   0.00052,  96.00000,   2.00000
-410870188.51195,-521674153.67061,10780167.95514,  -0.00158,  -0.00337,   0.00066,479258784.00000,   0.00162,276399200.00000,  -0.00073,  -0.00180,   0.00052, -32.00000,   2.00000
-411126287.11166,-521580809.29765,10638102.13361,  -0.00159,  -0.00338,   0.00066,479264320.00000,   0.00163,276408672.00000,  -0.00073,  -0.00181,   0.00053,  64.00000,   2.00000
-411370160.34613,-521492877.66133,10497425.82292,  -0.00159,  -0.00339,   0.00066,479261248.00000,   0.00164,276418112.00000,  -0.00074,  -0.00182,   0.00053,  64.00000,   2.00000
-411627835.32828,-521397574.30073,10357896.02164,  -0.00160,  -0.00340,   0.00066,479266848.00000,   0.00165,276427552.00000,  -0.00074,  -0.00183,   0.00053, -64.00000,   2.00000
-411878242.85871,-521305061.22806,10220125.25935,  -0.00160,  -0.00341,   0.00066,479246912.00000,   0.00166,276436864.00000,  -0.00075,  -0.00184,   0.00053,  64.00000,   2.00000
-412127008.76234,-521212787.33719,10083360.04892,  -0.00161,  -0.00342,   0.00066,479256512.00000,   0.00167,276446176.00000,  -0.00075,  -0.00185,   0.00053,  64.00000,   2.00000
-412378838.08630,-521117832.97648,9954017.56407,  -0.00162,  -0.00343,   0.00066,479249600.00000,   0.00167,276455456.00000,  -0.00076,  -0.00186,   0.00053,  32.00000,   2.00000
-412634433.59608,-521021139.51711,9819986.19825,  -0.00162,  -0.00343,   0.00066,479241888.00000,   0.00168,276464640.00000,  -0.00076,  -0.00187,   0.00053,  64.00000,   2.00000
-412877446.72842,-520929171.16141,9693235.98499,  -0.00163,  -0.00344,   0.00066,479239072.00000,   0.00169,276473824.00000,  -0.00077,  -0.00188,   0.00053, -32.00000,   2.00000
-413139845.55950,-520827942.96881,9561851.31169,  -0.00163,  -0.00345,   0.00066,479227040.00000,   0.00170,276482912.00000,  -0.00077,  -0.00189,   0.00053,  64.00000,   2.00000
-413389771.38773,-520731657.04889,9437716.81720,  -0.00164,  -0.00346,   0.00066,479224128.00000,   0.00171,276491936.00000,  -0.00077,  -0.00190,   0.00053,   0.00000,   2.00000
-413648424.02826,-520630482.03090,9314182.05377,  -0.00165,  -0.00347,   0.00066,479246464.00000,   0.00172,276501024.00000,  -0.00078,  -0.00191,   0.00053, -96.00000,   2.00000
-413905112.95992,-520529745.89657,9192550.53966,  -0.00165,  -0.00348,   0.00065,479209152.00000,   0.00173,276509952.00000,  -0.00078,  -0.00192,   0.00054, 160.00000,   2.00000
-414159970.02230,-520429166.76962,9071778.25465,  -0.00166,  -0.00348,   0.00065,479218688.00000,   0.00173,276518880.00000,  -0.00079,  -0.00192,   0.00054,  32.00000,   2.00000
-414412870.15643,-520328612.42389,8957894.65719,  -0.00166,  -0.00349,   0.00065,479228224.00000,   0.00174,276527808.00000,  -0.00079,  -0.00193,   0.00054, -32.00000,   2.00000
-414663999.52563,-520228663.08887,8839765.17675,  -0.00167,  -0.00350,   0.00065,479190592.00000,   0.00175,276536576.00000,  -0.00080,  -0.00194,   0.00054,  32.00000,   2.00000
-414923581.54682,-520123709.72200,8728237.60438,  -0.00168,  -0.00351,   0.00065,479213024.00000,   0.00176,276545376.00000,  -0.00080,  -0.00195,   0.00054,  32.00000,   2.00000
-415176167.01798,-520021791.90816,8612071.69737,  -0.00168,  -0.00352,   0.00065,479192224.00000,   0.00177,276554080.00000,  -0.00081,  -0.00196,   0.00054,  32.00000,   2.00000
-415431874.39279,-519917420.33588,8503093.39381,  -0.00169,  -0.00352,   0.00065,479184672.00000,   0.00177,276562752.00000,  -0.00081,  -0.00197,   0.00054,  32.00000,   2.00000
-415685701.56511,-519813355.05904,8394883.44713,  -0.00169,  -0.00353,   0.00065,479193888.00000,   0.00178,276571392.00000,  -0.00081,  -0.00198,   0.00054,   0.00000,   2.00000
-415947822.12475,-519704387.91199,8288088.17696,  -0.00170,  -0.00354,   0.00065,479169120.00000,   0.00179,276579936.00000,  -0.00082,  -0.00199,   0.00054, -64.00000,   2.00000
-416208154.60266,-519595975.69988,8182044.80465,  -0.00170,  -0.00355,   0.00065,479178048.00000,   0.00180,276588448.00000,  -0.00082,  -0.00200,   0.00054,  32.00000,   2.00000
-416456165.04391,-519492926.45746,8076984.63957,  -0.00171,  -0.00356,   0.00065,479174240.00000,   0.00181,276596960.00000,  -0.00083,  -0.00200,   0.00054,   0.00000,   2.00000
-416712609.14191,-519385046.49731,7973280.46033,  -0.00172,  -0.00356,   0.00065,479149248.00000,   0.00181,276605312.00000,  -0.00083,  -0.00201,   0.00054,  96.00000,   2.00000
-416966995.80144,-519277355.44636,7876327.38446,  -0.00172,  -0.00357,   0.00065,479158496.00000,   0.00182,276613696.00000,  -0.00084,  -0.00202,   0.00054,  96.00000,   2.00000
-417224685.50701,-519167510.41661,7774312.01169,  -0.00173,  -0.00358,   0.00065,479150272.00000,   0.00183,276622016.00000,  -0.00084,  -0.00203,   0.00054, -32.00000,   2.00000
-417485494.32268,-519055292.31938,7679328.95901,  -0.00173,  -0.00359,   0.00064,479142304.00000,   0.00184,276630272.00000,  -0.00085,  -0.00204,   0.00055,  96.00000,   2.00000
-417734082.83185,-518948555.21454,7585217.59330,  -0.00174,  -0.00359,   0.00064,479138080.00000,   0.00185,276638496.00000,  -0.00085,  -0.00205,   0.00055,  32.00000,   2.00000
-417991086.94705,-518836814.34801,7492318.18599,  -0.00174,  -0.00360,   0.00064,479112928.00000,   0.00185,276646592.00000,  -0.00085,  -0.00206,   0.00055,  32.00000,   2.00000
-418246203.13091,-518725506.86274,7400040.69724,  -0.00175,  -0.00361,   0.00064,479121504.00000,   0.00186,276654688.00000,  -0.00086,  -0.00206,   0.00055,   0.00000,   2.00000
-418504628.34581,-518611959.37156,7308657.28797,  -0.00176,  -0.00362,   0.00064,479113088.00000,   0.00187,276662720.00000,  -0.00086,  -0.00207,   0.00055,  32.00000,   2.00000
-418751019.79414,-518504027.35284,7218087.69897,  -0.00176,  -0.00362,   0.00064,479108544.00000,   0.00188,276670720.00000,  -0.00087,  -0.00208,   0.00055,   0.00000,   2.00000
-419015834.62995,-518385544.62313,7134475.76032,  -0.00177,  -0.00363,   0.00064,479096608.00000,   0.00188,276678656.00000,  -0.00087,  -0.00209,   0.00055,  64.00000,   2.00000
-419268790.39300,-518272918.31461,7045574.40210,  -0.00177,  -0.00364,   0.00064,479091712.00000,   0.00189,276686560.00000,  -0.00087,  -0.00210,   0.00055,   0.00000,   2.00000
-419514766.66830,-518162832.41019,6963739.70740,  -0.00178,  -0.00364,   0.00064,479070176.00000,   0.00190,276694336.00000,  -0.00088,  -0.00210,   0.00055,   0.00000,   2.00000
-419774628.09593,-518045662.11038,6876444.11646,  -0.00178,  -0.00365,   0.00064,479074336.00000,   0.00191,276702112.00000,  -0.00088,  -0.00211,   0.00055,   0.00000,   2.00000
-420027466.25407,-517930942.31946,6796178.02307,  -0.00179,  -0.00366,   0.00064,479052928.00000,   0.00191,276709760.00000,  -0.00089,  -0.00212,   0.00055,   0.00000,   2.00000
-420278535.80390,-517816638.71949,6716402.67147,  -0.00179,  -0.00366,   0.00064,479061024.00000,   0.00192,276717440.00000,  -0.00089,  -0.00213,   0.00055,   0.00000,   2.00000
-420533124.11102,-517700022.38695,6637359.97784,  -0.00180,  -0.00367,   0.00064,479052192.00000,   0.00193,276725056.00000,  -0.00090,  -0.00214,   0.00055,   0.00000,   2.00000
-420780930.76714,-517585943.30570,6565261.96577,  -0.00180,  -0.00368,   0.00064,479030400.00000,   0.00193,276732576.00000,  -0.00090,  -0.00214,   0.00055,  96.00000,   2.00000
-421042445.68466,-517464428.81549,6487600.97820,  -0.00181,  -0.00368,   0.00064,479034336.00000,   0.00194,276740064.00000,  -0.00090,  -0.00215,   0.00055, 128.00000,   2.00000
-421297275.73085,-517345532.36229,6416853.64784,  -0.00182,  -0.00369,   0.00064,479012480.00000,   0.00195,276747488.00000,  -0.00091,  -0.00216,   0.00055, 160.00000,   2.00000
-421540518.40834,-517232382.68013,6340652.30172,  -0.00182,  -0.00370,   0.00064,479006912.00000,   0.00195,276754848.00000,  -0.00091,  -0.00217,   0.00055,   0.00000,   2.00000
-421792598.28715,-517113842.73121,6271384.85288,  -0.00183,  -0.00370,   0.00064,478981088.00000,   0.00196,276762080.00000,  -0.00092,  -0.00217,   0.00055, 128.00000,   2.00000
-422052882.26598,-516990310.39708,6202315.39939,  -0.00183,  -0.00371,   0.00063,479001856.00000,   0.00197,276769376.00000,  -0.00092,  -0.00218,   0.00055,  32.00000,   2.00000
-422296962.66593,-516874926.22317,6134207.34382,  -0.00184,  -0.00372,   0.00063,478966208.00000,   0.00198,276776512.00000,  -0.00092,  -0.00219,   0.00055,  32.00000,   2.00000
-422549328.73000,-516754550.10640,6066285.31291,  -0.00184,  -0.00372,   0.00063,478986976.00000,   0.00198,276783712.00000,  -0.00093,  -0.00219,   0.00055,   0.00000,   2.00000
-422800804.76575,-516634122.35168,5999342.01069,  -0.00185,  -0.00373,   0.00063,478947584.00000,   0.00199,276790752.00000,  -0.00093,  -0.00220,   0.00056,   0.00000,   2.00000
-423050484.36291,-516513773.35820,5938784.95010,  -0.00185,  -0.00373,   0.00063,478955104.00000,   0.00200,276797792.00000,  -0.00093,  -0.00221,   0.00056, -32.00000,   2.00000
-423299568.43913,-516393557.00851,5873100.84433,  -0.00186,  -0.00374,   0.00063,478915264.00000,   0.00200,276804672.00000,  -0.00094,  -0.00222,   0.00056,  32.00000,   2.00000
-423546926.59785,-516273423.01547,5813785.94260,  -0.00186,  -0.00375,   0.00063,478922656.00000,   0.00201,276811552.00000,  -0.00094,  -0.00222,   0.00056, -32.00000,   2.00000
-423798298.71052,-516150971.34008,5748934.06596,  -0.00187,  -0.00375,   0.00063,478912864.00000,   0.00201,276818368.00000,  -0.00095,  -0.00223,   0.00056,   0.00000,   2.00000
-424047970.61867,-516028626.41273,5690442.08809,  -0.00187,  -0.00376,   0.00063,478920224.00000,   0.00202,276825184.00000,  -0.00095,  -0.00224,   0.00056,   0.00000,   2.00000
-424297025.09738,-515906097.21295,5632812.51587,  -0.00188,  -0.00376,   0.00063,478880352.00000,   0.00203,276831872.00000,  -0.00095,  -0.00224,   0.00056,   0.00000,   2.00000
-424544582.63887,-515783854.03420,5575453.78001,  -0.00188,  -0.00377,   0.00063,478887488.00000,   0.00203,276838528.00000,  -0.00096,  -0.00225,   0.00056,  32.00000,   2.00000
-424785954.10307,-515663923.43481,5524770.10797,  -0.00189,  -0.00377,   0.00063,478864416.00000,   0.00204,276845088.00000,  -0.00096,  -0.00226,   0.00056, -64.00000,   2.00000
-425031657.95716,-515541818.07854,5468477.93529,  -0.00189,  -0.00378,   0.00063,478854080.00000,   0.00205,276851616.00000,  -0.00096,  -0.00226,   0.00056,  32.00000,   2.00000
-425281224.04172,-515416942.58150,5412640.28476,  -0.00190,  -0.00379,   0.00063,478844192.00000,   0.00205,276858080.00000,  -0.00097,  -0.00227,   0.00056,   0.00000,   2.00000
-425524819.36024,-515294503.72132,5363452.91241,  -0.00190,  -0.00379,   0.00063,478821024.00000,   0.00206,276864448.00000,  -0.00097,  -0.00228,   0.00056,  64.00000,   2.00000
-425772403.31746,-515169354.02780,5314675.19456,  -0.00191,  -0.00380,   0.00063,478810816.00000,   0.00206,276870752.00000,  -0.00097,  -0.00228,   0.00056, -32.00000,   2.00000
-426018651.77769,-515044557.87483,5266107.44490,  -0.00191,  -0.00380,   0.00063,478817312.00000,   0.00207,276877056.00000,  -0.00098,  -0.00229,   0.00056,   0.00000,   2.00000
-426259218.55182,-514922392.50316,5218095.93422,  -0.00192,  -0.00381,   0.00063,478793696.00000,   0.00208,276883264.00000,  -0.00098,  -0.00230,   0.00056, -32.00000,   2.00000
-426509240.21927,-514794464.37821,5170670.27289,  -0.00192,  -0.00381,   0.00063,478766720.00000,   0.00208,276889344.00000,  -0.00099,  -0.00230,   0.00056,   0.00000,   2.00000
-426757889.67129,-514666799.15621,5123440.10443,  -0.00193,  -0.00382,   0.00063,478773056.00000,   0.00209,276895456.00000,  -0.00099,  -0.00231,   0.00056,   0.00000,   2.00000
-426995650.34035,-514544913.79453,5076558.22874,  -0.00193,  -0.00382,   0.00063,478765984.00000,   0.00209,276901504.00000,  -0.00099,  -0.00231,   0.00056,  96.00000,   2.00000
-427242619.95629,-514416786.93069,5036287.57841,  -0.00194,  -0.00383,   0.00063,478739008.00000,   0.00210,276907456.00000,  -0.00100,  -0.00232,   0.00056, -32.00000,   2.00000
-427484383.11205,-514291631.32452,4990466.08680,  -0.00194,  -0.00383,   0.00063,478714784.00000,   0.00210,276913312.00000,  -0.00100,  -0.00233,   0.00056,  32.00000,   2.00000
-427724644.29617,-514166441.03392,4950873.21938,  -0.00195,  -0.00384,   0.00063,478721024.00000,   0.00211,276919136.00000,  -0.00100,  -0.00233,   0.00056, -32.00000,   2.00000
-427959492.45048,-514043826.51192,4911765.79840,  -0.00195,  -0.00384,   0.00063,478696832.00000,   0.00211,276924896.00000,  -0.00101,  -0.00234,   0.00056,  32.00000,   2.00000
-428213589.44190,-513909917.20080,4873026.19434,  -0.00195,  -0.00385,   0.00063,478682784.00000,   0.00212,276930592.00000,  -0.00101,  -0.00234,   0.00056,  96.00000,   2.00000
-428447116.38093,-513786881.95927,4834722.87678,  -0.00196,  -0.00385,   0.00063,478661920.00000,   0.00213,276936192.00000,  -0.00101,  -0.00235,   0.00056, -64.00000,   2.00000
-428679742.15435,-513664434.32120,4796568.02859,  -0.00196,  -0.00385,   0.00063,478667520.00000,   0.00213,276941760.00000,  -0.00102,  -0.00235,   0.00056, 128.00000,   2.00000
-428921922.92815,-513535774.44494,4758912.47989,  -0.00197,  -0.00386,   0.00063,478639968.00000,   0.00214,276947264.00000,  -0.00102,  -0.00236,   0.00056,   0.00000,   2.00000
-429168152.48571,-513403981.08123,4727621.44389,  -0.00197,  -0.00386,   0.00062,478629184.00000,   0.00214,276952704.00000,  -0.00102,  -0.00236,   0.00056,   0.00000,   2.00000
-429403946.71281,-513278205.41424,4690537.03382,  -0.00198,  -0.00387,   0.00062,478621056.00000,   0.00215,276958080.00000,  -0.00102,  -0.00237,   0.00056, 128.00000,   2.00000
-429639682.01149,-513151349.36177,4660129.55877,  -0.00198,  -0.00387,   0.00062,478580032.00000,   0.00215,276963328.00000,  -0.00103,  -0.00238,   0.00056,  64.00000,   2.00000
-429874320.69351,-513024766.79802,4629827.70764,  -0.00199,  -0.00388,   0.00062,478585376.00000,   0.00216,276968544.00000,  -0.00103,  -0.00238,   0.00056,   0.00000,   2.00000
-430113484.15356,-512895455.22265,4599807.76521,  -0.00199,  -0.00388,   0.00062,478574016.00000,   0.00216,276973728.00000,  -0.00103,  -0.00239,   0.00056, 128.00000,   2.00000
-430347342.65102,-512768373.66593,4570202.58147,  -0.00199,  -0.00388,   0.00062,478549344.00000,   0.00217,276978816.00000,  -0.00104,  -0.00239,   0.00056,   0.00000,   2.00000
-430585661.34440,-512638403.75293,4540871.84888,  -0.00200,  -0.00389,   0.00062,478537856.00000,   0.00217,276983840.00000,  -0.00104,  -0.00240,   0.00056, -32.00000,   2.00000
-430813481.21268,-512514136.94415,4511780.43948,  -0.00200,  -0.00389,   0.00062,478529568.00000,   0.00217,276988832.00000,  -0.00104,  -0.00240,   0.00057,  64.00000,   2.00000
-431051146.21557,-512383523.67566,4483128.16244,  -0.00201,  -0.00390,   0.00062,478501408.00000,   0.00218,276993728.00000,  -0.00105,  -0.00241,   0.00057,  32.00000,   2.00000
-431278289.62101,-512258517.69082,4460762.13402,  -0.00201,  -0.00390,   0.00062,478493088.00000,   0.00218,276998560.00000,  -0.00105,  -0.00241,   0.00057,   0.00000,   2.00000
-431515432.09247,-512127243.59749,4432752.84367,  -0.00202,  -0.00390,   0.00062,478464672.00000,   0.00219,277003264.00000,  -0.00105,  -0.00241,   0.00057,  64.00000,   2.00000
-431742066.59594,-512001525.31499,4411025.07081,  -0.00202,  -0.00391,   0.00062,478456160.00000,   0.00219,277007968.00000,  -0.00105,  -0.00242,   0.00057,  64.00000,   2.00000
-431973165.45318,-511872675.40626,4389532.58337,  -0.00202,  -0.00391,   0.00062,478444384.00000,   0.00220,277012608.00000,  -0.00106,  -0.00242,   0.00057,  64.00000,   2.00000
-432199388.27607,-511746151.56341,4368410.46105,  -0.00203,  -0.00391,   0.00062,478419008.00000,   0.00220,277017120.00000,  -0.00106,  -0.00243,   0.00057, -32.00000,   2.00000
-432430263.52770,-511616651.76880,4347521.36295,  -0.00203,  -0.00392,   0.00062,478406976.00000,   0.00221,277021600.00000,  -0.00106,  -0.00243,   0.00057,  64.00000,   2.00000
-432656241.14404,-511489350.81297,4326997.11896,  -0.00204,  -0.00392,   0.00062,478381536.00000,   0.00221,277025984.00000,  -0.00106,  -0.00244,   0.00057,   0.00000,   2.00000
-432881363.54030,-511362346.89376,4306534.83363,  -0.00204,  -0.00392,   0.00062,478385952.00000,   0.00221,277030368.00000,  -0.00107,  -0.00244,   0.00057, -32.00000,   2.00000
-433107312.42119,-511234324.15020,4286601.30798,  -0.00204,  -0.00393,   0.00062,478343680.00000,   0.00222,277034592.00000,  -0.00107,  -0.00245,   0.00057,  96.00000,   2.00000
-433332197.22728,-511106304.50944,4272780.12326,  -0.00205,  -0.00393,   0.00062,478348320.00000,   0.00222,277038816.00000,  -0.00107,  -0.00245,   0.00057,  32.00000,   2.00000
-433552547.40319,-510980710.93213,4253241.75051,  -0.00205,  -0.00393,   0.00062,478322336.00000,   0.00223,277042944.00000,  -0.00107,  -0.00245,   0.00057,   0.00000,   2.00000
-433777381.05093,-510851698.59766,4239979.05775,  -0.00205,  -0.00394,   0.00062,478310144.00000,   0.00223,277047040.00000,  -0.00108,  -0.00246,   0.00057, -32.00000,   2.00000
-433997736.60662,-510725082.58682,4227052.22115,  -0.00206,  -0.00394,   0.00062,478284192.00000,   0.00223,277051008.00000,  -0.00108,  -0.00246,   0.00057,  32.00000,   2.00000
-434213438.43424,-510600567.74819,4214457.30834,  -0.00206,  -0.00394,   0.00062,478258304.00000,   0.00224,277054912.00000,  -0.00108,  -0.00247,   0.00057,   0.00000,   2.00000
-434433996.89360,-510472948.47528,4202060.36164,  -0.00206,  -0.00395,   0.00062,478245632.00000,   0.00224,277058752.00000,  -0.00108,  -0.00247,   0.00057,  32.00000,   2.00000
-434659187.89549,-510341947.49641,4189857.66301,  -0.00207,  -0.00395,   0.00062,478233152.00000,   0.00224,277062528.00000,  -0.00109,  -0.00247,   0.00057,   0.00000,   2.00000
-434874430.83293,-510216692.39312,4177821.21464,  -0.00207,  -0.00395,   0.00062,478223392.00000,   0.00225,277066240.00000,  -0.00109,  -0.00248,   0.00057, 160.00000,   2.00000
-435085123.66026,-510093457.68400,4166111.51889,  -0.00208,  -0.00395,   0.00062,478197024.00000,   0.00225,277069888.00000,  -0.00109,  -0.00248,   0.00057, -64.00000,   2.00000
-435306360.89810,-509963646.57436,4154759.90200,  -0.00208,  -0.00396,   0.00062,478167616.00000,   0.00225,277073408.00000,  -0.00109,  -0.00248,   0.00057,   0.00000,   2.00000
-435517497.32518,-509839271.66482,4149627.59625,  -0.00208,  -0.00396,   0.00062,478157920.00000,   0.00226,277076896.00000,  -0.00109,  -0.00249,   0.00057,  32.00000,   2.00000
-435733634.57852,-509711741.50041,4138610.23233,  -0.00209,  -0.00396,   0.00062,478144864.00000,   0.00226,277080352.00000,  -0.00110,  -0.00249,   0.00057,  64.00000,   2.00000
-435945281.61925,-509586113.61899,4133974.85284,  -0.00209,  -0.00396,   0.00062,478118528.00000,   0.00226,277083680.00000,  -0.00110,  -0.00249,   0.00057,  32.00000,   2.00000
-436161831.96517,-509457142.45251,4123450.66835,  -0.00209,  -0.00397,   0.00062,478105216.00000,   0.00227,277086976.00000,  -0.00110,  -0.00250,   0.00057,-128.00000,   2.00000
-436368655.01830,-509333921.71489,4119147.07849,  -0.00210,  -0.00397,   0.00062,478095008.00000,   0.00227,277090208.00000,  -0.00110,  -0.00250,   0.00057, -64.00000,   2.00000
-436576869.14326,-509209240.29771,4115313.42798,  -0.00210,  -0.00397,   0.00062,478051776.00000,   0.00227,277093312.00000,  -0.00110,  -0.00250,   0.00057,  64.00000,   2.00000
-436784288.35479,-509084506.21854,4111483.82923,  -0.00210,  -0.00397,   0.00062,478055104.00000,   0.00228,277096384.00000,  -0.00111,  -0.00251,   0.00057, -64.00000,   2.00000
-436987792.90660,-508962095.36131,4107962.16042,  -0.00210,  -0.00397,   0.00062,478028064.00000,   0.00228,277099392.00000,  -0.00111,  -0.00251,   0.00057,   0.00000,   2.00000
-437192766.91769,-508838105.01349,4104909.70601,  -0.00211,  -0.00398,   0.00062,477984576.00000,   0.00228,277102240.00000,  -0.00111,  -0.00251,   0.00057,   0.00000,   2.00000
-437397026.15403,-508714079.49188,4101859.77409,  -0.00211,  -0.00398,   0.00062,477987680.00000,   0.00228,277105056.00000,  -0.00111,  -0.00252,   0.00057,  32.00000,   2.00000
-437606271.68383,-508586535.66588,4105040.87028,  -0.00211,  -0.00398,   0.00062,477974240.00000,   0.00229,277107872.00000,  -0.00111,  -0.00252,   0.00057,  64.00000,   2.00000
-437797014.83772,-508470310.55640,4102423.83187,  -0.00212,  -0.00398,   0.00062,477949728.00000,   0.00229,277110560.00000,  -0.00112,  -0.00252,   0.00057,  64.00000,   2.00000
-437998432.53163,-508346916.86871,4100139.94924,  -0.00212,  -0.00398,   0.00062,477919520.00000,   0.00229,277113152.00000,  -0.00112,  -0.00252,   0.00057,  64.00000,   2.00000
-438204628.46736,-508219631.76860,4104084.44994,  -0.00212,  -0.00398,   0.00062,477906016.00000,   0.00229,277115712.00000,  -0.00112,  -0.00253,   0.00057, -64.00000,   2.00000
-438401704.90632,-508098462.25908,4102096.27002,  -0.00212,  -0.00399,   0.00062,477894624.00000,   0.00230,277118208.00000,  -0.00112,  -0.00253,   0.00057,  32.00000,   2.00000
-438594670.49239,-507978962.61209,4106475.74162,  -0.00213,  -0.00399,   0.00062,477867424.00000,   0.00230,277120608.00000,  -0.00112,  -0.00253,   0.00057, -32.00000,   2.00000
-438789503.23456,-507857818.86473,4111317.38920,  -0.00213,  -0.00399,   0.00062,477823360.00000,   0.00230,277122880.00000,  -0.00112,  -0.00253,   0.00057,   0.00000,   2.00000
-438983827.65342,-507736697.52704,4116147.36480,  -0.00213,  -0.00399,   0.00062,477825696.00000,   0.00230,277125120.00000,  -0.00112,  -0.00253,   0.00057,  64.00000,   2.00000
-439183459.62557,-507612125.10652,4115069.33117,  -0.00213,  -0.00399,   0.00062,477811456.00000,   0.00231,277127328.00000,  -0.00113,  -0.00254,   0.00057,  32.00000,   2.00000
-439364712.49525,-507498638.74167,4120336.59952,  -0.00214,  -0.00399,   0.00062,477786432.00000,   0.00231,277129440.00000,  -0.00113,  -0.00254,   0.00057,   0.00000,   2.00000
-439556821.49957,-507377773.75272,4125929.18553,  -0.00214,  -0.00399,   0.00062,477756000.00000,   0.00231,277131456.00000,  -0.00113,  -0.00254,   0.00057,   0.00000,   2.00000
-439745301.11512,-507258847.30508,4131821.16424,  -0.00214,  -0.00399,   0.00062,477727936.00000,   0.00231,277133376.00000,  -0.00113,  -0.00254,   0.00057,  64.00000,   2.00000
-439933255.26674,-507139815.93118,4137700.55686,  -0.00214,  -0.00399,   0.00063,477730048.00000,   0.00231,277135296.00000,  -0.00113,  -0.00254,   0.00057,   0.00000,   2.00000
-440117517.90059,-507022561.48686,4149947.75929,  -0.00215,  -0.00400,   0.00063,477702048.00000,   0.00231,277137120.00000,  -0.00113,  -0.00255,   0.00057,   0.00000,   2.00000
-440298389.72459,-506907380.02214,4156422.54382,  -0.00215,  -0.00400,   0.00063,477673600.00000,   0.00232,277138816.00000,  -0.00113,  -0.00255,   0.00057, -64.00000,   2.00000
-440484628.45911,-506788537.38861,4163058.24691,  -0.00215,  -0.00400,   0.00063,477659008.00000,   0.00232,277140480.00000,  -0.00113,  -0.00255,   0.00057,  64.00000,   2.00000
-440667063.69320,-506671193.83822,4176064.61598,  -0.00215,  -0.00400,   0.00063,477630880.00000,   0.00232,277142080.00000,  -0.00113,  -0.00255,   0.00057, -32.00000,   2.00000
-440846314.20959,-506556022.53420,4183304.14137,  -0.00215,  -0.00400,   0.00063,477602176.00000,   0.00232,277143552.00000,  -0.00114,  -0.00255,   0.00057,   0.00000,   2.00000
-441022066.75602,-506442596.33031,4190851.24575,  -0.00216,  -0.00400,   0.00063,477573664.00000,   0.00232,277144928.00000,  -0.00114,  -0.00255,   0.00057,   0.00000,   2.00000
-441197339.27533,-506328955.20246,4204456.41560,  -0.00216,  -0.00400,   0.00063,477575392.00000,   0.00232,277146304.00000,  -0.00114,  -0.00256,   0.00057, -96.00000,   2.00000
-441369483.51084,-506217415.10616,4212298.53781,  -0.00216,  -0.00400,   0.00063,477546496.00000,   0.00232,277147584.00000,  -0.00114,  -0.00256,   0.00057, -64.00000,   2.00000
-441552505.02172,-506097973.68940,4226548.88550,  -0.00216,  -0.00400,   0.00063,477515456.00000,   0.00233,277148768.00000,  -0.00114,  -0.00256,   0.00057,  32.00000,   2.00000
-441717864.29573,-505989873.83481,4241082.44462,  -0.00216,  -0.00400,   0.00063,477489056.00000,   0.00233,277149856.00000,  -0.00114,  -0.00256,   0.00057,  96.00000,   2.00000
-441883004.11136,-505881778.68292,4249530.41794,  -0.00216,  -0.00400,   0.00063,477490144.00000,   0.00233,277150944.00000,  -0.00114,  -0.00256,   0.00057,  32.00000,   2.00000
-442059135.85336,-505765778.02264,4264393.20826,  -0.00217,  -0.00400,   0.00063,477458848.00000,   0.00233,277151936.00000,  -0.00114,  -0.00256,   0.00057,   0.00000,   2.00000
-442222506.48872,-505656200.80986,4279712.25453,  -0.00217,  -0.00400,   0.00063,477416000.00000,   0.00233,277152800.00000,  -0.00114,  -0.00256,   0.00057,-896.00000,   1.00000
-442386539.94586,-505547605.78414,4295029.92228,  -0.00217,  -0.00400,   0.00063,477416000.00000,   0.00233,277153632.00000,  -0.00114,  -0.00256,   0.00057,-960.00000,   1.00000
-442547549.75166,-505440918.81145,4310669.53325,  -0.00217,  -0.00400,   0.00063,477386720.00000,   0.00233,277154368.00000,  -0.00114,  -0.00256,   0.00057,-640.00000,   1.00000
-442711203.93622,-505332153.91448,4320739.58467,  -0.00217,  -0.00400,   0.00063,477341184.00000,   0.00233,277154976.00000,  -0.00114,  -0.00256,   0.00057,-640.00000,   1.00000
-442874419.21801,-505223019.17077,4336874.31144,  -0.00217,  -0.00400,   0.00063,477342176.00000,   0.00233,277155584.00000,  -0.00114,  -0.00256,   0.00057,-640.00000,   1.00000
-443028859.19339,-505119528.95067,4353155.07863,  -0.00217,  -0.00400,   0.00063,477329024.00000,   0.00233,277156128.00000,  -0.00114,  -0.00256,   0.00057,-576.00000,   1.00000
-443186124.11248,-505014015.62689,4369950.31503,  -0.00218,  -0.00400,   0.00063,477283200.00000,   0.00233,277156544.00000,  -0.00114,  -0.00257,   0.00057,-384.00000,   1.00000
-443340263.67702,-504910069.61077,4387077.90024,  -0.00218,  -0.00400,   0.00063,477253760.00000,   0.00233,277156864.00000,  -0.00114,  -0.00257,   0.00057,-224.00000,   1.00000
-443494125.86800,-504805870.66197,4404198.14065,  -0.00218,  -0.00400,   0.00063,477254336.00000,   0.00233,277157184.00000,  -0.00114,  -0.00257,   0.00057,-256.00000,   1.00000
-443645107.59282,-504703458.17413,4421657.67530,  -0.00218,  -0.00400,   0.00063,477224576.00000,   0.00233,277157408.00000,  -0.00114,  -0.00257,   0.00057,-128.00000,   1.00000
-443793117.32881,-504602681.30922,4439458.14212,  -0.00218,  -0.00400,   0.00063,477194848.00000,   0.00233,277157504.00000,  -0.00114,  -0.00257,   0.00057,-128.00000,   1.00000
-443946660.85872,-504497736.56318,4457441.55553,  -0.00218,  -0.00400,   0.00063,477178944.00000,   0.00233,277157568.00000,  -0.00114,  -0.00257,   0.00057,-160.00000,   1.00000
-444068201.50799,-504376195.91391,4481749.68538,  -0.00218,  -0.00400,   0.00063,477135136.00000,   0.00233,277157568.00000,  -0.00114,  -0.00257,   0.00057,-22432.00000,   0.00000
-444189742.15726,-504254655.26464,4499980.78277,  -0.00218,  -0.00399,   0.00063,477112768.00000,   0.00233,277157568.00000,  -0.00114,  -0.00257,   0.00057,-44800.00000,   0.00000
-444271782.09551,-504081459.83943,4518211.88016,  -0.00218,  -0.00399,   0.00063,477044160.00000,   0.00233,277157568.00000,  -0.00114,  -0.00257,   0.00057,-113408.00000,   0.00000
-444332552.42015,-503899148.86552,4536442.97755,  -0.00218,  -0.00399,   0.00063,476961568.00000,   0.00233,277157568.00000,  -0.00114,  -0.00257,   0.00057,-196000.00000,   0.00000
-444384207.19609,-503695568.27799,4554674.07494,  -0.00218,  -0.00399,   0.00063,476862912.00000,   0.00233,277157568.00000,  -0.00114,  -0.00257,   0.00057,-294656.00000,   0.00000
-444405476.80971,-503461602.52815,4572905.17234,  -0.00219,  -0.00399,   0.00063,476734208.00000,   0.00233,277157568.00000,  -0.00114,  -0.00257,   0.00057,-423360.00000,   0.00000
-444405476.80971,-503218521.22961,4591136.26973,  -0.00219,  -0.00399,   0.00063,476591680.00000,   0.00233,277157568.00000,  -0.00114,  -0.00257,   0.00057,-565888.00000,   0.00000
-444365976.09870,-502923785.15513,4609367.36712,  -0.00219,  -0.00399,   0.00063,476402656.00000,   0.00233,277157568.00000,  -0.00114,  -0.00257,   0.00057,-754912.00000,   0.00000
-444305205.77406,-502619933.53195,4633675.49697,  -0.00219,  -0.00399,   0.00063,476200032.00000,   0.00233,277157568.00000,  -0.00114,  -0.00257,   0.00057,-957536.00000,   0.00000
-444235319.90073,-502294812.29515,4651906.59436,  -0.00219,  -0.00399,   0.00063,475981120.00000,   0.00233,277157568.00000,  -0.00114,  -0.00257,   0.00057,-1176448.00000,   0.00000
-444113779.25146,-501930190.34734,4670137.69175,  -0.00219,  -0.00398,   0.00063,475717920.00000,   0.00233,277157568.00000,  -0.00114,  -0.00257,   0.00057,-1439648.00000,   0.00000
-443983123.05350,-501544298.78591,4688368.78914,  -0.00219,  -0.00398,   0.00063,475438656.00000,   0.00233,277157568.00000,  -0.00114,  -0.00257,   0.00057,-1718912.00000,   0.00000
-443831197.24191,-501149291.67578,4706599.88653,  -0.00219,  -0.00398,   0.00063,475145248.00000,   0.00233,277157568.00000,  -0.00114,  -0.00257,   0.00057,-2012320.00000,   0.00000
-443661040.33293,-500711745.33841,4724830.98392,  -0.00219,  -0.00398,   0.00063,474819680.00000,   0.00233,277157568.00000,  -0.00114,  -0.00257,   0.00057,-2337888.00000,   0.00000
-443448344.19671,-500255967.90365,4743062.08131,  -0.00219,  -0.00398,   0.00063,474465856.00000,   0.00233,277157568.00000,  -0.00114,  -0.00257,   0.00057,-2691712.00000,   0.00000
-443226532.51179,-499778920.85526,4761293.17870,  -0.00219,  -0.00398,   0.00063,474095936.00000,   0.00233,277157568.00000,  -0.00114,  -0.00257,   0.00057,-3061632.00000,   0.00000
-442974335.66456,-499271488.64456,4779524.27609,  -0.00219,  -0.00397,   0.00063,473695648.00000,   0.00233,277157568.00000,  -0.00114,  -0.00257,   0.00057,-3461920.00000,   0.00000
-442700869.20370,-498754940.88516,4797755.37348,  -0.00219,  -0.00397,   0.00063,473281376.00000,   0.00233,277157568.00000,  -0.00114,  -0.00257,   0.00057,-3876192.00000,   0.00000
-442387902.03183,-498186738.34982,4815986.47088,  -0.00219,  -0.00397,   0.00063,472820416.00000,   0.00233,277157568.00000,  -0.00114,  -0.00257,   0.00057,-4337152.00000,   0.00000
-442074934.85996,-497618535.81449,4834217.56827,  -0.00219,  -0.00397,   0.00064,472359392.00000,   0.00233,277157568.00000,  -0.00114,  -0.00257,   0.00057,-4798176.00000,   0.00000
-441710312.91215,-497010832.56813,4852448.66566,  -0.00219,  -0.00397,   0.00064,471854016.00000,   0.00233,277157568.00000,  -0.00114,  -0.00257,   0.00057,-5303552.00000,   0.00000
-441345690.96434,-496403129.32178,4870679.76305,  -0.00219,  -0.00396,   0.00064,471348704.00000,   0.00233,277157568.00000,  -0.00114,  -0.00257,   0.00057,-5808864.00000,   0.00000
-440941568.30551,-495743771.29949,4888910.86044,  -0.00218,  -0.00396,   0.00064,470796640.00000,   0.00233,277157568.00000,  -0.00114,  -0.00257,   0.00057,-6360928.00000,   0.00000
-440516176.03307,-495075297.72851,4907141.95783,  -0.00218,  -0.00396,   0.00064,470230624.00000,   0.00233,277157568.00000,  -0.00114,  -0.00257,   0.00057,-6926944.00000,   0.00000
-440060398.59830,-494376438.99520,4919296.02276,  -0.00218,  -0.00396,   0.00064,469634048.00000,   0.00233,277157568.00000,  -0.00114,  -0.00257,   0.00057,-7523520.00000,   0.00000
-439574236.00122,-493647195.09958,4937527.12015,  -0.00218,  -0.00396,   0.00064,469007552.00000,   0.00233,277157568.00000,  -0.00114,  -0.00257,   0.00057,-8150016.00000,   0.00000
-439078957.85545,-492896681.59034,4955758.21754,  -0.00218,  -0.00395,   0.00064,468364896.00000,   0.00233,277157568.00000,  -0.00114,  -0.00257,   0.00057,-8792672.00000,   0.00000
-438562410.09605,-492137052.53240,4973989.31493,  -0.00218,  -0.00395,   0.00064,467708256.00000,   0.00233,277157568.00000,  -0.00114,  -0.00257,   0.00057,-9449312.00000,   0.00000
-437994207.56071,-491337922.76345,4986143.37985,  -0.00218,  -0.00395,   0.00064,467007424.00000,   0.00233,277157568.00000,  -0.00114,  -0.00257,   0.00057,-10150144.00000,   0.00000
-437416889.47668,-490517523.38088,5004374.47724,  -0.00218,  -0.00395,   0.00064,466290752.00000,   0.00233,277157568.00000,  -0.00114,  -0.00257,   0.00057,-10866816.00000,   0.00000
-436809186.23033,-489666738.83599,5016528.54217,  -0.00218,  -0.00394,   0.00064,465543904.00000,   0.00233,277157568.00000,  -0.00114,  -0.00257,   0.00057,-11613664.00000,   0.00000
-436201482.98398,-488815954.29109,5034759.63956,  -0.00218,  -0.00394,   0.00064,464797248.00000,   0.00233,277157568.00000,  -0.00114,  -0.00257,   0.00057,-12360320.00000,   0.00000
-435542124.96169,-487925669.03519,5046913.70449,  -0.00218,  -0.00394,   0.00064,464006080.00000,   0.00233,277157568.00000,  -0.00114,  -0.00257,   0.00057,-13151488.00000,   0.00000
-434852381.77708,-487004998.61697,5059067.76942,  -0.00217,  -0.00393,   0.00064,463184864.00000,   0.00233,277157568.00000,  -0.00114,  -0.00257,   0.00057,-13972704.00000,   0.00000
-434153523.04377,-486063058.58513,5077298.86681,  -0.00217,  -0.00393,   0.00064,462347328.00000,   0.00233,277157568.00000,  -0.00114,  -0.00257,   0.00057,-14810240.00000,   0.00000
-433433394.69685,-485112003.00459,5089452.93173,  -0.00217,  -0.00393,   0.00064,461495104.00000,   0.00233,277157568.00000,  -0.00114,  -0.00257,   0.00057,-15662464.00000,   0.00000
-432673765.63891,-484109292.64811,5101606.99666,  -0.00217,  -0.00393,   0.00064,460596096.00000,   0.00233,277157568.00000,  -0.00114,  -0.00257,   0.00057,-16561472.00000,   0.00000
-431892866.96735,-483097466.74293,5113761.06159,  -0.00217,  -0.00392,   0.00064,459682656.00000,   0.00233,277157568.00000,  -0.00114,  -0.00257,   0.00057,-17474912.00000,   0.00000
-431090698.68217,-482076525.28906,5125915.12651,  -0.00217,  -0.00392,   0.00064,458754720.00000,   0.00233,277157568.00000,  -0.00114,  -0.00257,   0.00057,-18402848.00000,   0.00000
-430249029.68597,-481003929.05926,5138069.19144,  -0.00216,  -0.00392,   0.00064,457780192.00000,   0.00233,277157568.00000,  -0.00114,  -0.00257,   0.00057,-19377376.00000,   0.00000
-429386091.07615,-479922217.28075,5144146.22390,  -0.00216,  -0.00391,   0.00064,456791360.00000,   0.00233,277157568.00000,  -0.00114,  -0.00257,   0.00057,-20366208.00000,   0.00000
-428514036.91764,-478819235.88862,5156300.28883,  -0.00216,  -0.00391,   0.00064,455786720.00000,   0.00233,277157568.00000,  -0.00114,  -0.00257,   0.00057,-21370848.00000,   0.00000
-427599443.53188,-477698023.39911,5168454.35376,  -0.00216,  -0.00391,   0.00064,454754272.00000,   0.00233,277157568.00000,  -0.00114,  -0.00257,   0.00057,-22403296.00000,   0.00000
-426666619.04873,-476534271.68235,5174531.38622,  -0.00216,  -0.00390,   0.00064,453689792.00000,   0.00233,277157568.00000,  -0.00114,  -0.00257,   0.00057,-23467776.00000,   0.00000
-425712524.95196,-475361404.41689,5186685.45115,  -0.00215,  -0.00390,   0.00064,452612064.00000,   0.00233,277157568.00000,  -0.00114,  -0.00257,   0.00057,-24545504.00000,   0.00000
-424737161.24157,-474179421.60274,5192762.48361,  -0.00215,  -0.00390,   0.00064,451520640.00000,   0.00233,277157568.00000,  -0.00114,  -0.00257,   0.00057,-25636928.00000,   0.00000
-423722296.82016,-472945784.01264,5198839.51608,  -0.00215,  -0.00389,   0.00064,450383488.00000,   0.00233,277157568.00000,  -0.00114,  -0.00257,   0.00057,-26774080.00000,   0.00000
-422686162.78514,-471703030.87386,5204916.54854,  -0.00215,  -0.00389,   0.00064,449232864.00000,   0.00233,277157568.00000,  -0.00114,  -0.00257,   0.00057,-27924704.00000,   0.00000
-421619643.58779,-470429892.57275,5217070.61347,  -0.00215,  -0.00388,   0.00064,448052704.00000,   0.00233,277157568.00000,  -0.00114,  -0.00257,   0.00057,-29104864.00000,   0.00000
-420522739.22813,-469126369.10933,5217070.61347,  -0.00214,  -0.00388,   0.00064,446842272.00000,   0.00233,277157568.00000,  -0.00114,  -0.00257,   0.00057,-30315296.00000,   0.00000
-419425834.86846,-467822845.64591,5223147.64593,  -0.00214,  -0.00388,   0.00064,445632448.00000,   0.00233,277157568.00000,  -0.00114,  -0.00257,   0.00057,-31525120.00000,   0.00000
-418277275.73286,-466479821.47147,5229224.67839,  -0.00214,  -0.00387,   0.00064,444378624.00000,   0.00233,277157568.00000,  -0.00114,  -0.00257,   0.00057,-32778944.00000,   0.00000
-417119601.04856,-465115527.68342,5235301.71086,  -0.00214,  -0.00387,   0.00064,443108768.00000,   0.00233,277157568.00000,  -0.00114,  -0.00257,   0.00057,-34048800.00000,   0.00000
-415919387.13702,-463733002.79797,5235301.71086,  -0.00213,  -0.00387,   0.00064,441810688.00000,   0.00233,277157568.00000,  -0.00114,  -0.00257,   0.00057,-35346880.00000,   0.00000
-414710057.67678,-462329208.29890,5241378.74332,  -0.00213,  -0.00386,   0.00064,440496832.00000,   0.00233,277157568.00000,  -0.00114,  -0.00257,   0.00057,-36660736.00000,   0.00000
-413470343.05423,-460895028.63751,5241378.74332,  -0.00213,  -0.00386,   0.00064,439152640.00000,   0.00233,277157568.00000,  -0.00114,  -0.00257,   0.00057,-38004928.00000,   0.00000
-412209358.81805,-459451733.42743,5241378.74332,  -0.00212,  -0.00385,   0.00064,437794144.00000,   0.00233,277157568.00000,  -0.00114,  -0.00257,   0.00057,-39363424.00000,   0.00000
-410908873.87086,-457956783.44140,5241378.74332,  -0.00212,  -0.00385,   0.00064,436389472.00000,   0.00233,277157568.00000,  -0.00114,  -0.00257,   0.00057,-40768096.00000,   0.00000
-409596234.85874,-456473987.52031,5241378.74332,  -0.00212,  -0.00384,   0.00064,434986720.00000,   0.00233,277157568.00000,  -0.00114,  -0.00257,   0.00057,-42170848.00000,   0.00000
-408244095.13561,-454939536.82327,5235301.71086,  -0.00212,  -0.00384,   0.00064,433537152.00000,   0.00233,277157568.00000,  -0.00114,  -0.00257,   0.00057,-43620416.00000,   0.00000
-406870685.79886,-453395970.57754,5235301.71086,  -0.00211,  -0.00384,   0.00064,432073632.00000,   0.00233,277157568.00000,  -0.00114,  -0.00257,   0.00057,-45083936.00000,   0.00000
-405488160.91341,-451831134.71819,5235301.71086,  -0.00211,  -0.00383,   0.00064,430593760.00000,   0.00233,277157568.00000,  -0.00114,  -0.00257,   0.00057,-46563808.00000,   0.00000
-404063096.80072,-450248067.76144,5229224.67839,  -0.00211,  -0.00383,   0.00064,429084960.00000,   0.00233,277157568.00000,  -0.00114,  -0.00257,   0.00057,-48072608.00000,   0.00000
-402598531.97701,-448613346.02876,5223147.64593,  -0.00210,  -0.00382,   0.00064,427529408.00000,   0.00233,277157568.00000,  -0.00114,  -0.00257,   0.00057,-49628160.00000,   0.00000
-401143082.70200,-446999893.90970,5217070.61347,  -0.00210,  -0.00382,   0.00064,425989408.00000,   0.00233,277157568.00000,  -0.00114,  -0.00257,   0.00057,-51168160.00000,   0.00000
-399648132.71598,-445334787.01470,5210993.58100,  -0.00209,  -0.00381,   0.00064,424402240.00000,   0.00233,277157568.00000,  -0.00114,  -0.00257,   0.00057,-52755328.00000,   0.00000
-398110643.50271,-443651449.02231,5204916.54854,  -0.00209,  -0.00381,   0.00064,422785536.00000,   0.00233,277157568.00000,  -0.00114,  -0.00257,   0.00057,-54372032.00000,   0.00000
-396564038.74075,-441946841.41629,5192762.48361,  -0.00209,  -0.00380,   0.00064,421151328.00000,   0.00233,277157568.00000,  -0.00114,  -0.00257,   0.00057,-56006240.00000,   0.00000
-394996164.36516,-440233118.26158,5186685.45115,  -0.00208,  -0.00380,   0.00064,419501184.00000,   0.00233,277157568.00000,  -0.00114,  -0.00257,   0.00057,-57656384.00000,   0.00000
-393397904.82726,-438489009.94456,5174531.38622,  -0.00208,  -0.00379,   0.00064,417818528.00000,   0.00233,277157568.00000,  -0.00114,  -0.00257,   0.00057,-59339040.00000,   0.00000
-391769260.12704,-436714516.46521,5162377.32130,  -0.00208,  -0.00379,   0.00064,416103680.00000,   0.00233,277157568.00000,  -0.00114,  -0.00257,   0.00057,-61053888.00000,   0.00000
-390119345.81320,-434930907.43717,5150223.25637,  -0.00207,  -0.00378,   0.00064,414373408.00000,   0.00233,277157568.00000,  -0.00114,  -0.00257,   0.00057,-62784160.00000,   0.00000
-388439046.33704,-433116913.24682,5138069.19144,  -0.00207,  -0.00378,   0.00064,412614048.00000,   0.00233,277157568.00000,  -0.00114,  -0.00257,   0.00057,-64543520.00000,   0.00000
-386728361.69856,-431272533.89414,5119838.09405,  -0.00206,  -0.00377,   0.00064,410829984.00000,   0.00233,277157568.00000,  -0.00114,  -0.00257,   0.00057,-66327584.00000,   0.00000
-384996407.44646,-429419038.99277,5101606.99666,  -0.00206,  -0.00377,   0.00064,409043904.00000,   0.00233,277157568.00000,  -0.00114,  -0.00257,   0.00057,-68113664.00000,   0.00000
-383243183.58074,-427556428.54271,5089452.93173,  -0.00205,  -0.00376,   0.00064,407261632.00000,   0.00233,277157568.00000,  -0.00114,  -0.00257,   0.00057,-69895936.00000,   0.00000
-381450459.00401,-425642163.31670,5071221.83434,  -0.00205,  -0.00376,   0.00064,405452896.00000,   0.00233,277157568.00000,  -0.00114,  -0.00257,   0.00057,-71704672.00000,   0.00000
-379657734.42727,-423727898.09070,5052990.73695,  -0.00205,  -0.00375,   0.00064,403657056.00000,   0.00233,277157568.00000,  -0.00114,  -0.00257,   0.00057,-73500512.00000,   0.00000
-377822470.62329,-421795401.76730,5028682.60710,  -0.00204,  -0.00375,   0.00064,401828544.00000,   0.00233,277157568.00000,  -0.00114,  -0.00257,   0.00057,-75329024.00000,   0.00000
-375968975.72192,-419820366.21666,5010451.50971,  -0.00204,  -0.00374,   0.00064,399925088.00000,   0.00233,277157568.00000,  -0.00114,  -0.00257,   0.00057,-77232480.00000,   0.00000
-374082057.14200,-417848369.18225,4986143.37985,  -0.00203,  -0.00374,   0.00064,397921984.00000,   0.00233,277157568.00000,  -0.00114,  -0.00257,   0.00057,-79235584.00000,   0.00000
-372176907.46469,-415833832.92060,4961835.25000,  -0.00203,  -0.00373,   0.00064,395862080.00000,   0.00233,277157568.00000,  -0.00114,  -0.00257,   0.00057,-81295488.00000,   0.00000
-370250488.17376,-413810181.11025,4937527.12015,  -0.00202,  -0.00373,   0.00064,393884000.00000,   0.00233,277157568.00000,  -0.00114,  -0.00257,   0.00057,-83273568.00000,   0.00000
-368281529.65559,-411768298.20252,4913218.99029,  -0.00202,  -0.00372,   0.00064,391905728.00000,   0.00233,277157568.00000,  -0.00114,  -0.00257,   0.00057,-85251840.00000,   0.00000
-366294340.04002,-409683876.06753,4882833.82797,  -0.00201,  -0.00372,   0.00064,389884928.00000,   0.00233,277157568.00000,  -0.00114,  -0.00257,   0.00057,-87272640.00000,   0.00000
-364294996.35952,-407611607.99748,4852448.66566,  -0.00201,  -0.00371,   0.00064,387861696.00000,   0.00233,277157568.00000,  -0.00114,  -0.00257,   0.00057,-89295872.00000,   0.00000
-362256151.96802,-405487685.15148,4822063.50334,  -0.00200,  -0.00370,   0.00063,385789088.00000,   0.00233,277157568.00000,  -0.00114,  -0.00257,   0.00057,-91368480.00000,   0.00000
-360196037.96289,-403354646.75679,4791678.34102,  -0.00200,  -0.00370,   0.00063,383699168.00000,   0.00233,277157568.00000,  -0.00114,  -0.00257,   0.00057,-93458400.00000,   0.00000
-358114654.34414,-401212492.81340,4761293.17870,  -0.00199,  -0.00369,   0.00063,381592000.00000,   0.00233,277157568.00000,  -0.00114,  -0.00257,   0.00057,-95565568.00000,   0.00000
-356002885.56307,-399039953.70770,4724830.98392,  -0.00199,  -0.00369,   0.00063,379451040.00000,   0.00233,277157568.00000,  -0.00114,  -0.00257,   0.00057,-97706528.00000,   0.00000
-353860731.61968,-396837029.43968,4688368.78914,  -0.00198,  -0.00368,   0.00063,377276832.00000,   0.00233,277157568.00000,  -0.00114,  -0.00257,   0.00057,-99880736.00000,   0.00000
-351697308.06267,-394624989.62296,4651906.59436,  -0.00198,  -0.00368,   0.00063,375086080.00000,   0.00233,277157568.00000,  -0.00114,  -0.00257,   0.00057,-102071488.00000,   0.00000
-349512614.89204,-392403834.25755,4615444.39958,  -0.00197,  -0.00367,   0.00063,372879264.00000,   0.00233,277157568.00000,  -0.00114,  -0.00257,   0.00057,-104278304.00000,   0.00000
-347309690.62402,-390140139.66489,4572905.17234,  -0.00196,  -0.00366,   0.00063,370638496.00000,   0.00233,277157568.00000,  -0.00114,  -0.00257,   0.00057,-106519072.00000,   0.00000
-345073342.67745,-387879483.58847,4536442.97755,  -0.00196,  -0.00366,   0.00063,368385856.00000,   0.00233,277157568.00000,  -0.00114,  -0.00257,   0.00057,-108771712.00000,   0.00000
-342797494.01987,-385567172.73610,4493903.75031,  -0.00195,  -0.00365,   0.00063,366086752.00000,   0.00233,277157568.00000,  -0.00114,  -0.00257,   0.00057,-111070816.00000,   0.00000
-340521645.36228,-383254861.88374,4445287.49060,  -0.00195,  -0.00365,   0.00063,363788352.00000,   0.00233,277157568.00000,  -0.00114,  -0.00257,   0.00057,-113369216.00000,   0.00000
-338203257.47746,-380924319.93398,4402748.26336,  -0.00194,  -0.00364,   0.00063,361463680.00000,   0.00233,277157568.00000,  -0.00114,  -0.00257,   0.00057,-115693888.00000,   0.00000
-335875754.04393,-378572508.37061,4354132.00365,  -0.00193,  -0.00363,   0.00063,359124512.00000,   0.00233,277157568.00000,  -0.00114,  -0.00257,   0.00057,-118033056.00000,   0.00000
-333505711.38316,-376202465.70984,4305515.74394,  -0.00193,  -0.00363,   0.00063,356759296.00000,   0.00233,277157568.00000,  -0.00114,  -0.00257,   0.00057,-120398272.00000,   0.00000
-331126553.17370,-373811153.43545,4256899.48423,  -0.00192,  -0.00362,   0.00063,354379872.00000,   0.00233,277157568.00000,  -0.00114,  -0.00257,   0.00057,-122777696.00000,   0.00000
-328717009.80192,-371389455.99874,4208283.22452,  -0.00192,  -0.00362,   0.00063,351972000.00000,   0.00233,277157568.00000,  -0.00114,  -0.00257,   0.00057,-125185568.00000,   0.00000
-326264927.20290,-368949527.46464,4153589.93235,  -0.00191,  -0.00361,   0.00063,349537568.00000,   0.00233,277157568.00000,  -0.00114,  -0.00257,   0.00057,-127620000.00000,   0.00000
-323812844.60387,-366509598.93054,4098896.64018,  -0.00190,  -0.00360,   0.00063,347104416.00000,   0.00233,277157568.00000,  -0.00114,  -0.00257,   0.00057,-130053152.00000,   0.00000
-321330376.84253,-364039285.23413,4044203.34801,  -0.00190,  -0.00360,   0.00062,344641920.00000,   0.00233,277157568.00000,  -0.00114,  -0.00257,   0.00057,-132515648.00000,   0.00000
-318817523.91887,-361538586.37539,3983433.02337,  -0.00189,  -0.00359,   0.00062,342149536.00000,   0.00233,277157568.00000,  -0.00114,  -0.00257,   0.00057,-135008032.00000,   0.00000
-316283401.38158,-359028771.96797,3922662.69874,  -0.00188,  -0.00358,   0.00062,339643552.00000,   0.00233,277157568.00000,  -0.00114,  -0.00257,   0.00057,-137514016.00000,   0.00000
-313728009.23068,-356509842.01184,3861892.37410,  -0.00188,  -0.00358,   0.00062,337124160.00000,   0.00233,277157568.00000,  -0.00114,  -0.00257,   0.00057,-140033408.00000,   0.00000
-311142231.91746,-353960526.89340,3801122.04947,  -0.00187,  -0.00357,   0.00062,334575584.00000,   0.00233,277157568.00000,  -0.00114,  -0.00257,   0.00057,-142581984.00000,   0.00000
-308547339.05554,-351389942.16134,3734274.69237,  -0.00186,  -0.00356,   0.00062,332012064.00000,   0.00233,277157568.00000,  -0.00114,  -0.00257,   0.00057,-145145504.00000,   0.00000
-305909906.96638,-348801126.33188,3673504.36774,  -0.00186,  -0.00356,   0.00062,329422592.00000,   0.00233,277157568.00000,  -0.00114,  -0.00257,   0.00057,-147734976.00000,   0.00000
-303251205.26359,-346203194.95373,3600579.97817,  -0.00185,  -0.00355,   0.00062,326820864.00000,   0.00233,277157568.00000,  -0.00114,  -0.00257,   0.00057,-150336704.00000,   0.00000
-300562118.39849,-343574878.41327,3533732.62108,  -0.00184,  -0.00354,   0.00062,324190432.00000,   0.00233,277157568.00000,  -0.00114,  -0.00257,   0.00057,-152967136.00000,   0.00000
-297873031.53339,-340946561.87280,3460808.23151,  -0.00184,  -0.00354,   0.00062,321560160.00000,   0.00233,277157568.00000,  -0.00114,  -0.00257,   0.00057,-155597408.00000,   0.00000
-295132289.89235,-338278744.62132,3387883.84195,  -0.00183,  -0.00353,   0.00062,318885088.00000,   0.00233,277157568.00000,  -0.00114,  -0.00257,   0.00057,-158272480.00000,   0.00000
-292391548.25131,-335610927.36984,3314959.45239,  -0.00182,  -0.00352,   0.00062,316207968.00000,   0.00233,277157568.00000,  -0.00114,  -0.00257,   0.00057,-160949600.00000,   0.00000
-289620421.44795,-332912724.95604,3235958.03036,  -0.00181,  -0.00352,   0.00061,313497568.00000,   0.00233,277157568.00000,  -0.00114,  -0.00257,   0.00057,-163660000.00000,   0.00000
-286806755.41734,-330196291.44486,3156956.60834,  -0.00181,  -0.00351,   0.00061,310756032.00000,   0.00233,277157568.00000,  -0.00114,  -0.00257,   0.00057,-166401536.00000,   0.00000
-283983973.83804,-327458588.32005,3077955.18631,  -0.00180,  -0.00350,   0.00061,307994944.00000,   0.00233,277157568.00000,  -0.00114,  -0.00257,   0.00057,-169162624.00000,   0.00000
-281139922.64512,-324711769.64654,2998953.76429,  -0.00179,  -0.00350,   0.00061,305217632.00000,   0.00233,277157568.00000,  -0.00114,  -0.00257,   0.00057,-171939936.00000,   0.00000
-278265486.28988,-321934565.81072,2913875.30980,  -0.00178,  -0.00349,   0.00061,302409024.00000,   0.00233,277157568.00000,  -0.00114,  -0.00257,   0.00057,-174748544.00000,   0.00000
-275369780.32102,-319148246.42620,2828796.85531,  -0.00178,  -0.00348,   0.00061,299587776.00000,   0.00233,277157568.00000,  -0.00114,  -0.00257,   0.00057,-177569792.00000,   0.00000
-272452804.73854,-316352811.49299,2737641.36836,  -0.00177,  -0.00347,   0.00061,296755840.00000,   0.00233,277157568.00000,  -0.00114,  -0.00257,   0.00057,-180401728.00000,   0.00000
-269505443.99374,-313526991.39745,2646485.88140,  -0.00176,  -0.00347,   0.00061,293898944.00000,   0.00233,277157568.00000,  -0.00114,  -0.00257,   0.00057,-183258624.00000,   0.00000
-266536813.63531,-310692055.75323,2555330.39445,  -0.00175,  -0.00346,   0.00061,291034720.00000,   0.00233,277157568.00000,  -0.00114,  -0.00257,   0.00057,-186122848.00000,   0.00000
-263559067.72819,-307835850.49538,2464174.90750,  -0.00174,  -0.00345,   0.00060,288159872.00000,   0.00233,277157568.00000,  -0.00114,  -0.00257,   0.00057,-188997696.00000,   0.00000
-260538782.59383,-304961414.14014,2366942.38808,  -0.00174,  -0.00345,   0.00060,285260800.00000,   0.00233,277157568.00000,  -0.00114,  -0.00257,   0.00057,-191896768.00000,   0.00000
-257488112.29715,-302056592.62258,2269709.86867,  -0.00173,  -0.00344,   0.00060,282329376.00000,   0.00233,277157568.00000,  -0.00114,  -0.00257,   0.00057,-194828192.00000,   0.00000
-254446557.54916,-299173040.71865,2172477.34925,  -0.00172,  -0.00343,   0.00060,279405536.00000,   0.00233,277157568.00000,  -0.00114,  -0.00257,   0.00057,-197752032.00000,   0.00000
-251365502.09017,-296237834.03878,2069167.79737,  -0.00171,  -0.00342,   0.00060,276430720.00000,   0.00233,277157568.00000,  -0.00114,  -0.00257,   0.00057,-200726848.00000,   0.00000
-248241907.40392,-293284396.26151,1965858.24549,  -0.00170,  -0.00342,   0.00060,273459072.00000,   0.00233,277157568.00000,  -0.00114,  -0.00257,   0.00057,-203698496.00000,   0.00000
-245118312.71768,-290330958.48425,1862548.69361,  -0.00169,  -0.00341,   0.00060,270547904.00000,   0.00233,277157568.00000,  -0.00114,  -0.00257,   0.00057,-206609664.00000,   0.00000
-241973448.41782,-287368405.15829,1753162.10927,  -0.00169,  -0.00340,   0.00060,267597904.00000,   0.00233,277157568.00000,  -0.00114,  -0.00257,   0.00057,-209559664.00000,   0.00000
-238798198.95563,-284375466.67001,1643775.52492,  -0.00168,  -0.00339,   0.00059,264556560.00000,   0.00233,277157568.00000,  -0.00114,  -0.00257,   0.00057,-212601008.00000,   0.00000
-235601679.87983,-281373412.63304,1528311.90812,  -0.00167,  -0.00339,   0.00059,261512400.00000,   0.00233,277157568.00000,  -0.00114,  -0.00257,   0.00057,-215645168.00000,   0.00000
-232374775.64171,-278340973.43375,1418925.32377,  -0.00166,  -0.00338,   0.00059,258456880.00000,   0.00233,277157568.00000,  -0.00114,  -0.00257,   0.00057,-218700688.00000,   0.00000
-229147871.40358,-275308534.23446,1297384.67450,  -0.00165,  -0.00337,   0.00059,255404720.00000,   0.00233,277157568.00000,  -0.00114,  -0.00257,   0.00057,-221752848.00000,   0.00000
-225869312.38952,-272236594.32415,1181921.05770,  -0.00164,  -0.00336,   0.00059,252304832.00000,   0.00233,277157568.00000,  -0.00114,  -0.00257,   0.00057,-224852736.00000,   0.00000
-222599868.92415,-269185924.02747,1060380.40843,  -0.00163,  -0.00336,   0.00059,249212688.00000,   0.00233,277157568.00000,  -0.00114,  -0.00257,   0.00057,-227944880.00000,   0.00000
-219269655.13415,-266074483.40616,938839.75916,  -0.00162,  -0.00335,   0.00058,246049280.00000,   0.00233,277157568.00000,  -0.00114,  -0.00257,   0.00057,-231108288.00000,   0.00000
-215948556.89285,-262984312.39846,817299.10989,  -0.00161,  -0.00334,   0.00058,242890880.00000,   0.00233,277157568.00000,  -0.00114,  -0.00257,   0.00057,-234266688.00000,   0.00000
-212597073.48922,-259863756.22845,689681.42815,  -0.00161,  -0.00333,   0.00058,239694128.00000,   0.00233,277157568.00000,  -0.00114,  -0.00257,   0.00057,-237463440.00000,   0.00000
-209224320.47197,-256734084.50975,555986.71396,  -0.00160,  -0.00333,   0.00058,236491264.00000,   0.00233,277157568.00000,  -0.00114,  -0.00257,   0.00057,-240666304.00000,   0.00000
-205821182.29241,-253574027.62872,428369.03222,  -0.00159,  -0.00332,   0.00058,233291520.00000,   0.00233,277157568.00000,  -0.00114,  -0.00257,   0.00057,-243866048.00000,   0.00000
-202396774.49922,-250404855.19900,294674.31803,  -0.00158,  -0.00331,   0.00058,230114976.00000,   0.00233,277157568.00000,  -0.00114,  -0.00257,   0.00057,-247042592.00000,   0.00000
-198951097.09242,-247226567.22059,160979.60383,  -0.00157,  -0.00330,   0.00057,226914848.00000,   0.00233,277157568.00000,  -0.00114,  -0.00257,   0.00057,-250242720.00000,   0.00000
-195475034.52329,-244017894.07986,21207.85717,  -0.00156,  -0.00330,   0.00057,223625408.00000,   0.00233,277157568.00000,  -0.00114,  -0.00257,   0.00057,-253532160.00000,   0.00000
-191998971.95416,-240809220.93912,-118563.88949,  -0.00155,  -0.00329,   0.00057,220372912.00000,   0.00233,277157568.00000,  -0.00114,  -0.00257,   0.00057,-256784656.00000,   0.00000
-188480370.15779,-237582316.70100,-264412.66862,  -0.00154,  -0.00328,   0.00057,217111552.00000,   0.00233,277157568.00000,  -0.00114,  -0.00257,   0.00057,-260046016.00000,   0.00000
-184952652.81273,-234334142.84926,-410261.44774,  -0.00153,  -0.00327,   0.00057,213812160.00000,   0.00233,277157568.00000,  -0.00114,  -0.00257,   0.00057,-263345408.00000,   0.00000
-181403665.85404,-231076853.44882,-556110.22687,  -0.00152,  -0.00326,   0.00057,210509760.00000,   0.00233,277157568.00000,  -0.00114,  -0.00257,   0.00057,-266647808.00000,   0.00000
-177833409.28173,-227810448.49968,-708036.03845,  -0.00151,  -0.00326,   0.00056,207210496.00000,   0.00233,277157568.00000,  -0.00114,  -0.00257,   0.00057,-269947072.00000,   0.00000
-174241883.09579,-224534928.00185,-859961.85004,  -0.00150,  -0.00325,   0.00056,203910864.00000,   0.00233,277157568.00000,  -0.00114,  -0.00257,   0.00057,-273246704.00000,   0.00000
-170641241.36117,-221238137.89040,-1011887.66163,  -0.00149,  -0.00324,   0.00056,200601328.00000,   0.00233,277157568.00000,  -0.00114,  -0.00257,   0.00057,-276556240.00000,   0.00000
-166998060.39929,-217923116.68156,-1169890.50568,  -0.00148,  -0.00323,   0.00056,197271472.00000,   0.00233,277157568.00000,  -0.00114,  -0.00257,   0.00057,-279886096.00000,   0.00000
-163324494.27510,-214577710.31040,-1327893.34973,  -0.00147,  -0.00322,   0.00055,193920560.00000,   0.00233,277157568.00000,  -0.00114,  -0.00257,   0.00057,-283237008.00000,   0.00000
-159650928.15091,-211232303.93923,-1485896.19378,  -0.00146,  -0.00322,   0.00055,190586912.00000,   0.00233,277157568.00000,  -0.00114,  -0.00257,   0.00057,-286570656.00000,   0.00000
-155956092.41310,-207877782.01938,-1649976.07030,  -0.00145,  -0.00321,   0.00055,187256336.00000,   0.00233,277157568.00000,  -0.00114,  -0.00257,   0.00057,-289901232.00000,   0.00000
-152239987.06167,-204514144.55083,-1820132.97927,  -0.00144,  -0.00320,   0.00055,183912736.00000,   0.00233,277157568.00000,  -0.00114,  -0.00257,   0.00057,-293244832.00000,   0.00000
-148493496.54791,-201120121.91996,-1990289.88825,  -0.00143,  -0.00319,   0.00055,180530640.00000,   0.00233,277157568.00000,  -0.00114,  -0.00257,   0.00057,-296626928.00000,   0.00000
-144747006.03416,-197726099.28909,-2160446.79723,  -0.00142,  -0.00318,   0.00054,177145424.00000,   0.00233,277157568.00000,  -0.00114,  -0.00257,   0.00057,-300012144.00000,   0.00000
-140957976.29316,-194313845.56083,-2330603.70621,  -0.00141,  -0.00318,   0.00054,173741520.00000,   0.00233,277157568.00000,  -0.00114,  -0.00257,   0.00057,-303416048.00000,   0.00000
-137159831.00347,-190880322.21895,-2506837.64765,  -0.00140,  -0.00317,   0.00054,170331376.00000,   0.00233,277157568.00000,  -0.00114,  -0.00257,   0.00057,-306826192.00000,   0.00000
-133319146.48654,-187428567.77968,-2689148.62156,  -0.00139,  -0.00316,   0.00054,166912656.00000,   0.00233,277157568.00000,  -0.00114,  -0.00257,   0.00057,-310244912.00000,   0.00000
-129478461.96960,-183976813.34040,-2871459.59546,  -0.00138,  -0.00315,   0.00053,163511808.00000,   0.00233,277157568.00000,  -0.00114,  -0.00257,   0.00057,-313645760.00000,   0.00000
-125637777.45266,-180525058.90113,-3053770.56937,  -0.00136,  -0.00314,   0.00053,160130656.00000,   0.00233,277157568.00000,  -0.00114,  -0.00257,   0.00057,-317026912.00000,   0.00000
-121745438.15979,-177033803.75085,-3236081.54327,  -0.00135,  -0.00313,   0.00053,156730240.00000,   0.00233,277157568.00000,  -0.00114,  -0.00257,   0.00057,-320427328.00000,   0.00000
-117840944.80198,-173554702.66549,-3424469.54964,  -0.00134,  -0.00313,   0.00053,153357920.00000,   0.00233,277157568.00000,  -0.00114,  -0.00257,   0.00057,-323799648.00000,   0.00000
-113918220.34679,-170033062.35289,-3618934.58847,  -0.00133,  -0.00312,   0.00053,149971040.00000,   0.00233,277157568.00000,  -0.00114,  -0.00257,   0.00057,-327186528.00000,   0.00000
-109983341.82667,-166523576.10521,-3813399.62731,  -0.00132,  -0.00311,   0.00052,146610064.00000,   0.00233,277157568.00000,  -0.00114,  -0.00257,   0.00057,-330547504.00000,   0.00000
-106027193.69292,-163004974.30884,-4007864.66614,  -0.00131,  -0.00310,   0.00052,143256208.00000,   0.00233,277157568.00000,  -0.00114,  -0.00257,   0.00057,-333901360.00000,   0.00000
-102040660.39686,-159455987.35015,-4208406.73743,  -0.00130,  -0.00309,   0.00052,139891840.00000,   0.00233,277157568.00000,  -0.00114,  -0.00257,   0.00057,-337265728.00000,   0.00000
-98054127.10080,-155907000.39146,-4408948.80873,  -0.00129,  -0.00308,   0.00051,136544816.00000,   0.00233,277157568.00000,  -0.00114,  -0.00257,   0.00057,-340612752.00000,   0.00000
-94015939.02880,-152318512.72176,-4615567.91249,  -0.00128,  -0.00308,   0.00051,133178584.00000,   0.00233,277157568.00000,  -0.00114,  -0.00257,   0.00057,-343978976.00000,   0.00000
-89986866.50550,-148751294.66568,-4822187.01625,  -0.00126,  -0.00307,   0.00051,129851464.00000,   0.00233,277157568.00000,  -0.00114,  -0.00257,   0.00057,-347306112.00000,   0.00000
-85927408.81987,-145153691.44729,-5028806.12001,  -0.00125,  -0.00306,   0.00051,126520664.00000,   0.00233,277157568.00000,  -0.00114,  -0.00257,   0.00057,-350636896.00000,   0.00000
-81867951.13425,-141556088.22889,-5241502.25623,  -0.00124,  -0.00305,   0.00050,123219000.00000,   0.00233,277157568.00000,  -0.00114,  -0.00257,   0.00057,-353938560.00000,   0.00000
-77765954.22138,-137940253.91310,-5454198.39245,  -0.00123,  -0.00304,   0.00050,119931936.00000,   0.00233,277157568.00000,  -0.00114,  -0.00257,   0.00057,-357225632.00000,   0.00000
-73654841.75982,-134303149.98369,-5672971.56114,  -0.00122,  -0.00303,   0.00050,116666640.00000,   0.00233,277157568.00000,  -0.00114,  -0.00257,   0.00057,-360490928.00000,   0.00000
-69522459.68463,-130656930.50559,-5891744.72982,  -0.00121,  -0.00303,   0.00050,113437376.00000,   0.00233,277157568.00000,  -0.00114,  -0.00257,   0.00057,-363720192.00000,   0.00000
-65368807.99583,-127001595.47879,-6116594.93097,  -0.00119,  -0.00302,   0.00049,110251648.00000,   0.00233,277157568.00000,  -0.00114,  -0.00257,   0.00057,-366905920.00000,   0.00000
-61193886.69340,-123337144.90329,-6341445.13212,  -0.00118,  -0.00301,   0.00049,107115256.00000,   0.00233,277157568.00000,  -0.00114,  -0.00257,   0.00057,-370042304.00000,   0.00000
-57018965.39097,-119672694.32780,-6572372.36574,  -0.00117,  -0.00300,   0.00049,104043968.00000,   0.00233,277157568.00000,  -0.00114,  -0.00257,   0.00057,-373113600.00000,   0.00000
-52792389.31260,-115968743.04129,-6803299.59935,  -0.00116,  -0.00299,   0.00048,101012784.00000,   0.00233,277157568.00000,  -0.00114,  -0.00257,   0.00057,-376144784.00000,   0.00000
-48574928.78292,-112286061.36841,-7034226.83296,  -0.00115,  -0.00298,   0.00048,98085160.00000,   0.00233,277157568.00000,  -0.00114,  -0.00257,   0.00057,-379072416.00000,   0.00000
-44348352.70455,-108582110.08190,-7271231.09904,  -0.00113,  -0.00297,   0.00048,95235408.00000,   0.00233,277157568.00000,  -0.00114,  -0.00257,   0.00057,-381922160.00000,   0.00000
-40079237.39894,-104859927.69800,-7508235.36512,  -0.00112,  -0.00297,   0.00047,92469496.00000,   0.00233,277157568.00000,  -0.00114,  -0.00257,   0.00057,-384688064.00000,   0.00000
-35801006.54463,-101116475.70048,-7751316.66366,  -0.00111,  -0.00296,   0.00047,89772384.00000,   0.00233,277157568.00000,  -0.00114,  -0.00257,   0.00057,-387385184.00000,   0.00000
-31510621.62540,-97385177.76789,-7994397.96220,  -0.00110,  -0.00295,   0.00047,87164128.00000,   0.00233,277157568.00000,  -0.00114,  -0.00257,   0.00057,-389993440.00000,   0.00000
-27189851.54384,-93623494.67298,-8243556.29320,  -0.00109,  -0.00294,   0.00047,84608928.00000,   0.00233,277157568.00000,  -0.00114,  -0.00257,   0.00057,-392548640.00000,   0.00000
-22869081.46229,-89861811.57806,-8492714.62421,  -0.00107,  -0.00293,   0.00046,82135648.00000,   0.00233,277157568.00000,  -0.00114,  -0.00257,   0.00057,-395021920.00000,   0.00000
-18527041.76711,-86091012.93446,-8747949.98767,  -0.00106,  -0.00292,   0.00046,79760312.00000,   0.00233,277157568.00000,  -0.00114,  -0.00257,   0.00057,-397397248.00000,   0.00000
-14163732.45831,-82311098.74216,-9003185.35114,  -0.00105,  -0.00291,   0.00046,77514008.00000,   0.00233,277157568.00000,  -0.00114,  -0.00257,   0.00057,-399643552.00000,   0.00000
-9779153.53589,-78522069.00116,-9258420.71461,  -0.00104,  -0.00290,   0.00045,75422096.00000,   0.00233,277157568.00000,  -0.00114,  -0.00257,   0.00057,-401735472.00000,   0.00000
-5385459.06478,-74711769.64654,-9519733.11054,  -0.00102,  -0.00290,   0.00045,73165544.00000,   0.00233,277157568.00000,  -0.00114,  -0.00257,   0.00057,-403992032.00000,   0.00000
-970494.98004,-70892354.74323,-9787122.53893,  -0.00101,  -0.00289,   0.00045,71698656.00000,   0.00233,277157568.00000,  -0.00114,  -0.00257,   0.00057,-405458912.00000,   0.00000
3456623.16963,-67085093.90484,-10054511.96733,  -0.00100,  -0.00288,   0.00044,70588904.00000,   0.00233,277157568.00000,  -0.00114,  -0.00257,   0.00057,-406568672.00000,   0.00000
7914126.48161,-63247447.90413,-10321901.39572,  -0.00099,  -0.00287,   0.00044,69344640.00000,   0.00233,277157568.00000,  -0.00114,  -0.00257,   0.00057,-407812928.00000,   0.00000
12380745.34229,-59388532.28981,-10595367.85658,  -0.00097,  -0.00286,   0.00043,68233728.00000,   0.00233,277157568.00000,  -0.00114,  -0.00257,   0.00057,-408923840.00000,   0.00000
16859518.26789,-55541770.74041,-10868834.31744,  -0.00096,  -0.00285,   0.00043,67454808.00000,   0.00233,277157568.00000,  -0.00114,  -0.00257,   0.00057,-409702752.00000,   0.00000
21338291.19350,-51695009.19101,-11148377.81076,  -0.00095,  -0.00284,   0.00043,67186264.00000,   0.00233,277157568.00000,  -0.00114,  -0.00257,   0.00057,-409971296.00000,   0.00000
25868718.89504,-47808746.93059,-11427921.30408,  -0.00093,  -0.00283,   0.00042,67414024.00000,   0.00233,277157568.00000,  -0.00114,  -0.00257,   0.00057,-409743552.00000,   0.00000
30399146.59659,-43922484.67018,-11713541.82986,  -0.00092,  -0.00283,   0.00042,68030776.00000,   0.00233,277157568.00000,  -0.00114,  -0.00257,   0.00057,-409126784.00000,   0.00000
34929574.29813,-40036222.40977,-11999162.35565,  -0.00091,  -0.00282,   0.00042,68607552.00000,   0.00233,277157568.00000,  -0.00114,  -0.00257,   0.00057,-408550016.00000,   0.00000
39502541.22692,-36131729.05196,-12290859.91390,  -0.00089,  -0.00281,   0.00041,69229472.00000,   0.00233,277157568.00000,  -0.00114,  -0.00257,   0.00057,-407928096.00000,   0.00000
44075508.15571,-32227235.69416,-12582557.47215,  -0.00088,  -0.00280,   0.00041,70551448.00000,   0.00233,277157568.00000,  -0.00114,  -0.00257,   0.00057,-406606112.00000,   0.00000
48669744.69812,-28313626.78766,-12874255.03039,  -0.00087,  -0.00279,   0.00040,71473416.00000,   0.00233,277157568.00000,  -0.00114,  -0.00257,   0.00057,-405684160.00000,   0.00000
53273096.78923,-24378748.26754,-13172029.62111,  -0.00085,  -0.00278,   0.00040,72641728.00000,   0.00233,277157568.00000,  -0.00114,  -0.00257,   0.00057,-404515840.00000,   0.00000
57888602.94526,-20456023.81235,-13475881.24428,  -0.00084,  -0.00277,   0.00040,74513520.00000,   0.00233,277157568.00000,  -0.00114,  -0.00257,   0.00057,-402644048.00000,   0.00000
62534494.26361,-16502914.19483,-13779732.86746,  -0.00083,  -0.00276,   0.00039,76665696.00000,   0.00233,277157568.00000,  -0.00114,  -0.00257,   0.00057,-400491872.00000,   0.00000
67180385.58197,-12549804.57732,-14083584.49063,  -0.00081,  -0.00275,   0.00039,78991088.00000,   0.00233,277157568.00000,  -0.00114,  -0.00257,   0.00057,-398166480.00000,   0.00000
71847546.51394,-8587579.41112,-14393513.14627,  -0.00080,  -0.00275,   0.00039,81461776.00000,   0.00233,277157568.00000,  -0.00114,  -0.00257,   0.00057,-395695792.00000,   0.00000
76535977.05953,-4616238.69621,-14709518.83437,  -0.00079,  -0.00274,   0.00038,84044448.00000,   0.00233,277157568.00000,  -0.00114,  -0.00257,   0.00057,-393113120.00000,   0.00000
81224407.60513,-644897.98131,-15025524.52248,  -0.00077,  -0.00273,   0.00038,86697696.00000,   0.00233,277157568.00000,  -0.00114,  -0.00257,   0.00057,-390459872.00000,   0.00000
85934107.76435,3335558.28229,-15341530.21058,  -0.00076,  -0.00272,   0.00037,89419720.00000,   0.00233,277157568.00000,  -0.00114,  -0.00257,   0.00057,-387737856.00000,   0.00000
90665077.53719,7325130.09458,-15663612.93114,  -0.00075,  -0.00271,   0.00037,92206736.00000,   0.00233,277157568.00000,  -0.00114,  -0.00257,   0.00057,-384950832.00000,   0.00000
95405162.85873,11335971.52049,-15985695.65171,  -0.00073,  -0.00270,   0.00036,95071672.00000,   0.00233,277157568.00000,  -0.00114,  -0.00257,   0.00057,-382085888.00000,   0.00000
100157402.24519,15334658.88148,-16313855.40474,  -0.00072,  -0.00269,   0.00036,98097680.00000,   0.00233,277157568.00000,  -0.00114,  -0.00257,   0.00057,-379059888.00000,   0.00000
104918757.18035,19354615.85609,-16642015.15777,  -0.00071,  -0.00268,   0.00036,101277696.00000,   0.00233,277157568.00000,  -0.00114,  -0.00257,   0.00057,-375879872.00000,   0.00000
109701381.72913,23383688.37940,-16976251.94326,  -0.00069,  -0.00267,   0.00035,104585424.00000,   0.00233,277157568.00000,  -0.00114,  -0.00257,   0.00057,-372572144.00000,   0.00000
114505275.89153,27421876.45140,-17316565.76122,  -0.00068,  -0.00266,   0.00035,108006744.00000,   0.00233,277157568.00000,  -0.00114,  -0.00257,   0.00057,-369150816.00000,   0.00000
119300054.50524,31438794.90978,-17650802.54671,  -0.00066,  -0.00266,   0.00034,111549576.00000,   0.00233,277157568.00000,  -0.00114,  -0.00257,   0.00057,-365608000.00000,   0.00000
124125218.28126,35486098.53047,-17997193.39713,  -0.00065,  -0.00265,   0.00034,115227192.00000,   0.00233,277157568.00000,  -0.00114,  -0.00257,   0.00057,-361930368.00000,   0.00000
128980767.21960,39563787.31349,-18337507.21509,  -0.00064,  -0.00264,   0.00033,118987672.00000,   0.00233,277157568.00000,  -0.00114,  -0.00257,   0.00057,-358169888.00000,   0.00000
133827200.60925,43620206.48288,-18689975.09797,  -0.00062,  -0.00263,   0.00033,122790592.00000,   0.00233,277157568.00000,  -0.00114,  -0.00257,   0.00057,-354366976.00000,   0.00000
138673633.99890,47676625.65227,-19036365.94839,  -0.00061,  -0.00262,   0.00032,126629240.00000,   0.00233,277157568.00000,  -0.00114,  -0.00257,   0.00057,-350528320.00000,   0.00000
143562606.61579,51751275.91905,-19394910.86374,  -0.00059,  -0.00261,   0.00032,130554952.00000,   0.00233,277157568.00000,  -0.00114,  -0.00257,   0.00057,-346602624.00000,   0.00000
148439425.16775,55838080.25076,-19747378.74662,  -0.00058,  -0.00260,   0.00032,134519488.00000,   0.00233,277157568.00000,  -0.00114,  -0.00257,   0.00057,-342638080.00000,   0.00000
153349667.39827,59921846.06624,-20105923.66197,  -0.00056,  -0.00259,   0.00031,138575584.00000,   0.00233,277157568.00000,  -0.00114,  -0.00257,   0.00057,-338581984.00000,   0.00000
158269025.17748,64026881.49533,-20470545.60978,  -0.00055,  -0.00258,   0.00031,142694848.00000,   0.00233,277157568.00000,  -0.00114,  -0.00257,   0.00057,-334462720.00000,   0.00000
163179267.40799,68110647.31081,-20835167.55759,  -0.00054,  -0.00257,   0.00030,146852976.00000,   0.00233,277157568.00000,  -0.00114,  -0.00257,   0.00057,-330304592.00000,   0.00000
168119894.80082,72224798.28861,-21205866.53786,  -0.00052,  -0.00257,   0.00030,151068464.00000,   0.00233,277157568.00000,  -0.00114,  -0.00257,   0.00057,-326089104.00000,   0.00000
173081791.80728,76348064.81510,-21576565.51814,  -0.00051,  -0.00256,   0.00029,155318224.00000,   0.00233,277157568.00000,  -0.00114,  -0.00257,   0.00057,-321839344.00000,   0.00000
178043688.81373,80471331.34159,-21953341.53087,  -0.00049,  -0.00255,   0.00029,159574720.00000,   0.00233,277157568.00000,  -0.00114,  -0.00257,   0.00057,-317582848.00000,   0.00000
183017739.88511,84582443.80315,-22330117.54361,  -0.00048,  -0.00254,   0.00028,163839328.00000,   0.00233,277157568.00000,  -0.00114,  -0.00257,   0.00057,-313318240.00000,   0.00000
188000906.50519,88714825.87833,-22706893.55635,  -0.00046,  -0.00253,   0.00028,168107216.00000,   0.00233,277157568.00000,  -0.00114,  -0.00257,   0.00057,-309050352.00000,   0.00000
193005342.73889,92856323.50221,-23089746.60155,  -0.00045,  -0.00252,   0.00027,172398736.00000,   0.00233,277157568.00000,  -0.00114,  -0.00257,   0.00057,-304758832.00000,   0.00000
198009778.97258,96997821.12609,-23478676.67922,  -0.00043,  -0.00251,   0.00027,176707328.00000,   0.00233,277157568.00000,  -0.00114,  -0.00257,   0.00057,-300450240.00000,   0.00000
203035484.81991,101148434.29867,-23867606.75688,  -0.00042,  -0.00250,   0.00026,181053040.00000,   0.00233,277157568.00000,  -0.00114,  -0.00257,   0.00057,-296104528.00000,   0.00000
208061190.66723,105299047.47125,-24256536.83454,  -0.00040,  -0.00249,   0.00026,185411872.00000,   0.00233,277157568.00000,  -0.00114,  -0.00257,   0.00057,-291745696.00000,   0.00000
213117281.67686,109480045.80614,-24651543.94467,  -0.00039,  -0.00248,   0.00025,189803408.00000,   0.00233,277157568.00000,  -0.00114,  -0.00257,   0.00057,-287354160.00000,   0.00000
218185526.75143,113648890.07610,-25052628.08726,  -0.00037,  -0.00247,   0.00025,194217216.00000,   0.00233,277157568.00000,  -0.00114,  -0.00257,   0.00057,-282940352.00000,   0.00000
223253771.82599,117817734.34607,-25453712.22985,  -0.00036,  -0.00247,   0.00024,198795904.00000,   0.00233,277157568.00000,  -0.00114,  -0.00257,   0.00057,-278361664.00000,   0.00000
228322016.90056,121986578.61604,-25854796.37245,  -0.00034,  -0.00246,   0.00024,203288544.00000,   0.00233,277157568.00000,  -0.00114,  -0.00257,   0.00057,-273869024.00000,   0.00000
233420647.13744,126185808.04832,-26261957.54750,  -0.00033,  -0.00245,   0.00023,207663936.00000,   0.00233,277157568.00000,  -0.00114,  -0.00257,   0.00057,-269493632.00000,   0.00000
238510161.82563,130363767.86698,-26675195.75502,  -0.00031,  -0.00244,   0.00023,212089760.00000,   0.00233,277157568.00000,  -0.00114,  -0.00257,   0.00057,-265067808.00000,   0.00000
243620946.12744,134550843.23434,-27088433.96254,  -0.00030,  -0.00243,   0.00022,216705872.00000,   0.00233,277157568.00000,  -0.00114,  -0.00257,   0.00057,-260451696.00000,   0.00000
248740845.97794,138759188.21532,-27501672.17006,  -0.00028,  -0.00242,   0.00021,221337248.00000,   0.00233,277157568.00000,  -0.00114,  -0.00257,   0.00057,-255820320.00000,   0.00000
253872899.89338,142955379.13137,-27920987.41004,  -0.00027,  -0.00241,   0.00021,225942960.00000,   0.00233,277157568.00000,  -0.00114,  -0.00257,   0.00057,-251214608.00000,   0.00000
259014069.35750,147172839.66104,-28346379.68248,  -0.00025,  -0.00240,   0.00020,230544368.00000,   0.00233,277157568.00000,  -0.00114,  -0.00257,   0.00057,-246613200.00000,   0.00000
264167392.88656,151378146.12579,-28765694.92247,  -0.00024,  -0.00239,   0.00020,235156304.00000,   0.00233,277157568.00000,  -0.00114,  -0.00257,   0.00057,-242001264.00000,   0.00000
269329831.96431,155604722.20416,-29197164.22738,  -0.00022,  -0.00238,   0.00019,239801056.00000,   0.00233,277157568.00000,  -0.00114,  -0.00257,   0.00057,-237356512.00000,   0.00000
274504425.10698,159819144.21760,-29628633.53228,  -0.00021,  -0.00237,   0.00019,244474848.00000,   0.00233,277157568.00000,  -0.00114,  -0.00257,   0.00057,-232682720.00000,   0.00000
279688133.79836,164054835.84467,-30060102.83719,  -0.00019,  -0.00237,   0.00018,249173136.00000,   0.00233,277157568.00000,  -0.00114,  -0.00257,   0.00057,-227984432.00000,   0.00000
284893112.10335,168299643.02043,-30497649.17457,  -0.00018,  -0.00236,   0.00018,253901360.00000,   0.00233,277157568.00000,  -0.00114,  -0.00257,   0.00057,-223256208.00000,   0.00000
290088974.85965,172523180.58256,-30935195.51194,  -0.00016,  -0.00235,   0.00017,258626464.00000,   0.00233,277157568.00000,  -0.00114,  -0.00257,   0.00057,-218531104.00000,   0.00000
295293953.16464,176767987.75832,-31378818.88177,  -0.00015,  -0.00234,   0.00016,263368720.00000,   0.00233,277157568.00000,  -0.00114,  -0.00257,   0.00057,-213788848.00000,   0.00000
300511085.53456,181000640.86916,-31822442.25161,  -0.00013,  -0.00233,   0.00016,268124352.00000,   0.00233,277157568.00000,  -0.00114,  -0.00257,   0.00057,-209033216.00000,   0.00000
305737333.45318,185254563.59361,-32272142.65391,  -0.00012,  -0.00232,   0.00015,272899360.00000,   0.00233,277157568.00000,  -0.00114,  -0.00257,   0.00057,-204258208.00000,   0.00000
310984850.98542,189517601.86676,-32721843.05621,  -0.00010,  -0.00231,   0.00015,277704224.00000,   0.00233,277157568.00000,  -0.00114,  -0.00257,   0.00057,-199453344.00000,   0.00000
316223252.96896,193759370.52629,-33177620.49097,  -0.00008,  -0.00230,   0.00014,282514048.00000,   0.00233,277157568.00000,  -0.00114,  -0.00257,   0.00057,-194643520.00000,   0.00000
321470770.50120,198022408.79944,-33633397.92574,  -0.00007,  -0.00229,   0.00014,287323168.00000,   0.00233,277157568.00000,  -0.00114,  -0.00257,   0.00057,-189834400.00000,   0.00000
326739557.64706,202294562.62129,-34095252.39296,  -0.00005,  -0.00228,   0.00013,292119520.00000,   0.00233,277157568.00000,  -0.00114,  -0.00257,   0.00057,-185038048.00000,   0.00000
332029614.40655,206575831.99183,-34557106.86019,  -0.00004,  -0.00227,   0.00012,296921824.00000,   0.00233,277157568.00000,  -0.00114,  -0.00257,   0.00057,-180235744.00000,   0.00000
337289286.00371,210826716.20005,-35018961.32742,  -0.00002,  -0.00226,   0.00012,301707264.00000,   0.00233,277157568.00000,  -0.00114,  -0.00257,   0.00057,-175450304.00000,   0.00000
342579342.76319,215107985.57059,-35486892.82711,  -0.00001,  -0.00226,   0.00011,306548928.00000,   0.00233,277157568.00000,  -0.00114,  -0.00257,   0.00057,-170608640.00000,   0.00000
347890669.13630,219398370.48983,-35960901.35926,   0.00001,  -0.00225,   0.00010,311396320.00000,   0.00233,277157568.00000,  -0.00114,  -0.00257,   0.00057,-165761248.00000,   0.00000
353192879.96071,223667485.79544,-36434909.89141,   0.00003,  -0.00224,   0.00010,316066208.00000,   0.00233,277157568.00000,  -0.00114,  -0.00257,   0.00057,-161091360.00000,   0.00000
358504206.33382,227957870.71468,-36908918.42357,   0.00004,  -0.00223,   0.00009,320920096.00000,   0.00233,277157568.00000,  -0.00114,  -0.00257,   0.00057,-156237472.00000,   0.00000
363815532.70692,232248255.63392,-37389003.98818,   0.00006,  -0.00222,   0.00009,325783264.00000,   0.00233,277157568.00000,  -0.00114,  -0.00257,   0.00057,-151374304.00000,   0.00000
369148128.69365,236547756.10185,-37875166.58526,   0.00007,  -0.00221,   0.00008,330673568.00000,   0.00233,277157568.00000,  -0.00114,  -0.00257,   0.00057,-146484000.00000,   0.00000
374492878.74530,240835102.50485,-38361329.18234,   0.00009,  -0.00220,   0.00007,335580160.00000,   0.00233,277157568.00000,  -0.00114,  -0.00257,   0.00057,-141577408.00000,   0.00000
379825474.73203,245134602.97278,-38847491.77943,   0.00011,  -0.00219,   0.00007,340492064.00000,   0.00233,277157568.00000,  -0.00114,  -0.00257,   0.00057,-136665504.00000,   0.00000
385179340.33238,249443218.98941,-39339731.40897,   0.00012,  -0.00218,   0.00006,345453984.00000,   0.00233,277157568.00000,  -0.00114,  -0.00257,   0.00057,-131703584.00000,   0.00000
390545359.99766,253739680.94111,-39831971.03851,   0.00014,  -0.00217,   0.00005,350476096.00000,   0.00233,277157568.00000,  -0.00114,  -0.00257,   0.00057,-126681472.00000,   0.00000
395899225.59801,258048296.95774,-40330287.70052,   0.00015,  -0.00216,   0.00005,355513856.00000,   0.00233,277157568.00000,  -0.00114,  -0.00257,   0.00057,-121643712.00000,   0.00000
401274360.81198,262366028.52306,-40828604.36253,   0.00017,  -0.00215,   0.00004,360508064.00000,   0.00233,277157568.00000,  -0.00114,  -0.00257,   0.00057,-116649504.00000,   0.00000
406661650.09088,266671606.02345,-41332998.05700,   0.00019,  -0.00215,   0.00003,365425760.00000,   0.00233,277157568.00000,  -0.00114,  -0.00257,   0.00057,-111731808.00000,   0.00000
412036785.30485,270989337.58877,-41837391.75147,   0.00020,  -0.00214,   0.00003,370284512.00000,   0.00233,277157568.00000,  -0.00114,  -0.00257,   0.00057,-106873056.00000,   0.00000
417433190.13245,275316184.70279,-42347862.47841,   0.00022,  -0.00213,   0.00002,375148000.00000,   0.00233,277157568.00000,  -0.00114,  -0.00257,   0.00057,-102009568.00000,   0.00000
422841749.02497,279630877.75188,-42858333.20534,   0.00023,  -0.00212,   0.00002,380032576.00000,   0.00233,277157568.00000,  -0.00114,  -0.00257,   0.00057,-97124992.00000,   0.00000
428238153.85256,283957724.86590,-43368803.93227,   0.00025,  -0.00211,   0.00001,384945120.00000,   0.00233,277157568.00000,  -0.00114,  -0.00257,   0.00057,-92212448.00000,   0.00000
433655828.29378,288293687.52861,-43885351.69167,   0.00027,  -0.00210,   0.00000,389925664.00000,   0.00233,277157568.00000,  -0.00114,  -0.00257,   0.00057,-87231904.00000,   0.00000
439064387.18630,292608380.57770,-44407976.48353,   0.00028,  -0.00209,  -0.00001,394949440.00000,   0.00233,277157568.00000,  -0.00114,  -0.00257,   0.00057,-82208128.00000,   0.00000
444503331.24114,296953458.78911,-44930601.27540,   0.00030,  -0.00208,  -0.00001,400046496.00000,   0.00233,277157568.00000,  -0.00114,  -0.00257,   0.00057,-77111072.00000,   0.00000
449911890.13366,301268151.83820,-45453226.06726,   0.00031,  -0.00207,  -0.00002,405142368.00000,   0.00233,277157568.00000,  -0.00114,  -0.00257,   0.00057,-72015200.00000,   0.00000
455350834.18850,305613230.04961,-45981927.89158,   0.00033,  -0.00206,  -0.00003,410276512.00000,   0.00233,277157568.00000,  -0.00114,  -0.00257,   0.00057,-66881056.00000,   0.00000
460811047.85696,309967423.80971,-46510629.71591,   0.00035,  -0.00205,  -0.00003,415414880.00000,   0.00233,277157568.00000,  -0.00114,  -0.00257,   0.00057,-61742688.00000,   0.00000
466240876.36311,314291232.40750,-47045408.57270,   0.00036,  -0.00205,  -0.00004,420493152.00000,   0.00233,277157568.00000,  -0.00114,  -0.00257,   0.00057,-56664416.00000,   0.00000
471701090.03157,318645426.16760,-47580187.42949,   0.00038,  -0.00204,  -0.00005,425542784.00000,   0.00233,277157568.00000,  -0.00114,  -0.00257,   0.00057,-51614784.00000,   0.00000
477152188.15133,322978350.31408,-48121043.31874,   0.00040,  -0.00203,  -0.00005,430494880.00000,   0.00233,277157568.00000,  -0.00114,  -0.00257,   0.00057,-46662688.00000,   0.00000
482633671.43342,327341659.62288,-48661899.20799,   0.00041,  -0.00202,  -0.00006,435354240.00000,   0.00233,277157568.00000,  -0.00114,  -0.00257,   0.00057,-41803328.00000,   0.00000
488084769.55318,331674583.76936,-49202755.09724,   0.00043,  -0.00201,  -0.00007,440149152.00000,   0.00233,277157568.00000,  -0.00114,  -0.00257,   0.00057,-37008416.00000,   0.00000
493566252.83527,336037893.07816,-49749688.01896,   0.00045,  -0.00200,  -0.00007,445074112.00000,   0.00233,277157568.00000,  -0.00114,  -0.00257,   0.00057,-32083456.00000,   0.00000
499038620.56866,340379932.77333,-50296620.94067,   0.00046,  -0.00199,  -0.00008,450097504.00000,   0.00233,277157568.00000,  -0.00114,  -0.00257,   0.00057,-27060064.00000,   0.00000
504532257.91567,344731088.01721,-50849630.89485,   0.00048,  -0.00198,  -0.00009,455266304.00000,   0.00233,277157568.00000,  -0.00114,  -0.00257,   0.00057,-21891264.00000,   0.00000
510013741.19775,349094397.32600,-51402640.84903,   0.00049,  -0.00197,  -0.00010,460260352.00000,   0.00233,277157568.00000,  -0.00114,  -0.00257,   0.00057,-16897216.00000,   0.00000
515507378.54476,353445552.56988,-51961727.83567,   0.00051,  -0.00196,  -0.00010,465341280.00000,   0.00233,277157568.00000,  -0.00114,  -0.00257,   0.00057,-11816288.00000,   0.00000
521001015.89177,357796707.81375,-52520814.82232,   0.00053,  -0.00195,  -0.00011,470438304.00000,   0.00233,277157568.00000,  -0.00114,  -0.00257,   0.00057,-6719264.00000,   0.00000
526503768.78748,362169132.67124,-53085978.84142,   0.00054,  -0.00195,  -0.00012,475547776.00000,   0.00233,277157568.00000,  -0.00114,  -0.00257,   0.00057,-1609792.00000,   0.00000
528243334.16666,363544491.52475,-53264248.35136,   0.00055,  -0.00194,  -0.00012,477158368.00000,   0.00233,277157568.00000,  -0.00114,  -0.00257,   0.00057, 800.00000,   0.00000
528143243.09519,364046041.54644,-53198388.40428,   0.00056,  -0.00194,  -0.00013,477158368.00000,   0.00235,277169664.00000,  -0.00113,  -0.00256,   0.00057, 160.00000,   2.00000
527997091.70752,364775828.53357,-53103671.37912,   0.00058,  -0.00193,  -0.00013,482228384.00000,   0.00236,277187232.00000,  -0.00111,  -0.00256,   0.00056, 224.00000,   2.00000
527848127.47993,365506879.84575,-53011015.79095,   0.00059,  -0.00192,  -0.00014,482276896.00000,   0.00238,277204864.00000,  -0.00109,  -0.00255,   0.00055, 224.00000,   2.00000
527703225.28192,366217311.96007,-52919886.74171,   0.00061,  -0.00191,  -0.00015,482284256.00000,   0.00240,277222496.00000,  -0.00108,  -0.00255,   0.00054, 288.00000,   2.00000
527556605.85455,366918633.97240,-52834632.26714,   0.00063,  -0.00190,  -0.00015,482304896.00000,   0.00241,277240096.00000,  -0.00106,  -0.00254,   0.00053, 288.00000,   2.00000
527412676.47588,367608960.84829,-52747318.64371,   0.00064,  -0.00189,  -0.00016,482340448.00000,   0.00243,277257760.00000,  -0.00104,  -0.00253,   0.00052,  64.00000,   2.00000
527266296.50044,368304656.11181,-52658860.71299,   0.00066,  -0.00188,  -0.00017,482369824.00000,   0.00245,277275424.00000,  -0.00102,  -0.00253,   0.00051, 288.00000,   2.00000
527119445.91860,368980972.80435,-52580178.14237,   0.00068,  -0.00187,  -0.00018,482362208.00000,   0.00246,277293024.00000,  -0.00100,  -0.00252,   0.00051, 128.00000,   2.00000
526975637.78702,369646103.15634,-52499662.88604,   0.00069,  -0.00186,  -0.00019,482397312.00000,   0.00248,277310656.00000,  -0.00098,  -0.00252,   0.00050, 320.00000,   2.00000
526830056.38281,370301541.59162,-52425322.56511,   0.00071,  -0.00185,  -0.00019,482417760.00000,   0.00250,277328288.00000,  -0.00096,  -0.00251,   0.00049,  64.00000,   2.00000
526687703.73547,370945755.22705,-52349285.28199,   0.00073,  -0.00184,  -0.00020,482452832.00000,   0.00251,277345952.00000,  -0.00095,  -0.00251,   0.00048, 288.00000,   2.00000
526541541.59437,371583636.34100,-52281736.39687,   0.00074,  -0.00184,  -0.00021,482456160.00000,   0.00253,277363552.00000,  -0.00093,  -0.00250,   0.00047, 160.00000,   2.00000
526398355.54270,372210000.76937,-52212513.37740,   0.00076,  -0.00183,  -0.00022,482491488.00000,   0.00255,277381216.00000,  -0.00091,  -0.00249,   0.00046, 192.00000,   2.00000
526256057.20641,372828301.79585,-52143917.77061,   0.00078,  -0.00182,  -0.00022,482509440.00000,   0.00256,277398880.00000,  -0.00089,  -0.00249,   0.00045, 128.00000,   2.00000
526112548.35488,373437150.12473,-52081750.98387,   0.00079,  -0.00181,  -0.00023,482529440.00000,   0.00258,277416512.00000,  -0.00087,  -0.00248,   0.00045, 352.00000,   2.00000
525969741.18272,374037830.58325,-52020207.15786,   0.00081,  -0.00180,  -0.00024,482547808.00000,   0.00260,277434144.00000,  -0.00085,  -0.00248,   0.00044, 288.00000,   2.00000
525827668.09682,374630380.57694,-51959330.29899,   0.00083,  -0.00179,  -0.00025,482565888.00000,   0.00261,277451776.00000,  -0.00083,  -0.00247,   0.00043, 128.00000,   2.00000
525684637.99681,375213717.80557,-51904953.11590,   0.00084,  -0.00178,  -0.00026,482585760.00000,   0.00263,277469376.00000,  -0.00082,  -0.00246,   0.00042, 416.00000,   2.00000
525542415.59632,375784065.93384,-51854795.65572,   0.00086,  -0.00177,  -0.00026,482622592.00000,   0.00265,277487040.00000,  -0.00080,  -0.00246,   0.00041, 352.00000,   2.00000
525401048.13432,376351557.37152,-51801723.39443,   0.00088,  -0.00176,  -0.00027,482621792.00000,   0.00266,277504640.00000,  -0.00078,  -0.00245,   0.00040, 224.00000,   2.00000
525258516.59867,376904801.10227,-51758689.77559,   0.00089,  -0.00175,  -0.00028,482660448.00000,   0.00268,277522304.00000,  -0.00076,  -0.00244,   0.00039, 128.00000,   2.00000
525119360.54921,377451985.44238,-51710554.53388,   0.00091,  -0.00174,  -0.00029,482676512.00000,   0.00270,277539936.00000,  -0.00074,  -0.00244,   0.00039, 192.00000,   2.00000
524979110.45328,377990193.55415,-51668887.47333,   0.00093,  -0.00174,  -0.00029,482696288.00000,   0.00271,277557568.00000,  -0.00072,  -0.00243,   0.00038, 352.00000,   2.00000
524839710.60275,378520806.88838,-51627848.96435,   0.00095,  -0.00173,  -0.00030,482714144.00000,   0.00273,277575200.00000,  -0.00070,  -0.00243,   0.00037, 352.00000,   2.00000
524699336.92738,379042686.19569,-51593230.41908,   0.00096,  -0.00172,  -0.00031,482733952.00000,   0.00275,277592800.00000,  -0.00069,  -0.00242,   0.00036, 320.00000,   2.00000
524559928.36453,379557222.58379,-51559184.68600,   0.00098,  -0.00171,  -0.00032,482751808.00000,   0.00276,277610400.00000,  -0.00067,  -0.00241,   0.00035, 224.00000,   2.00000
524425345.40143,380052232.85639,-51527189.74046,   0.00100,  -0.00170,  -0.00033,482758048.00000,   0.00278,277627968.00000,  -0.00065,  -0.00241,   0.00034, 288.00000,   2.00000
524288461.50851,380547709.05769,-51497926.05010,   0.00101,  -0.00169,  -0.00034,482805888.00000,   0.00280,277645632.00000,  -0.00063,  -0.00240,   0.00033, 160.00000,   2.00000
524150288.89355,381039923.54608,-51471346.45816,   0.00103,  -0.00168,  -0.00034,482806976.00000,   0.00281,277663200.00000,  -0.00061,  -0.00239,   0.00033, 352.00000,   2.00000
524013519.18930,381520159.00993,-51448892.24304,   0.00105,  -0.00167,  -0.00035,482843360.00000,   0.00283,277680832.00000,  -0.00059,  -0.00239,   0.00032, 160.00000,   2.00000
523875552.47404,381997445.29924,-51429042.72084,   0.00106,  -0.00166,  -0.00036,482844288.00000,   0.00285,277698400.00000,  -0.00058,  -0.00238,   0.00031, 160.00000,   2.00000
523745075.39842,382452225.22889,-51408963.35907,   0.00108,  -0.00165,  -0.00037,482867232.00000,   0.00286,277715968.00000,  -0.00056,  -0.00237,   0.00030, 256.00000,   2.00000
523611849.02548,382912869.33265,-51387845.74295,   0.00110,  -0.00165,  -0.00038,482896384.00000,   0.00288,277733568.00000,  -0.00054,  -0.00237,   0.00029, 160.00000,   2.00000
523477888.28305,383365831.45769,-51372953.96455,   0.00111,  -0.00164,  -0.00039,482916000.00000,   0.00290,277751168.00000,  -0.00052,  -0.00236,   0.00028, 384.00000,   2.00000
523342804.01049,383810941.76222,-51364156.72761,   0.00113,  -0.00163,  -0.00039,482935616.00000,   0.00291,277768768.00000,  -0.00050,  -0.00235,   0.00027, 160.00000,   2.00000
523211133.59085,384251415.78630,-51349897.69286,   0.00115,  -0.00162,  -0.00040,482951328.00000,   0.00293,277786336.00000,  -0.00048,  -0.00235,   0.00027, 192.00000,   2.00000
523082481.92304,384672311.64516,-51343218.86184,   0.00116,  -0.00161,  -0.00041,482959168.00000,   0.00295,277803872.00000,  -0.00047,  -0.00234,   0.00026, 288.00000,   2.00000
522949168.34618,385098173.40385,-51341084.96973,   0.00118,  -0.00160,  -0.00042,482990336.00000,   0.00296,277821440.00000,  -0.00045,  -0.00233,   0.00025, 320.00000,   2.00000
522819180.18464,385519637.27538,-51333379.22490,   0.00120,  -0.00159,  -0.00043,483005984.00000,   0.00298,277839008.00000,  -0.00043,  -0.00233,   0.00024, 224.00000,   2.00000
522688468.31075,385933998.37248,-51331701.97455,   0.00122,  -0.00158,  -0.00044,483025376.00000,   0.00300,277856544.00000,  -0.00041,  -0.00232,   0.00023, 288.00000,   2.00000
522560625.41827,386329120.31152,-51337398.75776,   0.00123,  -0.00157,  -0.00044,483033408.00000,   0.00301,277874048.00000,  -0.00039,  -0.00231,   0.00022, 288.00000,   2.00000
522430131.47833,386730913.10522,-51341693.42497,   0.00125,  -0.00156,  -0.00045,483062336.00000,   0.00303,277891616.00000,  -0.00037,  -0.00230,   0.00021, 192.00000,   2.00000
522301108.09871,387127407.36636,-51346096.32054,   0.00127,  -0.00155,  -0.00046,483079904.00000,   0.00305,277909120.00000,  -0.00036,  -0.00230,   0.00021, 224.00000,   2.00000
522176084.25921,387514776.39420,-51348491.00800,   0.00128,  -0.00155,  -0.00047,483114144.00000,   0.00306,277926720.00000,  -0.00034,  -0.00229,   0.00020, 192.00000,   2.00000
522051414.01586,387887310.81524,-51360303.02629,   0.00130,  -0.00154,  -0.00048,483105312.00000,   0.00308,277944192.00000,  -0.00032,  -0.00228,   0.00019, 192.00000,   2.00000
521924175.43291,388266871.11523,-51370624.76011,   0.00132,  -0.00153,  -0.00049,483134400.00000,   0.00310,277961696.00000,  -0.00030,  -0.00228,   0.00018, 128.00000,   2.00000
521798198.55770,388641337.00681,-51380932.55084,   0.00133,  -0.00152,  -0.00050,483151840.00000,   0.00311,277979200.00000,  -0.00028,  -0.00227,   0.00017, 128.00000,   2.00000
521674152.35008,389005493.84822,-51394893.87849,   0.00135,  -0.00151,  -0.00051,483187936.00000,   0.00313,277996768.00000,  -0.00026,  -0.00226,   0.00016, 288.00000,   2.00000
521548748.00146,389368730.24136,-51410889.28095,   0.00137,  -0.00150,  -0.00051,483188800.00000,   0.00315,278014240.00000,  -0.00025,  -0.00225,   0.00015, 192.00000,   2.00000
521424813.01502,389727270.25868,-51426808.01447,   0.00138,  -0.00149,  -0.00052,483206080.00000,   0.00316,278031744.00000,  -0.00023,  -0.00225,   0.00015, 288.00000,   2.00000
521306568.28760,390063704.13703,-51447747.20605,   0.00140,  -0.00148,  -0.00053,483230560.00000,   0.00318,278049248.00000,  -0.00021,  -0.00224,   0.00014, 288.00000,   2.00000
521183025.40124,390411556.53342,-51469144.93430,   0.00142,  -0.00147,  -0.00054,483243008.00000,   0.00320,278066720.00000,  -0.00019,  -0.00223,   0.00013, 320.00000,   2.00000
521060935.06467,390754933.51779,-51490381.98950,   0.00144,  -0.00146,  -0.00055,483260352.00000,   0.00321,278084160.00000,  -0.00017,  -0.00223,   0.00012, 384.00000,   2.00000
520937783.14147,391092134.30852,-51517168.60126,   0.00145,  -0.00145,  -0.00056,483279808.00000,   0.00323,278101632.00000,  -0.00016,  -0.00222,   0.00011, 192.00000,   2.00000
520819067.89987,391421208.27915,-51541650.72674,   0.00147,  -0.00145,  -0.00057,483313728.00000,   0.00325,278119136.00000,  -0.00014,  -0.00221,   0.00010, 384.00000,   2.00000
520698758.76074,391749862.82183,-51567986.32941,   0.00149,  -0.00144,  -0.00058,483314528.00000,   0.00326,278136608.00000,  -0.00012,  -0.00220,   0.00009, 192.00000,   2.00000
520579781.20286,392074256.23548,-51594072.92420,   0.00150,  -0.00143,  -0.00059,483331968.00000,   0.00328,278154048.00000,  -0.00010,  -0.00220,   0.00009, 224.00000,   2.00000
520460291.14647,392393140.74928,-51625702.69719,   0.00152,  -0.00142,  -0.00059,483351168.00000,   0.00330,278171488.00000,  -0.00008,  -0.00219,   0.00008, 352.00000,   2.00000
520341878.84194,392707722.10391,-51656983.45093,   0.00154,  -0.00141,  -0.00060,483368832.00000,   0.00331,278188896.00000,  -0.00006,  -0.00218,   0.00007, 256.00000,   2.00000
520225531.18087,393012750.19903,-51691613.93310,   0.00155,  -0.00140,  -0.00061,483404512.00000,   0.00333,278206400.00000,  -0.00005,  -0.00217,   0.00006, 224.00000,   2.00000
520109923.77579,393319460.19564,-51722232.67716,   0.00157,  -0.00139,  -0.00062,483403424.00000,   0.00335,278223808.00000,  -0.00003,  -0.00217,   0.00005, 224.00000,   2.00000
519993383.13842,393620623.84155,-51758281.90495,   0.00159,  -0.00138,  -0.00063,483422720.00000,   0.00336,278241216.00000,  -0.00001,  -0.00216,   0.00004, 192.00000,   2.00000
519876350.20421,393916617.78833,-51799741.79693,   0.00160,  -0.00137,  -0.00064,483441792.00000,   0.00338,278258656.00000,   0.00001,  -0.00215,   0.00003, 288.00000,   2.00000
519759815.96974,394214312.40327,-51837078.21488,   0.00162,  -0.00136,  -0.00065,483440832.00000,   0.00340,278276000.00000,   0.00003,  -0.00214,   0.00003, 288.00000,   2.00000
519645322.52478,394502604.96998,-51877675.13499,   0.00164,  -0.00135,  -0.00066,483476544.00000,   0.00341,278293408.00000,   0.00004,  -0.00214,   0.00002, 224.00000,   2.00000
519528072.33109,394798793.16480,-51916323.76220,   0.00166,  -0.00135,  -0.00067,483505888.00000,   0.00343,278310816.00000,   0.00006,  -0.00213,   0.00001, 256.00000,   2.00000
519416227.35552,395079600.33958,-51956064.57791,   0.00167,  -0.00134,  -0.00068,483511104.00000,   0.00345,278328224.00000,   0.00008,  -0.00212,  -0.00000, 192.00000,   2.00000
519303768.43939,395355448.83326,-52001157.04425,   0.00169,  -0.00133,  -0.00069,483530368.00000,   0.00347,278345600.00000,   0.00010,  -0.00211,  -0.00001, 224.00000,   2.00000
519185530.75096,395643343.35491,-52046326.90448,   0.00171,  -0.00132,  -0.00069,483543104.00000,   0.00348,278362976.00000,   0.00012,  -0.00211,  -0.00002, 224.00000,   2.00000
519075677.49665,395911955.83417,-52090421.43664,   0.00172,  -0.00131,  -0.00070,483564832.00000,   0.00350,278380352.00000,   0.00013,  -0.00210,  -0.00003,  96.00000,   2.00000
518960176.46074,396192830.49048,-52134624.74748,   0.00174,  -0.00130,  -0.00071,483577664.00000,   0.00352,278397696.00000,   0.00015,  -0.00209,  -0.00004, 224.00000,   2.00000
518851063.45044,396453079.36190,-52183539.44461,   0.00176,  -0.00129,  -0.00072,483601408.00000,   0.00353,278415040.00000,   0.00017,  -0.00208,  -0.00004, 320.00000,   2.00000
518735879.43727,396725402.30260,-52232457.93579,   0.00177,  -0.00128,  -0.00073,483614272.00000,   0.00355,278432384.00000,   0.00019,  -0.00208,  -0.00005, 160.00000,   2.00000
518626472.99576,396983030.82720,-52282399.85867,   0.00179,  -0.00127,  -0.00074,483619392.00000,   0.00357,278449696.00000,   0.00020,  -0.00207,  -0.00006, 288.00000,   2.00000
518512166.55273,397247346.74887,-52336030.49424,   0.00181,  -0.00126,  -0.00075,483650560.00000,   0.00358,278467040.00000,   0.00022,  -0.00206,  -0.00007, 384.00000,   2.00000
518401090.00525,397509677.02233,-52383281.75747,   0.00182,  -0.00125,  -0.00076,483666016.00000,   0.00360,278484352.00000,   0.00024,  -0.00205,  -0.00008, 256.00000,   2.00000
518289354.51796,397767244.09610,-52435791.74373,   0.00184,  -0.00125,  -0.00077,483685088.00000,   0.00362,278501664.00000,   0.00026,  -0.00204,  -0.00009, 224.00000,   2.00000
518181006.98423,398008623.86528,-52495021.90383,   0.00186,  -0.00124,  -0.00078,483692160.00000,   0.00363,278518944.00000,   0.00028,  -0.00204,  -0.00010, 224.00000,   2.00000
518071837.42186,398259828.52373,-52546290.14018,   0.00187,  -0.00123,  -0.00079,483719552.00000,   0.00365,278536256.00000,   0.00029,  -0.00203,  -0.00011, 160.00000,   2.00000
517962114.97395,398506489.04763,-52602785.31368,   0.00189,  -0.00122,  -0.00080,483738560.00000,   0.00366,278553568.00000,   0.00031,  -0.00202,  -0.00011, 288.00000,   2.00000
517850541.75341,398754089.95761,-52660750.40263,   0.00191,  -0.00121,  -0.00081,483739488.00000,   0.00368,278570816.00000,   0.00033,  -0.00201,  -0.00012, 288.00000,   2.00000
517743249.72342,398994313.42904,-52715952.45322,   0.00192,  -0.00120,  -0.00082,483773120.00000,   0.00370,278588096.00000,   0.00035,  -0.00201,  -0.00013, 192.00000,   2.00000
517630324.32160,399247218.37106,-52771141.68482,   0.00194,  -0.00119,  -0.00083,483785792.00000,   0.00371,278605376.00000,   0.00036,  -0.00200,  -0.00014, 224.00000,   2.00000
517523642.96636,399479674.67577,-52830885.19008,   0.00196,  -0.00118,  -0.00084,483809504.00000,   0.00373,278622656.00000,   0.00038,  -0.00199,  -0.00015, 256.00000,   2.00000
517417566.52229,399715124.04260,-52886351.21757,   0.00198,  -0.00117,  -0.00085,483808160.00000,   0.00375,278639872.00000,   0.00040,  -0.00198,  -0.00016, 224.00000,   2.00000
517306250.62804,399957149.63315,-52945369.44349,   0.00199,  -0.00116,  -0.00085,483839456.00000,   0.00376,278657120.00000,   0.00042,  -0.00197,  -0.00017, 224.00000,   2.00000
517198471.55840,400183332.28827,-53011050.35784,   0.00201,  -0.00115,  -0.00086,483846368.00000,   0.00378,278674336.00000,   0.00044,  -0.00197,  -0.00018, 128.00000,   2.00000
517090007.81641,400419511.59819,-53068669.63937,   0.00203,  -0.00114,  -0.00087,483873568.00000,   0.00380,278691584.00000,   0.00045,  -0.00196,  -0.00018, 224.00000,   2.00000
516977778.62416,400655421.08613,-53133518.14245,   0.00204,  -0.00114,  -0.00088,483876448.00000,   0.00381,278708768.00000,   0.00047,  -0.00195,  -0.00019, 320.00000,   2.00000
516873971.54962,400872640.61718,-53197020.88291,   0.00206,  -0.00113,  -0.00089,483897888.00000,   0.00383,278725984.00000,   0.00049,  -0.00194,  -0.00020, 320.00000,   2.00000
516767440.32252,401098435.34777,-53258217.17079,   0.00208,  -0.00112,  -0.00090,483927168.00000,   0.00385,278743200.00000,   0.00051,  -0.00193,  -0.00021, 128.00000,   2.00000
516659315.77069,401325713.09097,-53320828.51952,   0.00209,  -0.00111,  -0.00091,483927840.00000,   0.00386,278760384.00000,   0.00052,  -0.00193,  -0.00022, 256.00000,   2.00000
516550312.33679,401548394.34136,-53388404.32391,   0.00211,  -0.00110,  -0.00092,483946976.00000,   0.00388,278777536.00000,   0.00054,  -0.00192,  -0.00023, 256.00000,   2.00000
516440701.97378,401781026.76598,-53447801.14444,   0.00213,  -0.00109,  -0.00093,483974400.00000,   0.00390,278794752.00000,   0.00056,  -0.00191,  -0.00024, 256.00000,   2.00000
516334623.67100,401997897.46865,-53513758.54663,   0.00214,  -0.00108,  -0.00094,483981312.00000,   0.00391,278811904.00000,   0.00058,  -0.00190,  -0.00025, 416.00000,   2.00000
516229977.76498,402211972.57665,-53578840.55742,   0.00216,  -0.00107,  -0.00095,483998656.00000,   0.00393,278829056.00000,   0.00059,  -0.00189,  -0.00025, 320.00000,   2.00000
516120232.57657,402432691.75416,-53647147.39213,   0.00218,  -0.00106,  -0.00096,484029888.00000,   0.00395,278846240.00000,   0.00061,  -0.00189,  -0.00026, 256.00000,   2.00000
516015321.02424,402645386.87887,-53712512.63668,   0.00219,  -0.00105,  -0.00097,484016576.00000,   0.00396,278863328.00000,   0.00063,  -0.00188,  -0.00027, 256.00000,   2.00000
515908721.48684,402860525.65115,-53778877.46022,   0.00221,  -0.00104,  -0.00098,484064192.00000,   0.00398,278880544.00000,   0.00065,  -0.00187,  -0.00028, 224.00000,   2.00000
515800493.83679,403077156.85333,-53846375.68498,   0.00223,  -0.00103,  -0.00099,484065120.00000,   0.00400,278897664.00000,   0.00066,  -0.00186,  -0.00029, 256.00000,   2.00000
515693784.28797,403290866.36468,-53912767.14601,   0.00224,  -0.00102,  -0.00100,484082400.00000,   0.00401,278914784.00000,   0.00068,  -0.00185,  -0.00030, 192.00000,   2.00000
515588857.50725,403501865.51685,-53978048.55716,   0.00226,  -0.00101,  -0.00101,484099616.00000,   0.00403,278931904.00000,   0.00070,  -0.00184,  -0.00031, 320.00000,   2.00000
515485381.28664,403709917.39042,-54042138.74328,   0.00228,  -0.00101,  -0.00102,484117088.00000,   0.00405,278949024.00000,   0.00072,  -0.00184,  -0.00032, 192.00000,   2.00000
515377169.60458,403924594.34238,-54109094.46700,   0.00229,  -0.00100,  -0.00103,484148608.00000,   0.00406,278966176.00000,   0.00073,  -0.00183,  -0.00033, 128.00000,   2.00000
515273972.94698,404131393.32359,-54172860.18859,   0.00231,  -0.00099,  -0.00104,484135360.00000,   0.00408,278983200.00000,   0.00075,  -0.00182,  -0.00034, 224.00000,   2.00000
515166207.79577,404344841.73016,-54239363.09588,   0.00232,  -0.00098,  -0.00105,484167104.00000,   0.00410,279000320.00000,   0.00077,  -0.00181,  -0.00034, 256.00000,   2.00000
515067470.79519,404539752.20514,-54303836.30453,   0.00234,  -0.00097,  -0.00106,484188832.00000,   0.00411,279017408.00000,   0.00079,  -0.00180,  -0.00035, 160.00000,   2.00000
514961115.10006,404745900.13354,-54373118.75334,   0.00236,  -0.00096,  -0.00107,484204096.00000,   0.00413,279034496.00000,   0.00080,  -0.00180,  -0.00036, 256.00000,   2.00000
514858760.84999,404950772.14307,-54435052.87608,   0.00237,  -0.00095,  -0.00108,484219840.00000,   0.00415,279051584.00000,   0.00082,  -0.00179,  -0.00037, 224.00000,   2.00000
514754828.08243,405157047.21349,-54497621.23149,   0.00239,  -0.00094,  -0.00109,484221024.00000,   0.00416,279068576.00000,   0.00084,  -0.00178,  -0.00038, 192.00000,   2.00000
514649883.62744,405365422.15246,-54560311.17666,   0.00241,  -0.00093,  -0.00110,484269440.00000,   0.00418,279085696.00000,   0.00086,  -0.00177,  -0.00039,  96.00000,   2.00000
514548050.08449,405564441.12644,-54625253.34186,   0.00242,  -0.00092,  -0.00111,484258432.00000,   0.00420,279102720.00000,   0.00087,  -0.00176,  -0.00040, 256.00000,   2.00000
514447156.25548,405767034.09007,-54684415.45187,   0.00244,  -0.00091,  -0.00112,484305120.00000,   0.00421,279119808.00000,   0.00089,  -0.00175,  -0.00041, 224.00000,   2.00000
514344938.65566,405971170.87140,-54744093.71434,   0.00246,  -0.00090,  -0.00113,484306720.00000,   0.00423,279136864.00000,   0.00091,  -0.00175,  -0.00042, 128.00000,   2.00000
514244694.89809,406172353.99676,-54801981.41185,   0.00247,  -0.00089,  -0.00114,484324576.00000,   0.00425,279153888.00000,   0.00093,  -0.00174,  -0.00043, 128.00000,   2.00000
514141031.45325,406373479.61001,-54866060.22486,   0.00249,  -0.00088,  -0.00115,484328320.00000,   0.00426,279170880.00000,   0.00094,  -0.00173,  -0.00044,  64.00000,   2.00000
514045011.86464,406568991.35285,-54920299.58505,   0.00251,  -0.00087,  -0.00116,484360704.00000,   0.00428,279187904.00000,   0.00096,  -0.00172,  -0.00044,  96.00000,   2.00000
513945347.02294,406764449.46526,-54980803.96580,   0.00252,  -0.00086,  -0.00117,484364448.00000,   0.00430,279204896.00000,   0.00098,  -0.00171,  -0.00045, 160.00000,   2.00000
513846952.21882,406963622.37519,-55035488.01704,   0.00254,  -0.00085,  -0.00118,484411488.00000,   0.00431,279221952.00000,   0.00099,  -0.00170,  -0.00046, 192.00000,   2.00000
513746900.01124,407164285.86023,-55090776.69938,   0.00256,  -0.00084,  -0.00119,484413440.00000,   0.00433,279238944.00000,   0.00101,  -0.00170,  -0.00047,   0.00000,   2.00000
513648987.64197,407362291.36175,-55144465.30126,   0.00257,  -0.00084,  -0.00120,484431712.00000,   0.00435,279255936.00000,   0.00103,  -0.00169,  -0.00048, 128.00000,   2.00000
513549452.04508,407561976.14920,-55198916.76979,   0.00259,  -0.00083,  -0.00121,484433664.00000,   0.00436,279272896.00000,   0.00105,  -0.00168,  -0.00049, 160.00000,   2.00000
513455129.18159,407754410.67650,-55249590.38412,   0.00260,  -0.00082,  -0.00122,484468352.00000,   0.00438,279289888.00000,   0.00106,  -0.00167,  -0.00050, 128.00000,   2.00000
513356792.78390,407946955.88566,-55306935.31703,   0.00262,  -0.00081,  -0.00123,484472384.00000,   0.00439,279306816.00000,   0.00108,  -0.00166,  -0.00051,  96.00000,   2.00000
513261711.28171,408145091.46636,-55353234.56172,   0.00264,  -0.00080,  -0.00124,484517376.00000,   0.00441,279323840.00000,   0.00110,  -0.00165,  -0.00052,  64.00000,   2.00000
513162291.28817,408343225.14721,-55406467.33563,   0.00265,  -0.00079,  -0.00125,484521664.00000,   0.00443,279340800.00000,   0.00111,  -0.00164,  -0.00053, 160.00000,   2.00000
513060998.34044,408543338.80113,-55460999.55609,   0.00267,  -0.00078,  -0.00126,484523616.00000,   0.00444,279357696.00000,   0.00113,  -0.00164,  -0.00054,  96.00000,   2.00000
512964640.27503,408736441.19718,-55512335.55460,   0.00269,  -0.00077,  -0.00127,484558240.00000,   0.00446,279374656.00000,   0.00115,  -0.00163,  -0.00055, 192.00000,   2.00000
512865221.79427,408937876.85986,-55561215.46205,   0.00270,  -0.00076,  -0.00128,484589088.00000,   0.00448,279391648.00000,   0.00117,  -0.00162,  -0.00056, 192.00000,   2.00000
512767594.79743,409130429.15773,-55613591.68225,   0.00272,  -0.00075,  -0.00129,484578592.00000,   0.00449,279408544.00000,   0.00118,  -0.00161,  -0.00057,  64.00000,   2.00000
512666972.88576,409331646.59773,-55663847.43836,   0.00273,  -0.00074,  -0.00130,484609120.00000,   0.00451,279425472.00000,   0.00120,  -0.00160,  -0.00058, 192.00000,   2.00000
512564843.08000,409528641.30777,-55719589.19184,   0.00275,  -0.00073,  -0.00131,484629568.00000,   0.00453,279442432.00000,   0.00122,  -0.00159,  -0.00059,  64.00000,   2.00000
512461607.05341,409735970.35064,-55767790.89163,   0.00277,  -0.00072,  -0.00132,484657984.00000,   0.00454,279459392.00000,   0.00123,  -0.00158,  -0.00059, 224.00000,   2.00000
512357443.66515,409932887.24232,-55825850.68571,   0.00278,  -0.00071,  -0.00133,484649280.00000,   0.00456,279476256.00000,   0.00125,  -0.00158,  -0.00060, 160.00000,   2.00000
512251964.17272,410140297.16549,-55876702.72353,   0.00280,  -0.00070,  -0.00134,484677472.00000,   0.00458,279493152.00000,   0.00127,  -0.00157,  -0.00061, 288.00000,   2.00000
512148096.80179,410339217.42128,-55931478.94292,   0.00281,  -0.00069,  -0.00135,484713760.00000,   0.00459,279510112.00000,   0.00128,  -0.00156,  -0.00062, 224.00000,   2.00000
512041037.50305,410540645.05214,-55989110.40062,   0.00283,  -0.00068,  -0.00136,484715136.00000,   0.00461,279527008.00000,   0.00130,  -0.00155,  -0.00063, 288.00000,   2.00000
511930638.61022,410744600.93402,-56049738.52446,   0.00285,  -0.00067,  -0.00137,484716256.00000,   0.00463,279543840.00000,   0.00132,  -0.00154,  -0.00064, 384.00000,   2.00000
511819406.00341,410952758.81973,-56107310.49167,   0.00286,  -0.00066,  -0.00138,484762464.00000,   0.00464,279560768.00000,   0.00134,  -0.00153,  -0.00065, 128.00000,   2.00000
511708369.15264,411159116.55086,-56165942.45552,   0.00288,  -0.00065,  -0.00139,484779456.00000,   0.00466,279577696.00000,   0.00135,  -0.00152,  -0.00066, 224.00000,   2.00000
511593632.22297,411368063.15892,-56227956.55752,   0.00290,  -0.00064,  -0.00140,484780256.00000,   0.00468,279594560.00000,   0.00137,  -0.00151,  -0.00067, 256.00000,   2.00000
511478672.71691,411575126.22894,-56291215.13942,   0.00291,  -0.00063,  -0.00141,484797024.00000,   0.00469,279611392.00000,   0.00139,  -0.00151,  -0.00068, 224.00000,   2.00000
511359075.73690,411791105.31209,-56354161.07853,   0.00293,  -0.00062,  -0.00142,484826080.00000,   0.00471,279628288.00000,   0.00140,  -0.00150,  -0.00069, 160.00000,   2.00000
511233446.27654,412008122.55901,-56426582.42596,   0.00294,  -0.00061,  -0.00143,484828320.00000,   0.00472,279645120.00000,   0.00142,  -0.00149,  -0.00070, 320.00000,   2.00000
511113367.27828,412220530.92475,-56492459.81514,   0.00296,  -0.00060,  -0.00144,484858816.00000,   0.00474,279661984.00000,   0.00144,  -0.00148,  -0.00071, 224.00000,   2.00000
510987209.05648,412434039.17972,-56567813.61854,   0.00298,  -0.00059,  -0.00145,484860544.00000,   0.00476,279678816.00000,   0.00145,  -0.00147,  -0.00072, 192.00000,   2.00000
510858699.69723,412658238.21651,-56637191.36941,   0.00299,  -0.00058,  -0.00146,484886976.00000,   0.00477,279695680.00000,   0.00147,  -0.00146,  -0.00073, 288.00000,   2.00000
510727710.45516,412878835.66394,-56713798.06983,   0.00301,  -0.00057,  -0.00147,484904800.00000,   0.00479,279712512.00000,   0.00149,  -0.00145,  -0.00074, 384.00000,   2.00000
510596593.74852,413097576.11528,-56791731.33427,   0.00302,  -0.00056,  -0.00148,484920288.00000,   0.00481,279729376.00000,   0.00151,  -0.00144,  -0.00074, 224.00000,   2.00000
510465759.31818,413314667.62368,-56870896.64520,   0.00304,  -0.00055,  -0.00149,484935744.00000,   0.00482,279746208.00000,   0.00152,  -0.00144,  -0.00075, 224.00000,   2.00000
510329095.37871,413546558.49492,-56945832.75429,   0.00306,  -0.00054,  -0.00150,484945536.00000,   0.00484,279763008.00000,   0.00154,  -0.00143,  -0.00076, 160.00000,   2.00000
510190576.57107,413774643.61570,-57027482.66644,   0.00307,  -0.00053,  -0.00151,484962752.00000,   0.00486,279779808.00000,   0.00156,  -0.00142,  -0.00077, 256.00000,   2.00000
510052775.73144,414000708.85140,-57109847.10259,   0.00309,  -0.00052,  -0.00152,484977920.00000,   0.00487,279796608.00000,   0.00157,  -0.00141,  -0.00078, 352.00000,   2.00000
509911117.48970,414235002.56913,-57191008.19676,   0.00310,  -0.00051,  -0.00153,485005984.00000,   0.00489,279813440.00000,   0.00159,  -0.00140,  -0.00079, 256.00000,   2.00000
509774987.00814,414456351.26303,-57274065.67474,   0.00312,  -0.00050,  -0.00154,485008640.00000,   0.00491,279830240.00000,   0.00161,  -0.00139,  -0.00080, 160.00000,   2.00000
509629670.91049,414688629.58844,-57363363.28808,   0.00313,  -0.00049,  -0.00156,485022464.00000,   0.00492,279847008.00000,   0.00162,  -0.00138,  -0.00081, 192.00000,   2.00000
509483550.94778,414930437.34832,-57444895.94507,   0.00315,  -0.00048,  -0.00157,485048608.00000,   0.00494,279863808.00000,   0.00164,  -0.00137,  -0.00082, 192.00000,   2.00000
509343629.78960,415158819.53814,-57527578.87424,   0.00317,  -0.00047,  -0.00158,485051680.00000,   0.00496,279880576.00000,   0.00166,  -0.00137,  -0.00083, 128.00000,   2.00000
509201071.62291,415394738.17167,-57607780.30175,   0.00318,  -0.00046,  -0.00159,485080192.00000,   0.00497,279897376.00000,   0.00168,  -0.00136,  -0.00084, 160.00000,   2.00000
509054022.59560,415636265.73005,-57691012.74702,   0.00320,  -0.00045,  -0.00160,485110784.00000,   0.00499,279914208.00000,   0.00169,  -0.00135,  -0.00085, 288.00000,   2.00000
508912110.11247,415870133.90507,-57771092.95544,   0.00321,  -0.00044,  -0.00161,485096544.00000,   0.00501,279930944.00000,   0.00171,  -0.00134,  -0.00086, 256.00000,   2.00000
508771845.76918,416106408.76982,-57845830.54845,   0.00323,  -0.00043,  -0.00162,485141632.00000,   0.00502,279947776.00000,   0.00173,  -0.00133,  -0.00086, 288.00000,   2.00000
508628169.82535,416341891.62211,-57926890.58312,   0.00324,  -0.00042,  -0.00163,485144224.00000,   0.00504,279964544.00000,   0.00174,  -0.00132,  -0.00087, 352.00000,   2.00000
508484889.13356,416585736.22719,-57998661.06158,   0.00326,  -0.00041,  -0.00164,485171648.00000,   0.00505,279981376.00000,   0.00176,  -0.00131,  -0.00088, 320.00000,   2.00000
508338419.79567,416828436.56797,-58076459.57917,   0.00328,  -0.00040,  -0.00165,485174624.00000,   0.00507,279998112.00000,   0.00178,  -0.00130,  -0.00089, 224.00000,   2.00000
508200687.46930,417064153.79265,-58144270.30239,   0.00329,  -0.00039,  -0.00166,485205984.00000,   0.00509,280014912.00000,   0.00179,  -0.00129,  -0.00090,  64.00000,   2.00000
508060071.64742,417298920.38669,-58218019.41928,   0.00331,  -0.00038,  -0.00167,485208992.00000,   0.00510,280031680.00000,   0.00181,  -0.00128,  -0.00091, 288.00000,   2.00000
507923760.76109,417536957.94373,-58279912.37721,   0.00332,  -0.00037,  -0.00168,485253408.00000,   0.00512,280048512.00000,   0.00183,  -0.00128,  -0.00092, 256.00000,   2.00000
507784303.35101,417773698.72393,-58347669.35308,   0.00334,  -0.00036,  -0.00169,485256992.00000,   0.00514,280065280.00000,   0.00184,  -0.00127,  -0.00093, 192.00000,   2.00000
507639539.85139,418021168.96425,-58413684.77050,   0.00335,  -0.00034,  -0.00170,485271200.00000,   0.00515,280082048.00000,   0.00186,  -0.00126,  -0.00094, 256.00000,   2.00000
507508378.41149,418251294.83577,-58471423.29167,   0.00337,  -0.00033,  -0.00171,485290176.00000,   0.00517,280098816.00000,   0.00188,  -0.00125,  -0.00095, 448.00000,   2.00000
507368705.38495,418495853.88758,-58529225.52514,   0.00339,  -0.00032,  -0.00172,485335744.00000,   0.00519,280115680.00000,   0.00189,  -0.00124,  -0.00096, 192.00000,   2.00000
507232521.01824,418730590.82652,-58589044.77505,   0.00340,  -0.00031,  -0.00173,485324640.00000,   0.00520,280132448.00000,   0.00191,  -0.00123,  -0.00097, 128.00000,   2.00000
507094827.20757,418971502.20142,-58645067.08727,   0.00342,  -0.00030,  -0.00174,485355104.00000,   0.00522,280149216.00000,   0.00193,  -0.00122,  -0.00098, 256.00000,   2.00000
506962196.65550,419210104.36088,-58693498.18691,   0.00343,  -0.00029,  -0.00175,485371072.00000,   0.00524,280166016.00000,   0.00194,  -0.00121,  -0.00099, 256.00000,   2.00000
506825312.10288,419452769.19792,-58744015.30296,   0.00345,  -0.00028,  -0.00176,485403968.00000,   0.00525,280182816.00000,   0.00196,  -0.00120,  -0.00100, 160.00000,   2.00000
506687364.37095,419696150.48403,-58795065.69186,   0.00346,  -0.00027,  -0.00177,485405760.00000,   0.00527,280199584.00000,   0.00198,  -0.00119,  -0.00101, 128.00000,   2.00000
506556046.63194,419930775.14207,-58842172.07628,   0.00348,  -0.00026,  -0.00178,485439808.00000,   0.00529,280216416.00000,   0.00199,  -0.00118,  -0.00102, 288.00000,   2.00000
506420756.24131,420177952.00819,-58882446.62472,   0.00349,  -0.00025,  -0.00179,485452448.00000,   0.00530,280233184.00000,   0.00201,  -0.00117,  -0.00103, 160.00000,   2.00000
506285885.56984,420419421.95728,-58927014.85631,   0.00351,  -0.00024,  -0.00180,485472384.00000,   0.00532,280249984.00000,   0.00203,  -0.00116,  -0.00104, 224.00000,   2.00000
506153448.54404,420657011.08792,-58970183.79378,   0.00353,  -0.00023,  -0.00181,485490304.00000,   0.00534,280266752.00000,   0.00204,  -0.00115,  -0.00105, 160.00000,   2.00000
506018782.20856,420900818.06274,-59010192.30683,   0.00354,  -0.00022,  -0.00182,485521056.00000,   0.00535,280283552.00000,   0.00206,  -0.00114,  -0.00106, 288.00000,   2.00000
505882269.43426,421145452.19618,-59051246.51583,   0.00356,  -0.00021,  -0.00183,485522912.00000,   0.00537,280300320.00000,   0.00208,  -0.00113,  -0.00107, 192.00000,   2.00000
505754507.22833,421383587.02403,-59083194.64369,   0.00357,  -0.00019,  -0.00184,485554496.00000,   0.00539,280317120.00000,   0.00209,  -0.00113,  -0.00108,  32.00000,   2.00000
505617901.15383,421630930.83398,-59120280.91272,   0.00359,  -0.00018,  -0.00185,485571200.00000,   0.00540,280333888.00000,   0.00211,  -0.00112,  -0.00109,   0.00000,   2.00000
505478975.95293,421884582.58595,-59154515.17372,   0.00360,  -0.00017,  -0.00186,485602080.00000,   0.00542,280350688.00000,   0.00213,  -0.00111,  -0.00110, 192.00000,   2.00000
505346703.50118,422124523.57753,-59189684.64423,   0.00362,  -0.00016,  -0.00188,485606912.00000,   0.00544,280367456.00000,   0.00214,  -0.00110,  -0.00111, 160.00000,   2.00000
505212004.17503,422371006.14289,-59222151.81432,   0.00363,  -0.00015,  -0.00189,485637696.00000,   0.00545,280384256.00000,   0.00216,  -0.00109,  -0.00112, 256.00000,   2.00000
505070376.64484,422628445.33942,-59254232.77098,   0.00365,  -0.00014,  -0.00190,485652320.00000,   0.00547,280401056.00000,   0.00217,  -0.00108,  -0.00113, 192.00000,   2.00000
504937494.55947,422879586.89015,-59277622.79296,   0.00366,  -0.00013,  -0.00191,485683904.00000,   0.00549,280417856.00000,   0.00219,  -0.00107,  -0.00114, 256.00000,   2.00000
504799781.99881,423129902.75889,-59308373.97506,   0.00368,  -0.00012,  -0.00192,485687872.00000,   0.00550,280434624.00000,   0.00221,  -0.00106,  -0.00115, 224.00000,   2.00000
504659574.90891,423386771.75954,-59336634.72445,   0.00369,  -0.00011,  -0.00193,485718496.00000,   0.00552,280451456.00000,   0.00222,  -0.00105,  -0.00116, 160.00000,   2.00000
