# sigma_xx, sigma_yy, sigma_xy, epsilon_xx, epsilon_yy, epsilon_xy, vonMises, epsPlastic, hardening, epsilonP__xx, epsilonP__yy, epsilonP__xy, yieldValue, iteration
   0.00000,   0.00000,   0.00000,   0.00000,   0.00000,   0.00000,1181185.37500,   0.00000,274640576.00000,   0.00000,   0.00000,   0.00000,-473459392.00000,   0.00000
   0.00000,   0.00000,   0.00000,   0.00000,   0.00000,   0.00000,1181185.37500,   0.00000,274640576.00000,   0.00000,   0.00000,   0.00000,-473459392.00000,   0.00000
-1750646.08725,-1552950.54100,109252.80188,  -0.00000,  -0.00000,   0.00000,1341280.00000,   0.00000,274640576.00000,   0.00000,   0.00000,   0.00000,-473299296.00000,   0.00000
-3483083.37419,-3098097.31043,218505.60376,  -0.00001,  -0.00001,   0.00000,2927557.50000,   0.00000,274640576.00000,   0.00000,   0.00000,   0.00000,-471713024.00000,   0.00000
-5215520.66114,-4643244.07986,322555.89126,  -0.00001,  -0.00001,   0.00000,4553508.50000,   0.00000,274640576.00000,   0.00000,   0.00000,   0.00000,-470087072.00000,   0.00000
-6921945.37620,-6162378.27742,431808.69314,  -0.00002,  -0.00001,   0.00001,6229411.50000,   0.00000,274640576.00000,   0.00000,   0.00000,   0.00000,-468411168.00000,   0.00000
-8654382.66314,-7707525.04686,535858.98065,  -0.00002,  -0.00002,   0.00001,7926505.00000,   0.00000,274640576.00000,   0.00000,   0.00000,   0.00000,-466714064.00000,   0.00000
-10360807.37821,-9226659.24441,645111.78252,  -0.00003,  -0.00002,   0.00001,9583414.00000,   0.00000,274640576.00000,   0.00000,   0.00000,   0.00000,-465057168.00000,   0.00000
-12049023.29296,-10737989.67041,749162.07003,  -0.00003,  -0.00003,   0.00001,11202868.00000,   0.00000,274640576.00000,   0.00000,   0.00000,   0.00000,-463437712.00000,   0.00000
-13737239.20771,-12249320.09640,853212.35753,  -0.00004,  -0.00003,   0.00001,12806296.00000,   0.00000,274640576.00000,   0.00000,   0.00000,   0.00000,-461834272.00000,   0.00000
-15417651.35090,-13742441.72208,957262.64504,  -0.00004,  -0.00003,   0.00001,14390898.00000,   0.00000,274640576.00000,   0.00000,   0.00000,   0.00000,-460249680.00000,   0.00000
-17098063.49409,-15235563.34777,1061312.93254,  -0.00005,  -0.00004,   0.00001,15976446.00000,   0.00000,274640576.00000,   0.00000,   0.00000,   0.00000,-458664128.00000,   0.00000
-18760266.83696,-16720881.20188,1165363.22004,  -0.00005,  -0.00004,   0.00002,17554098.00000,   0.00000,274640576.00000,   0.00000,   0.00000,   0.00000,-457086480.00000,   0.00000
-20422470.17984,-18206199.05600,1269413.50755,  -0.00006,  -0.00004,   0.00002,19139078.00000,   0.00000,274640576.00000,   0.00000,   0.00000,   0.00000,-455501504.00000,   0.00000
-22066464.72240,-19683713.13856,1373463.79505,  -0.00006,  -0.00005,   0.00002,20717044.00000,   0.00000,274640576.00000,   0.00000,   0.00000,   0.00000,-453923536.00000,   0.00000
-23702655.49340,-21143018.42080,1477514.08256,  -0.00007,  -0.00005,   0.00002,22288004.00000,   0.00000,274640576.00000,   0.00000,   0.00000,   0.00000,-452352576.00000,   0.00000
-25338846.26440,-22602323.70305,1581564.37006,  -0.00007,  -0.00005,   0.00002,23861768.00000,   0.00000,274640576.00000,   0.00000,   0.00000,   0.00000,-450778816.00000,   0.00000
-26956828.23509,-24053825.21373,1685614.65756,  -0.00008,  -0.00006,   0.00002,25422438.00000,   0.00000,274640576.00000,   0.00000,   0.00000,   0.00000,-449218144.00000,   0.00000
-28567006.43421,-25487117.92409,1789664.94507,  -0.00008,  -0.00006,   0.00002,26970344.00000,   0.00000,274640576.00000,   0.00000,   0.00000,   0.00000,-447670240.00000,   0.00000
-30184988.40490,-26938619.43477,1888512.71820,  -0.00008,  -0.00006,   0.00002,28527612.00000,   0.00000,274640576.00000,   0.00000,   0.00000,   0.00000,-446112960.00000,   0.00000
-31776957.80371,-28364108.37358,1992563.00570,  -0.00009,  -0.00007,   0.00003,30058060.00000,   0.00000,274640576.00000,   0.00000,   0.00000,   0.00000,-444582512.00000,   0.00000
-33368927.20252,-29789597.31238,2096613.29320,  -0.00009,  -0.00007,   0.00003,31586550.00000,   0.00000,274640576.00000,   0.00000,   0.00000,   0.00000,-443054032.00000,   0.00000
-34953092.82976,-31196877.45087,2195461.06633,  -0.00010,  -0.00007,   0.00003,33100568.00000,   0.00000,274640576.00000,   0.00000,   0.00000,   0.00000,-441540000.00000,   0.00000
-36519049.65670,-32596353.81780,2299511.35384,  -0.00010,  -0.00008,   0.00003,34600800.00000,   0.00000,274640576.00000,   0.00000,   0.00000,   0.00000,-440039776.00000,   0.00000
-38085006.48363,-33995830.18473,2403561.64134,  -0.00011,  -0.00008,   0.00003,36100644.00000,   0.00000,274640576.00000,   0.00000,   0.00000,   0.00000,-438539936.00000,   0.00000
-39632754.51025,-35387502.78009,2507611.92885,  -0.00011,  -0.00008,   0.00003,37586756.00000,   0.00000,274640576.00000,   0.00000,   0.00000,   0.00000,-437053824.00000,   0.00000
-41180502.53688,-36779175.37546,2606459.70197,  -0.00012,  -0.00009,   0.00003,39072264.00000,   0.00000,274640576.00000,   0.00000,   0.00000,   0.00000,-435568320.00000,   0.00000
-42720446.79193,-38152639.17051,2710509.98948,  -0.00012,  -0.00009,   0.00004,40547648.00000,   0.00000,274640576.00000,   0.00000,   0.00000,   0.00000,-434092928.00000,   0.00000
-44242182.24668,-39518299.19400,2814560.27698,  -0.00012,  -0.00009,   0.00004,42010120.00000,   0.00000,274640576.00000,   0.00000,   0.00000,   0.00000,-432630464.00000,   0.00000
-45756113.92986,-40865750.41718,2913408.05011,  -0.00013,  -0.00010,   0.00004,43460316.00000,   0.00000,274640576.00000,   0.00000,   0.00000,   0.00000,-431180256.00000,   0.00000
-47277849.38461,-42231410.44067,3017458.33761,  -0.00013,  -0.00010,   0.00004,44924400.00000,   0.00000,274640576.00000,   0.00000,   0.00000,   0.00000,-429716176.00000,   0.00000
-48773572.26748,-43571057.89228,3121508.62512,  -0.00014,  -0.00010,   0.00004,46363272.00000,   0.00000,274640576.00000,   0.00000,   0.00000,   0.00000,-428277312.00000,   0.00000
-50261491.37878,-44892496.54358,3225558.91262,  -0.00014,  -0.00011,   0.00004,47790460.00000,   0.00000,274640576.00000,   0.00000,   0.00000,   0.00000,-426850112.00000,   0.00000
-51739005.46134,-46224340.22363,3324406.68575,  -0.00015,  -0.00011,   0.00004,49215020.00000,   0.00000,274640576.00000,   0.00000,   0.00000,   0.00000,-425425552.00000,   0.00000
-53226924.57265,-47545778.87493,3428456.97326,  -0.00015,  -0.00011,   0.00004,50642428.00000,   0.00000,274640576.00000,   0.00000,   0.00000,   0.00000,-423998144.00000,   0.00000
-54678426.08333,-48851609.98310,3532507.26076,  -0.00015,  -0.00012,   0.00005,52042040.00000,   0.00000,274640576.00000,   0.00000,   0.00000,   0.00000,-422598528.00000,   0.00000
-56148136.39432,-50165244.86284,3636557.54826,  -0.00016,  -0.00012,   0.00005,53455164.00000,   0.00000,274640576.00000,   0.00000,   0.00000,   0.00000,-421185408.00000,   0.00000
-57591834.13344,-51452867.17070,3740607.83577,  -0.00016,  -0.00012,   0.00005,54842160.00000,   0.00000,274640576.00000,   0.00000,   0.00000,   0.00000,-419798416.00000,   0.00000
-59035531.87255,-52740489.47856,3844658.12327,  -0.00017,  -0.00012,   0.00005,56228816.00000,   0.00000,274640576.00000,   0.00000,   0.00000,   0.00000,-418411760.00000,   0.00000
-60461020.81136,-54020308.01486,3948708.41077,  -0.00017,  -0.00013,   0.00005,57601392.00000,   0.00000,274640576.00000,   0.00000,   0.00000,   0.00000,-417039184.00000,   0.00000
-61878705.97860,-55281917.75085,4057961.21265,  -0.00017,  -0.00013,   0.00005,58962792.00000,   0.00000,274640576.00000,   0.00000,   0.00000,   0.00000,-415677792.00000,   0.00000
-63278182.34553,-56535723.71527,4162011.50016,  -0.00018,  -0.00013,   0.00005,60309048.00000,   0.00000,274640576.00000,   0.00000,   0.00000,   0.00000,-414331520.00000,   0.00000
-64695867.51277,-57797333.45126,4266061.78766,  -0.00018,  -0.00014,   0.00006,61669132.00000,   0.00000,274640576.00000,   0.00000,   0.00000,   0.00000,-412971440.00000,   0.00000
-66077135.07938,-59043335.64412,4370112.07517,  -0.00019,  -0.00014,   0.00006,63001636.00000,   0.00000,274640576.00000,   0.00000,   0.00000,   0.00000,-411638944.00000,   0.00000
-67468807.67475,-60278932.80823,4479364.87705,  -0.00019,  -0.00014,   0.00006,64337120.00000,   0.00000,274640576.00000,   0.00000,   0.00000,   0.00000,-410303456.00000,   0.00000
-68842271.46980,-61506726.20077,4588617.67892,  -0.00019,  -0.00015,   0.00006,65659100.00000,   0.00000,274640576.00000,   0.00000,   0.00000,   0.00000,-408981472.00000,   0.00000
-70207931.49329,-62716310.79301,4692667.96643,  -0.00020,  -0.00015,   0.00006,66968248.00000,   0.00000,274640576.00000,   0.00000,   0.00000,   0.00000,-407672320.00000,   0.00000
-71555382.71647,-63918091.61368,4801920.76831,  -0.00020,  -0.00015,   0.00006,68265024.00000,   0.00000,274640576.00000,   0.00000,   0.00000,   0.00000,-406375552.00000,   0.00000
-72902833.93964,-65119872.43435,4911173.57019,  -0.00020,  -0.00015,   0.00006,69562224.00000,   0.00000,274640576.00000,   0.00000,   0.00000,   0.00000,-405078352.00000,   0.00000
-74250285.16282,-66321653.25502,5020426.37207,  -0.00021,  -0.00016,   0.00007,70859720.00000,   0.00000,274640576.00000,   0.00000,   0.00000,   0.00000,-403780864.00000,   0.00000
-75571723.81412,-67497421.50381,5129679.17394,  -0.00021,  -0.00016,   0.00007,72131784.00000,   0.00000,274640576.00000,   0.00000,   0.00000,   0.00000,-402508800.00000,   0.00000
-76893162.46542,-68673189.75261,5238931.97582,  -0.00022,  -0.00016,   0.00007,73404152.00000,   0.00000,274640576.00000,   0.00000,   0.00000,   0.00000,-401236416.00000,   0.00000
-78196392.31641,-69841154.22984,5348184.77770,  -0.00022,  -0.00017,   0.00007,74663032.00000,   0.00000,274640576.00000,   0.00000,   0.00000,   0.00000,-399977536.00000,   0.00000
-79491818.39583,-70990909.90676,5457437.57958,  -0.00022,  -0.00017,   0.00007,75910048.00000,   0.00000,274640576.00000,   0.00000,   0.00000,   0.00000,-398730528.00000,   0.00000
-80787244.47525,-72140665.58368,5571892.89584,  -0.00023,  -0.00017,   0.00007,77158272.00000,   0.00000,274640576.00000,   0.00000,   0.00000,   0.00000,-397482304.00000,   0.00000
-82082670.55468,-73290421.26060,5681145.69772,  -0.00023,  -0.00017,   0.00007,78405376.00000,   0.00000,274640576.00000,   0.00000,   0.00000,   0.00000,-396235200.00000,   0.00000
-83352084.06223,-74414164.36564,5795601.01397,  -0.00023,  -0.00018,   0.00008,79627768.00000,   0.00000,274640576.00000,   0.00000,   0.00000,   0.00000,-395012800.00000,   0.00000
-84603288.76946,-75530103.69912,5910056.33022,  -0.00024,  -0.00018,   0.00008,80836296.00000,   0.00000,274640576.00000,   0.00000,   0.00000,   0.00000,-393804288.00000,   0.00000
-85872702.27701,-76653846.80416,6024511.64648,  -0.00024,  -0.00018,   0.00008,82058288.00000,   0.00000,274640576.00000,   0.00000,   0.00000,   0.00000,-392582288.00000,   0.00000
-87116103.21268,-77751577.33733,6138966.96273,  -0.00024,  -0.00018,   0.00008,83254248.00000,   0.00000,274640576.00000,   0.00000,   0.00000,   0.00000,-391386336.00000,   0.00000
-88341295.34804,-78841504.09893,6253422.27899,  -0.00025,  -0.00019,   0.00008,84436128.00000,   0.00000,274640576.00000,   0.00000,   0.00000,   0.00000,-390204448.00000,   0.00000
-89584696.28371,-79939234.63210,6367877.59524,  -0.00025,  -0.00019,   0.00008,85631264.00000,   0.00000,274640576.00000,   0.00000,   0.00000,   0.00000,-389009312.00000,   0.00000
-90783875.84720,-81003148.82183,6487535.42587,  -0.00026,  -0.00019,   0.00008,86787680.00000,   0.00000,274640576.00000,   0.00000,   0.00000,   0.00000,-387852896.00000,   0.00000
-92001264.21099,-82074866.78312,6607193.25650,  -0.00026,  -0.00019,   0.00009,87957408.00000,   0.00000,274640576.00000,   0.00000,   0.00000,   0.00000,-386683168.00000,   0.00000
-93200443.77448,-83138780.97284,6721648.57276,  -0.00026,  -0.00020,   0.00009,89111752.00000,   0.00000,274640576.00000,   0.00000,   0.00000,   0.00000,-385528832.00000,   0.00000
-94391819.56640,-84184486.36226,6841306.40338,  -0.00027,  -0.00020,   0.00009,90254736.00000,   0.00000,274640576.00000,   0.00000,   0.00000,   0.00000,-384385840.00000,   0.00000
-95564986.55800,-85222387.98011,6960964.23401,  -0.00027,  -0.00020,   0.00009,91383640.00000,   0.00000,274640576.00000,   0.00000,   0.00000,   0.00000,-383256928.00000,   0.00000
-96738153.54961,-86260289.59796,7085824.57902,  -0.00027,  -0.00020,   0.00009,92513176.00000,   0.00000,274640576.00000,   0.00000,   0.00000,   0.00000,-382127392.00000,   0.00000
-97911320.54122,-87298191.21581,7205482.40965,  -0.00028,  -0.00021,   0.00009,93641184.00000,   0.00000,274640576.00000,   0.00000,   0.00000,   0.00000,-380999392.00000,   0.00000
-99058474.96095,-88310080.26179,7330342.75465,  -0.00028,  -0.00021,   0.00010,94744280.00000,   0.00000,274640576.00000,   0.00000,   0.00000,   0.00000,-379896288.00000,   0.00000
-100197825.60912,-89303760.50745,7450000.58528,  -0.00028,  -0.00021,   0.00010,95834048.00000,   0.00000,274640576.00000,   0.00000,   0.00000,   0.00000,-378806528.00000,   0.00000
-101344980.02885,-90315649.55343,7574860.93029,  -0.00029,  -0.00021,   0.00010,96936584.00000,   0.00000,274640576.00000,   0.00000,   0.00000,   0.00000,-377704000.00000,   0.00000
-102466121.87670,-91301526.02753,7699721.27529,  -0.00029,  -0.00022,   0.00010,98013344.00000,   0.00000,274640576.00000,   0.00000,   0.00000,   0.00000,-376627232.00000,   0.00000
-103579459.95300,-92269193.70132,7824581.62030,  -0.00029,  -0.00022,   0.00010,99078056.00000,   0.00000,274640576.00000,   0.00000,   0.00000,   0.00000,-375562528.00000,   0.00000
-104700601.80085,-93255070.17542,7954644.47968,  -0.00029,  -0.00022,   0.00010,100155728.00000,   0.00000,274640576.00000,   0.00000,   0.00000,   0.00000,-374484848.00000,   0.00000
-105795731.07683,-94214934.07764,8079504.82468,  -0.00030,  -0.00022,   0.00011,101206672.00000,   0.00000,274640576.00000,   0.00000,   0.00000,   0.00000,-373433904.00000,   0.00000
-106883056.58125,-95156589.17955,8209567.68406,  -0.00030,  -0.00022,   0.00011,102246952.00000,   0.00000,274640576.00000,   0.00000,   0.00000,   0.00000,-372393632.00000,   0.00000
-107959977.05691,-96108649.31021,8339630.54344,  -0.00030,  -0.00023,   0.00011,103285480.00000,   0.00000,274640576.00000,   0.00000,   0.00000,   0.00000,-371355104.00000,   0.00000
-109047302.56133,-97050304.41212,8469693.40282,  -0.00031,  -0.00023,   0.00011,104325928.00000,   0.00000,274640576.00000,   0.00000,   0.00000,   0.00000,-370314656.00000,   0.00000
-110090406.69355,-97958143.17059,8604958.77658,  -0.00031,  -0.00023,   0.00011,105328672.00000,   0.00000,274640576.00000,   0.00000,   0.00000,   0.00000,-369311904.00000,   0.00000
-111159523.39766,-98891994.50094,8735021.63596,  -0.00031,  -0.00023,   0.00011,106355952.00000,   0.00000,274640576.00000,   0.00000,   0.00000,   0.00000,-368284624.00000,   0.00000
-112202627.52989,-99799833.25941,8870287.00971,  -0.00032,  -0.00024,   0.00012,107359184.00000,   0.00000,274640576.00000,   0.00000,   0.00000,   0.00000,-367281392.00000,   0.00000
-113237927.89055,-100689463.21757,9005552.38347,  -0.00032,  -0.00024,   0.00012,108350872.00000,   0.00000,274640576.00000,   0.00000,   0.00000,   0.00000,-366289696.00000,   0.00000
-114262823.22246,-101589498.20448,9140817.75722,  -0.00032,  -0.00024,   0.00012,109341016.00000,   0.00000,274640576.00000,   0.00000,   0.00000,   0.00000,-365299552.00000,   0.00000
-115279914.78281,-102471324.39108,9276083.13098,  -0.00032,  -0.00024,   0.00012,110319864.00000,   0.00000,274640576.00000,   0.00000,   0.00000,   0.00000,-364320704.00000,   0.00000
-116289202.57160,-103334941.77736,9416551.01911,  -0.00033,  -0.00024,   0.00012,111288400.00000,   0.00000,274640576.00000,   0.00000,   0.00000,   0.00000,-363352176.00000,   0.00000
-117280281.56008,-104190755.39208,9551816.39286,  -0.00033,  -0.00025,   0.00012,112242416.00000,   0.00000,274640576.00000,   0.00000,   0.00000,   0.00000,-362398160.00000,   0.00000
-118271360.54855,-105046569.00680,9692284.28099,  -0.00033,  -0.00025,   0.00013,113198192.00000,   0.00000,274640576.00000,   0.00000,   0.00000,   0.00000,-361442384.00000,   0.00000
-119262439.53703,-105902382.62152,9832752.16912,  -0.00034,  -0.00025,   0.00013,114154400.00000,   0.00000,274640576.00000,   0.00000,   0.00000,   0.00000,-360486176.00000,   0.00000
-120227505.95363,-106732183.66436,9978422.57163,  -0.00034,  -0.00025,   0.00013,115086752.00000,   0.00000,274640576.00000,   0.00000,   0.00000,   0.00000,-359553824.00000,   0.00000
-121192572.37023,-107561984.70721,10118890.45976,  -0.00034,  -0.00025,   0.00013,116018328.00000,   0.00000,274640576.00000,   0.00000,   0.00000,   0.00000,-358622240.00000,   0.00000
-122157638.78683,-108391785.75005,10264560.86226,  -0.00034,  -0.00025,   0.00013,116951584.00000,   0.00000,274640576.00000,   0.00000,   0.00000,   0.00000,-357688992.00000,   0.00000
-123114901.43186,-109203377.99258,10410231.26477,  -0.00035,  -0.00026,   0.00014,117873512.00000,   0.00000,274640576.00000,   0.00000,   0.00000,   0.00000,-356767072.00000,   0.00000
-124053955.27659,-110007166.46355,10555901.66728,  -0.00035,  -0.00026,   0.00014,118782080.00000,   0.00000,274640576.00000,   0.00000,   0.00000,   0.00000,-355858496.00000,   0.00000
-124974800.32100,-110803151.16296,10706774.58416,  -0.00035,  -0.00026,   0.00014,119678664.00000,   0.00000,274640576.00000,   0.00000,   0.00000,   0.00000,-354961920.00000,   0.00000
-125906050.39416,-111588730.83361,10852444.98666,  -0.00036,  -0.00026,   0.00014,120576240.00000,   0.00000,274640576.00000,   0.00000,   0.00000,   0.00000,-354064336.00000,   0.00000
-126819091.66700,-112366506.73270,11003317.90354,  -0.00036,  -0.00026,   0.00014,121461792.00000,   0.00000,274640576.00000,   0.00000,   0.00000,   0.00000,-353178784.00000,   0.00000
-127713924.13954,-113136478.86023,11154190.82042,  -0.00036,  -0.00027,   0.00015,122334000.00000,   0.00000,274640576.00000,   0.00000,   0.00000,   0.00000,-352306576.00000,   0.00000
-128619161.64082,-113896045.95901,11305063.73730,  -0.00036,  -0.00027,   0.00015,123208384.00000,   0.00000,274640576.00000,   0.00000,   0.00000,   0.00000,-351432192.00000,   0.00000
-129506190.34179,-114647809.28623,11461139.16856,  -0.00037,  -0.00027,   0.00015,124070800.00000,   0.00000,274640576.00000,   0.00000,   0.00000,   0.00000,-350569776.00000,   0.00000
-130393219.04276,-115399572.61344,11617214.59982,  -0.00037,  -0.00027,   0.00015,124933528.00000,   0.00000,274640576.00000,   0.00000,   0.00000,   0.00000,-349707040.00000,   0.00000
-131254235.17186,-116125323.36878,11773290.03107,  -0.00037,  -0.00027,   0.00015,125770888.00000,   0.00000,274640576.00000,   0.00000,   0.00000,   0.00000,-348869696.00000,   0.00000
-132115251.30095,-116851074.12412,11929365.46233,  -0.00037,  -0.00027,   0.00016,126608560.00000,   0.00000,274640576.00000,   0.00000,   0.00000,   0.00000,-348032016.00000,   0.00000
-132976267.43005,-117576824.87946,12085440.89358,  -0.00038,  -0.00028,   0.00016,127446496.00000,   0.00000,274640576.00000,   0.00000,   0.00000,   0.00000,-347194080.00000,   0.00000
-133811270.98727,-118276563.06293,12246718.83921,  -0.00038,  -0.00028,   0.00016,128260432.00000,   0.00000,274640576.00000,   0.00000,   0.00000,   0.00000,-346380144.00000,   0.00000
-134646274.54449,-118976301.24639,12407996.78485,  -0.00038,  -0.00028,   0.00016,129074792.00000,   0.00000,274640576.00000,   0.00000,   0.00000,   0.00000,-345565792.00000,   0.00000
-135481278.10171,-119676039.42986,12569274.73048,  -0.00038,  -0.00028,   0.00016,129889208.00000,   0.00000,274640576.00000,   0.00000,   0.00000,   0.00000,-344751360.00000,   0.00000
-136308477.88736,-120357568.81301,12730552.67611,  -0.00039,  -0.00028,   0.00017,130692008.00000,   0.00000,274640576.00000,   0.00000,   0.00000,   0.00000,-343948576.00000,   0.00000
-137117468.87271,-121031294.42460,12897033.13611,  -0.00039,  -0.00028,   0.00017,131482728.00000,   0.00000,274640576.00000,   0.00000,   0.00000,   0.00000,-343157856.00000,   0.00000
-137926459.85805,-121705020.03618,13063513.59612,  -0.00039,  -0.00028,   0.00017,132273632.00000,   0.00000,274640576.00000,   0.00000,   0.00000,   0.00000,-342366944.00000,   0.00000
-138727647.07183,-122360536.84746,13229994.05613,  -0.00039,  -0.00029,   0.00017,133052848.00000,   0.00000,274640576.00000,   0.00000,   0.00000,   0.00000,-341587728.00000,   0.00000
-139518429.25686,-123026458.68748,13396474.51613,  -0.00039,  -0.00029,   0.00017,133830344.00000,   0.00000,274640576.00000,   0.00000,   0.00000,   0.00000,-340810240.00000,   0.00000
-140293603.89876,-123655962.92688,13562954.97614,  -0.00040,  -0.00029,   0.00018,134584320.00000,   0.00000,274640576.00000,   0.00000,   0.00000,   0.00000,-340056256.00000,   0.00000
-141058373.51192,-124295872.19503,13734637.95052,  -0.00040,  -0.00029,   0.00018,135337984.00000,   0.00000,274640576.00000,   0.00000,   0.00000,   0.00000,-339302592.00000,   0.00000
-141833548.15382,-124925376.43443,13906320.92490,  -0.00040,  -0.00029,   0.00018,136093792.00000,   0.00000,274640576.00000,   0.00000,   0.00000,   0.00000,-338546784.00000,   0.00000
-142590513.99541,-125547076.90227,14078003.89928,  -0.00040,  -0.00029,   0.00018,136835920.00000,   0.00000,274640576.00000,   0.00000,   0.00000,   0.00000,-337804656.00000,   0.00000
-143347479.83701,-126168777.37010,14254889.38804,  -0.00041,  -0.00029,   0.00019,137579744.00000,   0.00000,274640576.00000,   0.00000,   0.00000,   0.00000,-337060832.00000,   0.00000
-144078433.10672,-126764465.26606,14431774.87680,  -0.00041,  -0.00030,   0.00019,138298240.00000,   0.00000,274640576.00000,   0.00000,   0.00000,   0.00000,-336342336.00000,   0.00000
-144809386.37644,-127360153.16202,14608660.36555,  -0.00041,  -0.00030,   0.00019,139016976.00000,   0.00000,274640576.00000,   0.00000,   0.00000,   0.00000,-335623600.00000,   0.00000
-145540339.64615,-127955841.05798,14785545.85431,  -0.00041,  -0.00030,   0.00019,139735648.00000,   0.00000,274640576.00000,   0.00000,   0.00000,   0.00000,-334904928.00000,   0.00000
-146263489.14430,-128533320.15363,14962431.34307,  -0.00041,  -0.00030,   0.00019,140442736.00000,   0.00000,274640576.00000,   0.00000,   0.00000,   0.00000,-334197840.00000,   0.00000
-146968429.84214,-129102995.47771,15144519.34620,  -0.00042,  -0.00030,   0.00020,141137840.00000,   0.00000,274640576.00000,   0.00000,   0.00000,   0.00000,-333502736.00000,   0.00000
-147673370.53998,-129672670.80180,15326607.34933,  -0.00042,  -0.00030,   0.00020,141833152.00000,   0.00000,274640576.00000,   0.00000,   0.00000,   0.00000,-332807424.00000,   0.00000
-148370507.46626,-130224137.32557,15508695.35246,  -0.00042,  -0.00030,   0.00020,142516816.00000,   0.00000,274640576.00000,   0.00000,   0.00000,   0.00000,-332123760.00000,   0.00000
-149057239.36378,-130786008.87809,15690783.35560,  -0.00042,  -0.00030,   0.00020,143198704.00000,   0.00000,274640576.00000,   0.00000,   0.00000,   0.00000,-331441872.00000,   0.00000
-149754376.29006,-131337475.40186,15878073.87310,  -0.00043,  -0.00031,   0.00021,143884272.00000,   0.00000,274640576.00000,   0.00000,   0.00000,   0.00000,-330756304.00000,   0.00000
-150425500.64446,-131862929.35376,16065364.39061,  -0.00043,  -0.00031,   0.00021,144544688.00000,   0.00000,274640576.00000,   0.00000,   0.00000,   0.00000,-330095888.00000,   0.00000
-151086219.97011,-132398788.33440,16252654.90812,  -0.00043,  -0.00031,   0.00021,145203264.00000,   0.00000,274640576.00000,   0.00000,   0.00000,   0.00000,-329437312.00000,   0.00000
-151739135.52420,-132916438.51473,16439945.42562,  -0.00043,  -0.00031,   0.00021,145850400.00000,   0.00000,274640576.00000,   0.00000,   0.00000,   0.00000,-328790176.00000,   0.00000
-152402456.10704,-133423683.66632,16632438.45751,  -0.00043,  -0.00031,   0.00022,146501312.00000,   0.00000,274640576.00000,   0.00000,   0.00000,   0.00000,-328139264.00000,   0.00000
-153037162.86081,-133933530.07509,16824931.48939,  -0.00044,  -0.00031,   0.00022,147136832.00000,   0.00000,274640576.00000,   0.00000,   0.00000,   0.00000,-327503744.00000,   0.00000
-153682274.64334,-134432971.45510,17017424.52127,  -0.00044,  -0.00031,   0.00022,147774528.00000,   0.00000,274640576.00000,   0.00000,   0.00000,   0.00000,-326866048.00000,   0.00000
-154309177.62555,-134924609.06356,17209917.55315,  -0.00044,  -0.00031,   0.00022,148398720.00000,   0.00000,274640576.00000,   0.00000,   0.00000,   0.00000,-326241856.00000,   0.00000
-154936080.60776,-135416246.67202,17407613.09941,  -0.00044,  -0.00031,   0.00023,149024992.00000,   0.00000,274640576.00000,   0.00000,   0.00000,   0.00000,-325615584.00000,   0.00000
-155555179.81841,-135889675.48016,17600106.13129,  -0.00044,  -0.00031,   0.00023,149638016.00000,   0.00000,274640576.00000,   0.00000,   0.00000,   0.00000,-325002560.00000,   0.00000
-156156070.22874,-136355300.51674,17797801.67755,  -0.00044,  -0.00032,   0.00023,150239456.00000,   0.00000,274640576.00000,   0.00000,   0.00000,   0.00000,-324401120.00000,   0.00000
-156775169.43939,-136828729.32488,18000699.73818,  -0.00045,  -0.00032,   0.00023,150856640.00000,   0.00000,274640576.00000,   0.00000,   0.00000,   0.00000,-323783936.00000,   0.00000
-157376059.84973,-137294354.36146,18198395.28444,  -0.00045,  -0.00032,   0.00024,151458576.00000,   0.00000,274640576.00000,   0.00000,   0.00000,   0.00000,-323182000.00000,   0.00000
-157950937.68818,-137733966.82617,18401293.34507,  -0.00045,  -0.00032,   0.00024,152037344.00000,   0.00000,274640576.00000,   0.00000,   0.00000,   0.00000,-322603232.00000,   0.00000
-158544024.32696,-138181383.06243,18604191.40571,  -0.00045,  -0.00032,   0.00024,152630176.00000,   0.00000,274640576.00000,   0.00000,   0.00000,   0.00000,-322010400.00000,   0.00000
-159118902.16542,-138620995.52714,18807089.46634,  -0.00045,  -0.00032,   0.00024,153209504.00000,   0.00000,274640576.00000,   0.00000,   0.00000,   0.00000,-321431072.00000,   0.00000
-159693780.00388,-139060607.99184,19015190.04135,  -0.00046,  -0.00032,   0.00025,153791200.00000,   0.00000,274640576.00000,   0.00000,   0.00000,   0.00000,-320849376.00000,   0.00000
-160260854.07077,-139482011.65623,19218088.10198,  -0.00046,  -0.00032,   0.00025,154359664.00000,   0.00000,274640576.00000,   0.00000,   0.00000,   0.00000,-320280912.00000,   0.00000
-160809719.33736,-139895611.54906,19426188.67699,  -0.00046,  -0.00032,   0.00025,154916864.00000,   0.00000,274640576.00000,   0.00000,   0.00000,   0.00000,-319723712.00000,   0.00000
-161358584.60394,-140309211.44189,19634289.25200,  -0.00046,  -0.00032,   0.00026,155474320.00000,   0.00000,274640576.00000,   0.00000,   0.00000,   0.00000,-319166256.00000,   0.00000
-161907449.87052,-140722811.33472,19842389.82700,  -0.00046,  -0.00032,   0.00026,156032080.00000,   0.00000,274640576.00000,   0.00000,   0.00000,   0.00000,-318608496.00000,   0.00000
-162448511.36554,-141118202.42723,20055692.91639,  -0.00046,  -0.00033,   0.00026,156580720.00000,   0.00000,274640576.00000,   0.00000,   0.00000,   0.00000,-318059856.00000,   0.00000
-162971364.06025,-141505789.74819,20268996.00577,  -0.00047,  -0.00033,   0.00026,157116144.00000,   0.00000,274640576.00000,   0.00000,   0.00000,   0.00000,-317524432.00000,   0.00000
-163512425.55527,-141901180.84070,20482299.09515,  -0.00047,  -0.00033,   0.00027,157665648.00000,   0.00000,274640576.00000,   0.00000,   0.00000,   0.00000,-316974928.00000,   0.00000
-164035278.24998,-142288768.16165,20695602.18454,  -0.00047,  -0.00033,   0.00027,158201904.00000,   0.00000,274640576.00000,   0.00000,   0.00000,   0.00000,-316438672.00000,   0.00000
-164550327.17312,-142658146.68229,20908905.27392,  -0.00047,  -0.00033,   0.00027,158727136.00000,   0.00000,274640576.00000,   0.00000,   0.00000,   0.00000,-315913440.00000,   0.00000
-165054971.06752,-143037930.23168,21127410.87768,  -0.00047,  -0.00033,   0.00027,159252720.00000,   0.00000,274640576.00000,   0.00000,   0.00000,   0.00000,-315387856.00000,   0.00000
-165551811.19035,-143399504.98076,21345916.48144,  -0.00047,  -0.00033,   0.00028,159767184.00000,   0.00000,274640576.00000,   0.00000,   0.00000,   0.00000,-314873392.00000,   0.00000
-166059056.34193,-143750674.70108,21564422.08519,  -0.00048,  -0.00033,   0.00028,160284336.00000,   0.00000,274640576.00000,   0.00000,   0.00000,   0.00000,-314356240.00000,   0.00000
-166555896.46476,-144112249.45016,21782927.68895,  -0.00048,  -0.00033,   0.00028,160799776.00000,   0.00000,274640576.00000,   0.00000,   0.00000,   0.00000,-313840800.00000,   0.00000
-167026724.01572,-144447811.62736,22006635.80709,  -0.00048,  -0.00033,   0.00029,161292864.00000,   0.00000,274640576.00000,   0.00000,   0.00000,   0.00000,-313347712.00000,   0.00000
-167515760.36699,-144791177.57612,22230343.92522,  -0.00048,  -0.00033,   0.00029,161800032.00000,   0.00000,274640576.00000,   0.00000,   0.00000,   0.00000,-312840544.00000,   0.00000
-167986587.91794,-145126739.75332,22454052.04335,  -0.00048,  -0.00033,   0.00029,162294240.00000,   0.00000,274640576.00000,   0.00000,   0.00000,   0.00000,-312346336.00000,   0.00000
-168457415.46890,-145462301.93052,22677760.16149,  -0.00048,  -0.00033,   0.00029,162788784.00000,   0.00000,274640576.00000,   0.00000,   0.00000,   0.00000,-311851792.00000,   0.00000
-168928243.01985,-145797864.10772,22901468.27962,  -0.00048,  -0.00033,   0.00030,163283872.00000,   0.00000,274640576.00000,   0.00000,   0.00000,   0.00000,-311356704.00000,   0.00000
-169373057.99893,-146107413.71305,23130378.91213,  -0.00049,  -0.00033,   0.00030,163756784.00000,   0.00000,274640576.00000,   0.00000,   0.00000,   0.00000,-310883792.00000,   0.00000
-169836081.77832,-146424767.08993,23354087.03026,  -0.00049,  -0.00034,   0.00030,164241712.00000,   0.00000,274640576.00000,   0.00000,   0.00000,   0.00000,-310398864.00000,   0.00000
-170280896.75740,-146734316.69526,23582997.66277,  -0.00049,  -0.00034,   0.00031,164715760.00000,   0.00000,274640576.00000,   0.00000,   0.00000,   0.00000,-309924816.00000,   0.00000
-170725711.73648,-147043866.30058,23811908.29528,  -0.00049,  -0.00034,   0.00031,165190368.00000,   0.00000,274640576.00000,   0.00000,   0.00000,   0.00000,-309450208.00000,   0.00000
-171162722.94400,-147335207.10559,24046021.44216,  -0.00049,  -0.00034,   0.00031,165656496.00000,   0.00000,274640576.00000,   0.00000,   0.00000,   0.00000,-308984080.00000,   0.00000
-171581525.35120,-147618744.13904,24274932.07467,  -0.00049,  -0.00034,   0.00032,166107440.00000,   0.00000,274640576.00000,   0.00000,   0.00000,   0.00000,-308533136.00000,   0.00000
-172026340.33028,-147928293.74437,24509045.22156,  -0.00049,  -0.00034,   0.00032,166586160.00000,   0.00000,274640576.00000,   0.00000,   0.00000,   0.00000,-308054416.00000,   0.00000
-172445142.73748,-148211830.77781,24743158.36844,  -0.00050,  -0.00034,   0.00032,167040576.00000,   0.00000,274640576.00000,   0.00000,   0.00000,   0.00000,-307600000.00000,   0.00000
-172856141.37313,-148477159.01095,24977271.51532,  -0.00050,  -0.00034,   0.00032,167484384.00000,   0.00000,274640576.00000,   0.00000,   0.00000,   0.00000,-307156192.00000,   0.00000
-173274943.78033,-148760696.04440,25211384.66221,  -0.00050,  -0.00034,   0.00033,167940160.00000,   0.00000,274640576.00000,   0.00000,   0.00000,   0.00000,-306700416.00000,   0.00000
-173685942.41597,-149026024.27753,25445497.80909,  -0.00050,  -0.00034,   0.00033,168385296.00000,   0.00000,274640576.00000,   0.00000,   0.00000,   0.00000,-306255280.00000,   0.00000
-174086536.02286,-149301757.53942,25684813.47035,  -0.00050,  -0.00034,   0.00033,168831104.00000,   0.00000,274640576.00000,   0.00000,   0.00000,   0.00000,-305809472.00000,   0.00000
-174479325.85819,-149559282.00099,25924129.13161,  -0.00050,  -0.00034,   0.00034,169266352.00000,   0.00000,274640576.00000,   0.00000,   0.00000,   0.00000,-305374224.00000,   0.00000
-174872115.69351,-149816806.46256,26163444.79287,  -0.00050,  -0.00034,   0.00034,169702320.00000,   0.00000,274640576.00000,   0.00000,   0.00000,   0.00000,-304938256.00000,   0.00000
-175264905.52884,-150074330.92414,26402760.45413,  -0.00050,  -0.00034,   0.00034,170138912.00000,   0.00000,274640576.00000,   0.00000,   0.00000,   0.00000,-304501664.00000,   0.00000
-175649891.59261,-150313646.58539,26642076.11539,  -0.00051,  -0.00034,   0.00035,170564912.00000,   0.00000,274640576.00000,   0.00000,   0.00000,   0.00000,-304075664.00000,   0.00000
-176042681.42793,-150571171.04697,26886594.29102,  -0.00051,  -0.00034,   0.00035,171005408.00000,   0.00000,274640576.00000,   0.00000,   0.00000,   0.00000,-303635168.00000,   0.00000
-176409458.69139,-150802682.93666,27125909.95228,  -0.00051,  -0.00034,   0.00035,171419408.00000,   0.00000,274640576.00000,   0.00000,   0.00000,   0.00000,-303221168.00000,   0.00000
-176776235.95484,-151034194.82636,27370428.12791,  -0.00051,  -0.00034,   0.00036,171836416.00000,   0.00000,274640576.00000,   0.00000,   0.00000,   0.00000,-302804160.00000,   0.00000
-177161222.01860,-151273510.48762,27614946.30355,  -0.00051,  -0.00034,   0.00036,172267824.00000,   0.00000,274640576.00000,   0.00000,   0.00000,   0.00000,-302372752.00000,   0.00000
-177509790.48174,-151497218.60575,27859464.47918,  -0.00051,  -0.00034,   0.00036,172672880.00000,   0.00000,274640576.00000,   0.00000,   0.00000,   0.00000,-301967696.00000,   0.00000
-177876567.74519,-151728730.49545,28103982.65482,  -0.00051,  -0.00034,   0.00037,173092080.00000,   0.00000,274640576.00000,   0.00000,   0.00000,   0.00000,-301548496.00000,   0.00000
-178243345.00864,-151960242.38514,28348500.83045,  -0.00051,  -0.00034,   0.00037,173512064.00000,   0.00000,274640576.00000,   0.00000,   0.00000,   0.00000,-301128512.00000,   0.00000
-178584109.70022,-152165741.70296,28598221.52046,  -0.00052,  -0.00034,   0.00037,173910672.00000,   0.00000,274640576.00000,   0.00000,   0.00000,   0.00000,-300729904.00000,   0.00000
-178950886.96367,-152397253.59266,28842739.69610,  -0.00052,  -0.00034,   0.00037,174332144.00000,   0.00000,274640576.00000,   0.00000,   0.00000,   0.00000,-300308432.00000,   0.00000
-179291651.65524,-152602752.91048,29092460.38610,  -0.00052,  -0.00034,   0.00038,174732144.00000,   0.00000,274640576.00000,   0.00000,   0.00000,   0.00000,-299908432.00000,   0.00000
-179632416.34682,-152808252.22830,29342181.07611,  -0.00052,  -0.00034,   0.00038,175132960.00000,   0.00000,274640576.00000,   0.00000,   0.00000,   0.00000,-299507616.00000,   0.00000
-179973181.03840,-153013751.54612,29591901.76612,  -0.00052,  -0.00035,   0.00038,175534528.00000,   0.00000,274640576.00000,   0.00000,   0.00000,   0.00000,-299106048.00000,   0.00000
-180295736.92966,-153211447.09238,29841622.45613,  -0.00052,  -0.00035,   0.00039,175923216.00000,   0.00000,274640576.00000,   0.00000,   0.00000,   0.00000,-298717360.00000,   0.00000
-180636501.62123,-153416946.41020,30091343.14614,  -0.00052,  -0.00035,   0.00039,176326176.00000,   0.00000,274640576.00000,   0.00000,   0.00000,   0.00000,-298314400.00000,   0.00000
-180959057.51250,-153614641.95646,30346266.35053,  -0.00052,  -0.00035,   0.00039,176719008.00000,   0.00000,274640576.00000,   0.00000,   0.00000,   0.00000,-297921568.00000,   0.00000
-181273809.63220,-153794128.70240,30595987.04054,  -0.00052,  -0.00035,   0.00040,177098720.00000,   0.00000,274640576.00000,   0.00000,   0.00000,   0.00000,-297541856.00000,   0.00000
-181614574.32377,-153999628.02022,30850910.24492,  -0.00053,  -0.00035,   0.00040,177506560.00000,   0.00000,274640576.00000,   0.00000,   0.00000,   0.00000,-297134016.00000,   0.00000
-181929326.44347,-154179114.76617,31100630.93493,  -0.00053,  -0.00035,   0.00040,177887792.00000,   0.00000,274640576.00000,   0.00000,   0.00000,   0.00000,-296752784.00000,   0.00000
-182225869.76286,-154350797.74055,31355554.13932,  -0.00053,  -0.00035,   0.00041,178258800.00000,   0.00000,274640576.00000,   0.00000,   0.00000,   0.00000,-296381776.00000,   0.00000
-182548425.65412,-154548493.28681,31610477.34370,  -0.00053,  -0.00035,   0.00041,178655168.00000,   0.00000,274640576.00000,   0.00000,   0.00000,   0.00000,-295985408.00000,   0.00000
-182863177.77382,-154727980.03275,31865400.54808,  -0.00053,  -0.00035,   0.00041,179041168.00000,   0.00000,274640576.00000,   0.00000,   0.00000,   0.00000,-295599408.00000,   0.00000
-183159721.09320,-154899663.00713,32120323.75247,  -0.00053,  -0.00035,   0.00042,179414368.00000,   0.00000,274640576.00000,   0.00000,   0.00000,   0.00000,-295226208.00000,   0.00000
-183474473.21290,-155079149.75308,32375246.95685,  -0.00053,  -0.00035,   0.00042,179801712.00000,   0.00000,274640576.00000,   0.00000,   0.00000,   0.00000,-294838864.00000,   0.00000
-183771016.53229,-155250832.72746,32630170.16124,  -0.00053,  -0.00035,   0.00042,180176192.00000,   0.00000,274640576.00000,   0.00000,   0.00000,   0.00000,-294464384.00000,   0.00000
-184067559.85168,-155422515.70184,32885093.36562,  -0.00053,  -0.00035,   0.00043,180551280.00000,   0.00000,274640576.00000,   0.00000,   0.00000,   0.00000,-294089296.00000,   0.00000
-184356299.39950,-155575989.87591,33145219.08438,  -0.00054,  -0.00035,   0.00043,180918864.00000,   0.00000,274640576.00000,   0.00000,   0.00000,   0.00000,-293721712.00000,   0.00000
-184652842.71889,-155747672.85029,33400142.28877,  -0.00054,  -0.00035,   0.00043,181295184.00000,   0.00000,274640576.00000,   0.00000,   0.00000,   0.00000,-293345392.00000,   0.00000
-184949386.03827,-155919355.82467,33660268.00753,  -0.00054,  -0.00035,   0.00044,181674992.00000,   0.00000,274640576.00000,   0.00000,   0.00000,   0.00000,-292965584.00000,   0.00000
-185219916.78578,-156065026.22718,33915191.21191,  -0.00054,  -0.00035,   0.00044,182028032.00000,   0.00000,274640576.00000,   0.00000,   0.00000,   0.00000,-292612544.00000,   0.00000
-185516460.10517,-156236709.20156,34175316.93067,  -0.00054,  -0.00035,   0.00044,182409056.00000,   0.00000,274640576.00000,   0.00000,   0.00000,   0.00000,-292231520.00000,   0.00000
-185786990.85268,-156382379.60406,34430240.13506,  -0.00054,  -0.00035,   0.00045,182763296.00000,   0.00000,274640576.00000,   0.00000,   0.00000,   0.00000,-291877280.00000,   0.00000
-186083534.17207,-156554062.57844,34690365.85382,  -0.00054,  -0.00035,   0.00045,183145376.00000,   0.00000,274640576.00000,   0.00000,   0.00000,   0.00000,-291495200.00000,   0.00000
-186354064.91958,-156699732.98095,34950491.57258,  -0.00054,  -0.00035,   0.00045,183503728.00000,   0.00000,274640576.00000,   0.00000,   0.00000,   0.00000,-291136848.00000,   0.00000
-186632399.43865,-156863612.18377,35210617.29134,  -0.00054,  -0.00035,   0.00046,183873440.00000,   0.00000,274640576.00000,   0.00000,   0.00000,   0.00000,-290767136.00000,   0.00000
-186902930.18616,-157009282.58627,35465540.49572,  -0.00054,  -0.00035,   0.00046,184229776.00000,   0.00000,274640576.00000,   0.00000,   0.00000,   0.00000,-290410800.00000,   0.00000
-187173460.93367,-157154952.98878,35725666.21448,  -0.00055,  -0.00035,   0.00046,184589712.00000,   0.00000,274640576.00000,   0.00000,   0.00000,   0.00000,-290050864.00000,   0.00000
-187443991.68118,-157300623.39128,35985791.93324,  -0.00055,  -0.00035,   0.00047,184950144.00000,   0.00000,274640576.00000,   0.00000,   0.00000,   0.00000,-289690432.00000,   0.00000
-187722326.20025,-157464502.59410,36245917.65200,  -0.00055,  -0.00035,   0.00047,185321872.00000,   0.00000,274640576.00000,   0.00000,   0.00000,   0.00000,-289318704.00000,   0.00000
-187992856.94776,-157610172.99661,36506043.37076,  -0.00055,  -0.00035,   0.00047,185683392.00000,   0.00000,274640576.00000,   0.00000,   0.00000,   0.00000,-288957184.00000,   0.00000
-188245178.89496,-157748039.62755,36766169.08952,  -0.00055,  -0.00035,   0.00048,186031936.00000,   0.00000,274640576.00000,   0.00000,   0.00000,   0.00000,-288608640.00000,   0.00000
-188515709.64247,-157893710.03006,37026294.80828,  -0.00055,  -0.00035,   0.00048,186394448.00000,   0.00000,274640576.00000,   0.00000,   0.00000,   0.00000,-288246128.00000,   0.00000
-188768031.58967,-158031576.66100,37281218.01267,  -0.00055,  -0.00035,   0.00048,186741008.00000,   0.00000,274640576.00000,   0.00000,   0.00000,   0.00000,-287899568.00000,   0.00000
-189028157.30843,-158187652.09226,37541343.73143,  -0.00055,  -0.00035,   0.00049,187101920.00000,   0.00000,274640576.00000,   0.00000,   0.00000,   0.00000,-287538656.00000,   0.00000
-189298688.05594,-158333322.49476,37801469.45019,  -0.00055,  -0.00035,   0.00049,187465968.00000,   0.00000,274640576.00000,   0.00000,   0.00000,   0.00000,-287174608.00000,   0.00000
-189551010.00313,-158471189.12570,38061595.16895,  -0.00055,  -0.00035,   0.00049,187817232.00000,   0.00000,274640576.00000,   0.00000,   0.00000,   0.00000,-286823344.00000,   0.00000
-189803331.95033,-158609055.75665,38321720.88771,  -0.00055,  -0.00035,   0.00050,188169024.00000,   0.00000,274640576.00000,   0.00000,   0.00000,   0.00000,-286471552.00000,   0.00000
-190055653.89753,-158746922.38759,38581846.60646,  -0.00056,  -0.00035,   0.00050,188521488.00000,   0.00000,274640576.00000,   0.00000,   0.00000,   0.00000,-286119088.00000,   0.00000
-190307975.84473,-158884789.01853,38841972.32522,  -0.00056,  -0.00035,   0.00050,188874448.00000,   0.00000,274640576.00000,   0.00000,   0.00000,   0.00000,-285766128.00000,   0.00000
-190568101.56349,-159040864.44979,39102098.04398,  -0.00056,  -0.00035,   0.00051,189238720.00000,   0.00000,274640576.00000,   0.00000,   0.00000,   0.00000,-285401856.00000,   0.00000
-190820423.51068,-159178731.08073,39357021.24837,  -0.00056,  -0.00035,   0.00051,189589808.00000,   0.00000,274640576.00000,   0.00000,   0.00000,   0.00000,-285050768.00000,   0.00000
-191072745.45788,-159316597.71167,39617146.96713,  -0.00056,  -0.00035,   0.00052,189944752.00000,   0.00000,274640576.00000,   0.00000,   0.00000,   0.00000,-284695824.00000,   0.00000
-191306858.60476,-159446660.57105,39877272.68589,  -0.00056,  -0.00035,   0.00052,190287072.00000,   0.00000,274640576.00000,   0.00000,   0.00000,   0.00000,-284353504.00000,   0.00000
-191559180.55196,-159584527.20200,40132195.89027,  -0.00056,  -0.00035,   0.00052,190640048.00000,   0.00000,274640576.00000,   0.00000,   0.00000,   0.00000,-284000528.00000,   0.00000
-191819306.27072,-159740602.63325,40392321.60903,  -0.00056,  -0.00035,   0.00053,191007696.00000,   0.00000,274640576.00000,   0.00000,   0.00000,   0.00000,-283632880.00000,   0.00000
-192053419.41760,-159870665.49263,40647244.81342,  -0.00056,  -0.00035,   0.00053,191348848.00000,   0.00000,274640576.00000,   0.00000,   0.00000,   0.00000,-283291728.00000,   0.00000
-192305741.36480,-160008532.12358,40907370.53218,  -0.00056,  -0.00035,   0.00053,191707312.00000,   0.00000,274640576.00000,   0.00000,   0.00000,   0.00000,-282933264.00000,   0.00000
-192547658.28325,-160156803.78327,41162293.73656,  -0.00056,  -0.00035,   0.00054,192060576.00000,   0.00000,274640576.00000,   0.00000,   0.00000,   0.00000,-282580000.00000,   0.00000
-192799980.23045,-160294670.41421,41417216.94095,  -0.00056,  -0.00035,   0.00054,192417248.00000,   0.00000,274640576.00000,   0.00000,   0.00000,   0.00000,-282223328.00000,   0.00000
-193041897.14889,-160442942.07390,41677342.65971,  -0.00057,  -0.00035,   0.00054,192775344.00000,   0.00000,274640576.00000,   0.00000,   0.00000,   0.00000,-281865232.00000,   0.00000
-193276010.29578,-160573004.93328,41932265.86409,  -0.00057,  -0.00035,   0.00055,193120320.00000,   0.00000,274640576.00000,   0.00000,   0.00000,   0.00000,-281520256.00000,   0.00000
-193536136.01454,-160729080.36454,42187189.06848,  -0.00057,  -0.00035,   0.00055,193489808.00000,   0.00000,274640576.00000,   0.00000,   0.00000,   0.00000,-281150768.00000,   0.00000
-193778052.93298,-160877352.02423,42442112.27286,  -0.00057,  -0.00035,   0.00055,193846816.00000,   0.00000,274640576.00000,   0.00000,   0.00000,   0.00000,-280793760.00000,   0.00000
-194012166.07987,-161007414.88361,42691832.96287,  -0.00057,  -0.00035,   0.00055,194190528.00000,   0.00000,274640576.00000,   0.00000,   0.00000,   0.00000,-280450048.00000,   0.00000
-194254082.99831,-161155686.54331,42946756.16726,  -0.00057,  -0.00035,   0.00056,194549040.00000,   0.00000,274640576.00000,   0.00000,   0.00000,   0.00000,-280091536.00000,   0.00000
-194495999.91676,-161303958.20300,43201679.37164,  -0.00057,  -0.00035,   0.00056,194908176.00000,   0.00000,274640576.00000,   0.00000,   0.00000,   0.00000,-279732400.00000,   0.00000
-194737916.83521,-161452229.86269,43451400.06165,  -0.00057,  -0.00035,   0.00056,195264544.00000,   0.00000,274640576.00000,   0.00000,   0.00000,   0.00000,-279376032.00000,   0.00000
-194979833.75365,-161600501.52239,43706323.26603,  -0.00057,  -0.00036,   0.00057,195625152.00000,   0.00000,274640576.00000,   0.00000,   0.00000,   0.00000,-279015424.00000,   0.00000
-195221750.67210,-161748773.18208,43956043.95604,  -0.00057,  -0.00036,   0.00057,195982944.00000,   0.00000,274640576.00000,   0.00000,   0.00000,   0.00000,-278657632.00000,   0.00000
-195463667.59055,-161897044.84177,44205764.64605,  -0.00057,  -0.00036,   0.00057,196341392.00000,   0.00000,274640576.00000,   0.00000,   0.00000,   0.00000,-278299184.00000,   0.00000
-195705584.50899,-162045316.50146,44455485.33606,  -0.00057,  -0.00036,   0.00058,196700544.00000,   0.00000,274640576.00000,   0.00000,   0.00000,   0.00000,-277940032.00000,   0.00000
-195955305.19900,-162211796.96147,44705206.02607,  -0.00058,  -0.00036,   0.00058,197070960.00000,   0.00000,274640576.00000,   0.00000,   0.00000,   0.00000,-277569616.00000,   0.00000
-196197222.11745,-162360068.62116,44949724.20171,  -0.00058,  -0.00036,   0.00058,197427760.00000,   0.00000,274640576.00000,   0.00000,   0.00000,   0.00000,-277212816.00000,   0.00000
-196439139.03590,-162508340.28086,45199444.89172,  -0.00058,  -0.00036,   0.00059,197788368.00000,   0.00000,274640576.00000,   0.00000,   0.00000,   0.00000,-276852208.00000,   0.00000
-196688859.72591,-162674820.74086,45443963.06735,  -0.00058,  -0.00036,   0.00059,198156064.00000,   0.00000,274640576.00000,   0.00000,   0.00000,   0.00000,-276484512.00000,   0.00000
-196938580.41591,-162841301.20087,45688481.24298,  -0.00058,  -0.00036,   0.00059,198523616.00000,   0.00000,274640576.00000,   0.00000,   0.00000,   0.00000,-276116960.00000,   0.00000
-197188301.10592,-163007781.66088,45932999.41862,  -0.00058,  -0.00036,   0.00060,198891184.00000,   0.00000,274640576.00000,   0.00000,   0.00000,   0.00000,-275749392.00000,   0.00000
-197412009.22406,-163148249.54901,46177517.59425,  -0.00058,  -0.00036,   0.00060,199235280.00000,   0.00000,274640576.00000,   0.00000,   0.00000,   0.00000,-275405296.00000,   0.00000
-197661729.91407,-163314730.00901,46422035.76989,  -0.00058,  -0.00036,   0.00060,199603152.00000,   0.00000,274640576.00000,   0.00000,   0.00000,   0.00000,-275037424.00000,   0.00000
-197919254.37564,-163499419.26933,46661351.43115,  -0.00058,  -0.00036,   0.00061,199978432.00000,   0.00000,274640576.00000,   0.00000,   0.00000,   0.00000,-274662144.00000,   0.00000
-198168975.06565,-163665899.72934,46900667.09241,  -0.00058,  -0.00036,   0.00061,200344176.00000,   0.00000,274640576.00000,   0.00000,   0.00000,   0.00000,-274296400.00000,   0.00000
-198400486.95535,-163824576.41778,47139982.75366,  -0.00058,  -0.00036,   0.00061,200697760.00000,   0.00000,274640576.00000,   0.00000,   0.00000,   0.00000,-273942816.00000,   0.00000
-198658011.41692,-164009265.67810,47379298.41492,  -0.00058,  -0.00036,   0.00062,201075872.00000,   0.00000,274640576.00000,   0.00000,   0.00000,   0.00000,-273564704.00000,   0.00000
-198907732.10693,-164175746.13811,47618614.07618,  -0.00058,  -0.00036,   0.00062,201444352.00000,   0.00000,274640576.00000,   0.00000,   0.00000,   0.00000,-273196224.00000,   0.00000
-199165256.56850,-164360435.39843,47852727.22307,  -0.00059,  -0.00036,   0.00062,201820272.00000,   0.00000,274640576.00000,   0.00000,   0.00000,   0.00000,-272820304.00000,   0.00000
-199404572.22976,-164537320.88718,48086840.36995,  -0.00059,  -0.00036,   0.00063,202183648.00000,   0.00000,274640576.00000,   0.00000,   0.00000,   0.00000,-272456928.00000,   0.00000
-199662096.69133,-164722010.14750,48320953.51683,  -0.00059,  -0.00036,   0.00063,202560528.00000,   0.00000,274640576.00000,   0.00000,   0.00000,   0.00000,-272080048.00000,   0.00000
-199919621.15290,-164906699.40782,48555066.66372,  -0.00059,  -0.00036,   0.00063,202937728.00000,   0.00000,274640576.00000,   0.00000,   0.00000,   0.00000,-271702848.00000,   0.00000
-200177145.61448,-165091388.66814,48789179.81060,  -0.00059,  -0.00036,   0.00063,203315328.00000,   0.00000,274640576.00000,   0.00000,   0.00000,   0.00000,-271325248.00000,   0.00000
-200424265.04730,-165286482.95721,49018090.44311,  -0.00059,  -0.00036,   0.00064,203686736.00000,   0.00000,274640576.00000,   0.00000,   0.00000,   0.00000,-270953840.00000,   0.00000
-200681789.50887,-165471172.21753,49247001.07562,  -0.00059,  -0.00036,   0.00064,204061152.00000,   0.00000,274640576.00000,   0.00000,   0.00000,   0.00000,-270579424.00000,   0.00000
-200947117.74200,-165674070.27817,49475911.70813,  -0.00059,  -0.00036,   0.00064,204446128.00000,   0.00000,274640576.00000,   0.00000,   0.00000,   0.00000,-270194448.00000,   0.00000
-201212445.97514,-165876968.33880,49699619.82626,  -0.00059,  -0.00036,   0.00065,204827616.00000,   0.00000,274640576.00000,   0.00000,   0.00000,   0.00000,-269812960.00000,   0.00000
-201477774.20827,-166079866.39943,49923327.94440,  -0.00059,  -0.00036,   0.00065,205209440.00000,   0.00000,274640576.00000,   0.00000,   0.00000,   0.00000,-269431136.00000,   0.00000
-201724893.64110,-166274960.68850,50147036.06253,  -0.00059,  -0.00036,   0.00065,205578512.00000,   0.00000,274640576.00000,   0.00000,   0.00000,   0.00000,-269062064.00000,   0.00000
-201990221.87423,-166477858.74913,50370744.18066,  -0.00059,  -0.00036,   0.00065,205960912.00000,   0.00000,274640576.00000,   0.00000,   0.00000,   0.00000,-268679664.00000,   0.00000
-202263353.87893,-166698965.61008,50589249.78442,  -0.00060,  -0.00036,   0.00066,206349968.00000,   0.00000,274640576.00000,   0.00000,   0.00000,   0.00000,-268290608.00000,   0.00000
-202528682.11206,-166901863.67071,50807755.38818,  -0.00060,  -0.00036,   0.00066,206728992.00000,   0.00000,274640576.00000,   0.00000,   0.00000,   0.00000,-267911584.00000,   0.00000
-202801814.11676,-167122970.53166,51026260.99194,  -0.00060,  -0.00036,   0.00066,207118688.00000,   0.00000,274640576.00000,   0.00000,   0.00000,   0.00000,-267521888.00000,   0.00000
-203074946.12146,-167344077.39260,51239564.08132,  -0.00060,  -0.00037,   0.00067,207504608.00000,   0.00000,274640576.00000,   0.00000,   0.00000,   0.00000,-267135968.00000,   0.00000
-203329869.32585,-167557380.48199,51458069.68508,  -0.00060,  -0.00037,   0.00067,207881712.00000,   0.00000,274640576.00000,   0.00000,   0.00000,   0.00000,-266758864.00000,   0.00000
-203610805.10211,-167796696.14325,51666170.26009,  -0.00060,  -0.00037,   0.00067,208274448.00000,   0.00000,274640576.00000,   0.00000,   0.00000,   0.00000,-266366128.00000,   0.00000
-203883937.10680,-168017803.00419,51879473.34947,  -0.00060,  -0.00037,   0.00067,208660928.00000,   0.00000,274640576.00000,   0.00000,   0.00000,   0.00000,-265979648.00000,   0.00000
-204164872.88306,-168257118.66545,52087573.92448,  -0.00060,  -0.00037,   0.00068,209053920.00000,   0.00000,274640576.00000,   0.00000,   0.00000,   0.00000,-265586656.00000,   0.00000
-204445808.65932,-168496434.32671,52295674.49949,  -0.00060,  -0.00037,   0.00068,209447088.00000,   0.00000,274640576.00000,   0.00000,   0.00000,   0.00000,-265193488.00000,   0.00000
-204726744.43559,-168735749.98797,52503775.07449,  -0.00060,  -0.00037,   0.00068,209840160.00000,   0.00000,274640576.00000,   0.00000,   0.00000,   0.00000,-264800416.00000,   0.00000
-205007680.21185,-168975065.64923,52706673.13513,  -0.00060,  -0.00037,   0.00069,210229680.00000,   0.00000,274640576.00000,   0.00000,   0.00000,   0.00000,-264410896.00000,   0.00000
-205296419.75967,-169232590.11080,52909571.19576,  -0.00060,  -0.00037,   0.00069,210629328.00000,   0.00000,274640576.00000,   0.00000,   0.00000,   0.00000,-264011248.00000,   0.00000
-205577355.53593,-169471905.77206,53107266.74202,  -0.00060,  -0.00037,   0.00069,211014912.00000,   0.00000,274640576.00000,   0.00000,   0.00000,   0.00000,-263625664.00000,   0.00000
-205884303.88407,-169737234.00519,53304962.28827,  -0.00061,  -0.00037,   0.00069,211423680.00000,   0.00000,274640576.00000,   0.00000,   0.00000,   0.00000,-263216896.00000,   0.00000
-206173043.43189,-169994758.46677,53502657.83453,  -0.00061,  -0.00037,   0.00070,211819584.00000,   0.00000,274640576.00000,   0.00000,   0.00000,   0.00000,-262820992.00000,   0.00000
-206469586.75128,-170270491.72865,53700353.38079,  -0.00061,  -0.00037,   0.00070,212225664.00000,   0.00000,274640576.00000,   0.00000,   0.00000,   0.00000,-262414912.00000,   0.00000
-206758326.29910,-170528016.19022,53892846.41267,  -0.00061,  -0.00037,   0.00070,212617744.00000,   0.00000,274640576.00000,   0.00000,   0.00000,   0.00000,-262022832.00000,   0.00000
-207054869.61849,-170803749.45211,54080136.93018,  -0.00061,  -0.00037,   0.00070,213015760.00000,   0.00000,274640576.00000,   0.00000,   0.00000,   0.00000,-261624816.00000,   0.00000
-207369621.73819,-171087286.48556,54272629.96206,  -0.00061,  -0.00037,   0.00071,213430816.00000,   0.00000,274640576.00000,   0.00000,   0.00000,   0.00000,-261209760.00000,   0.00000
-207666165.05757,-171363019.74744,54454717.96519,  -0.00061,  -0.00037,   0.00071,213825008.00000,   0.00000,274640576.00000,   0.00000,   0.00000,   0.00000,-260815568.00000,   0.00000
-207962708.37696,-171638753.00933,54642008.48270,  -0.00061,  -0.00038,   0.00071,214223136.00000,   0.00000,274640576.00000,   0.00000,   0.00000,   0.00000,-260417440.00000,   0.00000
-208285264.26822,-171940498.84309,54824096.48583,  -0.00061,  -0.00038,   0.00071,214640272.00000,   0.00000,274640576.00000,   0.00000,   0.00000,   0.00000,-260000304.00000,   0.00000
-208581807.58761,-172216232.10498,55006184.48896,  -0.00061,  -0.00038,   0.00072,215034336.00000,   0.00000,274640576.00000,   0.00000,   0.00000,   0.00000,-259606240.00000,   0.00000
-208904363.47887,-172517977.93874,55183069.97772,  -0.00061,  -0.00038,   0.00072,215447296.00000,   0.00000,274640576.00000,   0.00000,   0.00000,   0.00000,-259193280.00000,   0.00000
-209216514.34138,-172830128.80125,55359955.46648,  -0.00061,  -0.00038,   0.00072,215857568.00000,   0.00000,274640576.00000,   0.00000,   0.00000,   0.00000,-258783008.00000,   0.00000
-209539070.23264,-173131874.63501,55531638.44086,  -0.00062,  -0.00038,   0.00072,216266352.00000,   0.00000,274640576.00000,   0.00000,   0.00000,   0.00000,-258374224.00000,   0.00000
-209869429.89547,-173451829.26909,55703321.41524,  -0.00062,  -0.00038,   0.00072,216685168.00000,   0.00000,274640576.00000,   0.00000,   0.00000,   0.00000,-257955408.00000,   0.00000
-210181580.75798,-173763980.13160,55875004.38962,  -0.00062,  -0.00038,   0.00073,217091168.00000,   0.00000,274640576.00000,   0.00000,   0.00000,   0.00000,-257549408.00000,   0.00000
-210511940.42081,-174083934.76567,56041484.84963,  -0.00062,  -0.00038,   0.00073,217505680.00000,   0.00000,274640576.00000,   0.00000,   0.00000,   0.00000,-257134896.00000,   0.00000
-210842300.08363,-174403889.39975,56202762.79526,  -0.00062,  -0.00038,   0.00073,217916096.00000,   0.00000,274640576.00000,   0.00000,   0.00000,   0.00000,-256724480.00000,   0.00000
-211180463.51802,-174742052.83413,56369243.25527,  -0.00062,  -0.00038,   0.00073,218340352.00000,   0.00000,274640576.00000,   0.00000,   0.00000,   0.00000,-256300224.00000,   0.00000
-211500418.15209,-175072412.49696,56525318.68652,  -0.00062,  -0.00038,   0.00073,218743744.00000,   0.00000,274640576.00000,   0.00000,   0.00000,   0.00000,-255896832.00000,   0.00000
-211838581.58648,-175410575.93135,56686596.63215,  -0.00062,  -0.00039,   0.00074,219163536.00000,   0.00000,274640576.00000,   0.00000,   0.00000,   0.00000,-255477040.00000,   0.00000
-212176745.02087,-175748739.36574,56842672.06341,  -0.00062,  -0.00039,   0.00074,219579088.00000,   0.00000,274640576.00000,   0.00000,   0.00000,   0.00000,-255061488.00000,   0.00000
-212522712.22682,-176105111.60044,56993544.98029,  -0.00062,  -0.00039,   0.00074,220000352.00000,   0.00000,274640576.00000,   0.00000,   0.00000,   0.00000,-254640224.00000,   0.00000
-212886888.23308,-176469287.60670,57144417.89717,  -0.00062,  -0.00039,   0.00074,220433872.00000,   0.00000,274640576.00000,   0.00000,   0.00000,   0.00000,-254206704.00000,   0.00000
-213232855.43903,-176825659.84140,57290088.29968,  -0.00063,  -0.00039,   0.00074,220850432.00000,   0.00000,274640576.00000,   0.00000,   0.00000,   0.00000,-253790144.00000,   0.00000
-213578822.64498,-177182032.07610,57435758.70218,  -0.00063,  -0.00039,   0.00075,221267040.00000,   0.00000,274640576.00000,   0.00000,   0.00000,   0.00000,-253373536.00000,   0.00000
-213932593.62250,-177556613.11112,57576226.59031,  -0.00063,  -0.00039,   0.00075,221689456.00000,   0.00000,274640576.00000,   0.00000,   0.00000,   0.00000,-252951120.00000,   0.00000
-214286364.60001,-177931194.14613,57716694.47844,  -0.00063,  -0.00039,   0.00075,222112112.00000,   0.00000,274640576.00000,   0.00000,   0.00000,   0.00000,-252528464.00000,   0.00000
-214658344.37784,-178313578.95271,57857162.36657,  -0.00063,  -0.00039,   0.00075,222547744.00000,   0.00000,274640576.00000,   0.00000,   0.00000,   0.00000,-252092832.00000,   0.00000
-215012115.35535,-178688159.98772,57992427.74033,  -0.00063,  -0.00039,   0.00075,222967440.00000,   0.00000,274640576.00000,   0.00000,   0.00000,   0.00000,-251673136.00000,   0.00000
-215391898.90474,-179088753.59461,58122490.59971,  -0.00063,  -0.00039,   0.00076,223406960.00000,   0.00000,274640576.00000,   0.00000,   0.00000,   0.00000,-251233616.00000,   0.00000
-215753473.65382,-179481543.42994,58252553.45909,  -0.00063,  -0.00040,   0.00076,223835312.00000,   0.00000,274640576.00000,   0.00000,   0.00000,   0.00000,-250805264.00000,   0.00000
-216133257.20321,-179882137.03683,58377413.80409,  -0.00063,  -0.00040,   0.00076,224274256.00000,   0.00000,274640576.00000,   0.00000,   0.00000,   0.00000,-250366320.00000,   0.00000
-216520844.52416,-180300939.44403,58502274.14910,  -0.00063,  -0.00040,   0.00076,224725616.00000,   0.00000,274640576.00000,   0.00000,   0.00000,   0.00000,-249914960.00000,   0.00000
-216882419.27323,-180693729.27936,58621931.97973,  -0.00063,  -0.00040,   0.00076,225151984.00000,   0.00000,274640576.00000,   0.00000,   0.00000,   0.00000,-249488592.00000,   0.00000
-217270006.59419,-181112531.68656,58741589.81036,  -0.00064,  -0.00040,   0.00076,225603920.00000,   0.00000,274640576.00000,   0.00000,   0.00000,   0.00000,-249036656.00000,   0.00000
-217665397.68670,-181549542.89408,58856045.12661,  -0.00064,  -0.00040,   0.00077,226064560.00000,   0.00000,274640576.00000,   0.00000,   0.00000,   0.00000,-248576016.00000,   0.00000
-218052985.00765,-181968345.30128,58970500.44286,  -0.00064,  -0.00040,   0.00077,226516384.00000,   0.00000,274640576.00000,   0.00000,   0.00000,   0.00000,-248124192.00000,   0.00000
-218448376.10017,-182405356.50880,59079753.24474,  -0.00064,  -0.00040,   0.00077,226975952.00000,   0.00000,274640576.00000,   0.00000,   0.00000,   0.00000,-247664624.00000,   0.00000
-218843767.19268,-182842367.71632,59183803.53225,  -0.00064,  -0.00041,   0.00077,227432368.00000,   0.00000,274640576.00000,   0.00000,   0.00000,   0.00000,-247208208.00000,   0.00000
-219246962.05676,-183297587.72415,59287853.81975,  -0.00064,  -0.00041,   0.00077,227899568.00000,   0.00000,274640576.00000,   0.00000,   0.00000,   0.00000,-246741008.00000,   0.00000
-219642353.14928,-183734598.93166,59386701.59288,  -0.00064,  -0.00041,   0.00077,228351696.00000,   0.00000,274640576.00000,   0.00000,   0.00000,   0.00000,-246288880.00000,   0.00000
-220045548.01335,-184189818.93949,59485549.36601,  -0.00064,  -0.00041,   0.00077,228813696.00000,   0.00000,274640576.00000,   0.00000,   0.00000,   0.00000,-245826880.00000,   0.00000
-220474755.44931,-184671051.51920,59579194.62476,  -0.00064,  -0.00041,   0.00077,229294336.00000,   0.00000,274640576.00000,   0.00000,   0.00000,   0.00000,-245346240.00000,   0.00000
-220877950.31339,-185126271.52703,59672839.88352,  -0.00064,  -0.00041,   0.00078,229749632.00000,   0.00000,274640576.00000,   0.00000,   0.00000,   0.00000,-244890944.00000,   0.00000
-221307157.74934,-185607504.10673,59761282.62789,  -0.00065,  -0.00041,   0.00078,230222928.00000,   0.00000,274640576.00000,   0.00000,   0.00000,   0.00000,-244417648.00000,   0.00000
-221718156.38498,-186080932.91488,59849725.37227,  -0.00065,  -0.00041,   0.00078,230681728.00000,   0.00000,274640576.00000,   0.00000,   0.00000,   0.00000,-243958848.00000,   0.00000
-222155167.59250,-186580374.29490,59927763.08790,  -0.00065,  -0.00042,   0.00078,231154224.00000,   0.00000,274640576.00000,   0.00000,   0.00000,   0.00000,-243486352.00000,   0.00000
-222573969.99970,-187072011.90335,60011003.31790,  -0.00065,  -0.00042,   0.00078,231616400.00000,   0.00000,274640576.00000,   0.00000,   0.00000,   0.00000,-243024176.00000,   0.00000
-223010981.20722,-187571453.28337,60083838.51916,  -0.00065,  -0.00042,   0.00078,232082080.00000,   0.00000,274640576.00000,   0.00000,   0.00000,   0.00000,-242558496.00000,   0.00000
-223447992.41473,-188070894.66339,60156673.72041,  -0.00065,  -0.00042,   0.00078,232546624.00000,   0.00000,274640576.00000,   0.00000,   0.00000,   0.00000,-242093952.00000,   0.00000
-223892807.39381,-188588544.84372,60229508.92166,  -0.00065,  -0.00042,   0.00078,233020784.00000,   0.00000,274640576.00000,   0.00000,   0.00000,   0.00000,-241619792.00000,   0.00000
-224329818.60133,-189087986.22374,60291939.09416,  -0.00065,  -0.00042,   0.00078,233475952.00000,   0.00000,274640576.00000,   0.00000,   0.00000,   0.00000,-241164624.00000,   0.00000
-224782437.35197,-189623845.20439,60359571.78104,  -0.00065,  -0.00042,   0.00078,233955360.00000,   0.00000,274640576.00000,   0.00000,   0.00000,   0.00000,-240685216.00000,   0.00000
-225227252.33105,-190141495.38472,60416799.43917,  -0.00065,  -0.00043,   0.00079,234416240.00000,   0.00000,274640576.00000,   0.00000,   0.00000,   0.00000,-240224336.00000,   0.00000
-225679871.08169,-190677354.36536,60474027.09730,  -0.00066,  -0.00043,   0.00079,234887424.00000,   0.00000,274640576.00000,   0.00000,   0.00000,   0.00000,-239753152.00000,   0.00000
-226132489.83234,-191213213.34601,60526052.24105,  -0.00066,  -0.00043,   0.00079,235354736.00000,   0.00000,274640576.00000,   0.00000,   0.00000,   0.00000,-239285840.00000,   0.00000
-226592912.35454,-191767281.12697,60578077.38480,  -0.00066,  -0.00043,   0.00079,235832704.00000,   0.00000,274640576.00000,   0.00000,   0.00000,   0.00000,-238807872.00000,   0.00000
-227063739.90550,-192310943.87918,60624900.01418,  -0.00066,  -0.00043,   0.00079,236309408.00000,   0.00000,274640576.00000,   0.00000,   0.00000,   0.00000,-238331168.00000,   0.00000
-227531966.19926,-192883220.46045,60666520.12918,  -0.00066,  -0.00043,   0.00079,236790592.00000,   0.00000,274640576.00000,   0.00000,   0.00000,   0.00000,-237849984.00000,   0.00000
-228010597.52178,-193445092.01297,60708140.24418,  -0.00066,  -0.00044,   0.00079,237274608.00000,   0.00000,274640576.00000,   0.00000,   0.00000,   0.00000,-237365968.00000,   0.00000
-228478823.81555,-194017368.59424,60744557.84481,  -0.00066,  -0.00044,   0.00079,237753008.00000,   0.00000,274640576.00000,   0.00000,   0.00000,   0.00000,-236887568.00000,   0.00000
-228965258.90963,-194597448.94708,60775772.93106,  -0.00066,  -0.00044,   0.00079,238240624.00000,   0.00000,274640576.00000,   0.00000,   0.00000,   0.00000,-236399952.00000,   0.00000
-229451694.00371,-195177529.29991,60801785.50293,  -0.00066,  -0.00044,   0.00079,238724880.00000,   0.00000,274640576.00000,   0.00000,   0.00000,   0.00000,-235915696.00000,   0.00000
-229945932.86936,-195775818.45306,60827798.07481,  -0.00066,  -0.00044,   0.00079,239220240.00000,   0.00000,274640576.00000,   0.00000,   0.00000,   0.00000,-235420336.00000,   0.00000
-230421962.93469,-196366303.83464,60853810.64669,  -0.00067,  -0.00044,   0.00079,239703488.00000,   0.00000,274640576.00000,   0.00000,   0.00000,   0.00000,-234937088.00000,   0.00000
-230916201.80033,-196964592.98779,60869418.18981,  -0.00067,  -0.00045,   0.00079,240192112.00000,   0.00000,274640576.00000,   0.00000,   0.00000,   0.00000,-234448464.00000,   0.00000
-231410440.66597,-197562882.14094,60885025.73294,  -0.00067,  -0.00045,   0.00079,240681328.00000,   0.00000,274640576.00000,   0.00000,   0.00000,   0.00000,-233959248.00000,   0.00000
-231912483.30318,-198179380.09440,60895430.76169,  -0.00067,  -0.00045,   0.00079,241177632.00000,   0.00000,274640576.00000,   0.00000,   0.00000,   0.00000,-233462944.00000,   0.00000
-232440538.51226,-198821890.61974,60905835.79044,  -0.00067,  -0.00045,   0.00079,241697856.00000,   0.00000,274640576.00000,   0.00000,   0.00000,   0.00000,-232942720.00000,   0.00000
-232942581.14947,-199438388.57320,60911038.30481,  -0.00067,  -0.00045,   0.00079,242191424.00000,   0.00000,274640576.00000,   0.00000,   0.00000,   0.00000,-232449152.00000,   0.00000
-233452427.55824,-200073095.32697,60911038.30481,  -0.00067,  -0.00046,   0.00079,242692112.00000,   0.00000,274640576.00000,   0.00000,   0.00000,   0.00000,-231948464.00000,   0.00000
-233980482.76732,-200715605.85231,60905835.79044,  -0.00067,  -0.00046,   0.00079,243202192.00000,   0.00000,274640576.00000,   0.00000,   0.00000,   0.00000,-231438384.00000,   0.00000
-234498132.94765,-201368521.40640,60900633.27606,  -0.00067,  -0.00046,   0.00079,243710624.00000,   0.00000,274640576.00000,   0.00000,   0.00000,   0.00000,-230929952.00000,   0.00000
-235026188.15674,-202011031.93173,60890228.24731,  -0.00068,  -0.00046,   0.00079,244217840.00000,   0.00000,274640576.00000,   0.00000,   0.00000,   0.00000,-230422736.00000,   0.00000
-235551642.10863,-202682156.28613,60874620.70419,  -0.00068,  -0.00046,   0.00079,244730352.00000,   0.00000,274640576.00000,   0.00000,   0.00000,   0.00000,-229910224.00000,   0.00000
-236087501.08928,-203342875.61178,60859013.16106,  -0.00068,  -0.00046,   0.00079,245245328.00000,   0.00000,274640576.00000,   0.00000,   0.00000,   0.00000,-229395248.00000,   0.00000
-236631163.84148,-204021803.73775,60838203.10356,  -0.00068,  -0.00047,   0.00079,245767648.00000,   0.00000,274640576.00000,   0.00000,   0.00000,   0.00000,-228872928.00000,   0.00000
-237174826.59369,-204700731.86371,60812190.53168,  -0.00068,  -0.00047,   0.00079,246286688.00000,   0.00000,274640576.00000,   0.00000,   0.00000,   0.00000,-228353888.00000,   0.00000
-237718489.34590,-205379659.98967,60780975.44543,  -0.00068,  -0.00047,   0.00079,246802320.00000,   0.00000,274640576.00000,   0.00000,   0.00000,   0.00000,-227838256.00000,   0.00000
-238269955.86967,-206076796.91595,60749760.35918,  -0.00068,  -0.00047,   0.00079,247329264.00000,   0.00000,274640576.00000,   0.00000,   0.00000,   0.00000,-227311312.00000,   0.00000
-238821422.39344,-206773933.84223,60713342.75856,  -0.00068,  -0.00048,   0.00079,247853024.00000,   0.00000,274640576.00000,   0.00000,   0.00000,   0.00000,-226787552.00000,   0.00000
-239380692.68878,-207489279.56882,60671722.64355,  -0.00068,  -0.00048,   0.00079,248384016.00000,   0.00000,274640576.00000,   0.00000,   0.00000,   0.00000,-226256560.00000,   0.00000
-239939962.98411,-208204625.29541,60624900.01418,  -0.00069,  -0.00048,   0.00079,248911904.00000,   0.00000,274640576.00000,   0.00000,   0.00000,   0.00000,-225728672.00000,   0.00000
-240517442.07976,-208927774.79356,60578077.38480,  -0.00069,  -0.00048,   0.00079,249453120.00000,   0.00000,274640576.00000,   0.00000,   0.00000,   0.00000,-225187456.00000,   0.00000
-241076712.37509,-209643120.52015,60526052.24105,  -0.00069,  -0.00048,   0.00079,249978240.00000,   0.00000,274640576.00000,   0.00000,   0.00000,   0.00000,-224662336.00000,   0.00000
-241643786.44199,-210376675.04705,60468824.58292,  -0.00069,  -0.00049,   0.00079,250510944.00000,   0.00000,274640576.00000,   0.00000,   0.00000,   0.00000,-224129632.00000,   0.00000
-242229069.30920,-211118033.34552,60411596.92479,  -0.00069,  -0.00049,   0.00079,251056832.00000,   0.00000,274640576.00000,   0.00000,   0.00000,   0.00000,-223583744.00000,   0.00000
-242814352.17641,-211859391.64398,60343964.23792,  -0.00069,  -0.00049,   0.00078,251595712.00000,   0.00000,274640576.00000,   0.00000,   0.00000,   0.00000,-223044864.00000,   0.00000
-243389230.01487,-212611154.97120,60276331.55104,  -0.00069,  -0.00049,   0.00078,252133056.00000,   0.00000,274640576.00000,   0.00000,   0.00000,   0.00000,-222507520.00000,   0.00000
-243982316.65364,-213370722.06998,60203496.34979,  -0.00069,  -0.00050,   0.00078,252679952.00000,   0.00000,274640576.00000,   0.00000,   0.00000,   0.00000,-221960624.00000,   0.00000
-244583207.06397,-214148497.96907,60130661.14853,  -0.00070,  -0.00050,   0.00078,253238000.00000,   0.00000,274640576.00000,   0.00000,   0.00000,   0.00000,-221402576.00000,   0.00000
-245176293.70275,-214908065.06785,60047420.91853,  -0.00070,  -0.00050,   0.00078,253778128.00000,   0.00000,274640576.00000,   0.00000,   0.00000,   0.00000,-220862448.00000,   0.00000
-245777184.11308,-215685840.96694,59964180.68853,  -0.00070,  -0.00050,   0.00078,254329520.00000,   0.00000,274640576.00000,   0.00000,   0.00000,   0.00000,-220311056.00000,   0.00000
-246385878.29498,-216481825.66634,59875737.94415,  -0.00070,  -0.00050,   0.00078,254888416.00000,   0.00000,274640576.00000,   0.00000,   0.00000,   0.00000,-219752160.00000,   0.00000
-246994572.47688,-217277810.36575,59782092.68539,  -0.00070,  -0.00051,   0.00078,255444016.00000,   0.00000,274640576.00000,   0.00000,   0.00000,   0.00000,-219196560.00000,   0.00000
-247603266.65878,-218073795.06515,59688447.42664,  -0.00070,  -0.00051,   0.00078,256000016.00000,   0.00000,274640576.00000,   0.00000,   0.00000,   0.00000,-218640560.00000,   0.00000
-248211960.84067,-218869779.76456,59589599.65351,  -0.00070,  -0.00051,   0.00077,256552768.00000,   0.00000,274640576.00000,   0.00000,   0.00000,   0.00000,-218087808.00000,   0.00000
-248846667.59445,-219691777.03584,59480346.85163,  -0.00070,  -0.00051,   0.00077,257122144.00000,   0.00000,274640576.00000,   0.00000,   0.00000,   0.00000,-217518432.00000,   0.00000
-249463165.54791,-220505970.53556,59376296.56413,  -0.00071,  -0.00052,   0.00077,257683152.00000,   0.00000,274640576.00000,   0.00000,   0.00000,   0.00000,-216957424.00000,   0.00000
-250097872.30168,-221327967.80684,59261841.24788,  -0.00071,  -0.00052,   0.00077,258250256.00000,   0.00000,274640576.00000,   0.00000,   0.00000,   0.00000,-216390320.00000,   0.00000
-250722174.02671,-222160370.10687,59147385.93162,  -0.00071,  -0.00052,   0.00077,258816400.00000,   0.00000,274640576.00000,   0.00000,   0.00000,   0.00000,-215824176.00000,   0.00000
-251364684.55204,-223000576.17847,59022525.58662,  -0.00071,  -0.00052,   0.00077,259389200.00000,   0.00000,274640576.00000,   0.00000,   0.00000,   0.00000,-215251376.00000,   0.00000
-252007195.07738,-223840782.25006,58897665.24161,  -0.00071,  -0.00053,   0.00077,259963040.00000,   0.00000,274640576.00000,   0.00000,   0.00000,   0.00000,-214677536.00000,   0.00000
-252639300.57397,-224691393.35041,58767602.38223,  -0.00071,  -0.00053,   0.00076,260532928.00000,   0.00000,274640576.00000,   0.00000,   0.00000,   0.00000,-214107648.00000,   0.00000
-253289614.87087,-225549808.22231,58637539.52285,  -0.00071,  -0.00053,   0.00076,261116992.00000,   0.00000,274640576.00000,   0.00000,   0.00000,   0.00000,-213523584.00000,   0.00000
-253947732.93933,-226426431.89453,58497071.63472,  -0.00071,  -0.00054,   0.00076,261706800.00000,   0.00000,274640576.00000,   0.00000,   0.00000,   0.00000,-212933776.00000,   0.00000
-254598047.23623,-227284846.76644,58356603.74659,  -0.00072,  -0.00054,   0.00076,262287264.00000,   0.00000,274640576.00000,   0.00000,   0.00000,   0.00000,-212353312.00000,   0.00000
-255256165.30469,-228161470.43866,58210933.34409,  -0.00072,  -0.00054,   0.00076,262877344.00000,   0.00000,274640576.00000,   0.00000,   0.00000,   0.00000,-211763232.00000,   0.00000
-255922087.14472,-229056302.91120,58060060.42720,  -0.00072,  -0.00054,   0.00075,263476912.00000,   0.00000,274640576.00000,   0.00000,   0.00000,   0.00000,-211163664.00000,   0.00000
-256580205.21318,-229932926.58342,57909187.51032,  -0.00072,  -0.00055,   0.00075,264067408.00000,   0.00000,274640576.00000,   0.00000,   0.00000,   0.00000,-210573168.00000,   0.00000
-257272139.62508,-230853771.62783,57747909.56469,  -0.00072,  -0.00055,   0.00075,264688176.00000,   0.00000,274640576.00000,   0.00000,   0.00000,   0.00000,-209952400.00000,   0.00000
-257938061.46511,-231748604.10036,57586631.61906,  -0.00072,  -0.00055,   0.00075,265286944.00000,   0.00000,274640576.00000,   0.00000,   0.00000,   0.00000,-209353632.00000,   0.00000
-258611787.07669,-232661645.37321,57420151.15906,  -0.00072,  -0.00055,   0.00075,265895632.00000,   0.00000,274640576.00000,   0.00000,   0.00000,   0.00000,-208744944.00000,   0.00000
-259303721.48860,-233582490.41762,57248468.18467,  -0.00072,  -0.00056,   0.00074,266515840.00000,   0.00000,274640576.00000,   0.00000,   0.00000,   0.00000,-208124736.00000,   0.00000
-259977447.10018,-234495531.69047,57071582.69592,  -0.00073,  -0.00056,   0.00074,267121504.00000,   0.00000,274640576.00000,   0.00000,   0.00000,   0.00000,-207519072.00000,   0.00000
-260677185.28365,-235434585.53519,56889494.69279,  -0.00073,  -0.00056,   0.00074,267750032.00000,   0.00000,274640576.00000,   0.00000,   0.00000,   0.00000,-206890544.00000,   0.00000
-261376923.46711,-236373639.37991,56707406.68965,  -0.00073,  -0.00057,   0.00074,268380144.00000,   0.00000,274640576.00000,   0.00000,   0.00000,   0.00000,-206260432.00000,   0.00000
-262076661.65058,-237312693.22464,56520116.17215,  -0.00073,  -0.00057,   0.00073,269008768.00000,   0.00000,274640576.00000,   0.00000,   0.00000,   0.00000,-205631808.00000,   0.00000
-262765994.80529,-238262152.09811,56327623.14026,  -0.00073,  -0.00057,   0.00073,269634176.00000,   0.00000,274640576.00000,   0.00000,   0.00000,   0.00000,-205006400.00000,   0.00000
-263473536.76032,-239219414.74315,56129927.59401,  -0.00073,  -0.00057,   0.00073,270270720.00000,   0.00000,274640576.00000,   0.00000,   0.00000,   0.00000,-204369856.00000,   0.00000
-264181078.71534,-240176677.38818,55927029.53337,  -0.00073,  -0.00058,   0.00073,270905536.00000,   0.00000,274640576.00000,   0.00000,   0.00000,   0.00000,-203735040.00000,   0.00000
-264896424.44193,-241152148.83353,55724131.47274,  -0.00074,  -0.00058,   0.00072,271553248.00000,   0.00000,274640576.00000,   0.00000,   0.00000,   0.00000,-203087328.00000,   0.00000
-265611770.16852,-242127620.27888,55510828.38336,  -0.00074,  -0.00058,   0.00072,272195904.00000,   0.00000,274640576.00000,   0.00000,   0.00000,   0.00000,-202444672.00000,   0.00000
-266327115.89511,-243103091.72423,55297525.29397,  -0.00074,  -0.00059,   0.00072,272840128.00000,   0.00000,274640576.00000,   0.00000,   0.00000,   0.00000,-201800448.00000,   0.00000
-267050265.39326,-244096771.96989,55079019.69022,  -0.00074,  -0.00059,   0.00072,273493920.00000,   0.00000,274640576.00000,   0.00000,   0.00000,   0.00000,-201146656.00000,   0.00000
-267791623.69173,-245098255.98712,54855311.57208,  -0.00074,  -0.00059,   0.00071,274159008.00000,   0.00000,274640576.00000,   0.00000,   0.00000,   0.00000,-200481568.00000,   0.00000
-268514773.18988,-246091936.23278,54631603.45395,  -0.00074,  -0.00060,   0.00071,274812576.00000,   0.00000,274640576.00000,   0.00000,   0.00000,   0.00000,-199828000.00000,   0.00000
-269245726.45960,-247103825.27876,54397490.30707,  -0.00074,  -0.00060,   0.00071,275473248.00000,   0.00000,274640576.00000,   0.00000,   0.00000,   0.00000,-199167328.00000,   0.00000
-269994888.52963,-248123518.09630,54163377.16018,  -0.00074,  -0.00060,   0.00070,276148192.00000,   0.00000,274640576.00000,   0.00000,   0.00000,   0.00000,-198492384.00000,   0.00000
-270725841.79934,-249135407.14227,53924061.49892,  -0.00075,  -0.00061,   0.00070,276809088.00000,   0.00000,274640576.00000,   0.00000,   0.00000,   0.00000,-197831488.00000,   0.00000
-271482807.64093,-250173308.76012,53679543.32329,  -0.00075,  -0.00061,   0.00070,277493440.00000,   0.00000,274640576.00000,   0.00000,   0.00000,   0.00000,-197147136.00000,   0.00000
-272221564.68221,-251203406.60641,53429822.63328,  -0.00075,  -0.00061,   0.00069,278164000.00000,   0.00000,274640576.00000,   0.00000,   0.00000,   0.00000,-196476576.00000,   0.00000
-272978530.52380,-252241308.22426,53174899.42889,  -0.00075,  -0.00062,   0.00069,278846784.00000,   0.00000,274640576.00000,   0.00000,   0.00000,   0.00000,-195793792.00000,   0.00000
-273735496.36539,-253279209.84212,52919976.22451,  -0.00075,  -0.00062,   0.00069,279532064.00000,   0.00000,274640576.00000,   0.00000,   0.00000,   0.00000,-195108512.00000,   0.00000
-274482057.17823,-254327516.48872,52654647.99137,  -0.00075,  -0.00062,   0.00068,280212960.00000,   0.00000,274640576.00000,   0.00000,   0.00000,   0.00000,-194427616.00000,   0.00000
-275254630.56295,-255401835.70720,52389319.75824,  -0.00075,  -0.00063,   0.00068,280921504.00000,   0.00000,274640576.00000,   0.00000,   0.00000,   0.00000,-193719072.00000,   0.00000
-276019400.17610,-256457946.12536,52118789.01073,  -0.00076,  -0.00063,   0.00068,281618656.00000,   0.00000,274640576.00000,   0.00000,   0.00000,   0.00000,-193021920.00000,   0.00000
-276791973.56082,-257532265.34384,51843055.74884,  -0.00076,  -0.00063,   0.00067,282327840.00000,   0.00000,274640576.00000,   0.00000,   0.00000,   0.00000,-192312736.00000,   0.00000
-277564546.94554,-258606584.56232,51567322.48696,  -0.00076,  -0.00064,   0.00067,283040032.00000,   0.00000,274640576.00000,   0.00000,   0.00000,   0.00000,-191600544.00000,   0.00000
-278344924.10182,-259699112.58111,51281184.19632,  -0.00076,  -0.00064,   0.00067,283761312.00000,   0.00000,274640576.00000,   0.00000,   0.00000,   0.00000,-190879264.00000,   0.00000
-279117497.48653,-260773431.79959,50995045.90569,  -0.00076,  -0.00064,   0.00066,284472864.00000,   0.00000,274640576.00000,   0.00000,   0.00000,   0.00000,-190167712.00000,   0.00000
-279905678.41438,-261884168.61869,50698502.58630,  -0.00076,  -0.00065,   0.00066,285203328.00000,   0.00000,274640576.00000,   0.00000,   0.00000,   0.00000,-189437248.00000,   0.00000
-280704264.37097,-262984500.40905,50401959.26691,  -0.00076,  -0.00065,   0.00066,285934048.00000,   0.00000,274640576.00000,   0.00000,   0.00000,   0.00000,-188706528.00000,   0.00000
-281492445.29881,-264095237.22815,50105415.94753,  -0.00077,  -0.00065,   0.00065,286660704.00000,   0.00000,274640576.00000,   0.00000,   0.00000,   0.00000,-187979872.00000,   0.00000
-282280626.22666,-265205974.04726,49798467.59939,  -0.00077,  -0.00066,   0.00065,287376896.00000,   0.00000,274640576.00000,   0.00000,   0.00000,   0.00000,-187263680.00000,   0.00000
-283068807.15450,-266316710.86636,49486316.73688,  -0.00077,  -0.00066,   0.00064,288084672.00000,   0.00000,274640576.00000,   0.00000,   0.00000,   0.00000,-186555904.00000,   0.00000
-283883000.65422,-267453460.25734,49174165.87437,  -0.00077,  -0.00066,   0.00064,288811936.00000,   0.00000,274640576.00000,   0.00000,   0.00000,   0.00000,-185828640.00000,   0.00000
-284678985.35362,-268582405.87676,48856812.49748,  -0.00077,  -0.00067,   0.00064,289524224.00000,   0.00000,274640576.00000,   0.00000,   0.00000,   0.00000,-185116352.00000,   0.00000
-285493178.85334,-269719155.26774,48534256.60622,  -0.00077,  -0.00067,   0.00063,290253248.00000,   0.00000,274640576.00000,   0.00000,   0.00000,   0.00000,-184387328.00000,   0.00000
-286296967.32431,-270866309.68747,48206498.20058,  -0.00077,  -0.00067,   0.00063,290990944.00000,   0.00000,274640576.00000,   0.00000,   0.00000,   0.00000,-183649632.00000,   0.00000
-287111160.82403,-272003059.07845,47873537.28057,  -0.00078,  -0.00068,   0.00062,291739904.00000,   0.00000,274640576.00000,   0.00000,   0.00000,   0.00000,-182900672.00000,   0.00000
-287922753.06656,-273168422.29850,47535373.84618,  -0.00078,  -0.00068,   0.00062,292507360.00000,   0.00000,274640576.00000,   0.00000,   0.00000,   0.00000,-182133216.00000,   0.00000
-288744750.33784,-274323380.48979,47197210.41179,  -0.00078,  -0.00069,   0.00061,293281408.00000,   0.00000,274640576.00000,   0.00000,   0.00000,   0.00000,-181359168.00000,   0.00000
-289574551.38068,-275496547.48140,46853844.46303,  -0.00078,  -0.00069,   0.00061,294067552.00000,   0.00000,274640576.00000,   0.00000,   0.00000,   0.00000,-180573024.00000,   0.00000
-290404352.42353,-276669714.47300,46505275.99989,  -0.00078,  -0.00069,   0.00060,294852704.00000,   0.00000,274640576.00000,   0.00000,   0.00000,   0.00000,-179787872.00000,   0.00000
-291223748.43762,-277853286.49336,46151505.02238,  -0.00078,  -0.00070,   0.00060,295636064.00000,   0.00000,274640576.00000,   0.00000,   0.00000,   0.00000,-179004512.00000,   0.00000
-292053549.48046,-279026453.48497,45792531.53049,  -0.00078,  -0.00070,   0.00060,296419520.00000,   0.00000,274640576.00000,   0.00000,   0.00000,   0.00000,-178221056.00000,   0.00000
-292891154.29487,-280217829.27689,45428355.52422,  -0.00079,  -0.00070,   0.00059,297214976.00000,   0.00000,274640576.00000,   0.00000,   0.00000,   0.00000,-177425600.00000,   0.00000
-293736562.88084,-281427413.86912,45064179.51796,  -0.00079,  -0.00071,   0.00059,298025376.00000,   0.00000,274640576.00000,   0.00000,   0.00000,   0.00000,-176615200.00000,   0.00000
-294574167.69525,-282618789.66104,44694800.99732,  -0.00079,  -0.00071,   0.00058,298824128.00000,   0.00000,274640576.00000,   0.00000,   0.00000,   0.00000,-175816448.00000,   0.00000
-295419576.28122,-283828374.25328,44320219.96231,  -0.00079,  -0.00072,   0.00058,299635840.00000,   0.00000,274640576.00000,   0.00000,   0.00000,   0.00000,-175004736.00000,   0.00000
-296264984.86719,-285037958.84551,43940436.41292,  -0.00079,  -0.00072,   0.00057,300448544.00000,   0.00000,274640576.00000,   0.00000,   0.00000,   0.00000,-174192032.00000,   0.00000
-297118197.22472,-286265752.23806,43555450.34915,  -0.00079,  -0.00072,   0.00057,301274720.00000,   0.00000,274640576.00000,   0.00000,   0.00000,   0.00000,-173365856.00000,   0.00000
-297963605.81069,-287475336.83029,43170464.28539,  -0.00080,  -0.00073,   0.00056,302092000.00000,   0.00000,274640576.00000,   0.00000,   0.00000,   0.00000,-172548576.00000,   0.00000
-298824621.93978,-288721339.02315,42775073.19287,  -0.00080,  -0.00073,   0.00056,302933056.00000,   0.00000,274640576.00000,   0.00000,   0.00000,   0.00000,-171707520.00000,   0.00000
-299696043.09763,-289956936.18726,42379682.10036,  -0.00080,  -0.00073,   0.00055,303778176.00000,   0.00000,274640576.00000,   0.00000,   0.00000,   0.00000,-170862400.00000,   0.00000
-300549255.45516,-291184729.57981,41979088.49347,  -0.00080,  -0.00074,   0.00055,304611936.00000,   0.00000,274640576.00000,   0.00000,   0.00000,   0.00000,-170028640.00000,   0.00000
-301410271.58426,-292430731.77267,41573292.37220,  -0.00080,  -0.00074,   0.00054,305459744.00000,   0.00000,274640576.00000,   0.00000,   0.00000,   0.00000,-169180832.00000,   0.00000
-302279091.48491,-293694942.76584,41167496.25094,  -0.00080,  -0.00075,   0.00054,306323648.00000,   0.00000,274640576.00000,   0.00000,   0.00000,   0.00000,-168316928.00000,   0.00000
-303158316.41432,-294948748.73026,40751295.10092,  -0.00080,  -0.00075,   0.00053,307187872.00000,   0.00000,274640576.00000,   0.00000,   0.00000,   0.00000,-167452704.00000,   0.00000
-304027136.31498,-296212959.72343,40335093.95091,  -0.00081,  -0.00075,   0.00052,308055488.00000,   0.00000,274640576.00000,   0.00000,   0.00000,   0.00000,-166585088.00000,   0.00000
-304895956.21564,-297477170.71661,39913690.28652,  -0.00081,  -0.00076,   0.00052,308925024.00000,   0.00000,274640576.00000,   0.00000,   0.00000,   0.00000,-165715552.00000,   0.00000
-305782984.91661,-298749185.48134,39487084.10775,  -0.00081,  -0.00076,   0.00051,309809120.00000,   0.00000,274640576.00000,   0.00000,   0.00000,   0.00000,-164831456.00000,   0.00000
-306659608.58883,-300031605.27483,39060477.92898,  -0.00081,  -0.00077,   0.00051,310696800.00000,   0.00000,274640576.00000,   0.00000,   0.00000,   0.00000,-163943776.00000,   0.00000
-307554441.06136,-301321828.83988,38623466.72147,  -0.00081,  -0.00077,   0.00050,311596960.00000,   0.00000,274640576.00000,   0.00000,   0.00000,   0.00000,-163043616.00000,   0.00000
-308431064.73359,-302604248.63336,38186455.51395,  -0.00081,  -0.00078,   0.00050,312487648.00000,   0.00000,274640576.00000,   0.00000,   0.00000,   0.00000,-162152928.00000,   0.00000
-309325897.20612,-303894472.19841,37744241.79206,  -0.00081,  -0.00078,   0.00049,313392384.00000,   0.00000,274640576.00000,   0.00000,   0.00000,   0.00000,-161248192.00000,   0.00000
-310210324.64990,-305195100.79221,37296825.55579,  -0.00082,  -0.00078,   0.00048,314297792.00000,   0.00000,274640576.00000,   0.00000,   0.00000,   0.00000,-160342784.00000,   0.00000
-311112960.89400,-306503533.15757,36844206.80515,  -0.00082,  -0.00079,   0.00048,315216864.00000,   0.00000,274640576.00000,   0.00000,   0.00000,   0.00000,-159423712.00000,   0.00000
-311997388.33778,-307804161.75137,36391588.05451,  -0.00082,  -0.00079,   0.00047,316125632.00000,   0.00000,274640576.00000,   0.00000,   0.00000,   0.00000,-158514944.00000,   0.00000
-312907828.35344,-309130802.91705,35933766.78949,  -0.00082,  -0.00080,   0.00047,317060384.00000,   0.00000,274640576.00000,   0.00000,   0.00000,   0.00000,-157580192.00000,   0.00000
-313800059.56879,-310449640.31116,35470743.01010,  -0.00082,  -0.00080,   0.00046,317983008.00000,   0.00000,274640576.00000,   0.00000,   0.00000,   0.00000,-156657568.00000,   0.00000
-314710499.58445,-311776281.47684,35002516.71633,  -0.00082,  -0.00080,   0.00046,318919296.00000,   0.00000,274640576.00000,   0.00000,   0.00000,   0.00000,-155721280.00000,   0.00000
-315620939.60011,-313102922.64251,34529087.90819,  -0.00083,  -0.00081,   0.00045,319856544.00000,   0.00000,274640576.00000,   0.00000,   0.00000,   0.00000,-154784032.00000,   0.00000
-316520974.58702,-314439968.83694,34055659.10004,  -0.00083,  -0.00081,   0.00044,320796832.00000,   0.00000,274640576.00000,   0.00000,   0.00000,   0.00000,-153843744.00000,   0.00000
-317431414.60268,-315766610.00261,33577027.77752,  -0.00083,  -0.00082,   0.00044,321738816.00000,   0.00000,274640576.00000,   0.00000,   0.00000,   0.00000,-152901760.00000,   0.00000
-318349658.38990,-317111459.96860,33093193.94063,  -0.00083,  -0.00082,   0.00043,322695520.00000,   0.00000,274640576.00000,   0.00000,   0.00000,   0.00000,-151945056.00000,   0.00000
-319275705.94868,-318474518.73490,32604157.58936,  -0.00083,  -0.00083,   0.00042,323667488.00000,   0.00000,274640576.00000,   0.00000,   0.00000,   0.00000,-150973088.00000,   0.00000
-320175740.93559,-319811564.92933,32115121.23809,  -0.00083,  -0.00083,   0.00042,324618240.00000,   0.00000,274640576.00000,   0.00000,   0.00000,   0.00000,-150022336.00000,   0.00000
-321101788.49438,-321174623.69563,31615679.85808,  -0.00083,  -0.00084,   0.00041,325596064.00000,   0.00000,274640576.00000,   0.00000,   0.00000,   0.00000,-149044512.00000,   0.00000
-322027836.05316,-322537682.46193,31116238.47806,  -0.00084,  -0.00084,   0.00040,326578816.00000,   0.00000,274640576.00000,   0.00000,   0.00000,   0.00000,-148061760.00000,   0.00000
-322961687.38351,-323918950.02855,30616797.09804,  -0.00084,  -0.00084,   0.00040,327579328.00000,   0.00000,274640576.00000,   0.00000,   0.00000,   0.00000,-147061248.00000,   0.00000
-323869526.14198,-325274205.02329,30106950.68927,  -0.00084,  -0.00085,   0.00039,328556480.00000,   0.00000,274640576.00000,   0.00000,   0.00000,   0.00000,-146084096.00000,   0.00000
-324803377.47233,-326655472.58990,29597104.28050,  -0.00084,  -0.00085,   0.00038,329564320.00000,   0.00000,274640576.00000,   0.00000,   0.00000,   0.00000,-145076256.00000,   0.00000
-325737228.80268,-328036740.15652,29082055.35735,  -0.00084,  -0.00086,   0.00038,330575808.00000,   0.00000,274640576.00000,   0.00000,   0.00000,   0.00000,-144064768.00000,   0.00000
-326678883.90459,-329436216.52345,28561803.91983,  -0.00084,  -0.00086,   0.00037,331603744.00000,   0.00000,274640576.00000,   0.00000,   0.00000,   0.00000,-143036832.00000,   0.00000
-327612735.23494,-330817484.09006,28041552.48231,  -0.00085,  -0.00087,   0.00036,332623456.00000,   0.00000,274640576.00000,   0.00000,   0.00000,   0.00000,-142017120.00000,   0.00000
-328554390.33685,-332216960.45699,27510896.01604,  -0.00085,  -0.00087,   0.00036,333658048.00000,   0.00000,274640576.00000,   0.00000,   0.00000,   0.00000,-140982528.00000,   0.00000
-329496045.43876,-333616436.82392,26980239.54977,  -0.00085,  -0.00088,   0.00035,334696896.00000,   0.00000,274640576.00000,   0.00000,   0.00000,   0.00000,-139943680.00000,   0.00000
-330427295.51192,-335026318.21960,26449583.08350,  -0.00085,  -0.00088,   0.00034,335739936.00000,   0.00000,274640576.00000,   0.00000,   0.00000,   0.00000,-138900640.00000,   0.00000
-331368950.61383,-336425794.58652,25908521.58848,  -0.00085,  -0.00088,   0.00034,336784160.00000,   0.00000,274640576.00000,   0.00000,   0.00000,   0.00000,-137856416.00000,   0.00000
-332318409.48730,-337843479.75376,25367460.09346,  -0.00085,  -0.00089,   0.00033,337845152.00000,   0.00000,274640576.00000,   0.00000,   0.00000,   0.00000,-136795424.00000,   0.00000
-333267868.36078,-339261164.92101,24821196.08407,  -0.00085,  -0.00089,   0.00032,338908672.00000,   0.00000,274640576.00000,   0.00000,   0.00000,   0.00000,-135731904.00000,   0.00000
-334217327.23425,-340678850.08825,24269729.56030,  -0.00086,  -0.00090,   0.00032,339974464.00000,   0.00000,274640576.00000,   0.00000,   0.00000,   0.00000,-134666112.00000,   0.00000
-335174589.87929,-342114744.05580,23718263.03653,  -0.00086,  -0.00090,   0.00031,341057088.00000,   0.00000,274640576.00000,   0.00000,   0.00000,   0.00000,-133583488.00000,   0.00000
-336124048.75276,-343532429.22304,23161593.99838,  -0.00086,  -0.00091,   0.00030,342128928.00000,   0.00000,274640576.00000,   0.00000,   0.00000,   0.00000,-132511648.00000,   0.00000
-337081311.39780,-344968323.19060,22599722.44586,  -0.00086,  -0.00091,   0.00029,343216480.00000,   0.00000,274640576.00000,   0.00000,   0.00000,   0.00000,-131424096.00000,   0.00000
-338020365.24252,-346396413.38659,22032648.37896,  -0.00086,  -0.00092,   0.00029,344293856.00000,   0.00000,274640576.00000,   0.00000,   0.00000,   0.00000,-130346720.00000,   0.00000
-338985431.65912,-347850516.15446,21465574.31207,  -0.00086,  -0.00092,   0.00028,345401024.00000,   0.00000,274640576.00000,   0.00000,   0.00000,   0.00000,-129239552.00000,   0.00000
-339950498.07572,-349304618.92233,20893297.73079,  -0.00087,  -0.00093,   0.00027,346510816.00000,   0.00000,274640576.00000,   0.00000,   0.00000,   0.00000,-128129760.00000,   0.00000
-340907760.72076,-350740512.88988,20321021.14952,  -0.00087,  -0.00093,   0.00026,347611200.00000,   0.00000,274640576.00000,   0.00000,   0.00000,   0.00000,-127029376.00000,   0.00000
-341872827.13736,-352194615.65775,19738339.53950,  -0.00087,  -0.00094,   0.00026,348726880.00000,   0.00000,274640576.00000,   0.00000,   0.00000,   0.00000,-125913696.00000,   0.00000
-342845697.32552,-353666927.22593,19155657.92948,  -0.00087,  -0.00094,   0.00025,349859648.00000,   0.00000,274640576.00000,   0.00000,   0.00000,   0.00000,-124780928.00000,   0.00000
-343810763.74212,-355121029.99380,18572976.31946,  -0.00087,  -0.00095,   0.00024,350982912.00000,   0.00000,274640576.00000,   0.00000,   0.00000,   0.00000,-123657664.00000,   0.00000
-344783633.93028,-356593341.56198,17979889.68068,  -0.00087,  -0.00095,   0.00023,352121792.00000,   0.00000,274640576.00000,   0.00000,   0.00000,   0.00000,-122518784.00000,   0.00000
-345738295.31813,-358057849.35859,17386803.04191,  -0.00087,  -0.00095,   0.00023,353251968.00000,   0.00000,274640576.00000,   0.00000,   0.00000,   0.00000,-121388608.00000,   0.00000
-346711165.50629,-359530160.92678,16793716.40314,  -0.00088,  -0.00096,   0.00022,354398784.00000,   0.00000,274640576.00000,   0.00000,   0.00000,   0.00000,-120241792.00000,   0.00000
-347684035.69445,-361002472.49496,16190224.73561,  -0.00088,  -0.00096,   0.00021,355548128.00000,   0.00000,274640576.00000,   0.00000,   0.00000,   0.00000,-119092448.00000,   0.00000
-348664709.65418,-362492992.86345,15586733.06809,  -0.00088,  -0.00097,   0.00020,356714912.00000,   0.00000,274640576.00000,   0.00000,   0.00000,   0.00000,-117925664.00000,   0.00000
-349645383.61390,-363983513.23194,14978038.88619,  -0.00088,  -0.00097,   0.00019,357885088.00000,   0.00000,274640576.00000,   0.00000,   0.00000,   0.00000,-116755488.00000,   0.00000
-350626057.57362,-365474033.60044,14369344.70430,  -0.00088,  -0.00098,   0.00019,359059392.00000,   0.00000,274640576.00000,   0.00000,   0.00000,   0.00000,-115581184.00000,   0.00000
-351588522.73304,-366956750.19737,13755448.00802,  -0.00088,  -0.00098,   0.00018,360224640.00000,   0.00000,274640576.00000,   0.00000,   0.00000,   0.00000,-114415936.00000,   0.00000
-352569196.69276,-368447270.56586,13136348.79737,  -0.00089,  -0.00099,   0.00017,361406240.00000,   0.00000,274640576.00000,   0.00000,   0.00000,   0.00000,-113234336.00000,   0.00000
-353557674.42405,-369955999.73467,12517249.58673,  -0.00089,  -0.00099,   0.00016,362605440.00000,   0.00000,274640576.00000,   0.00000,   0.00000,   0.00000,-112035136.00000,   0.00000
-354538348.38377,-371446520.10317,11892947.86170,  -0.00089,  -0.00100,   0.00015,363795104.00000,   0.00000,274640576.00000,   0.00000,   0.00000,   0.00000,-110845472.00000,   0.00000
-355508617.31475,-372947445.50041,11263443.62230,  -0.00089,  -0.00100,   0.00015,364989216.00000,   0.00000,274640576.00000,   0.00000,   0.00000,   0.00000,-109651360.00000,   0.00000
-356504898.81760,-374474383.46953,10633939.38290,  -0.00089,  -0.00101,   0.00014,366213856.00000,   0.00000,274640576.00000,   0.00000,   0.00000,   0.00000,-108426720.00000,   0.00000
-357493376.54889,-375983112.63834,9999232.62913,  -0.00089,  -0.00101,   0.00013,367428896.00000,   0.00000,274640576.00000,   0.00000,   0.00000,   0.00000,-107211680.00000,   0.00000
-358463645.47986,-377484038.03558,9364525.87536,  -0.00089,  -0.00102,   0.00012,368635744.00000,   0.00000,274640576.00000,   0.00000,   0.00000,   0.00000,-106004832.00000,   0.00000
-359459926.98271,-379010976.00470,8724616.60721,  -0.00090,  -0.00102,   0.00011,369872640.00000,   0.00000,274640576.00000,   0.00000,   0.00000,   0.00000,-104767936.00000,   0.00000
-360456208.48556,-380537913.97382,8079504.82468,  -0.00090,  -0.00103,   0.00011,371113472.00000,   0.00000,274640576.00000,   0.00000,   0.00000,   0.00000,-103527104.00000,   0.00000
-361434281.18810,-382057048.17138,7434393.04216,  -0.00090,  -0.00103,   0.00010,372346048.00000,   0.00000,274640576.00000,   0.00000,   0.00000,   0.00000,-102294528.00000,   0.00000
-362430562.69095,-383583986.14050,6784078.74526,  -0.00090,  -0.00104,   0.00009,373595168.00000,   0.00000,274640576.00000,   0.00000,   0.00000,   0.00000,-101045408.00000,   0.00000
-363416439.16505,-385121329.13837,6128561.93398,  -0.00090,  -0.00104,   0.00008,374849152.00000,   0.00000,274640576.00000,   0.00000,   0.00000,   0.00000,-99791424.00000,   0.00000
-364420524.43946,-386666475.90781,5473045.12271,  -0.00090,  -0.00105,   0.00007,376119808.00000,   0.00000,274640576.00000,   0.00000,   0.00000,   0.00000,-98520768.00000,   0.00000
-365398597.14200,-388185610.10536,4812325.79706,  -0.00091,  -0.00105,   0.00006,377368192.00000,   0.00000,274640576.00000,   0.00000,   0.00000,   0.00000,-97272384.00000,   0.00000
-366402682.41641,-389730756.87480,4151606.47141,  -0.00091,  -0.00106,   0.00005,378646688.00000,   0.00000,274640576.00000,   0.00000,   0.00000,   0.00000,-95993888.00000,   0.00000
-367396362.66207,-391286308.67298,3485684.63138,  -0.00091,  -0.00106,   0.00005,379929408.00000,   0.00000,274640576.00000,   0.00000,   0.00000,   0.00000,-94711168.00000,   0.00000
-368400447.93649,-392831455.44242,2819762.79136,  -0.00091,  -0.00107,   0.00004,381214656.00000,   0.00000,274640576.00000,   0.00000,   0.00000,   0.00000,-93425920.00000,   0.00000
-369386324.41059,-394368798.44029,2148638.43696,  -0.00091,  -0.00107,   0.00003,382490240.00000,   0.00000,274640576.00000,   0.00000,   0.00000,   0.00000,-92150336.00000,   0.00000
-370398213.45656,-395932154.01003,1472311.56818,  -0.00091,  -0.00108,   0.00002,383794368.00000,   0.00000,274640576.00000,   0.00000,   0.00000,   0.00000,-90846208.00000,   0.00000
-371391893.70223,-397487705.80822,795984.69941,  -0.00091,  -0.00108,   0.00001,385088000.00000,   0.00000,274640576.00000,   0.00000,   0.00000,   0.00000,-89552576.00000,   0.00000
-372385573.94789,-399043257.60640,114455.31625,  -0.00092,  -0.00109,   0.00000,386382688.00000,   0.00000,274640576.00000,   0.00000,   0.00000,   0.00000,-88257888.00000,   0.00000
-373379254.19355,-400598809.40459,-567074.06690,  -0.00092,  -0.00109,  -0.00001,387688512.00000,   0.00000,274640576.00000,   0.00000,   0.00000,   0.00000,-86952064.00000,   0.00000
-374398947.01109,-402180373.77465,-1253805.96442,  -0.00092,  -0.00110,  -0.00002,389069280.00000,   0.00000,274640576.00000,   0.00000,   0.00000,   0.00000,-85571296.00000,   0.00000
-375392627.25675,-403735925.57283,-1940537.86195,  -0.00092,  -0.00110,  -0.00003,390468480.00000,   0.00000,274640576.00000,   0.00000,   0.00000,   0.00000,-84172096.00000,   0.00000
-376394111.27398,-405309686.17133,-2632472.27385,  -0.00092,  -0.00111,  -0.00003,391857760.00000,   0.00000,274640576.00000,   0.00000,   0.00000,   0.00000,-82782816.00000,   0.00000
-377395595.29120,-406883446.76982,-3324406.68575,  -0.00092,  -0.00112,  -0.00004,393194272.00000,   0.00000,274640576.00000,   0.00000,   0.00000,   0.00000,-81446304.00000,   0.00000
-378397079.30843,-408457207.36832,-4021543.61203,  -0.00093,  -0.00112,  -0.00005,394497888.00000,   0.00000,274640576.00000,   0.00000,   0.00000,   0.00000,-80142688.00000,   0.00000
-379398563.32566,-410030967.96682,-4723883.05268,  -0.00093,  -0.00113,  -0.00006,395793568.00000,   0.00000,274640576.00000,   0.00000,   0.00000,   0.00000,-78847008.00000,   0.00000
-380400047.34288,-411604728.56532,-5426222.49333,  -0.00093,  -0.00113,  -0.00007,397096000.00000,   0.00000,274640576.00000,   0.00000,   0.00000,   0.00000,-77544576.00000,   0.00000
-381401531.36011,-413178489.16381,-6128561.93398,  -0.00093,  -0.00114,  -0.00008,398411104.00000,   0.00000,274640576.00000,   0.00000,   0.00000,   0.00000,-76229472.00000,   0.00000
-382410819.14889,-414770458.56262,-6836103.88901,  -0.00093,  -0.00114,  -0.00009,399752672.00000,   0.00000,274640576.00000,   0.00000,   0.00000,   0.00000,-74887904.00000,   0.00000
-383420106.93768,-416362427.96143,-7548848.35841,  -0.00093,  -0.00115,  -0.00010,401105408.00000,   0.00000,274640576.00000,   0.00000,   0.00000,   0.00000,-73535168.00000,   0.00000
-384429394.72647,-417954397.36024,-8261592.82781,  -0.00093,  -0.00115,  -0.00011,402466080.00000,   0.00000,274640576.00000,   0.00000,   0.00000,   0.00000,-72174496.00000,   0.00000
-385438682.51526,-419546366.75905,-8974337.29722,  -0.00094,  -0.00116,  -0.00012,403832000.00000,   0.00000,274640576.00000,   0.00000,   0.00000,   0.00000,-70808576.00000,   0.00000
-386429761.50373,-421130532.38630,-9692284.28099,  -0.00094,  -0.00116,  -0.00013,405189568.00000,   0.00000,274640576.00000,   0.00000,   0.00000,   0.00000,-69451008.00000,   0.00000
-387439049.29252,-422722501.78511,-10410231.26477,  -0.00094,  -0.00117,  -0.00014,406562176.00000,   0.00000,274640576.00000,   0.00000,   0.00000,   0.00000,-68078400.00000,   0.00000
-388456140.85287,-424332679.98424,-11133380.76292,  -0.00094,  -0.00117,  -0.00014,407951104.00000,   0.00000,274640576.00000,   0.00000,   0.00000,   0.00000,-66689472.00000,   0.00000
-389447219.84135,-425916845.61148,-11861732.77545,  -0.00094,  -0.00118,  -0.00015,409317344.00000,   0.00000,274640576.00000,   0.00000,   0.00000,   0.00000,-65323232.00000,   0.00000
-390464311.40170,-427527023.81061,-12584882.27360,  -0.00094,  -0.00118,  -0.00016,410711744.00000,   0.00000,274640576.00000,   0.00000,   0.00000,   0.00000,-63928832.00000,   0.00000
-391463194.16174,-429129398.23817,-13318436.80051,  -0.00094,  -0.00119,  -0.00017,412098208.00000,   0.00000,274640576.00000,   0.00000,   0.00000,   0.00000,-62542368.00000,   0.00000
-392480285.72209,-430739576.43729,-14046788.81303,  -0.00095,  -0.00119,  -0.00018,413500192.00000,   0.00000,274640576.00000,   0.00000,   0.00000,   0.00000,-61140384.00000,   0.00000
-393479168.48213,-432341950.86485,-14780343.33994,  -0.00095,  -0.00120,  -0.00019,414894688.00000,   0.00000,274640576.00000,   0.00000,   0.00000,   0.00000,-59745888.00000,   0.00000
-394478051.24217,-433944325.29241,-15519100.38121,  -0.00095,  -0.00121,  -0.00020,416294208.00000,   0.00000,274640576.00000,   0.00000,   0.00000,   0.00000,-58346368.00000,   0.00000
-395502946.57408,-435572712.29185,-16257857.42249,  -0.00095,  -0.00121,  -0.00021,417724352.00000,   0.00000,274640576.00000,   0.00000,   0.00000,   0.00000,-56916224.00000,   0.00000
-396501829.33412,-437175086.71941,-16996614.46377,  -0.00095,  -0.00122,  -0.00022,419133696.00000,   0.00000,274640576.00000,   0.00000,   0.00000,   0.00000,-55506880.00000,   0.00000
-397508515.86572,-438795669.94729,-17740574.01942,  -0.00095,  -0.00122,  -0.00023,420562656.00000,   0.00000,274640576.00000,   0.00000,   0.00000,   0.00000,-54077920.00000,   0.00000
-398515202.39732,-440416253.17516,-18484533.57508,  -0.00095,  -0.00123,  -0.00024,421996864.00000,   0.00000,274640576.00000,   0.00000,   0.00000,   0.00000,-52643712.00000,   0.00000
-399521888.92892,-442036836.40303,-19233695.64511,  -0.00096,  -0.00123,  -0.00025,423437216.00000,   0.00000,274640576.00000,   0.00000,   0.00000,   0.00000,-51203360.00000,   0.00000
-400528575.46052,-443657419.63091,-19982857.71513,  -0.00096,  -0.00124,  -0.00026,424882816.00000,   0.00000,274640576.00000,   0.00000,   0.00000,   0.00000,-49757760.00000,   0.00000
-401535261.99212,-445278002.85878,-20732019.78516,  -0.00096,  -0.00124,  -0.00027,426333952.00000,   0.00000,274640576.00000,   0.00000,   0.00000,   0.00000,-48306624.00000,   0.00000
-402541948.52372,-446898586.08666,-21486384.36957,  -0.00096,  -0.00125,  -0.00028,427791232.00000,   0.00000,274640576.00000,   0.00000,   0.00000,   0.00000,-46849344.00000,   0.00000
-403556438.82688,-448537378.11484,-22245951.46834,  -0.00096,  -0.00125,  -0.00029,429268224.00000,   0.00000,274640576.00000,   0.00000,   0.00000,   0.00000,-45372352.00000,   0.00000
-404544916.55817,-450150157.57115,-23000316.05275,  -0.00096,  -0.00126,  -0.00030,430723904.00000,   0.00000,274640576.00000,   0.00000,   0.00000,   0.00000,-43916672.00000,   0.00000
-405559406.86134,-451788949.59934,-23759883.15153,  -0.00096,  -0.00126,  -0.00031,432211264.00000,   0.00000,274640576.00000,   0.00000,   0.00000,   0.00000,-42429312.00000,   0.00000
-406573897.16450,-453427741.62753,-24519450.25031,  -0.00097,  -0.00127,  -0.00032,433703680.00000,   0.00000,274640576.00000,   0.00000,   0.00000,   0.00000,-40936896.00000,   0.00000
-407562374.89579,-455040521.08384,-25284219.86346,  -0.00097,  -0.00128,  -0.00033,435176128.00000,   0.00000,274640576.00000,   0.00000,   0.00000,   0.00000,-39464448.00000,   0.00000
-408576865.19895,-456679313.11203,-26048989.47661,  -0.00097,  -0.00128,  -0.00034,436679168.00000,   0.00000,274640576.00000,   0.00000,   0.00000,   0.00000,-37961408.00000,   0.00000
-409573146.70180,-458310301.36865,-26818961.60414,  -0.00097,  -0.00129,  -0.00035,438176064.00000,   0.00000,274640576.00000,   0.00000,   0.00000,   0.00000,-36464512.00000,   0.00000
-410577231.97621,-459959498.42559,-27583731.21730,  -0.00097,  -0.00129,  -0.00036,439690464.00000,   0.00000,274640576.00000,   0.00000,   0.00000,   0.00000,-34950112.00000,   0.00000
-411591722.27938,-461598290.45378,-28353703.34483,  -0.00097,  -0.00130,  -0.00037,441208864.00000,   0.00000,274640576.00000,   0.00000,   0.00000,   0.00000,-33431712.00000,   0.00000
-412588003.78223,-463229278.71040,-29128877.98673,  -0.00097,  -0.00130,  -0.00038,442721184.00000,   0.00000,274640576.00000,   0.00000,   0.00000,   0.00000,-31919392.00000,   0.00000
-413592089.05664,-464878475.76734,-29898850.11426,  -0.00098,  -0.00131,  -0.00039,444251040.00000,   0.00000,274640576.00000,   0.00000,   0.00000,   0.00000,-30389536.00000,   0.00000
-414588370.55949,-466509464.02396,-30674024.75616,  -0.00098,  -0.00131,  -0.00040,445772960.00000,   0.00000,274640576.00000,   0.00000,   0.00000,   0.00000,-28867616.00000,   0.00000
-415592455.83390,-468158661.08090,-31454401.91244,  -0.00098,  -0.00132,  -0.00041,447314880.00000,   0.00000,274640576.00000,   0.00000,   0.00000,   0.00000,-27325696.00000,   0.00000
-416596541.10832,-469807858.13784,-32229576.55435,  -0.00098,  -0.00133,  -0.00042,448860480.00000,   0.00000,274640576.00000,   0.00000,   0.00000,   0.00000,-25780096.00000,   0.00000
-417582417.58242,-471449251.42321,-33009953.71063,  -0.00098,  -0.00133,  -0.00043,450400000.00000,   0.00000,274640576.00000,   0.00000,   0.00000,   0.00000,-24240576.00000,   0.00000
-418578699.08527,-473080239.67984,-33795533.38128,  -0.00098,  -0.00134,  -0.00044,451943584.00000,   0.00000,274640576.00000,   0.00000,   0.00000,   0.00000,-22696992.00000,   0.00000
-419590588.13124,-474747645.53709,-34575910.53756,  -0.00098,  -0.00134,  -0.00045,453517952.00000,   0.00000,274640576.00000,   0.00000,   0.00000,   0.00000,-21122624.00000,   0.00000
-420576464.60534,-476389038.82246,-35361490.20822,  -0.00098,  -0.00135,  -0.00046,455071776.00000,   0.00000,274640576.00000,   0.00000,   0.00000,   0.00000,-19568800.00000,   0.00000
-421580549.87976,-478038235.87940,-36147069.87887,  -0.00099,  -0.00135,  -0.00047,456641056.00000,   0.00000,274640576.00000,   0.00000,   0.00000,   0.00000,-17999520.00000,   0.00000
-422566426.35386,-479679629.16478,-36937852.06390,  -0.00099,  -0.00136,  -0.00048,458202784.00000,   0.00000,274640576.00000,   0.00000,   0.00000,   0.00000,-16437792.00000,   0.00000
-423578315.39983,-481347035.02203,-37723431.73456,  -0.00099,  -0.00136,  -0.00049,459791776.00000,   0.00000,274640576.00000,   0.00000,   0.00000,   0.00000,-14848800.00000,   0.00000
-424564191.87393,-482988428.30740,-38514213.91959,  -0.00099,  -0.00137,  -0.00050,461358272.00000,   0.00000,274640576.00000,   0.00000,   0.00000,   0.00000,-13282304.00000,   0.00000
-425557872.11960,-484648030.39309,-39304996.10462,  -0.00099,  -0.00138,  -0.00051,462940416.00000,   0.00000,274640576.00000,   0.00000,   0.00000,   0.00000,-11700160.00000,   0.00000
-426543748.59370,-486289423.67846,-40100980.80402,  -0.00099,  -0.00138,  -0.00052,464511168.00000,   0.00000,274640576.00000,   0.00000,   0.00000,   0.00000,-10129408.00000,   0.00000
-427537428.83936,-487949025.76415,-40891762.98905,  -0.00099,  -0.00139,  -0.00053,466095552.00000,   0.00000,274640576.00000,   0.00000,   0.00000,   0.00000,-8545024.00000,   0.00000
-428531109.08502,-489608627.84984,-41687747.68846,  -0.00100,  -0.00139,  -0.00054,467681984.00000,   0.00000,274640576.00000,   0.00000,   0.00000,   0.00000,-6958592.00000,   0.00000
-429506580.53037,-491260426.16396,-42483732.38786,  -0.00100,  -0.00140,  -0.00055,469257088.00000,   0.00000,274640576.00000,   0.00000,   0.00000,   0.00000,-5383488.00000,   0.00000
-430500260.77603,-492920028.24965,-43279717.08727,  -0.00100,  -0.00140,  -0.00056,470844544.00000,   0.00000,274640576.00000,   0.00000,   0.00000,   0.00000,-3796032.00000,   0.00000
-431493941.02170,-494579630.33534,-44080904.30105,  -0.00100,  -0.00141,  -0.00057,472433632.00000,   0.00000,274640576.00000,   0.00000,   0.00000,   0.00000,-2206944.00000,   0.00000
-432469412.46705,-496231428.64947,-44882091.51483,  -0.00100,  -0.00141,  -0.00058,474011328.00000,   0.00000,274640576.00000,   0.00000,   0.00000,   0.00000,-629248.00000,   0.00000
-432863391.15820,-496889434.94516,-45197687.01088,  -0.00100,  -0.00142,  -0.00059,474640864.00000,   0.00000,274640576.00000,   0.00000,   0.00000,   0.00000, 288.00000,   0.00000
-432608787.73608,-496882695.83195,-45568925.05385,  -0.00100,  -0.00142,  -0.00059,474640864.00000,   0.00000,274643840.00000,  -0.00000,  -0.00000,  -0.00000,   0.00000,   2.00000
-432172888.04748,-496874307.04759,-46190844.97620,  -0.00100,  -0.00143,  -0.00060,476239424.00000,   0.00001,274649280.00000,  -0.00001,  -0.00001,  -0.00000,  32.00000,   2.00000
-431742216.09441,-496860148.41093,-46806270.04151,  -0.00100,  -0.00143,  -0.00061,476233216.00000,   0.00001,274654688.00000,  -0.00001,  -0.00001,  -0.00001, -32.00000,   2.00000
-431311250.01855,-496842545.79124,-47418630.32290,  -0.00101,  -0.00144,  -0.00063,476242336.00000,   0.00002,274660096.00000,  -0.00001,  -0.00002,  -0.00001,   0.00000,   2.00000
-430874258.57960,-496823462.78100,-48031229.58259,  -0.00101,  -0.00144,  -0.00064,476266976.00000,   0.00002,274665568.00000,  -0.00001,  -0.00002,  -0.00001,  64.00000,   2.00000
-430441233.23014,-496796978.55007,-48642354.79417,  -0.00101,  -0.00145,  -0.00065,476262624.00000,   0.00003,274671040.00000,  -0.00002,  -0.00003,  -0.00001,  32.00000,   2.00000
-430003510.15240,-496770563.29935,-49248650.98774,  -0.00101,  -0.00145,  -0.00066,476285760.00000,   0.00003,274676544.00000,  -0.00002,  -0.00003,  -0.00002, -64.00000,   2.00000
-429565611.61423,-496740857.92635,-49851881.83093,  -0.00101,  -0.00146,  -0.00067,476294976.00000,   0.00004,274682080.00000,  -0.00002,  -0.00004,  -0.00002, -32.00000,   2.00000
-429119161.68624,-496712024.18272,-50453547.91893,  -0.00101,  -0.00147,  -0.00068,476292992.00000,   0.00004,274687616.00000,  -0.00003,  -0.00004,  -0.00002, -96.00000,   2.00000
-428683153.91380,-496670389.52357,-51057574.60694,  -0.00101,  -0.00147,  -0.00069,476301376.00000,   0.00005,274693120.00000,  -0.00003,  -0.00005,  -0.00002, 128.00000,   2.00000
-428235530.87660,-496635548.06651,-51653521.79275,  -0.00101,  -0.00148,  -0.00070,476310944.00000,   0.00005,274698656.00000,  -0.00003,  -0.00005,  -0.00003,  96.00000,   2.00000
-427785643.59719,-496596247.34126,-52251758.79138,  -0.00101,  -0.00148,  -0.00071,476321408.00000,   0.00006,274704224.00000,  -0.00004,  -0.00006,  -0.00003, -32.00000,   2.00000
-427334913.30389,-496554590.13803,-52847434.23121,  -0.00102,  -0.00149,  -0.00072,476329728.00000,   0.00006,274709792.00000,  -0.00004,  -0.00006,  -0.00003,   0.00000,   2.00000
-426883371.65050,-496510941.81189,-53440671.02088,  -0.00102,  -0.00149,  -0.00073,476337760.00000,   0.00007,274715392.00000,  -0.00004,  -0.00007,  -0.00004, -32.00000,   2.00000
-426426735.03667,-496469152.50838,-54029680.88396,  -0.00102,  -0.00150,  -0.00074,476359488.00000,   0.00007,274721024.00000,  -0.00005,  -0.00007,  -0.00004, -64.00000,   2.00000
-425973408.56542,-496421895.94538,-54618245.43993,  -0.00102,  -0.00151,  -0.00075,476353440.00000,   0.00008,274726624.00000,  -0.00005,  -0.00008,  -0.00004,  64.00000,   2.00000
-425519178.91848,-496372946.45896,-55204510.27937,  -0.00102,  -0.00151,  -0.00076,476360960.00000,   0.00008,274732224.00000,  -0.00005,  -0.00008,  -0.00004,  32.00000,   2.00000
-425055987.48926,-496326663.10290,-55790085.48680,  -0.00102,  -0.00152,  -0.00077,476357088.00000,   0.00009,274737824.00000,  -0.00006,  -0.00009,  -0.00005,  64.00000,   2.00000
-424594651.00473,-496276509.22472,-56374760.44444,  -0.00102,  -0.00152,  -0.00078,476391520.00000,   0.00009,274743488.00000,  -0.00006,  -0.00009,  -0.00005, 128.00000,   2.00000
-424130003.01861,-496226839.79693,-56955670.89807,  -0.00102,  -0.00153,  -0.00079,476372096.00000,   0.00010,274749120.00000,  -0.00006,  -0.00010,  -0.00005,  32.00000,   2.00000
-423671565.71346,-496169499.20311,-57537498.51568,  -0.00102,  -0.00153,  -0.00080,476392800.00000,   0.00010,274754752.00000,  -0.00006,  -0.00010,  -0.00006,   0.00000,   2.00000
-423200198.47924,-496118269.95038,-58116515.89821,  -0.00103,  -0.00154,  -0.00081,476402912.00000,   0.00011,274760448.00000,  -0.00007,  -0.00011,  -0.00006,  64.00000,   2.00000
-422730188.61012,-496067253.73107,-58688117.43543,  -0.00103,  -0.00155,  -0.00083,476408800.00000,   0.00011,274766112.00000,  -0.00007,  -0.00011,  -0.00006, -32.00000,   2.00000
-422253879.55525,-496012472.48159,-59265735.29370,  -0.00103,  -0.00155,  -0.00084,476393632.00000,   0.00012,274771744.00000,  -0.00007,  -0.00012,  -0.00007,  32.00000,   2.00000
-421781718.78797,-495955435.99354,-59837025.45405,  -0.00103,  -0.00156,  -0.00085,476426720.00000,   0.00012,274777440.00000,  -0.00008,  -0.00012,  -0.00007,  32.00000,   2.00000
-421313369.22945,-495892364.30989,-60407669.69874,  -0.00103,  -0.00156,  -0.00086,476421344.00000,   0.00013,274783136.00000,  -0.00008,  -0.00013,  -0.00007,   0.00000,   2.00000
-420832472.32621,-495834939.23445,-60975225.91620,  -0.00103,  -0.00157,  -0.00087,476432128.00000,   0.00014,274788832.00000,  -0.00008,  -0.00013,  -0.00008,   0.00000,   2.00000
-420360053.67452,-495771238.80036,-61538298.89713,  -0.00103,  -0.00157,  -0.00088,476451936.00000,   0.00014,274794560.00000,  -0.00009,  -0.00014,  -0.00008,  64.00000,   2.00000
-419879089.75103,-495709085.91574,-62100290.93594,  -0.00103,  -0.00158,  -0.00089,476449376.00000,   0.00015,274800288.00000,  -0.00009,  -0.00014,  -0.00008,  96.00000,   2.00000
-419398203.81200,-495644523.71265,-62659464.56609,  -0.00103,  -0.00159,  -0.00090,476458080.00000,   0.00015,274806048.00000,  -0.00009,  -0.00015,  -0.00009,   0.00000,   2.00000
-418917479.69559,-495577585.62137,-63215815.77297,  -0.00104,  -0.00159,  -0.00091,476466784.00000,   0.00016,274811776.00000,  -0.00010,  -0.00015,  -0.00009,  64.00000,   2.00000
-418436840.05655,-495508130.06340,-63769319.77181,  -0.00104,  -0.00160,  -0.00092,476475744.00000,   0.00016,274817536.00000,  -0.00010,  -0.00016,  -0.00009,  96.00000,   2.00000
-417947744.38519,-495440120.84845,-64321779.43186,  -0.00104,  -0.00160,  -0.00093,476473376.00000,   0.00017,274823296.00000,  -0.00010,  -0.00016,  -0.00010,  32.00000,   2.00000
-417467433.36146,-495365703.24617,-64869606.33002,  -0.00104,  -0.00161,  -0.00094,476493536.00000,   0.00017,274829088.00000,  -0.00010,  -0.00017,  -0.00010,   0.00000,   2.00000
-416978633.83650,-495292732.77625,-65416440.53527,  -0.00104,  -0.00161,  -0.00095,476491296.00000,   0.00018,274834848.00000,  -0.00011,  -0.00017,  -0.00010, -32.00000,   2.00000
-416498797.27581,-495213574.14224,-65958669.69064,  -0.00104,  -0.00162,  -0.00096,476511360.00000,   0.00018,274840672.00000,  -0.00011,  -0.00018,  -0.00011,   0.00000,   2.00000
-416010344.77786,-495135806.15338,-66499960.88769,  -0.00104,  -0.00163,  -0.00097,476508992.00000,   0.00019,274846464.00000,  -0.00011,  -0.00018,  -0.00011, -64.00000,   2.00000
-415522157.82150,-495055787.23410,-67038527.46771,  -0.00104,  -0.00163,  -0.00098,476517824.00000,   0.00019,274852256.00000,  -0.00012,  -0.00019,  -0.00011,   0.00000,   2.00000
-415035993.77942,-494975751.59878,-67569569.20745,  -0.00104,  -0.00164,  -0.00100,476524352.00000,   0.00020,274858080.00000,  -0.00012,  -0.00019,  -0.00012, -96.00000,   2.00000
-414535680.67358,-494898922.24914,-68102328.88341,  -0.00104,  -0.00164,  -0.00101,476537920.00000,   0.00020,274863936.00000,  -0.00012,  -0.00020,  -0.00012,   0.00000,   2.00000
-414048206.78924,-494812309.51837,-68632889.32513,  -0.00104,  -0.00165,  -0.00102,476543936.00000,   0.00021,274869760.00000,  -0.00013,  -0.00020,  -0.00012,  32.00000,   2.00000
-413552005.02805,-494727282.80036,-69162721.96797,  -0.00105,  -0.00165,  -0.00103,476541472.00000,   0.00021,274875584.00000,  -0.00013,  -0.00021,  -0.00013,  64.00000,   2.00000
-413063220.59524,-494642847.31254,-69680899.42847,  -0.00105,  -0.00166,  -0.00104,476572608.00000,   0.00022,274881504.00000,  -0.00013,  -0.00021,  -0.00013,  96.00000,   2.00000
-412567307.60033,-494553650.81359,-70205592.12523,  -0.00105,  -0.00167,  -0.00105,476558560.00000,   0.00023,274887360.00000,  -0.00013,  -0.00022,  -0.00014, -64.00000,   2.00000
-412071721.65800,-494462677.03747,-70727768.12959,  -0.00105,  -0.00167,  -0.00106,476566784.00000,   0.00023,274893216.00000,  -0.00014,  -0.00023,  -0.00014,  32.00000,   2.00000
-411574733.88849,-494376252.62924,-71240244.29790,  -0.00105,  -0.00168,  -0.00107,476586528.00000,   0.00024,274899136.00000,  -0.00014,  -0.00023,  -0.00014, 128.00000,   2.00000
-411072497.49844,-494287630.60438,-71754628.04038,  -0.00105,  -0.00168,  -0.00108,476570048.00000,   0.00024,274904960.00000,  -0.00014,  -0.00024,  -0.00015,  96.00000,   2.00000
-410574038.16084,-494195143.37910,-72266897.48118,  -0.00105,  -0.00169,  -0.00109,476605472.00000,   0.00025,274910912.00000,  -0.00015,  -0.00024,  -0.00015,  96.00000,   2.00000
-410072202.39577,-494102953.45612,-72776385.79818,  -0.00105,  -0.00169,  -0.00110,476586560.00000,   0.00025,274916800.00000,  -0.00015,  -0.00025,  -0.00016,   0.00000,   2.00000
-409567101.87367,-494013062.96173,-73280974.63990,  -0.00105,  -0.00170,  -0.00111,476608416.00000,   0.00026,274922720.00000,  -0.00015,  -0.00025,  -0.00016, -64.00000,   2.00000
-409065845.45807,-493917621.61066,-73785672.26271,  -0.00105,  -0.00171,  -0.00112,476602688.00000,   0.00026,274928608.00000,  -0.00016,  -0.00026,  -0.00016, -64.00000,   2.00000
-408561342.90370,-493824532.34118,-74285460.77856,  -0.00105,  -0.00171,  -0.00113,476624448.00000,   0.00027,274934560.00000,  -0.00016,  -0.00026,  -0.00017, -32.00000,   2.00000
-408057144.07421,-493729868.33938,-74782871.18608,  -0.00106,  -0.00172,  -0.00114,476632448.00000,   0.00027,274940512.00000,  -0.00016,  -0.00027,  -0.00017, -32.00000,   2.00000
-407558753.27124,-493632239.87433,-75275748.16312,  -0.00106,  -0.00172,  -0.00115,476624096.00000,   0.00028,274946432.00000,  -0.00016,  -0.00027,  -0.00018, -64.00000,   2.00000
-407045998.06816,-493538053.90770,-75770501.39763,  -0.00106,  -0.00173,  -0.00116,476637440.00000,   0.00028,274952384.00000,  -0.00017,  -0.00028,  -0.00018,   0.00000,   2.00000
-406535605.42470,-493444883.69700,-76258198.24436,  -0.00106,  -0.00174,  -0.00117,476642880.00000,   0.00029,274958304.00000,  -0.00017,  -0.00028,  -0.00018,  32.00000,   2.00000
-406028989.48720,-493346217.48899,-76746190.05823,  -0.00106,  -0.00174,  -0.00119,476637056.00000,   0.00030,274964224.00000,  -0.00017,  -0.00029,  -0.00019,  32.00000,   2.00000
-405519329.50972,-493250083.58597,-77229280.31417,  -0.00106,  -0.00175,  -0.00120,476658624.00000,   0.00030,274970208.00000,  -0.00018,  -0.00029,  -0.00019, -32.00000,   2.00000
-405010207.94520,-493152665.68732,-77710122.20383,  -0.00106,  -0.00175,  -0.00121,476666432.00000,   0.00031,274976192.00000,  -0.00018,  -0.00030,  -0.00020,  32.00000,   2.00000
-404492087.38061,-493057096.59361,-78190766.03120,  -0.00106,  -0.00176,  -0.00122,476663552.00000,   0.00031,274982144.00000,  -0.00018,  -0.00030,  -0.00020,   0.00000,   2.00000
-403985918.62461,-492959412.94874,-78662381.55735,  -0.00106,  -0.00176,  -0.00123,476679616.00000,   0.00032,274988128.00000,  -0.00018,  -0.00031,  -0.00020,  64.00000,   2.00000
-403472047.17225,-492856980.05085,-79141229.86654,  -0.00106,  -0.00177,  -0.00124,476665408.00000,   0.00032,274994080.00000,  -0.00019,  -0.00031,  -0.00021, -64.00000,   2.00000
-402957469.89309,-492759882.70928,-79610492.97955,  -0.00106,  -0.00178,  -0.00125,476684352.00000,   0.00033,275000032.00000,  -0.00019,  -0.00032,  -0.00021,  32.00000,   2.00000
-402443497.87632,-492661486.50102,-80077574.12754,  -0.00106,  -0.00178,  -0.00126,476692224.00000,   0.00033,275006048.00000,  -0.00019,  -0.00032,  -0.00022,  32.00000,   2.00000
-401920546.40153,-492564915.83682,-80544582.11621,  -0.00106,  -0.00179,  -0.00127,476689344.00000,   0.00034,275012000.00000,  -0.00020,  -0.00033,  -0.00022,  32.00000,   2.00000
-401409834.35518,-492466427.94258,-81002619.04468,  -0.00106,  -0.00179,  -0.00128,476705152.00000,   0.00034,275018016.00000,  -0.00020,  -0.00034,  -0.00023,  32.00000,   2.00000
-400888031.30575,-492367056.49748,-81465297.45368,  -0.00106,  -0.00180,  -0.00129,476704928.00000,   0.00035,275024000.00000,  -0.00020,  -0.00034,  -0.00023, -32.00000,   2.00000
-400369091.99136,-492269156.52056,-81921188.85615,  -0.00107,  -0.00180,  -0.00130,476709984.00000,   0.00036,275029984.00000,  -0.00020,  -0.00035,  -0.00024,   0.00000,   2.00000
-399850868.09952,-492169959.70598,-82374961.78499,  -0.00107,  -0.00181,  -0.00131,476717792.00000,   0.00036,275035968.00000,  -0.00021,  -0.00035,  -0.00024,  64.00000,   2.00000
-399333197.64212,-492069237.59427,-82826576.96948,  -0.00107,  -0.00182,  -0.00132,476725760.00000,   0.00037,275041984.00000,  -0.00021,  -0.00036,  -0.00024,   0.00000,   2.00000
-398808857.99707,-491973230.19201,-83273649.91562,  -0.00107,  -0.00182,  -0.00133,476720000.00000,   0.00037,275047968.00000,  -0.00021,  -0.00036,  -0.00025, -64.00000,   2.00000
-398292790.80643,-491869972.81054,-83721081.71274,  -0.00107,  -0.00183,  -0.00134,476741152.00000,   0.00038,275053984.00000,  -0.00021,  -0.00037,  -0.00025,  32.00000,   2.00000
-397769983.13022,-491771335.28099,-84163991.14295,  -0.00107,  -0.00183,  -0.00135,476735680.00000,   0.00038,275060000.00000,  -0.00022,  -0.00037,  -0.00026,  64.00000,   2.00000
-397247871.56799,-491671232.12348,-84604801.82441,  -0.00107,  -0.00184,  -0.00136,476743488.00000,   0.00039,275065984.00000,  -0.00022,  -0.00038,  -0.00026,   0.00000,   2.00000
-396728910.91070,-491572819.77894,-85038977.31201,  -0.00107,  -0.00185,  -0.00137,476748416.00000,   0.00039,275072000.00000,  -0.00022,  -0.00038,  -0.00027, 128.00000,   2.00000
-396198716.12567,-491473171.36731,-85477903.23444,  -0.00107,  -0.00185,  -0.00138,476748512.00000,   0.00040,275077984.00000,  -0.00023,  -0.00039,  -0.00027,   0.00000,   2.00000
-395681472.66762,-491372107.03297,-85907974.98867,  -0.00107,  -0.00186,  -0.00139,476764128.00000,   0.00040,275084000.00000,  -0.00023,  -0.00039,  -0.00028,  64.00000,   2.00000
-395155261.82929,-491272742.61276,-86338242.94834,  -0.00107,  -0.00186,  -0.00140,476761344.00000,   0.00041,275090016.00000,  -0.00023,  -0.00040,  -0.00028,  32.00000,   2.00000
-394632126.49732,-491174884.62769,-86761888.79694,  -0.00107,  -0.00187,  -0.00141,476766336.00000,   0.00042,275096000.00000,  -0.00023,  -0.00040,  -0.00029,  32.00000,   2.00000
-394109982.00666,-491075814.73291,-87183555.60843,  -0.00107,  -0.00187,  -0.00142,476774048.00000,   0.00042,275102016.00000,  -0.00024,  -0.00041,  -0.00029,   0.00000,   2.00000
-393578850.02711,-490978388.05417,-87605472.82679,  -0.00107,  -0.00188,  -0.00143,476771360.00000,   0.00043,275108000.00000,  -0.00024,  -0.00041,  -0.00029, -64.00000,   2.00000
-393058603.15681,-490876692.75340,-88023137.17887,  -0.00107,  -0.00189,  -0.00144,476789696.00000,   0.00043,275114048.00000,  -0.00024,  -0.00042,  -0.00030, -32.00000,   2.00000
-392529526.65247,-490776865.05828,-88441123.00124,  -0.00107,  -0.00189,  -0.00145,476786976.00000,   0.00044,275120032.00000,  -0.00024,  -0.00042,  -0.00030,  64.00000,   2.00000
-392003607.58841,-490678588.91678,-88852543.92615,  -0.00107,  -0.00190,  -0.00146,476792032.00000,   0.00044,275126048.00000,  -0.00025,  -0.00043,  -0.00031,  96.00000,   2.00000
-391465793.86754,-490586078.18334,-89261293.27707,  -0.00107,  -0.00190,  -0.00147,476803072.00000,   0.00045,275132064.00000,  -0.00025,  -0.00044,  -0.00031, 128.00000,   2.00000
-390944153.57722,-490488152.13488,-89664241.46933,  -0.00107,  -0.00191,  -0.00148,476804800.00000,   0.00045,275138080.00000,  -0.00025,  -0.00044,  -0.00032,  32.00000,   2.00000
-390413558.45519,-490391953.17627,-90067575.33192,  -0.00107,  -0.00192,  -0.00149,476802080.00000,   0.00046,275144064.00000,  -0.00025,  -0.00045,  -0.00032,  96.00000,   2.00000
-389883950.71454,-490294424.55505,-90468963.68523,  -0.00108,  -0.00192,  -0.00150,476809920.00000,   0.00047,275150048.00000,  -0.00026,  -0.00045,  -0.00033,   0.00000,   2.00000
-389355464.23217,-490195748.77497,-90868445.79182,  -0.00108,  -0.00193,  -0.00151,476817696.00000,   0.00047,275156064.00000,  -0.00026,  -0.00046,  -0.00033,   0.00000,   2.00000
-388827565.09828,-490103087.43573,-91258439.94246,  -0.00108,  -0.00193,  -0.00152,476836320.00000,   0.00048,275162112.00000,  -0.00026,  -0.00046,  -0.00034,   0.00000,   2.00000
-388293384.20334,-490007846.76981,-91651925.34206,  -0.00108,  -0.00194,  -0.00153,476820128.00000,   0.00048,275168096.00000,  -0.00026,  -0.00047,  -0.00034,  32.00000,   2.00000
-387760236.96646,-489911326.38395,-92043500.78844,  -0.00108,  -0.00194,  -0.00154,476827904.00000,   0.00049,275174080.00000,  -0.00027,  -0.00047,  -0.00035,  64.00000,   2.00000
-387230438.94924,-489816617.09599,-92428667.33074,  -0.00108,  -0.00195,  -0.00155,476832736.00000,   0.00049,275180064.00000,  -0.00027,  -0.00048,  -0.00035, -32.00000,   2.00000
-386701913.27441,-489720979.22969,-92812024.26021,  -0.00108,  -0.00196,  -0.00156,476840448.00000,   0.00050,275186080.00000,  -0.00027,  -0.00048,  -0.00036,  64.00000,   2.00000
-386174018.61857,-489631355.72906,-93185888.07257,  -0.00108,  -0.00196,  -0.00157,476858912.00000,   0.00050,275192128.00000,  -0.00027,  -0.00049,  -0.00036,   0.00000,   2.00000
-385639667.22758,-489539146.20602,-93563407.30287,  -0.00108,  -0.00197,  -0.00158,476842848.00000,   0.00051,275198080.00000,  -0.00028,  -0.00049,  -0.00037,  64.00000,   2.00000
-385106430.45610,-489445807.47587,-93939097.46691,  -0.00108,  -0.00197,  -0.00159,476850528.00000,   0.00052,275204064.00000,  -0.00028,  -0.00050,  -0.00037,  64.00000,   2.00000
-384574208.31744,-489351226.04704,-94312933.10473,  -0.00108,  -0.00198,  -0.00160,476858400.00000,   0.00052,275210048.00000,  -0.00028,  -0.00050,  -0.00038, -64.00000,   2.00000
-384042999.60961,-489263138.36923,-94677368.88163,  -0.00108,  -0.00199,  -0.00161,476876704.00000,   0.00053,275216096.00000,  -0.00028,  -0.00051,  -0.00038,   0.00000,   2.00000
-383507387.37310,-489175415.96709,-95041070.03365,  -0.00108,  -0.00199,  -0.00162,476857440.00000,   0.00053,275222016.00000,  -0.00029,  -0.00051,  -0.00039,  96.00000,   2.00000
-382970518.49470,-489083425.44167,-95407455.50634,  -0.00108,  -0.00200,  -0.00163,476868416.00000,   0.00054,275228000.00000,  -0.00029,  -0.00052,  -0.00039,  64.00000,   2.00000
-382434553.77433,-488997760.21574,-95764400.60428,  -0.00108,  -0.00200,  -0.00164,476886656.00000,   0.00054,275234016.00000,  -0.00029,  -0.00052,  -0.00040, -64.00000,   2.00000
-381904682.29306,-488910083.08612,-96118372.89323,  -0.00108,  -0.00201,  -0.00165,476877440.00000,   0.00055,275239968.00000,  -0.00029,  -0.00053,  -0.00040, -64.00000,   2.00000
-381365422.60160,-488823952.54086,-96473013.33977,  -0.00108,  -0.00201,  -0.00166,476875008.00000,   0.00055,275245920.00000,  -0.00030,  -0.00053,  -0.00041,  32.00000,   2.00000
-380824815.69657,-488741092.94142,-96822709.01001,  -0.00108,  -0.00202,  -0.00167,476896320.00000,   0.00056,275251904.00000,  -0.00030,  -0.00054,  -0.00041,  64.00000,   2.00000
-380290115.92646,-488656084.27165,-97169476.31618,  -0.00108,  -0.00203,  -0.00168,476887104.00000,   0.00056,275257856.00000,  -0.00030,  -0.00054,  -0.00042, -32.00000,   2.00000
-379756635.69741,-488570259.30719,-97514595.05625,  -0.00108,  -0.00203,  -0.00169,476894720.00000,   0.00057,275263808.00000,  -0.00030,  -0.00055,  -0.00042,  64.00000,   2.00000
-379211216.34676,-488490216.11531,-97857181.39975,  -0.00108,  -0.00204,  -0.00170,476905920.00000,   0.00058,275269760.00000,  -0.00031,  -0.00055,  -0.00043,   0.00000,   2.00000
-378671630.38376,-488408038.24860,-98196920.60344,  -0.00108,  -0.00204,  -0.00171,476896768.00000,   0.00058,275275680.00000,  -0.00031,  -0.00056,  -0.00043,  64.00000,   2.00000
-378133232.40144,-488325042.23282,-98535044.06451,  -0.00108,  -0.00205,  -0.00172,476904288.00000,   0.00059,275281632.00000,  -0.00031,  -0.00057,  -0.00044, 128.00000,   2.00000
-377595958.56178,-488248694.02324,-98863835.49502,  -0.00108,  -0.00206,  -0.00173,476922208.00000,   0.00059,275287584.00000,  -0.00031,  -0.00057,  -0.00044,  32.00000,   2.00000
-377051421.26422,-488169499.93963,-99196747.95802,  -0.00108,  -0.00206,  -0.00174,476906016.00000,   0.00060,275293504.00000,  -0.00032,  -0.00058,  -0.00045, -32.00000,   2.00000
-376518864.82580,-488094733.41009,-99517948.87579,  -0.00108,  -0.00207,  -0.00175,476933856.00000,   0.00060,275299488.00000,  -0.00032,  -0.00058,  -0.00045,   0.00000,   2.00000
-375968093.47426,-488019332.06895,-99845741.95503,  -0.00108,  -0.00207,  -0.00176,476907744.00000,   0.00061,275305344.00000,  -0.00032,  -0.00059,  -0.00046, -64.00000,   2.00000
-375431714.80832,-487944151.28753,-100165181.58493,  -0.00108,  -0.00208,  -0.00176,476921696.00000,   0.00061,275311232.00000,  -0.00032,  -0.00059,  -0.00046,  96.00000,   2.00000
-374883412.23473,-487874867.04729,-100482217.94007,  -0.00108,  -0.00208,  -0.00177,476932864.00000,   0.00062,275317152.00000,  -0.00032,  -0.00060,  -0.00047, 128.00000,   2.00000
-374349270.04071,-487798032.60821,-100798628.05549,  -0.00108,  -0.00209,  -0.00178,476936608.00000,   0.00062,275323072.00000,  -0.00033,  -0.00060,  -0.00047,  32.00000,   2.00000
-373794592.69696,-487732498.87644,-101110667.28222,  -0.00108,  -0.00210,  -0.00179,476934336.00000,   0.00063,275328960.00000,  -0.00033,  -0.00061,  -0.00048,  32.00000,   2.00000
-373254233.85894,-487659643.31849,-101422175.82224,  -0.00108,  -0.00210,  -0.00180,476937824.00000,   0.00064,275334848.00000,  -0.00033,  -0.00061,  -0.00048,  64.00000,   2.00000
-372704281.98520,-487595928.68272,-101726927.54620,  -0.00108,  -0.00211,  -0.00181,476945504.00000,   0.00064,275340768.00000,  -0.00033,  -0.00062,  -0.00049,  32.00000,   2.00000
-372157592.15666,-487526985.66338,-102033615.36450,  -0.00108,  -0.00211,  -0.00182,476939136.00000,   0.00065,275346592.00000,  -0.00033,  -0.00062,  -0.00049,  32.00000,   2.00000
-371612375.18841,-487465130.96732,-102331156.27184,  -0.00108,  -0.00212,  -0.00183,476956608.00000,   0.00065,275352512.00000,  -0.00034,  -0.00063,  -0.00050,  64.00000,   2.00000
-371059292.11707,-487400093.43334,-102633118.08022,  -0.00108,  -0.00213,  -0.00184,476940416.00000,   0.00066,275358336.00000,  -0.00034,  -0.00063,  -0.00050,  64.00000,   2.00000
-370518709.94952,-487339974.95011,-102923484.90180,  -0.00108,  -0.00213,  -0.00185,476967552.00000,   0.00066,275364224.00000,  -0.00034,  -0.00064,  -0.00051,  64.00000,   2.00000
-369970373.89983,-487276925.89871,-103218403.98541,  -0.00108,  -0.00214,  -0.00186,476951104.00000,   0.00067,275370048.00000,  -0.00034,  -0.00064,  -0.00051,  64.00000,   2.00000
-369412307.56162,-487222825.11430,-103506620.36981,  -0.00108,  -0.00214,  -0.00186,476958752.00000,   0.00067,275375872.00000,  -0.00035,  -0.00065,  -0.00052, -32.00000,   2.00000
-368868574.79377,-487161500.55683,-103794491.19457,  -0.00108,  -0.00215,  -0.00187,476961792.00000,   0.00068,275381696.00000,  -0.00035,  -0.00065,  -0.00052,  32.00000,   2.00000
-368315359.27369,-487109485.87795,-104075782.62694,  -0.00108,  -0.00216,  -0.00188,476969216.00000,   0.00068,275387552.00000,  -0.00035,  -0.00066,  -0.00053,  32.00000,   2.00000
-367754025.65686,-487054114.45359,-104361655.28595,  -0.00108,  -0.00216,  -0.00189,476952864.00000,   0.00069,275393312.00000,  -0.00035,  -0.00066,  -0.00053,   0.00000,   2.00000
-367205577.98014,-487003983.66284,-104636030.72786,  -0.00107,  -0.00217,  -0.00190,476979744.00000,   0.00069,275399136.00000,  -0.00035,  -0.00067,  -0.00054,  64.00000,   2.00000
-366648998.67319,-486950554.83137,-104915067.35096,  -0.00107,  -0.00217,  -0.00191,476963392.00000,   0.00070,275404896.00000,  -0.00036,  -0.00067,  -0.00055,  96.00000,   2.00000
-366094034.66751,-486904210.67450,-105185053.64943,  -0.00107,  -0.00218,  -0.00192,476980480.00000,   0.00071,275410688.00000,  -0.00036,  -0.00068,  -0.00055,  64.00000,   2.00000
-365542245.99060,-486852727.88874,-105457318.75194,  -0.00107,  -0.00218,  -0.00193,476973728.00000,   0.00071,275416448.00000,  -0.00036,  -0.00068,  -0.00056,  32.00000,   2.00000
-364980919.29957,-486810392.05354,-105723061.05866,  -0.00107,  -0.00219,  -0.00194,476981088.00000,   0.00072,275422240.00000,  -0.00036,  -0.00069,  -0.00056, 128.00000,   2.00000
-364423159.62713,-486770605.91857,-105983277.64899,  -0.00107,  -0.00220,  -0.00194,476984480.00000,   0.00072,275428000.00000,  -0.00036,  -0.00069,  -0.00057,  64.00000,   2.00000
-363866062.98369,-486722133.01199,-106250131.51110,  -0.00107,  -0.00220,  -0.00195,476980992.00000,   0.00073,275433728.00000,  -0.00037,  -0.00070,  -0.00057,  32.00000,   2.00000
-363301909.08869,-486686256.34314,-106506199.67696,  -0.00107,  -0.00221,  -0.00196,476984928.00000,   0.00073,275439456.00000,  -0.00037,  -0.00070,  -0.00058, 128.00000,   2.00000
-362738913.40976,-486649458.07931,-106761094.23074,  -0.00107,  -0.00221,  -0.00197,476991616.00000,   0.00074,275445216.00000,  -0.00037,  -0.00071,  -0.00058,  32.00000,   2.00000
-362178973.87834,-486607353.39124,-107018367.59782,  -0.00107,  -0.00222,  -0.00198,476984768.00000,   0.00074,275450880.00000,  -0.00037,  -0.00071,  -0.00059, -64.00000,   2.00000
-361620986.52671,-486572535.91034,-107266714.51233,  -0.00107,  -0.00223,  -0.00199,477001472.00000,   0.00075,275456640.00000,  -0.00037,  -0.00072,  -0.00059, -64.00000,   2.00000
-361055354.60699,-486542327.34402,-107512185.67756,  -0.00107,  -0.00223,  -0.00199,476995296.00000,   0.00075,275462336.00000,  -0.00038,  -0.00072,  -0.00060,  64.00000,   2.00000
-360492705.11955,-486506697.18522,-107760082.11193,  -0.00107,  -0.00224,  -0.00200,476988416.00000,   0.00076,275468000.00000,  -0.00038,  -0.00073,  -0.00060, 128.00000,   2.00000
-359931967.09108,-486478158.40775,-107999035.13702,  -0.00107,  -0.00224,  -0.00201,477005216.00000,   0.00076,275473696.00000,  -0.00038,  -0.00073,  -0.00061,  32.00000,   2.00000
-359361052.12429,-486450577.15779,-108239416.72005,  -0.00107,  -0.00225,  -0.00202,477002272.00000,   0.00077,275479360.00000,  -0.00038,  -0.00074,  -0.00061,  96.00000,   2.00000
-358793871.40362,-486425589.10328,-108474444.22393,  -0.00107,  -0.00225,  -0.00203,477005472.00000,   0.00077,275485024.00000,  -0.00038,  -0.00074,  -0.00062, -32.00000,   2.00000
-358218195.31611,-486397004.96574,-108714493.18434,  -0.00107,  -0.00226,  -0.00204,476989024.00000,   0.00078,275490592.00000,  -0.00038,  -0.00075,  -0.00062,   0.00000,   2.00000
-357656194.48745,-486373845.38540,-108943147.38081,  -0.00107,  -0.00227,  -0.00204,477015136.00000,   0.00078,275496256.00000,  -0.00039,  -0.00075,  -0.00063,   0.00000,   2.00000
-357086427.12033,-486355090.67845,-109169021.72075,  -0.00106,  -0.00227,  -0.00205,477008800.00000,   0.00079,275501888.00000,  -0.00039,  -0.00076,  -0.00063,  64.00000,   2.00000
-356518041.73628,-486335443.85887,-109393883.64031,  -0.00106,  -0.00228,  -0.00206,477015456.00000,   0.00079,275507520.00000,  -0.00039,  -0.00076,  -0.00064,   0.00000,   2.00000
-355941785.91740,-486320024.53196,-109615954.14681,  -0.00106,  -0.00228,  -0.00207,477009120.00000,   0.00080,275513120.00000,  -0.00039,  -0.00077,  -0.00064,  32.00000,   2.00000
-355366936.68799,-486303671.01425,-109837022.31998,  -0.00106,  -0.00229,  -0.00208,477015840.00000,   0.00080,275518720.00000,  -0.00039,  -0.00077,  -0.00065,  96.00000,   2.00000
-354795984.06129,-486289998.23491,-110052862.34379,  -0.00106,  -0.00230,  -0.00208,477018784.00000,   0.00081,275524288.00000,  -0.00040,  -0.00078,  -0.00065, 128.00000,   2.00000
-354218633.73468,-486275919.20185,-110269556.71097,  -0.00106,  -0.00230,  -0.00209,476998912.00000,   0.00081,275529792.00000,  -0.00040,  -0.00078,  -0.00066,  64.00000,   2.00000
-353641183.24875,-486265425.48052,-110481657.08556,  -0.00106,  -0.00231,  -0.00210,477019072.00000,   0.00082,275535360.00000,  -0.00040,  -0.00078,  -0.00066,  64.00000,   2.00000
-353065113.81933,-486253863.63302,-110692760.92179,  -0.00106,  -0.00231,  -0.00211,477025664.00000,   0.00083,275540928.00000,  -0.00040,  -0.00079,  -0.00067, -32.00000,   2.00000
-352483660.61190,-486250176.18889,-110896959.97445,  -0.00106,  -0.00232,  -0.00212,477015776.00000,   0.00083,275546432.00000,  -0.00040,  -0.00079,  -0.00067, -32.00000,   2.00000
-351913063.62064,-486240364.95802,-111101955.92526,  -0.00106,  -0.00233,  -0.00212,477035328.00000,   0.00084,275552000.00000,  -0.00040,  -0.00080,  -0.00068,  64.00000,   2.00000
-351325046.59885,-486239730.40179,-111302513.41397,  -0.00106,  -0.00233,  -0.00213,477016192.00000,   0.00084,275557472.00000,  -0.00041,  -0.00080,  -0.00068, 160.00000,   2.00000
-350750334.71789,-486236479.80479,-111499629.56475,  -0.00106,  -0.00234,  -0.00214,477032096.00000,   0.00085,275562976.00000,  -0.00041,  -0.00081,  -0.00069,  32.00000,   2.00000
-350167674.29659,-486237383.43538,-111694113.78191,  -0.00105,  -0.00234,  -0.00215,477025728.00000,   0.00085,275568448.00000,  -0.00041,  -0.00081,  -0.00070,  32.00000,   2.00000
-349586444.57726,-486237171.36389,-111887664.17381,  -0.00105,  -0.00235,  -0.00215,477032352.00000,   0.00086,275573920.00000,  -0.00041,  -0.00082,  -0.00070, -32.00000,   2.00000
-348995900.83897,-486245642.27191,-112074942.74470,  -0.00105,  -0.00235,  -0.00216,477039584.00000,   0.00086,275579424.00000,  -0.00041,  -0.00082,  -0.00071, 128.00000,   2.00000
-348410569.18974,-486252017.76445,-112260760.63886,  -0.00105,  -0.00236,  -0.00217,477029184.00000,   0.00087,275584864.00000,  -0.00041,  -0.00083,  -0.00071,  64.00000,   2.00000
-347826752.69223,-486257369.48950,-112445705.63617,  -0.00105,  -0.00237,  -0.00218,477035680.00000,   0.00087,275590304.00000,  -0.00042,  -0.00083,  -0.00072, -32.00000,   2.00000
-347234801.77900,-486266668.76219,-112628042.36834,  -0.00105,  -0.00237,  -0.00218,477029472.00000,   0.00088,275595712.00000,  -0.00042,  -0.00084,  -0.00072,  32.00000,   2.00000
-346644258.92776,-486274751.28922,-112809470.69388,  -0.00105,  -0.00238,  -0.00219,477036064.00000,   0.00088,275601120.00000,  -0.00042,  -0.00084,  -0.00073,   0.00000,   2.00000
-346057790.48660,-486285644.41678,-112985898.19014,  -0.00105,  -0.00238,  -0.00220,477038880.00000,   0.00089,275606496.00000,  -0.00042,  -0.00085,  -0.00073,  64.00000,   2.00000
-345461709.77211,-486304727.42680,-113155989.05079,  -0.00105,  -0.00239,  -0.00221,477046464.00000,   0.00089,275611936.00000,  -0.00042,  -0.00085,  -0.00074,   0.00000,   2.00000
-344868453.74813,-486318317.07020,-113328992.55079,  -0.00104,  -0.00240,  -0.00221,477039296.00000,   0.00090,275617280.00000,  -0.00042,  -0.00086,  -0.00074,   0.00000,   2.00000
-344279032.62913,-486334386.40641,-113496945.19950,  -0.00104,  -0.00240,  -0.00222,477042176.00000,   0.00090,275622656.00000,  -0.00042,  -0.00086,  -0.00075, -96.00000,   2.00000
-343681338.76013,-486354379.30807,-113662383.16202,  -0.00104,  -0.00241,  -0.00223,477035936.00000,   0.00091,275627968.00000,  -0.00043,  -0.00086,  -0.00075, -32.00000,   2.00000
-343083918.80386,-486377720.37085,-113823272.95290,  -0.00104,  -0.00241,  -0.00224,477056064.00000,   0.00091,275633344.00000,  -0.00043,  -0.00087,  -0.00076, -64.00000,   2.00000
-342479280.32471,-486400349.06973,-113985381.10059,  -0.00104,  -0.00242,  -0.00224,477036288.00000,   0.00092,275638624.00000,  -0.00043,  -0.00087,  -0.00076, -32.00000,   2.00000
-341889764.84404,-486428987.70340,-114136361.58665,  -0.00104,  -0.00243,  -0.00225,477061600.00000,   0.00092,275644000.00000,  -0.00043,  -0.00088,  -0.00077,  32.00000,   2.00000
-341278053.97268,-486454195.52520,-114295189.35623,  -0.00104,  -0.00243,  -0.00226,477036704.00000,   0.00093,275649248.00000,  -0.00043,  -0.00088,  -0.00077,   0.00000,   2.00000
-340682628.28660,-486480952.15046,-114446651.44365,  -0.00103,  -0.00244,  -0.00226,477048224.00000,   0.00093,275654528.00000,  -0.00043,  -0.00089,  -0.00078,  32.00000,   2.00000
-340075154.49122,-486512201.62869,-114596052.42794,  -0.00103,  -0.00244,  -0.00227,477059456.00000,   0.00093,275659808.00000,  -0.00043,  -0.00089,  -0.00078,  64.00000,   2.00000
-339471506.64344,-486546008.03453,-114740534.29857,  -0.00103,  -0.00245,  -0.00228,477062176.00000,   0.00094,275665120.00000,  -0.00044,  -0.00090,  -0.00079,  32.00000,   2.00000
-338860263.25095,-486578991.65979,-114886327.09610,  -0.00103,  -0.00245,  -0.00228,477042368.00000,   0.00094,275670304.00000,  -0.00044,  -0.00090,  -0.00079, -64.00000,   2.00000
-338251877.28928,-486619177.84565,-115023503.27609,  -0.00103,  -0.00246,  -0.00229,477058560.00000,   0.00095,275675552.00000,  -0.00044,  -0.00091,  -0.00080,  32.00000,   2.00000
-337645846.11638,-486653696.58065,-115163743.42589,  -0.00103,  -0.00247,  -0.00230,477051360.00000,   0.00095,275680768.00000,  -0.00044,  -0.00091,  -0.00080,   0.00000,   2.00000
-337030138.72062,-486696434.56366,-115297812.90439,  -0.00103,  -0.00247,  -0.00230,477058656.00000,   0.00096,275685952.00000,  -0.00044,  -0.00092,  -0.00081,  64.00000,   2.00000
-336415760.63249,-486737954.21417,-115431183.68472,  -0.00102,  -0.00248,  -0.00231,477065120.00000,   0.00096,275691168.00000,  -0.00044,  -0.00092,  -0.00081,  96.00000,   2.00000
-335795961.41470,-486782463.83479,-115561824.13666,  -0.00102,  -0.00248,  -0.00232,477041472.00000,   0.00097,275696288.00000,  -0.00044,  -0.00092,  -0.00082,  64.00000,   2.00000
-335174143.28693,-486826479.09604,-115692149.58859,  -0.00102,  -0.00249,  -0.00232,477065248.00000,   0.00097,275701472.00000,  -0.00045,  -0.00093,  -0.00082,  96.00000,   2.00000
-334558457.95523,-486876906.13223,-115813538.25825,  -0.00102,  -0.00250,  -0.00233,477063904.00000,   0.00098,275706624.00000,  -0.00045,  -0.00093,  -0.00083,  32.00000,   2.00000
-333931490.40087,-486927195.32817,-115936743.16733,  -0.00102,  -0.00250,  -0.00234,477061504.00000,   0.00098,275711776.00000,  -0.00045,  -0.00094,  -0.00083, 160.00000,   2.00000
-333308161.45645,-486980010.86894,-116055157.71500,  -0.00102,  -0.00251,  -0.00234,477063968.00000,   0.00099,275716896.00000,  -0.00045,  -0.00094,  -0.00084, 128.00000,   2.00000
-332688596.39902,-487035596.54239,-116168869.56191,  -0.00101,  -0.00251,  -0.00235,477066400.00000,   0.00099,275722016.00000,  -0.00045,  -0.00095,  -0.00084, 128.00000,   2.00000
-332057490.73421,-487090754.78923,-116284360.14401,  -0.00101,  -0.00252,  -0.00236,477063968.00000,   0.00100,275727104.00000,  -0.00045,  -0.00095,  -0.00085, -32.00000,   2.00000
-331430174.71839,-487148760.90399,-116395189.22436,  -0.00101,  -0.00253,  -0.00236,477066208.00000,   0.00100,275732192.00000,  -0.00045,  -0.00096,  -0.00085,  64.00000,   2.00000
-330793661.17377,-487210144.81725,-116503689.93845,  -0.00101,  -0.00253,  -0.00237,477060064.00000,   0.00101,275737216.00000,  -0.00045,  -0.00096,  -0.00085,  32.00000,   2.00000
-330158425.90509,-487270391.37936,-116611642.11666,  -0.00101,  -0.00254,  -0.00238,477066144.00000,   0.00101,275742272.00000,  -0.00046,  -0.00096,  -0.00086,  64.00000,   2.00000
-329526832.24953,-487333321.38431,-116714926.19755,  -0.00101,  -0.00254,  -0.00238,477068448.00000,   0.00102,275747296.00000,  -0.00046,  -0.00097,  -0.00086,  64.00000,   2.00000
-328885920.65347,-487399564.77955,-116815906.62236,  -0.00100,  -0.00255,  -0.00239,477062176.00000,   0.00102,275752320.00000,  -0.00046,  -0.00097,  -0.00087, -64.00000,   2.00000
-328246341.91894,-487464794.27690,-116916409.57475,  -0.00100,  -0.00256,  -0.00239,477068064.00000,   0.00102,275757312.00000,  -0.00046,  -0.00098,  -0.00087,   0.00000,   2.00000
-327610307.23290,-487532606.96282,-117012254.27132,  -0.00100,  -0.00256,  -0.00240,477070336.00000,   0.00103,275762304.00000,  -0.00046,  -0.00098,  -0.00088, -64.00000,   2.00000
-326964222.36318,-487608184.31756,-117102010.25294,  -0.00100,  -0.00257,  -0.00241,477077792.00000,   0.00103,275767296.00000,  -0.00046,  -0.00099,  -0.00088,  32.00000,   2.00000
-326322434.21399,-487682046.05871,-117191022.54755,  -0.00100,  -0.00257,  -0.00241,477066304.00000,   0.00104,275772256.00000,  -0.00046,  -0.00099,  -0.00089, -32.00000,   2.00000
-325668854.70316,-487755363.61445,-117281916.63128,  -0.00099,  -0.00258,  -0.00242,477063872.00000,   0.00104,275777184.00000,  -0.00046,  -0.00100,  -0.00089,   0.00000,   2.00000
-325018186.06175,-487835690.19544,-117364365.24037,  -0.00099,  -0.00259,  -0.00242,477079648.00000,   0.00105,275782144.00000,  -0.00046,  -0.00100,  -0.00090,   0.00000,   2.00000
-324356327.18565,-487911032.30315,-117452559.65124,  -0.00099,  -0.00259,  -0.00243,477063520.00000,   0.00105,275787008.00000,  -0.00047,  -0.00100,  -0.00090, -32.00000,   2.00000
-323699758.67736,-487997224.09359,-117528208.01986,  -0.00099,  -0.00260,  -0.00243,477075520.00000,   0.00106,275791936.00000,  -0.00047,  -0.00101,  -0.00091,   0.00000,   2.00000
-323044886.52096,-488077625.40671,-117607232.71156,  -0.00099,  -0.00260,  -0.00244,477067776.00000,   0.00106,275796800.00000,  -0.00047,  -0.00101,  -0.00091, -96.00000,   2.00000
-322393143.85973,-488165299.88845,-117677932.42803,  -0.00098,  -0.00261,  -0.00245,477083392.00000,   0.00107,275801728.00000,  -0.00047,  -0.00102,  -0.00092,  64.00000,   2.00000
-321716789.53026,-488248271.46951,-117756688.58799,  -0.00098,  -0.00262,  -0.00245,477059136.00000,   0.00107,275806528.00000,  -0.00047,  -0.00102,  -0.00092, -32.00000,   2.00000
-321056558.68643,-488337601.89094,-117824694.45019,  -0.00098,  -0.00262,  -0.00246,477083200.00000,   0.00108,275811392.00000,  -0.00047,  -0.00103,  -0.00093,  32.00000,   2.00000
-320386696.53889,-488430046.15439,-117890511.99057,  -0.00098,  -0.00263,  -0.00246,477077056.00000,   0.00108,275816224.00000,  -0.00047,  -0.00103,  -0.00093, -32.00000,   2.00000
-319720352.96950,-488525023.02135,-117951810.87135,  -0.00097,  -0.00263,  -0.00247,477079040.00000,   0.00108,275821056.00000,  -0.00047,  -0.00103,  -0.00093,  32.00000,   2.00000
-319041976.96709,-488619127.59110,-118015021.74105,  -0.00097,  -0.00264,  -0.00247,477076704.00000,   0.00109,275825856.00000,  -0.00047,  -0.00104,  -0.00094,  64.00000,   2.00000
-318367581.22429,-488711412.15137,-118077589.57525,  -0.00097,  -0.00265,  -0.00248,477065024.00000,   0.00109,275830592.00000,  -0.00047,  -0.00104,  -0.00094,  32.00000,   2.00000
-317696206.72447,-488810496.52684,-118131764.51200,  -0.00097,  -0.00265,  -0.00248,477080800.00000,   0.00110,275835392.00000,  -0.00048,  -0.00105,  -0.00095,   0.00000,   2.00000
-317012744.43979,-488908631.02135,-118187855.15366,  -0.00097,  -0.00266,  -0.00249,477078560.00000,   0.00110,275840160.00000,  -0.00048,  -0.00105,  -0.00095,  32.00000,   2.00000
-316319469.33456,-489009632.78033,-118241736.38877,  -0.00096,  -0.00266,  -0.00249,477072416.00000,   0.00111,275844864.00000,  -0.00048,  -0.00106,  -0.00096,  64.00000,   2.00000
-315642610.14774,-489116900.30325,-118284929.27469,  -0.00096,  -0.00267,  -0.00250,477096416.00000,   0.00111,275849664.00000,  -0.00048,  -0.00106,  -0.00096,   0.00000,   2.00000
-314942947.79556,-489223132.74293,-118332118.57591,  -0.00096,  -0.00268,  -0.00251,477068384.00000,   0.00111,275854336.00000,  -0.00048,  -0.00106,  -0.00097, -32.00000,   2.00000
-314257890.50682,-489327507.79967,-118376639.03198,  -0.00096,  -0.00268,  -0.00251,477082368.00000,   0.00112,275859040.00000,  -0.00048,  -0.00107,  -0.00097,  96.00000,   2.00000
-313562829.90061,-489434495.81792,-118418911.16311,  -0.00095,  -0.00269,  -0.00252,477076384.00000,   0.00112,275863712.00000,  -0.00048,  -0.00107,  -0.00098,  96.00000,   2.00000
-312857538.84717,-489548497.76827,-118455094.31161,  -0.00095,  -0.00269,  -0.00252,477084160.00000,   0.00113,275868416.00000,  -0.00048,  -0.00108,  -0.00098, -32.00000,   2.00000
-312169520.70757,-489660276.63661,-118488426.79339,  -0.00095,  -0.00270,  -0.00252,477080448.00000,   0.00113,275873056.00000,  -0.00048,  -0.00108,  -0.00098,  32.00000,   2.00000
-311455714.73288,-489771038.31982,-118525891.96322,  -0.00095,  -0.00271,  -0.00253,477070304.00000,   0.00114,275877664.00000,  -0.00048,  -0.00109,  -0.00099,   0.00000,   2.00000
-310758712.52652,-489888177.06299,-118552750.35480,  -0.00094,  -0.00271,  -0.00253,477094112.00000,   0.00114,275882336.00000,  -0.00048,  -0.00109,  -0.00099, 192.00000,   2.00000
-310049560.27016,-489999571.80911,-118585335.08937,  -0.00094,  -0.00272,  -0.00254,477078432.00000,   0.00115,275886944.00000,  -0.00048,  -0.00109,  -0.00100,  96.00000,   2.00000
-309332362.56342,-490121632.40489,-118607682.21616,  -0.00094,  -0.00272,  -0.00254,477082464.00000,   0.00115,275891552.00000,  -0.00049,  -0.00110,  -0.00100,  96.00000,   2.00000
-308616433.30406,-490242043.58736,-118629661.06547,  -0.00093,  -0.00273,  -0.00255,477088512.00000,   0.00115,275896160.00000,  -0.00049,  -0.00110,  -0.00101, 128.00000,   2.00000
-307903899.12490,-490364522.31223,-118647116.92559,  -0.00093,  -0.00274,  -0.00255,477090656.00000,   0.00116,275900736.00000,  -0.00049,  -0.00111,  -0.00101,  32.00000,   2.00000
-307181417.15399,-490485312.03162,-118666252.37958,  -0.00093,  -0.00274,  -0.00256,477070912.00000,   0.00116,275905248.00000,  -0.00049,  -0.00111,  -0.00102,  96.00000,   2.00000
-306460003.25315,-490608519.14481,-118681086.21769,  -0.00093,  -0.00275,  -0.00256,477090848.00000,   0.00117,275909824.00000,  -0.00049,  -0.00111,  -0.00102,  32.00000,   2.00000
-305742118.85760,-490734017.98133,-118691470.07612,  -0.00092,  -0.00275,  -0.00257,477092992.00000,   0.00117,275914400.00000,  -0.00049,  -0.00112,  -0.00102,  32.00000,   2.00000
-305013898.63299,-490861675.97780,-118699546.84495,  -0.00092,  -0.00276,  -0.00257,477087328.00000,   0.00117,275918912.00000,  -0.00049,  -0.00112,  -0.00103,  32.00000,   2.00000
-304273193.53189,-490987664.07341,-118709442.69815,  -0.00092,  -0.00277,  -0.00258,477085632.00000,   0.00118,275923424.00000,  -0.00049,  -0.00113,  -0.00103,  32.00000,   2.00000
-303551949.42351,-491119702.13794,-118708579.51876,  -0.00092,  -0.00277,  -0.00258,477091680.00000,   0.00118,275927936.00000,  -0.00049,  -0.00113,  -0.00104,  64.00000,   2.00000
-302804196.88558,-491253965.09792,-118707746.17459,  -0.00091,  -0.00278,  -0.00258,477096192.00000,   0.00119,275932448.00000,  -0.00049,  -0.00113,  -0.00104, -32.00000,   2.00000
-302071615.17165,-491382333.71099,-118708292.13811,  -0.00091,  -0.00279,  -0.00259,477096000.00000,   0.00119,275936928.00000,  -0.00049,  -0.00114,  -0.00105,  32.00000,   2.00000
-301330769.06254,-491516751.03228,-118702425.95143,  -0.00091,  -0.00279,  -0.00259,477086656.00000,   0.00120,275941376.00000,  -0.00049,  -0.00114,  -0.00105,  32.00000,   2.00000
-300577329.24689,-491653430.20458,-118694437.03280,  -0.00090,  -0.00280,  -0.00260,477098976.00000,   0.00120,275945856.00000,  -0.00049,  -0.00115,  -0.00105, -32.00000,   2.00000
-299827204.83954,-491787974.75079,-118685852.56859,  -0.00090,  -0.00280,  -0.00260,477087424.00000,   0.00120,275950272.00000,  -0.00049,  -0.00115,  -0.00106,  64.00000,   2.00000
-299080610.27593,-491928776.04721,-118668902.59612,  -0.00090,  -0.00281,  -0.00260,477103520.00000,   0.00121,275954752.00000,  -0.00050,  -0.00115,  -0.00106, 128.00000,   2.00000
-298321079.90725,-492063331.62004,-118657580.98545,  -0.00089,  -0.00282,  -0.00261,477088256.00000,   0.00121,275959136.00000,  -0.00050,  -0.00116,  -0.00107,  32.00000,   2.00000
-297565118.98672,-492204130.53574,-118637892.03641,  -0.00089,  -0.00282,  -0.00261,477104352.00000,   0.00122,275963584.00000,  -0.00050,  -0.00116,  -0.00107,  64.00000,   2.00000
-296798407.72400,-492346643.27623,-118615803.05650,  -0.00089,  -0.00283,  -0.00262,477099168.00000,   0.00122,275967968.00000,  -0.00050,  -0.00117,  -0.00107,  32.00000,   2.00000
-296035125.11555,-492491290.87898,-118589272.74008,  -0.00088,  -0.00283,  -0.00262,477101344.00000,   0.00122,275972352.00000,  -0.00050,  -0.00117,  -0.00108, 128.00000,   2.00000
-295272805.39855,-492629858.54215,-118566258.01200,  -0.00088,  -0.00284,  -0.00262,477093664.00000,   0.00123,275976704.00000,  -0.00050,  -0.00117,  -0.00108,  32.00000,   2.00000
-294499904.58206,-492774280.13056,-118536947.82289,  -0.00088,  -0.00285,  -0.00263,477102368.00000,   0.00123,275981088.00000,  -0.00050,  -0.00118,  -0.00109, -32.00000,   2.00000
-293730335.32768,-492920726.17335,-118503173.23010,  -0.00087,  -0.00285,  -0.00263,477104512.00000,   0.00124,275985440.00000,  -0.00050,  -0.00118,  -0.00109, 128.00000,   2.00000
-292948031.18561,-493068904.15628,-118467180.30481,  -0.00087,  -0.00286,  -0.00264,477117280.00000,   0.00124,275989824.00000,  -0.00050,  -0.00119,  -0.00110,   0.00000,   2.00000
-292170805.05267,-493218932.13191,-118426521.63099,  -0.00087,  -0.00287,  -0.00264,477101664.00000,   0.00124,275994144.00000,  -0.00050,  -0.00119,  -0.00110,  32.00000,   2.00000
-291380541.72301,-493366694.84207,-118387575.17032,  -0.00086,  -0.00287,  -0.00264,477100480.00000,   0.00125,275998432.00000,  -0.00050,  -0.00119,  -0.00110, -64.00000,   2.00000
-290591479.51983,-493512505.96875,-118348268.40932,  -0.00086,  -0.00288,  -0.00265,477106528.00000,   0.00125,276002752.00000,  -0.00050,  -0.00120,  -0.00111,  64.00000,   2.00000
-289808051.39193,-493668137.61959,-118296454.85266,  -0.00086,  -0.00288,  -0.00265,477118944.00000,   0.00126,276007104.00000,  -0.00050,  -0.00120,  -0.00111, -32.00000,   2.00000
-289011099.76946,-493817408.28100,-118250258.52026,  -0.00085,  -0.00289,  -0.00265,477103776.00000,   0.00126,276011360.00000,  -0.00050,  -0.00121,  -0.00112, -32.00000,   2.00000
-288203426.64374,-493972167.86905,-118197715.05543,  -0.00085,  -0.00290,  -0.00266,477112800.00000,   0.00126,276015648.00000,  -0.00050,  -0.00121,  -0.00112,   0.00000,   2.00000
-287413285.83716,-494129181.70908,-118138669.37057,  -0.00085,  -0.00290,  -0.00266,477122336.00000,   0.00127,276019936.00000,  -0.00050,  -0.00121,  -0.00112, 128.00000,   2.00000
-286609407.36599,-494279702.56998,-118085209.25440,  -0.00084,  -0.00291,  -0.00266,477107264.00000,   0.00127,276024192.00000,  -0.00050,  -0.00122,  -0.00113, -32.00000,   2.00000
-285794817.50164,-494435731.08591,-118025426.84664,  -0.00084,  -0.00291,  -0.00267,477116288.00000,   0.00128,276028416.00000,  -0.00050,  -0.00122,  -0.00113,  64.00000,   2.00000
-284983286.39307,-494593438.51858,-117961145.36810,  -0.00084,  -0.00292,  -0.00267,477118688.00000,   0.00128,276032672.00000,  -0.00050,  -0.00123,  -0.00114,   0.00000,   2.00000
-284174939.16596,-494753109.46571,-117892456.18555,  -0.00083,  -0.00293,  -0.00267,477120832.00000,   0.00128,276036928.00000,  -0.00051,  -0.00123,  -0.00114,  32.00000,   2.00000
-283353127.11778,-494909990.10684,-117825393.96376,  -0.00083,  -0.00293,  -0.00267,477119936.00000,   0.00129,276041152.00000,  -0.00051,  -0.00123,  -0.00114, -32.00000,   2.00000
-282534513.46216,-495068889.76852,-117753947.76642,  -0.00083,  -0.00294,  -0.00268,477122112.00000,   0.00129,276045344.00000,  -0.00051,  -0.00124,  -0.00115,  64.00000,   2.00000
-281704974.20703,-495232787.08271,-117676104.73701,  -0.00082,  -0.00295,  -0.00268,477131264.00000,   0.00130,276049600.00000,  -0.00051,  -0.00124,  -0.00115,  64.00000,   2.00000
-280877848.36157,-495394479.04106,-117597730.83716,  -0.00082,  -0.00295,  -0.00268,477119584.00000,   0.00130,276053760.00000,  -0.00051,  -0.00125,  -0.00115, -32.00000,   2.00000
-280051794.13545,-495554001.31910,-117519055.03239,  -0.00081,  -0.00296,  -0.00269,477125664.00000,   0.00130,276057952.00000,  -0.00051,  -0.00125,  -0.00116,  32.00000,   2.00000
-279214849.77167,-495718555.60169,-117434025.32439,  -0.00081,  -0.00296,  -0.00269,477134880.00000,   0.00131,276062144.00000,  -0.00051,  -0.00125,  -0.00116,  64.00000,   2.00000
-278366272.93544,-495884097.15760,-117346521.31813,  -0.00081,  -0.00297,  -0.00269,477130144.00000,   0.00131,276066336.00000,  -0.00051,  -0.00126,  -0.00117,  96.00000,   2.00000
-277532688.34097,-496044153.33737,-117260683.04941,  -0.00080,  -0.00298,  -0.00269,477129312.00000,   0.00132,276070496.00000,  -0.00051,  -0.00126,  -0.00117,   0.00000,   2.00000
-276673420.60467,-496208267.90987,-117170382.38794,  -0.00080,  -0.00298,  -0.00270,477131584.00000,   0.00132,276074624.00000,  -0.00051,  -0.00127,  -0.00117,   0.00000,   2.00000
-275831895.11379,-496374789.80394,-117073779.26986,  -0.00080,  -0.00299,  -0.00270,477140832.00000,   0.00132,276078816.00000,  -0.00051,  -0.00127,  -0.00118,   0.00000,   2.00000
-274978538.64288,-496542058.11108,-116974677.96777,  -0.00079,  -0.00300,  -0.00270,477136352.00000,   0.00133,276082944.00000,  -0.00051,  -0.00127,  -0.00118, -32.00000,   2.00000
-274111465.28176,-496706193.55304,-116877223.70097,  -0.00079,  -0.00300,  -0.00270,477135584.00000,   0.00133,276087072.00000,  -0.00051,  -0.00128,  -0.00119,  32.00000,   2.00000
-273264054.25275,-496876625.91093,-116769372.40476,  -0.00078,  -0.00301,  -0.00271,477140928.00000,   0.00133,276091200.00000,  -0.00051,  -0.00128,  -0.00119,  96.00000,   2.00000
-272386070.43584,-497038928.19824,-116669145.52410,  -0.00078,  -0.00301,  -0.00271,477137312.00000,   0.00134,276095296.00000,  -0.00051,  -0.00128,  -0.00119,  32.00000,   2.00000
-271528633.85938,-497211227.27227,-116554634.13057,  -0.00078,  -0.00302,  -0.00271,477156672.00000,   0.00134,276099456.00000,  -0.00051,  -0.00129,  -0.00120, -32.00000,   2.00000
-270656457.44442,-497376405.43482,-116445658.31521,  -0.00077,  -0.00303,  -0.00271,477141888.00000,   0.00135,276103552.00000,  -0.00051,  -0.00129,  -0.00120,   0.00000,   2.00000
-269772250.40848,-497542032.81201,-116334149.52599,  -0.00077,  -0.00303,  -0.00272,477137568.00000,   0.00135,276107616.00000,  -0.00051,  -0.00130,  -0.00120,   0.00000,   2.00000
-268891901.18256,-497712758.57261,-116214388.32853,  -0.00076,  -0.00304,  -0.00272,477154080.00000,   0.00135,276111712.00000,  -0.00051,  -0.00130,  -0.00121,   0.00000,   2.00000
-268014358.68187,-497884609.29701,-116090225.17022,  -0.00076,  -0.00305,  -0.00272,477156608.00000,   0.00136,276115808.00000,  -0.00051,  -0.00130,  -0.00121,   0.00000,   2.00000
-267122937.55573,-498052971.15189,-115967716.08089,  -0.00076,  -0.00305,  -0.00272,477156160.00000,   0.00136,276119904.00000,  -0.00051,  -0.00131,  -0.00121,   0.00000,   2.00000
-266233307.17825,-498218777.69697,-115844691.60084,  -0.00075,  -0.00306,  -0.00272,477144352.00000,   0.00137,276123936.00000,  -0.00051,  -0.00131,  -0.00122,   0.00000,   2.00000
-265345753.94490,-498385554.98963,-115717573.85158,  -0.00075,  -0.00307,  -0.00273,477164768.00000,   0.00137,276128032.00000,  -0.00051,  -0.00132,  -0.00122,  64.00000,   2.00000
-264448878.48568,-498560001.71811,-115579876.43800,  -0.00074,  -0.00307,  -0.00273,477171072.00000,   0.00137,276132128.00000,  -0.00051,  -0.00132,  -0.00123,  96.00000,   2.00000
-263551937.35222,-498727969.64575,-115445843.76952,  -0.00074,  -0.00308,  -0.00273,477163296.00000,   0.00138,276136192.00000,  -0.00051,  -0.00132,  -0.00123,   0.00000,   2.00000
-262640886.55059,-498891947.33933,-115313360.13368,  -0.00073,  -0.00308,  -0.00273,477162976.00000,   0.00138,276140224.00000,  -0.00051,  -0.00133,  -0.00123,   0.00000,   2.00000
-261734466.05509,-499060941.06409,-115172361.53883,  -0.00073,  -0.00309,  -0.00273,477161632.00000,   0.00138,276144256.00000,  -0.00051,  -0.00133,  -0.00124,  32.00000,   2.00000
-260815066.13344,-499229417.73177,-115029042.14019,  -0.00073,  -0.00310,  -0.00274,477175776.00000,   0.00139,276148320.00000,  -0.00051,  -0.00133,  -0.00124,  96.00000,   2.00000
-259912473.77740,-499396472.23821,-114883465.73343,  -0.00072,  -0.00310,  -0.00274,477170592.00000,   0.00139,276152384.00000,  -0.00051,  -0.00134,  -0.00124,  64.00000,   2.00000
-258983423.04142,-499565578.54495,-114733128.89853,  -0.00072,  -0.00311,  -0.00274,477174592.00000,   0.00140,276156416.00000,  -0.00051,  -0.00134,  -0.00125,   0.00000,   2.00000
-258070743.57704,-499733068.65994,-114580904.91366,  -0.00071,  -0.00312,  -0.00274,477187328.00000,   0.00140,276160480.00000,  -0.00051,  -0.00135,  -0.00125,   0.00000,   2.00000
-257130289.38355,-499898920.30324,-114427735.01611,  -0.00071,  -0.00312,  -0.00274,477177376.00000,   0.00140,276164512.00000,  -0.00051,  -0.00135,  -0.00125,  96.00000,   2.00000
-256207855.00200,-500066771.19244,-114268443.32244,  -0.00070,  -0.00313,  -0.00274,477186432.00000,   0.00141,276168544.00000,  -0.00051,  -0.00135,  -0.00126,  96.00000,   2.00000
-255271170.76176,-500230347.19259,-114110666.19137,  -0.00070,  -0.00314,  -0.00275,477186560.00000,   0.00141,276172576.00000,  -0.00051,  -0.00136,  -0.00126,  96.00000,   2.00000
-254337221.78942,-500394711.16217,-113948489.78110,  -0.00069,  -0.00314,  -0.00275,477189344.00000,   0.00141,276176608.00000,  -0.00051,  -0.00136,  -0.00127, -32.00000,   2.00000
-253390651.63889,-500558583.65201,-113783610.97207,  -0.00069,  -0.00315,  -0.00275,477185696.00000,   0.00142,276180608.00000,  -0.00051,  -0.00137,  -0.00127,   0.00000,   2.00000
-252448249.03736,-500726734.20595,-113610530.72399,  -0.00068,  -0.00316,  -0.00275,477202816.00000,   0.00142,276184672.00000,  -0.00051,  -0.00137,  -0.00127,  32.00000,   2.00000
-251505475.14433,-500888389.43352,-113441081.41606,  -0.00068,  -0.00316,  -0.00275,477195072.00000,   0.00143,276188672.00000,  -0.00051,  -0.00137,  -0.00128,  96.00000,   2.00000
-250551364.89877,-501052677.47819,-113265030.15345,  -0.00068,  -0.00317,  -0.00275,477206144.00000,   0.00143,276192704.00000,  -0.00051,  -0.00138,  -0.00128, -32.00000,   2.00000
-249600025.78031,-501217856.80871,-113084619.97170,  -0.00067,  -0.00317,  -0.00275,477208960.00000,   0.00143,276196736.00000,  -0.00051,  -0.00138,  -0.00128,   0.00000,   2.00000
-248632676.86896,-501374995.39850,-112909416.79180,  -0.00067,  -0.00318,  -0.00275,477195232.00000,   0.00144,276200704.00000,  -0.00051,  -0.00138,  -0.00129,  64.00000,   2.00000
-247685130.41033,-501537879.46368,-112724413.52778,  -0.00066,  -0.00319,  -0.00276,477218560.00000,   0.00144,276204768.00000,  -0.00051,  -0.00139,  -0.00129,  64.00000,   2.00000
-246709084.88858,-501698335.14341,-112538182.15435,  -0.00066,  -0.00319,  -0.00276,477209536.00000,   0.00144,276208768.00000,  -0.00051,  -0.00139,  -0.00129, -32.00000,   2.00000
-245751429.76695,-501860890.95538,-112346451.44500,  -0.00065,  -0.00320,  -0.00276,477236512.00000,   0.00145,276212864.00000,  -0.00051,  -0.00140,  -0.00130,  32.00000,   2.00000
-244780635.67448,-502022772.29794,-112151380.77534,  -0.00065,  -0.00321,  -0.00276,477215744.00000,   0.00145,276216864.00000,  -0.00051,  -0.00140,  -0.00130, -32.00000,   2.00000
-243793726.89616,-502176239.01478,-111961934.10565,  -0.00064,  -0.00321,  -0.00276,477220160.00000,   0.00146,276220832.00000,  -0.00051,  -0.00140,  -0.00130,   0.00000,   2.00000
-242828421.03131,-502339326.87737,-111758534.39546,  -0.00064,  -0.00322,  -0.00276,477239840.00000,   0.00146,276224896.00000,  -0.00051,  -0.00141,  -0.00131,   0.00000,   2.00000
-241830999.87843,-502492511.00666,-111561769.43372,  -0.00063,  -0.00323,  -0.00276,477220608.00000,   0.00146,276228864.00000,  -0.00051,  -0.00141,  -0.00131,  32.00000,   2.00000
-240853686.93777,-502651496.32510,-111355297.46482,  -0.00063,  -0.00323,  -0.00276,477244032.00000,   0.00147,276232928.00000,  -0.00051,  -0.00142,  -0.00131, -64.00000,   2.00000
-239863223.85187,-502809456.38446,-111145934.84139,  -0.00062,  -0.00324,  -0.00276,477241504.00000,   0.00147,276236960.00000,  -0.00051,  -0.00142,  -0.00132,  32.00000,   2.00000
-238873826.90553,-502964336.68092,-110936395.32772,  -0.00062,  -0.00325,  -0.00276,477248384.00000,   0.00147,276240992.00000,  -0.00051,  -0.00142,  -0.00132,   0.00000,   2.00000
-237871239.50925,-503118194.57435,-110723952.94911,  -0.00061,  -0.00325,  -0.00276,477246048.00000,   0.00148,276244992.00000,  -0.00051,  -0.00143,  -0.00132, 160.00000,   2.00000
-236885509.74182,-503270735.63518,-110509828.35137,  -0.00061,  -0.00326,  -0.00276,477258880.00000,   0.00148,276249024.00000,  -0.00051,  -0.00143,  -0.00133, 128.00000,   2.00000
-235872086.44936,-503423928.82145,-110289968.76669,  -0.00060,  -0.00327,  -0.00276,477247264.00000,   0.00149,276253024.00000,  -0.00051,  -0.00144,  -0.00133, 128.00000,   2.00000
-234877545.09878,-503579164.56498,-110064765.24858,  -0.00060,  -0.00327,  -0.00276,477274368.00000,   0.00149,276257088.00000,  -0.00051,  -0.00144,  -0.00133,  64.00000,   2.00000
-233866169.21511,-503726020.02519,-109844557.37607,  -0.00059,  -0.00328,  -0.00277,477261472.00000,   0.00149,276261120.00000,  -0.00051,  -0.00144,  -0.00134,   0.00000,   2.00000
-232860827.55811,-503880633.55456,-109612001.87760,  -0.00059,  -0.00329,  -0.00277,477275616.00000,   0.00150,276265152.00000,  -0.00051,  -0.00145,  -0.00134,   0.00000,   2.00000
-231840579.04142,-504029997.46937,-109380728.32958,  -0.00058,  -0.00329,  -0.00277,477277440.00000,   0.00150,276269216.00000,  -0.00051,  -0.00145,  -0.00134,   0.00000,   2.00000
-230819291.82768,-504172804.25679,-109152970.36384,  -0.00058,  -0.00330,  -0.00277,477270144.00000,   0.00150,276273216.00000,  -0.00051,  -0.00146,  -0.00135,  32.00000,   2.00000
-229804021.81106,-504323112.78964,-108912855.99330,  -0.00057,  -0.00331,  -0.00277,477284704.00000,   0.00151,276277248.00000,  -0.00051,  -0.00146,  -0.00135,  32.00000,   2.00000
-228775935.82190,-504471255.65753,-108670364.02586,  -0.00057,  -0.00331,  -0.00277,477300928.00000,   0.00151,276281344.00000,  -0.00051,  -0.00146,  -0.00135,  32.00000,   2.00000
-227746778.95722,-504612802.19134,-108431421.27712,  -0.00056,  -0.00332,  -0.00277,477293792.00000,   0.00152,276285376.00000,  -0.00051,  -0.00147,  -0.00136,   0.00000,   2.00000
-226720077.77561,-504754622.48294,-108188072.00811,  -0.00056,  -0.00333,  -0.00277,477297600.00000,   0.00152,276289440.00000,  -0.00051,  -0.00147,  -0.00136, -64.00000,   2.00000
-225698102.67418,-504899987.33085,-107936723.74819,  -0.00055,  -0.00333,  -0.00277,477315904.00000,   0.00152,276293536.00000,  -0.00051,  -0.00148,  -0.00136,  32.00000,   2.00000
-224660169.04726,-505039971.93303,-107685962.99117,  -0.00055,  -0.00334,  -0.00277,477299872.00000,   0.00153,276297568.00000,  -0.00051,  -0.00148,  -0.00137, -64.00000,   2.00000
-223609523.15086,-505177385.30875,-107432872.04820,  -0.00054,  -0.00335,  -0.00277,477316384.00000,   0.00153,276301632.00000,  -0.00051,  -0.00148,  -0.00137,  32.00000,   2.00000
-222577447.47338,-505316819.89696,-107174034.48152,  -0.00054,  -0.00335,  -0.00277,477325920.00000,   0.00153,276305728.00000,  -0.00051,  -0.00149,  -0.00137, -64.00000,   2.00000
-221531722.24703,-505454034.46132,-106912216.68847,  -0.00053,  -0.00336,  -0.00277,477324512.00000,   0.00154,276309792.00000,  -0.00051,  -0.00149,  -0.00138,  64.00000,   2.00000
-220487152.07446,-505587357.65231,-106650367.93431,  -0.00052,  -0.00337,  -0.00277,477332256.00000,   0.00154,276313888.00000,  -0.00051,  -0.00150,  -0.00138, 128.00000,   2.00000
-219445050.15948,-505720333.69916,-106384170.55978,  -0.00052,  -0.00337,  -0.00277,477336352.00000,   0.00155,276317984.00000,  -0.00051,  -0.00150,  -0.00138,   0.00000,   2.00000
-218387913.97054,-505846965.75688,-106119274.57911,  -0.00051,  -0.00338,  -0.00277,477338784.00000,   0.00155,276322080.00000,  -0.00051,  -0.00150,  -0.00139, 128.00000,   2.00000
-217335774.81608,-505976194.09608,-105846484.41632,  -0.00051,  -0.00339,  -0.00277,477357792.00000,   0.00155,276326240.00000,  -0.00051,  -0.00151,  -0.00139, 128.00000,   2.00000
-216283621.98535,-506101632.41958,-105572918.33702,  -0.00050,  -0.00339,  -0.00277,477347552.00000,   0.00156,276330336.00000,  -0.00051,  -0.00151,  -0.00139,  64.00000,   2.00000
-215220201.91054,-506226962.30968,-105292743.86537,  -0.00050,  -0.00340,  -0.00277,477361376.00000,   0.00156,276334464.00000,  -0.00051,  -0.00152,  -0.00140,   0.00000,   2.00000
-214158142.17828,-506348020.55384,-105012653.39079,  -0.00049,  -0.00341,  -0.00277,477369344.00000,   0.00157,276338624.00000,  -0.00051,  -0.00152,  -0.00140,   0.00000,   2.00000
-213097445.81466,-506464709.36315,-104732640.85046,  -0.00049,  -0.00341,  -0.00276,477377408.00000,   0.00157,276342784.00000,  -0.00050,  -0.00152,  -0.00140,  32.00000,   2.00000
-212040517.10993,-506584035.18151,-104443963.66043,  -0.00048,  -0.00342,  -0.00276,477378720.00000,   0.00157,276346944.00000,  -0.00050,  -0.00153,  -0.00141,  64.00000,   2.00000
-210968484.59940,-506696170.77950,-104156551.78605,  -0.00048,  -0.00343,  -0.00276,477381792.00000,   0.00158,276351136.00000,  -0.00050,  -0.00153,  -0.00141,   0.00000,   2.00000
-209900650.67369,-506807052.72936,-103865806.04189,  -0.00047,  -0.00343,  -0.00276,477404576.00000,   0.00158,276355360.00000,  -0.00050,  -0.00154,  -0.00141,  32.00000,   2.00000
-208832604.56394,-506913927.49544,-103574232.94301,  -0.00046,  -0.00344,  -0.00276,477394816.00000,   0.00158,276359552.00000,  -0.00050,  -0.00154,  -0.00142,   0.00000,   2.00000
-207753397.27999,-507020199.14145,-103276080.19892,  -0.00046,  -0.00345,  -0.00276,477409440.00000,   0.00159,276363776.00000,  -0.00050,  -0.00154,  -0.00142, 128.00000,   2.00000
-206673832.25652,-507122494.16294,-102977049.28189,  -0.00045,  -0.00345,  -0.00276,477399712.00000,   0.00159,276367936.00000,  -0.00050,  -0.00155,  -0.00142,   0.00000,   2.00000
-205598546.68201,-507223689.37698,-102674741.29049,  -0.00045,  -0.00346,  -0.00276,477422560.00000,   0.00160,276372192.00000,  -0.00050,  -0.00155,  -0.00143,  96.00000,   2.00000
-204524599.21967,-507320752.64439,-102372551.82557,  -0.00044,  -0.00347,  -0.00276,477430752.00000,   0.00160,276376448.00000,  -0.00050,  -0.00156,  -0.00143, -32.00000,   2.00000
-203436465.42062,-507414478.12791,-102067166.14006,  -0.00044,  -0.00347,  -0.00276,477430912.00000,   0.00160,276380704.00000,  -0.00050,  -0.00156,  -0.00143, -64.00000,   2.00000
-202370328.29069,-507513711.83174,-101753001.80844,  -0.00043,  -0.00348,  -0.00276,477455200.00000,   0.00161,276385056.00000,  -0.00050,  -0.00157,  -0.00144, -96.00000,   2.00000
-201286831.38384,-507606844.99484,-101438978.90604,  -0.00043,  -0.00349,  -0.00276,477440640.00000,   0.00161,276389312.00000,  -0.00050,  -0.00157,  -0.00144, -32.00000,   2.00000
-200190920.34885,-507696544.35514,-101122774.48995,  -0.00042,  -0.00349,  -0.00276,477458944.00000,   0.00162,276393600.00000,  -0.00050,  -0.00157,  -0.00144,  64.00000,   2.00000
-199110834.48129,-507786297.78415,-100804490.54878,  -0.00041,  -0.00350,  -0.00275,477453664.00000,   0.00162,276397888.00000,  -0.00050,  -0.00158,  -0.00144,   0.00000,   2.00000
-198018297.16735,-507872936.45134,-100484014.98416,  -0.00041,  -0.00351,  -0.00275,477471744.00000,   0.00162,276402208.00000,  -0.00050,  -0.00158,  -0.00145,  96.00000,   2.00000
-196927891.17245,-507959840.57337,-100159131.22236,  -0.00040,  -0.00352,  -0.00275,477476608.00000,   0.00163,276406528.00000,  -0.00050,  -0.00159,  -0.00145, -32.00000,   2.00000
-195838612.76422,-508043896.58323,-99834318.30752,  -0.00040,  -0.00352,  -0.00275,477484544.00000,   0.00163,276410880.00000,  -0.00050,  -0.00159,  -0.00145, -32.00000,   2.00000
-194751486.76424,-508128596.41052,-99505108.43354,  -0.00039,  -0.00353,  -0.00275,477489344.00000,   0.00164,276415200.00000,  -0.00050,  -0.00160,  -0.00146,  32.00000,   2.00000
-193652839.03473,-508213414.23726,-99169124.03601,  -0.00038,  -0.00354,  -0.00275,477504608.00000,   0.00164,276419584.00000,  -0.00049,  -0.00160,  -0.00146, -64.00000,   2.00000
-192552162.57574,-508292719.40768,-98836513.94187,  -0.00038,  -0.00354,  -0.00275,477497728.00000,   0.00164,276423904.00000,  -0.00049,  -0.00161,  -0.00146,   0.00000,   2.00000
-191456868.35839,-508375312.95356,-98496133.03461,  -0.00037,  -0.00355,  -0.00275,477517632.00000,   0.00165,276428288.00000,  -0.00049,  -0.00161,  -0.00147,  32.00000,   2.00000
-190362814.92057,-508455098.46096,-98155808.88450,  -0.00037,  -0.00356,  -0.00275,477525824.00000,   0.00165,276432704.00000,  -0.00049,  -0.00161,  -0.00147, -64.00000,   2.00000
-189271003.35971,-508535265.58521,-97811055.22801,  -0.00036,  -0.00356,  -0.00274,477530944.00000,   0.00166,276437088.00000,  -0.00049,  -0.00162,  -0.00147,  32.00000,   2.00000
-188164530.26684,-508612167.74997,-97462797.01966,  -0.00036,  -0.00357,  -0.00274,477531872.00000,   0.00166,276441504.00000,  -0.00049,  -0.00162,  -0.00148,  32.00000,   2.00000
-187059412.69379,-508685804.33218,-97114609.48168,  -0.00035,  -0.00358,  -0.00274,477540320.00000,   0.00167,276445888.00000,  -0.00049,  -0.00163,  -0.00148, -32.00000,   2.00000
-185956637.82292,-508759310.08229,-96762016.91033,  -0.00034,  -0.00358,  -0.00274,477545600.00000,   0.00167,276450304.00000,  -0.00049,  -0.00163,  -0.00148, -32.00000,   2.00000
-184858724.19076,-508832039.29750,-96406292.87340,  -0.00034,  -0.00359,  -0.00274,477569280.00000,   0.00167,276454784.00000,  -0.00049,  -0.00164,  -0.00149,  32.00000,   2.00000
-183759733.17979,-508901349.30343,-96049435.84887,  -0.00033,  -0.00360,  -0.00274,477559744.00000,   0.00168,276459200.00000,  -0.00049,  -0.00164,  -0.00149, -32.00000,   2.00000
-182648787.00083,-508966161.10436,-95690449.23435,  -0.00033,  -0.00361,  -0.00274,477579168.00000,   0.00168,276463680.00000,  -0.00049,  -0.00165,  -0.00149,   0.00000,   2.00000
-181557287.69052,-509033645.23167,-95326259.51729,  -0.00032,  -0.00361,  -0.00273,477588992.00000,   0.00169,276468192.00000,  -0.00049,  -0.00165,  -0.00149,  32.00000,   2.00000
-180451220.57883,-509096592.36455,-94958675.47257,  -0.00031,  -0.00362,  -0.00273,477590432.00000,   0.00169,276472672.00000,  -0.00049,  -0.00166,  -0.00150,  32.00000,   2.00000
-179346757.36405,-509155306.93565,-94591372.65824,  -0.00031,  -0.00363,  -0.00273,477599104.00000,   0.00169,276477184.00000,  -0.00049,  -0.00166,  -0.00150,   0.00000,   2.00000
-178247572.69290,-509212611.57921,-94221218.95385,  -0.00030,  -0.00363,  -0.00273,477622944.00000,   0.00170,276481792.00000,  -0.00048,  -0.00166,  -0.00150,  64.00000,   2.00000
-177147206.25495,-509265879.10219,-93849996.50962,  -0.00030,  -0.00364,  -0.00273,477613504.00000,   0.00170,276486304.00000,  -0.00048,  -0.00167,  -0.00151, 128.00000,   2.00000
-176035942.63320,-509317058.89183,-93472258.09983,  -0.00029,  -0.00365,  -0.00273,477630080.00000,   0.00171,276490912.00000,  -0.00048,  -0.00167,  -0.00151, -32.00000,   2.00000
-174943491.92313,-509367674.37346,-93094058.59771,  -0.00028,  -0.00366,  -0.00272,477642720.00000,   0.00171,276495520.00000,  -0.00048,  -0.00168,  -0.00151, 128.00000,   2.00000
-173836417.17418,-509413305.33218,-92712462.43666,  -0.00028,  -0.00366,  -0.00272,477644320.00000,   0.00172,276500128.00000,  -0.00048,  -0.00168,  -0.00152,   0.00000,   2.00000
-172731122.79750,-509454875.70710,-92331255.19318,  -0.00027,  -0.00367,  -0.00272,477652864.00000,   0.00172,276504768.00000,  -0.00048,  -0.00169,  -0.00152,   0.00000,   2.00000
-171645520.86150,-509499141.60177,-91945009.96300,  -0.00027,  -0.00368,  -0.00272,477662432.00000,   0.00172,276509440.00000,  -0.00048,  -0.00169,  -0.00152,  64.00000,   2.00000
-170544508.20026,-509535477.00740,-91559888.86060,  -0.00026,  -0.00368,  -0.00272,477667136.00000,   0.00173,276514080.00000,  -0.00048,  -0.00170,  -0.00153,  32.00000,   2.00000
-169432819.48240,-509569764.76704,-91168231.81313,  -0.00025,  -0.00369,  -0.00271,477683904.00000,   0.00173,276518784.00000,  -0.00048,  -0.00170,  -0.00153,  32.00000,   2.00000
-168337020.92696,-509604207.92131,-90774548.37368,  -0.00025,  -0.00370,  -0.00271,477678336.00000,   0.00174,276523456.00000,  -0.00048,  -0.00171,  -0.00153,   0.00000,   2.00000
-167247100.80663,-509637588.41695,-90378152.65596,  -0.00024,  -0.00370,  -0.00271,477701952.00000,   0.00174,276528192.00000,  -0.00048,  -0.00171,  -0.00153,  96.00000,   2.00000
-166141844.54048,-509662989.17209,-89982762.57927,  -0.00024,  -0.00371,  -0.00271,477706880.00000,   0.00175,276532960.00000,  -0.00047,  -0.00172,  -0.00154,  32.00000,   2.00000
-165056588.97995,-509691660.74499,-89582311.21996,  -0.00023,  -0.00372,  -0.00271,477716000.00000,   0.00175,276537728.00000,  -0.00047,  -0.00172,  -0.00154,  96.00000,   2.00000
-163960126.12879,-509715102.46868,-89179848.10518,  -0.00022,  -0.00373,  -0.00270,477736096.00000,   0.00176,276542560.00000,  -0.00047,  -0.00173,  -0.00154,  32.00000,   2.00000
-162879615.14364,-509739043.94727,-88775281.12049,  -0.00022,  -0.00373,  -0.00270,477730080.00000,   0.00176,276547360.00000,  -0.00047,  -0.00173,  -0.00155,  32.00000,   2.00000
-161788722.56594,-509760782.59074,-88364096.02397,  -0.00021,  -0.00374,  -0.00270,477747136.00000,   0.00176,276552224.00000,  -0.00047,  -0.00174,  -0.00155,   0.00000,   2.00000
-160695752.12626,-509775906.72415,-87956111.24432,  -0.00021,  -0.00375,  -0.00270,477740416.00000,   0.00177,276557024.00000,  -0.00047,  -0.00174,  -0.00155,  64.00000,   2.00000
-159609159.10700,-509789955.93256,-87545450.02487,  -0.00020,  -0.00376,  -0.00269,477763776.00000,   0.00177,276561920.00000,  -0.00047,  -0.00175,  -0.00156, -64.00000,   2.00000
-158525416.34012,-509803070.65399,-87130414.85894,  -0.00019,  -0.00376,  -0.00269,477769152.00000,   0.00178,276566816.00000,  -0.00047,  -0.00175,  -0.00156, -64.00000,   2.00000
-157461949.64586,-509819722.25851,-86710390.86621,  -0.00019,  -0.00377,  -0.00269,477777824.00000,   0.00178,276571712.00000,  -0.00047,  -0.00176,  -0.00156,  32.00000,   2.00000
-156387609.14729,-509830863.18958,-86288408.33369,  -0.00018,  -0.00378,  -0.00269,477797760.00000,   0.00179,276576704.00000,  -0.00046,  -0.00176,  -0.00156, -32.00000,   2.00000
-155293747.26315,-509831105.37905,-85870271.64911,  -0.00018,  -0.00378,  -0.00268,477787328.00000,   0.00179,276581632.00000,  -0.00046,  -0.00177,  -0.00157, -64.00000,   2.00000
-154224673.50489,-509837641.45224,-85444298.41384,  -0.00017,  -0.00379,  -0.00268,477810816.00000,   0.00180,276586624.00000,  -0.00046,  -0.00177,  -0.00157,  32.00000,   2.00000
-153158487.69934,-509843170.44007,-85013989.78257,  -0.00016,  -0.00380,  -0.00268,477816128.00000,   0.00180,276591648.00000,  -0.00046,  -0.00178,  -0.00157,   0.00000,   2.00000
-152094623.71653,-509845082.95579,-84584061.93652,  -0.00016,  -0.00381,  -0.00268,477823936.00000,   0.00181,276596704.00000,  -0.00046,  -0.00178,  -0.00158,  64.00000,   2.00000
-151033037.32025,-509843175.10071,-84154474.54858,  -0.00015,  -0.00381,  -0.00267,477831680.00000,   0.00181,276601760.00000,  -0.00046,  -0.00179,  -0.00158, -64.00000,   2.00000
-149974385.08589,-509840629.57563,-83720614.10627,  -0.00015,  -0.00382,  -0.00267,477836672.00000,   0.00182,276606816.00000,  -0.00046,  -0.00179,  -0.00158,  32.00000,   2.00000
-148922653.59437,-509837253.93593,-83284333.72882,  -0.00014,  -0.00383,  -0.00267,477859360.00000,   0.00182,276611936.00000,  -0.00046,  -0.00180,  -0.00159,  32.00000,   2.00000
-147869165.21076,-509830399.91778,-82846568.43776,  -0.00013,  -0.00384,  -0.00267,477849376.00000,   0.00183,276617024.00000,  -0.00045,  -0.00180,  -0.00159,   0.00000,   2.00000
-146805143.32088,-509818253.55953,-82407001.43960,  -0.00013,  -0.00384,  -0.00266,477868928.00000,   0.00183,276622176.00000,  -0.00045,  -0.00181,  -0.00159,  32.00000,   2.00000
-145761518.13825,-509809959.35458,-81962569.33936,  -0.00012,  -0.00385,  -0.00266,477876992.00000,   0.00184,276627360.00000,  -0.00045,  -0.00181,  -0.00159, -32.00000,   2.00000
-144720207.94580,-509798469.38873,-81518603.91047,  -0.00011,  -0.00386,  -0.00266,477884480.00000,   0.00184,276632544.00000,  -0.00045,  -0.00182,  -0.00160,   0.00000,   2.00000
-143681159.81297,-509783656.30269,-81075077.06748,  -0.00011,  -0.00387,  -0.00265,477892128.00000,   0.00184,276637760.00000,  -0.00045,  -0.00183,  -0.00160, -96.00000,   2.00000
-142649741.60562,-509771236.26529,-80624593.02298,  -0.00010,  -0.00387,  -0.00265,477912032.00000,   0.00185,276643040.00000,  -0.00045,  -0.00183,  -0.00160, -64.00000,   2.00000
-141616199.06234,-509755515.97863,-80172593.16497,  -0.00010,  -0.00388,  -0.00265,477902144.00000,   0.00185,276648256.00000,  -0.00045,  -0.00184,  -0.00161, -32.00000,   2.00000
-140589768.16736,-509739524.69067,-79718402.07651,  -0.00009,  -0.00389,  -0.00265,477924864.00000,   0.00186,276653536.00000,  -0.00044,  -0.00184,  -0.00161, 128.00000,   2.00000
-139565476.38284,-509720176.62464,-79264692.47937,  -0.00008,  -0.00389,  -0.00264,477932576.00000,   0.00186,276658848.00000,  -0.00044,  -0.00185,  -0.00161, -32.00000,   2.00000
-138543875.74585,-509700663.09259,-78806839.91483,  -0.00008,  -0.00390,  -0.00264,477937536.00000,   0.00187,276664160.00000,  -0.00044,  -0.00185,  -0.00162,  96.00000,   2.00000
-137524396.62574,-509678069.99010,-78349550.70832,  -0.00007,  -0.00391,  -0.00264,477945504.00000,   0.00187,276669504.00000,  -0.00044,  -0.00186,  -0.00162,  32.00000,   2.00000
-136530202.19272,-509662963.64494,-77885008.31544,  -0.00007,  -0.00392,  -0.00263,477968448.00000,   0.00188,276674912.00000,  -0.00044,  -0.00186,  -0.00162, 160.00000,   2.00000
-135515279.31048,-509636796.25066,-77424183.50123,  -0.00006,  -0.00392,  -0.00263,477959008.00000,   0.00188,276680256.00000,  -0.00044,  -0.00187,  -0.00162,  64.00000,   2.00000
-134507516.55536,-509610471.60832,-76961400.77241,  -0.00005,  -0.00393,  -0.00263,477981856.00000,   0.00189,276685696.00000,  -0.00044,  -0.00188,  -0.00163,  32.00000,   2.00000
-133519952.60539,-509588856.77681,-76494121.90238,  -0.00005,  -0.00394,  -0.00263,477990016.00000,   0.00189,276691136.00000,  -0.00043,  -0.00188,  -0.00163,   0.00000,   2.00000
-132517100.17148,-509561612.51741,-76023278.47520,  -0.00004,  -0.00395,  -0.00262,477993184.00000,   0.00190,276696576.00000,  -0.00043,  -0.00189,  -0.00163,  96.00000,   2.00000
-131533504.61959,-509533681.96278,-75557503.83144,  -0.00004,  -0.00395,  -0.00262,478006560.00000,   0.00191,276702048.00000,  -0.00043,  -0.00189,  -0.00164,   0.00000,   2.00000
-130557958.57719,-509510637.20481,-75080473.80490,  -0.00003,  -0.00396,  -0.00262,478024736.00000,   0.00191,276707584.00000,  -0.00043,  -0.00190,  -0.00164, -96.00000,   2.00000
-129578707.10919,-509479062.71608,-74611643.64237,  -0.00002,  -0.00397,  -0.00261,478020800.00000,   0.00192,276713056.00000,  -0.00043,  -0.00190,  -0.00164,  96.00000,   2.00000
-128607127.49945,-509449776.82799,-74136439.36834,  -0.00002,  -0.00398,  -0.00261,478041696.00000,   0.00192,276718624.00000,  -0.00043,  -0.00191,  -0.00165, 160.00000,   2.00000
-127637458.14129,-509416825.19213,-73662140.77420,  -0.00001,  -0.00398,  -0.00261,478050656.00000,   0.00193,276724224.00000,  -0.00042,  -0.00192,  -0.00165, -64.00000,   2.00000
-126670209.66621,-509383257.52493,-73184106.09911,  -0.00001,  -0.00399,  -0.00260,478056896.00000,   0.00193,276729792.00000,  -0.00042,  -0.00192,  -0.00165, -32.00000,   2.00000
-125722711.27258,-509351447.67180,-72706708.72553,   0.00000,  -0.00400,  -0.00260,478068224.00000,   0.00194,276735392.00000,  -0.00042,  -0.00193,  -0.00165,   0.00000,   2.00000
