# sigma_xx, sigma_yy, sigma_xy, epsilon_xx, epsilon_yy, epsilon_xy, vonMises, epsPlastic, hardening, epsilonP__xx, epsilonP__yy, epsilonP__xy, yieldValue, iteration
   0.00000,   0.00000,   0.00000,   0.00000,   0.00000,   0.00000,   0.00000,   0.00000,274640135.82653,   0.00000,   0.00000,   0.00000,-474640135.82653,   0.00000
   0.00000,   0.00000,   0.00000,   0.00000,   0.00000,   0.00000,   0.00000,   0.00000,274640135.82653,   0.00000,   0.00000,   0.00000,-474640135.82653,   0.00000
-1074828.66779,3184305.49242,1014557.90137,  -0.00001,   0.00002,   0.00001,4219671.09739,   0.00000,274640135.82653,   0.00000,   0.00000,   0.00000,-470420464.72914,   0.00000
-2149657.33558,6368610.98485,2039160.93048,  -0.00002,   0.00003,   0.00003,8446602.61638,   0.00000,274640135.82653,   0.00000,   0.00000,   0.00000,-466193533.21015,   0.00000
-3254621.38658,9482600.58312,3053718.83185,  -0.00003,   0.00005,   0.00004,12623396.72827,   0.00000,274640135.82653,   0.00000,   0.00000,   0.00000,-462016739.09826,   0.00000
-4424878.76786,12511206.59563,4068276.73322,  -0.00004,   0.00007,   0.00005,16766724.24025,   0.00000,274640135.82653,   0.00000,   0.00000,   0.00000,-457873411.58628,   0.00000
-5595136.14915,15539812.60814,5092879.76233,  -0.00006,   0.00008,   0.00007,20917718.91290,   0.00000,274640135.82653,   0.00000,   0.00000,   0.00000,-453722416.91363,   0.00000
-6795528.91364,18498102.72650,6107437.66370,  -0.00007,   0.00010,   0.00008,25019308.42509,   0.00000,274640135.82653,   0.00000,   0.00000,   0.00000,-449620827.40144,   0.00000
-8046147.31682,21406167.20617,7132040.69281,  -0.00008,   0.00011,   0.00009,29116999.66109,   0.00000,274640135.82653,   0.00000,   0.00000,   0.00000,-445523136.16544,   0.00000
-9276675.46452,24294141.43038,8146598.59418,  -0.00009,   0.00013,   0.00011,33177282.69790,   0.00000,274640135.82653,   0.00000,   0.00000,   0.00000,-441462853.12863,   0.00000
-10572496.94251,27096732.06882,9161156.49556,  -0.00010,   0.00014,   0.00012,37205793.39789,   0.00000,274640135.82653,   0.00000,   0.00000,   0.00000,-437434342.42864,   0.00000
-11883386.11211,29864164.76019,10185759.52466,  -0.00011,   0.00016,   0.00013,41221592.57424,   0.00000,274640135.82653,   0.00000,   0.00000,   0.00000,-433418543.25229,   0.00000
-13244500.92038,32581371.81287,11200317.42604,  -0.00012,   0.00017,   0.00015,45219773.70723,   0.00000,274640135.82653,   0.00000,   0.00000,   0.00000,-429420362.11930,   0.00000
-14620683.42027,35263420.91848,12214875.32741,  -0.00014,   0.00019,   0.00016,49198151.28545,   0.00000,274640135.82653,   0.00000,   0.00000,   0.00000,-425441984.54108,   0.00000
-16027001.30336,37875154.12993,13229433.22878,  -0.00015,   0.00020,   0.00017,53136342.80239,   0.00000,274640135.82653,   0.00000,   0.00000,   0.00000,-421503793.02414,   0.00000
-17433319.18645,40486887.34138,14254036.25789,  -0.00016,   0.00022,   0.00019,57082940.91287,   0.00000,274640135.82653,   0.00000,   0.00000,   0.00000,-417557194.91366,   0.00000
-18904930.39982,43013236.96707,15268594.15926,  -0.00017,   0.00023,   0.00020,60992516.76839,   0.00000,274640135.82653,   0.00000,   0.00000,   0.00000,-413647619.05814,   0.00000
-20371519.04933,45484338.39022,16283152.06063,  -0.00018,   0.00025,   0.00021,64852386.35721,   0.00000,274640135.82653,   0.00000,   0.00000,   0.00000,-409787749.46932,   0.00000
-21873265.64591,47940372.12176,17297709.96200,  -0.00019,   0.00026,   0.00022,68723822.89688,   0.00000,274640135.82653,   0.00000,   0.00000,   0.00000,-405916312.92965,   0.00000
-23440305.57279,50311022.26754,18312267.86338,  -0.00020,   0.00027,   0.00024,72567004.10986,   0.00000,274640135.82653,   0.00000,   0.00000,   0.00000,-402073131.71667,   0.00000
-24987255.24418,52661582.15784,19326825.76475,  -0.00022,   0.00029,   0.00025,76380967.11465,   0.00000,274640135.82653,   0.00000,   0.00000,   0.00000,-398259168.71188,   0.00000
-26584430.55427,54961916.40947,20341383.66612,  -0.00023,   0.00030,   0.00026,80187225.42631,   0.00000,274640135.82653,   0.00000,   0.00000,   0.00000,-394452910.40022,   0.00000
-28196673.55595,57227092.71402,21355941.56749,  -0.00024,   0.00032,   0.00028,83975204.15358,   0.00000,274640135.82653,   0.00000,   0.00000,   0.00000,-390664931.67295,   0.00000
-29839051.94084,59421953.12441,22360454.34113,  -0.00025,   0.00033,   0.00029,87717740.70608,   0.00000,274640135.82653,   0.00000,   0.00000,   0.00000,-386922395.12045,   0.00000
-31531655.96442,61566587.89612,23375012.24250,  -0.00026,   0.00034,   0.00030,91461249.35449,   0.00000,274640135.82653,   0.00000,   0.00000,   0.00000,-383178886.47204,   0.00000
-33239327.67960,63676064.72076,24379525.01613,  -0.00028,   0.00035,   0.00032,95179448.53566,   0.00000,274640135.82653,   0.00000,   0.00000,   0.00000,-379460687.29087,   0.00000
-34977134.77799,65715225.65124,25394082.91751,  -0.00029,   0.00037,   0.00033,98868597.06653,   0.00000,274640135.82653,   0.00000,   0.00000,   0.00000,-375771538.76000,   0.00000
-36714941.87638,67754386.58172,26398595.69114,  -0.00030,   0.00038,   0.00034,102551937.02052,   0.00000,274640135.82653,   0.00000,   0.00000,   0.00000,-372088198.80600,   0.00000
-38482884.35798,69723231.61804,27403108.46478,  -0.00031,   0.00039,   0.00036,106198886.69752,   0.00000,274640135.82653,   0.00000,   0.00000,   0.00000,-368441249.12901,   0.00000
-40301052.47826,71641851.01569,28407621.23841,  -0.00032,   0.00040,   0.00037,109840568.45496,   0.00000,274640135.82653,   0.00000,   0.00000,   0.00000,-364799567.37157,   0.00000
-42134288.29014,73525312.46625,29412134.01205,  -0.00034,   0.00042,   0.00038,113465534.04661,   0.00000,274640135.82653,   0.00000,   0.00000,   0.00000,-361174601.77992,   0.00000
-43997659.48524,75338458.02267,30416646.78568,  -0.00035,   0.00043,   0.00040,117055159.32539,   0.00000,274640135.82653,   0.00000,   0.00000,   0.00000,-357584976.50114,   0.00000
-45911256.31901,77101377.94040,31421159.55932,  -0.00036,   0.00044,   0.00041,120640602.06425,   0.00000,274640135.82653,   0.00000,   0.00000,   0.00000,-353999533.76228,   0.00000
-47789695.20571,78879365.54973,32425672.33296,  -0.00037,   0.00045,   0.00042,124216354.77568,   0.00000,274640135.82653,   0.00000,   0.00000,   0.00000,-350423781.05085,   0.00000
-49748495.11430,80536811.62623,33420139.97886,  -0.00038,   0.00046,   0.00043,127743466.53111,   0.00000,274640135.82653,   0.00000,   0.00000,   0.00000,-346896669.29542,   0.00000
-51707295.02289,82194257.70273,34414607.62475,  -0.00040,   0.00047,   0.00045,131273297.90939,   0.00000,274640135.82653,   0.00000,   0.00000,   0.00000,-343366837.91714,   0.00000
-53731388.26177,83766320.19347,35419120.39839,  -0.00041,   0.00049,   0.00046,134789767.51316,   0.00000,274640135.82653,   0.00000,   0.00000,   0.00000,-339850368.31336,   0.00000
-55720323.55356,85353450.37581,36413588.04429,  -0.00042,   0.00050,   0.00047,138288596.78983,   0.00000,274640135.82653,   0.00000,   0.00000,   0.00000,-336351539.03670,   0.00000
-57774552.17565,86855196.97240,37408055.69019,  -0.00043,   0.00051,   0.00049,141766823.06160,   0.00000,274640135.82653,   0.00000,   0.00000,   0.00000,-332873312.76493,   0.00000
-59843848.48934,88321785.62191,38392478.20835,  -0.00044,   0.00052,   0.00050,145222197.76418,   0.00000,274640135.82653,   0.00000,   0.00000,   0.00000,-329417938.06235,   0.00000
-61943280.18624,89718058.37726,39386945.85425,  -0.00046,   0.00053,   0.00051,148653036.62630,   0.00000,274640135.82653,   0.00000,   0.00000,   0.00000,-325987099.20023,   0.00000
-64077869.83021,91099263.44101,40371368.37241,  -0.00047,   0.00054,   0.00052,152092202.62280,   0.00000,274640135.82653,   0.00000,   0.00000,   0.00000,-322547933.20372,   0.00000
-66207436.91032,92425220.30221,41355790.89058,  -0.00048,   0.00055,   0.00054,155486293.00611,   0.00000,274640135.82653,   0.00000,   0.00000,   0.00000,-319153842.82042,   0.00000
-68387229.62911,93700951.52472,42340213.40874,  -0.00049,   0.00056,   0.00055,158879548.70235,   0.00000,274640135.82653,   0.00000,   0.00000,   0.00000,-315760587.12418,   0.00000
-70582090.03950,94941524.80016,43324635.92690,  -0.00051,   0.00057,   0.00056,162258953.68901,   0.00000,274640135.82653,   0.00000,   0.00000,   0.00000,-312381182.13752,   0.00000
-72827176.08858,96131872.43692,44309058.44506,  -0.00052,   0.00058,   0.00058,165638236.09849,   0.00000,274640135.82653,   0.00000,   0.00000,   0.00000,-309001899.72804,   0.00000
-75067239.57379,97266971.87113,45283435.83549,  -0.00053,   0.00059,   0.00059,168965339.75190,   0.00000,274640135.82653,   0.00000,   0.00000,   0.00000,-305674796.07463,   0.00000
-77342461.00607,98387003.61373,46267858.35365,  -0.00054,   0.00060,   0.00060,172318008.04027,   0.00000,274640135.82653,   0.00000,   0.00000,   0.00000,-302322127.78626,   0.00000
-79647817.82156,99436719.46218,47242235.74408,  -0.00056,   0.00061,   0.00061,175632685.71634,   0.00000,274640135.82653,   0.00000,   0.00000,   0.00000,-299007450.11019,   0.00000
-81968242.32866,100451277.36356,48216613.13451,  -0.00057,   0.00062,   0.00063,178934602.20446,   0.00000,274640135.82653,   0.00000,   0.00000,   0.00000,-295705533.62207,   0.00000
-84303734.52736,101430677.31785,49180945.39720,  -0.00058,   0.00063,   0.00064,182215759.52820,   0.00000,274640135.82653,   0.00000,   0.00000,   0.00000,-292424376.29833,   0.00000
-86704520.05635,102324693.68639,50155322.78762,  -0.00059,   0.00063,   0.00065,185490429.41348,   0.00000,274640135.82653,   0.00000,   0.00000,   0.00000,-289149706.41305,   0.00000
-89070147.63826,103233777.74653,51119655.05031,  -0.00061,   0.00064,   0.00066,188746945.11607,   0.00000,274640135.82653,   0.00000,   0.00000,   0.00000,-285893190.71046,   0.00000
-91501068.55046,104057478.22091,52083987.31300,  -0.00062,   0.00065,   0.00068,191989582.97448,   0.00000,274640135.82653,   0.00000,   0.00000,   0.00000,-282650552.85205,   0.00000
-93931989.46266,104881178.69529,53048319.57569,  -0.00063,   0.00066,   0.00069,195236653.04030,   0.00000,274640135.82653,   0.00000,   0.00000,   0.00000,-279403482.78623,   0.00000
-96393045.75807,105634563.27552,54002606.71065,  -0.00064,   0.00067,   0.00070,198447882.61660,   0.00000,274640135.82653,   0.00000,   0.00000,   0.00000,-276192253.20993,   0.00000
-98904327.69216,106337722.21706,54956893.84560,  -0.00066,   0.00068,   0.00071,201662635.78118,   0.00000,274640135.82653,   0.00000,   0.00000,   0.00000,-272977500.04535,   0.00000
-101395519.37077,107020790.90313,55921226.10829,  -0.00067,   0.00068,   0.00073,204859660.01011,   0.00000,274640135.82653,   0.00000,   0.00000,   0.00000,-269780475.81642,   0.00000
-103936936.68807,107653633.95052,56865468.11551,  -0.00068,   0.00069,   0.00074,208044286.24453,   0.00000,274640135.82653,   0.00000,   0.00000,   0.00000,-266595849.58200,   0.00000
-106508489.38858,108216161.10376,57819755.25046,  -0.00070,   0.00070,   0.00075,211211050.78602,   0.00000,274640135.82653,   0.00000,   0.00000,   0.00000,-263429085.04051,   0.00000
-109080042.08909,108778688.25699,58763997.25768,  -0.00071,   0.00071,   0.00076,214374589.48215,   0.00000,274640135.82653,   0.00000,   0.00000,   0.00000,-260265546.34438,   0.00000
-111716888.11988,109255831.82447,59708239.26490,  -0.00072,   0.00071,   0.00078,217528027.91265,   0.00000,274640135.82653,   0.00000,   0.00000,   0.00000,-257112107.91388,   0.00000
-114318576.20359,109748043.08355,60652481.27211,  -0.00073,   0.00072,   0.00079,220671204.07004,   0.00000,274640135.82653,   0.00000,   0.00000,   0.00000,-253968931.75649,   0.00000
-116985557.61760,110154870.75688,61596723.27933,  -0.00075,   0.00073,   0.00080,223805080.77031,   0.00000,274640135.82653,   0.00000,   0.00000,   0.00000,-250835055.05622,   0.00000
-119632448.77613,110541608.17472,62530920.15881,  -0.00076,   0.00074,   0.00081,226905445.38055,   0.00000,274640135.82653,   0.00000,   0.00000,   0.00000,-247734690.44598,   0.00000
-122329565.57334,110878119.95389,63465117.03829,  -0.00077,   0.00074,   0.00083,230012207.47054,   0.00000,274640135.82653,   0.00000,   0.00000,   0.00000,-244627928.35598,   0.00000
-125041750.06215,111179473.78598,64389268.79004,  -0.00079,   0.00075,   0.00084,233101532.44685,   0.00000,274640135.82653,   0.00000,   0.00000,   0.00000,-241538603.37968,   0.00000
-127769002.24257,111445669.67100,65323465.66952,  -0.00080,   0.00076,   0.00085,236190225.75422,   0.00000,274640135.82653,   0.00000,   0.00000,   0.00000,-238449910.07231,   0.00000
-130546480.06168,111661639.91733,66247617.42127,  -0.00081,   0.00076,   0.00086,239278038.64255,   0.00000,274640135.82653,   0.00000,   0.00000,   0.00000,-235362097.18398,   0.00000
-133318935.31691,111822361.96111,67171769.17301,  -0.00082,   0.00077,   0.00087,242326963.23639,   0.00000,274640135.82653,   0.00000,   0.00000,   0.00000,-232313172.59014,   0.00000
-136126548.51922,111968016.31329,68085875.79702,  -0.00084,   0.00077,   0.00089,245389797.96092,   0.00000,274640135.82653,   0.00000,   0.00000,   0.00000,-229250337.86561,   0.00000
-138949229.41314,112078512.71839,69010027.54876,  -0.00085,   0.00078,   0.00090,248452925.22026,   0.00000,274640135.82653,   0.00000,   0.00000,   0.00000,-226187210.60627,   0.00000
-141802045.69026,112118693.22933,69924134.17277,  -0.00086,   0.00079,   0.00091,251486053.71446,   0.00000,274640135.82653,   0.00000,   0.00000,   0.00000,-223154082.11207,   0.00000
-144654861.96739,112158873.74028,70828195.66904,  -0.00088,   0.00079,   0.00092,254516931.37001,   0.00000,274640135.82653,   0.00000,   0.00000,   0.00000,-220123204.45652,   0.00000
-147537813.62772,112128738.35707,71742302.29305,  -0.00089,   0.00080,   0.00093,257535168.72955,   0.00000,274640135.82653,   0.00000,   0.00000,   0.00000,-217104967.09698,   0.00000
-150420765.28806,112098602.97386,72646363.78932,  -0.00090,   0.00080,   0.00094,260551230.24276,   0.00000,274640135.82653,   0.00000,   0.00000,   0.00000,-214088905.58377,   0.00000
-153333852.33160,111998151.69650,73540380.15786,  -0.00092,   0.00081,   0.00096,263538473.18600,   0.00000,274640135.82653,   0.00000,   0.00000,   0.00000,-211101662.64053,   0.00000
-156297165.01382,111847474.78045,74444441.65413,  -0.00093,   0.00081,   0.00097,266544610.35228,   0.00000,274640135.82653,   0.00000,   0.00000,   0.00000,-208095525.47425,   0.00000
-159260477.69605,111696797.86441,75338458.02267,  -0.00094,   0.00082,   0.00098,269548900.13843,   0.00000,274640135.82653,   0.00000,   0.00000,   0.00000,-205091235.68810,   0.00000
-162218767.81441,111490872.74581,76232474.39120,  -0.00096,   0.00082,   0.00099,272516468.84480,   0.00000,274640135.82653,   0.00000,   0.00000,   0.00000,-202123666.98173,   0.00000
-165227283.57144,111234721.98853,77116445.63200,  -0.00097,   0.00083,   0.00100,275486965.43756,   0.00000,274640135.82653,   0.00000,   0.00000,   0.00000,-199153170.38897,   0.00000
-168235799.32848,110978571.23126,78000416.87280,  -0.00098,   0.00083,   0.00101,278464164.99191,   0.00000,274640135.82653,   0.00000,   0.00000,   0.00000,-196175970.83462,   0.00000
-171274450.46873,110652104.57982,78884388.11360,  -0.00100,   0.00084,   0.00103,281423069.59558,   0.00000,274640135.82653,   0.00000,   0.00000,   0.00000,-193217066.23095,   0.00000
-174328169.30058,110290479.98132,79758314.22666,  -0.00101,   0.00084,   0.00104,284368078.58384,   0.00000,274640135.82653,   0.00000,   0.00000,   0.00000,-190272057.24269,   0.00000
-177417046.07951,109913787.69120,80642285.46746,  -0.00102,   0.00085,   0.00105,287346416.57073,   0.00000,274640135.82653,   0.00000,   0.00000,   0.00000,-187293719.25580,   0.00000
-180500900.29457,109481847.19854,81506166.45279,  -0.00103,   0.00085,   0.00106,290272608.71101,   0.00000,274640135.82653,   0.00000,   0.00000,   0.00000,-184367527.11552,   0.00000
-183584754.50963,109049906.70588,82380092.56585,  -0.00105,   0.00085,   0.00107,293214228.07615,   0.00000,274640135.82653,   0.00000,   0.00000,   0.00000,-181425907.75038,   0.00000
-186733902.05498,108532582.62745,83243973.55118,  -0.00106,   0.00086,   0.00108,296149053.21537,   0.00000,274640135.82653,   0.00000,   0.00000,   0.00000,-178491082.61116,   0.00000
-189883049.60033,108015258.54903,84097809.40877,  -0.00107,   0.00086,   0.00109,299082697.49963,   0.00000,274640135.82653,   0.00000,   0.00000,   0.00000,-175557438.32690,   0.00000
-193027174.58181,107442686.26806,84961690.39410,  -0.00109,   0.00087,   0.00110,301990472.73582,   0.00000,274640135.82653,   0.00000,   0.00000,   0.00000,-172649663.09071,   0.00000
-196206457.51037,106855046.29548,85815526.25169,  -0.00110,   0.00087,   0.00112,304915625.42100,   0.00000,274640135.82653,   0.00000,   0.00000,   0.00000,-169724510.40553,   0.00000
-199415875.82213,106197090.42875,86659316.98154,  -0.00111,   0.00087,   0.00113,307817171.38940,   0.00000,274640135.82653,   0.00000,   0.00000,   0.00000,-166822964.43713,   0.00000
-202625294.13390,105539134.56202,87513152.83913,  -0.00113,   0.00088,   0.00114,310734730.42090,   0.00000,274640135.82653,   0.00000,   0.00000,   0.00000,-163905405.40563,   0.00000
-205849780.13727,104846020.74821,88346898.44125,  -0.00114,   0.00088,   0.00115,313631748.64982,   0.00000,274640135.82653,   0.00000,   0.00000,   0.00000,-161008387.17671,   0.00000
-209089333.83224,104117748.98733,89190689.17110,  -0.00115,   0.00088,   0.00116,316533889.27083,   0.00000,274640135.82653,   0.00000,   0.00000,   0.00000,-158106246.55570,   0.00000
-212343955.21882,103354319.27936,90024434.77322,  -0.00117,   0.00088,   0.00117,319424376.25378,   0.00000,274640135.82653,   0.00000,   0.00000,   0.00000,-155215759.57275,   0.00000
-215613644.29700,102555731.62432,90858180.37534,  -0.00118,   0.00089,   0.00118,322311904.15256,   0.00000,274640135.82653,   0.00000,   0.00000,   0.00000,-152328231.67396,   0.00000
-218898401.06679,101721986.02220,91681880.84972,  -0.00119,   0.00089,   0.00119,325188182.98321,   0.00000,274640135.82653,   0.00000,   0.00000,   0.00000,-149451952.84331,   0.00000
-222183157.83658,100888240.42009,92505581.32410,  -0.00121,   0.00089,   0.00120,328072108.31574,   0.00000,274640135.82653,   0.00000,   0.00000,   0.00000,-146568027.51079,   0.00000
-225533207.93666,99969111.23221,93329281.79848,  -0.00122,   0.00089,   0.00121,330962943.47947,   0.00000,274640135.82653,   0.00000,   0.00000,   0.00000,-143677192.34706,   0.00000
-228848100.08965,99065049.73594,94142937.14512,  -0.00123,   0.00090,   0.00122,333833586.16849,   0.00000,274640135.82653,   0.00000,   0.00000,   0.00000,-140806549.65804,   0.00000
-232193127.62586,98090672.34551,94956592.49177,  -0.00125,   0.00090,   0.00123,336692251.01514,   0.00000,274640135.82653,   0.00000,   0.00000,   0.00000,-137947884.81139,   0.00000
-235573313.10914,97101227.26348,95760202.71068,  -0.00126,   0.00090,   0.00124,339570230.24447,   0.00000,274640135.82653,   0.00000,   0.00000,   0.00000,-135069905.58206,   0.00000
-238933408.33695,96091691.92598,96563812.92959,  -0.00127,   0.00090,   0.00126,342426652.35631,   0.00000,274640135.82653,   0.00000,   0.00000,   0.00000,-132213483.47022,   0.00000
-242308571.25637,95046998.64140,97367423.14849,  -0.00129,   0.00090,   0.00127,345281513.21752,   0.00000,274640135.82653,   0.00000,   0.00000,   0.00000,-129358622.60901,   0.00000
-245718892.12286,93987237.66521,98160988.23967,  -0.00130,   0.00091,   0.00128,348155932.79359,   0.00000,274640135.82653,   0.00000,   0.00000,   0.00000,-126484203.03294,   0.00000
-249124190.42549,92872228.48648,98954553.33084,  -0.00131,   0.00091,   0.00129,350999775.90964,   0.00000,274640135.82653,   0.00000,   0.00000,   0.00000,-123640359.91689,   0.00000
-252564646.67519,91742151.61614,99748118.42201,  -0.00133,   0.00091,   0.00130,353872022.95133,   0.00000,274640135.82653,   0.00000,   0.00000,   0.00000,-120768112.87520,   0.00000
-255985012.66942,90591984.49032,100531638.38545,  -0.00134,   0.00091,   0.00131,356714529.57813,   0.00000,274640135.82653,   0.00000,   0.00000,   0.00000,-117925606.24840,   0.00000
-259420446.35525,89406659.41743,101305113.22115,  -0.00135,   0.00091,   0.00132,359547788.37144,   0.00000,274640135.82653,   0.00000,   0.00000,   0.00000,-115092347.45509,   0.00000
-262906105.67977,88171108.70586,102088633.18458,  -0.00137,   0.00091,   0.00133,362409650.41502,   0.00000,274640135.82653,   0.00000,   0.00000,   0.00000,-112230485.41151,   0.00000
-266371674.74881,86915467.73882,102852062.89254,  -0.00138,   0.00091,   0.00134,365233660.64434,   0.00000,274640135.82653,   0.00000,   0.00000,   0.00000,-109406475.18219,   0.00000
-269872401.76493,85644759.08017,103625537.72824,  -0.00139,   0.00092,   0.00135,368095165.72786,   0.00000,274640135.82653,   0.00000,   0.00000,   0.00000,-106544970.09867,   0.00000
-273353038.52558,84353960.16605,104388967.43621,  -0.00141,   0.00092,   0.00136,370927290.93059,   0.00000,274640135.82653,   0.00000,   0.00000,   0.00000,-103712844.89594,   0.00000
-276883900.92491,83012935.61324,105142352.01643,  -0.00142,   0.00092,   0.00137,373772029.54874,   0.00000,274640135.82653,   0.00000,   0.00000,   0.00000,-100868106.27779,   0.00000
-280394673.06876,81651820.80497,105895736.59666,  -0.00144,   0.00092,   0.00138,376596135.42126,   0.00000,274640135.82653,   0.00000,   0.00000,   0.00000,-98044000.40527,   0.00000
-283905445.21262,80290705.99669,106649121.17689,  -0.00145,   0.00092,   0.00139,379428482.15000,   0.00000,274640135.82653,   0.00000,   0.00000,   0.00000,-95211653.67653,   0.00000
-287466442.99516,78879365.54973,107392460.62938,  -0.00146,   0.00092,   0.00140,382274119.70758,   0.00000,274640135.82653,   0.00000,   0.00000,   0.00000,-92366016.11894,   0.00000
-291007350.52222,77447934.84730,108135800.08187,  -0.00148,   0.00092,   0.00141,385099250.54646,   0.00000,274640135.82653,   0.00000,   0.00000,   0.00000,-89540885.28007,   0.00000
-294563325.74089,75981346.19779,108879139.53436,  -0.00149,   0.00092,   0.00142,387925298.15556,   0.00000,274640135.82653,   0.00000,   0.00000,   0.00000,-86714837.67097,   0.00000
-298119300.95956,74514757.54829,109612433.85911,  -0.00150,   0.00092,   0.00142,390751213.81528,   0.00000,274640135.82653,   0.00000,   0.00000,   0.00000,-83888922.01125,   0.00000
-301725501.81691,72997943.26010,110335683.05613,  -0.00152,   0.00092,   0.00143,393591422.79147,   0.00000,274640135.82653,   0.00000,   0.00000,   0.00000,-81048713.03506,   0.00000
-305311612.41879,71461038.71643,111058932.25315,  -0.00153,   0.00092,   0.00144,396411408.75038,   0.00000,274640135.82653,   0.00000,   0.00000,   0.00000,-78228727.07615,   0.00000
-308912790.71227,69888976.22569,111782181.45016,  -0.00154,   0.00092,   0.00145,399232949.81589,   0.00000,274640135.82653,   0.00000,   0.00000,   0.00000,-75407186.01064,   0.00000
-312513969.00576,68316913.73495,112495385.51945,  -0.00156,   0.00092,   0.00146,402054482.22479,   0.00000,274640135.82653,   0.00000,   0.00000,   0.00000,-72585653.60174,   0.00000
-316130214.99085,66709693.29714,113208589.58873,  -0.00157,   0.00092,   0.00147,404877759.28539,   0.00000,274640135.82653,   0.00000,   0.00000,   0.00000,-69762376.54114,   0.00000
-319746460.97593,65102472.85932,113911748.53027,  -0.00158,   0.00092,   0.00148,407700963.86476,   0.00000,274640135.82653,   0.00000,   0.00000,   0.00000,-66939171.96177,   0.00000
-323357684.39715,63440004.21895,114614907.47182,  -0.00159,   0.00092,   0.00149,410497710.22589,   0.00000,274640135.82653,   0.00000,   0.00000,   0.00000,-64142425.60064,   0.00000
-327004065.76545,61762467.88698,115318066.41336,  -0.00161,   0.00092,   0.00150,413325064.44846,   0.00000,274640135.82653,   0.00000,   0.00000,   0.00000,-61315071.37807,   0.00000
-330650447.13375,60084931.55501,116011180.22717,  -0.00162,   0.00092,   0.00151,416152386.13696,   0.00000,274640135.82653,   0.00000,   0.00000,   0.00000,-58487749.68957,   0.00000
-334276738.24657,58387304.96757,116704294.04098,  -0.00163,   0.00092,   0.00152,418959675.52560,   0.00000,274640135.82653,   0.00000,   0.00000,   0.00000,-55680460.30093,   0.00000
-337953254.99808,56639452.74144,117387362.72705,  -0.00165,   0.00092,   0.00153,421783470.95395,   0.00000,274640135.82653,   0.00000,   0.00000,   0.00000,-52856664.87258,   0.00000
-341609681.49411,54871510.25984,118060386.28539,  -0.00166,   0.00092,   0.00153,424579157.16770,   0.00000,274640135.82653,   0.00000,   0.00000,   0.00000,-50060978.65883,   0.00000
-345301265.93722,53088500.08664,118743454.97146,  -0.00167,   0.00091,   0.00154,427414206.22342,   0.00000,274640135.82653,   0.00000,   0.00000,   0.00000,-47225929.60311,   0.00000
-348957692.43326,51320557.60504,119416478.52980,  -0.00169,   0.00091,   0.00155,430226521.88219,   0.00000,274640135.82653,   0.00000,   0.00000,   0.00000,-44413613.94434,   0.00000
-352644254.31250,49482299.22929,120079456.96039,  -0.00170,   0.00091,   0.00156,433028110.52139,   0.00000,274640135.82653,   0.00000,   0.00000,   0.00000,-41612025.30514,   0.00000
-356330816.19174,47644040.85353,120742435.39099,  -0.00171,   0.00091,   0.00157,435838103.28284,   0.00000,274640135.82653,   0.00000,   0.00000,   0.00000,-38802032.54369,   0.00000
-360017378.07098,45805782.47778,121395368.69386,  -0.00173,   0.00091,   0.00158,438647998.45731,   0.00000,274640135.82653,   0.00000,   0.00000,   0.00000,-35992137.36922,   0.00000
-363683849.69475,43947433.84656,122048301.99672,  -0.00174,   0.00091,   0.00159,441438167.19543,   0.00000,274640135.82653,   0.00000,   0.00000,   0.00000,-33201968.63110,   0.00000
-367400546.95721,42038859.57665,122701235.29958,  -0.00175,   0.00091,   0.00160,444254777.18648,   0.00000,274640135.82653,   0.00000,   0.00000,   0.00000,-30385358.64005,   0.00000
-371117244.21966,40130285.30674,123344123.47471,  -0.00177,   0.00091,   0.00160,447071367.94478,   0.00000,274640135.82653,   0.00000,   0.00000,   0.00000,-27568767.88175,   0.00000
-374813851.22664,38201620.78136,123987011.64984,  -0.00178,   0.00090,   0.00161,449868448.19724,   0.00000,274640135.82653,   0.00000,   0.00000,   0.00000,-24771687.62928,   0.00000
-378510458.23361,36272956.25598,124619854.69723,  -0.00179,   0.00090,   0.00162,452665342.38440,   0.00000,274640135.82653,   0.00000,   0.00000,   0.00000,-21974793.44213,   0.00000
-382222132.93220,34309133.78352,125242652.61688,  -0.00181,   0.00090,   0.00163,455457738.94133,   0.00000,274640135.82653,   0.00000,   0.00000,   0.00000,-19182396.88520,   0.00000
-385948875.32239,32310153.36399,125875495.66427,  -0.00182,   0.00090,   0.00164,458262445.49551,   0.00000,274640135.82653,   0.00000,   0.00000,   0.00000,-16377690.33102,   0.00000
-389675617.71257,30311172.94445,126498293.58393,  -0.00183,   0.00090,   0.00164,461067060.33353,   0.00000,274640135.82653,   0.00000,   0.00000,   0.00000,-13573075.49300,   0.00000
-393402360.10276,28312192.52492,127111046.37584,  -0.00185,   0.00090,   0.00165,463871463.73889,   0.00000,274640135.82653,   0.00000,   0.00000,   0.00000,-10768672.08764,   0.00000
-397109012.23748,26293121.84991,127723799.16776,  -0.00186,   0.00089,   0.00166,466656445.49801,   0.00000,274640135.82653,   0.00000,   0.00000,   0.00000,-7983690.32852,   0.00000
-400865890.01087,24223825.53622,128326506.83194,  -0.00187,   0.00089,   0.00167,469461220.92025,   0.00000,274640135.82653,   0.00000,   0.00000,   0.00000,-5178914.90628,   0.00000
-404587609.83719,22169596.91414,128929214.49612,  -0.00188,   0.00089,   0.00168,472250353.45610,   0.00000,274640135.82653,   0.00000,   0.00000,   0.00000,-2389782.37042,   0.00000
-407768123.98786,20414090.45311,129444277.51647,  -0.00190,   0.00089,   0.00168,474640133.51367,   0.00000,274640135.82653,   0.00000,   0.00000,   0.00000,  -7.65298,   0.00000
-407979907.22366,20069397.67938,129418424.07326,  -0.00190,   0.00089,   0.00168,474642688.65487,   0.00000,274642694.62953,  -0.00000,   0.00000,   0.00000,  -5.97466,   1.00000
-409449414.36565,17676087.28983,129233130.79365,  -0.00191,   0.00089,   0.00169,474660233.07154,   0.00002,274660233.30169,  -0.00001,   0.00001,   0.00001,  -0.23015,   1.00000
-410927959.70487,15260314.74296,129039269.54889,  -0.00192,   0.00088,   0.00170,474677737.55693,   0.00003,274677737.84861,  -0.00002,   0.00001,   0.00002,  -0.29168,   1.00000
-412375795.18320,12873418.58466,128850364.65977,  -0.00194,   0.00088,   0.00171,474695120.05441,   0.00005,274695129.41784,  -0.00003,   0.00002,   0.00003,  -9.36343,   1.00000
-413808713.86387,10497871.93607,128659807.63200,  -0.00195,   0.00088,   0.00171,474712551.09670,   0.00007,274712557.10471,  -0.00005,   0.00002,   0.00004,  -6.00801,   1.00000
-415265803.62696,8082525.85191,128453953.24000,  -0.00196,   0.00088,   0.00172,474730097.83273,   0.00008,274730103.20505,  -0.00006,   0.00003,   0.00005,  -5.37232,   1.00000
-416692530.12775,5695987.56089,128253177.31961,  -0.00197,   0.00087,   0.00173,474747529.62454,   0.00010,274747534.41730,  -0.00007,   0.00004,   0.00006,  -4.79275,   1.00000
-418113057.84474,3303905.14534,128050439.61625,  -0.00199,   0.00087,   0.00174,474764779.72821,   0.00011,274764783.08827,  -0.00008,   0.00004,   0.00007,  -3.36007,   1.00000
-419533426.27266,906469.16973,127839402.73910,  -0.00200,   0.00087,   0.00174,474782213.48434,   0.00013,274782219.15151,  -0.00009,   0.00005,   0.00008,  -5.66716,   1.00000
-420930764.45169,-1461824.86431,127625797.76464,  -0.00201,   0.00087,   0.00175,474799485.15281,   0.00015,274799487.38328,  -0.00010,   0.00005,   0.00009,  -2.23047,   1.00000
-422329989.19909,-3853381.04058,127411275.58318,  -0.00203,   0.00086,   0.00176,474816774.54182,   0.00016,274816776.79586,  -0.00011,   0.00006,   0.00010,  -2.25404,   1.00000
-423730796.35079,-6268021.58041,127195761.08555,  -0.00204,   0.00086,   0.00177,474834083.66416,   0.00018,274834088.88093,  -0.00012,   0.00006,   0.00011,  -5.21677,   1.00000
-425106729.99539,-8635346.62736,126970453.87856,  -0.00205,   0.00086,   0.00177,474851393.18106,   0.00019,274851396.83707,  -0.00013,   0.00007,   0.00012,  -3.65601,   1.00000
-426490956.42857,-11025310.66034,126736413.81548,  -0.00206,   0.00085,   0.00178,474868670.12100,   0.00021,274868677.39180,  -0.00014,   0.00007,   0.00013,  -7.27081,   1.00000
-427862347.74017,-13421951.76706,126508170.45974,  -0.00208,   0.00085,   0.00179,474885819.10589,   0.00022,274885828.66797,  -0.00015,   0.00008,   0.00014,  -9.56208,   1.00000
-429218749.56311,-15806620.58138,126278497.93410,  -0.00209,   0.00085,   0.00179,474903004.23502,   0.00024,274903013.71584,  -0.00017,   0.00008,   0.00015,  -9.48081,   1.00000
-430567059.44269,-18178944.98087,126039632.75239,  -0.00210,   0.00085,   0.00180,474920181.61647,   0.00026,274920182.02381,  -0.00018,   0.00009,   0.00016,  -0.40734,   1.00000
-431893673.78383,-20523026.86714,125798445.68508,  -0.00211,   0.00084,   0.00181,474937176.29367,   0.00027,274937178.98168,  -0.00019,   0.00009,   0.00017,  -2.68801,   1.00000
-433228308.56605,-22906339.22744,125557276.06024,  -0.00213,   0.00084,   0.00181,474954399.74366,   0.00029,274954404.56398,  -0.00020,   0.00010,   0.00018,  -4.82032,   1.00000
-434563941.27390,-25296181.29461,125306188.74108,  -0.00214,   0.00084,   0.00182,474971399.57209,   0.00030,274971403.92850,  -0.00021,   0.00010,   0.00019,  -4.35641,   1.00000
-435848911.97692,-27623467.89259,125068300.69717,  -0.00215,   0.00083,   0.00183,474988327.37415,   0.00032,274988334.43954,  -0.00022,   0.00011,   0.00020,  -7.06539,   1.00000
-437161934.65614,-29989017.57269,124806825.71628,  -0.00216,   0.00083,   0.00183,475005339.53092,   0.00033,275005348.22996,  -0.00023,   0.00011,   0.00021,  -8.69904,   1.00000
-438440280.16197,-32327092.82006,124558883.07620,  -0.00217,   0.00083,   0.00184,475022280.13581,   0.00035,275022286.37091,  -0.00024,   0.00012,   0.00022,  -6.23510,   1.00000
-439726324.64094,-34687965.60104,124301987.79103,  -0.00219,   0.00082,   0.00185,475039194.61783,   0.00036,275039203.56350,  -0.00025,   0.00012,   0.00023,  -8.94567,   1.00000
-441004580.91090,-37036530.59600,124036057.21702,  -0.00220,   0.00082,   0.00185,475056097.52842,   0.00038,275056102.61196,  -0.00027,   0.00013,   0.00024,  -5.08355,   1.00000
-442268249.42110,-39372848.58651,123769030.66929,  -0.00221,   0.00082,   0.00186,475073029.85035,   0.00040,275073031.20468,  -0.00028,   0.00013,   0.00025,  -1.35433,   1.00000
-443504867.75824,-41681948.03524,123507816.75294,  -0.00222,   0.00081,   0.00186,475089831.57212,   0.00041,275089832.75934,  -0.00029,   0.00014,   0.00026,  -1.18722,   1.00000
-444749022.84236,-44013958.86672,123237620.57710,  -0.00224,   0.00081,   0.00187,475106609.16627,   0.00043,275106615.25023,  -0.00030,   0.00014,   0.00027,  -6.08396,   1.00000
-445985672.91967,-46333768.15816,122958498.19750,  -0.00225,   0.00081,   0.00188,475123371.96499,   0.00044,275123378.34633,  -0.00031,   0.00015,   0.00028,  -6.38134,   1.00000
-447195792.23692,-48626697.11380,122685305.13889,  -0.00226,   0.00080,   0.00188,475140011.17356,   0.00046,275140012.75458,  -0.00032,   0.00015,   0.00029,  -1.58102,   1.00000
-448406387.16669,-50942475.44605,122411012.76551,  -0.00227,   0.00080,   0.00189,475156669.55984,   0.00047,275156677.29002,  -0.00033,   0.00016,   0.00030,  -7.73017,   1.00000
-449595344.32464,-53211159.43633,122128029.76307,  -0.00228,   0.00080,   0.00189,475173314.21250,   0.00049,275173317.65150,  -0.00034,   0.00016,   0.00031,  -3.43901,   1.00000
-450784704.92981,-55502672.25617,121843991.76950,  -0.00230,   0.00079,   0.00190,475189978.93621,   0.00050,275189988.22230,  -0.00035,   0.00016,   0.00032,  -9.28609,   1.00000
-451955193.57380,-57767956.64407,121558060.38245,  -0.00231,   0.00079,   0.00191,475206472.93314,   0.00052,275206480.80986,  -0.00036,   0.00017,   0.00033,  -7.87672,   1.00000
-453125955.31767,-60056040.48173,121271031.93864,  -0.00232,   0.00078,   0.00191,475222998.42011,   0.00053,275223004.74841,  -0.00038,   0.00017,   0.00034,  -6.32829,   1.00000
-454257368.03229,-62282934.62055,120990399.32474,  -0.00233,   0.00078,   0.00192,475239380.30091,   0.00055,275239389.98207,  -0.00039,   0.00018,   0.00035,  -9.68116,   1.00000
-455407577.53699,-64546914.20374,120693791.65375,  -0.00234,   0.00078,   0.00192,475255916.33098,   0.00056,275255917.24776,  -0.00040,   0.00018,   0.00035,  -0.91679,   1.00000
-456539598.43248,-66785236.91747,120395390.10976,  -0.00236,   0.00077,   0.00193,475272256.12541,   0.00058,275272265.20225,  -0.00041,   0.00019,   0.00036,  -9.07684,   1.00000
-457653588.75151,-69032311.04636,120110782.33128,  -0.00237,   0.00077,   0.00193,475288525.50010,   0.00059,275288534.36289,  -0.00042,   0.00019,   0.00037,  -8.86280,   1.00000
-458754547.99660,-71233194.20382,119809891.34469,  -0.00238,   0.00076,   0.00194,475304725.04152,   0.00061,275304725.38375,  -0.00043,   0.00019,   0.00038,  -0.34223,   1.00000
-459855689.59510,-73456974.70368,119507919.40289,  -0.00239,   0.00076,   0.00195,475320947.38997,   0.00062,275320949.12650,  -0.00044,   0.00020,   0.00039,  -1.73653,   1.00000
-460930310.36673,-75633733.65247,119205842.04427,  -0.00240,   0.00076,   0.00195,475337175.78874,   0.00064,275337183.81476,  -0.00045,   0.00020,   0.00040,  -8.02603,   1.00000
-461994355.82071,-77820226.78922,118909608.60235,  -0.00241,   0.00075,   0.00196,475353291.79075,   0.00065,275353293.38083,  -0.00046,   0.00021,   0.00041,  -1.59008,   1.00000
-463052396.46938,-79995272.08269,118604771.09439,  -0.00242,   0.00075,   0.00196,475369370.24441,   0.00067,275369378.86951,  -0.00047,   0.00021,   0.00042,  -8.62509,   1.00000
-464117349.52162,-82193707.59968,118290786.38455,  -0.00244,   0.00075,   0.00197,475385448.25002,   0.00068,275385453.31799,  -0.00048,   0.00021,   0.00043,  -5.06798,   1.00000
-465146036.92522,-84332423.58921,117983847.59171,  -0.00245,   0.00074,   0.00197,475401373.15377,   0.00070,275401376.39810,  -0.00050,   0.00022,   0.00044,  -3.24433,   1.00000
-466162232.32140,-86459338.02521,117676476.53130,  -0.00246,   0.00074,   0.00198,475417317.04076,   0.00071,275417318.56536,  -0.00051,   0.00022,   0.00045,  -1.52461,   1.00000
-467185432.70865,-88609858.41667,117359946.31577,  -0.00247,   0.00073,   0.00198,475433246.09757,   0.00073,275433250.46182,  -0.00052,   0.00023,   0.00046,  -4.36425,   1.00000
-468185871.11796,-90735961.67453,117049927.13136,  -0.00248,   0.00073,   0.00199,475449035.88244,   0.00074,275449043.18782,  -0.00053,   0.00023,   0.00046,  -7.30538,   1.00000
-469180873.86676,-92850986.65655,116731442.11183,  -0.00249,   0.00073,   0.00199,475464803.95407,   0.00076,275464810.18494,  -0.00054,   0.00023,   0.00047,  -6.23087,   1.00000
-470163582.36286,-94954206.03119,116412634.95526,  -0.00250,   0.00072,   0.00200,475480588.96965,   0.00077,275480594.99355,  -0.00055,   0.00024,   0.00048,  -6.02390,   1.00000
-471131169.35143,-97034354.66937,116092336.04062,  -0.00252,   0.00072,   0.00200,475496190.52103,   0.00078,275496194.97721,  -0.00056,   0.00024,   0.00049,  -4.45618,   1.00000
-472077080.33008,-99090945.64250,115778674.71961,  -0.00253,   0.00071,   0.00201,475511646.05583,   0.00080,275511653.27604,  -0.00057,   0.00024,   0.00050,  -7.22020,   1.00000
-473020961.11339,-101147948.72148,115457872.93879,  -0.00254,   0.00071,   0.00201,475527284.74291,   0.00081,275527285.98341,  -0.00058,   0.00025,   0.00051,  -1.24050,   1.00000
-473962126.39508,-103217057.61733,115134740.84265,  -0.00255,   0.00071,   0.00201,475542750.73676,   0.00083,275542752.94922,  -0.00059,   0.00025,   0.00052,  -2.21246,   1.00000
-474870469.74490,-105228406.45114,114819196.43527,  -0.00256,   0.00070,   0.00202,475558052.57418,   0.00084,275558056.62319,  -0.00060,   0.00025,   0.00053,  -4.04901,   1.00000
-475788375.58567,-107274518.33768,114495665.45928,  -0.00257,   0.00070,   0.00202,475573552.70484,   0.00086,275573554.73306,  -0.00061,   0.00026,   0.00054,  -2.02822,   1.00000
-476687794.22176,-109265091.00846,114163516.20609,  -0.00258,   0.00069,   0.00203,475588796.49593,   0.00087,275588801.98146,  -0.00063,   0.00026,   0.00054,  -5.48553,   1.00000
-477571276.74204,-111266660.16903,113845358.91225,  -0.00259,   0.00069,   0.00203,475603963.73035,   0.00088,275603969.45797,  -0.00064,   0.00026,   0.00055,  -5.72761,   1.00000
-478450498.57072,-113258000.35447,113518900.22533,  -0.00260,   0.00068,   0.00204,475619101.39863,   0.00090,275619108.67275,  -0.00065,   0.00027,   0.00056,  -7.27411,   1.00000
-479307625.87846,-115203746.30092,113193426.37409,  -0.00261,   0.00068,   0.00204,475634234.02667,   0.00091,275634237.37802,  -0.00066,   0.00027,   0.00057,  -3.35135,   1.00000
-480162905.09269,-117162977.88741,112865543.69932,  -0.00262,   0.00068,   0.00205,475649194.09834,   0.00093,275649202.41037,  -0.00067,   0.00027,   0.00058,  -8.31203,   1.00000
-481007414.72444,-119111189.91400,112537650.61290,  -0.00263,   0.00067,   0.00205,475664179.30485,   0.00094,275664179.97294,  -0.00068,   0.00028,   0.00059,  -0.66809,   1.00000
-481832530.46176,-121037678.84575,112216606.44082,  -0.00264,   0.00067,   0.00205,475679005.54403,   0.00095,275679011.27578,  -0.00069,   0.00028,   0.00060,  -5.73175,   1.00000
-482643481.47215,-122920232.03833,111888498.45504,  -0.00266,   0.00066,   0.00206,475693780.88970,   0.00097,275693786.57436,  -0.00070,   0.00028,   0.00060,  -5.68466,   1.00000
-483454758.71038,-124826405.56558,111559328.55699,  -0.00267,   0.00066,   0.00206,475708594.44307,   0.00098,275708599.14452,  -0.00071,   0.00028,   0.00061,  -4.70145,   1.00000
-484254102.05790,-126712586.99689,111228826.65806,  -0.00268,   0.00066,   0.00207,475723218.54931,   0.00099,275723223.18649,  -0.00072,   0.00029,   0.00062,  -4.63718,   1.00000
-485043326.92369,-128588155.59485,110898435.46388,  -0.00269,   0.00065,   0.00207,475737853.15527,   0.00101,275737857.72675,  -0.00073,   0.00029,   0.00063,  -4.57147,   1.00000
-485814260.47651,-130442966.32742,110574984.27883,  -0.00270,   0.00065,   0.00207,475752342.47527,   0.00102,275752343.97541,  -0.00074,   0.00029,   0.00064,  -1.50015,   1.00000
-486582195.94673,-132288604.05343,110243388.21283,  -0.00271,   0.00064,   0.00208,475766794.39578,   0.00103,275766799.54231,  -0.00075,   0.00030,   0.00064,  -5.14653,   1.00000
-487322368.23958,-134079877.83494,109920048.51584,  -0.00272,   0.00064,   0.00208,475781075.52134,   0.00105,275781076.46327,  -0.00076,   0.00030,   0.00065,  -0.94193,   1.00000
-488069855.31368,-135896438.00477,109587323.27961,  -0.00273,   0.00063,   0.00208,475795349.87686,   0.00106,275795351.73841,  -0.00077,   0.00030,   0.00066,  -1.86155,   1.00000
-488807840.19606,-137702792.28123,109254817.33650,  -0.00274,   0.00063,   0.00209,475809630.51301,   0.00107,275809635.69854,  -0.00078,   0.00030,   0.00067,  -5.18553,   1.00000
-489528549.35256,-139489336.82495,108929317.16496,  -0.00275,   0.00063,   0.00209,475823760.88957,   0.00109,275823769.80507,  -0.00079,   0.00031,   0.00068,  -8.91550,   1.00000
-490237345.60902,-141233353.99213,108597102.82791,  -0.00276,   0.00062,   0.00210,475837832.63306,   0.00110,275837840.55663,  -0.00080,   0.00031,   0.00068,  -7.92357,   1.00000
-490938906.17099,-142992032.04809,108270564.53490,  -0.00277,   0.00062,   0.00210,475851788.32371,   0.00111,275851792.42847,  -0.00081,   0.00031,   0.00069,  -4.10476,   1.00000
-491631527.34229,-144740883.13582,107944289.19166,  -0.00278,   0.00061,   0.00210,475865747.02345,   0.00113,275865751.73283,  -0.00082,   0.00031,   0.00070,  -4.70938,   1.00000
-492305294.30837,-146438399.73208,107618117.33392,  -0.00279,   0.00061,   0.00211,475879486.61135,   0.00114,275879487.84249,  -0.00083,   0.00032,   0.00071,  -1.23114,   1.00000
-492970601.38482,-148126511.44245,107292281.01924,  -0.00280,   0.00061,   0.00211,475893225.93828,   0.00115,275893230.09718,  -0.00084,   0.00032,   0.00071,  -4.15891,   1.00000
-493635795.52754,-149831378.34868,106963680.59403,  -0.00281,   0.00060,   0.00211,475906814.21524,   0.00116,275906815.92199,  -0.00085,   0.00032,   0.00072,  -1.70675,   1.00000
-494276958.44379,-151491689.73022,106645267.60523,  -0.00281,   0.00060,   0.00212,475920404.46294,   0.00118,275920411.88538,  -0.00086,   0.00032,   0.00073,  -7.42244,   1.00000
-494923401.98170,-153145793.46146,106310453.99631,  -0.00282,   0.00059,   0.00212,475933933.09540,   0.00119,275933936.42938,  -0.00087,   0.00033,   0.00074,  -3.33398,   1.00000
-495547828.85058,-154780517.61139,105991141.57137,  -0.00283,   0.00059,   0.00212,475947345.96874,   0.00120,275947346.57788,  -0.00088,   0.00033,   0.00074,  -0.60914,   1.00000
-496163914.28286,-156399170.53301,105670483.97359,  -0.00284,   0.00059,   0.00213,475960564.84470,   0.00121,275960566.10217,  -0.00089,   0.00033,   0.00075,  -1.25747,   1.00000
-496779315.11838,-158017458.40918,105343559.67045,  -0.00285,   0.00058,   0.00213,475973945.73490,   0.00123,275973947.78203,  -0.00090,   0.00033,   0.00076,  -2.04713,   1.00000
-497379575.24317,-159611561.41335,105021963.46925,  -0.00286,   0.00058,   0.00213,475986974.84178,   0.00124,275986981.43308,  -0.00091,   0.00033,   0.00077,  -6.59130,   1.00000
-497972308.92657,-161196998.23774,104700787.65463,  -0.00287,   0.00057,   0.00213,476000016.91233,   0.00125,276000019.38319,  -0.00092,   0.00034,   0.00077,  -2.47086,   1.00000
-498549401.96004,-162740443.98971,104381656.63725,  -0.00288,   0.00057,   0.00214,476013022.93730,   0.00126,276013023.47915,  -0.00093,   0.00034,   0.00078,  -0.54184,   1.00000
-499127197.90499,-164302296.38686,104059551.76945,  -0.00289,   0.00057,   0.00214,476025871.59200,   0.00127,276025874.88838,  -0.00094,   0.00034,   0.00079,  -3.29637,   1.00000
-499689736.82376,-165822421.73225,103739546.46725,  -0.00290,   0.00056,   0.00214,476038682.10995,   0.00129,276038691.26011,  -0.00095,   0.00034,   0.00080,  -9.15016,   1.00000
-500246504.77022,-167359619.83537,103424979.46869,  -0.00291,   0.00056,   0.00215,476051386.04802,   0.00130,276051392.71138,  -0.00096,   0.00034,   0.00080,  -6.66336,   1.00000
-500795033.88652,-168857016.97123,103104066.23342,  -0.00292,   0.00055,   0.00215,476064016.73655,   0.00131,276064021.30008,  -0.00097,   0.00035,   0.00081,  -4.56353,   1.00000
-501330203.96063,-170338638.47695,102790245.19841,  -0.00292,   0.00055,   0.00215,476076489.98372,   0.00132,276076495.72922,  -0.00098,   0.00035,   0.00082,  -5.74550,   1.00000
-501851137.61718,-171779271.48356,102478625.61509,  -0.00293,   0.00055,   0.00215,476088926.30461,   0.00133,276088932.23598,  -0.00098,   0.00035,   0.00082,  -5.93138,   1.00000
-502366787.43080,-173237736.98293,102172372.51686,  -0.00294,   0.00054,   0.00216,476101248.00906,   0.00134,276101254.71485,  -0.00099,   0.00035,   0.00083,  -6.70579,   1.00000
-502876196.71936,-174682745.69504,101864637.47917,  -0.00295,   0.00054,   0.00216,476113378.50259,   0.00136,276113386.99297,  -0.00100,   0.00035,   0.00084,  -8.49038,   1.00000
-503378284.34979,-176094560.31274,101552611.33826,  -0.00296,   0.00053,   0.00216,476125626.57557,   0.00137,276125636.29025,  -0.00101,   0.00035,   0.00084,  -9.71469,   1.00000
-503868231.48191,-177486119.95420,101245659.18059,  -0.00297,   0.00053,   0.00217,476137533.29047,   0.00138,276137538.63907,  -0.00102,   0.00036,   0.00085,  -5.34860,   1.00000
-504352231.22243,-178870463.16678,100939234.35768,  -0.00298,   0.00053,   0.00217,476149436.24112,   0.00139,276149442.53317,  -0.00103,   0.00036,   0.00086,  -6.29206,   1.00000
-504830340.79922,-180247607.21755,100633349.12811,  -0.00298,   0.00052,   0.00217,476161343.23300,   0.00140,276161347.73530,  -0.00104,   0.00036,   0.00086,  -4.50231,   1.00000
-505296523.50165,-181610569.95045,100334493.24306,  -0.00299,   0.00052,   0.00217,476173096.42239,   0.00141,276173098.08205,  -0.00105,   0.00036,   0.00087,  -1.65966,   1.00000
-505756582.23824,-182935557.79938,100029417.31800,  -0.00300,   0.00052,   0.00218,476184763.81458,   0.00142,276184771.13207,  -0.00106,   0.00036,   0.00087,  -7.31748,   1.00000
-506205162.82882,-184246905.63337,99731383.82601,  -0.00301,   0.00051,   0.00218,476196284.11269,   0.00143,276196288.85515,  -0.00106,   0.00036,   0.00088,  -4.74246,   1.00000
-506655106.30554,-185584224.28078,99432068.91735,  -0.00302,   0.00051,   0.00218,476207848.68934,   0.00144,276207851.23413,  -0.00107,   0.00036,   0.00089,  -2.54479,   1.00000
-507093455.93087,-186877247.54812,99132999.15466,  -0.00302,   0.00050,   0.00218,476219176.39806,   0.00145,276219179.83328,  -0.00108,   0.00037,   0.00089,  -3.43522,   1.00000
-507507784.73904,-188122745.54946,98851364.83384,  -0.00303,   0.00050,   0.00218,476230341.43101,   0.00146,276230342.99806,  -0.00109,   0.00037,   0.00090,  -1.56704,   1.00000
-507930142.34035,-189396439.32757,98559793.35186,  -0.00304,   0.00050,   0.00219,476241513.24525,   0.00147,276241517.00153,  -0.00110,   0.00037,   0.00091,  -3.75628,   1.00000
-508347455.25306,-190633147.71885,98262049.73848,  -0.00305,   0.00049,   0.00219,476252609.43970,   0.00149,276252611.68827,  -0.00111,   0.00037,   0.00091,  -2.24857,   1.00000
-508747818.09172,-191855467.09335,97979901.77825,  -0.00306,   0.00049,   0.00219,476263578.12813,   0.00150,276263585.01531,  -0.00111,   0.00037,   0.00092,  -6.88718,   1.00000
-509144228.28883,-193067394.79701,97696055.51195,  -0.00306,   0.00049,   0.00219,476274366.50491,   0.00151,276274369.16924,  -0.00112,   0.00037,   0.00092,  -2.66432,   1.00000
-509536012.58706,-194273406.97721,97412752.04934,  -0.00307,   0.00048,   0.00220,476285146.13019,   0.00152,276285153.24761,  -0.00113,   0.00037,   0.00093,  -7.11742,   1.00000
-509923487.14476,-195443128.95256,97123293.80501,  -0.00308,   0.00048,   0.00220,476295853.58395,   0.00153,276295856.74456,  -0.00114,   0.00037,   0.00093,  -3.16061,   1.00000
-510300697.67149,-196631480.38809,96847480.59226,  -0.00309,   0.00048,   0.00220,476306480.10352,   0.00154,276306485.23573,  -0.00115,   0.00038,   0.00094,  -5.13221,   1.00000
-510668419.84777,-197777830.03023,96571816.64907,  -0.00309,   0.00047,   0.00220,476316869.79523,   0.00155,276316878.20819,  -0.00116,   0.00038,   0.00095,  -8.41296,   1.00000
-511032415.35158,-198888490.13019,96289997.34557,  -0.00310,   0.00047,   0.00220,476327184.10343,   0.00155,276327189.80465,  -0.00116,   0.00038,   0.00095,  -5.70122,   1.00000
-511386481.24899,-200018297.79942,96021774.49648,  -0.00311,   0.00047,   0.00220,476337425.25032,   0.00156,276337426.83122,  -0.00117,   0.00038,   0.00096,  -1.58091,   1.00000
-511737076.35309,-201112639.49240,95747373.07299,  -0.00311,   0.00046,   0.00221,476347576.12236,   0.00157,276347582.24761,  -0.00118,   0.00038,   0.00096,  -6.12525,   1.00000
-512072214.70640,-202194232.50526,95488498.15564,  -0.00312,   0.00046,   0.00221,476357609.50460,   0.00158,276357615.15054,  -0.00119,   0.00038,   0.00097,  -5.64594,   1.00000
-512410884.31691,-203269202.13607,95219031.78857,  -0.00313,   0.00046,   0.00221,476367424.71205,   0.00159,276367427.71074,  -0.00119,   0.00038,   0.00097,  -2.99868,   1.00000
-512744785.41990,-204342794.28501,94952543.79472,  -0.00314,   0.00045,   0.00221,476377420.81568,   0.00160,276377425.93894,  -0.00120,   0.00038,   0.00098,  -5.12326,   1.00000
-513065409.32321,-205370560.30507,94692392.61425,  -0.00314,   0.00045,   0.00221,476387025.80485,   0.00161,276387033.70441,  -0.00121,   0.00038,   0.00098,  -7.89957,   1.00000
-513376368.69186,-206391722.75473,94441478.67911,  -0.00315,   0.00045,   0.00222,476396667.37113,   0.00162,276396672.52930,  -0.00122,   0.00038,   0.00099,  -5.15817,   1.00000
-513690169.74644,-207410317.28054,94182358.85108,  -0.00316,   0.00044,   0.00222,476406275.43495,   0.00163,276406277.97059,  -0.00122,   0.00039,   0.00099,  -2.53564,   1.00000
-513996633.60439,-208415866.47215,93927464.42457,  -0.00316,   0.00044,   0.00222,476415537.86295,   0.00164,276415543.03133,  -0.00123,   0.00039,   0.00100,  -5.16838,   1.00000
-514293505.99441,-209388383.11042,93677641.02519,  -0.00317,   0.00044,   0.00222,476424937.32947,   0.00165,276424942.19323,  -0.00124,   0.00039,   0.00100,  -4.86376,   1.00000
-514588424.47856,-210353536.38084,93425789.99387,  -0.00318,   0.00043,   0.00222,476434147.30000,   0.00165,276434154.69725,  -0.00124,   0.00039,   0.00101,  -7.39725,   1.00000
-514869136.66828,-211307406.88035,93189372.69575,  -0.00318,   0.00043,   0.00222,476443242.67873,   0.00166,276443244.11999,  -0.00125,   0.00039,   0.00101,  -1.44126,   1.00000
-515149295.74157,-212224609.62495,92944141.94222,  -0.00319,   0.00043,   0.00223,476452058.66939,   0.00167,276452065.19077,  -0.00126,   0.00039,   0.00102,  -6.52138,   1.00000
-515430312.57704,-213172508.03566,92699957.06254,  -0.00319,   0.00043,   0.00223,476461120.10742,   0.00168,276461120.29859,  -0.00127,   0.00039,   0.00102,  -0.19116,   1.00000
-515688936.20054,-214043368.21379,92472679.96320,  -0.00320,   0.00042,   0.00223,476469763.11170,   0.00169,276469765.46430,  -0.00127,   0.00039,   0.00103,  -2.35260,   1.00000
-515955940.12950,-214944320.10564,92235024.24138,  -0.00321,   0.00042,   0.00223,476478428.92981,   0.00170,276478429.32040,  -0.00128,   0.00039,   0.00103,  -0.39059,   1.00000
-516220240.49318,-215841548.04799,91997844.59398,  -0.00321,   0.00042,   0.00223,476487087.91178,   0.00170,276487091.76223,  -0.00129,   0.00039,   0.00104,  -3.85045,   1.00000
-516467645.54966,-216694173.05896,91775438.51099,  -0.00322,   0.00041,   0.00223,476495390.86426,   0.00171,276495395.47216,  -0.00129,   0.00039,   0.00104,  -4.60790,   1.00000
-516717380.23540,-217548048.26058,91547371.70895,  -0.00323,   0.00041,   0.00223,476503841.08341,   0.00172,276503850.27732,  -0.00130,   0.00039,   0.00104,  -9.19391,   1.00000
-516955393.56876,-218362455.18390,91327951.09438,  -0.00323,   0.00041,   0.00224,476512094.04047,   0.00173,276512098.56396,  -0.00130,   0.00039,   0.00105,  -4.52349,   1.00000
-517192524.69268,-219171223.79748,91106250.57767,  -0.00324,   0.00041,   0.00224,476520158.06893,   0.00173,276520162.14926,  -0.00131,   0.00039,   0.00105,  -4.08034,   1.00000
-517416704.69200,-219970280.84073,90899853.38172,  -0.00324,   0.00040,   0.00224,476528092.49734,   0.00174,276528102.44998,  -0.00132,   0.00040,   0.00106,  -9.95264,   1.00000
-517649460.33410,-220772820.44670,90678993.50477,  -0.00325,   0.00040,   0.00224,476536158.39789,   0.00175,276536162.89122,  -0.00132,   0.00040,   0.00106,  -4.49333,   1.00000
-517866449.08563,-221532198.38663,90472775.06170,  -0.00325,   0.00040,   0.00224,476543859.63524,   0.00176,276543864.46587,  -0.00133,   0.00040,   0.00106,  -4.83063,   1.00000
-518081479.64394,-222288758.41564,90266956.46282,  -0.00326,   0.00040,   0.00224,476551563.93303,   0.00176,276551564.41043,  -0.00134,   0.00040,   0.00107,  -0.47741,   1.00000
-518296008.66208,-223040359.90740,90058730.80066,  -0.00326,   0.00039,   0.00224,476559074.42035,   0.00177,276559080.79357,  -0.00134,   0.00040,   0.00107,  -6.37322,   1.00000
-518502611.04112,-223787091.47969,89859732.03849,  -0.00327,   0.00039,   0.00224,476566619.73534,   0.00178,276566625.68652,  -0.00135,   0.00040,   0.00108,  -5.95118,   1.00000
-518709184.13488,-224502037.64815,89654411.07820,  -0.00328,   0.00039,   0.00225,476574080.39704,   0.00179,276574085.27128,  -0.00135,   0.00040,   0.00108,  -4.87424,   1.00000
-518904997.51540,-225206160.49543,89461474.27535,  -0.00328,   0.00039,   0.00225,476581236.68245,   0.00179,276581239.96754,  -0.00136,   0.00040,   0.00108,  -3.28508,   1.00000
-519089080.84133,-225874556.67466,89279880.12224,  -0.00329,   0.00038,   0.00225,476588359.25346,   0.00180,276588368.85764,  -0.00136,   0.00040,   0.00109,  -9.60418,   1.00000
-519277605.19456,-226542795.68264,89089779.57544,  -0.00329,   0.00038,   0.00225,476595463.25006,   0.00181,276595466.35220,  -0.00137,   0.00040,   0.00109,  -3.10214,   1.00000
-519466092.07957,-227206889.83516,88897145.18365,  -0.00330,   0.00038,   0.00225,476602374.85579,   0.00181,276602381.33474,  -0.00137,   0.00040,   0.00109,  -6.47895,   1.00000
-519642689.28900,-227862648.28863,88719681.55686,  -0.00330,   0.00038,   0.00225,476609166.25475,   0.00182,276609173.03645,  -0.00138,   0.00040,   0.00110,  -6.78170,   1.00000
-519813945.54558,-228485212.32706,88544691.62796,  -0.00331,   0.00038,   0.00225,476615901.71094,   0.00182,276615908.57425,  -0.00139,   0.00040,   0.00110,  -6.86332,   1.00000
-519989773.99896,-229107892.54382,88361153.44127,  -0.00331,   0.00037,   0.00225,476622608.08373,   0.00183,276622613.18895,  -0.00139,   0.00040,   0.00111,  -5.10522,   1.00000
-520149631.69381,-229718744.17820,88198680.78145,  -0.00331,   0.00037,   0.00226,476629040.73852,   0.00184,276629043.49339,  -0.00140,   0.00040,   0.00111,  -2.75487,   1.00000
-520314695.33565,-230302670.01976,88023856.78684,  -0.00332,   0.00037,   0.00226,476635538.44110,   0.00184,276635539.03392,  -0.00140,   0.00040,   0.00111,  -0.59282,   1.00000
-520469920.45934,-230877272.78348,87861169.77493,  -0.00332,   0.00037,   0.00226,476641723.78429,   0.00185,276641731.35970,  -0.00141,   0.00040,   0.00112,  -7.57541,   1.00000
-520624000.96083,-231450132.51088,87698762.18043,  -0.00333,   0.00037,   0.00226,476647919.19086,   0.00185,276647922.27003,  -0.00141,   0.00040,   0.00112,  -3.07916,   1.00000
-520773285.94847,-231990383.67824,87538810.30653,  -0.00333,   0.00036,   0.00226,476654055.88312,   0.00186,276654056.26687,  -0.00142,   0.00040,   0.00112,  -0.38376,   1.00000
-520920870.75065,-232556232.20685,87382842.56405,  -0.00334,   0.00036,   0.00226,476660091.95852,   0.00187,276660093.86086,  -0.00142,   0.00040,   0.00112,  -1.90234,   1.00000
-521055995.96982,-233055179.49756,87237375.45987,  -0.00334,   0.00036,   0.00226,476665866.18835,   0.00187,276665868.07313,  -0.00142,   0.00040,   0.00113,  -1.88478,   1.00000
-521193751.00301,-233583512.50272,87089965.39762,  -0.00335,   0.00036,   0.00226,476671692.63847,   0.00188,276671696.83055,  -0.00143,   0.00040,   0.00113,  -4.19209,   1.00000
-521328703.00799,-234078230.86787,86941938.29741,  -0.00335,   0.00036,   0.00226,476677287.21873,   0.00188,276677289.23663,  -0.00143,   0.00040,   0.00113,  -2.01790,   1.00000
-521456905.81610,-234569394.13309,86803062.86052,  -0.00335,   0.00035,   0.00226,476682902.97573,   0.00189,276682908.99521,  -0.00144,   0.00041,   0.00114,  -6.01948,   1.00000
-521582503.28646,-235027214.80976,86663536.85950,  -0.00336,   0.00035,   0.00227,476688286.26040,   0.00189,276688292.45791,  -0.00144,   0.00041,   0.00114,  -6.19751,   1.00000
-521697338.90702,-235478213.38246,86538994.58413,  -0.00336,   0.00035,   0.00227,476693547.11298,   0.00190,276693552.94124,  -0.00145,   0.00041,   0.00114,  -5.82826,   1.00000
-521817287.96760,-235930243.61035,86405718.76788,  -0.00336,   0.00035,   0.00227,476698779.84844,   0.00190,276698783.87607,  -0.00145,   0.00041,   0.00114,  -4.02763,   1.00000
-521933143.29019,-236350433.09170,86274847.79612,  -0.00337,   0.00035,   0.00227,476703951.01425,   0.00191,276703957.14389,  -0.00145,   0.00041,   0.00115,  -6.12965,   1.00000
-522034305.84687,-236760701.29665,86164755.99216,  -0.00337,   0.00035,   0.00227,476708855.94024,   0.00191,276708857.43255,  -0.00146,   0.00041,   0.00115,  -1.49231,   1.00000
-522144776.63714,-237175484.97146,86040072.83159,  -0.00338,   0.00035,   0.00227,476713876.67579,   0.00192,276713878.43789,  -0.00146,   0.00041,   0.00115,  -1.76210,   1.00000
-522246448.82345,-237582697.56056,85927194.62812,  -0.00338,   0.00034,   0.00227,476718595.94097,   0.00192,276718598.56266,  -0.00147,   0.00041,   0.00115,  -2.62169,   1.00000
-522348364.30714,-237961603.89672,85810876.69584,  -0.00338,   0.00034,   0.00227,476723403.80772,   0.00193,276723410.70384,  -0.00147,   0.00041,   0.00116,  -6.89612,   1.00000
-522441627.05503,-238333176.67280,85706326.75917,  -0.00339,   0.00034,   0.00227,476727917.70608,   0.00193,276727922.17825,  -0.00147,   0.00041,   0.00116,  -4.47217,   1.00000
-522531207.52466,-238673355.00491,85604129.71117,  -0.00339,   0.00034,   0.00227,476732375.55532,   0.00193,276732375.68537,  -0.00148,   0.00041,   0.00116,  -0.13004,   1.00000
-522620332.37027,-239012788.39926,85502073.47715,  -0.00339,   0.00034,   0.00227,476736820.07781,   0.00194,276736828.29095,  -0.00148,   0.00041,   0.00116,  -8.21313,   1.00000
-522705007.29611,-239348337.12840,85405943.59027,  -0.00340,   0.00034,   0.00228,476741127.27473,   0.00194,276741130.24868,  -0.00148,   0.00041,   0.00117,  -2.97394,   1.00000
-522785245.70513,-239680047.62404,85315715.89568,  -0.00340,   0.00034,   0.00228,476745277.80007,   0.00195,276745281.80383,  -0.00149,   0.00041,   0.00117,  -4.00377,   1.00000
-522861987.98257,-239980568.07638,85227817.59916,  -0.00340,   0.00034,   0.00228,476749365.29364,   0.00195,276749375.25953,  -0.00149,   0.00041,   0.00117,  -9.96589,   1.00000
-522934402.64585,-240277407.17916,85145803.23788,  -0.00340,   0.00033,   0.00228,476753314.52005,   0.00195,276753318.34837,  -0.00149,   0.00041,   0.00117,  -3.82832,   1.00000
-523009189.24890,-240545403.80523,85057148.04207,  -0.00341,   0.00033,   0.00228,476757173.00114,   0.00196,276757175.48851,  -0.00150,   0.00041,   0.00117,  -2.48736,   1.00000
-523073933.76473,-240807625.17886,84983327.16281,  -0.00341,   0.00033,   0.00228,476760902.79356,   0.00196,276760910.19422,  -0.00150,   0.00041,   0.00118,  -7.40066,   1.00000
-523138430.03820,-241069377.39042,84909597.12626,  -0.00341,   0.00033,   0.00228,476764643.33292,   0.00196,276764644.14294,  -0.00150,   0.00041,   0.00118,  -0.81003,   1.00000
-523195679.81828,-241297180.92637,84843928.05632,  -0.00342,   0.00033,   0.00228,476768164.49360,   0.00197,276768170.50114,  -0.00151,   0.00041,   0.00118,  -6.00753,   1.00000
-523251770.88268,-241552048.13692,84781861.55961,  -0.00342,   0.00033,   0.00228,476771604.53571,   0.00197,276771604.56529,  -0.00151,   0.00041,   0.00118,  -0.02958,   1.00000
-523307408.35519,-241747837.31890,84715337.35331,  -0.00342,   0.00033,   0.00228,476774885.46862,   0.00197,276774895.09222,  -0.00151,   0.00041,   0.00118,  -9.62360,   1.00000
-523360114.96599,-241971526.64547,84655639.28424,  -0.00342,   0.00033,   0.00228,476778266.52287,   0.00198,276778270.27692,  -0.00151,   0.00041,   0.00118,  -3.75405,   1.00000
-523405730.66587,-242161474.83585,84603970.81376,  -0.00343,   0.00033,   0.00229,476781428.69173,   0.00198,276781437.93853,  -0.00152,   0.00041,   0.00119,  -9.24680,   1.00000
-523447278.08568,-242348195.96219,84558095.87254,  -0.00343,   0.00033,   0.00229,476784450.48976,   0.00198,276784455.88207,  -0.00152,   0.00041,   0.00119,  -5.39231,   1.00000
-523488696.71038,-242534648.92515,84512265.88106,  -0.00343,   0.00033,   0.00229,476787472.03854,   0.00199,276787473.37724,  -0.00152,   0.00041,   0.00119,  -1.33871,   1.00000
-523523133.03806,-242687513.50585,84474441.93858,  -0.00343,   0.00033,   0.00229,476790275.32065,   0.00199,276790283.42827,  -0.00152,   0.00041,   0.00119,  -8.10762,   1.00000
-523557487.24011,-242840180.00576,84436655.68946,  -0.00343,   0.00033,   0.00229,476793086.67148,   0.00199,276793093.04434,  -0.00153,   0.00041,   0.00119,  -6.37287,   1.00000
-523590656.08719,-242961587.36569,84397884.52596,  -0.00344,   0.00033,   0.00229,476795658.41318,   0.00199,276795667.79515,  -0.00153,   0.00041,   0.00119,  -9.38198,   1.00000
-523618038.65371,-243080621.93287,84368134.49253,  -0.00344,   0.00033,   0.00229,476798266.59172,   0.00200,276798269.55304,  -0.00153,   0.00041,   0.00119,  -2.96132,   1.00000
-523641439.01117,-243196623.61669,84344136.54944,  -0.00344,   0.00032,   0.00229,476800717.85365,   0.00200,276800722.00134,  -0.00153,   0.00041,   0.00120,  -4.14768,   1.00000
-523660875.93605,-243309614.74727,84325883.81557,  -0.00344,   0.00032,   0.00229,476803019.78510,   0.00200,276803025.17176,  -0.00153,   0.00041,   0.00120,  -5.38667,   1.00000
-523677404.81182,-243392118.18992,84309879.85549,  -0.00344,   0.00032,   0.00229,476805266.56678,   0.00200,276805269.98668,  -0.00153,   0.00041,   0.00120,  -3.41990,   1.00000
-523688182.83852,-243472303.62485,84302874.04755,  -0.00344,   0.00032,   0.00229,476807540.77335,   0.00200,276807541.95623,  -0.00154,   0.00041,   0.00120,  -1.18288,   1.00000
-523697889.00276,-243521412.52295,84294846.45377,  -0.00345,   0.00032,   0.00230,476809575.25397,   0.00201,276809579.30055,  -0.00154,   0.00041,   0.00120,  -4.04658,   1.00000
-523706536.44246,-243597981.92868,84290313.19111,  -0.00345,   0.00032,   0.00230,476811522.93711,   0.00201,276811525.68311,  -0.00154,   0.00041,   0.00120,  -2.74599,   1.00000
-523712310.37811,-243644121.30673,84288018.19218,  -0.00345,   0.00032,   0.00230,476813408.20242,   0.00201,276813413.78422,  -0.00154,   0.00041,   0.00120,  -5.58180,   1.00000
-523709507.42493,-243657626.94875,84296950.36040,  -0.00345,   0.00032,   0.00230,476815267.23469,   0.00201,276815270.92504,  -0.00154,   0.00041,   0.00120,  -3.69035,   1.00000
-523711373.87796,-243700866.04104,84300374.93049,  -0.00345,   0.00032,   0.00230,476817008.40989,   0.00201,276817009.93287,  -0.00154,   0.00041,   0.00120,  -1.52298,   1.00000
-523706467.87289,-243710855.41302,84311759.69201,  -0.00345,   0.00032,   0.00230,476818532.28928,   0.00201,276818541.79042,  -0.00155,   0.00041,   0.00120,  -9.50114,   1.00000
-523693004.01558,-243688242.10832,84334366.77867,  -0.00345,   0.00032,   0.00230,476820039.95595,   0.00202,276820042.72390,  -0.00155,   0.00041,   0.00120,  -2.76795,   1.00000
-523678475.06418,-243693148.14698,84360445.92844,  -0.00346,   0.00032,   0.00230,476821448.76869,   0.00202,276821453.04100,  -0.00155,   0.00041,   0.00121,  -4.27231,   1.00000
-523666828.93375,-243669923.16227,84379761.69558,  -0.00346,   0.00032,   0.00230,476822771.85756,   0.00202,276822777.85500,  -0.00155,   0.00041,   0.00121,  -5.99744,   1.00000
-523649462.11303,-243644472.37745,84408053.42201,  -0.00346,   0.00032,   0.00230,476824128.61721,   0.00202,276824130.08132,  -0.00155,   0.00041,   0.00121,  -1.46411,   1.00000
-523621387.29621,-243582934.75485,84450037.40206,  -0.00346,   0.00032,   0.00231,476825120.53310,   0.00202,276825126.36896,  -0.00155,   0.00041,   0.00121,  -5.83587,   1.00000
-523597236.32177,-243524283.97909,84486262.08040,  -0.00346,   0.00032,   0.00231,476826264.10842,   0.00202,276826271.81222,  -0.00155,   0.00041,   0.00121,  -7.70380,   1.00000
-523569163.67730,-243462788.55524,84528207.77287,  -0.00346,   0.00032,   0.00231,476827268.20340,   0.00202,276827268.42425,  -0.00155,   0.00041,   0.00121,  -0.22086,   1.00000
-523537135.57995,-243398429.72029,84575871.93566,  -0.00346,   0.00032,   0.00231,476828109.03110,   0.00202,276828116.33486,  -0.00155,   0.00041,   0.00121,  -7.30376,   1.00000
-523502231.34956,-243303700.01683,84625760.10336,  -0.00346,   0.00033,   0.00231,476828904.99072,   0.00202,276828906.25251,  -0.00155,   0.00041,   0.00121,  -1.26178,   1.00000
-523463355.84446,-243206096.80692,84681373.32641,  -0.00346,   0.00033,   0.00231,476829545.85990,   0.00203,276829547.47507,  -0.00155,   0.00041,   0.00121,  -1.61517,   1.00000
-523415799.38806,-243075855.94921,84748188.30049,  -0.00346,   0.00033,   0.00231,476830151.73281,   0.00203,276830158.40402,  -0.00155,   0.00041,   0.00121,  -6.67121,   1.00000
-523376864.62776,-242978281.69859,84803751.57056,  -0.00346,   0.00033,   0.00231,476830793.25696,   0.00203,276830800.28750,  -0.00156,   0.00041,   0.00121,  -7.03055,   1.00000
-523325270.81147,-242845145.49991,84876276.63590,  -0.00346,   0.00033,   0.00231,476831258.66023,   0.00203,276831262.86706,  -0.00156,   0.00041,   0.00121,  -4.20683,   1.00000
-523272481.59002,-242680896.95006,84947805.83034,  -0.00346,   0.00033,   0.00232,476831481.44652,   0.00203,276831491.22174,  -0.00156,   0.00041,   0.00121,  -9.77522,   1.00000
-523216793.66411,-242544827.69468,85026045.95090,  -0.00346,   0.00033,   0.00232,476831799.50325,   0.00203,276831805.58639,  -0.00156,   0.00041,   0.00121,  -6.08314,   1.00000
-523154107.78982,-242375356.52197,85112282.18204,  -0.00346,   0.00033,   0.00232,476831911.98758,   0.00203,276831913.26299,  -0.00156,   0.00041,   0.00121,  -1.27541,   1.00000
-523091314.26274,-242205850.05958,85198493.82596,  -0.00346,   0.00033,   0.00232,476832014.94977,   0.00203,276832021.50166,  -0.00156,   0.00041,   0.00121,  -6.55189,   1.00000
-523025455.77651,-242005852.01663,85286929.64152,  -0.00346,   0.00033,   0.00232,476832066.71949,   0.00203,276832072.31211,  -0.00156,   0.00041,   0.00121,  -5.59263,   1.00000
-522950117.31849,-241830062.28124,85387380.91889,  -0.00346,   0.00033,   0.00232,476829696.27092,   0.00203,276832072.31211,  -0.00156,   0.00041,   0.00121,-2376.04119,   0.00000
-522859711.16886,-241619114.59878,85477787.06851,  -0.00346,   0.00033,   0.00232,476810790.43734,   0.00203,276832072.31211,  -0.00156,   0.00041,   0.00121,-21281.87477,   0.00000
-522734147.07216,-241393099.22471,85578238.34588,  -0.00346,   0.00033,   0.00232,476768398.35646,   0.00203,276832072.31211,  -0.00156,   0.00041,   0.00121,-63673.95565,   0.00000
-522558357.33677,-241116858.21196,85668644.49551,  -0.00346,   0.00033,   0.00232,476680497.53704,   0.00203,276832072.31211,  -0.00156,   0.00041,   0.00121,-151574.77507,   0.00000
-522417725.54846,-240855684.89082,85769095.77287,  -0.00346,   0.00033,   0.00233,476627186.79746,   0.00203,276832072.31211,  -0.00156,   0.00041,   0.00121,-204885.51465,   0.00000
-522206777.86600,-240564376.18646,85869547.05023,  -0.00346,   0.00034,   0.00233,476516030.69921,   0.00203,276832072.31211,  -0.00156,   0.00041,   0.00121,-316041.61290,   0.00000
-522030988.13061,-240288135.17371,85969998.32760,  -0.00346,   0.00034,   0.00233,476434055.95154,   0.00203,276832072.31211,  -0.00156,   0.00041,   0.00121,-398016.36058,   0.00000
-521769814.80947,-239946600.83068,86080494.73270,  -0.00346,   0.00034,   0.00233,476288538.74222,   0.00203,276832072.31211,  -0.00156,   0.00041,   0.00121,-543533.56990,   0.00000
-521543799.43540,-239620134.17925,86180946.01006,  -0.00346,   0.00034,   0.00233,476166792.83429,   0.00203,276832072.31211,  -0.00156,   0.00041,   0.00121,-665279.47782,   0.00000
-521282626.11426,-239278599.83621,86281397.28742,  -0.00346,   0.00034,   0.00233,476016266.82940,   0.00203,276832072.31211,  -0.00156,   0.00041,   0.00121,-815805.48271,   0.00000
-520986294.84603,-238921997.80157,86391893.69252,  -0.00346,   0.00034,   0.00233,475842444.45654,   0.00203,276832072.31211,  -0.00156,   0.00041,   0.00121,-989627.85557,   0.00000
-520674895.88621,-238530237.81985,86502390.09762,  -0.00346,   0.00034,   0.00234,475657760.68067,   0.00203,276832072.31211,  -0.00156,   0.00041,   0.00121,-1174311.63145,   0.00000
-520363496.92638,-238138477.83813,86612886.50272,  -0.00346,   0.00034,   0.00234,475473352.36051,   0.00203,276832072.31211,  -0.00156,   0.00041,   0.00121,-1358719.95161,   0.00000
-520016940.01947,-237731650.16481,86723382.90782,  -0.00346,   0.00034,   0.00234,475260250.34895,   0.00203,276832072.31211,  -0.00156,   0.00041,   0.00121,-1571821.96316,   0.00000
-519670383.11257,-237324822.49149,86843924.44066,  -0.00346,   0.00034,   0.00234,475052943.01317,   0.00203,276832072.31211,  -0.00156,   0.00041,   0.00121,-1779129.29895,   0.00000
-519273600.56698,-236867769.17948,86954420.84576,  -0.00346,   0.00035,   0.00234,474800428.47035,   0.00203,276832072.31211,  -0.00156,   0.00041,   0.00121,-2031643.84176,   0.00000
-518876818.02140,-236410715.86748,87074962.37859,  -0.00346,   0.00035,   0.00234,474553775.75277,   0.00203,276832072.31211,  -0.00156,   0.00041,   0.00121,-2278296.55935,   0.00000
-518480035.47581,-235953662.55548,87195503.91143,  -0.00346,   0.00035,   0.00234,474307476.68052,   0.00203,276832072.31211,  -0.00156,   0.00041,   0.00121,-2524595.63160,   0.00000
-518033027.29154,-235446383.60479,87316045.44427,  -0.00345,   0.00035,   0.00235,474021612.82990,   0.00203,276832072.31211,  -0.00156,   0.00041,   0.00121,-2810459.48222,   0.00000
-517601086.79888,-234974262.60118,87436586.97710,  -0.00345,   0.00035,   0.00235,473747111.52136,   0.00203,276832072.31211,  -0.00156,   0.00041,   0.00121,-3084960.79076,   0.00000
-517118920.66754,-234451915.95889,87557128.50994,  -0.00345,   0.00035,   0.00235,473433109.88858,   0.00203,276832072.31211,  -0.00156,   0.00041,   0.00121,-3398962.42353,   0.00000
-516636754.53619,-233929569.31660,87687715.17051,  -0.00345,   0.00035,   0.00235,473125112.66264,   0.00203,276832072.31211,  -0.00156,   0.00041,   0.00121,-3706959.64947,   0.00000
-516139520.71324,-233372064.72723,87808256.70335,  -0.00345,   0.00036,   0.00235,472801067.71962,   0.00203,276832072.31211,  -0.00156,   0.00041,   0.00121,-4031004.59249,   0.00000
-515622196.63482,-232834650.39334,87938843.36392,  -0.00345,   0.00036,   0.00235,472465057.66495,   0.00203,276832072.31211,  -0.00156,   0.00041,   0.00121,-4367014.64716,   0.00000
-515054646.91772,-232247010.42076,88069430.02449,  -0.00345,   0.00036,   0.00236,472089752.82829,   0.00203,276832072.31211,  -0.00156,   0.00041,   0.00121,-4742319.48383,   0.00000
-514522255.14769,-231674438.13979,88200016.68507,  -0.00345,   0.00036,   0.00236,471743861.42019,   0.00203,276832072.31211,  -0.00156,   0.00041,   0.00121,-5088210.89193,   0.00000
-513954705.43058,-231086798.16721,88340648.47338,  -0.00344,   0.00036,   0.00236,471375233.50148,   0.00203,276832072.31211,  -0.00156,   0.00041,   0.00121,-5456838.81063,   0.00000
-513336930.07480,-230448932.55595,88481280.26168,  -0.00344,   0.00036,   0.00236,470967491.00946,   0.00203,276832072.31211,  -0.00156,   0.00041,   0.00121,-5864581.30265,   0.00000
-512734222.41062,-229846224.89177,88611866.92226,  -0.00344,   0.00037,   0.00236,470565440.09570,   0.00203,276832072.31211,  -0.00156,   0.00041,   0.00121,-6266632.21641,   0.00000
-512116447.05483,-229208359.28051,88752498.71057,  -0.00344,   0.00037,   0.00236,470158882.50700,   0.00203,276832072.31211,  -0.00156,   0.00041,   0.00121,-6673189.80511,   0.00000
-511498671.69905,-228570493.66925,88903175.62661,  -0.00344,   0.00037,   0.00237,469758642.00051,   0.00203,276832072.31211,  -0.00156,   0.00041,   0.00121,-7073430.31160,   0.00000
-510830670.70458,-227882402.41931,89043807.41492,  -0.00344,   0.00037,   0.00237,469313798.97899,   0.00203,276832072.31211,  -0.00156,   0.00041,   0.00121,-7518273.33312,   0.00000
-510142579.45464,-227214401.42485,89194484.33097,  -0.00343,   0.00037,   0.00237,468857188.12936,   0.00203,276832072.31211,  -0.00156,   0.00041,   0.00121,-7974884.18275,   0.00000
-509474578.46017,-226526310.17491,89335116.11927,  -0.00343,   0.00037,   0.00237,468413714.38960,   0.00203,276832072.31211,  -0.00156,   0.00041,   0.00121,-8418357.92252,   0.00000
-508771419.51862,-225823151.23336,89485793.03532,  -0.00343,   0.00038,   0.00237,467947870.17816,   0.00203,276832072.31211,  -0.00156,   0.00041,   0.00121,-8884202.13395,   0.00000
-508033102.63000,-225104924.60021,89646515.07910,  -0.00343,   0.00038,   0.00238,467459731.08138,   0.00203,276832072.31211,  -0.00156,   0.00041,   0.00121,-9372341.23073,   0.00000
-507329943.68846,-224401765.65867,89797191.99515,  -0.00343,   0.00038,   0.00238,466995391.97844,   0.00203,276832072.31211,  -0.00156,   0.00041,   0.00121,-9836680.33367,   0.00000
-506576559.10823,-223648381.07844,89957914.03893,  -0.00342,   0.00038,   0.00238,466498295.98275,   0.00203,276832072.31211,  -0.00156,   0.00041,   0.00121,-10333776.32937,   0.00000
-505803084.27253,-222915086.75369,90118636.08271,  -0.00342,   0.00038,   0.00238,465983758.57892,   0.00203,276832072.31211,  -0.00156,   0.00041,   0.00121,-10848313.73319,   0.00000
-505014541.74523,-222146634.48185,90279358.12649,  -0.00342,   0.00039,   0.00238,465459580.71980,   0.00203,276832072.31211,  -0.00156,   0.00041,   0.00121,-11372491.59231,   0.00000
-504225999.21792,-221378182.21002,90440080.17027,  -0.00342,   0.00039,   0.00239,464936282.75243,   0.00203,276832072.31211,  -0.00156,   0.00041,   0.00121,-11895789.55968,   0.00000
-503437456.69062,-220609729.93819,90600802.21406,  -0.00342,   0.00039,   0.00239,464413867.65118,   0.00203,276832072.31211,  -0.00156,   0.00041,   0.00121,-12418204.66094,   0.00000
-502613756.21624,-219826209.97476,90771569.38557,  -0.00341,   0.00039,   0.00239,463869493.33366,   0.00203,276832072.31211,  -0.00156,   0.00041,   0.00121,-12962578.97845,   0.00000
-501774988.05025,-219007532.06424,90942336.55709,  -0.00341,   0.00039,   0.00239,463315725.70402,   0.00203,276832072.31211,  -0.00156,   0.00041,   0.00121,-13516346.60810,   0.00000
-500936219.88427,-218188854.15373,91113103.72861,  -0.00341,   0.00040,   0.00240,462762969.19848,   0.00203,276832072.31211,  -0.00156,   0.00041,   0.00121,-14069103.11364,   0.00000
-500077361.46281,-217390266.49869,91283870.90013,  -0.00341,   0.00040,   0.00240,462192795.05110,   0.00203,276832072.31211,  -0.00156,   0.00041,   0.00121,-14639277.26101,   0.00000
-499203435.34975,-216556520.89657,91464683.19938,  -0.00341,   0.00040,   0.00240,461619326.11964,   0.00203,276832072.31211,  -0.00156,   0.00041,   0.00121,-15212746.19248,   0.00000
-498314441.54508,-215687617.34738,91645495.49864,  -0.00340,   0.00040,   0.00240,461036730.50886,   0.00203,276832072.31211,  -0.00156,   0.00041,   0.00121,-15795341.80326,   0.00000
-497405357.48494,-214838804.05366,91826307.79789,  -0.00340,   0.00040,   0.00240,460436794.42607,   0.00203,276832072.31211,  -0.00156,   0.00041,   0.00121,-16395277.88604,   0.00000
-496531431.37188,-214005058.45154,92007120.09715,  -0.00340,   0.00041,   0.00241,459866632.66103,   0.00203,276832072.31211,  -0.00156,   0.00041,   0.00121,-16965439.65108,   0.00000
-495572121.67305,-213106019.51913,92187932.39640,  -0.00340,   0.00041,   0.00241,459230166.40786,   0.00203,276832072.31211,  -0.00156,   0.00041,   0.00121,-17601905.90425,   0.00000
-494647969.92131,-212222048.27834,92378789.82339,  -0.00339,   0.00041,   0.00241,458629620.71481,   0.00203,276832072.31211,  -0.00156,   0.00041,   0.00121,-18202451.59731,   0.00000
-493703727.91409,-211358167.29301,92569647.25038,  -0.00339,   0.00041,   0.00241,458011735.10759,   0.00203,276832072.31211,  -0.00156,   0.00041,   0.00121,-18820337.20453,   0.00000
-492744418.21527,-210459128.36061,92760504.67737,  -0.00339,   0.00041,   0.00242,457385044.91782,   0.00203,276832072.31211,  -0.00156,   0.00041,   0.00121,-19447027.39430,   0.00000
-491770040.82484,-209524931.48112,92961407.23210,  -0.00339,   0.00042,   0.00242,456755794.22757,   0.00203,276832072.31211,  -0.00156,   0.00041,   0.00121,-20076278.08454,   0.00000
-490775573.17894,-208610824.85712,93152264.65909,  -0.00338,   0.00042,   0.00242,456103141.37205,   0.00203,276832072.31211,  -0.00156,   0.00041,   0.00121,-20728930.94006,   0.00000
-489781105.53304,-207696718.23311,93353167.21382,  -0.00338,   0.00042,   0.00242,455457979.74866,   0.00203,276832072.31211,  -0.00156,   0.00041,   0.00121,-21374092.56345,   0.00000
-488771570.19554,-206747453.66202,93554069.76854,  -0.00338,   0.00042,   0.00243,454804322.51420,   0.00203,276832072.31211,  -0.00156,   0.00041,   0.00121,-22027749.79791,   0.00000
-487777102.54964,-205833347.03801,93754972.32327,  -0.00337,   0.00043,   0.00243,454161930.81797,   0.00203,276832072.31211,  -0.00156,   0.00041,   0.00121,-22670141.49414,   0.00000
-486732409.26506,-204869014.77532,93965920.00573,  -0.00337,   0.00043,   0.00243,453488858.37053,   0.00203,276832072.31211,  -0.00156,   0.00041,   0.00121,-23343213.94159,   0.00000
-485722873.92756,-203919750.20424,94166822.56046,  -0.00337,   0.00043,   0.00244,452839551.13640,   0.00203,276832072.31211,  -0.00156,   0.00041,   0.00121,-23992521.17572,   0.00000
-484643022.69590,-202940350.24994,94377770.24293,  -0.00337,   0.00043,   0.00244,452141029.97115,   0.00203,276832072.31211,  -0.00156,   0.00041,   0.00121,-24691042.34097,   0.00000
-483598329.41132,-201976017.98725,94598763.05313,  -0.00336,   0.00044,   0.00244,451478868.92430,   0.00203,276832072.31211,  -0.00156,   0.00041,   0.00121,-25353203.38782,   0.00000
-482553636.12674,-201011685.72456,94809710.73559,  -0.00336,   0.00044,   0.00244,450811971.26508,   0.00203,276832072.31211,  -0.00156,   0.00041,   0.00121,-26020101.04703,   0.00000
-481473784.89508,-200032285.77027,95030703.54579,  -0.00336,   0.00044,   0.00245,450124563.88190,   0.00203,276832072.31211,  -0.00156,   0.00041,   0.00121,-26707508.43022,   0.00000
-480393933.66342,-199052885.81597,95251696.35599,  -0.00335,   0.00044,   0.00245,449438806.74033,   0.00203,276832072.31211,  -0.00156,   0.00041,   0.00121,-27393265.57179,   0.00000
-479263856.79308,-198023260.22300,95472689.16619,  -0.00335,   0.00044,   0.00245,448716801.24348,   0.00203,276832072.31211,  -0.00156,   0.00041,   0.00121,-28115271.06863,   0.00000
-478184005.56142,-197043860.26870,95693681.97639,  -0.00335,   0.00045,   0.00246,448034424.99475,   0.00203,276832072.31211,  -0.00156,   0.00041,   0.00121,-28797647.31736,   0.00000
-477053928.69108,-196014234.67573,95924719.91432,  -0.00334,   0.00045,   0.00246,447322396.05859,   0.00203,276832072.31211,  -0.00156,   0.00041,   0.00121,-29509676.25352,   0.00000
-475923851.82074,-194984609.08275,96155757.85226,  -0.00334,   0.00045,   0.00246,446612218.38979,   0.00203,276832072.31211,  -0.00156,   0.00041,   0.00121,-30219853.92233,   0.00000
-474808842.64201,-193990141.43685,96386795.79020,  -0.00334,   0.00045,   0.00246,445913243.46138,   0.00203,276832072.31211,  -0.00156,   0.00041,   0.00121,-30918828.85074,   0.00000
-473678765.77167,-192960515.84387,96617833.72813,  -0.00334,   0.00046,   0.00247,445206752.20965,   0.00203,276832072.31211,  -0.00156,   0.00041,   0.00121,-31625320.10246,   0.00000
-472513530.95425,-191915822.55929,96848871.66607,  -0.00333,   0.00046,   0.00247,444473856.09162,   0.00203,276832072.31211,  -0.00156,   0.00041,   0.00121,-32358216.22049,   0.00000
-471383454.08391,-190886196.96632,97089954.73174,  -0.00333,   0.00046,   0.00247,443777741.71634,   0.00203,276832072.31211,  -0.00156,   0.00041,   0.00121,-33054330.59578,   0.00000
-470218219.26649,-189841503.68174,97331037.79741,  -0.00333,   0.00046,   0.00248,443055334.24433,   0.00203,276832072.31211,  -0.00156,   0.00041,   0.00121,-33776738.06778,   0.00000
-469052984.44908,-188796810.39715,97572120.86309,  -0.00332,   0.00047,   0.00248,442334926.01719,   0.00203,276832072.31211,  -0.00156,   0.00041,   0.00121,-34497146.29492,   0.00000
-467887749.63166,-187752117.11257,97823249.05650,  -0.00332,   0.00047,   0.00248,441623201.76725,   0.00203,276832072.31211,  -0.00156,   0.00041,   0.00121,-35208870.54487,   0.00000
-466687356.86716,-186692356.13639,98074377.24990,  -0.00332,   0.00047,   0.00249,440885374.08911,   0.00203,276832072.31211,  -0.00156,   0.00041,   0.00121,-35946698.22301,   0.00000
-465522122.04975,-185647662.85181,98325505.44331,  -0.00331,   0.00047,   0.00249,440177829.90257,   0.00203,276832072.31211,  -0.00156,   0.00041,   0.00121,-36654242.40954,   0.00000
-464306661.59365,-184552743.92854,98576633.63672,  -0.00331,   0.00048,   0.00249,439435297.81736,   0.00203,276832072.31211,  -0.00156,   0.00041,   0.00121,-37396774.49476,   0.00000
-463106268.82915,-183492982.95236,98827761.83013,  -0.00331,   0.00048,   0.00250,438703909.09505,   0.00203,276832072.31211,  -0.00156,   0.00041,   0.00121,-38128163.21707,   0.00000
-461905876.06466,-182433221.97617,99088935.15128,  -0.00330,   0.00048,   0.00250,437981498.25273,   0.00203,276832072.31211,  -0.00156,   0.00041,   0.00121,-38850574.05938,   0.00000
-460690415.60856,-181338303.05291,99350108.47242,  -0.00330,   0.00048,   0.00250,437252505.02307,   0.00203,276832072.31211,  -0.00156,   0.00041,   0.00121,-39579567.28905,   0.00000
-459454864.89699,-180263474.38512,99611281.79357,  -0.00330,   0.00049,   0.00251,436506569.46614,   0.00203,276832072.31211,  -0.00156,   0.00041,   0.00121,-40325502.84597,   0.00000
-458254472.13249,-179203713.40893,99872455.11471,  -0.00329,   0.00049,   0.00251,435790948.63077,   0.00203,276832072.31211,  -0.00156,   0.00041,   0.00121,-41041123.68134,   0.00000
-457003853.72932,-178093726.79407,100133628.43586,  -0.00329,   0.00049,   0.00251,435040927.96900,   0.00203,276832072.31211,  -0.00156,   0.00041,   0.00121,-41791144.34311,   0.00000
-455768303.01774,-177018898.12628,100404846.88474,  -0.00328,   0.00049,   0.00252,434308914.67051,   0.00203,276832072.31211,  -0.00156,   0.00041,   0.00121,-42523157.64161,   0.00000
-454517684.61457,-175908911.51141,100676065.33362,  -0.00328,   0.00050,   0.00252,433570720.88237,   0.00203,276832072.31211,  -0.00156,   0.00041,   0.00121,-43261351.42974,   0.00000
-453282133.90300,-174834082.84362,100947283.78250,  -0.00328,   0.00050,   0.00252,432843557.88008,   0.00203,276832072.31211,  -0.00156,   0.00041,   0.00121,-43988514.43203,   0.00000
-452031515.49982,-173724096.22875,101228547.35912,  -0.00327,   0.00050,   0.00253,432117394.37305,   0.00203,276832072.31211,  -0.00156,   0.00041,   0.00121,-44714677.93906,   0.00000
-450795964.78825,-172649267.56096,101509810.93574,  -0.00327,   0.00050,   0.00253,431402252.50595,   0.00203,276832072.31211,  -0.00156,   0.00041,   0.00121,-45429819.80617,   0.00000
-449510188.43800,-171524213.25449,101791074.51236,  -0.00327,   0.00051,   0.00253,430653401.67189,   0.00203,276832072.31211,  -0.00156,   0.00041,   0.00121,-46178670.64023,   0.00000
-448274637.72642,-170449384.58670,102072338.08897,  -0.00326,   0.00051,   0.00254,429943361.40624,   0.00203,276832072.31211,  -0.00156,   0.00041,   0.00121,-46888710.90588,   0.00000
-446988861.37617,-169324330.28023,102353601.66559,  -0.00326,   0.00051,   0.00254,429199791.17624,   0.00203,276832072.31211,  -0.00156,   0.00041,   0.00121,-47632281.13588,   0.00000
-445753310.66460,-168249501.61244,102644910.36995,  -0.00326,   0.00052,   0.00255,428502122.83539,   0.00203,276832072.31211,  -0.00156,   0.00041,   0.00121,-48329949.47673,   0.00000
-444467534.31435,-167124447.30597,102926173.94656,  -0.00325,   0.00052,   0.00255,427763919.44495,   0.00203,276832072.31211,  -0.00156,   0.00041,   0.00121,-49068152.86717,   0.00000
-443196825.65570,-166034550.94657,103217482.65092,  -0.00325,   0.00052,   0.00255,427043860.30594,   0.00203,276832072.31211,  -0.00156,   0.00041,   0.00121,-49788212.00617,   0.00000
-441911049.30544,-164909496.64010,103518836.48301,  -0.00325,   0.00052,   0.00256,426325740.95409,   0.00203,276832072.31211,  -0.00156,   0.00041,   0.00121,-50506331.35802,   0.00000
-440640340.64679,-163819600.28071,103810145.18736,  -0.00324,   0.00053,   0.00256,425611190.52558,   0.00203,276832072.31211,  -0.00156,   0.00041,   0.00121,-51220881.78653,   0.00000
-439369631.98814,-162729703.92131,104111499.01945,  -0.00324,   0.00053,   0.00256,424906757.54864,   0.00203,276832072.31211,  -0.00156,   0.00041,   0.00121,-51925314.76347,   0.00000
-438083855.63789,-161604649.61484,104412852.85154,  -0.00323,   0.00053,   0.00257,424197207.53113,   0.00203,276832072.31211,  -0.00156,   0.00041,   0.00121,-52634864.78098,   0.00000
-436777989.03216,-160499685.56384,104714206.68364,  -0.00323,   0.00053,   0.00257,423470927.11585,   0.00203,276832072.31211,  -0.00156,   0.00041,   0.00121,-53361145.19627,   0.00000
-435507280.37352,-159409789.20445,105015560.51573,  -0.00323,   0.00054,   0.00258,422775061.04605,   0.00203,276832072.31211,  -0.00156,   0.00041,   0.00121,-54057011.26606,   0.00000
-434221504.02326,-158284734.89797,105316914.34782,  -0.00322,   0.00054,   0.00258,422074274.92073,   0.00203,276832072.31211,  -0.00156,   0.00041,   0.00121,-54757797.39138,   0.00000
-432915637.41754,-157179770.84697,105628313.30764,  -0.00322,   0.00054,   0.00258,421364296.67858,   0.00203,276832072.31211,  -0.00156,   0.00041,   0.00121,-55467775.63354,   0.00000
-431644928.75889,-156089874.48758,105939712.26747,  -0.00322,   0.00054,   0.00259,420684749.65653,   0.00203,276832072.31211,  -0.00156,   0.00041,   0.00121,-56147322.65558,   0.00000
-430339062.15316,-154984910.43658,106251111.22730,  -0.00321,   0.00055,   0.00259,419980792.16059,   0.00203,276832072.31211,  -0.00156,   0.00041,   0.00121,-56851280.15153,   0.00000
-429068353.49451,-153895014.07719,106562510.18712,  -0.00321,   0.00055,   0.00260,419307229.55768,   0.00203,276832072.31211,  -0.00156,   0.00041,   0.00121,-57524842.75443,   0.00000
-427762486.88879,-152790050.02619,106883954.27469,  -0.00320,   0.00055,   0.00260,418617046.77354,   0.00203,276832072.31211,  -0.00156,   0.00041,   0.00121,-58215025.53857,   0.00000
-426456620.28306,-151685085.97519,107205398.36225,  -0.00320,   0.00055,   0.00260,417930015.06503,   0.00203,276832072.31211,  -0.00156,   0.00041,   0.00121,-58902057.24709,   0.00000
-425185911.62441,-150595189.61579,107526842.44981,  -0.00320,   0.00056,   0.00261,417273391.36103,   0.00203,276832072.31211,  -0.00156,   0.00041,   0.00121,-59558680.95108,   0.00000
-423880045.01868,-149490225.56479,107848286.53738,  -0.00319,   0.00056,   0.00261,416592673.11049,   0.00203,276832072.31211,  -0.00156,   0.00041,   0.00121,-60239399.20163,   0.00000
-422589246.10456,-148420419.46087,108169730.62494,  -0.00319,   0.00056,   0.00262,415922457.36446,   0.00203,276832072.31211,  -0.00156,   0.00041,   0.00121,-60909614.94766,   0.00000
-421318537.44591,-147330523.10148,108491174.71250,  -0.00319,   0.00056,   0.00262,415275231.00970,   0.00203,276832072.31211,  -0.00156,   0.00041,   0.00121,-61556841.30241,   0.00000
-420012670.84019,-146225559.05048,108822663.92780,  -0.00318,   0.00057,   0.00263,414611971.29011,   0.00203,276832072.31211,  -0.00156,   0.00041,   0.00121,-62220101.02200,   0.00000
-418721871.92607,-145155752.94656,109154153.14310,  -0.00318,   0.00057,   0.00263,413959173.70351,   0.00203,276832072.31211,  -0.00156,   0.00041,   0.00121,-62872898.60860,   0.00000
-417416005.32034,-144050788.89556,109485642.35840,  -0.00317,   0.00057,   0.00263,413302509.14178,   0.00203,276832072.31211,  -0.00156,   0.00041,   0.00121,-63529563.17033,   0.00000
-416160364.35330,-142996050.48324,109817131.57370,  -0.00317,   0.00057,   0.00264,412683217.49680,   0.00203,276832072.31211,  -0.00156,   0.00041,   0.00121,-64148854.81531,   0.00000
-414869565.43917,-141926244.37932,110158665.91674,  -0.00317,   0.00057,   0.00264,412048214.25522,   0.00203,276832072.31211,  -0.00156,   0.00041,   0.00121,-64783858.05690,   0.00000
-413578766.52505,-140856438.27540,110490155.13204,  -0.00316,   0.00058,   0.00265,411408463.04891,   0.00203,276832072.31211,  -0.00156,   0.00041,   0.00121,-65423609.26320,   0.00000
-412287967.61093,-139786632.17148,110831689.47508,  -0.00316,   0.00058,   0.00265,410780129.10697,   0.00203,276832072.31211,  -0.00156,   0.00041,   0.00121,-66051943.20514,   0.00000
-411032326.64389,-138731893.75916,111173223.81811,  -0.00316,   0.00058,   0.00266,410182003.38762,   0.00203,276832072.31211,  -0.00156,   0.00041,   0.00121,-66650068.92449,   0.00000
-409741527.72976,-137662087.65524,111514758.16115,  -0.00315,   0.00058,   0.00266,409560398.08655,   0.00203,276832072.31211,  -0.00156,   0.00041,   0.00121,-67271674.22557,   0.00000
-408450728.81564,-136592281.55131,111856292.50418,  -0.00315,   0.00059,   0.00267,408942199.84925,   0.00203,276832072.31211,  -0.00156,   0.00041,   0.00121,-67889872.46287,   0.00000
-407195087.84860,-135537543.13900,112207871.97496,  -0.00314,   0.00059,   0.00267,408362416.22162,   0.00203,276832072.31211,  -0.00156,   0.00041,   0.00121,-68469656.09049,   0.00000
-405919356.62608,-134502894.98215,112549406.31799,  -0.00314,   0.00059,   0.00267,407757686.41978,   0.00203,276832072.31211,  -0.00156,   0.00041,   0.00121,-69074385.89234,   0.00000
-404663715.65904,-133448156.56984,112900985.78876,  -0.00314,   0.00059,   0.00268,407184729.76487,   0.00203,276832072.31211,  -0.00156,   0.00041,   0.00121,-69647342.54724,   0.00000
-403387984.43652,-132413508.41299,113252565.25954,  -0.00313,   0.00060,   0.00268,406595149.43087,   0.00203,276832072.31211,  -0.00156,   0.00041,   0.00121,-70236922.88125,   0.00000
-402147411.16108,-131393927.94775,113604144.73031,  -0.00313,   0.00060,   0.00269,406035567.08537,   0.00203,276832072.31211,  -0.00156,   0.00041,   0.00121,-70796505.22674,   0.00000
-400871679.93856,-130359279.79091,113955724.20108,  -0.00313,   0.00060,   0.00269,405452862.06116,   0.00203,276832072.31211,  -0.00156,   0.00041,   0.00121,-71379210.25095,   0.00000
-399631106.66312,-129339699.32567,114317348.79959,  -0.00312,   0.00060,   0.00270,404908607.91931,   0.00203,276832072.31211,  -0.00156,   0.00041,   0.00121,-71923464.39280,   0.00000
-398390533.38768,-128320118.86043,114668928.27036,  -0.00312,   0.00060,   0.00270,404359294.10874,   0.00203,276832072.31211,  -0.00156,   0.00041,   0.00121,-72472778.20337,   0.00000
-397149960.11224,-127300538.39519,115030552.86887,  -0.00311,   0.00061,   0.00271,403821988.53814,   0.00203,276832072.31211,  -0.00156,   0.00041,   0.00121,-73010083.77397,   0.00000
-395889296.58133,-126301048.18542,115382132.33964,  -0.00311,   0.00061,   0.00271,403259427.89539,   0.00203,276832072.31211,  -0.00156,   0.00041,   0.00121,-73572644.41673,   0.00000
-394648723.30589,-125281467.72018,115743756.93815,  -0.00311,   0.00061,   0.00272,402729116.75456,   0.00203,276832072.31211,  -0.00156,   0.00041,   0.00121,-74102955.55755,   0.00000
-393423217.72205,-124297045.20202,116105381.53666,  -0.00310,   0.00061,   0.00272,402208427.40714,   0.00203,276832072.31211,  -0.00156,   0.00041,   0.00121,-74623644.90497,   0.00000
-392197712.13822,-123312622.68385,116477051.26291,  -0.00310,   0.00062,   0.00273,401699925.61358,   0.00203,276832072.31211,  -0.00156,   0.00041,   0.00121,-75132146.69853,   0.00000
-391007364.50146,-122343267.85729,116838675.86142,  -0.00310,   0.00062,   0.00273,401212342.88859,   0.00203,276832072.31211,  -0.00156,   0.00041,   0.00121,-75619729.42353,   0.00000
-389781858.91763,-121358845.33913,117200300.45993,  -0.00309,   0.00062,   0.00273,400702036.22472,   0.00203,276832072.31211,  -0.00156,   0.00041,   0.00121,-76130036.08740,   0.00000
-388571421.02539,-120409580.76805,117571970.18617,  -0.00309,   0.00062,   0.00274,400209943.64795,   0.00203,276832072.31211,  -0.00156,   0.00041,   0.00121,-76622128.66417,   0.00000
-387381073.38864,-119440225.94149,117943639.91242,  -0.00309,   0.00062,   0.00274,399741525.55002,   0.00203,276832072.31211,  -0.00156,   0.00041,   0.00121,-77090546.76209,   0.00000
-386170635.49641,-118490961.37040,118305264.51092,  -0.00308,   0.00063,   0.00275,399247472.91147,   0.00203,276832072.31211,  -0.00156,   0.00041,   0.00121,-77584599.40065,   0.00000
-384980287.85965,-117521606.54384,118676934.23717,  -0.00308,   0.00063,   0.00275,398786023.18532,   0.00203,276832072.31211,  -0.00156,   0.00041,   0.00121,-78046049.12679,   0.00000
-383805007.91449,-116587409.66436,119048603.96341,  -0.00308,   0.00063,   0.00276,398333763.09377,   0.00203,276832072.31211,  -0.00156,   0.00041,   0.00121,-78498309.21834,   0.00000
-382629727.96934,-115653212.78488,119420273.68966,  -0.00307,   0.00063,   0.00276,397884936.01924,   0.00203,276832072.31211,  -0.00156,   0.00041,   0.00121,-78947136.29287,   0.00000
-381469515.71579,-114754173.85248,119801988.54364,  -0.00307,   0.00063,   0.00277,397454201.24609,   0.00203,276832072.31211,  -0.00156,   0.00041,   0.00121,-79377871.06602,   0.00000
-380294235.77064,-113819976.97300,120173658.26989,  -0.00306,   0.00064,   0.00277,397012262.00967,   0.00203,276832072.31211,  -0.00156,   0.00041,   0.00121,-79819810.30245,   0.00000
-379134023.51709,-112920938.04059,120545327.99613,  -0.00306,   0.00064,   0.00278,396579254.07496,   0.00203,276832072.31211,  -0.00156,   0.00041,   0.00121,-80252818.23715,   0.00000
-377958743.57193,-111986741.16111,120927042.85011,  -0.00306,   0.00064,   0.00278,396153408.58033,   0.00203,276832072.31211,  -0.00156,   0.00041,   0.00121,-80678663.73179,   0.00000
-376833689.26546,-111102769.92031,121298712.57636,  -0.00305,   0.00064,   0.00279,395752853.67354,   0.00203,276832072.31211,  -0.00156,   0.00041,   0.00121,-81079218.63858,   0.00000
-375688544.70352,-110238888.93499,121680427.43034,  -0.00305,   0.00064,   0.00279,395344643.01447,   0.00203,276832072.31211,  -0.00156,   0.00041,   0.00121,-81487429.29764,   0.00000
-374563490.39705,-109354917.69419,122062142.28432,  -0.00305,   0.00064,   0.00280,394960056.75994,   0.00203,276832072.31211,  -0.00156,   0.00041,   0.00121,-81872015.55217,   0.00000
-373438436.09057,-108470946.45339,122433812.01057,  -0.00304,   0.00065,   0.00280,394569520.03388,   0.00203,276832072.31211,  -0.00156,   0.00041,   0.00121,-82262552.27823,   0.00000
-372328449.47571,-107622133.15966,122815526.86455,  -0.00304,   0.00065,   0.00281,394196875.66401,   0.00203,276832072.31211,  -0.00156,   0.00041,   0.00121,-82635196.64811,   0.00000
-371218462.86084,-106773319.86594,123197241.71853,  -0.00304,   0.00065,   0.00281,393827554.17814,   0.00203,276832072.31211,  -0.00156,   0.00041,   0.00121,-83004518.13397,   0.00000
-370143634.19305,-105939574.26383,123578956.57251,  -0.00303,   0.00065,   0.00282,393486873.76914,   0.00203,276832072.31211,  -0.00156,   0.00041,   0.00121,-83345198.54297,   0.00000
-369033647.57818,-105090760.97010,123960671.42649,  -0.00303,   0.00065,   0.00282,393124176.84504,   0.00203,276832072.31211,  -0.00156,   0.00041,   0.00121,-83707895.46707,   0.00000
-367973886.60200,-104292173.31506,124342386.28047,  -0.00303,   0.00065,   0.00283,392795022.06191,   0.00203,276832072.31211,  -0.00156,   0.00041,   0.00121,-84037050.25021,   0.00000
-366899057.93421,-103458427.71295,124724101.13446,  -0.00302,   0.00066,   0.00283,392464099.66518,   0.00203,276832072.31211,  -0.00156,   0.00041,   0.00121,-84367972.64693,   0.00000
-365839296.95802,-102659840.05791,125115861.11617,  -0.00302,   0.00066,   0.00284,392150948.43105,   0.00203,276832072.31211,  -0.00156,   0.00041,   0.00121,-84681123.88106,   0.00000
-364779535.98184,-101861252.40286,125497575.97015,  -0.00302,   0.00066,   0.00284,391831403.73037,   0.00203,276832072.31211,  -0.00156,   0.00041,   0.00121,-85000668.58174,   0.00000
-363719775.00565,-101062664.74782,125879290.82414,  -0.00301,   0.00066,   0.00285,391515050.57623,   0.00203,276832072.31211,  -0.00156,   0.00041,   0.00121,-85317021.73589,   0.00000
-362710239.66815,-100314302.73147,126261005.67812,  -0.00301,   0.00066,   0.00285,391231615.76143,   0.00203,276832072.31211,  -0.00156,   0.00041,   0.00121,-85600456.55068,   0.00000
-361650478.69196,-99515715.07643,126652765.65984,  -0.00301,   0.00066,   0.00286,390931335.96374,   0.00203,276832072.31211,  -0.00156,   0.00041,   0.00121,-85900736.34838,   0.00000
-360640943.35446,-98767353.06007,127034480.51382,  -0.00300,   0.00067,   0.00286,390654075.09986,   0.00203,276832072.31211,  -0.00156,   0.00041,   0.00121,-86177997.21226,   0.00000
-359631408.01695,-98018991.04371,127426240.49554,  -0.00300,   0.00067,   0.00287,390389683.23524,   0.00203,276832072.31211,  -0.00156,   0.00041,   0.00121,-86442389.07687,   0.00000
-358636940.37106,-97305786.97443,127807955.34952,  -0.00300,   0.00067,   0.00287,390123111.09237,   0.00203,276832072.31211,  -0.00156,   0.00041,   0.00121,-86708961.21974,   0.00000
-357662562.98063,-96572492.64967,128189670.20350,  -0.00300,   0.00067,   0.00288,389879679.77387,   0.00203,276832072.31211,  -0.00156,   0.00041,   0.00121,-86952392.53824,   0.00000
-356668095.33473,-95859288.58039,128581430.18522,  -0.00299,   0.00067,   0.00288,389628972.38804,   0.00203,276832072.31211,  -0.00156,   0.00041,   0.00121,-87203099.92408,   0.00000
-355708785.63591,-95161152.20272,128963145.03920,  -0.00299,   0.00067,   0.00289,389395949.53284,   0.00203,276832072.31211,  -0.00156,   0.00041,   0.00121,-87436122.77927,   0.00000
-354749475.93709,-94463015.82504,129354905.02092,  -0.00299,   0.00067,   0.00289,389175822.77929,   0.00203,276832072.31211,  -0.00156,   0.00041,   0.00121,-87656249.53282,   0.00000
-353790166.23826,-93764879.44736,129736619.87490,  -0.00298,   0.00067,   0.00290,388948600.28977,   0.00203,276832072.31211,  -0.00156,   0.00041,   0.00121,-87883472.02234,   0.00000
-352881082.17812,-93116968.70837,130118334.72888,  -0.00298,   0.00068,   0.00290,388753076.42710,   0.00203,276832072.31211,  -0.00156,   0.00041,   0.00121,-88078995.88502,   0.00000
-351936840.17091,-92453990.27777,130510094.71060,  -0.00298,   0.00068,   0.00291,388545967.74683,   0.00203,276832072.31211,  -0.00156,   0.00041,   0.00121,-88286104.56528,   0.00000
-351027756.11077,-91806079.53877,130891809.56458,  -0.00297,   0.00068,   0.00291,388355967.04040,   0.00203,276832072.31211,  -0.00156,   0.00041,   0.00121,-88476105.27171,   0.00000
-350118672.05063,-91158168.79978,131273524.41856,  -0.00297,   0.00068,   0.00292,388168692.56869,   0.00203,276832072.31211,  -0.00156,   0.00041,   0.00121,-88663379.74342,   0.00000
-349224655.68209,-90545416.00786,131665284.40028,  -0.00297,   0.00068,   0.00292,387998559.42515,   0.00203,276832072.31211,  -0.00156,   0.00041,   0.00121,-88833512.88696,   0.00000
-348350729.56903,-89912572.96047,132046999.25426,  -0.00297,   0.00068,   0.00293,387840974.13192,   0.00203,276832072.31211,  -0.00156,   0.00041,   0.00121,-88991098.18019,   0.00000
-347491871.14757,-89314887.86016,132428714.10824,  -0.00296,   0.00068,   0.00293,387690140.65918,   0.00203,276832072.31211,  -0.00156,   0.00041,   0.00121,-89141931.65293,   0.00000
-346612922.47064,-88737293.01532,132810428.96222,  -0.00296,   0.00068,   0.00294,387521822.42364,   0.00203,276832072.31211,  -0.00156,   0.00041,   0.00121,-89310249.88848,   0.00000
-345789221.99626,-88154675.60661,133192143.81620,  -0.00296,   0.00068,   0.00294,387400229.36210,   0.00203,276832072.31211,  -0.00156,   0.00041,   0.00121,-89431842.95001,   0.00000
-344945431.26640,-87592148.45337,133573858.67018,  -0.00295,   0.00069,   0.00295,387261088.61925,   0.00203,276832072.31211,  -0.00156,   0.00041,   0.00121,-89570983.69286,   0.00000
-344136798.48363,-87044688.99174,133955573.52417,  -0.00295,   0.00069,   0.00295,387148447.48775,   0.00203,276832072.31211,  -0.00156,   0.00041,   0.00121,-89683624.82437,   0.00000
-343293007.75377,-86482161.83850,134337288.37815,  -0.00295,   0.00069,   0.00296,387014280.33173,   0.00203,276832072.31211,  -0.00156,   0.00041,   0.00121,-89817791.98039,   0.00000
-342484374.97100,-85934702.37687,134719003.23213,  -0.00295,   0.00069,   0.00296,386906522.08975,   0.00203,276832072.31211,  -0.00156,   0.00041,   0.00121,-89925550.22236,   0.00000
-341725967.82690,-85437468.55392,135100718.08611,  -0.00294,   0.00069,   0.00297,386828913.82627,   0.00203,276832072.31211,  -0.00156,   0.00041,   0.00121,-90003158.48584,   0.00000
-340932402.73573,-84925167.03937,135482432.94009,  -0.00294,   0.00069,   0.00297,386729769.84770,   0.00203,276832072.31211,  -0.00156,   0.00041,   0.00121,-90102302.46441,   0.00000
-340173995.59163,-84427933.21642,135854102.66634,  -0.00294,   0.00069,   0.00298,386646152.74955,   0.00203,276832072.31211,  -0.00156,   0.00041,   0.00121,-90185919.56257,   0.00000
-339415588.44754,-83930699.39347,136235817.52032,  -0.00294,   0.00069,   0.00298,386575361.58517,   0.00203,276832072.31211,  -0.00156,   0.00041,   0.00121,-90256710.72694,   0.00000
-338672248.99505,-83468623.51760,136607487.24656,  -0.00293,   0.00069,   0.00299,386499952.93599,   0.00203,276832072.31211,  -0.00156,   0.00041,   0.00121,-90332119.37613,   0.00000
-337964067.48964,-83021615.33333,136989202.10055,  -0.00293,   0.00069,   0.00299,386460995.69751,   0.00203,276832072.31211,  -0.00156,   0.00041,   0.00121,-90371076.61460,   0.00000
-337255885.98422,-82574607.14906,137360871.82679,  -0.00293,   0.00069,   0.00300,386413448.79548,   0.00203,276832072.31211,  -0.00156,   0.00041,   0.00121,-90418623.51663,   0.00000
-336547704.47881,-82127598.96479,137732541.55304,  -0.00293,   0.00069,   0.00300,386367964.51530,   0.00203,276832072.31211,  -0.00156,   0.00041,   0.00121,-90464107.79681,   0.00000
-335854590.66500,-81715748.72760,138104211.27928,  -0.00292,   0.00069,   0.00301,386328202.23262,   0.00203,276832072.31211,  -0.00156,   0.00041,   0.00121,-90503870.07949,   0.00000
-335161476.85119,-81303898.49041,138475881.00553,  -0.00292,   0.00069,   0.00301,386290452.43673,   0.00203,276832072.31211,  -0.00156,   0.00041,   0.00121,-90541619.87538,   0.00000
-334503520.98446,-80907115.94483,138847550.73177,  -0.00292,   0.00070,   0.00302,386278110.74135,   0.00203,276832072.31211,  -0.00156,   0.00041,   0.00121,-90553961.57077,   0.00000
-333845565.11773,-80510333.39924,139209175.33028,  -0.00292,   0.00070,   0.00302,386256832.78067,   0.00203,276832072.31211,  -0.00156,   0.00041,   0.00121,-90575239.53144,   0.00000
-333237834.88968,-80163776.49234,139580845.05653,  -0.00292,   0.00070,   0.00303,386275185.93442,   0.00203,276832072.31211,  -0.00156,   0.00041,   0.00121,-90556886.37770,   0.00000
-332594946.71455,-79802151.89383,139942469.65503,  -0.00291,   0.00070,   0.00303,386261147.42433,   0.00203,276832072.31211,  -0.00156,   0.00041,   0.00121,-90570924.88779,   0.00000
-331987216.48650,-79455594.98692,140304094.25354,  -0.00291,   0.00070,   0.00303,386272155.69352,   0.00203,276832072.31211,  -0.00156,   0.00041,   0.00121,-90559916.61860,   0.00000
-331379486.25845,-79109038.08002,140665718.85205,  -0.00291,   0.00070,   0.00304,386284901.07950,   0.00203,276832072.31211,  -0.00156,   0.00041,   0.00121,-90547171.23261,   0.00000
-330821981.66909,-78812706.81180,141027343.45056,  -0.00291,   0.00070,   0.00304,386326009.04475,   0.00203,276832072.31211,  -0.00156,   0.00041,   0.00121,-90506063.26736,   0.00000
-330229319.13264,-78501307.85197,141388968.04907,  -0.00291,   0.00070,   0.00305,386345630.18655,   0.00203,276832072.31211,  -0.00156,   0.00041,   0.00121,-90486442.12556,   0.00000
-329671814.54327,-78204976.58375,141750592.64758,  -0.00290,   0.00070,   0.00305,386390008.51194,   0.00203,276832072.31211,  -0.00156,   0.00041,   0.00121,-90442063.80017,   0.00000
-329114309.95391,-77908645.31553,142102172.11835,  -0.00290,   0.00070,   0.00306,386424918.90551,   0.00203,276832072.31211,  -0.00156,   0.00041,   0.00121,-90407153.40660,   0.00000
-328607031.00322,-77662539.68598,142453751.58912,  -0.00290,   0.00070,   0.00306,386487785.49172,   0.00203,276832072.31211,  -0.00156,   0.00041,   0.00121,-90344286.82039,   0.00000
-328099752.05253,-77416434.05644,142805331.05990,  -0.00290,   0.00070,   0.00307,386552100.59915,   0.00203,276832072.31211,  -0.00156,   0.00041,   0.00121,-90279971.71296,   0.00000
-327592473.10185,-77170328.42690,143156910.53067,  -0.00290,   0.00070,   0.00307,386617863.50492,   0.00203,276832072.31211,  -0.00156,   0.00041,   0.00121,-90214208.80720,   0.00000
-327100261.84277,-76959380.74444,143498444.87370,  -0.00289,   0.00070,   0.00308,386677262.11005,   0.00203,276832072.31211,  -0.00156,   0.00041,   0.00121,-90154810.20206,   0.00000
-326628140.83916,-76728342.80650,143850024.34448,  -0.00289,   0.00070,   0.00308,386768708.05307,   0.00203,276832072.31211,  -0.00156,   0.00041,   0.00121,-90063364.25905,   0.00000
-326135929.58008,-76517395.12404,144191558.68751,  -0.00289,   0.00070,   0.00309,386830843.29201,   0.00203,276832072.31211,  -0.00156,   0.00041,   0.00121,-90001229.02010,   0.00000
-325729101.90675,-76371740.77186,144533093.03055,  -0.00289,   0.00070,   0.00309,386943196.12543,   0.00203,276832072.31211,  -0.00156,   0.00041,   0.00121,-89888876.18668,   0.00000
-325272048.59475,-76175860.78100,144874627.37358,  -0.00289,   0.00070,   0.00309,387030699.09628,   0.00203,276832072.31211,  -0.00156,   0.00041,   0.00121,-89801373.21584,   0.00000
-324865220.92143,-76030206.42883,145206116.58888,  -0.00289,   0.00070,   0.00310,387134192.66478,   0.00203,276832072.31211,  -0.00156,   0.00041,   0.00121,-89697879.64734,   0.00000
-324458393.24811,-75884552.07665,145547650.93192,  -0.00288,   0.00070,   0.00310,387250165.17656,   0.00203,276832072.31211,  -0.00156,   0.00041,   0.00121,-89581907.13555,   0.00000
-324051565.57478,-75738897.72447,145879140.14722,  -0.00288,   0.00070,   0.00311,387355986.12612,   0.00203,276832072.31211,  -0.00156,   0.00041,   0.00121,-89476086.18599,   0.00000
-323694963.54014,-75643469.01098,146200584.23478,  -0.00288,   0.00070,   0.00311,387477465.63315,   0.00203,276832072.31211,  -0.00156,   0.00041,   0.00121,-89354606.67897,   0.00000
-323338361.50550,-75548040.29748,146532073.45008,  -0.00288,   0.00070,   0.00312,387611362.70478,   0.00203,276832072.31211,  -0.00156,   0.00041,   0.00121,-89220709.60734,   0.00000
-322981759.47086,-75452611.58399,146853517.53765,  -0.00288,   0.00070,   0.00312,387734913.49014,   0.00203,276832072.31211,  -0.00156,   0.00041,   0.00121,-89097158.82197,   0.00000
-322625157.43622,-75357182.87049,147174961.62521,  -0.00288,   0.00070,   0.00312,387859487.72916,   0.00203,276832072.31211,  -0.00156,   0.00041,   0.00121,-88972584.58295,   0.00000
-322318781.04026,-75311979.79568,147496405.71277,  -0.00288,   0.00070,   0.00313,388010817.47951,   0.00203,276832072.31211,  -0.00156,   0.00041,   0.00121,-88821254.83261,   0.00000
-322012404.64430,-75266776.72086,147817849.80034,  -0.00287,   0.00070,   0.00313,388163098.22010,   0.00203,276832072.31211,  -0.00156,   0.00041,   0.00121,-88668974.09201,   0.00000
-321741186.19542,-75236641.33765,148129248.76016,  -0.00287,   0.00070,   0.00314,388327232.98736,   0.00203,276832072.31211,  -0.00156,   0.00041,   0.00121,-88504839.32475,   0.00000
-321434809.79946,-75191438.26284,148440647.71999,  -0.00287,   0.00070,   0.00314,388469846.15138,   0.00203,276832072.31211,  -0.00156,   0.00041,   0.00121,-88362226.16073,   0.00000
-321178659.04219,-75196460.82671,148742001.55208,  -0.00287,   0.00070,   0.00314,388627442.89244,   0.00203,276832072.31211,  -0.00156,   0.00041,   0.00121,-88204629.41967,   0.00000
-320957666.23199,-75216551.08218,149053400.51191,  -0.00287,   0.00069,   0.00315,388819717.84481,   0.00203,276832072.31211,  -0.00156,   0.00041,   0.00121,-88012354.46731,   0.00000
-320701515.47471,-75221573.64605,149354754.34400,  -0.00287,   0.00069,   0.00315,388978922.87417,   0.00203,276832072.31211,  -0.00156,   0.00041,   0.00121,-87853149.43794,   0.00000
-320480522.66451,-75241663.90152,149646063.04835,  -0.00287,   0.00069,   0.00316,389149608.99157,   0.00203,276832072.31211,  -0.00156,   0.00041,   0.00121,-87682463.32054,   0.00000
-320274597.54591,-75296912.10407,149947416.88044,  -0.00287,   0.00069,   0.00316,389335893.63476,   0.00203,276832072.31211,  -0.00156,   0.00041,   0.00121,-87496178.67735,   0.00000
-320103830.37440,-75367227.99823,150238725.58480,  -0.00287,   0.00069,   0.00316,389533524.75185,   0.00203,276832072.31211,  -0.00156,   0.00041,   0.00121,-87298547.56027,   0.00000
-319897905.25580,-75422476.20078,150530034.28915,  -0.00286,   0.00069,   0.00317,389709637.07195,   0.00203,276832072.31211,  -0.00156,   0.00041,   0.00121,-87122435.24016,   0.00000
-319777363.72296,-75543017.73361,150811297.86577,  -0.00286,   0.00069,   0.00317,389922435.24995,   0.00203,276832072.31211,  -0.00156,   0.00041,   0.00121,-86909637.06216,   0.00000
-319621664.24305,-75648491.57485,151092561.44239,  -0.00286,   0.00069,   0.00318,390113691.28253,   0.00203,276832072.31211,  -0.00156,   0.00041,   0.00121,-86718381.02958,   0.00000
-319501122.71021,-75769033.10768,151373825.01901,  -0.00286,   0.00069,   0.00318,390327717.88491,   0.00203,276832072.31211,  -0.00156,   0.00041,   0.00121,-86504354.42720,   0.00000
-319380581.17738,-75889574.64052,151645043.46789,  -0.00286,   0.00069,   0.00318,390530644.56385,   0.00203,276832072.31211,  -0.00156,   0.00041,   0.00121,-86301427.74826,   0.00000
-319260039.64454,-76010116.17335,151916261.91677,  -0.00286,   0.00069,   0.00319,390734142.19380,   0.00203,276832072.31211,  -0.00156,   0.00041,   0.00121,-86097930.11832,   0.00000
-319154565.80331,-76165815.65327,152187480.36565,  -0.00286,   0.00069,   0.00319,390941540.46800,   0.00203,276832072.31211,  -0.00156,   0.00041,   0.00121,-85890531.84412,   0.00000
-319084249.90916,-76336582.82479,152448653.68680,  -0.00286,   0.00069,   0.00319,391159823.06332,   0.00203,276832072.31211,  -0.00156,   0.00041,   0.00121,-85672249.24879,   0.00000
-319029001.70661,-76542507.94338,152709827.00794,  -0.00286,   0.00069,   0.00320,391381978.82537,   0.00203,276832072.31211,  -0.00156,   0.00041,   0.00121,-85450093.48674,   0.00000
-318993843.75953,-76728342.80650,152971000.32909,  -0.00286,   0.00068,   0.00320,391623317.45468,   0.00203,276832072.31211,  -0.00156,   0.00041,   0.00121,-85208754.85743,   0.00000
-318973753.50406,-76949335.61670,153222128.52250,  -0.00286,   0.00068,   0.00320,391856733.09503,   0.00203,276832072.31211,  -0.00156,   0.00041,   0.00121,-84975339.21709,   0.00000
-318953663.24858,-77170328.42690,153463211.58817,  -0.00286,   0.00068,   0.00321,392078833.75185,   0.00203,276832072.31211,  -0.00156,   0.00041,   0.00121,-84753238.56026,   0.00000
-318933572.99311,-77391321.23710,153714339.78158,  -0.00286,   0.00068,   0.00321,392313197.26416,   0.00203,276832072.31211,  -0.00156,   0.00041,   0.00121,-84518875.04795,   0.00000
-318963708.37632,-77662539.68598,153955422.84725,  -0.00286,   0.00068,   0.00321,392561590.50996,   0.00203,276832072.31211,  -0.00156,   0.00041,   0.00121,-84270481.80215,   0.00000
-318978776.06792,-77898600.18779,154186460.78519,  -0.00286,   0.00068,   0.00322,392795169.79730,   0.00203,276832072.31211,  -0.00156,   0.00041,   0.00121,-84036902.51482,   0.00000
-319023979.14274,-78204976.58375,154417498.72312,  -0.00286,   0.00068,   0.00322,393036062.65550,   0.00203,276832072.31211,  -0.00156,   0.00041,   0.00121,-83796009.65662,   0.00000
-319089272.47302,-78491262.72423,154648536.66106,  -0.00285,   0.00068,   0.00322,393295857.95869,   0.00203,276832072.31211,  -0.00156,   0.00041,   0.00121,-83536214.35342,   0.00000
-319154565.80331,-78777548.86472,154869529.47126,  -0.00285,   0.00068,   0.00322,393544201.01332,   0.00203,276832072.31211,  -0.00156,   0.00041,   0.00121,-83287871.29880,   0.00000
-319234926.82520,-79098992.95228,155090522.28146,  -0.00285,   0.00067,   0.00323,393796442.68161,   0.00203,276832072.31211,  -0.00156,   0.00041,   0.00121,-83035629.63050,   0.00000
-319315287.84709,-79420437.03985,155301469.96392,  -0.00285,   0.00067,   0.00323,394037230.31842,   0.00203,276832072.31211,  -0.00156,   0.00041,   0.00121,-82794841.99369,   0.00000
-319430806.81606,-79756948.81901,155512417.64639,  -0.00285,   0.00067,   0.00323,394300292.72663,   0.00203,276832072.31211,  -0.00156,   0.00041,   0.00121,-82531779.58549,   0.00000
-319561393.47663,-80128618.54526,155723365.32885,  -0.00285,   0.00067,   0.00324,394567315.21889,   0.00203,276832072.31211,  -0.00156,   0.00041,   0.00121,-82264757.09322,   0.00000
-319727138.08428,-80515355.96311,155924267.88358,  -0.00285,   0.00067,   0.00324,394844720.09209,   0.00203,276832072.31211,  -0.00156,   0.00041,   0.00121,-81987352.22003,   0.00000
-319857724.74485,-80887025.68935,156115125.31057,  -0.00285,   0.00067,   0.00324,395088764.78287,   0.00203,276832072.31211,  -0.00156,   0.00041,   0.00121,-81743307.52925,   0.00000
-320023469.35250,-81273763.10720,156305982.73756,  -0.00285,   0.00067,   0.00324,395355048.76981,   0.00203,276832072.31211,  -0.00156,   0.00041,   0.00121,-81477023.54230,   0.00000
-320224371.90723,-81675568.21666,156496840.16455,  -0.00285,   0.00066,   0.00325,395643554.50205,   0.00203,276832072.31211,  -0.00156,   0.00041,   0.00121,-81188517.81007,   0.00000
-320405184.20649,-82097463.58159,156677652.46380,  -0.00285,   0.00066,   0.00325,395902365.48407,   0.00203,276832072.31211,  -0.00156,   0.00041,   0.00121,-80929706.82804,   0.00000
-320621154.45282,-82534426.63812,156858464.76306,  -0.00285,   0.00066,   0.00325,396183425.97312,   0.00203,276832072.31211,  -0.00156,   0.00041,   0.00121,-80648646.33900,   0.00000
-320837124.69915,-82971389.69465,157029231.93458,  -0.00285,   0.00066,   0.00325,396452959.42525,   0.00203,276832072.31211,  -0.00156,   0.00041,   0.00121,-80379112.88686,   0.00000
-321088252.89256,-83423420.44278,157189953.97836,  -0.00285,   0.00066,   0.00325,396732778.83082,   0.00203,276832072.31211,  -0.00156,   0.00041,   0.00121,-80099293.48129,   0.00000
-321319290.83049,-83895541.44639,157350676.02214,  -0.00285,   0.00066,   0.00326,396994960.15299,   0.00203,276832072.31211,  -0.00156,   0.00041,   0.00121,-79837112.15913,   0.00000
-321620644.66258,-84397797.83321,157511398.06592,  -0.00285,   0.00065,   0.00326,397301239.32237,   0.00203,276832072.31211,  -0.00156,   0.00041,   0.00121,-79530832.98974,   0.00000
-321886840.54760,-84884986.52842,157662074.98197,  -0.00286,   0.00065,   0.00326,397574179.99028,   0.00203,276832072.31211,  -0.00156,   0.00041,   0.00121,-79257892.32184,   0.00000
-322153036.43261,-85372175.22364,157812751.89801,  -0.00286,   0.00065,   0.00326,397847553.33530,   0.00203,276832072.31211,  -0.00156,   0.00041,   0.00121,-78984518.97681,   0.00000
-322454390.26470,-85874431.61046,157953383.68632,  -0.00286,   0.00065,   0.00326,398131232.85544,   0.00203,276832072.31211,  -0.00156,   0.00041,   0.00121,-78700839.45667,   0.00000
-322805969.73547,-86426913.63595,158083970.34689,  -0.00286,   0.00065,   0.00327,398429174.22286,   0.00203,276832072.31211,  -0.00156,   0.00041,   0.00121,-78402898.08925,   0.00000
-323122391.25917,-86964327.96985,158214557.00747,  -0.00286,   0.00065,   0.00327,398705769.47372,   0.00203,276832072.31211,  -0.00156,   0.00041,   0.00121,-78126302.83839,   0.00000
-323473970.72994,-87516809.99535,158335098.54030,  -0.00286,   0.00064,   0.00327,398992734.30232,   0.00203,276832072.31211,  -0.00156,   0.00041,   0.00121,-77839338.00979,   0.00000
-323825550.20071,-88069292.02085,158455640.07314,  -0.00286,   0.00064,   0.00327,399280189.62675,   0.00203,276832072.31211,  -0.00156,   0.00041,   0.00121,-77551882.68536,   0.00000
-324192197.36309,-88656931.99343,158566136.47824,  -0.00286,   0.00064,   0.00327,399560265.46703,   0.00203,276832072.31211,  -0.00156,   0.00041,   0.00121,-77271806.84508,   0.00000
-324578934.78094,-89224481.71053,158676632.88334,  -0.00286,   0.00064,   0.00327,399858634.11916,   0.00203,276832072.31211,  -0.00156,   0.00041,   0.00121,-76973438.19296,   0.00000
-324980739.89040,-89827189.37471,158777084.16070,  -0.00286,   0.00064,   0.00328,400149704.67204,   0.00203,276832072.31211,  -0.00156,   0.00041,   0.00121,-76682367.64007,   0.00000
-325397612.69145,-90465054.98597,158867490.31033,  -0.00286,   0.00063,   0.00328,400433587.53604,   0.00203,276832072.31211,  -0.00156,   0.00041,   0.00121,-76398484.77607,   0.00000
-325799417.80091,-91067762.65015,158957896.45996,  -0.00286,   0.00063,   0.00328,400713878.62487,   0.00203,276832072.31211,  -0.00156,   0.00041,   0.00121,-76118193.68724,   0.00000
-326236380.85744,-91685538.00594,159048302.60958,  -0.00286,   0.00063,   0.00328,401016637.64405,   0.00203,276832072.31211,  -0.00156,   0.00041,   0.00121,-75815434.66806,   0.00000
-326688411.60558,-92338471.30880,159118618.50374,  -0.00286,   0.00063,   0.00328,401300395.34328,   0.00203,276832072.31211,  -0.00156,   0.00041,   0.00121,-75531676.96883,   0.00000
-327140442.35371,-92991404.61166,159188934.39789,  -0.00286,   0.00063,   0.00328,401584824.93676,   0.00203,276832072.31211,  -0.00156,   0.00041,   0.00121,-75247247.37535,   0.00000
-327627631.04893,-93659405.60613,159259250.29205,  -0.00286,   0.00062,   0.00328,401891858.72793,   0.00203,276832072.31211,  -0.00156,   0.00041,   0.00121,-74940213.58418,   0.00000
-328114819.74414,-94327406.60060,159319521.05846,  -0.00287,   0.00062,   0.00328,402187647.65832,   0.00203,276832072.31211,  -0.00156,   0.00041,   0.00121,-74644424.65380,   0.00000
-328617076.13096,-95030565.54214,159369746.69715,  -0.00287,   0.00062,   0.00328,402476673.86760,   0.00203,276832072.31211,  -0.00156,   0.00041,   0.00121,-74355398.44452,   0.00000
-329119332.51777,-95733724.48369,159419972.33583,  -0.00287,   0.00062,   0.00328,402766488.52359,   0.00203,276832072.31211,  -0.00156,   0.00041,   0.00121,-74065583.78853,   0.00000
-329641679.16006,-96416793.16976,159460152.84677,  -0.00287,   0.00062,   0.00328,403062603.18051,   0.00203,276832072.31211,  -0.00156,   0.00041,   0.00121,-73769469.13161,   0.00000
-330179093.49396,-97135019.80291,159490288.22998,  -0.00287,   0.00061,   0.00328,403352140.42646,   0.00203,276832072.31211,  -0.00156,   0.00041,   0.00121,-73479931.88565,   0.00000
-330731575.51946,-97888404.38314,159520423.61319,  -0.00287,   0.00061,   0.00328,403647154.33251,   0.00203,276832072.31211,  -0.00156,   0.00041,   0.00121,-73184917.97960,   0.00000
-331268989.85335,-98606631.01629,159540513.86866,  -0.00287,   0.00061,   0.00329,403926501.93528,   0.00203,276832072.31211,  -0.00156,   0.00041,   0.00121,-72905570.37684,   0.00000
-331856629.82593,-99375083.28812,159550558.99640,  -0.00287,   0.00061,   0.00329,404221588.16356,   0.00203,276832072.31211,  -0.00156,   0.00041,   0.00121,-72610484.14855,   0.00000
-332429202.10690,-100108377.61287,159560604.12414,  -0.00287,   0.00060,   0.00329,404512883.29672,   0.00203,276832072.31211,  -0.00156,   0.00041,   0.00121,-72319189.01539,   0.00000
-333016842.07948,-100876829.88470,159560604.12414,  -0.00287,   0.00060,   0.00329,404798008.58498,   0.00203,276832072.31211,  -0.00156,   0.00041,   0.00121,-72034063.72714,   0.00000
-333604482.05206,-101645282.15653,159550558.99640,  -0.00288,   0.00060,   0.00329,405072258.67890,   0.00203,276832072.31211,  -0.00156,   0.00041,   0.00121,-71759813.63321,   0.00000
-334227279.97171,-102428802.11997,159540513.86866,  -0.00288,   0.00060,   0.00329,405369659.63690,   0.00203,276832072.31211,  -0.00156,   0.00041,   0.00121,-71462412.67522,   0.00000
-334865145.58297,-103247480.03048,159520423.61319,  -0.00288,   0.00059,   0.00328,405661215.88915,   0.00203,276832072.31211,  -0.00156,   0.00041,   0.00121,-71170856.42297,   0.00000
-335487943.50262,-104030999.99392,159490288.22998,  -0.00288,   0.00059,   0.00328,405937087.57136,   0.00203,276832072.31211,  -0.00156,   0.00041,   0.00121,-70894984.74075,   0.00000
-336125809.11388,-104849677.90443,159460152.84677,  -0.00288,   0.00059,   0.00328,406219094.48710,   0.00203,276832072.31211,  -0.00156,   0.00041,   0.00121,-70612977.82502,   0.00000
-336798832.67222,-105683423.50655,159409927.20809,  -0.00288,   0.00059,   0.00328,406500874.17014,   0.00203,276832072.31211,  -0.00156,   0.00041,   0.00121,-70331198.14197,   0.00000
-337436698.28348,-106502101.41706,159369746.69715,  -0.00288,   0.00058,   0.00328,406773467.64411,   0.00203,276832072.31211,  -0.00156,   0.00041,   0.00121,-70058604.66800,   0.00000
-338144879.78889,-107350914.71078,159309475.93073,  -0.00289,   0.00058,   0.00328,407068229.94499,   0.00203,276832072.31211,  -0.00156,   0.00041,   0.00121,-69763842.36712,   0.00000
-338817903.34723,-108184660.31290,159249205.16431,  -0.00289,   0.00058,   0.00328,407342019.20557,   0.00203,276832072.31211,  -0.00156,   0.00041,   0.00121,-69490053.10654,   0.00000
-339490926.90556,-109018405.91502,159178889.27016,  -0.00289,   0.00058,   0.00328,407605322.55288,   0.00203,276832072.31211,  -0.00156,   0.00041,   0.00121,-69226749.75924,   0.00000
-340214176.10258,-109902377.15582,159098528.24826,  -0.00289,   0.00057,   0.00328,407885886.61802,   0.00203,276832072.31211,  -0.00156,   0.00041,   0.00121,-68946185.69410,   0.00000
-340937425.29960,-110786348.39662,159018167.22637,  -0.00289,   0.00057,   0.00328,408167934.92923,   0.00203,276832072.31211,  -0.00156,   0.00041,   0.00121,-68664137.38288,   0.00000
-341645606.80501,-111635161.69034,158917715.94901,  -0.00289,   0.00057,   0.00328,408422561.50422,   0.00203,276832072.31211,  -0.00156,   0.00041,   0.00121,-68409510.80789,   0.00000
-342404013.94910,-112534200.62274,158817264.67165,  -0.00289,   0.00057,   0.00328,408706574.14804,   0.00203,276832072.31211,  -0.00156,   0.00041,   0.00121,-68125498.16407,   0.00000
-343127263.14612,-113418171.86354,158716813.39428,  -0.00290,   0.00056,   0.00327,408969698.24493,   0.00203,276832072.31211,  -0.00156,   0.00041,   0.00121,-67862374.06718,   0.00000
-343885670.29022,-114317210.79595,158596271.86145,  -0.00290,   0.00056,   0.00327,409233503.76025,   0.00203,276832072.31211,  -0.00156,   0.00041,   0.00121,-67598568.55186,   0.00000
-344659145.12592,-115251407.67543,158475730.32861,  -0.00290,   0.00056,   0.00327,409504618.96746,   0.00203,276832072.31211,  -0.00156,   0.00041,   0.00121,-67327453.34466,   0.00000
-345452710.21709,-116165514.29944,158345143.66804,  -0.00290,   0.00056,   0.00327,409782702.81948,   0.00203,276832072.31211,  -0.00156,   0.00041,   0.00121,-67049369.49264,   0.00000
-346211117.36118,-117064553.23184,158204511.87973,  -0.00290,   0.00055,   0.00327,410028292.15479,   0.00203,276832072.31211,  -0.00156,   0.00041,   0.00121,-66803780.15732,   0.00000
-347019750.14396,-118013817.80292,158063880.09142,  -0.00290,   0.00055,   0.00327,410304049.67969,   0.00203,276832072.31211,  -0.00156,   0.00041,   0.00121,-66528022.63242,   0.00000
-347828382.92674,-118963082.37401,157903158.04764,  -0.00291,   0.00055,   0.00326,410558502.93408,   0.00203,276832072.31211,  -0.00156,   0.00041,   0.00121,-66273569.37803,   0.00000
-348621948.01791,-119877188.99802,157742436.00386,  -0.00291,   0.00055,   0.00326,410808972.97863,   0.00203,276832072.31211,  -0.00156,   0.00041,   0.00121,-66023099.33348,   0.00000
-349430580.80069,-120826453.56910,157571668.83234,  -0.00291,   0.00054,   0.00326,411055710.68880,   0.00203,276832072.31211,  -0.00156,   0.00041,   0.00121,-65776361.62331,   0.00000
-350239213.58346,-121775718.14019,157390856.53308,  -0.00291,   0.00054,   0.00326,411292895.22893,   0.00203,276832072.31211,  -0.00156,   0.00041,   0.00121,-65539177.08319,   0.00000
-351083004.31332,-122740050.40288,157210044.23383,  -0.00291,   0.00054,   0.00325,411554910.39418,   0.00203,276832072.31211,  -0.00156,   0.00041,   0.00121,-65277161.91793,   0.00000
-351926795.04317,-123704382.66557,157009141.67910,  -0.00292,   0.00053,   0.00325,411796027.35841,   0.00203,276832072.31211,  -0.00156,   0.00041,   0.00121,-65036044.95371,   0.00000
-352770585.77302,-124668714.92826,156808239.12438,  -0.00292,   0.00053,   0.00325,412039307.16323,   0.00203,276832072.31211,  -0.00156,   0.00041,   0.00121,-64792765.14888,   0.00000
-353629444.19448,-125668205.13803,156597291.44191,  -0.00292,   0.00053,   0.00325,412279564.26297,   0.00203,276832072.31211,  -0.00156,   0.00041,   0.00121,-64552508.04915,   0.00000
-354473234.92434,-126632537.40072,156376298.63171,  -0.00292,   0.00053,   0.00324,412504386.58082,   0.00203,276832072.31211,  -0.00156,   0.00041,   0.00121,-64327685.73129,   0.00000
-355352183.60127,-127611937.35501,156155305.82151,  -0.00292,   0.00052,   0.00324,412754453.59393,   0.00203,276832072.31211,  -0.00156,   0.00041,   0.00121,-64077618.71818,   0.00000
-356246199.96980,-128626495.25638,155914222.75584,  -0.00293,   0.00052,   0.00324,412990514.05210,   0.00203,276832072.31211,  -0.00156,   0.00041,   0.00121,-63841558.26001,   0.00000
-357125148.64673,-129605895.21068,155673139.69017,  -0.00293,   0.00052,   0.00323,413222596.84060,   0.00203,276832072.31211,  -0.00156,   0.00041,   0.00121,-63609475.47151,   0.00000
-358019165.01527,-130620453.11205,155422011.49676,  -0.00293,   0.00052,   0.00323,413452300.39925,   0.00203,276832072.31211,  -0.00156,   0.00041,   0.00121,-63379771.91286,   0.00000
-358913181.38381,-131635011.01342,155160838.17561,  -0.00293,   0.00051,   0.00323,413673258.04469,   0.00203,276832072.31211,  -0.00156,   0.00041,   0.00121,-63158814.26743,   0.00000
-359792130.06074,-132614410.96772,154889619.72673,  -0.00293,   0.00051,   0.00322,413878871.58975,   0.00203,276832072.31211,  -0.00156,   0.00041,   0.00121,-62953200.72236,   0.00000
-360721304.37635,-133644036.56069,154608356.15011,  -0.00294,   0.00051,   0.00322,414105745.09808,   0.00203,276832072.31211,  -0.00156,   0.00041,   0.00121,-62726327.21403,   0.00000
-361650478.69196,-134673662.15367,154317047.44576,  -0.00294,   0.00050,   0.00322,414324176.25340,   0.00203,276832072.31211,  -0.00156,   0.00041,   0.00121,-62507896.05871,   0.00000
-362544495.06050,-135688220.05504,154025738.74140,  -0.00294,   0.00050,   0.00321,414522099.91672,   0.00203,276832072.31211,  -0.00156,   0.00041,   0.00121,-62309972.39539,   0.00000
-363458601.68451,-136682687.70094,153714339.78158,  -0.00294,   0.00050,   0.00321,414716901.60012,   0.00203,276832072.31211,  -0.00156,   0.00041,   0.00121,-62115170.71199,   0.00000
-364422933.94720,-137727380.98552,153402940.82175,  -0.00295,   0.00050,   0.00321,414944908.09563,   0.00203,276832072.31211,  -0.00156,   0.00041,   0.00121,-61887164.21648,   0.00000
-365352108.26281,-138757006.57850,153081496.73419,  -0.00295,   0.00049,   0.00320,415141348.12634,   0.00203,276832072.31211,  -0.00156,   0.00041,   0.00121,-61690724.18578,   0.00000
-366281282.57842,-139786632.17148,152750007.51889,  -0.00295,   0.00049,   0.00320,415329685.87992,   0.00203,276832072.31211,  -0.00156,   0.00041,   0.00121,-61502386.43220,   0.00000
-367245614.84111,-140831325.45606,152408473.17585,  -0.00295,   0.00049,   0.00319,415533566.91262,   0.00203,276832072.31211,  -0.00156,   0.00041,   0.00121,-61298505.39950,   0.00000
-368209947.10380,-141876018.74064,152056893.70508,  -0.00295,   0.00048,   0.00319,415729605.93853,   0.00203,276832072.31211,  -0.00156,   0.00041,   0.00121,-61102466.37359,   0.00000
-369139121.41942,-142905644.33361,151695269.10657,  -0.00296,   0.00048,   0.00318,415894234.34025,   0.00203,276832072.31211,  -0.00156,   0.00041,   0.00121,-60937837.97187,   0.00000
-370103453.68211,-143950337.61819,151333644.50806,  -0.00296,   0.00048,   0.00318,416085766.27529,   0.00203,276832072.31211,  -0.00156,   0.00041,   0.00121,-60746306.03683,   0.00000
-371067785.94480,-144995030.90278,150951929.65408,  -0.00296,   0.00048,   0.00317,416258730.67270,   0.00203,276832072.31211,  -0.00156,   0.00041,   0.00121,-60573341.63941,   0.00000
-372067276.15456,-146054791.87896,150560169.67236,  -0.00296,   0.00047,   0.00317,416448010.80983,   0.00203,276832072.31211,  -0.00156,   0.00041,   0.00121,-60384061.50228,   0.00000
-373031608.41725,-147099485.16354,150168409.69064,  -0.00297,   0.00047,   0.00316,416617013.18224,   0.00203,276832072.31211,  -0.00156,   0.00041,   0.00121,-60215059.12988,   0.00000
-373995940.67994,-148144178.44812,149766604.58119,  -0.00297,   0.00047,   0.00316,416778655.18944,   0.00203,276832072.31211,  -0.00156,   0.00041,   0.00121,-60053417.12268,   0.00000
-374995430.88971,-149203939.42431,149344709.21626,  -0.00297,   0.00046,   0.00315,416946183.20078,   0.00203,276832072.31211,  -0.00156,   0.00041,   0.00121,-59885889.11133,   0.00000
-375959763.15240,-150248632.70889,148922813.85134,  -0.00297,   0.00046,   0.00315,417093476.60865,   0.00203,276832072.31211,  -0.00156,   0.00041,   0.00121,-59738595.70346,   0.00000
-376944185.67056,-151273235.73800,148490873.35867,  -0.00298,   0.00046,   0.00314,417250000.25757,   0.00203,276832072.31211,  -0.00156,   0.00041,   0.00121,-59582072.05454,   0.00000
-377943675.88033,-152332996.71418,148048887.73827,  -0.00298,   0.00046,   0.00314,417407343.93570,   0.00203,276832072.31211,  -0.00156,   0.00041,   0.00121,-59424728.37642,   0.00000
-378943166.09010,-153392757.69037,147596856.99014,  -0.00298,   0.00045,   0.00313,417557924.80070,   0.00203,276832072.31211,  -0.00156,   0.00041,   0.00121,-59274147.51142,   0.00000
-379942656.29987,-154452518.66655,147134781.11426,  -0.00298,   0.00045,   0.00312,417701848.00273,   0.00203,276832072.31211,  -0.00156,   0.00041,   0.00121,-59130224.30939,   0.00000
-380942146.50963,-155512279.64274,146662660.11066,  -0.00299,   0.00045,   0.00312,417839220.39887,   0.00203,276832072.31211,  -0.00156,   0.00041,   0.00121,-58992851.91324,   0.00000
-381926569.02780,-156536882.67185,146180493.97931,  -0.00299,   0.00044,   0.00311,417962098.40236,   0.00203,276832072.31211,  -0.00156,   0.00041,   0.00121,-58869973.90975,   0.00000
-382926059.23756,-157596643.64803,145688282.72023,  -0.00299,   0.00044,   0.00310,418086635.03757,   0.00203,276832072.31211,  -0.00156,   0.00041,   0.00121,-58745437.27455,   0.00000
-383925549.44733,-158656404.62422,145196071.46115,  -0.00299,   0.00044,   0.00310,418215413.90924,   0.00203,276832072.31211,  -0.00156,   0.00041,   0.00121,-58616658.40287,   0.00000
-384945129.91257,-159696075.34493,144683769.94659,  -0.00300,   0.00044,   0.00309,418343809.45781,   0.00203,276832072.31211,  -0.00156,   0.00041,   0.00121,-58488262.85430,   0.00000
-385944620.12234,-160755836.32112,144161423.30430,  -0.00300,   0.00043,   0.00309,418449980.80851,   0.00203,276832072.31211,  -0.00156,   0.00041,   0.00121,-58382091.50360,   0.00000
-386964200.58758,-161795507.04183,143629031.53428,  -0.00300,   0.00043,   0.00308,418566488.97472,   0.00203,276832072.31211,  -0.00156,   0.00041,   0.00121,-58265583.33739,   0.00000
-387948623.10574,-162820110.07094,143096639.76425,  -0.00300,   0.00043,   0.00307,418662907.16120,   0.00203,276832072.31211,  -0.00156,   0.00041,   0.00121,-58169165.15092,   0.00000
-388983271.26259,-163894938.73873,142544157.73875,  -0.00301,   0.00042,   0.00306,418776381.34056,   0.00203,276832072.31211,  -0.00156,   0.00041,   0.00121,-58055690.97156,   0.00000
-390002851.72783,-164934609.45944,141981630.58551,  -0.00301,   0.00042,   0.00306,418875914.78473,   0.00203,276832072.31211,  -0.00156,   0.00041,   0.00121,-57956157.52739,   0.00000
-390987274.24599,-165959212.48855,141419103.43228,  -0.00301,   0.00042,   0.00305,418955435.75897,   0.00203,276832072.31211,  -0.00156,   0.00041,   0.00121,-57876636.55315,   0.00000
-392006854.71123,-166998883.20926,140836486.02357,  -0.00301,   0.00042,   0.00304,419044200.02308,   0.00203,276832072.31211,  -0.00156,   0.00041,   0.00121,-57787872.28904,   0.00000
-393026435.17647,-168038553.92998,140243823.48712,  -0.00302,   0.00041,   0.00303,419127821.32657,   0.00203,276832072.31211,  -0.00156,   0.00041,   0.00121,-57704250.98554,   0.00000
-394046015.64171,-169078224.65069,139651160.95068,  -0.00302,   0.00041,   0.00303,419216469.14616,   0.00203,276832072.31211,  -0.00156,   0.00041,   0.00121,-57615603.16595,   0.00000
-395050528.41534,-170082737.42432,139038408.15876,  -0.00302,   0.00041,   0.00302,419281312.61380,   0.00203,276832072.31211,  -0.00156,   0.00041,   0.00121,-57550759.69831,   0.00000
-396070108.88058,-171122408.14504,138415610.23911,  -0.00302,   0.00041,   0.00301,419350190.61128,   0.00203,276832072.31211,  -0.00156,   0.00041,   0.00121,-57481881.70083,   0.00000
-397074621.65422,-172126920.91867,137782767.19172,  -0.00303,   0.00040,   0.00300,419405499.33390,   0.00203,276832072.31211,  -0.00156,   0.00041,   0.00121,-57426572.97821,   0.00000
-398094202.11946,-173166591.63938,137149924.14433,  -0.00303,   0.00040,   0.00299,419475090.04360,   0.00203,276832072.31211,  -0.00156,   0.00041,   0.00121,-57356982.26851,   0.00000
-399098714.89310,-174171104.41302,136496990.84146,  -0.00303,   0.00040,   0.00299,419521369.45017,   0.00203,276832072.31211,  -0.00156,   0.00041,   0.00121,-57310702.86194,   0.00000
-400103227.66673,-175175617.18666,135834012.41086,  -0.00303,   0.00039,   0.00298,419563340.37196,   0.00203,276832072.31211,  -0.00156,   0.00041,   0.00121,-57268731.94016,   0.00000
-401107740.44037,-176180129.96029,135171033.98027,  -0.00304,   0.00039,   0.00297,419610854.33652,   0.00203,276832072.31211,  -0.00156,   0.00041,   0.00121,-57221217.97560,   0.00000
-402112253.21400,-177184642.73393,134487965.29419,  -0.00304,   0.00039,   0.00296,419644592.84953,   0.00203,276832072.31211,  -0.00156,   0.00041,   0.00121,-57187479.46258,   0.00000
-403116765.98764,-178189155.50756,133794851.48038,  -0.00304,   0.00039,   0.00295,419674460.63172,   0.00203,276832072.31211,  -0.00156,   0.00041,   0.00121,-57157611.68039,   0.00000
-404106211.06967,-179158510.33412,133091692.53884,  -0.00305,   0.00038,   0.00294,419691232.60652,   0.00203,276832072.31211,  -0.00156,   0.00041,   0.00121,-57140839.70560,   0.00000
-405110723.84330,-180163023.10776,132378488.46956,  -0.00305,   0.00038,   0.00293,419713751.73521,   0.00203,276832072.31211,  -0.00156,   0.00041,   0.00121,-57118320.57690,   0.00000
-406100168.92534,-181132377.93431,131655239.27254,  -0.00305,   0.00038,   0.00292,419723364.06743,   0.00203,276832072.31211,  -0.00156,   0.00041,   0.00121,-57108708.24468,   0.00000
-407089614.00737,-182101732.76087,130921944.94779,  -0.00305,   0.00038,   0.00291,419729600.83156,   0.00203,276832072.31211,  -0.00156,   0.00041,   0.00121,-57102471.48056,   0.00000
-408079059.08940,-183071087.58743,130178605.49530,  -0.00306,   0.00037,   0.00290,419732620.12224,   0.00203,276832072.31211,  -0.00156,   0.00041,   0.00121,-57099452.18987,   0.00000
-409068504.17143,-184040442.41399,129425220.91507,  -0.00306,   0.00037,   0.00289,419732582.11675,   0.00203,276832072.31211,  -0.00156,   0.00041,   0.00121,-57099490.19537,   0.00000
-410042881.56186,-184974639.29347,128661791.20711,  -0.00306,   0.00037,   0.00288,419719927.26031,   0.00203,276832072.31211,  -0.00156,   0.00041,   0.00121,-57112145.05180,   0.00000
-411032326.64389,-185943994.12003,127888316.37141,  -0.00306,   0.00037,   0.00287,419714205.57318,   0.00203,276832072.31211,  -0.00156,   0.00041,   0.00121,-57117866.73894,   0.00000
-412006704.03431,-186878190.99951,127104796.40797,  -0.00307,   0.00036,   0.00286,419696083.75657,   0.00203,276832072.31211,  -0.00156,   0.00041,   0.00121,-57135988.55555,   0.00000
-412981081.42474,-187812387.87899,126301186.18906,  -0.00307,   0.00036,   0.00285,419666382.38322,   0.00203,276832072.31211,  -0.00156,   0.00041,   0.00121,-57165689.92889,   0.00000
-413955458.81517,-188746584.75847,125497575.97015,  -0.00307,   0.00036,   0.00284,419643468.63799,   0.00203,276832072.31211,  -0.00156,   0.00041,   0.00121,-57188603.67412,   0.00000
-414914768.51399,-189645623.69088,124683920.62351,  -0.00307,   0.00036,   0.00283,419608386.29474,   0.00203,276832072.31211,  -0.00156,   0.00041,   0.00121,-57223686.01737,   0.00000
-415889145.90441,-190579820.57036,123850175.02139,  -0.00308,   0.00036,   0.00282,419572363.77602,   0.00203,276832072.31211,  -0.00156,   0.00041,   0.00121,-57259708.53609,   0.00000
-416848455.60324,-191478859.50276,123016429.41928,  -0.00308,   0.00035,   0.00281,419533368.67535,   0.00203,276832072.31211,  -0.00156,   0.00041,   0.00121,-57298703.63676,   0.00000
-417772607.35498,-192362830.74356,122162593.56168,  -0.00308,   0.00035,   0.00280,419457490.75095,   0.00203,276832072.31211,  -0.00156,   0.00041,   0.00121,-57374581.56116,   0.00000
-418731917.05380,-193261869.67596,121298712.57636,  -0.00308,   0.00035,   0.00279,419406471.65420,   0.00203,276832072.31211,  -0.00156,   0.00041,   0.00121,-57425600.65791,   0.00000
-419676159.06102,-194125750.66129,120434831.59103,  -0.00309,   0.00035,   0.00278,419352574.95660,   0.00203,276832072.31211,  -0.00156,   0.00041,   0.00121,-57479497.35551,   0.00000
-420600310.81276,-195009721.90209,119550860.35023,  -0.00309,   0.00034,   0.00277,419272570.14982,   0.00203,276832072.31211,  -0.00156,   0.00041,   0.00121,-57559502.16229,   0.00000
-421544552.81998,-195873602.88742,118656843.98170,  -0.00309,   0.00034,   0.00275,419207786.01187,   0.00203,276832072.31211,  -0.00156,   0.00041,   0.00121,-57624286.30025,   0.00000
-422453636.88012,-196722416.18114,117752782.48542,  -0.00309,   0.00034,   0.00274,419115541.96784,   0.00203,276832072.31211,  -0.00156,   0.00041,   0.00121,-57716530.34427,   0.00000
-423347653.24866,-197536071.52778,116838675.86142,  -0.00310,   0.00034,   0.00273,419012089.66291,   0.00203,276832072.31211,  -0.00156,   0.00041,   0.00121,-57819982.64921,   0.00000
-424291895.25588,-198399952.51311,115914524.10967,  -0.00310,   0.00034,   0.00272,418945333.38525,   0.00203,276832072.31211,  -0.00156,   0.00041,   0.00121,-57886738.92686,   0.00000
-425185911.62441,-199213607.85975,114980327.23019,  -0.00310,   0.00033,   0.00271,418840934.58547,   0.00203,276832072.31211,  -0.00156,   0.00041,   0.00121,-57991137.72665,   0.00000
-426079927.99295,-200027263.20640,114026040.09524,  -0.00310,   0.00033,   0.00269,418728101.06334,   0.00203,276832072.31211,  -0.00156,   0.00041,   0.00121,-58103971.24878,   0.00000
-426958876.66988,-200805760.60597,113071752.96028,  -0.00311,   0.00033,   0.00268,418612825.69352,   0.00203,276832072.31211,  -0.00156,   0.00041,   0.00121,-58219246.61859,   0.00000
-427852893.03841,-201619415.95261,112107420.69759,  -0.00311,   0.00033,   0.00267,418508372.54322,   0.00203,276832072.31211,  -0.00156,   0.00041,   0.00121,-58323699.76890,   0.00000
-428731841.71534,-202397913.35218,111122998.17943,  -0.00311,   0.00033,   0.00266,418385515.34713,   0.00203,276832072.31211,  -0.00156,   0.00041,   0.00121,-58446556.96499,   0.00000
-429610790.39228,-203176410.75175,110128530.53353,  -0.00311,   0.00032,   0.00264,418263297.94489,   0.00203,276832072.31211,  -0.00156,   0.00041,   0.00121,-58568774.36722,   0.00000
-430439513.43053,-203904682.51263,109134062.88763,  -0.00312,   0.00032,   0.00263,418111699.18220,   0.00203,276832072.31211,  -0.00156,   0.00041,   0.00121,-58720373.12991,   0.00000
-431303394.41585,-204648021.96512,108119504.98626,  -0.00312,   0.00032,   0.00262,417980294.35638,   0.00203,276832072.31211,  -0.00156,   0.00041,   0.00121,-58851777.95573,   0.00000
-432132117.45410,-205376293.72601,107094901.95715,  -0.00312,   0.00032,   0.00260,417822749.92266,   0.00203,276832072.31211,  -0.00156,   0.00041,   0.00121,-59009322.38945,   0.00000
-432995998.43943,-206119633.17850,106060253.80031,  -0.00312,   0.00032,   0.00259,417693899.63065,   0.00203,276832072.31211,  -0.00156,   0.00041,   0.00121,-59138172.68146,   0.00000
-433809653.78607,-206812746.99231,105015560.51573,  -0.00313,   0.00032,   0.00258,417528161.58496,   0.00203,276832072.31211,  -0.00156,   0.00041,   0.00121,-59303910.72716,   0.00000
-434623309.13272,-207505860.80612,103960822.10341,  -0.00313,   0.00031,   0.00256,417364081.85135,   0.00203,276832072.31211,  -0.00156,   0.00041,   0.00121,-59467990.46076,   0.00000
-435436964.47936,-208198974.61993,102885993.43562,  -0.00313,   0.00031,   0.00255,417194458.84057,   0.00203,276832072.31211,  -0.00156,   0.00041,   0.00121,-59637613.47154,   0.00000
-436235552.13440,-208856930.48666,101811164.76783,  -0.00313,   0.00031,   0.00253,417023255.68788,   0.00203,276832072.31211,  -0.00156,   0.00041,   0.00121,-59808816.62424,   0.00000
-437034139.78944,-209514886.35339,100716245.84457,  -0.00314,   0.00031,   0.00252,416847040.70643,   0.00203,276832072.31211,  -0.00156,   0.00041,   0.00121,-59985031.60569,   0.00000
-437797569.49741,-210157774.52851,99621326.92130,  -0.00314,   0.00031,   0.00251,416652931.68983,   0.00203,276832072.31211,  -0.00156,   0.00041,   0.00121,-60179140.62228,   0.00000
-438596157.15245,-210815730.39525,98506317.74257,  -0.00314,   0.00031,   0.00249,416482143.60034,   0.00203,276832072.31211,  -0.00156,   0.00041,   0.00121,-60349928.71178,   0.00000
-439344519.16880,-211423460.62330,97381263.43610,  -0.00314,   0.00031,   0.00248,416275244.25827,   0.00203,276832072.31211,  -0.00156,   0.00041,   0.00121,-60556828.05384,   0.00000
-440077813.49356,-211996032.90427,96246164.00189,  -0.00315,   0.00030,   0.00246,416060117.67752,   0.00203,276832072.31211,  -0.00156,   0.00041,   0.00121,-60771954.63459,   0.00000
-440826175.50992,-212603763.13232,95101019.43994,  -0.00315,   0.00030,   0.00245,415859814.12928,   0.00203,276832072.31211,  -0.00156,   0.00041,   0.00121,-60972258.18284,   0.00000
-441559469.83467,-213176335.41329,93945829.75026,  -0.00315,   0.00030,   0.00243,415651708.18477,   0.00203,276832072.31211,  -0.00156,   0.00041,   0.00121,-61180364.12734,   0.00000
-442277696.46782,-213713749.74718,92780594.93284,  -0.00315,   0.00030,   0.00242,415435938.58798,   0.00203,276832072.31211,  -0.00156,   0.00041,   0.00121,-61396133.72413,   0.00000
-443010990.79257,-214286322.02816,91595269.85995,  -0.00315,   0.00030,   0.00240,415229153.98432,   0.00203,276832072.31211,  -0.00156,   0.00041,   0.00121,-61602918.32779,   0.00000
-443694059.47865,-214808668.67045,90409944.78706,  -0.00316,   0.00030,   0.00239,414993646.56368,   0.00203,276832072.31211,  -0.00156,   0.00041,   0.00121,-61838425.74844,   0.00000
-444362060.47311,-215295857.36566,89204529.45870,  -0.00316,   0.00030,   0.00237,414744476.06236,   0.00203,276832072.31211,  -0.00156,   0.00041,   0.00121,-62087596.24975,   0.00000
-445065219.41466,-215798113.75248,87999114.13034,  -0.00316,   0.00030,   0.00235,414534887.37186,   0.00203,276832072.31211,  -0.00156,   0.00041,   0.00121,-62297184.94025,   0.00000
-445733220.40913,-216285302.44769,86773608.54650,  -0.00316,   0.00030,   0.00234,414295629.79176,   0.00203,276832072.31211,  -0.00156,   0.00041,   0.00121,-62536442.52035,   0.00000
-446366063.45652,-216757423.45130,85538057.83493,  -0.00316,   0.00030,   0.00232,414033287.80485,   0.00203,276832072.31211,  -0.00156,   0.00041,   0.00121,-62798784.50726,   0.00000
-447018996.75938,-217209454.19944,84292461.99562,  -0.00317,   0.00029,   0.00231,413793228.07695,   0.00203,276832072.31211,  -0.00156,   0.00041,   0.00121,-63038844.23516,   0.00000
-447621704.42356,-217611259.30889,83036821.02858,  -0.00317,   0.00029,   0.00229,413518643.58823,   0.00203,276832072.31211,  -0.00156,   0.00041,   0.00121,-63313428.72388,   0.00000
-448274637.72642,-218063290.05703,81771134.93380,  -0.00317,   0.00029,   0.00227,413290530.34468,   0.00203,276832072.31211,  -0.00156,   0.00041,   0.00121,-63541541.96743,   0.00000
-448862277.69900,-218429937.21940,80485358.58355,  -0.00317,   0.00029,   0.00226,413010534.38844,   0.00203,276832072.31211,  -0.00156,   0.00041,   0.00121,-63821537.92368,   0.00000
-449464985.36318,-218831742.32886,79199582.23329,  -0.00317,   0.00029,   0.00224,412754915.33494,   0.00203,276832072.31211,  -0.00156,   0.00041,   0.00121,-64077156.97717,   0.00000
-450052625.33576,-219198389.49123,77893715.62757,  -0.00318,   0.00029,   0.00222,412488523.07678,   0.00203,276832072.31211,  -0.00156,   0.00041,   0.00121,-64343549.23533,   0.00000
-450605107.36126,-219549968.96201,76587849.02184,  -0.00318,   0.00029,   0.00221,412206150.08677,   0.00203,276832072.31211,  -0.00156,   0.00041,   0.00121,-64625922.22534,   0.00000
-451142521.69515,-219866390.48570,75261892.16064,  -0.00318,   0.00029,   0.00219,411913563.67780,   0.00203,276832072.31211,  -0.00156,   0.00041,   0.00121,-64918508.63432,   0.00000
-451700026.28452,-220162721.75392,73925890.17171,  -0.00318,   0.00029,   0.00217,411645651.38654,   0.00203,276832072.31211,  -0.00156,   0.00041,   0.00121,-65186420.92557,   0.00000
-452202282.67134,-220464075.58602,72579843.05503,  -0.00318,   0.00029,   0.00215,411339829.95064,   0.00203,276832072.31211,  -0.00156,   0.00041,   0.00121,-65492242.36147,   0.00000
-452724629.31363,-220745339.16263,71223750.81063,  -0.00319,   0.00029,   0.00214,411059254.78291,   0.00203,276832072.31211,  -0.00156,   0.00041,   0.00121,-65772817.52921,   0.00000
-453231908.26432,-220991444.79217,69857613.43848,  -0.00319,   0.00029,   0.00212,410775200.77648,   0.00203,276832072.31211,  -0.00156,   0.00041,   0.00121,-66056871.53563,   0.00000
-453704029.26792,-221222482.73011,68471385.81086,  -0.00319,   0.00029,   0.00210,410465824.74610,   0.00203,276832072.31211,  -0.00156,   0.00041,   0.00121,-66366247.56601,   0.00000
-454176150.27153,-221453520.66805,67085158.18325,  -0.00319,   0.00029,   0.00208,410170678.07934,   0.00203,276832072.31211,  -0.00156,   0.00041,   0.00121,-66661394.23277,   0.00000
-454633203.58354,-221649400.65891,65678840.30016,  -0.00319,   0.00029,   0.00206,409867978.38899,   0.00203,276832072.31211,  -0.00156,   0.00041,   0.00121,-66964093.92313,   0.00000
-455075189.20394,-221810122.70269,64272522.41707,  -0.00319,   0.00029,   0.00205,409567755.34661,   0.00203,276832072.31211,  -0.00156,   0.00041,   0.00121,-67264316.96550,   0.00000
-455482016.87726,-221955777.05486,62846114.27851,  -0.00320,   0.00029,   0.00203,409243536.19308,   0.00203,276832072.31211,  -0.00156,   0.00041,   0.00121,-67588536.11903,   0.00000
-455924002.49766,-222116499.09865,61409661.01221,  -0.00320,   0.00029,   0.00201,408959204.97331,   0.00203,276832072.31211,  -0.00156,   0.00041,   0.00121,-67872867.33880,   0.00000
-456315762.47938,-222226995.50375,59963162.61817,  -0.00320,   0.00029,   0.00199,408644068.02801,   0.00203,276832072.31211,  -0.00156,   0.00041,   0.00121,-68188004.28410,   0.00000
-456672364.51402,-222322424.21724,58506619.09640,  -0.00320,   0.00029,   0.00197,408310513.09408,   0.00203,276832072.31211,  -0.00156,   0.00041,   0.00121,-68521559.21803,   0.00000
-457049056.80413,-222397762.67526,57040030.44689,  -0.00320,   0.00029,   0.00195,408005652.80714,   0.00203,276832072.31211,  -0.00156,   0.00041,   0.00121,-68826419.50498,   0.00000
-457390591.14717,-222458033.44168,55563396.66965,  -0.00320,   0.00029,   0.00193,407682954.31594,   0.00203,276832072.31211,  -0.00156,   0.00041,   0.00121,-69149117.99617,   0.00000
-457717057.79860,-222483146.26102,54066672.63693,  -0.00320,   0.00029,   0.00191,407356035.33485,   0.00203,276832072.31211,  -0.00156,   0.00041,   0.00121,-69476036.97727,   0.00000
-458043524.45003,-222508259.08036,52569948.60421,  -0.00321,   0.00029,   0.00189,407045607.92363,   0.00203,276832072.31211,  -0.00156,   0.00041,   0.00121,-69786464.38848,   0.00000
-458354923.40986,-222498213.95263,51063179.44376,  -0.00321,   0.00029,   0.00187,406735643.99472,   0.00203,276832072.31211,  -0.00156,   0.00041,   0.00121,-70096428.31740,   0.00000
-458631164.42261,-222473101.13329,49536320.02783,  -0.00321,   0.00029,   0.00185,406405301.74658,   0.00203,276832072.31211,  -0.00156,   0.00041,   0.00121,-70426770.56553,   0.00000
-458892337.74375,-222412830.36687,47999415.48417,  -0.00321,   0.00029,   0.00184,406076264.68551,   0.00203,276832072.31211,  -0.00156,   0.00041,   0.00121,-70755807.62660,   0.00000
-459138443.37329,-222317401.65337,46452465.81277,  -0.00321,   0.00030,   0.00181,405748895.58875,   0.00203,276832072.31211,  -0.00156,   0.00041,   0.00121,-71083176.72336,   0.00000
-459399616.69444,-222257130.88695,44895471.01364,  -0.00321,   0.00030,   0.00179,405448158.54143,   0.00203,276832072.31211,  -0.00156,   0.00041,   0.00121,-71383913.77069,   0.00000
-459595496.68530,-222111476.53478,43328431.08677,  -0.00321,   0.00030,   0.00177,405107582.03924,   0.00203,276832072.31211,  -0.00156,   0.00041,   0.00121,-71724490.27287,   0.00000
-459826534.62323,-221980889.87420,41751346.03216,  -0.00322,   0.00030,   0.00175,404812028.91714,   0.00203,276832072.31211,  -0.00156,   0.00041,   0.00121,-72020043.39498,   0.00000
-459987256.66702,-221820167.83042,40164215.84981,  -0.00322,   0.00030,   0.00173,404471884.53973,   0.00203,276832072.31211,  -0.00156,   0.00041,   0.00121,-72360187.77238,   0.00000
-460168068.96627,-221639355.53117,38567040.53973,  -0.00322,   0.00030,   0.00171,404165252.36924,   0.00203,276832072.31211,  -0.00156,   0.00041,   0.00121,-72666819.94287,   0.00000
-460298655.62684,-221408317.59323,36959820.10192,  -0.00322,   0.00030,   0.00169,403832427.43058,   0.00203,276832072.31211,  -0.00156,   0.00041,   0.00121,-72999644.88153,   0.00000
-460464400.23449,-221192347.34690,35332509.40863,  -0.00322,   0.00030,   0.00167,403543647.59456,   0.00203,276832072.31211,  -0.00156,   0.00041,   0.00121,-73288424.71755,   0.00000
-460559828.94799,-220946241.71736,33705198.71534,  -0.00322,   0.00030,   0.00165,403214280.17730,   0.00203,276832072.31211,  -0.00156,   0.00041,   0.00121,-73617792.13481,   0.00000
-460660280.22535,-220644887.88527,32057797.76658,  -0.00322,   0.00031,   0.00163,402905487.22574,   0.00203,276832072.31211,  -0.00156,   0.00041,   0.00121,-73926585.08637,   0.00000
-460740641.24724,-220363624.30865,30400351.69008,  -0.00322,   0.00031,   0.00161,402596736.19202,   0.00203,276832072.31211,  -0.00156,   0.00041,   0.00121,-74235336.12009,   0.00000
-460790866.88592,-220012044.83788,28742905.61358,  -0.00322,   0.00031,   0.00158,402284036.32554,   0.00203,276832072.31211,  -0.00156,   0.00041,   0.00121,-74548035.98657,   0.00000
-460841092.52461,-219660465.36711,27065369.28161,  -0.00322,   0.00031,   0.00156,401987893.35423,   0.00203,276832072.31211,  -0.00156,   0.00041,   0.00121,-74844178.95788,   0.00000
-460891318.16329,-219308885.89633,25377787.82190,  -0.00323,   0.00031,   0.00154,401711002.37596,   0.00203,276832072.31211,  -0.00156,   0.00041,   0.00121,-75121069.93615,   0.00000
-460891318.16329,-218907080.78688,23680161.23445,  -0.00323,   0.00031,   0.00152,401411253.28776,   0.00203,276832072.31211,  -0.00156,   0.00041,   0.00121,-75420819.02435,   0.00000
-460876250.47168,-218470117.73035,21972489.51927,  -0.00323,   0.00032,   0.00150,401119424.58238,   0.00203,276832072.31211,  -0.00156,   0.00041,   0.00121,-75712647.72973,   0.00000
-460861182.78008,-218033154.67382,20254772.67636,  -0.00323,   0.00032,   0.00147,400848146.09866,   0.00203,276832072.31211,  -0.00156,   0.00041,   0.00121,-75983926.21345,   0.00000
-460795889.44979,-217545965.97860,18527010.70570,  -0.00323,   0.00032,   0.00145,400555317.69673,   0.00203,276832072.31211,  -0.00156,   0.00041,   0.00121,-76276754.61538,   0.00000
-460715528.42790,-217023619.33631,16789203.60731,  -0.00323,   0.00032,   0.00143,400271820.25952,   0.00203,276832072.31211,  -0.00156,   0.00041,   0.00121,-76560252.05259,   0.00000
-460635167.40601,-216501272.69402,15031306.25345,  -0.00323,   0.00032,   0.00141,400009098.69817,   0.00203,276832072.31211,  -0.00156,   0.00041,   0.00121,-76822973.61394,   0.00000
-460519648.43704,-215963858.36013,13273408.89959,  -0.00323,   0.00033,   0.00138,399739521.11182,   0.00203,276832072.31211,  -0.00156,   0.00041,   0.00121,-77092551.20030,   0.00000
-460409152.03194,-215371195.82368,11505466.41799,  -0.00323,   0.00033,   0.00136,399499182.59803,   0.00203,276832072.31211,  -0.00156,   0.00041,   0.00121,-77332889.71408,   0.00000
-460278565.37137,-214798623.54271,9717433.68092,  -0.00323,   0.00033,   0.00134,399262933.01559,   0.00203,276832072.31211,  -0.00156,   0.00041,   0.00121,-77569139.29652,   0.00000
-460082685.38051,-214140667.67598,7929400.94385,  -0.00323,   0.00033,   0.00131,398996886.83510,   0.00203,276832072.31211,  -0.00156,   0.00041,   0.00121,-77835185.47702,   0.00000
-459921963.33673,-213497779.50085,6121277.95131,  -0.00323,   0.00034,   0.00129,398785163.24772,   0.00203,276832072.31211,  -0.00156,   0.00041,   0.00121,-78046909.06439,   0.00000
-459711015.65427,-212804665.68704,4313154.95876,  -0.00323,   0.00034,   0.00127,398556400.73920,   0.00203,276832072.31211,  -0.00156,   0.00041,   0.00121,-78275671.57291,   0.00000
-459500067.97180,-212111551.87324,2484941.71074,  -0.00323,   0.00034,   0.00124,398352702.02011,   0.00203,276832072.31211,  -0.00156,   0.00041,   0.00121,-78479370.29200,   0.00000
-459238894.65066,-211368212.42075,656728.46273,  -0.00323,   0.00035,   0.00122,398132733.17115,   0.00203,276832072.31211,  -0.00156,   0.00041,   0.00121,-78699339.14096,   0.00000
-458962653.63791,-210589715.02118,-1191575.04076,  -0.00323,   0.00035,   0.00120,397927368.53013,   0.00203,276832072.31211,  -0.00156,   0.00041,   0.00121,-78904703.78199,   0.00000
-458686412.62516,-209811217.62161,-3049923.67199,  -0.00323,   0.00035,   0.00117,397749071.06195,   0.00203,276832072.31211,  -0.00156,   0.00041,   0.00121,-79083001.25017,   0.00000
-458395103.92080,-208997562.27497,-4908272.30321,  -0.00323,   0.00035,   0.00115,397586300.65461,   0.00203,276832072.31211,  -0.00156,   0.00041,   0.00121,-79245771.65750,   0.00000
-458053569.57777,-208133681.28964,-6786711.18991,  -0.00323,   0.00036,   0.00112,397409743.93233,   0.00203,276832072.31211,  -0.00156,   0.00041,   0.00121,-79422328.37979,   0.00000
-457712035.23473,-207269800.30431,-8675195.20435,  -0.00323,   0.00036,   0.00110,397261843.38850,   0.00203,276832072.31211,  -0.00156,   0.00041,   0.00121,-79570228.92362,   0.00000
-457355433.20009,-206370761.37191,-10573724.34652,  -0.00323,   0.00036,   0.00107,397131597.08017,   0.00203,276832072.31211,  -0.00156,   0.00041,   0.00121,-79700475.23194,   0.00000
-456948605.52677,-205421496.80082,-12472253.48869,  -0.00323,   0.00037,   0.00105,396988191.57961,   0.00203,276832072.31211,  -0.00156,   0.00041,   0.00121,-79843880.73250,   0.00000
-456541777.85344,-204472232.22974,-14390872.88633,  -0.00323,   0.00037,   0.00102,396875879.74335,   0.00203,276832072.31211,  -0.00156,   0.00041,   0.00121,-79956192.56876,   0.00000
-456119882.48852,-203487809.71157,-16319537.41171,  -0.00323,   0.00037,   0.00100,396783041.41314,   0.00203,276832072.31211,  -0.00156,   0.00041,   0.00121,-80049030.89897,   0.00000
-455697987.12359,-202503387.19341,-18258247.06483,  -0.00323,   0.00038,   0.00097,396721542.29534,   0.00203,276832072.31211,  -0.00156,   0.00041,   0.00121,-80110530.01678,   0.00000
-455210798.42838,-201433581.08949,-20207001.84568,  -0.00323,   0.00038,   0.00095,396639113.16092,   0.00203,276832072.31211,  -0.00156,   0.00041,   0.00121,-80192959.15120,   0.00000
-454723609.73316,-200363774.98557,-22155756.62654,  -0.00323,   0.00039,   0.00092,396587565.62594,   0.00203,276832072.31211,  -0.00156,   0.00041,   0.00121,-80244506.68618,   0.00000
-454201263.09087,-199278901.19004,-24124601.66286,  -0.00323,   0.00039,   0.00090,396540197.76203,   0.00203,276832072.31211,  -0.00156,   0.00041,   0.00121,-80291874.55008,   0.00000
-453648781.06537,-198123711.50036,-26103491.82692,  -0.00323,   0.00039,   0.00087,396504499.66572,   0.00203,276832072.31211,  -0.00156,   0.00041,   0.00121,-80327572.64639,   0.00000
-453096299.03988,-196968521.81068,-28092427.11872,  -0.00323,   0.00040,   0.00085,396503089.41092,   0.00203,276832072.31211,  -0.00156,   0.00041,   0.00121,-80328982.90119,   0.00000
-452528749.32277,-195778174.17392,-30091407.53826,  -0.00323,   0.00040,   0.00082,396525646.79449,   0.00203,276832072.31211,  -0.00156,   0.00041,   0.00121,-80306425.51763,   0.00000
-451926041.65859,-194572758.84556,-32090387.95779,  -0.00323,   0.00041,   0.00079,396550864.19292,   0.00203,276832072.31211,  -0.00156,   0.00041,   0.00121,-80281208.11919,   0.00000
-451308266.30280,-193332185.57012,-34109458.63280,  -0.00323,   0.00041,   0.00077,396603627.34731,   0.00203,276832072.31211,  -0.00156,   0.00041,   0.00121,-80228444.96480,   0.00000
-450675423.25541,-192056454.34760,-36138574.43554,  -0.00323,   0.00042,   0.00074,396682347.24736,   0.00203,276832072.31211,  -0.00156,   0.00041,   0.00121,-80149725.06475,   0.00000
-449992354.56934,-190730497.48640,-38167690.23829,  -0.00323,   0.00042,   0.00071,396754702.46055,   0.00203,276832072.31211,  -0.00156,   0.00041,   0.00121,-80077369.85156,   0.00000
-449309285.88327,-189404540.62520,-40216896.29650,  -0.00323,   0.00043,   0.00069,396867599.76369,   0.00203,276832072.31211,  -0.00156,   0.00041,   0.00121,-79964472.54843,   0.00000
-448611149.50559,-188043425.81693,-42276147.48246,  -0.00323,   0.00043,   0.00066,397008480.99111,   0.00203,276832072.31211,  -0.00156,   0.00041,   0.00121,-79823591.32100,   0.00000
-447897945.43631,-186647153.06157,-44335398.66841,  -0.00323,   0.00044,   0.00063,397174691.56469,   0.00203,276832072.31211,  -0.00156,   0.00041,   0.00121,-79657380.74743,   0.00000
-447149583.41995,-185235812.61462,-46414740.10983,  -0.00323,   0.00044,   0.00061,397353651.14837,   0.00203,276832072.31211,  -0.00156,   0.00041,   0.00121,-79478421.16374,   0.00000
-446386153.71199,-183789314.22058,-48494081.55126,  -0.00323,   0.00045,   0.00058,397558967.97289,   0.00203,276832072.31211,  -0.00156,   0.00041,   0.00121,-79273104.33923,   0.00000
-445572498.36534,-182292590.18786,-50593513.24816,  -0.00323,   0.00045,   0.00055,397768759.00681,   0.00203,276832072.31211,  -0.00156,   0.00041,   0.00121,-79063313.30531,   0.00000
-444743775.32710,-180760708.20807,-52692944.94506,  -0.00323,   0.00046,   0.00053,398006154.30640,   0.00203,276832072.31211,  -0.00156,   0.00041,   0.00121,-78825918.00571,   0.00000
-443915052.28885,-179228826.22828,-54802421.76969,  -0.00323,   0.00046,   0.00050,398285184.67105,   0.00203,276832072.31211,  -0.00156,   0.00041,   0.00121,-78546887.64107,   0.00000
-443071261.55899,-177661786.30140,-56921943.72206,  -0.00323,   0.00047,   0.00047,398596718.97193,   0.00203,276832072.31211,  -0.00156,   0.00041,   0.00121,-78235353.34018,   0.00000
-442177245.19046,-176044520.73585,-59061555.92991,  -0.00322,   0.00047,   0.00044,398916420.32144,   0.00203,276832072.31211,  -0.00156,   0.00041,   0.00121,-77915651.99068,   0.00000
-441268161.13032,-174392097.22322,-61201168.13775,  -0.00322,   0.00048,   0.00042,399265904.48994,   0.00203,276832072.31211,  -0.00156,   0.00041,   0.00121,-77566167.82217,   0.00000
-440323919.12310,-172724606.01899,-63350825.47333,  -0.00322,   0.00048,   0.00039,399630015.25101,   0.00203,276832072.31211,  -0.00156,   0.00041,   0.00121,-77202057.06110,   0.00000
-439399767.37135,-171037024.55928,-65510527.93665,  -0.00322,   0.00049,   0.00036,400058843.60238,   0.00203,276832072.31211,  -0.00156,   0.00041,   0.00121,-76773228.70974,   0.00000
-438425389.98093,-169299217.46089,-67670230.39996,  -0.00322,   0.00050,   0.00033,400489391.14687,   0.00203,276832072.31211,  -0.00156,   0.00041,   0.00121,-76342681.16524,   0.00000
-437400786.95182,-167511184.72382,-69850023.11875,  -0.00322,   0.00050,   0.00030,400932660.93110,   0.00203,276832072.31211,  -0.00156,   0.00041,   0.00121,-75899411.38102,   0.00000
-436411341.86979,-165738219.67835,-72039860.96528,  -0.00322,   0.00051,   0.00027,401451370.19257,   0.00203,276832072.31211,  -0.00156,   0.00041,   0.00121,-75380702.11955,   0.00000
-435371671.14908,-163915028.99420,-74229698.81180,  -0.00322,   0.00051,   0.00025,401973647.42820,   0.00203,276832072.31211,  -0.00156,   0.00041,   0.00121,-74858424.88392,   0.00000
-434316932.73676,-162056680.36298,-76439626.91380,  -0.00322,   0.00052,   0.00022,402540252.71462,   0.00203,276832072.31211,  -0.00156,   0.00041,   0.00121,-74291819.59750,   0.00000
-433211968.68576,-160148106.09307,-78649555.01580,  -0.00321,   0.00053,   0.00019,403111903.67994,   0.00203,276832072.31211,  -0.00156,   0.00041,   0.00121,-73720168.63218,   0.00000
-432107004.63476,-158239531.82316,-80869528.24553,  -0.00321,   0.00053,   0.00016,403731896.89581,   0.00203,276832072.31211,  -0.00156,   0.00041,   0.00121,-73100175.41630,   0.00000
-430986972.89216,-156295799.60618,-83099546.60300,  -0.00321,   0.00054,   0.00013,404392505.08155,   0.00203,276832072.31211,  -0.00156,   0.00041,   0.00121,-72439567.23057,   0.00000
-429816715.51087,-154301841.75051,-85339610.08821,  -0.00321,   0.00055,   0.00010,405066048.48061,   0.00203,276832072.31211,  -0.00156,   0.00041,   0.00121,-71766023.83151,   0.00000
-428631390.43798,-152272725.94777,-87589718.70116,  -0.00321,   0.00055,   0.00007,405781786.37542,   0.00203,276832072.31211,  -0.00156,   0.00041,   0.00121,-71050285.93669,   0.00000
-427430997.67349,-150208452.19794,-89849872.44184,  -0.00321,   0.00056,   0.00004,406540387.95099,   0.00203,276832072.31211,  -0.00156,   0.00041,   0.00121,-70291684.36113,   0.00000
-426230604.90899,-148144178.44812,-92110026.18252,  -0.00321,   0.00057,   0.00001,407343115.99129,   0.00203,276832072.31211,  -0.00156,   0.00041,   0.00121,-69488956.32082,   0.00000
-424979986.50582,-146029679.05962,-94390270.17867,  -0.00320,   0.00058,  -0.00002,408168512.22717,   0.00203,276832072.31211,  -0.00156,   0.00041,   0.00121,-68663560.08495,   0.00000
-423714300.41103,-143880021.72404,-96670514.17482,  -0.00320,   0.00058,  -0.00005,409031552.82774,   0.00203,276832072.31211,  -0.00156,   0.00041,   0.00121,-67800519.48438,   0.00000
-422433546.62465,-141695206.44138,-98960803.29871,  -0.00320,   0.00059,  -0.00008,409939685.82485,   0.00203,276832072.31211,  -0.00156,   0.00041,   0.00121,-66892386.48726,   0.00000
-421102567.19958,-139460165.52004,-101261137.55034,  -0.00320,   0.00060,  -0.00011,410866073.16783,   0.00203,276832072.31211,  -0.00156,   0.00041,   0.00121,-65965999.14428,   0.00000
-419771587.77452,-137225124.59870,-103571516.92970,  -0.00320,   0.00061,  -0.00014,411845710.97180,   0.00203,276832072.31211,  -0.00156,   0.00041,   0.00121,-64986361.34031,   0.00000
-418425540.65784,-134954925.73029,-105881896.30906,  -0.00320,   0.00061,  -0.00017,412864511.90257,   0.00203,276832072.31211,  -0.00156,   0.00041,   0.00121,-63967560.40954,   0.00000
-417029267.90249,-132634501.22319,-108212365.94389,  -0.00319,   0.00062,  -0.00020,413911343.99509,   0.00203,276832072.31211,  -0.00156,   0.00041,   0.00121,-62920728.31703,   0.00000
-415617927.45553,-130278918.76901,-110542835.57873,  -0.00319,   0.00063,  -0.00023,414998505.51717,   0.00203,276832072.31211,  -0.00156,   0.00041,   0.00121,-61833566.79494,   0.00000
-414206587.00857,-127923336.31484,-112883350.34130,  -0.00319,   0.00064,  -0.00026,416140289.46297,   0.00203,276832072.31211,  -0.00156,   0.00041,   0.00121,-60691782.84915,   0.00000
-412729953.23133,-125482370.27490,-115233910.23161,  -0.00319,   0.00065,  -0.00029,417298536.93851,   0.00203,276832072.31211,  -0.00156,   0.00041,   0.00121,-59533535.37360,   0.00000
-411288477.40116,-123056471.92658,-117594515.24965,  -0.00319,   0.00065,  -0.00032,418538896.64324,   0.00203,276832072.31211,  -0.00156,   0.00041,   0.00121,-58293175.66887,   0.00000
-409761617.98524,-120565280.24796,-119955120.26769,  -0.00319,   0.00066,  -0.00035,419768077.27984,   0.00203,276832072.31211,  -0.00156,   0.00041,   0.00121,-57063995.03228,   0.00000
-408254848.82478,-118053998.31387,-122325770.41347,  -0.00318,   0.00067,  -0.00038,421074142.15765,   0.00203,276832072.31211,  -0.00156,   0.00041,   0.00121,-55757930.15447,   0.00000
-406697854.02565,-115492490.74110,-124706465.68699,  -0.00318,   0.00068,  -0.00041,422405278.72955,   0.00203,276832072.31211,  -0.00156,   0.00041,   0.00121,-54426793.58256,   0.00000
-405140859.22651,-112930983.16833,-127097206.08824,  -0.00318,   0.00069,  -0.00044,423793188.48509,   0.00203,276832072.31211,  -0.00156,   0.00041,   0.00121,-53038883.82702,   0.00000
-403568796.73577,-110334317.64848,-129497991.61723,  -0.00318,   0.00070,  -0.00047,425233038.50518,   0.00203,276832072.31211,  -0.00156,   0.00041,   0.00121,-51599033.80694,   0.00000
-401946508.60635,-107687426.48995,-131898777.14622,  -0.00317,   0.00071,  -0.00050,426690584.31659,   0.00203,276832072.31211,  -0.00156,   0.00041,   0.00121,-50141487.99553,   0.00000
-400344310.73240,-105020445.07595,-134309607.80295,  -0.00317,   0.00071,  -0.00054,428226266.78843,   0.00203,276832072.31211,  -0.00156,   0.00041,   0.00121,-48605805.52368,   0.00000
-398656729.27270,-102288170.33166,-136730483.58741,  -0.00317,   0.00072,  -0.00057,429764895.70768,   0.00203,276832072.31211,  -0.00156,   0.00041,   0.00121,-47067176.60443,   0.00000
-396989238.06846,-99535805.33190,-139161404.49961,  -0.00317,   0.00073,  -0.00060,431382518.97001,   0.00203,276832072.31211,  -0.00156,   0.00041,   0.00121,-45449553.34210,   0.00000
-395286588.91715,-96768372.64053,-141602370.53954,  -0.00317,   0.00074,  -0.00063,433033554.60329,   0.00203,276832072.31211,  -0.00156,   0.00041,   0.00121,-43798517.70882,   0.00000
-393553804.38263,-93930624.05501,-144043336.57947,  -0.00316,   0.00075,  -0.00066,434725491.63048,   0.00203,276832072.31211,  -0.00156,   0.00041,   0.00121,-42106580.68163,   0.00000
-391821019.84811,-91092875.46949,-146494347.74715,  -0.00316,   0.00076,  -0.00069,436476003.87002,   0.00203,276832072.31211,  -0.00156,   0.00041,   0.00121,-40356068.44209,   0.00000
-390038009.67490,-88204901.24529,-148945358.91482,  -0.00316,   0.00077,  -0.00073,438247246.76415,   0.00203,276832072.31211,  -0.00156,   0.00041,   0.00121,-38584825.54797,   0.00000
-388254999.50170,-85316927.02109,-151416460.33796,  -0.00316,   0.00078,  -0.00076,440087528.33971,   0.00203,276832072.31211,  -0.00156,   0.00041,   0.00121,-36744543.97240,   0.00000
-386441853.94529,-82358636.90273,-153887561.76110,  -0.00315,   0.00079,  -0.00079,441970103.30381,   0.00203,276832072.31211,  -0.00156,   0.00041,   0.00121,-34861969.00830,   0.00000
-384613640.69727,-79365188.83730,-156368708.31198,  -0.00315,   0.00080,  -0.00082,443908853.71180,   0.00203,276832072.31211,  -0.00156,   0.00041,   0.00121,-32923218.60031,   0.00000
-382750269.50218,-76356673.08026,-158849854.86286,  -0.00315,   0.00081,  -0.00085,445872630.12880,   0.00203,276832072.31211,  -0.00156,   0.00041,   0.00121,-30959442.18331,   0.00000
-380871830.61548,-73312999.37614,-161341046.54148,  -0.00315,   0.00082,  -0.00089,447892945.74810,   0.00203,276832072.31211,  -0.00156,   0.00041,   0.00121,-28939126.56402,   0.00000
-378978324.03718,-70234167.72495,-163842283.34783,  -0.00314,   0.00083,  -0.00092,449970068.63722,   0.00203,276832072.31211,  -0.00156,   0.00041,   0.00121,-26862003.67489,   0.00000
-377034591.82019,-67105110.43507,-166353565.28192,  -0.00314,   0.00084,  -0.00095,452081582.68127,   0.00203,276832072.31211,  -0.00156,   0.00041,   0.00121,-24750489.63084,   0.00000
-375110949.85868,-63955962.88973,-168864847.21601,  -0.00314,   0.00085,  -0.00098,454262058.48629,   0.00203,276832072.31211,  -0.00156,   0.00041,   0.00121,-22570013.82583,   0.00000
-373116992.00301,-60776679.96117,-171386174.27783,  -0.00314,   0.00086,  -0.00102,456456947.29976,   0.00203,276832072.31211,  -0.00156,   0.00041,   0.00121,-20375125.01236,   0.00000
-371128056.71121,-57542148.83006,-173917546.46740,  -0.00313,   0.00087,  -0.00105,458730385.30672,   0.00203,276832072.31211,  -0.00156,   0.00041,   0.00121,-18101687.00540,   0.00000
-369139121.41942,-54307617.69896,-176448918.65696,  -0.00313,   0.00088,  -0.00108,461051629.10924,   0.00203,276832072.31211,  -0.00156,   0.00041,   0.00121,-15780443.20287,   0.00000
-367099960.48893,-51022860.92917,-178990335.97426,  -0.00313,   0.00090,  -0.00112,463408938.42671,   0.00203,276832072.31211,  -0.00156,   0.00041,   0.00121,-13423133.88540,   0.00000
-365045731.86685,-47702946.21230,-181541798.41929,  -0.00312,   0.00091,  -0.00115,465824510.13144,   0.00203,276832072.31211,  -0.00156,   0.00041,   0.00121,-11007562.18068,   0.00000
-362941277.60608,-44332805.85676,-184093260.86432,  -0.00312,   0.00092,  -0.00118,468265469.10373,   0.00203,276832072.31211,  -0.00156,   0.00041,   0.00121,-8566603.20838,   0.00000
-360856913.60079,-40942575.24574,-186654768.43709,  -0.00312,   0.00093,  -0.00122,470786154.17630,   0.00203,276832072.31211,  -0.00156,   0.00041,   0.00121,-6045918.13581,   0.00000
-358737391.64842,-37537276.94311,-189216276.00987,  -0.00312,   0.00094,  -0.00125,473332796.06212,   0.00203,276832072.31211,  -0.00156,   0.00041,   0.00121,-3499276.25000,   0.00000
-356587734.31284,-34061662.74633,-191797873.83811,  -0.00311,   0.00095,  -0.00128,475949904.09939,   0.00203,276832072.31211,  -0.00156,   0.00041,   0.00121,-882168.21272,   0.00000
-355850922.56098,-32884457.76348,-192665109.73914,  -0.00311,   0.00096,  -0.00129,476832083.17943,   0.00203,276832072.31211,  -0.00156,   0.00041,   0.00121,  -9.15037,   0.00000
-353200435.46364,-30576614.86659,-193644293.86144,  -0.00311,   0.00096,  -0.00132,476843937.71737,   0.00204,276843947.14995,  -0.00156,   0.00041,   0.00120,  -9.43258,   1.00000
-349186736.02583,-27091550.36060,-195100399.14963,  -0.00311,   0.00098,  -0.00135,476862470.65381,   0.00206,276862477.59568,  -0.00157,   0.00042,   0.00119,  -6.94187,   1.00000
-345127907.78518,-23573395.87832,-196538850.53673,  -0.00310,   0.00099,  -0.00138,476881222.35776,   0.00207,276881231.01328,  -0.00158,   0.00042,   0.00117,  -8.65552,   1.00000
-341037818.28642,-20038293.08980,-197955808.91866,  -0.00310,   0.00100,  -0.00142,476900427.54007,   0.00209,276900432.22928,  -0.00159,   0.00043,   0.00116,  -4.68921,   1.00000
-336925487.94173,-16486653.16699,-199346311.31115,  -0.00310,   0.00101,  -0.00145,476919989.09114,   0.00211,276919997.73570,  -0.00160,   0.00043,   0.00114,  -8.64456,   1.00000
-332760909.56839,-12903860.47564,-200723037.78746,  -0.00309,   0.00102,  -0.00148,476939876.60818,   0.00213,276939883.67159,  -0.00160,   0.00043,   0.00112,  -7.06342,   1.00000
-328591077.21305,-9340720.16010,-202073328.67916,  -0.00309,   0.00104,  -0.00152,476960122.30396,   0.00215,276960131.32307,  -0.00161,   0.00044,   0.00111,  -9.01910,   1.00000
-324377257.44436,-5728405.04887,-203400645.20551,  -0.00309,   0.00105,  -0.00155,476980841.18997,   0.00217,276980845.27646,  -0.00162,   0.00044,   0.00109,  -4.08649,   1.00000
-320151993.77786,-2137690.47629,-204705830.35078,  -0.00308,   0.00106,  -0.00159,477002006.19206,   0.00219,277002010.29938,  -0.00163,   0.00045,   0.00107,  -4.10731,   1.00000
-315908295.39477,1466515.42212,-205983796.15384,  -0.00308,   0.00107,  -0.00162,477023541.33494,   0.00221,277023546.38350,  -0.00164,   0.00045,   0.00106,  -5.04856,   1.00000
-311622860.88333,5099770.59950,-207242383.44746,  -0.00308,   0.00109,  -0.00166,477045319.31494,   0.00223,277045328.16213,  -0.00165,   0.00046,   0.00104,  -8.84719,   1.00000
-307304633.65340,8743424.14271,-208481874.19870,  -0.00307,   0.00110,  -0.00169,477067663.64097,   0.00225,277067668.53067,  -0.00166,   0.00046,   0.00102,  -4.88970,   1.00000
-302970166.71024,12398564.78001,-209693577.34895,  -0.00307,   0.00111,  -0.00172,477090380.01998,   0.00227,277090386.06332,  -0.00167,   0.00047,   0.00100,  -6.04335,   1.00000
-298636688.35359,16029842.07617,-210878579.74235,  -0.00307,   0.00113,  -0.00176,477113458.83625,   0.00229,277113462.87723,  -0.00168,   0.00047,   0.00098,  -4.04097,   1.00000
-294239335.79907,19721671.73472,-212046376.88476,  -0.00306,   0.00114,  -0.00179,477136899.12794,   0.00231,277136906.76193,  -0.00169,   0.00048,   0.00096,  -7.63399,   1.00000
-289844554.99692,23388372.61883,-213187290.60220,  -0.00306,   0.00115,  -0.00183,477160703.65428,   0.00234,277160711.30230,  -0.00170,   0.00048,   0.00094,  -7.64801,   1.00000
-285454912.93484,27046199.86402,-214296639.11685,  -0.00306,   0.00117,  -0.00186,477185104.00415,   0.00236,277185106.12944,  -0.00170,   0.00049,   0.00092,  -2.12528,   1.00000
-280993858.83355,30744632.21462,-215396763.47626,  -0.00305,   0.00118,  -0.00190,477209734.92243,   0.00238,277209740.80396,  -0.00171,   0.00049,   0.00090,  -5.88154,   1.00000
-276547487.08713,34433989.27333,-216461135.83947,  -0.00305,   0.00119,  -0.00193,477234864.00529,   0.00241,277234872.05469,  -0.00172,   0.00050,   0.00088,  -8.04940,   1.00000
-272090561.62100,38130556.57807,-217497350.84179,  -0.00305,   0.00121,  -0.00197,477260380.18258,   0.00243,277260381.22234,  -0.00173,   0.00050,   0.00086,  -1.03976,   1.00000
-267589936.25155,41848959.42670,-218516280.68770,  -0.00304,   0.00122,  -0.00200,477286250.11637,   0.00246,277286254.53058,  -0.00174,   0.00051,   0.00084,  -4.41422,   1.00000
-263097275.44390,45538833.09914,-219508614.50856,  -0.00304,   0.00123,  -0.00204,477312476.38388,   0.00248,277312480.13653,  -0.00175,   0.00051,   0.00082,  -3.75265,   1.00000
-258572331.41736,49266672.83083,-220474387.12833,  -0.00303,   0.00125,  -0.00207,477339208.76071,   0.00251,277339211.97083,  -0.00176,   0.00052,   0.00079,  -3.21012,   1.00000
-254022761.30809,52979939.55750,-221424192.04797,  -0.00303,   0.00126,  -0.00211,477366281.03662,   0.00253,277366285.53903,  -0.00177,   0.00053,   0.00077,  -4.50241,   1.00000
-249477180.25068,56714342.07033,-222336526.50136,  -0.00303,   0.00128,  -0.00214,477393870.14482,   0.00256,277393877.05194,  -0.00178,   0.00053,   0.00075,  -6.90712,   1.00000
-244915203.77564,60435159.54326,-223229424.45157,  -0.00302,   0.00129,  -0.00218,477421703.30555,   0.00258,277421709.14061,  -0.00179,   0.00054,   0.00072,  -5.83507,   1.00000
-240369864.07805,64139303.34235,-224090706.79247,  -0.00302,   0.00131,  -0.00221,477450114.70190,   0.00261,277450121.61426,  -0.00180,   0.00055,   0.00070,  -6.91236,   1.00000
-235792129.46717,67863200.86363,-224930399.75270,  -0.00302,   0.00132,  -0.00225,477478800.77857,   0.00264,277478807.23228,  -0.00181,   0.00055,   0.00068,  -6.45371,   1.00000
-231193380.92073,71569744.69143,-225754048.02495,  -0.00301,   0.00134,  -0.00228,477507831.95939,   0.00267,277507833.77693,  -0.00182,   0.00056,   0.00065,  -1.81754,   1.00000
-226603623.44185,75294028.21564,-226540389.52521,  -0.00301,   0.00135,  -0.00232,477537366.82882,   0.00269,277537372.19492,  -0.00183,   0.00057,   0.00062,  -5.36610,   1.00000
-222029728.02391,78984987.39471,-227301282.07541,  -0.00300,   0.00137,  -0.00236,477567233.09782,   0.00272,277567241.88105,  -0.00184,   0.00057,   0.00060,  -8.78323,   1.00000
-217402028.10367,82724683.12004,-228040838.16449,  -0.00300,   0.00138,  -0.00239,477597529.84884,   0.00275,277597532.29551,  -0.00185,   0.00058,   0.00057,  -2.44666,   1.00000
-212785794.40912,86426971.75007,-228758170.08342,  -0.00300,   0.00140,  -0.00243,477628253.69754,   0.00278,277628256.03137,  -0.00186,   0.00059,   0.00055,  -2.33383,   1.00000
-208176352.40410,90131139.66761,-229444374.96955,  -0.00299,   0.00141,  -0.00246,477659242.08330,   0.00281,277659244.47107,  -0.00187,   0.00060,   0.00052,  -2.38777,   1.00000
-203556744.14570,93827548.14843,-230108897.81173,  -0.00299,   0.00143,  -0.00250,477690801.30079,   0.00284,277690808.75389,  -0.00188,   0.00060,   0.00049,  -7.45310,   1.00000
-198945369.56763,97524866.49645,-230742592.48770,  -0.00298,   0.00144,  -0.00253,477722631.06175,   0.00287,277722633.12887,  -0.00189,   0.00061,   0.00047,  -2.06712,   1.00000
-194331491.14408,101216162.86865,-231351707.93648,  -0.00298,   0.00146,  -0.00257,477754922.76864,   0.00290,277754925.30006,  -0.00190,   0.00062,   0.00044,  -2.53141,   1.00000
-189708688.30857,104888501.05399,-231942227.14064,  -0.00298,   0.00147,  -0.00261,477787436.23038,   0.00293,277787444.26651,  -0.00191,   0.00063,   0.00041,  -8.03613,   1.00000
-185067500.38098,108586878.29727,-232504780.42103,  -0.00297,   0.00149,  -0.00264,477820479.60730,   0.00296,277820480.85631,  -0.00192,   0.00064,   0.00038,  -1.24901,   1.00000
-180480408.09390,112229911.81375,-233038132.23537,  -0.00297,   0.00151,  -0.00268,477853894.32671,   0.00299,277853903.18516,  -0.00193,   0.00064,   0.00035,  -8.85845,   1.00000
-175863301.52773,115882372.96272,-233552685.00448,  -0.00296,   0.00152,  -0.00271,477887698.00467,   0.00303,277887705.29923,  -0.00194,   0.00065,   0.00032,  -7.29456,   1.00000
-171258344.48062,119533280.65895,-234037388.38619,  -0.00296,   0.00154,  -0.00275,477921745.66890,   0.00306,277921752.97280,  -0.00195,   0.00066,   0.00029,  -7.30390,   1.00000
-166624652.39455,123192225.42085,-234503126.86454,  -0.00296,   0.00156,  -0.00279,477956180.47677,   0.00309,277956182.85709,  -0.00196,   0.00067,   0.00026,  -2.38033,   1.00000
-162026176.12311,126823061.96959,-234939919.28151,  -0.00295,   0.00157,  -0.00282,477991133.37758,   0.00313,277991143.26132,  -0.00197,   0.00068,   0.00023,  -9.88374,   1.00000
-157437007.17192,130447044.81225,-235350266.95431,  -0.00295,   0.00159,  -0.00286,478026442.28491,   0.00316,278026447.88233,  -0.00198,   0.00069,   0.00020,  -5.59742,   1.00000
-152843547.10671,134048845.50001,-235743144.99734,  -0.00294,   0.00161,  -0.00290,478061957.43181,   0.00319,278061963.35619,  -0.00199,   0.00070,   0.00017,  -5.92438,   1.00000
-148275111.74302,137657815.09943,-236101130.65982,  -0.00294,   0.00162,  -0.00293,478097942.30164,   0.00323,278097948.54813,  -0.00200,   0.00071,   0.00014,  -6.24648,   1.00000
-143698981.44247,141239516.13169,-236444767.14185,  -0.00294,   0.00164,  -0.00297,478134245.28949,   0.00326,278134247.34929,  -0.00201,   0.00072,   0.00011,  -2.05980,   1.00000
-139134901.72101,144812648.02977,-236762655.79596,  -0.00293,   0.00166,  -0.00300,478170872.17495,   0.00330,278170880.03772,  -0.00202,   0.00073,   0.00007,  -7.86277,   1.00000
-134583515.38329,148376765.80057,-237055047.33474,  -0.00293,   0.00167,  -0.00304,478207842.24606,   0.00333,278207843.19626,  -0.00203,   0.00074,   0.00004,  -0.95021,   1.00000
-130041389.42373,151926805.68558,-237324821.14834,  -0.00292,   0.00169,  -0.00308,478245232.43878,   0.00337,278245242.24384,  -0.00204,   0.00075,   0.00001,  -9.80506,   1.00000
-125513351.78713,155466899.64309,-237569538.85320,  -0.00292,   0.00171,  -0.00311,478282957.46389,   0.00341,278282965.46147,  -0.00205,   0.00076,  -0.00003,  -7.99758,   1.00000
-121000005.24963,158996616.22379,-237789451.67846,  -0.00292,   0.00173,  -0.00315,478321007.93023,   0.00344,278321009.49160,  -0.00205,   0.00077,  -0.00006,  -1.56136,   1.00000
-116486411.67438,162501381.20720,-237993399.60579,  -0.00291,   0.00174,  -0.00319,478359237.97471,   0.00348,278359244.34832,  -0.00206,   0.00078,  -0.00009,  -6.37361,   1.00000
-112018161.41233,165972795.15469,-238171923.83121,  -0.00291,   0.00176,  -0.00322,478397952.00203,   0.00352,278397956.35744,  -0.00207,   0.00079,  -0.00013,  -4.35541,   1.00000
-107549014.54729,169464352.12914,-238321440.84473,  -0.00290,   0.00178,  -0.00326,478437047.83801,   0.00355,278437051.40164,  -0.00208,   0.00080,  -0.00016,  -3.56363,   1.00000
-103081042.88001,172929941.67309,-238455676.45208,  -0.00290,   0.00180,  -0.00330,478476325.18003,   0.00359,278476328.39775,  -0.00209,   0.00081,  -0.00020,  -3.21771,   1.00000
-98630789.99576,176383290.03824,-238566239.57921,  -0.00289,   0.00182,  -0.00333,478515906.71505,   0.00363,278515910.51521,  -0.00210,   0.00082,  -0.00023,  -3.80016,   1.00000
-94246358.61679,179770530.06887,-238658181.31065,  -0.00289,   0.00183,  -0.00337,478555869.21370,   0.00367,278555870.65849,  -0.00211,   0.00083,  -0.00027,  -1.44479,   1.00000
-89829783.27512,183193495.29119,-238724943.94610,  -0.00289,   0.00185,  -0.00341,478596150.47123,   0.00371,278596158.35275,  -0.00212,   0.00084,  -0.00030,  -7.88153,   1.00000
-85449781.18896,186572361.92035,-238774346.81627,  -0.00288,   0.00187,  -0.00344,478636652.30777,   0.00375,278636659.77201,  -0.00213,   0.00086,  -0.00034,  -7.46424,   1.00000
-81106271.66149,189951488.81111,-238792911.33945,  -0.00288,   0.00189,  -0.00348,478677569.95321,   0.00378,278677572.29755,  -0.00214,   0.00087,  -0.00038,  -2.34434,   1.00000
-76763503.74757,193297675.91077,-238800341.89504,  -0.00287,   0.00191,  -0.00352,478718752.25110,   0.00382,278718754.78407,  -0.00215,   0.00088,  -0.00041,  -2.53297,   1.00000
-72444214.02421,196635634.62324,-238783294.56492,  -0.00287,   0.00193,  -0.00356,478760103.01458,   0.00386,278760110.13256,  -0.00216,   0.00089,  -0.00045,  -7.11797,   1.00000
-68143718.13409,199953467.94727,-238747202.69000,  -0.00286,   0.00195,  -0.00359,478801847.11622,   0.00390,278801851.31419,  -0.00216,   0.00090,  -0.00049,  -4.19797,   1.00000
-63865064.68232,203256658.65848,-238689774.52966,  -0.00286,   0.00197,  -0.00363,478843858.50011,   0.00395,278843866.31452,  -0.00217,   0.00092,  -0.00053,  -7.81440,   1.00000
-59625448.01842,206514991.65724,-238617317.75714,  -0.00286,   0.00198,  -0.00367,478886059.23696,   0.00399,278886063.90894,  -0.00218,   0.00093,  -0.00056,  -4.67198,   1.00000
-55389563.02897,209782260.46530,-238520694.35538,  -0.00285,   0.00200,  -0.00370,478928714.05272,   0.00403,278928722.45016,  -0.00219,   0.00094,  -0.00060,  -8.39744,   1.00000
-51161336.08094,213027071.04287,-238409204.44916,  -0.00285,   0.00202,  -0.00374,478971409.56522,   0.00407,278971416.85618,  -0.00220,   0.00095,  -0.00064,  -7.29096,   1.00000
-46989145.98150,216233450.61825,-238278114.96438,  -0.00284,   0.00204,  -0.00378,479014499.15057,   0.00411,279014506.65480,  -0.00221,   0.00097,  -0.00068,  -7.50423,   1.00000
-42840838.47477,219424190.44662,-238127269.68233,  -0.00284,   0.00206,  -0.00381,479057844.93507,   0.00415,279057849.48858,  -0.00222,   0.00098,  -0.00072,  -4.55351,   1.00000
-38716794.98976,222599007.40055,-237956970.67211,  -0.00283,   0.00208,  -0.00385,479101438.23494,   0.00420,279101441.60363,  -0.00222,   0.00099,  -0.00076,  -3.36870,   1.00000
-34633696.80266,225728564.26660,-237773992.61392,  -0.00283,   0.00210,  -0.00389,479145183.66073,   0.00424,279145185.50439,  -0.00223,   0.00101,  -0.00080,  -1.84365,   1.00000
-30559139.84074,228871114.43701,-237565702.81461,  -0.00283,   0.00212,  -0.00393,479189254.78815,   0.00428,279189264.36844,  -0.00224,   0.00102,  -0.00084,  -9.58029,   1.00000
-26491561.64514,231984306.55202,-237346838.93130,  -0.00282,   0.00214,  -0.00396,479233464.74823,   0.00432,279233465.77174,  -0.00225,   0.00103,  -0.00088,  -1.02351,   1.00000
-22483079.51818,235057992.08237,-237110976.85347,  -0.00282,   0.00216,  -0.00400,479278021.68157,   0.00437,279278027.43120,  -0.00226,   0.00105,  -0.00092,  -5.74962,   1.00000
