# sigma_xx, sigma_yy, sigma_xy, epsilon_xx, epsilon_yy, epsilon_xy, vonMises, epsPlastic, hardening, epsilonP__xx, epsilonP__yy, epsilonP__xy, yieldValue, iteration
   0.00000,   0.00000,   0.00000,   0.00000,   0.00000,   0.00000,   0.00000,   0.00000,274640135.82653,   0.00000,   0.00000,   0.00000,-474640135.82653,   0.00000
   0.00000,   0.00000,   0.00000,   0.00000,   0.00000,   0.00000,   0.00000,   0.00000,274640135.82653,   0.00000,   0.00000,   0.00000,-474640135.82653,   0.00000
-1068421.68064,-858240.36642,337165.85823,  -0.00000,  -0.00000,   0.00000,1141131.56446,   0.00000,274640135.82653,   0.00000,   0.00000,   0.00000,-473499004.26207,   0.00000
-2136843.36128,-1716480.73283,674331.71647,  -0.00001,  -0.00000,   0.00001,2282263.12892,   0.00000,274640135.82653,   0.00000,   0.00000,   0.00000,-472357872.69761,   0.00000
-3218401.37406,-2605372.54091,1011497.57470,  -0.00001,  -0.00001,   0.00001,3439523.36040,   0.00000,274640135.82653,   0.00000,   0.00000,   0.00000,-471200612.46612,   0.00000
-4262739.77911,-3465802.29601,1353042.21032,  -0.00001,  -0.00001,   0.00002,4571771.24695,   0.00000,274640135.82653,   0.00000,   0.00000,   0.00000,-470068364.57958,   0.00000
-5335540.23713,-4363451.65885,1694586.84593,  -0.00002,  -0.00001,   0.00002,5730724.37287,   0.00000,274640135.82653,   0.00000,   0.00000,   0.00000,-468909411.45366,   0.00000
-6393014.97432,-5254532.85561,2036131.48155,  -0.00002,  -0.00001,   0.00003,6879385.36456,   0.00000,274640135.82653,   0.00000,   0.00000,   0.00000,-467760750.46197,   0.00000
-7441732.15676,-6154371.60713,2377676.11716,  -0.00002,  -0.00001,   0.00003,8025989.87244,   0.00000,274640135.82653,   0.00000,   0.00000,   0.00000,-466614145.95409,   0.00000
-8490449.33919,-7054210.35865,2723599.53016,  -0.00002,  -0.00002,   0.00004,9176610.55561,   0.00000,274640135.82653,   0.00000,   0.00000,   0.00000,-465463525.27092,   0.00000
-9536977.13293,-7978132.38577,3069522.94315,  -0.00003,  -0.00002,   0.00004,10333594.55213,   0.00000,274640135.82653,   0.00000,   0.00000,   0.00000,-464306541.27440,   0.00000
-10576936.76060,-8886728.69205,3415446.35615,  -0.00003,  -0.00002,   0.00004,11482464.54968,   0.00000,274640135.82653,   0.00000,   0.00000,   0.00000,-463157671.27685,   0.00000
-11630032.72041,-9825976.43999,3761369.76914,  -0.00003,  -0.00002,   0.00005,12648112.67307,   0.00000,274640135.82653,   0.00000,   0.00000,   0.00000,-461992023.15346,   0.00000
-12667802.95940,-10758656.02186,4111671.95951,  -0.00004,  -0.00002,   0.00005,13807639.75232,   0.00000,274640135.82653,   0.00000,   0.00000,   0.00000,-460832496.07421,   0.00000
-13696815.64362,-11700093.15849,4461974.14989,  -0.00004,  -0.00003,   0.00006,14965579.16121,   0.00000,274640135.82653,   0.00000,   0.00000,   0.00000,-459674556.66532,   0.00000
-14725828.32784,-12641530.29512,4812276.34026,  -0.00004,  -0.00003,   0.00006,16123749.99625,   0.00000,274640135.82653,   0.00000,   0.00000,   0.00000,-458516385.83028,   0.00000
-15761409.17814,-13598293.15258,5166957.30802,  -0.00005,  -0.00003,   0.00007,17294498.45791,   0.00000,274640135.82653,   0.00000,   0.00000,   0.00000,-457345637.36862,   0.00000
-16788232.47367,-14563813.56480,5517259.49839,  -0.00005,  -0.00003,   0.00007,18459934.57271,   0.00000,274640135.82653,   0.00000,   0.00000,   0.00000,-456180201.25382,   0.00000
-17815055.76920,-15529333.97701,5871940.46614,  -0.00005,  -0.00004,   0.00008,19629557.54683,   0.00000,274640135.82653,   0.00000,   0.00000,   0.00000,-455010578.27970,   0.00000
-18833121.50998,-16503611.94399,6226621.43390,  -0.00005,  -0.00004,   0.00008,20797922.66925,   0.00000,274640135.82653,   0.00000,   0.00000,   0.00000,-453842213.15728,   0.00000
-19857755.41682,-17493215.63180,6585681.17903,  -0.00006,  -0.00004,   0.00009,21979095.42362,   0.00000,274640135.82653,   0.00000,   0.00000,   0.00000,-452661040.40291,   0.00000
-20867063.60284,-18476251.15353,6944740.92416,  -0.00006,  -0.00004,   0.00009,23150580.37376,   0.00000,274640135.82653,   0.00000,   0.00000,   0.00000,-451489555.45277,   0.00000
-21882939.95492,-19474612.39610,7303800.66930,  -0.00006,  -0.00005,   0.00009,24331015.76158,   0.00000,274640135.82653,   0.00000,   0.00000,   0.00000,-450309120.06495,   0.00000
-22883490.58618,-20466405.47260,7662860.41443,  -0.00006,  -0.00005,   0.00010,25501831.04415,   0.00000,274640135.82653,   0.00000,   0.00000,   0.00000,-449138304.78238,   0.00000
-23890609.38350,-21473524.26992,8021920.15956,  -0.00007,  -0.00005,   0.00010,26681669.55056,   0.00000,274640135.82653,   0.00000,   0.00000,   0.00000,-447958466.27597,   0.00000
-24882402.46000,-22474074.90118,8385358.68208,  -0.00007,  -0.00005,   0.00011,27855910.30498,   0.00000,274640135.82653,   0.00000,   0.00000,   0.00000,-446784225.52155,   0.00000
-25887331.86863,-23505276.97409,8748797.20459,  -0.00007,  -0.00006,   0.00011,29048019.70521,   0.00000,274640135.82653,   0.00000,   0.00000,   0.00000,-445592116.12132,   0.00000
-26885693.11120,-24521153.32617,9112235.72710,  -0.00007,  -0.00006,   0.00012,30231734.50687,   0.00000,274640135.82653,   0.00000,   0.00000,   0.00000,-444408401.31966,   0.00000
-27881864.96507,-25561112.95385,9480053.02699,  -0.00008,  -0.00006,   0.00012,31427561.24515,   0.00000,274640135.82653,   0.00000,   0.00000,   0.00000,-443212574.58138,   0.00000
-28878036.81895,-26601072.58152,9847870.32689,  -0.00008,  -0.00006,   0.00013,32623809.85564,   0.00000,274640135.82653,   0.00000,   0.00000,   0.00000,-442016325.97089,   0.00000
-29858882.95200,-27634464.04312,10215687.62678,  -0.00008,  -0.00007,   0.00013,33810694.87382,   0.00000,274640135.82653,   0.00000,   0.00000,   0.00000,-440829440.95271,   0.00000
-30846297.25111,-28683181.22555,10583504.92667,  -0.00008,  -0.00007,   0.00014,35006866.96535,   0.00000,274640135.82653,   0.00000,   0.00000,   0.00000,-439633268.86118,   0.00000
-31824953.99547,-29740655.96275,10955701.00394,  -0.00009,  -0.00007,   0.00014,36206649.38326,   0.00000,274640135.82653,   0.00000,   0.00000,   0.00000,-438433486.44327,   0.00000
-32803610.73983,-30798130.69994,11327897.08122,  -0.00009,  -0.00008,   0.00015,37406892.38674,   0.00000,274640135.82653,   0.00000,   0.00000,   0.00000,-437233243.43979,   0.00000
-33773509.92943,-31864362.99189,11700093.15849,  -0.00009,  -0.00008,   0.00015,38606900.44127,   0.00000,274640135.82653,   0.00000,   0.00000,   0.00000,-436033235.38526,   0.00000
-34749977.28509,-32945921.00467,12072289.23576,  -0.00009,  -0.00008,   0.00016,39816392.70184,   0.00000,274640135.82653,   0.00000,   0.00000,   0.00000,-434823743.12469,   0.00000
-35726444.64076,-34027479.01745,12448864.09041,  -0.00010,  -0.00009,   0.00016,41030354.38545,   0.00000,274640135.82653,   0.00000,   0.00000,   0.00000,-433609781.44108,   0.00000
-36687586.27560,-35102468.86416,12825438.94506,  -0.00010,  -0.00009,   0.00017,42235211.66691,   0.00000,274640135.82653,   0.00000,   0.00000,   0.00000,-432404924.15962,   0.00000
-37655296.07651,-36192784.43169,13202013.79972,  -0.00010,  -0.00009,   0.00017,43449608.27238,   0.00000,274640135.82653,   0.00000,   0.00000,   0.00000,-431190527.55415,   0.00000
-38614248.32265,-37291857.55399,13582967.43175,  -0.00010,  -0.00009,   0.00018,44668073.36458,   0.00000,274640135.82653,   0.00000,   0.00000,   0.00000,-429972062.46195,   0.00000
-39573200.56880,-38390930.67629,13959542.28640,  -0.00011,  -0.00010,   0.00018,45883071.21708,   0.00000,274640135.82653,   0.00000,   0.00000,   0.00000,-428757064.60944,   0.00000
-40516827.09412,-39483435.63252,14344874.69581,  -0.00011,  -0.00010,   0.00019,47097109.49340,   0.00000,274640135.82653,   0.00000,   0.00000,   0.00000,-427543026.33313,   0.00000
-41473589.95158,-40606592.03041,14725828.32784,  -0.00011,  -0.00010,   0.00019,48326006.37771,   0.00000,274640135.82653,   0.00000,   0.00000,   0.00000,-426314129.44881,   0.00000
-42423784.64297,-41714422.70746,15106781.95988,  -0.00011,  -0.00011,   0.00020,49546255.79549,   0.00000,274640135.82653,   0.00000,   0.00000,   0.00000,-425093880.03104,   0.00000
-43371789.94567,-42846336.66011,15492114.36929,  -0.00011,  -0.00011,   0.00020,50780067.32579,   0.00000,274640135.82653,   0.00000,   0.00000,   0.00000,-423860068.50074,   0.00000
-44313227.08230,-43962924.89193,15877446.77870,  -0.00012,  -0.00011,   0.00021,52005208.72176,   0.00000,274640135.82653,   0.00000,   0.00000,   0.00000,-422634927.10477,   0.00000
-45267800.55107,-45110164.56540,16267157.96549,  -0.00012,  -0.00012,   0.00021,53253394.88050,   0.00000,274640135.82653,   0.00000,   0.00000,   0.00000,-421386740.94603,   0.00000
-46207048.29901,-46250836.07281,16652490.37490,  -0.00012,  -0.00012,   0.00022,54488832.25683,   0.00000,274640135.82653,   0.00000,   0.00000,   0.00000,-420151303.56970,   0.00000
-47130970.32612,-47384939.41414,17042201.56169,  -0.00012,  -0.00012,   0.00022,55719588.79908,   0.00000,274640135.82653,   0.00000,   0.00000,   0.00000,-418920547.02745,   0.00000
-48076786.24013,-48540936.64238,17431912.74848,  -0.00012,  -0.00013,   0.00023,56969486.71578,   0.00000,274640135.82653,   0.00000,   0.00000,   0.00000,-417670649.11075,   0.00000
-48991950.71248,-49683797.53847,17826002.71265,  -0.00013,  -0.00013,   0.00023,58205531.78504,   0.00000,274640135.82653,   0.00000,   0.00000,   0.00000,-416434604.04149,   0.00000
-49929009.07173,-50848552.32146,18220092.67682,  -0.00013,  -0.00013,   0.00024,59460732.60049,   0.00000,274640135.82653,   0.00000,   0.00000,   0.00000,-415179403.22604,   0.00000
-50850741.71015,-52006738.93839,18614182.64099,  -0.00013,  -0.00014,   0.00024,60707338.63967,   0.00000,274640135.82653,   0.00000,   0.00000,   0.00000,-413932797.18686,   0.00000
-51779042.51464,-53180251.27614,19008272.60516,  -0.00013,  -0.00014,   0.00025,61963934.34940,   0.00000,274640135.82653,   0.00000,   0.00000,   0.00000,-412676201.47713,   0.00000
-52692017.59831,-54347195.44782,19402362.56934,  -0.00013,  -0.00014,   0.00025,63212008.45160,   0.00000,274640135.82653,   0.00000,   0.00000,   0.00000,-411428127.37493,   0.00000
-53611560.84804,-55529465.34033,19800831.31089,  -0.00014,  -0.00015,   0.00026,64474168.69879,   0.00000,274640135.82653,   0.00000,   0.00000,   0.00000,-410165967.12774,   0.00000
-54515778.37694,-56705167.06678,20199300.05244,  -0.00014,  -0.00015,   0.00026,65727885.34024,   0.00000,274640135.82653,   0.00000,   0.00000,   0.00000,-408912250.48629,   0.00000
-55426564.07191,-57896194.51405,20602147.57137,  -0.00014,  -0.00016,   0.00027,66995758.54433,   0.00000,274640135.82653,   0.00000,   0.00000,   0.00000,-407644377.28220,   0.00000
-56337349.76688,-59087221.96132,21000616.31292,  -0.00014,  -0.00016,   0.00027,68260214.94283,   0.00000,274640135.82653,   0.00000,   0.00000,   0.00000,-406379920.88370,   0.00000
-57254703.62793,-60293575.12942,21403463.83185,  -0.00014,  -0.00016,   0.00028,69538840.27440,   0.00000,274640135.82653,   0.00000,   0.00000,   0.00000,-405101295.55213,   0.00000
-58156731.76814,-61493360.13145,21806311.35078,  -0.00014,  -0.00017,   0.00028,70809120.76634,   0.00000,274640135.82653,   0.00000,   0.00000,   0.00000,-403831015.06019,   0.00000
-59043434.18752,-62686576.96741,22213537.64709,  -0.00015,  -0.00017,   0.00029,72075148.52795,   0.00000,274640135.82653,   0.00000,   0.00000,   0.00000,-402564987.29858,   0.00000
-59952030.49381,-63901687.69027,22616385.16602,  -0.00015,  -0.00017,   0.00029,73356242.78080,   0.00000,274640135.82653,   0.00000,   0.00000,   0.00000,-401283893.04573,   0.00000
-60851869.24533,-65125555.96789,23023611.46233,  -0.00015,  -0.00018,   0.00030,74642724.15175,   0.00000,274640135.82653,   0.00000,   0.00000,   0.00000,-399997411.67478,   0.00000
-61729814.10995,-66327530.35861,23435216.53601,  -0.00015,  -0.00018,   0.00030,75915434.77042,   0.00000,274640135.82653,   0.00000,   0.00000,   0.00000,-398724701.05611,   0.00000
-62620895.30672,-67560156.19099,23842442.83232,  -0.00015,  -0.00019,   0.00031,77204015.48146,   0.00000,274640135.82653,   0.00000,   0.00000,   0.00000,-397436120.34506,   0.00000
-63505408.33741,-68777456.30254,24254047.90601,  -0.00015,  -0.00019,   0.00032,78487651.61558,   0.00000,274640135.82653,   0.00000,   0.00000,   0.00000,-396152484.21094,   0.00000
-64403057.70024,-70025407.85575,24665652.97970,  -0.00016,  -0.00019,   0.00032,79791255.87828,   0.00000,274640135.82653,   0.00000,   0.00000,   0.00000,-394848879.94825,   0.00000
-65278813.17618,-71251465.52205,25077258.05339,  -0.00016,  -0.00020,   0.00033,81077063.93807,   0.00000,274640135.82653,   0.00000,   0.00000,   0.00000,-393563071.88846,   0.00000
-66161136.81818,-72492848.90919,25493241.90446,  -0.00016,  -0.00020,   0.00033,82377278.55072,   0.00000,274640135.82653,   0.00000,   0.00000,   0.00000,-392262857.27581,   0.00000
-67028134.73936,-73727664.13026,25909225.75553,  -0.00016,  -0.00020,   0.00034,83669441.47748,   0.00000,274640135.82653,   0.00000,   0.00000,   0.00000,-390970694.34905,   0.00000
-67901700.82660,-74977805.07216,26325209.60660,  -0.00016,  -0.00021,   0.00034,84972005.52201,   0.00000,274640135.82653,   0.00000,   0.00000,   0.00000,-389668130.30452,   0.00000
-68775266.91385,-76227946.01405,26741193.45767,  -0.00016,  -0.00021,   0.00035,86275222.64128,   0.00000,274640135.82653,   0.00000,   0.00000,   0.00000,-388364913.18525,   0.00000
-69655401.16716,-77493412.67678,27161556.08612,  -0.00017,  -0.00022,   0.00035,87592919.57285,   0.00000,274640135.82653,   0.00000,   0.00000,   0.00000,-387047216.25368,   0.00000
-70520209.69965,-78752311.17344,27581918.71457,  -0.00017,  -0.00022,   0.00036,88902664.26204,   0.00000,274640135.82653,   0.00000,   0.00000,   0.00000,-385737471.56449,   0.00000
-71385018.23213,-80011209.67009,28002281.34301,  -0.00017,  -0.00022,   0.00036,90213059.59249,   0.00000,274640135.82653,   0.00000,   0.00000,   0.00000,-384427076.23403,   0.00000
-72241069.20986,-81278865.72151,28427022.74884,  -0.00017,  -0.00023,   0.00037,91529453.16543,   0.00000,274640135.82653,   0.00000,   0.00000,   0.00000,-383110682.66110,   0.00000
-73097120.18759,-82546521.77292,28851764.15467,  -0.00017,  -0.00023,   0.00038,92846524.42571,   0.00000,274640135.82653,   0.00000,   0.00000,   0.00000,-381793611.40082,   0.00000
-73959739.33138,-83829503.54517,29276505.56050,  -0.00017,  -0.00024,   0.00038,94174103.71019,   0.00000,274640135.82653,   0.00000,   0.00000,   0.00000,-380466032.11634,   0.00000
-74822358.47518,-85112485.31741,29701246.96633,  -0.00017,  -0.00024,   0.00039,95502334.06376,   0.00000,274640135.82653,   0.00000,   0.00000,   0.00000,-379137801.76277,   0.00000
-75669651.89815,-86388898.92359,30130367.14954,  -0.00018,  -0.00025,   0.00039,96826841.52600,   0.00000,274640135.82653,   0.00000,   0.00000,   0.00000,-377813294.30053,   0.00000
-76516945.32111,-87665312.52976,30559487.33274,  -0.00018,  -0.00025,   0.00040,98151998.52747,   0.00000,274640135.82653,   0.00000,   0.00000,   0.00000,-376488137.29905,   0.00000
-77355481.18932,-88950483.69070,30988607.51595,  -0.00018,  -0.00025,   0.00040,99479309.09620,   0.00000,274640135.82653,   0.00000,   0.00000,   0.00000,-375160826.73033,   0.00000
-78215910.94443,-90257548.73853,31417727.69916,  -0.00018,  -0.00026,   0.00041,100825583.44138,   0.00000,274640135.82653,   0.00000,   0.00000,   0.00000,-373814552.38515,   0.00000
-79054446.81263,-91542719.89946,31851226.65975,  -0.00018,  -0.00026,   0.00041,102158298.56286,   0.00000,274640135.82653,   0.00000,   0.00000,   0.00000,-372481837.26367,   0.00000
-79884225.12608,-92836648.61516,32284725.62034,  -0.00018,  -0.00027,   0.00042,103493282.57093,   0.00000,274640135.82653,   0.00000,   0.00000,   0.00000,-371146853.25560,   0.00000
-80735897.32643,-94152471.21775,32718224.58092,  -0.00018,  -0.00027,   0.00043,104847200.07435,   0.00000,274640135.82653,   0.00000,   0.00000,   0.00000,-369792935.75218,   0.00000
-81565675.63988,-95446399.93344,33156102.31889,  -0.00019,  -0.00028,   0.00043,106187597.99441,   0.00000,274640135.82653,   0.00000,   0.00000,   0.00000,-368452537.83212,   0.00000
-82402022.11939,-96755654.36997,33589601.27948,  -0.00019,  -0.00028,   0.00044,107534516.65720,   0.00000,274640135.82653,   0.00000,   0.00000,   0.00000,-367105619.16933,   0.00000
-83229611.04415,-98073666.36125,34027479.01745,  -0.00019,  -0.00028,   0.00044,108887956.48751,   0.00000,274640135.82653,   0.00000,   0.00000,   0.00000,-365752179.33902,   0.00000
-84065957.52367,-99382920.79777,34469735.53279,  -0.00019,  -0.00029,   0.00045,110244354.80062,   0.00000,274640135.82653,   0.00000,   0.00000,   0.00000,-364395781.02591,   0.00000
-84893546.44843,-100700932.78905,34907613.27076,  -0.00019,  -0.00029,   0.00045,111599091.26347,   0.00000,274640135.82653,   0.00000,   0.00000,   0.00000,-363041044.56306,   0.00000
-85712377.81843,-102027702.33509,35349869.78611,  -0.00019,  -0.00030,   0.00046,112960465.05862,   0.00000,274640135.82653,   0.00000,   0.00000,   0.00000,-361679670.76791,   0.00000
-86539966.74319,-103345714.32637,35792126.30145,  -0.00019,  -0.00030,   0.00047,114320587.59569,   0.00000,274640135.82653,   0.00000,   0.00000,   0.00000,-360319548.23084,   0.00000
-87358798.11318,-104672483.87242,36234382.81680,  -0.00019,  -0.00031,   0.00047,115683264.11166,   0.00000,274640135.82653,   0.00000,   0.00000,   0.00000,-358956871.71487,   0.00000
-88177629.48318,-105999253.41846,36681018.10953,  -0.00019,  -0.00031,   0.00048,117050691.76118,   0.00000,274640135.82653,   0.00000,   0.00000,   0.00000,-357589444.06535,   0.00000
-88987703.29842,-107334780.51926,37127653.40226,  -0.00020,  -0.00031,   0.00048,118420770.08055,   0.00000,274640135.82653,   0.00000,   0.00000,   0.00000,-356219365.74598,   0.00000
-89813102.83449,-108676875.78613,37574288.69498,  -0.00020,  -0.00032,   0.00049,119799544.50449,   0.00000,274640135.82653,   0.00000,   0.00000,   0.00000,-354840591.32204,   0.00000
-90623176.64973,-110012402.88693,38025302.76509,  -0.00020,  -0.00032,   0.00049,121175024.10023,   0.00000,274640135.82653,   0.00000,   0.00000,   0.00000,-353465111.72630,   0.00000
-91433250.46497,-111347929.98773,38471938.05782,  -0.00020,  -0.00033,   0.00050,122547001.94452,   0.00000,274640135.82653,   0.00000,   0.00000,   0.00000,-352093133.88200,   0.00000
-92234566.72545,-112692214.64329,38922952.12792,  -0.00020,  -0.00033,   0.00051,123925871.21478,   0.00000,274640135.82653,   0.00000,   0.00000,   0.00000,-350714264.61175,   0.00000
-93044640.54069,-114027741.74409,39378344.97541,  -0.00020,  -0.00034,   0.00051,125307313.98192,   0.00000,274640135.82653,   0.00000,   0.00000,   0.00000,-349332821.84461,   0.00000
-93852524.96724,-115387352.12048,39829359.04551,  -0.00020,  -0.00034,   0.00052,126697579.50427,   0.00000,274640135.82653,   0.00000,   0.00000,   0.00000,-347942556.32226,   0.00000
-94653841.22772,-116731636.77604,40284751.89300,  -0.00020,  -0.00035,   0.00052,128082436.63815,   0.00000,274640135.82653,   0.00000,   0.00000,   0.00000,-346557699.18838,   0.00000
-95446399.93344,-118084678.98636,40740144.74049,  -0.00020,  -0.00035,   0.00053,129470179.40610,   0.00000,274640135.82653,   0.00000,   0.00000,   0.00000,-345169956.42042,   0.00000
-96254284.35999,-119444289.36275,41195537.58797,  -0.00021,  -0.00036,   0.00054,130866412.33339,   0.00000,274640135.82653,   0.00000,   0.00000,   0.00000,-343773723.49314,   0.00000
-97046843.06571,-120797331.57306,41655309.21284,  -0.00021,  -0.00036,   0.00054,132259516.63724,   0.00000,274640135.82653,   0.00000,   0.00000,   0.00000,-342380619.18929,   0.00000
-97839401.77143,-122150373.78338,42110702.06032,  -0.00021,  -0.00036,   0.00055,133649079.83720,   0.00000,274640135.82653,   0.00000,   0.00000,   0.00000,-340991055.98933,   0.00000
-98638528.64322,-123518741.71453,42570473.68519,  -0.00021,  -0.00037,   0.00055,135053573.20116,   0.00000,274640135.82653,   0.00000,   0.00000,   0.00000,-339586562.62537,   0.00000
-99422329.79419,-124880541.47961,43034624.08744,  -0.00021,  -0.00037,   0.00056,136455016.51872,   0.00000,274640135.82653,   0.00000,   0.00000,   0.00000,-338185119.30781,   0.00000
-100206130.94515,-126242341.24469,43494395.71230,  -0.00021,  -0.00038,   0.00057,137852922.34655,   0.00000,274640135.82653,   0.00000,   0.00000,   0.00000,-336787213.47998,   0.00000
-100989932.09611,-127604141.00977,43958546.11455,  -0.00021,  -0.00038,   0.00057,139255559.96574,   0.00000,274640135.82653,   0.00000,   0.00000,   0.00000,-335384575.86079,   0.00000
-101773733.24707,-128965940.77485,44422696.51679,  -0.00021,  -0.00039,   0.00058,140658769.01949,   0.00000,274640135.82653,   0.00000,   0.00000,   0.00000,-333981366.80704,   0.00000
-102564102.56410,-130343066.26075,44891225.69642,  -0.00021,  -0.00039,   0.00058,142076939.98017,   0.00000,274640135.82653,   0.00000,   0.00000,   0.00000,-332563195.84636,   0.00000
-103339146.16030,-131713623.58059,45355376.09866,  -0.00021,  -0.00040,   0.00059,143483848.53539,   0.00000,274640135.82653,   0.00000,   0.00000,   0.00000,-331156287.29114,   0.00000
-104129515.47734,-133090749.06650,45823905.27829,  -0.00021,  -0.00040,   0.00060,144903137.13194,   0.00000,274640135.82653,   0.00000,   0.00000,   0.00000,-329736998.69459,   0.00000
-104911127.23961,-134476632.10717,46292434.45791,  -0.00022,  -0.00041,   0.00060,146325604.74484,   0.00000,274640135.82653,   0.00000,   0.00000,   0.00000,-328314531.08169,   0.00000
-105686170.83581,-135847189.42700,46765342.41492,  -0.00022,  -0.00041,   0.00061,147742505.95329,   0.00000,274640135.82653,   0.00000,   0.00000,   0.00000,-326897629.87324,   0.00000
-106452456.87725,-137226504.30160,47233871.59454,  -0.00022,  -0.00042,   0.00061,149158494.23981,   0.00000,274640135.82653,   0.00000,   0.00000,   0.00000,-325481641.58672,   0.00000
-107234068.63952,-138612387.34227,47706779.55155,  -0.00022,  -0.00042,   0.00062,150586784.24317,   0.00000,274640135.82653,   0.00000,   0.00000,   0.00000,-324053351.58336,   0.00000
-108000354.68097,-139991702.21687,48179687.50855,  -0.00022,  -0.00043,   0.00063,152008048.05747,   0.00000,274640135.82653,   0.00000,   0.00000,   0.00000,-322632087.76906,   0.00000
-108766640.72241,-141371017.09146,48656974.24294,  -0.00022,  -0.00043,   0.00063,153434022.98837,   0.00000,274640135.82653,   0.00000,   0.00000,   0.00000,-321206112.83815,   0.00000
-109539494.92992,-142765657.68689,49129882.19994,  -0.00022,  -0.00044,   0.00064,154866690.74676,   0.00000,274640135.82653,   0.00000,   0.00000,   0.00000,-319773445.07977,   0.00000
-110305780.97137,-144144972.56149,49607168.93433,  -0.00022,  -0.00044,   0.00064,156293724.40376,   0.00000,274640135.82653,   0.00000,   0.00000,   0.00000,-318346411.42276,   0.00000
-111063309.45805,-145533044.99084,50084455.66871,  -0.00022,  -0.00045,   0.00065,157724133.78676,   0.00000,274640135.82653,   0.00000,   0.00000,   0.00000,-316916002.03977,   0.00000
-111836163.66556,-146927685.58627,50566121.18047,  -0.00022,  -0.00045,   0.00066,159166709.57413,   0.00000,274640135.82653,   0.00000,   0.00000,   0.00000,-315473426.25240,   0.00000
-112593692.15225,-148315758.01563,51043407.91486,  -0.00022,  -0.00046,   0.00066,160598173.28841,   0.00000,274640135.82653,   0.00000,   0.00000,   0.00000,-314041962.53812,   0.00000
-113357788.80500,-149719156.16581,51525073.42662,  -0.00022,  -0.00046,   0.00067,162044688.57667,   0.00000,274640135.82653,   0.00000,   0.00000,   0.00000,-312595447.24986,   0.00000
-114115317.29168,-151107228.59517,52006738.93839,  -0.00022,  -0.00047,   0.00068,163481355.27670,   0.00000,274640135.82653,   0.00000,   0.00000,   0.00000,-311158780.54983,   0.00000
-114879413.94444,-152510626.74535,52492783.22753,  -0.00023,  -0.00047,   0.00068,164933066.63793,   0.00000,274640135.82653,   0.00000,   0.00000,   0.00000,-309707069.18860,   0.00000
-115621616.71029,-153892131.00864,52974448.73930,  -0.00023,  -0.00047,   0.00069,166363355.06525,   0.00000,274640135.82653,   0.00000,   0.00000,   0.00000,-308276780.76128,   0.00000
-116385713.36304,-155295529.15883,53460493.02844,  -0.00023,  -0.00048,   0.00069,167816053.02543,   0.00000,274640135.82653,   0.00000,   0.00000,   0.00000,-306824082.80110,   0.00000
-117134484.29497,-156692359.14294,53946537.31758,  -0.00023,  -0.00048,   0.00070,169261900.05235,   0.00000,274640135.82653,   0.00000,   0.00000,   0.00000,-305378235.77418,   0.00000
-117898580.94772,-158095757.29313,54436960.38411,  -0.00023,  -0.00049,   0.00071,170719730.53060,   0.00000,274640135.82653,   0.00000,   0.00000,   0.00000,-303920405.29593,   0.00000
-118647351.87964,-159492587.27724,54923004.67325,  -0.00023,  -0.00049,   0.00071,172166534.80446,   0.00000,274640135.82653,   0.00000,   0.00000,   0.00000,-302473601.02206,   0.00000
-119402690.97764,-160904742.98219,55413427.73977,  -0.00023,  -0.00050,   0.00072,173628406.50464,   0.00000,274640135.82653,   0.00000,   0.00000,   0.00000,-301011729.32189,   0.00000
-120136136.18873,-162295004.80023,55903850.80630,  -0.00023,  -0.00050,   0.00073,175073089.32829,   0.00000,274640135.82653,   0.00000,   0.00000,   0.00000,-299567046.49824,   0.00000
-120891475.28673,-163707160.50518,56394273.87282,  -0.00023,  -0.00051,   0.00073,176535904.07089,   0.00000,274640135.82653,   0.00000,   0.00000,   0.00000,-298104231.75564,   0.00000
-121640246.21865,-165103990.48930,56889075.71672,  -0.00023,  -0.00051,   0.00074,177992943.47960,   0.00000,274640135.82653,   0.00000,   0.00000,   0.00000,-296647192.34693,   0.00000
-122380259.59582,-166509578.02817,57379498.78325,  -0.00023,  -0.00052,   0.00075,179449443.49714,   0.00000,274640135.82653,   0.00000,   0.00000,   0.00000,-295190692.32939,   0.00000
-123135598.69381,-167921733.73312,57874300.62715,  -0.00023,  -0.00052,   0.00075,180917785.54895,   0.00000,274640135.82653,   0.00000,   0.00000,   0.00000,-293722350.27758,   0.00000
-123875612.07098,-169327321.27199,58373481.24843,  -0.00023,  -0.00053,   0.00076,182383588.54728,   0.00000,274640135.82653,   0.00000,   0.00000,   0.00000,-292256547.27925,   0.00000
-124615625.44814,-170732908.81087,58868283.09234,  -0.00023,  -0.00053,   0.00077,183845631.72271,   0.00000,274640135.82653,   0.00000,   0.00000,   0.00000,-290794504.10382,   0.00000
-125355638.82531,-172138496.34974,59367463.71362,  -0.00023,  -0.00054,   0.00077,185312315.23529,   0.00000,274640135.82653,   0.00000,   0.00000,   0.00000,-289327820.59124,   0.00000
-126095652.20247,-173544083.88862,59862265.55752,  -0.00024,  -0.00054,   0.00078,186775214.16486,   0.00000,274640135.82653,   0.00000,   0.00000,   0.00000,-287864921.66167,   0.00000
-126835665.57964,-174949671.42749,60365824.95618,  -0.00024,  -0.00055,   0.00078,188246949.63025,   0.00000,274640135.82653,   0.00000,   0.00000,   0.00000,-286393186.19628,   0.00000
-127566921.40204,-176364016.52113,60865005.57747,  -0.00024,  -0.00055,   0.00079,189718259.10438,   0.00000,274640135.82653,   0.00000,   0.00000,   0.00000,-284921876.72215,   0.00000
-128306934.77921,-177769604.06000,61364186.19875,  -0.00024,  -0.00056,   0.00080,191186606.98317,   0.00000,274640135.82653,   0.00000,   0.00000,   0.00000,-283453528.84336,   0.00000
-129046948.15637,-179175191.59888,61867745.59741,  -0.00024,  -0.00056,   0.00080,192659560.59256,   0.00000,274640135.82653,   0.00000,   0.00000,   0.00000,-281980575.23397,   0.00000
-129778203.97878,-180589536.69251,62371304.99608,  -0.00024,  -0.00057,   0.00081,194136334.36892,   0.00000,274640135.82653,   0.00000,   0.00000,   0.00000,-280503801.45761,   0.00000
-130518217.35594,-181995124.23139,62874864.39474,  -0.00024,  -0.00057,   0.00082,195610063.24212,   0.00000,274640135.82653,   0.00000,   0.00000,   0.00000,-279030072.58441,   0.00000
-131249473.17835,-183409469.32502,63382802.57078,  -0.00024,  -0.00058,   0.00082,197091857.79232,   0.00000,274640135.82653,   0.00000,   0.00000,   0.00000,-277548278.03420,   0.00000
-131980729.00075,-184823814.41866,63886361.96944,  -0.00024,  -0.00058,   0.00083,198569824.43773,   0.00000,274640135.82653,   0.00000,   0.00000,   0.00000,-276070311.38880,   0.00000
-132720742.37792,-186229401.95753,64394300.14548,  -0.00024,  -0.00059,   0.00084,200048891.03438,   0.00000,274640135.82653,   0.00000,   0.00000,   0.00000,-274591244.79215,   0.00000
-133451998.20032,-187643747.05117,64902238.32153,  -0.00024,  -0.00059,   0.00084,201531834.34564,   0.00000,274640135.82653,   0.00000,   0.00000,   0.00000,-273108301.48089,   0.00000
-134183254.02273,-189058092.14480,65414555.27495,  -0.00024,  -0.00060,   0.00085,203019383.28076,   0.00000,274640135.82653,   0.00000,   0.00000,   0.00000,-271620752.54577,   0.00000
-134907941.67906,-190457111.51761,65922493.45099,  -0.00024,  -0.00060,   0.00086,204492573.43757,   0.00000,274640135.82653,   0.00000,   0.00000,   0.00000,-270147562.38896,   0.00000
-135639197.50147,-191871456.61124,66434810.40441,  -0.00024,  -0.00061,   0.00086,205980847.32127,   0.00000,274640135.82653,   0.00000,   0.00000,   0.00000,-268659288.50526,   0.00000
-136370453.32388,-193285801.70488,66947127.35783,  -0.00024,  -0.00061,   0.00087,207469474.53853,   0.00000,274640135.82653,   0.00000,   0.00000,   0.00000,-267170661.28800,   0.00000
-137101709.14628,-194700146.79851,67459444.31126,  -0.00024,  -0.00062,   0.00088,208958447.53787,   0.00000,274640135.82653,   0.00000,   0.00000,   0.00000,-265681688.28866,   0.00000
-137832964.96869,-196114491.89215,67971761.26468,  -0.00024,  -0.00062,   0.00088,210447758.97980,   0.00000,274640135.82653,   0.00000,   0.00000,   0.00000,-264192376.84673,   0.00000
-138542326.90419,-197506943.09888,68484078.21810,  -0.00025,  -0.00063,   0.00089,211920042.34567,   0.00000,274640135.82653,   0.00000,   0.00000,   0.00000,-262720093.48086,   0.00000
-139273582.72660,-198921288.19252,69000773.94890,  -0.00025,  -0.00063,   0.00090,213414267.73099,   0.00000,274640135.82653,   0.00000,   0.00000,   0.00000,-261225868.09554,   0.00000
-140004838.54900,-200335633.28615,69517469.67970,  -0.00025,  -0.00064,   0.00090,214908814.52249,   0.00000,274640135.82653,   0.00000,   0.00000,   0.00000,-259731321.30404,   0.00000
-140736094.37141,-201749978.37979,70034165.41050,  -0.00025,  -0.00064,   0.00091,216403676.06100,   0.00000,274640135.82653,   0.00000,   0.00000,   0.00000,-258236459.76553,   0.00000
-141452024.47299,-203157755.30735,70550861.14131,  -0.00025,  -0.00065,   0.00092,217892048.99848,   0.00000,274640135.82653,   0.00000,   0.00000,   0.00000,-256748086.82805,   0.00000
-142176712.12932,-204556774.68016,71071935.64949,  -0.00025,  -0.00065,   0.00092,219381270.81076,   0.00000,274640135.82653,   0.00000,   0.00000,   0.00000,-255258865.01577,   0.00000
-142907967.95173,-205971119.77379,71593010.15767,  -0.00025,  -0.00066,   0.00093,220881308.87799,   0.00000,274640135.82653,   0.00000,   0.00000,   0.00000,-253758826.94854,   0.00000
-143639223.77413,-207385464.86743,72109705.88847,  -0.00025,  -0.00066,   0.00094,222377380.81712,   0.00000,274640135.82653,   0.00000,   0.00000,   0.00000,-252262755.00940,   0.00000
-144348585.70964,-208777916.07416,72630780.39665,  -0.00025,  -0.00067,   0.00094,223860729.71160,   0.00000,274640135.82653,   0.00000,   0.00000,   0.00000,-250779406.11492,   0.00000
-145079841.53205,-210192261.16780,73156233.68221,  -0.00025,  -0.00067,   0.00095,225365904.05829,   0.00000,274640135.82653,   0.00000,   0.00000,   0.00000,-249274231.76824,   0.00000
-145811097.35445,-211606606.26143,73677308.19039,  -0.00025,  -0.00068,   0.00096,226867092.55709,   0.00000,274640135.82653,   0.00000,   0.00000,   0.00000,-247773043.26944,   0.00000
-146520459.28996,-212999057.46817,74202761.47595,  -0.00025,  -0.00068,   0.00096,228355584.94654,   0.00000,274640135.82653,   0.00000,   0.00000,   0.00000,-246284550.87999,   0.00000
-147251715.11236,-214413402.56180,74723835.98414,  -0.00025,  -0.00069,   0.00097,229857322.10202,   0.00000,274640135.82653,   0.00000,   0.00000,   0.00000,-244782813.72451,   0.00000
-147976402.76870,-215812421.93461,75249289.26970,  -0.00025,  -0.00069,   0.00098,231353059.14067,   0.00000,274640135.82653,   0.00000,   0.00000,   0.00000,-243287076.68586,   0.00000
-148692332.87028,-217220198.86217,75774742.55526,  -0.00025,  -0.00070,   0.00099,232852917.87030,   0.00000,274640135.82653,   0.00000,   0.00000,   0.00000,-241787217.95623,   0.00000
-149417020.52661,-218619218.23498,76304574.61820,  -0.00025,  -0.00070,   0.00099,234353452.52244,   0.00000,274640135.82653,   0.00000,   0.00000,   0.00000,-240286683.30409,   0.00000
-150141708.18295,-220018237.60779,76830027.90376,  -0.00025,  -0.00071,   0.00100,235849958.56131,   0.00000,274640135.82653,   0.00000,   0.00000,   0.00000,-238790177.26522,   0.00000
-150872964.00536,-221432582.70142,77359859.96670,  -0.00025,  -0.00071,   0.00101,237361525.25685,   0.00000,274640135.82653,   0.00000,   0.00000,   0.00000,-237278610.56967,   0.00000
-151597651.66169,-222831602.07423,77885313.25226,  -0.00026,  -0.00072,   0.00101,238858513.23126,   0.00000,274640135.82653,   0.00000,   0.00000,   0.00000,-235781622.59527,   0.00000
-152307013.59720,-224224053.28096,78415145.31520,  -0.00026,  -0.00072,   0.00102,240353409.73902,   0.00000,274640135.82653,   0.00000,   0.00000,   0.00000,-234286726.08751,   0.00000
-153031701.25353,-225623072.65377,78949356.15552,  -0.00026,  -0.00073,   0.00103,241859447.53955,   0.00000,274640135.82653,   0.00000,   0.00000,   0.00000,-232780688.28698,   0.00000
-153756388.90987,-227022092.02657,79479188.21846,  -0.00026,  -0.00073,   0.00103,243361427.52201,   0.00000,274640135.82653,   0.00000,   0.00000,   0.00000,-231278708.30452,   0.00000
-154481076.56621,-228421111.39938,80009020.28140,  -0.00026,  -0.00074,   0.00104,244863631.29245,   0.00000,274640135.82653,   0.00000,   0.00000,   0.00000,-229776504.53408,   0.00000
-155205764.22254,-229820130.77219,80543231.12172,  -0.00026,  -0.00074,   0.00105,246370349.19894,   0.00000,274640135.82653,   0.00000,   0.00000,   0.00000,-228269786.62759,   0.00000
-155923883.71281,-231203824.42416,81077441.96204,  -0.00026,  -0.00075,   0.00105,247866743.41731,   0.00000,274640135.82653,   0.00000,   0.00000,   0.00000,-226773392.40922,   0.00000
-156663897.08997,-232609411.96304,81607274.02498,  -0.00026,  -0.00075,   0.00106,249376141.05731,   0.00000,274640135.82653,   0.00000,   0.00000,   0.00000,-225263994.76921,   0.00000
-157382016.58024,-233993105.61502,82141484.86530,  -0.00026,  -0.00076,   0.00107,250872948.71765,   0.00000,274640135.82653,   0.00000,   0.00000,   0.00000,-223767187.10888,   0.00000
-158106704.23658,-235392124.98782,82680074.48300,  -0.00026,  -0.00076,   0.00107,252384812.33091,   0.00000,274640135.82653,   0.00000,   0.00000,   0.00000,-222255323.49562,   0.00000
-158840149.44767,-236782386.80587,83214285.32332,  -0.00026,  -0.00077,   0.00108,253888546.24980,   0.00000,274640135.82653,   0.00000,   0.00000,   0.00000,-220751589.57673,   0.00000
-159558268.93794,-238166080.45784,83748496.16364,  -0.00026,  -0.00077,   0.00109,255385957.67691,   0.00000,274640135.82653,   0.00000,   0.00000,   0.00000,-219254178.14962,   0.00000
-160276388.42820,-239549774.10982,84287085.78134,  -0.00026,  -0.00078,   0.00110,256887875.94800,   0.00000,274640135.82653,   0.00000,   0.00000,   0.00000,-217752259.87853,   0.00000
-161009833.63930,-240940035.92787,84825675.39904,  -0.00026,  -0.00078,   0.00110,258396474.35752,   0.00000,274640135.82653,   0.00000,   0.00000,   0.00000,-216243661.46901,   0.00000
-161743278.85040,-242330297.74591,85364265.01674,  -0.00026,  -0.00079,   0.00111,259905247.66197,   0.00000,274640135.82653,   0.00000,   0.00000,   0.00000,-214734888.16456,   0.00000
-162476724.06149,-243720559.56396,85902854.63444,  -0.00026,  -0.00079,   0.00112,261414192.83309,   0.00000,274640135.82653,   0.00000,   0.00000,   0.00000,-213225942.99344,   0.00000
-163188275.38569,-245088927.49511,86441444.25214,  -0.00026,  -0.00080,   0.00112,262906306.62499,   0.00000,274640135.82653,   0.00000,   0.00000,   0.00000,-211733829.20154,   0.00000
-163921720.59678,-246479189.31316,86980033.86984,  -0.00027,  -0.00080,   0.00113,264415595.83422,   0.00000,274640135.82653,   0.00000,   0.00000,   0.00000,-210224539.99231,   0.00000
-164648597.64181,-247854125.41037,87518623.48754,  -0.00027,  -0.00081,   0.00114,265914502.03263,   0.00000,274640135.82653,   0.00000,   0.00000,   0.00000,-208725633.79390,   0.00000
-165390800.40766,-249235629.67366,88061591.88262,  -0.00027,  -0.00081,   0.00114,267424321.20356,   0.00000,274640135.82653,   0.00000,   0.00000,   0.00000,-207215814.62297,   0.00000
-166117677.45269,-250610565.77088,88604560.27770,  -0.00027,  -0.00082,   0.00115,268927866.93336,   0.00000,274640135.82653,   0.00000,   0.00000,   0.00000,-205712268.89317,   0.00000
-166844554.49772,-251985501.86810,89143149.89540,  -0.00027,  -0.00082,   0.00116,270427242.04121,   0.00000,274640135.82653,   0.00000,   0.00000,   0.00000,-204212893.78532,   0.00000
-167586757.26357,-253367006.13138,89686118.29048,  -0.00027,  -0.00083,   0.00117,271937502.91750,   0.00000,274640135.82653,   0.00000,   0.00000,   0.00000,-202702632.90903,   0.00000
-168307066.14253,-254726616.50777,90229086.68556,  -0.00027,  -0.00083,   0.00117,273430964.65195,   0.00000,274640135.82653,   0.00000,   0.00000,   0.00000,-201209171.17458,   0.00000
-169049268.90838,-256108120.77106,90772055.08064,  -0.00027,  -0.00084,   0.00118,274941506.89953,   0.00000,274640135.82653,   0.00000,   0.00000,   0.00000,-199698628.92700,   0.00000
-169784903.50817,-257474299.31352,91319402.25310,  -0.00027,  -0.00084,   0.00119,276445978.24001,   0.00000,274640135.82653,   0.00000,   0.00000,   0.00000,-198194157.58652,   0.00000
-170520538.10795,-258840477.85598,91862370.64818,  -0.00027,  -0.00085,   0.00119,277946244.35046,   0.00000,274640135.82653,   0.00000,   0.00000,   0.00000,-196693891.47607,   0.00000
-171256172.70774,-260206656.39843,92405339.04326,  -0.00027,  -0.00085,   0.00120,279446640.14402,   0.00000,274640135.82653,   0.00000,   0.00000,   0.00000,-195193495.68251,   0.00000
-171991807.30752,-261572834.94089,92952686.21572,  -0.00027,  -0.00085,   0.00121,280951509.62406,   0.00000,274640135.82653,   0.00000,   0.00000,   0.00000,-193688626.20247,   0.00000
-172736199.46207,-262930255.92859,93495654.61080,  -0.00027,  -0.00086,   0.00122,282447965.55806,   0.00000,274640135.82653,   0.00000,   0.00000,   0.00000,-192192170.26847,   0.00000
-173471834.06185,-264296434.47105,94043001.78326,  -0.00027,  -0.00086,   0.00122,283953083.82972,   0.00000,274640135.82653,   0.00000,   0.00000,   0.00000,-190687051.99681,   0.00000
-174216226.21640,-265653855.45875,94590348.95572,  -0.00027,  -0.00087,   0.00123,285454119.89672,   0.00000,274640135.82653,   0.00000,   0.00000,   0.00000,-189186015.92981,   0.00000
-174960618.37094,-267011276.44645,95137696.12818,  -0.00028,  -0.00087,   0.00124,286955267.18454,   0.00000,274640135.82653,   0.00000,   0.00000,   0.00000,-187684868.64199,   0.00000
-175705010.52549,-268368697.43415,95685043.30063,  -0.00028,  -0.00088,   0.00124,288456523.95676,   0.00000,274640135.82653,   0.00000,   0.00000,   0.00000,-186183611.86977,   0.00000
-176442834.51396,-269710792.70102,96232390.47309,  -0.00028,  -0.00088,   0.00125,289947353.35239,   0.00000,274640135.82653,   0.00000,   0.00000,   0.00000,-184692782.47414,   0.00000
-177187226.66851,-271068213.68871,96779737.64555,  -0.00028,  -0.00089,   0.00126,291448825.01325,   0.00000,274640135.82653,   0.00000,   0.00000,   0.00000,-183191310.81328,   0.00000
-177940376.37781,-272416877.12165,97327084.81801,  -0.00028,  -0.00089,   0.00127,292946164.26404,   0.00000,274640135.82653,   0.00000,   0.00000,   0.00000,-181693971.56249,   0.00000
-178678200.36628,-273758972.38852,97874431.99047,  -0.00028,  -0.00090,   0.00127,294437305.79059,   0.00000,274640135.82653,   0.00000,   0.00000,   0.00000,-180202830.03594,   0.00000
-179431350.07559,-275107635.82146,98426157.94031,  -0.00028,  -0.00090,   0.00128,295939202.98999,   0.00000,274640135.82653,   0.00000,   0.00000,   0.00000,-178700932.83654,   0.00000
-180184499.78489,-276456299.25440,98973505.11277,  -0.00028,  -0.00091,   0.00129,297436822.71964,   0.00000,274640135.82653,   0.00000,   0.00000,   0.00000,-177203313.10688,   0.00000
-180931081.32813,-277789636.96651,99520852.28523,  -0.00028,  -0.00091,   0.00129,298924002.57789,   0.00000,274640135.82653,   0.00000,   0.00000,   0.00000,-175716133.24863,   0.00000
-181677662.87136,-279122974.67862,100072578.23507,  -0.00028,  -0.00092,   0.00130,300415647.44595,   0.00000,274640135.82653,   0.00000,   0.00000,   0.00000,-174224488.38058,   0.00000
-182439570.13542,-280462880.55681,100624304.18491,  -0.00028,  -0.00092,   0.00131,301913644.16300,   0.00000,274640135.82653,   0.00000,   0.00000,   0.00000,-172726491.66353,   0.00000
-183201477.39949,-281802786.43499,101171651.35737,  -0.00028,  -0.00092,   0.00132,303407340.16966,   0.00000,274640135.82653,   0.00000,   0.00000,   0.00000,-171232795.65687,   0.00000
-183956816.49748,-283127366.59234,101723377.30721,  -0.00028,  -0.00093,   0.00132,304894971.26078,   0.00000,274640135.82653,   0.00000,   0.00000,   0.00000,-169745164.56575,   0.00000
-184718723.76154,-284467272.47052,102275103.25704,  -0.00029,  -0.00093,   0.00133,306393202.81453,   0.00000,274640135.82653,   0.00000,   0.00000,   0.00000,-168246933.01200,   0.00000
-185474062.85954,-285791852.62787,102822450.42950,  -0.00029,  -0.00094,   0.00134,307876605.02226,   0.00000,274640135.82653,   0.00000,   0.00000,   0.00000,-166763530.80427,   0.00000
-186244727.67836,-287123000.95129,103374176.37934,  -0.00029,  -0.00094,   0.00134,309370703.47274,   0.00000,274640135.82653,   0.00000,   0.00000,   0.00000,-165269432.35379,   0.00000
-186993498.61029,-288432255.38781,103925902.32918,  -0.00029,  -0.00095,   0.00135,310848126.01719,   0.00000,274640135.82653,   0.00000,   0.00000,   0.00000,-163792009.80934,   0.00000
-187764163.42911,-289763403.71123,104477628.27902,  -0.00029,  -0.00095,   0.00136,312342364.30681,   0.00000,274640135.82653,   0.00000,   0.00000,   0.00000,-162297771.51972,   0.00000
-188528260.08186,-291079226.31382,105029354.22886,  -0.00029,  -0.00096,   0.00137,313826156.50583,   0.00000,274640135.82653,   0.00000,   0.00000,   0.00000,-160813979.32070,   0.00000
-189307682.45544,-292401617.08249,105581080.17870,  -0.00029,  -0.00096,   0.00137,315316230.64488,   0.00000,274640135.82653,   0.00000,   0.00000,   0.00000,-159323905.18165,   0.00000
-190065210.94213,-293702113.96425,106132806.12854,  -0.00029,  -0.00097,   0.00138,316789645.54248,   0.00000,274640135.82653,   0.00000,   0.00000,   0.00000,-157850490.28404,   0.00000
-190844633.31571,-295024504.73291,106684532.07838,  -0.00029,  -0.00097,   0.00139,318279841.00120,   0.00000,274640135.82653,   0.00000,   0.00000,   0.00000,-156360294.82533,   0.00000
-191617487.52322,-296331569.78074,107236258.02821,  -0.00029,  -0.00097,   0.00139,319759589.38852,   0.00000,274640135.82653,   0.00000,   0.00000,   0.00000,-154880546.43801,   0.00000
-192390341.73073,-297638634.82858,107787983.97805,  -0.00029,  -0.00098,   0.00140,321239397.23687,   0.00000,274640135.82653,   0.00000,   0.00000,   0.00000,-153400738.58966,   0.00000
-193171953.49301,-298936942.32165,108339709.92789,  -0.00030,  -0.00098,   0.00141,322714958.16463,   0.00000,274640135.82653,   0.00000,   0.00000,   0.00000,-151925177.66189,   0.00000
-193960133.42135,-300250575.53555,108891435.87773,  -0.00030,  -0.00099,   0.00142,324201070.63069,   0.00000,274640135.82653,   0.00000,   0.00000,   0.00000,-150439065.19584,   0.00000
-194741745.18362,-301548883.02862,109443161.82757,  -0.00030,  -0.00099,   0.00142,325676737.64986,   0.00000,274640135.82653,   0.00000,   0.00000,   0.00000,-148963398.17667,   0.00000
-195523356.94589,-302847190.52170,109999266.55479,  -0.00030,  -0.00100,   0.00143,327156874.47097,   0.00000,274640135.82653,   0.00000,   0.00000,   0.00000,-147483261.35556,   0.00000
-196298400.54209,-304130172.29394,110550992.50463,  -0.00030,  -0.00100,   0.00144,328622158.72992,   0.00000,274640135.82653,   0.00000,   0.00000,   0.00000,-146017977.09661,   0.00000
-197095338.02519,-305435047.95309,111102718.45447,  -0.00030,  -0.00101,   0.00144,330104163.73053,   0.00000,274640135.82653,   0.00000,   0.00000,   0.00000,-144535972.09600,   0.00000
-197885707.34222,-306724597.89140,111654444.40431,  -0.00030,  -0.00101,   0.00145,331575727.36055,   0.00000,274640135.82653,   0.00000,   0.00000,   0.00000,-143064408.46598,   0.00000
-198669508.49319,-307998822.10888,112206170.35414,  -0.00030,  -0.00101,   0.00146,333036855.94415,   0.00000,274640135.82653,   0.00000,   0.00000,   0.00000,-141603279.88238,   0.00000
-199475203.53105,-309294940.21327,112757896.30398,  -0.00030,  -0.00102,   0.00147,334514686.15267,   0.00000,274640135.82653,   0.00000,   0.00000,   0.00000,-140125449.67386,   0.00000
-200274330.40284,-310575732.59682,113309622.25382,  -0.00031,  -0.00102,   0.00147,335982079.42846,   0.00000,274640135.82653,   0.00000,   0.00000,   0.00000,-138658056.39807,   0.00000
-201073457.27463,-311856524.98038,113861348.20366,  -0.00031,  -0.00103,   0.00148,337449518.57429,   0.00000,274640135.82653,   0.00000,   0.00000,   0.00000,-137190617.25224,   0.00000
-201866015.98035,-313121991.64310,114413074.15350,  -0.00031,  -0.00103,   0.00149,338906529.44619,   0.00000,274640135.82653,   0.00000,   0.00000,   0.00000,-135733606.38034,   0.00000
-202680468.57297,-314409352.19273,114964800.10334,  -0.00031,  -0.00104,   0.00149,340380219.82698,   0.00000,274640135.82653,   0.00000,   0.00000,   0.00000,-134259915.99955,   0.00000
-203473027.27869,-315674818.85545,115516526.05318,  -0.00031,  -0.00104,   0.00150,341837324.52058,   0.00000,274640135.82653,   0.00000,   0.00000,   0.00000,-132802811.30595,   0.00000
-204289669.26000,-316938096.12949,116068252.00302,  -0.00031,  -0.00104,   0.00151,343296321.38936,   0.00000,274640135.82653,   0.00000,   0.00000,   0.00000,-131343814.43717,   0.00000
-205097553.68655,-318210130.95828,116619977.95286,  -0.00031,  -0.00105,   0.00152,344759673.29148,   0.00000,274640135.82653,   0.00000,   0.00000,   0.00000,-129880462.53505,   0.00000
-205914195.66786,-319473408.23232,117171703.90269,  -0.00031,  -0.00105,   0.00152,346218759.22323,   0.00000,274640135.82653,   0.00000,   0.00000,   0.00000,-128421376.60330,   0.00000
-206724269.48310,-320721359.78553,117723429.85253,  -0.00032,  -0.00106,   0.00153,347667431.91654,   0.00000,274640135.82653,   0.00000,   0.00000,   0.00000,-126972703.90999,   0.00000
-207540911.46441,-321984637.05956,118270777.02499,  -0.00032,  -0.00106,   0.00154,349122158.38480,   0.00000,274640135.82653,   0.00000,   0.00000,   0.00000,-125517977.44173,   0.00000
-208366311.00047,-323239156.77884,118822502.97483,  -0.00032,  -0.00106,   0.00154,350577071.42045,   0.00000,274640135.82653,   0.00000,   0.00000,   0.00000,-124063064.40607,   0.00000
-209191710.53654,-324493676.49812,119374228.92467,  -0.00032,  -0.00107,   0.00155,352032030.06774,   0.00000,274640135.82653,   0.00000,   0.00000,   0.00000,-122608105.75879,   0.00000
-210010541.90654,-325732870.49656,119921576.09713,  -0.00032,  -0.00107,   0.00156,353472130.76127,   0.00000,274640135.82653,   0.00000,   0.00000,   0.00000,-121168005.06526,   0.00000
-210835941.44261,-326987390.21584,120473302.04697,  -0.00032,  -0.00108,   0.00157,354927179.61075,   0.00000,274640135.82653,   0.00000,   0.00000,   0.00000,-119712956.21578,   0.00000
-211663530.36737,-328217826.65953,121020649.21943,  -0.00032,  -0.00108,   0.00157,356363074.00865,   0.00000,274640135.82653,   0.00000,   0.00000,   0.00000,-118277061.81788,   0.00000
-212497687.45820,-329463588.82405,121572375.16927,  -0.00032,  -0.00108,   0.00158,357813918.15021,   0.00000,274640135.82653,   0.00000,   0.00000,   0.00000,-116826217.67632,   0.00000
-213340602.10378,-330700593.43380,122119722.34173,  -0.00033,  -0.00109,   0.00159,359256052.19494,   0.00000,274640135.82653,   0.00000,   0.00000,   0.00000,-115384083.63159,   0.00000
-214183516.74937,-331937598.04356,122667069.51419,  -0.00033,  -0.00109,   0.00159,360698233.40480,   0.00000,274640135.82653,   0.00000,   0.00000,   0.00000,-113941902.42173,   0.00000
-215026431.39496,-333174602.65332,123214416.68664,  -0.00033,  -0.00110,   0.00160,362140461.21631,   0.00000,274640135.82653,   0.00000,   0.00000,   0.00000,-112499674.61022,   0.00000
-215862777.87448,-334396281.54225,123761763.85910,  -0.00033,  -0.00110,   0.00161,363572309.61243,   0.00000,274640135.82653,   0.00000,   0.00000,   0.00000,-111067826.21410,   0.00000
-216714450.07482,-335624528.59725,124309111.03156,  -0.00033,  -0.00110,   0.00162,365010352.15067,   0.00000,274640135.82653,   0.00000,   0.00000,   0.00000,-109629783.67586,   0.00000
-217559554.10910,-336837449.93142,124856458.20402,  -0.00033,  -0.00111,   0.00162,366438026.56368,   0.00000,274640135.82653,   0.00000,   0.00000,   0.00000,-108202109.26285,   0.00000
-218404658.14338,-338050371.26559,125403805.37648,  -0.00033,  -0.00111,   0.00163,367865757.64636,   0.00000,274640135.82653,   0.00000,   0.00000,   0.00000,-106774378.18017,   0.00000
-219265087.89848,-339269860.76583,125951152.54894,  -0.00034,  -0.00112,   0.00164,369299688.38098,   0.00000,274640135.82653,   0.00000,   0.00000,   0.00000,-105340447.44555,   0.00000
-220125517.65359,-340489350.26607,126494120.94402,  -0.00034,  -0.00112,   0.00164,370729193.05636,   0.00000,274640135.82653,   0.00000,   0.00000,   0.00000,-103910942.77017,   0.00000
-220994704.96345,-341700082.21155,127041468.11648,  -0.00034,  -0.00112,   0.00165,372158972.50302,   0.00000,274640135.82653,   0.00000,   0.00000,   0.00000,-102481163.32351,   0.00000
-221848566.55249,-342904245.99096,127584436.51156,  -0.00034,  -0.00113,   0.00166,373578182.28864,   0.00000,274640135.82653,   0.00000,   0.00000,   0.00000,-101061953.53789,   0.00000
-222726511.41711,-344106220.38168,128131783.68402,  -0.00034,  -0.00113,   0.00167,375003831.63510,   0.00000,274640135.82653,   0.00000,   0.00000,   0.00000,-99636304.19143,   0.00000
-223589130.56091,-345301626.60633,128674752.07910,  -0.00034,  -0.00114,   0.00167,376418912.43086,   0.00000,274640135.82653,   0.00000,   0.00000,   0.00000,-98221223.39567,   0.00000
-224467075.42554,-346503600.99705,129217720.47418,  -0.00035,  -0.00114,   0.00168,377840206.12875,   0.00000,274640135.82653,   0.00000,   0.00000,   0.00000,-96799929.69778,   0.00000
-225338452.12409,-347690249.66694,129760688.86926,  -0.00035,  -0.00114,   0.00169,379251175.56578,   0.00000,274640135.82653,   0.00000,   0.00000,   0.00000,-95388960.26075,   0.00000
-226225154.54347,-348883466.50290,130299278.48696,  -0.00035,  -0.00115,   0.00169,380663872.12695,   0.00000,274640135.82653,   0.00000,   0.00000,   0.00000,-93976263.69958,   0.00000
-227111856.96286,-350076683.33886,130842246.88204,  -0.00035,  -0.00115,   0.00170,382081136.49536,   0.00000,274640135.82653,   0.00000,   0.00000,   0.00000,-92558999.33117,   0.00000
-227991991.21617,-351254574.45399,131380836.49974,  -0.00035,  -0.00115,   0.00171,383483594.01430,   0.00000,274640135.82653,   0.00000,   0.00000,   0.00000,-91156541.81222,   0.00000
-228887451.19032,-352439033.73520,131923804.89482,  -0.00035,  -0.00116,   0.00172,384896786.91144,   0.00000,274640135.82653,   0.00000,   0.00000,   0.00000,-89743348.91509,   0.00000
-229776342.99839,-353608167.29557,132462394.51252,  -0.00036,  -0.00116,   0.00172,386295185.22016,   0.00000,274640135.82653,   0.00000,   0.00000,   0.00000,-88344950.60637,   0.00000
-230671802.97253,-354792626.57677,133000984.13022,  -0.00036,  -0.00116,   0.00173,387704035.37342,   0.00000,274640135.82653,   0.00000,   0.00000,   0.00000,-86936100.45311,   0.00000
-231569452.33537,-355953002.58238,133539573.74792,  -0.00036,  -0.00117,   0.00174,389098397.20501,   0.00000,274640135.82653,   0.00000,   0.00000,   0.00000,-85541738.62152,   0.00000
-232473669.86427,-357128704.30883,134078163.36562,  -0.00036,  -0.00117,   0.00174,390503213.54812,   0.00000,274640135.82653,   0.00000,   0.00000,   0.00000,-84136922.27841,   0.00000
-233386644.94793,-358295648.48051,134612374.20594,  -0.00036,  -0.00118,   0.00175,391899416.08771,   0.00000,274640135.82653,   0.00000,   0.00000,   0.00000,-82740719.73882,   0.00000
-234293051.86552,-359447266.93136,135146585.04626,  -0.00037,  -0.00118,   0.00176,393285358.29829,   0.00000,274640135.82653,   0.00000,   0.00000,   0.00000,-81354777.52824,   0.00000
-235206026.94919,-360614211.10305,135685174.66396,  -0.00037,  -0.00118,   0.00176,394686265.75864,   0.00000,274640135.82653,   0.00000,   0.00000,   0.00000,-79953870.06789,   0.00000
-236121191.42154,-361757071.99914,136219385.50428,  -0.00037,  -0.00119,   0.00177,396068236.91834,   0.00000,274640135.82653,   0.00000,   0.00000,   0.00000,-78571898.90819,   0.00000
-237042924.05996,-362915258.61607,136753596.34460,  -0.00037,  -0.00119,   0.00178,397460660.98983,   0.00000,274640135.82653,   0.00000,   0.00000,   0.00000,-77179474.83670,   0.00000
-237958088.53231,-364058119.51216,137283428.40754,  -0.00037,  -0.00119,   0.00178,398838327.13630,   0.00000,274640135.82653,   0.00000,   0.00000,   0.00000,-75801808.69023,   0.00000
-238888578.72549,-365207548.57432,137817639.24786,  -0.00037,  -0.00120,   0.00179,400226809.97900,   0.00000,274640135.82653,   0.00000,   0.00000,   0.00000,-74413325.84753,   0.00000
-239812500.75260,-366341651.91566,138347471.31080,  -0.00038,  -0.00120,   0.00180,401600550.57738,   0.00000,274640135.82653,   0.00000,   0.00000,   0.00000,-73039585.24915,   0.00000
-240751748.50054,-367482323.42307,138877303.37374,  -0.00038,  -0.00120,   0.00181,402980603.38486,   0.00000,274640135.82653,   0.00000,   0.00000,   0.00000,-71659532.44167,   0.00000
-241684428.08241,-368607669.20964,139407135.43668,  -0.00038,  -0.00121,   0.00181,404350455.78056,   0.00000,274640135.82653,   0.00000,   0.00000,   0.00000,-70289680.04597,   0.00000
-242632433.38511,-369739583.16229,139936967.49962,  -0.00038,  -0.00121,   0.00182,405726640.63986,   0.00000,274640135.82653,   0.00000,   0.00000,   0.00000,-68913495.18667,   0.00000
-243580438.68781,-370871497.11493,140462420.78518,  -0.00039,  -0.00121,   0.00183,407098428.48881,   0.00000,274640135.82653,   0.00000,   0.00000,   0.00000,-67541707.33772,   0.00000
-244521875.82444,-371988085.34675,140987874.07074,  -0.00039,  -0.00122,   0.00183,408460035.85207,   0.00000,274640135.82653,   0.00000,   0.00000,   0.00000,-66180099.97446,   0.00000
-245478638.68190,-373111241.74464,141517706.13368,  -0.00039,  -0.00122,   0.00184,409832532.27748,   0.00000,274640135.82653,   0.00000,   0.00000,   0.00000,-64807603.54905,   0.00000
-246428833.37329,-374219072.42169,142038780.64186,  -0.00039,  -0.00122,   0.00185,411185797.73339,   0.00000,274640135.82653,   0.00000,   0.00000,   0.00000,-63454338.09314,   0.00000
-247394353.78551,-375333471.26482,142564233.92742,  -0.00039,  -0.00123,   0.00185,412549974.84542,   0.00000,274640135.82653,   0.00000,   0.00000,   0.00000,-62090160.98111,   0.00000
-248359874.19773,-376447870.10795,143085308.43561,  -0.00040,  -0.00123,   0.00186,413909768.94566,   0.00000,274640135.82653,   0.00000,   0.00000,   0.00000,-60730366.88087,   0.00000
-249318826.44387,-377546943.23025,143610761.72117,  -0.00040,  -0.00123,   0.00187,415263968.33173,   0.00000,274640135.82653,   0.00000,   0.00000,   0.00000,-59376167.49480,   0.00000
-250293104.41085,-378652584.51861,144127457.45197,  -0.00040,  -0.00123,   0.00187,416615480.96608,   0.00000,274640135.82653,   0.00000,   0.00000,   0.00000,-58024654.86045,   0.00000
-251260814.21176,-379742900.08615,144648531.96015,  -0.00040,  -0.00124,   0.00188,417961421.72705,   0.00000,274640135.82653,   0.00000,   0.00000,   0.00000,-56678714.09948,   0.00000
-252243849.73350,-380839783.81976,145169606.46833,  -0.00041,  -0.00124,   0.00189,419313786.31330,   0.00000,274640135.82653,   0.00000,   0.00000,   0.00000,-55326349.51323,   0.00000
-253226885.25523,-381936667.55337,145686302.19913,  -0.00041,  -0.00124,   0.00189,420661784.20901,   0.00000,274640135.82653,   0.00000,   0.00000,   0.00000,-53978351.61752,   0.00000
-254218678.33173,-383024793.73222,146202997.92993,  -0.00041,  -0.00125,   0.00190,422005950.20278,   0.00000,274640135.82653,   0.00000,   0.00000,   0.00000,-52634185.62375,   0.00000
-255210471.40823,-384112919.91107,146715314.88335,  -0.00041,  -0.00125,   0.00191,423345758.75812,   0.00000,274640135.82653,   0.00000,   0.00000,   0.00000,-51294377.06841,   0.00000
-256211022.03948,-385192288.53516,147232010.61416,  -0.00041,  -0.00125,   0.00191,424686321.75125,   0.00000,274640135.82653,   0.00000,   0.00000,   0.00000,-49953814.07528,   0.00000
-257196246.94991,-386265088.99318,147744327.56758,  -0.00042,  -0.00126,   0.00192,426016262.82150,   0.00000,274640135.82653,   0.00000,   0.00000,   0.00000,-48623873.00503,   0.00000
-258205555.13592,-387335700.06251,148256644.52100,  -0.00042,  -0.00126,   0.00193,427348712.08562,   0.00000,274640135.82653,   0.00000,   0.00000,   0.00000,-47291423.74091,   0.00000
-259214863.32194,-388406311.13184,148764582.69704,  -0.00042,  -0.00126,   0.00193,428676827.26701,   0.00000,274640135.82653,   0.00000,   0.00000,   0.00000,-45963308.55952,   0.00000
-260224171.50795,-389476922.20117,149276899.65046,  -0.00042,  -0.00126,   0.00194,430009722.29799,   0.00000,274640135.82653,   0.00000,   0.00000,   0.00000,-44630413.52854,   0.00000
-261242237.24873,-390538775.71574,149784837.82651,  -0.00043,  -0.00127,   0.00195,431334338.17405,   0.00000,274640135.82653,   0.00000,   0.00000,   0.00000,-43305797.65248,   0.00000
-262253734.82343,-391585303.50948,150288397.22517,  -0.00043,  -0.00127,   0.00195,432644392.11395,   0.00000,274640135.82653,   0.00000,   0.00000,   0.00000,-41995743.71258,   0.00000
-263280558.11896,-392638399.46929,150796335.40121,  -0.00043,  -0.00127,   0.00196,433965565.89358,   0.00000,274640135.82653,   0.00000,   0.00000,   0.00000,-40674569.93295,   0.00000
-264307381.41450,-393691495.42910,151299894.79987,  -0.00043,  -0.00128,   0.00197,435282427.51199,   0.00000,274640135.82653,   0.00000,   0.00000,   0.00000,-39357708.31454,   0.00000
-265334204.71003,-394744591.38892,151803454.19854,  -0.00044,  -0.00128,   0.00197,436599537.92917,   0.00000,274640135.82653,   0.00000,   0.00000,   0.00000,-38040597.89736,   0.00000
-266378543.11508,-395780172.23921,152302634.81982,  -0.00044,  -0.00128,   0.00198,437904561.53604,   0.00000,274640135.82653,   0.00000,   0.00000,   0.00000,-36735574.29049,   0.00000
-267414123.96538,-396824510.64426,152806194.21848,  -0.00044,  -0.00128,   0.00199,439218312.50178,   0.00000,274640135.82653,   0.00000,   0.00000,   0.00000,-35421823.32475,   0.00000
-268458462.37043,-397860091.49455,153300996.06238,  -0.00045,  -0.00129,   0.00199,440519325.57190,   0.00000,274640135.82653,   0.00000,   0.00000,   0.00000,-34120810.25463,   0.00000
-269511558.33024,-398886914.79009,153800176.68367,  -0.00045,  -0.00129,   0.00200,441821343.87726,   0.00000,274640135.82653,   0.00000,   0.00000,   0.00000,-32818791.94926,   0.00000
-270549328.56922,-399907169.91955,154294978.52757,  -0.00045,  -0.00129,   0.00201,443112726.77169,   0.00000,274640135.82653,   0.00000,   0.00000,   0.00000,-31527409.05484,   0.00000
-271617750.24986,-400940561.38115,154789780.37147,  -0.00045,  -0.00129,   0.00201,444417136.33422,   0.00000,274640135.82653,   0.00000,   0.00000,   0.00000,-30222999.49230,   0.00000
-272679603.76443,-401958627.12193,155284582.21538,  -0.00046,  -0.00130,   0.00202,445711666.29895,   0.00000,274640135.82653,   0.00000,   0.00000,   0.00000,-28928469.52758,   0.00000
-273741457.27901,-402976692.86270,155775005.28190,  -0.00046,  -0.00130,   0.00203,447001935.21037,   0.00000,274640135.82653,   0.00000,   0.00000,   0.00000,-27638200.61616,   0.00000
-274812068.34834,-403986001.04872,156265428.34842,  -0.00046,  -0.00130,   0.00203,448288730.29779,   0.00000,274640135.82653,   0.00000,   0.00000,   0.00000,-26351405.52874,   0.00000
-275882679.41767,-404995309.23473,156755851.41495,  -0.00047,  -0.00130,   0.00204,449575859.11614,   0.00000,274640135.82653,   0.00000,   0.00000,   0.00000,-25064276.71039,   0.00000
-276962048.04176,-405995859.86599,157241895.70409,  -0.00047,  -0.00131,   0.00204,450854977.49575,   0.00000,274640135.82653,   0.00000,   0.00000,   0.00000,-23785158.33077,   0.00000
-278041416.66585,-406996410.49724,157727939.99323,  -0.00047,  -0.00131,   0.00205,452134446.98469,   0.00000,274640135.82653,   0.00000,   0.00000,   0.00000,-22505688.84184,   0.00000
-279136111.01076,-408003529.29457,158213984.28238,  -0.00047,  -0.00131,   0.00206,453420692.52362,   0.00000,274640135.82653,   0.00000,   0.00000,   0.00000,-21219443.30291,   0.00000
-280224237.18961,-408995322.37106,158695649.79414,  -0.00048,  -0.00131,   0.00206,454692558.10395,   0.00000,274640135.82653,   0.00000,   0.00000,   0.00000,-19947577.72258,   0.00000
-281321120.92322,-409978357.89280,159177315.30591,  -0.00048,  -0.00132,   0.00207,455961082.70915,   0.00000,274640135.82653,   0.00000,   0.00000,   0.00000,-18679053.11738,   0.00000
-282433330.37766,-410967961.58061,159654602.04029,  -0.00048,  -0.00132,   0.00208,457231863.87667,   0.00000,274640135.82653,   0.00000,   0.00000,   0.00000,-17408271.94985,   0.00000
-283530214.11127,-411950997.10234,160131888.77468,  -0.00049,  -0.00132,   0.00208,458496583.76421,   0.00000,274640135.82653,   0.00000,   0.00000,   0.00000,-16143552.06232,   0.00000
-284651181.12046,-412931843.23539,160609175.50906,  -0.00049,  -0.00132,   0.00209,459764490.73950,   0.00000,274640135.82653,   0.00000,   0.00000,   0.00000,-14875645.08703,   0.00000
-285750254.24276,-413890795.48154,161082083.46607,  -0.00049,  -0.00133,   0.00209,461011617.19404,   0.00000,274640135.82653,   0.00000,   0.00000,   0.00000,-13628518.63249,   0.00000
-286879978.80672,-414862884.05983,161554991.42307,  -0.00050,  -0.00133,   0.00210,462272133.25586,   0.00000,274640135.82653,   0.00000,   0.00000,   0.00000,-12368002.57066,   0.00000
-287994377.64984,-415828404.47205,162027899.38007,  -0.00050,  -0.00133,   0.00211,463526592.01085,   0.00000,274640135.82653,   0.00000,   0.00000,   0.00000,-11113543.81568,   0.00000
-289132859.76856,-416791735.49557,162496428.55970,  -0.00050,  -0.00133,   0.00211,464779778.87124,   0.00000,274640135.82653,   0.00000,   0.00000,   0.00000,-9860356.95529,   0.00000
-290256016.16645,-417748498.35303,162964957.73932,  -0.00051,  -0.00133,   0.00212,466026909.37166,   0.00000,274640135.82653,   0.00000,   0.00000,   0.00000,-8613226.45487,   0.00000
-291403255.83992,-418703071.82180,163429108.14157,  -0.00051,  -0.00134,   0.00212,467272834.29696,   0.00000,274640135.82653,   0.00000,   0.00000,   0.00000,-7367301.52957,   0.00000
-292535169.79257,-419651077.12450,163893258.54382,  -0.00051,  -0.00134,   0.00213,468512703.76095,   0.00000,274640135.82653,   0.00000,   0.00000,   0.00000,-6127432.06557,   0.00000
-293691167.02080,-420596893.03851,164357408.94606,  -0.00052,  -0.00134,   0.00214,469756031.66354,   0.00000,274640135.82653,   0.00000,   0.00000,   0.00000,-4884104.16299,   0.00000
-294831838.52821,-421536140.78645,164817180.57093,  -0.00052,  -0.00134,   0.00214,470988709.67248,   0.00000,274640135.82653,   0.00000,   0.00000,   0.00000,-3651426.15405,   0.00000
-295996593.31120,-422473199.14570,165276952.19579,  -0.00052,  -0.00135,   0.00215,472224917.08636,   0.00000,274640135.82653,   0.00000,   0.00000,   0.00000,-2415218.74017,   0.00000
-297161348.09419,-423410257.50495,165732345.04328,  -0.00053,  -0.00135,   0.00215,473457052.56667,   0.00000,274640135.82653,   0.00000,   0.00000,   0.00000,-1183083.25986,   0.00000
-298282126.39322,-424302219.06240,166173029.13817,  -0.00053,  -0.00135,   0.00216,474640136.02993,   0.00000,274640135.82653,   0.00000,   0.00000,   0.00000,   0.20340,   0.00000
-298297695.70191,-424298592.94998,166172494.72709,  -0.00053,  -0.00135,   0.00216,474640136.02993,   0.00000,274640298.19678,  -0.00000,  -0.00000,   0.00000,   0.01371,   1.00000
-298792652.05211,-424191417.99031,166150597.96854,  -0.00053,  -0.00135,   0.00217,475865406.50154,   0.00000,274645333.77439,  -0.00000,  -0.00000,   0.00001,   0.00000,   2.00000
-299284921.03350,-424077238.39774,166132366.39644,  -0.00054,  -0.00135,   0.00217,475860960.44930,   0.00001,274650328.95022,  -0.00000,  -0.00001,   0.00001,   0.00000,   2.00000
-299787106.73883,-423963837.37668,166111359.11629,  -0.00054,  -0.00135,   0.00218,475873172.22391,   0.00001,274655352.31716,  -0.00000,  -0.00001,   0.00002,   0.00000,   2.00000
-300290105.49786,-423854098.56066,166087530.07874,  -0.00054,  -0.00136,   0.00218,475874209.32311,   0.00002,274660357.83187,  -0.00000,  -0.00001,   0.00002,   0.00000,   2.00000
-300801993.83913,-423738274.21384,166064794.65823,  -0.00055,  -0.00136,   0.00219,475876419.44711,   0.00002,274665350.38539,  -0.00001,  -0.00002,   0.00003,   0.00000,   2.00000
-301325291.00591,-423620206.88781,166040533.05384,  -0.00055,  -0.00136,   0.00220,475874067.79478,   0.00003,274670311.28714,  -0.00001,  -0.00002,   0.00004,  -0.00000,   2.00000
-301846769.37557,-423501892.21302,166016031.66863,  -0.00056,  -0.00136,   0.00220,475879696.87317,   0.00003,274675273.43915,  -0.00001,  -0.00002,   0.00004,   0.00000,   2.00000
-302368085.14951,-423380360.16982,165992560.81665,  -0.00056,  -0.00136,   0.00221,475870686.74340,   0.00004,274680176.79218,  -0.00001,  -0.00003,   0.00005,   0.00000,   2.00000
-302899118.02233,-423259497.62862,165966264.74932,  -0.00056,  -0.00137,   0.00221,475882965.89272,   0.00004,274685108.89829,  -0.00001,  -0.00003,   0.00005,   0.00000,   2.00000
-303438898.82224,-423132425.44328,165940999.39505,  -0.00057,  -0.00137,   0.00222,475885276.27243,   0.00005,274690028.74313,  -0.00001,  -0.00003,   0.00006,  -0.00000,   2.00000
-303979379.86910,-423008940.44324,165912874.75518,  -0.00057,  -0.00137,   0.00222,475886326.77549,   0.00005,274694931.20748,  -0.00001,  -0.00004,   0.00007,  -0.00000,   2.00000
-304532039.64806,-422889914.69974,165879300.42542,  -0.00057,  -0.00137,   0.00223,475894104.59609,   0.00005,274699843.88636,  -0.00001,  -0.00004,   0.00007,   0.00000,   2.00000
-305081888.05632,-422763708.29187,165849336.47203,  -0.00058,  -0.00137,   0.00224,475889739.92794,   0.00006,274704717.02520,  -0.00001,  -0.00004,   0.00008,  -0.00000,   2.00000
-305640385.96179,-422631189.51061,165820360.48693,  -0.00058,  -0.00137,   0.00224,475892122.29453,   0.00006,274709578.42934,  -0.00002,  -0.00005,   0.00008,  -0.00000,   2.00000
-306199532.14432,-422502213.12268,165788509.37995,  -0.00059,  -0.00137,   0.00225,475893175.09324,   0.00007,274714422.69867,  -0.00002,  -0.00005,   0.00009,   0.00000,   2.00000
-306769894.89171,-422370719.43961,165755021.90612,  -0.00059,  -0.00138,   0.00225,475891007.92435,   0.00007,274719236.71290,  -0.00002,  -0.00005,   0.00010,   0.00000,   2.00000
-307338255.95152,-422238886.82790,165721259.91700,  -0.00059,  -0.00138,   0.00226,475896632.08677,   0.00008,274724052.49136,  -0.00002,  -0.00006,   0.00010,   0.00000,   2.00000
-307915165.64621,-422100635.79807,165688441.52136,  -0.00060,  -0.00138,   0.00226,475899092.93471,   0.00008,274728857.08188,  -0.00002,  -0.00006,   0.00011,   0.00000,   2.00000
-308492671.58710,-421965880.93139,165652731.47294,  -0.00060,  -0.00138,   0.00227,475900152.01910,   0.00009,274733644.79396,  -0.00002,  -0.00006,   0.00011,   0.00000,   2.00000
-309082115.37897,-421835411.94642,165611495.68604,  -0.00061,  -0.00138,   0.00227,475908056.39238,   0.00009,274738443.63301,  -0.00002,  -0.00007,   0.00012,   0.00000,   2.00000
-309679206.43528,-421691493.74242,165575015.93041,  -0.00061,  -0.00138,   0.00228,475900633.86453,   0.00009,274743190.94802,  -0.00002,  -0.00007,   0.00013,  -0.00000,   2.00000
-310274959.69106,-421554120.46262,165534393.41014,  -0.00061,  -0.00138,   0.00228,475916262.37928,   0.00010,274747981.10276,  -0.00002,  -0.00007,   0.00013,   0.00000,   2.00000
-310869709.60310,-421406305.59105,165498545.62847,  -0.00062,  -0.00139,   0.00229,475897420.49500,   0.00010,274752673.20156,  -0.00003,  -0.00007,   0.00014,   0.00000,   2.00000
-311477039.56511,-421269642.01243,165453285.55177,  -0.00062,  -0.00139,   0.00229,475915333.15241,   0.00011,274757417.64028,  -0.00003,  -0.00008,   0.00014,   0.00000,   2.00000
-312092701.44502,-421126344.35707,165408894.48015,  -0.00063,  -0.00139,   0.00230,475917981.86679,   0.00011,274762151.88890,  -0.00003,  -0.00008,   0.00015,   0.00000,   2.00000
-312705424.71621,-420975647.36349,165368024.00251,  -0.00063,  -0.00139,   0.00230,475913718.68696,   0.00012,274766847.83540,  -0.00003,  -0.00008,   0.00016,   0.00000,   2.00000
-313329115.73444,-420822100.97068,165325369.19266,  -0.00064,  -0.00139,   0.00231,475911827.75240,   0.00012,274771515.30997,  -0.00003,  -0.00009,   0.00016,   0.00000,   2.00000
-313953974.06594,-420678905.07463,165275952.96318,  -0.00064,  -0.00139,   0.00232,475922866.82986,   0.00012,274776207.10853,  -0.00003,  -0.00009,   0.00017,   0.00000,   2.00000
-314586353.16167,-420521972.97528,165231176.42492,  -0.00064,  -0.00139,   0.00232,475915673.46403,   0.00013,274780848.85158,  -0.00003,  -0.00009,   0.00017,   0.00000,   2.00000
-315219850.21429,-420375381.64402,165179634.15765,  -0.00065,  -0.00139,   0.00233,475926711.74625,   0.00013,274785514.99307,  -0.00003,  -0.00010,   0.00018,   0.00000,   2.00000
-315860835.19306,-420214979.88015,165132701.09590,  -0.00065,  -0.00140,   0.00233,475919580.22689,   0.00014,274790131.46088,  -0.00004,  -0.00010,   0.00018,   0.00000,   2.00000
-316513321.81642,-420058563.91127,165080097.96716,  -0.00066,  -0.00140,   0.00234,475927752.76548,   0.00014,274794760.72932,  -0.00004,  -0.00010,   0.00019,   0.00000,   2.00000
-317163445.74171,-419901625.75252,165027152.57351,  -0.00066,  -0.00140,   0.00234,475933477.55626,   0.00015,274799392.78364,  -0.00004,  -0.00011,   0.00020,   0.00000,   2.00000
-317824348.65859,-419741590.52006,164972335.33457,  -0.00067,  -0.00140,   0.00235,475931813.30354,   0.00015,274803997.53776,  -0.00004,  -0.00011,   0.00020,   0.00000,   2.00000
-318482849.55325,-419581012.63164,164917167.57075,  -0.00067,  -0.00140,   0.00235,475937547.95666,   0.00015,274808605.20621,  -0.00004,  -0.00011,   0.00021,   0.00000,   2.00000
-319141065.54509,-419416651.86772,164862835.58000,  -0.00068,  -0.00140,   0.00236,475928817.52281,   0.00016,274813157.00305,  -0.00004,  -0.00011,   0.00021,   0.00000,   2.00000
-319821022.12773,-419249711.47712,164803846.19770,  -0.00068,  -0.00140,   0.00236,475934330.90265,   0.00016,274817711.00263,  -0.00004,  -0.00012,   0.00022,   0.00000,   2.00000
-320498491.20518,-419082179.35070,164744485.63251,  -0.00069,  -0.00140,   0.00237,475940091.13301,   0.00017,274822268.20171,  -0.00004,  -0.00012,   0.00022,   0.00000,   2.00000
-321176229.72827,-418917851.13850,164682137.26565,  -0.00069,  -0.00140,   0.00237,475941291.21011,   0.00017,274826810.06192,  -0.00005,  -0.00012,   0.00023,  -0.00000,   2.00000
-321861275.23921,-418739346.55222,164624245.49106,  -0.00069,  -0.00140,   0.00237,475934471.74924,   0.00017,274831304.13438,  -0.00005,  -0.00013,   0.00023,   0.00000,   2.00000
-322547133.00994,-418571111.39168,164559556.15419,  -0.00070,  -0.00140,   0.00238,475945530.72154,   0.00018,274835823.13198,  -0.00005,  -0.00013,   0.00024,   0.00000,   2.00000
-323243580.10050,-418399494.84252,164492884.55451,  -0.00070,  -0.00141,   0.00238,475944096.38110,   0.00018,274840316.25665,  -0.00005,  -0.00013,   0.00025,  -0.00000,   2.00000
-323947789.70721,-418220668.19962,164426832.28589,  -0.00071,  -0.00141,   0.00239,475947255.21201,   0.00019,274844802.24501,  -0.00005,  -0.00013,   0.00025,   0.00000,   2.00000
-324649389.42781,-418041186.33174,164360382.83594,  -0.00071,  -0.00141,   0.00239,475953056.91771,   0.00019,274849291.84442,  -0.00005,  -0.00014,   0.00026,   0.00000,   2.00000
-325364267.34396,-417861980.95610,164289265.21182,  -0.00072,  -0.00141,   0.00240,475947203.66342,   0.00019,274853737.79688,  -0.00005,  -0.00014,   0.00026,   0.00000,   2.00000
-326076492.57803,-417682084.98289,164217746.09090,  -0.00072,  -0.00141,   0.00240,475953005.25628,   0.00020,274858187.50156,  -0.00005,  -0.00014,   0.00027,  -0.00000,   2.00000
-326796353.96772,-417494850.43023,164146789.91455,  -0.00073,  -0.00141,   0.00241,475956293.99077,   0.00020,274862630.76727,  -0.00006,  -0.00015,   0.00027,   0.00000,   2.00000
-327527075.86279,-417311149.01362,164069977.20729,  -0.00073,  -0.00141,   0.00241,475964929.84701,   0.00021,274867089.21058,  -0.00006,  -0.00015,   0.00028,   0.00000,   2.00000
-328257398.43328,-417123308.19744,163993875.41408,  -0.00074,  -0.00141,   0.00242,475956453.96061,   0.00021,274871493.57797,  -0.00006,  -0.00015,   0.00028,   0.00000,   2.00000
-328984534.15645,-416927562.50330,163921107.52606,  -0.00074,  -0.00141,   0.00242,475952477.66481,   0.00021,274875862.34684,  -0.00006,  -0.00015,   0.00029,   0.00000,   2.00000
-329722448.28901,-416735277.97874,163842444.72450,  -0.00075,  -0.00141,   0.00242,475961150.13976,   0.00022,274880246.75077,  -0.00006,  -0.00016,   0.00029,  -0.00000,   2.00000
-330468231.12345,-416542661.18116,163760517.59537,  -0.00075,  -0.00141,   0.00243,475974423.38561,   0.00022,274884665.26838,  -0.00006,  -0.00016,   0.00030,   0.00000,   2.00000
-331216444.35500,-416349546.95014,163676624.22841,  -0.00076,  -0.00141,   0.00243,475961492.55122,   0.00023,274889011.94231,  -0.00006,  -0.00016,   0.00031,   0.00000,   2.00000
-331969186.60063,-416145092.89465,163595826.57002,  -0.00076,  -0.00141,   0.00244,475969550.26403,   0.00023,274893371.83192,  -0.00006,  -0.00017,   0.00031,   0.00000,   2.00000
-332724761.93611,-415947307.44397,163509290.51574,  -0.00077,  -0.00141,   0.00244,475966416.81685,   0.00023,274897699.70273,  -0.00007,  -0.00017,   0.00032,   0.00000,   2.00000
-333487643.06802,-415741849.52265,163423180.05139,  -0.00077,  -0.00141,   0.00245,475970022.56545,   0.00024,274902022.88036,  -0.00007,  -0.00017,   0.00032,  -0.00000,   2.00000
-334258127.80091,-415535919.93656,163333740.72421,  -0.00078,  -0.00141,   0.00245,475983460.20312,   0.00024,274906380.98825,  -0.00007,  -0.00017,   0.00033,  -0.00000,   2.00000
-335031033.63451,-415329326.64753,163242267.03669,  -0.00078,  -0.00141,   0.00245,475970656.87158,   0.00025,274910668.13464,  -0.00007,  -0.00018,   0.00033,  -0.00000,   2.00000
-335800975.16279,-415121866.48585,163150327.36756,  -0.00079,  -0.00141,   0.00246,475976587.32254,   0.00025,274914960.11187,  -0.00007,  -0.00018,   0.00034,   0.00000,   2.00000
-336578079.97943,-414906596.71694,163058752.23653,  -0.00080,  -0.00141,   0.00246,475980347.40476,   0.00025,274919248.15793,  -0.00007,  -0.00018,   0.00034,   0.00000,   2.00000
-337365483.56896,-414694465.43879,162961152.24651,  -0.00080,  -0.00141,   0.00247,475989404.17933,   0.00026,274923553.56171,  -0.00007,  -0.00018,   0.00035,   0.00000,   2.00000
-338162809.92318,-414478126.45837,162861224.46495,  -0.00081,  -0.00141,   0.00247,475988808.32108,   0.00026,274927837.39784,  -0.00008,  -0.00019,   0.00035,   0.00000,   2.00000
-338949277.34742,-414256958.53752,162764756.37740,  -0.00081,  -0.00141,   0.00247,475972997.47597,   0.00027,274932038.64811,  -0.00008,  -0.00019,   0.00036,   0.00000,   2.00000
-339753368.73035,-414035410.32963,162661968.71413,  -0.00082,  -0.00141,   0.00248,475994252.90647,   0.00027,274936306.60876,  -0.00008,  -0.00019,   0.00036,   0.00000,   2.00000
-340556954.59650,-413809259.66679,162559710.96667,  -0.00082,  -0.00141,   0.00248,475986127.58492,   0.00027,274940522.95289,  -0.00008,  -0.00019,   0.00037,  -0.00000,   2.00000
-341357384.37910,-413582142.81162,162456944.43828,  -0.00083,  -0.00141,   0.00249,475992165.10362,   0.00028,274944744.80236,  -0.00008,  -0.00020,   0.00037,   0.00000,   2.00000
-342177865.39825,-413350853.99914,162348825.76773,  -0.00083,  -0.00141,   0.00249,475999459.46506,   0.00028,274948977.12579,  -0.00008,  -0.00020,   0.00038,   0.00000,   2.00000
-342987792.70431,-413122006.57624,162240456.28521,  -0.00084,  -0.00141,   0.00249,475993367.07224,   0.00029,274953166.19167,  -0.00008,  -0.00020,   0.00038,   0.00000,   2.00000
-343817646.73381,-412888863.69039,162126688.46988,  -0.00085,  -0.00141,   0.00250,476000783.54271,   0.00029,274957366.32999,  -0.00009,  -0.00021,   0.00039,   0.00000,   2.00000
-344634016.25794,-412654477.35789,162015341.55403,  -0.00085,  -0.00141,   0.00250,475999153.93531,   0.00029,274961541.26785,  -0.00009,  -0.00021,   0.00040,  -0.00000,   2.00000
-345470187.23166,-412415686.85602,161898546.60602,  -0.00086,  -0.00141,   0.00250,476006708.42574,   0.00030,274965727.87392,  -0.00009,  -0.00021,   0.00040,   0.00000,   2.00000
-346302825.76100,-412168409.25384,161784866.31492,  -0.00086,  -0.00141,   0.00251,476003244.96147,   0.00030,274969882.00146,  -0.00009,  -0.00021,   0.00041,  -0.00000,   2.00000
-347135077.21867,-411923713.97265,161667958.24260,  -0.00087,  -0.00141,   0.00251,476004934.33055,   0.00030,274974024.42400,  -0.00009,  -0.00022,   0.00041,   0.00000,   2.00000
-347976996.13706,-411681725.46341,161544849.31097,  -0.00087,  -0.00141,   0.00252,476014482.52657,   0.00031,274978186.60074,  -0.00009,  -0.00022,   0.00042,  -0.00000,   2.00000
-348828373.84172,-411434946.35270,161419172.61154,  -0.00088,  -0.00141,   0.00252,476014488.68964,   0.00031,274982330.26000,  -0.00010,  -0.00022,   0.00042,   0.00000,   2.00000
-349676169.38211,-411179571.69019,161296573.67102,  -0.00089,  -0.00141,   0.00252,476011112.33914,   0.00032,274986442.00261,  -0.00010,  -0.00022,   0.00043,  -0.00000,   2.00000
-350533452.41134,-410926790.10628,161167722.04893,  -0.00089,  -0.00141,   0.00253,476020808.04940,   0.00032,274990574.17334,  -0.00010,  -0.00023,   0.00043,   0.00000,   2.00000
-351387128.42472,-410665366.21147,161041928.02784,  -0.00090,  -0.00141,   0.00253,476017483.84982,   0.00032,274994674.70742,  -0.00010,  -0.00023,   0.00044,   0.00000,   2.00000
-352253135.11855,-410402598.13107,160910783.86721,  -0.00090,  -0.00141,   0.00253,476013224.31838,   0.00033,274998739.99348,  -0.00010,  -0.00023,   0.00044,   0.00000,   2.00000
-353125425.24213,-410138680.55605,160776029.21512,  -0.00091,  -0.00141,   0.00254,476027508.96969,   0.00033,275002844.17216,  -0.00010,  -0.00023,   0.00045,   0.00000,   2.00000
-353994075.79673,-409873544.67595,160640681.87539,  -0.00092,  -0.00141,   0.00254,476033861.30819,   0.00033,275006955.42644,  -0.00010,  -0.00023,   0.00045,   0.00000,   2.00000
-354874921.87721,-409606895.25784,160499924.08000,  -0.00092,  -0.00141,   0.00254,476029816.57458,   0.00034,275011032.24471,  -0.00011,  -0.00024,   0.00046,  -0.00000,   2.00000
-355752060.49791,-409331443.14948,160362163.06349,  -0.00093,  -0.00141,   0.00255,476026640.03683,   0.00034,275015078.28651,  -0.00011,  -0.00024,   0.00046,  -0.00000,   2.00000
-356628558.63485,-409058334.79394,160221089.86172,  -0.00093,  -0.00141,   0.00255,476028564.30965,   0.00035,275019114.00770,  -0.00011,  -0.00024,   0.00047,   0.00000,   2.00000
-357520786.95160,-408776373.86855,160076897.12802,  -0.00094,  -0.00141,   0.00255,476041607.27133,   0.00035,275023183.69245,  -0.00011,  -0.00024,   0.00047,   0.00000,   2.00000
-358412260.82966,-408496691.07622,159929369.05046,  -0.00095,  -0.00141,   0.00256,476043657.23289,   0.00035,275027243.42697,  -0.00011,  -0.00025,   0.00048,   0.00000,   2.00000
-359303033.01125,-408211678.69391,159782084.62310,  -0.00095,  -0.00141,   0.00256,476036178.32190,   0.00036,275031255.37943,  -0.00011,  -0.00025,   0.00048,   0.00000,   2.00000
-360202730.67488,-407921254.34249,159631955.51099,  -0.00096,  -0.00141,   0.00256,476036869.24104,   0.00036,275035252.24586,  -0.00012,  -0.00025,   0.00049,   0.00000,   2.00000
-361108131.53969,-407629417.91915,159478106.32335,  -0.00097,  -0.00140,   0.00256,476051554.26986,   0.00036,275039289.68164,  -0.00012,  -0.00025,   0.00049,   0.00000,   2.00000
-362012770.98861,-407332133.27780,159324447.79219,  -0.00097,  -0.00140,   0.00257,476044204.97504,   0.00037,275043279.99853,  -0.00012,  -0.00026,   0.00050,   0.00000,   2.00000
-362916580.44445,-407037031.00835,159167415.63444,  -0.00098,  -0.00140,   0.00257,476046318.31011,   0.00037,275047260.98044,  -0.00012,  -0.00026,   0.00050,   0.00000,   2.00000
-363838489.92151,-406743879.22301,159000822.62751,  -0.00098,  -0.00140,   0.00257,476064990.14621,   0.00038,275051298.30483,  -0.00012,  -0.00026,   0.00051,   0.00000,   2.00000
-364747163.56633,-406434054.98207,158843751.02037,  -0.00099,  -0.00140,   0.00258,476044408.78131,   0.00038,275055236.11686,  -0.00012,  -0.00026,   0.00051,  -0.00000,   2.00000
-365673757.85693,-406126089.33276,158677060.45387,  -0.00100,  -0.00140,   0.00258,476063212.94701,   0.00038,275059230.95412,  -0.00013,  -0.00027,   0.00052,  -0.00000,   2.00000
-366599351.70112,-405820187.77089,158506959.39361,  -0.00100,  -0.00140,   0.00258,476065505.66149,   0.00039,275063217.11396,  -0.00013,  -0.00027,   0.00052,  -0.00000,   2.00000
-367520999.45702,-405505103.45189,158339705.86150,  -0.00101,  -0.00140,   0.00258,476062739.17502,   0.00039,275067174.63825,  -0.00013,  -0.00027,   0.00052,   0.00000,   2.00000
-368451136.02046,-405184158.47800,158169413.62269,  -0.00102,  -0.00140,   0.00259,476063992.19381,   0.00039,275071119.56507,  -0.00013,  -0.00027,   0.00053,  -0.00000,   2.00000
-369389485.63046,-404865038.51752,157992549.92108,  -0.00102,  -0.00140,   0.00259,476074746.36400,   0.00040,275075089.50910,  -0.00013,  -0.00027,   0.00053,   0.00000,   2.00000
-370326938.76743,-404540122.16091,157815739.31867,  -0.00103,  -0.00140,   0.00259,476067746.44752,   0.00040,275079014.16129,  -0.00013,  -0.00028,   0.00054,   0.00000,   2.00000
-371260158.79438,-404213688.72311,157638229.41966,  -0.00104,  -0.00139,   0.00259,476074482.57173,   0.00040,275082948.04241,  -0.00014,  -0.00028,   0.00054,   0.00000,   2.00000
-372210811.24616,-403880960.88367,157454446.16961,  -0.00104,  -0.00139,   0.00260,476084486.27644,   0.00041,275086903.97778,  -0.00014,  -0.00028,   0.00055,   0.00000,   2.00000
-373151391.71154,-403542556.65406,157273817.82234,  -0.00105,  -0.00139,   0.00260,476069111.47412,   0.00041,275090781.69768,  -0.00014,  -0.00028,   0.00055,  -0.00000,   2.00000
-374108973.33786,-403205551.74560,157083381.63744,  -0.00106,  -0.00139,   0.00260,476088629.97780,   0.00042,275094719.23256,  -0.00014,  -0.00029,   0.00056,  -0.00000,   2.00000
-375062113.52946,-402866939.89329,156892222.73862,  -0.00106,  -0.00139,   0.00260,476095543.41581,   0.00042,275098666.57805,  -0.00014,  -0.00029,   0.00056,  -0.00000,   2.00000
-376014562.78102,-402514447.75329,156704476.53014,  -0.00107,  -0.00139,   0.00261,476079450.41958,   0.00042,275102533.02029,  -0.00014,  -0.00029,   0.00057,   0.00000,   2.00000
-376974419.50017,-402171379.70755,156506594.15358,  -0.00108,  -0.00139,   0.00261,476099941.52849,   0.00043,275106463.06822,  -0.00015,  -0.00029,   0.00057,  -0.00000,   2.00000
-377942491.57315,-401814001.39214,156308890.58226,  -0.00108,  -0.00139,   0.00261,476092601.99946,   0.00043,275110346.80517,  -0.00015,  -0.00029,   0.00058,  -0.00000,   2.00000
-378905989.21514,-401454953.32567,156110430.92759,  -0.00109,  -0.00138,   0.00261,476099602.85027,   0.00043,275114240.92615,  -0.00015,  -0.00030,   0.00058,   0.00000,   2.00000
-379868115.94471,-401097669.28058,155908441.13894,  -0.00110,  -0.00138,   0.00261,476102288.60833,   0.00044,275118128.39481,  -0.00015,  -0.00030,   0.00059,  -0.00000,   2.00000
-380838374.83384,-400725888.14718,155706537.81105,  -0.00110,  -0.00138,   0.00262,476095141.30114,   0.00044,275121970.58537,  -0.00015,  -0.00030,   0.00059,   0.00000,   2.00000
-381812389.97714,-400360018.83375,155497251.02028,  -0.00111,  -0.00138,   0.00262,476120194.58772,   0.00044,275125894.26698,  -0.00015,  -0.00030,   0.00060,   0.00000,   2.00000
-382788871.18214,-399983257.61767,155288405.10713,  -0.00112,  -0.00138,   0.00262,476100225.37152,   0.00045,275129722.16255,  -0.00016,  -0.00030,   0.00060,   0.00000,   2.00000
-383768929.21055,-399612379.89895,155072174.63204,  -0.00113,  -0.00138,   0.00262,476125358.16609,   0.00045,275133631.83229,  -0.00016,  -0.00031,   0.00061,   0.00000,   2.00000
-384748225.37576,-399227098.69965,154859133.18341,  -0.00113,  -0.00138,   0.00262,476109795.06239,   0.00045,275137463.17281,  -0.00016,  -0.00031,   0.00061,   0.00000,   2.00000
-385731336.06235,-398839655.67570,154642072.81540,  -0.00114,  -0.00137,   0.00263,476125797.03581,   0.00046,275141340.39826,  -0.00016,  -0.00031,   0.00062,   0.00000,   2.00000
-386721383.79034,-398453383.76030,154418178.88885,  -0.00115,  -0.00137,   0.00263,476137636.48375,   0.00046,275145246.93094,  -0.00016,  -0.00031,   0.00062,   0.00000,   2.00000
-387713854.73050,-398055867.76849,154194570.27426,  -0.00115,  -0.00137,   0.00263,476118025.60862,   0.00046,275149059.38083,  -0.00017,  -0.00032,   0.00062,  -0.00000,   2.00000
-388700936.09902,-397664620.78516,153966813.39595,  -0.00116,  -0.00137,   0.00263,476134474.26608,   0.00047,275152919.46669,  -0.00017,  -0.00032,   0.00063,   0.00000,   2.00000
-389692442.51276,-397254898.04427,153741686.98349,  -0.00117,  -0.00137,   0.00263,476132371.09020,   0.00047,275156754.34774,  -0.00017,  -0.00032,   0.00063,   0.00000,   2.00000
-390693851.62958,-396849521.49148,153506827.52396,  -0.00118,  -0.00137,   0.00263,476140203.09169,   0.00048,275160602.98568,  -0.00017,  -0.00032,   0.00064,   0.00000,   2.00000
-391690166.63123,-396442277.09817,153271157.76588,  -0.00118,  -0.00136,   0.00264,476147612.48668,   0.00048,275164463.67423,  -0.00017,  -0.00032,   0.00064,   0.00000,   2.00000
-392685160.12505,-396028323.42351,153035154.88219,  -0.00119,  -0.00136,   0.00264,476141656.08222,   0.00048,275168284.11406,  -0.00018,  -0.00033,   0.00065,   0.00000,   2.00000
-393683844.73063,-395603823.19883,152798363.68506,  -0.00120,  -0.00136,   0.00264,476148990.44978,   0.00049,275172116.45767,  -0.00018,  -0.00033,   0.00065,  -0.00000,   2.00000
-394692148.66473,-395183498.88329,152551773.41560,  -0.00121,  -0.00136,   0.00264,476157105.69770,   0.00049,275175963.65227,  -0.00018,  -0.00033,   0.00066,  -0.00000,   2.00000
-395695734.27085,-394753034.12293,152307638.74877,  -0.00121,  -0.00136,   0.00264,476155551.66041,   0.00049,275179787.91208,  -0.00018,  -0.00033,   0.00066,   0.00000,   2.00000
-396706047.60568,-394315142.71606,152059794.92722,  -0.00122,  -0.00135,   0.00264,476158937.30226,   0.00050,275183608.62310,  -0.00018,  -0.00033,   0.00067,   0.00000,   2.00000
-397714324.00660,-393878565.68763,151808244.34331,  -0.00123,  -0.00135,   0.00264,476162335.97711,   0.00050,275187425.85092,  -0.00019,  -0.00034,   0.00067,   0.00000,   2.00000
-398725325.18465,-393439485.52344,151552561.72036,  -0.00123,  -0.00135,   0.00265,476179121.41264,   0.00050,275191291.79600,  -0.00019,  -0.00034,   0.00068,  -0.00000,   2.00000
-399738679.78804,-392988328.04416,151296783.06775,  -0.00124,  -0.00135,   0.00265,476160354.52335,   0.00051,275195067.70704,  -0.00019,  -0.00034,   0.00068,   0.00000,   2.00000
-400753995.15964,-392542923.42858,151033610.69913,  -0.00125,  -0.00135,   0.00265,476186275.00659,   0.00051,275198928.04706,  -0.00019,  -0.00034,   0.00068,   0.00000,   2.00000
-401768329.02731,-392082073.99024,150773160.05842,  -0.00126,  -0.00134,   0.00265,476171828.46722,   0.00051,275202715.29871,  -0.00019,  -0.00034,   0.00069,   0.00000,   2.00000
-402785045.97984,-391618622.05138,150508530.88164,  -0.00127,  -0.00134,   0.00265,476188851.40416,   0.00052,275206552.26683,  -0.00020,  -0.00035,   0.00069,   0.00000,   2.00000
-403810661.46720,-391158942.02879,150233943.78636,  -0.00127,  -0.00134,   0.00265,476197678.17228,   0.00052,275210406.78948,  -0.00020,  -0.00035,   0.00070,   0.00000,   2.00000
-404831873.72547,-390680410.24163,149964878.84361,  -0.00128,  -0.00134,   0.00265,476187631.17607,   0.00052,275214205.47415,  -0.00020,  -0.00035,   0.00070,  -0.00000,   2.00000
-405850103.61420,-390211439.86440,149688856.71972,  -0.00129,  -0.00133,   0.00265,476200313.54813,   0.00053,275218036.88671,  -0.00020,  -0.00035,   0.00071,  -0.00000,   2.00000
-406871676.59112,-389722902.02943,149414987.06006,  -0.00130,  -0.00133,   0.00265,476199719.58316,   0.00053,275221849.34839,  -0.00020,  -0.00035,   0.00071,   0.00000,   2.00000
-407894169.85988,-389238622.09058,149134412.16798,  -0.00130,  -0.00133,   0.00266,476199417.18372,   0.00054,275225644.06361,  -0.00021,  -0.00035,   0.00072,   0.00000,   2.00000
-408918515.36340,-388751605.91090,148849626.82392,  -0.00131,  -0.00133,   0.00266,476216819.04200,   0.00054,275229489.81303,  -0.00021,  -0.00036,   0.00072,   0.00000,   2.00000
-409941048.08451,-388257145.10887,148564190.82553,  -0.00132,  -0.00133,   0.00266,476211842.08450,   0.00054,275233299.57761,  -0.00021,  -0.00036,   0.00073,   0.00000,   2.00000
-410969296.42164,-387754508.01827,148274730.86583,  -0.00133,  -0.00132,   0.00266,476216397.45905,   0.00055,275237110.48823,  -0.00021,  -0.00036,   0.00073,  -0.00000,   2.00000
-412002433.59745,-387252172.01638,147978100.66308,  -0.00134,  -0.00132,   0.00266,476229946.94510,   0.00055,275240957.37062,  -0.00022,  -0.00036,   0.00073,  -0.00000,   2.00000
-413030258.68074,-386739130.33279,147683692.65734,  -0.00134,  -0.00132,   0.00266,476229280.82553,   0.00055,275244785.03593,  -0.00022,  -0.00036,   0.00074,  -0.00000,   2.00000
-414056139.24475,-386218463.72584,147388543.85859,  -0.00135,  -0.00132,   0.00266,476224548.07582,   0.00056,275248577.85787,  -0.00022,  -0.00037,   0.00074,  -0.00000,   2.00000
-415086687.61883,-385698025.64929,147086189.49035,  -0.00136,  -0.00131,   0.00266,476238274.99931,   0.00056,275252407.41801,  -0.00022,  -0.00037,   0.00075,  -0.00000,   2.00000
-416115218.81426,-385169866.95156,146783059.75663,  -0.00137,  -0.00131,   0.00266,476233669.57806,   0.00056,275256202.65670,  -0.00022,  -0.00037,   0.00075,   0.00000,   2.00000
-417144868.94212,-384638816.83712,146475667.69575,  -0.00137,  -0.00131,   0.00266,476251597.84071,   0.00057,275260050.86034,  -0.00023,  -0.00037,   0.00076,   0.00000,   2.00000
-418179635.46610,-384099220.67127,146164097.82275,  -0.00138,  -0.00130,   0.00266,476256831.87671,   0.00057,275263902.72430,  -0.00023,  -0.00037,   0.00076,   0.00000,   2.00000
-419204322.80796,-383561240.99569,145852029.58750,  -0.00139,  -0.00130,   0.00266,476251481.81839,   0.00057,275267717.36826,  -0.00023,  -0.00037,   0.00077,   0.00000,   2.00000
-420241145.59111,-383013859.71937,145532373.20394,  -0.00140,  -0.00130,   0.00266,476266574.92290,   0.00058,275271573.89247,  -0.00023,  -0.00038,   0.00077,   0.00000,   2.00000
-421275723.40925,-382458521.92776,145211842.81522,  -0.00141,  -0.00130,   0.00266,476262344.38144,   0.00058,275275397.54482,  -0.00024,  -0.00038,   0.00077,   0.00000,   2.00000
-422303891.31844,-381900977.59454,144890406.09201,  -0.00142,  -0.00129,   0.00266,476270843.45110,   0.00058,275279237.61342,  -0.00024,  -0.00038,   0.00078,   0.00000,   2.00000
-423336793.77792,-381334639.00482,144564685.19990,  -0.00142,  -0.00129,   0.00266,476276502.39964,   0.00059,275283083.07700,  -0.00024,  -0.00038,   0.00078,   0.00000,   2.00000
-424366579.08289,-380769064.40310,144235059.40896,  -0.00143,  -0.00129,   0.00266,476281098.76627,   0.00059,275286929.81789,  -0.00024,  -0.00038,   0.00079,  -0.00000,   2.00000
-425400919.99675,-380194585.25688,143901110.78139,  -0.00144,  -0.00129,   0.00266,476286950.89374,   0.00060,275290782.67838,  -0.00025,  -0.00039,   0.00079,  -0.00000,   2.00000
-426429473.82938,-379608995.76601,143569209.35916,  -0.00145,  -0.00128,   0.00266,476286988.26190,   0.00060,275294619.28316,  -0.00025,  -0.00039,   0.00080,   0.00000,   2.00000
-427461583.08892,-379023308.96621,143229990.14350,  -0.00146,  -0.00128,   0.00266,476301652.97489,   0.00060,275298496.00836,  -0.00025,  -0.00039,   0.00080,  -0.00000,   2.00000
-428491217.40871,-378429386.35653,142889771.74366,  -0.00146,  -0.00128,   0.00266,476297861.89625,   0.00061,275302341.67139,  -0.00025,  -0.00039,   0.00081,   0.00000,   2.00000
-429517536.41019,-377836141.33394,142545616.82171,  -0.00147,  -0.00127,   0.00266,476302679.68188,   0.00061,275306189.53971,  -0.00026,  -0.00039,   0.00081,   0.00000,   2.00000
-430544610.50955,-377230855.41802,142200076.60788,  -0.00148,  -0.00127,   0.00266,476312909.76007,   0.00061,275310060.44682,  -0.00026,  -0.00039,   0.00081,   0.00000,   2.00000
-431579096.38044,-376619256.62568,141847035.60812,  -0.00149,  -0.00127,   0.00266,476315433.30801,   0.00062,275313924.65642,  -0.00026,  -0.00040,   0.00082,   0.00000,   2.00000
-432606666.21686,-376005378.73144,141493083.97389,  -0.00150,  -0.00126,   0.00266,476324378.28025,   0.00062,275317806.89866,  -0.00026,  -0.00040,   0.00082,   0.00000,   2.00000
-433628188.61024,-375380200.40810,141141099.27912,  -0.00151,  -0.00126,   0.00266,476324808.44786,   0.00062,275321674.43728,  -0.00027,  -0.00040,   0.00083,   0.00000,   2.00000
-434656029.50070,-374757626.09521,140778686.93315,  -0.00152,  -0.00126,   0.00266,476336111.56266,   0.00063,275325569.05561,  -0.00027,  -0.00040,   0.00083,   0.00000,   2.00000
-435684105.15745,-374122816.89805,140414820.81602,  -0.00152,  -0.00125,   0.00266,476346847.74122,   0.00063,275329488.48746,  -0.00027,  -0.00040,   0.00084,  -0.00000,   2.00000
-436709348.98394,-373479427.15825,140049801.69665,  -0.00153,  -0.00125,   0.00266,476343649.42065,   0.00063,275333379.19093,  -0.00027,  -0.00040,   0.00084,   0.00000,   2.00000
-437730873.03989,-372836575.89089,139680795.84396,  -0.00154,  -0.00125,   0.00266,476348920.19651,   0.00064,275337273.78693,  -0.00028,  -0.00041,   0.00085,  -0.00000,   2.00000
-438749554.06968,-372185071.73407,139310606.04414,  -0.00155,  -0.00124,   0.00266,476345783.56444,   0.00064,275341140.05888,  -0.00028,  -0.00041,   0.00085,   0.00000,   2.00000
-439773461.05575,-371529546.13117,138932719.42720,  -0.00156,  -0.00124,   0.00266,476375488.36611,   0.00065,275345103.99616,  -0.00028,  -0.00041,   0.00085,   0.00000,   2.00000
-440791616.94014,-370868927.81400,138553914.64778,  -0.00157,  -0.00124,   0.00266,476358456.37686,   0.00065,275348986.12629,  -0.00028,  -0.00041,   0.00086,   0.00000,   2.00000
-441806096.37472,-370193129.89119,138176686.60721,  -0.00158,  -0.00123,   0.00266,476373491.56000,   0.00065,275352909.69529,  -0.00029,  -0.00041,   0.00086,   0.00000,   2.00000
-442826084.44512,-369519669.24583,137788931.07315,  -0.00158,  -0.00123,   0.00266,476385566.05268,   0.00066,275356863.15209,  -0.00029,  -0.00041,   0.00087,   0.00000,   2.00000
-443842933.53675,-368837329.07605,137399900.19160,  -0.00159,  -0.00123,   0.00266,476382873.36052,   0.00066,275360789.87804,  -0.00029,  -0.00041,   0.00087,  -0.00000,   2.00000
-444852328.21133,-368152710.70064,137009988.46071,  -0.00160,  -0.00122,   0.00266,476392306.98808,   0.00066,275364736.42119,  -0.00030,  -0.00042,   0.00088,   0.00000,   2.00000
-445864467.60106,-367458268.31243,136615372.96735,  -0.00161,  -0.00122,   0.00266,476400125.67219,   0.00067,275368696.53632,  -0.00030,  -0.00042,   0.00088,   0.00000,   2.00000
-446869960.78814,-366752156.86472,136222571.94977,  -0.00162,  -0.00122,   0.00266,476401396.58915,   0.00067,275372645.18317,  -0.00030,  -0.00042,   0.00089,  -0.00000,   2.00000
-447874694.94092,-366049140.25573,135822591.90641,  -0.00163,  -0.00121,   0.00266,476403422.37417,   0.00067,275376585.28948,  -0.00030,  -0.00042,   0.00089,  -0.00000,   2.00000
-448878496.96945,-365333505.45953,135421011.60320,  -0.00164,  -0.00121,   0.00265,476415273.13376,   0.00068,275380554.48298,  -0.00031,  -0.00042,   0.00089,  -0.00000,   2.00000
-449883713.38695,-364617360.97955,135012007.43684,  -0.00165,  -0.00121,   0.00265,476431736.05450,   0.00068,275384570.25030,  -0.00031,  -0.00042,   0.00090,   0.00000,   2.00000
-450885473.49153,-363892072.48434,134601613.38210,  -0.00165,  -0.00120,   0.00265,476429571.66283,   0.00069,275388561.28004,  -0.00031,  -0.00043,   0.00090,   0.00000,   2.00000
-451879454.14667,-363164539.29141,134190373.16191,  -0.00166,  -0.00120,   0.00265,476439317.78822,   0.00069,275392573.19210,  -0.00032,  -0.00043,   0.00091,   0.00000,   2.00000
-452869970.86222,-362427817.80845,133777715.66064,  -0.00167,  -0.00119,   0.00265,476437223.91384,   0.00069,275396560.73820,  -0.00032,  -0.00043,   0.00091,   0.00000,   2.00000
-453862483.97204,-361680954.59867,133360221.83983,  -0.00168,  -0.00119,   0.00265,476445838.43705,   0.00070,275400564.91831,  -0.00032,  -0.00043,   0.00092,  -0.00000,   2.00000
-454855920.31489,-360933527.54001,132935300.45943,  -0.00169,  -0.00119,   0.00265,476462713.58451,   0.00070,275404617.17466,  -0.00032,  -0.00043,   0.00092,   0.00000,   2.00000
-455842275.40800,-360174212.26440,132512116.93326,  -0.00170,  -0.00118,   0.00265,476464597.09957,   0.00070,275408660.17558,  -0.00033,  -0.00043,   0.00092,   0.00000,   2.00000
-456828306.53898,-359408072.89877,132084215.56872,  -0.00171,  -0.00118,   0.00265,476459207.30934,   0.00071,275412666.24745,  -0.00033,  -0.00043,   0.00093,  -0.00000,   2.00000
-457806298.36836,-358639711.06777,131655487.95036,  -0.00172,  -0.00117,   0.00264,476469193.48548,   0.00071,275416694.20733,  -0.00033,  -0.00044,   0.00093,   0.00000,   2.00000
-458782409.93881,-357858513.93285,131225086.13918,  -0.00173,  -0.00117,   0.00264,476481962.43453,   0.00071,275420754.61738,  -0.00034,  -0.00044,   0.00094,   0.00000,   2.00000
-459762342.07612,-357079233.41795,130784024.58045,  -0.00174,  -0.00117,   0.00264,476495635.40150,   0.00072,275424850.76305,  -0.00034,  -0.00044,   0.00094,   0.00000,   2.00000
-460734950.27382,-356287949.09773,130344657.74588,  -0.00174,  -0.00116,   0.00264,476497859.02790,   0.00072,275428938.93205,  -0.00034,  -0.00044,   0.00095,   0.00000,   2.00000
-461702698.27859,-355496967.39276,129901251.26012,  -0.00175,  -0.00116,   0.00264,476504462.34150,   0.00073,275433035.85775,  -0.00035,  -0.00044,   0.00095,   0.00000,   2.00000
-462663111.89075,-354693969.90212,129459528.31885,  -0.00176,  -0.00115,   0.00264,476506741.62125,   0.00073,275437125.09981,  -0.00035,  -0.00044,   0.00096,   0.00000,   2.00000
-463624530.28591,-353880493.76463,129012837.30646,  -0.00177,  -0.00115,   0.00264,476516413.93722,   0.00073,275441234.87614,  -0.00035,  -0.00044,   0.00096,   0.00000,   2.00000
-464584314.04275,-353069723.03120,128558822.73196,  -0.00178,  -0.00115,   0.00263,476519625.02500,   0.00074,275445340.49548,  -0.00036,  -0.00045,   0.00096,  -0.00000,   2.00000
-465538143.51319,-352243575.18471,128106391.45942,  -0.00179,  -0.00114,   0.00263,476536627.33547,   0.00074,275449494.54904,  -0.00036,  -0.00045,   0.00097,   0.00000,   2.00000
-466490230.99897,-351420111.06078,127646630.96645,  -0.00180,  -0.00114,   0.00263,476539994.61975,   0.00074,275453644.93321,  -0.00036,  -0.00045,   0.00097,   0.00000,   2.00000
-467434729.07972,-350584525.55515,127188516.62548,  -0.00181,  -0.00113,   0.00263,476542630.09210,   0.00075,275457788.94694,  -0.00037,  -0.00045,   0.00098,   0.00000,   2.00000
-468379707.11038,-349738300.44202,126725379.00301,  -0.00182,  -0.00113,   0.00263,476552853.90612,   0.00075,275461955.52634,  -0.00037,  -0.00045,   0.00098,   0.00000,   2.00000
-469319436.58048,-348892345.66392,126258200.96958,  -0.00183,  -0.00112,   0.00263,476559926.88332,   0.00076,275466132.60787,  -0.00037,  -0.00045,   0.00099,   0.00000,   2.00000
-470251440.78426,-348034219.93852,125792643.71826,  -0.00184,  -0.00112,   0.00262,476562762.68961,   0.00076,275470304.09949,  -0.00038,  -0.00045,   0.00099,   0.00000,   2.00000
-471182773.85923,-347175537.91782,125319724.24692,  -0.00185,  -0.00112,   0.00262,476581009.92408,   0.00076,275474528.64900,  -0.00038,  -0.00045,   0.00099,  -0.00000,   2.00000
-472109601.17642,-346306954.48304,124845081.74290,  -0.00186,  -0.00111,   0.00262,476580551.33379,   0.00077,275478734.94704,  -0.00038,  -0.00046,   0.00100,   0.00000,   2.00000
-473028564.22371,-345426153.50061,124372036.23666,  -0.00186,  -0.00111,   0.00262,476583591.80762,   0.00077,275482936.44570,  -0.00039,  -0.00046,   0.00100,   0.00000,   2.00000
-473946573.74282,-344544819.02484,123891644.99399,  -0.00187,  -0.00110,   0.00262,476602087.53282,   0.00078,275487191.94075,  -0.00039,  -0.00046,   0.00101,   0.00000,   2.00000
-474859921.56477,-343653491.16738,123409484.90317,  -0.00188,  -0.00110,   0.00262,476601875.60171,   0.00078,275491430.13415,  -0.00039,  -0.00046,   0.00101,   0.00000,   2.00000
-475767745.20424,-342762448.53775,122923303.53690,  -0.00189,  -0.00109,   0.00261,476609311.21758,   0.00078,275495680.19080,  -0.00040,  -0.00046,   0.00102,  -0.00000,   2.00000
-476671855.83631,-341858331.61675,122435410.25109,  -0.00190,  -0.00109,   0.00261,476623873.61086,   0.00079,275499969.21915,  -0.00040,  -0.00046,   0.00102,  -0.00000,   2.00000
-477571144.58175,-340944132.35562,121945703.86619,  -0.00191,  -0.00108,   0.00261,476623913.24676,   0.00079,275504241.90706,  -0.00040,  -0.00046,   0.00102,  -0.00000,   2.00000
-478464771.77768,-340030228.11624,121451980.91493,  -0.00192,  -0.00108,   0.00261,476631527.29477,   0.00080,275508527.13320,  -0.00041,  -0.00046,   0.00103,  -0.00000,   2.00000
-479353614.25203,-339113692.18404,120954385.48029,  -0.00193,  -0.00107,   0.00260,476653859.94608,   0.00080,275512880.82780,  -0.00041,  -0.00047,   0.00103,   0.00000,   2.00000
-480238280.84000,-338176522.20830,120457106.68015,  -0.00194,  -0.00107,   0.00260,476646674.83598,   0.00080,275517190.60467,  -0.00041,  -0.00047,   0.00104,   0.00000,   2.00000
-481116384.46369,-337250182.65377,119953691.29847,  -0.00195,  -0.00106,   0.00260,476661901.46756,   0.00081,275521541.81457,  -0.00042,  -0.00047,   0.00104,   0.00000,   2.00000
-481994241.22992,-336302326.12029,119447277.81245,  -0.00196,  -0.00106,   0.00260,476666311.87673,   0.00081,275525893.26022,  -0.00042,  -0.00047,   0.00105,   0.00000,   2.00000
-482858960.14609,-335353424.42225,118943555.66539,  -0.00197,  -0.00105,   0.00260,476666094.13613,   0.00082,275530227.39897,  -0.00043,  -0.00047,   0.00105,  -0.00000,   2.00000
-483721778.88570,-334404145.71937,118432610.57223,  -0.00198,  -0.00105,   0.00259,476685437.08481,   0.00082,275534618.66554,  -0.00043,  -0.00047,   0.00105,   0.00000,   2.00000
-484580055.06055,-333441798.16919,117919990.27299,  -0.00199,  -0.00104,   0.00259,476700845.85605,   0.00082,275539051.95096,  -0.00043,  -0.00047,   0.00106,   0.00000,   2.00000
-485429221.56108,-332469848.74225,117408690.92255,  -0.00200,  -0.00104,   0.00259,476690115.21413,   0.00083,275543427.78873,  -0.00044,  -0.00047,   0.00106,   0.00000,   2.00000
-486276905.73601,-331486856.48758,116892230.02225,  -0.00201,  -0.00103,   0.00259,476702444.09366,   0.00083,275547834.11345,  -0.00044,  -0.00047,   0.00107,   0.00000,   2.00000
-487121558.00597,-330514303.53652,116366576.95748,  -0.00202,  -0.00103,   0.00258,476729452.55761,   0.00084,275552326.59806,  -0.00044,  -0.00048,   0.00107,   0.00000,   2.00000
-487954547.15750,-329519244.98196,115847688.30027,  -0.00203,  -0.00102,   0.00258,476714890.13747,   0.00084,275556746.97543,  -0.00045,  -0.00048,   0.00107,  -0.00000,   2.00000
-488781889.50240,-328521955.60225,115325138.94152,  -0.00204,  -0.00102,   0.00258,476737939.16332,   0.00084,275561238.57145,  -0.00045,  -0.00048,   0.00108,   0.00000,   2.00000
-489606916.45411,-327516211.45406,114797127.72077,  -0.00205,  -0.00101,   0.00258,476735938.98456,   0.00085,275565705.89666,  -0.00046,  -0.00048,   0.00108,   0.00000,   2.00000
-490422549.06607,-326508931.58561,114268688.09187,  -0.00206,  -0.00101,   0.00257,476747498.34003,   0.00085,275570200.65528,  -0.00046,  -0.00048,   0.00109,  -0.00000,   2.00000
-491232608.81465,-325491176.31581,113738263.43512,  -0.00206,  -0.00100,   0.00257,476748795.49406,   0.00086,275574683.76927,  -0.00046,  -0.00048,   0.00109,   0.00000,   2.00000
-492036737.26283,-324471359.47724,113204280.96721,  -0.00207,  -0.00100,   0.00257,476772091.64015,   0.00086,275579239.00519,  -0.00047,  -0.00048,   0.00110,  -0.00000,   2.00000
-492835173.05828,-323441040.42385,112668306.03582,  -0.00208,  -0.00099,   0.00256,476773588.04953,   0.00086,275583783.21527,  -0.00047,  -0.00048,   0.00110,   0.00000,   2.00000
-493627284.70890,-322411208.22781,112128435.80645,  -0.00209,  -0.00099,   0.00256,476782189.52433,   0.00087,275588343.49886,  -0.00048,  -0.00048,   0.00110,   0.00000,   2.00000
-494416952.91090,-321370263.56218,111583421.16249,  -0.00210,  -0.00098,   0.00256,476795593.23792,   0.00087,275592938.12684,  -0.00048,  -0.00048,   0.00111,  -0.00000,   2.00000
-495194311.08729,-320317414.29432,111043057.43857,  -0.00211,  -0.00098,   0.00256,476788656.27352,   0.00088,275597489.63655,  -0.00049,  -0.00048,   0.00111,   0.00000,   2.00000
-495965415.37276,-319262744.38840,110499257.43718,  -0.00212,  -0.00097,   0.00255,476812243.72320,   0.00088,275602114.42881,  -0.00049,  -0.00049,   0.00112,   0.00000,   2.00000
-496730599.80428,-318197480.86106,109953416.26196,  -0.00213,  -0.00097,   0.00255,476814136.14519,   0.00089,275606729.69056,  -0.00049,  -0.00049,   0.00112,   0.00000,   2.00000
-497492466.47865,-317132304.51317,109400625.00476,  -0.00214,  -0.00096,   0.00255,476834859.73867,   0.00089,275611407.19165,  -0.00050,  -0.00049,   0.00112,   0.00000,   2.00000
-498245147.27997,-316056949.48160,108848867.40984,  -0.00215,  -0.00095,   0.00254,476825086.59469,   0.00089,275616030.60615,  -0.00050,  -0.00049,   0.00113,   0.00000,   2.00000
-498991761.26630,-314968700.49242,108295550.71990,  -0.00216,  -0.00095,   0.00254,476842098.98855,   0.00090,275620702.25783,  -0.00051,  -0.00049,   0.00113,   0.00000,   2.00000
-499731770.62532,-313881069.45245,107738398.44233,  -0.00217,  -0.00094,   0.00254,476851160.00586,   0.00090,275625391.69650,  -0.00051,  -0.00049,   0.00114,  -0.00000,   2.00000
-500462131.61338,-312792349.90891,107181044.10464,  -0.00218,  -0.00094,   0.00253,476863204.27224,   0.00091,275630110.27357,  -0.00052,  -0.00049,   0.00114,   0.00000,   2.00000
-501186321.93262,-311692937.41558,106621610.20234,  -0.00219,  -0.00093,   0.00253,476865555.07649,   0.00091,275634820.98962,  -0.00052,  -0.00049,   0.00115,   0.00000,   2.00000
-501907176.24680,-310582424.84664,106057047.86036,  -0.00220,  -0.00093,   0.00253,476879985.25394,   0.00092,275639569.99766,  -0.00052,  -0.00049,   0.00115,  -0.00000,   2.00000
-502615422.16895,-309471277.94438,105495348.10171,  -0.00221,  -0.00092,   0.00253,476880176.59139,   0.00092,275644302.89316,  -0.00053,  -0.00049,   0.00115,  -0.00000,   2.00000
-503320200.15223,-308349048.41976,104928527.31078,  -0.00222,  -0.00092,   0.00252,476894769.85897,   0.00093,275649074.74534,  -0.00053,  -0.00049,   0.00116,   0.00000,   2.00000
-504015246.20370,-307225916.44818,104361589.30540,  -0.00223,  -0.00091,   0.00252,476907004.70010,   0.00093,275653876.46004,  -0.00054,  -0.00049,   0.00116,   0.00000,   2.00000
-504703881.28152,-306092020.30792,103792533.63587,  -0.00224,  -0.00090,   0.00252,476909774.12183,   0.00093,275658671.85805,  -0.00054,  -0.00050,   0.00117,   0.00000,   2.00000
-505388737.80584,-304947059.35138,103218371.31696,  -0.00225,  -0.00090,   0.00251,476924727.04782,   0.00094,275663507.55215,  -0.00055,  -0.00050,   0.00117,  -0.00000,   2.00000
-506061105.43959,-303801551.39629,102647100.24940,  -0.00226,  -0.00089,   0.00251,476925012.44517,   0.00094,275668327.41365,  -0.00055,  -0.00050,   0.00117,   0.00000,   2.00000
-506729338.26233,-302656659.21046,102069157.28003,  -0.00227,  -0.00089,   0.00250,476946623.92094,   0.00095,275673213.01644,  -0.00056,  -0.00050,   0.00118,  -0.00000,   2.00000
-507388226.82606,-301487697.62521,101494333.47289,  -0.00228,  -0.00088,   0.00250,476946090.16415,   0.00095,275678079.60262,  -0.00056,  -0.00050,   0.00118,   0.00000,   2.00000
-508040043.12481,-300331345.27971,100914245.76956,  -0.00229,  -0.00087,   0.00250,476962190.85669,   0.00096,275682990.83093,  -0.00057,  -0.00050,   0.00119,  -0.00000,   2.00000
-508685185.93561,-299164153.53555,100332015.00973,  -0.00230,  -0.00087,   0.00249,476965443.32320,   0.00096,275687897.46243,  -0.00057,  -0.00050,   0.00119,   0.00000,   2.00000
-509320690.96856,-297984582.66994,99751333.74569,  -0.00231,  -0.00086,   0.00249,476971546.69492,   0.00097,275692810.50523,  -0.00058,  -0.00050,   0.00119,  -0.00000,   2.00000
-509949300.99690,-296805968.22427,99166975.81225,  -0.00232,  -0.00086,   0.00249,476981307.06112,   0.00097,275697743.95969,  -0.00058,  -0.00050,   0.00120,   0.00000,   2.00000
-510568243.82567,-295614991.06684,98584170.56172,  -0.00233,  -0.00085,   0.00248,476987508.71021,   0.00097,275702684.21060,  -0.00058,  -0.00050,   0.00120,  -0.00000,   2.00000
-511182713.49619,-294413069.18068,97996318.35844,  -0.00234,  -0.00084,   0.00248,477003325.32685,   0.00098,275707668.13729,  -0.00059,  -0.00050,   0.00121,   0.00000,   2.00000
-511787298.84425,-293222672.56493,97407126.04723,  -0.00235,  -0.00084,   0.00248,477022234.52168,   0.00098,275712707.44732,  -0.00059,  -0.00050,   0.00121,   0.00000,   2.00000
-512382692.60883,-292009437.09511,96820023.57118,  -0.00236,  -0.00083,   0.00247,477007452.59100,   0.00099,275717672.87402,  -0.00060,  -0.00050,   0.00121,   0.00000,   2.00000
-512973389.67793,-290797293.92370,96226473.69998,  -0.00237,  -0.00083,   0.00247,477029733.18701,   0.00099,275722706.85768,  -0.00060,  -0.00050,   0.00122,  -0.00000,   2.00000
-513554279.96252,-289584867.74022,95633096.89965,  -0.00238,  -0.00082,   0.00246,477042445.13681,   0.00100,275727772.49119,  -0.00061,  -0.00050,   0.00122,   0.00000,   2.00000
-514125355.65491,-288360151.24251,95041303.54918,  -0.00239,  -0.00081,   0.00246,477049029.45863,   0.00100,275732846.22634,  -0.00061,  -0.00050,   0.00123,   0.00000,   2.00000
-514689356.43720,-287124520.44447,94447300.47448,  -0.00240,  -0.00081,   0.00246,477053067.49248,   0.00101,275737918.31854,  -0.00062,  -0.00050,   0.00123,   0.00000,   2.00000
-515246326.54299,-285890091.24690,93849723.66127,  -0.00241,  -0.00080,   0.00245,477063255.55582,   0.00101,275743012.42698,  -0.00062,  -0.00050,   0.00123,  -0.00000,   2.00000
-515793385.79183,-284643380.42751,93253724.54314,  -0.00242,  -0.00079,   0.00245,477070028.73904,   0.00102,275748115.43228,  -0.00063,  -0.00050,   0.00124,  -0.00000,   2.00000
-516335479.45438,-283398116.31091,92651450.99047,  -0.00243,  -0.00079,   0.00245,477092705.63097,   0.00102,275753288.50362,  -0.00063,  -0.00051,   0.00124,   0.00000,   2.00000
-516865750.51353,-282152645.59857,92052192.43352,  -0.00244,  -0.00078,   0.00244,477093179.09377,   0.00103,275758446.00065,  -0.00064,  -0.00051,   0.00124,   0.00000,   2.00000
-517388571.81366,-280883945.26240,91451995.93227,  -0.00245,  -0.00077,   0.00244,477091633.69577,   0.00103,275763580.30521,  -0.00065,  -0.00051,   0.00125,  -0.00000,   2.00000
-517903867.71895,-279627898.54474,90848152.42598,  -0.00246,  -0.00077,   0.00243,477122896.16618,   0.00104,275768817.87481,  -0.00065,  -0.00051,   0.00125,   0.00000,   2.00000
-518409597.32587,-278348264.19414,90246014.87656,  -0.00247,  -0.00076,   0.00243,477109154.72219,   0.00104,275773985.02390,  -0.00066,  -0.00051,   0.00126,   0.00000,   2.00000
-518907829.10475,-277081503.64898,89640330.91262,  -0.00248,  -0.00076,   0.00242,477140422.96595,   0.00105,275779255.54335,  -0.00066,  -0.00051,   0.00126,  -0.00000,   2.00000
-519396790.16795,-275803438.63859,89035064.85385,  -0.00249,  -0.00075,   0.00242,477132641.23926,   0.00105,275784478.49426,  -0.00067,  -0.00051,   0.00126,   0.00000,   2.00000
-519877577.85075,-274513577.01194,88428784.15703,  -0.00250,  -0.00074,   0.00242,477152368.75391,   0.00106,275789760.30828,  -0.00067,  -0.00051,   0.00127,   0.00000,   2.00000
-520349441.83606,-273224816.95188,87821670.10723,  -0.00251,  -0.00074,   0.00241,477150463.06613,   0.00106,275795017.25226,  -0.00068,  -0.00051,   0.00127,   0.00000,   2.00000
-520813045.89377,-271924347.27857,87213580.03711,  -0.00252,  -0.00073,   0.00241,477170330.25219,   0.00107,275800333.63362,  -0.00068,  -0.00051,   0.00127,   0.00000,   2.00000
-521267781.71953,-270624979.65906,86604649.57692,  -0.00253,  -0.00072,   0.00240,477168471.67153,   0.00107,275805625.26573,  -0.00069,  -0.00051,   0.00128,  -0.00000,   2.00000
-521714172.87441,-269313991.53500,85994782.53702,  -0.00254,  -0.00072,   0.00240,477188478.90334,   0.00107,275810976.91008,  -0.00069,  -0.00051,   0.00128,   0.00000,   2.00000
-522151750.05072,-268004105.42519,85384067.88623,  -0.00255,  -0.00071,   0.00240,477186669.08734,   0.00108,275816303.92794,  -0.00070,  -0.00051,   0.00129,  -0.00000,   2.00000
-522580899.67052,-266682690.02311,84772456.91471,  -0.00256,  -0.00070,   0.00239,477206816.72165,   0.00108,275821691.53334,  -0.00070,  -0.00051,   0.00129,   0.00000,   2.00000
-523001288.36883,-265362376.09502,84159990.93888,  -0.00257,  -0.00070,   0.00239,477205057.31692,   0.00109,275827054.63692,  -0.00071,  -0.00051,   0.00129,  -0.00000,   2.00000
-523413168.53582,-264030626.18708,83546669.71465,  -0.00258,  -0.00069,   0.00238,477225345.69270,   0.00109,275832478.90366,  -0.00072,  -0.00051,   0.00130,  -0.00000,   2.00000
-523813869.30496,-262698914.50129,82936403.10849,  -0.00259,  -0.00068,   0.00238,477225928.74150,   0.00110,275837887.70019,  -0.00072,  -0.00051,   0.00130,   0.00000,   2.00000
-524208479.67605,-261356935.38187,82321396.50319,  -0.00260,  -0.00067,   0.00237,477244060.19764,   0.00110,275843349.27985,  -0.00073,  -0.00051,   0.00130,   0.00000,   2.00000
-524594431.51701,-260016055.11950,81705519.68845,  -0.00261,  -0.00067,   0.00237,477242406.52106,   0.00111,275848786.61244,  -0.00073,  -0.00051,   0.00131,  -0.00000,   2.00000
-524970162.52166,-258663149.47570,81091294.18276,  -0.00262,  -0.00066,   0.00236,477250288.07313,   0.00111,275854236.91798,  -0.00074,  -0.00051,   0.00131,   0.00000,   2.00000
-525337987.71900,-257311943.55609,80475300.95862,  -0.00263,  -0.00065,   0.00236,477276243.70244,   0.00112,275859770.50659,  -0.00074,  -0.00051,   0.00131,  -0.00000,   2.00000
-525696440.87387,-255948932.70455,79859426.38548,  -0.00264,  -0.00065,   0.00236,477269369.74703,   0.00113,275865259.37460,  -0.00075,  -0.00051,   0.00132,   0.00000,   2.00000
-526045492.04642,-254586900.87831,79244228.31229,  -0.00265,  -0.00064,   0.00235,477282671.29230,   0.00113,275870782.27446,  -0.00076,  -0.00051,   0.00132,   0.00000,   2.00000
-526387570.73704,-253226871.34593,78625773.27345,  -0.00266,  -0.00063,   0.00235,477293785.84248,   0.00114,275876330.58759,  -0.00076,  -0.00051,   0.00132,   0.00000,   2.00000
-526719408.41088,-251854910.02453,78009003.98563,  -0.00267,  -0.00063,   0.00234,477301922.68883,   0.00114,275881892.69521,  -0.00077,  -0.00051,   0.00133,   0.00000,   2.00000
-527041861.52847,-250470979.59756,77392255.49581,  -0.00268,  -0.00062,   0.00234,477295237.29960,   0.00115,275887410.74984,  -0.00077,  -0.00051,   0.00133,   0.00000,   2.00000
-527356437.69720,-249089220.04473,76773935.72443,  -0.00269,  -0.00061,   0.00233,477321337.29863,   0.00115,275893012.96770,  -0.00078,  -0.00051,   0.00133,   0.00000,   2.00000
-527661770.38358,-247708695.46451,76156399.53262,  -0.00270,  -0.00060,   0.00233,477334719.85027,   0.00116,275898649.41410,  -0.00078,  -0.00051,   0.00134,   0.00000,   2.00000
-527957733.95850,-246316115.00482,75538838.28905,  -0.00271,  -0.00060,   0.00232,477328193.57082,   0.00116,275904242.16688,  -0.00079,  -0.00051,   0.00134,   0.00000,   2.00000
-528245885.61401,-244925973.71584,74919825.92899,  -0.00272,  -0.00059,   0.00232,477354359.78554,   0.00117,275909919.33881,  -0.00080,  -0.00051,   0.00134,   0.00000,   2.00000
-528524636.80040,-243523708.59927,74300751.61829,  -0.00273,  -0.00058,   0.00231,477347968.67744,   0.00117,275915553.21123,  -0.00080,  -0.00051,   0.00135,   0.00000,   2.00000
-528794259.19337,-242122840.86253,73682514.37398,  -0.00274,  -0.00058,   0.00231,477361383.47005,   0.00118,275921221.55765,  -0.00081,  -0.00051,   0.00135,   0.00000,   2.00000
-529055785.27868,-240711000.45413,73061958.23191,  -0.00275,  -0.00057,   0.00230,477367894.59574,   0.00118,275926897.25212,  -0.00081,  -0.00050,   0.00135,   0.00000,   2.00000
-529306048.78982,-239299834.51841,72446302.53419,  -0.00276,  -0.00056,   0.00230,477383361.12980,   0.00119,275932615.45482,  -0.00082,  -0.00050,   0.00136,   0.00000,   2.00000
-529551670.03953,-237891858.44904,71823484.28444,  -0.00277,  -0.00055,   0.00229,477392819.02310,   0.00119,275938352.42788,  -0.00083,  -0.00050,   0.00136,  -0.00000,   2.00000
-529783562.23195,-236469963.59038,71208575.56416,  -0.00278,  -0.00055,   0.00229,477390624.45180,   0.00120,275944062.38703,  -0.00083,  -0.00050,   0.00136,   0.00000,   2.00000
-530007292.25452,-235037103.79274,70591318.18167,  -0.00279,  -0.00054,   0.00228,477397362.03134,   0.00120,275949780.59622,  -0.00084,  -0.00050,   0.00137,   0.00000,   2.00000
-530225436.93671,-233608128.57115,69968829.47311,  -0.00280,  -0.00053,   0.00228,477421787.22527,   0.00121,275955576.66566,  -0.00085,  -0.00050,   0.00137,  -0.00000,   2.00000
-530431356.42866,-232178668.74836,69353462.89576,  -0.00281,  -0.00052,   0.00227,477424371.42121,   0.00121,275961364.34948,  -0.00085,  -0.00050,   0.00137,   0.00000,   2.00000
-530627857.42085,-230736752.44589,68737826.60656,  -0.00282,  -0.00052,   0.00227,477418414.40433,   0.00122,275967110.04175,  -0.00086,  -0.00050,   0.00138,   0.00000,   2.00000
-530818831.45415,-229298922.45654,68117037.12776,  -0.00283,  -0.00051,   0.00226,477442889.60836,   0.00123,275972933.93133,  -0.00086,  -0.00050,   0.00138,   0.00000,   2.00000
-530999854.31274,-227861366.71346,67499301.89816,  -0.00284,  -0.00050,   0.00226,477443508.76571,   0.00123,275978741.60780,  -0.00087,  -0.00050,   0.00138,  -0.00000,   2.00000
-531171769.41295,-226413781.01778,66881276.81601,  -0.00285,  -0.00049,   0.00225,477465371.84190,   0.00124,275984617.12432,  -0.00088,  -0.00050,   0.00138,   0.00000,   2.00000
-531333845.74150,-224966507.13479,66266301.14029,  -0.00286,  -0.00049,   0.00225,477466004.16556,   0.00124,275990476.33788,  -0.00088,  -0.00050,   0.00139,   0.00000,   2.00000
-531486464.15303,-223506586.40489,65650950.14886,  -0.00287,  -0.00048,   0.00224,477460309.97824,   0.00125,275996294.30002,  -0.00089,  -0.00050,   0.00139,  -0.00000,   2.00000
-531631646.43339,-222050439.15051,65034678.87603,  -0.00288,  -0.00047,   0.00224,477486735.86669,   0.00125,276002198.34481,  -0.00090,  -0.00050,   0.00139,   0.00000,   2.00000
-531767318.69690,-220581578.15681,64417997.45410,  -0.00289,  -0.00046,   0.00223,477481192.68168,   0.00126,276008061.56393,  -0.00090,  -0.00050,   0.00140,   0.00000,   2.00000
-531894451.03942,-219114829.70140,63802393.71528,  -0.00290,  -0.00046,   0.00223,477494737.73318,   0.00126,276013959.78939,  -0.00091,  -0.00050,   0.00140,   0.00000,   2.00000
-532013127.62368,-217650250.20574,63187892.73113,  -0.00291,  -0.00045,   0.00222,477508267.06458,   0.00127,276019892.86365,  -0.00091,  -0.00050,   0.00140,   0.00000,   2.00000
-532121521.28013,-216174134.77280,62575137.49821,  -0.00292,  -0.00044,   0.00222,477517539.26784,   0.00127,276025843.83234,  -0.00092,  -0.00050,   0.00141,   0.00000,   2.00000
-532222305.65345,-214698947.90540,61961266.15928,  -0.00293,  -0.00043,   0.00221,477516419.97963,   0.00128,276031771.31716,  -0.00093,  -0.00049,   0.00141,   0.00000,   2.00000
-532314779.93724,-213226046.01787,61348534.16648,  -0.00294,  -0.00043,   0.00221,477529931.65834,   0.00129,276037733.59922,  -0.00093,  -0.00049,   0.00141,   0.00000,   2.00000
-532398823.53166,-211742223.39191,60733421.77148,  -0.00295,  -0.00042,   0.00220,477537622.78243,   0.00129,276043707.44632,  -0.00094,  -0.00049,   0.00141,  -0.00000,   2.00000
-532471432.99251,-210244827.00564,60121869.80141,  -0.00296,  -0.00041,   0.00220,477534117.90473,   0.00130,276049648.25744,  -0.00095,  -0.00049,   0.00142,  -0.00000,   2.00000
-532537916.99382,-208763730.47712,59510913.92218,  -0.00297,  -0.00040,   0.00219,477551730.61147,   0.00130,276055640.29245,  -0.00095,  -0.00049,   0.00142,   0.00000,   2.00000
-532594159.40545,-207271164.30487,58901705.79535,  -0.00298,  -0.00039,   0.00219,477561197.08743,   0.00131,276061650.94445,  -0.00096,  -0.00049,   0.00142,   0.00000,   2.00000
-532642999.20566,-205779436.86509,58291311.98457,  -0.00299,  -0.00039,   0.00218,477560118.55834,   0.00131,276067638.02142,  -0.00097,  -0.00049,   0.00142,   0.00000,   2.00000
-532682651.09053,-204278497.54657,57680916.59751,  -0.00300,  -0.00038,   0.00218,477582667.32616,   0.00132,276073696.09905,  -0.00097,  -0.00049,   0.00143,   0.00000,   2.00000
-532713199.45937,-202777868.97786,57073480.12507,  -0.00301,  -0.00037,   0.00217,477583249.90784,   0.00132,276079737.08556,  -0.00098,  -0.00049,   0.00143,   0.00000,   2.00000
-532732410.07471,-201263500.96412,56469488.06659,  -0.00302,  -0.00036,   0.00217,477579894.59170,   0.00133,276085745.30558,  -0.00099,  -0.00049,   0.00143,   0.00000,   2.00000
-532747752.79782,-199766322.78933,55862054.45825,  -0.00303,  -0.00036,   0.00216,477595688.88240,   0.00134,276091797.52028,  -0.00099,  -0.00049,   0.00143,  -0.00000,   2.00000
-532752881.10418,-198257740.66789,55256370.51789,  -0.00304,  -0.00035,   0.00216,477605361.96004,   0.00134,276097869.10461,  -0.00100,  -0.00048,   0.00144,   0.00000,   2.00000
-532747759.35759,-196737788.67306,54652430.92928,  -0.00305,  -0.00034,   0.00215,477615123.73993,   0.00135,276103960.40717,  -0.00101,  -0.00048,   0.00144,  -0.00000,   2.00000
-532735402.93053,-195218582.11709,54047216.11817,  -0.00306,  -0.00033,   0.00214,477614167.58512,   0.00135,276110028.29815,  -0.00101,  -0.00048,   0.00144,   0.00000,   2.00000
-532714230.92027,-193699613.46421,53444890.24887,  -0.00306,  -0.00032,   0.00214,477614658.04210,   0.00136,276116078.64696,  -0.00102,  -0.00048,   0.00144,   0.00000,   2.00000
-532686478.61309,-192186038.63126,52842252.16345,  -0.00307,  -0.00032,   0.00213,477641136.85831,   0.00136,276122216.06015,  -0.00102,  -0.00048,   0.00145,   0.00000,   2.00000
-532647449.99700,-190658517.38940,52242942.09681,  -0.00308,  -0.00031,   0.00213,477637998.72364,   0.00137,276128321.07590,  -0.00103,  -0.00048,   0.00145,   0.00000,   2.00000
-532601330.06452,-189131649.86384,51642294.48776,  -0.00309,  -0.00030,   0.00212,477637025.49356,   0.00138,276134402.48717,  -0.00104,  -0.00048,   0.00145,  -0.00000,   2.00000
-532548767.85130,-187610410.19238,51041421.30539,  -0.00310,  -0.00029,   0.00212,477663508.04538,   0.00138,276140571.08704,  -0.00104,  -0.00048,   0.00145,   0.00000,   2.00000
-532483843.37818,-186072362.91129,50445337.50517,  -0.00311,  -0.00028,   0.00211,477647437.84043,   0.00139,276146654.90452,  -0.00105,  -0.00048,   0.00146,   0.00000,   2.00000
-532412571.64302,-184540101.67856,49849066.42477,  -0.00312,  -0.00028,   0.00211,477673910.27601,   0.00139,276152826.02898,  -0.00106,  -0.00047,   0.00146,   0.00000,   2.00000
-532332860.74274,-183008047.67686,49255627.80244,  -0.00313,  -0.00027,   0.00210,477674339.45736,   0.00140,276158978.90612,  -0.00107,  -0.00047,   0.00146,   0.00000,   2.00000
-532243359.08206,-181462210.36168,48661162.99435,  -0.00314,  -0.00026,   0.00210,477669996.96372,   0.00140,276165094.30956,  -0.00107,  -0.00047,   0.00146,  -0.00000,   2.00000
-532146551.09417,-179919452.37869,48068037.85523,  -0.00315,  -0.00025,   0.00209,477683431.60193,   0.00141,276171244.32010,  -0.00108,  -0.00047,   0.00147,   0.00000,   2.00000
-532042520.13882,-178379819.36293,47476271.66166,  -0.00316,  -0.00024,   0.00208,477696852.19846,   0.00142,276177428.76845,  -0.00109,  -0.00047,   0.00147,   0.00000,   2.00000
-531930238.61639,-176840329.38758,46887288.60019,  -0.00317,  -0.00023,   0.00208,477697214.44370,   0.00142,276183594.57366,  -0.00109,  -0.00047,   0.00147,   0.00000,   2.00000
-531809218.06629,-175289938.29289,46295792.43879,  -0.00318,  -0.00023,   0.00207,477706073.02619,   0.00143,276189776.30896,  -0.00110,  -0.00047,   0.00147,   0.00000,   2.00000
-531679976.25424,-173739656.67151,45707052.14607,  -0.00319,  -0.00022,   0.00207,477706453.29195,   0.00143,276195939.46627,  -0.00111,  -0.00046,   0.00147,   0.00000,   2.00000
-531543712.88583,-172192608.02572,45119694.10695,  -0.00319,  -0.00021,   0.00206,477719815.39112,   0.00144,276202136.86478,  -0.00111,  -0.00046,   0.00148,  -0.00000,   2.00000
-531396177.58593,-170631149.56524,44535384.78320,  -0.00320,  -0.00020,   0.00206,477717029.90665,   0.00144,276208302.73337,  -0.00112,  -0.00046,   0.00148,  -0.00000,   2.00000
-531244939.04507,-169087495.06841,43952149.34789,  -0.00321,  -0.00019,   0.00205,477733436.67469,   0.00145,276214515.25075,  -0.00113,  -0.00046,   0.00148,   0.00000,   2.00000
-531083774.94388,-167529651.35392,43367677.34754,  -0.00322,  -0.00019,   0.00205,477729458.17207,   0.00146,276220691.22508,  -0.00113,  -0.00046,   0.00148,  -0.00000,   2.00000
-530911179.07629,-165960309.90179,42789149.15878,  -0.00323,  -0.00018,   0.00204,477740975.50370,   0.00146,276226894.00983,  -0.00114,  -0.00046,   0.00148,   0.00000,   2.00000
-530735257.26516,-164405844.46869,42208744.28270,  -0.00324,  -0.00017,   0.00203,477743042.12610,   0.00147,276233084.86660,  -0.00115,  -0.00046,   0.00149,   0.00000,   2.00000
-530548061.88571,-162836758.38243,41631272.75376,  -0.00325,  -0.00016,   0.00203,477740343.86593,   0.00147,276239244.39396,  -0.00115,  -0.00045,   0.00149,   0.00000,   2.00000
-530355376.40413,-161274548.85805,41053974.79323,  -0.00326,  -0.00015,   0.00202,477766629.53429,   0.00148,276245491.17560,  -0.00116,  -0.00045,   0.00149,   0.00000,   2.00000
-530154898.97792,-159709060.52016,40476264.64483,  -0.00327,  -0.00014,   0.00202,477752719.56968,   0.00148,276251660.44371,  -0.00117,  -0.00045,   0.00149,   0.00000,   2.00000
-529946660.35103,-158146762.76322,39904236.08272,  -0.00328,  -0.00014,   0.00201,477767023.71745,   0.00149,276257867.95605,  -0.00117,  -0.00045,   0.00149,   0.00000,   2.00000
-529729543.87637,-156573547.72027,39329611.69583,  -0.00328,  -0.00013,   0.00201,477776364.65411,   0.00150,276264093.28507,  -0.00118,  -0.00045,   0.00149,   0.00000,   2.00000
-529503547.99538,-154999991.37788,38761847.82627,  -0.00329,  -0.00012,   0.00200,477777652.85359,   0.00150,276270303.32965,  -0.00119,  -0.00045,   0.00150,   0.00000,   2.00000
-529271050.21821,-153426535.05260,38192368.81512,  -0.00330,  -0.00011,   0.00199,477776736.31908,   0.00151,276276489.05423,  -0.00119,  -0.00044,   0.00150,   0.00000,   2.00000
-529032192.13306,-151856629.26218,37624316.04800,  -0.00331,  -0.00010,   0.00199,477789872.16506,   0.00151,276282708.24135,  -0.00120,  -0.00044,   0.00150,   0.00000,   2.00000
-528783105.88252,-150272024.33636,37054745.18146,  -0.00332,  -0.00009,   0.00198,477786370.47600,   0.00152,276288892.40719,  -0.00121,  -0.00044,   0.00150,   0.00000,   2.00000
-528530419.82726,-148705555.84151,36490677.91325,  -0.00333,  -0.00009,   0.00198,477803085.40051,   0.00152,276295124.77565,  -0.00121,  -0.00044,   0.00150,   0.00000,   2.00000
-528266431.97573,-147124088.96041,35929329.81237,  -0.00334,  -0.00008,   0.00197,477800623.17134,   0.00153,276301326.25713,  -0.00122,  -0.00044,   0.00150,   0.00000,   2.00000
-527996017.57605,-145542563.24817,35366175.83489,  -0.00335,  -0.00007,   0.00197,477799708.14323,   0.00154,276307503.28934,  -0.00123,  -0.00044,   0.00151,   0.00000,   2.00000
-527719470.10839,-143964683.79915,34804458.58521,  -0.00335,  -0.00006,   0.00196,477812754.81504,   0.00154,276313713.50854,  -0.00123,  -0.00043,   0.00151,   0.00000,   2.00000
-527430517.26394,-142371492.44945,34249681.00087,  -0.00336,  -0.00005,   0.00195,477811345.32451,   0.00155,276319897.17345,  -0.00124,  -0.00043,   0.00151,   0.00000,   2.00000
-527139196.12261,-140792980.20727,33692849.13037,  -0.00337,  -0.00004,   0.00195,477812786.36360,   0.00155,276326066.05752,  -0.00125,  -0.00043,   0.00151,  -0.00000,   2.00000
-526837855.09445,-139203313.30768,33137628.21055,  -0.00338,  -0.00003,   0.00194,477823411.00759,   0.00156,276332258.19963,  -0.00125,  -0.00043,   0.00151,   0.00000,   2.00000
-526529180.19537,-137613259.70677,32584809.48083,  -0.00339,  -0.00003,   0.00194,477823409.22351,   0.00157,276338429.53683,  -0.00126,  -0.00043,   0.00151,   0.00000,   2.00000
-526215565.04085,-136027114.26465,32029125.53903,  -0.00340,  -0.00002,   0.00193,477835465.65681,   0.00157,276344630.03288,  -0.00127,  -0.00043,   0.00152,   0.00000,   2.00000
-525892322.37948,-134436145.18515,31481055.72484,  -0.00341,  -0.00001,   0.00193,477823321.26831,   0.00158,276350759.28922,  -0.00127,  -0.00042,   0.00152,   0.00000,   2.00000
-525563304.55443,-132848925.42386,30934406.16852,  -0.00341,  -0.00000,   0.00192,477836159.75281,   0.00158,276356921.10346,  -0.00128,  -0.00042,   0.00152,   0.00000,   2.00000
-525229477.82907,-131265633.26186,30384883.67690,  -0.00342,   0.00001,   0.00191,477848149.74650,   0.00159,276363111.82688,  -0.00129,  -0.00042,   0.00152,   0.00000,   2.00000
-524883286.73665,-129666728.72723,29842143.29937,  -0.00343,   0.00002,   0.00191,477846779.91238,   0.00159,276369275.90856,  -0.00129,  -0.00042,   0.00152,   0.00000,   2.00000
-524535193.04930,-128082345.52376,29297247.16955,  -0.00344,   0.00002,   0.00190,477847879.12583,   0.00160,276375423.61226,  -0.00130,  -0.00042,   0.00152,  -0.00000,   2.00000
-524175586.17222,-126482375.25812,28754765.83012,  -0.00345,   0.00003,   0.00190,477845677.72662,   0.00161,276381541.28008,  -0.00131,  -0.00041,   0.00152,   0.00000,   2.00000
-523809569.23204,-124886114.92953,28218026.56016,  -0.00345,   0.00004,   0.00189,477859228.39112,   0.00161,276387694.55749,  -0.00131,  -0.00041,   0.00152,  -0.00000,   2.00000
-523435767.27753,-123284791.36266,27680017.56139,  -0.00346,   0.00005,   0.00189,477845307.90721,   0.00162,276393768.85386,  -0.00132,  -0.00041,   0.00153,   0.00000,   2.00000
-523056476.03617,-121687302.08831,27143421.33125,  -0.00347,   0.00006,   0.00188,477857985.74090,   0.00162,276399875.28225,  -0.00133,  -0.00041,   0.00153,   0.00000,   2.00000
-522671767.51823,-120093678.54594,26608250.07259,  -0.00348,   0.00007,   0.00187,477870654.26645,   0.00163,276406013.67923,  -0.00133,  -0.00041,   0.00153,  -0.00000,   2.00000
-522278474.80200,-118494632.75945,26076035.70500,  -0.00349,   0.00008,   0.00187,477857457.72216,   0.00163,276412075.91615,  -0.00134,  -0.00040,   0.00153,   0.00000,   2.00000
-521875159.24662,-116884421.87398,25545332.54995,  -0.00349,   0.00008,   0.00186,477868282.65511,   0.00164,276418162.62799,  -0.00135,  -0.00040,   0.00153,   0.00000,   2.00000
-521469593.56639,-115288427.63965,25016675.02153,  -0.00350,   0.00009,   0.00186,477869723.76420,   0.00165,276424234.42260,  -0.00135,  -0.00040,   0.00153,   0.00000,   2.00000
-521058814.93880,-113696327.28164,24489431.53778,  -0.00351,   0.00010,   0.00185,477882246.68123,   0.00165,276430337.69653,  -0.00136,  -0.00040,   0.00153,  -0.00000,   2.00000
-520634656.24508,-112083419.38043,23965092.85579,  -0.00352,   0.00011,   0.00184,477867326.76805,   0.00166,276436357.43959,  -0.00137,  -0.00040,   0.00153,   0.00000,   2.00000
-520210166.70920,-110489505.13928,23442062.38091,  -0.00353,   0.00012,   0.00184,477881431.31345,   0.00166,276442415.48315,  -0.00137,  -0.00039,   0.00153,   0.00000,   2.00000
-519774616.24552,-108879586.35506,22916853.89862,  -0.00353,   0.00013,   0.00183,477878785.97064,   0.00167,276448441.47210,  -0.00138,  -0.00039,   0.00154,  -0.00000,   2.00000
-519331520.13653,-107268569.14594,22398035.00533,  -0.00354,   0.00014,   0.00183,477879011.58750,   0.00167,276454447.53177,  -0.00139,  -0.00039,   0.00154,   0.00000,   2.00000
-518886575.32983,-105671595.17326,21881164.41850,  -0.00355,   0.00014,   0.00182,477880033.79744,   0.00168,276460436.99747,  -0.00139,  -0.00039,   0.00154,   0.00000,   2.00000
-518431643.15356,-104063422.51383,21365750.00420,  -0.00356,   0.00015,   0.00182,477890897.55302,   0.00168,276466451.30784,  -0.00140,  -0.00038,   0.00154,   0.00000,   2.00000
-517968676.82054,-102449100.30243,20848591.83437,  -0.00356,   0.00016,   0.00181,477876982.46741,   0.00169,276472386.12465,  -0.00141,  -0.00038,   0.00154,   0.00000,   2.00000
-517505281.65972,-100853785.03427,20337089.30467,  -0.00357,   0.00017,   0.00180,477891219.28655,   0.00170,276478360.13295,  -0.00141,  -0.00038,   0.00154,   0.00000,   2.00000
-517030016.88599,-99242087.73703,19827598.02852,  -0.00358,   0.00018,   0.00180,477889274.73121,   0.00170,276484305.06345,  -0.00142,  -0.00038,   0.00154,  -0.00000,   2.00000
-516547995.06192,-97629134.76887,19320031.31847,  -0.00359,   0.00019,   0.00179,477888692.70398,   0.00171,276490226.72471,  -0.00143,  -0.00038,   0.00154,   0.00000,   2.00000
-516065023.00577,-96030091.71452,18809970.97720,  -0.00359,   0.00020,   0.00179,477888798.97304,   0.00171,276496128.02124,  -0.00143,  -0.00037,   0.00154,   0.00000,   2.00000
-515571491.14808,-94419760.80107,18305675.81473,  -0.00360,   0.00020,   0.00178,477900222.30444,   0.00172,276502056.81134,  -0.00144,  -0.00037,   0.00154,   0.00000,   2.00000
-515069264.79462,-92802718.11976,17803764.52527,  -0.00361,   0.00021,   0.00177,477886780.02603,   0.00172,276507907.93796,  -0.00144,  -0.00037,   0.00154,   0.00000,   2.00000
-514567715.97093,-91204815.42656,17303149.98501,  -0.00361,   0.00022,   0.00177,477899991.52583,   0.00173,276513794.25484,  -0.00145,  -0.00037,   0.00154,  -0.00000,   2.00000
-514052550.59794,-89584846.60637,16800542.09163,  -0.00362,   0.00023,   0.00176,477884890.02868,   0.00173,276519595.89142,  -0.00146,  -0.00036,   0.00154,  -0.00000,   2.00000
-513532241.47623,-87968789.88219,16303620.98127,  -0.00363,   0.00024,   0.00176,477897383.48601,   0.00174,276525429.91123,  -0.00146,  -0.00036,   0.00155,   0.00000,   2.00000
-513010761.68232,-86366395.63861,15808450.04916,  -0.00364,   0.00025,   0.00175,477897632.31424,   0.00175,276531244.27054,  -0.00147,  -0.00036,   0.00155,   0.00000,   2.00000
-512477111.79079,-84747175.24582,15315079.92903,  -0.00364,   0.00026,   0.00175,477895815.23586,   0.00175,276537030.29132,  -0.00148,  -0.00036,   0.00155,   0.00000,   2.00000
-511942377.09557,-83141541.06497,14823421.42126,  -0.00365,   0.00026,   0.00174,477895933.43134,   0.00176,276542796.20683,  -0.00148,  -0.00036,   0.00155,   0.00000,   2.00000
-511401026.94799,-81534200.86902,14333487.26251,  -0.00366,   0.00027,   0.00173,477895026.84185,   0.00176,276548537.70662,  -0.00149,  -0.00035,   0.00155,  -0.00000,   2.00000
-510847377.93420,-79909882.75480,13845282.12529,  -0.00366,   0.00028,   0.00173,477893253.24758,   0.00177,276554251.20253,  -0.00149,  -0.00035,   0.00155,   0.00000,   2.00000
-510292764.30490,-78299035.24872,13358731.14378,  -0.00367,   0.00029,   0.00172,477893180.51598,   0.00177,276559943.94898,  -0.00150,  -0.00035,   0.00155,   0.00000,   2.00000
-509731526.21975,-76686348.61374,12873840.49599,  -0.00368,   0.00030,   0.00172,477892202.99529,   0.00178,276565612.13990,  -0.00151,  -0.00035,   0.00155,   0.00000,   2.00000
-509163658.62209,-75071778.75717,12390589.13414,  -0.00368,   0.00031,   0.00171,477891203.13980,   0.00178,276571255.73539,  -0.00151,  -0.00034,   0.00155,   0.00000,   2.00000
-508589155.47037,-73455281.70079,11908956.16563,  -0.00369,   0.00032,   0.00171,477890181.61772,   0.00179,276576874.69875,  -0.00152,  -0.00034,   0.00155,   0.00000,   2.00000
-508008009.74974,-71836813.58715,11428920.85415,  -0.00370,   0.00032,   0.00170,477889139.09650,   0.00179,276582468.99645,  -0.00152,  -0.00034,   0.00155,   0.00000,   2.00000
-507428526.26680,-70237524.09615,10950140.00513,  -0.00370,   0.00033,   0.00169,477901340.46246,   0.00180,276588095.12839,  -0.00153,  -0.00034,   0.00155,   0.00000,   2.00000
-506833810.67149,-68614917.94512,10477599.96960,  -0.00371,   0.00034,   0.00169,477887280.56379,   0.00180,276593640.93191,  -0.00154,  -0.00033,   0.00155,   0.00000,   2.00000
-506238746.30011,-67005488.35054,10002212.79213,  -0.00372,   0.00035,   0.00168,477886405.16310,   0.00181,276599162.91262,  -0.00154,  -0.00033,   0.00155,   0.00000,   2.00000
-505630747.33766,-65378602.11187,9532715.32031,  -0.00372,   0.00036,   0.00168,477884980.41050,   0.00181,276604658.81668,  -0.00155,  -0.00033,   0.00155,   0.00000,   2.00000
-505022431.27296,-63764809.84886,9060332.23129,  -0.00373,   0.00037,   0.00167,477884015.89529,   0.00182,276610130.63594,  -0.00155,  -0.00033,   0.00155,  -0.00000,   2.00000
-504407236.28462,-62148745.04784,8593789.68060,  -0.00373,   0.00038,   0.00166,477883017.65959,   0.00182,276615578.28337,  -0.00156,  -0.00033,   0.00155,   0.00000,   2.00000
-503785415.33876,-60530374.17133,8128694.51512,  -0.00374,   0.00038,   0.00166,477881741.16572,   0.00183,276621000.62462,  -0.00157,  -0.00032,   0.00155,   0.00000,   2.00000
-503163382.61330,-58924939.23573,7660658.54149,  -0.00375,   0.00039,   0.00165,477880567.39018,   0.00183,276626398.12386,  -0.00157,  -0.00032,   0.00155,  -0.00000,   2.00000
-502528275.30841,-57301791.23979,7198412.28951,  -0.00375,   0.00040,   0.00165,477879111.66572,   0.00184,276631769.66961,  -0.00158,  -0.00032,   0.00155,   0.00000,   2.00000
-501892791.23299,-55691492.92365,6737551.46521,  -0.00376,   0.00041,   0.00164,477878040.27366,   0.00184,276637116.93862,  -0.00158,  -0.00032,   0.00155,   0.00000,   2.00000
-501250680.92853,-54078684.06917,6278062.22273,  -0.00376,   0.00042,   0.00164,477876623.00134,   0.00185,276642438.50542,  -0.00159,  -0.00031,   0.00155,   0.00000,   2.00000
-500601925.90909,-52463322.66244,5819925.57133,  -0.00377,   0.00043,   0.00163,477875192.03233,   0.00185,276647734.37544,  -0.00159,  -0.00031,   0.00155,   0.00000,   2.00000
-499943604.89531,-50838943.55864,5367636.09528,  -0.00378,   0.00043,   0.00162,477861383.57821,   0.00186,276652951.42048,  -0.00160,  -0.00031,   0.00155,  -0.00000,   2.00000
-499281504.97209,-49218366.93688,4912136.16983,  -0.00378,   0.00044,   0.00162,477872243.21866,   0.00186,276658195.96422,  -0.00161,  -0.00031,   0.00155,  -0.00000,   2.00000
-498616253.44805,-47603900.75854,4462421.10795,  -0.00379,   0.00045,   0.00161,477858466.80036,   0.00187,276663361.85058,  -0.00161,  -0.00030,   0.00156,   0.00000,   2.00000
-497947283.07384,-45993197.07708,4009484.55069,  -0.00379,   0.00046,   0.00161,477869221.31667,   0.00187,276668554.94427,  -0.00162,  -0.00030,   0.00156,   0.00000,   2.00000
-497268643.91239,-44373119.14895,3562273.17905,  -0.00380,   0.00047,   0.00160,477855289.38938,   0.00188,276673668.77847,  -0.00162,  -0.00030,   0.00156,  -0.00000,   2.00000
-496583276.64071,-42750181.58241,3116280.80669,  -0.00380,   0.00048,   0.00160,477853661.76936,   0.00188,276678756.64390,  -0.00163,  -0.00030,   0.00156,  -0.00000,   2.00000
-495897808.66773,-41139633.81901,2671490.31393,  -0.00381,   0.00048,   0.00159,477851922.66211,   0.00189,276683818.09483,  -0.00163,  -0.00030,   0.00156,  -0.00000,   2.00000
-495205624.97420,-39526109.89216,2227883.88799,  -0.00381,   0.00049,   0.00158,477850195.91272,   0.00189,276688853.25462,  -0.00164,  -0.00029,   0.00156,   0.00000,   2.00000
-494503680.06055,-37902834.76912,1785492.72422,  -0.00382,   0.00050,   0.00158,477836057.46280,   0.00190,276693808.59385,  -0.00164,  -0.00029,   0.00156,  -0.00000,   2.00000
-493797974.60344,-36283253.63101,1344201.95489,  -0.00382,   0.00051,   0.00157,477846683.34691,   0.00190,276698791.37478,  -0.00165,  -0.00029,   0.00156,  -0.00000,   2.00000
-493089166.64339,-34669051.78305,908436.21659,  -0.00383,   0.00052,   0.00157,477832325.02704,   0.00191,276703693.42986,  -0.00165,  -0.00029,   0.00156,   0.00000,   2.00000
-492373586.48332,-33051654.88053,469394.81367,  -0.00383,   0.00053,   0.00156,477830430.19517,   0.00191,276708568.93759,  -0.00166,  -0.00028,   0.00156,   0.00000,   2.00000
-491651166.76141,-31431024.61916,35807.65727,  -0.00384,   0.00053,   0.00156,477828567.74395,   0.00192,276713418.11041,  -0.00166,  -0.00028,   0.00156,  -0.00000,   2.00000
-490928822.68139,-29822403.03086,-396720.84344,  -0.00384,   0.00054,   0.00155,477826298.90700,   0.00192,276718239.23014,  -0.00167,  -0.00028,   0.00156,   0.00000,   2.00000
-490199662.94482,-28210433.73406,-828207.19484,  -0.00385,   0.00055,   0.00154,477824320.24734,   0.00193,276723033.63293,  -0.00167,  -0.00028,   0.00156,  -0.00000,   2.00000
-489460394.16667,-26588076.74534,-1258701.63327,  -0.00385,   0.00056,   0.00154,477810036.35929,   0.00193,276727748.03687,  -0.00168,  -0.00027,   0.00156,   0.00000,   2.00000
-488714198.35642,-24962273.07553,-1688197.71799,  -0.00386,   0.00057,   0.00153,477808031.45838,   0.00193,276732435.97599,  -0.00168,  -0.00027,   0.00156,  -0.00000,   2.00000
-487968170.55794,-23348253.98182,-2112345.50495,  -0.00386,   0.00058,   0.00153,477805432.83206,   0.00194,276737094.91818,  -0.00169,  -0.00027,   0.00156,   0.00000,   2.00000
-487215162.83413,-21730678.47192,-2539905.81543,  -0.00387,   0.00058,   0.00152,477803387.48738,   0.00194,276741727.35014,  -0.00169,  -0.00027,   0.00156,   0.00000,   2.00000
-486462410.93909,-20124768.32046,-2962151.53299,  -0.00387,   0.00059,   0.00152,477800601.71672,   0.00195,276746330.10121,  -0.00170,  -0.00027,   0.00156,   0.00000,   2.00000
-485699296.35065,-18507999.94680,-3383564.03747,  -0.00388,   0.00060,   0.00151,477786177.38092,   0.00195,276750852.65085,  -0.00170,  -0.00026,   0.00156,   0.00000,   2.00000
-484929174.33647,-16887502.65232,-3804078.89521,  -0.00388,   0.00061,   0.00151,477783959.18631,   0.00196,276755348.37001,  -0.00171,  -0.00026,   0.00156,   0.00000,   2.00000
-484159263.92822,-15278493.58432,-4223717.77032,  -0.00388,   0.00062,   0.00150,477781013.52573,   0.00196,276759814.14273,  -0.00171,  -0.00026,   0.00156,   0.00000,   2.00000
-483375159.83464,-13650389.28229,-4638114.74475,  -0.00389,   0.00062,   0.00149,477779353.34396,   0.00196,276764255.68277,  -0.00172,  -0.00026,   0.00155,  -0.00000,   2.00000
-482594894.82471,-12041609.93581,-5056187.92729,  -0.00389,   0.00063,   0.00149,477763482.12863,   0.00197,276768611.07805,  -0.00172,  -0.00025,   0.00155,   0.00000,   2.00000
-481807683.19822,-10428853.20083,-5469068.33632,  -0.00390,   0.00064,   0.00148,477760935.96625,   0.00197,276772938.71843,  -0.00173,  -0.00025,   0.00155,   0.00000,   2.00000
-481013360.64841,-8812091.83241,-5881147.65181,  -0.00390,   0.00065,   0.00148,477758520.06944,   0.00198,276777239.25455,  -0.00173,  -0.00025,   0.00155,   0.00000,   2.00000
-480208189.20978,-7183848.35965,-6292606.09820,  -0.00391,   0.00066,   0.00147,477743996.92741,   0.00198,276781459.92012,  -0.00173,  -0.00025,   0.00155,   0.00000,   2.00000
-479406981.76702,-5574212.08086,-6703138.83690,  -0.00391,   0.00066,   0.00147,477752705.24526,   0.00198,276785702.41637,  -0.00174,  -0.00025,   0.00155,   0.00000,   2.00000
-478598750.34307,-3960606.23851,-7108937.11581,  -0.00391,   0.00067,   0.00146,477724866.76407,   0.00199,276789806.93395,  -0.00174,  -0.00024,   0.00155,   0.00000,   2.00000
-477779541.21011,-2335076.73059,-7513808.57343,  -0.00392,   0.00068,   0.00146,477735347.54654,   0.00199,276793941.49997,  -0.00175,  -0.00024,   0.00155,   0.00000,   2.00000
-476964143.94644,-728158.14919,-7922579.75720,  -0.00392,   0.00069,   0.00145,477718850.87635,   0.00200,276797987.94310,  -0.00175,  -0.00024,   0.00155,   0.00000,   2.00000
-476134055.57780,898342.34903,-8326271.79384,  -0.00392,   0.00069,   0.00145,477717071.94010,   0.00200,276802010.99810,  -0.00176,  -0.00024,   0.00155,  -0.00000,   2.00000
-475312118.99817,2498837.68604,-8724968.99747,  -0.00393,   0.00070,   0.00144,477711919.72544,   0.00200,276805995.91859,  -0.00176,  -0.00024,   0.00155,   0.00000,   2.00000
-474471011.63483,4126654.78873,-9127599.45168,  -0.00393,   0.00071,   0.00143,477698592.65510,   0.00201,276809907.03744,  -0.00176,  -0.00023,   0.00155,   0.00000,   2.00000
-473630408.91324,5743800.03490,-9525254.58442,  -0.00393,   0.00072,   0.00143,477694415.51830,   0.00201,276813784.68969,  -0.00177,  -0.00023,   0.00155,  -0.00000,   2.00000
-472789870.22866,7350299.50284,-9926689.85958,  -0.00394,   0.00073,   0.00142,477690637.23155,   0.00201,276817630.71053,  -0.00177,  -0.00023,   0.00155,   0.00000,   2.00000
-471938079.30167,8969240.79938,-10323422.82651,  -0.00394,   0.00073,   0.00142,477675584.14362,   0.00202,276821395.73186,  -0.00178,  -0.00023,   0.00155,  -0.00000,   2.00000
-471090978.64655,10569903.51015,-10714970.66255,  -0.00394,   0.00074,   0.00141,477683002.25285,   0.00202,276825178.65573,  -0.00178,  -0.00023,   0.00155,  -0.00000,   2.00000
-470227838.34010,12190979.47120,-11110894.66034,  -0.00395,   0.00075,   0.00141,477656563.69699,   0.00202,276828830.70859,  -0.00178,  -0.00022,   0.00155,  -0.00000,   2.00000
-469357374.42194,13816883.29287,-11501915.45205,  -0.00395,   0.00076,   0.00140,477653315.72133,   0.00203,276832454.25456,  -0.00179,  -0.00022,   0.00155,   0.00000,   2.00000
-468486877.72703,15432442.63042,-11896816.55008,  -0.00395,   0.00076,   0.00140,477649235.16695,   0.00203,276836045.70510,  -0.00179,  -0.00022,   0.00155,   0.00000,   2.00000
-467616988.98442,17037807.44974,-12286881.66869,  -0.00395,   0.00077,   0.00139,477644400.46935,   0.00203,276839601.82803,  -0.00179,  -0.00022,   0.00155,   0.00000,   2.00000
-466735471.92964,18656169.19341,-12672418.86376,  -0.00396,   0.00078,   0.00139,477629137.42362,   0.00204,276843076.84900,  -0.00180,  -0.00022,   0.00155,  -0.00000,   2.00000
-465853916.50663,20264391.53022,-13061898.80418,  -0.00396,   0.00079,   0.00138,477624808.74480,   0.00204,276846519.17545,  -0.00180,  -0.00021,   0.00155,   0.00000,   2.00000
-464960568.85853,21885796.09896,-13446904.04890,  -0.00396,   0.00079,   0.00138,477609493.74134,   0.00204,276849880.52188,  -0.00180,  -0.00021,   0.00155,  -0.00000,   2.00000
-464067477.25312,23497238.37019,-13831528.90181,  -0.00396,   0.00080,   0.00137,477604661.66609,   0.00205,276853207.35343,  -0.00181,  -0.00021,   0.00155,   0.00000,   2.00000
-463166551.96500,25113871.08268,-14215737.99710,  -0.00397,   0.00081,   0.00136,477601420.26507,   0.00205,276856506.79861,  -0.00181,  -0.00021,   0.00155,   0.00000,   2.00000
-462261383.91043,26728813.96537,-14599966.58827,  -0.00397,   0.00082,   0.00136,477584724.25961,   0.00205,276859719.57991,  -0.00181,  -0.00021,   0.00155,   0.00000,   2.00000
-461356839.73157,28334057.94436,-14979510.49144,  -0.00397,   0.00082,   0.00135,477579231.96259,   0.00206,276862895.43261,  -0.00182,  -0.00021,   0.00155,   0.00000,   2.00000
-460439391.44860,29952834.69861,-15363438.50128,  -0.00397,   0.00083,   0.00135,477564565.87739,   0.00206,276865993.97794,  -0.00182,  -0.00020,   0.00155,   0.00000,   2.00000
-459522932.09792,31562111.26728,-15738362.62085,  -0.00398,   0.00084,   0.00134,477558482.68075,   0.00206,276869053.38700,  -0.00182,  -0.00020,   0.00155,  -0.00000,   2.00000
-458598043.63597,33176804.36474,-16117320.70109,  -0.00398,   0.00085,   0.00134,477555451.74705,   0.00206,276872087.28348,  -0.00183,  -0.00020,   0.00155,  -0.00000,   2.00000
-457668659.70378,34790306.39831,-16496440.40579,  -0.00398,   0.00085,   0.00133,477538452.90641,   0.00207,276875033.97905,  -0.00183,  -0.00020,   0.00155,  -0.00000,   2.00000
-456735134.55220,36402811.73465,-16871398.48989,  -0.00398,   0.00086,   0.00133,477520895.96053,   0.00207,276877891.30271,  -0.00183,  -0.00020,   0.00155,   0.00000,   2.00000
-455798199.69543,38012604.36652,-17245653.97011,  -0.00398,   0.00087,   0.00132,477528888.15663,   0.00207,276880772.64122,  -0.00184,  -0.00020,   0.00155,   0.00000,   2.00000
-454851800.19996,39629919.35666,-17620595.66251,  -0.00398,   0.00087,   0.00132,477500116.91207,   0.00208,276883515.11561,  -0.00184,  -0.00019,   0.00155,   0.00000,   2.00000
-453901949.79770,41244563.87511,-17994847.44611,  -0.00399,   0.00088,   0.00131,477508018.35875,   0.00208,276886281.66964,  -0.00184,  -0.00019,   0.00155,   0.00000,   2.00000
-452942863.65268,42867066.42476,-18365501.24422,  -0.00399,   0.00089,   0.00131,477478696.32995,   0.00208,276888907.23986,  -0.00184,  -0.00019,   0.00155,   0.00000,   2.00000
-451988802.91839,44472000.33652,-18735571.27681,  -0.00399,   0.00089,   0.00130,477484325.42113,   0.00208,276891547.27908,  -0.00185,  -0.00019,   0.00155,   0.00000,   2.00000
-451029890.32895,46076461.78595,-19106003.34438,  -0.00399,   0.00090,   0.00130,477466852.55917,   0.00209,276894099.24879,  -0.00185,  -0.00019,   0.00155,   0.00000,   2.00000
-450057965.44893,47695582.86053,-19472383.96162,  -0.00399,   0.00091,   0.00129,477450994.69359,   0.00209,276896570.63456,  -0.00185,  -0.00019,   0.00154,   0.00000,   2.00000
-449085588.64867,49305746.95240,-19843052.41133,  -0.00399,   0.00092,   0.00129,477445412.59182,   0.00209,276899007.33313,  -0.00185,  -0.00018,   0.00154,   0.00000,   2.00000
-448105123.24301,50922110.88554,-20209218.44704,  -0.00399,   0.00092,   0.00128,477440965.59419,   0.00209,276901414.50676,  -0.00186,  -0.00018,   0.00154,   0.00000,   2.00000
-447119512.20063,52538379.00355,-20575853.64733,  -0.00399,   0.00093,   0.00128,477423316.18258,   0.00209,276903733.58853,  -0.00186,  -0.00018,   0.00154,   0.00000,   2.00000
-446129185.59669,54154776.83845,-20938640.25884,  -0.00400,   0.00094,   0.00127,477405007.21094,   0.00210,276905961.95725,  -0.00186,  -0.00018,   0.00154,   0.00000,   2.00000
-445138294.60949,55762493.71020,-21305790.32129,  -0.00400,   0.00094,   0.00127,477399124.67921,   0.00210,276908155.19301,  -0.00186,  -0.00018,   0.00154,   0.00000,   2.00000
-444139143.59934,57376658.45300,-21668505.74100,  -0.00400,   0.00095,   0.00126,477394452.78401,   0.00210,276910318.80578,  -0.00186,  -0.00018,   0.00154,  -0.00000,   2.00000
-443143362.99496,58976309.91710,-22031917.62247,  -0.00400,   0.00096,   0.00126,477374046.33170,   0.00210,276912382.84920,  -0.00187,  -0.00018,   0.00154,   0.92164,   1.00000
-442133890.44597,60591352.39999,-22391475.62557,  -0.00400,   0.00096,   0.00125,477357909.78051,   0.00210,276914366.70579,  -0.00187,  -0.00018,   0.00154,   0.84106,   1.00000
-441114897.06127,62212779.48015,-22755344.88285,  -0.00400,   0.00097,   0.00125,477354322.15002,   0.00211,276916326.56604,  -0.00187,  -0.00017,   0.00154,   0.81070,   1.00000
-440105118.42934,63811303.52841,-23115098.76771,  -0.00400,   0.00097,   0.00124,477344280.86811,   0.00211,276918233.73831,  -0.00187,  -0.00017,   0.00154,   0.75826,   1.00000
-439081398.17965,65425468.37841,-23471066.49900,  -0.00400,   0.00098,   0.00124,477328071.07910,   0.00211,276920060.91623,  -0.00187,  -0.00017,   0.00154,   0.68727,   1.00000
-438051355.38480,67040324.27939,-23832094.18607,  -0.00400,   0.00099,   0.00123,477310494.67243,   0.00211,276921802.29254,  -0.00188,  -0.00017,   0.00154,   0.61633,   1.00000
-437012679.33732,68662048.22838,-24188802.64856,  -0.00400,   0.00099,   0.00123,477305472.79953,   0.00211,276923514.19638,  -0.00188,  -0.00017,   0.00154,   0.58800,   1.00000
-435982672.73655,70261089.13560,-24545834.93426,  -0.00400,   0.00100,   0.00122,477295578.23081,   0.00211,276925174.97035,  -0.00188,  -0.00017,   0.00154,   0.54632,   1.00000
-434932083.58986,71884965.36588,-24904104.37299,  -0.00400,   0.00101,   0.00122,477268799.56082,   0.00212,276926709.41319,  -0.00188,  -0.00017,   0.00154,   0.46025,   1.00000
-433886806.42092,73492019.68655,-25261994.27032,  -0.00400,   0.00101,   0.00121,477272615.92151,   0.00212,276928254.65383,  -0.00188,  -0.00017,   0.00154,   0.46062,   1.00000
-432836039.06473,75100541.26576,-25616386.17505,  -0.00400,   0.00102,   0.00121,477253414.07537,   0.00212,276929707.78025,  -0.00188,  -0.00017,   0.00154,   0.40194,   1.00000
-431779090.97545,76710489.21909,-25971649.86231,  -0.00400,   0.00103,   0.00120,477234826.18762,   0.00212,276931071.87464,  -0.00189,  -0.00017,   0.00154,   0.34945,   1.00000
-430712603.30882,78327502.67143,-26327025.39791,  -0.00400,   0.00103,   0.00120,477230191.31443,   0.00212,276932409.66908,  -0.00189,  -0.00017,   0.00154,   0.33153,   1.00000
-429649502.80354,79931666.40369,-26679153.87355,  -0.00400,   0.00104,   0.00119,477207819.57603,   0.00212,276933641.89538,  -0.00189,  -0.00016,   0.00154,   0.27744,   1.00000
-428570836.76145,81552178.36458,-27032061.32845,  -0.00400,   0.00104,   0.00119,477192052.51016,   0.00212,276934798.50910,  -0.00189,  -0.00016,   0.00154,   0.24104,   1.00000
-427491583.84610,83165327.03054,-27385302.68588,  -0.00400,   0.00105,   0.00118,477184251.58861,   0.00213,276935915.45498,  -0.00189,  -0.00016,   0.00154,   0.22164,   1.00000
-426411745.82421,84771179.18407,-27738893.78839,  -0.00400,   0.00105,   0.00118,477176363.46710,   0.00213,276936992.48492,  -0.00189,  -0.00016,   0.00154,   0.20318,   1.00000
-425325914.34939,86379228.21339,-28089174.95596,  -0.00400,   0.00106,   0.00117,477156678.35493,   0.00213,276937976.88385,  -0.00189,  -0.00016,   0.00154,   0.16732,   1.00000
-424224079.46721,88003929.46648,-28440313.75514,  -0.00399,   0.00107,   0.00117,477140878.22465,   0.00213,276938886.41414,  -0.00189,  -0.00016,   0.00154,   0.14076,   1.00000
-423130783.06865,89607026.25932,-28792054.41836,  -0.00399,   0.00107,   0.00116,477129566.83849,   0.00213,276939741.47772,  -0.00189,  -0.00016,   0.00154,   0.12260,   1.00000
-422021953.12403,91227139.47760,-29140365.21862,  -0.00399,   0.00108,   0.00116,477112919.24598,   0.00213,276940518.34192,  -0.00189,  -0.00016,   0.00154,   0.09971,   1.00000
-420920978.20760,92825631.40472,-29493652.99467,  -0.00399,   0.00108,   0.00115,477102153.80567,   0.00213,276941243.69125,  -0.00189,  -0.00016,   0.00154,   0.08564,   1.00000
-419804961.96817,94441520.03235,-29839227.25121,  -0.00399,   0.00109,   0.00115,477084623.39035,   0.00213,276941887.35107,  -0.00190,  -0.00016,   0.00154,   0.06642,   1.00000
-418687391.59299,96050404.73887,-30189607.48128,  -0.00399,   0.00109,   0.00115,477077000.11562,   0.00213,276942494.11767,  -0.00190,  -0.00016,   0.00154,   0.05813,   1.00000
-417562569.31913,97661973.90428,-30541181.55874,  -0.00399,   0.00110,   0.00114,477057719.22396,   0.00213,276943011.75801,  -0.00190,  -0.00016,   0.00154,   0.04166,   1.00000
-416431085.80630,99276558.81840,-30889653.85395,  -0.00399,   0.00111,   0.00114,477037533.40793,   0.00213,276943436.54128,  -0.00190,  -0.00016,   0.00154,   0.02761,   1.00000
-415299305.67580,100884813.24115,-31234342.71976,  -0.00398,   0.00111,   0.00113,477027978.98096,   0.00213,276943816.61201,  -0.00190,  -0.00016,   0.00154,   0.02176,   1.00000
-414159301.18156,102495824.55380,-31584624.46787,  -0.00398,   0.00112,   0.00113,477009359.81192,   0.00213,276944111.37305,  -0.00190,  -0.00016,   0.00154,   0.01288,   1.00000
-413018930.86004,104100657.77595,-31931160.61685,  -0.00398,   0.00112,   0.00112,476999629.79304,   0.00213,276944361.13758,  -0.00190,  -0.00016,   0.00154,   0.00910,   1.00000
-411870881.81949,105708674.12611,-32279017.25630,  -0.00398,   0.00113,   0.00112,476980035.92640,   0.00213,276944521.68583,  -0.00190,  -0.00016,   0.00154,   0.00370,   1.00000
-410705476.90168,107334271.74825,-32627967.01367,  -0.00398,   0.00113,   0.00111,476964045.71145,   0.00213,276944609.58094,  -0.00190,  -0.00016,   0.00154,   0.00109,   1.00000
-409549101.35224,108939625.28308,-32973482.47113,  -0.00397,   0.00114,   0.00111,476950439.02875,   0.00213,276944635.83346,  -0.00190,  -0.00016,   0.00154,   0.00010,   1.00000
-408373399.62580,110544447.19273,-33319405.88413,  -0.00397,   0.00114,   0.00110,476930674.69219,   0.00213,276944635.83346,  -0.00190,  -0.00016,   0.00154,-13961.14128,   0.00000
-407182372.17853,112155837.26845,-33665329.29712,  -0.00397,   0.00115,   0.00110,476911269.63934,   0.00213,276944635.83346,  -0.00190,  -0.00016,   0.00154,-33366.19412,   0.00000
-405973829.62174,113749712.23465,-34011252.71012,  -0.00397,   0.00115,   0.00110,476868377.64546,   0.00213,276944635.83346,  -0.00190,  -0.00016,   0.00154,-76258.18800,   0.00000
-404756529.51019,115334829.64610,-34352797.34573,  -0.00396,   0.00116,   0.00109,476815310.72970,   0.00213,276944635.83346,  -0.00190,  -0.00016,   0.00154,-129325.10376,   0.00000
-403508577.95698,116933083.38968,-34694341.98135,  -0.00396,   0.00116,   0.00109,476746382.01787,   0.00213,276944635.83346,  -0.00190,  -0.00016,   0.00154,-198253.81559,   0.00000
-402243111.29426,118513822.02374,-35035886.61696,  -0.00396,   0.00117,   0.00108,476653915.48761,   0.00213,276944635.83346,  -0.00190,  -0.00016,   0.00154,-290720.34585,   0.00000
-400962318.91070,120101128.82387,-35373052.47520,  -0.00396,   0.00117,   0.00108,476555188.80007,   0.00213,276944635.83346,  -0.00190,  -0.00016,   0.00154,-389447.03340,   0.00000
-399664011.41763,121670920.51448,-35710218.33343,  -0.00395,   0.00118,   0.00107,476432872.67697,   0.00213,276944635.83346,  -0.00190,  -0.00016,   0.00154,-511763.15649,   0.00000
-398341620.64897,123238522.81641,-36047384.19166,  -0.00395,   0.00118,   0.00107,476290935.11579,   0.00213,276944635.83346,  -0.00190,  -0.00016,   0.00154,-653700.71767,   0.00000
-397010472.32555,124797367.56357,-36384550.04990,  -0.00395,   0.00118,   0.00106,476139755.08809,   0.00213,276944635.83346,  -0.00190,  -0.00016,   0.00154,-804880.74537,   0.00000
-395648672.56047,126369348.64287,-36717337.13076,  -0.00394,   0.00119,   0.00106,475972097.87559,   0.00213,276944635.83346,  -0.00190,  -0.00016,   0.00154,-972537.95787,   0.00000
-394284683.40670,127917246.44659,-37050124.21161,  -0.00394,   0.00119,   0.00106,475791109.24579,   0.00213,276944635.83346,  -0.00190,  -0.00016,   0.00154,-1153526.58768,   0.00000
-392896610.97734,129462954.86161,-37382911.29247,  -0.00394,   0.00120,   0.00105,475590586.51462,   0.00213,276944635.83346,  -0.00190,  -0.00016,   0.00154,-1354049.31884,   0.00000
-391499780.99323,130999905.72188,-37711319.59594,  -0.00393,   0.00120,   0.00105,475379763.02545,   0.00213,276944635.83346,  -0.00190,  -0.00016,   0.00154,-1564872.80801,   0.00000
-390078867.73352,132534667.19345,-38039727.89942,  -0.00393,   0.00121,   0.00104,475149446.66978,   0.00213,276944635.83346,  -0.00190,  -0.00016,   0.00154,-1795189.16369,   0.00000
-388633871.19823,134067239.27634,-38368136.20289,  -0.00393,   0.00121,   0.00104,474899697.11254,   0.00213,276944635.83346,  -0.00190,  -0.00016,   0.00154,-2044938.72093,   0.00000
-387164791.38735,135597621.97054,-38696544.50637,  -0.00392,   0.00121,   0.00103,474630575.78196,   0.00213,276944635.83346,  -0.00190,  -0.00016,   0.00154,-2314060.05150,   0.00000
-385708847.90861,137097353.22307,-39020574.03246,  -0.00392,   0.00122,   0.00103,474356909.27003,   0.00213,276944635.83346,  -0.00190,  -0.00016,   0.00154,-2587726.56343,   0.00000
-384206927.26738,138616788.97382,-39344603.55856,  -0.00392,   0.00122,   0.00103,474058120.05755,   0.00213,276944635.83346,  -0.00190,  -0.00016,   0.00154,-2886515.77591,   0.00000
-382696249.07139,140127467.16981,-39664254.30728,  -0.00391,   0.00123,   0.00102,473749027.85732,   0.00213,276944635.83346,  -0.00190,  -0.00016,   0.00154,-3195607.97614,   0.00000
-381168055.76589,141620630.25628,-39988283.83337,  -0.00391,   0.00123,   0.00102,473417298.45188,   0.00213,276944635.83346,  -0.00190,  -0.00016,   0.00154,-3527337.38159,   0.00000
-379631104.90562,143105035.78799,-40307934.58209,  -0.00390,   0.00123,   0.00101,473075193.49921,   0.00213,276944635.83346,  -0.00190,  -0.00016,   0.00154,-3869442.33425,   0.00000
-378063502.60370,144602577.65184,-40627585.33080,  -0.00390,   0.00124,   0.00101,472718390.29865,   0.00213,276944635.83346,  -0.00190,  -0.00016,   0.00154,-4226245.53482,   0.00000
-376478385.19226,146082604.40617,-40942857.30214,  -0.00390,   0.00124,   0.00101,472336741.66929,   0.00213,276944635.83346,  -0.00190,  -0.00016,   0.00154,-4607894.16418,   0.00000
-374884510.22606,147553873.60574,-41258129.27348,  -0.00389,   0.00124,   0.00100,471945868.67094,   0.00213,276944635.83346,  -0.00190,  -0.00016,   0.00154,-4998767.16252,   0.00000
-373288445.87116,149001059.52972,-41573401.24481,  -0.00389,   0.00125,   0.00100,471541086.84194,   0.00213,276944635.83346,  -0.00190,  -0.00016,   0.00154,-5403548.99152,   0.00000
-371646404.35379,150467949.95191,-41888673.21615,  -0.00388,   0.00125,   0.00099,471111992.24109,   0.00213,276944635.83346,  -0.00190,  -0.00016,   0.00154,-5832643.59237,   0.00000
-369995605.28165,151926082.81934,-42199566.41011,  -0.00388,   0.00126,   0.00099,470672578.07841,   0.00213,276944635.83346,  -0.00190,  -0.00016,   0.00154,-6272057.75505,   0.00000
-368342616.82082,153360132.41118,-42510459.60406,  -0.00387,   0.00126,   0.00099,470219208.02447,   0.00213,276944635.83346,  -0.00190,  -0.00016,   0.00154,-6725427.80900,   0.00000
-366665545.08441,154791992.61434,-42821352.79802,  -0.00387,   0.00126,   0.00098,469746823.34483,   0.00213,276944635.83346,  -0.00190,  -0.00016,   0.00154,-7197812.48864,   0.00000
-364964390.07240,156221663.42880,-43127867.21460,  -0.00386,   0.00126,   0.00098,469254298.91074,   0.00213,276944635.83346,  -0.00190,  -0.00016,   0.00154,-7690336.92272,   0.00000
-363254477.50564,157642576.68850,-43438760.40855,  -0.00386,   0.00127,   0.00097,468753823.40628,   0.00213,276944635.83346,  -0.00190,  -0.00016,   0.00154,-8190812.42718,   0.00000
-361520481.66329,159061300.55952,-43740896.04775,  -0.00385,   0.00127,   0.00097,468232070.61370,   0.00213,276944635.83346,  -0.00190,  -0.00016,   0.00154,-8712565.21977,   0.00000
-359768970.71142,160462509.32101,-44047410.46433,  -0.00385,   0.00127,   0.00097,467687806.24086,   0.00213,276944635.83346,  -0.00190,  -0.00016,   0.00154,-9256829.59261,   0.00000
-358002134.03872,161870286.24858,-44349546.10353,  -0.00384,   0.00128,   0.00096,467138172.47116,   0.00213,276944635.83346,  -0.00190,  -0.00016,   0.00154,-9806463.36231,   0.00000
-356217782.25651,163260548.06663,-44651681.74272,  -0.00384,   0.00128,   0.00096,466564832.96579,   0.00213,276944635.83346,  -0.00190,  -0.00016,   0.00154,-10379802.86768,   0.00000
-354424672.91953,164642052.32991,-44953817.38192,  -0.00383,   0.00128,   0.00095,465982399.67511,   0.00213,276944635.83346,  -0.00190,  -0.00016,   0.00154,-10962236.15836,   0.00000
-352614048.47303,166006041.48368,-45255953.02112,  -0.00383,   0.00129,   0.00095,465376234.02976,   0.00213,276944635.83346,  -0.00190,  -0.00016,   0.00154,-11568401.80371,   0.00000
-350788098.30571,167376598.80352,-45553709.88294,  -0.00382,   0.00129,   0.00095,464764839.44833,   0.00213,276944635.83346,  -0.00190,  -0.00016,   0.00154,-12179796.38514,   0.00000
-348944633.02887,168729641.01384,-45851466.74475,  -0.00381,   0.00129,   0.00094,464129747.32171,   0.00213,276944635.83346,  -0.00190,  -0.00016,   0.00154,-12814888.51176,   0.00000
-347077084.47644,170080493.83547,-46144844.82919,  -0.00381,   0.00129,   0.00094,463474874.17511,   0.00213,276944635.83346,  -0.00190,  -0.00016,   0.00154,-13469761.65835,   0.00000
-345200778.36925,171422589.10234,-46442601.69101,  -0.00380,   0.00130,   0.00093,462812314.42667,   0.00213,276944635.83346,  -0.00190,  -0.00016,   0.00154,-14132321.40679,   0.00000
-343315714.70730,172755926.81445,-46735979.77545,  -0.00380,   0.00130,   0.00093,462139448.77649,   0.00213,276944635.83346,  -0.00190,  -0.00016,   0.00154,-14805187.05697,   0.00000
-341397810.21500,174078317.58311,-47024979.08251,  -0.00379,   0.00130,   0.00093,461432257.08015,   0.00213,276944635.83346,  -0.00190,  -0.00016,   0.00154,-15512378.75332,   0.00000
-339471148.16794,175391950.79701,-47318357.16695,  -0.00378,   0.00130,   0.00092,460717467.14690,   0.00213,276944635.83346,  -0.00190,  -0.00016,   0.00154,-16227168.68656,   0.00000
-337535728.56613,176696826.45616,-47607356.47400,  -0.00378,   0.00130,   0.00092,459992401.85341,   0.00213,276944635.83346,  -0.00190,  -0.00016,   0.00154,-16952233.98005,   0.00000
-335576225.68872,177999512.72661,-47896355.78106,  -0.00377,   0.00131,   0.00092,459249188.48588,   0.00213,276944635.83346,  -0.00190,  -0.00016,   0.00154,-17695447.34758,   0.00000
-333599207.70180,179284683.88754,-48180976.31074,  -0.00377,   0.00131,   0.00091,458481054.33992,   0.00213,276944635.83346,  -0.00190,  -0.00016,   0.00154,-18463581.49354,   0.00000
-331606863.99405,180576423.21455,-48469975.61780,  -0.00376,   0.00131,   0.00091,457710993.85041,   0.00213,276944635.83346,  -0.00190,  -0.00016,   0.00154,-19233641.98305,   0.00000
-329618899.06368,181828753.54513,-48754596.14748,  -0.00375,   0.00131,   0.00090,456919620.64887,   0.00213,276944635.83346,  -0.00190,  -0.00016,   0.00154,-20025015.18460,   0.00000
-327600282.69165,183094220.20786,-49034837.89978,  -0.00375,   0.00131,   0.00090,456114462.58154,   0.00213,276944635.83346,  -0.00190,  -0.00016,   0.00154,-20830173.25193,   0.00000
-325564151.21010,184342171.76107,-49319458.42946,  -0.00374,   0.00132,   0.00090,455287252.69184,   0.00213,276944635.83346,  -0.00190,  -0.00016,   0.00154,-21657383.14163,   0.00000
-323512694.00772,185596691.48034,-49599700.18176,  -0.00373,   0.00132,   0.00089,454455577.04430,   0.00213,276944635.83346,  -0.00190,  -0.00016,   0.00154,-22489058.78916,   0.00000
-321450289.86189,186818370.36927,-49879941.93405,  -0.00372,   0.00132,   0.00089,453594794.37984,   0.00213,276944635.83346,  -0.00190,  -0.00016,   0.00154,-23349841.45362,   0.00000
-319357234.27441,188053185.59034,-50160183.68635,  -0.00372,   0.00132,   0.00089,452722123.40800,   0.00213,276944635.83346,  -0.00190,  -0.00016,   0.00154,-24222512.42547,   0.00000
-317261989.29824,189263917.53582,-50436046.66127,  -0.00371,   0.00132,   0.00088,451833632.79279,   0.00213,276944635.83346,  -0.00190,  -0.00016,   0.00154,-25111003.04068,   0.00000
-315157986.76730,190465891.92654,-50711909.63619,  -0.00370,   0.00132,   0.00088,450936528.78742,   0.00213,276944635.83346,  -0.00190,  -0.00016,   0.00154,-26008107.04604,   0.00000
-313029900.96078,191665676.92857,-50987772.61111,  -0.00370,   0.00132,   0.00087,450021996.50913,   0.00213,276944635.83346,  -0.00190,  -0.00016,   0.00154,-26922639.32433,   0.00000
-310899625.76557,192841378.65501,-51259256.80865,  -0.00369,   0.00133,   0.00087,449091551.13899,   0.00213,276944635.83346,  -0.00190,  -0.00016,   0.00154,-27853084.69447,   0.00000
-308745267.29477,194014890.99277,-51535119.78357,  -0.00368,   0.00133,   0.00087,448145292.39511,   0.00213,276944635.83346,  -0.00190,  -0.00016,   0.00154,-28799343.43835,   0.00000
-306566825.54838,195186213.94183,-51802225.20373,  -0.00367,   0.00133,   0.00086,447178830.27586,   0.00213,276944635.83346,  -0.00190,  -0.00016,   0.00154,-29765805.55760,   0.00000
-304386194.41330,196333453.61530,-52073709.40127,  -0.00367,   0.00133,   0.00086,446199492.12469,   0.00213,276944635.83346,  -0.00190,  -0.00016,   0.00154,-30745143.70877,   0.00000
-302190237.55740,197487261.45485,-52345193.59881,  -0.00366,   0.00133,   0.00086,445217855.03754,   0.00213,276944635.83346,  -0.00190,  -0.00016,   0.00154,-31726780.79593,   0.00000
-299983333.75804,198608228.46404,-52612299.01897,  -0.00365,   0.00133,   0.00085,444205526.14395,   0.00213,276944635.83346,  -0.00190,  -0.00016,   0.00154,-32739109.68951,   0.00000
-297745778.51703,199742331.80538,-52879404.43913,  -0.00364,   0.00133,   0.00085,443182443.32044,   0.00213,276944635.83346,  -0.00190,  -0.00016,   0.00154,-33762192.51303,   0.00000
-295506033.88733,200852351.87113,-53142131.08191,  -0.00363,   0.00133,   0.00085,442143442.22451,   0.00213,276944635.83346,  -0.00190,  -0.00016,   0.00154,-34801193.60895,   0.00000
-293257531.70286,201953614.38212,-53409236.50207,  -0.00363,   0.00133,   0.00084,441097835.36743,   0.00213,276944635.83346,  -0.00190,  -0.00016,   0.00154,-35846800.46604,   0.00000
-290991514.40888,203037361.78358,-53671963.14485,  -0.00362,   0.00133,   0.00084,440027749.13461,   0.00213,276944635.83346,  -0.00190,  -0.00016,   0.00154,-36916886.69886,   0.00000
-288710171.39407,204127677.35112,-53930311.01025,  -0.00361,   0.00133,   0.00084,438954261.60189,   0.00213,276944635.83346,  -0.00190,  -0.00016,   0.00154,-37990374.23157,   0.00000
-286417881.43581,205185152.08831,-54193037.65303,  -0.00360,   0.00133,   0.00083,437853288.21090,   0.00213,276944635.83346,  -0.00190,  -0.00016,   0.00154,-39091347.62257,   0.00000
-284094940.03590,206255763.15764,-54451385.51843,  -0.00359,   0.00133,   0.00083,436740716.68520,   0.00213,276944635.83346,  -0.00190,  -0.00016,   0.00154,-40203919.14826,   0.00000
-281769809.24729,207302290.95139,-54709733.38384,  -0.00358,   0.00134,   0.00083,435613885.21905,   0.00213,276944635.83346,  -0.00190,  -0.00016,   0.00154,-41330750.61441,   0.00000
-279435920.90392,208340061.19037,-54968081.24924,  -0.00358,   0.00134,   0.00082,434479207.46200,   0.00213,276944635.83346,  -0.00190,  -0.00016,   0.00154,-42465428.37146,   0.00000
-277093275.00580,209369073.87459,-55222050.33726,  -0.00357,   0.00134,   0.00082,433335065.55982,   0.00213,276944635.83346,  -0.00190,  -0.00016,   0.00154,-43609570.27364,   0.00000
-274717788.27732,210387139.61537,-55476019.42528,  -0.00356,   0.00134,   0.00082,432160233.68939,   0.00213,276944635.83346,  -0.00190,  -0.00016,   0.00154,-44784402.14407,   0.00000
-272348869.71492,211389879.63531,-55729988.51330,  -0.00355,   0.00134,   0.00081,430985936.77074,   0.00213,276944635.83346,  -0.00190,  -0.00016,   0.00154,-45958699.06272,   0.00000
-269962436.04300,212375104.54574,-55983957.60132,  -0.00354,   0.00134,   0.00081,429789265.81437,   0.00213,276944635.83346,  -0.00190,  -0.00016,   0.00154,-47155370.01909,   0.00000
-267551919.09549,213358140.06748,-56233547.91196,  -0.00353,   0.00133,   0.00081,428575245.32657,   0.00213,276944635.83346,  -0.00190,  -0.00016,   0.00154,-48369390.50690,   0.00000
-265132644.59322,214332418.03445,-56487516.99998,  -0.00352,   0.00133,   0.00080,427355524.35354,   0.00213,276944635.83346,  -0.00190,  -0.00016,   0.00154,-49589111.47992,   0.00000
-262711180.70226,215282612.72584,-56732728.53324,  -0.00351,   0.00133,   0.00080,426118205.01170,   0.00213,276944635.83346,  -0.00190,  -0.00016,   0.00154,-50826430.82176,   0.00000
-260280959.25654,216224049.86247,-56982318.84389,  -0.00350,   0.00133,   0.00080,424875245.90808,   0.00213,276944635.83346,  -0.00190,  -0.00016,   0.00154,-52069389.92539,   0.00000
-257811328.81440,217169865.77648,-57231909.15453,  -0.00349,   0.00133,   0.00079,423609204.12229,   0.00213,276944635.83346,  -0.00190,  -0.00016,   0.00154,-53335431.71117,   0.00000
-255354834.70441,218085030.24883,-57477120.68779,  -0.00349,   0.00133,   0.00079,422335289.88698,   0.00213,276944635.83346,  -0.00190,  -0.00016,   0.00154,-54609345.94648,   0.00000
-252874257.31882,218998005.33250,-57717953.44367,  -0.00348,   0.00133,   0.00079,421044606.61086,   0.00213,276944635.83346,  -0.00190,  -0.00016,   0.00154,-55900029.22261,   0.00000
-250384922.37848,219902222.86140,-57963164.97693,  -0.00347,   0.00133,   0.00078,419748714.65949,   0.00213,276944635.83346,  -0.00190,  -0.00016,   0.00154,-57195921.17397,   0.00000
-247878072.32861,220788925.28078,-58203997.73282,  -0.00346,   0.00133,   0.00078,418429369.80373,   0.00213,276944635.83346,  -0.00190,  -0.00016,   0.00154,-58515266.02974,   0.00000
-245362464.72399,221666870.14541,-58449209.26608,  -0.00345,   0.00133,   0.00078,417105023.00201,   0.00213,276944635.83346,  -0.00190,  -0.00016,   0.00154,-59839612.83145,   0.00000
-242844667.73068,222520731.73444,-58685663.24458,  -0.00344,   0.00133,   0.00077,415763157.42194,   0.00213,276944635.83346,  -0.00190,  -0.00016,   0.00154,-61181478.41152,   0.00000
-240302787.46178,223372403.93479,-58926496.00046,  -0.00343,   0.00133,   0.00077,414408816.99326,   0.00213,276944635.83346,  -0.00190,  -0.00016,   0.00154,-62535818.84021,   0.00000
-237752149.63812,224215318.58038,-59162949.97896,  -0.00342,   0.00133,   0.00077,413046040.61601,   0.00213,276944635.83346,  -0.00190,  -0.00016,   0.00154,-63898595.21745,   0.00000
-235199322.42577,225034149.95038,-59399403.95747,  -0.00341,   0.00133,   0.00077,411669572.68654,   0.00213,276944635.83346,  -0.00190,  -0.00016,   0.00154,-65275063.14692,   0.00000
-232622411.93783,225850791.93169,-59635857.93597,  -0.00340,   0.00132,   0.00076,410279209.03263,   0.00213,276944635.83346,  -0.00190,  -0.00016,   0.00154,-66665426.80084,   0.00000
-230036743.89513,226658676.35824,-59872311.91447,  -0.00339,   0.00132,   0.00076,408882579.96315,   0.00213,276944635.83346,  -0.00190,  -0.00016,   0.00154,-68062055.87031,   0.00000
-227433560.74291,227449045.67527,-60104387.11559,  -0.00338,   0.00132,   0.00076,407463190.15086,   0.00213,276944635.83346,  -0.00190,  -0.00016,   0.00154,-69481445.68260,   0.00000
-224836945.75677,228224089.27147,-60340841.09410,  -0.00337,   0.00132,   0.00075,406046974.61349,   0.00213,276944635.83346,  -0.00190,  -0.00016,   0.00154,-70897661.21997,   0.00000
-222222815.66110,228981617.75815,-60568537.51784,  -0.00336,   0.00132,   0.00075,404606159.26539,   0.00213,276944635.83346,  -0.00190,  -0.00016,   0.00154,-72338476.56807,   0.00000
-219578034.12378,229752282.57698,-60800612.71896,  -0.00335,   0.00132,   0.00075,403161658.00297,   0.00213,276944635.83346,  -0.00190,  -0.00016,   0.00154,-73782977.83050,   0.00000
-216952957.08467,230476970.23331,-61028309.14270,  -0.00333,   0.00131,   0.00074,401701684.31087,   0.00213,276944635.83346,  -0.00190,  -0.00016,   0.00154,-75242951.52259,   0.00000
-214297228.60389,231214794.22179,-61260384.34383,  -0.00332,   0.00131,   0.00074,400238400.12940,   0.00213,276944635.83346,  -0.00190,  -0.00016,   0.00154,-76706235.70407,   0.00000
-211639310.73443,231928534.93467,-61488080.76757,  -0.00331,   0.00131,   0.00074,398760066.54096,   0.00213,276944635.83346,  -0.00190,  -0.00016,   0.00154,-78184569.29251,   0.00000
-208963877.75545,232624760.53804,-61711398.41393,  -0.00330,   0.00131,   0.00074,397259667.63384,   0.00213,276944635.83346,  -0.00190,  -0.00016,   0.00154,-79684968.19963,   0.00000
-206295012.94254,233305660.42058,-61939094.83768,  -0.00329,   0.00131,   0.00073,395762949.49529,   0.00213,276944635.83346,  -0.00190,  -0.00016,   0.00154,-81181686.33818,   0.00000
-203602064.85404,233984370.91443,-62162412.48404,  -0.00328,   0.00130,   0.00073,394252056.79148,   0.00213,276944635.83346,  -0.00190,  -0.00016,   0.00154,-82692579.04199,   0.00000
-200900359.21078,234654323.85352,-62385730.13040,  -0.00327,   0.00130,   0.00073,392736148.01597,   0.00213,276944635.83346,  -0.00190,  -0.00016,   0.00154,-84208487.81750,   0.00000
-198181138.45800,235306761.68309,-62609047.77677,  -0.00326,   0.00130,   0.00072,391200813.19197,   0.00213,276944635.83346,  -0.00190,  -0.00016,   0.00154,-85743822.64150,   0.00000
-195475054.03736,235928548.07101,-62827986.64575,  -0.00325,   0.00130,   0.00072,389657529.05188,   0.00213,276944635.83346,  -0.00190,  -0.00016,   0.00154,-87287106.78159,   0.00000
-192738318.17507,236563470.79106,-63051304.29211,  -0.00324,   0.00129,   0.00072,388112846.25274,   0.00213,276944635.83346,  -0.00190,  -0.00016,   0.00154,-88831789.58073,   0.00000
-190005961.09015,237158984.51469,-63270243.16110,  -0.00323,   0.00129,   0.00072,386545781.21964,   0.00213,276944635.83346,  -0.00190,  -0.00016,   0.00154,-90398854.61382,   0.00000
-187242952.56358,237767634.57047,-63489182.03008,  -0.00321,   0.00129,   0.00071,384975731.65011,   0.00213,276944635.83346,  -0.00190,  -0.00016,   0.00154,-91968904.18335,   0.00000
-184493080.36914,238345633.18459,-63703742.12169,  -0.00320,   0.00129,   0.00071,383397910.66454,   0.00213,276944635.83346,  -0.00190,  -0.00016,   0.00154,-93546725.16893,   0.00000
-181719124.89912,238921442.41001,-63922680.99067,  -0.00319,   0.00128,   0.00071,381811758.41882,   0.00213,276944635.83346,  -0.00190,  -0.00016,   0.00154,-95132877.41465,   0.00000
-178958305.76123,239466600.19378,-64137241.08227,  -0.00318,   0.00128,   0.00070,380217861.16294,   0.00213,276944635.83346,  -0.00190,  -0.00016,   0.00154,-96726774.67053,   0.00000
-176173403.34776,240009568.58886,-64351801.17388,  -0.00317,   0.00128,   0.00070,378613822.43473,   0.00213,276944635.83346,  -0.00190,  -0.00016,   0.00154,-98330813.39873,   0.00000
-173364417.65870,240550347.59525,-64566361.26548,  -0.00316,   0.00128,   0.00070,377000009.26788,   0.00213,276944635.83346,  -0.00190,  -0.00016,   0.00154,-99944626.56559,   0.00000
-170568568.30178,241060475.15998,-64776542.57971,  -0.00314,   0.00127,   0.00070,375378649.77220,   0.00213,276944635.83346,  -0.00190,  -0.00016,   0.00154,-101565986.06126,   0.00000
-167763961.39010,241561845.16996,-64991102.67131,  -0.00313,   0.00127,   0.00069,373756303.12936,   0.00213,276944635.83346,  -0.00190,  -0.00016,   0.00154,-103188332.70411,   0.00000
-164935271.20283,242061025.79124,-65201283.98553,  -0.00312,   0.00127,   0.00069,372122570.03635,   0.00213,276944635.83346,  -0.00190,  -0.00016,   0.00154,-104822065.79712,   0.00000
-162119717.34770,242529554.97086,-65411465.29976,  -0.00311,   0.00126,   0.00069,370483724.42739,   0.00213,276944635.83346,  -0.00190,  -0.00016,   0.00154,-106460911.40608,   0.00000
-159280080.21698,242995894.76180,-65617267.83660,  -0.00310,   0.00126,   0.00068,368833881.23936,   0.00213,276944635.83346,  -0.00190,  -0.00016,   0.00154,-108110754.59410,   0.00000
-156431685.53150,243453476.99797,-65827449.15083,  -0.00308,   0.00126,   0.00068,367183965.66441,   0.00213,276944635.83346,  -0.00190,  -0.00016,   0.00154,-109760670.16905,   0.00000
-153581101.45733,243886975.95856,-66033251.68767,  -0.00307,   0.00125,   0.00068,365521016.01853,   0.00213,276944635.83346,  -0.00190,  -0.00016,   0.00154,-111423619.81494,   0.00000
-150721759.82841,244311717.36439,-66239054.22452,  -0.00306,   0.00125,   0.00068,363856005.89910,   0.00213,276944635.83346,  -0.00190,  -0.00016,   0.00154,-113088629.93436,   0.00000
-147860228.81079,244712375.49463,-66444856.76136,  -0.00305,   0.00124,   0.00067,362180588.64023,   0.00213,276944635.83346,  -0.00190,  -0.00016,   0.00154,-114764047.19323,   0.00000
-144974614.51759,245110844.23618,-66650659.29821,  -0.00304,   0.00124,   0.00067,360497914.18061,   0.00213,276944635.83346,  -0.00190,  -0.00016,   0.00154,-116446721.65285,   0.00000
-142095568.39045,245493987.25690,-66852083.05767,  -0.00302,   0.00124,   0.00067,358817027.21395,   0.00213,276944635.83346,  -0.00190,  -0.00016,   0.00154,-118127608.61952,   0.00000
-139214332.87462,245853047.00204,-67053506.81714,  -0.00301,   0.00123,   0.00067,357126220.61523,   0.00213,276944635.83346,  -0.00190,  -0.00016,   0.00154,-119818415.21823,   0.00000
-136324339.80404,246203349.19241,-67254930.57660,  -0.00300,   0.00123,   0.00066,355434383.35839,   0.00213,276944635.83346,  -0.00190,  -0.00016,   0.00154,-121510252.47508,   0.00000
-133410263.45787,246551461.99409,-67456354.33607,  -0.00299,   0.00122,   0.00066,353736478.93427,   0.00213,276944635.83346,  -0.00190,  -0.00016,   0.00154,-123208156.89919,   0.00000
-130509323.44383,246868923.35412,-67657778.09553,  -0.00297,   0.00122,   0.00066,352034614.49198,   0.00213,276944635.83346,  -0.00190,  -0.00016,   0.00154,-124910021.34149,   0.00000
-127584300.15421,247184195.32546,-67854823.07762,  -0.00296,   0.00122,   0.00066,350324754.59065,   0.00213,276944635.83346,  -0.00190,  -0.00016,   0.00154,-126619881.24282,   0.00000
-124665845.03066,247484141.57596,-68056246.83708,  -0.00295,   0.00121,   0.00065,348622648.56246,   0.00213,276944635.83346,  -0.00190,  -0.00016,   0.00154,-128321987.27101,   0.00000
-121745200.51842,247760004.55088,-68253291.81917,  -0.00294,   0.00121,   0.00065,346909268.64423,   0.00213,276944635.83346,  -0.00190,  -0.00016,   0.00154,-130035367.18924,   0.00000
-118800472.73058,248033678.13711,-68450336.80125,  -0.00292,   0.00120,   0.00065,345191427.83627,   0.00213,276944635.83346,  -0.00190,  -0.00016,   0.00154,-131753207.99719,   0.00000
-115862313.10882,248292026.00251,-68643003.00596,  -0.00291,   0.00120,   0.00065,343476752.95355,   0.00213,276944635.83346,  -0.00190,  -0.00016,   0.00154,-133467882.87991,   0.00000
-112921964.09837,248526290.59233,-68840047.98804,  -0.00290,   0.00119,   0.00064,341756668.66379,   0.00213,276944635.83346,  -0.00190,  -0.00016,   0.00154,-135187967.16967,   0.00000
-109972857.53316,248751797.62738,-69032714.19275,  -0.00288,   0.00119,   0.00064,340035261.56108,   0.00213,276944635.83346,  -0.00190,  -0.00016,   0.00154,-136909374.27239,   0.00000
-107014993.41319,248968547.10767,-69225380.39745,  -0.00287,   0.00118,   0.00064,338315494.12711,   0.00213,276944635.83346,  -0.00190,  -0.00016,   0.00154,-138629141.70636,   0.00000
-104048371.73846,249176539.03321,-69418046.60216,  -0.00286,   0.00118,   0.00064,336597712.42539,   0.00213,276944635.83346,  -0.00190,  -0.00016,   0.00154,-140346923.40808,   0.00000
-101079560.67504,249360447.68316,-69610712.80687,  -0.00284,   0.00117,   0.00063,334872974.37833,   0.00213,276944635.83346,  -0.00190,  -0.00016,   0.00154,-142071661.45514,   0.00000
-98101992.05687,249535598.77834,-69803379.01157,  -0.00283,   0.00117,   0.00063,333150852.31280,   0.00213,276944635.83346,  -0.00190,  -0.00016,   0.00154,-143793783.52066,   0.00000
-95122234.05000,249686666.59794,-69991666.43890,  -0.00282,   0.00116,   0.00063,331419559.68142,   0.00213,276944635.83346,  -0.00190,  -0.00016,   0.00154,-145525076.15204,   0.00000
