# sigma_xx, sigma_yy, sigma_xy, epsilon_xx, epsilon_yy, epsilon_xy, vonMises, epsPlastic, hardening, epsilonP__xx, epsilonP__yy, epsilonP__xy, yieldValue, iteration
   0.00000,   0.00000,   0.00000,   0.00000,   0.00000,   0.00000,   0.00000,   0.00000,274640135.82653,   0.00000,   0.00000,   0.00000,-474640135.82653,   0.00000
   0.00000,   0.00000,   0.00000,   0.00000,   0.00000,   0.00000,   0.00000,   0.00000,274640135.82653,   0.00000,   0.00000,   0.00000,-474640135.82653,   0.00000
410199.95263,1733425.60627,-95272.24706,  -0.00000,   0.00001,  -0.00000,1577722.29344,   0.00000,274640135.82653,   0.00000,   0.00000,   0.00000,-473062413.53309,   0.00000
820399.90526,3466851.21254,-185251.59151,  -0.00000,   0.00001,  -0.00000,3154498.91181,   0.00000,274640135.82653,   0.00000,   0.00000,   0.00000,-471485636.91472,   0.00000
1230599.85789,5200276.81881,-280523.83857,  -0.00000,   0.00002,  -0.00000,4732216.81248,   0.00000,274640135.82653,   0.00000,   0.00000,   0.00000,-469907919.01405,   0.00000
1643446.26182,6904591.46070,-370503.18302,  -0.00001,   0.00003,  -0.00000,6280031.18265,   0.00000,274640135.82653,   0.00000,   0.00000,   0.00000,-468360104.64388,   0.00000
2064232.01968,8627431.26174,-465775.43008,  -0.00001,   0.00004,  -0.00001,7844453.09775,   0.00000,274640135.82653,   0.00000,   0.00000,   0.00000,-466795682.72878,   0.00000
2469139.06969,10313220.74447,-555754.77453,  -0.00001,   0.00004,  -0.00001,9376618.99105,   0.00000,274640135.82653,   0.00000,   0.00000,   0.00000,-465263516.83547,   0.00000
2874046.11971,11999010.22721,-645734.11898,  -0.00001,   0.00005,  -0.00001,10908785.28546,   0.00000,274640135.82653,   0.00000,   0.00000,   0.00000,-463731350.54107,   0.00000
3297478.32887,13692739.06387,-741006.36604,  -0.00001,   0.00006,  -0.00001,12444284.92836,   0.00000,274640135.82653,   0.00000,   0.00000,   0.00000,-462195850.89817,   0.00000
3694446.02496,15360003.38746,-830985.71049,  -0.00001,   0.00006,  -0.00001,13960785.93020,   0.00000,274640135.82653,   0.00000,   0.00000,   0.00000,-460679349.89633,   0.00000
4128464.03936,17043146.41889,-920965.05493,  -0.00001,   0.00007,  -0.00001,15482104.76548,   0.00000,274640135.82653,   0.00000,   0.00000,   0.00000,-459158031.06105,   0.00000
4528078.18676,18681299.77810,-1016237.30200,  -0.00002,   0.00008,  -0.00001,16970629.98833,   0.00000,274640135.82653,   0.00000,   0.00000,   0.00000,-457669505.83820,   0.00000
4954156.84723,20345917.65037,-1106216.64644,  -0.00002,   0.00008,  -0.00001,18476317.64364,   0.00000,274640135.82653,   0.00000,   0.00000,   0.00000,-456163818.18289,   0.00000
5353770.99463,21984071.00958,-1196195.99089,  -0.00002,   0.00009,  -0.00002,19963897.78696,   0.00000,274640135.82653,   0.00000,   0.00000,   0.00000,-454676238.03957,   0.00000
5782496.10641,23619577.91748,-1286175.33534,  -0.00002,   0.00010,  -0.00002,21440717.00894,   0.00000,274640135.82653,   0.00000,   0.00000,   0.00000,-453199418.81759,   0.00000
6192696.05904,25247145.47146,-1376154.67979,  -0.00002,   0.00010,  -0.00002,22915089.91433,   0.00000,274640135.82653,   0.00000,   0.00000,   0.00000,-451725045.91220,   0.00000
6613481.81689,26864127.22021,-1471426.92685,  -0.00002,   0.00011,  -0.00002,24377230.10827,   0.00000,274640135.82653,   0.00000,   0.00000,   0.00000,-450262905.71826,   0.00000
7034267.57475,28481108.96896,-1561406.27130,  -0.00002,   0.00012,  -0.00002,25838434.85456,   0.00000,274640135.82653,   0.00000,   0.00000,   0.00000,-448801700.97197,   0.00000
7447113.97869,30079565.55855,-1651385.61574,  -0.00002,   0.00012,  -0.00002,27283970.40415,   0.00000,274640135.82653,   0.00000,   0.00000,   0.00000,-447356165.42238,   0.00000
7870546.18785,31667436.34292,-1741364.96019,  -0.00003,   0.00013,  -0.00002,28716355.22162,   0.00000,274640135.82653,   0.00000,   0.00000,   0.00000,-445923780.60491,   0.00000
8275453.23787,33247367.77337,-1831344.30464,  -0.00003,   0.00014,  -0.00002,30146227.27217,   0.00000,274640135.82653,   0.00000,   0.00000,   0.00000,-444493908.55436,   0.00000
8709471.25226,34824652.75251,-1916030.74647,  -0.00003,   0.00014,  -0.00002,31564545.58952,   0.00000,274640135.82653,   0.00000,   0.00000,   0.00000,-443075590.23701,   0.00000
9124964.10750,36393998.37773,-2006010.09092,  -0.00003,   0.00015,  -0.00003,32981303.61903,   0.00000,274640135.82653,   0.00000,   0.00000,   0.00000,-441658832.20750,   0.00000
9551042.76798,37952758.19771,-2095989.43537,  -0.00003,   0.00015,  -0.00003,34384958.50223,   0.00000,274640135.82653,   0.00000,   0.00000,   0.00000,-440255177.32430,   0.00000
9977121.42845,39511518.01770,-2185968.77981,  -0.00003,   0.00016,  -0.00003,35788645.87401,   0.00000,274640135.82653,   0.00000,   0.00000,   0.00000,-438851489.95252,   0.00000
10395260.73500,41051752.67854,-2270655.22165,  -0.00003,   0.00017,  -0.00003,37175688.24398,   0.00000,274640135.82653,   0.00000,   0.00000,   0.00000,-437464447.58255,   0.00000
10831925.20070,42599926.69330,-2360634.56609,  -0.00003,   0.00017,  -0.00003,38566344.45984,   0.00000,274640135.82653,   0.00000,   0.00000,   0.00000,-436073791.36669,   0.00000
11260650.31248,44129575.54891,-2450613.91054,  -0.00003,   0.00018,  -0.00003,39941338.11614,   0.00000,274640135.82653,   0.00000,   0.00000,   0.00000,-434698797.71039,   0.00000
11681436.07034,45640699.24536,-2535300.35237,  -0.00004,   0.00018,  -0.00003,41299681.71138,   0.00000,274640135.82653,   0.00000,   0.00000,   0.00000,-433340454.11515,   0.00000
12102221.82820,47151822.94182,-2625279.69682,  -0.00004,   0.00019,  -0.00003,42659027.64398,   0.00000,274640135.82653,   0.00000,   0.00000,   0.00000,-431981108.18255,   0.00000
12533593.39128,48652360.83305,-2709966.13866,  -0.00004,   0.00020,  -0.00004,44004386.36247,   0.00000,274640135.82653,   0.00000,   0.00000,   0.00000,-430635749.46406,   0.00000
12964964.95437,50152898.72428,-2794652.58049,  -0.00004,   0.00020,  -0.00004,45349787.66800,   0.00000,274640135.82653,   0.00000,   0.00000,   0.00000,-429290348.15853,   0.00000
13406922.32268,51642850.81028,-2884631.92494,  -0.00004,   0.00021,  -0.00004,46683200.62582,   0.00000,274640135.82653,   0.00000,   0.00000,   0.00000,-427956935.20071,   0.00000
13848879.69100,53132802.89628,-2969318.36677,  -0.00004,   0.00021,  -0.00004,48015695.05947,   0.00000,274640135.82653,   0.00000,   0.00000,   0.00000,-426624440.76706,   0.00000
14282897.70539,54604229.82312,-3054004.80860,  -0.00004,   0.00022,  -0.00004,49332517.55898,   0.00000,274640135.82653,   0.00000,   0.00000,   0.00000,-425307618.26755,   0.00000
14708976.36587,56057131.59082,-3138691.25044,  -0.00004,   0.00023,  -0.00004,50633655.92678,   0.00000,274640135.82653,   0.00000,   0.00000,   0.00000,-424006479.89975,   0.00000
15153580.18549,57517972.71244,-3223377.69227,  -0.00004,   0.00023,  -0.00004,51937611.19866,   0.00000,274640135.82653,   0.00000,   0.00000,   0.00000,-422702524.62787,   0.00000
15590244.65119,58960288.67491,-3308064.13410,  -0.00004,   0.00024,  -0.00004,53225895.09545,   0.00000,274640135.82653,   0.00000,   0.00000,   0.00000,-421414240.73108,   0.00000
16045434.27604,60410543.99130,-3392750.57593,  -0.00004,   0.00024,  -0.00004,54517049.10072,   0.00000,274640135.82653,   0.00000,   0.00000,   0.00000,-420123086.72581,   0.00000
16492684.54697,61842274.14854,-3477437.01777,  -0.00005,   0.00025,  -0.00005,55792545.20872,   0.00000,274640135.82653,   0.00000,   0.00000,   0.00000,-418847590.61781,   0.00000
16939934.81790,63274004.30578,-3562123.45960,  -0.00005,   0.00025,  -0.00005,57068114.34189,   0.00000,274640135.82653,   0.00000,   0.00000,   0.00000,-417572021.48464,   0.00000
17379245.73491,64687209.30386,-3646809.90143,  -0.00005,   0.00026,  -0.00005,58328003.48726,   0.00000,274640135.82653,   0.00000,   0.00000,   0.00000,-416312132.33926,   0.00000
17829142.45715,66089828.49672,-3726203.44065,  -0.00005,   0.00027,  -0.00005,59574093.03120,   0.00000,274640135.82653,   0.00000,   0.00000,   0.00000,-415066042.79533,   0.00000
18279039.17939,67492447.68958,-3810889.88248,  -0.00005,   0.00027,  -0.00005,60821257.12209,   0.00000,274640135.82653,   0.00000,   0.00000,   0.00000,-413818878.70444,   0.00000
18739521.70686,68884481.07721,-3895576.32432,  -0.00005,   0.00028,  -0.00005,62055666.32760,   0.00000,274640135.82653,   0.00000,   0.00000,   0.00000,-412584469.49893,   0.00000
19200004.23432,70276514.46484,-3974969.86354,  -0.00005,   0.00028,  -0.00005,63289180.97807,   0.00000,274640135.82653,   0.00000,   0.00000,   0.00000,-411350954.84846,   0.00000
19652547.40787,71650022.69332,-4054363.40275,  -0.00005,   0.00029,  -0.00005,64507026.68409,   0.00000,274640135.82653,   0.00000,   0.00000,   0.00000,-410133109.14244,   0.00000
20123615.74056,73031470.27572,-4139049.84459,  -0.00005,   0.00029,  -0.00005,65728939.72337,   0.00000,274640135.82653,   0.00000,   0.00000,   0.00000,-408911196.10316,   0.00000
20586744.71934,74394392.69897,-4218443.38381,  -0.00005,   0.00030,  -0.00005,66934200.12140,   0.00000,274640135.82653,   0.00000,   0.00000,   0.00000,-407705935.70513,   0.00000
21041934.34419,75738789.96307,-4297836.92302,  -0.00005,   0.00030,  -0.00006,68123790.75591,   0.00000,274640135.82653,   0.00000,   0.00000,   0.00000,-406516345.07062,   0.00000
21515649.12819,77091126.58109,-4377230.46224,  -0.00005,   0.00031,  -0.00006,69316518.69570,   0.00000,274640135.82653,   0.00000,   0.00000,   0.00000,-405323617.13082,   0.00000
21981424.55827,78424938.03996,-4456624.00146,  -0.00005,   0.00031,  -0.00006,70493592.37293,   0.00000,274640135.82653,   0.00000,   0.00000,   0.00000,-404146543.45360,   0.00000
22447199.98836,79758749.49883,-4536017.54068,  -0.00005,   0.00032,  -0.00006,71670779.77461,   0.00000,274640135.82653,   0.00000,   0.00000,   0.00000,-402969356.05192,   0.00000
22923561.22367,81081975.15247,-4615411.07990,  -0.00005,   0.00032,  -0.00006,72835395.17684,   0.00000,274640135.82653,   0.00000,   0.00000,   0.00000,-401804740.64969,   0.00000
23399922.45898,82405200.80611,-4694804.61912,  -0.00005,   0.00033,  -0.00006,74000146.98051,   0.00000,274640135.82653,   0.00000,   0.00000,   0.00000,-400639988.84602,   0.00000
23886869.49952,83717840.65452,-4774198.15833,  -0.00005,   0.00033,  -0.00006,75152386.17643,   0.00000,274640135.82653,   0.00000,   0.00000,   0.00000,-399487749.65010,   0.00000
24365877.18613,85011955.34378,-4853591.69755,  -0.00005,   0.00034,  -0.00006,76288988.17171,   0.00000,274640135.82653,   0.00000,   0.00000,   0.00000,-398351147.65482,   0.00000
24844884.87275,86306070.03304,-4927692.33416,  -0.00006,   0.00034,  -0.00006,77424725.44555,   0.00000,274640135.82653,   0.00000,   0.00000,   0.00000,-397215410.38098,   0.00000
25342417.71852,87608124.07622,-5007085.87338,  -0.00006,   0.00035,  -0.00007,78564830.49641,   0.00000,274640135.82653,   0.00000,   0.00000,   0.00000,-396075305.33012,   0.00000
25824071.85645,88873127.80110,-5086479.41259,  -0.00006,   0.00035,  -0.00007,79673498.18101,   0.00000,274640135.82653,   0.00000,   0.00000,   0.00000,-394966637.64552,   0.00000
26324251.15352,90146070.87991,-5160580.04920,  -0.00006,   0.00036,  -0.00007,80784573.04997,   0.00000,274640135.82653,   0.00000,   0.00000,   0.00000,-393855562.77656,   0.00000
26824430.45060,91419013.95871,-5234680.68580,  -0.00006,   0.00036,  -0.00007,81895841.44528,   0.00000,274640135.82653,   0.00000,   0.00000,   0.00000,-392744294.38125,   0.00000
27316670.39375,92673431.87836,-5314074.22502,  -0.00006,   0.00037,  -0.00007,82992493.75240,   0.00000,274640135.82653,   0.00000,   0.00000,   0.00000,-391647642.07413,   0.00000
27827435.49606,93935789.15193,-5388174.86162,  -0.00006,   0.00037,  -0.00007,84091639.42691,   0.00000,274640135.82653,   0.00000,   0.00000,   0.00000,-390548496.39962,   0.00000
28330261.24444,95179621.26635,-5462275.49823,  -0.00006,   0.00038,  -0.00007,85175171.45165,   0.00000,274640135.82653,   0.00000,   0.00000,   0.00000,-389464964.37488,   0.00000
28825147.63890,96404928.22162,-5536376.13483,  -0.00006,   0.00038,  -0.00007,86243071.69178,   0.00000,274640135.82653,   0.00000,   0.00000,   0.00000,-388397064.13475,   0.00000
29338559.19251,97638174.53082,-5610476.77144,  -0.00006,   0.00039,  -0.00007,87314564.46143,   0.00000,274640135.82653,   0.00000,   0.00000,   0.00000,-387325571.36509,   0.00000
29844031.39221,98852895.68086,-5684577.40804,  -0.00006,   0.00039,  -0.00007,88370444.90803,   0.00000,274640135.82653,   0.00000,   0.00000,   0.00000,-386269690.91850,   0.00000
30368028.75105,100075556.18482,-5758678.04464,  -0.00006,   0.00040,  -0.00007,89429994.22394,   0.00000,274640135.82653,   0.00000,   0.00000,   0.00000,-385210141.60259,   0.00000
30884086.75597,101279691.52964,-5832778.68125,  -0.00006,   0.00040,  -0.00008,90473951.34901,   0.00000,274640135.82653,   0.00000,   0.00000,   0.00000,-384166184.47752,   0.00000
31410730.56612,102473241.06922,-5901586.41524,  -0.00006,   0.00041,  -0.00008,91504786.38364,   0.00000,274640135.82653,   0.00000,   0.00000,   0.00000,-383135349.44289,   0.00000
31937374.37626,103666790.60880,-5975687.05184,  -0.00006,   0.00041,  -0.00008,92536915.67339,   0.00000,274640135.82653,   0.00000,   0.00000,   0.00000,-382103220.15314,   0.00000
32464018.18641,104860340.14839,-6044494.78583,  -0.00006,   0.00041,  -0.00008,93568280.81610,   0.00000,274640135.82653,   0.00000,   0.00000,   0.00000,-381071855.01043,   0.00000
33001247.80179,106043303.88274,-6118595.42243,  -0.00006,   0.00042,  -0.00008,94588661.77041,   0.00000,274640135.82653,   0.00000,   0.00000,   0.00000,-380051474.05611,   0.00000
33530538.06325,107207742.45794,-6187403.15642,  -0.00006,   0.00042,  -0.00008,95592445.36070,   0.00000,274640135.82653,   0.00000,   0.00000,   0.00000,-379047690.46583,   0.00000
34078353.48385,108380120.38707,-6261503.79303,  -0.00006,   0.00043,  -0.00008,96601179.63753,   0.00000,274640135.82653,   0.00000,   0.00000,   0.00000,-378038956.18899,   0.00000
34618229.55054,109533973.15704,-6330311.52702,  -0.00006,   0.00043,  -0.00008,97593336.85522,   0.00000,274640135.82653,   0.00000,   0.00000,   0.00000,-377046798.97131,   0.00000
35176630.77638,110695765.28094,-6399119.26100,  -0.00006,   0.00044,  -0.00008,98589502.08853,   0.00000,274640135.82653,   0.00000,   0.00000,   0.00000,-376050633.73800,   0.00000
35727092.64829,111839032.24569,-6467926.99499,  -0.00006,   0.00044,  -0.00008,99570141.38210,   0.00000,274640135.82653,   0.00000,   0.00000,   0.00000,-375069994.44443,   0.00000
36277554.52020,112982299.21043,-6536734.72898,  -0.00006,   0.00044,  -0.00008,100551111.77987,   0.00000,274640135.82653,   0.00000,   0.00000,   0.00000,-374089024.04666,   0.00000
36838602.19735,114114980.36995,-6605542.46297,  -0.00005,   0.00045,  -0.00009,101520316.01493,   0.00000,274640135.82653,   0.00000,   0.00000,   0.00000,-373119819.81160,   0.00000
37410235.67972,115237075.72423,-6674350.19696,  -0.00005,   0.00045,  -0.00009,102477822.20976,   0.00000,274640135.82653,   0.00000,   0.00000,   0.00000,-372162313.61677,   0.00000
37963344.00294,116351231.72460,-6743157.93095,  -0.00005,   0.00046,  -0.00009,103431877.64532,   0.00000,274640135.82653,   0.00000,   0.00000,   0.00000,-371208258.18121,   0.00000
38534977.48532,117473327.07889,-6811965.66494,  -0.00005,   0.00046,  -0.00009,104390151.25637,   0.00000,274640135.82653,   0.00000,   0.00000,   0.00000,-370249984.57016,   0.00000
39109257.41900,118566311.46879,-6875480.49632,  -0.00005,   0.00046,  -0.00009,105319896.17775,   0.00000,274640135.82653,   0.00000,   0.00000,   0.00000,-369320239.64878,   0.00000
39691476.70660,119677821.01785,-6944288.23030,  -0.00005,   0.00047,  -0.00009,106266994.58713,   0.00000,274640135.82653,   0.00000,   0.00000,   0.00000,-368373141.23940,   0.00000
40284281.79943,120778744.76168,-7013095.96429,  -0.00005,   0.00047,  -0.00009,107202584.39961,   0.00000,274640135.82653,   0.00000,   0.00000,   0.00000,-367437551.42692,   0.00000
40869147.53834,121861143.34636,-7076610.79567,  -0.00005,   0.00047,  -0.00009,108121689.27944,   0.00000,274640135.82653,   0.00000,   0.00000,   0.00000,-366518446.54709,   0.00000
41454013.27725,122943541.93104,-7140125.62704,  -0.00005,   0.00048,  -0.00009,109041233.85989,   0.00000,274640135.82653,   0.00000,   0.00000,   0.00000,-365598901.96664,   0.00000
42049464.82138,124015354.71048,-7208933.36103,  -0.00005,   0.00048,  -0.00009,109950409.55419,   0.00000,274640135.82653,   0.00000,   0.00000,   0.00000,-364689726.27234,   0.00000
42663441.52467,125095106.84386,-7272448.19241,  -0.00005,   0.00049,  -0.00009,110863126.11181,   0.00000,274640135.82653,   0.00000,   0.00000,   0.00000,-363777009.71472,   0.00000
43269478.87404,126156333.81808,-7335963.02378,  -0.00005,   0.00049,  -0.00010,111760451.87784,   0.00000,274640135.82653,   0.00000,   0.00000,   0.00000,-362879683.94869,   0.00000
43875516.22341,127217560.79229,-7399477.85516,  -0.00005,   0.00049,  -0.00010,112658285.81580,   0.00000,274640135.82653,   0.00000,   0.00000,   0.00000,-361981850.01073,   0.00000
44492139.37800,128268201.96129,-7462992.68653,  -0.00005,   0.00050,  -0.00010,113544899.31698,   0.00000,274640135.82653,   0.00000,   0.00000,   0.00000,-361095236.50955,   0.00000
45108762.53260,129318843.13028,-7526507.51791,  -0.00005,   0.00050,  -0.00010,114432056.72482,   0.00000,274640135.82653,   0.00000,   0.00000,   0.00000,-360208079.10171,   0.00000
45735971.49243,130358898.49404,-7590022.34928,  -0.00005,   0.00050,  -0.00010,115308091.46550,   0.00000,274640135.82653,   0.00000,   0.00000,   0.00000,-359332044.36103,   0.00000
46355241.09833,131380428.69865,-7653537.18066,  -0.00005,   0.00051,  -0.00010,116168773.20745,   0.00000,274640135.82653,   0.00000,   0.00000,   0.00000,-358471362.61908,   0.00000
47000975.21731,132428423.41633,-7717052.01203,  -0.00004,   0.00051,  -0.00010,117050299.56444,   0.00000,274640135.82653,   0.00000,   0.00000,   0.00000,-357589836.26209,   0.00000
47630830.62844,133439367.81571,-7780566.84341,  -0.00004,   0.00051,  -0.00010,117900571.00383,   0.00000,274640135.82653,   0.00000,   0.00000,   0.00000,-356739564.82270,   0.00000
48279211.19872,134458251.56901,-7838788.77217,  -0.00004,   0.00052,  -0.00010,118754811.07012,   0.00000,274640135.82653,   0.00000,   0.00000,   0.00000,-355885324.75641,   0.00000
48927591.76901,135477135.32232,-7902303.60354,  -0.00004,   0.00052,  -0.00010,119610754.81368,   0.00000,274640135.82653,   0.00000,   0.00000,   0.00000,-355029381.01285,   0.00000
49586558.14452,136485433.27039,-7960525.53230,  -0.00004,   0.00052,  -0.00010,120454834.98447,   0.00000,274640135.82653,   0.00000,   0.00000,   0.00000,-354185300.84206,   0.00000
50245524.52003,137493731.21847,-8024040.36368,  -0.00004,   0.00053,  -0.00010,121300659.05284,   0.00000,274640135.82653,   0.00000,   0.00000,   0.00000,-353339476.77369,   0.00000
50896551.54162,138483504.00739,-8082262.29244,  -0.00004,   0.00053,  -0.00011,122130159.80055,   0.00000,274640135.82653,   0.00000,   0.00000,   0.00000,-352509976.02598,   0.00000
51558164.36844,139462690.99108,-8140484.22120,  -0.00004,   0.00053,  -0.00011,122948967.44666,   0.00000,274640135.82653,   0.00000,   0.00000,   0.00000,-351691168.37987,   0.00000
52246241.70834,140468342.48785,-8203999.05257,  -0.00004,   0.00054,  -0.00011,123790140.32347,   0.00000,274640135.82653,   0.00000,   0.00000,   0.00000,-350849995.50306,   0.00000
52918440.34039,141436943.66631,-8262220.98133,  -0.00004,   0.00054,  -0.00011,124599120.31402,   0.00000,274640135.82653,   0.00000,   0.00000,   0.00000,-350041015.51251,   0.00000
53609164.13159,142413484.19870,-8320442.91009,  -0.00003,   0.00054,  -0.00011,125413573.51659,   0.00000,274640135.82653,   0.00000,   0.00000,   0.00000,-349226562.30994,   0.00000
54299887.92279,143390024.73109,-8378664.83885,  -0.00003,   0.00055,  -0.00011,126228843.06731,   0.00000,274640135.82653,   0.00000,   0.00000,   0.00000,-348411292.75922,   0.00000
55001197.51922,144355979.45824,-8436886.76761,  -0.00003,   0.00055,  -0.00011,127033743.42915,   0.00000,274640135.82653,   0.00000,   0.00000,   0.00000,-347606392.39738,   0.00000
55702507.11565,145321934.18540,-8495108.69637,  -0.00003,   0.00055,  -0.00011,127839502.48895,   0.00000,274640135.82653,   0.00000,   0.00000,   0.00000,-346800633.33758,   0.00000
56395877.35815,146269363.75341,-8553330.62513,  -0.00003,   0.00056,  -0.00011,128630132.74765,   0.00000,274640135.82653,   0.00000,   0.00000,   0.00000,-346010003.07888,   0.00000
57126297.91896,147232672.02926,-8611552.55389,  -0.00003,   0.00056,  -0.00011,129431420.65673,   0.00000,274640135.82653,   0.00000,   0.00000,   0.00000,-345208715.16980,   0.00000
57830253.96670,148169515.79204,-8669774.48265,  -0.00003,   0.00056,  -0.00011,130212741.02124,   0.00000,274640135.82653,   0.00000,   0.00000,   0.00000,-344427394.80529,   0.00000
58571260.33274,149122238.26266,-8722703.50880,  -0.00002,   0.00056,  -0.00011,131003869.07361,   0.00000,274640135.82653,   0.00000,   0.00000,   0.00000,-343636266.75292,   0.00000
59293741.53963,150067021.37936,-8780925.43756,  -0.00002,   0.00057,  -0.00011,131792023.53242,   0.00000,274640135.82653,   0.00000,   0.00000,   0.00000,-342848112.29411,   0.00000
60026808.55174,151001218.69083,-8839147.36632,  -0.00002,   0.00057,  -0.00011,132570193.19620,   0.00000,274640135.82653,   0.00000,   0.00000,   0.00000,-342069942.63033,   0.00000
60770461.36909,151924830.19707,-8892076.39246,  -0.00002,   0.00057,  -0.00012,133337421.78635,   0.00000,274640135.82653,   0.00000,   0.00000,   0.00000,-341302714.04018,   0.00000
61532639.34559,152856381.05723,-8950298.32122,  -0.00002,   0.00058,  -0.00012,134111915.53176,   0.00000,274640135.82653,   0.00000,   0.00000,   0.00000,-340528220.29477,   0.00000
62276292.16293,153779992.56347,-9003227.34737,  -0.00002,   0.00058,  -0.00012,134881241.24834,   0.00000,274640135.82653,   0.00000,   0.00000,   0.00000,-339758894.57819,   0.00000
63049055.94466,154700957.61841,-9061449.27613,  -0.00001,   0.00058,  -0.00012,135647152.57218,   0.00000,274640135.82653,   0.00000,   0.00000,   0.00000,-338992983.25435,   0.00000
63803294.56723,155613983.31942,-9114378.30228,  -0.00001,   0.00058,  -0.00012,136407855.56987,   0.00000,274640135.82653,   0.00000,   0.00000,   0.00000,-338232280.25666,   0.00000
64586644.15419,156524362.56912,-9167307.32842,  -0.00001,   0.00059,  -0.00012,137164302.73587,   0.00000,274640135.82653,   0.00000,   0.00000,   0.00000,-337475833.09066,   0.00000
65369993.74114,157434741.81883,-9225529.25718,  -0.00001,   0.00059,  -0.00012,137923011.48165,   0.00000,274640135.82653,   0.00000,   0.00000,   0.00000,-336717124.34488,   0.00000
66145403.97418,158326595.90938,-9278458.28333,  -0.00001,   0.00059,  -0.00012,138665850.72477,   0.00000,274640135.82653,   0.00000,   0.00000,   0.00000,-335974285.10176,   0.00000
66939339.36636,159226389.35386,-9331387.30947,  -0.00001,   0.00059,  -0.00012,139415326.54551,   0.00000,274640135.82653,   0.00000,   0.00000,   0.00000,-335224809.28102,   0.00000
67751799.91770,160134122.15225,-9384316.33562,  -0.00000,   0.00060,  -0.00012,140171554.33527,   0.00000,274640135.82653,   0.00000,   0.00000,   0.00000,-334468581.49126,   0.00000
68556321.11511,161023329.79150,-9437245.36176,  -0.00000,   0.00060,  -0.00012,140913092.35775,   0.00000,274640135.82653,   0.00000,   0.00000,   0.00000,-333727043.46878,   0.00000
69360842.31252,161912537.43075,-9490174.38791,  -0.00000,   0.00060,  -0.00012,141655908.72304,   0.00000,274640135.82653,   0.00000,   0.00000,   0.00000,-332984227.10349,   0.00000
70194474.47432,162799098.61868,-9543103.41405,   0.00000,   0.00060,  -0.00012,142395316.12263,   0.00000,274640135.82653,   0.00000,   0.00000,   0.00000,-332244819.70390,   0.00000
71009581.47696,163677720.45270,-9596032.44020,   0.00000,   0.00061,  -0.00012,143130436.74724,   0.00000,274640135.82653,   0.00000,   0.00000,   0.00000,-331509699.07929,   0.00000
71853799.44398,164553695.83541,-9648961.46635,   0.00001,   0.00061,  -0.00013,143862387.09768,   0.00000,274640135.82653,   0.00000,   0.00000,   0.00000,-330777748.72885,   0.00000
72687431.60577,165440257.02335,-9701890.49249,   0.00001,   0.00061,  -0.00013,144605995.82159,   0.00000,274640135.82653,   0.00000,   0.00000,   0.00000,-330034140.00494,   0.00000
73542235.37803,166305646.60083,-9754819.51864,   0.00001,   0.00061,  -0.00013,145330688.36357,   0.00000,274640135.82653,   0.00000,   0.00000,   0.00000,-329309447.46296,   0.00000
74404978.50420,167189561.33746,-9807748.54478,   0.00001,   0.00062,  -0.00013,146072893.86993,   0.00000,274640135.82653,   0.00000,   0.00000,   0.00000,-328567241.95660,   0.00000
75251842.92253,168036425.75579,-9855384.66831,   0.00001,   0.00062,  -0.00013,146783566.34400,   0.00000,274640135.82653,   0.00000,   0.00000,   0.00000,-327856569.48253,   0.00000
76125171.85393,168909754.68720,-9908313.69446,   0.00002,   0.00062,  -0.00013,147518768.14736,   0.00000,274640135.82653,   0.00000,   0.00000,   0.00000,-327121367.67917,   0.00000
77009086.59056,169772497.81337,-9961242.72060,   0.00002,   0.00062,  -0.00013,148245588.52159,   0.00000,274640135.82653,   0.00000,   0.00000,   0.00000,-326394547.30493,   0.00000
77893001.32720,170635240.93954,-10014171.74675,   0.00002,   0.00062,  -0.00013,148974041.24412,   0.00000,274640135.82653,   0.00000,   0.00000,   0.00000,-325666094.58241,   0.00000
78768976.70991,171479458.90657,-10061807.87028,   0.00002,   0.00063,  -0.00013,149687056.71110,   0.00000,274640135.82653,   0.00000,   0.00000,   0.00000,-324953079.11543,   0.00000
79682002.41092,172339555.58143,-10114736.89643,   0.00003,   0.00063,  -0.00013,150415114.76688,   0.00000,274640135.82653,   0.00000,   0.00000,   0.00000,-324225021.05965,   0.00000
80576502.95278,173191712.90238,-10162373.01996,   0.00003,   0.00063,  -0.00013,151137623.23218,   0.00000,274640135.82653,   0.00000,   0.00000,   0.00000,-323502512.59435,   0.00000
81500114.45902,174041223.77201,-10215302.04610,   0.00003,   0.00063,  -0.00013,151859453.96506,   0.00000,274640135.82653,   0.00000,   0.00000,   0.00000,-322780681.86147,   0.00000
82423725.96526,174890734.64165,-10262938.16963,   0.00003,   0.00064,  -0.00013,152582034.91613,   0.00000,274640135.82653,   0.00000,   0.00000,   0.00000,-322058100.91040,   0.00000
83347337.47150,175740245.51129,-10315867.19578,   0.00004,   0.00064,  -0.00013,153307476.51046,   0.00000,274640135.82653,   0.00000,   0.00000,   0.00000,-321332659.31607,   0.00000
84281534.78297,176579170.57570,-10363503.31931,   0.00004,   0.00064,  -0.00013,154024100.98065,   0.00000,274640135.82653,   0.00000,   0.00000,   0.00000,-320616034.84588,   0.00000
85234257.25359,177426034.99403,-10416432.34546,   0.00004,   0.00064,  -0.00014,154750141.78194,   0.00000,274640135.82653,   0.00000,   0.00000,   0.00000,-319889994.04459,   0.00000
86179040.37029,178254374.25320,-10464068.46899,   0.00004,   0.00064,  -0.00014,155461082.62639,   0.00000,274640135.82653,   0.00000,   0.00000,   0.00000,-319179053.20014,   0.00000
87150288.00006,179109178.02546,-10516997.49513,   0.00005,   0.00065,  -0.00014,156197553.15629,   0.00000,274640135.82653,   0.00000,   0.00000,   0.00000,-318442582.67024,   0.00000
88105656.92199,179926931.47941,-10564633.61866,   0.00005,   0.00065,  -0.00014,156903031.86296,   0.00000,274640135.82653,   0.00000,   0.00000,   0.00000,-317737103.96357,   0.00000
89087490.35699,180771149.44643,-10612269.74220,   0.00005,   0.00065,  -0.00014,157633125.27639,   0.00000,274640135.82653,   0.00000,   0.00000,   0.00000,-317007010.55014,   0.00000
90079909.59722,181604781.60822,-10665198.76834,   0.00006,   0.00065,  -0.00014,158357140.35252,   0.00000,274640135.82653,   0.00000,   0.00000,   0.00000,-316282995.47401,   0.00000
91072328.83745,182438413.77002,-10712834.89187,   0.00006,   0.00065,  -0.00014,159082202.59228,   0.00000,274640135.82653,   0.00000,   0.00000,   0.00000,-315557933.23425,   0.00000
92064748.07768,183272045.93181,-10760471.01540,   0.00006,   0.00065,  -0.00014,159809352.44742,   0.00000,274640135.82653,   0.00000,   0.00000,   0.00000,-314830783.37911,   0.00000
93086278.28229,184103031.64230,-10813400.04155,   0.00006,   0.00066,  -0.00014,160537547.91213,   0.00000,274640135.82653,   0.00000,   0.00000,   0.00000,-314102587.91440,   0.00000
94107808.48690,184934017.35278,-10861036.16508,   0.00007,   0.00066,  -0.00014,161266926.62922,   0.00000,274640135.82653,   0.00000,   0.00000,   0.00000,-313373209.19731,   0.00000
95129338.69152,185765003.06327,-10908672.28861,   0.00007,   0.00066,  -0.00014,161998527.59468,   0.00000,274640135.82653,   0.00000,   0.00000,   0.00000,-312641608.23184,   0.00000
96161454.70135,186585402.96852,-10956308.41214,   0.00007,   0.00066,  -0.00014,162723496.39121,   0.00000,274640135.82653,   0.00000,   0.00000,   0.00000,-311916639.43532,   0.00000
97212095.87035,187413742.22770,-11009237.43829,   0.00008,   0.00066,  -0.00014,163458953.89778,   0.00000,274640135.82653,   0.00000,   0.00000,   0.00000,-311181181.92875,   0.00000
98262737.03934,188242081.48688,-11056873.56182,   0.00008,   0.00066,  -0.00014,164195700.12330,   0.00000,274640135.82653,   0.00000,   0.00000,   0.00000,-310444435.70323,   0.00000
99323964.01356,189059834.94083,-11104509.68535,   0.00008,   0.00067,  -0.00014,164926132.49332,   0.00000,274640135.82653,   0.00000,   0.00000,   0.00000,-309714003.33321,   0.00000
100385190.98777,189877588.39478,-11152145.80888,   0.00009,   0.00067,  -0.00014,165658981.75888,   0.00000,274640135.82653,   0.00000,   0.00000,   0.00000,-308981154.06765,   0.00000
101464943.12115,190703281.20265,-11205074.83503,   0.00009,   0.00067,  -0.00015,166402643.21809,   0.00000,274640135.82653,   0.00000,   0.00000,   0.00000,-308237492.60844,   0.00000
102563220.41367,191536913.36445,-11252710.95856,   0.00009,   0.00067,  -0.00015,167155111.23445,   0.00000,274640135.82653,   0.00000,   0.00000,   0.00000,-307485024.59208,   0.00000
103653558.35227,192352020.36709,-11300347.08209,   0.00010,   0.00067,  -0.00015,167894258.57848,   0.00000,274640135.82653,   0.00000,   0.00000,   0.00000,-306745877.24805,   0.00000
104743896.29087,193167127.36973,-11347983.20562,   0.00010,   0.00067,  -0.00015,168635925.94388,   0.00000,274640135.82653,   0.00000,   0.00000,   0.00000,-306004209.88264,   0.00000
105871284.54777,193998113.08022,-11395619.32915,   0.00010,   0.00068,  -0.00015,169395241.25110,   0.00000,274640135.82653,   0.00000,   0.00000,   0.00000,-305244894.57543,   0.00000
106998672.80467,194829098.79070,-11448548.35530,   0.00011,   0.00068,  -0.00015,170158298.36230,   0.00000,274640135.82653,   0.00000,   0.00000,   0.00000,-304481837.46423,   0.00000
108118121.70765,195641559.34204,-11496184.47883,   0.00011,   0.00068,  -0.00015,170907100.00486,   0.00000,274640135.82653,   0.00000,   0.00000,   0.00000,-303733035.82167,   0.00000
109256095.76978,196461959.24730,-11543820.60236,   0.00011,   0.00068,  -0.00015,171666271.12452,   0.00000,274640135.82653,   0.00000,   0.00000,   0.00000,-302973864.70200,   0.00000
110412594.99106,197290298.50648,-11591456.72589,   0.00012,   0.00068,  -0.00015,172435944.04838,   0.00000,274640135.82653,   0.00000,   0.00000,   0.00000,-302204191.77814,   0.00000
111569094.21234,198118637.76565,-11644385.75204,   0.00012,   0.00068,  -0.00015,173209455.89087,   0.00000,274640135.82653,   0.00000,   0.00000,   0.00000,-301430679.93566,   0.00000
112736179.23885,198936391.21960,-11692021.87557,   0.00013,   0.00069,  -0.00015,173976766.63798,   0.00000,274640135.82653,   0.00000,   0.00000,   0.00000,-300663369.18855,   0.00000
113929728.77844,199780609.18663,-11739657.99910,   0.00013,   0.00069,  -0.00015,174770658.28248,   0.00000,274640135.82653,   0.00000,   0.00000,   0.00000,-299869477.54405,   0.00000
115107399.61018,200587776.83535,-11792587.02524,   0.00013,   0.00069,  -0.00015,175536969.33098,   0.00000,274640135.82653,   0.00000,   0.00000,   0.00000,-299103166.49555,   0.00000
116311534.95499,201421408.99714,-11840223.14877,   0.00014,   0.00069,  -0.00015,176328944.20759,   0.00000,274640135.82653,   0.00000,   0.00000,   0.00000,-298311191.61894,   0.00000
117515670.29980,202255041.15893,-11887859.27231,   0.00014,   0.00069,  -0.00015,177123858.64457,   0.00000,274640135.82653,   0.00000,   0.00000,   0.00000,-297516277.18196,   0.00000
118730391.44985,203078087.51550,-11940788.29845,   0.00014,   0.00069,  -0.00016,177915209.95337,   0.00000,274640135.82653,   0.00000,   0.00000,   0.00000,-296724925.87316,   0.00000
119963637.75904,203909073.22598,-11988424.42198,   0.00015,   0.00069,  -0.00016,178716751.57176,   0.00000,274640135.82653,   0.00000,   0.00000,   0.00000,-295923384.25477,   0.00000
121196884.06823,204740058.93647,-12036060.54551,   0.00015,   0.00070,  -0.00016,179521362.27891,   0.00000,274640135.82653,   0.00000,   0.00000,   0.00000,-295118773.54761,   0.00000
122448655.53657,205578984.00088,-12088989.57166,   0.00016,   0.00070,  -0.00016,180338439.37069,   0.00000,274640135.82653,   0.00000,   0.00000,   0.00000,-294301696.45584,   0.00000
123700427.00492,206417909.06529,-12136625.69519,   0.00016,   0.00070,  -0.00016,181157551.26696,   0.00000,274640135.82653,   0.00000,   0.00000,   0.00000,-293482584.55957,   0.00000
124962784.27849,207246248.32447,-12189554.72134,   0.00016,   0.00070,  -0.00016,181973603.60837,   0.00000,274640135.82653,   0.00000,   0.00000,   0.00000,-292666532.21816,   0.00000
126243666.71122,208082526.93757,-12237190.84487,   0.00017,   0.00070,  -0.00016,182800291.96258,   0.00000,274640135.82653,   0.00000,   0.00000,   0.00000,-291839843.86395,   0.00000
127524549.14394,208918805.55067,-12290119.87101,   0.00017,   0.00070,  -0.00016,183631268.03700,   0.00000,274640135.82653,   0.00000,   0.00000,   0.00000,-291008867.78953,   0.00000
128823956.73581,209763023.51769,-12337755.99454,   0.00018,   0.00070,  -0.00016,184473022.05710,   0.00000,274640135.82653,   0.00000,   0.00000,   0.00000,-290167113.76943,   0.00000
130141889.48684,210615180.83863,-12390685.02069,   0.00018,   0.00070,  -0.00016,185327805.34984,   0.00000,274640135.82653,   0.00000,   0.00000,   0.00000,-289312330.47669,   0.00000
131451882.88394,211448813.00043,-12443614.04683,   0.00019,   0.00071,  -0.00016,186170309.18539,   0.00000,274640135.82653,   0.00000,   0.00000,   0.00000,-288469826.64114,   0.00000
132788340.79412,212308909.67529,-12491250.17037,   0.00019,   0.00071,  -0.00016,187039468.34621,   0.00000,274640135.82653,   0.00000,   0.00000,   0.00000,-287600667.48032,   0.00000
134116859.35038,213150481.19101,-12544179.19651,   0.00019,   0.00071,  -0.00016,187897460.82039,   0.00000,274640135.82653,   0.00000,   0.00000,   0.00000,-286742675.00614,   0.00000
135463903.06578,213999992.06065,-12597108.22266,   0.00020,   0.00071,  -0.00016,188767721.98104,   0.00000,274640135.82653,   0.00000,   0.00000,   0.00000,-285872413.84549,   0.00000
136810946.78119,214849502.93028,-12644744.34619,   0.00020,   0.00071,  -0.00016,189640314.37418,   0.00000,274640135.82653,   0.00000,   0.00000,   0.00000,-284999821.45235,   0.00000
138195040.81490,215714892.50776,-12697673.37233,   0.00021,   0.00071,  -0.00017,190535425.86140,   0.00000,274640135.82653,   0.00000,   0.00000,   0.00000,-284104709.96512,   0.00000
139560609.68945,216572342.73132,-12750602.39848,   0.00021,   0.00071,  -0.00017,191424943.00415,   0.00000,274640135.82653,   0.00000,   0.00000,   0.00000,-283215192.82238,   0.00000
140963228.88231,217445671.66273,-12803531.42462,   0.00022,   0.00071,  -0.00017,192336162.19667,   0.00000,274640135.82653,   0.00000,   0.00000,   0.00000,-282303973.62986,   0.00000
142357908.72125,218300475.43498,-12856460.45077,   0.00022,   0.00072,  -0.00017,193235447.88887,   0.00000,274640135.82653,   0.00000,   0.00000,   0.00000,-281404687.93766,   0.00000
143771113.71934,219163218.56115,-12909389.47692,   0.00023,   0.00072,  -0.00017,194147537.97391,   0.00000,274640135.82653,   0.00000,   0.00000,   0.00000,-280492597.85262,   0.00000
145192258.07135,220044486.84648,-12962318.50306,   0.00023,   0.00072,  -0.00017,195078643.56951,   0.00000,274640135.82653,   0.00000,   0.00000,   0.00000,-279561492.25702,   0.00000
146623988.22858,220915169.32657,-13015247.52921,   0.00024,   0.00072,  -0.00017,196007226.34772,   0.00000,274640135.82653,   0.00000,   0.00000,   0.00000,-278632909.47880,   0.00000
148055718.38582,221785851.80667,-13068176.55535,   0.00024,   0.00072,  -0.00017,196939401.61062,   0.00000,274640135.82653,   0.00000,   0.00000,   0.00000,-277700734.21591,   0.00000
149524498.86136,222672412.99461,-13126398.48411,   0.00025,   0.00072,  -0.00017,197895187.70502,   0.00000,274640135.82653,   0.00000,   0.00000,   0.00000,-276744948.12151,   0.00000
150974754.17775,223551034.82862,-13179327.51026,   0.00025,   0.00072,  -0.00017,198844067.20698,   0.00000,274640135.82653,   0.00000,   0.00000,   0.00000,-275796068.61955,   0.00000
152462059.81245,224445535.37048,-13232256.53640,   0.00026,   0.00072,  -0.00017,199815733.19146,   0.00000,274640135.82653,   0.00000,   0.00000,   0.00000,-274824402.63507,   0.00000
153949365.44714,225340035.91234,-13290478.46516,   0.00026,   0.00073,  -0.00017,200792165.73739,   0.00000,274640135.82653,   0.00000,   0.00000,   0.00000,-273847970.08914,   0.00000
155455196.24098,226242475.80813,-13343407.49131,   0.00027,   0.00073,  -0.00017,201780938.13280,   0.00000,274640135.82653,   0.00000,   0.00000,   0.00000,-272859197.69373,   0.00000
156953087.68090,227126390.54476,-13401629.42007,   0.00027,   0.00073,  -0.00017,202759196.43257,   0.00000,274640135.82653,   0.00000,   0.00000,   0.00000,-271880939.39396,   0.00000
158477443.63390,228036769.79446,-13454558.44622,   0.00028,   0.00073,  -0.00017,203765207.08015,   0.00000,274640135.82653,   0.00000,   0.00000,   0.00000,-270874928.74638,   0.00000
159993860.23297,228928623.88502,-13512780.37498,   0.00028,   0.00073,  -0.00018,204760742.31487,   0.00000,274640135.82653,   0.00000,   0.00000,   0.00000,-269879393.51166,   0.00000
161536741.34511,229846942.48864,-13571002.30374,   0.00029,   0.00073,  -0.00018,205785145.20880,   0.00000,274640135.82653,   0.00000,   0.00000,   0.00000,-268854990.61773,   0.00000
163098147.61641,230773200.44619,-13629224.23250,   0.00029,   0.00073,  -0.00018,206823261.62049,   0.00000,274640135.82653,   0.00000,   0.00000,   0.00000,-267816874.20604,   0.00000
164670139.69293,231688872.59851,-13687446.16126,   0.00030,   0.00073,  -0.00018,207860020.50326,   0.00000,274640135.82653,   0.00000,   0.00000,   0.00000,-266780115.32327,   0.00000
166242131.76946,232604544.75083,-13745668.09002,   0.00030,   0.00073,  -0.00018,208900635.25292,   0.00000,274640135.82653,   0.00000,   0.00000,   0.00000,-265739500.57361,   0.00000
167822063.19990,233538742.06230,-13803890.01878,   0.00031,   0.00074,  -0.00018,209960180.86690,   0.00000,274640135.82653,   0.00000,   0.00000,   0.00000,-264679954.95963,   0.00000
169431105.59473,234470292.92246,-13862111.94754,   0.00031,   0.00074,  -0.00018,211028745.17507,   0.00000,274640135.82653,   0.00000,   0.00000,   0.00000,-263611390.65146,   0.00000
171048087.34348,235420368.94178,-13920333.87630,   0.00032,   0.00074,  -0.00018,212116292.52144,   0.00000,274640135.82653,   0.00000,   0.00000,   0.00000,-262523843.30509,   0.00000
172657129.73831,236351919.80194,-13978555.80506,   0.00032,   0.00074,  -0.00018,213192566.54390,   0.00000,274640135.82653,   0.00000,   0.00000,   0.00000,-261447569.28263,   0.00000
174284697.29228,237291410.01602,-14042070.63643,   0.00033,   0.00074,  -0.00018,214284032.66746,   0.00000,274640135.82653,   0.00000,   0.00000,   0.00000,-260356103.15907,   0.00000
175938729.35933,238257364.74318,-14100292.56519,   0.00034,   0.00074,  -0.00018,215403725.78207,   0.00000,274640135.82653,   0.00000,   0.00000,   0.00000,-259236410.04446,   0.00000
177584822.07246,239204794.31119,-14163807.39657,   0.00034,   0.00074,  -0.00018,216513283.96945,   0.00000,274640135.82653,   0.00000,   0.00000,   0.00000,-258126851.85708,   0.00000
179275904.45781,240186627.74619,-14222029.32533,   0.00035,   0.00074,  -0.00018,217661639.92255,   0.00000,274640135.82653,   0.00000,   0.00000,   0.00000,-256978495.90398,   0.00000
180940522.33009,241141996.66812,-14285544.15670,   0.00035,   0.00074,  -0.00019,218789411.67452,   0.00000,274640135.82653,   0.00000,   0.00000,   0.00000,-255850724.15201,   0.00000
182623665.36153,242105304.94397,-14349058.98808,   0.00036,   0.00075,  -0.00019,219931603.27994,   0.00000,274640135.82653,   0.00000,   0.00000,   0.00000,-254708532.54659,   0.00000
184333272.90603,243095077.73289,-14412573.81945,   0.00036,   0.00075,  -0.00019,221103206.36450,   0.00000,274640135.82653,   0.00000,   0.00000,   0.00000,-253536929.46203,   0.00000
186053466.25576,244074264.71658,-14476088.65083,   0.00037,   0.00075,  -0.00019,222274486.74164,   0.00000,274640135.82653,   0.00000,   0.00000,   0.00000,-252365649.08489,   0.00000
187781598.95942,245071976.85943,-14539603.48220,   0.00038,   0.00075,  -0.00019,223464528.01954,   0.00000,274640135.82653,   0.00000,   0.00000,   0.00000,-251175607.80699,   0.00000
189528256.82222,246077628.35620,-14603118.31358,   0.00038,   0.00075,  -0.00019,224669198.06601,   0.00000,274640135.82653,   0.00000,   0.00000,   0.00000,-249970937.76052,   0.00000
191266975.33110,247064754.69381,-14671926.04756,   0.00039,   0.00075,  -0.00019,225863934.18351,   0.00000,274640135.82653,   0.00000,   0.00000,   0.00000,-248776201.64302,   0.00000
193032158.35306,248078345.54450,-14735440.87894,   0.00039,   0.00075,  -0.00019,227087165.77367,   0.00000,274640135.82653,   0.00000,   0.00000,   0.00000,-247552970.05286,   0.00000
194815866.53417,249099875.74911,-14804248.61293,   0.00040,   0.00075,  -0.00019,228326212.10681,   0.00000,274640135.82653,   0.00000,   0.00000,   0.00000,-246313923.71972,   0.00000
196599574.71527,250121405.95372,-14867763.44430,   0.00041,   0.00075,  -0.00019,229568071.87915,   0.00000,274640135.82653,   0.00000,   0.00000,   0.00000,-245072063.94738,   0.00000
198393868.70161,251132350.35310,-14936571.17829,   0.00041,   0.00076,  -0.00019,230811112.09229,   0.00000,274640135.82653,   0.00000,   0.00000,   0.00000,-243829023.73424,   0.00000
200214627.20102,252169759.26556,-15005378.91228,   0.00042,   0.00076,  -0.00020,232083808.74044,   0.00000,274640135.82653,   0.00000,   0.00000,   0.00000,-242556327.08608,   0.00000
202043325.05435,253225693.33716,-15074186.64627,   0.00043,   0.00076,  -0.00020,233374996.95385,   0.00000,274640135.82653,   0.00000,   0.00000,   0.00000,-241265138.87268,   0.00000
203882608.71291,254271041.60354,-15142994.38026,   0.00043,   0.00076,  -0.00020,234666504.40115,   0.00000,274640135.82653,   0.00000,   0.00000,   0.00000,-239973631.42538,   0.00000
205721892.37147,255316389.86991,-15211802.11425,   0.00044,   0.00076,  -0.00020,235961822.82374,   0.00000,274640135.82653,   0.00000,   0.00000,   0.00000,-238678313.00279,   0.00000
207579701.18918,256369677.49021,-15285902.75085,   0.00044,   0.00076,  -0.00020,237273216.57441,   0.00000,274640135.82653,   0.00000,   0.00000,   0.00000,-237366919.25212,   0.00000
209463974.51997,257449429.62358,-15354710.48484,   0.00045,   0.00076,  -0.00020,238613256.27587,   0.00000,274640135.82653,   0.00000,   0.00000,   0.00000,-236026879.55066,   0.00000
211340308.49683,258510656.59780,-15428811.12145,   0.00046,   0.00076,  -0.00020,239943552.30539,   0.00000,274640135.82653,   0.00000,   0.00000,   0.00000,-234696583.52114,   0.00000
213243106.98676,259598348.08509,-15497618.85544,   0.00046,   0.00077,  -0.00020,241302497.42211,   0.00000,274640135.82653,   0.00000,   0.00000,   0.00000,-233337638.40442,   0.00000
215145905.47670,260686039.57239,-15571719.49204,   0.00047,   0.00077,  -0.00020,242666176.43628,   0.00000,274640135.82653,   0.00000,   0.00000,   0.00000,-231973959.39025,   0.00000
217067229.12578,261781670.41360,-15645820.12864,   0.00048,   0.00077,  -0.00020,244045033.04672,   0.00000,274640135.82653,   0.00000,   0.00000,   0.00000,-230595102.77981,   0.00000
219007077.93402,262885240.60874,-15719920.76525,   0.00048,   0.00077,  -0.00020,245439135.55912,   0.00000,274640135.82653,   0.00000,   0.00000,   0.00000,-229201000.26741,   0.00000
220946926.74226,263988810.80387,-15799314.30447,   0.00049,   0.00077,  -0.00021,246837953.36720,   0.00000,274640135.82653,   0.00000,   0.00000,   0.00000,-227802182.45933,   0.00000
222905300.70965,265100320.35293,-15873414.94107,   0.00050,   0.00077,  -0.00021,248251046.75482,   0.00000,274640135.82653,   0.00000,   0.00000,   0.00000,-226389089.07171,   0.00000
224890139.19011,266238294.41506,-15952808.48029,   0.00050,   0.00077,  -0.00021,249694840.40419,   0.00000,274640135.82653,   0.00000,   0.00000,   0.00000,-224945295.42234,   0.00000
226867038.31665,267357743.31804,-16026909.11689,   0.00051,   0.00077,  -0.00021,251126944.06738,   0.00000,274640135.82653,   0.00000,   0.00000,   0.00000,-223513191.75915,   0.00000
228870401.95626,268503656.73409,-16106302.65611,   0.00052,   0.00078,  -0.00021,252589733.92340,   0.00000,274640135.82653,   0.00000,   0.00000,   0.00000,-222050401.90313,   0.00000
230873765.59587,269649570.15015,-16185696.19533,   0.00052,   0.00078,  -0.00021,254056105.91892,   0.00000,274640135.82653,   0.00000,   0.00000,   0.00000,-220584029.90761,   0.00000
232895654.39463,270803422.92012,-16265089.73455,   0.00053,   0.00078,  -0.00021,255537861.65672,   0.00000,274640135.82653,   0.00000,   0.00000,   0.00000,-219102274.16981,   0.00000
234936068.35254,271965215.04402,-16349776.17638,   0.00054,   0.00078,  -0.00021,257036070.61821,   0.00000,274640135.82653,   0.00000,   0.00000,   0.00000,-217604065.20832,   0.00000
236984421.66438,273145532.32706,-16429169.71560,   0.00055,   0.00078,  -0.00021,258550990.68797,   0.00000,274640135.82653,   0.00000,   0.00000,   0.00000,-216089145.13856,   0.00000
239051300.13537,274333788.96403,-16513856.15743,   0.00055,   0.00078,  -0.00021,260082343.26156,   0.00000,274640135.82653,   0.00000,   0.00000,   0.00000,-214557792.56497,   0.00000
241110239.25243,275503520.44185,-16593249.69665,   0.00056,   0.00078,  -0.00022,261602036.16578,   0.00000,274640135.82653,   0.00000,   0.00000,   0.00000,-213038099.66075,   0.00000
243195642.88257,276699716.43274,-16677936.13848,   0.00057,   0.00078,  -0.00022,263152330.46519,   0.00000,274640135.82653,   0.00000,   0.00000,   0.00000,-211487805.36134,   0.00000
245307511.02578,277922376.93671,-16762622.58032,   0.00057,   0.00079,  -0.00022,264732190.27993,   0.00000,274640135.82653,   0.00000,   0.00000,   0.00000,-209907945.54660,   0.00000
247411439.81507,279126512.28152,-16847309.02215,   0.00058,   0.00079,  -0.00022,266301396.12767,   0.00000,274640135.82653,   0.00000,   0.00000,   0.00000,-208338739.69886,   0.00000
249541833.11743,280357112.13940,-16937288.36660,   0.00059,   0.00079,  -0.00022,267901146.55152,   0.00000,274640135.82653,   0.00000,   0.00000,   0.00000,-206738989.27501,   0.00000
251664287.06587,281569186.83814,-17021974.80843,   0.00060,   0.00079,  -0.00022,269489247.60528,   0.00000,274640135.82653,   0.00000,   0.00000,   0.00000,-205150888.22125,   0.00000
253821144.88130,282826251.20910,-17111954.15288,   0.00060,   0.00079,  -0.00022,271121810.26663,   0.00000,274640135.82653,   0.00000,   0.00000,   0.00000,-203518325.55990,   0.00000
255988588.50196,284072729.77483,-17201933.49733,   0.00061,   0.00079,  -0.00022,272755963.57574,   0.00000,274640135.82653,   0.00000,   0.00000,   0.00000,-201884172.25079,   0.00000
258156032.12263,285319208.34056,-17291912.84177,   0.00062,   0.00079,  -0.00022,274393410.27983,   0.00000,274640135.82653,   0.00000,   0.00000,   0.00000,-200246725.54670,   0.00000
260349940.25636,286592151.41936,-17381892.18622,   0.00063,   0.00080,  -0.00023,276060308.03905,   0.00000,274640135.82653,   0.00000,   0.00000,   0.00000,-198579827.78748,   0.00000
262543848.39010,287865094.49816,-17477164.43328,   0.00063,   0.00080,  -0.00023,277731397.32676,   0.00000,274640135.82653,   0.00000,   0.00000,   0.00000,-196908738.49977,   0.00000
264756281.68298,289145976.93088,-17567143.77773,   0.00064,   0.00080,  -0.00023,279417044.16807,   0.00000,274640135.82653,   0.00000,   0.00000,   0.00000,-195223091.65846,   0.00000
266995179.48894,290453323.87668,-17662416.02479,   0.00065,   0.00080,  -0.00023,281133072.93741,   0.00000,274640135.82653,   0.00000,   0.00000,   0.00000,-193507062.88912,   0.00000
269226137.94098,291742145.66333,-17757688.27185,   0.00066,   0.00080,  -0.00023,282838449.00152,   0.00000,274640135.82653,   0.00000,   0.00000,   0.00000,-191801686.82501,   0.00000
271483560.90609,293057431.96304,-17852960.51892,   0.00066,   0.00080,  -0.00023,284573174.57830,   0.00000,274640135.82653,   0.00000,   0.00000,   0.00000,-190066961.24822,   0.00000
273740983.87120,294372718.26276,-17948232.76598,   0.00067,   0.00081,  -0.00023,286310955.36909,   0.00000,274640135.82653,   0.00000,   0.00000,   0.00000,-188329180.45744,   0.00000
276024871.34939,295714469.07555,-18048797.91565,   0.00068,   0.00081,  -0.00023,288078992.39610,   0.00000,274640135.82653,   0.00000,   0.00000,   0.00000,-186561143.43043,   0.00000
278308758.82757,297056219.88835,-18144070.16272,   0.00069,   0.00081,  -0.00024,289848989.99577,   0.00000,274640135.82653,   0.00000,   0.00000,   0.00000,-184791145.83076,   0.00000
280629696.62405,298413849.40898,-18244635.31239,   0.00069,   0.00081,  -0.00024,291648185.78449,   0.00000,274640135.82653,   0.00000,   0.00000,   0.00000,-182991950.04204,   0.00000
282932109.26139,299763539.57569,-18345200.46207,   0.00070,   0.00081,  -0.00024,293437670.92556,   0.00000,274640135.82653,   0.00000,   0.00000,   0.00000,-181202464.90097,   0.00000
285260986.41180,301139694.25548,-18451058.51436,   0.00071,   0.00081,  -0.00024,295257284.88007,   0.00000,274640135.82653,   0.00000,   0.00000,   0.00000,-179382850.94646,   0.00000
287600449.36743,302505263.13004,-18551623.66404,   0.00072,   0.00082,  -0.00024,297077921.27189,   0.00000,274640135.82653,   0.00000,   0.00000,   0.00000,-177562214.55464,   0.00000
289974316.19006,303915821.67682,-18657481.71633,   0.00073,   0.00082,  -0.00024,298942223.54378,   0.00000,274640135.82653,   0.00000,   0.00000,   0.00000,-175697912.28275,   0.00000
292340243.65877,305307855.06445,-18763339.76862,   0.00073,   0.00082,  -0.00024,300795811.87886,   0.00000,274640135.82653,   0.00000,   0.00000,   0.00000,-173844323.94767,   0.00000
294714110.48140,306718413.61123,-18869197.82091,   0.00074,   0.00082,  -0.00025,302665636.64966,   0.00000,274640135.82653,   0.00000,   0.00000,   0.00000,-171974499.17686,   0.00000
297106502.46318,308136911.51193,-18975055.87320,   0.00075,   0.00082,  -0.00025,304550994.44768,   0.00000,274640135.82653,   0.00000,   0.00000,   0.00000,-170089141.37884,   0.00000
299517419.60412,309563348.76656,-19086206.82811,   0.00076,   0.00082,  -0.00025,306452909.91041,   0.00000,274640135.82653,   0.00000,   0.00000,   0.00000,-168187225.91611,   0.00000
301936276.09897,311008311.18033,-19192064.88040,   0.00077,   0.00083,  -0.00025,308369906.43910,   0.00000,274640135.82653,   0.00000,   0.00000,   0.00000,-166270229.38743,   0.00000
304373657.75298,312461212.94803,-19303215.83531,   0.00078,   0.00083,  -0.00025,310303421.29069,   0.00000,274640135.82653,   0.00000,   0.00000,   0.00000,-164336714.53584,   0.00000
306811039.40698,313914114.71572,-19414366.79021,   0.00078,   0.00083,  -0.00025,312239527.30699,   0.00000,274640135.82653,   0.00000,   0.00000,   0.00000,-162400608.51954,   0.00000
309274885.57406,315393480.99649,-19530810.64773,   0.00079,   0.00083,  -0.00025,314205470.43235,   0.00000,274640135.82653,   0.00000,   0.00000,   0.00000,-160434665.39418,   0.00000
311757256.90029,316880786.63119,-19641961.60264,   0.00080,   0.00083,  -0.00026,316185950.55481,   0.00000,274640135.82653,   0.00000,   0.00000,   0.00000,-158454185.27172,   0.00000
314239628.22652,318368092.26588,-19758405.46016,   0.00081,   0.00084,  -0.00026,318169921.46827,   0.00000,274640135.82653,   0.00000,   0.00000,   0.00000,-156470214.35826,   0.00000
316729938.90667,319873923.05972,-19874849.31768,   0.00082,   0.00084,  -0.00026,320169582.64504,   0.00000,274640135.82653,   0.00000,   0.00000,   0.00000,-154470553.18149,   0.00000
319257299.90512,321395632.56141,-19991293.17520,   0.00083,   0.00084,  -0.00026,322197811.48831,   0.00000,274640135.82653,   0.00000,   0.00000,   0.00000,-152442324.33822,   0.00000
321766135.74443,322909402.70917,-20113029.93533,   0.00083,   0.00084,  -0.00026,324216316.19054,   0.00000,274640135.82653,   0.00000,   0.00000,   0.00000,-150423819.63599,   0.00000
324301436.09680,324449637.37001,-20229473.79285,   0.00084,   0.00084,  -0.00026,326262471.23076,   0.00000,274640135.82653,   0.00000,   0.00000,   0.00000,-148377664.59576,   0.00000
326855261.60833,325997811.38477,-20351210.55299,   0.00085,   0.00085,  -0.00026,328325068.27489,   0.00000,274640135.82653,   0.00000,   0.00000,   0.00000,-146315067.55164,   0.00000
329427612.27900,327553924.75345,-20478240.21574,   0.00086,   0.00085,  -0.00027,330404135.86408,   0.00000,274640135.82653,   0.00000,   0.00000,   0.00000,-144235999.96245,   0.00000
331989377.14445,329120623.92736,-20599976.97587,   0.00087,   0.00085,  -0.00027,332484372.32790,   0.00000,274640135.82653,   0.00000,   0.00000,   0.00000,-142155763.49863,   0.00000
334588192.32820,330703201.80911,-20727006.63862,   0.00088,   0.00085,  -0.00027,334594240.91635,   0.00000,274640135.82653,   0.00000,   0.00000,   0.00000,-140045894.91018,   0.00000
337194946.86587,332304304.85002,-20854036.30137,   0.00089,   0.00085,  -0.00027,336719353.89387,   0.00000,274640135.82653,   0.00000,   0.00000,   0.00000,-137920781.93266,   0.00000
339801701.40355,333905407.89092,-20981065.96412,   0.00089,   0.00086,  -0.00027,338846583.83012,   0.00000,274640135.82653,   0.00000,   0.00000,   0.00000,-135793551.99641,   0.00000
342426981.10037,335514450.28575,-21108095.62687,   0.00090,   0.00086,  -0.00027,340989205.85869,   0.00000,274640135.82653,   0.00000,   0.00000,   0.00000,-133650929.96784,   0.00000
345078725.31026,337149957.19365,-21240418.19224,   0.00091,   0.00086,  -0.00028,343161199.62138,   0.00000,274640135.82653,   0.00000,   0.00000,   0.00000,-131478936.20515,   0.00000
347730469.52016,338785464.10155,-21372740.75760,   0.00092,   0.00086,  -0.00028,345335233.88593,   0.00000,274640135.82653,   0.00000,   0.00000,   0.00000,-129304901.94060,   0.00000
350382213.73005,340420971.00945,-21505063.32296,   0.00093,   0.00087,  -0.00028,347511270.35614,   0.00000,274640135.82653,   0.00000,   0.00000,   0.00000,-127128865.47039,   0.00000
353060422.45302,342082942.43042,-21637385.88833,   0.00094,   0.00087,  -0.00028,349715573.91736,   0.00000,274640135.82653,   0.00000,   0.00000,   0.00000,-124924561.90917,   0.00000
355757156.33514,343752853.20532,-21775001.35631,   0.00095,   0.00087,  -0.00028,351936205.70247,   0.00000,274640135.82653,   0.00000,   0.00000,   0.00000,-122703930.12406,   0.00000
358461829.57118,345441289.13936,-21912616.82428,   0.00096,   0.00087,  -0.00028,354171624.09731,   0.00000,274640135.82653,   0.00000,   0.00000,   0.00000,-120468511.72922,   0.00000
361185027.96637,347137664.42733,-22050232.29226,   0.00097,   0.00088,  -0.00029,356422352.95951,   0.00000,274640135.82653,   0.00000,   0.00000,   0.00000,-118217782.86702,   0.00000
363908226.36157,348834039.71529,-22187847.76024,   0.00098,   0.00088,  -0.00029,358674935.77761,   0.00000,274640135.82653,   0.00000,   0.00000,   0.00000,-115965200.04892,   0.00000
366639364.11068,350548940.16241,-22330756.13084,   0.00098,   0.00088,  -0.00029,360943112.22377,   0.00000,274640135.82653,   0.00000,   0.00000,   0.00000,-113697023.60276,   0.00000
369407552.17810,352279719.31737,-22473664.50143,   0.00099,   0.00088,  -0.00029,363240069.70858,   0.00000,274640135.82653,   0.00000,   0.00000,   0.00000,-111400066.11795,   0.00000
372165154.44028,354021084.27756,-22616572.87202,   0.00100,   0.00089,  -0.00029,365538023.86725,   0.00000,274640135.82653,   0.00000,   0.00000,   0.00000,-109102111.95928,   0.00000
374941281.86162,355770388.59168,-22759481.24261,   0.00101,   0.00089,  -0.00030,367851207.22248,   0.00000,274640135.82653,   0.00000,   0.00000,   0.00000,-106788928.60405,   0.00000
377743873.79603,357546157.41886,-22907682.51582,   0.00102,   0.00089,  -0.00030,370193333.36228,   0.00000,274640135.82653,   0.00000,   0.00000,   0.00000,-104446802.46425,   0.00000
380546465.73044,359321926.24605,-23055883.78903,   0.00103,   0.00089,  -0.00030,372537100.83774,   0.00000,274640135.82653,   0.00000,   0.00000,   0.00000,-102103034.98878,   0.00000
383367582.82400,361105634.42716,-23209377.96485,   0.00104,   0.00090,  -0.00030,374897071.52422,   0.00000,274640135.82653,   0.00000,   0.00000,   0.00000,-99743064.30231,   0.00000
386196639.27149,362907867.76741,-23357579.23806,   0.00105,   0.00090,  -0.00030,377270321.25349,   0.00000,274640135.82653,   0.00000,   0.00000,   0.00000,-97369814.57304,   0.00000
389044220.87812,364718040.46159,-23511073.41388,   0.00106,   0.00090,  -0.00031,379659743.27607,   0.00000,274640135.82653,   0.00000,   0.00000,   0.00000,-94980392.55046,   0.00000
391899741.83868,366546738.31492,-23664567.58970,   0.00107,   0.00090,  -0.00031,382063322.21600,   0.00000,274640135.82653,   0.00000,   0.00000,   0.00000,-92576813.61053,   0.00000
394755262.79923,368375436.16826,-23823354.66814,   0.00108,   0.00091,  -0.00031,384469366.85436,   0.00000,274640135.82653,   0.00000,   0.00000,   0.00000,-90170768.97217,   0.00000
397637248.27286,370230598.53466,-23976848.84396,   0.00109,   0.00091,  -0.00031,386902143.59585,   0.00000,274640135.82653,   0.00000,   0.00000,   0.00000,-87737992.23067,   0.00000
400537758.90564,372093700.25499,-24135635.92240,   0.00110,   0.00091,  -0.00031,389351034.46594,   0.00000,274640135.82653,   0.00000,   0.00000,   0.00000,-85289101.36059,   0.00000
403438269.53842,373956801.97531,-24299715.90345,   0.00111,   0.00091,  -0.00032,391802336.10799,   0.00000,274640135.82653,   0.00000,   0.00000,   0.00000,-82837799.71854,   0.00000
406346719.52512,375838428.85479,-24458502.98189,   0.00112,   0.00092,  -0.00032,394266564.06623,   0.00000,274640135.82653,   0.00000,   0.00000,   0.00000,-80373571.76030,   0.00000
409281634.02490,377746520.24734,-24622582.96294,   0.00113,   0.00092,  -0.00032,396759361.86852,   0.00000,274640135.82653,   0.00000,   0.00000,   0.00000,-77880773.95801,   0.00000
412216548.52467,379654611.63989,-24786662.94399,   0.00114,   0.00092,  -0.00032,399253465.05078,   0.00000,274640135.82653,   0.00000,   0.00000,   0.00000,-75386670.77575,   0.00000
415169988.18359,381570642.38636,-24956035.82766,   0.00114,   0.00093,  -0.00032,401763619.93273,   0.00000,274640135.82653,   0.00000,   0.00000,   0.00000,-72876515.89380,   0.00000
418131367.19644,383505198.29198,-25125408.71132,   0.00115,   0.00093,  -0.00033,404287500.36391,   0.00000,274640135.82653,   0.00000,   0.00000,   0.00000,-70352635.46262,   0.00000
421111271.36844,385447693.55152,-25294781.59499,   0.00116,   0.00093,  -0.00033,406826421.20201,   0.00000,274640135.82653,   0.00000,   0.00000,   0.00000,-67813714.62452,   0.00000
424099114.89436,387408713.97022,-25464154.47866,   0.00117,   0.00094,  -0.00033,409378978.09615,   0.00000,274640135.82653,   0.00000,   0.00000,   0.00000,-65261157.73038,   0.00000
427105483.57943,389377673.74284,-25638820.26494,   0.00118,   0.00094,  -0.00033,411947538.63540,   0.00000,274640135.82653,   0.00000,   0.00000,   0.00000,-62692597.19113,   0.00000
430119791.61842,391365158.67460,-25813486.05122,   0.00119,   0.00094,  -0.00034,414529649.43028,   0.00000,274640135.82653,   0.00000,   0.00000,   0.00000,-60110486.39625,   0.00000
433134099.65742,393352643.60637,-25988151.83750,   0.00120,   0.00095,  -0.00034,417112885.78710,   0.00000,274640135.82653,   0.00000,   0.00000,   0.00000,-57527250.03943,   0.00000
436174872.20948,395366593.05121,-26168110.52639,   0.00121,   0.00095,  -0.00034,419724432.06637,   0.00000,274640135.82653,   0.00000,   0.00000,   0.00000,-54915703.76016,   0.00000
439234169.92070,397388481.84998,-26348069.21529,   0.00122,   0.00095,  -0.00034,422350948.65012,   0.00000,274640135.82653,   0.00000,   0.00000,   0.00000,-52289187.17641,   0.00000
442282881.82669,399420956.45397,-26528027.90418,   0.00123,   0.00095,  -0.00034,424976946.57775,   0.00000,274640135.82653,   0.00000,   0.00000,   0.00000,-49663189.24878,   0.00000
445368644.05098,401469309.76580,-26713279.49569,   0.00124,   0.00096,  -0.00035,427632776.54245,   0.00000,274640135.82653,   0.00000,   0.00000,   0.00000,-47007359.28408,   0.00000
448443820.47004,403528248.88287,-26898531.08720,   0.00125,   0.00096,  -0.00035,430287986.22732,   0.00000,274640135.82653,   0.00000,   0.00000,   0.00000,-44352149.59921,   0.00000
451537522.04825,405595127.35385,-27083782.67871,   0.00126,   0.00096,  -0.00035,432958099.86998,   0.00000,274640135.82653,   0.00000,   0.00000,   0.00000,-41682035.95655,   0.00000
454657688.13953,407688470.33791,-27274327.17284,   0.00127,   0.00097,  -0.00035,435656368.70596,   0.00000,274640135.82653,   0.00000,   0.00000,   0.00000,-38983767.12057,   0.00000
457777854.23082,409781813.32197,-27459578.76435,   0.00128,   0.00097,  -0.00036,438354587.68674,   0.00000,274640135.82653,   0.00000,   0.00000,   0.00000,-36285548.13979,   0.00000
460905959.67602,411893681.46518,-27655416.16108,   0.00129,   0.00098,  -0.00036,441067933.63919,   0.00000,274640135.82653,   0.00000,   0.00000,   0.00000,-33572202.18734,   0.00000
464034065.12123,414005549.60839,-27845960.65521,   0.00130,   0.00098,  -0.00036,443781165.78600,   0.00000,274640135.82653,   0.00000,   0.00000,   0.00000,-30858970.04053,   0.00000
467188635.07951,416143882.26467,-28041798.05195,   0.00131,   0.00098,  -0.00036,446522436.67682,   0.00000,274640135.82653,   0.00000,   0.00000,   0.00000,-28117699.14971,   0.00000
470361730.19694,418290154.27488,-28237635.44869,   0.00132,   0.00099,  -0.00037,449278557.10603,   0.00000,274640135.82653,   0.00000,   0.00000,   0.00000,-25361578.72049,   0.00000
473542764.66829,420454951.44423,-28438765.74804,   0.00133,   0.00099,  -0.00037,452048676.83702,   0.00000,274640135.82653,   0.00000,   0.00000,   0.00000,-22591458.98951,   0.00000
476723799.13964,422619748.61359,-28639896.04739,   0.00134,   0.00099,  -0.00037,454819603.10727,   0.00000,274640135.82653,   0.00000,   0.00000,   0.00000,-19820532.71926,   0.00000
479912772.96491,424803070.94210,-28841026.34675,   0.00136,   0.00100,  -0.00037,457603445.57168,   0.00000,274640135.82653,   0.00000,   0.00000,   0.00000,-17036690.25485,   0.00000
483120271.94934,426994332.62453,-29047449.54871,   0.00137,   0.00100,  -0.00038,460403086.58754,   0.00000,274640135.82653,   0.00000,   0.00000,   0.00000,-14237049.23899,   0.00000
486354235.44683,429212058.82003,-29253872.75068,   0.00138,   0.00100,  -0.00038,463229638.81250,   0.00000,274640135.82653,   0.00000,   0.00000,   0.00000,-11410497.01402,   0.00000
489569673.78518,431421845.66161,-29460295.95265,   0.00139,   0.00101,  -0.00038,466042862.05530,   0.00000,274640135.82653,   0.00000,   0.00000,   0.00000,-8597273.77123,   0.00000
492830101.79575,433666036.37018,-29672012.05723,   0.00140,   0.00101,  -0.00039,468898014.90935,   0.00000,274640135.82653,   0.00000,   0.00000,   0.00000,-5742120.91718,   0.00000
496072004.64717,435902287.72483,-29883728.16181,   0.00141,   0.00102,  -0.00039,471739788.61551,   0.00000,274640135.82653,   0.00000,   0.00000,   0.00000,-2900347.21102,   0.00000
499340372.01166,438165003.59256,-30095444.26640,   0.00142,   0.00102,  -0.00039,474608374.23542,   0.00000,274640135.82653,   0.00000,   0.00000,   0.00000,-31761.59111,   0.00000
499376485.32443,438190148.72633,-30097836.26288,   0.00142,   0.00102,  -0.00039,474640140.95329,   0.00000,274640135.82653,   0.00000,   0.00000,   0.00000,  -0.37017,   0.00000
499606636.23212,437877530.53345,-30097274.67532,   0.00143,   0.00102,  -0.00039,474652020.35854,   0.00001,274652024.33261,   0.00001,   0.00001,  -0.00000,2850519.55601,   1.00000
499837287.80597,437563359.01813,-30096683.64617,   0.00144,   0.00103,  -0.00040,474664045.32159,   0.00002,274664047.38536,   0.00002,   0.00001,  -0.00001,2882819.91427,   1.00000
500069459.36558,437246371.43738,-30095012.80548,   0.00145,   0.00103,  -0.00040,474676127.83705,   0.00003,274676131.38306,   0.00003,   0.00002,  -0.00001,2897472.90686,   1.00000
500293776.83587,436938107.98486,-30097607.69638,   0.00146,   0.00104,  -0.00040,474688271.42658,   0.00004,274688271.74332,   0.00004,   0.00002,  -0.00001,2911024.68606,   1.00000
500514912.65968,436634732.78941,-30098200.01376,   0.00147,   0.00104,  -0.00041,474700513.43846,   0.00005,274700523.03711,   0.00004,   0.00003,  -0.00001,2937665.36673,   1.00000
500733026.92377,436332378.05438,-30103945.61706,   0.00148,   0.00104,  -0.00041,474712774.85229,   0.00007,274712780.44681,   0.00005,   0.00004,  -0.00002,2939165.44241,   1.00000
500950242.87554,436032817.44985,-30104448.36462,   0.00149,   0.00105,  -0.00041,474725027.10635,   0.00008,274725035.51831,   0.00006,   0.00004,  -0.00002,2938657.47214,   1.00000
501154006.78450,435748874.04601,-30113488.51526,   0.00150,   0.00105,  -0.00041,474737392.81861,   0.00009,274737400.63276,   0.00007,   0.00005,  -0.00002,2965082.41864,   1.00000
501365220.43310,435455198.22460,-30117100.90091,   0.00151,   0.00106,  -0.00042,474749767.53461,   0.00010,274749772.37186,   0.00008,   0.00005,  -0.00003,2966723.49253,   1.00000
501564104.99562,435178096.66345,-30124052.37182,   0.00152,   0.00106,  -0.00042,474762246.03782,   0.00011,274762249.64572,   0.00009,   0.00006,  -0.00003,2992089.42494,   1.00000
501768317.04855,434889428.84925,-30135945.66436,   0.00153,   0.00107,  -0.00042,474774734.12759,   0.00012,274774742.17845,   0.00010,   0.00007,  -0.00003,2995762.40925,   1.00000
501958960.66011,434623878.97649,-30141828.86881,   0.00154,   0.00107,  -0.00043,474787271.66713,   0.00013,274787272.32314,   0.00011,   0.00007,  -0.00003,3004870.85035,   1.00000
502154970.97919,434346679.63479,-30152660.33572,   0.00156,   0.00107,  -0.00043,474799807.76947,   0.00015,274799817.68696,   0.00012,   0.00008,  -0.00004,3008550.34094,   1.00000
502342277.05409,434081489.17672,-30165718.53018,   0.00157,   0.00108,  -0.00043,474812521.51247,   0.00016,274812527.23179,   0.00013,   0.00008,  -0.00004,3047973.95656,   1.00000
502524505.43187,433822759.78932,-30179730.66520,   0.00158,   0.00108,  -0.00044,474825174.23956,   0.00017,274825178.98422,   0.00014,   0.00009,  -0.00004,3034172.63992,   1.00000
502708543.30152,433561134.10590,-30192557.35862,   0.00159,   0.00109,  -0.00044,474837890.14416,   0.00018,274837891.28024,   0.00015,   0.00010,  -0.00005,3048749.82548,   1.00000
502885222.29583,433308298.07222,-30209556.46152,   0.00160,   0.00109,  -0.00044,474850650.29744,   0.00019,274850658.75396,   0.00016,   0.00010,  -0.00005,3062024.70874,   1.00000
503059087.59482,433060488.39438,-30224452.91656,   0.00161,   0.00110,  -0.00045,474863528.51886,   0.00020,274863536.16662,   0.00016,   0.00011,  -0.00005,3088460.74192,   1.00000
503231429.07135,432814416.12753,-30239224.91631,   0.00162,   0.00110,  -0.00045,474876410.27228,   0.00022,274876414.70342,   0.00017,   0.00011,  -0.00006,3088808.69783,   1.00000
503396547.31595,432577129.47488,-30258156.70363,   0.00163,   0.00111,  -0.00045,474889346.59576,   0.00023,274889348.03231,   0.00018,   0.00012,  -0.00006,3102021.34627,   1.00000
503560217.20629,432341518.90880,-30276933.33833,   0.00164,   0.00111,  -0.00046,474902274.40319,   0.00024,274902282.44097,   0.00019,   0.00013,  -0.00006,3102346.36807,   1.00000
503716769.55884,432114681.50584,-30299840.75247,   0.00165,   0.00112,  -0.00046,474915267.71572,   0.00025,274915271.43830,   0.00020,   0.00013,  -0.00006,3115510.01236,   1.00000
503875294.34888,431884848.41709,-30321489.56231,   0.00166,   0.00112,  -0.00046,474928318.39581,   0.00026,274928320.77792,   0.00021,   0.00014,  -0.00007,3130053.12598,   1.00000
504027814.22057,431664680.78126,-30342070.11960,   0.00167,   0.00113,  -0.00047,474941419.82878,   0.00027,274941420.29496,   0.00022,   0.00014,  -0.00007,3142182.46292,   1.00000
504173320.32937,431453248.24835,-30366766.16373,   0.00169,   0.00113,  -0.00047,474954573.70307,   0.00029,274954574.13241,   0.00023,   0.00015,  -0.00007,3155300.18708,   1.00000
504320876.37048,431238763.46493,-30390186.45755,   0.00170,   0.00113,  -0.00047,474967784.84553,   0.00030,274967788.13936,   0.00024,   0.00016,  -0.00008,3169820.79575,   1.00000
504467162.28794,431025870.72414,-30413417.73220,   0.00171,   0.00114,  -0.00048,474980998.69144,   0.00031,274981002.87580,   0.00025,   0.00016,  -0.00008,3170090.33662,   1.00000
504606499.29730,430821723.14192,-30440742.38754,   0.00172,   0.00114,  -0.00048,474994264.30168,   0.00032,274994271.78046,   0.00026,   0.00017,  -0.00008,3183171.08635,   1.00000
504738970.68963,430626295.14486,-30472128.75590,   0.00173,   0.00115,  -0.00048,475007593.13137,   0.00034,275007594.72164,   0.00027,   0.00017,  -0.00009,3196226.68525,   1.00000
504870307.41737,430432342.79579,-30503262.99852,   0.00174,   0.00115,  -0.00049,475020912.13689,   0.00035,275020918.30641,   0.00028,   0.00018,  -0.00009,3196468.35203,   1.00000
504999196.45374,430243371.66675,-30532170.63526,   0.00175,   0.00116,  -0.00049,475034346.80236,   0.00036,275034350.95263,   0.00029,   0.00019,  -0.00009,3222746.91479,   1.00000
505126997.54996,430055859.34175,-30560845.74966,   0.00176,   0.00116,  -0.00049,475047783.57418,   0.00037,275047784.02355,   0.00030,   0.00019,  -0.00010,3222972.05823,   1.00000
505248041.50566,429877014.05922,-30593567.90298,   0.00177,   0.00117,  -0.00050,475061270.16540,   0.00038,275061270.84052,   0.00031,   0.00020,  -0.00010,3235981.27689,   1.00000
505366986.74560,429698672.33049,-30631199.49410,   0.00179,   0.00118,  -0.00050,475074760.64090,   0.00040,275074762.40799,   0.00032,   0.00021,  -0.00010,3237211.84634,   1.00000
505480349.88946,429529858.15824,-30667632.40693,   0.00180,   0.00118,  -0.00050,475088298.33658,   0.00041,275088303.33333,   0.00033,   0.00021,  -0.00011,3249166.85376,   1.00000
505591419.38263,429365956.83622,-30701785.59947,   0.00181,   0.00119,  -0.00051,475101950.75247,   0.00042,275101952.96457,   0.00034,   0.00022,  -0.00011,3275392.02266,   1.00000
505701566.48865,429203365.80187,-30735662.29638,   0.00182,   0.00119,  -0.00051,475115598.50936,   0.00043,275115602.75914,   0.00035,   0.00022,  -0.00011,3275575.81440,   1.00000
505809720.85153,429041190.18817,-30774436.98393,   0.00183,   0.00120,  -0.00052,475129255.94845,   0.00045,275129257.06222,   0.00036,   0.00023,  -0.00012,3276782.19025,   1.00000
505911315.26302,428887591.90332,-30817170.32774,   0.00184,   0.00120,  -0.00052,475142961.26641,   0.00046,275142964.81588,   0.00038,   0.00024,  -0.00012,3289723.69343,   1.00000
506007509.98388,428743422.42251,-30858657.88659,   0.00185,   0.00121,  -0.00052,475156712.17858,   0.00047,275156721.53142,   0.00039,   0.00024,  -0.00012,3301611.70448,   1.00000
506106128.56133,428595892.16261,-30898711.21851,   0.00186,   0.00121,  -0.00053,475170533.08385,   0.00048,275170537.85983,   0.00040,   0.00025,  -0.00013,3316069.94994,   1.00000
506198282.58570,428456876.98055,-30942706.96717,   0.00187,   0.00122,  -0.00053,475184400.81554,   0.00050,275184407.38106,   0.00041,   0.00026,  -0.00013,3328980.00028,   1.00000
506286525.78030,428323575.74016,-30987445.45155,   0.00189,   0.00122,  -0.00054,475198213.35637,   0.00051,275198217.21248,   0.00042,   0.00026,  -0.00013,3314809.61792,   1.00000
506371582.86081,428194155.59258,-31034983.12720,   0.00190,   0.00123,  -0.00054,475212134.74253,   0.00052,275212139.77855,   0.00043,   0.00027,  -0.00014,3342011.99185,   1.00000
506451418.64606,428074056.76797,-31081227.91517,   0.00191,   0.00123,  -0.00054,475226106.58173,   0.00054,275226110.91502,   0.00044,   0.00027,  -0.00014,3353845.81048,   1.00000
506533794.39183,427950445.71852,-31125985.96612,   0.00192,   0.00124,  -0.00055,475240135.90739,   0.00055,275240141.50166,   0.00045,   0.00028,  -0.00014,3368293.37386,   1.00000
506611262.59347,427831533.21034,-31176652.52978,   0.00193,   0.00125,  -0.00055,475254110.94230,   0.00056,275254116.62877,   0.00046,   0.00029,  -0.00015,3355136.52025,   1.00000
506686746.16537,427717358.01524,-31224885.74691,   0.00194,   0.00125,  -0.00056,475268199.17360,   0.00057,275268199.87346,   0.00047,   0.00029,  -0.00015,3381275.24565,   1.00000
506752844.58333,427616054.75407,-31278092.41303,   0.00195,   0.00126,  -0.00056,475282274.90156,   0.00059,275282276.20749,   0.00048,   0.00030,  -0.00015,3379796.30741,   1.00000
506821594.37959,427511115.07286,-31329744.59904,   0.00196,   0.00126,  -0.00056,475296408.33275,   0.00060,275296411.92277,   0.00049,   0.00031,  -0.00016,3394233.22489,   1.00000
506884182.33019,427414466.49161,-31385225.29593,   0.00198,   0.00127,  -0.00057,475310598.66132,   0.00061,275310600.31794,   0.00050,   0.00031,  -0.00016,3407064.85472,   1.00000
506946302.24133,427318679.29692,-31440243.52855,   0.00199,   0.00128,  -0.00057,475324783.09405,   0.00063,275324788.38612,   0.00051,   0.00032,  -0.00016,3407169.46618,   1.00000
507003436.04654,427232030.89667,-31493891.08263,   0.00200,   0.00128,  -0.00058,475339016.13471,   0.00064,275339024.57887,   0.00052,   0.00033,  -0.00017,3418935.63748,   1.00000
507059053.80451,427145273.59550,-31552257.55550,   0.00201,   0.00129,  -0.00058,475353263.79887,   0.00065,275353264.71497,   0.00054,   0.00033,  -0.00017,3420078.72931,   1.00000
507109735.23590,427067585.85714,-31609219.81386,   0.00202,   0.00129,  -0.00058,475367546.64233,   0.00067,275367552.96416,   0.00055,   0.00034,  -0.00017,3431843.43874,   1.00000
507158947.80792,426989711.71464,-31670870.14850,   0.00203,   0.00130,  -0.00059,475381837.45456,   0.00068,275381845.16705,   0.00056,   0.00034,  -0.00018,3432982.26040,   1.00000
507206430.15840,426916350.64082,-31729955.95696,   0.00204,   0.00130,  -0.00059,475396240.38145,   0.00069,275396245.06963,   0.00057,   0.00035,  -0.00018,3459069.26094,   1.00000
507249338.86117,426847277.71970,-31794838.30035,   0.00205,   0.00131,  -0.00060,475410586.84199,   0.00071,275410589.22142,   0.00058,   0.00036,  -0.00018,3445875.30572,   1.00000
507290559.98257,426782650.40106,-31857118.05793,   0.00207,   0.00132,  -0.00060,475425032.08272,   0.00072,275425041.07404,   0.00059,   0.00036,  -0.00019,3471958.30751,   1.00000
507322760.48644,426730555.83761,-31924246.70854,   0.00208,   0.00132,  -0.00061,475439480.48656,   0.00073,275439485.51437,   0.00060,   0.00037,  -0.00019,3470402.24540,   1.00000
507357886.80683,426674470.14832,-31989666.94742,   0.00209,   0.00133,  -0.00061,475453980.55626,   0.00075,275453989.07991,   0.00061,   0.00038,  -0.00020,3484825.66497,   1.00000
507392810.34158,426618947.47332,-32054530.95646,   0.00210,   0.00134,  -0.00062,475468487.37917,   0.00076,275468491.97604,   0.00062,   0.00038,  -0.00020,3484897.21525,   1.00000
507414246.29430,426584192.20833,-32123290.92361,   0.00211,   0.00134,  -0.00062,475483029.63753,   0.00077,275483035.84112,   0.00063,   0.00039,  -0.00020,3494989.39542,   1.00000
507443220.04255,426536993.65573,-32191248.35888,   0.00212,   0.00135,  -0.00062,475497584.01994,   0.00079,275497590.26876,   0.00065,   0.00040,  -0.00021,3497757.31017,   1.00000
507466389.79277,426497679.46488,-32262854.18602,   0.00213,   0.00135,  -0.00063,475512192.25787,   0.00080,275512196.97252,   0.00066,   0.00040,  -0.00021,3510547.74790,   1.00000
507484948.82936,426467111.64639,-32332911.46488,   0.00215,   0.00136,  -0.00063,475526846.52337,   0.00081,275526851.33914,   0.00067,   0.00041,  -0.00021,3522258.47721,   1.00000
507502300.68631,426435961.07133,-32407525.98011,   0.00216,   0.00137,  -0.00064,475541508.15476,   0.00083,275541509.50625,   0.00068,   0.00042,  -0.00022,3523405.60111,   1.00000
507511973.87863,426417979.50648,-32481714.63565,   0.00217,   0.00137,  -0.00064,475556149.95174,   0.00084,275556155.63101,   0.00069,   0.00042,  -0.00022,3520766.23244,   1.00000
507523632.27383,426394813.78550,-32559265.83165,   0.00218,   0.00138,  -0.00065,475570864.58165,   0.00085,275570865.24103,   0.00070,   0.00043,  -0.00022,3536260.80968,   1.00000
507530777.55666,426380257.45033,-32635203.08580,   0.00219,   0.00139,  -0.00065,475585617.90014,   0.00087,275585622.49172,   0.00071,   0.00044,  -0.00023,3547969.05934,   1.00000
507537960.78889,426365909.65497,-32710481.24993,   0.00220,   0.00139,  -0.00066,475600371.08089,   0.00088,275600378.89788,   0.00072,   0.00044,  -0.00023,3548028.08912,   1.00000
507544029.45994,426350834.40329,-32790264.50370,   0.00221,   0.00140,  -0.00066,475615138.23556,   0.00089,275615139.09537,   0.00074,   0.00045,  -0.00024,3549183.19886,   1.00000
507541138.98264,426352640.02458,-32867456.60554,   0.00222,   0.00141,  -0.00067,475629988.54209,   0.00091,275629995.18501,   0.00075,   0.00046,  -0.00024,3572523.16912,   1.00000
507538588.01397,426349714.17060,-32951253.26713,   0.00224,   0.00141,  -0.00067,475644741.84194,   0.00092,275644747.03051,   0.00076,   0.00046,  -0.00024,3547698.90250,   1.00000
507529112.41706,426358134.58964,-33036395.97408,   0.00225,   0.00142,  -0.00068,475659651.05147,   0.00093,275659659.10846,   0.00077,   0.00047,  -0.00025,3586483.66213,   1.00000
507525481.53309,426359167.22820,-33116590.21072,   0.00226,   0.00143,  -0.00068,475674508.32785,   0.00095,275674517.35208,   0.00078,   0.00048,  -0.00025,3573809.40794,   1.00000
507510651.50544,426375050.20524,-33204477.31712,   0.00227,   0.00143,  -0.00069,475689475.66178,   0.00096,275689480.71770,   0.00079,   0.00048,  -0.00026,3599355.08493,   1.00000
507498581.21611,426387957.39498,-33288577.25892,   0.00228,   0.00144,  -0.00069,475704325.02765,   0.00098,275704330.62962,   0.00080,   0.00049,  -0.00026,3572340.96198,   1.00000
507484166.44738,426403726.54129,-33374945.59524,   0.00229,   0.00145,  -0.00070,475719285.34555,   0.00099,275719292.33712,   0.00082,   0.00050,  -0.00026,3599496.53269,   1.00000
507461164.91598,426431287.72588,-33465928.68736,   0.00230,   0.00145,  -0.00070,475734236.91402,   0.00100,275734246.62041,   0.00083,   0.00050,  -0.00027,3597973.32053,   1.00000
507441593.99064,426454198.94669,-33554916.10277,   0.00232,   0.00146,  -0.00071,475749255.19385,   0.00102,275749259.67146,   0.00084,   0.00051,  -0.00027,3612384.59680,   1.00000
507414657.90765,426489791.35797,-33643339.20046,   0.00233,   0.00147,  -0.00071,475764257.19758,   0.00103,275764260.55051,   0.00085,   0.00052,  -0.00027,3609756.12990,   1.00000
507389988.41182,426519684.67243,-33734931.47417,   0.00234,   0.00147,  -0.00072,475779319.32248,   0.00105,275779324.89533,   0.00086,   0.00052,  -0.00028,3625292.40443,   1.00000
507356801.99712,426561223.88067,-33831085.41550,   0.00235,   0.00148,  -0.00072,475794378.76925,   0.00106,275794381.90476,   0.00087,   0.00053,  -0.00028,3623795.09598,   1.00000
507323979.98586,426602446.02970,-33926381.94066,   0.00236,   0.00149,  -0.00073,475809431.40135,   0.00107,275809438.16643,   0.00088,   0.00054,  -0.00029,3623879.67758,   1.00000
507291527.67770,426643360.94442,-34020829.44228,   0.00237,   0.00150,  -0.00073,475824484.08242,   0.00109,275824493.63401,   0.00090,   0.00054,  -0.00029,3623956.95386,   1.00000
507249272.55985,426699657.39769,-34117616.82158,   0.00238,   0.00150,  -0.00074,475839643.84238,   0.00110,275839649.64657,   0.00091,   0.00055,  -0.00029,3648451.62006,   1.00000
507211941.92363,426747167.83084,-34214521.58458,   0.00239,   0.00151,  -0.00074,475854746.78464,   0.00112,275854756.55528,   0.00092,   0.00056,  -0.00030,3636900.43182,   1.00000
507169331.99232,426801658.66757,-34314718.38711,   0.00241,   0.00152,  -0.00075,475869913.66259,   0.00113,275869915.79035,   0.00093,   0.00056,  -0.00030,3649768.99031,   1.00000
507123988.60341,426860174.25471,-34415234.79990,   0.00242,   0.00152,  -0.00075,475885006.27441,   0.00114,275885014.83518,   0.00094,   0.00057,  -0.00031,3635542.12846,   1.00000
507076592.36191,426921076.52023,-34517778.43110,   0.00243,   0.00153,  -0.00076,475900223.25343,   0.00116,275900225.77565,   0.00095,   0.00058,  -0.00031,3662749.35071,   1.00000
507022009.71386,426994256.22535,-34619624.32966,   0.00244,   0.00154,  -0.00077,475915415.19712,   0.00117,275915424.84203,   0.00096,   0.00058,  -0.00032,3660177.38744,   1.00000
506967987.12841,427066829.62223,-34720552.36546,   0.00245,   0.00155,  -0.00077,475930621.22899,   0.00119,275930623.02667,   0.00098,   0.00059,  -0.00032,3660269.16885,   1.00000
506913262.52232,427137779.24052,-34825713.69522,   0.00246,   0.00155,  -0.00078,475945820.40117,   0.00120,275945825.39612,   0.00099,   0.00060,  -0.00032,3661537.82254,   1.00000
506853366.11661,427215430.81329,-34934061.35240,   0.00247,   0.00156,  -0.00078,475961075.96291,   0.00121,275961080.34425,   0.00100,   0.00061,  -0.00033,3674458.69930,   1.00000
506794053.04255,427292410.99362,-35041426.48375,   0.00248,   0.00157,  -0.00079,475976331.97493,   0.00123,275976334.66465,   0.00101,   0.00061,  -0.00033,3674571.60805,   1.00000
506735312.46078,427368721.37327,-35147817.58230,   0.00250,   0.00158,  -0.00079,475991581.42167,   0.00124,275991588.36792,   0.00102,   0.00062,  -0.00034,3674683.78464,   1.00000
506663729.44043,427464425.93517,-35257598.50099,   0.00251,   0.00158,  -0.00080,476006874.61350,   0.00126,276006883.64395,   0.00103,   0.00063,  -0.00034,3684979.30577,   1.00000
506597312.11680,427550996.46004,-35367401.86232,   0.00252,   0.00159,  -0.00080,476022126.54655,   0.00127,276022129.90331,   0.00105,   0.00063,  -0.00034,3673438.54204,   1.00000
506529000.10436,427639585.84421,-35479067.57566,   0.00253,   0.00160,  -0.00081,476037481.94142,   0.00128,276037488.34114,   0.00106,   0.00064,  -0.00035,3700714.20780,   1.00000
506454890.68054,427736344.79678,-35592232.30340,   0.00254,   0.00161,  -0.00082,476052722.09202,   0.00130,276052727.51986,   0.00107,   0.00065,  -0.00035,3672240.49208,   1.00000
506378953.52576,427835007.27257,-35707212.68905,   0.00255,   0.00161,  -0.00082,476068072.72853,   0.00131,276068078.93616,   0.00108,   0.00065,  -0.00036,3699530.55406,   1.00000
506303722.77253,427932780.12233,-35821140.90569,   0.00256,   0.00162,  -0.00083,476083424.13024,   0.00133,276083429.85904,   0.00109,   0.00066,  -0.00036,3699666.05958,   1.00000
506220194.91554,428041379.70010,-35939396.42182,   0.00257,   0.00163,  -0.00083,476098769.64521,   0.00134,276098774.46195,   0.00110,   0.00067,  -0.00037,3698389.29184,   1.00000
506137426.75532,428148986.49247,-36056568.72793,   0.00258,   0.00164,  -0.00084,476114116.10151,   0.00136,276114118.65311,   0.00112,   0.00067,  -0.00037,3698539.65221,   1.00000
506049646.61921,428262817.30835,-36176757.22369,   0.00260,   0.00164,  -0.00084,476129511.22877,   0.00137,276129515.96806,   0.00113,   0.00068,  -0.00037,3711580.08791,   1.00000
505963876.04966,428371826.38214,-36298173.35444,   0.00261,   0.00165,  -0.00085,476144797.30959,   0.00138,276144805.32029,   0.00114,   0.00069,  -0.00038,3685771.35736,   1.00000
505873178.22548,428491842.48048,-36415085.67382,   0.00262,   0.00166,  -0.00086,476160242.68608,   0.00140,276160250.41080,   0.00115,   0.00070,  -0.00038,3723578.77212,   1.00000
505783227.46603,428605943.10088,-36538402.21718,   0.00263,   0.00167,  -0.00086,476175592.55428,   0.00141,276175592.59395,   0.00116,   0.00070,  -0.00039,3698991.48540,   1.00000
505683797.31894,428734376.70106,-36663596.34107,   0.00264,   0.00167,  -0.00087,476191031.91342,   0.00143,276191036.69878,   0.00117,   0.00071,  -0.00039,3723782.32396,   1.00000
505591027.26939,428854439.75033,-36783566.03784,   0.00265,   0.00168,  -0.00087,476206418.26613,   0.00144,276206426.91838,   0.00119,   0.00072,  -0.00040,3711029.30918,   1.00000
505488701.16288,428983961.08722,-36912929.30929,   0.00266,   0.00169,  -0.00088,476221811.35928,   0.00146,276221816.61396,   0.00120,   0.00072,  -0.00040,3711098.87898,   1.00000
505387257.41002,429112251.99276,-37041099.36207,   0.00267,   0.00170,  -0.00089,476237199.02262,   0.00147,276237206.32003,   0.00121,   0.00073,  -0.00041,3711293.92652,   1.00000
505282207.24021,429247534.90987,-37167010.12915,   0.00268,   0.00171,  -0.00089,476252635.91279,   0.00149,276252644.45474,   0.00122,   0.00074,  -0.00041,3723192.55158,   1.00000
505173436.46973,429384947.18990,-37298201.01889,   0.00269,   0.00171,  -0.00090,476268025.21831,   0.00150,276268028.65801,   0.00123,   0.00075,  -0.00041,3710379.70184,   1.00000
505068929.78844,429516557.24164,-37426861.44938,   0.00271,   0.00172,  -0.00091,476283464.71797,   0.00151,276283472.02484,   0.00124,   0.00075,  -0.00042,3724832.07683,   1.00000
504957495.36908,429659587.76821,-37554564.61486,   0.00272,   0.00173,  -0.00091,476298897.92026,   0.00153,276298904.85185,   0.00126,   0.00076,  -0.00042,3722507.63070,   1.00000
504841014.61220,429803558.50078,-37692667.10259,   0.00273,   0.00174,  -0.00092,476314282.62971,   0.00154,276314289.34944,   0.00127,   0.00077,  -0.00043,3710993.10497,   1.00000
504725718.75610,429950916.21534,-37821936.90995,   0.00274,   0.00175,  -0.00092,476329773.42016,   0.00156,276329776.33255,   0.00128,   0.00077,  -0.00043,3735922.04756,   1.00000
504606695.06736,430100239.06047,-37956465.15137,   0.00275,   0.00175,  -0.00093,476345202.46042,   0.00157,276345209.78965,   0.00129,   0.00078,  -0.00044,3723179.38333,   1.00000
504487351.94547,430247024.38667,-38094871.46435,   0.00276,   0.00176,  -0.00094,476360646.93354,   0.00159,276360648.86141,   0.00130,   0.00079,  -0.00044,3724673.20895,   1.00000
504366946.80737,430397974.31723,-38228213.48537,   0.00277,   0.00177,  -0.00094,476376017.47837,   0.00160,276376024.00216,   0.00131,   0.00080,  -0.00045,3709419.56376,   1.00000
504240369.26755,430553382.04871,-38369453.56996,   0.00278,   0.00178,  -0.00095,476391449.69321,   0.00161,276391458.90747,   0.00133,   0.00080,  -0.00045,3723954.86209,   1.00000
504110352.89429,430715402.67443,-38508262.10527,   0.00279,   0.00179,  -0.00096,476406938.55998,   0.00163,276406942.93337,   0.00134,   0.00081,  -0.00046,3735959.83340,   1.00000
503982483.38394,430872203.88105,-38648258.68628,   0.00280,   0.00179,  -0.00096,476422312.66023,   0.00164,276422319.89924,   0.00135,   0.00082,  -0.00046,3710254.88296,   1.00000
503849821.85919,431034467.44539,-38790951.20046,   0.00281,   0.00180,  -0.00097,476437749.51304,   0.00166,276437751.55067,   0.00136,   0.00082,  -0.00046,3723564.12794,   1.00000
503713744.51210,431203230.13809,-38931182.49640,   0.00282,   0.00181,  -0.00098,476453228.87463,   0.00167,276453232.53909,   0.00137,   0.00083,  -0.00047,3735605.59915,   1.00000
503581930.92417,431361108.71812,-39076363.04749,   0.00283,   0.00182,  -0.00098,476468670.17784,   0.00169,276468670.88538,   0.00138,   0.00084,  -0.00047,3725399.02731,   1.00000
503443226.38462,431530007.09915,-39220425.81831,   0.00284,   0.00183,  -0.00099,476484097.91711,   0.00170,276484099.98436,   0.00140,   0.00085,  -0.00048,3723268.62864,   1.00000
503297664.55358,431709803.00958,-39363379.78814,   0.00286,   0.00184,  -0.00100,476499511.58956,   0.00172,276499519.83300,   0.00141,   0.00085,  -0.00048,3721156.56704,   1.00000
503156418.60553,431878616.48813,-39511272.53087,   0.00287,   0.00184,  -0.00100,476514894.82512,   0.00173,276514897.17153,   0.00142,   0.00086,  -0.00049,3710967.84236,   1.00000
503010416.33324,432052653.73146,-39661749.80365,   0.00288,   0.00185,  -0.00101,476530326.94389,   0.00174,276530329.91427,   0.00143,   0.00087,  -0.00049,3724384.76380,   1.00000
502866974.53945,432226108.38708,-39805710.84064,   0.00289,   0.00186,  -0.00102,476545749.38710,   0.00176,276545758.05317,   0.00144,   0.00087,  -0.00050,3723360.15327,   1.00000
502713887.58278,432408063.29043,-39958789.48406,   0.00290,   0.00187,  -0.00102,476561183.92017,   0.00177,276561188.51996,   0.00145,   0.00088,  -0.00050,3723962.26352,   1.00000
502558478.55907,432592690.32875,-40111843.51916,   0.00291,   0.00188,  -0.00103,476576558.15367,   0.00179,276576561.56200,   0.00146,   0.00089,  -0.00051,3710141.54325,   1.00000
502404294.00739,432775462.53528,-40263474.04847,   0.00292,   0.00189,  -0.00104,476591929.13675,   0.00180,276591935.84267,   0.00148,   0.00090,  -0.00051,3710471.79307,   1.00000
502251344.07526,432956414.37708,-40413696.02671,   0.00293,   0.00189,  -0.00104,476607310.90531,   0.00182,276607311.27343,   0.00149,   0.00090,  -0.00052,3710792.00426,   1.00000
502092261.02608,433141176.01388,-40571550.91762,   0.00294,   0.00190,  -0.00105,476622740.50264,   0.00183,276622748.39749,   0.00150,   0.00091,  -0.00052,3725654.52029,   1.00000
501932277.59625,433329771.19934,-40724247.45332,   0.00295,   0.00191,  -0.00106,476638118.37095,   0.00185,276638122.63932,   0.00151,   0.00092,  -0.00053,3710507.46609,   1.00000
501768531.04035,433519781.69666,-40882057.07763,   0.00296,   0.00192,  -0.00106,476653441.81967,   0.00186,276653445.51850,   0.00152,   0.00093,  -0.00053,3698092.95297,   1.00000
501601545.49427,433715840.32116,-41037199.37214,   0.00297,   0.00193,  -0.00107,476668815.81892,   0.00187,276668818.95582,   0.00153,   0.00093,  -0.00054,3710297.69218,   1.00000
501434427.97875,433908709.82501,-41196000.68411,   0.00298,   0.00194,  -0.00108,476684192.87341,   0.00189,276684199.72997,   0.00154,   0.00094,  -0.00054,3712030.98429,   1.00000
501263542.25768,434102926.13443,-41359868.32483,   0.00299,   0.00194,  -0.00108,476699522.69765,   0.00190,276699529.59331,   0.00156,   0.00095,  -0.00055,3699670.01839,   1.00000
501091767.58544,434300892.83779,-41518557.61888,   0.00300,   0.00195,  -0.00109,476714794.07067,   0.00192,276714797.03251,   0.00157,   0.00095,  -0.00055,3684572.13894,   1.00000
500923525.85664,434491122.81653,-41679427.03958,   0.00301,   0.00196,  -0.00110,476730126.25949,   0.00193,276730130.51214,   0.00158,   0.00096,  -0.00056,3700430.40397,   1.00000
500743265.75429,434695134.22249,-41845587.03688,   0.00302,   0.00197,  -0.00111,476745399.83129,   0.00195,276745404.20688,   0.00159,   0.00097,  -0.00056,3685908.21310,   1.00000
500564374.99358,434897062.99153,-42010206.16231,   0.00303,   0.00198,  -0.00111,476760678.59448,   0.00196,276760679.98509,   0.00160,   0.00098,  -0.00057,3686317.33548,   1.00000
500382318.26555,435104814.56478,-42172057.55699,   0.00304,   0.00199,  -0.00112,476776001.49924,   0.00197,276776007.04033,   0.00161,   0.00098,  -0.00057,3698614.82330,   1.00000
500200993.95198,435305843.32669,-42340217.60199,   0.00305,   0.00200,  -0.00113,476791231.21084,   0.00199,276791234.57046,   0.00162,   0.00099,  -0.00058,3674466.98776,   1.00000
500016509.05048,435512677.74756,-42505570.61705,   0.00306,   0.00201,  -0.00113,476806505.43775,   0.00200,276806513.66138,   0.00163,   0.00100,  -0.00058,3686787.94228,   1.00000
499828208.23695,435720666.56391,-42675966.69721,   0.00307,   0.00201,  -0.00114,476821739.60552,   0.00202,276821742.75368,   0.00165,   0.00101,  -0.00059,3674573.80320,   1.00000
499641313.02701,435926514.30881,-42844784.84905,   0.00308,   0.00202,  -0.00115,476836972.49115,   0.00203,276836974.31545,   0.00166,   0.00101,  -0.00059,3675014.59134,   1.00000
499446034.83782,436141336.09556,-43017357.01388,   0.00309,   0.00203,  -0.00116,476852204.39673,   0.00205,276852205.58217,   0.00167,   0.00102,  -0.00060,3674767.42609,   1.00000
499256723.85994,436346110.71913,-43189602.80336,   0.00310,   0.00204,  -0.00116,476867382.32274,   0.00206,276867390.14039,   0.00168,   0.00103,  -0.00060,3663294.85443,   1.00000
499060501.88506,436561115.29023,-43360482.44976,   0.00311,   0.00205,  -0.00117,476882560.95165,   0.00207,276882568.59444,   0.00169,   0.00104,  -0.00061,3661643.68618,   1.00000
498860413.01997,436777147.12521,-43536380.69001,   0.00312,   0.00206,  -0.00118,476897692.64223,   0.00209,276897697.77248,   0.00170,   0.00104,  -0.00061,3649536.85002,   1.00000
498657262.10804,436998732.42307,-43709366.39965,   0.00313,   0.00207,  -0.00119,476912876.60417,   0.00210,276912879.30375,   0.00171,   0.00105,  -0.00062,3661966.10857,   1.00000
498458617.98305,437208957.52539,-43887135.81735,   0.00314,   0.00207,  -0.00119,476928019.42730,   0.00212,276928020.39360,   0.00172,   0.00106,  -0.00062,3651952.13632,   1.00000
498249172.97888,437433810.34765,-44065011.08501,   0.00315,   0.00208,  -0.00120,476943097.41986,   0.00213,276943098.04500,   0.00173,   0.00106,  -0.00063,3636406.01468,   1.00000
498045118.49981,437651807.41793,-44239720.75001,   0.00316,   0.00209,  -0.00121,476958234.00657,   0.00215,276958236.80302,   0.00175,   0.00107,  -0.00063,3650896.05978,   1.00000
497833238.98364,437875284.79762,-44420970.82926,   0.00317,   0.00210,  -0.00122,476973264.99511,   0.00216,276973268.96482,   0.00176,   0.00108,  -0.00064,3624900.35516,   1.00000
497622874.46946,438096437.82087,-44600558.06727,   0.00318,   0.00211,  -0.00122,476988296.16990,   0.00217,276988304.49449,   0.00177,   0.00109,  -0.00064,3625415.08546,   1.00000
497412493.90613,438313983.07327,-44783580.32377,   0.00319,   0.00212,  -0.00123,477003346.54687,   0.00219,277003349.66409,   0.00178,   0.00109,  -0.00065,3627411.07753,   1.00000
497195144.23918,438541481.98999,-44965139.74804,   0.00320,   0.00213,  -0.00124,477018384.20107,   0.00220,277018390.18255,   0.00179,   0.00110,  -0.00065,3625973.80980,   1.00000
496979918.97695,438763446.46629,-45147927.52007,   0.00321,   0.00214,  -0.00125,477033317.31077,   0.00222,277033326.63487,   0.00180,   0.00111,  -0.00066,3600546.86001,   1.00000
496760140.09261,438989448.36572,-45332780.59329,   0.00321,   0.00215,  -0.00125,477048315.87681,   0.00223,277048322.85427,   0.00181,   0.00112,  -0.00067,3614593.81178,   1.00000
496537924.50751,439217612.20561,-45517507.21304,   0.00322,   0.00215,  -0.00126,477063255.93445,   0.00224,277063265.03346,   0.00182,   0.00112,  -0.00067,3601206.35631,   1.00000
496313276.96460,439447932.40009,-45702120.64990,   0.00323,   0.00216,  -0.00127,477078151.13768,   0.00226,277078153.19014,   0.00183,   0.00113,  -0.00068,3587828.58422,   1.00000
496084090.64457,439682126.30385,-45888760.95000,   0.00324,   0.00217,  -0.00128,477093098.38457,   0.00227,277093101.59116,   0.00184,   0.00114,  -0.00068,3601955.90259,   1.00000
495859464.75544,439904875.33292,-46080137.83894,   0.00325,   0.00218,  -0.00129,477108006.02495,   0.00229,277108010.61522,   0.00185,   0.00115,  -0.00069,3592019.36449,   1.00000
495625348.78997,440143331.82546,-46266502.22604,   0.00326,   0.00219,  -0.00129,477122850.26471,   0.00230,277122851.81986,   0.00186,   0.00115,  -0.00069,3575291.89166,   1.00000
495394198.26099,440368933.11149,-46462694.50870,   0.00327,   0.00220,  -0.00130,477137653.41420,   0.00232,277137660.36508,   0.00187,   0.00116,  -0.00070,3566918.61160,   1.00000
495157612.34908,440605668.59677,-46652253.01710,   0.00328,   0.00221,  -0.00131,477152453.15487,   0.00233,277152459.16987,   0.00189,   0.00117,  -0.00070,3564132.99127,   1.00000
494921055.40003,440838537.78167,-46845160.38450,   0.00329,   0.00222,  -0.00132,477167266.52842,   0.00234,277167268.92650,   0.00190,   0.00118,  -0.00071,3566291.71406,   1.00000
494681990.70198,441073484.91273,-47037930.05116,   0.00330,   0.00223,  -0.00132,477182021.92239,   0.00236,277182025.62489,   0.00191,   0.00118,  -0.00071,3553030.41047,   1.00000
494438800.44108,441309090.99522,-47235638.27029,   0.00331,   0.00223,  -0.00133,477196731.09696,   0.00237,277196736.03904,   0.00192,   0.00119,  -0.00072,3541353.12948,   1.00000
494197256.90626,441542221.04081,-47431565.50600,   0.00331,   0.00224,  -0.00134,477211449.43065,   0.00238,277211451.26569,   0.00193,   0.00120,  -0.00072,3541981.91975,   1.00000
493953165.27918,441777424.66416,-47627355.19237,   0.00332,   0.00225,  -0.00135,477226109.99225,   0.00240,277226113.80414,   0.00194,   0.00121,  -0.00073,3528763.82419,   1.00000
493700360.17830,442020772.44116,-47826648.63436,   0.00333,   0.00226,  -0.00136,477240777.08003,   0.00241,277240780.74634,   0.00195,   0.00121,  -0.00074,3529259.83331,   1.00000
493449555.01499,442258583.68729,-48027225.98419,   0.00334,   0.00227,  -0.00137,477255340.64559,   0.00243,277255345.06094,   0.00196,   0.00122,  -0.00074,3503979.86606,   1.00000
493195879.59074,442501375.49556,-48224567.44367,   0.00335,   0.00228,  -0.00137,477269959.84295,   0.00244,277269964.86981,   0.00197,   0.00123,  -0.00075,3516760.27839,   1.00000
492942522.31745,442737223.47191,-48428295.60990,   0.00336,   0.00229,  -0.00138,477284480.30632,   0.00245,277284488.92045,   0.00198,   0.00124,  -0.00075,3493091.62171,   1.00000
492686308.61159,442978045.43469,-48628752.02527,   0.00337,   0.00230,  -0.00139,477299063.48102,   0.00247,277299068.76050,   0.00199,   0.00124,  -0.00076,3505896.40468,   1.00000
492423204.20497,443225378.50605,-48830740.20368,   0.00338,   0.00231,  -0.00140,477313534.99448,   0.00248,277313539.28794,   0.00200,   0.00125,  -0.00076,3478993.47939,   1.00000
492160151.64059,443468642.36224,-49035982.76796,   0.00338,   0.00232,  -0.00141,477328021.56034,   0.00250,277328022.26538,   0.00201,   0.00126,  -0.00077,3481322.61854,   1.00000
491899002.50014,443706439.45001,-49242552.75714,   0.00339,   0.00232,  -0.00141,477342398.18794,   0.00251,277342403.15015,   0.00202,   0.00126,  -0.00077,3456091.45471,   1.00000
491633340.27205,443947653.44558,-49450860.81104,   0.00340,   0.00233,  -0.00142,477356842.83601,   0.00252,277356847.38660,   0.00203,   0.00127,  -0.00078,3470599.79789,   1.00000
491365028.48757,444190835.08599,-49659007.65175,   0.00341,   0.00234,  -0.00143,477371237.07017,   0.00254,277371240.32169,   0.00204,   0.00128,  -0.00078,3457560.32993,   1.00000
491089660.21891,444440487.42149,-49868697.40669,   0.00342,   0.00235,  -0.00144,477385519.49253,   0.00255,277385524.86940,   0.00205,   0.00129,  -0.00079,3430796.52666,   1.00000
490820442.72297,444682980.81003,-50074846.48908,   0.00343,   0.00236,  -0.00145,477399867.67597,   0.00256,277399872.70010,   0.00206,   0.00129,  -0.00080,3445271.40205,   1.00000
490542399.93786,444930451.26736,-50287626.55541,   0.00343,   0.00237,  -0.00146,477414115.19285,   0.00258,277414119.39095,   0.00207,   0.00130,  -0.00080,3420215.17569,   1.00000
490266101.15189,445175297.70668,-50498541.30931,   0.00344,   0.00238,  -0.00146,477428367.52148,   0.00259,277428372.47001,   0.00208,   0.00131,  -0.00081,3420972.94260,   1.00000
489985371.95964,445420553.32841,-50714361.17038,   0.00345,   0.00239,  -0.00147,477442580.68115,   0.00260,277442581.99766,   0.00209,   0.00132,  -0.00081,3409702.72311,   1.00000
489703612.46478,445669245.37341,-50924978.90775,   0.00346,   0.00240,  -0.00148,477456726.14302,   0.00262,277456733.89330,   0.00210,   0.00132,  -0.00082,3395085.62337,   1.00000
489417388.55783,445918303.73709,-51140524.71073,   0.00347,   0.00241,  -0.00149,477470838.80427,   0.00263,277470842.44037,   0.00211,   0.00133,  -0.00082,3383858.55095,   1.00000
489126669.51608,446170442.10687,-51357676.68347,   0.00347,   0.00241,  -0.00150,477485007.84889,   0.00264,277485016.05707,   0.00212,   0.00134,  -0.00083,3398601.07431,   1.00000
488833178.80408,446421677.00736,-51577972.81086,   0.00348,   0.00242,  -0.00151,477499031.18336,   0.00266,277499031.56888,   0.00213,   0.00135,  -0.00083,3359819.47491,   1.00000
488541457.41162,446670234.41506,-51796364.61577,   0.00349,   0.00243,  -0.00151,477513054.04248,   0.00267,277513054.21774,   0.00214,   0.00135,  -0.00084,3360644.10830,   1.00000
488246913.42717,446920662.70323,-52014620.47065,   0.00350,   0.00244,  -0.00152,477527020.53255,   0.00268,277527027.02496,   0.00215,   0.00136,  -0.00085,3347804.91112,   1.00000
487952407.77122,447166867.70253,-52236023.32958,   0.00350,   0.00245,  -0.00153,477541010.22794,   0.00270,277541014.33931,   0.00216,   0.00137,  -0.00085,3350350.39663,   1.00000
487652172.08632,447421057.65600,-52454021.69880,   0.00351,   0.00246,  -0.00154,477554883.07476,   0.00271,277554887.76529,   0.00217,   0.00137,  -0.00086,3322175.96505,   1.00000
487350199.83361,447669375.54899,-52680197.87634,   0.00352,   0.00247,  -0.00155,477568777.44882,   0.00272,277568783.42992,   0.00217,   0.00138,  -0.00086,3326511.91269,   1.00000
487047119.76823,447921151.95899,-52901192.30547,   0.00353,   0.00248,  -0.00156,477582617.71543,   0.00274,277582622.39827,   0.00218,   0.00139,  -0.00087,3311996.62139,   1.00000
486743869.54753,448165992.61237,-53128713.37755,   0.00353,   0.00249,  -0.00157,477596359.47947,   0.00275,277596368.28879,   0.00219,   0.00140,  -0.00087,3288706.95749,   1.00000
486433173.59286,448419886.37571,-53354473.72015,   0.00354,   0.00250,  -0.00157,477610110.90094,   0.00276,277610116.61468,   0.00220,   0.00140,  -0.00088,3288289.96264,   1.00000
486119547.12176,448675582.46378,-53580111.06723,   0.00355,   0.00250,  -0.00158,477623812.58384,   0.00278,277623816.06282,   0.00221,   0.00141,  -0.00089,3275597.03138,   1.00000
485805939.59631,448926926.28397,-53808850.72770,   0.00356,   0.00251,  -0.00159,477637525.85644,   0.00279,277637531.10402,   0.00222,   0.00142,  -0.00089,3278274.38801,   1.00000
485489078.55207,449177480.61773,-54040911.54570,   0.00356,   0.00252,  -0.00160,477651079.42730,   0.00280,277651089.34349,   0.00223,   0.00143,  -0.00090,3239719.41385,   1.00000
485169529.06895,449432466.55693,-54269376.57162,   0.00357,   0.00253,  -0.00161,477664706.13300,   0.00281,277664707.44342,   0.00224,   0.00143,  -0.00090,3252968.55115,   1.00000
484845147.45980,449687561.53921,-54502742.12473,   0.00358,   0.00254,  -0.00162,477678275.23389,   0.00283,277678284.99317,   0.00225,   0.00144,  -0.00091,3242168.48716,   1.00000
484524078.56567,449939036.78206,-54732639.32964,   0.00358,   0.00255,  -0.00163,477691749.71596,   0.00284,277691754.89214,   0.00226,   0.00145,  -0.00091,3215386.73036,   1.00000
484198112.00872,450190659.21472,-54967456.51793,   0.00359,   0.00256,  -0.00163,477705178.85974,   0.00285,277705184.45338,   0.00227,   0.00145,  -0.00092,3204623.11578,   1.00000
483864575.65965,450451123.05335,-55200475.54633,   0.00360,   0.00257,  -0.00164,477718617.83724,   0.00287,277718617.96249,   0.00228,   0.00146,  -0.00093,3204445.75661,   1.00000
483530606.82118,450704580.21609,-55440090.97229,   0.00361,   0.00258,  -0.00165,477731952.30453,   0.00288,277731959.77631,   0.00228,   0.00147,  -0.00093,3181380.32410,   1.00000
483198471.84113,450955326.18652,-55677728.21626,   0.00361,   0.00259,  -0.00166,477745301.57985,   0.00289,277745310.62072,   0.00229,   0.00148,  -0.00094,3182344.42984,   1.00000
482858228.35872,451212355.98285,-55917115.69410,   0.00362,   0.00259,  -0.00167,477758549.42064,   0.00290,277758557.53801,   0.00230,   0.00148,  -0.00094,3156378.27688,   1.00000
482519828.84300,451466643.96353,-56154538.37216,   0.00363,   0.00260,  -0.00168,477771812.27458,   0.00292,277771813.61582,   0.00231,   0.00149,  -0.00095,3157369.48481,   1.00000
482173223.39020,451727163.17653,-56393747.51290,   0.00363,   0.00261,  -0.00169,477784961.27433,   0.00293,277784966.05915,   0.00232,   0.00150,  -0.00095,3131476.48955,   1.00000
481831073.21905,451976231.32137,-56637730.09178,   0.00364,   0.00262,  -0.00170,477798076.18037,   0.00294,277798083.75336,   0.00233,   0.00150,  -0.00096,3121933.94596,   1.00000
481481208.76038,452234032.85130,-56879867.88725,   0.00365,   0.00263,  -0.00171,477811201.40814,   0.00295,277811206.81807,   0.00234,   0.00151,  -0.00097,3121956.71078,   1.00000
481132582.54046,452486630.38301,-57123675.58050,   0.00365,   0.00264,  -0.00171,477824229.76623,   0.00297,277824230.85122,   0.00234,   0.00152,  -0.00097,3097129.41713,   1.00000
480780663.74137,452740983.89179,-57367407.10994,   0.00366,   0.00265,  -0.00172,477837203.00959,   0.00298,277837208.27732,   0.00235,   0.00153,  -0.00098,3084760.99524,   1.00000
480423550.76750,452995321.16606,-57616058.23824,   0.00366,   0.00266,  -0.00173,477850142.78063,   0.00299,277850147.38296,   0.00236,   0.00153,  -0.00098,3074322.78311,   1.00000
480063117.27882,453251385.17951,-57864619.27909,   0.00367,   0.00267,  -0.00174,477863039.32332,   0.00300,277863040.28223,   0.00237,   0.00154,  -0.00099,3062013.23065,   1.00000
479699331.17184,453509146.36486,-58113101.32834,   0.00368,   0.00267,  -0.00175,477875880.96676,   0.00302,277875887.12082,   0.00238,   0.00155,  -0.00099,3049728.99956,   1.00000
479332183.26772,453768596.90715,-58361518.66438,   0.00368,   0.00268,  -0.00176,477888679.27990,   0.00303,277888687.94747,   0.00239,   0.00155,  -0.00100,3037458.52453,   1.00000
478966108.06776,454022897.97367,-58611690.37272,   0.00369,   0.00269,  -0.00177,477901386.15716,   0.00304,277901390.20920,   0.00239,   0.00156,  -0.00101,3012712.68317,   1.00000
478595478.37190,454279468.10120,-58863040.89579,   0.00369,   0.00270,  -0.00178,477914155.94896,   0.00305,277914163.96199,   0.00240,   0.00157,  -0.00101,3028268.02365,   1.00000
478222515.21695,454537187.52761,-59113128.19512,   0.00370,   0.00271,  -0.00179,477926770.12475,   0.00306,277926774.75812,   0.00241,   0.00157,  -0.00102,2988271.03535,   1.00000
477844131.69018,454794761.19378,-59368162.02095,   0.00371,   0.00272,  -0.00179,477939344.71374,   0.00308,277939348.47576,   0.00242,   0.00158,  -0.00102,2978060.86185,   1.00000
477465639.02329,455047722.32740,-59626161.32663,   0.00371,   0.00273,  -0.00180,477951934.67521,   0.00309,277951941.56731,   0.00243,   0.00159,  -0.00103,2981179.72601,   1.00000
477084642.39260,455301898.02306,-59882943.98824,   0.00372,   0.00274,  -0.00181,477964362.78594,   0.00310,277964372.06229,   0.00243,   0.00159,  -0.00103,2941244.66161,   1.00000
476695653.35624,455564511.07657,-60137843.27954,   0.00372,   0.00275,  -0.00182,477976806.97974,   0.00311,277976810.47668,   0.00244,   0.00160,  -0.00104,2941681.02591,   1.00000
476310964.52221,455815711.76543,-60397586.90373,   0.00373,   0.00275,  -0.00183,477989207.21321,   0.00312,277989215.57043,   0.00245,   0.00161,  -0.00105,2932303.35845,   1.00000
475917219.41659,456073036.94086,-60659278.52063,   0.00373,   0.00276,  -0.00184,478001513.99534,   0.00314,278001519.95349,   0.00246,   0.00162,  -0.00105,2906997.29275,   1.00000
475519833.94858,456331994.27028,-60920943.14484,   0.00374,   0.00277,  -0.00185,478013777.28400,   0.00315,278013779.85054,   0.00247,   0.00162,  -0.00106,2894979.14831,   1.00000
475124278.83081,456588150.24565,-61180602.74199,   0.00374,   0.00278,  -0.00186,478026047.53999,   0.00316,278026051.27507,   0.00247,   0.00163,  -0.00106,2896189.68890,   1.00000
474721924.58955,456841788.43926,-61449118.21102,   0.00375,   0.00279,  -0.00187,478038172.84429,   0.00317,278038177.92251,   0.00248,   0.00164,  -0.00107,2860449.38198,   1.00000
474317827.20441,457098973.98699,-61712657.12284,   0.00376,   0.00280,  -0.00188,478050245.48940,   0.00318,278050251.77232,   0.00249,   0.00164,  -0.00107,2846454.93464,   1.00000
473913549.42629,457351471.54101,-61979148.92047,   0.00376,   0.00281,  -0.00189,478062345.66208,   0.00319,278062346.24845,   0.00250,   0.00165,  -0.00108,2849742.26741,   1.00000
473499870.46455,457609996.44962,-62247657.04791,   0.00377,   0.00281,  -0.00189,478074339.99563,   0.00321,278074341.10285,   0.00250,   0.00166,  -0.00109,2824681.15772,   1.00000
473088773.69549,457865427.76673,-62513175.25063,   0.00377,   0.00282,  -0.00190,478086221.55500,   0.00322,278086229.78970,   0.00251,   0.00166,  -0.00109,2798109.21148,   1.00000
472665390.86921,458125178.71269,-62786661.39994,   0.00378,   0.00283,  -0.00191,478098137.39657,   0.00323,278098146.44025,   0.00252,   0.00167,  -0.00110,2803042.57019,   1.00000
472250240.46026,458377472.43210,-63055134.55327,   0.00378,   0.00284,  -0.00192,478110003.29525,   0.00324,278110012.84833,   0.00253,   0.00168,  -0.00110,2789615.87965,   1.00000
471829832.36659,458629213.11258,-63327669.56699,   0.00378,   0.00285,  -0.00193,478121723.29688,   0.00325,278121726.30514,   0.00253,   0.00168,  -0.00111,2752037.78330,   1.00000
471401085.92438,458889114.00077,-63598267.75198,   0.00379,   0.00286,  -0.00194,478133449.03219,   0.00326,278133450.45556,   0.00254,   0.00169,  -0.00111,2752920.31215,   1.00000
470970672.85845,459142030.21790,-63875841.50796,   0.00379,   0.00287,  -0.00195,478145079.53244,   0.00327,278145086.85632,   0.00255,   0.00170,  -0.00112,2730627.61758,   1.00000
470536245.75787,459396530.71736,-64153449.38459,   0.00380,   0.00287,  -0.00196,478156676.55376,   0.00328,278156680.50537,   0.00255,   0.00170,  -0.00112,2718908.78793,   1.00000
470099830.45856,459654590.90108,-64426182.57381,   0.00380,   0.00288,  -0.00197,478168220.69708,   0.00330,278168222.24873,   0.00256,   0.00171,  -0.00113,2705085.21229,   1.00000
469661603.75215,459905681.79169,-64705944.77777,   0.00381,   0.00289,  -0.00198,478179669.12768,   0.00331,278179676.48392,   0.00257,   0.00172,  -0.00114,2682862.26958,   1.00000
469209024.92358,460169150.92873,-64985820.95078,   0.00381,   0.00290,  -0.00199,478191079.69823,   0.00332,278191087.00842,   0.00257,   0.00172,  -0.00114,2670911.13215,   1.00000
468762561.37846,460423281.16495,-65265721.64068,   0.00382,   0.00291,  -0.00200,478202450.28175,   0.00333,278202456.63239,   0.00258,   0.00173,  -0.00115,2659618.85595,   1.00000
468314145.90381,460670458.81092,-65552670.02426,   0.00382,   0.00292,  -0.00200,478213734.69972,   0.00334,278213739.20848,   0.00259,   0.00173,  -0.00115,2637486.51735,   1.00000
467853281.27586,460931988.09748,-65834810.97428,   0.00382,   0.00293,  -0.00201,478224962.10856,   0.00335,278224969.46678,   0.00259,   0.00174,  -0.00116,2623516.77385,   1.00000
467398490.07023,461184239.61730,-66117019.11681,   0.00383,   0.00293,  -0.00202,478236149.61720,   0.00336,278236158.85020,   0.00260,   0.00175,  -0.00116,2612222.86769,   1.00000
466935561.09999,461433856.08113,-66408442.16512,   0.00383,   0.00294,  -0.00203,478247204.72814,   0.00337,278247206.00994,   0.00261,   0.00175,  -0.00117,2577228.12391,   1.00000
466472150.14469,461689135.98693,-66690838.64640,   0.00384,   0.00295,  -0.00204,478258303.70709,   0.00338,278258312.26678,   0.00261,   0.00176,  -0.00117,2589249.61919,   1.00000
466000454.85802,461941727.84909,-66982499.18623,   0.00384,   0.00296,  -0.00205,478269269.50433,   0.00339,278269276.53748,   0.00262,   0.00177,  -0.00118,2554341.42644,   1.00000
465526463.87776,462197885.44646,-67269374.17803,   0.00384,   0.00297,  -0.00206,478280182.28330,   0.00340,278280189.97809,   0.00263,   0.00177,  -0.00119,2540720.18688,   1.00000
465050161.48244,462447033.46996,-67563411.74570,   0.00385,   0.00298,  -0.00207,478291007.32492,   0.00341,278291017.13346,   0.00263,   0.00178,  -0.00119,2518801.27528,   1.00000
464569357.14329,462697659.04767,-67857576.21891,   0.00385,   0.00298,  -0.00208,478301797.21611,   0.00342,278301803.40648,   0.00264,   0.00178,  -0.00120,2507458.36339,   1.00000
464086158.75744,462951869.19004,-68146995.00103,   0.00385,   0.00299,  -0.00209,478312533.87071,   0.00343,278312539.04440,   0.00265,   0.00179,  -0.00120,2493888.05753,   1.00000
463589981.82898,463209606.93825,-68443631.49980,   0.00386,   0.00300,  -0.00210,478323185.75124,   0.00344,278323188.57970,   0.00265,   0.00180,  -0.00121,2472039.32493,   1.00000
463099720.59851,463458173.64452,-68740416.71878,   0.00386,   0.00301,  -0.00211,478333789.19377,   0.00345,278333797.79426,   0.00266,   0.00180,  -0.00121,2460817.81029,   1.00000
462598486.98778,463712415.39180,-69039540.75851,   0.00386,   0.00302,  -0.00212,478344308.16999,   0.00346,278344311.43766,   0.00266,   0.00181,  -0.00122,2436790.28283,   1.00000
462103126.47406,463957541.74339,-69338841.71832,   0.00387,   0.00302,  -0.00213,478354778.75667,   0.00347,278354784.76576,   0.00267,   0.00182,  -0.00122,2425571.54971,   1.00000
461596628.82323,464208324.15512,-69640512.23821,   0.00387,   0.00303,  -0.00213,478365154.76004,   0.00348,278365162.84282,   0.00268,   0.00182,  -0.00123,2401629.36927,   1.00000
461085342.84341,464460473.36103,-69942370.66306,   0.00387,   0.00304,  -0.00214,478375494.50698,   0.00349,278375501.04550,   0.00268,   0.00183,  -0.00123,2390515.94437,   1.00000
460569235.10221,464713962.56470,-70244426.94265,   0.00388,   0.00305,  -0.00215,478385797.86087,   0.00350,278385799.50530,   0.00269,   0.00183,  -0.00124,2379440.00938,   1.00000
460052446.46101,464962570.28463,-70548918.48977,   0.00388,   0.00306,  -0.00216,478395993.90927,   0.00351,278396002.71988,   0.00269,   0.00184,  -0.00125,2355528.02547,   1.00000
459530750.44065,465212530.87246,-70853628.35100,   0.00388,   0.00307,  -0.00217,478406162.17457,   0.00352,278406166.38251,   0.00270,   0.00184,  -0.00125,2344496.11222,   1.00000
459001708.55913,465461817.72704,-71163029.54755,   0.00389,   0.00307,  -0.00218,478416171.27702,   0.00353,278416179.91321,   0.00270,   0.00185,  -0.00126,2307943.09753,   1.00000
458474236.58465,465708243.89957,-71470436.76787,   0.00389,   0.00308,  -0.00219,478426203.76630,   0.00354,278426209.23520,   0.00271,   0.00186,  -0.00126,2309663.28735,   1.00000
457939243.85400,465954015.93594,-71782590.24178,   0.00389,   0.00309,  -0.00220,478436084.63976,   0.00355,278436088.50947,   0.00272,   0.00186,  -0.00127,2273180.32943,   1.00000
457394985.17857,466207186.52168,-72092702.60604,   0.00389,   0.00310,  -0.00221,478445981.66237,   0.00356,278445985.06502,   0.00272,   0.00187,  -0.00127,2275220.31024,   1.00000
456853854.65321,466449381.58335,-72407661.94114,   0.00390,   0.00311,  -0.00222,478455724.84544,   0.00357,278455730.53637,   0.00273,   0.00187,  -0.00128,2238541.75570,   1.00000
456303387.80251,466698951.64134,-72720577.72641,   0.00390,   0.00311,  -0.00223,478465492.73687,   0.00358,278465493.66213,   0.00273,   0.00188,  -0.00128,2240652.60075,   1.00000
455751795.21832,466943662.05095,-73036083.89841,   0.00390,   0.00312,  -0.00224,478475160.04740,   0.00359,278475161.99243,   0.00274,   0.00188,  -0.00129,2216944.84345,   1.00000
455188112.11439,467193707.88500,-73354130.47916,   0.00390,   0.00313,  -0.00225,478484734.95897,   0.00360,278484737.25385,   0.00274,   0.00189,  -0.00129,2193642.58253,   1.00000
454625428.57288,467441208.90887,-73669975.99987,   0.00390,   0.00314,  -0.00226,478494200.85295,   0.00361,278494207.13309,   0.00275,   0.00190,  -0.00130,2167562.57436,   1.00000
454061941.07907,467683470.48302,-73988691.47791,   0.00391,   0.00314,  -0.00226,478503698.92118,   0.00362,278503704.40691,   0.00275,   0.00190,  -0.00130,2171861.59066,   1.00000
453490185.90629,467924997.19718,-74312357.30756,   0.00391,   0.00315,  -0.00227,478513047.98508,   0.00363,278513052.34118,   0.00276,   0.00191,  -0.00131,2135735.42419,   1.00000
452912914.20164,468167691.36485,-74636330.55386,   0.00391,   0.00316,  -0.00228,478522358.07017,   0.00364,278522362.63076,   0.00276,   0.00191,  -0.00131,2125149.57012,   1.00000
452325398.17080,468417953.68632,-74958101.12876,   0.00391,   0.00317,  -0.00229,478531564.81994,   0.00364,278531569.77815,   0.00277,   0.00192,  -0.00132,2099650.37629,   1.00000
451741026.02461,468656889.23218,-75285125.47443,   0.00391,   0.00317,  -0.00230,478540740.97866,   0.00365,278540748.17321,   0.00277,   0.00192,  -0.00132,2091096.87920,   1.00000
451143947.72984,468900978.09248,-75614786.27443,   0.00391,   0.00318,  -0.00231,478549828.32335,   0.00366,278549834.78264,   0.00278,   0.00193,  -0.00133,2068187.08162,   1.00000
450547466.35204,469142602.31635,-75942405.44159,   0.00392,   0.00319,  -0.00232,478558812.21197,   0.00367,278558816.04350,   0.00278,   0.00193,  -0.00133,2042240.95357,   1.00000
449945199.32418,469385295.08255,-76270395.03720,   0.00392,   0.00320,  -0.00233,478567755.86770,   0.00368,278567760.27283,   0.00279,   0.00194,  -0.00134,2031843.26068,   1.00000
449338778.82997,469620685.60799,-76606000.79792,   0.00392,   0.00321,  -0.00234,478576617.90114,   0.00369,278576621.54914,   0.00279,   0.00194,  -0.00134,2010987.34438,   1.00000
448728784.88445,469859576.88917,-76937178.51599,   0.00392,   0.00321,  -0.00235,478585431.96440,   0.00370,278585434.88224,   0.00280,   0.00195,  -0.00135,1998124.79366,   1.00000
448105618.97374,470103450.77801,-77271083.83160,   0.00392,   0.00322,  -0.00236,478594153.31384,   0.00370,278594157.23115,   0.00280,   0.00196,  -0.00135,1975508.10578,   1.00000
447480397.93624,470342400.75302,-77607864.40738,   0.00392,   0.00323,  -0.00237,478602776.50852,   0.00371,278602785.64494,   0.00280,   0.00196,  -0.00136,1952235.40981,   1.00000
446849117.03945,470582311.17605,-77945048.69672,   0.00392,   0.00324,  -0.00238,478611373.24172,   0.00372,278611377.86101,   0.00281,   0.00197,  -0.00136,1942052.86555,   1.00000
446215639.96532,470817306.09795,-78285148.06112,   0.00392,   0.00324,  -0.00238,478619870.82089,   0.00373,278619876.21751,   0.00281,   0.00197,  -0.00137,1918840.04599,   1.00000
445575981.17185,471053232.03727,-78625665.31729,   0.00393,   0.00325,  -0.00239,478628333.99267,   0.00374,278628338.68214,   0.00282,   0.00198,  -0.00137,1908734.77879,   1.00000
444928914.98627,471290674.73106,-78966738.25508,   0.00393,   0.00326,  -0.00240,478636634.80768,   0.00375,278636641.38383,   0.00282,   0.00198,  -0.00138,1870726.42083,   1.00000
444280638.42747,471522563.55893,-79310653.79434,   0.00393,   0.00326,  -0.00241,478644970.17272,   0.00375,278644974.41393,   0.00283,   0.00199,  -0.00138,1875552.59138,   1.00000
443624740.46047,471755967.27929,-79655184.35910,   0.00393,   0.00327,  -0.00242,478653141.27574,   0.00376,278653147.70701,   0.00283,   0.00199,  -0.00139,1837622.73148,   1.00000
442954858.90275,471994064.63016,-80002562.74756,   0.00393,   0.00328,  -0.00243,478661226.66140,   0.00377,278661231.52363,   0.00283,   0.00200,  -0.00139,1815523.04525,   1.00000
442287506.57444,472220747.79435,-80355345.30142,   0.00393,   0.00329,  -0.00244,478669281.00740,   0.00378,278669287.95867,   0.00284,   0.00200,  -0.00140,1807356.22138,   1.00000
441618367.84416,472453407.23780,-80699098.42965,   0.00393,   0.00329,  -0.00245,478677277.19545,   0.00378,278677285.39555,   0.00284,   0.00200,  -0.00140,1792166.31385,   1.00000
440932566.37864,472688056.41667,-81050501.39447,   0.00393,   0.00330,  -0.00246,478685199.57147,   0.00379,278685205.82525,   0.00285,   0.00201,  -0.00140,1772924.23986,   1.00000
440243875.37543,472917685.85861,-81405007.14963,   0.00393,   0.00331,  -0.00247,478693031.29935,   0.00380,278693032.92625,   0.00285,   0.00201,  -0.00141,1750051.11937,   1.00000
439552191.31096,473142301.73036,-81762634.01322,   0.00393,   0.00331,  -0.00248,478700758.31130,   0.00381,278700766.76765,   0.00285,   0.00202,  -0.00141,1727205.77184,   1.00000
438848295.93057,473374013.74193,-82118452.92766,   0.00393,   0.00332,  -0.00249,478708392.85785,   0.00381,278708400.07770,   0.00286,   0.00202,  -0.00142,1702794.80031,   1.00000
438149072.32589,473596928.08606,-82475031.34203,   0.00393,   0.00333,  -0.00249,478715988.41056,   0.00382,278715993.98454,   0.00286,   0.00203,  -0.00142,1692046.82459,   1.00000
437435014.62112,473824233.43901,-82834575.60977,   0.00393,   0.00334,  -0.00250,478723496.89331,   0.00383,278723499.86351,   0.00286,   0.00203,  -0.00143,1670475.12433,   1.00000
436713913.44769,474052097.55195,-83194654.22999,   0.00393,   0.00334,  -0.00251,478730966.37835,   0.00384,278730971.96606,   0.00287,   0.00204,  -0.00143,1660992.48374,   1.00000
435989418.51362,474274873.09795,-83557969.26889,   0.00393,   0.00335,  -0.00252,478738346.96559,   0.00384,278738350.97781,   0.00287,   0.00204,  -0.00144,1638342.41977,   1.00000
435255860.18811,474498952.34992,-83922280.66121,   0.00393,   0.00336,  -0.00253,478745566.57997,   0.00385,278745570.56787,   0.00287,   0.00205,  -0.00144,1601019.51484,   1.00000
434520629.55767,474717128.92000,-84289413.58711,   0.00393,   0.00336,  -0.00254,478752817.23421,   0.00386,278752823.18328,   0.00288,   0.00205,  -0.00144,1606379.62543,   1.00000
433772450.01683,474942156.40607,-84654866.47034,   0.00393,   0.00337,  -0.00255,478759967.80855,   0.00386,278759976.20856,   0.00288,   0.00205,  -0.00145,1582390.11924,   1.00000
433020513.20462,475162020.19483,-85023648.13077,   0.00393,   0.00338,  -0.00256,478767031.73455,   0.00387,278767036.31847,   0.00288,   0.00206,  -0.00145,1559913.13681,   1.00000
432256524.53547,475380324.11045,-85398240.13730,   0.00393,   0.00338,  -0.00257,478773941.51933,   0.00388,278773950.05577,   0.00289,   0.00206,  -0.00146,1525647.47265,   1.00000
431495649.31459,475598143.08960,-85766272.25218,   0.00393,   0.00339,  -0.00258,478780868.34223,   0.00388,278780871.73044,   0.00289,   0.00207,  -0.00146,1525504.95840,   1.00000
430722461.22829,475814352.22622,-86140185.97873,   0.00392,   0.00340,  -0.00258,478787638.13797,   0.00389,278787646.99675,   0.00289,   0.00207,  -0.00146,1491342.90317,   1.00000
429939081.82475,476028055.06129,-86519390.65738,   0.00392,   0.00340,  -0.00259,478794395.59068,   0.00390,278794403.00948,   0.00290,   0.00208,  -0.00147,1485186.51191,   1.00000
429156408.01682,476242109.93504,-86892680.67003,   0.00392,   0.00341,  -0.00260,478801034.28593,   0.00390,278801040.12223,   0.00290,   0.00208,  -0.00147,1457192.25826,   1.00000
428363385.00719,476453577.26926,-87271282.76295,   0.00392,   0.00342,  -0.00261,478807648.36719,   0.00391,278807658.29468,   0.00290,   0.00208,  -0.00148,1451143.00598,   1.00000
427557482.97766,476663258.29837,-87655854.59811,   0.00392,   0.00342,  -0.00262,478814125.36788,   0.00392,278814130.60737,   0.00290,   0.00209,  -0.00148,1417290.34126,   1.00000
426746023.82417,476875897.62177,-88036407.13925,   0.00392,   0.00343,  -0.00263,478820555.49088,   0.00392,278820558.02989,   0.00291,   0.00209,  -0.00148,1405610.62960,   1.00000
425929906.25276,477083166.24654,-88420482.84342,   0.00392,   0.00344,  -0.00264,478826889.01203,   0.00393,278826893.05460,   0.00291,   0.00210,  -0.00149,1383559.09787,   1.00000
425109028.95170,477285072.32728,-88808104.13587,   0.00392,   0.00344,  -0.00265,478833135.04095,   0.00394,278833135.65757,   0.00291,   0.00210,  -0.00149,1361541.56199,   1.00000
424273731.70340,477493318.40046,-89194271.91089,   0.00391,   0.00345,  -0.00266,478839274.59487,   0.00394,278839280.35501,   0.00292,   0.00210,  -0.00150,1338374.19902,   1.00000
423438749.25003,477698133.72548,-89578607.56772,   0.00391,   0.00345,  -0.00266,478845446.74536,   0.00395,278845447.12366,   0.00292,   0.00211,  -0.00150,1341374.56734,   1.00000
422589987.82475,477900873.13328,-89969080.08924,   0.00391,   0.00346,  -0.00267,478851463.72206,   0.00395,278851468.55862,   0.00292,   0.00211,  -0.00150,1307961.54241,   1.00000
421736041.21686,478098121.77864,-90363181.99352,   0.00391,   0.00347,  -0.00268,478857397.66383,   0.00396,278857397.83878,   0.00292,   0.00211,  -0.00151,1286159.17920,   1.00000
420864628.00986,478298544.07158,-90760510.02729,   0.00391,   0.00347,  -0.00269,478863241.52493,   0.00396,278863243.86868,   0.00293,   0.00212,  -0.00151,1266313.41395,   1.00000
419999187.44666,478493017.99966,-91154347.34048,   0.00391,   0.00348,  -0.00270,478869034.38072,   0.00397,278869036.95062,   0.00293,   0.00212,  -0.00151,1253088.74680,   1.00000
419116035.86045,478690565.46096,-91551448.75508,   0.00390,   0.00349,  -0.00271,478874743.62758,   0.00398,278874747.02420,   0.00293,   0.00212,  -0.00152,1233383.27592,   1.00000
418229785.93509,478885456.66171,-91947661.47633,   0.00390,   0.00349,  -0.00272,478880350.16197,   0.00398,278880351.06623,   0.00293,   0.00213,  -0.00152,1208767.53515,   1.00000
417326199.50893,479074919.97379,-92354759.97692,   0.00390,   0.00350,  -0.00273,478885816.43534,   0.00399,278885824.78730,   0.00293,   0.00213,  -0.00153,1178927.68667,   1.00000
416425113.93916,479263771.19230,-92755438.56660,   0.00390,   0.00350,  -0.00273,478891304.49622,   0.00399,278891307.56366,   0.00294,   0.00213,  -0.00153,1179177.78867,   1.00000
415508927.30644,479450093.26990,-93162453.29573,   0.00389,   0.00351,  -0.00274,478896643.09593,   0.00400,278896645.96341,   0.00294,   0.00214,  -0.00153,1146442.16201,   1.00000
414586000.36518,479638955.73670,-93565634.14870,   0.00389,   0.00352,  -0.00275,478901938.77424,   0.00400,278901940.87979,   0.00294,   0.00214,  -0.00154,1135441.29922,   1.00000
413656837.67520,479821992.83719,-93972636.69546,   0.00389,   0.00352,  -0.00276,478907136.40971,   0.00401,278907144.21819,   0.00294,   0.00214,  -0.00154,1114148.47662,   1.00000
412718217.48684,480004453.73467,-94380404.13273,   0.00389,   0.00353,  -0.00277,478912311.56893,   0.00401,278912318.81846,   0.00295,   0.00215,  -0.00154,1106347.82228,   1.00000
411763810.43412,480184104.83177,-94794596.50907,   0.00388,   0.00353,  -0.00278,478917341.49312,   0.00402,278917349.65599,   0.00295,   0.00215,  -0.00155,1073983.67324,   1.00000
410805344.27540,480360886.55694,-95208101.10126,   0.00388,   0.00354,  -0.00279,478922269.67062,   0.00402,278922274.47684,   0.00295,   0.00215,  -0.00155,1049761.71258,   1.00000
409837087.01113,480536901.08233,-95622383.68396,   0.00388,   0.00354,  -0.00279,478927163.80975,   0.00403,278927171.29867,   0.00295,   0.00216,  -0.00155,1042199.50620,   1.00000
408861976.28288,480706883.12721,-96040579.76792,   0.00388,   0.00355,  -0.00280,478931974.05698,   0.00403,278931976.95947,   0.00295,   0.00216,  -0.00155,1021227.59643,   1.00000
407879477.05708,480879140.49643,-96455020.21227,   0.00387,   0.00356,  -0.00281,478936734.84924,   0.00404,278936739.95528,   0.00295,   0.00216,  -0.00156,1010607.05370,   1.00000
406880298.91295,481048243.90444,-96876010.01929,   0.00387,   0.00356,  -0.00282,478941354.74755,   0.00404,278941359.76238,   0.00296,   0.00217,  -0.00156,978697.57288,   1.00000
405876431.20302,481214322.12505,-97296445.89155,   0.00387,   0.00357,  -0.00283,478945868.20001,   0.00404,278945873.44653,   0.00296,   0.00217,  -0.00156,954721.61362,   1.00000
404859672.94770,481376163.61590,-97722206.86340,   0.00386,   0.00357,  -0.00284,478950371.80619,   0.00405,278950375.51106,   0.00296,   0.00217,  -0.00157,950754.26958,   1.00000
403837983.55709,481534910.46836,-98147451.87283,   0.00386,   0.00358,  -0.00285,478954764.70616,   0.00405,278954771.53183,   0.00296,   0.00217,  -0.00157,926884.15006,   1.00000
402798601.20393,481698557.28964,-98571603.25238,   0.00386,   0.00358,  -0.00285,478959070.33042,   0.00406,278959073.64450,   0.00296,   0.00218,  -0.00157,905644.37470,   1.00000
401758663.23998,481849735.19231,-99001693.56971,   0.00385,   0.00359,  -0.00286,478963350.67402,   0.00406,278963352.69122,   0.00296,   0.00218,  -0.00158,899337.33279,   1.00000
400706106.46003,482003773.09260,-99429464.95947,   0.00385,   0.00359,  -0.00287,478967453.30059,   0.00407,278967458.10229,   0.00297,   0.00218,  -0.00158,861453.91362,   1.00000
399640105.47662,482153181.56187,-99862550.50953,   0.00385,   0.00360,  -0.00288,478971547.21667,   0.00407,278971553.46893,   0.00297,   0.00218,  -0.00158,857940.18603,   1.00000
398558469.91386,482302015.30843,-100297857.77686,   0.00384,   0.00360,  -0.00289,478975485.25664,   0.00407,278975491.25078,   0.00297,   0.00219,  -0.00158,823571.27677,   1.00000
397475823.21286,482446602.46653,-100731364.50475,   0.00384,   0.00361,  -0.00290,478979453.82195,   0.00408,278979455.38739,   0.00297,   0.00219,  -0.00159,827723.89134,   1.00000
396377172.97062,482590479.44512,-101167148.75795,   0.00383,   0.00361,  -0.00290,478983256.61937,   0.00408,278983262.01870,   0.00297,   0.00219,  -0.00159,793517.96627,   1.00000
395269851.81589,482727598.10294,-101607084.54759,   0.00383,   0.00362,  -0.00291,478986975.23626,   0.00408,278986978.73896,   0.00297,   0.00219,  -0.00159,773480.93264,   1.00000
394151116.77434,482862975.03773,-102047842.02786,   0.00383,   0.00362,  -0.00292,478990668.84885,   0.00409,278990671.02631,   0.00297,   0.00220,  -0.00159,767105.16355,   1.00000
393026050.47521,482994812.35259,-102488323.67082,   0.00382,   0.00363,  -0.00293,478994249.52630,   0.00409,278994257.34490,   0.00297,   0.00220,  -0.00160,743830.35389,   1.00000
391879006.38628,483127313.88004,-102932259.11150,   0.00382,   0.00363,  -0.00294,478997761.20484,   0.00409,278997768.57205,   0.00298,   0.00220,  -0.00160,727016.67776,   1.00000
390735597.01233,483245206.75265,-103381152.64939,   0.00381,   0.00364,  -0.00294,479001169.54711,   0.00410,279001175.81152,   0.00298,   0.00220,  -0.00160,704275.74908,   1.00000
389570012.64942,483371997.72332,-103825671.20740,   0.00381,   0.00364,  -0.00295,479004548.70100,   0.00410,279004557.88885,   0.00298,   0.00220,  -0.00160,697874.37862,   1.00000
388397295.28955,483486571.34857,-104277837.81407,   0.00380,   0.00365,  -0.00296,479007775.94895,   0.00410,279007784.87216,   0.00298,   0.00221,  -0.00160,664715.36193,   1.00000
387204471.57231,483604761.94226,-104729043.03147,   0.00380,   0.00365,  -0.00297,479010918.08431,   0.00411,279010921.44277,   0.00298,   0.00221,  -0.00161,644970.78785,   1.00000
386012361.53865,483713223.15097,-105181874.26283,   0.00379,   0.00366,  -0.00298,479014010.18769,   0.00411,279014020.02343,   0.00298,   0.00221,  -0.00161,636037.92284,   1.00000
384799825.12415,483825128.23477,-105633763.55222,   0.00379,   0.00366,  -0.00298,479017026.20907,   0.00411,279017028.59606,   0.00298,   0.00221,  -0.00161,616487.28996,   1.00000
383585210.60034,483923773.55327,-106091697.07612,   0.00378,   0.00367,  -0.00299,479020014.58590,   0.00412,279020016.39814,   0.00298,   0.00221,  -0.00161,611146.32550,   1.00000
382354687.32522,484024128.32030,-106547795.20228,   0.00378,   0.00367,  -0.00300,479022825.61629,   0.00412,279022830.79789,   0.00298,   0.00222,  -0.00162,574655.37161,   1.00000
381097880.35417,484120556.95207,-107011719.92848,   0.00377,   0.00368,  -0.00301,479025588.65875,   0.00412,279025590.99898,   0.00298,   0.00222,  -0.00162,562573.87935,   1.00000
379846528.48686,484214049.27384,-107468573.71726,   0.00377,   0.00368,  -0.00302,479028274.80946,   0.00412,279028278.70644,   0.00299,   0.00222,  -0.00162,546820.88565,   1.00000
378579571.79782,484301220.42290,-107930600.70415,   0.00376,   0.00369,  -0.00302,479030958.64667,   0.00413,279030963.21174,   0.00299,   0.00222,  -0.00162,545183.55607,   1.00000
377293170.93702,484386151.99232,-108395243.45357,   0.00376,   0.00369,  -0.00303,479033485.51490,   0.00413,279033492.42098,   0.00299,   0.00222,  -0.00162,512710.72959,   1.00000
375998173.37427,484466641.43914,-108859890.40127,   0.00375,   0.00370,  -0.00304,479035915.16791,   0.00413,279035916.40034,   0.00299,   0.00222,  -0.00162,490490.58237,   1.00000
374691762.23959,484539037.67720,-109328905.46000,   0.00375,   0.00370,  -0.00305,479038243.28487,   0.00413,279038253.09619,   0.00299,   0.00223,  -0.00163,471951.99250,   1.00000
373371808.46471,484608233.57702,-109798700.79213,   0.00374,   0.00370,  -0.00305,479040560.83616,   0.00414,279040570.48353,   0.00299,   0.00223,  -0.00163,467189.13664,   1.00000
372042771.12016,484672784.99373,-110268551.38455,   0.00374,   0.00371,  -0.00306,479042781.29839,   0.00414,279042782.80399,   0.00299,   0.00223,  -0.00163,445192.66663,   1.00000
370688551.67171,484735829.43311,-110741796.41275,   0.00373,   0.00371,  -0.00307,479044925.38686,   0.00414,279044927.14899,   0.00299,   0.00223,  -0.00163,430709.34343,   1.00000
369336304.54528,484792149.31262,-111212482.35824,   0.00373,   0.00372,  -0.00308,479047014.06801,   0.00414,279047016.21251,   0.00299,   0.00223,  -0.00163,418827.17411,   1.00000
367960318.93645,484841756.46277,-111690209.32548,   0.00372,   0.00372,  -0.00308,479048960.29266,   0.00414,279048969.66651,   0.00299,   0.00223,  -0.00163,390895.54671,   1.00000
366570104.90870,484887619.08562,-112168665.75983,   0.00371,   0.00373,  -0.00309,479050903.65552,   0.00415,279050905.82513,   0.00299,   0.00223,  -0.00163,386709.69776,   1.00000
365169884.93367,484928357.44741,-112647232.22331,   0.00371,   0.00373,  -0.00310,479052733.01765,   0.00415,279052737.75511,   0.00299,   0.00223,  -0.00164,365198.03325,   1.00000
363759483.89472,484963921.51674,-113125939.27099,   0.00370,   0.00373,  -0.00311,479054460.27105,   0.00415,279054465.31054,   0.00299,   0.00224,  -0.00164,343738.50286,   1.00000
362334466.42142,484995450.32801,-113605356.35569,   0.00370,   0.00374,  -0.00311,479056171.71941,   0.00415,279056176.55270,   0.00299,   0.00224,  -0.00164,339845.76989,   1.00000
360884470.02374,485019484.24734,-114091818.39421,   0.00369,   0.00374,  -0.00312,479057752.62861,   0.00415,279057754.18942,   0.00299,   0.00224,  -0.00164,312712.05775,   1.00000
359435580.21122,485036445.01513,-114575819.31058,   0.00368,   0.00374,  -0.00313,479059274.40053,   0.00415,279059276.64337,   0.00299,   0.00224,  -0.00164,301194.55493,   1.00000
357962320.29879,485054309.30194,-115058863.94811,   0.00368,   0.00375,  -0.00314,479060712.45357,   0.00416,279060716.38665,   0.00299,   0.00224,  -0.00164,284282.60990,   1.00000
356475309.97704,485062705.04766,-115546336.69755,   0.00367,   0.00375,  -0.00314,479062067.04756,   0.00416,279062072.02138,   0.00299,   0.00224,  -0.00164,267155.45555,   1.00000
354974348.15933,485061507.85998,-116038235.93160,   0.00366,   0.00376,  -0.00315,479063334.31303,   0.00416,279063343.87027,   0.00299,   0.00224,  -0.00164,250149.56185,   1.00000
353460498.34791,485059340.47533,-116526528.37387,   0.00366,   0.00376,  -0.00316,479064574.88171,   0.00416,279064582.59002,   0.00299,   0.00224,  -0.00164,243161.42817,   1.00000
351932354.14440,485047360.90633,-117019247.43291,   0.00365,   0.00376,  -0.00317,479065733.93409,   0.00416,279065738.05947,   0.00299,   0.00224,  -0.00164,226378.13743,   1.00000
350392310.41555,485029283.33666,-117512187.24021,   0.00364,   0.00377,  -0.00317,479066788.80384,   0.00416,279066790.69135,   0.00300,   0.00224,  -0.00165,205827.86743,   1.00000
348836363.47192,485006076.49846,-118005698.71209,   0.00364,   0.00377,  -0.00318,479067825.59344,   0.00416,279067831.13340,   0.00300,   0.00224,  -0.00165,203040.44697,   1.00000
347255717.26378,484977718.34053,-118502033.76081,   0.00363,   0.00377,  -0.00319,479068712.22845,   0.00416,279068721.83166,   0.00300,   0.00224,  -0.00165,173469.59074,   1.00000
345672434.09930,484937872.29599,-119000189.43380,   0.00362,   0.00378,  -0.00319,479069569.30643,   0.00416,279069577.92287,   0.00300,   0.00225,  -0.00165,166399.46577,   1.00000
344062848.88773,484897483.65750,-119497274.59194,   0.00362,   0.00378,  -0.00320,479070349.63681,   0.00416,279070355.88364,   0.00300,   0.00225,  -0.00165,150914.50071,   1.00000
342437752.22766,484846446.93340,-119998753.17955,   0.00361,   0.00378,  -0.00321,479071044.92463,   0.00417,279071052.85832,   0.00300,   0.00225,  -0.00165,134931.45586,   1.00000
340812222.62537,484787612.22365,-120497894.28045,   0.00360,   0.00379,  -0.00322,479071689.84530,   0.00417,279071695.18081,   0.00300,   0.00225,  -0.00165,124105.44127,   1.00000
339159758.68935,484727751.80912,-120995922.75767,   0.00359,   0.00379,  -0.00322,479072257.52121,   0.00417,279072260.87794,   0.00300,   0.00225,  -0.00165,109083.91115,   1.00000
337488647.71422,484652893.83790,-121502466.87317,   0.00359,   0.00379,  -0.00323,479072764.26247,   0.00417,279072767.47449,   0.00300,   0.00225,  -0.00165,97489.95457,   1.00000
335806349.07109,484574779.58669,-122005117.32379,   0.00358,   0.00380,  -0.00324,479073146.25491,   0.00417,279073152.58144,   0.00300,   0.00225,  -0.00165,73957.69676,   1.00000
334106807.72415,484490297.76311,-122508145.65972,   0.00357,   0.00380,  -0.00324,479073520.55212,   0.00417,279073530.31077,   0.00300,   0.00225,  -0.00165,72391.24993,   1.00000
332390599.98675,484394353.05966,-123015522.75588,   0.00356,   0.00380,  -0.00325,479073822.19096,   0.00417,279073829.26073,   0.00300,   0.00225,  -0.00165,57177.92158,   1.00000
330646922.16199,484291422.47908,-123525674.27323,   0.00356,   0.00381,  -0.00326,479073979.00931,   0.00417,279073982.87887,   0.00300,   0.00225,  -0.00165,29321.29816,   1.00000
328898659.47216,484181001.64346,-124033560.49384,   0.00355,   0.00381,  -0.00326,479074170.20641,   0.00417,279074176.90498,   0.00300,   0.00225,  -0.00165,36956.94982,   1.00000
327135658.71189,484062705.11197,-124541669.51288,   0.00354,   0.00381,  -0.00327,479074265.76856,   0.00417,279074271.87236,   0.00300,   0.00225,  -0.00165,18049.29366,   1.00000
325357243.43340,483935675.44922,-125049788.16388,   0.00353,   0.00382,  -0.00328,479073527.78392,   0.00417,279074271.87236,   0.00300,   0.00225,  -0.00165,-744.08844,   0.00000
323541777.83660,483792767.07863,-125557906.81488,   0.00353,   0.00382,  -0.00328,479063581.80241,   0.00417,279074271.87236,   0.00300,   0.00225,  -0.00165,-10690.06995,   0.00000
321718372.88589,483631333.54888,-126066025.46588,   0.00352,   0.00382,  -0.00329,479047827.32721,   0.00417,279074271.87236,   0.00300,   0.00225,  -0.00165,-26444.54515,   0.00000
319849978.26295,483435496.15214,-126568851.21426,   0.00351,   0.00382,  -0.00330,479005299.44038,   0.00417,279074271.87236,   0.00300,   0.00225,  -0.00165,-68972.43198,   0.00000
317973644.28609,483221133.59625,-127066384.06003,   0.00350,   0.00383,  -0.00330,478952936.56396,   0.00417,279074271.87236,   0.00300,   0.00225,  -0.00165,-121335.30840,   0.00000
316060259.99092,482990892.33252,-127563916.90580,   0.00349,   0.00383,  -0.00331,478892181.71409,   0.00417,279074271.87236,   0.00300,   0.00225,  -0.00165,-182090.15828,   0.00000
314138936.34184,482742125.90964,-128056156.84895,   0.00348,   0.00383,  -0.00332,478821753.27971,   0.00417,279074271.87236,   0.00300,   0.00225,  -0.00165,-252518.59265,   0.00000
312180562.37445,482477480.77891,-128548396.79211,   0.00348,   0.00383,  -0.00332,478743357.81720,   0.00417,279074271.87236,   0.00300,   0.00225,  -0.00165,-330914.05517,   0.00000
310214249.05314,482194310.48903,-129035343.83265,   0.00347,   0.00384,  -0.00333,478655457.85206,   0.00417,279074271.87236,   0.00300,   0.00225,  -0.00165,-418814.02030,   0.00000
308202946.05961,481876736.33216,-129522290.87318,   0.00346,   0.00384,  -0.00333,478546222.11643,   0.00417,279074271.87236,   0.00300,   0.00225,  -0.00165,-528049.75593,   0.00000
306183703.71215,481540637.01613,-130003945.01111,   0.00345,   0.00384,  -0.00334,478427661.13869,   0.00417,279074271.87236,   0.00300,   0.00225,  -0.00165,-646610.73367,   0.00000
304127411.04639,481188658.99226,-130485599.14903,   0.00344,   0.00384,  -0.00335,478302018.98403,   0.00417,279074271.87236,   0.00300,   0.00225,  -0.00165,-772252.88833,   0.00000
302063179.02671,480818155.80924,-130961960.38435,   0.00343,   0.00385,  -0.00335,478167238.11357,   0.00417,279074271.87236,   0.00300,   0.00225,  -0.00165,-907033.75879,   0.00000
299961896.68873,480431773.91838,-131433028.71704,   0.00342,   0.00385,  -0.00336,478021470.05608,   0.00417,279074271.87236,   0.00300,   0.00225,  -0.00165,-1052801.81628,   0.00000
297844735.64291,480008341.70922,-131904097.04974,   0.00342,   0.00385,  -0.00337,477857310.78783,   0.00417,279074271.87236,   0.00300,   0.00225,  -0.00165,-1216961.08454,   0.00000
295690524.27878,479569030.79221,-132375165.38243,   0.00341,   0.00385,  -0.00337,477687006.86799,   0.00417,279074271.87236,   0.00300,   0.00225,  -0.00165,-1387265.00437,   0.00000
293536312.91466,479129719.87520,-132840940.81251,   0.00340,   0.00386,  -0.00338,477521759.45718,   0.00417,279074271.87236,   0.00300,   0.00225,  -0.00165,-1552512.41518,   0.00000
291347697.68353,478645419.28597,-133301423.33998,   0.00339,   0.00386,  -0.00338,477326393.38988,   0.00417,279074271.87236,   0.00300,   0.00225,  -0.00165,-1747878.48248,   0.00000
289122032.13411,478145239.98889,-133761905.86745,   0.00338,   0.00386,  -0.00339,477125600.79336,   0.00417,279074271.87236,   0.00300,   0.00225,  -0.00165,-1948671.07900,   0.00000
286896366.58469,477645060.69181,-134217095.49230,   0.00337,   0.00386,  -0.00340,476930165.64309,   0.00417,279074271.87236,   0.00300,   0.00225,  -0.00165,-2144106.22927,   0.00000
284636297.16827,477099891.72251,-134672285.11715,   0.00336,   0.00386,  -0.00340,476709612.78754,   0.00417,279074271.87236,   0.00300,   0.00225,  -0.00165,-2364659.08482,   0.00000
282357702.59270,476546783.39929,-135122181.83939,   0.00335,   0.00387,  -0.00341,476487215.06268,   0.00417,279074271.87236,   0.00300,   0.00225,  -0.00165,-2587056.80968,   0.00000
280060582.85798,475985735.72215,-135566785.65901,   0.00334,   0.00387,  -0.00341,476263129.18914,   0.00417,279074271.87236,   0.00300,   0.00225,  -0.00165,-2811142.68322,   0.00000
277729059.25627,475379698.37278,-136011389.47864,   0.00333,   0.00387,  -0.00342,476014522.64137,   0.00417,279074271.87236,   0.00300,   0.00225,  -0.00165,-3059749.23099,   0.00000
275379010.49540,474765721.66949,-136455993.29826,   0.00332,   0.00387,  -0.00342,475769155.75134,   0.00417,279074271.87236,   0.00300,   0.00225,  -0.00165,-3305116.12102,   0.00000
273002497.22146,474125280.45313,-136895304.21527,   0.00331,   0.00387,  -0.00343,475508919.41472,   0.00417,279074271.87236,   0.00300,   0.00225,  -0.00165,-3565352.45764,   0.00000
270607458.78837,473476899.88285,-137329322.22966,   0.00330,   0.00387,  -0.00344,475247744.90202,   0.00417,279074271.87236,   0.00300,   0.00225,  -0.00165,-3826526.97034,   0.00000
268178016.48829,472783529.64034,-137763340.24406,   0.00329,   0.00388,  -0.00344,474962923.77942,   0.00417,279074271.87236,   0.00300,   0.00225,  -0.00165,-4111348.09295,   0.00000
265756513.54213,472108684.55698,-138192065.35584,   0.00329,   0.00388,  -0.00345,474698132.80158,   0.00417,279074271.87236,   0.00300,   0.00225,  -0.00165,-4376139.07079,   0.00000
263282081.56982,471380910.44748,-138615497.56500,   0.00328,   0.00388,  -0.00345,474398607.07081,   0.00417,279074271.87236,   0.00300,   0.00225,  -0.00165,-4675664.80155,   0.00000
260807649.59751,470653136.33798,-139038929.77417,   0.00327,   0.00388,  -0.00346,474110259.90542,   0.00417,279074271.87236,   0.00300,   0.00225,  -0.00165,-4964011.96694,   0.00000
258306753.11213,469898897.71540,-139462361.98333,   0.00326,   0.00388,  -0.00346,473812774.67746,   0.00417,279074271.87236,   0.00300,   0.00225,  -0.00165,-5261497.19490,   0.00000
255779392.11368,469118194.57975,-139880501.28988,   0.00325,   0.00388,  -0.00347,473501716.15324,   0.00417,279074271.87236,   0.00300,   0.00225,  -0.00165,-5572555.71912,   0.00000
253233505.95608,468329552.09019,-140293347.69382,   0.00324,   0.00389,  -0.00347,473190990.72423,   0.00417,279074271.87236,   0.00300,   0.00225,  -0.00165,-5883281.14813,   0.00000
250661155.28540,467514445.08754,-140706194.09775,   0.00323,   0.00389,  -0.00348,472871821.30964,   0.00417,279074271.87236,   0.00300,   0.00225,  -0.00165,-6202450.56273,   0.00000
248080865.26080,466680812.92575,-141113747.59907,   0.00322,   0.00389,  -0.00349,472546067.88621,   0.00417,279074271.87236,   0.00300,   0.00225,  -0.00165,-6528203.98615,   0.00000
245463524.91790,465831302.05611,-141521301.10040,   0.00321,   0.00389,  -0.00349,472219638.10929,   0.00417,279074271.87236,   0.00300,   0.00225,  -0.00165,-6854633.76307,   0.00000
242838245.22108,464963266.02732,-141923561.69910,   0.00319,   0.00389,  -0.00350,471886936.22370,   0.00417,279074271.87236,   0.00300,   0.00225,  -0.00165,-7187335.64866,   0.00000
240167975.85203,464060826.13154,-142320529.39519,   0.00318,   0.00389,  -0.00350,471535743.02751,   0.00417,279074271.87236,   0.00300,   0.00225,  -0.00165,-7538528.84486,   0.00000
237497706.48298,463158386.23576,-142717497.09129,   0.00317,   0.00389,  -0.00351,471197038.17388,   0.00417,279074271.87236,   0.00300,   0.00225,  -0.00165,-7877233.69848,   0.00000
234819497.76002,462237421.18082,-143109171.88476,   0.00316,   0.00389,  -0.00351,470852393.23298,   0.00417,279074271.87236,   0.00300,   0.00225,  -0.00165,-8221878.63938,   0.00000
232096299.36482,461282052.25890,-143500846.67824,   0.00315,   0.00389,  -0.00352,470494894.35534,   0.00417,279074271.87236,   0.00300,   0.00225,  -0.00165,-8579377.51702,   0.00000
229365161.61571,460308158.17782,-143887228.56910,   0.00314,   0.00390,  -0.00352,470131818.10048,   0.00417,279074271.87236,   0.00300,   0.00225,  -0.00165,-8942453.77188,   0.00000
226596973.54830,459318385.38889,-144273610.45997,   0.00313,   0.00390,  -0.00353,469770194.43421,   0.00417,279074271.87236,   0.00300,   0.00225,  -0.00165,-9304077.43815,   0.00000
223820846.12696,458310087.44082,-144654699.44822,   0.00312,   0.00390,  -0.00353,469403346.88713,   0.00417,279074271.87236,   0.00300,   0.00225,  -0.00165,-9670924.98523,   0.00000
221026193.54647,457293850.13882,-145035788.43646,   0.00311,   0.00390,  -0.00354,469044202.99392,   0.00417,279074271.87236,   0.00300,   0.00225,  -0.00165,-10030068.87845,   0.00000
218223601.61206,456259087.67768,-145411584.52210,   0.00310,   0.00390,  -0.00354,468680040.91004,   0.00417,279074271.87236,   0.00300,   0.00225,  -0.00165,-10394230.96233,   0.00000
215376020.00542,455189921.34954,-145782087.70512,   0.00309,   0.00390,  -0.00355,468300066.38022,   0.00417,279074271.87236,   0.00300,   0.00225,  -0.00165,-10774205.49214,   0.00000
212520499.04487,454102229.86224,-146152590.88814,   0.00308,   0.00390,  -0.00355,467920404.17402,   0.00417,279074271.87236,   0.00300,   0.00225,  -0.00165,-11153867.69834,   0.00000
209646452.92516,453006599.02103,-146517801.16854,   0.00307,   0.00390,  -0.00356,467544420.90784,   0.00417,279074271.87236,   0.00300,   0.00225,  -0.00165,-11529850.96452,   0.00000
206764467.45153,451892443.02066,-146883011.44895,   0.00306,   0.00390,  -0.00356,467169007.84416,   0.00417,279074271.87236,   0.00300,   0.00225,  -0.00165,-11905264.02820,   0.00000
203837492.30568,450743883.15330,-147242928.82674,   0.00305,   0.00390,  -0.00357,466779079.35545,   0.00417,279074271.87236,   0.00300,   0.00225,  -0.00165,-12295192.51691,   0.00000
200910517.15983,449595323.28594,-147597553.30191,   0.00303,   0.00390,  -0.00357,466398622.35446,   0.00417,279074271.87236,   0.00300,   0.00225,  -0.00165,-12675649.51790,   0.00000
197957077.50090,448420298.90551,-147952177.77709,   0.00302,   0.00390,  -0.00357,466014310.79607,   0.00417,279074271.87236,   0.00300,   0.00225,  -0.00165,-13059961.07629,   0.00000
194977173.32890,447218810.01201,-148306802.25226,   0.00301,   0.00390,  -0.00358,465626487.10646,   0.00417,279074271.87236,   0.00300,   0.00225,  -0.00165,-13447784.76590,   0.00000
191997269.15691,446017321.11850,-148656133.82482,   0.00300,   0.00390,  -0.00358,465248571.00397,   0.00417,279074271.87236,   0.00300,   0.00225,  -0.00165,-13825700.86839,   0.00000
188990900.47184,444789367.71192,-149000172.49477,   0.00299,   0.00390,  -0.00359,464862509.97146,   0.00417,279074271.87236,   0.00300,   0.00225,  -0.00165,-14211761.90090,   0.00000
185958067.27369,443534949.79227,-149344211.16472,   0.00298,   0.00390,  -0.00359,464473715.79556,   0.00417,279074271.87236,   0.00300,   0.00225,  -0.00165,-14600556.07681,   0.00000
182925234.07555,442280531.87262,-149682956.93205,   0.00297,   0.00390,  -0.00360,464095252.18756,   0.00417,279074271.87236,   0.00300,   0.00225,  -0.00165,-14979019.68481,   0.00000
179847411.20518,440991710.08597,-150021702.69938,   0.00296,   0.00390,  -0.00360,463710142.33281,   0.00417,279074271.87236,   0.00300,   0.00225,  -0.00165,-15364129.53955,   0.00000
176761648.98089,439684363.14018,-150355155.56410,   0.00294,   0.00390,  -0.00361,463322463.40402,   0.00417,279074271.87236,   0.00300,   0.00225,  -0.00165,-15751808.46834,   0.00000
173667947.40268,438358491.03523,-150683315.52620,   0.00293,   0.00390,  -0.00361,462932271.49015,   0.00417,279074271.87236,   0.00300,   0.00225,  -0.00165,-16142000.38222,   0.00000
170555720.66532,437024679.57636,-151011475.48830,   0.00292,   0.00390,  -0.00361,462553956.23027,   0.00417,279074271.87236,   0.00300,   0.00225,  -0.00165,-16520315.64209,   0.00000
167417029.41488,435664403.60442,-151334342.54779,   0.00291,   0.00390,  -0.00362,462169388.57518,   0.00417,279074271.87236,   0.00300,   0.00225,  -0.00165,-16904883.29718,   0.00000
164259813.00530,434296188.27855,-151657209.60728,   0.00290,   0.00390,  -0.00362,461797339.01774,   0.00417,279074271.87236,   0.00300,   0.00225,  -0.00165,-17276932.85462,   0.00000
161094657.24179,432909447.79354,-151980076.66677,   0.00289,   0.00390,  -0.00363,461428770.86571,   0.00417,279074271.87236,   0.00300,   0.00225,  -0.00165,-17645501.00666,   0.00000
157903036.96521,431496242.79545,-152292357.92103,   0.00287,   0.00390,  -0.00363,461049559.47966,   0.00417,279074271.87236,   0.00300,   0.00225,  -0.00165,-18024712.39270,   0.00000
154703477.33471,430064512.63821,-152609932.07790,   0.00286,   0.00390,  -0.00363,460679443.27186,   0.00417,279074271.87236,   0.00300,   0.00225,  -0.00165,-18394828.60050,   0.00000
151485392.54505,428624843.12705,-152916920.42955,   0.00285,   0.00390,  -0.00364,460312319.35016,   0.00417,279074271.87236,   0.00300,   0.00225,  -0.00165,-18761952.52220,   0.00000
148240843.24233,427158709.10282,-153223908.78119,   0.00284,   0.00390,  -0.00364,459945911.81838,   0.00417,279074271.87236,   0.00300,   0.00225,  -0.00165,-19128360.05399,   0.00000
144988354.58568,425674049.91943,-153530897.13284,   0.00283,   0.00390,  -0.00365,459583995.34348,   0.00417,279074271.87236,   0.00300,   0.00225,  -0.00165,-19490276.52888,   0.00000
141717340.76988,424181451.38213,-153832592.58187,   0.00281,   0.00390,  -0.00365,459231140.82031,   0.00417,279074271.87236,   0.00300,   0.00225,  -0.00165,-19843131.05205,   0.00000
138419862.44101,422662388.33175,-154128995.12828,   0.00280,   0.00390,  -0.00365,458874628.40560,   0.00417,279074271.87236,   0.00300,   0.00225,  -0.00165,-20199643.46676,   0.00000
135114444.75821,421124800.12222,-154425397.67470,   0.00279,   0.00390,  -0.00366,458523257.05338,   0.00417,279074271.87236,   0.00300,   0.00225,  -0.00165,-20551014.81899,   0.00000
131790501.91627,419579272.55877,-154721800.22111,   0.00278,   0.00390,  -0.00366,458187129.70040,   0.00417,279074271.87236,   0.00300,   0.00225,  -0.00165,-20887142.17197,   0.00000
128458619.72040,418015219.83616,-155012909.86491,   0.00277,   0.00390,  -0.00367,457851165.23521,   0.00417,279074271.87236,   0.00300,   0.00225,  -0.00165,-21223106.63716,   0.00000
125100273.01146,416424702.60049,-155298726.60610,   0.00275,   0.00390,  -0.00367,457512678.20230,   0.00417,279074271.87236,   0.00300,   0.00225,  -0.00165,-21561593.67007,   0.00000
121741926.30252,414834185.36481,-155584543.34729,   0.00274,   0.00390,  -0.00367,457192995.93327,   0.00417,279074271.87236,   0.00300,   0.00225,  -0.00165,-21881275.93909,   0.00000
118357115.08051,413217203.61606,-155865067.18586,   0.00273,   0.00390,  -0.00368,456871344.51548,   0.00417,279074271.87236,   0.00300,   0.00225,  -0.00165,-22202927.35688,   0.00000
114964364.50458,411581696.70816,-156145591.02443,   0.00272,   0.00390,  -0.00368,456556028.05838,   0.00417,279074271.87236,   0.00300,   0.00225,  -0.00165,-22518243.81398,   0.00000
111553088.76949,409938250.44634,-156420821.96039,   0.00270,   0.00390,  -0.00368,456252126.98601,   0.00417,279074271.87236,   0.00300,   0.00225,  -0.00165,-22822144.88635,   0.00000
108115348.52133,408268339.67145,-156696052.89634,   0.00269,   0.00389,  -0.00369,455952684.94664,   0.00417,279074271.87236,   0.00300,   0.00225,  -0.00165,-23121586.92573,   0.00000
104669668.91925,406579903.73740,-156965990.92969,   0.00268,   0.00389,  -0.00369,455654848.24259,   0.00417,279074271.87236,   0.00300,   0.00225,  -0.00165,-23419423.62977,   0.00000
101205464.15802,404883528.44944,-157230636.06041,   0.00267,   0.00389,  -0.00369,455369312.65329,   0.00417,279074271.87236,   0.00300,   0.00225,  -0.00165,-23704959.21907,   0.00000
97733320.04287,403168628.00232,-157500574.09376,   0.00266,   0.00389,  -0.00370,455096724.24625,   0.00417,279074271.87236,   0.00300,   0.00225,  -0.00165,-23977547.62611,   0.00000
94253236.57380,401435202.39605,-157759926.32187,   0.00264,   0.00389,  -0.00370,454820745.22404,   0.00417,279074271.87236,   0.00300,   0.00225,  -0.00165,-24253526.64832,   0.00000
90754627.94557,399693837.43586,-158019278.54998,   0.00263,   0.00389,  -0.00371,454563282.55754,   0.00417,279074271.87236,   0.00300,   0.00225,  -0.00165,-24510989.31482,   0.00000
87221615.45035,397907482.80344,-158278630.77810,   0.00262,   0.00389,  -0.00371,454299698.99375,   0.00417,279074271.87236,   0.00300,   0.00225,  -0.00165,-24774572.87861,   0.00000
83696542.30905,396139653.33018,-158532690.10360,   0.00260,   0.00389,  -0.00371,454063936.43875,   0.00417,279074271.87236,   0.00300,   0.00225,  -0.00165,-25010335.43361,   0.00000
80155590.45991,394334773.53861,-158786749.42910,   0.00259,   0.00389,  -0.00372,453824185.20242,   0.00417,279074271.87236,   0.00300,   0.00225,  -0.00165,-25250086.66994,   0.00000
76596113.45162,392521954.39313,-159035515.85198,   0.00258,   0.00388,  -0.00372,453598587.99655,   0.00417,279074271.87236,   0.00300,   0.00225,  -0.00165,-25475683.87581,   0.00000
73010171.93025,390682670.73457,-159278989.37225,   0.00257,   0.00388,  -0.00372,453375136.97093,   0.00417,279074271.87236,   0.00300,   0.00225,  -0.00165,-25699134.90143,   0.00000
69442755.56804,388851326.42993,-159522462.89252,   0.00255,   0.00388,  -0.00372,453174349.73253,   0.00417,279074271.87236,   0.00300,   0.00225,  -0.00165,-25899922.13983,   0.00000
65830349.53360,386985578.25830,-159765936.41279,   0.00254,   0.00388,  -0.00373,452980728.21256,   0.00417,279074271.87236,   0.00300,   0.00225,  -0.00165,-26093543.65980,   0.00000
62228529.30439,385109244.28143,-160004117.03044,   0.00253,   0.00388,  -0.00373,452792105.05189,   0.00417,279074271.87236,   0.00300,   0.00225,  -0.00165,-26282166.82047,   0.00000
58600244.56211,383206445.79150,-160242297.64810,   0.00252,   0.00388,  -0.00373,452612371.88610,   0.00417,279074271.87236,   0.00300,   0.00225,  -0.00165,-26461899.98626,   0.00000
54953434.66068,381295707.94764,-160475185.36314,   0.00250,   0.00388,  -0.00374,452448498.12902,   0.00417,279074271.87236,   0.00300,   0.00225,  -0.00165,-26625773.74334,   0.00000
51306624.75925,379384970.10379,-160702780.17557,   0.00249,   0.00387,  -0.00374,452301352.69850,   0.00417,279074271.87236,   0.00300,   0.00225,  -0.00165,-26772919.17386,   0.00000
47643936.14997,377437181.94163,-160935667.89061,   0.00248,   0.00387,  -0.00374,452158208.55651,   0.00417,279074271.87236,   0.00300,   0.00225,  -0.00165,-26916063.31585,   0.00000
43962722.38154,375481454.42555,-161157969.80042,   0.00246,   0.00387,  -0.00375,452026028.37333,   0.00417,279074271.87236,   0.00300,   0.00225,  -0.00165,-27048243.49903,   0.00000
40273569.25919,373507201.75031,-161385564.61285,   0.00245,   0.00387,  -0.00375,451910415.21296,   0.00417,279074271.87236,   0.00300,   0.00225,  -0.00165,-27163856.65940,   0.00000
36584416.13684,371532949.07508,-161602573.62004,   0.00244,   0.00387,  -0.00375,451806386.78183,   0.00417,279074271.87236,   0.00300,   0.00225,  -0.00165,-27267885.09053,   0.00000
32860859.14750,369513706.72763,-161824875.52985,   0.00243,   0.00387,  -0.00375,451707370.62219,   0.00417,279074271.87236,   0.00300,   0.00225,  -0.00165,-27366901.25017,   0.00000
29145241.51208,367512989.53932,-162041884.53705,   0.00241,   0.00386,  -0.00376,451637802.64382,   0.00417,279074271.87236,   0.00300,   0.00225,  -0.00165,-27436469.22854,   0.00000
25413745.16881,365475222.03272,-162253600.64163,   0.00240,   0.00386,  -0.00376,451562393.21786,   0.00417,279074271.87236,   0.00300,   0.00225,  -0.00165,-27511878.65450,   0.00000
21663723.66639,363429515.17219,-162465316.74622,   0.00239,   0.00386,  -0.00376,451510830.73259,   0.00417,279074271.87236,   0.00300,   0.00225,  -0.00165,-27563441.13978,   0.00000
17905762.81005,361365283.15251,-162671739.94818,   0.00237,   0.00386,  -0.00377,451465666.57399,   0.00417,279074271.87236,   0.00300,   0.00225,  -0.00165,-27608605.29837,   0.00000
14129276.79456,359293111.77891,-162878163.15015,   0.00236,   0.00386,  -0.00377,451444916.79640,   0.00417,279074271.87236,   0.00300,   0.00225,  -0.00165,-27629355.07596,   0.00000
10363376.58430,357210354.60008,-163084586.35212,   0.00235,   0.00385,  -0.00377,451436018.16884,   0.00417,279074271.87236,   0.00300,   0.00225,  -0.00165,-27638253.70352,   0.00000
6571011.86097,355101132.90818,-163285716.65147,   0.00233,   0.00385,  -0.00377,451434707.15101,   0.00417,279074271.87236,   0.00300,   0.00225,  -0.00165,-27639564.72135,   0.00000
2752182.62456,352965446.70320,-163486846.95083,   0.00232,   0.00385,  -0.00378,451447231.78226,   0.00417,279074271.87236,   0.00300,   0.00225,  -0.00165,-27627040.09010,   0.00000
-1048121.45269,350837699.85215,-163682684.34757,   0.00231,   0.00385,  -0.00378,451477545.60047,   0.00417,279074271.87236,   0.00300,   0.00225,  -0.00165,-27596726.27189,   0.00000
-4874890.04302,348683488.48802,-163878521.74430,   0.00229,   0.00384,  -0.00378,451522140.13335,   0.00417,279074271.87236,   0.00300,   0.00225,  -0.00165,-27552131.73901,   0.00000
-8701658.63335,346529277.12389,-164069066.23843,   0.00228,   0.00384,  -0.00378,451585665.99486,   0.00417,279074271.87236,   0.00300,   0.00225,  -0.00165,-27488605.87750,   0.00000
-12554891.73675,344348601.24670,-164259610.73255,   0.00227,   0.00384,  -0.00379,451664148.51022,   0.00417,279074271.87236,   0.00300,   0.00225,  -0.00165,-27410123.36215,   0.00000
-16397539.03492,342157339.56427,-164450155.22668,   0.00225,   0.00384,  -0.00379,451755047.89423,   0.00417,279074271.87236,   0.00300,   0.00225,  -0.00165,-27319223.97813,   0.00000
-20258711.49224,339958138.52792,-164635406.81819,   0.00224,   0.00383,  -0.00379,451866702.38593,   0.00417,279074271.87236,   0.00300,   0.00225,  -0.00165,-27207569.48643,   0.00000
-24135762.65741,337721887.17326,-164820658.40970,   0.00223,   0.00383,  -0.00379,451981561.28737,   0.00417,279074271.87236,   0.00300,   0.00225,  -0.00165,-27092710.58499,   0.00000
-28004874.46865,335504160.97776,-165000617.09859,   0.00221,   0.00383,  -0.00380,452126838.25232,   0.00417,279074271.87236,   0.00300,   0.00225,  -0.00165,-26947433.62004,   0.00000
-31908390.14689,333241445.11004,-165180575.78749,   0.00220,   0.00383,  -0.00380,452277649.23433,   0.00417,279074271.87236,   0.00300,   0.00225,  -0.00165,-26796622.63803,   0.00000
-35811905.82513,330978729.24231,-165360534.47638,   0.00219,   0.00382,  -0.00380,452454097.09536,   0.00417,279074271.87236,   0.00300,   0.00225,  -0.00165,-26620174.77700,   0.00000
-39723360.85729,328697488.21544,-165535200.26266,   0.00217,   0.00382,  -0.00380,452639658.74877,   0.00417,279074271.87236,   0.00300,   0.00225,  -0.00165,-26434613.12359,   0.00000
-43634815.88945,326416247.18856,-165709866.04894,   0.00216,   0.00382,  -0.00381,452850919.78889,   0.00417,279074271.87236,   0.00300,   0.00225,  -0.00165,-26223352.08347,   0.00000
-47554210.27554,324116481.00253,-165879238.93261,   0.00215,   0.00382,  -0.00381,453071479.11819,   0.00417,279074271.87236,   0.00300,   0.00225,  -0.00165,-26002792.75418,   0.00000
-51481544.01554,321798189.65736,-166048611.81627,   0.00213,   0.00381,  -0.00381,453307308.96852,   0.00417,279074271.87236,   0.00300,   0.00225,  -0.00165,-25766962.90385,   0.00000
-55427402.91470,319471958.95826,-166217984.69994,   0.00212,   0.00381,  -0.00381,453571698.69465,   0.00417,279074271.87236,   0.00300,   0.00225,  -0.00165,-25502573.17771,   0.00000
-59381201.16777,317127203.10000,-166382064.68099,   0.00211,   0.00381,  -0.00381,453845963.49835,   0.00417,279074271.87236,   0.00300,   0.00225,  -0.00165,-25228308.37401,   0.00000
-63342938.77477,314763922.08260,-166546144.66204,   0.00209,   0.00380,  -0.00382,454136082.34515,   0.00417,279074271.87236,   0.00300,   0.00225,  -0.00165,-24938189.52721,   0.00000
-67304676.38177,312400641.06520,-166710224.64309,   0.00208,   0.00380,  -0.00382,454452418.90742,   0.00417,279074271.87236,   0.00300,   0.00225,  -0.00165,-24621852.96494,   0.00000
-71274353.34269,310018834.88865,-166869011.72153,   0.00207,   0.00380,  -0.00382,454778962.38683,   0.00417,279074271.87236,   0.00300,   0.00225,  -0.00165,-24295309.48553,   0.00000
-75251969.65754,307618503.55294,-167027798.79997,   0.00205,   0.00379,  -0.00382,455121695.45831,   0.00417,279074271.87236,   0.00300,   0.00225,  -0.00165,-23952576.41406,   0.00000
-79248111.13153,305210232.86332,-167181292.97579,   0.00204,   0.00379,  -0.00382,455488351.08925,   0.00417,279074271.87236,   0.00300,   0.00225,  -0.00165,-23585920.78312,   0.00000
-83233666.80030,302791376.36846,-167334787.15161,   0.00203,   0.00379,  -0.00383,455868062.48740,   0.00417,279074271.87236,   0.00300,   0.00225,  -0.00165,-23206209.38496,   0.00000
-87245686.98213,300346055.36054,-167488281.32743,   0.00201,   0.00378,  -0.00383,456267940.95792,   0.00417,279074271.87236,   0.00300,   0.00225,  -0.00165,-22806330.91444,   0.00000
-91257707.16397,297900734.35261,-167641775.50326,   0.00200,   0.00378,  -0.00383,456694481.36121,   0.00417,279074271.87236,   0.00300,   0.00225,  -0.00165,-22379790.51115,   0.00000
-95277666.69973,295436888.18553,-167789976.77646,   0.00199,   0.00378,  -0.00383,457132097.92770,   0.00417,279074271.87236,   0.00300,   0.00225,  -0.00165,-21942173.94466,   0.00000
-99287040.43026,292962456.21322,-167932885.14706,   0.00197,   0.00377,  -0.00383,457576937.92839,   0.00417,279074271.87236,   0.00300,   0.00225,  -0.00165,-21497333.94397,   0.00000
-103314939.31994,290480084.88699,-168081086.42027,   0.00196,   0.00377,  -0.00384,458058231.65078,   0.00417,279074271.87236,   0.00300,   0.00225,  -0.00165,-21016040.22158,   0.00000
-107350777.56355,287979188.40161,-168223994.79086,   0.00195,   0.00377,  -0.00384,458550901.71448,   0.00417,279074271.87236,   0.00300,   0.00225,  -0.00165,-20523370.15788,   0.00000
-111394555.16107,285459766.75708,-168366903.16145,   0.00193,   0.00376,  -0.00384,459060923.33302,   0.00417,279074271.87236,   0.00300,   0.00225,  -0.00165,-20013348.53934,   0.00000
-115438332.75860,282940345.11255,-168509811.53205,   0.00192,   0.00376,  -0.00384,459597736.09117,   0.00417,279074271.87236,   0.00300,   0.00225,  -0.00165,-19476535.78120,   0.00000
-119490049.71004,280402398.30887,-168647427.00002,   0.00191,   0.00376,  -0.00384,460146213.03560,   0.00417,279074271.87236,   0.00300,   0.00225,  -0.00165,-18928058.83676,   0.00000
-123560291.82064,277856512.15127,-168785042.46800,   0.00189,   0.00375,  -0.00385,460726155.61537,   0.00417,279074271.87236,   0.00300,   0.00225,  -0.00165,-18348116.25699,   0.00000
-127619948.12601,275300040.18843,-168917365.03337,   0.00188,   0.00375,  -0.00385,461313308.67949,   0.00417,279074271.87236,   0.00300,   0.00225,  -0.00165,-17760963.19287,   0.00000
-131687543.78530,272725043.06645,-169054980.50135,   0.00187,   0.00375,  -0.00385,461924029.09017,   0.00417,279074271.87236,   0.00300,   0.00225,  -0.00165,-17150242.78220,   0.00000
-135763078.79851,270131520.78531,-169187303.06671,   0.00185,   0.00374,  -0.00385,462546829.61397,   0.00417,279074271.87236,   0.00300,   0.00225,  -0.00165,-16527442.25839,   0.00000
-139838613.81172,267537998.50418,-169319625.63207,   0.00184,   0.00374,  -0.00385,463196468.33903,   0.00417,279074271.87236,   0.00300,   0.00225,  -0.00165,-15877803.53333,   0.00000
-143914148.82494,264944476.22304,-169446655.29482,   0.00183,   0.00373,  -0.00385,463867032.09694,   0.00417,279074271.87236,   0.00300,   0.00225,  -0.00165,-15207239.77542,   0.00000
-148005562.54599,262313903.62361,-169578977.86019,   0.00181,   0.00373,  -0.00386,464552727.51817,   0.00417,279074271.87236,   0.00300,   0.00225,  -0.00165,-14521544.35419,   0.00000
-152096976.26705,259683331.02417,-169706007.52294,   0.00180,   0.00373,  -0.00386,465259453.42921,   0.00417,279074271.87236,   0.00300,   0.00225,  -0.00165,-13814818.44316,   0.00000
-156196329.34203,257034233.26558,-169827744.28307,   0.00178,   0.00372,  -0.00386,465978628.59417,   0.00417,279074271.87236,   0.00300,   0.00225,  -0.00165,-13095643.27819,   0.00000
-160295682.41700,254385135.50699,-169954773.94582,   0.00177,   0.00372,  -0.00386,466730347.65505,   0.00417,279074271.87236,   0.00300,   0.00225,  -0.00165,-12343924.21731,   0.00000
-164402974.84590,251717512.58925,-170076510.70596,   0.00176,   0.00371,  -0.00386,467494610.29463,   0.00417,279074271.87236,   0.00300,   0.00225,  -0.00165,-11579661.57773,   0.00000
-168499681.46957,249039303.86628,-170198247.46609,   0.00174,   0.00371,  -0.00386,468271386.29433,   0.00417,279074271.87236,   0.00300,   0.00225,  -0.00165,-10802885.57803,   0.00000
-172614913.25240,246353155.78939,-170319984.22623,   0.00173,   0.00371,  -0.00387,469080702.37544,   0.00417,279074271.87236,   0.00300,   0.00225,  -0.00165,-9993569.49693,   0.00000
-176738084.38914,243648482.55335,-170441720.98636,   0.00172,   0.00370,  -0.00387,469908544.66936,   0.00417,279074271.87236,   0.00300,   0.00225,  -0.00165,-9165727.20301,   0.00000
-180850669.72065,240933223.51208,-170558164.84388,   0.00170,   0.00370,  -0.00387,470743009.02423,   0.00417,279074271.87236,   0.00300,   0.00225,  -0.00165,-8331262.84813,   0.00000
-184963255.05217,238217964.47081,-170674608.70140,   0.00169,   0.00369,  -0.00387,471603902.23435,   0.00417,279074271.87236,   0.00300,   0.00225,  -0.00165,-7470369.63801,   0.00000
-189102304.89676,235476240.91647,-170791052.55892,   0.00168,   0.00369,  -0.00387,472489780.37805,   0.00417,279074271.87236,   0.00300,   0.00225,  -0.00165,-6584491.49431,   0.00000
-193230768.93611,232723931.55690,-170907496.41644,   0.00166,   0.00368,  -0.00387,473387895.51648,   0.00417,279074271.87236,   0.00300,   0.00225,  -0.00165,-5686376.35588,   0.00000
-197359232.97547,229971622.19733,-171018647.37135,   0.00165,   0.00368,  -0.00387,474306620.30579,   0.00417,279074271.87236,   0.00300,   0.00225,  -0.00165,-4767651.56657,   0.00000
-201495636.36875,227200787.67860,-171135091.22887,   0.00164,   0.00367,  -0.00388,475249739.65690,   0.00417,279074271.87236,   0.00300,   0.00225,  -0.00165,-3824532.21547,   0.00000
-205613514.60288,224437892.51380,-171246242.18377,   0.00162,   0.00367,  -0.00388,476206441.84996,   0.00417,279074271.87236,   0.00300,   0.00225,  -0.00165,-2867830.02240,   0.00000
-209757857.35008,221648532.83593,-171357393.13868,   0.00161,   0.00367,  -0.00388,477188663.64439,   0.00417,279074271.87236,   0.00300,   0.00225,  -0.00165,-1885608.22797,   0.00000
-213891614.29205,218848587.35283,-171468544.09359,   0.00160,   0.00366,  -0.00388,478182589.94441,   0.00417,279074271.87236,   0.00300,   0.00225,  -0.00165,-891681.92795,   0.00000
-217564576.43532,216349095.54287,-171562421.72025,   0.00158,   0.00366,  -0.00388,479074283.42085,   0.00417,279074271.87236,   0.00300,   0.00225,  -0.00165,  -3.96984,   0.00000
-217981230.68492,215978435.85237,-171533388.11554,   0.00158,   0.00366,  -0.00388,479075001.06752,   0.00417,279075008.95395,   0.00300,   0.00225,  -0.00165,115277.05392,   1.00000
-221647115.63932,212700207.54579,-171275617.35619,   0.00157,   0.00365,  -0.00388,479081643.31552,   0.00418,279081645.80345,   0.00299,   0.00225,  -0.00166,1038544.51504,   1.00000
-225297031.73425,209418999.26493,-171005992.88830,   0.00156,   0.00365,  -0.00388,479088402.58941,   0.00418,279088407.49494,   0.00299,   0.00225,  -0.00166,1058656.02788,   1.00000
-228950459.59839,206101595.31341,-170732740.05190,   0.00154,   0.00364,  -0.00389,479095231.75346,   0.00419,279095241.35185,   0.00299,   0.00226,  -0.00167,1070550.97631,   1.00000
-232569845.16973,202790377.99974,-170453613.38175,   0.00153,   0.00364,  -0.00389,479102181.21977,   0.00420,279102188.04028,   0.00298,   0.00226,  -0.00167,1088860.48216,   1.00000
-236195896.24348,199447704.81622,-170165703.67762,   0.00152,   0.00363,  -0.00389,479109296.37796,   0.00420,279109300.41442,   0.00298,   0.00226,  -0.00168,1115507.17047,   1.00000
-239787544.81206,196111818.68002,-169872067.56097,   0.00150,   0.00363,  -0.00389,479116521.93929,   0.00421,279116523.54423,   0.00298,   0.00227,  -0.00168,1133586.02608,   1.00000
-243358767.66794,192769543.50684,-169571859.77735,   0.00149,   0.00362,  -0.00389,479123775.38740,   0.00422,279123777.18716,   0.00297,   0.00227,  -0.00169,1139105.23557,   1.00000
-246921736.89308,189410080.08281,-169263883.33270,   0.00148,   0.00362,  -0.00389,479131271.31192,   0.00422,279131274.94407,   0.00297,   0.00227,  -0.00169,1178221.11066,   1.00000
-250475143.44671,186028635.05512,-168951622.66139,   0.00146,   0.00361,  -0.00389,479138760.68995,   0.00423,279138762.08299,   0.00297,   0.00228,  -0.00170,1177355.97628,   1.00000
-254008038.69021,182643942.56462,-168631109.57314,   0.00145,   0.00361,  -0.00389,479146403.98513,   0.00424,279146406.80970,   0.00296,   0.00228,  -0.00170,1202980.59278,   1.00000
-257517305.41141,179254204.92422,-168305767.66237,   0.00144,   0.00360,  -0.00390,479154241.02306,   0.00425,279154243.39601,   0.00296,   0.00228,  -0.00171,1234061.81985,   1.00000
-261005590.20246,175858994.08223,-167974042.90579,   0.00142,   0.00360,  -0.00390,479162103.81221,   0.00425,279162107.95800,   0.00295,   0.00229,  -0.00171,1239383.33594,   1.00000
-264483919.27497,172445248.69328,-167636381.51305,   0.00141,   0.00359,  -0.00390,479170086.51109,   0.00426,279170088.83509,   0.00295,   0.00229,  -0.00172,1258671.34189,   1.00000
-267954960.70154,169015208.27656,-167289399.60063,   0.00140,   0.00359,  -0.00390,479178145.09977,   0.00427,279178151.59737,   0.00295,   0.00229,  -0.00173,1272579.49959,   1.00000
-271401361.44161,165581399.08922,-166937799.72573,   0.00138,   0.00358,  -0.00390,479186396.70877,   0.00428,279186403.76523,   0.00294,   0.00230,  -0.00173,1303518.96140,   1.00000
-274823324.04349,162140803.77755,-166583308.41986,   0.00137,   0.00357,  -0.00390,479194710.19356,   0.00429,279194717.40952,   0.00294,   0.00230,  -0.00174,1314302.88062,   1.00000
-278223338.01989,158699103.84073,-166220993.24577,   0.00136,   0.00357,  -0.00390,479203173.58815,   0.00429,279203182.96845,   0.00293,   0.00230,  -0.00174,1339440.53700,   1.00000
-281615319.55061,155241945.50318,-165849451.60850,   0.00135,   0.00356,  -0.00391,479211729.54787,   0.00430,279211729.68068,   0.00293,   0.00231,  -0.00175,1353459.72759,   1.00000
-284979429.81794,151776742.92289,-165478552.84914,   0.00133,   0.00356,  -0.00391,479220365.93677,   0.00431,279220370.63846,   0.00293,   0.00231,  -0.00176,1369575.31913,   1.00000
-288324163.16568,148313153.08647,-165096604.55426,   0.00132,   0.00355,  -0.00391,479229117.12437,   0.00432,279229126.58223,   0.00292,   0.00232,  -0.00176,1389046.47265,   1.00000
-291653989.81080,144831097.08521,-164712295.03970,   0.00131,   0.00355,  -0.00391,479238024.55646,   0.00433,279238032.49479,   0.00292,   0.00232,  -0.00177,1414133.66061,   1.00000
-294961944.23519,141345286.18511,-164321966.43975,   0.00129,   0.00354,  -0.00391,479246956.02504,   0.00434,279246961.35964,   0.00291,   0.00232,  -0.00177,1419107.63855,   1.00000
-298246846.69183,137860126.90218,-163924171.09384,   0.00128,   0.00354,  -0.00391,479256033.75506,   0.00435,279256037.41556,   0.00291,   0.00233,  -0.00178,1443884.63825,   1.00000
-301516149.57501,134357326.85207,-163524109.33523,   0.00127,   0.00353,  -0.00391,479265257.02855,   0.00435,279265262.56503,   0.00290,   0.00233,  -0.00179,1469029.66488,   1.00000
-304752541.89962,130868321.57356,-163116518.90281,   0.00125,   0.00352,  -0.00391,479274534.32907,   0.00436,279274539.06933,   0.00290,   0.00233,  -0.00179,1478677.72965,   1.00000
-307987072.41350,127346756.00850,-162704914.32381,   0.00124,   0.00352,  -0.00392,479283898.16423,   0.00437,279283899.81754,   0.00289,   0.00234,  -0.00180,1493620.55723,   1.00000
-311174545.99746,123854938.02041,-162287798.23679,   0.00123,   0.00351,  -0.00392,479293371.77395,   0.00438,279293372.77214,   0.00289,   0.00234,  -0.00181,1513082.47130,   1.00000
-314356469.89151,120329405.62014,-161870152.33216,   0.00122,   0.00351,  -0.00392,479302954.13501,   0.00439,279302963.71865,   0.00288,   0.00235,  -0.00181,1533519.28780,   1.00000
-317517687.86894,116807861.19262,-161441941.43626,   0.00120,   0.00350,  -0.00392,479312655.70706,   0.00440,279312662.98525,   0.00288,   0.00235,  -0.00182,1552503.08897,   1.00000
-320653238.31597,113282462.73192,-161011558.78811,   0.00119,   0.00349,  -0.00392,479322407.48233,   0.00441,279322413.21085,   0.00287,   0.00235,  -0.00183,1562355.78364,   1.00000
-323761139.25734,109758695.96148,-160577745.30560,   0.00118,   0.00349,  -0.00392,479332331.41794,   0.00442,279332336.14187,   0.00287,   0.00236,  -0.00183,1591782.94456,   1.00000
-326846734.45491,106232907.41123,-160138392.39954,   0.00117,   0.00348,  -0.00392,479342269.65793,   0.00443,279342274.63157,   0.00286,   0.00236,  -0.00184,1596067.35657,   1.00000
-329918418.53556,102693303.38716,-159693620.39722,   0.00115,   0.00348,  -0.00392,479352320.20297,   0.00444,279352325.01453,   0.00285,   0.00237,  -0.00185,1615880.54077,   1.00000
-332961953.66246,99156329.37880,-159245636.99388,   0.00114,   0.00347,  -0.00393,479362539.31167,   0.00445,279362544.98456,   0.00285,   0.00237,  -0.00186,1645049.68972,   1.00000
-335983028.55329,95617839.98994,-158792235.13066,   0.00113,   0.00346,  -0.00393,479372777.78061,   0.00446,279372778.70791,   0.00284,   0.00237,  -0.00186,1649210.43349,   1.00000
-338974694.80742,92075442.89918,-158340526.73310,   0.00111,   0.00346,  -0.00393,479383086.14219,   0.00447,279383090.81956,   0.00284,   0.00238,  -0.00187,1663811.60490,   1.00000
-341944963.89819,88539056.24467,-157878768.79229,   0.00110,   0.00345,  -0.00393,479393496.11076,   0.00448,279393503.43289,   0.00283,   0.00238,  -0.00188,1682064.20560,   1.00000
-344897007.91756,84988914.62061,-157415332.01426,   0.00109,   0.00344,  -0.00393,479404051.18976,   0.00449,279404058.09020,   0.00282,   0.00239,  -0.00188,1707107.27469,   1.00000
-347812689.06653,81454471.62910,-156949070.34903,   0.00108,   0.00344,  -0.00393,479414672.79189,   0.00450,279414677.41660,   0.00282,   0.00239,  -0.00189,1719707.01145,   1.00000
-350716996.35990,77909049.85547,-156474090.32969,   0.00107,   0.00343,  -0.00393,479425366.84365,   0.00451,279425373.04430,   0.00281,   0.00239,  -0.00190,1734263.89722,   1.00000
-353591611.09395,74360881.66160,-156001124.79334,   0.00105,   0.00343,  -0.00393,479436132.26055,   0.00452,279436142.10518,   0.00281,   0.00240,  -0.00191,1748401.71548,   1.00000
-356450931.84365,70801115.70641,-155523044.03414,   0.00104,   0.00342,  -0.00394,479447014.94903,   0.00453,279447019.33683,   0.00280,   0.00240,  -0.00191,1768266.70357,   1.00000
-359273942.37708,67257953.96346,-155042462.23712,   0.00103,   0.00341,  -0.00394,479457947.69597,   0.00454,279457955.78745,   0.00279,   0.00241,  -0.00192,1780228.64810,   1.00000
-362071453.69823,63721587.73237,-154555909.78413,   0.00102,   0.00341,  -0.00394,479469012.52959,   0.00455,279469017.11032,   0.00279,   0.00241,  -0.00193,1802965.39326,   1.00000
-364849173.77330,60165434.30901,-154072579.10279,   0.00100,   0.00340,  -0.00394,479480121.56935,   0.00456,279480129.63813,   0.00278,   0.00241,  -0.00194,1813745.00088,   1.00000
-367594471.04425,56627431.50239,-153583394.14039,   0.00099,   0.00339,  -0.00394,479491260.33498,   0.00457,279491265.17680,   0.00277,   0.00242,  -0.00194,1819984.46815,   1.00000
-370310491.63967,53096147.58683,-153092100.42397,   0.00098,   0.00339,  -0.00394,479502549.79583,   0.00459,279502553.04252,   0.00277,   0.00242,  -0.00195,1847427.27106,   1.00000
-373024057.22187,49537477.82784,-152593139.08013,   0.00097,   0.00338,  -0.00394,479513897.84099,   0.00460,279513898.59222,   0.00276,   0.00243,  -0.00196,1859485.75288,   1.00000
-375688176.60432,46014004.38401,-152095070.27435,   0.00095,   0.00337,  -0.00395,479525331.18731,   0.00461,279525340.24185,   0.00275,   0.00243,  -0.00197,1877881.43682,   1.00000
-378335973.49221,42472375.39159,-151596721.57412,   0.00094,   0.00336,  -0.00395,479536794.18380,   0.00462,279536799.84723,   0.00275,   0.00243,  -0.00198,1883521.52800,   1.00000
-380957881.50238,38939418.50046,-151092879.24704,   0.00093,   0.00336,  -0.00395,479548369.45639,   0.00463,279548376.61366,   0.00274,   0.00244,  -0.00198,1905536.82050,   1.00000
-383553704.40456,35406769.97446,-150588059.98791,   0.00092,   0.00335,  -0.00395,479559978.25085,   0.00464,279559984.84268,   0.00273,   0.00244,  -0.00199,1913515.43422,   1.00000
-386123603.63307,31883307.30793,-150077911.74499,   0.00091,   0.00334,  -0.00395,479571703.56701,   0.00465,279571707.59779,   0.00273,   0.00245,  -0.00200,1935267.17628,   1.00000
-388663716.23577,28359865.40652,-149570608.62152,   0.00089,   0.00334,  -0.00395,479583483.71807,   0.00466,279583489.92642,   0.00272,   0.00245,  -0.00201,1948005.46731,   1.00000
-391190971.90360,24828487.24809,-149054999.79651,   0.00088,   0.00333,  -0.00395,479595339.03949,   0.00468,279595343.02328,   0.00271,   0.00245,  -0.00202,1962690.66690,   1.00000
-393679067.47965,21315810.37001,-148541760.79725,   0.00087,   0.00332,  -0.00395,479607260.57333,   0.00469,279607265.12114,   0.00270,   0.00246,  -0.00202,1977133.09830,   1.00000
-396141258.86677,17804247.30890,-148027810.70997,   0.00086,   0.00331,  -0.00396,479619206.63342,   0.00470,279619213.98888,   0.00270,   0.00246,  -0.00203,1984626.52302,   1.00000
-398582827.66238,14284331.98507,-147513129.74404,   0.00085,   0.00331,  -0.00396,479631287.99331,   0.00471,279631291.20165,   0.00269,   0.00247,  -0.00204,2009073.27342,   1.00000
-400993175.76912,10784682.67573,-146993583.36980,   0.00084,   0.00330,  -0.00396,479643368.77028,   0.00472,279643373.68314,   0.00268,   0.00247,  -0.00205,2013118.66952,   1.00000
-403373933.96762,7286155.38780,-146477232.23411,   0.00082,   0.00329,  -0.00396,479655503.99847,   0.00474,279655509.54646,   0.00267,   0.00247,  -0.00206,2025216.07015,   1.00000
-405737683.95208,3780427.22501,-145956516.82352,   0.00081,   0.00329,  -0.00396,479667735.00538,   0.00475,279667742.50523,   0.00267,   0.00248,  -0.00206,2044697.13422,   1.00000
-408066766.65934,294983.06217,-145434928.11629,   0.00080,   0.00328,  -0.00396,479679998.33200,   0.00476,279680005.67977,   0.00266,   0.00248,  -0.00207,2053066.54060,   1.00000
-410378724.29521,-3197226.12574,-144909068.90689,   0.00079,   0.00327,  -0.00397,479692360.56527,   0.00477,279692364.58944,   0.00265,   0.00248,  -0.00208,2072493.13550,   1.00000
-412656253.15560,-6668839.80872,-144382506.48784,   0.00078,   0.00326,  -0.00397,479704745.42534,   0.00478,279704750.73555,   0.00264,   0.00249,  -0.00209,2080493.18435,   1.00000
-414904409.14873,-10138451.85470,-143859429.69823,   0.00077,   0.00326,  -0.00397,479717182.41054,   0.00480,279717185.12800,   0.00263,   0.00249,  -0.00210,2092067.50838,   1.00000
-417135288.94350,-13614176.82867,-143332186.42509,   0.00076,   0.00325,  -0.00397,479729703.58706,   0.00481,279729713.50547,   0.00263,   0.00250,  -0.00211,2111419.96094,   1.00000
-419332158.86921,-17068853.51337,-142804467.37906,   0.00074,   0.00324,  -0.00397,479742257.61260,   0.00482,279742264.75310,   0.00262,   0.00250,  -0.00212,2118861.53377,   1.00000
-421499811.04169,-20521024.95557,-142280385.72696,   0.00073,   0.00323,  -0.00397,479754853.56596,   0.00483,279754861.39647,   0.00261,   0.00250,  -0.00212,2130142.59042,   1.00000
-423641804.42387,-23960229.29739,-141752114.90098,   0.00072,   0.00322,  -0.00398,479767550.49320,   0.00484,279767552.80593,   0.00260,   0.00251,  -0.00213,2149866.58579,   1.00000
-425759001.39862,-27406714.06491,-141227729.35112,   0.00071,   0.00322,  -0.00398,479780173.25532,   0.00486,279780182.23142,   0.00259,   0.00251,  -0.00214,2143061.19410,   1.00000
-427850170.48254,-30829527.49769,-140695285.17963,   0.00070,   0.00321,  -0.00398,479792975.52926,   0.00487,279792981.87258,   0.00259,   0.00252,  -0.00215,2175755.01714,   1.00000
-429916707.48881,-34259541.38577,-140166777.72379,   0.00069,   0.00320,  -0.00398,479805709.69273,   0.00488,279805718.62014,   0.00258,   0.00252,  -0.00216,2168879.44987,   1.00000
-431953839.96857,-37675810.66743,-139638204.73253,   0.00068,   0.00319,  -0.00398,479818570.02839,   0.00489,279818573.08729,   0.00257,   0.00252,  -0.00217,2192814.72759,   1.00000
-433966017.93162,-41088640.14634,-139109664.54268,   0.00067,   0.00319,  -0.00398,479831432.72352,   0.00491,279831440.45154,   0.00256,   0.00253,  -0.00217,2198937.21875,   1.00000
-435941620.37251,-44479441.98030,-138585126.39083,   0.00065,   0.00318,  -0.00399,479844338.18898,   0.00492,279844346.28280,   0.00255,   0.00253,  -0.00218,2209462.61912,   1.00000
-437899799.69020,-47874365.00145,-138056803.68515,   0.00064,   0.00317,  -0.00399,479857330.54718,   0.00493,279857339.42527,   0.00254,   0.00253,  -0.00219,2228444.93870,   1.00000
-439833249.38640,-51265490.15625,-137528624.97737,   0.00063,   0.00316,  -0.00399,479870335.29324,   0.00495,279870343.23280,   0.00253,   0.00254,  -0.00220,2234353.63320,   1.00000
-441734499.13218,-54634288.21630,-137000739.72974,   0.00062,   0.00315,  -0.00399,479883351.75465,   0.00496,279883354.81524,   0.00253,   0.00254,  -0.00221,2239803.99277,   1.00000
-443607407.99086,-57999030.07443,-136477024.77356,   0.00061,   0.00314,  -0.00399,479896400.68433,   0.00497,279896401.53277,   0.00252,   0.00254,  -0.00222,2249996.20297,   1.00000
-445455434.47474,-61348697.05162,-135949817.67115,   0.00060,   0.00314,  -0.00399,479909527.94029,   0.00498,279909530.10301,   0.00251,   0.00255,  -0.00223,2268327.44053,   1.00000
-447279214.93109,-64694226.52629,-135422928.89060,   0.00059,   0.00313,  -0.00400,479922665.86595,   0.00500,279922665.86797,   0.00250,   0.00255,  -0.00224,2273831.89943,   1.00000
-449074870.29258,-68035289.24578,-134900331.32238,   0.00058,   0.00312,  -0.00400,479935828.20035,   0.00501,279935834.37944,   0.00249,   0.00255,  -0.00224,2283785.46754,   1.00000
-450845871.63270,-71360723.31380,-134374416.05293,   0.00057,   0.00311,  -0.00400,479949076.84677,   0.00502,279949081.44466,   0.00248,   0.00256,  -0.00225,2301776.19555,   1.00000
