# sigma_xx, sigma_yy, sigma_xy, epsilon_xx, epsilon_yy, epsilon_xy, vonMises, epsPlastic, hardening, epsilonP__xx, epsilonP__yy, epsilonP__xy, yieldValue, iteration
   0.00000,   0.00000,   0.00000,   0.00000,   0.00000,   0.00000,1181185.37500,   0.00000,274640576.00000,   0.00000,   0.00000,   0.00000,-473459392.00000,   0.00000
   0.00000,   0.00000,   0.00000,   0.00000,   0.00000,   0.00000,1181185.37500,   0.00000,274640576.00000,   0.00000,   0.00000,   0.00000,-473459392.00000,   0.00000
4821801.33976,2660741.50731,-852248.94801,   0.00002,   0.00000,  -0.00001,5218308.50000,   0.00000,274640576.00000,   0.00000,   0.00000,   0.00000,-469422272.00000,   0.00000
9651212.04512,5339238.20104,-1699424.98561,   0.00003,   0.00001,  -0.00002,9528218.00000,   0.00000,274640576.00000,   0.00000,   0.00000,   0.00000,-465112352.00000,   0.00000
14455258.19846,7992370.34275,-2546601.02321,   0.00005,   0.00001,  -0.00003,13996588.00000,   0.00000,274640576.00000,   0.00000,   0.00000,   0.00000,-460643984.00000,   0.00000
19249158.53099,10655648.30527,-3398849.97121,   0.00007,   0.00001,  -0.00004,18302000.00000,   0.00000,274640576.00000,   0.00000,   0.00000,   0.00000,-456338576.00000,   0.00000
24025303.67710,13311316.90218,-4246026.00881,   0.00008,   0.00001,  -0.00006,22614540.00000,   0.00000,274640576.00000,   0.00000,   0.00000,   0.00000,-452026032.00000,   0.00000
28783693.63679,15959376.13348,-5093202.04641,   0.00010,   0.00002,  -0.00007,26988620.00000,   0.00000,274640576.00000,   0.00000,   0.00000,   0.00000,-447651952.00000,   0.00000
33542083.59649,18607435.36478,-5935305.17361,   0.00012,   0.00002,  -0.00008,31389248.00000,   0.00000,274640576.00000,   0.00000,   0.00000,   0.00000,-443251328.00000,   0.00000
38282718.36977,21247885.23048,-6782481.21121,   0.00013,   0.00002,  -0.00009,35771024.00000,   0.00000,274640576.00000,   0.00000,   0.00000,   0.00000,-438869552.00000,   0.00000
43013207.32224,23898480.91698,-7629657.24881,   0.00015,   0.00002,  -0.00010,40129896.00000,   0.00000,274640576.00000,   0.00000,   0.00000,   0.00000,-434510688.00000,   0.00000
47718331.72268,26523712.05146,-8471760.37600,   0.00017,   0.00003,  -0.00011,44452056.00000,   0.00000,274640576.00000,   0.00000,   0.00000,   0.00000,-430188512.00000,   0.00000
52405700.93671,29141333.82033,-9318936.41360,   0.00018,   0.00003,  -0.00012,48755772.00000,   0.00000,274640576.00000,   0.00000,   0.00000,   0.00000,-425884800.00000,   0.00000
57082924.32993,31769101.41002,-10161039.54080,   0.00020,   0.00003,  -0.00013,53047140.00000,   0.00000,274640576.00000,   0.00000,   0.00000,   0.00000,-421593440.00000,   0.00000
61760147.72315,34396868.99970,-11003142.66800,   0.00021,   0.00004,  -0.00014,57338852.00000,   0.00000,274640576.00000,   0.00000,   0.00000,   0.00000,-417301728.00000,   0.00000
66419615.92995,37017027.22377,-11845245.79519,   0.00023,   0.00004,  -0.00015,61618424.00000,   0.00000,274640576.00000,   0.00000,   0.00000,   0.00000,-413022144.00000,   0.00000
71061328.95034,39629576.08224,-12687348.92239,   0.00025,   0.00004,  -0.00016,65886560.00000,   0.00000,274640576.00000,   0.00000,   0.00000,   0.00000,-408754016.00000,   0.00000
75685286.78431,42234515.57510,-13529452.04958,   0.00026,   0.00004,  -0.00018,70144296.00000,   0.00000,274640576.00000,   0.00000,   0.00000,   0.00000,-404496288.00000,   0.00000
80291489.43186,44831845.70236,-14366482.26637,   0.00028,   0.00005,  -0.00019,74389520.00000,   0.00000,274640576.00000,   0.00000,   0.00000,   0.00000,-400251056.00000,   0.00000
84879936.89299,47421566.46400,-15208585.39357,   0.00029,   0.00005,  -0.00020,78629088.00000,   0.00000,274640576.00000,   0.00000,   0.00000,   0.00000,-396011488.00000,   0.00000
89475993.71974,50029042.41207,-16045615.61036,   0.00031,   0.00005,  -0.00021,82878328.00000,   0.00000,274640576.00000,   0.00000,   0.00000,   0.00000,-391762240.00000,   0.00000
94028930.80804,52603544.44250,-16882645.82715,   0.00033,   0.00006,  -0.00022,87095648.00000,   0.00000,274640576.00000,   0.00000,   0.00000,   0.00000,-387544928.00000,   0.00000
98589477.26195,55195801.65935,-17719676.04394,   0.00034,   0.00006,  -0.00023,91320616.00000,   0.00000,274640576.00000,   0.00000,   0.00000,   0.00000,-383319968.00000,   0.00000
103132268.52944,57780449.51059,-18556706.26073,   0.00036,   0.00006,  -0.00024,95527840.00000,   0.00000,274640576.00000,   0.00000,   0.00000,   0.00000,-379112736.00000,   0.00000
107657304.61051,60357487.99623,-19393736.47752,   0.00037,   0.00006,  -0.00025,99714112.00000,   0.00000,274640576.00000,   0.00000,   0.00000,   0.00000,-374926464.00000,   0.00000
112156976.13957,62909161.92984,-20230766.69431,   0.00039,   0.00007,  -0.00026,103871128.00000,   0.00000,274640576.00000,   0.00000,   0.00000,   0.00000,-370769440.00000,   0.00000
116646501.84781,65470981.68426,-21062724.00070,   0.00040,   0.00007,  -0.00027,108011344.00000,   0.00000,274640576.00000,   0.00000,   0.00000,   0.00000,-366629232.00000,   0.00000
121125881.73524,68042947.25949,-21899754.21749,   0.00042,   0.00007,  -0.00028,112143992.00000,   0.00000,274640576.00000,   0.00000,   0.00000,   0.00000,-362496576.00000,   0.00000
125579897.07065,70589548.28269,-22731711.52388,   0.00043,   0.00008,  -0.00030,116253560.00000,   0.00000,274640576.00000,   0.00000,   0.00000,   0.00000,-358387008.00000,   0.00000
130033912.40606,73136149.30590,-23563668.83026,   0.00045,   0.00008,  -0.00031,120368992.00000,   0.00000,274640576.00000,   0.00000,   0.00000,   0.00000,-354271584.00000,   0.00000
134460026.73424,75685286.78431,-24395626.13665,   0.00046,   0.00008,  -0.00032,124471984.00000,   0.00000,274640576.00000,   0.00000,   0.00000,   0.00000,-350168592.00000,   0.00000
138878531.69681,78216669.07630,-25227583.44304,   0.00048,   0.00009,  -0.00033,128577392.00000,   0.00000,274640576.00000,   0.00000,   0.00000,   0.00000,-346063184.00000,   0.00000
143269135.65216,80750587.82349,-26059540.74942,   0.00049,   0.00009,  -0.00034,132669512.00000,   0.00000,274640576.00000,   0.00000,   0.00000,   0.00000,-341971072.00000,   0.00000
147659739.60751,83284506.57069,-26886425.14540,   0.00051,   0.00009,  -0.00035,136763328.00000,   0.00000,274640576.00000,   0.00000,   0.00000,   0.00000,-337877248.00000,   0.00000
152007223.82442,85785451.40025,-27718382.45179,   0.00052,   0.00009,  -0.00036,140824928.00000,   0.00000,274640576.00000,   0.00000,   0.00000,   0.00000,-333815648.00000,   0.00000
156362317.40693,88304151.41623,-28545266.84777,   0.00054,   0.00010,  -0.00037,144888096.00000,   0.00000,274640576.00000,   0.00000,   0.00000,   0.00000,-329752480.00000,   0.00000
160699655.80303,90815242.06660,-29372151.24375,   0.00055,   0.00010,  -0.00038,148931984.00000,   0.00000,274640576.00000,   0.00000,   0.00000,   0.00000,-325708592.00000,   0.00000
165026848.37832,93336478.53778,-30199035.63973,   0.00057,   0.00010,  -0.00039,152962848.00000,   0.00000,274640576.00000,   0.00000,   0.00000,   0.00000,-321677728.00000,   0.00000
169310921.21516,95824741.09134,-31025920.03571,   0.00058,   0.00011,  -0.00040,156950944.00000,   0.00000,274640576.00000,   0.00000,   0.00000,   0.00000,-317689632.00000,   0.00000
173594994.05201,98313003.64489,-31852804.43169,   0.00060,   0.00011,  -0.00041,160932000.00000,   0.00000,274640576.00000,   0.00000,   0.00000,   0.00000,-313708576.00000,   0.00000
177861311.70244,100793656.83283,-32674615.91727,   0.00061,   0.00011,  -0.00042,164890528.00000,   0.00000,274640576.00000,   0.00000,   0.00000,   0.00000,-309750048.00000,   0.00000
182117483.53206,103284455.84158,-33501500.31325,   0.00063,   0.00011,  -0.00044,168844464.00000,   0.00000,274640576.00000,   0.00000,   0.00000,   0.00000,-305796112.00000,   0.00000
186355900.17527,105767645.48473,-34323311.79883,   0.00064,   0.00012,  -0.00045,172787296.00000,   0.00000,274640576.00000,   0.00000,   0.00000,   0.00000,-301853280.00000,   0.00000
190568952.26645,108225470.57585,-35150196.19481,   0.00066,   0.00012,  -0.00046,176722464.00000,   0.00000,274640576.00000,   0.00000,   0.00000,   0.00000,-297918112.00000,   0.00000
194771858.53682,110693441.48778,-35972007.68039,   0.00067,   0.00012,  -0.00047,180657600.00000,   0.00000,274640576.00000,   0.00000,   0.00000,   0.00000,-293982976.00000,   0.00000
198957009.62077,113153803.03411,-36793819.16596,   0.00068,   0.00013,  -0.00048,184584240.00000,   0.00000,274640576.00000,   0.00000,   0.00000,   0.00000,-290056336.00000,   0.00000
203124405.51831,115606555.21483,-37610557.74113,   0.00070,   0.00013,  -0.00049,188494288.00000,   0.00000,274640576.00000,   0.00000,   0.00000,   0.00000,-286146288.00000,   0.00000
207274046.22943,118051698.02994,-38432369.22671,   0.00071,   0.00013,  -0.00050,192389968.00000,   0.00000,274640576.00000,   0.00000,   0.00000,   0.00000,-282250608.00000,   0.00000
211405931.75414,120489231.47944,-39249107.80188,   0.00073,   0.00014,  -0.00051,196263712.00000,   0.00000,274640576.00000,   0.00000,   0.00000,   0.00000,-278376864.00000,   0.00000
215520062.09242,122919155.56333,-40070919.28746,   0.00074,   0.00014,  -0.00052,200123600.00000,   0.00000,274640576.00000,   0.00000,   0.00000,   0.00000,-274516976.00000,   0.00000
219624046.60990,125359225.46804,-40887657.86263,   0.00075,   0.00014,  -0.00053,203984352.00000,   0.00000,274640576.00000,   0.00000,   0.00000,   0.00000,-270656224.00000,   0.00000
223702666.57535,127773930.82072,-41704396.43780,   0.00077,   0.00015,  -0.00054,207876048.00000,   0.00000,274640576.00000,   0.00000,   0.00000,   0.00000,-266764528.00000,   0.00000
227745776.16797,130173417.44219,-42521135.01297,   0.00078,   0.00015,  -0.00055,211631856.00000,   0.00000,274640576.00000,   0.00000,   0.00000,   0.00000,-263008720.00000,   0.00000
231796495.12620,132590659.25007,-43337873.58815,   0.00080,   0.00015,  -0.00056,215516272.00000,   0.00000,274640576.00000,   0.00000,   0.00000,   0.00000,-259124304.00000,   0.00000
235829458.89801,135000291.69235,-44154612.16332,   0.00081,   0.00015,  -0.00057,219282192.00000,   0.00000,274640576.00000,   0.00000,   0.00000,   0.00000,-255358384.00000,   0.00000
239837058.11780,137384559.58260,-44966277.82808,   0.00082,   0.00016,  -0.00058,222944480.00000,   0.00000,274640576.00000,   0.00000,   0.00000,   0.00000,-251696096.00000,   0.00000
243834511.51677,139778973.29366,-45777943.49285,   0.00084,   0.00016,  -0.00060,226600944.00000,   0.00000,274640576.00000,   0.00000,   0.00000,   0.00000,-248039632.00000,   0.00000
247796454.54292,142158168.27351,-46594682.06802,   0.00085,   0.00016,  -0.00061,230262464.00000,   0.00000,274640576.00000,   0.00000,   0.00000,   0.00000,-244378112.00000,   0.00000
251758397.56906,144537363.25336,-47406347.73279,   0.00086,   0.00017,  -0.00062,233954960.00000,   0.00000,274640576.00000,   0.00000,   0.00000,   0.00000,-240685616.00000,   0.00000
255702585.40879,146908948.86760,-48218013.39756,   0.00088,   0.00017,  -0.00063,237658560.00000,   0.00000,274640576.00000,   0.00000,   0.00000,   0.00000,-236982016.00000,   0.00000
259618872.24129,149283070.93704,-49024606.15192,   0.00089,   0.00017,  -0.00064,241350032.00000,   0.00000,274640576.00000,   0.00000,   0.00000,   0.00000,-233290544.00000,   0.00000
263527549.70818,151639437.82007,-49836271.81669,   0.00090,   0.00018,  -0.00065,245039440.00000,   0.00000,274640576.00000,   0.00000,   0.00000,   0.00000,-229601136.00000,   0.00000
267400716.80224,153980585.97188,-50647937.48145,   0.00092,   0.00018,  -0.00066,248698544.00000,   0.00000,274640576.00000,   0.00000,   0.00000,   0.00000,-225942032.00000,   0.00000
271281493.26191,156339489.31011,-51454530.23581,   0.00093,   0.00018,  -0.00067,252359200.00000,   0.00000,274640576.00000,   0.00000,   0.00000,   0.00000,-222281376.00000,   0.00000
275119149.98313,158665418.73071,-52261122.99018,   0.00094,   0.00019,  -0.00068,255982160.00000,   0.00000,274640576.00000,   0.00000,   0.00000,   0.00000,-218658416.00000,   0.00000
278964416.06997,161009103.33772,-53067715.74454,   0.00096,   0.00019,  -0.00069,259610384.00000,   0.00000,274640576.00000,   0.00000,   0.00000,   0.00000,-215030192.00000,   0.00000
282774171.78397,163337569.21352,-53874308.49890,   0.00097,   0.00019,  -0.00070,263209168.00000,   0.00000,274640576.00000,   0.00000,   0.00000,   0.00000,-211431408.00000,   0.00000
286558562.94594,165640670.53730,-54680901.25326,   0.00098,   0.00019,  -0.00071,266785136.00000,   0.00000,274640576.00000,   0.00000,   0.00000,   0.00000,-207855440.00000,   0.00000
290332808.28711,167953917.68188,-55487494.00762,   0.00099,   0.00020,  -0.00072,270353536.00000,   0.00000,274640576.00000,   0.00000,   0.00000,   0.00000,-204287040.00000,   0.00000
294089298.44186,170259555.46086,-56289013.85158,   0.00101,   0.00020,  -0.00073,273904480.00000,   0.00000,274640576.00000,   0.00000,   0.00000,   0.00000,-200736096.00000,   0.00000
297828033.41019,172557583.87423,-57095606.60594,   0.00102,   0.00020,  -0.00074,277445088.00000,   0.00000,274640576.00000,   0.00000,   0.00000,   0.00000,-197195488.00000,   0.00000
301549013.19210,174848002.92200,-57897126.44990,   0.00103,   0.00021,  -0.00075,280970240.00000,   0.00000,274640576.00000,   0.00000,   0.00000,   0.00000,-193670336.00000,   0.00000
305259847.15321,177148567.79057,-58698646.29386,   0.00104,   0.00021,  -0.00076,284491680.00000,   0.00000,274640576.00000,   0.00000,   0.00000,   0.00000,-190148896.00000,   0.00000
308927561.37587,179416158.74151,-59500166.13782,   0.00106,   0.00021,  -0.00077,287981632.00000,   0.00000,274640576.00000,   0.00000,   0.00000,   0.00000,-186658944.00000,   0.00000
312595275.59854,181683749.69245,-60301685.98177,   0.00107,   0.00022,  -0.00078,291476800.00000,   0.00000,274640576.00000,   0.00000,   0.00000,   0.00000,-183163776.00000,   0.00000
316235088.81398,183953877.09860,-61098132.91533,   0.00108,   0.00022,  -0.00079,294953728.00000,   0.00000,274640576.00000,   0.00000,   0.00000,   0.00000,-179686848.00000,   0.00000
319867292.66381,186206249.31833,-61899652.75928,   0.00109,   0.00022,  -0.00080,298432352.00000,   0.00000,274640576.00000,   0.00000,   0.00000,   0.00000,-176208224.00000,   0.00000
323471595.50642,188461157.99326,-62696099.69284,   0.00110,   0.00023,  -0.00082,301892288.00000,   0.00000,274640576.00000,   0.00000,   0.00000,   0.00000,-172748288.00000,   0.00000
327058143.16260,190708457.30258,-63492546.62639,   0.00112,   0.00023,  -0.00083,305342752.00000,   0.00000,274640576.00000,   0.00000,   0.00000,   0.00000,-169297824.00000,   0.00000
330644690.81879,192955756.61190,-64288993.55994,   0.00113,   0.00023,  -0.00084,308796256.00000,   0.00000,274640576.00000,   0.00000,   0.00000,   0.00000,-165844320.00000,   0.00000
334195728.10215,195187837.19001,-65085440.49349,   0.00114,   0.00024,  -0.00085,312222336.00000,   0.00000,274640576.00000,   0.00000,   0.00000,   0.00000,-162418240.00000,   0.00000
337729010.19909,197412308.40252,-65881887.42705,   0.00115,   0.00024,  -0.00086,315633280.00000,   0.00000,274640576.00000,   0.00000,   0.00000,   0.00000,-159007296.00000,   0.00000
341226781.92319,199621560.88380,-66678334.36060,   0.00116,   0.00024,  -0.00087,319012416.00000,   0.00000,274640576.00000,   0.00000,   0.00000,   0.00000,-155628160.00000,   0.00000
344724553.64730,201830813.36509,-67469708.38375,   0.00117,   0.00025,  -0.00088,322382304.00000,   0.00000,274640576.00000,   0.00000,   0.00000,   0.00000,-152258272.00000,   0.00000
348204570.18498,204032456.48077,-68266155.31730,   0.00119,   0.00025,  -0.00089,325732864.00000,   0.00000,274640576.00000,   0.00000,   0.00000,   0.00000,-148907712.00000,   0.00000
351649076.34984,206218880.86524,-69057529.34045,   0.00120,   0.00025,  -0.00090,329040096.00000,   0.00000,274640576.00000,   0.00000,   0.00000,   0.00000,-145600480.00000,   0.00000
355101191.88030,208423060.43612,-69848903.36359,   0.00121,   0.00026,  -0.00091,332337568.00000,   0.00000,274640576.00000,   0.00000,   0.00000,   0.00000,-142303008.00000,   0.00000
358510187.67232,210594266.08937,-70640277.38674,   0.00122,   0.00026,  -0.00092,335571936.00000,   0.00000,274640576.00000,   0.00000,   0.00000,   0.00000,-139068640.00000,   0.00000
361909037.64353,212775617.56343,-71426578.49948,   0.00123,   0.00026,  -0.00093,338748512.00000,   0.00000,274640576.00000,   0.00000,   0.00000,   0.00000,-135892064.00000,   0.00000
365290132.42833,214949359.67188,-72217952.52263,   0.00124,   0.00027,  -0.00094,341879328.00000,   0.00000,274640576.00000,   0.00000,   0.00000,   0.00000,-132761248.00000,   0.00000
368645862.66110,217097737.22831,-73009326.54578,   0.00125,   0.00027,  -0.00095,345039616.00000,   0.00000,274640576.00000,   0.00000,   0.00000,   0.00000,-129600960.00000,   0.00000
371991447.07306,219256260.60555,-73795627.65852,   0.00127,   0.00027,  -0.00096,348226112.00000,   0.00000,274640576.00000,   0.00000,   0.00000,   0.00000,-126414464.00000,   0.00000
375319276.29860,221407174.61719,-74581928.77127,   0.00128,   0.00028,  -0.00097,351391680.00000,   0.00000,274640576.00000,   0.00000,   0.00000,   0.00000,-123248896.00000,   0.00000
378629350.33773,223550479.26321,-75368229.88401,   0.00129,   0.00028,  -0.00098,354548320.00000,   0.00000,274640576.00000,   0.00000,   0.00000,   0.00000,-120092256.00000,   0.00000
381903914.00402,225678565.17802,-76154530.99675,   0.00130,   0.00028,  -0.00099,357693600.00000,   0.00000,274640576.00000,   0.00000,   0.00000,   0.00000,-116946976.00000,   0.00000
385168331.84951,227816796.91364,-76940832.10949,   0.00131,   0.00029,  -0.00100,360848544.00000,   0.00000,274640576.00000,   0.00000,   0.00000,   0.00000,-113792032.00000,   0.00000
388425140.32938,229937273.46284,-77722060.31183,   0.00132,   0.00029,  -0.00101,364004864.00000,   0.00000,274640576.00000,   0.00000,   0.00000,   0.00000,-110635712.00000,   0.00000
391646438.43643,232042531.28083,-78508361.42457,   0.00133,   0.00029,  -0.00102,367144192.00000,   0.00000,274640576.00000,   0.00000,   0.00000,   0.00000,-107496384.00000,   0.00000
394857590.72266,234157934.91963,-79289589.62691,   0.00134,   0.00030,  -0.00103,370279648.00000,   0.00000,274640576.00000,   0.00000,   0.00000,   0.00000,-104360928.00000,   0.00000
398043378.45687,236247974.00641,-80070817.82925,   0.00135,   0.00030,  -0.00104,373397728.00000,   0.00000,274640576.00000,   0.00000,   0.00000,   0.00000,-101242848.00000,   0.00000
401201265.18386,238340549.54838,-80857118.94199,   0.00136,   0.00030,  -0.00105,376501056.00000,   0.00000,274640576.00000,   0.00000,   0.00000,   0.00000,-98139520.00000,   0.00000
404359151.91084,240433125.09036,-81633274.23393,   0.00137,   0.00031,  -0.00106,379597824.00000,   0.00000,274640576.00000,   0.00000,   0.00000,   0.00000,-95042752.00000,   0.00000
407491674.08580,242500336.08031,-82414502.43627,   0.00138,   0.00031,  -0.00107,382674176.00000,   0.00000,274640576.00000,   0.00000,   0.00000,   0.00000,-91966400.00000,   0.00000
410596295.25353,244570083.52547,-83195730.63860,   0.00139,   0.00031,  -0.00108,385726144.00000,   0.00000,274640576.00000,   0.00000,   0.00000,   0.00000,-88914432.00000,   0.00000
413683161.23485,246632221.60502,-83971885.93054,   0.00140,   0.00032,  -0.00109,388755872.00000,   0.00000,274640576.00000,   0.00000,   0.00000,   0.00000,-85884704.00000,   0.00000
416752272.02975,248686750.31896,-84753114.13287,   0.00141,   0.00032,  -0.00110,391770560.00000,   0.00000,274640576.00000,   0.00000,   0.00000,   0.00000,-82870016.00000,   0.00000
419803627.63823,250733669.66729,-85529269.42481,   0.00142,   0.00032,  -0.00111,394764288.00000,   0.00000,274640576.00000,   0.00000,   0.00000,   0.00000,-79876288.00000,   0.00000
422844837.42590,252790734.83644,-86305424.71674,   0.00143,   0.00033,  -0.00112,397749600.00000,   0.00000,274640576.00000,   0.00000,   0.00000,   0.00000,-76890976.00000,   0.00000
425860682.66155,254822435.45356,-87081580.00867,   0.00144,   0.00033,  -0.00113,400712448.00000,   0.00000,274640576.00000,   0.00000,   0.00000,   0.00000,-73928128.00000,   0.00000
428858772.71079,256846526.70507,-87857735.30061,   0.00145,   0.00033,  -0.00114,403661824.00000,   0.00000,274640576.00000,   0.00000,   0.00000,   0.00000,-70978752.00000,   0.00000
431828961.75279,258873154.41178,-88628817.68214,   0.00146,   0.00034,  -0.00115,406588416.00000,   0.00000,274640576.00000,   0.00000,   0.00000,   0.00000,-68052160.00000,   0.00000
434799150.79480,260899782.11850,-89404972.97407,   0.00147,   0.00034,  -0.00116,409519616.00000,   0.00000,274640576.00000,   0.00000,   0.00000,   0.00000,-65120960.00000,   0.00000
437726220.09836,262893435.90758,-90176055.35560,   0.00148,   0.00034,  -0.00117,412413408.00000,   0.00000,274640576.00000,   0.00000,   0.00000,   0.00000,-62227168.00000,   0.00000
440643143.58112,264897235.51747,-90947137.73713,   0.00149,   0.00035,  -0.00118,415301728.00000,   0.00000,274640576.00000,   0.00000,   0.00000,   0.00000,-59338848.00000,   0.00000
443542311.87746,266893425.76176,-91718220.11866,   0.00150,   0.00035,  -0.00119,418176832.00000,   0.00000,274640576.00000,   0.00000,   0.00000,   0.00000,-56463744.00000,   0.00000
446423724.98738,268882006.64044,-92489302.50018,   0.00151,   0.00035,  -0.00120,421038016.00000,   0.00000,274640576.00000,   0.00000,   0.00000,   0.00000,-53602560.00000,   0.00000
449287382.91089,270862978.15351,-93260384.88171,   0.00152,   0.00036,  -0.00121,423884736.00000,   0.00000,274640576.00000,   0.00000,   0.00000,   0.00000,-50755840.00000,   0.00000
452115530.46156,272828730.93537,-94026394.35284,   0.00153,   0.00036,  -0.00122,426699712.00000,   0.00000,274640576.00000,   0.00000,   0.00000,   0.00000,-47940864.00000,   0.00000
454943678.01223,274794483.71723,-94797476.73436,   0.00153,   0.00036,  -0.00123,429516832.00000,   0.00000,274640576.00000,   0.00000,   0.00000,   0.00000,-45123744.00000,   0.00000
457743924.55568,276762772.95429,-95563486.20549,   0.00154,   0.00037,  -0.00124,432309184.00000,   0.00000,274640576.00000,   0.00000,   0.00000,   0.00000,-42331392.00000,   0.00000
460536561.73352,278713307.00493,-96329495.67661,   0.00155,   0.00037,  -0.00125,435092768.00000,   0.00000,274640576.00000,   0.00000,   0.00000,   0.00000,-39547808.00000,   0.00000
463301297.90413,280666377.51077,-97095505.14774,   0.00156,   0.00037,  -0.00126,437855040.00000,   0.00000,274640576.00000,   0.00000,   0.00000,   0.00000,-36785536.00000,   0.00000
466040669.52272,282594083.46459,-97861514.61886,   0.00157,   0.00038,  -0.00127,440594688.00000,   0.00000,274640576.00000,   0.00000,   0.00000,   0.00000,-34045888.00000,   0.00000
468769895.32049,284531935.23923,-98627524.08998,   0.00158,   0.00038,  -0.00128,443327744.00000,   0.00000,274640576.00000,   0.00000,   0.00000,   0.00000,-31312832.00000,   0.00000
471481365.93186,286462177.64825,-99393533.56111,   0.00159,   0.00038,  -0.00129,446046624.00000,   0.00000,274640576.00000,   0.00000,   0.00000,   0.00000,-28593952.00000,   0.00000
474157326.17038,288377201.32606,-100154470.12183,   0.00160,   0.00039,  -0.00130,448734560.00000,   0.00000,274640576.00000,   0.00000,   0.00000,   0.00000,-25906016.00000,   0.00000
476833286.40891,290292225.00387,-100915406.68254,   0.00160,   0.00039,  -0.00131,451423264.00000,   0.00000,274640576.00000,   0.00000,   0.00000,   0.00000,-23217312.00000,   0.00000
479473736.27461,292192029.95046,-101681416.15367,   0.00161,   0.00039,  -0.00132,454088704.00000,   0.00000,274640576.00000,   0.00000,   0.00000,   0.00000,-20551872.00000,   0.00000
482114186.14030,294091834.89706,-102442352.71439,   0.00162,   0.00040,  -0.00133,456752416.00000,   0.00000,274640576.00000,   0.00000,   0.00000,   0.00000,-17888160.00000,   0.00000
484719125.63316,295976421.11244,-103203289.27511,   0.00163,   0.00040,  -0.00134,459390016.00000,   0.00000,274640576.00000,   0.00000,   0.00000,   0.00000,-15250560.00000,   0.00000
487313919.30521,297871153.14863,-103959152.92542,   0.00164,   0.00041,  -0.00135,462019616.00000,   0.00000,274640576.00000,   0.00000,   0.00000,   0.00000,-12620960.00000,   0.00000
489883348.42524,299740520.63279,-104720089.48614,   0.00164,   0.00041,  -0.00136,464632896.00000,   0.00000,274640576.00000,   0.00000,   0.00000,   0.00000,-10007680.00000,   0.00000
492442631.72446,301620033.93777,-105475953.13645,   0.00165,   0.00041,  -0.00137,467237760.00000,   0.00000,274640576.00000,   0.00000,   0.00000,   0.00000,-7402816.00000,   0.00000
494984159.83726,303491937.87714,-106236889.69717,   0.00166,   0.00042,  -0.00138,469833280.00000,   0.00000,274640576.00000,   0.00000,   0.00000,   0.00000,-4807296.00000,   0.00000
497500323.39804,305338477.26448,-106992753.34749,   0.00167,   0.00042,  -0.00139,472404832.00000,   0.00000,274640576.00000,   0.00000,   0.00000,   0.00000,-2235744.00000,   0.00000
499679983.07630,306958224.36484,-107654872.18961,   0.00167,   0.00042,  -0.00140,474640736.00000,   0.00000,274640576.00000,   0.00000,   0.00000,   0.00000, 160.00000,   0.00000
499661819.15941,307006429.58334,-107667269.97998,   0.00168,   0.00042,  -0.00140,474640736.00000,   0.00000,274641824.00000,   0.00000,   0.00000,  -0.00000, -96.00000,   2.00000
499518343.07652,307394498.56037,-107766690.67270,   0.00168,   0.00043,  -0.00141,477195712.00000,   0.00001,274651712.00000,   0.00001,   0.00000,  -0.00001,   0.00000,   2.00000
499368379.07112,307780534.52689,-107872392.64651,   0.00169,   0.00043,  -0.00142,477178528.00000,   0.00002,274661504.00000,   0.00002,   0.00000,  -0.00002, 128.00000,   2.00000
499222166.09806,308165760.76247,-107973041.17275,   0.00170,   0.00043,  -0.00143,477185376.00000,   0.00003,274671296.00000,   0.00003,   0.00000,  -0.00003, -32.00000,   2.00000
499065829.92859,308560459.06792,-108082231.28461,   0.00171,   0.00044,  -0.00144,477178944.00000,   0.00004,274681024.00000,   0.00004,   0.00001,  -0.00003,  32.00000,   2.00000
498910134.76752,308941455.81052,-108191898.91561,   0.00171,   0.00044,  -0.00145,477164288.00000,   0.00005,274690656.00000,   0.00005,   0.00001,  -0.00004, -64.00000,   2.00000
498751046.73229,309333451.84052,-108302287.77328,   0.00172,   0.00044,  -0.00146,477168256.00000,   0.00005,274700256.00000,   0.00005,   0.00001,  -0.00005, -96.00000,   2.00000
498589289.20335,309709989.24749,-108417388.29000,   0.00173,   0.00045,  -0.00147,477156736.00000,   0.00006,274709792.00000,   0.00006,   0.00001,  -0.00006,   0.00000,   2.00000
498423978.07741,310097489.64203,-108533150.43883,   0.00174,   0.00045,  -0.00148,477160736.00000,   0.00007,274719264.00000,   0.00007,   0.00001,  -0.00007, -96.00000,   2.00000
498255622.25748,310482792.90265,-108651612.41500,   0.00174,   0.00046,  -0.00149,477156896.00000,   0.00008,274728704.00000,   0.00008,   0.00001,  -0.00008, -64.00000,   2.00000
498088255.52111,310854838.44853,-108770660.29939,   0.00175,   0.00046,  -0.00150,477141600.00000,   0.00009,274738048.00000,   0.00009,   0.00002,  -0.00008,   0.00000,   2.00000
497910185.11688,311236310.68955,-108898077.60343,   0.00176,   0.00046,  -0.00151,477135232.00000,   0.00010,274747328.00000,   0.00010,   0.00002,  -0.00009,  32.00000,   2.00000
497735666.79747,311630351.15386,-109018387.57962,   0.00176,   0.00047,  -0.00152,477149472.00000,   0.00011,274756608.00000,   0.00011,   0.00002,  -0.00010,  96.00000,   2.00000
497554823.36874,312009505.65943,-109146994.15727,   0.00177,   0.00047,  -0.00153,477123744.00000,   0.00011,274765760.00000,   0.00011,   0.00002,  -0.00011,  32.00000,   2.00000
497374480.09522,312386177.97117,-109274692.84269,   0.00178,   0.00047,  -0.00154,477133312.00000,   0.00012,274774912.00000,   0.00012,   0.00002,  -0.00012,  32.00000,   2.00000
497187247.02588,312761183.29018,-109408618.14975,   0.00178,   0.00048,  -0.00155,477115488.00000,   0.00013,274783936.00000,   0.00013,   0.00002,  -0.00012,  64.00000,   2.00000
496996548.18682,313147333.19476,-109543179.67604,   0.00179,   0.00048,  -0.00156,477118944.00000,   0.00014,274792960.00000,   0.00014,   0.00002,  -0.00013,  32.00000,   2.00000
496810310.69473,313519921.63403,-109674719.93353,   0.00180,   0.00048,  -0.00157,477117312.00000,   0.00015,274801920.00000,   0.00015,   0.00003,  -0.00014,  64.00000,   2.00000
496613081.40298,313901958.99369,-109814576.34311,   0.00180,   0.00049,  -0.00158,477110688.00000,   0.00016,274810848.00000,   0.00016,   0.00003,  -0.00015, -64.00000,   2.00000
496416264.89083,314284064.13869,-109952955.76451,   0.00181,   0.00049,  -0.00159,477102880.00000,   0.00016,274819680.00000,   0.00016,   0.00003,  -0.00016,  64.00000,   2.00000
496216282.78759,314664218.37645,-110094010.04716,   0.00182,   0.00050,  -0.00160,477098464.00000,   0.00017,274828480.00000,   0.00017,   0.00003,  -0.00016,  64.00000,   2.00000
496012876.45717,315042308.66906,-110237672.21685,   0.00182,   0.00050,  -0.00160,477094176.00000,   0.00018,274837216.00000,   0.00018,   0.00003,  -0.00017, -96.00000,   2.00000
495806444.15712,315418599.13972,-110384042.99288,   0.00183,   0.00050,  -0.00161,477089472.00000,   0.00019,274845888.00000,   0.00019,   0.00003,  -0.00018,   0.00000,   2.00000
495596757.14348,315792996.46878,-110533062.75103,   0.00183,   0.00051,  -0.00162,477085248.00000,   0.00020,274854496.00000,   0.00020,   0.00004,  -0.00019, 192.00000,   2.00000
495387172.26547,316167487.20095,-110680555.16840,   0.00184,   0.00051,  -0.00163,477077408.00000,   0.00020,274863072.00000,   0.00020,   0.00004,  -0.00019,  96.00000,   2.00000
495173804.11257,316553107.48150,-110828618.98117,   0.00185,   0.00051,  -0.00164,477080640.00000,   0.00021,274871616.00000,   0.00021,   0.00004,  -0.00020,  32.00000,   2.00000
494954102.58495,316921828.95623,-110985581.46610,   0.00185,   0.00052,  -0.00165,477071616.00000,   0.00022,274880064.00000,   0.00022,   0.00004,  -0.00021,  96.00000,   2.00000
494734102.08237,317303771.92590,-111138941.14688,   0.00186,   0.00052,  -0.00166,477071456.00000,   0.00023,274888512.00000,   0.00023,   0.00004,  -0.00022,  64.00000,   2.00000
494506975.55789,317684447.71157,-111298589.70186,   0.00186,   0.00052,  -0.00167,477053152.00000,   0.00023,274896832.00000,   0.00023,   0.00004,  -0.00023,  64.00000,   2.00000
494283898.16074,318064877.95327,-111453144.02068,   0.00187,   0.00053,  -0.00168,477058624.00000,   0.00024,274905152.00000,   0.00024,   0.00005,  -0.00023,  64.00000,   2.00000
494053816.09421,318441412.44467,-111614472.83985,   0.00188,   0.00053,  -0.00169,477057504.00000,   0.00025,274913440.00000,   0.00025,   0.00005,  -0.00024, 128.00000,   2.00000
493820165.13680,318816108.56656,-111778404.36009,   0.00188,   0.00054,  -0.00170,477052736.00000,   0.00026,274921664.00000,   0.00026,   0.00005,  -0.00025,   0.00000,   2.00000
493583045.58677,319191935.85874,-111944572.72094,   0.00189,   0.00054,  -0.00171,477030656.00000,   0.00026,274929760.00000,   0.00026,   0.00005,  -0.00025, 128.00000,   2.00000
493346231.15006,319565426.90144,-112109716.11737,   0.00189,   0.00054,  -0.00172,477039520.00000,   0.00027,274937888.00000,   0.00027,   0.00005,  -0.00026, 128.00000,   2.00000
493106068.90370,319937348.04299,-112277550.48800,   0.00190,   0.00055,  -0.00173,477034656.00000,   0.00028,274945952.00000,   0.00028,   0.00005,  -0.00027,  64.00000,   2.00000
492857908.62903,320321079.92272,-112449521.92739,   0.00190,   0.00055,  -0.00174,477024256.00000,   0.00029,274953920.00000,   0.00029,   0.00005,  -0.00028,  64.00000,   2.00000
492610091.92939,320702512.50855,-112620464.81863,   0.00191,   0.00056,  -0.00175,477033088.00000,   0.00029,274961920.00000,   0.00029,   0.00006,  -0.00028,  96.00000,   2.00000
492363065.97350,321071758.64414,-112792173.70348,   0.00191,   0.00056,  -0.00176,477016448.00000,   0.00030,274969792.00000,   0.00030,   0.00006,  -0.00029,  96.00000,   2.00000
492108216.37588,321450091.83988,-112968438.92396,   0.00192,   0.00056,  -0.00177,477023296.00000,   0.00031,274977696.00000,   0.00031,   0.00006,  -0.00030, 128.00000,   2.00000
491849520.29757,321829729.08373,-113146943.34371,   0.00192,   0.00057,  -0.00178,477001088.00000,   0.00031,274985472.00000,   0.00031,   0.00006,  -0.00031,  32.00000,   2.00000
491591003.11959,322207091.47352,-113324370.30062,   0.00193,   0.00057,  -0.00179,477009696.00000,   0.00032,274993248.00000,   0.00032,   0.00006,  -0.00031,-128.00000,   2.00000
491329253.05468,322583206.73351,-113504550.36296,   0.00193,   0.00057,  -0.00180,477004448.00000,   0.00033,275000960.00000,   0.00033,   0.00006,  -0.00032, 160.00000,   2.00000
491063561.98966,322957690.68635,-113687292.79779,   0.00194,   0.00058,  -0.00180,476999520.00000,   0.00034,275008640.00000,   0.00033,   0.00007,  -0.00033,-160.00000,   2.00000
490793855.62113,323343642.35370,-113870533.24207,   0.00194,   0.00058,  -0.00181,477002496.00000,   0.00034,275016288.00000,   0.00034,   0.00007,  -0.00033,  64.00000,   2.00000
490524821.37444,323717668.49326,-114054573.81111,   0.00195,   0.00059,  -0.00182,476985696.00000,   0.00035,275023840.00000,   0.00035,   0.00007,  -0.00034, 128.00000,   2.00000
490251353.11803,324102966.44800,-114239005.82741,   0.00195,   0.00059,  -0.00183,476988768.00000,   0.00036,275031392.00000,   0.00035,   0.00007,  -0.00035,  96.00000,   2.00000
489971163.10867,324471945.53772,-114432362.80451,   0.00196,   0.00059,  -0.00184,476979168.00000,   0.00036,275038848.00000,   0.00036,   0.00007,  -0.00035,  96.00000,   2.00000
489690358.28695,324854556.26271,-114622053.71189,   0.00196,   0.00060,  -0.00185,476978336.00000,   0.00037,275046304.00000,   0.00037,   0.00007,  -0.00036, 128.00000,   2.00000
489409441.18117,325238002.92976,-114810297.98263,   0.00197,   0.00060,  -0.00186,476969568.00000,   0.00038,275053664.00000,   0.00037,   0.00008,  -0.00037,  96.00000,   2.00000
489121135.47863,325617868.98443,-115005230.65707,   0.00197,   0.00061,  -0.00187,476968032.00000,   0.00038,275061024.00000,   0.00038,   0.00008,  -0.00038,  32.00000,   2.00000
488828977.44024,325996326.36399,-115202733.56332,   0.00198,   0.00061,  -0.00188,476962912.00000,   0.00039,275068320.00000,   0.00039,   0.00008,  -0.00038,  96.00000,   2.00000
488540982.35509,326375037.69966,-115395098.11722,   0.00198,   0.00061,  -0.00189,476967200.00000,   0.00040,275075584.00000,   0.00039,   0.00008,  -0.00039,  64.00000,   2.00000
488244351.38619,326765740.08125,-115591515.29865,   0.00198,   0.00062,  -0.00190,476956704.00000,   0.00040,275082784.00000,   0.00040,   0.00008,  -0.00040,  96.00000,   2.00000
487948826.62057,327141731.68963,-115789089.32034,   0.00199,   0.00062,  -0.00191,476956768.00000,   0.00041,275089984.00000,   0.00041,   0.00008,  -0.00040,  96.00000,   2.00000
487644361.85532,327529549.47477,-115990622.64110,   0.00199,   0.00062,  -0.00192,476946336.00000,   0.00042,275097088.00000,   0.00041,   0.00009,  -0.00041,  32.00000,   2.00000
487341162.01838,327902747.71225,-116193334.95721,   0.00200,   0.00063,  -0.00193,476946080.00000,   0.00042,275104160.00000,   0.00042,   0.00009,  -0.00042, 128.00000,   2.00000
487033267.95934,328287041.42662,-116396270.39288,   0.00200,   0.00063,  -0.00194,476949152.00000,   0.00043,275111232.00000,   0.00042,   0.00009,  -0.00042,   0.00000,   2.00000
486725155.11969,328672159.04389,-116597722.15999,   0.00200,   0.00064,  -0.00194,476940000.00000,   0.00044,275118240.00000,   0.00043,   0.00009,  -0.00043,  64.00000,   2.00000
486413103.27700,329055796.09999,-116801725.17197,   0.00201,   0.00064,  -0.00195,476934624.00000,   0.00044,275125184.00000,   0.00044,   0.00009,  -0.00044, -64.00000,   2.00000
486097183.28021,329437996.56252,-117008294.68019,   0.00201,   0.00064,  -0.00196,476929248.00000,   0.00045,275132096.00000,   0.00044,   0.00009,  -0.00044,  64.00000,   2.00000
485777241.76351,329818667.17960,-117217384.93944,   0.00202,   0.00065,  -0.00197,476923776.00000,   0.00046,275138944.00000,   0.00045,   0.00009,  -0.00045,  32.00000,   2.00000
485452469.04190,330210239.26372,-117426633.17698,   0.00202,   0.00065,  -0.00198,476926816.00000,   0.00046,275145792.00000,   0.00045,   0.00010,  -0.00046, -32.00000,   2.00000
485128852.82919,330587031.00595,-117637013.78890,   0.00202,   0.00066,  -0.00199,476926368.00000,   0.00047,275152608.00000,   0.00046,   0.00010,  -0.00046,  64.00000,   2.00000
484799799.29454,330977882.34002,-117847324.71155,   0.00203,   0.00066,  -0.00200,476912288.00000,   0.00047,275159328.00000,   0.00047,   0.00010,  -0.00047,   0.00000,   2.00000
484471695.82321,331353835.13253,-118058726.89861,   0.00203,   0.00066,  -0.00201,476911776.00000,   0.00048,275166048.00000,   0.00047,   0.00010,  -0.00047, -96.00000,   2.00000
484135042.74242,331738332.50139,-118274294.86698,   0.00203,   0.00067,  -0.00202,476918496.00000,   0.00049,275172736.00000,   0.00048,   0.00010,  -0.00048,-128.00000,   2.00000
483801823.38886,332126024.71589,-118484418.56537,   0.00204,   0.00067,  -0.00203,476905440.00000,   0.00049,275179360.00000,   0.00048,   0.00010,  -0.00049,  96.00000,   2.00000
483460530.11079,332509642.38395,-118701023.53079,   0.00204,   0.00068,  -0.00204,476903808.00000,   0.00050,275185952.00000,   0.00049,   0.00011,  -0.00049,  32.00000,   2.00000
483115014.82615,332891651.27662,-118920139.76416,   0.00204,   0.00068,  -0.00205,476898272.00000,   0.00050,275192480.00000,   0.00049,   0.00011,  -0.00050, -32.00000,   2.00000
482773695.98848,333273744.90885,-119134058.63561,   0.00205,   0.00068,  -0.00206,476902208.00000,   0.00051,275199008.00000,   0.00050,   0.00011,  -0.00051, 128.00000,   2.00000
482424211.85280,333651766.16915,-119354450.49863,   0.00205,   0.00069,  -0.00206,476900512.00000,   0.00052,275205504.00000,   0.00051,   0.00011,  -0.00051,   0.00000,   2.00000
482068861.56786,334043798.76146,-119574770.85394,   0.00205,   0.00069,  -0.00207,476886304.00000,   0.00052,275211936.00000,   0.00051,   0.00011,  -0.00052,   0.00000,   2.00000
481714499.12384,334421039.02502,-119796234.72707,   0.00206,   0.00070,  -0.00208,476885472.00000,   0.00053,275218336.00000,   0.00052,   0.00011,  -0.00053,   0.00000,   2.00000
481363498.50412,334810703.27512,-120010085.48147,   0.00206,   0.00070,  -0.00209,476897632.00000,   0.00053,275224736.00000,   0.00052,   0.00012,  -0.00053,  96.00000,   2.00000
480999583.13367,335197133.36499,-120234223.84613,   0.00206,   0.00070,  -0.00210,476882816.00000,   0.00054,275231072.00000,   0.00053,   0.00012,  -0.00054,  64.00000,   2.00000
480640524.50018,335571365.71558,-120455600.95170,   0.00207,   0.00071,  -0.00211,476877792.00000,   0.00055,275237344.00000,   0.00053,   0.00012,  -0.00054, -32.00000,   2.00000
480276311.64983,335956435.85277,-120677112.84886,   0.00207,   0.00071,  -0.00212,476880672.00000,   0.00055,275243616.00000,   0.00054,   0.00012,  -0.00055,  96.00000,   2.00000
479903679.91599,336337430.77976,-120905082.67627,   0.00207,   0.00072,  -0.00213,476878816.00000,   0.00056,275249856.00000,   0.00054,   0.00012,  -0.00056, -32.00000,   2.00000
479533451.10744,336734183.43753,-121125283.76280,   0.00207,   0.00072,  -0.00214,476873920.00000,   0.00056,275256064.00000,   0.00055,   0.00012,  -0.00056,  32.00000,   2.00000
479160356.38719,337113792.15756,-121350628.84198,   0.00208,   0.00073,  -0.00215,476876576.00000,   0.00057,275262240.00000,   0.00055,   0.00013,  -0.00057, -64.00000,   2.00000
478777904.70640,337492829.17434,-121582356.81611,   0.00208,   0.00073,  -0.00215,476857632.00000,   0.00057,275268320.00000,   0.00056,   0.00013,  -0.00057, -32.00000,   2.00000
478398680.34729,337884249.55351,-121806400.72848,   0.00208,   0.00073,  -0.00216,476869568.00000,   0.00058,275274432.00000,   0.00056,   0.00013,  -0.00058, -64.00000,   2.00000
478015733.62156,338262113.29924,-122035553.00500,   0.00208,   0.00074,  -0.00217,476855136.00000,   0.00059,275280480.00000,   0.00057,   0.00013,  -0.00059,  32.00000,   2.00000
477632147.75038,338649834.27519,-122260932.76047,   0.00209,   0.00074,  -0.00218,476871040.00000,   0.00059,275286528.00000,   0.00057,   0.00013,  -0.00059,  32.00000,   2.00000
477243745.21610,339036045.77643,-122488855.91846,   0.00209,   0.00075,  -0.00219,476865216.00000,   0.00060,275292544.00000,   0.00058,   0.00013,  -0.00060, -32.00000,   2.00000
476855560.77503,339411468.05017,-122718062.75597,   0.00209,   0.00075,  -0.00220,476846528.00000,   0.00060,275298496.00000,   0.00058,   0.00014,  -0.00060, 128.00000,   2.00000
476457794.51643,339794998.03547,-122951178.67226,   0.00209,   0.00075,  -0.00221,476853216.00000,   0.00061,275304416.00000,   0.00059,   0.00014,  -0.00061,   0.00000,   2.00000
476064144.35509,340178872.04232,-123179151.87822,   0.00210,   0.00076,  -0.00222,476856512.00000,   0.00061,275310336.00000,   0.00059,   0.00014,  -0.00062,  32.00000,   2.00000
475659749.83608,340574287.34047,-123410984.18179,   0.00210,   0.00076,  -0.00223,476846208.00000,   0.00062,275316192.00000,   0.00060,   0.00014,  -0.00062,  32.00000,   2.00000
475256527.83711,340955451.06630,-123644154.59040,   0.00210,   0.00077,  -0.00224,476844640.00000,   0.00062,275322016.00000,   0.00060,   0.00014,  -0.00063,  96.00000,   2.00000
474853426.81335,341334335.60397,-123876041.15554,   0.00210,   0.00077,  -0.00224,476851648.00000,   0.00063,275327872.00000,   0.00061,   0.00014,  -0.00063,  32.00000,   2.00000
474448386.23764,341726477.62481,-124104049.25178,   0.00211,   0.00078,  -0.00225,476850336.00000,   0.00063,275333664.00000,   0.00061,   0.00015,  -0.00064, -64.00000,   2.00000
474035615.46740,342102787.25682,-124341186.29036,   0.00211,   0.00078,  -0.00226,476839488.00000,   0.00064,275339424.00000,   0.00062,   0.00015,  -0.00065, -64.00000,   2.00000
473620753.69211,342492298.02509,-124574400.32355,   0.00211,   0.00078,  -0.00227,476838496.00000,   0.00064,275345152.00000,   0.00062,   0.00015,  -0.00065,   0.00000,   2.00000
473206225.21582,342879656.72819,-124806399.21062,   0.00211,   0.00079,  -0.00228,476845312.00000,   0.00065,275350880.00000,   0.00063,   0.00015,  -0.00066,  64.00000,   2.00000
472790500.43665,343268272.84825,-125037128.88025,   0.00211,   0.00079,  -0.00229,476835456.00000,   0.00066,275356544.00000,   0.00063,   0.00015,  -0.00066,  96.00000,   2.00000
472365763.90929,343652859.41583,-125274306.41783,   0.00212,   0.00080,  -0.00230,476833472.00000,   0.00066,275362176.00000,   0.00064,   0.00015,  -0.00067,   0.00000,   2.00000
471945221.33186,344037949.14649,-125506405.50030,   0.00212,   0.00080,  -0.00231,476836288.00000,   0.00067,275367808.00000,   0.00064,   0.00016,  -0.00067,   0.00000,   2.00000
471519525.80127,344421688.63032,-125741114.62182,   0.00212,   0.00080,  -0.00231,476830304.00000,   0.00067,275373376.00000,   0.00065,   0.00016,  -0.00068,  32.00000,   2.00000
471088615.81432,344804061.11823,-125978422.21382,   0.00212,   0.00081,  -0.00232,476824320.00000,   0.00068,275378912.00000,   0.00065,   0.00016,  -0.00069,-160.00000,   2.00000
470658051.59329,345184326.53722,-126214525.09836,   0.00212,   0.00081,  -0.00233,476831008.00000,   0.00068,275384448.00000,   0.00065,   0.00016,  -0.00069,   0.00000,   2.00000
470221387.34374,345575125.46480,-126450581.34542,   0.00212,   0.00082,  -0.00234,476833984.00000,   0.00069,275389984.00000,   0.00066,   0.00016,  -0.00070,   0.00000,   2.00000
469789592.39932,345954444.23951,-126684203.79810,   0.00213,   0.00082,  -0.00235,476828064.00000,   0.00069,275395488.00000,   0.00066,   0.00016,  -0.00070, -32.00000,   2.00000
469346213.07123,346345202.51870,-126921679.09454,   0.00213,   0.00083,  -0.00236,476818080.00000,   0.00070,275400928.00000,   0.00067,   0.00017,  -0.00071,   0.00000,   2.00000
468908579.90430,346732858.80929,-127154060.79848,   0.00213,   0.00083,  -0.00237,476837632.00000,   0.00070,275406400.00000,   0.00067,   0.00017,  -0.00071,  64.00000,   2.00000
468459918.81643,347119935.71450,-127392926.63616,   0.00213,   0.00083,  -0.00238,476819040.00000,   0.00071,275411808.00000,   0.00068,   0.00017,  -0.00072,   0.00000,   2.00000
468016337.26177,347495785.04347,-127629496.23493,   0.00213,   0.00084,  -0.00238,476812704.00000,   0.00071,275417152.00000,   0.00068,   0.00017,  -0.00073,   0.00000,   2.00000
467568082.92027,347878433.44995,-127865931.69854,   0.00213,   0.00084,  -0.00239,476832480.00000,   0.00072,275422560.00000,   0.00069,   0.00017,  -0.00073, -32.00000,   2.00000
467117472.26247,348274263.10888,-128098532.41924,   0.00214,   0.00085,  -0.00240,476831328.00000,   0.00072,275427936.00000,   0.00069,   0.00017,  -0.00074, 192.00000,   2.00000
466662198.40356,348656905.41816,-128336535.36162,   0.00214,   0.00085,  -0.00241,476816544.00000,   0.00073,275433248.00000,   0.00069,   0.00018,  -0.00074,  64.00000,   2.00000
466207135.00269,349037340.19150,-128573362.70466,   0.00214,   0.00086,  -0.00242,476823232.00000,   0.00073,275438528.00000,   0.00070,   0.00018,  -0.00075,  96.00000,   2.00000
465750404.35630,349419177.87623,-128809102.89193,   0.00214,   0.00086,  -0.00243,476813024.00000,   0.00074,275443808.00000,   0.00070,   0.00018,  -0.00075,  32.00000,   2.00000
465292762.21508,349810348.74991,-129040871.98795,   0.00214,   0.00086,  -0.00244,476828800.00000,   0.00074,275449088.00000,   0.00071,   0.00018,  -0.00076, -32.00000,   2.00000
464826771.24088,350185888.44909,-129282033.45613,   0.00214,   0.00087,  -0.00244,476817952.00000,   0.00075,275454304.00000,   0.00071,   0.00018,  -0.00076, 160.00000,   2.00000
464361791.55055,350577141.74316,-129515517.79197,   0.00214,   0.00087,  -0.00245,476812800.00000,   0.00075,275459488.00000,   0.00071,   0.00018,  -0.00077,  96.00000,   2.00000
463893126.16661,350963399.27457,-129751695.26616,   0.00214,   0.00088,  -0.00246,476823392.00000,   0.00075,275464704.00000,   0.00072,   0.00019,  -0.00078,   0.00000,   2.00000
463425366.45115,351335681.63639,-129989511.23523,   0.00215,   0.00088,  -0.00247,476821088.00000,   0.00076,275469888.00000,   0.00072,   0.00019,  -0.00078,   0.00000,   2.00000
462954959.71362,351721141.64538,-130223593.21192,   0.00215,   0.00089,  -0.00248,476819872.00000,   0.00076,275475040.00000,   0.00073,   0.00019,  -0.00079,   0.00000,   2.00000
462478741.18072,352105244.34338,-130460498.90333,   0.00215,   0.00089,  -0.00249,476813920.00000,   0.00077,275480160.00000,   0.00073,   0.00019,  -0.00079,  96.00000,   2.00000
462002580.40960,352487068.25638,-130696323.95448,   0.00215,   0.00089,  -0.00250,476820512.00000,   0.00077,275485280.00000,   0.00073,   0.00019,  -0.00080,  96.00000,   2.00000
461530388.17727,352869453.57280,-130927326.09772,   0.00215,   0.00090,  -0.00250,476822880.00000,   0.00078,275490400.00000,   0.00074,   0.00019,  -0.00080,  64.00000,   2.00000
461048346.46933,353247655.45697,-131164955.84562,   0.00215,   0.00090,  -0.00251,476821024.00000,   0.00078,275495456.00000,   0.00074,   0.00020,  -0.00081,  64.00000,   2.00000
460564394.91134,353627472.30487,-131401745.57370,   0.00215,   0.00091,  -0.00252,476810848.00000,   0.00079,275500480.00000,   0.00075,   0.00020,  -0.00081,   0.00000,   2.00000
460085579.56587,354015606.23097,-131630738.20778,   0.00215,   0.00091,  -0.00253,476838912.00000,   0.00079,275505600.00000,   0.00075,   0.00020,  -0.00082,  32.00000,   2.00000
459595650.01236,354391858.68003,-131869418.53147,   0.00215,   0.00092,  -0.00254,476811296.00000,   0.00080,275510592.00000,   0.00075,   0.00020,  -0.00082,  64.00000,   2.00000
459108840.31553,354780285.02945,-132100497.90865,   0.00215,   0.00092,  -0.00255,476822752.00000,   0.00080,275515616.00000,   0.00076,   0.00020,  -0.00083, 160.00000,   2.00000
458622813.65043,355154869.00996,-132333382.15152,   0.00216,   0.00093,  -0.00256,476820064.00000,   0.00081,275520576.00000,   0.00076,   0.00020,  -0.00083, -32.00000,   2.00000
458129989.21853,355539772.28407,-132566361.80951,   0.00216,   0.00093,  -0.00256,476823136.00000,   0.00081,275525568.00000,   0.00077,   0.00021,  -0.00084,  32.00000,   2.00000
457638088.85933,355910973.77077,-132801181.25739,   0.00216,   0.00093,  -0.00257,476820480.00000,   0.00082,275530496.00000,   0.00077,   0.00021,  -0.00085,   0.00000,   2.00000
457139196.18737,356292362.01746,-133035994.25320,   0.00216,   0.00094,  -0.00258,476823616.00000,   0.00082,275535424.00000,   0.00077,   0.00021,  -0.00085,  64.00000,   2.00000
456644278.53520,356674405.28026,-133265996.76554,   0.00216,   0.00094,  -0.00259,476825824.00000,   0.00082,275540352.00000,   0.00078,   0.00021,  -0.00086,   0.00000,   2.00000
456149463.63932,357054223.90509,-133494907.86898,   0.00216,   0.00095,  -0.00260,476832416.00000,   0.00083,275545280.00000,   0.00078,   0.00021,  -0.00086,   0.00000,   2.00000
455648519.84423,357432777.49349,-133726620.38512,   0.00216,   0.00095,  -0.00261,476826400.00000,   0.00083,275550176.00000,   0.00078,   0.00021,  -0.00087,   0.00000,   2.00000
455147670.49913,357809071.71490,-133957135.32726,   0.00216,   0.00096,  -0.00261,476833024.00000,   0.00084,275555072.00000,   0.00079,   0.00022,  -0.00087,  64.00000,   2.00000
454644685.13332,358187105.76447,-134186677.15727,   0.00216,   0.00096,  -0.00262,476822912.00000,   0.00084,275559904.00000,   0.00079,   0.00022,  -0.00088,  96.00000,   2.00000
454141762.39917,358562822.05392,-134414899.94616,   0.00216,   0.00097,  -0.00263,476829536.00000,   0.00085,275564768.00000,   0.00079,   0.00022,  -0.00088, -64.00000,   2.00000
453632777.32212,358937338.93562,-134645756.84871,   0.00216,   0.00097,  -0.00264,476823776.00000,   0.00085,275569568.00000,   0.00080,   0.00022,  -0.00089,  32.00000,   2.00000
453130377.91779,359308617.13037,-134871246.19418,   0.00216,   0.00097,  -0.00265,476842752.00000,   0.00086,275574432.00000,   0.00080,   0.00022,  -0.00089,  32.00000,   2.00000
452620713.18111,359689719.30474,-135096174.33224,   0.00216,   0.00098,  -0.00265,476846624.00000,   0.00086,275579264.00000,   0.00081,   0.00022,  -0.00090,   0.00000,   2.00000
452109996.58580,360061441.61635,-135322928.82099,   0.00216,   0.00098,  -0.00266,476827360.00000,   0.00086,275584032.00000,   0.00081,   0.00023,  -0.00090,  64.00000,   2.00000
451599326.73565,360430710.01922,-135548012.87738,   0.00216,   0.00099,  -0.00267,476834304.00000,   0.00087,275588832.00000,   0.00081,   0.00023,  -0.00091, -32.00000,   2.00000
451088147.02038,360808970.50090,-135768477.67142,   0.00217,   0.00099,  -0.00268,476850368.00000,   0.00087,275593632.00000,   0.00082,   0.00023,  -0.00091,  32.00000,   2.00000
450575577.63468,361177692.78528,-135990595.28346,   0.00217,   0.00100,  -0.00269,476831264.00000,   0.00088,275598368.00000,   0.00082,   0.00023,  -0.00092, -64.00000,   2.00000
450069073.86408,361554373.19834,-136204019.85099,   0.00217,   0.00100,  -0.00270,476859808.00000,   0.00088,275603168.00000,   0.00082,   0.00023,  -0.00092,   0.00000,   2.00000
449550483.72090,361919421.06314,-136426694.17657,   0.00217,   0.00100,  -0.00270,476832992.00000,   0.00089,275607872.00000,   0.00083,   0.00023,  -0.00093,  64.00000,   2.00000
449038039.62982,362292384.61370,-136640590.57097,   0.00217,   0.00101,  -0.00271,476861440.00000,   0.00089,275612672.00000,   0.00083,   0.00024,  -0.00094, -32.00000,   2.00000
448519279.74842,362663986.80376,-136856743.47326,   0.00217,   0.00101,  -0.00272,476856288.00000,   0.00090,275617408.00000,   0.00083,   0.00024,  -0.00094, 128.00000,   2.00000
448005572.15349,363025126.95174,-137070590.69986,   0.00217,   0.00102,  -0.00273,476849504.00000,   0.00090,275622144.00000,   0.00084,   0.00024,  -0.00095, -64.00000,   2.00000
447491506.77389,363395231.74550,-137279736.60461,   0.00217,   0.00102,  -0.00274,476865664.00000,   0.00090,275626880.00000,   0.00084,   0.00024,  -0.00095,  64.00000,   2.00000
446970878.66152,363763903.82422,-137491218.61928,   0.00217,   0.00103,  -0.00274,476860480.00000,   0.00091,275631616.00000,   0.00084,   0.00024,  -0.00096,  96.00000,   2.00000
446454434.46647,364133316.89700,-137697491.84301,   0.00217,   0.00103,  -0.00275,476862944.00000,   0.00091,275636320.00000,   0.00085,   0.00025,  -0.00096,  96.00000,   2.00000
445938282.78145,364500443.59228,-137902271.93262,   0.00217,   0.00104,  -0.00276,476869568.00000,   0.00092,275641024.00000,   0.00085,   0.00025,  -0.00097,  96.00000,   2.00000
445422325.28502,364865231.17500,-138105606.57360,   0.00217,   0.00104,  -0.00277,476876224.00000,   0.00092,275645760.00000,   0.00085,   0.00025,  -0.00097,   0.00000,   2.00000
444899635.62697,365228658.67875,-138311605.48925,   0.00217,   0.00105,  -0.00278,476870656.00000,   0.00093,275650432.00000,   0.00086,   0.00025,  -0.00098,  64.00000,   2.00000
444381080.67788,365592939.35294,-138512759.77537,   0.00217,   0.00105,  -0.00278,476872576.00000,   0.00093,275655136.00000,   0.00086,   0.00025,  -0.00098,   0.00000,   2.00000
443858734.42946,365951798.36757,-138716342.29483,   0.00217,   0.00105,  -0.00279,476883328.00000,   0.00093,275659808.00000,   0.00086,   0.00025,  -0.00099, 128.00000,   2.00000
443333274.79367,366312353.95987,-138919235.37808,   0.00217,   0.00106,  -0.00280,476873248.00000,   0.00094,275664480.00000,   0.00087,   0.00026,  -0.00099,  96.00000,   2.00000
442818960.17788,366672904.83261,-139113588.27502,   0.00217,   0.00106,  -0.00281,476886656.00000,   0.00094,275669152.00000,   0.00087,   0.00026,  -0.00100,   0.00000,   2.00000
442293566.22530,367028885.10376,-139314636.50327,   0.00217,   0.00107,  -0.00282,476885120.00000,   0.00095,275673792.00000,   0.00087,   0.00026,  -0.00100,  32.00000,   2.00000
441772227.55146,367385848.07828,-139511363.89877,   0.00217,   0.00107,  -0.00282,476886496.00000,   0.00095,275678464.00000,   0.00088,   0.00026,  -0.00101,  96.00000,   2.00000
441250776.60134,367740467.58710,-139707369.90747,   0.00217,   0.00108,  -0.00283,476892352.00000,   0.00096,275683104.00000,   0.00088,   0.00026,  -0.00101,  64.00000,   2.00000
440726039.63938,368096947.48268,-139903203.02555,   0.00217,   0.00108,  -0.00284,476881440.00000,   0.00096,275687680.00000,   0.00088,   0.00027,  -0.00102, 128.00000,   2.00000
440207450.60925,368460979.22168,-140091250.91133,   0.00217,   0.00109,  -0.00285,476908448.00000,   0.00096,275692352.00000,   0.00089,   0.00027,  -0.00103, -32.00000,   2.00000
439678475.15876,368809622.02097,-140289646.13371,   0.00217,   0.00109,  -0.00285,476896864.00000,   0.00097,275696992.00000,   0.00089,   0.00027,  -0.00103, -32.00000,   2.00000
439157314.89701,369162476.14141,-140480536.49752,   0.00217,   0.00109,  -0.00286,476893280.00000,   0.00097,275701568.00000,   0.00089,   0.00027,  -0.00104,  96.00000,   2.00000
438631959.88627,369509770.72419,-140674647.22284,   0.00217,   0.00110,  -0.00287,476902976.00000,   0.00098,275706176.00000,   0.00090,   0.00027,  -0.00104, -32.00000,   2.00000
438109517.36909,369868818.04911,-140861701.98910,   0.00217,   0.00110,  -0.00288,476913280.00000,   0.00098,275710784.00000,   0.00090,   0.00028,  -0.00105,  32.00000,   2.00000
437587785.42414,370214843.29482,-141051798.44777,   0.00217,   0.00111,  -0.00289,476908704.00000,   0.00099,275715392.00000,   0.00090,   0.00028,  -0.00105, -32.00000,   2.00000
437058534.79023,370559612.55175,-141245731.41965,   0.00217,   0.00111,  -0.00289,476901952.00000,   0.00099,275719936.00000,   0.00090,   0.00028,  -0.00106, -32.00000,   2.00000
436532868.17259,370905306.46205,-141435952.91320,   0.00217,   0.00112,  -0.00290,476902496.00000,   0.00099,275724448.00000,   0.00091,   0.00028,  -0.00106, -32.00000,   2.00000
436013477.95163,371258553.28252,-141618953.05847,   0.00217,   0.00112,  -0.00291,476928736.00000,   0.00100,275729088.00000,   0.00091,   0.00028,  -0.00107, -32.00000,   2.00000
435487486.26728,371600008.68406,-141809219.88839,   0.00217,   0.00113,  -0.00292,476912192.00000,   0.00100,275733600.00000,   0.00091,   0.00028,  -0.00107,  32.00000,   2.00000
434965034.25108,371942492.80221,-141995942.57856,   0.00217,   0.00113,  -0.00292,476912640.00000,   0.00101,275738112.00000,   0.00092,   0.00029,  -0.00108, -64.00000,   2.00000
434437546.30597,372290313.11180,-142183175.68573,   0.00217,   0.00114,  -0.00293,476931488.00000,   0.00101,275742688.00000,   0.00092,   0.00029,  -0.00108,  64.00000,   2.00000
433914521.21258,372628645.33119,-142370254.54767,   0.00217,   0.00114,  -0.00294,476922176.00000,   0.00102,275747200.00000,   0.00092,   0.00029,  -0.00109,   0.00000,   2.00000
433387732.97055,372969338.37484,-142557983.56758,   0.00217,   0.00114,  -0.00295,476910752.00000,   0.00102,275751680.00000,   0.00093,   0.00029,  -0.00109,   0.00000,   2.00000
432868076.06174,373307119.14699,-142742150.69539,   0.00217,   0.00115,  -0.00295,476927104.00000,   0.00102,275756160.00000,   0.00093,   0.00029,  -0.00110, -32.00000,   2.00000
432343029.49262,373650169.72100,-142927020.58212,   0.00217,   0.00115,  -0.00296,476946016.00000,   0.00103,275760736.00000,   0.00093,   0.00030,  -0.00110, -32.00000,   2.00000
431819234.89835,373988766.23654,-143112473.63144,   0.00217,   0.00116,  -0.00297,476920160.00000,   0.00103,275765152.00000,   0.00093,   0.00030,  -0.00111,  32.00000,   2.00000
431298454.18869,374321234.74954,-143298108.59873,   0.00217,   0.00116,  -0.00298,476941056.00000,   0.00104,275769664.00000,   0.00094,   0.00030,  -0.00111,  96.00000,   2.00000
430772739.49249,374666956.77772,-143481379.61509,   0.00217,   0.00117,  -0.00298,476939392.00000,   0.00104,275774112.00000,   0.00094,   0.00030,  -0.00112, -32.00000,   2.00000
430255283.85968,374999789.86130,-143664661.82477,   0.00217,   0.00117,  -0.00299,476945920.00000,   0.00104,275778592.00000,   0.00094,   0.00030,  -0.00112, -64.00000,   2.00000
429733943.83159,375335654.17177,-143848770.44174,   0.00217,   0.00118,  -0.00300,476934688.00000,   0.00105,275783008.00000,   0.00095,   0.00031,  -0.00113, -64.00000,   2.00000
429208746.92583,375667221.68009,-144037027.24149,   0.00217,   0.00118,  -0.00301,476943936.00000,   0.00105,275787424.00000,   0.00095,   0.00031,  -0.00113,  96.00000,   2.00000
428694586.36957,375999643.43403,-144217973.32099,   0.00217,   0.00118,  -0.00301,476956512.00000,   0.00106,275791872.00000,   0.00095,   0.00031,  -0.00114,  32.00000,   2.00000
428177000.90737,376335476.60317,-144399190.99483,   0.00217,   0.00119,  -0.00302,476945760.00000,   0.00106,275796256.00000,   0.00096,   0.00031,  -0.00114,  32.00000,   2.00000
427654725.23404,376677291.94501,-144580319.79386,   0.00217,   0.00119,  -0.00303,476965664.00000,   0.00107,275800704.00000,   0.00096,   0.00031,  -0.00115, 128.00000,   2.00000
427137981.79107,377011023.33792,-144760205.87810,   0.00217,   0.00120,  -0.00304,476957312.00000,   0.00107,275805120.00000,   0.00096,   0.00032,  -0.00115,  32.00000,   2.00000
426633395.84412,377345784.58482,-144931134.14262,   0.00217,   0.00120,  -0.00304,476971040.00000,   0.00107,275809536.00000,   0.00096,   0.00032,  -0.00116,  32.00000,   2.00000
426118644.64415,377677250.72983,-145107433.90037,   0.00217,   0.00121,  -0.00305,476970624.00000,   0.00108,275813952.00000,   0.00097,   0.00032,  -0.00116,  64.00000,   2.00000
425616646.14461,378009506.49718,-145273496.17727,   0.00217,   0.00121,  -0.00306,476985280.00000,   0.00108,275818400.00000,   0.00097,   0.00032,  -0.00117,  64.00000,   2.00000
425108809.80979,378341478.04911,-145440210.62748,   0.00217,   0.00122,  -0.00306,476981344.00000,   0.00109,275822848.00000,   0.00097,   0.00032,  -0.00117, -64.00000,   2.00000
424606725.52624,378675209.82147,-145599721.31900,   0.00217,   0.00122,  -0.00307,476984928.00000,   0.00109,275827264.00000,   0.00098,   0.00033,  -0.00118,  32.00000,   2.00000
424110634.34425,379002948.53731,-145754974.83332,   0.00217,   0.00123,  -0.00308,477009280.00000,   0.00109,275831776.00000,   0.00098,   0.00033,  -0.00118,  64.00000,   2.00000
423617233.71548,379326254.48862,-145906679.58416,   0.00217,   0.00123,  -0.00309,476987008.00000,   0.00110,275836192.00000,   0.00098,   0.00033,  -0.00119, -96.00000,   2.00000
423128926.83201,379653789.53093,-146050881.72682,   0.00217,   0.00123,  -0.00309,477021184.00000,   0.00110,275840736.00000,   0.00098,   0.00033,  -0.00119,  32.00000,   2.00000
422646242.39596,379982944.77705,-146188423.07541,   0.00217,   0.00124,  -0.00310,477024480.00000,   0.00111,275845248.00000,   0.00099,   0.00033,  -0.00120, -32.00000,   2.00000
422156815.63609,380311066.38938,-146327160.04810,   0.00217,   0.00124,  -0.00311,477020704.00000,   0.00111,275849760.00000,   0.00099,   0.00034,  -0.00121,  96.00000,   2.00000
421677401.17086,380626158.66609,-146463216.63205,   0.00217,   0.00125,  -0.00311,477029216.00000,   0.00111,275854304.00000,   0.00099,   0.00034,  -0.00121,   0.00000,   2.00000
421201789.78942,380953113.77960,-146590708.45214,   0.00217,   0.00125,  -0.00312,477041216.00000,   0.00112,275858848.00000,   0.00100,   0.00034,  -0.00122, -64.00000,   2.00000
420727499.90214,381268002.99512,-146720645.92935,   0.00217,   0.00126,  -0.00313,477037568.00000,   0.00112,275863360.00000,   0.00100,   0.00034,  -0.00122,  64.00000,   2.00000
420256344.15800,381594601.80455,-146842874.57822,   0.00217,   0.00126,  -0.00314,477048832.00000,   0.00113,275867904.00000,   0.00100,   0.00034,  -0.00123, -32.00000,   2.00000
419782126.95650,381905623.98600,-146971717.07438,   0.00217,   0.00127,  -0.00314,477048928.00000,   0.00113,275872448.00000,   0.00100,   0.00035,  -0.00123,   0.00000,   2.00000
419319265.30810,382227670.87710,-147089505.64136,   0.00217,   0.00127,  -0.00315,477071072.00000,   0.00114,275877024.00000,   0.00101,   0.00035,  -0.00124, -32.00000,   2.00000
418852606.67846,382541889.74019,-147211354.99726,   0.00217,   0.00127,  -0.00316,477050208.00000,   0.00114,275881536.00000,   0.00101,   0.00035,  -0.00124,  64.00000,   2.00000
418385714.77872,382854132.40528,-147333218.17584,   0.00217,   0.00128,  -0.00316,477055328.00000,   0.00114,275886016.00000,   0.00101,   0.00035,  -0.00125, -64.00000,   2.00000
417927142.65818,383163695.04617,-147451200.44151,   0.00217,   0.00128,  -0.00317,477071584.00000,   0.00115,275890560.00000,   0.00102,   0.00035,  -0.00125,  32.00000,   2.00000
417468429.01192,383471241.31004,-147569126.45769,   0.00217,   0.00129,  -0.00318,477076608.00000,   0.00115,275895104.00000,   0.00102,   0.00036,  -0.00126,   0.00000,   2.00000
417013674.91135,383780388.84544,-147683527.22367,   0.00217,   0.00129,  -0.00318,477076832.00000,   0.00116,275899648.00000,   0.00102,   0.00036,  -0.00126, -96.00000,   2.00000
416559141.52486,384087686.68881,-147797774.61218,   0.00217,   0.00130,  -0.00319,477081824.00000,   0.00116,275904160.00000,   0.00102,   0.00036,  -0.00127,  32.00000,   2.00000
416104734.75854,384392972.15439,-147911693.26927,   0.00217,   0.00130,  -0.00320,477087040.00000,   0.00117,275908704.00000,   0.00103,   0.00036,  -0.00128, 192.00000,   2.00000
415662827.45071,384698914.05147,-148017830.74460,   0.00217,   0.00131,  -0.00321,477098688.00000,   0.00117,275913280.00000,   0.00103,   0.00037,  -0.00128,-160.00000,   2.00000
415213830.34556,384993935.97310,-148131047.42503,   0.00217,   0.00131,  -0.00321,477082336.00000,   0.00117,275917760.00000,   0.00103,   0.00037,  -0.00129,  64.00000,   2.00000
414776678.58920,385299722.98380,-148232793.53662,   0.00217,   0.00131,  -0.00322,477104192.00000,   0.00118,275922304.00000,   0.00103,   0.00037,  -0.00129, -64.00000,   2.00000
414337082.98843,385590229.78522,-148341007.46313,   0.00217,   0.00132,  -0.00323,477103904.00000,   0.00118,275926816.00000,   0.00104,   0.00037,  -0.00130,  64.00000,   2.00000
413904830.29546,385895949.40981,-148438133.21254,   0.00217,   0.00132,  -0.00323,477109984.00000,   0.00119,275931360.00000,   0.00104,   0.00037,  -0.00130, -32.00000,   2.00000
413478695.65496,386185566.64073,-148537747.67046,   0.00217,   0.00133,  -0.00324,477120832.00000,   0.00119,275935936.00000,   0.00104,   0.00038,  -0.00131,  32.00000,   2.00000
413048391.29809,386477845.69634,-148637149.22053,   0.00217,   0.00133,  -0.00325,477110432.00000,   0.00119,275940448.00000,   0.00105,   0.00038,  -0.00131,  64.00000,   2.00000
412627392.42462,386767692.67994,-148732027.72897,   0.00217,   0.00134,  -0.00325,477126656.00000,   0.00120,275944992.00000,   0.00105,   0.00038,  -0.00132, 224.00000,   2.00000
412210727.90530,387059346.42787,-148822757.05629,   0.00217,   0.00134,  -0.00326,477127360.00000,   0.00120,275949536.00000,   0.00105,   0.00038,  -0.00132,   0.00000,   2.00000
411794790.57608,387349484.13328,-148912862.52466,   0.00217,   0.00134,  -0.00327,477132608.00000,   0.00121,275954080.00000,   0.00105,   0.00038,  -0.00133,  64.00000,   2.00000
411388072.28455,387637123.30473,-148998384.64702,   0.00217,   0.00135,  -0.00327,477148992.00000,   0.00121,275958688.00000,   0.00106,   0.00039,  -0.00133,  32.00000,   2.00000
410977283.35588,387927784.90364,-149083792.54963,   0.00217,   0.00135,  -0.00328,477138496.00000,   0.00122,275963232.00000,   0.00106,   0.00039,  -0.00134, 128.00000,   2.00000
410572625.84156,388202476.37924,-149171626.59432,   0.00217,   0.00136,  -0.00328,477149472.00000,   0.00122,275967776.00000,   0.00106,   0.00039,  -0.00135,   0.00000,   2.00000
410175694.82183,388492962.12857,-149248488.70444,   0.00217,   0.00136,  -0.00329,477155424.00000,   0.00122,275972352.00000,   0.00106,   0.00039,  -0.00135,   0.00000,   2.00000
409788942.66549,388771344.04294,-149324514.44915,   0.00217,   0.00137,  -0.00330,477161536.00000,   0.00123,275976928.00000,   0.00107,   0.00040,  -0.00136, 128.00000,   2.00000
409393847.35956,389049002.97252,-149403761.79343,   0.00217,   0.00137,  -0.00330,477155872.00000,   0.00123,275981472.00000,   0.00107,   0.00040,  -0.00136,  32.00000,   2.00000
409007577.32515,389334423.43324,-149474994.77116,   0.00217,   0.00137,  -0.00331,477182240.00000,   0.00124,275986080.00000,   0.00107,   0.00040,  -0.00137,  32.00000,   2.00000
408635327.48219,389611461.53880,-149542055.13411,   0.00217,   0.00138,  -0.00332,477183456.00000,   0.00124,275990688.00000,   0.00107,   0.00040,  -0.00137,   0.00000,   2.00000
408255586.91311,389878230.93966,-149616116.98478,   0.00217,   0.00138,  -0.00332,477167648.00000,   0.00125,275995232.00000,   0.00108,   0.00041,  -0.00138,   0.00000,   2.00000
407888369.81219,390156314.96350,-149678751.03356,   0.00217,   0.00139,  -0.00333,477189248.00000,   0.00125,275999840.00000,   0.00108,   0.00041,  -0.00138,   0.00000,   2.00000
407518036.00261,390429589.63028,-149744341.33324,   0.00218,   0.00139,  -0.00334,477199328.00000,   0.00125,276004448.00000,   0.00108,   0.00041,  -0.00139, 128.00000,   2.00000
407156601.90373,390699093.03952,-149806315.76864,   0.00218,   0.00140,  -0.00334,477184864.00000,   0.00126,276008992.00000,   0.00108,   0.00041,  -0.00140,   0.00000,   2.00000
406800158.95971,390972704.19192,-149863719.08825,   0.00218,   0.00140,  -0.00335,477215872.00000,   0.00126,276013632.00000,   0.00109,   0.00041,  -0.00140, 128.00000,   2.00000
406448785.92179,391238981.47004,-149920955.72243,   0.00218,   0.00140,  -0.00336,477206208.00000,   0.00127,276018240.00000,   0.00109,   0.00042,  -0.00141, -64.00000,   2.00000
406101933.18305,391507899.46151,-149974466.42536,   0.00218,   0.00141,  -0.00336,477206592.00000,   0.00127,276022816.00000,   0.00109,   0.00042,  -0.00141,  64.00000,   2.00000
405764570.73157,391774813.55923,-150023710.88899,   0.00218,   0.00141,  -0.00337,477222624.00000,   0.00128,276027424.00000,   0.00110,   0.00042,  -0.00142, -32.00000,   2.00000
405419466.20906,392031702.93692,-150080113.24764,   0.00218,   0.00142,  -0.00337,477206592.00000,   0.00128,276031968.00000,   0.00110,   0.00042,  -0.00142,  32.00000,   2.00000
405092204.47074,392295551.47972,-150124741.49495,   0.00218,   0.00142,  -0.00338,477243776.00000,   0.00128,276036640.00000,   0.00110,   0.00043,  -0.00143, -64.00000,   2.00000
404760254.15832,392562790.41022,-150169510.39143,   0.00218,   0.00143,  -0.00339,477233472.00000,   0.00129,276041248.00000,   0.00110,   0.00043,  -0.00143, -96.00000,   2.00000
404442492.49068,392822242.31478,-150210460.08121,   0.00218,   0.00143,  -0.00339,477234208.00000,   0.00129,276045856.00000,   0.00111,   0.00043,  -0.00144, -32.00000,   2.00000
404121553.76359,393077061.33511,-150254518.89475,   0.00218,   0.00143,  -0.00340,477244128.00000,   0.00130,276050464.00000,   0.00111,   0.00043,  -0.00145,  96.00000,   2.00000
403813900.70555,393333624.98170,-150291004.56820,   0.00218,   0.00144,  -0.00340,477255520.00000,   0.00130,276055104.00000,   0.00111,   0.00044,  -0.00145, 128.00000,   2.00000
403510550.22440,393592865.25597,-150323845.61200,   0.00218,   0.00144,  -0.00341,477255936.00000,   0.00131,276059712.00000,   0.00111,   0.00044,  -0.00146,  64.00000,   2.00000
403208348.73316,393841424.11606,-150360104.11358,   0.00218,   0.00145,  -0.00342,477250432.00000,   0.00131,276064320.00000,   0.00112,   0.00044,  -0.00146, -64.00000,   2.00000
402906063.62039,394098736.10421,-150392447.67174,   0.00218,   0.00145,  -0.00342,477265984.00000,   0.00131,276068928.00000,   0.00112,   0.00044,  -0.00147,  64.00000,   2.00000
402617803.33227,394348266.38630,-150421006.74848,   0.00218,   0.00145,  -0.00343,477266752.00000,   0.00132,276073568.00000,   0.00112,   0.00045,  -0.00147, -64.00000,   2.00000
402339426.87392,394596292.59288,-150445618.84584,   0.00218,   0.00146,  -0.00343,477282400.00000,   0.00132,276078208.00000,   0.00112,   0.00045,  -0.00148,  64.00000,   2.00000
402052136.85458,394843962.17414,-150473753.92068,   0.00218,   0.00146,  -0.00344,477276992.00000,   0.00133,276082816.00000,   0.00113,   0.00045,  -0.00148,   0.00000,   2.00000
401787545.63075,395092893.88996,-150490688.02707,   0.00219,   0.00147,  -0.00345,477298624.00000,   0.00133,276087488.00000,   0.00113,   0.00045,  -0.00149,  64.00000,   2.00000
401514171.69148,395341653.31377,-150511252.33854,   0.00219,   0.00147,  -0.00345,477293024.00000,   0.00134,276092128.00000,   0.00113,   0.00045,  -0.00150,  32.00000,   2.00000
401255082.00135,395583020.11931,-150528237.06350,   0.00219,   0.00147,  -0.00346,477293536.00000,   0.00134,276096768.00000,   0.00113,   0.00046,  -0.00150,   0.00000,   2.00000
400995582.03230,395832876.16993,-150541257.70778,   0.00219,   0.00148,  -0.00346,477309216.00000,   0.00134,276101440.00000,   0.00114,   0.00046,  -0.00151,  64.00000,   2.00000
400746482.26243,396071536.81811,-150554049.66115,   0.00219,   0.00148,  -0.00347,477314400.00000,   0.00135,276106112.00000,   0.00114,   0.00046,  -0.00151,-160.00000,   2.00000
400501704.84064,396313182.05299,-150563391.47688,   0.00219,   0.00149,  -0.00348,477314624.00000,   0.00135,276110752.00000,   0.00114,   0.00046,  -0.00152, -64.00000,   2.00000
400258061.62733,396544482.18496,-150576345.88534,   0.00219,   0.00149,  -0.00348,477309088.00000,   0.00136,276115360.00000,   0.00114,   0.00047,  -0.00152, 128.00000,   2.00000
400027096.44621,396787302.03196,-150578216.93438,   0.00219,   0.00149,  -0.00349,477330720.00000,   0.00136,276120032.00000,   0.00115,   0.00047,  -0.00153,  64.00000,   2.00000
399806554.35976,397019044.66725,-150579940.84479,   0.00219,   0.00150,  -0.00349,477335744.00000,   0.00137,276124704.00000,   0.00115,   0.00047,  -0.00153,  32.00000,   2.00000
399577074.28149,397250723.57838,-150585358.24252,   0.00219,   0.00150,  -0.00350,477330176.00000,   0.00137,276129344.00000,   0.00115,   0.00047,  -0.00154,  96.00000,   2.00000
399361034.82994,397484519.78671,-150583497.99047,   0.00220,   0.00151,  -0.00350,477341024.00000,   0.00137,276134016.00000,   0.00115,   0.00048,  -0.00155, -64.00000,   2.00000
399154784.64459,397716807.46655,-150577800.72718,   0.00220,   0.00151,  -0.00351,477356608.00000,   0.00138,276138688.00000,   0.00116,   0.00048,  -0.00155, -32.00000,   2.00000
398953432.68073,397942688.10116,-150572467.34193,   0.00220,   0.00151,  -0.00351,477346368.00000,   0.00138,276143328.00000,   0.00116,   0.00048,  -0.00156,   0.00000,   2.00000
398752298.13088,398167654.39142,-150567008.48214,   0.00220,   0.00152,  -0.00352,477351392.00000,   0.00139,276147968.00000,   0.00116,   0.00048,  -0.00156, -32.00000,   2.00000
398563990.50828,398404298.41966,-150550616.33696,   0.00220,   0.00152,  -0.00353,477372608.00000,   0.00139,276152704.00000,   0.00116,   0.00049,  -0.00157,   0.00000,   2.00000
398386864.26677,398620646.72240,-150537967.73112,   0.00220,   0.00153,  -0.00353,477367072.00000,   0.00140,276157344.00000,   0.00117,   0.00049,  -0.00157,  32.00000,   2.00000
398199875.98544,398846321.23821,-150525261.61367,   0.00220,   0.00153,  -0.00354,477372096.00000,   0.00140,276162016.00000,   0.00117,   0.00049,  -0.00158,   0.00000,   2.00000
398027123.33110,399064910.65226,-150509178.86771,   0.00220,   0.00153,  -0.00354,477372256.00000,   0.00140,276166656.00000,   0.00117,   0.00049,  -0.00159,  64.00000,   2.00000
397863363.72971,399291352.14941,-150485536.59808,   0.00220,   0.00154,  -0.00355,477398432.00000,   0.00141,276171392.00000,   0.00117,   0.00050,  -0.00159, 128.00000,   2.00000
397700534.71094,399507607.76279,-150465634.11541,   0.00221,   0.00154,  -0.00355,477392768.00000,   0.00141,276176096.00000,   0.00118,   0.00050,  -0.00160,  64.00000,   2.00000
397551946.67075,399716879.03021,-150442408.45651,   0.00221,   0.00155,  -0.00356,477392896.00000,   0.00142,276180768.00000,   0.00118,   0.00050,  -0.00160, -32.00000,   2.00000
397406694.75033,399938604.04897,-150412082.06052,   0.00221,   0.00155,  -0.00356,477403648.00000,   0.00142,276185440.00000,   0.00118,   0.00050,  -0.00161, 128.00000,   2.00000
397262280.63859,400150142.24141,-150385498.05659,   0.00221,   0.00155,  -0.00357,477398176.00000,   0.00143,276190112.00000,   0.00118,   0.00051,  -0.00161,  64.00000,   2.00000
397127611.11402,400360262.94774,-150355199.82895,   0.00221,   0.00156,  -0.00357,477413344.00000,   0.00143,276194784.00000,   0.00119,   0.00051,  -0.00162,   0.00000,   2.00000
397006413.84845,400572752.84937,-150317843.91928,   0.00221,   0.00156,  -0.00358,477424128.00000,   0.00144,276199520.00000,   0.00119,   0.00051,  -0.00163, -32.00000,   2.00000
396886130.86207,400775240.43489,-150284315.08670,   0.00221,   0.00156,  -0.00358,477418400.00000,   0.00144,276204192.00000,   0.00119,   0.00051,  -0.00163,   0.00000,   2.00000
396769090.92398,400990156.28269,-150243704.25816,   0.00222,   0.00157,  -0.00359,477429056.00000,   0.00144,276208864.00000,   0.00119,   0.00052,  -0.00164,  32.00000,   2.00000
396662437.97708,401194323.48892,-150203191.84358,   0.00222,   0.00157,  -0.00359,477433984.00000,   0.00145,276213568.00000,   0.00120,   0.00052,  -0.00164,   0.00000,   2.00000
396565419.33969,401397035.15302,-150158996.50389,   0.00222,   0.00158,  -0.00360,477449472.00000,   0.00145,276218304.00000,   0.00120,   0.00052,  -0.00165,  96.00000,   2.00000
396473054.29022,401593660.52145,-150115318.16805,   0.00222,   0.00158,  -0.00360,477438880.00000,   0.00146,276222976.00000,   0.00120,   0.00052,  -0.00165,  32.00000,   2.00000
396380862.38754,401789676.74679,-150071731.83593,   0.00222,   0.00158,  -0.00361,477443808.00000,   0.00146,276227648.00000,   0.00120,   0.00053,  -0.00166,  96.00000,   2.00000
396301244.81676,401997254.04043,-150017316.85601,   0.00222,   0.00159,  -0.00361,477465216.00000,   0.00147,276232384.00000,   0.00121,   0.00053,  -0.00166,  96.00000,   2.00000
396223197.61218,402185689.60717,-149970573.46383,   0.00223,   0.00159,  -0.00362,477448736.00000,   0.00147,276237056.00000,   0.00121,   0.00053,  -0.00167, -64.00000,   2.00000
396157865.64973,402385871.04295,-149913092.07460,   0.00223,   0.00159,  -0.00362,477469856.00000,   0.00147,276241760.00000,   0.00121,   0.00054,  -0.00168,  64.00000,   2.00000
396102803.57433,402575359.84301,-149855764.07272,   0.00223,   0.00160,  -0.00363,477474528.00000,   0.00148,276246496.00000,   0.00121,   0.00054,  -0.00168,   0.00000,   2.00000
396038379.42172,402765107.13840,-149802322.99749,   0.00223,   0.00160,  -0.00363,477468992.00000,   0.00148,276251168.00000,   0.00122,   0.00054,  -0.00169,  96.00000,   2.00000
395996708.71815,402956403.31872,-149738144.63376,   0.00223,   0.00160,  -0.00364,477490112.00000,   0.00149,276255904.00000,   0.00122,   0.00054,  -0.00169,  64.00000,   2.00000
395959538.87523,403141707.52915,-149674528.45676,   0.00224,   0.00161,  -0.00364,477479488.00000,   0.00149,276260576.00000,   0.00122,   0.00055,  -0.00170,  32.00000,   2.00000
395917953.31379,403331830.82517,-149610655.21422,   0.00224,   0.00161,  -0.00365,477499776.00000,   0.00150,276265312.00000,   0.00122,   0.00055,  -0.00170,  32.00000,   2.00000
395894864.50373,403509830.11016,-149544038.65395,   0.00224,   0.00161,  -0.00365,477484288.00000,   0.00150,276269984.00000,   0.00122,   0.00055,  -0.00171, -64.00000,   2.00000
395876812.09714,403691830.46263,-149473448.41685,   0.00224,   0.00162,  -0.00366,477515072.00000,   0.00151,276274720.00000,   0.00123,   0.00055,  -0.00172,   0.00000,   2.00000
395866970.58642,403871756.29736,-149400080.42067,   0.00224,   0.00162,  -0.00366,477499712.00000,   0.00151,276279424.00000,   0.00123,   0.00056,  -0.00172, -32.00000,   2.00000
395853341.54477,404047280.23358,-149330245.23128,   0.00225,   0.00163,  -0.00367,477509248.00000,   0.00151,276284096.00000,   0.00123,   0.00056,  -0.00173,  96.00000,   2.00000
395852967.29897,404225305.41986,-149253511.13416,   0.00225,   0.00163,  -0.00367,477519840.00000,   0.00152,276288832.00000,   0.00123,   0.00056,  -0.00173, 160.00000,   2.00000
395865735.65729,404405743.34019,-149169863.78670,   0.00225,   0.00163,  -0.00368,477530400.00000,   0.00152,276293568.00000,   0.00124,   0.00056,  -0.00174,   0.00000,   2.00000
395879060.68501,404576372.30950,-149090150.48646,   0.00225,   0.00164,  -0.00368,477524544.00000,   0.00153,276298272.00000,   0.00124,   0.00057,  -0.00174, -64.00000,   2.00000
395902032.64870,404745879.06399,-149007026.69949,   0.00225,   0.00164,  -0.00369,477539712.00000,   0.00153,276303008.00000,   0.00124,   0.00057,  -0.00175,  64.00000,   2.00000
395929237.56364,404909418.94542,-148924444.43124,   0.00226,   0.00164,  -0.00369,477529312.00000,   0.00154,276307680.00000,   0.00124,   0.00057,  -0.00176,  64.00000,   2.00000
395968830.65239,405084614.82010,-148831229.53555,   0.00226,   0.00165,  -0.00370,477550528.00000,   0.00154,276312416.00000,   0.00125,   0.00057,  -0.00176, 128.00000,   2.00000
396005247.62975,405246265.76050,-148745369.64144,   0.00226,   0.00165,  -0.00370,477549408.00000,   0.00155,276317120.00000,   0.00125,   0.00058,  -0.00177,  64.00000,   2.00000
396059259.16782,405405141.68592,-148653041.96434,   0.00226,   0.00165,  -0.00370,477544448.00000,   0.00155,276321792.00000,   0.00125,   0.00058,  -0.00177,  96.00000,   2.00000
396108598.34430,405568824.65109,-148560560.50372,   0.00227,   0.00166,  -0.00371,477564704.00000,   0.00155,276326528.00000,   0.00125,   0.00058,  -0.00178, 160.00000,   2.00000
396175497.19659,405729730.33027,-148461624.01933,   0.00227,   0.00166,  -0.00371,477559872.00000,   0.00156,276331232.00000,   0.00126,   0.00058,  -0.00178,  32.00000,   2.00000
396247874.72581,405885381.77538,-148362590.47560,   0.00227,   0.00166,  -0.00372,477580000.00000,   0.00156,276336000.00000,   0.00126,   0.00059,  -0.00179,  64.00000,   2.00000
396324601.60371,406035386.09995,-148264223.27738,   0.00227,   0.00166,  -0.00372,477569248.00000,   0.00157,276340672.00000,   0.00126,   0.00059,  -0.00180,  64.00000,   2.00000
396414169.94755,406187768.90792,-148158966.59816,   0.00228,   0.00167,  -0.00373,477579936.00000,   0.00157,276345408.00000,   0.00126,   0.00059,  -0.00180, -32.00000,   2.00000
396503472.85104,406339706.87328,-148053981.23655,   0.00228,   0.00167,  -0.00373,477584608.00000,   0.00158,276350112.00000,   0.00127,   0.00060,  -0.00181, -32.00000,   2.00000
396596197.73780,406494997.70306,-147945859.66646,   0.00228,   0.00167,  -0.00374,477584736.00000,   0.00158,276354816.00000,   0.00127,   0.00060,  -0.00181,  32.00000,   2.00000
396708367.84510,406638957.59138,-147834382.18918,   0.00228,   0.00168,  -0.00374,477599840.00000,   0.00158,276359552.00000,   0.00127,   0.00060,  -0.00182, -32.00000,   2.00000
396810779.59601,406783430.56019,-147726896.91816,   0.00229,   0.00168,  -0.00374,477594048.00000,   0.00159,276364224.00000,   0.00127,   0.00060,  -0.00182, 160.00000,   2.00000
396936291.25781,406920392.87297,-147612646.00894,   0.00229,   0.00168,  -0.00375,477604576.00000,   0.00159,276368960.00000,   0.00128,   0.00061,  -0.00183,  96.00000,   2.00000
397064150.65142,407069632.74857,-147491448.33977,   0.00229,   0.00169,  -0.00375,477615424.00000,   0.00160,276373696.00000,   0.00128,   0.00061,  -0.00183,  64.00000,   2.00000
397189711.50912,407196672.21469,-147381535.20036,   0.00229,   0.00169,  -0.00376,477603200.00000,   0.00160,276378368.00000,   0.00128,   0.00061,  -0.00184, -64.00000,   2.00000
397330823.75389,407338966.00121,-147257596.77929,   0.00230,   0.00169,  -0.00376,477619904.00000,   0.00161,276383072.00000,   0.00128,   0.00061,  -0.00185,  32.00000,   2.00000
397481809.20469,407470889.71329,-147134047.03471,   0.00230,   0.00170,  -0.00376,477624512.00000,   0.00161,276387776.00000,   0.00129,   0.00062,  -0.00185,   0.00000,   2.00000
397632294.53599,407602354.30286,-147010782.75010,   0.00230,   0.00170,  -0.00377,477629248.00000,   0.00162,276392480.00000,   0.00129,   0.00062,  -0.00186,  64.00000,   2.00000
397795432.38915,407736256.12155,-146880720.34974,   0.00231,   0.00170,  -0.00377,477639936.00000,   0.00162,276397216.00000,   0.00129,   0.00062,  -0.00186, 128.00000,   2.00000
397958795.67125,407860584.14978,-146754666.02947,   0.00231,   0.00170,  -0.00378,477633984.00000,   0.00162,276401920.00000,   0.00129,   0.00062,  -0.00187,-128.00000,   2.00000
398134894.26298,407987491.60601,-146621876.28590,   0.00231,   0.00171,  -0.00378,477644480.00000,   0.00163,276406624.00000,   0.00130,   0.00063,  -0.00187,   0.00000,   2.00000
398311286.79387,408104947.98978,-146493137.12114,   0.00232,   0.00171,  -0.00378,477638496.00000,   0.00163,276411296.00000,   0.00130,   0.00063,  -0.00188,   0.00000,   2.00000
398500244.33843,408224864.23125,-146357613.14254,   0.00232,   0.00171,  -0.00379,477649152.00000,   0.00164,276416000.00000,   0.00130,   0.00063,  -0.00189,  64.00000,   2.00000
398697891.40138,408343281.59506,-146218693.07595,   0.00232,   0.00172,  -0.00379,477664704.00000,   0.00164,276420704.00000,   0.00130,   0.00064,  -0.00189,  64.00000,   2.00000
398899483.01304,408456082.40663,-146080404.56574,   0.00232,   0.00172,  -0.00380,477653984.00000,   0.00165,276425376.00000,   0.00131,   0.00064,  -0.00190,  32.00000,   2.00000
399108947.58951,408576503.24641,-145935054.38227,   0.00233,   0.00172,  -0.00380,477680192.00000,   0.00165,276430144.00000,   0.00131,   0.00064,  -0.00190,  64.00000,   2.00000
399323250.53752,408682345.56951,-145794084.53557,   0.00233,   0.00172,  -0.00380,477658688.00000,   0.00165,276434784.00000,   0.00131,   0.00064,  -0.00191,  32.00000,   2.00000
399545112.22937,408795546.79927,-145645958.84063,   0.00233,   0.00173,  -0.00381,477685056.00000,   0.00166,276439520.00000,   0.00131,   0.00065,  -0.00191,   0.00000,   2.00000
399767373.53552,408899555.93512,-145502000.28692,   0.00234,   0.00173,  -0.00381,477678848.00000,   0.00166,276444192.00000,   0.00132,   0.00065,  -0.00192,  32.00000,   2.00000
400002759.16444,408996862.71144,-145354949.81157,   0.00234,   0.00173,  -0.00381,477678880.00000,   0.00167,276448864.00000,   0.00132,   0.00065,  -0.00192, -32.00000,   2.00000
400249391.19588,409105418.25010,-145197380.96425,   0.00234,   0.00173,  -0.00382,477700544.00000,   0.00167,276453600.00000,   0.00132,   0.00065,  -0.00193,  64.00000,   2.00000
400497154.89071,409195686.72428,-145047650.62769,   0.00235,   0.00174,  -0.00382,477683584.00000,   0.00168,276458240.00000,   0.00132,   0.00066,  -0.00194,   0.00000,   2.00000
400746766.18163,409298201.40176,-144891061.71665,   0.00235,   0.00174,  -0.00382,477694592.00000,   0.00168,276462912.00000,   0.00133,   0.00066,  -0.00194,  64.00000,   2.00000
401005761.14924,409390247.82337,-144734879.26350,   0.00235,   0.00174,  -0.00383,477699200.00000,   0.00169,276467584.00000,   0.00133,   0.00066,  -0.00195,   0.00000,   2.00000
401276843.82494,409484578.76085,-144571939.27966,   0.00236,   0.00175,  -0.00383,477710016.00000,   0.00169,276472288.00000,   0.00133,   0.00066,  -0.00195,  96.00000,   2.00000
401557207.10332,409568419.61258,-144409414.26276,   0.00236,   0.00175,  -0.00383,477714720.00000,   0.00169,276476960.00000,   0.00133,   0.00067,  -0.00196,   0.00000,   2.00000
401827366.53940,409652893.06845,-144250921.47567,   0.00237,   0.00175,  -0.00384,477708768.00000,   0.00170,276481600.00000,   0.00134,   0.00067,  -0.00196,  64.00000,   2.00000
402118728.11049,409738500.38377,-144082003.36052,   0.00237,   0.00175,  -0.00384,477730368.00000,   0.00170,276486304.00000,   0.00134,   0.00067,  -0.00197,   0.00000,   2.00000
402413735.63645,409818452.97933,-143913693.04152,   0.00237,   0.00176,  -0.00384,477719808.00000,   0.00171,276490976.00000,   0.00134,   0.00068,  -0.00197,   0.00000,   2.00000
402716924.84374,409896835.04583,-143742115.72953,   0.00238,   0.00176,  -0.00385,477735328.00000,   0.00171,276495648.00000,   0.00134,   0.00068,  -0.00198,  64.00000,   2.00000
403022566.31524,409978326.41051,-143567386.73210,   0.00238,   0.00176,  -0.00385,477735680.00000,   0.00172,276500320.00000,   0.00135,   0.00068,  -0.00199,   0.00000,   2.00000
403328252.87949,410050501.84775,-143396789.28948,   0.00238,   0.00176,  -0.00385,477729536.00000,   0.00172,276504960.00000,   0.00135,   0.00068,  -0.00199,  64.00000,   2.00000
403655974.34185,410114853.56687,-143219507.12168,   0.00239,   0.00176,  -0.00386,477740192.00000,   0.00172,276509600.00000,   0.00135,   0.00069,  -0.00200,  32.00000,   2.00000
403981316.77124,410187438.61730,-143038875.22102,   0.00239,   0.00177,  -0.00386,477756096.00000,   0.00173,276514304.00000,   0.00135,   0.00069,  -0.00200, 128.00000,   2.00000
404306567.58214,410250616.11543,-142862342.89277,   0.00240,   0.00177,  -0.00386,477749952.00000,   0.00173,276518944.00000,   0.00136,   0.00069,  -0.00201,   0.00000,   2.00000
404644592.18780,410307050.21535,-142682768.73035,   0.00240,   0.00177,  -0.00387,477750048.00000,   0.00174,276523584.00000,   0.00136,   0.00069,  -0.00201,  32.00000,   2.00000
404984978.91708,410366597.19772,-142500045.30516,   0.00240,   0.00177,  -0.00387,477750432.00000,   0.00174,276528192.00000,   0.00136,   0.00070,  -0.00202, 160.00000,   2.00000
405333082.64815,410424268.01843,-142314013.88060,   0.00241,   0.00178,  -0.00387,477765920.00000,   0.00175,276532864.00000,   0.00136,   0.00070,  -0.00202, -64.00000,   2.00000
405693982.65781,410475248.03254,-142124985.60438,   0.00241,   0.00178,  -0.00388,477765984.00000,   0.00175,276537472.00000,   0.00137,   0.00070,  -0.00203, 128.00000,   2.00000
406053482.51544,410525546.74360,-141936312.11288,   0.00242,   0.00178,  -0.00388,477770976.00000,   0.00176,276542112.00000,   0.00137,   0.00070,  -0.00203,  32.00000,   2.00000
406424430.37044,410577796.95083,-141740883.51908,   0.00242,   0.00178,  -0.00388,477781952.00000,   0.00176,276546784.00000,   0.00137,   0.00071,  -0.00204,  96.00000,   2.00000
406795178.61101,410620551.73201,-141549503.56015,   0.00242,   0.00178,  -0.00389,477775936.00000,   0.00176,276551392.00000,   0.00137,   0.00071,  -0.00204,  64.00000,   2.00000
407177223.79281,410665110.39603,-141351303.16976,   0.00243,   0.00179,  -0.00389,477786912.00000,   0.00177,276556032.00000,   0.00138,   0.00071,  -0.00205,  96.00000,   2.00000
407559160.30681,410700248.69404,-141157158.27239,   0.00243,   0.00179,  -0.00389,477780640.00000,   0.00177,276560640.00000,   0.00138,   0.00072,  -0.00206, -64.00000,   2.00000
407952426.82113,410737226.93186,-140956198.42700,   0.00244,   0.00179,  -0.00389,477791584.00000,   0.00178,276565248.00000,   0.00138,   0.00072,  -0.00206, -64.00000,   2.00000
408354739.77832,410763714.11603,-140755708.67232,   0.00244,   0.00179,  -0.00390,477796032.00000,   0.00178,276569856.00000,   0.00138,   0.00072,  -0.00207, 128.00000,   2.00000
408759193.44516,410793114.15077,-140551969.72703,   0.00245,   0.00180,  -0.00390,477796320.00000,   0.00179,276574464.00000,   0.00139,   0.00072,  -0.00207,  32.00000,   2.00000
409162291.93936,410821904.27406,-140348614.03248,   0.00245,   0.00180,  -0.00390,477800864.00000,   0.00179,276579072.00000,   0.00139,   0.00073,  -0.00208, 160.00000,   2.00000
409577833.60897,410843710.19564,-140142127.18236,   0.00245,   0.00180,  -0.00390,477800864.00000,   0.00179,276583648.00000,   0.00139,   0.00073,  -0.00208,  32.00000,   2.00000
410004334.80288,410867223.47105,-139928867.16054,   0.00246,   0.00180,  -0.00391,477811904.00000,   0.00180,276588256.00000,   0.00139,   0.00073,  -0.00209, -64.00000,   2.00000
410430523.40204,410881431.61613,-139719794.85575,   0.00246,   0.00180,  -0.00391,477805664.00000,   0.00180,276592832.00000,   0.00140,   0.00073,  -0.00209, 192.00000,   2.00000
410863534.93969,410893583.65298,-139507617.32945,   0.00247,   0.00180,  -0.00391,477821568.00000,   0.00181,276597440.00000,   0.00140,   0.00074,  -0.00210,   0.00000,   2.00000
411299243.91864,410899906.32321,-139296125.17518,   0.00247,   0.00181,  -0.00391,477811264.00000,   0.00181,276601984.00000,   0.00140,   0.00074,  -0.00210,  96.00000,   2.00000
411741147.54516,410904163.69627,-139081741.92840,   0.00248,   0.00181,  -0.00392,477827616.00000,   0.00182,276606592.00000,   0.00141,   0.00074,  -0.00211, -32.00000,   2.00000
412183647.91673,410911208.58169,-138864547.42027,   0.00248,   0.00181,  -0.00392,477829024.00000,   0.00182,276611168.00000,   0.00141,   0.00074,  -0.00211, -64.00000,   2.00000
412636571.92740,410910917.89538,-138644600.53508,   0.00249,   0.00181,  -0.00392,477830816.00000,   0.00182,276615712.00000,   0.00141,   0.00075,  -0.00212,  64.00000,   2.00000
413085892.55250,410909765.61816,-138425477.34451,   0.00249,   0.00181,  -0.00392,477837376.00000,   0.00183,276620256.00000,   0.00141,   0.00075,  -0.00212,  64.00000,   2.00000
413545179.74139,410901184.19288,-138203453.91371,   0.00250,   0.00181,  -0.00393,477839968.00000,   0.00183,276624800.00000,   0.00142,   0.00075,  -0.00213,  96.00000,   2.00000
414000728.89426,410891752.34631,-137981997.98258,   0.00250,   0.00182,  -0.00393,477846944.00000,   0.00184,276629344.00000,   0.00142,   0.00075,  -0.00214, -64.00000,   2.00000
414465195.43948,410883965.26665,-137753786.64784,   0.00251,   0.00182,  -0.00393,477860512.00000,   0.00184,276633920.00000,   0.00142,   0.00076,  -0.00214,   0.00000,   2.00000
414928318.43498,410867042.95025,-137529395.34028,   0.00251,   0.00182,  -0.00393,477856512.00000,   0.00185,276638432.00000,   0.00142,   0.00076,  -0.00215,  64.00000,   2.00000
415402520.64378,410843080.42769,-137301272.30510,   0.00252,   0.00182,  -0.00394,477859008.00000,   0.00185,276642976.00000,   0.00143,   0.00076,  -0.00215, -32.00000,   2.00000
415883379.12431,410817722.28513,-137069420.58063,   0.00252,   0.00182,  -0.00394,477876384.00000,   0.00185,276647520.00000,   0.00143,   0.00076,  -0.00216, -32.00000,   2.00000
416358117.49646,410797529.72371,-136837289.91425,   0.00253,   0.00182,  -0.00394,477866592.00000,   0.00186,276652032.00000,   0.00143,   0.00077,  -0.00216,   0.00000,   2.00000
416850215.95283,410765725.43492,-136601114.64088,   0.00253,   0.00183,  -0.00394,477883456.00000,   0.00186,276656576.00000,   0.00143,   0.00077,  -0.00217,   0.00000,   2.00000
417345332.79064,410737800.93855,-136361010.76960,   0.00254,   0.00183,  -0.00394,477884064.00000,   0.00187,276661120.00000,   0.00144,   0.00077,  -0.00217, -32.00000,   2.00000
417841287.81714,410701167.27651,-136124190.22569,   0.00254,   0.00183,  -0.00395,477877856.00000,   0.00187,276665600.00000,   0.00144,   0.00077,  -0.00218, -32.00000,   2.00000
418348676.37625,410666734.99224,-135879935.68936,   0.00255,   0.00183,  -0.00395,477889120.00000,   0.00188,276670144.00000,   0.00144,   0.00078,  -0.00218,  32.00000,   2.00000
418858983.39528,410635865.24703,-135632042.41103,   0.00255,   0.00183,  -0.00395,477889024.00000,   0.00188,276674656.00000,   0.00145,   0.00078,  -0.00219,  32.00000,   2.00000
419377991.25207,410594276.16153,-135384088.92227,   0.00256,   0.00183,  -0.00395,477893728.00000,   0.00188,276679168.00000,   0.00145,   0.00078,  -0.00219, -64.00000,   2.00000
419900918.65483,410547069.59441,-135136265.21377,   0.00256,   0.00183,  -0.00395,477882752.00000,   0.00189,276683616.00000,   0.00145,   0.00078,  -0.00220,  64.00000,   2.00000
420430621.80220,410497871.27904,-134885091.85251,   0.00257,   0.00184,  -0.00396,477898368.00000,   0.00189,276688096.00000,   0.00145,   0.00079,  -0.00220, -32.00000,   2.00000
420958457.06496,410448027.56555,-134634282.35339,   0.00257,   0.00184,  -0.00396,477902880.00000,   0.00190,276692608.00000,   0.00146,   0.00079,  -0.00221,   0.00000,   2.00000
421501251.31713,410394012.30737,-134376433.19789,   0.00258,   0.00184,  -0.00396,477899200.00000,   0.00190,276697056.00000,   0.00146,   0.00079,  -0.00221,  64.00000,   2.00000
422041804.32995,410339233.16720,-134119055.20692,   0.00258,   0.00184,  -0.00396,477903936.00000,   0.00190,276701536.00000,   0.00146,   0.00079,  -0.00222, -64.00000,   2.00000
422589852.33222,410273295.52617,-133862058.66251,   0.00259,   0.00184,  -0.00396,477909216.00000,   0.00191,276706016.00000,   0.00146,   0.00080,  -0.00222,   0.00000,   2.00000
423138877.20104,410209909.39717,-133601807.10380,   0.00259,   0.00184,  -0.00396,477910048.00000,   0.00191,276710464.00000,   0.00147,   0.00080,  -0.00223, -96.00000,   2.00000
423695280.65067,410135439.69810,-133341965.51719,   0.00260,   0.00184,  -0.00397,477915584.00000,   0.00192,276714912.00000,   0.00147,   0.00080,  -0.00223,  32.00000,   2.00000
424252377.48294,410063402.37269,-133078790.78938,   0.00260,   0.00184,  -0.00397,477916800.00000,   0.00192,276719360.00000,   0.00147,   0.00080,  -0.00224,  64.00000,   2.00000
424812052.64612,409985204.37280,-132815846.62718,   0.00261,   0.00184,  -0.00397,477906816.00000,   0.00193,276723744.00000,   0.00148,   0.00081,  -0.00224,  96.00000,   2.00000
425377096.90629,409904629.20323,-132549719.31671,   0.00261,   0.00185,  -0.00397,477923616.00000,   0.00193,276728192.00000,   0.00148,   0.00081,  -0.00225,  64.00000,   2.00000
425942930.81535,409826708.67610,-132280291.61476,   0.00262,   0.00185,  -0.00397,477924864.00000,   0.00193,276732608.00000,   0.00148,   0.00081,  -0.00225,  32.00000,   2.00000
426515594.43455,409737455.02484,-132011105.31265,   0.00262,   0.00185,  -0.00397,477931104.00000,   0.00194,276737024.00000,   0.00148,   0.00081,  -0.00226, -64.00000,   2.00000
427090586.51697,409641913.64259,-131742000.45147,   0.00263,   0.00185,  -0.00397,477921600.00000,   0.00194,276741408.00000,   0.00149,   0.00082,  -0.00226,  64.00000,   2.00000
427670689.32895,409544014.08819,-131469709.21523,   0.00264,   0.00185,  -0.00398,477938656.00000,   0.00195,276745824.00000,   0.00149,   0.00082,  -0.00227,   0.00000,   2.00000
428251327.21542,409448674.62641,-131194047.43942,   0.00264,   0.00185,  -0.00398,477940320.00000,   0.00195,276750208.00000,   0.00149,   0.00082,  -0.00227,  64.00000,   2.00000
428842065.42893,409345258.25540,-130914829.76984,   0.00265,   0.00185,  -0.00398,477942656.00000,   0.00195,276754592.00000,   0.00149,   0.00082,  -0.00228, -64.00000,   2.00000
429431552.49759,409232217.54322,-130639453.52807,   0.00265,   0.00185,  -0.00398,477937760.00000,   0.00196,276758944.00000,   0.00150,   0.00083,  -0.00228,  32.00000,   2.00000
430017877.27704,409118317.31284,-130364452.09656,   0.00266,   0.00185,  -0.00398,477943936.00000,   0.00196,276763328.00000,   0.00150,   0.00083,  -0.00229, 160.00000,   2.00000
430612189.86522,409004999.94294,-130082418.50700,   0.00266,   0.00185,  -0.00398,477957344.00000,   0.00197,276767712.00000,   0.00150,   0.00083,  -0.00229,-128.00000,   2.00000
431208764.70548,408885347.93764,-129800452.29532,   0.00267,   0.00185,  -0.00398,477948384.00000,   0.00197,276772032.00000,   0.00151,   0.00083,  -0.00230, -32.00000,   2.00000
431801963.97815,408764682.54584,-129518859.31786,   0.00268,   0.00185,  -0.00398,477954560.00000,   0.00197,276776384.00000,   0.00151,   0.00084,  -0.00230,-128.00000,   2.00000
432404955.43374,408635729.75301,-129233682.73988,   0.00268,   0.00185,  -0.00399,477957248.00000,   0.00198,276780704.00000,   0.00151,   0.00084,  -0.00231,-128.00000,   2.00000
433015904.74190,408507470.01576,-128941609.42542,   0.00269,   0.00186,  -0.00399,477971008.00000,   0.00198,276785056.00000,   0.00151,   0.00084,  -0.00231,   0.00000,   2.00000
433617446.55654,408370842.78642,-128656800.80091,   0.00269,   0.00186,  -0.00399,477955008.00000,   0.00199,276789344.00000,   0.00152,   0.00084,  -0.00232,  96.00000,   2.00000
434230741.24432,408229624.50234,-128365282.60890,   0.00270,   0.00186,  -0.00399,477984544.00000,   0.00199,276793696.00000,   0.00152,   0.00085,  -0.00232,   0.00000,   2.00000
434838456.44412,408083519.27300,-128077262.87097,   0.00271,   0.00186,  -0.00399,477964288.00000,   0.00200,276797984.00000,   0.00152,   0.00085,  -0.00232, -32.00000,   2.00000
435453809.85401,407937851.81279,-127782283.45274,   0.00271,   0.00186,  -0.00399,477978176.00000,   0.00200,276802272.00000,   0.00153,   0.00085,  -0.00233,  64.00000,   2.00000
436067519.20034,407782075.34097,-127490990.98819,   0.00272,   0.00186,  -0.00399,477973760.00000,   0.00200,276806560.00000,   0.00153,   0.00085,  -0.00233,   0.00000,   2.00000
436688815.04510,407626709.01183,-127192731.49652,   0.00272,   0.00186,  -0.00399,477987744.00000,   0.00201,276810848.00000,   0.00153,   0.00085,  -0.00234,  32.00000,   2.00000
437312059.75018,407464466.41170,-126894283.01753,   0.00273,   0.00186,  -0.00399,477979264.00000,   0.00201,276815104.00000,   0.00153,   0.00086,  -0.00234,   0.00000,   2.00000
437931977.36007,407301240.84745,-126596238.18679,   0.00274,   0.00186,  -0.00399,477985440.00000,   0.00202,276819360.00000,   0.00154,   0.00086,  -0.00235, 128.00000,   2.00000
438557650.48388,407125928.23135,-126298203.93424,   0.00274,   0.00186,  -0.00399,477992768.00000,   0.00202,276823616.00000,   0.00154,   0.00086,  -0.00235,  32.00000,   2.00000
439183772.19468,406953031.29542,-125996720.56366,   0.00275,   0.00186,  -0.00399,477994688.00000,   0.00202,276827872.00000,   0.00154,   0.00086,  -0.00236, 160.00000,   2.00000
439812094.20377,406773258.46483,-125694896.37606,   0.00275,   0.00186,  -0.00400,477986080.00000,   0.00203,276832064.00000,   0.00155,   0.00087,  -0.00236, 160.00000,   2.00000
440444348.23368,406590493.51840,-125389770.87367,   0.00276,   0.00186,  -0.00400,478004000.00000,   0.00203,276836320.00000,   0.00155,   0.00087,  -0.00237,   0.00000,   2.00000
441077186.12444,406410142.75441,-125081086.85378,   0.00277,   0.00186,  -0.00400,478005632.00000,   0.00204,276840576.00000,   0.00155,   0.00087,  -0.00237, -96.00000,   2.00000
441712650.88866,406223135.31803,-124772011.16554,   0.00277,   0.00186,  -0.00400,477996800.00000,   0.00204,276844768.00000,   0.00155,   0.00087,  -0.00237,  64.00000,   2.00000
442354143.31290,406024128.78781,-124462752.57881,   0.00278,   0.00186,  -0.00400,478003520.00000,   0.00204,276848960.00000,   0.00156,   0.00088,  -0.00238, -32.00000,   2.00000
442996428.48810,405827666.10933,-124149838.91692,   0.00278,   0.00186,  -0.00400,478005120.00000,   0.00205,276853120.00000,   0.00156,   0.00088,  -0.00238, 160.00000,   2.00000
443637729.33177,405621239.89087,-123840226.13259,   0.00279,   0.00186,  -0.00400,477999904.00000,   0.00205,276857280.00000,   0.00156,   0.00088,  -0.00239,  32.00000,   2.00000
444286970.73392,405415495.70465,-123523395.44763,   0.00280,   0.00186,  -0.00400,478013152.00000,   0.00205,276861472.00000,   0.00157,   0.00088,  -0.00239, 192.00000,   2.00000
444933216.44254,405208976.34519,-123206678.37319,   0.00280,   0.00186,  -0.00400,478018528.00000,   0.00206,276865664.00000,   0.00157,   0.00088,  -0.00240, -32.00000,   2.00000
445584176.61158,404986723.45681,-122892544.08871,   0.00281,   0.00186,  -0.00400,477998528.00000,   0.00206,276869760.00000,   0.00157,   0.00089,  -0.00240,  32.00000,   2.00000
446237057.68673,404770991.27062,-122571871.73590,   0.00282,   0.00186,  -0.00400,478026336.00000,   0.00207,276873952.00000,   0.00157,   0.00089,  -0.00241, -64.00000,   2.00000
446895975.00836,404551752.18790,-122246715.32386,   0.00282,   0.00186,  -0.00400,478013216.00000,   0.00207,276878080.00000,   0.00158,   0.00089,  -0.00241,-160.00000,   2.00000
447550187.41878,404319522.46883,-121928793.39892,   0.00283,   0.00186,  -0.00400,478011840.00000,   0.00207,276882176.00000,   0.00158,   0.00089,  -0.00241, -32.00000,   2.00000
448208254.04501,404092919.80147,-121603245.00941,   0.00283,   0.00186,  -0.00400,478009632.00000,   0.00208,276886272.00000,   0.00158,   0.00089,  -0.00242,  96.00000,   2.00000
448871658.93821,403854227.26232,-121277449.50268,   0.00284,   0.00186,  -0.00400,478016640.00000,   0.00208,276890336.00000,   0.00159,   0.00090,  -0.00242, -32.00000,   2.00000
449524924.31692,403616892.99074,-120955406.82945,   0.00285,   0.00186,  -0.00400,478010272.00000,   0.00209,276894400.00000,   0.00159,   0.00090,  -0.00243,  64.00000,   2.00000
450191591.18450,403377697.90297,-120622565.69039,   0.00285,   0.00186,  -0.00400,478036192.00000,   0.00209,276898528.00000,   0.00159,   0.00090,  -0.00243,   0.00000,   2.00000
450853677.16818,403133620.53266,-120292631.06202,   0.00286,   0.00186,  -0.00400,478015488.00000,   0.00209,276902560.00000,   0.00159,   0.00090,  -0.00244,  32.00000,   2.00000
451521019.20084,402877432.73590,-119962488.90285,   0.00287,   0.00186,  -0.00400,478022720.00000,   0.00210,276906624.00000,   0.00160,   0.00091,  -0.00244, 160.00000,   2.00000
452188078.29347,402623280.32160,-119628549.33058,   0.00287,   0.00186,  -0.00400,478024896.00000,   0.00210,276910656.00000,   0.00160,   0.00091,  -0.00244,   0.00000,   2.00000
452857296.51521,402362133.86386,-119293990.98452,   0.00288,   0.00186,  -0.00400,478016352.00000,   0.00210,276914656.00000,   0.00160,   0.00091,  -0.00245,  32.00000,   2.00000
453522840.66925,402100070.11549,-118959674.55030,   0.00289,   0.00186,  -0.00400,478022304.00000,   0.00211,276918656.00000,   0.00161,   0.00091,  -0.00245,  96.00000,   2.00000
454193219.02838,401825595.08718,-118625134.25676,   0.00289,   0.00186,  -0.00400,478029920.00000,   0.00211,276922688.00000,   0.00161,   0.00091,  -0.00246,-128.00000,   2.00000
454860473.92158,401558402.55808,-118286459.81445,   0.00290,   0.00186,  -0.00400,478016256.00000,   0.00212,276926624.00000,   0.00161,   0.00092,  -0.00246,  64.00000,   2.00000
455530152.60399,401287959.54523,-117944548.28379,   0.00291,   0.00185,  -0.00400,478034848.00000,   0.00212,276930624.00000,   0.00162,   0.00092,  -0.00247,  64.00000,   2.00000
456204435.84495,401005002.98574,-117602476.02677,   0.00291,   0.00185,  -0.00400,478042688.00000,   0.00212,276934624.00000,   0.00162,   0.00092,  -0.00247, 192.00000,   2.00000
456873837.08536,400716541.82193,-117263133.78774,   0.00292,   0.00185,  -0.00400,478022720.00000,   0.00213,276938560.00000,   0.00162,   0.00092,  -0.00247,  32.00000,   2.00000
457549071.24866,400427885.42505,-116916634.88704,   0.00293,   0.00185,  -0.00400,478037440.00000,   0.00213,276942528.00000,   0.00162,   0.00092,  -0.00248, -32.00000,   2.00000
458216041.15618,400130728.67822,-116576830.92243,   0.00293,   0.00185,  -0.00400,478021056.00000,   0.00213,276946400.00000,   0.00163,   0.00093,  -0.00248, -32.00000,   2.00000
458888709.01999,399833283.63359,-116229829.32161,   0.00294,   0.00185,  -0.00400,478035968.00000,   0.00214,276950304.00000,   0.00163,   0.00093,  -0.00249,  64.00000,   2.00000
459565670.04679,399523105.00004,-115882579.93507,   0.00294,   0.00185,  -0.00400,478044160.00000,   0.00214,276954240.00000,   0.00163,   0.00093,  -0.00249,  32.00000,   2.00000
460239273.31228,399219753.35838,-115530972.59652,   0.00295,   0.00185,  -0.00400,478030880.00000,   0.00215,276958112.00000,   0.00164,   0.00093,  -0.00249, -64.00000,   2.00000
460907712.04283,398902978.63097,-115186590.38490,   0.00296,   0.00185,  -0.00399,478030304.00000,   0.00215,276961984.00000,   0.00164,   0.00093,  -0.00250,  96.00000,   2.00000
461585039.01579,398588654.20173,-114830879.34048,   0.00296,   0.00185,  -0.00399,478041536.00000,   0.00215,276965856.00000,   0.00164,   0.00093,  -0.00250,   0.00000,   2.00000
462260554.60553,398263701.15686,-114478288.39080,   0.00297,   0.00185,  -0.00399,478037408.00000,   0.00216,276969696.00000,   0.00164,   0.00094,  -0.00250,   0.00000,   2.00000
462932150.44842,397937731.67920,-114125935.30884,   0.00298,   0.00185,  -0.00399,478043488.00000,   0.00216,276973536.00000,   0.00165,   0.00094,  -0.00251,  32.00000,   2.00000
463605443.01195,397604000.80264,-113772596.66372,   0.00298,   0.00185,  -0.00399,478035424.00000,   0.00216,276977344.00000,   0.00165,   0.00094,  -0.00251, -32.00000,   2.00000
464278256.62285,397272097.30756,-113415408.16248,   0.00299,   0.00184,  -0.00399,478037952.00000,   0.00217,276981152.00000,   0.00165,   0.00094,  -0.00252,   0.00000,   2.00000
464949355.66647,396929546.84316,-113061265.09446,   0.00300,   0.00184,  -0.00399,478033600.00000,   0.00217,276984928.00000,   0.00166,   0.00094,  -0.00252, -64.00000,   2.00000
465625880.20191,396586673.68958,-112699862.35635,   0.00300,   0.00184,  -0.00399,478048416.00000,   0.00217,276988736.00000,   0.00166,   0.00095,  -0.00252, 192.00000,   2.00000
466303928.28337,396235825.59458,-112337367.12423,   0.00301,   0.00184,  -0.00399,478040736.00000,   0.00218,276992512.00000,   0.00166,   0.00095,  -0.00253,  64.00000,   2.00000
466972239.54363,395886168.10068,-111978494.69142,   0.00302,   0.00184,  -0.00399,478034080.00000,   0.00218,276996256.00000,   0.00167,   0.00095,  -0.00253, -32.00000,   2.00000
467648077.61561,395526472.14110,-111615157.72158,   0.00302,   0.00184,  -0.00399,478038752.00000,   0.00219,276999968.00000,   0.00167,   0.00095,  -0.00253,  64.00000,   2.00000
468319811.28859,395165677.86455,-111252018.08119,   0.00303,   0.00184,  -0.00398,478044832.00000,   0.00219,277003712.00000,   0.00167,   0.00095,  -0.00254,  32.00000,   2.00000
468993122.76545,394796877.82019,-110887748.73545,   0.00304,   0.00184,  -0.00398,478037024.00000,   0.00219,277007424.00000,   0.00167,   0.00095,  -0.00254,  32.00000,   2.00000
469665788.51969,394429811.33243,-110519595.54273,   0.00305,   0.00184,  -0.00398,478039488.00000,   0.00220,277011104.00000,   0.00168,   0.00096,  -0.00255, 192.00000,   2.00000
470336605.48207,394051929.17073,-110154409.26478,   0.00305,   0.00183,  -0.00398,478035424.00000,   0.00220,277014784.00000,   0.00168,   0.00096,  -0.00255, 192.00000,   2.00000
471006386.70280,393675479.18118,-109785238.47927,   0.00306,   0.00183,  -0.00398,478038016.00000,   0.00220,277018432.00000,   0.00168,   0.00096,  -0.00255,   0.00000,   2.00000
471683229.14450,393288713.77647,-109411545.62348,   0.00307,   0.00183,  -0.00398,478042976.00000,   0.00221,277022112.00000,   0.00169,   0.00096,  -0.00256, -64.00000,   2.00000
472350499.45233,392903196.04704,-109041480.70690,   0.00307,   0.00183,  -0.00398,478036288.00000,   0.00221,277025728.00000,   0.00169,   0.00096,  -0.00256,  96.00000,   2.00000
473024439.19266,392507073.67595,-108666798.96660,   0.00308,   0.00183,  -0.00398,478041504.00000,   0.00221,277029376.00000,   0.00169,   0.00096,  -0.00256,  64.00000,   2.00000
473690976.08470,392102233.15537,-108298363.60010,   0.00309,   0.00183,  -0.00397,478024768.00000,   0.00222,277032928.00000,   0.00169,   0.00097,  -0.00257,   0.00000,   2.00000
474361899.29951,391696684.58850,-107922646.31504,   0.00309,   0.00183,  -0.00397,478040352.00000,   0.00222,277036544.00000,   0.00170,   0.00097,  -0.00257,  96.00000,   2.00000
475026418.51692,391294830.07348,-107546296.37755,   0.00310,   0.00182,  -0.00397,478030400.00000,   0.00222,277040096.00000,   0.00170,   0.00097,  -0.00257, -96.00000,   2.00000
475694126.65313,390879657.83557,-107169487.78583,   0.00311,   0.00182,  -0.00397,478039360.00000,   0.00223,277043648.00000,   0.00170,   0.00097,  -0.00258, -64.00000,   2.00000
476355766.86381,390468392.90367,-106792095.82238,   0.00311,   0.00182,  -0.00397,478029216.00000,   0.00223,277047168.00000,   0.00171,   0.00097,  -0.00258,  64.00000,   2.00000
477023517.80719,390046135.51142,-106409963.42189,   0.00312,   0.00182,  -0.00397,478034944.00000,   0.00223,277050688.00000,   0.00171,   0.00097,  -0.00258,  64.00000,   2.00000
477689148.03342,389612765.23186,-106030655.80747,   0.00313,   0.00182,  -0.00397,478031232.00000,   0.00224,277054208.00000,   0.00171,   0.00098,  -0.00259, -32.00000,   2.00000
478348630.54803,389183148.46722,-105650668.92094,   0.00313,   0.00182,  -0.00396,478021216.00000,   0.00224,277057632.00000,   0.00172,   0.00098,  -0.00259, 128.00000,   2.00000
479008640.64430,388750021.65949,-105267581.32660,   0.00314,   0.00181,  -0.00396,478040512.00000,   0.00224,277061152.00000,   0.00172,   0.00098,  -0.00259,   0.00000,   2.00000
479664853.78119,388310574.29774,-104886341.51981,   0.00315,   0.00181,  -0.00396,478020480.00000,   0.00225,277064576.00000,   0.00172,   0.00098,  -0.00260,   0.00000,   2.00000
480324710.99007,387870096.96336,-104497767.28090,   0.00315,   0.00181,  -0.00396,478036512.00000,   0.00225,277068032.00000,   0.00172,   0.00098,  -0.00260,  32.00000,   2.00000
480982500.06110,387418447.65146,-104111957.96164,   0.00316,   0.00181,  -0.00396,478032768.00000,   0.00225,277071488.00000,   0.00173,   0.00098,  -0.00260, -96.00000,   2.00000
481636565.87188,386960356.42087,-103727884.86942,   0.00317,   0.00181,  -0.00395,478012864.00000,   0.00226,277074816.00000,   0.00173,   0.00098,  -0.00261, -64.00000,   2.00000
482290968.77028,386498776.52773,-103340725.20800,   0.00317,   0.00180,  -0.00395,478032224.00000,   0.00226,277078240.00000,   0.00173,   0.00099,  -0.00261,  96.00000,   2.00000
482942762.44228,386043400.55825,-102948534.87375,   0.00318,   0.00180,  -0.00395,478019008.00000,   0.00226,277081600.00000,   0.00174,   0.00099,  -0.00261, 128.00000,   2.00000
483589008.61907,385574063.25697,-102563203.32899,   0.00319,   0.00180,  -0.00395,478018720.00000,   0.00227,277084928.00000,   0.00174,   0.00099,  -0.00262,  64.00000,   2.00000
484244404.76160,385096065.63064,-102168765.95301,   0.00319,   0.00180,  -0.00395,478021568.00000,   0.00227,277088256.00000,   0.00174,   0.00099,  -0.00262,   0.00000,   2.00000
484890711.09867,384619224.97162,-101777727.05528,   0.00320,   0.00180,  -0.00394,478014880.00000,   0.00227,277091552.00000,   0.00174,   0.00099,  -0.00262,  96.00000,   2.00000
485535704.38520,384143566.11849,-101382546.79287,   0.00321,   0.00179,  -0.00394,478017920.00000,   0.00227,277094848.00000,   0.00175,   0.00099,  -0.00262,-128.00000,   2.00000
486185681.16815,383644071.59820,-100989204.92036,   0.00321,   0.00179,  -0.00394,478017600.00000,   0.00228,277098144.00000,   0.00175,   0.00099,  -0.00263,   0.00000,   2.00000
486827384.50209,383158286.68582,-100592478.72335,   0.00322,   0.00179,  -0.00394,478017504.00000,   0.00228,277101408.00000,   0.00175,   0.00100,  -0.00263, -64.00000,   2.00000
487470353.68172,382663543.62782,-100194046.32824,   0.00323,   0.00179,  -0.00394,478010784.00000,   0.00228,277104640.00000,   0.00176,   0.00100,  -0.00263,   0.00000,   2.00000
488106810.23320,382159620.41214,-99801322.52268,   0.00323,   0.00179,  -0.00393,477994080.00000,   0.00229,277107776.00000,   0.00176,   0.00100,  -0.00264, 160.00000,   2.00000
488746306.03713,381654481.65957,-99401200.52257,   0.00324,   0.00178,  -0.00393,478010304.00000,   0.00229,277110976.00000,   0.00176,   0.00100,  -0.00264, -96.00000,   2.00000
489384792.13624,381150712.86473,-98996970.37798,   0.00325,   0.00178,  -0.00393,478013472.00000,   0.00229,277114208.00000,   0.00176,   0.00100,  -0.00264,  64.00000,   2.00000
490020879.12819,380635167.35279,-98595160.74410,   0.00325,   0.00178,  -0.00393,478010144.00000,   0.00230,277117376.00000,   0.00177,   0.00100,  -0.00264,  32.00000,   2.00000
490653918.71350,380112795.35013,-98194683.34199,   0.00326,   0.00178,  -0.00392,477990176.00000,   0.00230,277120480.00000,   0.00177,   0.00100,  -0.00265, -96.00000,   2.00000
491282545.68978,379589253.54200,-97794321.45175,   0.00327,   0.00177,  -0.00392,477996384.00000,   0.00230,277123584.00000,   0.00177,   0.00101,  -0.00265, -32.00000,   2.00000
491912099.99824,379056287.01379,-97392015.97494,   0.00327,   0.00177,  -0.00392,477989952.00000,   0.00230,277126656.00000,   0.00178,   0.00101,  -0.00265,-192.00000,   2.00000
492540622.19228,378524632.35183,-96985548.49429,   0.00328,   0.00177,  -0.00392,477992960.00000,   0.00231,277129728.00000,   0.00178,   0.00101,  -0.00265,  96.00000,   2.00000
493164399.24216,377991592.53578,-96579141.62780,   0.00329,   0.00177,  -0.00391,477999392.00000,   0.00231,277132800.00000,   0.00178,   0.00101,  -0.00266, -32.00000,   2.00000
493792209.90703,377451314.07290,-96166411.26982,   0.00329,   0.00176,  -0.00391,477989760.00000,   0.00231,277135840.00000,   0.00178,   0.00101,  -0.00266, -32.00000,   2.00000
494414785.13209,376897080.24253,-95760429.32957,   0.00330,   0.00176,  -0.00391,477989408.00000,   0.00232,277138848.00000,   0.00179,   0.00101,  -0.00266,   0.00000,   2.00000
495034940.49398,376348327.84916,-95348903.00399,   0.00331,   0.00176,  -0.00390,477976192.00000,   0.00232,277141824.00000,   0.00179,   0.00101,  -0.00267, -32.00000,   2.00000
495652935.44931,375787778.15913,-94939720.74759,   0.00331,   0.00176,  -0.00390,477972800.00000,   0.00232,277144768.00000,   0.00179,   0.00101,  -0.00267, -32.00000,   2.00000
496266325.17450,375225978.25710,-94530630.92323,   0.00332,   0.00175,  -0.00390,477978976.00000,   0.00232,277147712.00000,   0.00179,   0.00101,  -0.00267,   0.00000,   2.00000
496881094.92768,374667205.74018,-94112847.45418,   0.00333,   0.00175,  -0.00390,477979520.00000,   0.00233,277150656.00000,   0.00180,   0.00102,  -0.00267, -32.00000,   2.00000
497493592.34484,374096530.15221,-93697378.27018,   0.00333,   0.00175,  -0.00389,477976096.00000,   0.00233,277153600.00000,   0.00180,   0.00102,  -0.00268, -32.00000,   2.00000
498103730.24291,373513887.21148,-93284186.51904,   0.00334,   0.00175,  -0.00389,477972864.00000,   0.00233,277156480.00000,   0.00180,   0.00102,  -0.00268, 160.00000,   2.00000
498708415.54127,372934352.01628,-92869720.85218,   0.00335,   0.00174,  -0.00389,477962720.00000,   0.00234,277159328.00000,   0.00181,   0.00102,  -0.00268, 128.00000,   2.00000
499313718.89621,372344878.81858,-92453074.93003,   0.00335,   0.00174,  -0.00388,477956672.00000,   0.00234,277162144.00000,   0.00181,   0.00102,  -0.00268,  64.00000,   2.00000
499917085.27278,371756065.14796,-92032056.01880,   0.00336,   0.00174,  -0.00388,477959968.00000,   0.00234,277164992.00000,   0.00181,   0.00102,  -0.00268, -64.00000,   2.00000
500512278.14396,371168325.20393,-91614188.50281,   0.00337,   0.00173,  -0.00388,477952576.00000,   0.00234,277167776.00000,   0.00181,   0.00102,  -0.00269, -64.00000,   2.00000
501111404.20327,370568128.41255,-91191039.70693,   0.00337,   0.00173,  -0.00387,477960160.00000,   0.00235,277170560.00000,   0.00182,   0.00102,  -0.00269, -32.00000,   2.00000
501704448.15264,369957940.44164,-90773051.65668,   0.00338,   0.00173,  -0.00387,477943328.00000,   0.00235,277173280.00000,   0.00182,   0.00102,  -0.00269,   0.00000,   2.00000
502298754.41523,369350587.71510,-90346272.61977,   0.00339,   0.00173,  -0.00387,477943904.00000,   0.00235,277176032.00000,   0.00182,   0.00102,  -0.00269, -32.00000,   2.00000
502885162.79578,368739753.84509,-89923997.80316,   0.00339,   0.00172,  -0.00386,477953024.00000,   0.00235,277178752.00000,   0.00182,   0.00103,  -0.00270,  32.00000,   2.00000
503471644.48656,368122944.02790,-89497915.99859,   0.00340,   0.00172,  -0.00386,477930560.00000,   0.00236,277181408.00000,   0.00183,   0.00103,  -0.00270,  64.00000,   2.00000
504055559.18570,367493728.98021,-89073908.16247,   0.00341,   0.00172,  -0.00386,477927392.00000,   0.00236,277184064.00000,   0.00183,   0.00103,  -0.00270,  64.00000,   2.00000
504637553.08483,366865084.78434,-88645467.53665,   0.00341,   0.00171,  -0.00385,477930752.00000,   0.00236,277186688.00000,   0.00183,   0.00103,  -0.00270,  64.00000,   2.00000
505214663.06613,366234991.70787,-88217059.25722,   0.00342,   0.00171,  -0.00385,477937024.00000,   0.00236,277189344.00000,   0.00183,   0.00103,  -0.00270, -64.00000,   2.00000
505789158.75612,365596762.60244,-87789171.95191,   0.00342,   0.00171,  -0.00385,477917088.00000,   0.00237,277191936.00000,   0.00184,   0.00103,  -0.00271,  32.00000,   2.00000
506364046.64617,364947973.93381,-87358788.42384,   0.00343,   0.00170,  -0.00384,477911136.00000,   0.00237,277194464.00000,   0.00184,   0.00103,  -0.00271, -64.00000,   2.00000
506937227.69310,364299811.92028,-86923949.24685,   0.00344,   0.00170,  -0.00384,477914432.00000,   0.00237,277196992.00000,   0.00184,   0.00103,  -0.00271,  32.00000,   2.00000
507502588.05748,363652427.25649,-86492006.40399,   0.00344,   0.00170,  -0.00384,477906688.00000,   0.00237,277199520.00000,   0.00184,   0.00103,  -0.00271,  32.00000,   2.00000
508065683.22702,362992572.55741,-86062012.97403,   0.00345,   0.00169,  -0.00383,477903424.00000,   0.00238,277202016.00000,   0.00185,   0.00103,  -0.00271,  32.00000,   2.00000
508632047.85435,362323900.37369,-85624882.34054,   0.00346,   0.00169,  -0.00383,477894720.00000,   0.00238,277204448.00000,   0.00185,   0.00103,  -0.00272, -32.00000,   2.00000
509194016.01900,361654000.12846,-85187748.00972,   0.00346,   0.00169,  -0.00382,477900480.00000,   0.00238,277206912.00000,   0.00185,   0.00104,  -0.00272,  64.00000,   2.00000
509748453.42752,360984901.45201,-84753411.98726,   0.00347,   0.00168,  -0.00382,477892448.00000,   0.00238,277209344.00000,   0.00185,   0.00104,  -0.00272,   0.00000,   2.00000
510306380.01752,360307000.43275,-84311862.29741,   0.00347,   0.00168,  -0.00382,477883552.00000,   0.00239,277211712.00000,   0.00186,   0.00104,  -0.00272,   0.00000,   2.00000
510857138.13071,359630048.06076,-83873095.40206,   0.00348,   0.00168,  -0.00381,477875200.00000,   0.00239,277214080.00000,   0.00186,   0.00104,  -0.00272,  64.00000,   2.00000
511411305.90454,358940190.11821,-83428717.53068,   0.00349,   0.00167,  -0.00381,477883232.00000,   0.00239,277216416.00000,   0.00186,   0.00104,  -0.00272,  32.00000,   2.00000
511958258.92320,358251219.60479,-82987054.02285,   0.00349,   0.00167,  -0.00380,477874848.00000,   0.00239,277218752.00000,   0.00186,   0.00104,  -0.00273, -64.00000,   2.00000
512503007.75507,357553523.66046,-82545369.20345,   0.00350,   0.00167,  -0.00380,477854688.00000,   0.00239,277221024.00000,   0.00186,   0.00104,  -0.00273, -96.00000,   2.00000
513048245.93884,356844916.22212,-82100801.35044,   0.00351,   0.00166,  -0.00380,477848512.00000,   0.00240,277223232.00000,   0.00187,   0.00104,  -0.00273,-192.00000,   2.00000
513587150.48395,356146700.72969,-81654307.84987,   0.00351,   0.00166,  -0.00379,477863040.00000,   0.00240,277225504.00000,   0.00187,   0.00104,  -0.00273,   0.00000,   2.00000
514125713.13423,355427928.66457,-81209462.56132,   0.00352,   0.00166,  -0.00379,477833920.00000,   0.00240,277227648.00000,   0.00187,   0.00104,  -0.00273,  32.00000,   2.00000
514660505.78312,354721245.02993,-80758119.08306,   0.00352,   0.00165,  -0.00378,477845920.00000,   0.00240,277229856.00000,   0.00187,   0.00104,  -0.00273,   0.00000,   2.00000
515192726.36861,354001647.83160,-80308388.49985,   0.00353,   0.00165,  -0.00378,477842464.00000,   0.00240,277232032.00000,   0.00188,   0.00104,  -0.00274,  32.00000,   2.00000
515722386.46290,353272756.27276,-79858431.17627,   0.00354,   0.00164,  -0.00378,477822304.00000,   0.00241,277234112.00000,   0.00188,   0.00104,  -0.00274, 160.00000,   2.00000
516250158.58391,352544242.06211,-79403751.27949,   0.00354,   0.00164,  -0.00377,477825216.00000,   0.00241,277236224.00000,   0.00188,   0.00104,  -0.00274,  96.00000,   2.00000
516775056.23271,351802497.81727,-78950626.61455,   0.00355,   0.00164,  -0.00377,477821792.00000,   0.00241,277238304.00000,   0.00188,   0.00104,  -0.00274, -64.00000,   2.00000
517295749.82557,351063098.79133,-78495561.22603,   0.00355,   0.00163,  -0.00376,477810432.00000,   0.00241,277240352.00000,   0.00188,   0.00104,  -0.00274, -64.00000,   2.00000
517814174.38978,350314110.76226,-78040232.34537,   0.00356,   0.00163,  -0.00376,477790336.00000,   0.00241,277242304.00000,   0.00189,   0.00105,  -0.00274,  64.00000,   2.00000
518328269.19312,349563640.15595,-77584883.11967,   0.00356,   0.00163,  -0.00375,477795712.00000,   0.00242,277244288.00000,   0.00189,   0.00105,  -0.00274,  32.00000,   2.00000
518840879.70731,348813338.72245,-77125015.97755,   0.00357,   0.00162,  -0.00375,477798560.00000,   0.00242,277246272.00000,   0.00189,   0.00105,  -0.00275, 128.00000,   2.00000
519353873.61801,348051200.30479,-76662340.55246,   0.00358,   0.00162,  -0.00374,477793024.00000,   0.00242,277248192.00000,   0.00189,   0.00105,  -0.00275,  64.00000,   2.00000
519860467.89273,347289298.02438,-76202538.91676,   0.00358,   0.00161,  -0.00374,477784608.00000,   0.00242,277250112.00000,   0.00189,   0.00105,  -0.00275,  64.00000,   2.00000
520364110.82431,346516574.39458,-75742412.54311,   0.00359,   0.00161,  -0.00373,477764992.00000,   0.00242,277251936.00000,   0.00190,   0.00105,  -0.00275,-992.00000,   1.00000
520870253.52067,345732959.66017,-75279881.62950,   0.00359,   0.00161,  -0.00373,477758912.00000,   0.00242,277253728.00000,   0.00190,   0.00105,  -0.00275, -64.00000,   2.00000
521369218.46195,344958624.50803,-74815896.66293,   0.00360,   0.00160,  -0.00372,477774816.00000,   0.00243,277255584.00000,   0.00190,   0.00105,  -0.00275,   0.00000,   2.00000
521867849.22788,344161827.97079,-74353152.60169,   0.00360,   0.00160,  -0.00372,477746848.00000,   0.00243,277257312.00000,   0.00190,   0.00105,  -0.00275, -32.00000,   2.00000
522364727.41522,343364651.51052,-73885959.99439,   0.00361,   0.00159,  -0.00371,477750624.00000,   0.00243,277259040.00000,   0.00190,   0.00105,  -0.00275,  96.00000,   2.00000
522854654.53760,342567257.69607,-73421348.94878,   0.00362,   0.00159,  -0.00371,477742496.00000,   0.00243,277260736.00000,   0.00190,   0.00105,  -0.00276,  64.00000,   2.00000
523342608.43735,341769595.73153,-72952129.73854,   0.00362,   0.00159,  -0.00370,477746208.00000,   0.00243,277262432.00000,   0.00191,   0.00105,  -0.00276,  64.00000,   2.00000
523827779.26900,340961358.95059,-72482108.67786,   0.00363,   0.00158,  -0.00370,477726816.00000,   0.00243,277264064.00000,   0.00191,   0.00105,  -0.00276,  32.00000,   2.00000
524309689.74264,340139246.04033,-72013373.50236,   0.00363,   0.00158,  -0.00369,477724128.00000,   0.00244,277265696.00000,   0.00191,   0.00105,  -0.00276,   0.00000,   2.00000
524786835.72325,339318711.64433,-71542134.20484,   0.00364,   0.00157,  -0.00369,477713408.00000,   0.00244,277267264.00000,   0.00191,   0.00105,  -0.00276, 128.00000,   2.00000
525262617.45133,338485642.99902,-71067278.64749,   0.00364,   0.00157,  -0.00368,477708768.00000,   0.00244,277268800.00000,   0.00191,   0.00105,  -0.00276,  96.00000,   2.00000
525731112.41648,337652729.75442,-70594488.49101,   0.00365,   0.00156,  -0.00368,477700000.00000,   0.00244,277270304.00000,   0.00191,   0.00105,  -0.00276, 192.00000,   2.00000
526196088.43393,336819288.93240,-70116526.54579,   0.00365,   0.00156,  -0.00367,477703936.00000,   0.00244,277271840.00000,   0.00192,   0.00105,  -0.00276, -32.00000,   2.00000
526657794.36511,335975042.05760,-69637299.99090,   0.00366,   0.00155,  -0.00367,477684384.00000,   0.00244,277273280.00000,   0.00192,   0.00105,  -0.00276,  96.00000,   2.00000
527113626.72385,335128868.83209,-69157619.16758,   0.00366,   0.00155,  -0.00366,477690624.00000,   0.00244,277274752.00000,   0.00192,   0.00105,  -0.00276,   0.00000,   2.00000
527566173.44856,334271649.89190,-68676643.33462,   0.00367,   0.00155,  -0.00366,477671136.00000,   0.00245,277276160.00000,   0.00192,   0.00105,  -0.00277, -32.00000,   2.00000
528015237.88636,333413822.44003,-68190533.30762,   0.00367,   0.00154,  -0.00365,477675168.00000,   0.00245,277277568.00000,   0.00192,   0.00105,  -0.00277,  32.00000,   2.00000
528458383.27644,332543171.67077,-67707784.73148,   0.00368,   0.00154,  -0.00365,477658272.00000,   0.00245,277278944.00000,   0.00192,   0.00105,  -0.00277, -64.00000,   2.00000
528898030.14087,331671810.96581,-67219925.75565,   0.00368,   0.00153,  -0.00364,477662272.00000,   0.00245,277280288.00000,   0.00193,   0.00105,  -0.00277,   0.00000,   2.00000
529332622.41938,330801300.29065,-66729348.81737,   0.00369,   0.00153,  -0.00364,477651488.00000,   0.00245,277281600.00000,   0.00193,   0.00105,  -0.00277,  32.00000,   2.00000
529762905.34890,329916087.92930,-66239747.44550,   0.00369,   0.00152,  -0.00363,477649248.00000,   0.00245,277282912.00000,   0.00193,   0.00106,  -0.00277, 128.00000,   2.00000
530189627.71833,329018907.42943,-65748712.04561,   0.00370,   0.00152,  -0.00362,477630272.00000,   0.00245,277284160.00000,   0.00193,   0.00106,  -0.00277,  32.00000,   2.00000
530609952.30249,328135009.11992,-65253628.59674,   0.00370,   0.00151,  -0.00362,477627584.00000,   0.00245,277285376.00000,   0.00193,   0.00106,  -0.00277,  64.00000,   2.00000
531029854.94721,327224851.04865,-64756056.18761,   0.00371,   0.00151,  -0.00361,477614880.00000,   0.00246,277286560.00000,   0.00193,   0.00106,  -0.00277, 128.00000,   2.00000
531442634.84501,326325236.98289,-64256907.88956,   0.00371,   0.00150,  -0.00361,477629024.00000,   0.00246,277287776.00000,   0.00193,   0.00106,  -0.00277, 128.00000,   2.00000
531849409.46950,325400503.46911,-63764448.03540,   0.00372,   0.00150,  -0.00360,477589056.00000,   0.00246,277288864.00000,   0.00193,   0.00106,  -0.00277, -32.00000,   2.00000
532255361.94907,324487600.12790,-63258703.51441,   0.00372,   0.00149,  -0.00360,477613408.00000,   0.00246,277290016.00000,   0.00194,   0.00106,  -0.00277,-160.00000,   2.00000
532654518.36900,323562436.92784,-62758363.11102,   0.00373,   0.00149,  -0.00359,477581568.00000,   0.00246,277291072.00000,   0.00194,   0.00106,  -0.00277,  64.00000,   2.00000
533051587.35282,322623307.26325,-62254116.14225,   0.00373,   0.00149,  -0.00358,477577120.00000,   0.00246,277292096.00000,   0.00194,   0.00106,  -0.00277, -64.00000,   2.00000
533443127.81648,321681949.34263,-61749541.24249,   0.00374,   0.00148,  -0.00358,477582624.00000,   0.00246,277293120.00000,   0.00194,   0.00106,  -0.00277,-192.00000,   2.00000
533830481.42351,320741066.31767,-61242084.18030,   0.00374,   0.00148,  -0.00357,477571232.00000,   0.00246,277294144.00000,   0.00194,   0.00106,  -0.00278,   0.00000,   2.00000
534214430.64376,319787347.16169,-60732793.45897,   0.00375,   0.00147,  -0.00357,477552160.00000,   0.00246,277295072.00000,   0.00194,   0.00106,  -0.00278, -96.00000,   2.00000
534593210.84669,318831563.90149,-60223165.90567,   0.00375,   0.00147,  -0.00356,477557408.00000,   0.00246,277296000.00000,   0.00194,   0.00106,  -0.00278, -64.00000,   2.00000
534967764.33499,317876080.52465,-59710522.71191,   0.00376,   0.00146,  -0.00355,477545984.00000,   0.00247,277296896.00000,   0.00194,   0.00106,  -0.00278,   0.00000,   2.00000
535340533.99376,316892900.82180,-59194812.87474,   0.00376,   0.00146,  -0.00355,477533632.00000,   0.00247,277297760.00000,   0.00194,   0.00106,  -0.00278,-832.00000,   1.00000
535708866.83764,315923549.13141,-58675021.39394,   0.00377,   0.00145,  -0.00354,477529184.00000,   0.00247,277298592.00000,   0.00194,   0.00106,  -0.00278,-928.00000,   1.00000
536073205.21616,314940707.65980,-58158160.75267,   0.00377,   0.00145,  -0.00353,477511872.00000,   0.00247,277299360.00000,   0.00195,   0.00106,  -0.00278, 160.00000,   2.00000
536431886.51404,313955539.86680,-57635763.38444,   0.00378,   0.00144,  -0.00353,477516416.00000,   0.00247,277300160.00000,   0.00195,   0.00106,  -0.00278,-960.00000,   1.00000
536786600.17404,312956756.59581,-57116245.06320,   0.00378,   0.00144,  -0.00352,477498080.00000,   0.00247,277300896.00000,   0.00195,   0.00106,  -0.00278,-832.00000,   1.00000
537136846.67043,311957812.35896,-56593507.16602,   0.00378,   0.00143,  -0.00351,477486880.00000,   0.00247,277301568.00000,   0.00195,   0.00106,  -0.00278,-736.00000,   1.00000
537484571.87180,310944276.48603,-56066544.86471,   0.00379,   0.00142,  -0.00351,477482880.00000,   0.00247,277302240.00000,   0.00195,   0.00106,  -0.00278,-672.00000,   1.00000
537824715.02851,309942717.35006,-55540128.56768,   0.00379,   0.00142,  -0.00350,477481120.00000,   0.00247,277302880.00000,   0.00195,   0.00106,  -0.00278,-704.00000,   1.00000
538163191.34809,308913043.09026,-55010502.17218,   0.00380,   0.00141,  -0.00350,477469664.00000,   0.00247,277303488.00000,   0.00195,   0.00106,  -0.00278,-512.00000,   1.00000
538496818.89001,307882740.71373,-54477570.20001,   0.00380,   0.00141,  -0.00349,477458784.00000,   0.00247,277304064.00000,   0.00195,   0.00106,  -0.00278,-576.00000,   1.00000
538825755.72101,306851807.29059,-53941328.40246,   0.00380,   0.00140,  -0.00348,477447776.00000,   0.00247,277304576.00000,   0.00195,   0.00106,  -0.00278,-672.00000,   1.00000
539149009.06202,305818358.54698,-53404684.90510,   0.00381,   0.00140,  -0.00347,477453248.00000,   0.00247,277305120.00000,   0.00195,   0.00106,  -0.00278,-768.00000,   1.00000
539468686.60092,304770768.16389,-52865682.46979,   0.00381,   0.00139,  -0.00347,477434624.00000,   0.00247,277305600.00000,   0.00195,   0.00106,  -0.00278,-608.00000,   1.00000
539783610.68194,303707110.56284,-52327231.02181,   0.00382,   0.00139,  -0.00346,477432640.00000,   0.00247,277306080.00000,   0.00195,   0.00106,  -0.00278,-672.00000,   1.00000
540093591.27548,302643666.70118,-51787268.37535,   0.00382,   0.00138,  -0.00345,477406272.00000,   0.00247,277306432.00000,   0.00195,   0.00106,  -0.00278,-320.00000,   1.00000
540399849.78216,301578577.56610,-51242003.74861,   0.00382,   0.00138,  -0.00345,477409984.00000,   0.00247,277306816.00000,   0.00195,   0.00106,  -0.00278,-192.00000,   1.00000
540703377.73530,300498355.25398,-50692351.71903,   0.00383,   0.00137,  -0.00344,477406144.00000,   0.00248,277307168.00000,   0.00195,   0.00106,  -0.00278,-416.00000,   1.00000
541000702.16685,299416426.62110,-50144057.13287,   0.00383,   0.00137,  -0.00343,477396352.00000,   0.00248,277307488.00000,   0.00195,   0.00106,  -0.00278,-448.00000,   1.00000
541292133.06933,298332922.45907,-49597109.90058,   0.00384,   0.00136,  -0.00343,477386208.00000,   0.00248,277307776.00000,   0.00195,   0.00106,  -0.00278,-288.00000,   1.00000
541581274.62500,297235519.05363,-49042476.63310,   0.00384,   0.00136,  -0.00342,477366080.00000,   0.00248,277308000.00000,   0.00196,   0.00106,  -0.00278,-160.00000,   1.00000
541864080.50518,296135253.16354,-48487265.46603,   0.00384,   0.00135,  -0.00341,477371840.00000,   0.00248,277308224.00000,   0.00196,   0.00106,  -0.00278,-224.00000,   1.00000
542142174.64972,295019786.44078,-47929124.72770,   0.00385,   0.00134,  -0.00341,477353760.00000,   0.00248,277308384.00000,   0.00196,   0.00106,  -0.00278,  32.00000,   1.00000
542412414.87490,293901618.17911,-47372017.32885,   0.00385,   0.00134,  -0.00340,477345120.00000,   0.00248,277308544.00000,   0.00196,   0.00106,  -0.00278,-160.00000,   1.00000
542677176.10611,292781021.25872,-46809335.15338,   0.00385,   0.00133,  -0.00339,477350016.00000,   0.00248,277308672.00000,   0.00196,   0.00106,  -0.00278, -96.00000,   1.00000
542935941.75855,291644320.63606,-46243519.32514,   0.00386,   0.00133,  -0.00338,477333088.00000,   0.00248,277308768.00000,   0.00196,   0.00106,  -0.00278, -64.00000,   1.00000
543188097.77653,290505296.37856,-45673737.43930,   0.00386,   0.00132,  -0.00338,477323392.00000,   0.00248,277308832.00000,   0.00196,   0.00106,  -0.00278, -32.00000,   1.00000
543432660.26815,289362830.14665,-45103247.75706,   0.00386,   0.00132,  -0.00337,477330080.00000,   0.00248,277308896.00000,   0.00196,   0.00106,  -0.00278,-128.00000,   1.00000
543669679.48710,288203239.90026,-44534469.47176,   0.00387,   0.00131,  -0.00336,477314560.00000,   0.00248,277308928.00000,   0.00196,   0.00106,  -0.00278,   0.00000,   1.00000
543887814.63451,287021251.77594,-43956157.68562,   0.00387,   0.00130,  -0.00335,477296160.00000,   0.00248,277308928.00000,   0.00196,   0.00106,  -0.00278,-12768.00000,   0.00000
544113559.14752,285857018.83804,-43377845.89947,   0.00387,   0.00130,  -0.00335,477296160.00000,   0.00248,277308928.00000,   0.00196,   0.00106,  -0.00278,-12768.00000,   0.00000
544313939.10851,284667421.34812,-42794461.20292,   0.00388,   0.00129,  -0.00334,477278784.00000,   0.00248,277308928.00000,   0.00196,   0.00106,  -0.00278,-30144.00000,   0.00000
544488954.51747,283452459.30617,-42211076.50637,   0.00388,   0.00129,  -0.00333,477245120.00000,   0.00248,277308928.00000,   0.00196,   0.00106,  -0.00278,-63808.00000,   0.00000
544646214.74002,282229887.89861,-41622618.89941,   0.00388,   0.00128,  -0.00332,477200448.00000,   0.00248,277308928.00000,   0.00196,   0.00106,  -0.00278,-108480.00000,   0.00000
544803474.96257,281007316.49106,-41029088.38205,   0.00389,   0.00128,  -0.00332,477159744.00000,   0.00248,277308928.00000,   0.00196,   0.00106,  -0.00278,-149184.00000,   0.00000
544942979.99870,279777135.71790,-40435557.86469,   0.00389,   0.00127,  -0.00331,477109344.00000,   0.00248,277308928.00000,   0.00196,   0.00106,  -0.00278,-199584.00000,   0.00000
545074875.66923,278529199.75832,-39836954.43692,   0.00389,   0.00126,  -0.00330,477056384.00000,   0.00248,277308928.00000,   0.00196,   0.00106,  -0.00278,-252544.00000,   0.00000
545163651.60131,277248289.88111,-39233278.09875,   0.00390,   0.00126,  -0.00329,476970528.00000,   0.00248,277308928.00000,   0.00196,   0.00106,  -0.00278,-338400.00000,   0.00000
545260036.89900,275985135.19031,-38629601.76058,   0.00390,   0.00125,  -0.00328,476897024.00000,   0.00248,277308928.00000,   0.00196,   0.00106,  -0.00278,-411904.00000,   0.00000
545348812.83109,274704225.31310,-38020852.51201,   0.00390,   0.00125,  -0.00328,476820896.00000,   0.00248,277308928.00000,   0.00196,   0.00106,  -0.00278,-488032.00000,   0.00000
545394469.02473,273390341.51826,-37407030.35303,   0.00390,   0.00124,  -0.00327,476712288.00000,   0.00248,277308928.00000,   0.00196,   0.00106,  -0.00278,-596640.00000,   0.00000
545447734.58398,272094212.90984,-36793208.19405,   0.00391,   0.00123,  -0.00326,476615680.00000,   0.00248,277308928.00000,   0.00196,   0.00106,  -0.00278,-693248.00000,   0.00000
545468026.22560,270754964.56297,-36174313.12466,   0.00391,   0.00123,  -0.00325,476495104.00000,   0.00248,277308928.00000,   0.00196,   0.00106,  -0.00278,-813824.00000,   0.00000
545478172.04641,269425862.03692,-35550345.14487,   0.00391,   0.00122,  -0.00324,476370368.00000,   0.00248,277308928.00000,   0.00196,   0.00106,  -0.00278,-938560.00000,   0.00000
545480708.50161,268079004.32444,-34926377.16509,   0.00392,   0.00121,  -0.00324,476244864.00000,   0.00248,277308928.00000,   0.00196,   0.00106,  -0.00278,-1064064.00000,   0.00000
545465489.77040,266724537.24636,-34297336.27489,   0.00392,   0.00121,  -0.00323,476108288.00000,   0.00248,277308928.00000,   0.00196,   0.00106,  -0.00278,-1200640.00000,   0.00000
545424906.48716,265344705.61626,-33668295.38470,   0.00392,   0.00120,  -0.00322,475955936.00000,   0.00248,277308928.00000,   0.00196,   0.00106,  -0.00278,-1352992.00000,   0.00000
545391932.56953,263982629.17257,-33034181.58410,   0.00392,   0.00120,  -0.00321,475814432.00000,   0.00248,277308928.00000,   0.00196,   0.00106,  -0.00278,-1494496.00000,   0.00000
545308229.54785,262569823.62484,-32394994.87309,   0.00393,   0.00119,  -0.00320,475634496.00000,   0.00248,277308928.00000,   0.00196,   0.00106,  -0.00278,-1674432.00000,   0.00000
545232135.89178,261174773.26352,-31750735.25169,   0.00393,   0.00118,  -0.00320,475465920.00000,   0.00248,277308928.00000,   0.00196,   0.00106,  -0.00278,-1843008.00000,   0.00000
545148432.87010,259761967.71579,-31106475.63028,   0.00393,   0.00118,  -0.00319,475297152.00000,   0.00248,277308928.00000,   0.00196,   0.00106,  -0.00278,-2011776.00000,   0.00000
545029219.47558,258333943.43684,-30457143.09846,   0.00393,   0.00117,  -0.00318,475103168.00000,   0.00248,277308928.00000,   0.00196,   0.00106,  -0.00278,-2205760.00000,   0.00000
544902396.71546,256888163.97147,-29807810.56665,   0.00393,   0.00117,  -0.00317,474910208.00000,   0.00248,277308928.00000,   0.00196,   0.00106,  -0.00278,-2398720.00000,   0.00000
544757818.76893,255434775.14050,-29153405.12443,   0.00394,   0.00116,  -0.00316,474707872.00000,   0.00248,277308928.00000,   0.00196,   0.00106,  -0.00278,-2601056.00000,   0.00000
544613240.82239,253981386.30952,-28493926.77181,   0.00394,   0.00115,  -0.00315,474512096.00000,   0.00248,277308928.00000,   0.00196,   0.00106,  -0.00278,-2796832.00000,   0.00000
544425543.13741,252495023.56092,-27834448.41918,   0.00394,   0.00115,  -0.00314,474287424.00000,   0.00248,277308928.00000,   0.00196,   0.00106,  -0.00278,-3021504.00000,   0.00000
544237845.45244,251008660.81232,-27169897.15616,   0.00394,   0.00114,  -0.00314,474069312.00000,   0.00248,277308928.00000,   0.00196,   0.00106,  -0.00278,-3239616.00000,   0.00000
544032392.58104,249514688.69810,-26500272.98272,   0.00394,   0.00113,  -0.00313,473842784.00000,   0.00248,277308928.00000,   0.00196,   0.00106,  -0.00278,-3466144.00000,   0.00000
543826939.70965,248020716.58389,-25830648.80929,   0.00395,   0.00113,  -0.00312,473623712.00000,   0.00248,277308928.00000,   0.00196,   0.00106,  -0.00278,-3685216.00000,   0.00000
543578367.09981,246493770.55205,-25155951.72545,   0.00395,   0.00112,  -0.00311,473374752.00000,   0.00248,277308928.00000,   0.00196,   0.00106,  -0.00278,-3934176.00000,   0.00000
543329794.48998,244966824.52021,-24481254.64162,   0.00395,   0.00111,  -0.00310,473132800.00000,   0.00248,277308928.00000,   0.00196,   0.00106,  -0.00278,-4176128.00000,   0.00000
543073612.51454,243422123.30195,-23801484.64737,   0.00395,   0.00111,  -0.00309,472891040.00000,   0.00248,277308928.00000,   0.00196,   0.00106,  -0.00278,-4417888.00000,   0.00000
542781920.16626,241862203.35247,-23116641.74273,   0.00395,   0.00110,  -0.00308,472624864.00000,   0.00248,277308928.00000,   0.00196,   0.00106,  -0.00278,-4684064.00000,   0.00000
542490227.81799,240302283.40300,-22431798.83808,   0.00396,   0.00109,  -0.00307,472364896.00000,   0.00248,277308928.00000,   0.00196,   0.00106,  -0.00278,-4944032.00000,   0.00000
542173170.91769,238716998.90150,-21736810.11262,   0.00396,   0.00109,  -0.00306,472089568.00000,   0.00248,277308928.00000,   0.00196,   0.00106,  -0.00278,-5219360.00000,   0.00000
541845968.19658,237141860.22081,-21046894.29757,   0.00396,   0.00108,  -0.00306,471811488.00000,   0.00248,277308928.00000,   0.00196,   0.00106,  -0.00278,-5497440.00000,   0.00000
541511156.10986,235548966.35371,-20351905.57212,   0.00396,   0.00107,  -0.00305,471533824.00000,   0.00248,277308928.00000,   0.00196,   0.00106,  -0.00278,-5775104.00000,   0.00000
541133224.28470,233923098.56897,-19651843.93625,   0.00396,   0.00107,  -0.00304,471226080.00000,   0.00248,277308928.00000,   0.00196,   0.00106,  -0.00278,-6082848.00000,   0.00000
540755292.45955,232297230.78424,-18946709.38999,   0.00396,   0.00106,  -0.00303,470924640.00000,   0.00248,277308928.00000,   0.00196,   0.00106,  -0.00278,-6384288.00000,   0.00000
540377360.63439,230671362.99950,-18241574.84372,   0.00397,   0.00105,  -0.00302,470630528.00000,   0.00248,277308928.00000,   0.00196,   0.00106,  -0.00278,-6678400.00000,   0.00000
539963918.43640,229030276.48355,-17531367.38705,   0.00397,   0.00105,  -0.00301,470312288.00000,   0.00248,277308928.00000,   0.00196,   0.00106,  -0.00278,-6996640.00000,   0.00000
539542866.87280,227371434.78118,-16821159.93038,   0.00397,   0.00104,  -0.00300,469996352.00000,   0.00248,277308928.00000,   0.00196,   0.00106,  -0.00278,-7312576.00000,   0.00000
539111669.48839,225722738.89963,-16105879.56330,   0.00397,   0.00103,  -0.00299,469677664.00000,   0.00248,277308928.00000,   0.00196,   0.00106,  -0.00278,-7631264.00000,   0.00000
538665253.37277,224038532.64523,-15385526.28582,   0.00397,   0.00103,  -0.00298,469355936.00000,   0.00248,277308928.00000,   0.00196,   0.00106,  -0.00278,-7952992.00000,   0.00000
538190936.24992,222356862.84605,-14665173.00834,   0.00397,   0.00102,  -0.00297,469016928.00000,   0.00248,277308928.00000,   0.00196,   0.00106,  -0.00278,-8292000.00000,   0.00000
537709009.76147,220657437.86044,-13939746.82046,   0.00397,   0.00101,  -0.00296,468680800.00000,   0.00248,277308928.00000,   0.00196,   0.00106,  -0.00278,-8628128.00000,   0.00000
537209328.08660,218950403.50923,-13214320.63257,   0.00397,   0.00101,  -0.00295,468337888.00000,   0.00248,277308928.00000,   0.00196,   0.00106,  -0.00278,-8971040.00000,   0.00000
536709646.41172,217243369.15801,-12478748.62388,   0.00397,   0.00100,  -0.00294,468002752.00000,   0.00248,277308928.00000,   0.00196,   0.00106,  -0.00278,-9306176.00000,   0.00000
536184600.18483,215510970.25478,-11748249.52559,   0.00398,   0.00099,  -0.00294,467656448.00000,   0.00248,277308928.00000,   0.00196,   0.00106,  -0.00278,-9652480.00000,   0.00000
535641798.77152,213770961.98593,-11007604.60649,   0.00398,   0.00099,  -0.00293,467302688.00000,   0.00248,277308928.00000,   0.00196,   0.00106,  -0.00278,-10006240.00000,   0.00000
535081242.17179,212023344.35148,-10266959.68739,   0.00398,   0.00098,  -0.00292,466942560.00000,   0.00248,277308928.00000,   0.00196,   0.00106,  -0.00278,-10366368.00000,   0.00000
534495321.02003,210250362.16501,-9526314.76829,   0.00398,   0.00097,  -0.00291,466570880.00000,   0.00248,277308928.00000,   0.00196,   0.00106,  -0.00278,-10738048.00000,   0.00000
533917009.23389,208495135.16495,-8780596.93878,   0.00398,   0.00097,  -0.00290,466212704.00000,   0.00248,277308928.00000,   0.00196,   0.00106,  -0.00278,-11096224.00000,   0.00000
533313332.89572,206714543.61287,-8029806.19887,   0.00398,   0.00096,  -0.00289,465843008.00000,   0.00248,277308928.00000,   0.00196,   0.00106,  -0.00278,-11465920.00000,   0.00000
532684292.00552,204908587.50876,-7279015.45896,   0.00398,   0.00095,  -0.00288,465462048.00000,   0.00248,277308928.00000,   0.00196,   0.00106,  -0.00278,-11846880.00000,   0.00000
532062860.48093,203120386.59107,-6523151.80865,   0.00398,   0.00095,  -0.00287,465094368.00000,   0.00248,277308928.00000,   0.00196,   0.00106,  -0.00278,-12214560.00000,   0.00000
531416064.40432,201306821.12136,-5762215.24793,   0.00398,   0.00094,  -0.00286,464715680.00000,   0.00248,277308928.00000,   0.00196,   0.00106,  -0.00278,-12593248.00000,   0.00000
530751513.14130,199485646.28604,-5001278.68721,   0.00398,   0.00093,  -0.00285,464330464.00000,   0.00248,277308928.00000,   0.00196,   0.00106,  -0.00278,-12978464.00000,   0.00000
530079352.51266,197646716.26430,-4235269.21609,   0.00398,   0.00092,  -0.00284,463949728.00000,   0.00248,277308928.00000,   0.00196,   0.00106,  -0.00278,-13359200.00000,   0.00000
529379290.87680,195810322.69776,-3469259.74496,   0.00398,   0.00092,  -0.00283,463551904.00000,   0.00248,277308928.00000,   0.00196,   0.00106,  -0.00278,-13757024.00000,   0.00000
528671619.87533,193956173.94481,-2698177.36344,   0.00398,   0.00091,  -0.00282,463158560.00000,   0.00248,277308928.00000,   0.00196,   0.00106,  -0.00278,-14150368.00000,   0.00000
527946193.68744,192094415.82625,-1927094.98191,   0.00398,   0.00090,  -0.00281,462759168.00000,   0.00248,277308928.00000,   0.00196,   0.00106,  -0.00278,-14549760.00000,   0.00000
527213158.13395,190214902.52128,-1150939.68997,   0.00398,   0.00090,  -0.00280,462364480.00000,   0.00248,277308928.00000,   0.00196,   0.00106,  -0.00278,-14944448.00000,   0.00000
526469976.75965,188345535.03711,-369711.48764,   0.00398,   0.00089,  -0.00279,461967840.00000,   0.00248,277308928.00000,   0.00196,   0.00106,  -0.00278,-15341088.00000,   0.00000
525701430.83332,186450803.00092,411516.71470,   0.00398,   0.00088,  -0.00278,461560640.00000,   0.00248,277308928.00000,   0.00196,   0.00106,  -0.00278,-15748288.00000,   0.00000
524915129.72058,184548461.59912,1197817.82744,   0.00398,   0.00087,  -0.00277,461147264.00000,   0.00248,277308928.00000,   0.00196,   0.00106,  -0.00278,-16161664.00000,   0.00000
524128828.60784,182646120.19733,1989191.85059,   0.00398,   0.00087,  -0.00276,460742688.00000,   0.00248,277308928.00000,   0.00196,   0.00106,  -0.00278,-16566240.00000,   0.00000
523317162.94307,180718414.24351,2780565.87374,   0.00398,   0.00086,  -0.00275,460327808.00000,   0.00248,277308928.00000,   0.00196,   0.00106,  -0.00278,-16981120.00000,   0.00000
522505497.27830,178790708.28968,3571939.89689,   0.00398,   0.00085,  -0.00274,459921952.00000,   0.00248,277308928.00000,   0.00196,   0.00106,  -0.00278,-17386976.00000,   0.00000
521658321.24070,176847783.60465,4373459.74085,   0.00398,   0.00085,  -0.00273,459494624.00000,   0.00248,277308928.00000,   0.00196,   0.00106,  -0.00278,-17814304.00000,   0.00000
520811145.20310,174904858.91961,5169906.67440,   0.00398,   0.00084,  -0.00272,459076224.00000,   0.00248,277308928.00000,   0.00196,   0.00106,  -0.00278,-18232704.00000,   0.00000
519946213.97909,172954324.86897,5976499.42876,   0.00398,   0.00083,  -0.00270,458652000.00000,   0.00248,277308928.00000,   0.00196,   0.00106,  -0.00278,-18656928.00000,   0.00000
519073673.38946,170986035.63191,6783092.18312,   0.00398,   0.00082,  -0.00269,458233376.00000,   0.00248,277308928.00000,   0.00196,   0.00106,  -0.00278,-19075552.00000,   0.00000
518183377.61342,169010137.02924,7589684.93748,   0.00398,   0.00082,  -0.00268,457809056.00000,   0.00248,277308928.00000,   0.00196,   0.00106,  -0.00278,-19499872.00000,   0.00000
517275326.65096,167026629.06097,8401350.60225,   0.00398,   0.00081,  -0.00267,457379360.00000,   0.00248,277308928.00000,   0.00196,   0.00106,  -0.00278,-19929568.00000,   0.00000
516341911.13648,165017756.54067,9218089.17742,   0.00398,   0.00080,  -0.00266,456941152.00000,   0.00248,277308928.00000,   0.00196,   0.00106,  -0.00278,-20367776.00000,   0.00000
515416104.98761,163026639.20679,10034827.75259,   0.00398,   0.00080,  -0.00265,456516992.00000,   0.00248,277308928.00000,   0.00196,   0.00106,  -0.00278,-20791936.00000,   0.00000
514464934.28671,161010157.32089,10851566.32777,   0.00398,   0.00079,  -0.00264,456084320.00000,   0.00248,277308928.00000,   0.00196,   0.00106,  -0.00278,-21224608.00000,   0.00000
513496008.39939,158986066.06937,11678450.72375,   0.00398,   0.00078,  -0.00263,455647648.00000,   0.00248,277308928.00000,   0.00196,   0.00106,  -0.00278,-21661280.00000,   0.00000
512527082.51208,156961974.81786,12505335.11973,   0.00398,   0.00077,  -0.00262,455221856.00000,   0.00248,277308928.00000,   0.00196,   0.00106,  -0.00278,-22087072.00000,   0.00000
511540401.43834,154930274.20074,13332219.51571,   0.00398,   0.00077,  -0.00261,454791648.00000,   0.00248,277308928.00000,   0.00196,   0.00106,  -0.00278,-22517280.00000,   0.00000
510546110.99901,152880818.39720,14164176.82210,   0.00398,   0.00076,  -0.00260,454370080.00000,   0.00248,277308928.00000,   0.00196,   0.00106,  -0.00278,-22938848.00000,   0.00000
509516310.18683,150816143.86245,14996134.12848,   0.00398,   0.00075,  -0.00259,453929984.00000,   0.00248,277308928.00000,   0.00196,   0.00106,  -0.00278,-23378944.00000,   0.00000
508486509.37466,148751469.32770,15833164.34527,   0.00398,   0.00074,  -0.00258,453503104.00000,   0.00248,277308928.00000,   0.00196,   0.00106,  -0.00278,-23805824.00000,   0.00000
507456708.56249,146686794.79295,16675267.47247,   0.00398,   0.00074,  -0.00257,453090816.00000,   0.00248,277308928.00000,   0.00196,   0.00106,  -0.00278,-24218112.00000,   0.00000
506409152.56390,144614510.89259,17517370.59966,   0.00398,   0.00073,  -0.00255,452677536.00000,   0.00248,277308928.00000,   0.00196,   0.00106,  -0.00278,-24631392.00000,   0.00000
505336232.01328,142516862.44021,18364546.63726,   0.00398,   0.00072,  -0.00254,452261856.00000,   0.00248,277308928.00000,   0.00196,   0.00106,  -0.00278,-25047072.00000,   0.00000
504253165.64186,140429359.80864,19211722.67486,   0.00398,   0.00071,  -0.00253,451848320.00000,   0.00248,277308928.00000,   0.00196,   0.00106,  -0.00278,-25460608.00000,   0.00000
503162489.90483,138324101.99065,20063971.62287,   0.00398,   0.00071,  -0.00252,451447136.00000,   0.00248,277308928.00000,   0.00196,   0.00106,  -0.00278,-25861792.00000,   0.00000
502054058.98138,136211234.80706,20916220.57087,   0.00397,   0.00070,  -0.00251,451044096.00000,   0.00248,277308928.00000,   0.00196,   0.00106,  -0.00278,-26264832.00000,   0.00000
500945628.05793,134098367.62346,21773542.42928,   0.00397,   0.00069,  -0.00250,450655008.00000,   0.00248,277308928.00000,   0.00196,   0.00106,  -0.00278,-26653920.00000,   0.00000
499794077.39605,131952526.52223,22630864.28769,   0.00397,   0.00068,  -0.00249,450246112.00000,   0.00248,277308928.00000,   0.00196,   0.00106,  -0.00278,-27062816.00000,   0.00000
498667891.28618,129832049.97303,23493259.05651,   0.00397,   0.00068,  -0.00248,449868096.00000,   0.00248,277308928.00000,   0.00196,   0.00106,  -0.00278,-27440832.00000,   0.00000
497498585.43788,127678599.50619,24360726.73573,   0.00397,   0.00067,  -0.00247,449471008.00000,   0.00248,277308928.00000,   0.00196,   0.00106,  -0.00278,-27837920.00000,   0.00000
496329279.58957,125525149.03936,25223121.50454,   0.00397,   0.00066,  -0.00245,449085376.00000,   0.00248,277308928.00000,   0.00196,   0.00106,  -0.00278,-28223552.00000,   0.00000
495159973.74127,123371698.57252,26095662.09417,   0.00397,   0.00065,  -0.00244,448713920.00000,   0.00248,277308928.00000,   0.00196,   0.00106,  -0.00278,-28595008.00000,   0.00000
493955157.52013,121203029.37448,26968202.68379,   0.00397,   0.00065,  -0.00243,448324384.00000,   0.00248,277308928.00000,   0.00196,   0.00106,  -0.00278,-28984544.00000,   0.00000
492750341.29899,119034360.17643,27840743.27342,   0.00397,   0.00064,  -0.00242,447946432.00000,   0.00248,277308928.00000,   0.00196,   0.00106,  -0.00278,-29362496.00000,   0.00000
491537915.71225,116847935.79196,28718356.77345,   0.00396,   0.00063,  -0.00241,447577952.00000,   0.00248,277308928.00000,   0.00196,   0.00106,  -0.00278,-29730976.00000,   0.00000
490315344.30469,114671657.22830,29601043.18388,   0.00396,   0.00062,  -0.00240,447208320.00000,   0.00248,277308928.00000,   0.00196,   0.00106,  -0.00278,-30100608.00000,   0.00000
489067408.34511,112470014.11262,30483729.59431,   0.00396,   0.00062,  -0.00239,446831840.00000,   0.00248,277308928.00000,   0.00196,   0.00106,  -0.00278,-30477088.00000,   0.00000
487819472.38553,110268370.99694,31366416.00475,   0.00396,   0.00061,  -0.00237,446465024.00000,   0.00248,277308928.00000,   0.00196,   0.00106,  -0.00278,-30843904.00000,   0.00000
486553781.23954,108059118.51566,32254175.32559,   0.00396,   0.00060,  -0.00236,446094944.00000,   0.00248,277308928.00000,   0.00196,   0.00106,  -0.00278,-31213984.00000,   0.00000
485270334.90712,105842256.66876,33147007.55683,   0.00396,   0.00059,  -0.00235,445722080.00000,   0.00248,277308928.00000,   0.00196,   0.00106,  -0.00278,-31586848.00000,   0.00000
483986888.57471,103625394.82187,34039839.78807,   0.00396,   0.00059,  -0.00234,445361216.00000,   0.00248,277308928.00000,   0.00196,   0.00106,  -0.00278,-31947712.00000,   0.00000
482703442.24230,101408532.97497,34937744.92972,   0.00395,   0.00058,  -0.00233,445014464.00000,   0.00248,277308928.00000,   0.00196,   0.00106,  -0.00278,-32294464.00000,   0.00000
481376876.17145,99158697.21045,35835650.07137,   0.00395,   0.00057,  -0.00232,444650688.00000,   0.00248,277308928.00000,   0.00196,   0.00106,  -0.00278,-32658240.00000,   0.00000
480075674.65262,96934225.99795,36733555.21302,   0.00395,   0.00056,  -0.00230,444318752.00000,   0.00248,277308928.00000,   0.00196,   0.00106,  -0.00278,-32990176.00000,   0.00000
478731353.39535,94676780.86781,37636533.26507,   0.00395,   0.00056,  -0.00229,443972384.00000,   0.00248,277308928.00000,   0.00196,   0.00106,  -0.00278,-33336544.00000,   0.00000
477387032.13808,92419335.73768,38544584.22753,   0.00395,   0.00055,  -0.00228,443643360.00000,   0.00248,277308928.00000,   0.00196,   0.00106,  -0.00278,-33665568.00000,   0.00000
476042710.88081,90161890.60755,39452635.18999,   0.00395,   0.00054,  -0.00227,443329920.00000,   0.00248,277308928.00000,   0.00196,   0.00106,  -0.00278,-33979008.00000,   0.00000
474680634.43712,87896836.11181,40360686.15245,   0.00394,   0.00053,  -0.00226,443016896.00000,   0.00248,277308928.00000,   0.00196,   0.00106,  -0.00278,-34292032.00000,   0.00000
473300802.80702,85624172.25046,41273810.02531,   0.00394,   0.00053,  -0.00225,442704736.00000,   0.00248,277308928.00000,   0.00196,   0.00106,  -0.00278,-34604192.00000,   0.00000
471920971.17691,83351508.38911,42186933.89817,   0.00394,   0.00052,  -0.00223,442405792.00000,   0.00248,277308928.00000,   0.00196,   0.00106,  -0.00278,-34903136.00000,   0.00000
470523384.36039,81071235.16216,43105130.68144,   0.00394,   0.00051,  -0.00222,442105664.00000,   0.00248,277308928.00000,   0.00196,   0.00106,  -0.00278,-35203264.00000,   0.00000
469118188.17826,78773206.74879,44028400.37511,   0.00394,   0.00050,  -0.00221,441817600.00000,   0.00248,277308928.00000,   0.00196,   0.00106,  -0.00278,-35491328.00000,   0.00000
467702846.17533,76485324.15623,44951670.06878,   0.00394,   0.00049,  -0.00220,441526848.00000,   0.00248,277308928.00000,   0.00196,   0.00106,  -0.00278,-35782080.00000,   0.00000
466279894.80678,74179686.37725,45874939.76246,   0.00393,   0.00049,  -0.00219,441245312.00000,   0.00248,277308928.00000,   0.00196,   0.00106,  -0.00278,-36063616.00000,   0.00000
464846797.61743,71884194.41908,46803282.36653,   0.00393,   0.00048,  -0.00217,440962432.00000,   0.00248,277308928.00000,   0.00196,   0.00106,  -0.00278,-36346496.00000,   0.00000
463406091.06247,69570947.27449,47731624.97061,   0.00393,   0.00047,  -0.00216,440688960.00000,   0.00248,277308928.00000,   0.00196,   0.00106,  -0.00278,-36619968.00000,   0.00000
461947629.32109,67250090.76430,48665040.48509,   0.00393,   0.00046,  -0.00215,440413888.00000,   0.00248,277308928.00000,   0.00196,   0.00106,  -0.00278,-36895040.00000,   0.00000
460489167.57971,64929234.25411,49598455.99957,   0.00392,   0.00046,  -0.00214,440150880.00000,   0.00248,277308928.00000,   0.00196,   0.00106,  -0.00278,-37158048.00000,   0.00000
459012950.65192,62600768.37831,50531871.51406,   0.00392,   0.00045,  -0.00213,439886048.00000,   0.00248,277308928.00000,   0.00196,   0.00106,  -0.00278,-37422880.00000,   0.00000
457518978.53771,60264693.13690,51470359.93894,   0.00392,   0.00044,  -0.00211,439622176.00000,   0.00248,277308928.00000,   0.00196,   0.00106,  -0.00278,-37686752.00000,   0.00000
456042761.60991,57936227.26110,52413921.27423,   0.00392,   0.00043,  -0.00210,439389024.00000,   0.00248,277308928.00000,   0.00196,   0.00106,  -0.00278,-37919904.00000,   0.00000
454531034.30928,55592542.65409,53357482.60953,   0.00392,   0.00043,  -0.00209,439142688.00000,   0.00248,277308928.00000,   0.00196,   0.00106,  -0.00278,-38166240.00000,   0.00000
453019307.00865,53248858.04707,54301043.94482,   0.00391,   0.00042,  -0.00208,438912608.00000,   0.00248,277308928.00000,   0.00196,   0.00106,  -0.00278,-38396320.00000,   0.00000
451507579.70803,50905173.44006,55249678.19051,   0.00391,   0.00041,  -0.00206,438701312.00000,   0.00248,277308928.00000,   0.00196,   0.00106,  -0.00278,-38607616.00000,   0.00000
449978097.22098,48553879.46744,56198312.43621,   0.00391,   0.00040,  -0.00205,438493216.00000,   0.00248,277308928.00000,   0.00196,   0.00106,  -0.00278,-38815712.00000,   0.00000
448448614.73394,46202585.49482,57152019.59231,   0.00391,   0.00039,  -0.00204,438304704.00000,   0.00248,277308928.00000,   0.00196,   0.00106,  -0.00278,-39004224.00000,   0.00000
446911522.88128,43833536.33578,58105726.74841,   0.00390,   0.00039,  -0.00203,438134464.00000,   0.00248,277308928.00000,   0.00196,   0.00106,  -0.00278,-39174464.00000,   0.00000
445346530.02140,41467023.63194,59059433.90451,   0.00390,   0.00038,  -0.00201,437954752.00000,   0.00248,277308928.00000,   0.00196,   0.00106,  -0.00278,-39354176.00000,   0.00000
443799292.34794,39108120.29371,60018213.97102,   0.00390,   0.00037,  -0.00200,437810272.00000,   0.00248,277308928.00000,   0.00196,   0.00106,  -0.00278,-39498656.00000,   0.00000
442234299.48806,36741607.58988,60982066.94793,   0.00390,   0.00036,  -0.00199,437673088.00000,   0.00248,277308928.00000,   0.00196,   0.00106,  -0.00278,-39635840.00000,   0.00000
440643942.07616,34349730.33402,61945919.92484,   0.00389,   0.00036,  -0.00198,437541536.00000,   0.00248,277308928.00000,   0.00196,   0.00106,  -0.00278,-39767392.00000,   0.00000
439078949.21628,31983217.63018,62909772.90175,   0.00389,   0.00035,  -0.00196,437443744.00000,   0.00248,277308928.00000,   0.00196,   0.00106,  -0.00278,-39865184.00000,   0.00000
437470836.61796,29583731.00871,63873625.87866,   0.00389,   0.00034,  -0.00195,437338016.00000,   0.00248,277308928.00000,   0.00196,   0.00106,  -0.00278,-39970912.00000,   0.00000
435888088.57167,27209608.93927,64842551.76598,   0.00389,   0.00033,  -0.00194,437267904.00000,   0.00248,277308928.00000,   0.00196,   0.00106,  -0.00278,-40041024.00000,   0.00000
434287585.33896,24827877.50422,65816550.56370,   0.00388,   0.00032,  -0.00193,437205568.00000,   0.00248,277308928.00000,   0.00196,   0.00106,  -0.00278,-40103360.00000,   0.00000
432661717.55422,22420781.51715,66790549.36142,   0.00388,   0.00032,  -0.00191,437149312.00000,   0.00248,277308928.00000,   0.00196,   0.00106,  -0.00278,-40159616.00000,   0.00000
431043459.13509,20031440.71649,67764548.15914,   0.00388,   0.00031,  -0.00190,437110880.00000,   0.00248,277308928.00000,   0.00196,   0.00106,  -0.00278,-40198048.00000,   0.00000
429425200.71596,17642099.91583,68738546.95686,   0.00388,   0.00030,  -0.00189,437090528.00000,   0.00248,277308928.00000,   0.00196,   0.00106,  -0.00278,-40218400.00000,   0.00000
427781577.74481,15227394.56315,69717618.66498,   0.00387,   0.00029,  -0.00188,437076928.00000,   0.00248,277308928.00000,   0.00196,   0.00106,  -0.00278,-40232000.00000,   0.00000
426145564.13926,12830444.39689,70701763.28351,   0.00387,   0.00029,  -0.00186,437081632.00000,   0.00248,277308928.00000,   0.00196,   0.00106,  -0.00278,-40227296.00000,   0.00000
424509550.53372,10433494.23062,71685907.90204,   0.00387,   0.00028,  -0.00185,437102080.00000,   0.00248,277308928.00000,   0.00196,   0.00106,  -0.00278,-40206848.00000,   0.00000
422855781.74176,8028934.69875,72670052.52057,   0.00386,   0.00027,  -0.00184,437124352.00000,   0.00248,277308928.00000,   0.00196,   0.00106,  -0.00278,-40184576.00000,   0.00000
421194403.58419,5606619.98046,73654197.13910,   0.00386,   0.00026,  -0.00182,437162816.00000,   0.00248,277308928.00000,   0.00196,   0.00106,  -0.00278,-40146112.00000,   0.00000
419522879.60581,3194451.08298,74643414.66804,   0.00386,   0.00026,  -0.00181,437204032.00000,   0.00248,277308928.00000,   0.00196,   0.00106,  -0.00278,-40104896.00000,   0.00000
417851355.62743,782282.18550,75637705.10738,   0.00386,   0.00025,  -0.00180,437262400.00000,   0.00248,277308928.00000,   0.00196,   0.00106,  -0.00278,-40046528.00000,   0.00000
416179831.64905,-1629886.71198,76626922.63631,   0.00385,   0.00024,  -0.00179,437333152.00000,   0.00248,277308928.00000,   0.00196,   0.00106,  -0.00278,-39975776.00000,   0.00000
414490552.48425,-4049664.97506,77621213.07565,   0.00385,   0.00023,  -0.00177,437408352.00000,   0.00248,277308928.00000,   0.00196,   0.00106,  -0.00278,-39900576.00000,   0.00000
412801273.31946,-6469443.23815,78620576.42539,   0.00385,   0.00022,  -0.00176,437502208.00000,   0.00248,277308928.00000,   0.00196,   0.00106,  -0.00278,-39806720.00000,   0.00000
411111994.15466,-8889221.50124,79614866.86473,   0.00384,   0.00022,  -0.00175,437609792.00000,   0.00248,277308928.00000,   0.00196,   0.00106,  -0.00278,-39699136.00000,   0.00000
409422714.98986,-11308999.76432,80614230.21448,   0.00384,   0.00021,  -0.00173,437737600.00000,   0.00248,277308928.00000,   0.00196,   0.00106,  -0.00278,-39571328.00000,   0.00000
407715680.63865,-13736387.39302,81618666.47463,   0.00384,   0.00020,  -0.00172,437872992.00000,   0.00248,277308928.00000,   0.00196,   0.00106,  -0.00278,-39435936.00000,   0.00000
406008646.28744,-16163775.02171,82623102.73478,   0.00384,   0.00019,  -0.00171,438027872.00000,   0.00248,277308928.00000,   0.00196,   0.00106,  -0.00278,-39281056.00000,   0.00000
404291466.11542,-18581016.82959,83627538.99492,   0.00383,   0.00019,  -0.00170,438187744.00000,   0.00248,277308928.00000,   0.00196,   0.00106,  -0.00278,-39121184.00000,   0.00000
402566676.57779,-21016013.82389,84631975.25507,   0.00383,   0.00018,  -0.00168,438370016.00000,   0.00248,277308928.00000,   0.00196,   0.00106,  -0.00278,-38938912.00000,   0.00000
400849496.40576,-23433255.63178,85641484.42563,   0.00383,   0.00017,  -0.00167,438574432.00000,   0.00248,277308928.00000,   0.00196,   0.00106,  -0.00278,-38734496.00000,   0.00000
399124706.86813,-25868252.62608,86650993.59618,   0.00382,   0.00016,  -0.00166,438802336.00000,   0.00248,277308928.00000,   0.00196,   0.00106,  -0.00278,-38506592.00000,   0.00000
397389771.50969,-28293103.79957,87665575.67714,   0.00382,   0.00016,  -0.00164,439040288.00000,   0.00248,277308928.00000,   0.00196,   0.00106,  -0.00278,-38268640.00000,   0.00000
395654836.15126,-30717954.97306,88680157.75810,   0.00382,   0.00015,  -0.00163,439300320.00000,   0.00248,277308928.00000,   0.00196,   0.00106,  -0.00278,-38008608.00000,   0.00000
393912291.42721,-33160561.33297,89694739.83906,   0.00381,   0.00014,  -0.00162,439584512.00000,   0.00248,277308928.00000,   0.00196,   0.00106,  -0.00278,-37724416.00000,   0.00000
392177356.06877,-35585412.50646,90709321.92002,   0.00381,   0.00013,  -0.00160,439888384.00000,   0.00248,277308928.00000,   0.00196,   0.00106,  -0.00278,-37420544.00000,   0.00000
390424665.52391,-38017873.04556,91728976.91138,   0.00381,   0.00012,  -0.00159,440204416.00000,   0.00248,277308928.00000,   0.00196,   0.00106,  -0.00278,-37104512.00000,   0.00000
388679584.34467,-40432578.39824,92748631.90274,   0.00380,   0.00012,  -0.00158,440539232.00000,   0.00248,277308928.00000,   0.00196,   0.00106,  -0.00278,-36769696.00000,   0.00000
386926893.79981,-42865038.93734,93773359.80451,   0.00380,   0.00011,  -0.00156,440900320.00000,   0.00248,277308928.00000,   0.00196,   0.00106,  -0.00278,-36408608.00000,   0.00000
385174203.25495,-45297499.47643,94793014.79587,   0.00380,   0.00010,  -0.00155,441278016.00000,   0.00248,277308928.00000,   0.00196,   0.00106,  -0.00278,-36030912.00000,   0.00000
383411366.88929,-47719814.19472,95817742.69764,   0.00379,   0.00009,  -0.00154,441662816.00000,   0.00248,277308928.00000,   0.00196,   0.00106,  -0.00278,-35646112.00000,   0.00000
381666285.71004,-50134519.54740,96847543.50981,   0.00379,   0.00009,  -0.00152,442080256.00000,   0.00248,277308928.00000,   0.00196,   0.00106,  -0.00278,-35228672.00000,   0.00000
379895839.97877,-52574589.45211,97872271.41158,   0.00379,   0.00008,  -0.00151,442500000.00000,   0.00248,277308928.00000,   0.00196,   0.00106,  -0.00278,-34808928.00000,   0.00000
378133003.61310,-54996904.17040,98902072.22376,   0.00378,   0.00007,  -0.00150,442931520.00000,   0.00248,277308928.00000,   0.00196,   0.00106,  -0.00278,-34377408.00000,   0.00000
376352412.06102,-57426828.25429,99931873.03593,   0.00378,   0.00006,  -0.00148,443358272.00000,   0.00248,277308928.00000,   0.00196,   0.00106,  -0.00278,-33950656.00000,   0.00000
374597185.06096,-59831387.78617,100966746.75851,   0.00378,   0.00006,  -0.00147,443801824.00000,   0.00248,277308928.00000,   0.00196,   0.00106,  -0.00278,-33507104.00000,   0.00000
372816593.50888,-62261311.87006,102001620.48108,   0.00377,   0.00005,  -0.00146,444242496.00000,   0.00248,277308928.00000,   0.00196,   0.00106,  -0.00278,-33066432.00000,   0.00000
371043611.32240,-64673480.76754,103036494.20366,   0.00377,   0.00004,  -0.00144,444697728.00000,   0.00248,277308928.00000,   0.00196,   0.00106,  -0.00278,-32611200.00000,   0.00000
369263019.77032,-67103404.85144,104071367.92624,   0.00377,   0.00003,  -0.00143,445179392.00000,   0.00248,277308928.00000,   0.00196,   0.00106,  -0.00278,-32129536.00000,   0.00000
367490037.58385,-69515573.74892,105111314.55922,   0.00376,   0.00003,  -0.00142,445668000.00000,   0.00248,277308928.00000,   0.00196,   0.00106,  -0.00278,-31640928.00000,   0.00000
365699300.21095,-71935352.01200,106151261.19220,   0.00376,   0.00002,  -0.00140,446139904.00000,   0.00248,277308928.00000,   0.00196,   0.00106,  -0.00278,-31169024.00000,   0.00000
363933927.39009,-74329765.72306,107191207.82519,   0.00376,   0.00001,  -0.00139,446632768.00000,   0.00248,277308928.00000,   0.00196,   0.00106,  -0.00278,-30676160.00000,   0.00000
362143190.01719,-76749543.98615,108231154.45817,   0.00375,   0.00000,  -0.00138,447146784.00000,   0.00248,277308928.00000,   0.00196,   0.00106,  -0.00278,-30162144.00000,   0.00000
360360062.00991,-79151567.06282,109276174.00156,   0.00375,  -0.00000,  -0.00136,447693280.00000,   0.00248,277308928.00000,   0.00196,   0.00106,  -0.00278,-29615648.00000,   0.00000
358587079.82343,-81563735.96030,110321193.54494,   0.00375,  -0.00001,  -0.00135,448281600.00000,   0.00248,277308928.00000,   0.00196,   0.00106,  -0.00278,-29027328.00000,   0.00000
356803951.81615,-83965759.03697,111366213.08833,   0.00374,  -0.00002,  -0.00133,448876384.00000,   0.00248,277308928.00000,   0.00196,   0.00106,  -0.00278,-28432544.00000,   0.00000
355010677.98806,-86357636.29283,112411232.63172,   0.00374,  -0.00003,  -0.00132,449473504.00000,   0.00248,277308928.00000,   0.00196,   0.00106,  -0.00278,-27835424.00000,   0.00000
353227549.98077,-88759659.36950,113461325.08551,   0.00374,  -0.00003,  -0.00131,450100896.00000,   0.00248,277308928.00000,   0.00196,   0.00106,  -0.00278,-27208032.00000,   0.00000
351452031.33909,-91143927.25975,114511417.53930,   0.00373,  -0.00004,  -0.00129,450728032.00000,   0.00248,277308928.00000,   0.00196,   0.00106,  -0.00278,-26580896.00000,   0.00000
349651148.14539,-93553559.70203,115561509.99310,   0.00373,  -0.00005,  -0.00128,451344608.00000,   0.00248,277308928.00000,   0.00196,   0.00106,  -0.00278,-25964320.00000,   0.00000
347875629.50371,-95937827.59228,116611602.44689,   0.00373,  -0.00006,  -0.00127,451967456.00000,   0.00248,277308928.00000,   0.00196,   0.00106,  -0.00278,-25341472.00000,   0.00000
346089965.04123,-98311949.66172,117666767.81108,   0.00372,  -0.00006,  -0.00125,452588544.00000,   0.00248,277308928.00000,   0.00196,   0.00106,  -0.00278,-24720384.00000,   0.00000
344314446.39955,-100696217.55197,118721933.17528,   0.00372,  -0.00007,  -0.00124,453246560.00000,   0.00248,277308928.00000,   0.00196,   0.00106,  -0.00278,-24062368.00000,   0.00000
342528781.93706,-103070339.62142,119777098.53948,   0.00372,  -0.00008,  -0.00123,453918080.00000,   0.00248,277308928.00000,   0.00196,   0.00106,  -0.00278,-23390848.00000,   0.00000
340743117.47458,-105444461.69086,120832263.90368,   0.00371,  -0.00009,  -0.00121,454619200.00000,   0.00248,277308928.00000,   0.00196,   0.00106,  -0.00278,-22689728.00000,   0.00000
338975208.19850,-107810974.39470,121892502.17828,   0.00371,  -0.00009,  -0.00120,455362592.00000,   0.00248,277308928.00000,   0.00196,   0.00106,  -0.00278,-21946336.00000,   0.00000
337189543.73602,-110185096.46414,122947667.54247,   0.00371,  -0.00010,  -0.00118,456116704.00000,   0.00248,277308928.00000,   0.00196,   0.00106,  -0.00278,-21192224.00000,   0.00000
335411488.63914,-112541463.34717,124007905.81708,   0.00370,  -0.00011,  -0.00117,456893984.00000,   0.00248,277308928.00000,   0.00196,   0.00106,  -0.00278,-20414944.00000,   0.00000
333633433.54226,-114897830.23019,125068144.09168,   0.00370,  -0.00011,  -0.00116,457692480.00000,   0.00248,277308928.00000,   0.00196,   0.00106,  -0.00278,-19616448.00000,   0.00000
331855378.44538,-117254197.11322,126128382.36628,   0.00369,  -0.00012,  -0.00114,458510528.00000,   0.00248,277308928.00000,   0.00196,   0.00106,  -0.00278,-18798400.00000,   0.00000
330084932.71411,-119592808.80983,127193693.55129,   0.00369,  -0.00013,  -0.00113,459345856.00000,   0.00248,277308928.00000,   0.00196,   0.00106,  -0.00278,-17963072.00000,   0.00000
328314486.98283,-121931420.50644,128259004.73629,   0.00369,  -0.00014,  -0.00111,460197312.00000,   0.00248,277308928.00000,   0.00196,   0.00106,  -0.00278,-17111616.00000,   0.00000
326544041.25156,-124270032.20305,129319243.01089,   0.00368,  -0.00014,  -0.00110,461059136.00000,   0.00248,277308928.00000,   0.00196,   0.00106,  -0.00278,-16249792.00000,   0.00000
324791350.70670,-126601034.53405,130384554.19590,   0.00368,  -0.00015,  -0.00109,461948896.00000,   0.00248,277308928.00000,   0.00196,   0.00106,  -0.00278,-15360032.00000,   0.00000
323028514.34104,-128921891.04424,131454938.29131,   0.00368,  -0.00016,  -0.00107,462840608.00000,   0.00248,277308928.00000,   0.00196,   0.00106,  -0.00278,-14468320.00000,   0.00000
321265677.97537,-131242747.55444,132520249.47632,   0.00367,  -0.00016,  -0.00106,463740352.00000,   0.00248,277308928.00000,   0.00196,   0.00106,  -0.00278,-13568576.00000,   0.00000
319502841.60971,-133563604.06463,133590633.57173,   0.00367,  -0.00017,  -0.00105,464656704.00000,   0.00248,277308928.00000,   0.00196,   0.00106,  -0.00278,-12652224.00000,   0.00000
317740005.24404,-135884460.57482,134655944.75674,   0.00367,  -0.00018,  -0.00103,465581504.00000,   0.00248,277308928.00000,   0.00196,   0.00106,  -0.00278,-11727424.00000,   0.00000
315984778.24398,-138187561.89860,135726328.85215,   0.00366,  -0.00019,  -0.00102,466518976.00000,   0.00248,277308928.00000,   0.00196,   0.00106,  -0.00278,-10789952.00000,   0.00000
314247306.43034,-140483053.85677,136796712.94756,   0.00366,  -0.00019,  -0.00100,467480512.00000,   0.00248,277308928.00000,   0.00196,   0.00106,  -0.00278,-9828416.00000,   0.00000
312499688.79589,-142768399.99412,137867097.04297,   0.00366,  -0.00020,  -0.00099,468441920.00000,   0.00248,277308928.00000,   0.00196,   0.00106,  -0.00278,-8867008.00000,   0.00000
310762216.98225,-145063891.95229,138942554.04879,   0.00365,  -0.00021,  -0.00098,469438208.00000,   0.00248,277308928.00000,   0.00196,   0.00106,  -0.00278,-7870720.00000,   0.00000
309014599.34780,-147349238.08965,140012938.14420,   0.00365,  -0.00021,  -0.00096,470431456.00000,   0.00248,277308928.00000,   0.00196,   0.00106,  -0.00278,-6877472.00000,   0.00000
307292346.26537,-149609219.67499,141088395.15001,   0.00365,  -0.00022,  -0.00095,471449568.00000,   0.00248,277308928.00000,   0.00196,   0.00106,  -0.00278,-5859360.00000,   0.00000
305552337.99653,-151876810.62593,142163852.15583,   0.00364,  -0.00023,  -0.00093,472474048.00000,   0.00248,277308928.00000,   0.00196,   0.00106,  -0.00278,-4834880.00000,   0.00000
303830084.91410,-154136792.21127,143234236.25124,   0.00364,  -0.00023,  -0.00092,473518272.00000,   0.00248,277308928.00000,   0.00196,   0.00106,  -0.00278,-3790656.00000,   0.00000
302107831.83167,-156396773.79660,144314766.16746,   0.00364,  -0.00024,  -0.00091,474585760.00000,   0.00248,277308928.00000,   0.00196,   0.00106,  -0.00278,-2723168.00000,   0.00000
300393188.11485,-158639000.19552,145390223.17328,   0.00363,  -0.00025,  -0.00089,475655840.00000,   0.00248,277308928.00000,   0.00196,   0.00106,  -0.00278,-1653088.00000,   0.00000
298678544.39803,-160881226.59444,146465680.17909,   0.00363,  -0.00026,  -0.00088,476737664.00000,   0.00248,277308928.00000,   0.00196,   0.00106,  -0.00278,-571264.00000,   0.00000
297794312.33521,-162041615.21742,147028614.70558,   0.00363,  -0.00026,  -0.00087,477309664.00000,   0.00248,277308928.00000,   0.00196,   0.00106,  -0.00278, 736.00000,   0.00000
296675761.32068,-162908142.78989,147379337.52389,   0.00363,  -0.00026,  -0.00086,477309664.00000,   0.00248,277311296.00000,   0.00196,   0.00106,  -0.00278,  96.00000,   2.00000
294302600.51535,-164748096.65428,148116509.93577,   0.00362,  -0.00027,  -0.00085,478416672.00000,   0.00248,277316352.00000,   0.00196,   0.00105,  -0.00278,  64.00000,   2.00000
291961293.73672,-166540917.68604,148849452.54605,   0.00362,  -0.00028,  -0.00084,478429632.00000,   0.00249,277321408.00000,   0.00197,   0.00105,  -0.00277, 192.00000,   2.00000
289596889.07575,-168356307.89741,149574635.68567,   0.00362,  -0.00028,  -0.00082,478437184.00000,   0.00249,277326464.00000,   0.00197,   0.00105,  -0.00277,-128.00000,   2.00000
287250857.47175,-170136532.31886,150297007.47283,   0.00361,  -0.00029,  -0.00081,478461376.00000,   0.00250,277331648.00000,   0.00197,   0.00104,  -0.00276,  64.00000,   2.00000
284913274.90569,-171892931.66572,151015334.16836,   0.00361,  -0.00030,  -0.00079,478473376.00000,   0.00250,277336832.00000,   0.00198,   0.00104,  -0.00276,  32.00000,   2.00000
282562421.70216,-173655923.83269,151725570.83945,   0.00361,  -0.00030,  -0.00078,478497472.00000,   0.00251,277342112.00000,   0.00198,   0.00104,  -0.00275,  64.00000,   2.00000
280230836.32090,-175377725.83594,152432803.30165,   0.00360,  -0.00031,  -0.00077,478505504.00000,   0.00251,277347424.00000,   0.00198,   0.00103,  -0.00275,  64.00000,   2.00000
277898764.62713,-177093980.18676,153128424.20747,   0.00360,  -0.00032,  -0.00075,478539680.00000,   0.00252,277352864.00000,   0.00199,   0.00103,  -0.00274, -32.00000,   2.00000
275572557.14165,-178782597.95749,153822376.58563,   0.00360,  -0.00032,  -0.00074,478558528.00000,   0.00252,277358368.00000,   0.00199,   0.00103,  -0.00274, 160.00000,   2.00000
273246899.89650,-180463510.58672,154505830.34730,   0.00359,  -0.00033,  -0.00072,478573184.00000,   0.00253,277363936.00000,   0.00200,   0.00102,  -0.00273,  32.00000,   2.00000
270927416.73774,-182118398.98937,155187987.55183,   0.00359,  -0.00034,  -0.00071,478590624.00000,   0.00253,277369536.00000,   0.00200,   0.00102,  -0.00273,  96.00000,   2.00000
268608705.27737,-183767930.31360,155860319.01598,   0.00359,  -0.00034,  -0.00070,478603040.00000,   0.00254,277375200.00000,   0.00200,   0.00102,  -0.00272,  96.00000,   2.00000
266296374.35708,-185394239.07364,156532233.24403,   0.00358,  -0.00035,  -0.00068,478617504.00000,   0.00255,277380896.00000,   0.00201,   0.00101,  -0.00272, -32.00000,   2.00000
263998496.49647,-187007552.46723,157192767.33968,   0.00358,  -0.00036,  -0.00067,478634592.00000,   0.00255,277386624.00000,   0.00201,   0.00101,  -0.00271,  32.00000,   2.00000
261707337.03577,-188600637.15088,157854019.35872,   0.00358,  -0.00036,  -0.00065,478645984.00000,   0.00256,277392416.00000,   0.00202,   0.00101,  -0.00271,   0.00000,   2.00000
259414980.87682,-190192144.17591,158511064.64300,   0.00357,  -0.00037,  -0.00064,478657088.00000,   0.00256,277398240.00000,   0.00202,   0.00100,  -0.00270, 192.00000,   2.00000
257134848.89694,-191772019.28853,159161375.05652,   0.00357,  -0.00037,  -0.00063,478675104.00000,   0.00257,277404096.00000,   0.00203,   0.00100,  -0.00269, 192.00000,   2.00000
254851157.26637,-193346594.41114,159812677.63159,   0.00357,  -0.00038,  -0.00061,478670816.00000,   0.00257,277409920.00000,   0.00203,   0.00100,  -0.00269,  64.00000,   2.00000
252582879.99436,-194911733.67730,160454046.77737,   0.00356,  -0.00039,  -0.00060,478683104.00000,   0.00258,277415808.00000,   0.00203,   0.00099,  -0.00268,   0.00000,   2.00000
250322160.28411,-196457942.59792,161096746.79038,   0.00356,  -0.00039,  -0.00058,478692352.00000,   0.00258,277421696.00000,   0.00204,   0.00099,  -0.00268, 160.00000,   2.00000
248074415.75026,-197990713.03710,161732052.26557,   0.00356,  -0.00040,  -0.00057,478711520.00000,   0.00259,277427648.00000,   0.00204,   0.00098,  -0.00267,  96.00000,   2.00000
245837316.14486,-199503823.97737,162364391.66376,   0.00355,  -0.00041,  -0.00055,478718208.00000,   0.00260,277433600.00000,   0.00205,   0.00098,  -0.00267, 128.00000,   2.00000
243600191.98713,-201010948.55145,162990904.38985,   0.00355,  -0.00041,  -0.00054,478732480.00000,   0.00260,277439616.00000,   0.00205,   0.00098,  -0.00266,  64.00000,   2.00000
241371409.98726,-202492637.26047,163616319.11965,   0.00355,  -0.00042,  -0.00053,478748128.00000,   0.00261,277445664.00000,   0.00205,   0.00097,  -0.00265, 160.00000,   2.00000
239159644.26191,-203955897.44254,164228588.70785,   0.00354,  -0.00042,  -0.00051,478768704.00000,   0.00261,277451808.00000,   0.00206,   0.00097,  -0.00265, 128.00000,   2.00000
236934904.57526,-205418015.44889,164835692.42158,   0.00354,  -0.00043,  -0.00050,478781184.00000,   0.00262,277457984.00000,   0.00206,   0.00097,  -0.00264, 192.00000,   2.00000
234750049.26536,-206830194.01290,165431352.52169,   0.00354,  -0.00044,  -0.00048,478811456.00000,   0.00262,277464256.00000,   0.00207,   0.00096,  -0.00263, 224.00000,   2.00000
232563717.21672,-208222959.84631,166023534.49778,   0.00354,  -0.00044,  -0.00047,478820768.00000,   0.00263,277470560.00000,   0.00207,   0.00096,  -0.00263, 160.00000,   2.00000
230393608.58813,-209589298.92969,166604401.17276,   0.00353,  -0.00045,  -0.00046,478851552.00000,   0.00264,277476992.00000,   0.00208,   0.00095,  -0.00262,  32.00000,   2.00000
228236821.80902,-210924369.52983,167179250.34505,   0.00353,  -0.00045,  -0.00044,478868832.00000,   0.00264,277483456.00000,   0.00208,   0.00095,  -0.00261,  64.00000,   2.00000
226097049.36437,-212232792.46261,167743305.60314,   0.00353,  -0.00046,  -0.00043,478899616.00000,   0.00265,277490048.00000,   0.00208,   0.00095,  -0.00261,  64.00000,   2.00000
223953671.06280,-213519333.17293,168307805.39478,   0.00352,  -0.00047,  -0.00041,478914432.00000,   0.00265,277496672.00000,   0.00209,   0.00094,  -0.00260,  64.00000,   2.00000
221829659.66875,-214784415.21578,168859680.10807,   0.00352,  -0.00047,  -0.00040,478937184.00000,   0.00266,277503392.00000,   0.00209,   0.00094,  -0.00259, 128.00000,   2.00000
219732565.14464,-216013715.67349,169405431.62788,   0.00352,  -0.00048,  -0.00039,478956320.00000,   0.00267,277510144.00000,   0.00210,   0.00093,  -0.00259,  32.00000,   2.00000
217635983.10697,-217236581.99293,169946059.03291,   0.00351,  -0.00048,  -0.00037,478972320.00000,   0.00267,277516928.00000,   0.00210,   0.00093,  -0.00258,  96.00000,   2.00000
215549114.56004,-218443093.34372,170485306.29781,   0.00351,  -0.00049,  -0.00036,478977792.00000,   0.00268,277523744.00000,   0.00211,   0.00092,  -0.00257,  64.00000,   2.00000
213474251.17402,-219643453.70031,171019507.30373,   0.00351,  -0.00050,  -0.00034,478991776.00000,   0.00269,277530560.00000,   0.00211,   0.00092,  -0.00257, 160.00000,   2.00000
211405328.85340,-220839859.94842,171555295.45653,   0.00351,  -0.00050,  -0.00033,478987424.00000,   0.00269,277537376.00000,   0.00211,   0.00092,  -0.00256, 128.00000,   2.00000
209329529.86675,-222054540.19129,172091942.92826,   0.00350,  -0.00051,  -0.00031,478983520.00000,   0.00270,277544128.00000,   0.00212,   0.00091,  -0.00255,  32.00000,   2.00000
207270509.88049,-223269345.31776,172631727.84775,   0.00350,  -0.00051,  -0.00030,478973024.00000,   0.00271,277550784.00000,   0.00212,   0.00091,  -0.00254,  64.00000,   2.00000
205215064.56429,-224504030.41485,173176828.33706,   0.00350,  -0.00052,  -0.00029,478943584.00000,   0.00271,277557344.00000,   0.00213,   0.00090,  -0.00254,  64.00000,   2.00000
203146273.91346,-225776728.76641,173733882.26007,   0.00350,  -0.00052,  -0.00027,478922944.00000,   0.00272,277563744.00000,   0.00213,   0.00090,  -0.00253,  96.00000,   2.00000
201092095.98557,-227069778.23320,174303223.58611,   0.00349,  -0.00053,  -0.00026,478889888.00000,   0.00272,277570016.00000,   0.00214,   0.00090,  -0.00252,  64.00000,   2.00000
199042711.61351,-228404297.99615,174886581.79452,   0.00349,  -0.00053,  -0.00024,478854080.00000,   0.00273,277576096.00000,   0.00214,   0.00089,  -0.00252, 160.00000,   2.00000
196988162.18799,-229790381.17270,175493908.07103,   0.00349,  -0.00054,  -0.00023,478783104.00000,   0.00274,277581824.00000,   0.00214,   0.00089,  -0.00251,  32.00000,   2.00000
