# sigma_xx, sigma_yy, sigma_xy, epsilon_xx, epsilon_yy, epsilon_xy, vonMises, epsPlastic, hardening, epsilonP__xx, epsilonP__yy, epsilonP__xy, yieldValue, iteration
   0.00000,   0.00000,   0.00000,   0.00000,   0.00000,   0.00000,   0.00000,   0.00000,274640135.82653,   0.00000,   0.00000,   0.00000,-474640135.82653,   0.00000
   0.00000,   0.00000,   0.00000,   0.00000,   0.00000,   0.00000,   0.00000,   0.00000,274640135.82653,   0.00000,   0.00000,   0.00000,-474640135.82653,   0.00000
-2474729.47671,-3549469.13517,548682.87827,  -0.00000,  -0.00001,   0.00001,3292749.60051,   0.00000,274640135.82653,   0.00000,   0.00000,   0.00000,-471347386.22602,   0.00000
-4960772.00247,-7087625.22131,1097365.75653,  -0.00001,  -0.00002,   0.00001,6579987.24825,   0.00000,274640135.82653,   0.00000,   0.00000,   0.00000,-468060148.57827,   0.00000
-7429844.95466,-10586185.63582,1640392.11028,  -0.00001,  -0.00003,   0.00002,9833049.54007,   0.00000,274640135.82653,   0.00000,   0.00000,   0.00000,-464807086.28646,   0.00000
-9898917.90686,-14084746.05033,2183418.46403,  -0.00002,  -0.00004,   0.00003,13086131.99937,   0.00000,274640135.82653,   0.00000,   0.00000,   0.00000,-461554003.82715,   0.00000
-12351021.28550,-17543710.79321,2720788.29326,  -0.00002,  -0.00006,   0.00004,16305055.55242,   0.00000,274640135.82653,   0.00000,   0.00000,   0.00000,-458335080.27411,   0.00000
-14822922.49996,-21011160.32287,3252501.59797,  -0.00003,  -0.00007,   0.00004,19531446.14173,   0.00000,274640135.82653,   0.00000,   0.00000,   0.00000,-455108689.68479,   0.00000
-17277854.14086,-24439014.18091,3778558.37816,  -0.00003,  -0.00008,   0.00005,22723741.89553,   0.00000,274640135.82653,   0.00000,   0.00000,   0.00000,-451916393.93100,   0.00000
-19724300.99498,-27847070.20313,4304615.15835,  -0.00004,  -0.00009,   0.00006,25900434.53512,   0.00000,274640135.82653,   0.00000,   0.00000,   0.00000,-448739701.29141,   0.00000
-22182060.89814,-31243813.17631,4825015.41403,  -0.00004,  -0.00010,   0.00006,29069052.99721,   0.00000,274640135.82653,   0.00000,   0.00000,   0.00000,-445571082.82932,   0.00000
-24631336.01453,-34620758.31368,5339759.14519,  -0.00004,  -0.00011,   0.00007,32219298.13262,   0.00000,274640135.82653,   0.00000,   0.00000,   0.00000,-442420837.69391,   0.00000
-27072126.34413,-37977905.61523,5854502.87634,  -0.00005,  -0.00012,   0.00008,35353985.52354,   0.00000,274640135.82653,   0.00000,   0.00000,   0.00000,-439286150.30299,   0.00000
-29504431.88696,-41315255.08097,6363590.08298,  -0.00005,  -0.00013,   0.00008,38470306.86363,   0.00000,274640135.82653,   0.00000,   0.00000,   0.00000,-436169828.96290,   0.00000
-31939565.69205,-44621493.66186,6867020.76510,  -0.00006,  -0.00014,   0.00009,41563088.76500,   0.00000,274640135.82653,   0.00000,   0.00000,   0.00000,-433077047.06153,   0.00000
-34354901.66132,-47919247.45598,7370451.44722,  -0.00006,  -0.00015,   0.00010,44645528.04570,   0.00000,274640135.82653,   0.00000,   0.00000,   0.00000,-429994607.78083,   0.00000
-36773065.89285,-51185890.36524,7868225.60482,  -0.00007,  -0.00016,   0.00010,47704491.93695,   0.00000,274640135.82653,   0.00000,   0.00000,   0.00000,-426935643.88958,   0.00000
-39202543.17342,-54441220.22547,8360343.23791,  -0.00007,  -0.00017,   0.00011,50755665.51397,   0.00000,274640135.82653,   0.00000,   0.00000,   0.00000,-423884470.31256,   0.00000
-41603737.83140,-57668267.46311,8852460.87099,  -0.00008,  -0.00018,   0.00012,53780877.48848,   0.00000,274640135.82653,   0.00000,   0.00000,   0.00000,-420859258.33804,   0.00000
-44016245.53842,-60884001.65171,9338921.97956,  -0.00008,  -0.00019,   0.00012,56798351.68014,   0.00000,274640135.82653,   0.00000,   0.00000,   0.00000,-417841784.14639,   0.00000
-46420268.45865,-64079938.00449,9819726.56360,  -0.00009,  -0.00020,   0.00013,59797599.80804,   0.00000,274640135.82653,   0.00000,   0.00000,   0.00000,-414842536.01849,   0.00000
-48815806.59211,-67256076.52146,10294874.62313,  -0.00009,  -0.00021,   0.00013,62778630.99178,   0.00000,274640135.82653,   0.00000,   0.00000,   0.00000,-411861504.83475,   0.00000
-51194375.15202,-70392619.36681,10770022.68266,  -0.00010,  -0.00022,   0.00014,65728676.46989,   0.00000,274640135.82653,   0.00000,   0.00000,   0.00000,-408911459.35664,   0.00000
-53592741.54774,-73537646.99893,11245170.74219,  -0.00010,  -0.00023,   0.00015,68689482.15093,   0.00000,274640135.82653,   0.00000,   0.00000,   0.00000,-405950653.67560,   0.00000
-55954340.53409,-76634594.17265,11709005.75269,  -0.00011,  -0.00024,   0.00015,71603166.94625,   0.00000,274640135.82653,   0.00000,   0.00000,   0.00000,-403036968.88028,   0.00000
-58335737.35625,-79740026.13314,12172840.76318,  -0.00011,  -0.00025,   0.00016,74527652.29138,   0.00000,274640135.82653,   0.00000,   0.00000,   0.00000,-400112483.53515,   0.00000
-60700164.60486,-82805862.42201,12631019.24915,  -0.00011,  -0.00026,   0.00016,77418468.70782,   0.00000,274640135.82653,   0.00000,   0.00000,   0.00000,-397221667.11871,   0.00000
-63056107.06670,-85851900.87506,13089197.73513,  -0.00012,  -0.00027,   0.00017,80293936.01549,   0.00000,274640135.82653,   0.00000,   0.00000,   0.00000,-394346199.81104,   0.00000
-65423362.57757,-88886626.27908,13541719.69658,  -0.00012,  -0.00028,   0.00018,83162018.01245,   0.00000,274640135.82653,   0.00000,   0.00000,   0.00000,-391478117.81408,   0.00000
-67753850.67907,-91873271.22469,13988585.13352,  -0.00013,  -0.00029,   0.00018,85985788.88122,   0.00000,274640135.82653,   0.00000,   0.00000,   0.00000,-388654346.94531,   0.00000
-70104136.61638,-94868400.95708,14429794.04594,  -0.00013,  -0.00029,   0.00019,88817751.59412,   0.00000,274640135.82653,   0.00000,   0.00000,   0.00000,-385822384.23241,   0.00000
-72445937.76692,-97843732.85366,14871002.95836,  -0.00014,  -0.00030,   0.00019,91634432.19353,   0.00000,274640135.82653,   0.00000,   0.00000,   0.00000,-383005703.63300,   0.00000
-74770769.34390,-100779469.07861,15306555.34626,  -0.00014,  -0.00031,   0.00020,94417597.98190,   0.00000,274640135.82653,   0.00000,   0.00000,   0.00000,-380222537.84463,   0.00000
-77087116.13410,-103695407.46774,15742107.73417,  -0.00015,  -0.00032,   0.00020,97185507.93960,   0.00000,274640135.82653,   0.00000,   0.00000,   0.00000,-377454627.88693,   0.00000
-79403462.92431,-106611345.85688,16172003.59755,  -0.00015,  -0.00033,   0.00021,99950888.15417,   0.00000,274640135.82653,   0.00000,   0.00000,   0.00000,-374689247.67236,   0.00000
-81722637.97677,-109496173.36116,16596242.93642,  -0.00016,  -0.00034,   0.00022,102693676.73814,   0.00000,274640135.82653,   0.00000,   0.00000,   0.00000,-371946459.08839,   0.00000
-84013530.40665,-112352718.24286,17020482.27528,  -0.00016,  -0.00035,   0.00022,105410381.50121,   0.00000,274640135.82653,   0.00000,   0.00000,   0.00000,-369229754.32532,   0.00000
-86307251.09878,-115178152.23970,17439065.08963,  -0.00017,  -0.00036,   0.00023,108104586.45559,   0.00000,274640135.82653,   0.00000,   0.00000,   0.00000,-366535549.37094,   0.00000
-88600971.79091,-118003586.23654,17851991.37946,  -0.00017,  -0.00036,   0.00023,110796330.89704,   0.00000,274640135.82653,   0.00000,   0.00000,   0.00000,-363843804.92949,   0.00000
-90886207.69627,-120809222.39757,18264917.66929,  -0.00018,  -0.00037,   0.00024,113472906.63265,   0.00000,274640135.82653,   0.00000,   0.00000,   0.00000,-361167229.19388,   0.00000
-93154474.02807,-123575262.88698,18672187.43460,  -0.00018,  -0.00038,   0.00024,116116169.25602,   0.00000,274640135.82653,   0.00000,   0.00000,   0.00000,-358523966.57051,   0.00000
-95414255.57309,-126321505.54057,19073800.67539,  -0.00019,  -0.00039,   0.00025,118741568.67412,   0.00000,274640135.82653,   0.00000,   0.00000,   0.00000,-355898567.15241,   0.00000
-97674037.11811,-129067748.19415,19469757.39166,  -0.00019,  -0.00040,   0.00025,121364523.15922,   0.00000,274640135.82653,   0.00000,   0.00000,   0.00000,-353275612.66731,   0.00000
-99916849.08958,-131774395.17612,19871370.63246,  -0.00020,  -0.00040,   0.00026,123959669.69856,   0.00000,274640135.82653,   0.00000,   0.00000,   0.00000,-350680466.12797,   0.00000
-102151176.27427,-134461244.32226,20261670.82421,  -0.00020,  -0.00041,   0.00026,126534266.82861,   0.00000,274640135.82653,   0.00000,   0.00000,   0.00000,-348105868.99792,   0.00000
-104396816.50800,-137136780.41937,20651971.01597,  -0.00021,  -0.00042,   0.00027,129104842.12217,   0.00000,274640135.82653,   0.00000,   0.00000,   0.00000,-345535293.70436,   0.00000
-106605689.33236,-139764236.05808,21036614.68321,  -0.00021,  -0.00043,   0.00027,131631187.11739,   0.00000,274640135.82653,   0.00000,   0.00000,   0.00000,-343008948.70914,   0.00000
-108834359.99253,-142400176.48356,21415601.82593,  -0.00022,  -0.00044,   0.00028,134166240.58168,   0.00000,274640135.82653,   0.00000,   0.00000,   0.00000,-340473895.24485,   0.00000
-111054545.86593,-145016319.07324,21794588.96865,  -0.00022,  -0.00044,   0.00028,136686267.86239,   0.00000,274640135.82653,   0.00000,   0.00000,   0.00000,-337953867.96414,   0.00000
-113237964.32996,-147584381.20450,22167919.58685,  -0.00023,  -0.00045,   0.00029,139162068.19044,   0.00000,274640135.82653,   0.00000,   0.00000,   0.00000,-335478067.63609,   0.00000
-115432695.84302,-150141130.28673,22541250.20505,  -0.00023,  -0.00046,   0.00029,141634016.85283,   0.00000,274640135.82653,   0.00000,   0.00000,   0.00000,-333006118.97370,   0.00000
-117618942.56931,-152678081.53314,22908924.29873,  -0.00024,  -0.00047,   0.00030,144088286.01208,   0.00000,274640135.82653,   0.00000,   0.00000,   0.00000,-330551849.81445,   0.00000
-119796704.50882,-155195234.94375,23270941.86790,  -0.00024,  -0.00047,   0.00030,146524891.62235,   0.00000,274640135.82653,   0.00000,   0.00000,   0.00000,-328115244.20418,   0.00000
-121965981.66155,-157692590.51853,23632959.43706,  -0.00025,  -0.00048,   0.00031,148946542.42052,   0.00000,274640135.82653,   0.00000,   0.00000,   0.00000,-325693593.40601,   0.00000
-124126774.02750,-160170148.25751,23989320.48171,  -0.00025,  -0.00049,   0.00031,151350557.03934,   0.00000,274640135.82653,   0.00000,   0.00000,   0.00000,-323289578.78719,   0.00000
-126279081.60668,-162627908.16067,24340025.00184,  -0.00026,  -0.00049,   0.00032,153736952.38708,   0.00000,274640135.82653,   0.00000,   0.00000,   0.00000,-320903183.43945,   0.00000
-128422904.39908,-165065870.22801,24690729.52197,  -0.00026,  -0.00050,   0.00032,156108429.59163,   0.00000,274640135.82653,   0.00000,   0.00000,   0.00000,-318531706.23490,   0.00000
-130549757.61792,-167464236.62373,25035777.51758,  -0.00027,  -0.00051,   0.00033,158447040.77041,   0.00000,274640135.82653,   0.00000,   0.00000,   0.00000,-316193095.05612,   0.00000
-132676610.83677,-169862603.01945,25380825.51319,  -0.00027,  -0.00051,   0.00033,160786042.31194,   0.00000,274640135.82653,   0.00000,   0.00000,   0.00000,-313854093.51459,   0.00000
-134786494.48206,-172221373.74354,25720216.98428,  -0.00028,  -0.00052,   0.00033,163092225.78730,   0.00000,274640135.82653,   0.00000,   0.00000,   0.00000,-311547910.03923,   0.00000
-136887893.34057,-174560346.63182,26059608.45537,  -0.00028,  -0.00053,   0.00034,165383558.51400,   0.00000,274640135.82653,   0.00000,   0.00000,   0.00000,-309256577.31253,   0.00000
-138980807.41231,-176879521.68429,26387686.87743,  -0.00029,  -0.00053,   0.00034,167654708.66659,   0.00000,274640135.82653,   0.00000,   0.00000,   0.00000,-306985427.15994,   0.00000
-141065236.69727,-179178898.90094,26721421.82400,  -0.00029,  -0.00054,   0.00035,169913708.05230,   0.00000,274640135.82653,   0.00000,   0.00000,   0.00000,-304726427.77423,   0.00000
-143141181.19545,-181458478.28177,27043843.72154,  -0.00030,  -0.00055,   0.00035,172152562.06310,   0.00000,274640135.82653,   0.00000,   0.00000,   0.00000,-302487573.76343,   0.00000
-145208640.90685,-183718259.82680,27366265.61908,  -0.00030,  -0.00055,   0.00036,174376624.15124,   0.00000,274640135.82653,   0.00000,   0.00000,   0.00000,-300263511.67529,   0.00000
-147267615.83148,-185958243.53601,27688687.51662,  -0.00031,  -0.00056,   0.00036,176585905.69778,   0.00000,274640135.82653,   0.00000,   0.00000,   0.00000,-298054230.12875,   0.00000
-149309621.18255,-188158631.57359,28005452.88964,  -0.00031,  -0.00056,   0.00036,178762568.18893,   0.00000,274640135.82653,   0.00000,   0.00000,   0.00000,-295877567.63759,   0.00000
-151351626.53363,-190359019.61117,28316561.73814,  -0.00032,  -0.00057,   0.00037,180937024.85730,   0.00000,274640135.82653,   0.00000,   0.00000,   0.00000,-293703110.96923,   0.00000
-153376662.31114,-192519811.97712,28627670.58664,  -0.00032,  -0.00058,   0.00037,183081574.51050,   0.00000,274640135.82653,   0.00000,   0.00000,   0.00000,-291558561.31603,   0.00000
-155401698.08866,-194680604.34308,28933122.91062,  -0.00033,  -0.00058,   0.00038,185223934.14585,   0.00000,274640135.82653,   0.00000,   0.00000,   0.00000,-289416201.68067,   0.00000
-157389966.45681,-196793316.25063,29232918.71009,  -0.00033,  -0.00059,   0.00038,187322203.77605,   0.00000,274640135.82653,   0.00000,   0.00000,   0.00000,-287317932.05048,   0.00000
-159389547.87400,-198894715.10914,29538371.03407,  -0.00034,  -0.00059,   0.00038,189420017.53798,   0.00000,274640135.82653,   0.00000,   0.00000,   0.00000,-285220118.28855,   0.00000
-161380644.50440,-200976316.13184,29832510.30902,  -0.00034,  -0.00060,   0.00039,191497886.81110,   0.00000,274640135.82653,   0.00000,   0.00000,   0.00000,-283142249.01543,   0.00000
-163363256.34803,-203038119.31873,30126649.58396,  -0.00035,  -0.00061,   0.00039,193561122.47013,   0.00000,274640135.82653,   0.00000,   0.00000,   0.00000,-281079013.35640,   0.00000
-165317585.56907,-205071639.88302,30415132.33439,  -0.00035,  -0.00061,   0.00040,195595434.59218,   0.00000,274640135.82653,   0.00000,   0.00000,   0.00000,-279044701.23435,   0.00000
-167283227.83915,-207093847.39828,30703615.08482,  -0.00036,  -0.00062,   0.00040,197626791.26557,   0.00000,274640135.82653,   0.00000,   0.00000,   0.00000,-277013344.56096,   0.00000
-169220587.48664,-209087772.29095,30986441.31073,  -0.00036,  -0.00062,   0.00040,199629223.11845,   0.00000,274640135.82653,   0.00000,   0.00000,   0.00000,-275010912.70808,   0.00000
-171160775.39638,-211050586.29877,31269267.53664,  -0.00037,  -0.00063,   0.00041,201613690.72913,   0.00000,274640135.82653,   0.00000,   0.00000,   0.00000,-273026445.09740,   0.00000
-173081165.47031,-213004915.51981,31546437.23803,  -0.00037,  -0.00063,   0.00041,203584326.39653,   0.00000,274640135.82653,   0.00000,   0.00000,   0.00000,-271055809.43000,   0.00000
-174993070.75747,-214939446.90503,31823606.93942,  -0.00038,  -0.00064,   0.00041,205540391.85535,   0.00000,274640135.82653,   0.00000,   0.00000,   0.00000,-269099743.97118,   0.00000
-176907804.30688,-216842867.40541,32095120.11630,  -0.00038,  -0.00064,   0.00042,207476010.71647,   0.00000,274640135.82653,   0.00000,   0.00000,   0.00000,-267164125.11006,   0.00000
-178794255.23370,-218718005.28319,32366633.29317,  -0.00039,  -0.00065,   0.00042,209385351.75849,   0.00000,274640135.82653,   0.00000,   0.00000,   0.00000,-265254784.06804,   0.00000
-180680706.16052,-220593143.16098,32632489.94553,  -0.00039,  -0.00065,   0.00042,211292606.84639,   0.00000,274640135.82653,   0.00000,   0.00000,   0.00000,-263347528.98013,   0.00000
-182550187.51379,-222428685.36714,32892690.07337,  -0.00040,  -0.00066,   0.00043,213167727.37458,   0.00000,274640135.82653,   0.00000,   0.00000,   0.00000,-261472408.45195,   0.00000
-184411184.08028,-224244429.73748,33152890.20120,  -0.00040,  -0.00066,   0.00043,215028395.00159,   0.00000,274640135.82653,   0.00000,   0.00000,   0.00000,-259611740.82494,   0.00000
-186243898.02418,-226031891.48523,33413090.32904,  -0.00041,  -0.00067,   0.00043,216862741.81531,   0.00000,274640135.82653,   0.00000,   0.00000,   0.00000,-257777394.01122,   0.00000
-188096409.80389,-227827838.01976,33667633.93236,  -0.00041,  -0.00067,   0.00044,218706912.32054,   0.00000,274640135.82653,   0.00000,   0.00000,   0.00000,-255933223.50599,   0.00000
-189912154.17423,-229575704.09589,33916521.01116,  -0.00042,  -0.00067,   0.00044,220507153.84269,   0.00000,274640135.82653,   0.00000,   0.00000,   0.00000,-254132981.98384,   0.00000
-191739211.59361,-231312257.12298,34171064.61448,  -0.00042,  -0.00068,   0.00044,222307536.34510,   0.00000,274640135.82653,   0.00000,   0.00000,   0.00000,-252332599.48143,   0.00000
-193537986.39040,-233020527.52748,34414295.16876,  -0.00043,  -0.00068,   0.00045,224076384.02078,   0.00000,274640135.82653,   0.00000,   0.00000,   0.00000,-250563751.80575,   0.00000
-195328276.40041,-234709000.09616,34657525.72305,  -0.00043,  -0.00069,   0.00045,225830861.73280,   0.00000,274640135.82653,   0.00000,   0.00000,   0.00000,-248809274.09373,   0.00000
-197101596.83687,-236357876.99322,34900756.27733,  -0.00044,  -0.00069,   0.00045,227556056.56242,   0.00000,274640135.82653,   0.00000,   0.00000,   0.00000,-247084079.26411,   0.00000
-198874917.27333,-238006753.89027,35138330.30709,  -0.00044,  -0.00070,   0.00046,229279263.99426,   0.00000,274640135.82653,   0.00000,   0.00000,   0.00000,-245360871.83227,   0.00000
-200639752.92301,-239635832.95152,35370247.81234,  -0.00045,  -0.00070,   0.00046,230985566.35297,   0.00000,274640135.82653,   0.00000,   0.00000,   0.00000,-243654569.47356,   0.00000
-202376305.95010,-241236629.39017,35607821.84210,  -0.00045,  -0.00070,   0.00046,232668118.96502,   0.00000,274640135.82653,   0.00000,   0.00000,   0.00000,-241972016.86151,   0.00000
-204115687.23945,-242806314.94397,35834082.82283,  -0.00046,  -0.00071,   0.00047,234328374.27059,   0.00000,274640135.82653,   0.00000,   0.00000,   0.00000,-240311761.55594,   0.00000
-205835270.69298,-244367515.71100,36066000.32808,  -0.00046,  -0.00071,   0.00047,235979780.46872,   0.00000,274640135.82653,   0.00000,   0.00000,   0.00000,-238660355.35780,   0.00000
-207546369.35974,-245908918.64221,36286604.78429,  -0.00046,  -0.00071,   0.00047,237611745.30131,   0.00000,274640135.82653,   0.00000,   0.00000,   0.00000,-237028390.52522,   0.00000
-209240498.45294,-247410725.90179,36512865.76502,  -0.00047,  -0.00072,   0.00047,239217219.22327,   0.00000,274640135.82653,   0.00000,   0.00000,   0.00000,-235422916.60326,   0.00000
-210934627.54614,-248912533.16137,36733470.22123,  -0.00047,  -0.00072,   0.00048,240820757.60275,   0.00000,274640135.82653,   0.00000,   0.00000,   0.00000,-233819378.22378,   0.00000
-212600474.01675,-250386057.79837,36948418.15292,  -0.00048,  -0.00072,   0.00048,242395341.80517,   0.00000,274640135.82653,   0.00000,   0.00000,   0.00000,-232244794.02136,   0.00000
-214269148.74963,-251828471.55051,37163366.08461,  -0.00048,  -0.00073,   0.00048,243953114.95352,   0.00000,274640135.82653,   0.00000,   0.00000,   0.00000,-230687020.87301,   0.00000
-215918025.64668,-253262400.51587,37378314.01630,  -0.00049,  -0.00073,   0.00049,245499358.24845,   0.00000,274640135.82653,   0.00000,   0.00000,   0.00000,-229140777.57808,   0.00000
-217549932.97018,-254656733.80961,37587605.42348,  -0.00049,  -0.00073,   0.00049,247014077.09610,   0.00000,274640135.82653,   0.00000,   0.00000,   0.00000,-227626058.73043,   0.00000
-219181840.29369,-256051067.10335,37791240.30613,  -0.00050,  -0.00074,   0.00049,248526894.95112,   0.00000,274640135.82653,   0.00000,   0.00000,   0.00000,-226113240.87541,   0.00000
-220796778.04363,-257405804.72546,38000531.71330,  -0.00050,  -0.00074,   0.00049,250013428.43772,   0.00000,274640135.82653,   0.00000,   0.00000,   0.00000,-224626707.38881,   0.00000
-222411715.79358,-258760542.34757,38204166.59596,  -0.00051,  -0.00074,   0.00050,251498088.32460,   0.00000,274640135.82653,   0.00000,   0.00000,   0.00000,-223142047.50193,   0.00000
-223989886.13416,-260067199.51128,38402144.95410,  -0.00051,  -0.00075,   0.00050,252939062.14244,   0.00000,274640135.82653,   0.00000,   0.00000,   0.00000,-221701073.68409,   0.00000
-225568056.47474,-261373856.67498,38600123.31223,  -0.00052,  -0.00075,   0.00050,254380731.87768,   0.00000,274640135.82653,   0.00000,   0.00000,   0.00000,-220259403.94885,   0.00000
-227129257.24177,-262640918.16706,38798101.67037,  -0.00052,  -0.00075,   0.00050,255793652.78663,   0.00000,274640135.82653,   0.00000,   0.00000,   0.00000,-218846483.03990,   0.00000
-228690458.00879,-263907979.65914,38990423.50399,  -0.00053,  -0.00075,   0.00051,257204723.80319,   0.00000,274640135.82653,   0.00000,   0.00000,   0.00000,-217435412.02334,   0.00000
-230243173.98904,-265155243.31540,39182745.33761,  -0.00053,  -0.00076,   0.00051,258601817.47621,   0.00000,274640135.82653,   0.00000,   0.00000,   0.00000,-216038318.35032,   0.00000
-231759122.55992,-266354426.51326,39375067.17123,  -0.00054,  -0.00076,   0.00051,259957863.85202,   0.00000,274640135.82653,   0.00000,   0.00000,   0.00000,-214682271.97451,   0.00000
-233275071.13080,-267553609.71112,39561732.48033,  -0.00054,  -0.00076,   0.00051,261312069.32402,   0.00000,274640135.82653,   0.00000,   0.00000,   0.00000,-213328066.50251,   0.00000
-234774050.12812,-268713197.23735,39748397.78943,  -0.00054,  -0.00076,   0.00052,262637690.98374,   0.00000,274640135.82653,   0.00000,   0.00000,   0.00000,-212002444.84279,   0.00000
-236273029.12544,-269872784.76359,39929406.57401,  -0.00055,  -0.00077,   0.00052,263961505.60567,   0.00000,274640135.82653,   0.00000,   0.00000,   0.00000,-210678630.22086,   0.00000
-237743725.50018,-271004089.66723,40110415.35860,  -0.00055,  -0.00077,   0.00052,265258948.93201,   0.00000,274640135.82653,   0.00000,   0.00000,   0.00000,-209381186.89452,   0.00000
-239217250.13717,-272104283.68602,40291424.14318,  -0.00056,  -0.00077,   0.00052,266540413.53613,   0.00000,274640135.82653,   0.00000,   0.00000,   0.00000,-208099722.29040,   0.00000
-240670976.93835,-273195992.91803,40466776.40324,  -0.00056,  -0.00077,   0.00053,267807586.06342,   0.00000,274640135.82653,   0.00000,   0.00000,   0.00000,-206832549.76311,   0.00000
-242116218.95275,-274267904.31423,40647785.18782,  -0.00057,  -0.00078,   0.00053,269063498.39075,   0.00000,274640135.82653,   0.00000,   0.00000,   0.00000,-205576637.43578,   0.00000
-243533178.34456,-275311533.08784,40817480.92337,  -0.00057,  -0.00078,   0.00053,270287914.57402,   0.00000,274640135.82653,   0.00000,   0.00000,   0.00000,-204352221.25251,   0.00000
-244961450.78541,-276343848.81241,40992833.18344,  -0.00058,  -0.00078,   0.00053,271513686.84442,   0.00000,274640135.82653,   0.00000,   0.00000,   0.00000,-203126448.98210,   0.00000
-246352955.81689,-277328084.07858,41162528.91898,  -0.00058,  -0.00078,   0.00054,272696008.72701,   0.00000,274640135.82653,   0.00000,   0.00000,   0.00000,-201944127.09952,   0.00000
-247744460.84837,-278312319.34475,41326568.13001,  -0.00058,  -0.00078,   0.00054,273876587.49296,   0.00000,274640135.82653,   0.00000,   0.00000,   0.00000,-200763548.33357,   0.00000
-249107683.25725,-279268271.98832,41496263.86556,  -0.00059,  -0.00078,   0.00054,275033367.24709,   0.00000,274640135.82653,   0.00000,   0.00000,   0.00000,-199606768.57944,   0.00000
-250490703.50195,-280232709.41868,41660303.07658,  -0.00059,  -0.00079,   0.00054,276201046.34087,   0.00000,274640135.82653,   0.00000,   0.00000,   0.00000,-198439089.48566,   0.00000
-251836956.33729,-281149066.39063,41824342.28761,  -0.00060,  -0.00079,   0.00054,277327877.74769,   0.00000,274640135.82653,   0.00000,   0.00000,   0.00000,-197312258.07884,   0.00000
-253174724.38584,-282045625.52676,41982724.97412,  -0.00060,  -0.00079,   0.00055,278438503.13564,   0.00000,274640135.82653,   0.00000,   0.00000,   0.00000,-196201632.69089,   0.00000
-254484209.81181,-282913902.04031,42141107.66063,  -0.00061,  -0.00079,   0.00055,279522784.52803,   0.00000,274640135.82653,   0.00000,   0.00000,   0.00000,-195117351.29850,   0.00000
-255805008.28681,-283770865.50482,42299490.34714,  -0.00061,  -0.00079,   0.00055,280606198.11907,   0.00000,274640135.82653,   0.00000,   0.00000,   0.00000,-194033937.70746,   0.00000
-257106008.92600,-284619344.18255,42457873.03365,  -0.00061,  -0.00079,   0.00055,281677724.02246,   0.00000,274640135.82653,   0.00000,   0.00000,   0.00000,-192962411.80407,   0.00000
-258390039.99163,-285428227.18865,42610599.19564,  -0.00062,  -0.00079,   0.00055,282718701.35587,   0.00000,274640135.82653,   0.00000,   0.00000,   0.00000,-191921434.47066,   0.00000
-259654273.22145,-286228625.40798,42763325.35763,  -0.00062,  -0.00080,   0.00056,283747753.97621,   0.00000,274640135.82653,   0.00000,   0.00000,   0.00000,-190892381.85032,   0.00000
-260910021.66449,-287009225.79149,42916051.51963,  -0.00063,  -0.00080,   0.00056,284763259.93592,   0.00000,274640135.82653,   0.00000,   0.00000,   0.00000,-189876875.89061,   0.00000
-262168598.36979,-287758715.29015,43068777.68162,  -0.00063,  -0.00080,   0.00056,285763734.53130,   0.00000,274640135.82653,   0.00000,   0.00000,   0.00000,-188876401.29523,   0.00000
-263387579.40346,-288491235.21526,43215847.31909,  -0.00064,  -0.00080,   0.00056,286736865.49884,   0.00000,274640135.82653,   0.00000,   0.00000,   0.00000,-187903270.32769,   0.00000
-264617873.48617,-289212442.09133,43362916.95656,  -0.00064,  -0.00080,   0.00056,287709405.33422,   0.00000,274640135.82653,   0.00000,   0.00000,   0.00000,-186930730.49231,   0.00000
-265819884.94629,-289905366.34481,43509986.59404,  -0.00064,  -0.00080,   0.00057,288655639.71890,   0.00000,274640135.82653,   0.00000,   0.00000,   0.00000,-185984496.10763,   0.00000
-267021896.40641,-290598290.59829,43657056.23151,  -0.00065,  -0.00080,   0.00057,289602777.41678,   0.00000,274640135.82653,   0.00000,   0.00000,   0.00000,-185037358.40975,   0.00000
-268187140.45716,-291243134.39337,43798469.34447,  -0.00065,  -0.00080,   0.00057,290506729.69465,   0.00000,274640135.82653,   0.00000,   0.00000,   0.00000,-184133406.13188,   0.00000
-269363697.55695,-291876665.13941,43939882.45742,  -0.00066,  -0.00080,   0.00057,291410279.97143,   0.00000,274640135.82653,   0.00000,   0.00000,   0.00000,-183229855.85510,   0.00000
-270520456.82092,-292501711.09867,44081295.57038,  -0.00066,  -0.00080,   0.00057,292301819.87874,   0.00000,274640135.82653,   0.00000,   0.00000,   0.00000,-182338315.94779,   0.00000
-271660246.51134,-293087161.38630,44222708.68333,  -0.00066,  -0.00080,   0.00057,293165801.35214,   0.00000,274640135.82653,   0.00000,   0.00000,   0.00000,-181474334.47439,   0.00000
-272780238.36594,-293664126.88716,44358465.27177,  -0.00067,  -0.00080,   0.00058,294015182.69534,   0.00000,274640135.82653,   0.00000,   0.00000,   0.00000,-180624953.13119,   0.00000
-273891745.43377,-294221294.55220,44499878.38472,  -0.00067,  -0.00080,   0.00058,294853848.55011,   0.00000,274640135.82653,   0.00000,   0.00000,   0.00000,-179786287.27642,   0.00000
-274994767.71482,-294758664.38143,44635634.97316,  -0.00068,  -0.00080,   0.00058,295676718.36538,   0.00000,274640135.82653,   0.00000,   0.00000,   0.00000,-178963417.46115,   0.00000
-276089305.20909,-295276236.37485,44771391.56160,  -0.00068,  -0.00081,   0.00058,296486393.92075,   0.00000,274640135.82653,   0.00000,   0.00000,   0.00000,-178153741.90578,   0.00000
-277164044.86755,-295785323.58149,44901491.62552,  -0.00068,  -0.00081,   0.00058,297281416.45221,   0.00000,274640135.82653,   0.00000,   0.00000,   0.00000,-177358719.37432,   0.00000
-278221814.95246,-296254815.11650,45037248.21395,  -0.00069,  -0.00081,   0.00059,298051677.77600,   0.00000,274640135.82653,   0.00000,   0.00000,   0.00000,-176588458.05053,   0.00000
-279259787.20155,-296715821.86473,45167348.27787,  -0.00069,  -0.00081,   0.00059,298807259.73577,   0.00000,274640135.82653,   0.00000,   0.00000,   0.00000,-175832876.09075,   0.00000
-280309072.49967,-297165515.56393,45297448.34179,  -0.00070,  -0.00081,   0.00059,299562858.50923,   0.00000,274640135.82653,   0.00000,   0.00000,   0.00000,-175077277.31730,   0.00000
-281330075.17521,-297586926.64053,45433204.93023,  -0.00070,  -0.00081,   0.00059,300294798.47843,   0.00000,274640135.82653,   0.00000,   0.00000,   0.00000,-174345337.34810,   0.00000
-282322795.22816,-297980055.09455,45557648.46963,  -0.00070,  -0.00081,   0.00059,300995365.18907,   0.00000,274640135.82653,   0.00000,   0.00000,   0.00000,-173644770.63746,   0.00000
-283326828.33014,-298361870.49953,45687748.53355,  -0.00071,  -0.00081,   0.00059,301698667.63794,   0.00000,274640135.82653,   0.00000,   0.00000,   0.00000,-172941468.18859,   0.00000
-284311063.59631,-298735201.11773,45817848.59746,  -0.00071,  -0.00080,   0.00060,302389821.68217,   0.00000,274640135.82653,   0.00000,   0.00000,   0.00000,-172250314.14436,   0.00000
-285278329.28892,-299068936.06430,45942292.13687,  -0.00071,  -0.00080,   0.00060,303051398.07999,   0.00000,274640135.82653,   0.00000,   0.00000,   0.00000,-171588737.74653,   0.00000
-286225797.14572,-299394186.22410,46072392.20078,  -0.00072,  -0.00080,   0.00060,303703378.40237,   0.00000,274640135.82653,   0.00000,   0.00000,   0.00000,-170936757.42416,   0.00000
-287164780.21574,-299699638.54808,46196835.74018,  -0.00072,  -0.00080,   0.00060,304339853.46160,   0.00000,274640135.82653,   0.00000,   0.00000,   0.00000,-170300282.36493,   0.00000
-288095278.49898,-299985293.03625,46321279.27959,  -0.00073,  -0.00080,   0.00060,304963443.26963,   0.00000,274640135.82653,   0.00000,   0.00000,   0.00000,-169676692.55690,   0.00000
-289005978.94642,-300262462.73764,46445722.81899,  -0.00073,  -0.00080,   0.00060,305574820.48793,   0.00000,274640135.82653,   0.00000,   0.00000,   0.00000,-169065315.33860,   0.00000
-289899709.82029,-300500036.76741,46570166.35839,  -0.00073,  -0.00080,   0.00061,306159405.49849,   0.00000,274640135.82653,   0.00000,   0.00000,   0.00000,-168480730.32804,   0.00000
-290793440.69417,-300737610.79717,46688953.37327,  -0.00074,  -0.00080,   0.00061,306742540.59417,   0.00000,274640135.82653,   0.00000,   0.00000,   0.00000,-167897595.23236,   0.00000
-291658888.94545,-300946902.20435,46813396.91267,  -0.00074,  -0.00080,   0.00061,307302113.09118,   0.00000,274640135.82653,   0.00000,   0.00000,   0.00000,-167338022.73535,   0.00000
-292535650.24578,-301144880.56248,46937840.45207,  -0.00074,  -0.00080,   0.00061,307862331.08175,   0.00000,274640135.82653,   0.00000,   0.00000,   0.00000,-166777804.74478,   0.00000
-293372815.87447,-301325889.34707,47056627.46695,  -0.00075,  -0.00080,   0.00061,308394316.73910,   0.00000,274640135.82653,   0.00000,   0.00000,   0.00000,-166245819.08742,   0.00000
-294212809.76542,-301475787.24680,47181071.00635,  -0.00075,  -0.00080,   0.00061,308915764.68018,   0.00000,274640135.82653,   0.00000,   0.00000,   0.00000,-165724371.14635,   0.00000
-295033005.82056,-301617200.35975,47299858.02123,  -0.00075,  -0.00080,   0.00061,309422382.11470,   0.00000,274640135.82653,   0.00000,   0.00000,   0.00000,-165217753.71182,   0.00000
-295824919.25311,-301730330.85012,47418645.03612,  -0.00076,  -0.00080,   0.00062,309902901.46635,   0.00000,274640135.82653,   0.00000,   0.00000,   0.00000,-164737234.36017,   0.00000
-296636630.52148,-301851946.12726,47537432.05100,  -0.00076,  -0.00079,   0.00062,310398076.78273,   0.00000,274640135.82653,   0.00000,   0.00000,   0.00000,-164242059.04380,   0.00000
-297411574.38047,-301925480.94600,47656219.06588,  -0.00076,  -0.00079,   0.00062,310853427.89356,   0.00000,274640135.82653,   0.00000,   0.00000,   0.00000,-163786707.93297,   0.00000
-298166720.40365,-301990530.97796,47780662.60528,  -0.00077,  -0.00079,   0.00062,311299089.13931,   0.00000,274640135.82653,   0.00000,   0.00000,   0.00000,-163341046.68722,   0.00000
-298933179.47587,-302044267.96088,47899449.62016,  -0.00077,  -0.00079,   0.00062,311743170.02512,   0.00000,274640135.82653,   0.00000,   0.00000,   0.00000,-162896965.80141,   0.00000
-299671355.92549,-302069722.32121,48018236.63505,  -0.00077,  -0.00079,   0.00062,312161254.13321,   0.00000,274640135.82653,   0.00000,   0.00000,   0.00000,-162478881.69332,   0.00000
-300389734.53930,-302086691.89477,48137023.64993,  -0.00078,  -0.00079,   0.00063,312567016.79482,   0.00000,274640135.82653,   0.00000,   0.00000,   0.00000,-162073119.03171,   0.00000
-301119426.20215,-302092348.41928,48255810.66481,  -0.00078,  -0.00079,   0.00063,312973946.17199,   0.00000,274640135.82653,   0.00000,   0.00000,   0.00000,-161666189.65453,   0.00000
-301801037.40660,-302061237.53443,48368941.15518,  -0.00078,  -0.00079,   0.00063,313338676.12814,   0.00000,274640135.82653,   0.00000,   0.00000,   0.00000,-161301459.69839,   0.00000
-302493961.66008,-302018813.60055,48487728.17006,  -0.00079,  -0.00078,   0.00063,313707303.92655,   0.00000,274640135.82653,   0.00000,   0.00000,   0.00000,-160932831.89998,   0.00000
-303167088.07774,-301967904.87988,48606515.18494,  -0.00079,  -0.00078,   0.00063,314063605.67723,   0.00000,274640135.82653,   0.00000,   0.00000,   0.00000,-160576530.14930,   0.00000
-303831729.70863,-301897198.32341,48725302.19982,  -0.00079,  -0.00078,   0.00063,314407626.49125,   0.00000,274640135.82653,   0.00000,   0.00000,   0.00000,-160232509.33528,   0.00000
-304487886.55274,-301806693.93111,48844089.21470,  -0.00080,  -0.00078,   0.00063,314739426.08144,   0.00000,274640135.82653,   0.00000,   0.00000,   0.00000,-159900709.74509,   0.00000
-305124245.56104,-301707704.75205,48962876.22959,  -0.00080,  -0.00078,   0.00064,315058880.67081,   0.00000,274640135.82653,   0.00000,   0.00000,   0.00000,-159581255.15572,   0.00000
-305732321.94675,-301580432.95039,49081663.24447,  -0.00080,  -0.00078,   0.00064,315352426.98035,   0.00000,274640135.82653,   0.00000,   0.00000,   0.00000,-159287708.84618,   0.00000
-306351711.38149,-301441848.09969,49200450.25935,  -0.00081,  -0.00077,   0.00064,315647565.68356,   0.00000,274640135.82653,   0.00000,   0.00000,   0.00000,-158992570.14297,   0.00000
-306942818.19365,-301274980.62640,49319237.27423,  -0.00081,  -0.00077,   0.00064,315916883.82125,   0.00000,274640135.82653,   0.00000,   0.00000,   0.00000,-158723252.00528,   0.00000
-307514127.16998,-301099628.36634,49438024.28912,  -0.00081,  -0.00077,   0.00064,316173828.67660,   0.00000,274640135.82653,   0.00000,   0.00000,   0.00000,-158466307.14993,   0.00000
-308096749.19536,-300912963.05724,49556811.30400,  -0.00082,  -0.00077,   0.00064,316432528.56149,   0.00000,274640135.82653,   0.00000,   0.00000,   0.00000,-158207607.26504,   0.00000
-308651088.59814,-300698015.12555,49675598.31888,  -0.00082,  -0.00077,   0.00065,316665464.31602,   0.00000,274640135.82653,   0.00000,   0.00000,   0.00000,-157974671.51051,   0.00000
-309185630.16511,-300474582.40708,49794385.33376,  -0.00082,  -0.00076,   0.00065,316886017.19779,   0.00000,274640135.82653,   0.00000,   0.00000,   0.00000,-157754118.62874,   0.00000
-309711686.94531,-300231351.85279,49913172.34865,  -0.00082,  -0.00076,   0.00065,317094638.13092,   0.00000,274640135.82653,   0.00000,   0.00000,   0.00000,-157545497.69560,   0.00000
-310229258.93872,-299968323.46270,50031959.36353,  -0.00083,  -0.00076,   0.00065,317291393.45880,   0.00000,274640135.82653,   0.00000,   0.00000,   0.00000,-157348742.36773,   0.00000
-310727033.09632,-299696810.28582,50150746.37841,  -0.00083,  -0.00076,   0.00065,317475760.63493,   0.00000,274640135.82653,   0.00000,   0.00000,   0.00000,-157164375.19159,   0.00000
-311216322.46715,-299405499.27314,50275189.91781,  -0.00083,  -0.00076,   0.00065,317651000.49986,   0.00000,274640135.82653,   0.00000,   0.00000,   0.00000,-156989135.32667,   0.00000
-311697127.05120,-299094390.42464,50393976.93269,  -0.00083,  -0.00075,   0.00066,317811815.25589,   0.00000,274640135.82653,   0.00000,   0.00000,   0.00000,-156828320.57064,   0.00000
-312158133.79943,-298774796.78936,50518420.47209,  -0.00084,  -0.00075,   0.00066,317962936.71210,   0.00000,274640135.82653,   0.00000,   0.00000,   0.00000,-156677199.11443,   0.00000
-312610655.76089,-298435405.31826,50637207.48698,  -0.00084,  -0.00075,   0.00066,318099679.07899,   0.00000,274640135.82653,   0.00000,   0.00000,   0.00000,-156540456.74754,   0.00000
-313054692.93557,-298076216.01136,50761651.02638,  -0.00084,  -0.00075,   0.00066,318227510.89523,   0.00000,274640135.82653,   0.00000,   0.00000,   0.00000,-156412624.93130,   0.00000
-313478932.27443,-297708541.91767,50880438.04126,  -0.00085,  -0.00074,   0.00066,318340255.05290,   0.00000,274640135.82653,   0.00000,   0.00000,   0.00000,-156299880.77363,   0.00000
-313894686.82652,-297321069.98818,51004881.58066,  -0.00085,  -0.00074,   0.00066,318444159.56513,   0.00000,274640135.82653,   0.00000,   0.00000,   0.00000,-156195976.26140,   0.00000
-314290643.54279,-296925113.27190,51129325.12006,  -0.00085,  -0.00074,   0.00066,318535665.56593,   0.00000,274640135.82653,   0.00000,   0.00000,   0.00000,-156104470.26060,   0.00000
-314678115.47229,-296509358.71982,51253768.65946,  -0.00085,  -0.00074,   0.00067,318615687.54406,   0.00000,274640135.82653,   0.00000,   0.00000,   0.00000,-156024448.28247,   0.00000
-315057102.61501,-296073806.33191,51378212.19886,  -0.00086,  -0.00073,   0.00067,318684300.18932,   0.00000,274640135.82653,   0.00000,   0.00000,   0.00000,-155955835.63721,   0.00000
-315416291.92192,-295629769.15723,51508312.26278,  -0.00086,  -0.00073,   0.00067,318743267.77032,   0.00000,274640135.82653,   0.00000,   0.00000,   0.00000,-155896868.05621,   0.00000
-315766996.44205,-295165934.14674,51632755.80218,  -0.00086,  -0.00073,   0.00067,318788156.39921,   0.00000,274640135.82653,   0.00000,   0.00000,   0.00000,-155851979.42732,   0.00000
-316089418.33958,-294673816.51366,51762855.86610,  -0.00086,  -0.00072,   0.00067,318810418.59625,   0.00000,274640135.82653,   0.00000,   0.00000,   0.00000,-155829717.23028,   0.00000
-316431638.07294,-294190183.66735,51887299.40550,  -0.00087,  -0.00072,   0.00067,318845792.72071,   0.00000,274640135.82653,   0.00000,   0.00000,   0.00000,-155794343.10581,   0.00000
-316734262.13466,-293689581.24749,52017399.46942,  -0.00087,  -0.00072,   0.00068,318857397.08047,   0.00000,274640135.82653,   0.00000,   0.00000,   0.00000,-155782738.74606,   0.00000
-317039714.45864,-293157867.94278,52147499.53334,  -0.00087,  -0.00072,   0.00068,318859082.44807,   0.00000,274640135.82653,   0.00000,   0.00000,   0.00000,-155781053.37845,   0.00000
-317325368.94681,-292617669.85129,52277599.59726,  -0.00087,  -0.00071,   0.00068,318848432.17345,   0.00000,274640135.82653,   0.00000,   0.00000,   0.00000,-155791703.65308,   0.00000
-317591225.59917,-292068986.97302,52407699.66117,  -0.00088,  -0.00071,   0.00068,318825396.02122,   0.00000,274640135.82653,   0.00000,   0.00000,   0.00000,-155814739.80531,   0.00000
-317848597.46475,-291500506.25894,52543456.24961,  -0.00088,  -0.00071,   0.00068,318794123.79908,   0.00000,274640135.82653,   0.00000,   0.00000,   0.00000,-155846012.02745,   0.00000
-318097484.54355,-290912227.70905,52673556.31353,  -0.00088,  -0.00070,   0.00068,318749112.39172,   0.00000,274640135.82653,   0.00000,   0.00000,   0.00000,-155891023.43481,   0.00000
-318346371.62235,-290323949.15916,52809312.90197,  -0.00088,  -0.00070,   0.00069,318708805.27235,   0.00000,274640135.82653,   0.00000,   0.00000,   0.00000,-155931330.55418,   0.00000
-318566976.07856,-289707387.98667,52945069.49040,  -0.00088,  -0.00070,   0.00069,318643411.21918,   0.00000,274640135.82653,   0.00000,   0.00000,   0.00000,-155996724.60735,   0.00000
-318767782.69895,-289082342.02741,53080826.07884,  -0.00089,  -0.00069,   0.00069,318565668.05762,   0.00000,274640135.82653,   0.00000,   0.00000,   0.00000,-156074467.76891,   0.00000
-318979902.36839,-288445983.01911,53216582.66728,  -0.00089,  -0.00069,   0.00069,318491453.17444,   0.00000,274640135.82653,   0.00000,   0.00000,   0.00000,-156148682.65209,   0.00000
-319152426.36619,-287792654.43726,53352339.25571,  -0.00089,  -0.00069,   0.00069,318390602.18798,   0.00000,274640135.82653,   0.00000,   0.00000,   0.00000,-156249533.63855,   0.00000
-319336263.41303,-287128012.80637,53493752.36867,  -0.00089,  -0.00068,   0.00070,318296250.00207,   0.00000,274640135.82653,   0.00000,   0.00000,   0.00000,-156343885.82446,   0.00000
-319500302.62406,-286454886.38871,53635165.48162,  -0.00090,  -0.00068,   0.00070,318189590.26377,   0.00000,274640135.82653,   0.00000,   0.00000,   0.00000,-156450545.56276,   0.00000
-319655857.04831,-285761962.13522,53776578.59458,  -0.00090,  -0.00068,   0.00070,318072385.23100,   0.00000,274640135.82653,   0.00000,   0.00000,   0.00000,-156567750.59553,   0.00000
-319783128.84997,-285040755.25915,53917991.70754,  -0.00090,  -0.00067,   0.00070,317930348.62777,   0.00000,274640135.82653,   0.00000,   0.00000,   0.00000,-156709787.19876,   0.00000
-319910400.65163,-284319548.38308,54065061.34501,  -0.00090,  -0.00067,   0.00070,317793300.71014,   0.00000,274640135.82653,   0.00000,   0.00000,   0.00000,-156846835.11639,   0.00000
-320017874.61748,-283589856.72023,54206474.45796,  -0.00090,  -0.00067,   0.00070,317641069.94860,   0.00000,274640135.82653,   0.00000,   0.00000,   0.00000,-156999065.87793,   0.00000
-320136661.63236,-282848852.00835,54353544.09544,  -0.00091,  -0.00066,   0.00071,317495812.95233,   0.00000,274640135.82653,   0.00000,   0.00000,   0.00000,-157144322.87420,   0.00000
-320207368.18884,-282071079.88710,54500613.73291,  -0.00091,  -0.00066,   0.00071,317311464.19576,   0.00000,274640135.82653,   0.00000,   0.00000,   0.00000,-157328671.63077,   0.00000
-320297872.58113,-281301792.55262,54647683.37038,  -0.00091,  -0.00066,   0.00071,317143765.28430,   0.00000,274640135.82653,   0.00000,   0.00000,   0.00000,-157496370.54223,   0.00000
-320368579.13761,-280524020.43137,54800409.53238,  -0.00091,  -0.00065,   0.00071,316966757.48856,   0.00000,274640135.82653,   0.00000,   0.00000,   0.00000,-157673378.33797,   0.00000
-320411003.07149,-279717965.68752,54953135.69437,  -0.00091,  -0.00065,   0.00071,316765178.99308,   0.00000,274640135.82653,   0.00000,   0.00000,   0.00000,-157874956.83345,   0.00000
-320464740.05442,-278900597.89464,55105861.85636,  -0.00091,  -0.00064,   0.00072,316568086.75481,   0.00000,274640135.82653,   0.00000,   0.00000,   0.00000,-158072049.07172,   0.00000
-320478881.36571,-278066260.52821,55258588.01835,  -0.00092,  -0.00064,   0.00072,316344320.59905,   0.00000,274640135.82653,   0.00000,   0.00000,   0.00000,-158295815.22748,   0.00000
-320512820.51282,-277240407.94855,55411314.18034,  -0.00092,  -0.00064,   0.00072,316137387.88448,   0.00000,274640135.82653,   0.00000,   0.00000,   0.00000,-158502747.94205,   0.00000
-320518477.03734,-276386272.74630,55569696.86685,  -0.00092,  -0.00063,   0.00072,315909057.00831,   0.00000,274640135.82653,   0.00000,   0.00000,   0.00000,-158731078.81822,   0.00000
-320524133.56186,-275532137.54405,55728079.55336,  -0.00092,  -0.00063,   0.00072,315683125.79632,   0.00000,274640135.82653,   0.00000,   0.00000,   0.00000,-158957010.03021,   0.00000
-320501507.46378,-274649719.71921,55886462.23987,  -0.00092,  -0.00062,   0.00073,315432917.77960,   0.00000,274640135.82653,   0.00000,   0.00000,   0.00000,-159207218.04693,   0.00000
-320478881.36571,-273767301.89437,56050501.45090,  -0.00092,  -0.00062,   0.00073,315188176.27096,   0.00000,274640135.82653,   0.00000,   0.00000,   0.00000,-159451959.55557,   0.00000
-320427972.64505,-272856601.44694,56214540.66193,  -0.00093,  -0.00062,   0.00073,314919270.17511,   0.00000,274640135.82653,   0.00000,   0.00000,   0.00000,-159720865.65142,   0.00000
-320377063.92438,-271945900.99951,56378579.87295,  -0.00093,  -0.00061,   0.00073,314652887.57013,   0.00000,274640135.82653,   0.00000,   0.00000,   0.00000,-159987248.25640,   0.00000
-320317670.41694,-271015402.71626,56542619.08398,  -0.00093,  -0.00061,   0.00074,314377065.58246,   0.00000,274640135.82653,   0.00000,   0.00000,   0.00000,-160263070.24406,   0.00000
-320238479.07369,-270076419.64624,56712314.81953,  -0.00093,  -0.00060,   0.00074,314092269.92040,   0.00000,274640135.82653,   0.00000,   0.00000,   0.00000,-160547865.90613,   0.00000
-320159287.73043,-269137436.57622,56882010.55507,  -0.00093,  -0.00060,   0.00074,313810083.75354,   0.00000,274640135.82653,   0.00000,   0.00000,   0.00000,-160830052.07299,   0.00000
-320071611.60040,-268178655.67038,57051706.29062,  -0.00093,  -0.00060,   0.00074,313518651.70101,   0.00000,274640135.82653,   0.00000,   0.00000,   0.00000,-161121484.12552,   0.00000
-319955652.84778,-267191592.14196,57221402.02617,  -0.00093,  -0.00059,   0.00074,313203405.07553,   0.00000,274640135.82653,   0.00000,   0.00000,   0.00000,-161436730.75100,   0.00000
-319848178.88193,-266224326.44934,57396754.28623,  -0.00094,  -0.00059,   0.00075,312905809.70379,   0.00000,274640135.82653,   0.00000,   0.00000,   0.00000,-161734326.12274,   0.00000
-319712422.29349,-265228778.13414,57572106.54630,  -0.00094,  -0.00058,   0.00075,312584460.51688,   0.00000,274640135.82653,   0.00000,   0.00000,   0.00000,-162055675.30965,   0.00000
-319568180.91828,-264213431.98312,57747458.80636,  -0.00094,  -0.00058,   0.00075,312254160.99465,   0.00000,274640135.82653,   0.00000,   0.00000,   0.00000,-162385974.83188,   0.00000
-319423939.54307,-263198085.83210,57928467.59094,  -0.00094,  -0.00057,   0.00075,311929860.95357,   0.00000,274640135.82653,   0.00000,   0.00000,   0.00000,-162710274.87296,   0.00000
-319259900.33204,-262174254.89431,58109476.37553,  -0.00094,  -0.00057,   0.00076,311593695.59755,   0.00000,274640135.82653,   0.00000,   0.00000,   0.00000,-163046440.22898,   0.00000
-319087376.33423,-261130626.12070,58290485.16011,  -0.00094,  -0.00057,   0.00076,311248796.37564,   0.00000,274640135.82653,   0.00000,   0.00000,   0.00000,-163391339.45089,   0.00000
-318895054.50061,-260078512.56031,58471493.94469,  -0.00094,  -0.00056,   0.00076,310892077.50528,   0.00000,274640135.82653,   0.00000,   0.00000,   0.00000,-163748058.32125,   0.00000
-318722530.50281,-259034883.78670,58658159.25379,  -0.00095,  -0.00056,   0.00076,310556287.58831,   0.00000,274640135.82653,   0.00000,   0.00000,   0.00000,-164083848.23822,   0.00000
-318501926.04660,-257954487.60373,58844824.56289,  -0.00095,  -0.00055,   0.00076,310182419.82688,   0.00000,274640135.82653,   0.00000,   0.00000,   0.00000,-164457715.99965,   0.00000
-318292634.63942,-256862778.37171,59037146.39651,  -0.00095,  -0.00055,   0.00077,309818191.32152,   0.00000,274640135.82653,   0.00000,   0.00000,   0.00000,-164821944.50501,   0.00000
-318072030.18321,-255782382.18874,59229468.23013,  -0.00095,  -0.00054,   0.00077,309453730.88011,   0.00000,274640135.82653,   0.00000,   0.00000,   0.00000,-165186404.94642,   0.00000
-317823143.10441,-254673703.38317,59421790.06375,  -0.00095,  -0.00054,   0.00077,309066167.69800,   0.00000,274640135.82653,   0.00000,   0.00000,   0.00000,-165573968.12853,   0.00000
-317574256.02561,-253565024.57760,59614111.89737,  -0.00095,  -0.00053,   0.00077,308681766.15545,   0.00000,274640135.82653,   0.00000,   0.00000,   0.00000,-165958369.67108,   0.00000
-317316884.16003,-252436547.93622,59812090.25551,  -0.00095,  -0.00053,   0.00078,308292548.22319,   0.00000,274640135.82653,   0.00000,   0.00000,   0.00000,-166347587.60334,   0.00000
-317059512.29446,-251308071.29483,60010068.61364,  -0.00095,  -0.00053,   0.00078,307906627.92309,   0.00000,274640135.82653,   0.00000,   0.00000,   0.00000,-166733507.90344,   0.00000
-316782342.59306,-250171109.86668,60213703.49630,  -0.00095,  -0.00052,   0.00078,307512466.12816,   0.00000,274640135.82653,   0.00000,   0.00000,   0.00000,-167127669.69837,   0.00000
-316476890.26908,-249005865.81593,60411681.85443,  -0.00095,  -0.00052,   0.00079,307092258.33027,   0.00000,274640135.82653,   0.00000,   0.00000,   0.00000,-167547877.49626,   0.00000
-316191235.78091,-247849106.55195,60620973.26161,  -0.00096,  -0.00051,   0.00079,306697031.47073,   0.00000,274640135.82653,   0.00000,   0.00000,   0.00000,-167943104.35580,   0.00000
-315857500.83434,-246655579.87861,60824608.14426,  -0.00096,  -0.00051,   0.00079,306261032.06085,   0.00000,274640135.82653,   0.00000,   0.00000,   0.00000,-168379103.76568,   0.00000
-315552048.51035,-245490335.82786,61033899.55144,  -0.00096,  -0.00050,   0.00079,305857863.43880,   0.00000,274640135.82653,   0.00000,   0.00000,   0.00000,-168782272.38773,   0.00000
-315218313.56378,-244296809.15452,61243190.95861,  -0.00096,  -0.00050,   0.00080,305432272.84416,   0.00000,274640135.82653,   0.00000,   0.00000,   0.00000,-169207862.98237,   0.00000
-314876093.83043,-243083484.64536,61452482.36578,  -0.00096,  -0.00049,   0.00080,304999310.85196,   0.00000,274640135.82653,   0.00000,   0.00000,   0.00000,-169640824.97457,   0.00000
-314522561.04804,-241881473.18525,61667430.29748,  -0.00096,  -0.00049,   0.00080,304569407.42739,   0.00000,274640135.82653,   0.00000,   0.00000,   0.00000,-170070728.39914,   0.00000
-314160543.47888,-240659663.88931,61888034.75369,  -0.00096,  -0.00048,   0.00080,304135720.75370,   0.00000,274640135.82653,   0.00000,   0.00000,   0.00000,-170504415.07283,   0.00000
-313798525.90971,-239437854.59338,62102982.68538,  -0.00096,  -0.00048,   0.00081,303702315.81643,   0.00000,274640135.82653,   0.00000,   0.00000,   0.00000,-170937820.01010,   0.00000
-313408225.71795,-238187762.67486,62323587.14159,  -0.00096,  -0.00047,   0.00081,303250409.21763,   0.00000,274640135.82653,   0.00000,   0.00000,   0.00000,-171389726.60890,   0.00000
-313017925.52620,-236937670.75633,62544191.59780,  -0.00096,  -0.00047,   0.00081,302802363.02392,   0.00000,274640135.82653,   0.00000,   0.00000,   0.00000,-171837772.80261,   0.00000
-312627625.33444,-235687578.83781,62770452.57853,  -0.00096,  -0.00046,   0.00082,302361717.15105,   0.00000,274640135.82653,   0.00000,   0.00000,   0.00000,-172278418.67548,   0.00000
-312217527.30687,-234429002.13251,62996713.55925,  -0.00096,  -0.00046,   0.00082,301910012.72139,   0.00000,274640135.82653,   0.00000,   0.00000,   0.00000,-172730123.10514,   0.00000
-311798944.49252,-233150627.59140,63222974.53998,  -0.00096,  -0.00045,   0.00082,301451672.53010,   0.00000,274640135.82653,   0.00000,   0.00000,   0.00000,-173188463.29642,   0.00000
-311360563.84236,-231863768.26350,63454892.04523,  -0.00096,  -0.00045,   0.00082,300985953.32982,   0.00000,274640135.82653,   0.00000,   0.00000,   0.00000,-173654182.49671,   0.00000
-310922183.19220,-230576908.93561,63686809.55048,  -0.00097,  -0.00044,   0.00083,300524322.05646,   0.00000,274640135.82653,   0.00000,   0.00000,   0.00000,-174115813.77007,   0.00000
-310483802.54204,-229290049.60772,63924383.58024,  -0.00097,  -0.00044,   0.00083,300070412.48873,   0.00000,274640135.82653,   0.00000,   0.00000,   0.00000,-174569723.33779,   0.00000
-310017139.26929,-227974907.65724,64156301.08549,  -0.00097,  -0.00043,   0.00083,299591637.68683,   0.00000,274640135.82653,   0.00000,   0.00000,   0.00000,-175048498.13970,   0.00000
-309550475.99654,-226659765.70675,64399531.63977,  -0.00097,  -0.00043,   0.00084,299124400.94783,   0.00000,274640135.82653,   0.00000,   0.00000,   0.00000,-175515734.87870,   0.00000
-309083812.72379,-225344623.75627,64637105.66953,  -0.00097,  -0.00042,   0.00084,298657820.16270,   0.00000,274640135.82653,   0.00000,   0.00000,   0.00000,-175982315.66383,   0.00000
-308588866.82844,-224001199.18320,64880336.22382,  -0.00097,  -0.00042,   0.00084,298173982.47896,   0.00000,274640135.82653,   0.00000,   0.00000,   0.00000,-176466153.34757,   0.00000
-308102405.71988,-222677572.44594,65123566.77810,  -0.00097,  -0.00041,   0.00085,297704777.85894,   0.00000,274640135.82653,   0.00000,   0.00000,   0.00000,-176935357.96759,   0.00000
-307607459.82453,-221334147.87286,65372453.85690,  -0.00097,  -0.00041,   0.00085,297233565.60881,   0.00000,274640135.82653,   0.00000,   0.00000,   0.00000,-177406570.21772,   0.00000
-307092716.09338,-219982238.51301,65621340.93570,  -0.00097,  -0.00040,   0.00085,296751848.48648,   0.00000,274640135.82653,   0.00000,   0.00000,   0.00000,-177888287.34005,   0.00000
-306569487.57544,-218610531.31735,65875884.53902,  -0.00097,  -0.00040,   0.00086,296268447.59772,   0.00000,274640135.82653,   0.00000,   0.00000,   0.00000,-178371688.22881,   0.00000
-306034946.00847,-217250137.17072,66130428.14234,  -0.00097,  -0.00039,   0.00086,295784679.89164,   0.00000,274640135.82653,   0.00000,   0.00000,   0.00000,-178855455.93489,   0.00000
-305491919.65473,-215869945.18828,66384971.74566,  -0.00097,  -0.00039,   0.00086,295295641.14563,   0.00000,274640135.82653,   0.00000,   0.00000,   0.00000,-179344494.68090,   0.00000
-304948893.30098,-214489753.20584,66639515.34898,  -0.00097,  -0.00038,   0.00087,294811370.04721,   0.00000,274640135.82653,   0.00000,   0.00000,   0.00000,-179828765.77932,   0.00000
-304386069.11142,-213101076.43662,66899715.47682,  -0.00097,  -0.00038,   0.00087,294320683.37143,   0.00000,274640135.82653,   0.00000,   0.00000,   0.00000,-180319452.45509,   0.00000
-303814760.13508,-211692601.83158,67165572.12917,  -0.00097,  -0.00037,   0.00087,293828983.14605,   0.00000,274640135.82653,   0.00000,   0.00000,   0.00000,-180811152.68048,   0.00000
-303251935.94552,-210303925.06236,67431428.78153,  -0.00097,  -0.00037,   0.00088,293352003.40511,   0.00000,274640135.82653,   0.00000,   0.00000,   0.00000,-181288132.42142,   0.00000
-302660829.13336,-208886965.67055,67697285.43388,  -0.00097,  -0.00036,   0.00088,292855266.40150,   0.00000,274640135.82653,   0.00000,   0.00000,   0.00000,-181784869.42503,   0.00000
-302069722.32121,-207470006.27874,67963142.08624,  -0.00097,  -0.00035,   0.00088,292363608.38623,   0.00000,274640135.82653,   0.00000,   0.00000,   0.00000,-182276527.44030,   0.00000
-301478615.50906,-206053046.88693,68234655.26311,  -0.00097,  -0.00035,   0.00089,291881021.95994,   0.00000,274640135.82653,   0.00000,   0.00000,   0.00000,-182759113.86659,   0.00000
-300859226.07432,-204607804.87253,68506168.43999,  -0.00097,  -0.00034,   0.00089,291379078.26243,   0.00000,274640135.82653,   0.00000,   0.00000,   0.00000,-183261057.56410,   0.00000
-300248321.42635,-203182360.69394,68783338.14138,  -0.00097,  -0.00034,   0.00089,290895868.46897,   0.00000,274640135.82653,   0.00000,   0.00000,   0.00000,-183744267.35756,   0.00000
-299628931.99161,-201737118.67954,69060507.84277,  -0.00097,  -0.00033,   0.00090,290408584.16556,   0.00000,274640135.82653,   0.00000,   0.00000,   0.00000,-184231551.66097,   0.00000
-298989744.72105,-200283391.87836,69343334.06868,  -0.00097,  -0.00033,   0.00090,289915708.85408,   0.00000,274640135.82653,   0.00000,   0.00000,   0.00000,-184724426.97245,   0.00000
-298350557.45049,-198829665.07718,69626160.29459,  -0.00097,  -0.00032,   0.00091,289428326.23010,   0.00000,274640135.82653,   0.00000,   0.00000,   0.00000,-185211809.59643,   0.00000
-297691572.34412,-197367453.48923,69908986.52050,  -0.00097,  -0.00032,   0.00091,288931402.88267,   0.00000,274640135.82653,   0.00000,   0.00000,   0.00000,-185708732.94386,   0.00000
-297024102.45097,-195885444.06546,70191812.74641,  -0.00097,  -0.00031,   0.00091,288430924.41113,   0.00000,274640135.82653,   0.00000,   0.00000,   0.00000,-186209211.41540,   0.00000
-296365117.34460,-194423232.47750,70480295.49684,  -0.00097,  -0.00031,   0.00092,287949349.98700,   0.00000,274640135.82653,   0.00000,   0.00000,   0.00000,-186690785.83953,   0.00000
-295697647.45145,-192941223.05373,70774434.77179,  -0.00097,  -0.00030,   0.00092,287468625.00140,   0.00000,274640135.82653,   0.00000,   0.00000,   0.00000,-187171510.82513,   0.00000
-295010379.72249,-191450728.84318,71068574.04673,  -0.00097,  -0.00030,   0.00092,286978710.28271,   0.00000,274640135.82653,   0.00000,   0.00000,   0.00000,-187661425.54382,   0.00000
-294331596.78031,-189980032.46845,71362713.32168,  -0.00097,  -0.00029,   0.00093,286503552.93616,   0.00000,274640135.82653,   0.00000,   0.00000,   0.00000,-188136582.89037,   0.00000
-293616046.42875,-188461255.63531,71656852.59663,  -0.00097,  -0.00028,   0.00093,286001560.10696,   0.00000,274640135.82653,   0.00000,   0.00000,   0.00000,-188638575.71957,   0.00000
-292908980.86398,-186962276.63799,71956648.39609,  -0.00097,  -0.00028,   0.00094,285518671.52883,   0.00000,274640135.82653,   0.00000,   0.00000,   0.00000,-189121464.29770,   0.00000
-292201915.29920,-185463297.64066,72262100.72008,  -0.00097,  -0.00027,   0.00094,285046131.16020,   0.00000,274640135.82653,   0.00000,   0.00000,   0.00000,-189594004.66633,   0.00000
-291475051.89861,-183955833.85656,72561896.51954,  -0.00097,  -0.00027,   0.00094,284560371.35959,   0.00000,274640135.82653,   0.00000,   0.00000,   0.00000,-190079764.46694,   0.00000
-290759501.54706,-182437057.02342,72867348.84352,  -0.00097,  -0.00026,   0.00095,284091554.49233,   0.00000,274640135.82653,   0.00000,   0.00000,   0.00000,-190548581.33420,   0.00000
-290004355.52388,-180901310.61673,73178457.69202,  -0.00097,  -0.00026,   0.00095,283603424.55159,   0.00000,274640135.82653,   0.00000,   0.00000,   0.00000,-191036711.27494,   0.00000
-289277492.12329,-179393846.83263,73489566.54053,  -0.00097,  -0.00025,   0.00096,283145133.78725,   0.00000,274640135.82653,   0.00000,   0.00000,   0.00000,-191495002.03928,   0.00000
-288522346.10011,-177858100.42594,73800675.38903,  -0.00097,  -0.00025,   0.00096,282669826.37357,   0.00000,274640135.82653,   0.00000,   0.00000,   0.00000,-191970309.45296,   0.00000
-287767200.07693,-176322354.01924,74117440.76205,  -0.00097,  -0.00024,   0.00096,282205472.86553,   0.00000,274640135.82653,   0.00000,   0.00000,   0.00000,-192434662.96100,   0.00000
-286992256.21793,-174778122.82577,74434206.13507,  -0.00096,  -0.00024,   0.00097,281732732.69028,   0.00000,274640135.82653,   0.00000,   0.00000,   0.00000,-192907403.13625,   0.00000
-286217312.35894,-173233891.63230,74750971.50809,  -0.00096,  -0.00023,   0.00097,281266626.98546,   0.00000,274640135.82653,   0.00000,   0.00000,   0.00000,-193373508.84107,   0.00000
-285433883.71317,-171669862.60302,75073393.40562,  -0.00096,  -0.00022,   0.00098,280803652.55948,   0.00000,274640135.82653,   0.00000,   0.00000,   0.00000,-193836483.26705,   0.00000
-284658939.85417,-170125631.40955,75395815.30316,  -0.00096,  -0.00022,   0.00098,280355573.36715,   0.00000,274640135.82653,   0.00000,   0.00000,   0.00000,-194284562.45938,   0.00000
-283864198.15937,-168572915.42930,75723893.72522,  -0.00096,  -0.00021,   0.00098,279903947.07112,   0.00000,274640135.82653,   0.00000,   0.00000,   0.00000,-194736188.75541,   0.00000
-283041173.84197,-166991916.82646,76046315.62276,  -0.00096,  -0.00021,   0.00099,279431824.55461,   0.00000,274640135.82653,   0.00000,   0.00000,   0.00000,-195208311.27192,   0.00000
-282246432.14716,-165439200.84622,76380050.56933,  -0.00096,  -0.00020,   0.00099,278998727.30038,   0.00000,274640135.82653,   0.00000,   0.00000,   0.00000,-195641408.52615,   0.00000
-281423407.82976,-163858202.24338,76708128.99139,  -0.00096,  -0.00020,   0.00100,278545368.65803,   0.00000,274640135.82653,   0.00000,   0.00000,   0.00000,-196094767.16850,   0.00000
-280600383.51236,-162277203.64054,77041863.93796,  -0.00096,  -0.00019,   0.00100,278103877.83872,   0.00000,274640135.82653,   0.00000,   0.00000,   0.00000,-196536257.98781,   0.00000
-279766046.14593,-160707518.08674,77381255.40905,  -0.00096,  -0.00019,   0.00101,277667095.80128,   0.00000,274640135.82653,   0.00000,   0.00000,   0.00000,-196973040.02525,   0.00000
-278943021.82853,-159126519.48390,77720646.88014,  -0.00096,  -0.00018,   0.00101,277244879.63964,   0.00000,274640135.82653,   0.00000,   0.00000,   0.00000,-197395256.18689,   0.00000
-278100199.67532,-157537036.09428,78060038.35124,  -0.00096,  -0.00017,   0.00101,276815220.62367,   0.00000,274640135.82653,   0.00000,   0.00000,   0.00000,-197824915.20285,   0.00000
-277237579.68629,-155939067.91789,78399429.82233,  -0.00096,  -0.00017,   0.00102,276378201.95290,   0.00000,274640135.82653,   0.00000,   0.00000,   0.00000,-198261933.87363,   0.00000
-276374959.69726,-154341099.74150,78744477.81794,  -0.00096,  -0.00016,   0.00102,275953540.57676,   0.00000,274640135.82653,   0.00000,   0.00000,   0.00000,-198686595.24977,   0.00000
-275512339.70824,-152743131.56510,79089525.81355,  -0.00096,  -0.00016,   0.00103,275536486.33202,   0.00000,274640135.82653,   0.00000,   0.00000,   0.00000,-199103649.49451,   0.00000
-274649719.71921,-151145163.38871,79440230.33368,  -0.00095,  -0.00015,   0.00103,275131973.39172,   0.00000,274640135.82653,   0.00000,   0.00000,   0.00000,-199508162.43481,   0.00000
-273767301.89437,-149538710.42554,79790934.85381,  -0.00095,  -0.00015,   0.00104,274720461.69666,   0.00000,274640135.82653,   0.00000,   0.00000,   0.00000,-199919674.12987,   0.00000
-272884884.06953,-147932257.46237,80141639.37394,  -0.00095,  -0.00014,   0.00104,274316756.52139,   0.00000,274640135.82653,   0.00000,   0.00000,   0.00000,-200323379.30514,   0.00000
-272002466.24469,-146325804.49920,80498000.41858,  -0.00095,  -0.00014,   0.00105,273925879.06345,   0.00000,274640135.82653,   0.00000,   0.00000,   0.00000,-200714256.76308,   0.00000
-271100250.58404,-144710866.74925,80854361.46323,  -0.00095,  -0.00013,   0.00105,273528265.24323,   0.00000,274640135.82653,   0.00000,   0.00000,   0.00000,-201111870.58330,   0.00000
-270198034.92338,-143095928.99930,81210722.50788,  -0.00095,  -0.00012,   0.00106,273138661.67615,   0.00000,274640135.82653,   0.00000,   0.00000,   0.00000,-201501474.15038,   0.00000
-269295819.26273,-141480991.24936,81572740.07704,  -0.00095,  -0.00012,   0.00106,272762177.50949,   0.00000,274640135.82653,   0.00000,   0.00000,   0.00000,-201877958.31704,   0.00000
-268373805.76626,-139857568.71263,81934757.64621,  -0.00095,  -0.00011,   0.00107,272379229.56547,   0.00000,274640135.82653,   0.00000,   0.00000,   0.00000,-202260906.26106,   0.00000
-267463105.31883,-138222833.12687,82296775.21537,  -0.00095,  -0.00011,   0.00107,272012561.77405,   0.00000,274640135.82653,   0.00000,   0.00000,   0.00000,-202627574.05248,   0.00000
-266521293.98655,-136590925.80337,82664449.30906,  -0.00095,  -0.00010,   0.00107,271636750.83990,   0.00000,274640135.82653,   0.00000,   0.00000,   0.00000,-203003384.98663,   0.00000
-265599280.49008,-134967503.26664,83032123.40274,  -0.00095,  -0.00010,   0.00108,271283861.53257,   0.00000,274640135.82653,   0.00000,   0.00000,   0.00000,-203356274.29396,   0.00000
-264657469.15780,-133335595.94314,83399797.49642,  -0.00094,  -0.00009,   0.00108,270924850.13911,   0.00000,274640135.82653,   0.00000,   0.00000,   0.00000,-203715285.68742,   0.00000
-263715657.82552,-131703688.61964,83773128.11462,  -0.00094,  -0.00009,   0.00109,270579555.54387,   0.00000,274640135.82653,   0.00000,   0.00000,   0.00000,-204060580.28266,   0.00000
-262773846.49324,-130071781.29614,84146458.73283,  -0.00094,  -0.00008,   0.00109,270242816.64979,   0.00000,274640135.82653,   0.00000,   0.00000,   0.00000,-204397319.17674,   0.00000
-261812237.32514,-128431389.18586,84519789.35103,  -0.00094,  -0.00007,   0.00110,269900248.92857,   0.00000,274640135.82653,   0.00000,   0.00000,   0.00000,-204739886.89796,   0.00000
-260850628.15705,-126790997.07558,84898776.49375,  -0.00094,  -0.00007,   0.00110,269571702.27590,   0.00000,274640135.82653,   0.00000,   0.00000,   0.00000,-205068433.55063,   0.00000
-259889018.98895,-125150604.96530,85277763.63647,  -0.00094,  -0.00006,   0.00111,269251924.92613,   0.00000,274640135.82653,   0.00000,   0.00000,   0.00000,-205388210.90040,   0.00000
-258907611.98504,-123501728.06824,85656750.77919,  -0.00094,  -0.00006,   0.00111,268926621.50038,   0.00000,274640135.82653,   0.00000,   0.00000,   0.00000,-205713514.32615,   0.00000
-257926204.98114,-121852851.17118,86041394.44642,  -0.00094,  -0.00005,   0.00112,268615646.90215,   0.00000,274640135.82653,   0.00000,   0.00000,   0.00000,-206024488.92438,   0.00000
-256944797.97723,-120203974.27413,86426038.11366,  -0.00093,  -0.00005,   0.00112,268313657.76829,   0.00000,274640135.82653,   0.00000,   0.00000,   0.00000,-206326478.05824,   0.00000
-255943593.13750,-118546612.59029,86810681.78090,  -0.00093,  -0.00004,   0.00113,268006454.50795,   0.00000,274640135.82653,   0.00000,   0.00000,   0.00000,-206633681.31857,   0.00000
-254962186.13360,-116897735.69324,87195325.44814,  -0.00093,  -0.00003,   0.00113,267722559.86718,   0.00000,274640135.82653,   0.00000,   0.00000,   0.00000,-206917575.95935,   0.00000
-253960981.29387,-115240374.00940,87585625.63989,  -0.00093,  -0.00003,   0.00114,267439134.77587,   0.00000,274640135.82653,   0.00000,   0.00000,   0.00000,-207201001.05065,   0.00000
-252948463.40511,-113594325.37460,87975925.83165,  -0.00093,  -0.00002,   0.00114,267156089.99063,   0.00000,274640135.82653,   0.00000,   0.00000,   0.00000,-207484045.83590,   0.00000
-251947258.56539,-111936963.69077,88371882.54792,  -0.00093,  -0.00002,   0.00115,266896726.61930,   0.00000,274640135.82653,   0.00000,   0.00000,   0.00000,-207743409.20723,   0.00000
-250926255.88986,-110271117.22016,88767839.26420,  -0.00093,  -0.00001,   0.00115,266632658.30341,   0.00000,274640135.82653,   0.00000,   0.00000,   0.00000,-208007477.52312,   0.00000
-249893940.16528,-108616583.79858,89163795.98047,  -0.00093,  -0.00001,   0.00116,266369039.22120,   0.00000,274640135.82653,   0.00000,   0.00000,   0.00000,-208271096.60533,   0.00000
-248872937.48975,-106950737.32797,89559752.69675,  -0.00092,  -0.00000,   0.00116,266123848.93800,   0.00000,274640135.82653,   0.00000,   0.00000,   0.00000,-208516286.88853,   0.00000
-247840621.76518,-105296203.90640,89955709.41302,  -0.00092,   0.00000,   0.00117,265879064.00537,   0.00000,274640135.82653,   0.00000,   0.00000,   0.00000,-208761071.82116,   0.00000
-246808306.04060,-103641670.48482,90357322.65382,  -0.00092,   0.00001,   0.00117,265649483.22072,   0.00000,274640135.82653,   0.00000,   0.00000,   0.00000,-208990652.60581,   0.00000
-245767505.52925,-101967339.22743,90758935.89461,  -0.00092,   0.00002,   0.00118,265424753.49895,   0.00000,274640135.82653,   0.00000,   0.00000,   0.00000,-209215382.32758,   0.00000
-244715391.96887,-100304321.01908,91166205.65992,  -0.00092,   0.00002,   0.00119,265206334.40870,   0.00000,274640135.82653,   0.00000,   0.00000,   0.00000,-209433801.41783,   0.00000
-243663278.40848,-98641302.81073,91573475.42523,  -0.00092,   0.00003,   0.00119,264997624.21574,   0.00000,274640135.82653,   0.00000,   0.00000,   0.00000,-209642511.61079,   0.00000
-242611164.84809,-96978284.60237,91975088.66602,  -0.00091,   0.00003,   0.00120,264792751.42342,   0.00000,274640135.82653,   0.00000,   0.00000,   0.00000,-209847384.40311,   0.00000
-241539253.45189,-95306781.60724,92388014.95585,  -0.00091,   0.00004,   0.00120,264595730.54485,   0.00000,274640135.82653,   0.00000,   0.00000,   0.00000,-210044405.28168,   0.00000
-240467342.05569,-93635278.61212,92795284.72116,  -0.00091,   0.00004,   0.00121,264402677.79477,   0.00000,274640135.82653,   0.00000,   0.00000,   0.00000,-210237458.03176,   0.00000
-239395430.65949,-91963775.61699,93208211.01099,  -0.00091,   0.00005,   0.00121,264225495.31997,   0.00000,274640135.82653,   0.00000,   0.00000,   0.00000,-210414640.50656,   0.00000
-238332004.05007,-90312070.45767,93621137.30082,  -0.00091,   0.00005,   0.00122,264062321.30178,   0.00000,274640135.82653,   0.00000,   0.00000,   0.00000,-210577814.52475,   0.00000
-237240294.81806,-88632082.67576,94034063.59065,  -0.00091,   0.00006,   0.00122,263891488.09042,   0.00000,274640135.82653,   0.00000,   0.00000,   0.00000,-210748647.73611,   0.00000
-236157070.37282,-86971892.72967,94446989.88048,  -0.00090,   0.00006,   0.00123,263734613.41410,   0.00000,274640135.82653,   0.00000,   0.00000,   0.00000,-210905522.41243,   0.00000
-235065361.14081,-85291904.94776,94865572.69482,  -0.00090,   0.00007,   0.00123,263590006.00762,   0.00000,274640135.82653,   0.00000,   0.00000,   0.00000,-211050129.81891,   0.00000
-233982136.69557,-83631715.00167,95284155.50917,  -0.00090,   0.00008,   0.00124,263459271.13774,   0.00000,274640135.82653,   0.00000,   0.00000,   0.00000,-211180864.68879,   0.00000
-232879114.41452,-81963040.26880,95702738.32352,  -0.00090,   0.00008,   0.00124,263325243.82584,   0.00000,274640135.82653,   0.00000,   0.00000,   0.00000,-211314892.00069,   0.00000
-231776092.13347,-80294365.53593,96121321.13787,  -0.00090,   0.00009,   0.00125,263201354.26911,   0.00000,274640135.82653,   0.00000,   0.00000,   0.00000,-211438781.55742,   0.00000
-230673069.85242,-78625690.80306,96545560.47673,  -0.00090,   0.00009,   0.00126,263093843.87683,   0.00000,274640135.82653,   0.00000,   0.00000,   0.00000,-211546291.94969,   0.00000
-229550249.73556,-76948531.28341,96964143.29108,  -0.00089,   0.00010,   0.00126,262977136.45859,   0.00000,274640135.82653,   0.00000,   0.00000,   0.00000,-211662999.36794,   0.00000
-228435914.40547,-75291169.59957,97388382.62994,  -0.00089,   0.00010,   0.00127,262880222.24890,   0.00000,274640135.82653,   0.00000,   0.00000,   0.00000,-211759913.57763,   0.00000
-227313094.28861,-73614010.07993,97812621.96881,  -0.00089,   0.00011,   0.00127,262790342.19333,   0.00000,274640135.82653,   0.00000,   0.00000,   0.00000,-211849793.63320,   0.00000
-226198758.95852,-71956648.39609,98242517.83219,  -0.00089,   0.00011,   0.00128,262720212.71077,   0.00000,274640135.82653,   0.00000,   0.00000,   0.00000,-211919923.11576,   0.00000
-225056141.00584,-70271004.08967,98666757.17106,  -0.00089,   0.00012,   0.00128,262638052.32133,   0.00000,274640135.82653,   0.00000,   0.00000,   0.00000,-212002083.50520,   0.00000
-223922007.83994,-68605157.61906,99096653.03444,  -0.00089,   0.00012,   0.00129,262575643.44900,   0.00000,274640135.82653,   0.00000,   0.00000,   0.00000,-212064492.37753,   0.00000
-222787874.67404,-66939311.14844,99526548.89783,  -0.00088,   0.00013,   0.00129,262523605.45755,   0.00000,274640135.82653,   0.00000,   0.00000,   0.00000,-212116530.36898,   0.00000
-221633943.67233,-65264979.89106,99956444.76121,  -0.00088,   0.00014,   0.00130,262469160.58631,   0.00000,274640135.82653,   0.00000,   0.00000,   0.00000,-212170975.24022,   0.00000
-220488497.45739,-63610446.46948,100386340.62459,  -0.00088,   0.00014,   0.00131,262427793.49453,   0.00000,274640135.82653,   0.00000,   0.00000,   0.00000,-212212342.33200,   0.00000
-219334566.45568,-61936115.21209,100821893.01250,  -0.00088,   0.00015,   0.00131,262400773.17672,   0.00000,274640135.82653,   0.00000,   0.00000,   0.00000,-212239362.64981,   0.00000
-218189120.24074,-60281581.79052,101251788.87588,  -0.00088,   0.00015,   0.00132,262380163.59607,   0.00000,274640135.82653,   0.00000,   0.00000,   0.00000,-212259972.23046,   0.00000
-217043674.02580,-58627048.36894,101687341.26378,  -0.00087,   0.00016,   0.00132,262376453.55420,   0.00000,274640135.82653,   0.00000,   0.00000,   0.00000,-212263682.27233,   0.00000
-215878429.97505,-56964030.16059,102122893.65168,  -0.00087,   0.00016,   0.00133,262370631.14589,   0.00000,274640135.82653,   0.00000,   0.00000,   0.00000,-212269504.68064,   0.00000
-214713185.92430,-55301011.95224,102558446.03958,  -0.00087,   0.00017,   0.00133,262375307.97270,   0.00000,274640135.82653,   0.00000,   0.00000,   0.00000,-212264827.85383,   0.00000
-213528144.03774,-53629508.95711,102993998.42749,  -0.00087,   0.00017,   0.00134,262378112.94039,   0.00000,274640135.82653,   0.00000,   0.00000,   0.00000,-212262022.88614,   0.00000
-212362899.98699,-51966490.74875,103429550.81539,  -0.00086,   0.00018,   0.00134,262403846.61756,   0.00000,274640135.82653,   0.00000,   0.00000,   0.00000,-212236289.20897,   0.00000
-211186342.88720,-50314785.58944,103870759.72781,  -0.00086,   0.00018,   0.00135,262436387.88951,   0.00000,274640135.82653,   0.00000,   0.00000,   0.00000,-212203747.93702,   0.00000
-210009785.78742,-48663080.43012,104306312.11571,  -0.00086,   0.00019,   0.00136,262472670.32603,   0.00000,274640135.82653,   0.00000,   0.00000,   0.00000,-212167465.50050,   0.00000
-208813430.85182,-47002890.48403,104747521.02813,  -0.00086,   0.00019,   0.00136,262514028.73114,   0.00000,274640135.82653,   0.00000,   0.00000,   0.00000,-212126107.09539,   0.00000
-207617075.91622,-45342700.53794,105188729.94055,  -0.00086,   0.00020,   0.00137,262565988.89376,   0.00000,274640135.82653,   0.00000,   0.00000,   0.00000,-212074146.93277,   0.00000
-206440518.81643,-43690995.37862,105629938.85297,  -0.00085,   0.00020,   0.00137,262640535.86423,   0.00000,274640135.82653,   0.00000,   0.00000,   0.00000,-211999599.96230,   0.00000
-205232850.83179,-42042118.48156,106071147.76539,  -0.00085,   0.00021,   0.00138,262703072.15711,   0.00000,274640135.82653,   0.00000,   0.00000,   0.00000,-211937063.66942,   0.00000
-204036495.89619,-40381928.53547,106512356.67781,  -0.00085,   0.00021,   0.00138,262786702.45870,   0.00000,274640135.82653,   0.00000,   0.00000,   0.00000,-211853433.36783,   0.00000
-202828827.91155,-38733051.63841,106953565.59023,  -0.00085,   0.00022,   0.00139,262870308.01012,   0.00000,274640135.82653,   0.00000,   0.00000,   0.00000,-211769827.81641,   0.00000
-201621159.92692,-37084174.74136,107394774.50265,  -0.00085,   0.00022,   0.00140,262964420.77145,   0.00000,274640135.82653,   0.00000,   0.00000,   0.00000,-211675715.05508,   0.00000
-200421976.72906,-35455095.68011,107841639.93959,  -0.00084,   0.00023,   0.00140,263077004.16213,   0.00000,274640135.82653,   0.00000,   0.00000,   0.00000,-211563131.66440,   0.00000
-199194510.90861,-33797733.99628,108282848.85201,  -0.00084,   0.00023,   0.00141,263180438.05100,   0.00000,274640135.82653,   0.00000,   0.00000,   0.00000,-211459697.77553,   0.00000
-197995327.71075,-32168654.93503,108729714.28895,  -0.00084,   0.00024,   0.00141,263313845.22620,   0.00000,274640135.82653,   0.00000,   0.00000,   0.00000,-211326290.60033,   0.00000
-196776346.67707,-30531091.08701,109170923.20137,  -0.00084,   0.00024,   0.00142,263439087.81403,   0.00000,274640135.82653,   0.00000,   0.00000,   0.00000,-211201048.01250,   0.00000
-195537567.80759,-28885042.45222,109617788.63830,  -0.00083,   0.00025,   0.00143,263570396.50216,   0.00000,274640135.82653,   0.00000,   0.00000,   0.00000,-211069739.32437,   0.00000
-194318586.77391,-27247478.60420,110064654.07524,  -0.00083,   0.00025,   0.00143,263723588.15754,   0.00000,274640135.82653,   0.00000,   0.00000,   0.00000,-210916547.66899,   0.00000
-193079807.90443,-25601429.96940,110505862.98766,  -0.00083,   0.00026,   0.00144,263868837.72106,   0.00000,274640135.82653,   0.00000,   0.00000,   0.00000,-210771298.10547,   0.00000
-191849513.82172,-23975179.17041,110952728.42460,  -0.00083,   0.00027,   0.00144,264032086.18810,   0.00000,274640135.82653,   0.00000,   0.00000,   0.00000,-210608049.63843,   0.00000
-190619219.73901,-22348928.37143,111399593.86154,  -0.00082,   0.00027,   0.00145,264205667.58236,   0.00000,274640135.82653,   0.00000,   0.00000,   0.00000,-210434468.24417,   0.00000
-189369127.82048,-20714192.78567,111846459.29848,  -0.00082,   0.00028,   0.00145,264378529.96366,   0.00000,274640135.82653,   0.00000,   0.00000,   0.00000,-210261605.86287,   0.00000
-188119035.90196,-19079457.19991,112293324.73542,  -0.00082,   0.00028,   0.00146,264561827.56049,   0.00000,274640135.82653,   0.00000,   0.00000,   0.00000,-210078308.26604,   0.00000
-186877428.77021,-17464519.44996,112740190.17235,  -0.00082,   0.00028,   0.00147,264755566.08722,   0.00000,274640135.82653,   0.00000,   0.00000,   0.00000,-209884569.73931,   0.00000
-185635821.63847,-15849581.70001,113187055.60929,  -0.00081,   0.00029,   0.00147,264959517.78800,   0.00000,274640135.82653,   0.00000,   0.00000,   0.00000,-209680618.03853,   0.00000
-184374416.67091,-14226159.16329,113628264.52171,  -0.00081,   0.00029,   0.00148,265155646.41306,   0.00000,274640135.82653,   0.00000,   0.00000,   0.00000,-209484489.41347,   0.00000
-183113011.70335,-12602736.62656,114075129.95865,  -0.00081,   0.00030,   0.00148,265369336.56963,   0.00000,274640135.82653,   0.00000,   0.00000,   0.00000,-209270799.25690,   0.00000
-181860091.52257,-10999111.92565,114521995.39559,  -0.00081,   0.00030,   0.00149,265592989.62594,   0.00000,274640135.82653,   0.00000,   0.00000,   0.00000,-209047146.20059,   0.00000
-180598686.55501,-9375689.38893,114968860.83253,  -0.00080,   0.00031,   0.00149,265827140.88503,   0.00000,274640135.82653,   0.00000,   0.00000,   0.00000,-208812994.94150,   0.00000
-179325968.53841,-7763579.90124,115415726.26947,  -0.00080,   0.00031,   0.00150,266060583.87317,   0.00000,274640135.82653,   0.00000,   0.00000,   0.00000,-208579551.95336,   0.00000
-178053250.52181,-6151470.41355,115862591.70640,  -0.00080,   0.00032,   0.00151,266304209.08763,   0.00000,274640135.82653,   0.00000,   0.00000,   0.00000,-208335926.73890,   0.00000
-176789017.29200,-4559158.76167,116309457.14334,  -0.00080,   0.00032,   0.00151,266557316.21823,   0.00000,274640135.82653,   0.00000,   0.00000,   0.00000,-208082819.60830,   0.00000
-175524784.06218,-2966847.10980,116750666.05576,  -0.00079,   0.00033,   0.00152,266812951.10423,   0.00000,274640135.82653,   0.00000,   0.00000,   0.00000,-207827184.72230,   0.00000
-174232268.20977,-1346252.83533,117197531.49270,  -0.00079,   0.00033,   0.00152,267076616.64975,   0.00000,274640135.82653,   0.00000,   0.00000,   0.00000,-207563519.17677,   0.00000
-172956721.93091,234745.76751,117644396.92964,  -0.00079,   0.00034,   0.00153,267348641.31301,   0.00000,274640135.82653,   0.00000,   0.00000,   0.00000,-207291494.51352,   0.00000
-171672690.86528,1835542.20616,118091262.36658,  -0.00078,   0.00034,   0.00154,267631525.07849,   0.00000,274640135.82653,   0.00000,   0.00000,   0.00000,-207008610.74804,   0.00000
-170397144.58642,3416540.80900,118532471.27900,  -0.00078,   0.00035,   0.00154,267915786.53570,   0.00000,274640135.82653,   0.00000,   0.00000,   0.00000,-206724349.29083,   0.00000
-169101800.47175,5006024.19861,118979336.71593,  -0.00078,   0.00035,   0.00155,268207484.24000,   0.00000,274640135.82653,   0.00000,   0.00000,   0.00000,-206432651.58653,   0.00000
-167806456.35708,6595507.58823,119420545.62836,  -0.00078,   0.00036,   0.00155,268501538.96439,   0.00000,274640135.82653,   0.00000,   0.00000,   0.00000,-206138596.86214,   0.00000
-166511112.24242,8184990.97784,119861754.54078,  -0.00077,   0.00036,   0.00156,268805426.16121,   0.00000,274640135.82653,   0.00000,   0.00000,   0.00000,-205834709.66532,   0.00000
-165224252.91452,9754676.53165,120308619.97771,  -0.00077,   0.00037,   0.00156,269125265.87184,   0.00000,274640135.82653,   0.00000,   0.00000,   0.00000,-205514869.95469,   0.00000
-163917595.75082,11332846.87222,120749828.89013,  -0.00077,   0.00037,   0.00157,269437614.59428,   0.00000,274640135.82653,   0.00000,   0.00000,   0.00000,-205202521.23225,   0.00000
-162610938.58711,12911017.21280,121191037.80255,  -0.00077,   0.00038,   0.00158,269759684.29645,   0.00000,274640135.82653,   0.00000,   0.00000,   0.00000,-204880451.53008,   0.00000
-161312766.21018,14469389.71757,121632246.71497,  -0.00076,   0.00038,   0.00158,270089761.71764,   0.00000,274640135.82653,   0.00000,   0.00000,   0.00000,-204550374.10889,   0.00000
-160014593.83326,16027762.22234,122073455.62739,  -0.00076,   0.00038,   0.00159,270429327.12629,   0.00000,274640135.82653,   0.00000,   0.00000,   0.00000,-204210808.70023,   0.00000
-158696623.62051,17594619.51388,122509008.01530,  -0.00076,   0.00039,   0.00159,270761457.43035,   0.00000,274640135.82653,   0.00000,   0.00000,   0.00000,-203878678.39618,   0.00000
-157378653.40777,19161476.80542,122950216.92772,  -0.00075,   0.00039,   0.00160,271110821.78044,   0.00000,274640135.82653,   0.00000,   0.00000,   0.00000,-203529314.04609,   0.00000
-156060683.19503,20728334.09696,123385769.31562,  -0.00075,   0.00040,   0.00160,271462009.98155,   0.00000,274640135.82653,   0.00000,   0.00000,   0.00000,-203178125.84498,   0.00000
-154731399.93325,22283878.33947,123826978.22804,  -0.00075,   0.00040,   0.00161,271819341.95679,   0.00000,274640135.82653,   0.00000,   0.00000,   0.00000,-202820793.86974,   0.00000
-153430399.29407,23811139.95939,124262530.61594,  -0.00074,   0.00041,   0.00162,272185120.95732,   0.00000,274640135.82653,   0.00000,   0.00000,   0.00000,-202455014.86921,   0.00000
-152101116.03229,25366684.20189,124698083.00384,  -0.00074,   0.00041,   0.00162,272553398.17605,   0.00000,274640135.82653,   0.00000,   0.00000,   0.00000,-202086737.65048,   0.00000
-150760519.72147,26910915.39536,125133635.39174,  -0.00074,   0.00042,   0.00163,272919979.81890,   0.00000,274640135.82653,   0.00000,   0.00000,   0.00000,-201720156.00763,   0.00000
-149439721.24647,28446661.80206,125563531.25513,  -0.00074,   0.00042,   0.00163,273296734.71845,   0.00000,274640135.82653,   0.00000,   0.00000,   0.00000,-201343401.10808,   0.00000
-148099124.93566,29990892.99553,125999083.64303,  -0.00073,   0.00043,   0.00164,273681816.55839,   0.00000,274640135.82653,   0.00000,   0.00000,   0.00000,-200958319.26814,   0.00000
-146767013.41162,31515326.35318,126428979.50641,  -0.00073,   0.00043,   0.00164,274065763.86620,   0.00000,274640135.82653,   0.00000,   0.00000,   0.00000,-200574371.96033,   0.00000
-145434901.88758,33039759.71084,126858875.36980,  -0.00073,   0.00043,   0.00165,274458728.04668,   0.00000,274640135.82653,   0.00000,   0.00000,   0.00000,-200181407.77985,   0.00000
-144102790.36354,34564193.06849,127288771.23318,  -0.00072,   0.00044,   0.00165,274860670.42600,   0.00000,274640135.82653,   0.00000,   0.00000,   0.00000,-199779465.40053,   0.00000
-142750881.00369,36097111.21293,127718667.09656,  -0.00072,   0.00044,   0.00166,275263298.80198,   0.00000,274640135.82653,   0.00000,   0.00000,   0.00000,-199376837.02454,   0.00000
-141407456.43062,37610231.52155,128148562.95995,  -0.00072,   0.00045,   0.00167,275672138.58243,   0.00000,274640135.82653,   0.00000,   0.00000,   0.00000,-198967997.24410,   0.00000
-140064031.85755,39123351.83017,128572802.29881,  -0.00071,   0.00045,   0.00167,276081945.35073,   0.00000,274640135.82653,   0.00000,   0.00000,   0.00000,-198558190.47580,   0.00000
-138700809.44866,40644956.92557,128997041.63768,  -0.00071,   0.00046,   0.00168,276492541.93304,   0.00000,274640135.82653,   0.00000,   0.00000,   0.00000,-198147593.89349,   0.00000
-137365869.66236,42138279.39837,129421280.97654,  -0.00071,   0.00046,   0.00168,276916922.63784,   0.00000,274640135.82653,   0.00000,   0.00000,   0.00000,-197723213.18869,   0.00000
-136011132.04025,43640086.65796,129845520.31541,  -0.00070,   0.00046,   0.00169,277342027.52018,   0.00000,274640135.82653,   0.00000,   0.00000,   0.00000,-197298108.30635,   0.00000
-134636596.58233,45150378.70432,130264103.12976,  -0.00070,   0.00047,   0.00169,277760099.46025,   0.00000,274640135.82653,   0.00000,   0.00000,   0.00000,-196880036.36628,   0.00000
-133290343.74699,46632388.12809,130682685.94410,  -0.00070,   0.00047,   0.00170,278191365.10458,   0.00000,274640135.82653,   0.00000,   0.00000,   0.00000,-196448770.72195,   0.00000
-131924293.07585,48122882.33863,131101268.75845,  -0.00069,   0.00048,   0.00170,278623466.62057,   0.00000,274640135.82653,   0.00000,   0.00000,   0.00000,-196016669.20596,   0.00000
-130558242.40470,49613376.54918,131519851.57280,  -0.00069,   0.00048,   0.00171,279064134.39858,   0.00000,274640135.82653,   0.00000,   0.00000,   0.00000,-195576001.42795,   0.00000
-129200676.52033,51084072.92391,131932777.86263,  -0.00069,   0.00048,   0.00172,279501820.61060,   0.00000,274640135.82653,   0.00000,   0.00000,   0.00000,-195138315.21593,   0.00000
-127823312.80015,52563254.08542,132351360.67697,  -0.00068,   0.00049,   0.00172,279948481.44462,   0.00000,274640135.82653,   0.00000,   0.00000,   0.00000,-194691654.38191,   0.00000
-126465746.91578,54033950.46016,132758630.44228,  -0.00068,   0.00049,   0.00173,280394826.48541,   0.00000,274640135.82653,   0.00000,   0.00000,   0.00000,-194245309.34112,   0.00000
-125088383.19560,55513131.62167,133171556.73211,  -0.00068,   0.00050,   0.00173,280850226.70629,   0.00000,274640135.82653,   0.00000,   0.00000,   0.00000,-193789909.12024,   0.00000
-123699706.42638,56980999.73414,133578826.49742,  -0.00067,   0.00050,   0.00174,281295028.93751,   0.00000,274640135.82653,   0.00000,   0.00000,   0.00000,-193345106.88902,   0.00000
-122330827.49297,58440383.05984,133986096.26273,  -0.00067,   0.00050,   0.00174,281755198.92487,   0.00000,274640135.82653,   0.00000,   0.00000,   0.00000,-192884936.90166,   0.00000
-120950635.51053,59888453.33650,134393366.02805,  -0.00067,   0.00051,   0.00175,282212614.99316,   0.00000,274640135.82653,   0.00000,   0.00000,   0.00000,-192427520.83337,   0.00000
-119570443.52809,61336523.61316,134794979.26884,  -0.00066,   0.00051,   0.00175,282670045.69923,   0.00000,274640135.82653,   0.00000,   0.00000,   0.00000,-191970090.12729,   0.00000
-118190251.54565,62784593.88982,135202249.03415,  -0.00066,   0.00052,   0.00176,283143624.62722,   0.00000,274640135.82653,   0.00000,   0.00000,   0.00000,-191496511.19931,   0.00000
-116790261.72739,64241148.95326,135598205.75042,  -0.00066,   0.00052,   0.00176,283602276.54465,   0.00000,274640135.82653,   0.00000,   0.00000,   0.00000,-191037859.28188,   0.00000
-115398756.69591,65677906.18088,135999818.99122,  -0.00065,   0.00052,   0.00177,284072986.07904,   0.00000,274640135.82653,   0.00000,   0.00000,   0.00000,-190567149.74749,   0.00000
-114007251.66443,67114663.40851,136395775.70749,  -0.00065,   0.00053,   0.00177,284543516.33915,   0.00000,274640135.82653,   0.00000,   0.00000,   0.00000,-190096619.48738,   0.00000
-112624231.41973,68531622.80032,136791732.42376,  -0.00065,   0.00053,   0.00178,285017642.17474,   0.00000,274640135.82653,   0.00000,   0.00000,   0.00000,-189622493.65179,   0.00000
-111212928.55244,69976864.81472,137182032.61552,  -0.00064,   0.00054,   0.00178,285489298.17254,   0.00000,274640135.82653,   0.00000,   0.00000,   0.00000,-189150837.65399,   0.00000
-109810110.47192,71402308.99331,137572332.80728,  -0.00064,   0.00054,   0.00179,285964483.44514,   0.00000,274640135.82653,   0.00000,   0.00000,   0.00000,-188675652.38139,   0.00000
-108415777.17819,72807955.33608,137962632.99903,  -0.00064,   0.00054,   0.00179,286442968.97631,   0.00000,274640135.82653,   0.00000,   0.00000,   0.00000,-188197166.85022,   0.00000
-107021443.88445,74213601.67886,138347276.66627,  -0.00063,   0.00055,   0.00180,286920898.18575,   0.00000,274640135.82653,   0.00000,   0.00000,   0.00000,-187719237.64078,   0.00000
-105607312.75490,75627732.80841,138731920.33351,  -0.00063,   0.00055,   0.00180,287400308.39747,   0.00000,274640135.82653,   0.00000,   0.00000,   0.00000,-187239827.42906,   0.00000
-104193181.62535,77041863.93796,139110907.47623,  -0.00062,   0.00055,   0.00181,287879208.27123,   0.00000,274640135.82653,   0.00000,   0.00000,   0.00000,-186760927.55530,   0.00000
-102787535.28257,78436197.23170,139495551.14347,  -0.00062,   0.00056,   0.00181,288369215.07414,   0.00000,274640135.82653,   0.00000,   0.00000,   0.00000,-186270920.75239,   0.00000
-101362091.10398,79839015.31221,139868881.76167,  -0.00062,   0.00056,   0.00182,288844428.15901,   0.00000,274640135.82653,   0.00000,   0.00000,   0.00000,-185795707.66752,   0.00000
-99964929.54799,81213550.77014,140247868.90439,  -0.00061,   0.00056,   0.00182,289336359.70264,   0.00000,274640135.82653,   0.00000,   0.00000,   0.00000,-185303776.12389,   0.00000
-98547970.15618,82596571.01484,140621199.52259,  -0.00061,   0.00057,   0.00183,289821644.54402,   0.00000,274640135.82653,   0.00000,   0.00000,   0.00000,-184818491.28251,   0.00000
-97111212.92855,83988076.04632,140988873.61627,  -0.00061,   0.00057,   0.00183,290300458.11463,   0.00000,274640135.82653,   0.00000,   0.00000,   0.00000,-184339677.71190,   0.00000
-95702738.32352,85351298.45520,141356547.70996,  -0.00060,   0.00057,   0.00184,290787262.43368,   0.00000,274640135.82653,   0.00000,   0.00000,   0.00000,-183852873.39285,   0.00000
-94274465.88267,86723005.65087,141724221.80364,  -0.00060,   0.00058,   0.00184,291275788.21729,   0.00000,274640135.82653,   0.00000,   0.00000,   0.00000,-183364347.60924,   0.00000
-92846193.44183,88094712.84653,142086239.37280,  -0.00059,   0.00058,   0.00185,291763347.72486,   0.00000,274640135.82653,   0.00000,   0.00000,   0.00000,-182876788.10167,   0.00000
-91426405.78776,89446622.20638,142448256.94197,  -0.00059,   0.00059,   0.00185,292252950.01933,   0.00000,274640135.82653,   0.00000,   0.00000,   0.00000,-182387185.80720,   0.00000
-89986820.29787,90807016.35301,142804617.98662,  -0.00059,   0.00059,   0.00186,292736149.90895,   0.00000,274640135.82653,   0.00000,   0.00000,   0.00000,-181903985.91758,   0.00000
-88547234.80799,92167410.49964,143160979.03126,  -0.00058,   0.00059,   0.00186,293226553.09688,   0.00000,274640135.82653,   0.00000,   0.00000,   0.00000,-181413582.72965,   0.00000
-87116134.10488,93508006.81046,143517340.07591,  -0.00058,   0.00060,   0.00187,293718751.40620,   0.00000,274640135.82653,   0.00000,   0.00000,   0.00000,-180921384.42033,   0.00000
-85685033.40178,94848603.12127,143868044.59604,  -0.00057,   0.00060,   0.00187,294209671.76037,   0.00000,274640135.82653,   0.00000,   0.00000,   0.00000,-180430464.06616,   0.00000
-84242619.64963,96177886.38305,144213092.59165,  -0.00057,   0.00060,   0.00187,294688870.03136,   0.00000,274640135.82653,   0.00000,   0.00000,   0.00000,-179951265.79517,   0.00000
-82791721.11071,97526967.48064,144563797.11178,  -0.00057,   0.00061,   0.00188,295188885.74776,   0.00000,274640135.82653,   0.00000,   0.00000,   0.00000,-179451250.07877,   0.00000
-81357792.14535,98836452.90661,144903188.58287,  -0.00056,   0.00061,   0.00188,295668145.97169,   0.00000,274640135.82653,   0.00000,   0.00000,   0.00000,-178971989.85484,   0.00000
-79895580.55739,100174220.95516,145242580.05396,  -0.00056,   0.00061,   0.00189,296155157.06952,   0.00000,274640135.82653,   0.00000,   0.00000,   0.00000,-178484978.75701,   0.00000
-78461651.59203,101483706.38113,145581971.52506,  -0.00055,   0.00061,   0.00189,296648080.96987,   0.00000,274640135.82653,   0.00000,   0.00000,   0.00000,-177992054.85665,   0.00000
-77016409.57763,102781878.75805,145915706.47163,  -0.00055,   0.00062,   0.00190,297129119.07485,   0.00000,274640135.82653,   0.00000,   0.00000,   0.00000,-177511016.75168,   0.00000
-75542884.94063,104108333.75757,146249441.41820,  -0.00055,   0.00062,   0.00190,297618235.07096,   0.00000,274640135.82653,   0.00000,   0.00000,   0.00000,-177021900.75557,   0.00000
-74097642.92623,105406506.13450,146577519.84026,  -0.00054,   0.00062,   0.00191,298104468.00397,   0.00000,274640135.82653,   0.00000,   0.00000,   0.00000,-176535667.82256,   0.00000
-72641087.86280,106693365.46239,146899941.73780,  -0.00054,   0.00063,   0.00191,298578804.77726,   0.00000,274640135.82653,   0.00000,   0.00000,   0.00000,-176061331.04927,   0.00000
-71184532.79936,107980224.79028,147222363.63534,  -0.00053,   0.00063,   0.00191,299059795.98069,   0.00000,274640135.82653,   0.00000,   0.00000,   0.00000,-175580339.84584,   0.00000
-69708179.90011,109275568.90495,147544785.53287,  -0.00053,   0.00063,   0.00192,299543273.22479,   0.00000,274640135.82653,   0.00000,   0.00000,   0.00000,-175096862.60173,   0.00000
-68251624.83667,110562428.23285,147861550.90589,  -0.00053,   0.00064,   0.00192,300029190.09866,   0.00000,274640135.82653,   0.00000,   0.00000,   0.00000,-174610945.72787,   0.00000
-66783756.72419,111837974.51170,148172659.75439,  -0.00052,   0.00064,   0.00193,300503201.45294,   0.00000,274640135.82653,   0.00000,   0.00000,   0.00000,-174136934.37359,   0.00000
-65304575.56268,113102207.74152,148483768.60290,  -0.00052,   0.00064,   0.00193,300973715.25225,   0.00000,274640135.82653,   0.00000,   0.00000,   0.00000,-173666420.57428,   0.00000
-63845192.23699,114357956.18456,148794877.45140,  -0.00051,   0.00064,   0.00193,301454645.14293,   0.00000,274640135.82653,   0.00000,   0.00000,   0.00000,-173185490.68360,   0.00000
-62366011.07547,115622189.41438,149094673.25086,  -0.00051,   0.00065,   0.00194,301921462.54179,   0.00000,274640135.82653,   0.00000,   0.00000,   0.00000,-172718673.28474,   0.00000
-60886829.91396,116886422.64420,149400125.57484,  -0.00050,   0.00065,   0.00194,302403171.53703,   0.00000,274640135.82653,   0.00000,   0.00000,   0.00000,-172236964.28949,   0.00000
-59416133.53923,118130858.03820,149694264.84979,  -0.00050,   0.00065,   0.00195,302868245.56010,   0.00000,274640135.82653,   0.00000,   0.00000,   0.00000,-171771890.26643,   0.00000
-57925639.32868,119383778.21899,149988404.12474,  -0.00050,   0.00066,   0.00195,303336136.96351,   0.00000,274640135.82653,   0.00000,   0.00000,   0.00000,-171303998.86302,   0.00000
-56443629.90491,120616900.56396,150282543.39968,  -0.00049,   0.00066,   0.00195,303804055.77649,   0.00000,274640135.82653,   0.00000,   0.00000,   0.00000,-170836080.05004,   0.00000
-54961620.48114,121850022.90892,150571026.15011,  -0.00049,   0.00066,   0.00196,304269920.08947,   0.00000,274640135.82653,   0.00000,   0.00000,   0.00000,-170370215.73706,   0.00000
-53459813.22156,123091630.04067,150853852.37602,  -0.00048,   0.00066,   0.00196,304730390.50434,   0.00000,274640135.82653,   0.00000,   0.00000,   0.00000,-169909745.32219,   0.00000
-51966490.74875,124313439.33660,151136678.60193,  -0.00048,   0.00067,   0.00196,305190706.62807,   0.00000,274640135.82653,   0.00000,   0.00000,   0.00000,-169449429.19846,   0.00000
-50481653.06272,125515450.79672,151413848.30333,  -0.00047,   0.00067,   0.00197,305642296.64732,   0.00000,274640135.82653,   0.00000,   0.00000,   0.00000,-168997839.17921,   0.00000
-48988330.58992,126737260.09265,151691018.00472,  -0.00047,   0.00067,   0.00197,306106731.80311,   0.00000,274640135.82653,   0.00000,   0.00000,   0.00000,-168533404.02342,   0.00000
-47483695.06808,127947756.33955,151956874.65707,  -0.00047,   0.00067,   0.00198,306550872.06360,   0.00000,274640135.82653,   0.00000,   0.00000,   0.00000,-168089263.76293,   0.00000
-45987544.33301,129138454.75063,152228387.83395,  -0.00046,   0.00068,   0.00198,307002933.74766,   0.00000,274640135.82653,   0.00000,   0.00000,   0.00000,-167637202.07887,   0.00000
-44482908.81117,130348950.99753,152494244.48630,  -0.00046,   0.00068,   0.00198,307459529.86964,   0.00000,274640135.82653,   0.00000,   0.00000,   0.00000,-167180605.95689,   0.00000
-42995242.86288,131519851.57280,152754444.61414,  -0.00045,   0.00068,   0.00199,307900229.41588,   0.00000,274640135.82653,   0.00000,   0.00000,   0.00000,-166739906.41065,   0.00000
-41479294.29200,132719034.77066,153008988.21746,  -0.00045,   0.00068,   0.00199,308342694.69668,   0.00000,274640135.82653,   0.00000,   0.00000,   0.00000,-166297441.12985,   0.00000
-39971830.50790,133898420.13270,153263531.82078,  -0.00044,   0.00069,   0.00199,308784438.82674,   0.00000,274640135.82653,   0.00000,   0.00000,   0.00000,-165855696.99979,   0.00000
-38453053.67476,135066492.44571,153512418.89958,  -0.00044,   0.00069,   0.00200,309214330.31375,   0.00000,274640135.82653,   0.00000,   0.00000,   0.00000,-165425805.51278,   0.00000
-36934276.84162,136234564.75872,153761305.97838,  -0.00043,   0.00069,   0.00200,309650351.55727,   0.00000,274640135.82653,   0.00000,   0.00000,   0.00000,-164989784.26926,   0.00000
-35415500.00848,137402637.07173,153998880.00815,  -0.00043,   0.00069,   0.00200,310075620.68113,   0.00000,274640135.82653,   0.00000,   0.00000,   0.00000,-164564515.14540,   0.00000
-33896723.17535,138570709.38474,154242110.56243,  -0.00042,   0.00070,   0.00201,310515391.45411,   0.00000,274640135.82653,   0.00000,   0.00000,   0.00000,-164124744.37242,   0.00000
-32394915.91576,139699186.02612,154474028.06767,  -0.00042,   0.00070,   0.00201,310930076.67436,   0.00000,274640135.82653,   0.00000,   0.00000,   0.00000,-163710059.15217,   0.00000
-30864826.03359,140855945.29009,154705945.57292,  -0.00042,   0.00070,   0.00201,311355613.15586,   0.00000,274640135.82653,   0.00000,   0.00000,   0.00000,-163284522.67067,   0.00000
-29323423.10238,142001391.50503,154932206.55365,  -0.00041,   0.00070,   0.00201,311769451.83706,   0.00000,274640135.82653,   0.00000,   0.00000,   0.00000,-162870683.98947,   0.00000
-27801818.00698,143138352.93319,155158467.53438,  -0.00041,   0.00071,   0.00202,312191424.84354,   0.00000,274640135.82653,   0.00000,   0.00000,   0.00000,-162448710.98299,   0.00000
-26268899.86255,144264001.31231,155379071.99059,  -0.00040,   0.00071,   0.00202,312601634.37967,   0.00000,274640135.82653,   0.00000,   0.00000,   0.00000,-162038501.44686,   0.00000
-24735981.71811,145389649.69144,155594019.92228,  -0.00040,   0.00071,   0.00202,313009379.81545,   0.00000,274640135.82653,   0.00000,   0.00000,   0.00000,-161630756.01108,   0.00000
-23203063.57368,146515298.07056,155803311.32945,  -0.00039,   0.00071,   0.00203,313414635.85357,   0.00000,274640135.82653,   0.00000,   0.00000,   0.00000,-161225499.97296,   0.00000
-21658832.38021,147629633.40065,156012602.73663,  -0.00039,   0.00071,   0.00203,313816659.53265,   0.00000,274640135.82653,   0.00000,   0.00000,   0.00000,-160823476.29388,   0.00000
-20123085.97352,148724170.89492,156216237.61928,  -0.00038,   0.00072,   0.00203,314208761.11673,   0.00000,274640135.82653,   0.00000,   0.00000,   0.00000,-160431374.70980,   0.00000
-18578854.78005,149838506.22501,156419872.50194,  -0.00038,   0.00072,   0.00203,314614222.78858,   0.00000,274640135.82653,   0.00000,   0.00000,   0.00000,-160025913.03795,   0.00000
-17031795.32432,150921730.67024,156617850.86007,  -0.00037,   0.00072,   0.00204,315000591.25551,   0.00000,274640135.82653,   0.00000,   0.00000,   0.00000,-159639544.57102,   0.00000
-15476251.08181,152024752.95129,156810172.69369,  -0.00037,   0.00072,   0.00204,315391984.49778,   0.00000,274640135.82653,   0.00000,   0.00000,   0.00000,-159248151.32874,   0.00000
-13929191.62608,153107977.39653,156996838.00279,  -0.00036,   0.00072,   0.00204,315773284.02998,   0.00000,274640135.82653,   0.00000,   0.00000,   0.00000,-158866851.79655,   0.00000
-12362334.33454,154199686.62854,157177846.78738,  -0.00036,   0.00073,   0.00204,316150700.31406,   0.00000,274640135.82653,   0.00000,   0.00000,   0.00000,-158489435.51247,   0.00000
-10823759.66559,155263113.23796,157358855.57196,  -0.00035,   0.00073,   0.00205,316527640.19752,   0.00000,274640135.82653,   0.00000,   0.00000,   0.00000,-158112495.62901,   0.00000
-9254074.11178,156323711.58513,157534207.83202,  -0.00035,   0.00073,   0.00205,316891861.39067,   0.00000,274640135.82653,   0.00000,   0.00000,   0.00000,-157748274.43586,   0.00000
-7695701.60702,157395622.98133,157709560.09209,  -0.00034,   0.00073,   0.00205,317270849.17928,   0.00000,274640135.82653,   0.00000,   0.00000,   0.00000,-157369286.64725,   0.00000
-6126016.05322,158456221.32849,157879255.82763,  -0.00034,   0.00073,   0.00205,317638451.33743,   0.00000,274640135.82653,   0.00000,   0.00000,   0.00000,-157001684.48910,   0.00000
-4564815.28619,159497021.83984,158043295.03866,  -0.00033,   0.00073,   0.00205,317995693.80387,   0.00000,274640135.82653,   0.00000,   0.00000,   0.00000,-156644442.02266,   0.00000
-3003614.51917,160537822.35119,158201677.72517,  -0.00033,   0.00074,   0.00206,318350310.73443,   0.00000,274640135.82653,   0.00000,   0.00000,   0.00000,-156289825.09210,   0.00000
-1422615.91633,161587107.64932,158354403.88716,  -0.00032,   0.00074,   0.00206,318701498.70547,   0.00000,274640135.82653,   0.00000,   0.00000,   0.00000,-155938637.12106,   0.00000
149897.89973,162616595.11163,158507130.04916,  -0.00032,   0.00074,   0.00206,319050676.88107,   0.00000,274640135.82653,   0.00000,   0.00000,   0.00000,-155589458.94546,   0.00000
1722411.71579,163646082.57395,158654199.68663,  -0.00031,   0.00074,   0.00206,319397254.76068,   0.00000,274640135.82653,   0.00000,   0.00000,   0.00000,-155242881.06584,   0.00000
3306238.58089,164664256.98722,158795612.79958,  -0.00031,   0.00074,   0.00206,319732652.94078,   0.00000,274640135.82653,   0.00000,   0.00000,   0.00000,-154907482.88575,   0.00000
4890065.44599,165682431.40050,158937025.91254,  -0.00030,   0.00074,   0.00207,320073925.05454,   0.00000,274640135.82653,   0.00000,   0.00000,   0.00000,-154566210.77199,   0.00000
6473892.31109,166700605.81378,159067125.97646,  -0.00030,   0.00075,   0.00207,320404202.82720,   0.00000,274640135.82653,   0.00000,   0.00000,   0.00000,-154235932.99933,   0.00000
8069032.22522,167707467.17802,159197226.04038,  -0.00029,   0.00075,   0.00207,320731877.44298,   0.00000,274640135.82653,   0.00000,   0.00000,   0.00000,-153908258.38355,   0.00000
9655687.35258,168694530.70644,159327326.10429,  -0.00029,   0.00075,   0.00207,321057324.90096,   0.00000,274640135.82653,   0.00000,   0.00000,   0.00000,-153582810.92557,   0.00000
11250827.26671,169701392.07068,159446113.11918,  -0.00028,   0.00075,   0.00207,321379917.70216,   0.00000,274640135.82653,   0.00000,   0.00000,   0.00000,-153260218.12437,   0.00000
12828997.60729,170668657.76330,159564900.13406,  -0.00027,   0.00075,   0.00207,321691992.72693,   0.00000,274640135.82653,   0.00000,   0.00000,   0.00000,-152948143.09960,   0.00000
14435450.57046,171664206.07850,159678030.62442,  -0.00027,   0.00075,   0.00208,322009552.82795,   0.00000,274640135.82653,   0.00000,   0.00000,   0.00000,-152630582.99858,   0.00000
16033418.74685,172639956.55789,159785504.59027,  -0.00026,   0.00075,   0.00208,322316364.51256,   0.00000,274640135.82653,   0.00000,   0.00000,   0.00000,-152323771.31397,   0.00000
17642699.97228,173604393.98825,159887322.03160,  -0.00026,   0.00076,   0.00208,322612410.60542,   0.00000,274640135.82653,   0.00000,   0.00000,   0.00000,-152027725.22111,   0.00000
19251981.19771,174568831.41860,159989139.47293,  -0.00025,   0.00076,   0.00208,322914375.75707,   0.00000,274640135.82653,   0.00000,   0.00000,   0.00000,-151725760.06946,   0.00000
20861262.42314,175533268.84895,160079643.86522,  -0.00025,   0.00076,   0.00208,323205433.58254,   0.00000,274640135.82653,   0.00000,   0.00000,   0.00000,-151434702.24399,   0.00000
22481856.69761,176486393.23027,160170148.25751,  -0.00024,   0.00076,   0.00208,323494309.45971,   0.00000,274640135.82653,   0.00000,   0.00000,   0.00000,-151145826.36682,   0.00000
24082653.13626,177431032.82481,160254996.12528,  -0.00024,   0.00076,   0.00208,323780368.33875,   0.00000,274640135.82653,   0.00000,   0.00000,   0.00000,-150859767.48778,   0.00000
25694762.62395,178364359.37032,160339843.99305,  -0.00023,   0.00076,   0.00208,324064241.10112,   0.00000,274640135.82653,   0.00000,   0.00000,   0.00000,-150575894.72541,   0.00000
27326669.94745,179306170.70260,160413378.81179,  -0.00023,   0.00076,   0.00209,324337733.69986,   0.00000,274640135.82653,   0.00000,   0.00000,   0.00000,-150302402.12667,   0.00000
28950092.48418,180228184.19906,160486913.63053,  -0.00022,   0.00076,   0.00209,324608736.74883,   0.00000,274640135.82653,   0.00000,   0.00000,   0.00000,-150031399.07770,   0.00000
30573515.02090,181150197.69553,160554791.92475,  -0.00021,   0.00076,   0.00209,324877298.81538,   0.00000,274640135.82653,   0.00000,   0.00000,   0.00000,-149762837.01115,   0.00000
32196937.55763,182072211.19200,160622670.21896,  -0.00021,   0.00077,   0.00209,325151798.12899,   0.00000,274640135.82653,   0.00000,   0.00000,   0.00000,-149488337.69754,   0.00000
33831673.14339,182982911.63943,160679235.46415,  -0.00020,   0.00077,   0.00209,325407682.96145,   0.00000,274640135.82653,   0.00000,   0.00000,   0.00000,-149232452.86508,   0.00000
35466408.72915,183893612.08686,160735800.70933,  -0.00020,   0.00077,   0.00209,325669577.32424,   0.00000,274640135.82653,   0.00000,   0.00000,   0.00000,-148970558.50229,   0.00000
37112457.36395,184792999.48526,160781052.90547,  -0.00019,   0.00077,   0.00209,325913034.03818,   0.00000,274640135.82653,   0.00000,   0.00000,   0.00000,-148727101.78835,   0.00000
38738708.16293,185683902.09687,160826305.10162,  -0.00019,   0.00077,   0.00209,326161533.21949,   0.00000,274640135.82653,   0.00000,   0.00000,   0.00000,-148478602.60704,   0.00000
40396069.84676,186571976.44623,160871557.29777,  -0.00018,   0.00077,   0.00209,326409473.06163,   0.00000,274640135.82653,   0.00000,   0.00000,   0.00000,-148230662.76490,   0.00000
42033633.69479,187451566.00881,160905496.44487,  -0.00017,   0.00077,   0.00209,326645651.82799,   0.00000,274640135.82653,   0.00000,   0.00000,   0.00000,-147994483.99854,   0.00000
43682510.59184,188319842.52236,160939435.59198,  -0.00017,   0.00077,   0.00209,326880325.33270,   0.00000,274640135.82653,   0.00000,   0.00000,   0.00000,-147759810.49383,   0.00000
45331387.48890,189188119.03590,160962061.69006,  -0.00016,   0.00077,   0.00209,327104379.44827,   0.00000,274640135.82653,   0.00000,   0.00000,   0.00000,-147535756.37826,   0.00000
46980264.38596,190056395.54945,160984687.78813,  -0.00016,   0.00077,   0.00209,327334520.21837,   0.00000,274640135.82653,   0.00000,   0.00000,   0.00000,-147305615.60816,   0.00000
48640454.33205,190913359.01395,161001657.36168,  -0.00015,   0.00077,   0.00209,327555022.77747,   0.00000,274640135.82653,   0.00000,   0.00000,   0.00000,-147085113.04906,   0.00000
50300644.27814,191770322.47846,161018626.93524,  -0.00015,   0.00077,   0.00209,327781688.45212,   0.00000,274640135.82653,   0.00000,   0.00000,   0.00000,-146858447.37441,   0.00000
51972147.27327,192615972.89393,161024283.45976,  -0.00014,   0.00078,   0.00209,327990565.39301,   0.00000,274640135.82653,   0.00000,   0.00000,   0.00000,-146649570.43352,   0.00000
53643650.26840,193461623.30941,161029939.98427,  -0.00013,   0.00078,   0.00209,328205694.58874,   0.00000,274640135.82653,   0.00000,   0.00000,   0.00000,-146434441.23779,   0.00000
55306668.47675,194287475.88906,161029939.98427,  -0.00013,   0.00078,   0.00209,328409778.41894,   0.00000,274640135.82653,   0.00000,   0.00000,   0.00000,-146230357.40759,   0.00000
56969686.68511,195113328.46872,161024283.45976,  -0.00012,   0.00078,   0.00209,328611732.21201,   0.00000,274640135.82653,   0.00000,   0.00000,   0.00000,-146028403.61452,   0.00000
58652502.72927,195947665.83516,161012970.41072,  -0.00012,   0.00078,   0.00209,328813492.33101,   0.00000,274640135.82653,   0.00000,   0.00000,   0.00000,-145826643.49552,   0.00000
60326833.98666,196762205.36578,160996000.83717,  -0.00011,   0.00078,   0.00209,329004237.53805,   0.00000,274640135.82653,   0.00000,   0.00000,   0.00000,-145635898.28848,   0.00000
62012478.29309,197565431.84736,160979031.26361,  -0.00010,   0.00078,   0.00209,329194275.14904,   0.00000,274640135.82653,   0.00000,   0.00000,   0.00000,-145445860.67749,   0.00000
63698122.59951,198368658.32895,160956405.16554,  -0.00010,   0.00078,   0.00209,329382387.81579,   0.00000,274640135.82653,   0.00000,   0.00000,   0.00000,-145257748.01074,   0.00000
65383766.90594,199171884.81053,160928122.54295,  -0.00009,   0.00078,   0.00209,329568582.32956,   0.00000,274640135.82653,   0.00000,   0.00000,   0.00000,-145071553.49697,   0.00000
67060926.42559,199955313.45631,160894183.39584,  -0.00008,   0.00078,   0.00209,329743720.81999,   0.00000,274640135.82653,   0.00000,   0.00000,   0.00000,-144896415.00654,   0.00000
68757883.78105,200747226.88886,160854587.72421,  -0.00008,   0.00078,   0.00209,329919287.65321,   0.00000,274640135.82653,   0.00000,   0.00000,   0.00000,-144720848.17332,   0.00000
70466154.18555,201527827.27237,160809335.52806,  -0.00007,   0.00078,   0.00209,330086322.46808,   0.00000,274640135.82653,   0.00000,   0.00000,   0.00000,-144553813.35845,   0.00000
72154626.75423,202299942.86910,160764083.33192,  -0.00007,   0.00078,   0.00209,330257402.10542,   0.00000,274640135.82653,   0.00000,   0.00000,   0.00000,-144382733.72111,   0.00000
73862897.15873,203080543.25261,160713174.61126,  -0.00006,   0.00078,   0.00209,330429252.37354,   0.00000,274640135.82653,   0.00000,   0.00000,   0.00000,-144210883.45299,   0.00000
75562682.77645,203841345.80031,160656609.36607,  -0.00005,   0.00078,   0.00209,330590158.25586,   0.00000,274640135.82653,   0.00000,   0.00000,   0.00000,-144049977.57067,   0.00000
77273781.44321,204590835.29898,160594387.59637,  -0.00005,   0.00078,   0.00209,330742818.02792,   0.00000,274640135.82653,   0.00000,   0.00000,   0.00000,-143897317.79861,   0.00000
78984880.10996,205340324.79764,160526509.30215,  -0.00004,   0.00078,   0.00209,330893880.12519,   0.00000,274640135.82653,   0.00000,   0.00000,   0.00000,-143746255.70133,   0.00000
80695978.77672,206089814.29630,160458631.00794,  -0.00003,   0.00078,   0.00209,331051582.17669,   0.00000,274640135.82653,   0.00000,   0.00000,   0.00000,-143588553.64984,   0.00000
82418390.49251,206827990.74593,160379439.66468,  -0.00003,   0.00078,   0.00208,331193104.91429,   0.00000,274640135.82653,   0.00000,   0.00000,   0.00000,-143447030.91224,   0.00000
84140802.20831,207566167.19555,160300248.32143,  -0.00002,   0.00078,   0.00208,331341384.94475,   0.00000,274640135.82653,   0.00000,   0.00000,   0.00000,-143298750.88178,   0.00000
85854729.13732,208284545.80936,160215400.45365,  -0.00002,   0.00078,   0.00208,331478803.09588,   0.00000,274640135.82653,   0.00000,   0.00000,   0.00000,-143161332.73065,   0.00000
87588453.90215,209011409.20995,160124896.06136,  -0.00001,   0.00078,   0.00208,331617953.78459,   0.00000,274640135.82653,   0.00000,   0.00000,   0.00000,-143022182.04194,   0.00000
89313693.88021,209718474.77473,160034391.66907,  -0.00000,   0.00078,   0.00208,331754521.40096,   0.00000,274640135.82653,   0.00000,   0.00000,   0.00000,-142885614.42557,   0.00000
91058731.69407,210434025.12628,159932574.22774,   0.00000,   0.00078,   0.00208,331884921.33967,   0.00000,274640135.82653,   0.00000,   0.00000,   0.00000,-142755214.48686,   0.00000
92783971.67213,211141090.69106,159830756.78642,   0.00001,   0.00078,   0.00208,332018868.50707,   0.00000,274640135.82653,   0.00000,   0.00000,   0.00000,-142621267.31946,   0.00000
94540322.53503,211845327.99357,159723282.82057,   0.00002,   0.00078,   0.00208,332149019.51778,   0.00000,274640135.82653,   0.00000,   0.00000,   0.00000,-142491116.30875,   0.00000
96268390.77534,212521282.67350,159610152.33021,   0.00002,   0.00078,   0.00207,332264983.02377,   0.00000,274640135.82653,   0.00000,   0.00000,   0.00000,-142375152.80276,   0.00000
98016256.85147,213205722.14020,159491365.31532,   0.00003,   0.00078,   0.00207,332383402.96627,   0.00000,274640135.82653,   0.00000,   0.00000,   0.00000,-142256732.86026,   0.00000
99764122.92759,213890161.60691,159366921.77592,   0.00004,   0.00078,   0.00207,332500773.45652,   0.00000,274640135.82653,   0.00000,   0.00000,   0.00000,-142139362.37001,   0.00000
101523302.05275,214563288.02457,159242478.23652,   0.00004,   0.00078,   0.00207,332619471.09691,   0.00000,274640135.82653,   0.00000,   0.00000,   0.00000,-142020664.72962,   0.00000
103282481.17791,215236414.44224,159112378.17260,   0.00005,   0.00078,   0.00207,332737254.84233,   0.00000,274640135.82653,   0.00000,   0.00000,   0.00000,-141902880.98420,   0.00000
105033175.51630,215889743.02409,158976621.58417,   0.00006,   0.00078,   0.00207,332844501.92511,   0.00000,274640135.82653,   0.00000,   0.00000,   0.00000,-141795633.90142,   0.00000
106783869.85468,216543071.60594,158835208.47121,   0.00006,   0.00078,   0.00206,332950837.05505,   0.00000,274640135.82653,   0.00000,   0.00000,   0.00000,-141689298.77148,   0.00000
108545877.24211,217185087.13876,158688138.83374,   0.00007,   0.00078,   0.00206,333050746.81480,   0.00000,274640135.82653,   0.00000,   0.00000,   0.00000,-141589389.01173,   0.00000
110327682.46534,217835587.45835,158541069.19626,   0.00008,   0.00078,   0.00206,333162208.27763,   0.00000,274640135.82653,   0.00000,   0.00000,   0.00000,-141477927.54890,   0.00000
112081205.06598,218457805.15536,158388343.03427,   0.00008,   0.00078,   0.00206,333259053.48825,   0.00000,274640135.82653,   0.00000,   0.00000,   0.00000,-141381082.33828,   0.00000
113874323.33825,219096992.42591,158224303.82324,   0.00009,   0.00077,   0.00206,333355850.11955,   0.00000,274640135.82653,   0.00000,   0.00000,   0.00000,-141284285.70698,   0.00000
115647643.77471,219727694.90969,158065921.13674,   0.00010,   0.00077,   0.00205,333463871.36694,   0.00000,274640135.82653,   0.00000,   0.00000,   0.00000,-141176264.45959,   0.00000
117432277.26021,220347084.34444,157896225.40119,   0.00010,   0.00077,   0.00205,333558048.03246,   0.00000,274640135.82653,   0.00000,   0.00000,   0.00000,-141082087.79407,   0.00000
119216910.74570,220966473.77918,157720873.14112,   0.00011,   0.00077,   0.00205,333651817.66780,   0.00000,274640135.82653,   0.00000,   0.00000,   0.00000,-140988318.15873,   0.00000
120993059.44442,221566065.37811,157545520.88106,   0.00012,   0.00077,   0.00205,333743403.06701,   0.00000,274640135.82653,   0.00000,   0.00000,   0.00000,-140896732.75951,   0.00000
122789005.97895,222174141.76382,157364512.09648,   0.00013,   0.00077,   0.00205,333839356.93454,   0.00000,274640135.82653,   0.00000,   0.00000,   0.00000,-140800778.89199,   0.00000
124576467.72670,222762420.31371,157177846.78738,   0.00013,   0.00077,   0.00204,333925236.11207,   0.00000,274640135.82653,   0.00000,   0.00000,   0.00000,-140714899.71446,   0.00000
126383727.31027,223359183.65038,156991181.47828,   0.00014,   0.00077,   0.00204,334023799.26724,   0.00000,274640135.82653,   0.00000,   0.00000,   0.00000,-140616336.55929,   0.00000
128182502.10706,223936149.15124,156793203.12014,   0.00015,   0.00077,   0.00204,334104448.43897,   0.00000,274640135.82653,   0.00000,   0.00000,   0.00000,-140535687.38756,   0.00000
129981276.90384,224513114.65210,156595224.76200,   0.00015,   0.00077,   0.00204,334193002.51050,   0.00000,274640135.82653,   0.00000,   0.00000,   0.00000,-140447133.31603,   0.00000
131791364.74967,225078767.10392,156391589.87935,   0.00016,   0.00077,   0.00203,334276779.75859,   0.00000,274640135.82653,   0.00000,   0.00000,   0.00000,-140363356.06794,   0.00000
133601452.59550,225644419.55574,156182298.47217,   0.00017,   0.00077,   0.00203,334360675.10655,   0.00000,274640135.82653,   0.00000,   0.00000,   0.00000,-140279460.71998,   0.00000
135411540.44132,226210072.00756,155967350.54048,   0.00018,   0.00077,   0.00203,334444720.32359,   0.00000,274640135.82653,   0.00000,   0.00000,   0.00000,-140195415.50294,   0.00000
137232941.33618,226764411.41034,155752402.60879,   0.00018,   0.00076,   0.00202,334532306.44749,   0.00000,274640135.82653,   0.00000,   0.00000,   0.00000,-140107829.37903,   0.00000
139054342.23105,227318750.81313,155531798.15258,   0.00019,   0.00076,   0.00202,334620211.43854,   0.00000,274640135.82653,   0.00000,   0.00000,   0.00000,-140019924.38799,   0.00000
140867258.33913,227853292.38010,155305537.17185,   0.00020,   0.00076,   0.00202,334698473.77605,   0.00000,274640135.82653,   0.00000,   0.00000,   0.00000,-139941662.05048,   0.00000
142699972.28303,228396318.73384,155073619.66660,   0.00020,   0.00076,   0.00202,334782757.46727,   0.00000,274640135.82653,   0.00000,   0.00000,   0.00000,-139857378.35926,   0.00000
144524201.44015,228919547.25178,154841702.16136,   0.00021,   0.00076,   0.00201,334865416.75716,   0.00000,274640135.82653,   0.00000,   0.00000,   0.00000,-139774719.06937,   0.00000
146368228.43309,229451260.55649,154604128.13159,   0.00022,   0.00076,   0.00201,334954435.78523,   0.00000,274640135.82653,   0.00000,   0.00000,   0.00000,-139685700.04130,   0.00000
148203770.63924,229963176.02539,154360897.57731,   0.00023,   0.00076,   0.00201,335034132.98775,   0.00000,274640135.82653,   0.00000,   0.00000,   0.00000,-139606002.83878,   0.00000
150039312.84540,230475091.49428,154112010.49851,   0.00023,   0.00076,   0.00200,335114568.74077,   0.00000,274640135.82653,   0.00000,   0.00000,   0.00000,-139525567.08576,   0.00000
151866370.26478,230967209.12737,153857466.89519,   0.00024,   0.00075,   0.00200,335185701.91364,   0.00000,274640135.82653,   0.00000,   0.00000,   0.00000,-139454433.91289,   0.00000
153713225.51998,231467811.54723,153602923.29187,   0.00025,   0.00075,   0.00200,335271552.17326,   0.00000,274640135.82653,   0.00000,   0.00000,   0.00000,-139368583.65327,   0.00000
155579878.61098,231976898.75387,153342723.16403,   0.00026,   0.00075,   0.00199,335364599.61880,   0.00000,274640135.82653,   0.00000,   0.00000,   0.00000,-139275536.20773,   0.00000
157418249.07940,232457703.33792,153082523.03620,   0.00026,   0.00075,   0.00199,335450116.88368,   0.00000,274640135.82653,   0.00000,   0.00000,   0.00000,-139190018.94285,   0.00000
159296215.21945,232955477.49552,152811009.85932,   0.00027,   0.00075,   0.00199,335541691.89746,   0.00000,274640135.82653,   0.00000,   0.00000,   0.00000,-139098443.92907,   0.00000
161145898.73690,233424969.03053,152539496.68245,   0.00028,   0.00075,   0.00198,335625735.85614,   0.00000,274640135.82653,   0.00000,   0.00000,   0.00000,-139014399.97039,   0.00000
163015380.09017,233902945.35232,152262326.98106,   0.00029,   0.00075,   0.00198,335717549.58994,   0.00000,274640135.82653,   0.00000,   0.00000,   0.00000,-138922586.23659,   0.00000
164876376.65665,234361123.83829,151979500.75515,   0.00029,   0.00074,   0.00198,335800608.94508,   0.00000,274640135.82653,   0.00000,   0.00000,   0.00000,-138839526.88145,   0.00000
166737373.22314,234819302.32427,151696674.52924,   0.00030,   0.00074,   0.00197,335892759.54009,   0.00000,274640135.82653,   0.00000,   0.00000,   0.00000,-138747376.28644,   0.00000
168609682.83867,235266167.76120,151408191.77881,   0.00031,   0.00074,   0.00197,335982979.51578,   0.00000,274640135.82653,   0.00000,   0.00000,   0.00000,-138657156.31075,   0.00000
170481992.45420,235713033.19814,151114052.50386,   0.00032,   0.00074,   0.00196,336074823.24030,   0.00000,274640135.82653,   0.00000,   0.00000,   0.00000,-138565312.58623,   0.00000
172374099.90554,236168383.42186,150819913.22891,   0.00032,   0.00074,   0.00196,336182929.08323,   0.00000,274640135.82653,   0.00000,   0.00000,   0.00000,-138457206.74330,   0.00000
174257722.57010,236603935.80976,150514460.90493,   0.00033,   0.00074,   0.00196,336275069.15494,   0.00000,274640135.82653,   0.00000,   0.00000,   0.00000,-138365066.67159,   0.00000
176132860.44788,237019690.36185,150214665.10547,   0.00034,   0.00073,   0.00195,336374046.17645,   0.00000,274640135.82653,   0.00000,   0.00000,   0.00000,-138266089.65008,   0.00000
178036280.94826,237463727.53653,149903556.25696,   0.00035,   0.00073,   0.00195,336484782.50015,   0.00000,274640135.82653,   0.00000,   0.00000,   0.00000,-138155353.32638,   0.00000
179922731.87508,237868169.03958,149592447.40846,   0.00035,   0.00073,   0.00194,336584707.69313,   0.00000,274640135.82653,   0.00000,   0.00000,   0.00000,-138055428.13340,   0.00000
181817667.58868,238292408.37844,149275682.03544,   0.00036,   0.00073,   0.00194,336696976.49989,   0.00000,274640135.82653,   0.00000,   0.00000,   0.00000,-137943159.32664,   0.00000
183715431.56454,238685536.83246,148953260.13791,   0.00037,   0.00073,   0.00194,336798381.82166,   0.00000,274640135.82653,   0.00000,   0.00000,   0.00000,-137841754.00487,   0.00000
185621680.32717,239098463.12229,148630838.24037,   0.00038,   0.00073,   0.00193,336919876.25343,   0.00000,274640135.82653,   0.00000,   0.00000,   0.00000,-137720259.57310,   0.00000
187519444.30303,239491591.57630,148302759.81831,   0.00039,   0.00072,   0.00193,337033470.10203,   0.00000,274640135.82653,   0.00000,   0.00000,   0.00000,-137606665.72450,   0.00000
189428521.32793,239873406.98128,147969024.87174,   0.00039,   0.00072,   0.00192,337146923.82315,   0.00000,274640135.82653,   0.00000,   0.00000,   0.00000,-137493212.00338,   0.00000
191337598.35282,240255222.38626,147635289.92516,   0.00040,   0.00072,   0.00192,337270407.35595,   0.00000,274640135.82653,   0.00000,   0.00000,   0.00000,-137369728.47058,   0.00000
193266473.21353,240645522.57802,147295898.45407,   0.00041,   0.00072,   0.00191,337404402.55892,   0.00000,274640135.82653,   0.00000,   0.00000,   0.00000,-137235733.26761,   0.00000
195186863.28746,241016024.93396,146950850.45846,   0.00042,   0.00072,   0.00191,337530933.86753,   0.00000,274640135.82653,   0.00000,   0.00000,   0.00000,-137109201.95900,   0.00000
197107253.36139,241386527.28990,146605802.46285,   0.00043,   0.00071,   0.00191,337667696.76640,   0.00000,274640135.82653,   0.00000,   0.00000,   0.00000,-136972439.06013,   0.00000
199038956.48436,241745716.59681,146255097.94272,   0.00043,   0.00071,   0.00190,337805185.79205,   0.00000,274640135.82653,   0.00000,   0.00000,   0.00000,-136834950.03448,   0.00000
200970659.60732,242104905.90371,145904393.42259,   0.00044,   0.00071,   0.00190,337953080.93292,   0.00000,274640135.82653,   0.00000,   0.00000,   0.00000,-136687054.89361,   0.00000
202893877.94351,242444297.37481,145542375.85343,   0.00045,   0.00071,   0.00189,338086451.76055,   0.00000,274640135.82653,   0.00000,   0.00000,   0.00000,-136553684.06598,   0.00000
204836894.11552,242792173.63268,145186014.80878,   0.00046,   0.00071,   0.00189,338245967.74221,   0.00000,274640135.82653,   0.00000,   0.00000,   0.00000,-136394168.08432,   0.00000
206779910.28752,243140049.89055,144818340.71510,   0.00047,   0.00070,   0.00188,338401526.11660,   0.00000,274640135.82653,   0.00000,   0.00000,   0.00000,-136238609.70993,   0.00000
208714441.67275,243468128.31260,144450666.62141,   0.00047,   0.00070,   0.00188,338557407.92818,   0.00000,274640135.82653,   0.00000,   0.00000,   0.00000,-136082727.89835,   0.00000
210668770.89379,243804691.52144,144082992.52773,   0.00048,   0.00070,   0.00187,338732564.33954,   0.00000,274640135.82653,   0.00000,   0.00000,   0.00000,-135907571.48699,   0.00000
212614615.32805,244121456.89446,143704005.38501,   0.00049,   0.00070,   0.00187,338893780.12515,   0.00000,274640135.82653,   0.00000,   0.00000,   0.00000,-135746355.70138,   0.00000
214560459.76231,244438222.26747,143330674.76681,   0.00050,   0.00069,   0.00186,339073008.41092,   0.00000,274640135.82653,   0.00000,   0.00000,   0.00000,-135567127.41561,   0.00000
216517617.24561,244743674.59146,142946031.09957,   0.00051,   0.00069,   0.00186,339247300.64236,   0.00000,274640135.82653,   0.00000,   0.00000,   0.00000,-135392835.18417,   0.00000
218474774.72891,245049126.91544,142561387.43233,   0.00052,   0.00069,   0.00185,339432609.73925,   0.00000,274640135.82653,   0.00000,   0.00000,   0.00000,-135207526.08728,   0.00000
220451730.04802,245363064.02620,142176743.76510,   0.00052,   0.00069,   0.00185,339637992.45369,   0.00000,274640135.82653,   0.00000,   0.00000,   0.00000,-135002143.37284,   0.00000
222400402.74455,245648718.51437,141786443.57334,   0.00053,   0.00068,   0.00184,339827963.62415,   0.00000,274640135.82653,   0.00000,   0.00000,   0.00000,-134812172.20238,   0.00000
224380186.32592,245931544.74028,141390486.85707,   0.00054,   0.00068,   0.00184,340030051.91127,   0.00000,274640135.82653,   0.00000,   0.00000,   0.00000,-134610083.91526,   0.00000
226348656.85825,246225684.01523,140994530.14079,   0.00055,   0.00068,   0.00183,340244502.75988,   0.00000,274640135.82653,   0.00000,   0.00000,   0.00000,-134395633.06665,   0.00000
228319955.65285,246488712.40532,140592916.90000,   0.00056,   0.00068,   0.00183,340451906.22846,   0.00000,274640135.82653,   0.00000,   0.00000,   0.00000,-134188229.59807,   0.00000
230299739.23422,246771538.63123,140191303.65921,   0.00057,   0.00067,   0.00182,340681003.34122,   0.00000,274640135.82653,   0.00000,   0.00000,   0.00000,-133959132.48531,   0.00000
232290835.86463,247043051.80811,139784033.89389,   0.00058,   0.00067,   0.00182,340913762.21744,   0.00000,274640135.82653,   0.00000,   0.00000,   0.00000,-133726373.60909,   0.00000
234273447.70826,247294767.14917,139371107.60407,   0.00058,   0.00067,   0.00181,341140835.08806,   0.00000,274640135.82653,   0.00000,   0.00000,   0.00000,-133499300.73847,   0.00000
236256059.55189,247546482.49023,138963837.83876,   0.00059,   0.00067,   0.00181,341386401.07630,   0.00000,274640135.82653,   0.00000,   0.00000,   0.00000,-133253734.75023,   0.00000
238258469.23134,247806682.61807,138545255.02441,   0.00060,   0.00066,   0.00180,341639535.64260,   0.00000,274640135.82653,   0.00000,   0.00000,   0.00000,-133000600.18393,   0.00000
240252394.12400,248047084.91009,138126672.21006,   0.00061,   0.00066,   0.00180,341894129.72009,   0.00000,274640135.82653,   0.00000,   0.00000,   0.00000,-132746006.10644,   0.00000
242246319.01667,248287487.20211,137708089.39571,   0.00062,   0.00066,   0.00179,342160458.26587,   0.00000,274640135.82653,   0.00000,   0.00000,   0.00000,-132479677.56066,   0.00000
244260041.74515,248536374.28091,137283850.05685,   0.00063,   0.00065,   0.00178,342441759.48078,   0.00000,274640135.82653,   0.00000,   0.00000,   0.00000,-132198376.34575,   0.00000
246265279.68685,248765463.52390,136853954.19346,   0.00064,   0.00065,   0.00178,342717903.97574,   0.00000,274640135.82653,   0.00000,   0.00000,   0.00000,-131922231.85079,   0.00000
248262032.84178,248974754.93108,136424058.33008,   0.00064,   0.00065,   0.00177,342995711.09855,   0.00000,274640135.82653,   0.00000,   0.00000,   0.00000,-131644424.72798,   0.00000
250278583.83252,249192531.12503,135994162.46670,   0.00065,   0.00065,   0.00177,343295747.10030,   0.00000,274640135.82653,   0.00000,   0.00000,   0.00000,-131344388.72623,   0.00000
252295134.82326,249410307.31898,135558610.07880,   0.00066,   0.00064,   0.00176,343601134.51583,   0.00000,274640135.82653,   0.00000,   0.00000,   0.00000,-131039001.31070,   0.00000
254303201.02722,249608285.67711,135123057.69089,   0.00067,   0.00064,   0.00176,343908345.98765,   0.00000,274640135.82653,   0.00000,   0.00000,   0.00000,-130731789.83888,   0.00000
256331065.06700,249814748.82203,134681848.77847,   0.00068,   0.00064,   0.00175,344231527.00408,   0.00000,274640135.82653,   0.00000,   0.00000,   0.00000,-130408608.82245,   0.00000
258358929.10678,250021211.96694,134240639.86605,   0.00069,   0.00063,   0.00175,344566943.10367,   0.00000,274640135.82653,   0.00000,   0.00000,   0.00000,-130073192.72286,   0.00000
260378308.35978,250207877.27604,133793774.42912,   0.00070,   0.00063,   0.00174,344897758.35720,   0.00000,274640135.82653,   0.00000,   0.00000,   0.00000,-129742377.46933,   0.00000
262417485.44859,250403027.37192,133346908.99218,   0.00071,   0.00063,   0.00173,345251610.28999,   0.00000,274640135.82653,   0.00000,   0.00000,   0.00000,-129388525.53653,   0.00000
264448177.75063,250578379.63199,132900043.55524,   0.00071,   0.00062,   0.00173,345607627.09782,   0.00000,274640135.82653,   0.00000,   0.00000,   0.00000,-129032508.72871,   0.00000
266478870.05266,250753731.89205,132447521.59378,   0.00072,   0.00062,   0.00172,345969491.48048,   0.00000,274640135.82653,   0.00000,   0.00000,   0.00000,-128670644.34605,   0.00000
268529360.19051,250937568.93889,131994999.63233,   0.00073,   0.00062,   0.00172,346354754.17291,   0.00000,274640135.82653,   0.00000,   0.00000,   0.00000,-128285381.65362,   0.00000
270571365.54158,251101608.14992,131536821.14635,   0.00074,   0.00061,   0.00171,346735897.20645,   0.00000,274640135.82653,   0.00000,   0.00000,   0.00000,-127904238.62008,   0.00000
272624683.94169,251254334.31191,131078642.66038,   0.00075,   0.00061,   0.00170,347130605.11733,   0.00000,274640135.82653,   0.00000,   0.00000,   0.00000,-127509530.70920,   0.00000
274666689.29276,251418373.52294,130614807.64988,   0.00076,   0.00061,   0.00170,347530459.67411,   0.00000,274640135.82653,   0.00000,   0.00000,   0.00000,-127109676.15242,   0.00000
276720007.69287,251571099.68493,130156629.16391,   0.00077,   0.00061,   0.00169,347950382.32490,   0.00000,274640135.82653,   0.00000,   0.00000,   0.00000,-126689753.50163,   0.00000
278784639.14202,251712512.79789,129687137.62890,   0.00078,   0.00060,   0.00169,348371558.93071,   0.00000,274640135.82653,   0.00000,   0.00000,   0.00000,-126268576.89582,   0.00000
280829472.75535,251845441.12406,129223302.61841,   0.00079,   0.00060,   0.00168,348800347.41258,   0.00000,274640135.82653,   0.00000,   0.00000,   0.00000,-125839788.41395,   0.00000
282913902.04031,251995339.02380,128753811.08339,   0.00080,   0.00059,   0.00167,349258605.91214,   0.00000,274640135.82653,   0.00000,   0.00000,   0.00000,-125381529.91439,   0.00000
284970048.70268,252116954.30094,128284319.54838,   0.00080,   0.00059,   0.00167,349708030.33910,   0.00000,274640135.82653,   0.00000,   0.00000,   0.00000,-124932105.48743,   0.00000
287045993.20086,252247054.36486,127809171.48885,   0.00081,   0.00059,   0.00166,350175706.39076,   0.00000,274640135.82653,   0.00000,   0.00000,   0.00000,-124464429.43577,   0.00000
289121937.69904,252377154.42878,127334023.42932,   0.00082,   0.00058,   0.00166,350656258.44279,   0.00000,274640135.82653,   0.00000,   0.00000,   0.00000,-123983877.38374,   0.00000
291189397.41044,252487456.65688,126858875.36980,   0.00083,   0.00058,   0.00165,351139620.88601,   0.00000,274640135.82653,   0.00000,   0.00000,   0.00000,-123500514.94052,   0.00000
293276654.95766,252606243.67176,126378070.78575,   0.00084,   0.00058,   0.00164,351641645.49470,   0.00000,274640135.82653,   0.00000,   0.00000,   0.00000,-122998490.33183,   0.00000
295363912.50488,252725030.68665,125897266.20170,   0.00085,   0.00057,   0.00164,352156631.35233,   0.00000,274640135.82653,   0.00000,   0.00000,   0.00000,-122483504.47420,   0.00000
297442685.26532,252824019.86571,125416461.61765,   0.00086,   0.00057,   0.00163,352674562.74099,   0.00000,274640135.82653,   0.00000,   0.00000,   0.00000,-121965573.08554,   0.00000
299512973.23898,252903211.20897,124935657.03361,   0.00087,   0.00057,   0.00162,353195438.59262,   0.00000,274640135.82653,   0.00000,   0.00000,   0.00000,-121444697.23391,   0.00000
301611543.83524,253010685.17482,124449195.92504,   0.00088,   0.00056,   0.00162,353745380.07454,   0.00000,274640135.82653,   0.00000,   0.00000,   0.00000,-120894755.75198,   0.00000
303721427.48053,253106846.09162,123962734.81647,   0.00089,   0.00056,   0.00161,354310721.42789,   0.00000,274640135.82653,   0.00000,   0.00000,   0.00000,-120329414.39864,   0.00000
305803028.50323,253174724.38584,123476273.70791,   0.00090,   0.00056,   0.00161,354866885.40677,   0.00000,274640135.82653,   0.00000,   0.00000,   0.00000,-119773250.41976,   0.00000
307904427.36174,253251087.46684,122984156.07482,   0.00091,   0.00055,   0.00160,355442578.43313,   0.00000,274640135.82653,   0.00000,   0.00000,   0.00000,-119197557.39340,   0.00000
310005826.22025,253327450.54783,122497694.96626,   0.00092,   0.00055,   0.00159,356037188.64236,   0.00000,274640135.82653,   0.00000,   0.00000,   0.00000,-118602947.18417,   0.00000
312127022.91458,253412298.41561,122005577.33317,   0.00093,   0.00054,   0.00159,356651549.62316,   0.00000,274640135.82653,   0.00000,   0.00000,   0.00000,-117988586.20337,   0.00000
314219936.98632,253468863.66079,121507803.17557,   0.00094,   0.00054,   0.00158,357250755.03818,   0.00000,274640135.82653,   0.00000,   0.00000,   0.00000,-117389380.78835,   0.00000
316332648.89387,253533913.69275,121015685.54249,   0.00094,   0.00054,   0.00157,357881438.59059,   0.00000,274640135.82653,   0.00000,   0.00000,   0.00000,-116758697.23594,   0.00000
318456673.85045,253587650.67567,120517911.38489,   0.00095,   0.00053,   0.00157,358522483.01202,   0.00000,274640135.82653,   0.00000,   0.00000,   0.00000,-116117652.81451,   0.00000
320580698.80704,253641387.65860,120020137.22728,   0.00096,   0.00053,   0.00156,359176704.00400,   0.00000,274640135.82653,   0.00000,   0.00000,   0.00000,-115463431.82253,   0.00000
322704723.76363,253695124.64152,119522363.06968,   0.00097,   0.00053,   0.00155,359844029.69884,   0.00000,274640135.82653,   0.00000,   0.00000,   0.00000,-114796106.12769,   0.00000
324820263.93343,253729063.78863,119024588.91208,   0.00098,   0.00052,   0.00155,360514713.29545,   0.00000,274640135.82653,   0.00000,   0.00000,   0.00000,-114125422.53108,   0.00000
326935804.10324,253763002.93574,118526814.75448,   0.00099,   0.00052,   0.00154,361198404.88944,   0.00000,274640135.82653,   0.00000,   0.00000,   0.00000,-113441730.93709,   0.00000
329071142.10887,253805426.86962,118023384.07236,   0.00100,   0.00051,   0.00153,361902648.71587,   0.00000,274640135.82653,   0.00000,   0.00000,   0.00000,-112737487.11066,   0.00000
331217793.16352,253836537.75447,117525609.91476,   0.00101,   0.00051,   0.00153,362629071.51178,   0.00000,274640135.82653,   0.00000,   0.00000,   0.00000,-112011064.31475,   0.00000
333344646.38237,253859163.85255,117022179.23264,   0.00102,   0.00051,   0.00152,363349840.28539,   0.00000,274640135.82653,   0.00000,   0.00000,   0.00000,-111290295.54114,   0.00000
335491297.43703,253890274.73740,116518748.55052,   0.00103,   0.00050,   0.00151,364096911.37835,   0.00000,274640135.82653,   0.00000,   0.00000,   0.00000,-110543224.44818,   0.00000
337629463.70491,253901587.78643,116015317.86840,   0.00104,   0.00050,   0.00151,364847469.58735,   0.00000,274640135.82653,   0.00000,   0.00000,   0.00000,-109792666.23918,   0.00000
339767629.97279,253912900.83547,115511887.18627,   0.00105,   0.00049,   0.00150,365611005.43560,   0.00000,274640135.82653,   0.00000,   0.00000,   0.00000,-109029130.39093,   0.00000
341925594.07649,253932698.67128,115002799.97964,   0.00106,   0.00049,   0.00150,366395647.49037,   0.00000,274640135.82653,   0.00000,   0.00000,   0.00000,-108244488.33616,   0.00000
344075073.39341,253932698.67128,114499369.29752,   0.00107,   0.00048,   0.00149,367189156.10546,   0.00000,274640135.82653,   0.00000,   0.00000,   0.00000,-107450979.72107,   0.00000
346224552.71032,253932698.67128,113995938.61540,   0.00108,   0.00048,   0.00148,367995575.24564,   0.00000,274640135.82653,   0.00000,   0.00000,   0.00000,-106644560.58089,   0.00000
348393829.86306,253941183.45806,113486851.40876,   0.00109,   0.00048,   0.00148,368823318.41390,   0.00000,274640135.82653,   0.00000,   0.00000,   0.00000,-105816817.41263,   0.00000
350554622.22901,253929870.40902,112977764.20212,   0.00110,   0.00047,   0.00147,369654647.02949,   0.00000,274640135.82653,   0.00000,   0.00000,   0.00000,-104985488.79704,   0.00000
352715414.59496,253918557.35999,112474333.52000,   0.00111,   0.00047,   0.00146,370504028.76945,   0.00000,274640135.82653,   0.00000,   0.00000,   0.00000,-104136107.05708,   0.00000
354876206.96092,253907244.31095,111965246.31336,   0.00112,   0.00046,   0.00146,371361037.73231,   0.00000,274640135.82653,   0.00000,   0.00000,   0.00000,-103279098.09422,   0.00000
357048312.37591,253884618.21288,111456159.10672,   0.00113,   0.00046,   0.00145,372235474.49557,   0.00000,274640135.82653,   0.00000,   0.00000,   0.00000,-102404661.33096,   0.00000
359220417.79090,253861992.11481,110947071.90008,   0.00114,   0.00045,   0.00144,373122723.80446,   0.00000,274640135.82653,   0.00000,   0.00000,   0.00000,-101517412.02206,   0.00000
361392523.20589,253839366.01673,110437984.69344,   0.00115,   0.00045,   0.00144,374022694.47799,   0.00000,274640135.82653,   0.00000,   0.00000,   0.00000,-100617441.34854,   0.00000
363564628.62088,253816739.91866,109934554.01132,   0.00116,   0.00045,   0.00143,374940270.38702,   0.00000,274640135.82653,   0.00000,   0.00000,   0.00000,-99699865.43951,   0.00000
365748047.08491,253782800.77155,109425466.80469,   0.00117,   0.00044,   0.00142,375870427.81285,   0.00000,274640135.82653,   0.00000,   0.00000,   0.00000,-98769708.01368,   0.00000
367931465.54894,253748861.62444,108916379.59805,   0.00118,   0.00044,   0.00142,376813204.13710,   0.00000,274640135.82653,   0.00000,   0.00000,   0.00000,-97826931.68942,   0.00000
370106399.22619,253695124.64152,108407292.39141,   0.00119,   0.00043,   0.00141,377759443.38117,   0.00000,274640135.82653,   0.00000,   0.00000,   0.00000,-96880692.44536,   0.00000
372309615.52603,253669670.28119,107898205.18477,   0.00120,   0.00043,   0.00140,378741550.48923,   0.00000,274640135.82653,   0.00000,   0.00000,   0.00000,-95898585.33730,   0.00000
374504347.03909,253624418.08504,107389117.97813,   0.00121,   0.00042,   0.00140,379727102.39382,   0.00000,274640135.82653,   0.00000,   0.00000,   0.00000,-94913033.43271,   0.00000
376690593.76538,253559368.05308,106885687.29601,   0.00122,   0.00042,   0.00139,380720866.38156,   0.00000,274640135.82653,   0.00000,   0.00000,   0.00000,-93919269.44497,   0.00000
378885325.27844,253514115.85694,106376600.08937,   0.00123,   0.00041,   0.00138,381731137.76671,   0.00000,274640135.82653,   0.00000,   0.00000,   0.00000,-92908998.05982,   0.00000
381091369.84054,253457550.61175,105867512.88273,   0.00124,   0.00041,   0.00138,382759281.82334,   0.00000,274640135.82653,   0.00000,   0.00000,   0.00000,-91880854.00319,   0.00000
383297414.40264,253400985.36657,105364082.20061,   0.00125,   0.00041,   0.00137,383804369.73587,   0.00000,274640135.82653,   0.00000,   0.00000,   0.00000,-90835766.09066,   0.00000
385494974.17797,253324622.28558,104854994.99398,   0.00126,   0.00040,   0.00136,384848126.63119,   0.00000,274640135.82653,   0.00000,   0.00000,   0.00000,-89792009.19534,   0.00000
387701018.74007,253268057.04039,104351564.31186,   0.00127,   0.00040,   0.00136,385917415.83300,   0.00000,274640135.82653,   0.00000,   0.00000,   0.00000,-88722719.99353,   0.00000
389918376.35120,253200178.74618,103848133.62974,   0.00128,   0.00039,   0.00135,387004615.88985,   0.00000,274640135.82653,   0.00000,   0.00000,   0.00000,-87635519.93668,   0.00000
392135733.96234,253132300.45196,103339046.42310,   0.00129,   0.00039,   0.00134,388099279.18238,   0.00000,274640135.82653,   0.00000,   0.00000,   0.00000,-86540856.64415,   0.00000
394344606.78670,253044624.32192,102835615.74098,   0.00130,   0.00038,   0.00134,389201695.16170,   0.00000,274640135.82653,   0.00000,   0.00000,   0.00000,-85438440.66483,   0.00000
396553479.61106,252956948.19189,102337841.58337,   0.00131,   0.00038,   0.00133,390320411.06344,   0.00000,274640135.82653,   0.00000,   0.00000,   0.00000,-84319724.76309,   0.00000
398782150.27123,252877756.84864,101834410.90125,   0.00132,   0.00037,   0.00132,391461325.52616,   0.00000,274640135.82653,   0.00000,   0.00000,   0.00000,-83178810.30037,   0.00000
401010820.93140,252798565.50538,101330980.21913,   0.00133,   0.00037,   0.00132,392613977.84411,   0.00000,274640135.82653,   0.00000,   0.00000,   0.00000,-82026157.98242,   0.00000
403239491.59158,252719374.16213,100833206.06153,   0.00134,   0.00036,   0.00131,393782610.12568,   0.00000,274640135.82653,   0.00000,   0.00000,   0.00000,-80857525.70085,   0.00000
405459677.46497,252620384.98306,100329775.37941,   0.00135,   0.00036,   0.00130,394949896.34855,   0.00000,274640135.82653,   0.00000,   0.00000,   0.00000,-79690239.47798,   0.00000
407699661.17418,252529880.59077,99832001.22181,   0.00136,   0.00035,   0.00130,396148069.49343,   0.00000,274640135.82653,   0.00000,   0.00000,   0.00000,-78492066.33310,   0.00000
409939644.88339,252439376.19848,99334227.06421,   0.00137,   0.00035,   0.00129,397357658.62575,   0.00000,274640135.82653,   0.00000,   0.00000,   0.00000,-77282477.20078,   0.00000
412171143.80582,252329073.97037,98842109.43112,   0.00138,   0.00034,   0.00128,398574382.15908,   0.00000,274640135.82653,   0.00000,   0.00000,   0.00000,-76065753.66744,   0.00000
414411127.51503,252238569.57808,98344335.27352,   0.00139,   0.00034,   0.00128,399806494.95802,   0.00000,274640135.82653,   0.00000,   0.00000,   0.00000,-74833640.86851,   0.00000
416642626.43746,252128267.34998,97852217.64044,   0.00140,   0.00033,   0.00127,401045542.73205,   0.00000,274640135.82653,   0.00000,   0.00000,   0.00000,-73594593.09448,   0.00000
418885438.40893,252006652.07283,97360100.00735,   0.00141,   0.00033,   0.00127,402302639.17209,   0.00000,274640135.82653,   0.00000,   0.00000,   0.00000,-72337496.65444,   0.00000
421136735.16718,251904834.63151,96867982.37427,   0.00142,   0.00032,   0.00126,403579030.44663,   0.00000,274640135.82653,   0.00000,   0.00000,   0.00000,-71061105.37990,   0.00000
423388031.92542,251803017.19018,96375864.74119,   0.00144,   0.00032,   0.00125,404866302.71802,   0.00000,274640135.82653,   0.00000,   0.00000,   0.00000,-69773833.10851,   0.00000
425650641.73271,251689886.69981,95889403.63262,   0.00145,   0.00032,   0.00125,406175626.13983,   0.00000,274640135.82653,   0.00000,   0.00000,   0.00000,-68464509.68670,   0.00000
427893453.70418,251568271.42267,95402942.52405,   0.00146,   0.00031,   0.00124,407480245.82154,   0.00000,274640135.82653,   0.00000,   0.00000,   0.00000,-67159890.00499,   0.00000
430156063.51146,251455140.93231,94916481.41549,   0.00147,   0.00031,   0.00123,408810944.85922,   0.00000,274640135.82653,   0.00000,   0.00000,   0.00000,-65829190.96731,   0.00000
432410188.53196,251322212.60613,94430020.30692,   0.00148,   0.00030,   0.00123,410144153.39695,   0.00000,274640135.82653,   0.00000,   0.00000,   0.00000,-64495982.42958,   0.00000
434692596.17506,251217566.90254,93949215.72288,   0.00149,   0.00030,   0.00122,411515331.58927,   0.00000,274640135.82653,   0.00000,   0.00000,   0.00000,-63124804.23726,   0.00000
436946721.19556,251084638.57637,93468411.13883,   0.00150,   0.00029,   0.00122,412873291.66042,   0.00000,274640135.82653,   0.00000,   0.00000,   0.00000,-61766844.16611,   0.00000
439220644.05188,250960195.03697,92993263.07930,   0.00151,   0.00029,   0.00121,414260951.68773,   0.00000,274640135.82653,   0.00000,   0.00000,   0.00000,-60379184.13880,   0.00000
441494566.90820,250835751.49757,92512458.49525,   0.00152,   0.00028,   0.00120,415654989.50067,   0.00000,274640135.82653,   0.00000,   0.00000,   0.00000,-58985146.32586,   0.00000
443760004.97774,250691510.12235,92042966.96024,   0.00153,   0.00028,   0.00120,417058788.16545,   0.00000,274640135.82653,   0.00000,   0.00000,   0.00000,-57581347.66108,   0.00000
446033927.83406,250567066.58295,91567818.90071,   0.00154,   0.00027,   0.00119,418476645.84289,   0.00000,274640135.82653,   0.00000,   0.00000,   0.00000,-56163489.98364,   0.00000
448319163.73942,250431309.99451,91098327.36570,   0.00155,   0.00027,   0.00118,419916031.93633,   0.00000,274640135.82653,   0.00000,   0.00000,   0.00000,-54724103.89020,   0.00000
450584601.80896,250287068.61930,90628835.83069,   0.00156,   0.00026,   0.00118,421349449.51394,   0.00000,274640135.82653,   0.00000,   0.00000,   0.00000,-53290686.31259,   0.00000
452869837.71431,250151312.03086,90159344.29568,   0.00157,   0.00026,   0.00117,422808357.09597,   0.00000,274640135.82653,   0.00000,   0.00000,   0.00000,-51831778.73056,   0.00000
455155073.61967,250015555.44243,89695509.28518,   0.00158,   0.00025,   0.00117,424280477.53725,   0.00000,274640135.82653,   0.00000,   0.00000,   0.00000,-50359658.28928,   0.00000
457451622.57406,249868485.80495,89237330.79921,   0.00159,   0.00024,   0.00116,425773891.35197,   0.00000,274640135.82653,   0.00000,   0.00000,   0.00000,-48866244.47456,   0.00000
459736858.47941,249732729.21652,88773495.78872,   0.00160,   0.00024,   0.00115,427264877.28411,   0.00000,274640135.82653,   0.00000,   0.00000,   0.00000,-47375258.54242,   0.00000
462033407.43380,249585659.57904,88315317.30274,   0.00162,   0.00023,   0.00115,428777033.10850,   0.00000,274640135.82653,   0.00000,   0.00000,   0.00000,-45863102.71802,   0.00000
464329956.38820,249438589.94157,87862795.34129,   0.00163,   0.00023,   0.00114,430301895.62440,   0.00000,274640135.82653,   0.00000,   0.00000,   0.00000,-44338240.20213,   0.00000
466626505.34259,249291520.30410,87410273.37983,   0.00164,   0.00022,   0.00114,431835841.87713,   0.00000,274640135.82653,   0.00000,   0.00000,   0.00000,-42804293.94940,   0.00000
468923054.29698,249144450.66662,86957751.41837,   0.00165,   0.00022,   0.00113,433378775.41091,   0.00000,274640135.82653,   0.00000,   0.00000,   0.00000,-41261360.41561,   0.00000
471239401.08718,249005865.81593,86510885.98144,   0.00166,   0.00021,   0.00112,434950019.48883,   0.00000,274640135.82653,   0.00000,   0.00000,   0.00000,-39690116.33770,   0.00000
473535950.04158,248858796.17845,86064020.54450,   0.00167,   0.00021,   0.00112,436513982.41001,   0.00000,274640135.82653,   0.00000,   0.00000,   0.00000,-38126153.41651,   0.00000
475843812.04500,248700413.49194,85622811.63208,   0.00168,   0.00020,   0.00111,438098703.41597,   0.00000,274640135.82653,   0.00000,   0.00000,   0.00000,-36541432.41056,   0.00000
478160158.83521,248561828.64125,85181602.71966,   0.00169,   0.00020,   0.00111,439699298.40403,   0.00000,274640135.82653,   0.00000,   0.00000,   0.00000,-34940837.42250,   0.00000
480468020.83864,248403445.95474,84746050.33176,   0.00170,   0.00019,   0.00110,441304382.60220,   0.00000,274640135.82653,   0.00000,   0.00000,   0.00000,-33335753.22433,   0.00000
482775882.84206,248245063.26823,84310497.94385,   0.00171,   0.00019,   0.00110,442917842.38287,   0.00000,274640135.82653,   0.00000,   0.00000,   0.00000,-31722293.44366,   0.00000
485103542.68131,248095165.36849,83880602.08047,   0.00172,   0.00018,   0.00109,444558973.33758,   0.00000,274640135.82653,   0.00000,   0.00000,   0.00000,-30081162.48895,   0.00000
487411404.68473,247936782.68198,83450706.21709,   0.00173,   0.00018,   0.00108,446192078.82681,   0.00000,274640135.82653,   0.00000,   0.00000,   0.00000,-28448056.99972,   0.00000
489739064.52398,247786884.78225,83026466.87822,   0.00175,   0.00017,   0.00108,447852606.38204,   0.00000,274640135.82653,   0.00000,   0.00000,   0.00000,-26787529.44449,   0.00000
492066724.36322,247636986.88252,82602227.53936,   0.00176,   0.00017,   0.00107,449521080.16725,   0.00000,274640135.82653,   0.00000,   0.00000,   0.00000,-25119055.65928,   0.00000
494385899.41568,247467291.14697,82183644.72501,   0.00177,   0.00016,   0.00107,451193520.34340,   0.00000,274640135.82653,   0.00000,   0.00000,   0.00000,-23446615.48313,   0.00000
496713559.25492,247317393.24724,81765061.91066,   0.00178,   0.00016,   0.00106,452880697.68161,   0.00000,274640135.82653,   0.00000,   0.00000,   0.00000,-21759438.14492,   0.00000
499052532.14320,247156182.29847,81352135.62083,   0.00179,   0.00015,   0.00106,454587944.83159,   0.00000,274640135.82653,   0.00000,   0.00000,   0.00000,-20052190.99494,   0.00000
501380191.98244,247006284.39874,80944865.85552,   0.00180,   0.00015,   0.00105,456296347.86750,   0.00000,274640135.82653,   0.00000,   0.00000,   0.00000,-18343787.95903,   0.00000
503719164.87072,246845073.44997,80537596.09021,   0.00181,   0.00014,   0.00105,458021622.02878,   0.00000,274640135.82653,   0.00000,   0.00000,   0.00000,-16618513.79775,   0.00000
506058137.75900,246683862.50120,80135982.84942,   0.00182,   0.00014,   0.00104,459757238.09396,   0.00000,274640135.82653,   0.00000,   0.00000,   0.00000,-14882897.73257,   0.00000
508405595.43405,246542449.38825,79734369.60863,   0.00183,   0.00013,   0.00104,461506854.90972,   0.00000,274640135.82653,   0.00000,   0.00000,   0.00000,-13133280.91681,   0.00000
510744568.32233,246381238.43948,79338412.89235,   0.00184,   0.00013,   0.00103,463259755.14507,   0.00000,274640135.82653,   0.00000,   0.00000,   0.00000,-11380380.68145,   0.00000
513083541.21061,246220027.49071,78948112.70059,   0.00185,   0.00012,   0.00103,465022571.57454,   0.00000,274640135.82653,   0.00000,   0.00000,   0.00000,-9617564.25199,   0.00000
515422514.09889,246058816.54194,78557812.50884,   0.00187,   0.00011,   0.00102,466792293.33646,   0.00000,274640135.82653,   0.00000,   0.00000,   0.00000,-7847842.49007,   0.00000
517781284.82298,245906090.37995,78173168.84160,   0.00188,   0.00011,   0.00102,468588119.52116,   0.00000,274640135.82653,   0.00000,   0.00000,   0.00000,-6052016.30537,   0.00000
520140055.54707,245753364.21796,77788525.17436,   0.00189,   0.00010,   0.00101,470390676.82104,   0.00000,274640135.82653,   0.00000,   0.00000,   0.00000,-4249459.00549,   0.00000
522479028.43535,245592153.26919,77409538.03164,   0.00190,   0.00010,   0.00101,472186193.15428,   0.00000,274640135.82653,   0.00000,   0.00000,   0.00000,-2453942.67225,   0.00000
524837799.15944,245439427.10720,77036207.41344,   0.00191,   0.00009,   0.00100,474007458.60511,   0.00000,274640135.82653,   0.00000,   0.00000,   0.00000,-632677.22142,   0.00000
525655393.08901,245386489.37075,76906804.05768,   0.00191,   0.00009,   0.00100,474640242.13235,   0.00000,274640135.82653,   0.00000,   0.00000,   0.00000,  -5.18693,   0.00000
525897649.55713,244778965.34271,76447721.15972,   0.00192,   0.00009,   0.00100,474646351.88816,   0.00001,274646357.64292,   0.00000,  -0.00000,   0.00000,  -5.75475,   1.00000
526258823.77698,243850113.47506,75752403.66967,   0.00193,   0.00008,   0.00099,474655910.67094,   0.00001,274655911.98767,   0.00001,  -0.00000,   0.00001,  -1.31673,   1.00000
526611005.23682,242923103.52945,75061335.52360,   0.00194,   0.00008,   0.00099,474665585.00883,   0.00002,274665589.06396,   0.00002,  -0.00000,   0.00001,  -4.05513,   1.00000
526950765.90328,241994947.19917,74380370.00965,   0.00195,   0.00007,   0.00098,474675214.97648,   0.00003,274675216.56383,   0.00003,  -0.00000,   0.00002,  -1.58735,   1.00000
527284678.50696,241069950.04459,73698562.31018,   0.00196,   0.00007,   0.00098,474684944.10030,   0.00004,274684952.10754,   0.00004,  -0.00000,   0.00002,  -8.00725,   1.00000
527604893.29288,240126761.01279,73027931.46072,   0.00198,   0.00006,   0.00097,474694603.90915,   0.00005,274694604.79204,   0.00004,  -0.00000,   0.00002,  -0.88289,   1.00000
527921013.21052,239204070.23220,72355443.48976,   0.00199,   0.00006,   0.00097,474704391.05996,   0.00006,274704397.90928,   0.00005,  -0.00000,   0.00003,  -6.84932,   1.00000
528224246.47707,238281014.16328,71695456.03542,   0.00200,   0.00005,   0.00096,474714232.32208,   0.00007,274714239.24071,   0.00006,  -0.00000,   0.00003,  -6.91863,   1.00000
528520364.48659,237359771.98834,71037560.04333,   0.00201,   0.00005,   0.00096,474724097.38752,   0.00008,274724101.60664,   0.00007,  -0.00000,   0.00004,  -4.21911,   1.00000
528806704.26297,236439358.42710,70386986.50555,   0.00202,   0.00004,   0.00096,474733995.41954,   0.00009,274733997.99952,   0.00008,  -0.00000,   0.00004,  -2.57999,   1.00000
529086137.12695,235520845.64561,69738520.63443,   0.00203,   0.00004,   0.00095,474743908.41681,   0.00009,274743915.04803,   0.00008,  -0.00000,   0.00004,  -6.63122,   1.00000
529353375.93581,234602296.35300,69102641.90032,   0.00204,   0.00003,   0.00095,474753875.01820,   0.00010,274753878.25615,   0.00009,  -0.00001,   0.00005,  -3.23795,   1.00000
529613981.38940,233685760.40266,68468872.85495,   0.00205,   0.00002,   0.00094,474763854.55015,   0.00011,274763861.57181,   0.00010,  -0.00001,   0.00005,  -7.02166,   1.00000
529866948.46446,232772181.88112,67839829.29010,   0.00206,   0.00002,   0.00094,474773960.26562,   0.00012,274773963.25560,   0.00011,  -0.00001,   0.00006,  -2.98997,   1.00000
530113816.78685,231876168.37540,67214615.48557,   0.00208,   0.00001,   0.00093,474784023.71394,   0.00013,274784029.60788,   0.00012,  -0.00001,   0.00006,  -5.89394,   1.00000
530348808.22054,230964938.19403,66600413.04609,   0.00209,   0.00001,   0.00093,474794193.72789,   0.00014,274794194.87759,   0.00012,  -0.00001,   0.00006,  -1.14970,   1.00000
530577605.16613,230055924.19161,65988359.41402,   0.00210,   0.00000,   0.00093,474804373.17075,   0.00015,274804379.32243,   0.00013,  -0.00001,   0.00007,  -6.15168,   1.00000
530798252.36169,229163683.26594,65385386.90806,   0.00211,  -0.00000,   0.00092,474814534.65459,   0.00016,274814539.31898,   0.00014,  -0.00001,   0.00007,  -4.66439,   1.00000
531009922.93870,228257359.65207,64788200.04023,   0.00212,  -0.00001,   0.00092,474824778.34357,   0.00017,274824785.33997,   0.00015,  -0.00001,   0.00008,  -6.99640,   1.00000
531215277.45564,227369966.10898,64197568.49321,   0.00213,  -0.00001,   0.00092,474835083.22399,   0.00018,274835091.72581,   0.00016,  -0.00001,   0.00008,  -8.50183,   1.00000
531410414.74472,226466561.49710,63615261.34705,   0.00214,  -0.00002,   0.00091,474845393.18946,   0.00019,274845397.82240,   0.00017,  -0.00001,   0.00008,  -4.63293,   1.00000
531602045.36632,225583097.35312,63034232.62303,   0.00215,  -0.00002,   0.00091,474855742.24518,   0.00020,274855751.62865,   0.00018,  -0.00001,   0.00009,  -9.38347,   1.00000
531785769.82503,224701202.04066,62460672.00387,   0.00217,  -0.00003,   0.00090,474866128.63063,   0.00021,274866134.36766,   0.00018,  -0.00001,   0.00009,  -5.73704,   1.00000
531959303.28592,223820096.92062,61899884.89168,   0.00218,  -0.00003,   0.00090,474876552.97722,   0.00022,274876557.19017,   0.00019,  -0.00001,   0.00010,  -4.21296,   1.00000
532129028.53971,222943707.56509,61338824.43027,   0.00219,  -0.00004,   0.00090,474887076.45007,   0.00023,274887082.74632,   0.00020,  -0.00002,   0.00010,  -6.29625,   1.00000
532292260.90170,222067628.57078,60782305.93141,   0.00220,  -0.00004,   0.00089,474897534.98296,   0.00023,274897539.13346,   0.00021,  -0.00002,   0.00010,  -4.15050,   1.00000
532445730.22107,221192504.14106,60238578.30944,   0.00221,  -0.00005,   0.00089,474908026.97181,   0.00024,274908034.42840,   0.00022,  -0.00002,   0.00011,  -7.45659,   1.00000
532595619.43847,220339147.42962,59699171.35315,   0.00222,  -0.00005,   0.00089,474918669.04133,   0.00025,274918671.52825,   0.00023,  -0.00002,   0.00011,  -2.48692,   1.00000
532734810.59138,219467628.40719,59170333.33054,   0.00223,  -0.00006,   0.00088,474929213.59231,   0.00026,274929220.82100,   0.00024,  -0.00002,   0.00011,  -7.22869,   1.00000
532873024.02486,218618832.49075,58640519.03014,   0.00224,  -0.00006,   0.00088,474939897.97790,   0.00027,274939900.16940,   0.00025,  -0.00002,   0.00012,  -2.19150,   1.00000
533003088.32504,217769548.96735,58120458.54208,   0.00225,  -0.00007,   0.00088,474950512.77175,   0.00028,274950519.70272,   0.00025,  -0.00002,   0.00012,  -6.93097,   1.00000
533125521.47719,216923877.46671,57610935.19708,   0.00227,  -0.00007,   0.00087,474961255.82311,   0.00029,274961261.42576,   0.00026,  -0.00002,   0.00013,  -5.60265,   1.00000
533242379.62299,216078493.65570,57105729.05223,   0.00228,  -0.00008,   0.00087,474971929.25051,   0.00030,274971932.06881,   0.00027,  -0.00002,   0.00013,  -2.81830,   1.00000
533354081.82366,215237596.79202,56605720.91057,   0.00229,  -0.00009,   0.00087,474982706.82125,   0.00031,274982713.78137,   0.00028,  -0.00002,   0.00013,  -6.96012,   1.00000
533459469.05057,214398768.77511,56113145.82506,   0.00230,  -0.00009,   0.00087,474993514.92340,   0.00032,274993520.30026,   0.00029,  -0.00003,   0.00014,  -5.37686,   1.00000
533561186.31411,213579856.20509,55627289.46331,   0.00231,  -0.00010,   0.00086,475004377.94511,   0.00033,275004378.77977,   0.00030,  -0.00003,   0.00014,  -0.83466,   1.00000
533655611.73521,212760461.25210,55151012.40797,   0.00232,  -0.00010,   0.00086,475015172.61557,   0.00034,275015175.24219,   0.00031,  -0.00003,   0.00014,  -2.62662,   1.00000
533745389.91343,211945767.61738,54679969.45985,   0.00233,  -0.00011,   0.00086,475026073.46093,   0.00035,275026081.19925,   0.00032,  -0.00003,   0.00015,  -7.73833,   1.00000
533829386.75949,211133233.08788,54216316.59112,   0.00234,  -0.00011,   0.00086,475037007.91878,   0.00036,275037010.39572,   0.00033,  -0.00003,   0.00015,  -2.47694,   1.00000
533907698.32288,210322883.98091,53760035.00862,   0.00236,  -0.00012,   0.00085,475047958.69048,   0.00037,275047962.66150,   0.00034,  -0.00003,   0.00015,  -3.97103,   1.00000
533983120.66628,209532660.00856,53310455.36305,   0.00237,  -0.00012,   0.00085,475058963.75811,   0.00038,275058964.37895,   0.00035,  -0.00003,   0.00016,  -0.62084,   1.00000
534053125.70482,208744625.94202,52868226.34004,   0.00238,  -0.00013,   0.00085,475069982.26090,   0.00039,275069988.22231,   0.00036,  -0.00003,   0.00016,  -5.96142,   1.00000
534117839.45224,207958815.78071,52433331.24106,   0.00239,  -0.00013,   0.00085,475081029.69632,   0.00040,275081033.86957,   0.00036,  -0.00004,   0.00017,  -4.17326,   1.00000
534177358.76682,207175254.01418,52005749.77747,   0.00240,  -0.00014,   0.00084,475092096.89653,   0.00041,275092101.12933,   0.00037,  -0.00004,   0.00017,  -4.23280,   1.00000
534234573.66916,206411943.24002,51584843.05281,   0.00241,  -0.00014,   0.00084,475103211.54133,   0.00042,275103215.90187,   0.00038,  -0.00004,   0.00017,  -4.36054,   1.00000
534284039.47464,205632883.12264,51171835.42817,   0.00242,  -0.00015,   0.00084,475114323.33529,   0.00043,275114325.35271,   0.00039,  -0.00004,   0.00018,  -2.01742,   1.00000
534331449.48192,204874155.22662,50765476.53451,   0.00243,  -0.00015,   0.00084,475125471.72823,   0.00044,275125481.64707,   0.00040,  -0.00004,   0.00018,  -9.91884,   1.00000
534374131.15749,204117721.01822,50366364.22681,   0.00245,  -0.00016,   0.00084,475136652.13001,   0.00045,275136658.13934,   0.00041,  -0.00004,   0.00018,  -6.00933,   1.00000
534415056.64779,203381640.14093,49973886.84353,   0.00246,  -0.00016,   0.00083,475147873.48781,   0.00046,275147880.31153,   0.00042,  -0.00004,   0.00019,  -6.82372,   1.00000
534451475.80008,202647832.21435,49588623.28589,   0.00247,  -0.00017,   0.00083,475159116.05438,   0.00047,275159121.87655,   0.00043,  -0.00005,   0.00019,  -5.82217,   1.00000
534483480.68950,201916317.28759,49210550.52783,   0.00248,  -0.00017,   0.00083,475170379.01665,   0.00048,275170382.63471,   0.00044,  -0.00005,   0.00019,  -3.61806,   1.00000
534511152.31774,201187111.80067,48839644.19592,   0.00249,  -0.00017,   0.00083,475181653.14144,   0.00049,275181662.43325,   0.00045,  -0.00005,   0.00020,  -9.29180,   1.00000
534534597.93607,200460239.61235,48475882.43795,   0.00250,  -0.00018,   0.00083,475192954.50077,   0.00051,275192960.99398,   0.00046,  -0.00005,   0.00020,  -6.49320,   1.00000
534555729.02496,199750796.34573,48120571.44865,   0.00251,  -0.00018,   0.00083,475204212.62851,   0.00052,275204217.26427,   0.00047,  -0.00005,   0.00020,  -4.63576,   1.00000
534574031.64922,199046708.67804,47770473.92595,   0.00252,  -0.00019,   0.00083,475215572.70576,   0.00053,275215577.50563,   0.00048,  -0.00005,   0.00020,  -4.79987,   1.00000
534589616.46519,198362552.31045,47432360.59446,   0.00254,  -0.00019,   0.00082,475226983.58312,   0.00054,275226989.00398,   0.00049,  -0.00005,   0.00021,  -5.42086,   1.00000
534600157.56958,197663041.26714,47096379.20978,   0.00255,  -0.00020,   0.00082,475238382.44960,   0.00055,275238384.41597,   0.00050,  -0.00006,   0.00021,  -1.96638,   1.00000
534611340.40078,197001710.78066,46771822.17294,   0.00256,  -0.00020,   0.00082,475249850.83855,   0.00056,275249854.91075,   0.00051,  -0.00006,   0.00021,  -4.07220,   1.00000
534617595.11230,196324945.50181,46449338.15533,   0.00257,  -0.00021,   0.00082,475261307.12527,   0.00057,275261308.92653,   0.00052,  -0.00006,   0.00022,  -1.80126,   1.00000
534621627.62422,195668181.01108,46138779.88925,   0.00258,  -0.00021,   0.00082,475272807.35000,   0.00058,275272812.43052,   0.00053,  -0.00006,   0.00022,  -5.08052,   1.00000
534622215.22336,195013680.35593,45835169.62959,   0.00259,  -0.00022,   0.00082,475284326.55671,   0.00059,275284332.05064,   0.00054,  -0.00006,   0.00022,  -5.49393,   1.00000
534618240.83236,194358215.60301,45540260.81832,   0.00260,  -0.00022,   0.00082,475295779.64913,   0.00060,275295781.73776,   0.00055,  -0.00006,   0.00023,  -2.08863,   1.00000
534615397.52930,193726535.55706,45249957.69087,   0.00261,  -0.00023,   0.00082,475307354.29679,   0.00061,275307357.19099,   0.00056,  -0.00007,   0.00023,  -2.89420,   1.00000
534609348.26060,193097080.38979,44966529.74727,   0.00263,  -0.00023,   0.00082,475318945.33778,   0.00062,275318947.93155,   0.00057,  -0.00007,   0.00023,  -2.59378,   1.00000
534598959.06666,192466547.71899,44691694.75922,   0.00264,  -0.00024,   0.00082,475330459.47178,   0.00063,275330467.96636,   0.00058,  -0.00007,   0.00024,  -8.49458,   1.00000
534588285.31516,191859390.53386,44426906.56393,   0.00265,  -0.00024,   0.00082,475342116.80182,   0.00064,275342120.69504,   0.00059,  -0.00007,   0.00024,  -3.89321,   1.00000
534575177.57298,191251539.85993,44165150.52012,   0.00266,  -0.00024,   0.00082,475353686.90654,   0.00065,275353693.96946,   0.00060,  -0.00007,   0.00024,  -7.06292,   1.00000
534558639.38360,190648777.00338,43913899.18214,   0.00267,  -0.00025,   0.00082,475365370.95332,   0.00066,275365375.59515,   0.00061,  -0.00007,   0.00025,  -4.64183,   1.00000
534541444.60668,190063136.52616,43670601.31649,   0.00268,  -0.00025,   0.00082,475377000.45460,   0.00067,275377008.92940,   0.00062,  -0.00008,   0.00025,  -8.47479,   1.00000
534526111.63847,189501378.72466,43431821.80610,   0.00269,  -0.00026,   0.00082,475388757.62712,   0.00069,275388765.17881,   0.00063,  -0.00008,   0.00025,  -7.55168,   1.00000
534503480.58709,188919903.40431,43201860.70859,   0.00270,  -0.00026,   0.00082,475400417.59161,   0.00070,275400425.67604,   0.00064,  -0.00008,   0.00025,  -8.08443,   1.00000
534481664.29889,188358925.15312,42978064.53854,   0.00272,  -0.00027,   0.00082,475412120.63808,   0.00071,275412122.78821,   0.00065,  -0.00008,   0.00026,  -2.15013,   1.00000
534460739.26096,187818379.87128,42760414.04672,   0.00273,  -0.00027,   0.00082,475423847.21886,   0.00072,275423856.04627,   0.00066,  -0.00008,   0.00026,  -8.82741,   1.00000
534436885.87069,187282895.72799,42553156.13735,   0.00274,  -0.00028,   0.00082,475435688.32542,   0.00073,275435695.60300,   0.00067,  -0.00009,   0.00026,  -7.27758,   1.00000
534411055.78774,186746345.32272,42348606.46919,   0.00275,  -0.00028,   0.00082,475447448.07474,   0.00074,275447454.03853,   0.00068,  -0.00009,   0.00027,  -5.96379,   1.00000
534384717.86772,186229762.64691,42155614.15136,   0.00276,  -0.00028,   0.00082,475459251.07088,   0.00075,275459255.35937,   0.00069,  -0.00009,   0.00027,  -4.28849,   1.00000
534356082.58086,185715122.60172,41969087.00331,   0.00277,  -0.00029,   0.00082,475471068.68487,   0.00076,275471068.72572,   0.00070,  -0.00009,   0.00027,  -0.04085,   1.00000
534327529.67497,185217262.02803,41790192.64571,   0.00278,  -0.00029,   0.00082,475482830.02987,   0.00077,275482830.73501,   0.00071,  -0.00009,   0.00028,  -0.70514,   1.00000
534296378.97049,184724438.74102,41621554.63074,   0.00279,  -0.00030,   0.00082,475494691.40267,   0.00078,275494697.89198,   0.00072,  -0.00009,   0.00028,  -6.48932,   1.00000
534268320.91212,184252351.45129,41453361.48703,   0.00280,  -0.00030,   0.00082,475506589.69915,   0.00079,275506591.26428,   0.00073,  -0.00010,   0.00028,  -1.56513,   1.00000
534235321.89284,183778003.45981,41298619.69501,   0.00282,  -0.00030,   0.00082,475518412.72929,   0.00080,275518417.45177,   0.00074,  -0.00010,   0.00028,  -4.72248,   1.00000
534201521.83890,183309106.81456,41148558.50327,   0.00283,  -0.00031,   0.00082,475530337.99073,   0.00082,275530340.60109,   0.00075,  -0.00010,   0.00029,  -2.61036,   1.00000
534168127.15391,182856801.16857,41005946.21719,   0.00284,  -0.00031,   0.00082,475542201.76410,   0.00083,275542211.04217,   0.00076,  -0.00010,   0.00029,  -9.27807,   1.00000
534137695.00554,182428371.01306,40867559.12604,   0.00285,  -0.00032,   0.00082,475554192.85981,   0.00084,275554200.02409,   0.00077,  -0.00010,   0.00029,  -7.16428,   1.00000
534102531.64478,181997473.98294,40742465.55900,   0.00286,  -0.00032,   0.00083,475566113.95028,   0.00085,275566120.84814,   0.00079,  -0.00011,   0.00030,  -6.89786,   1.00000
534065512.70207,181568223.53045,40623516.34746,   0.00287,  -0.00032,   0.00083,475578043.54788,   0.00086,275578051.98594,   0.00080,  -0.00011,   0.00030,  -8.43805,   1.00000
534030386.74816,181159111.59909,40510276.51962,   0.00288,  -0.00033,   0.00083,475590007.00880,   0.00087,275590015.21558,   0.00081,  -0.00011,   0.00030,  -8.20678,   1.00000
533997208.06408,180770062.98452,40402722.84165,   0.00289,  -0.00033,   0.00083,475602002.72435,   0.00088,275602010.12602,   0.00082,  -0.00011,   0.00030,  -7.40167,   1.00000
533958544.02842,180363990.60506,40301632.27432,   0.00290,  -0.00034,   0.00083,475613989.19840,   0.00089,275613992.90846,   0.00083,  -0.00011,   0.00031,  -3.71006,   1.00000
533922840.56125,179992333.90835,40212829.72475,   0.00292,  -0.00034,   0.00083,475625942.06224,   0.00090,275625950.39318,   0.00084,  -0.00012,   0.00031,  -8.33094,   1.00000
533888295.48052,179626265.53259,40122937.88899,   0.00293,  -0.00034,   0.00083,475637989.46897,   0.00091,275637995.69390,   0.00085,  -0.00012,   0.00031,  -6.22493,   1.00000
533853051.89522,179275922.40820,40045678.32241,   0.00294,  -0.00035,   0.00084,475649984.88501,   0.00093,275649993.25383,   0.00086,  -0.00012,   0.00032,  -8.36882,   1.00000
533817469.27168,178930713.51542,39972773.09029,   0.00295,  -0.00035,   0.00084,475662083.66925,   0.00094,275662085.62944,   0.00087,  -0.00012,   0.00032,  -1.96019,   1.00000
533781275.86405,178601135.83272,39912411.90665,   0.00296,  -0.00035,   0.00084,475674127.84473,   0.00095,275674129.87886,   0.00088,  -0.00013,   0.00032,  -2.03412,   1.00000
533745066.90193,178273176.75804,39852375.81065,   0.00297,  -0.00036,   0.00084,475686166.40730,   0.00096,275686175.67990,   0.00089,  -0.00013,   0.00032,  -9.27260,   1.00000
533709613.56803,177964613.13317,39803269.60517,   0.00298,  -0.00036,   0.00084,475698256.30569,   0.00097,275698258.73431,   0.00090,  -0.00013,   0.00033,  -2.42863,   1.00000
533672638.14039,177657191.29895,39759926.71170,   0.00299,  -0.00036,   0.00085,475710348.50127,   0.00098,275710350.35407,   0.00091,  -0.00013,   0.00033,  -1.85280,   1.00000
533635194.57533,177365214.27483,39728971.86197,   0.00300,  -0.00037,   0.00085,475722390.80097,   0.00099,275722393.19318,   0.00092,  -0.00013,   0.00033,  -2.39221,   1.00000
533602971.40874,177097130.42121,39696260.86899,   0.00302,  -0.00037,   0.00085,475734536.33290,   0.00100,275734544.16253,   0.00093,  -0.00014,   0.00034,  -7.82963,   1.00000
533566460.99415,176825737.20728,39676267.24875,   0.00303,  -0.00037,   0.00085,475746618.87473,   0.00102,275746624.60739,   0.00094,  -0.00014,   0.00034,  -5.73267,   1.00000
533529798.75369,176559218.67213,39660342.57092,   0.00304,  -0.00038,   0.00086,475758791.58303,   0.00103,275758799.05861,   0.00095,  -0.00014,   0.00034,  -7.47559,   1.00000
533498205.10734,176326905.73192,39650783.79332,   0.00305,  -0.00038,   0.00086,475770930.99927,   0.00104,275770937.93412,   0.00096,  -0.00014,   0.00034,  -6.93485,   1.00000
533463653.58064,176095006.19962,39652276.61893,   0.00306,  -0.00038,   0.00086,475783085.70050,   0.00105,275783091.80830,   0.00098,  -0.00014,   0.00035,  -6.10780,   1.00000
533429237.86040,175864275.73683,39653766.92494,   0.00307,  -0.00039,   0.00087,475795242.10064,   0.00106,275795246.30744,   0.00099,  -0.00015,   0.00035,  -4.20679,   1.00000
533398418.33613,175667197.32583,39667029.46357,   0.00308,  -0.00039,   0.00087,475807367.92536,   0.00107,275807371.97864,   0.00100,  -0.00015,   0.00035,  -4.05328,   1.00000
533367510.22989,175474681.94635,39684182.54376,   0.00309,  -0.00039,   0.00087,475819581.13070,   0.00108,275819590.96263,   0.00101,  -0.00015,   0.00036,  -9.83192,   1.00000
533332376.77385,175278445.47321,39713782.37887,   0.00310,  -0.00040,   0.00087,475831736.19863,   0.00109,275831738.93466,   0.00102,  -0.00015,   0.00036,  -2.73603,   1.00000
533299808.44128,175101423.58080,39748344.24189,   0.00311,  -0.00040,   0.00088,475843914.72416,   0.00111,275843915.49396,   0.00103,  -0.00016,   0.00036,  -0.76980,   1.00000
533271352.34619,174943902.73674,39782344.73559,   0.00312,  -0.00040,   0.00088,475856110.18326,   0.00112,275856113.16495,   0.00104,  -0.00016,   0.00036,  -2.98169,   1.00000
533242381.65412,174804663.82153,39832274.31833,   0.00314,  -0.00040,   0.00088,475868346.34969,   0.00113,275868353.46697,   0.00105,  -0.00016,   0.00037,  -7.11728,   1.00000
533213588.35313,174666140.69985,39881935.64967,   0.00315,  -0.00041,   0.00089,475880592.41635,   0.00114,275880593.76901,   0.00106,  -0.00016,   0.00037,  -1.35266,   1.00000
533184489.61643,174542199.79762,39943488.25190,   0.00316,  -0.00041,   0.00089,475892774.18689,   0.00115,275892783.78843,   0.00107,  -0.00016,   0.00037,  -9.60154,   1.00000
533155352.67286,174422502.86132,40008653.03842,   0.00317,  -0.00041,   0.00090,475905059.34993,   0.00116,275905066.78619,   0.00108,  -0.00017,   0.00038,  -7.43626,   1.00000
533127468.11074,174317665.56322,40080130.79055,   0.00318,  -0.00042,   0.00090,475917283.51200,   0.00117,275917292.16787,   0.00109,  -0.00017,   0.00038,  -8.65587,   1.00000
533102178.88658,174231604.09861,40156334.85048,   0.00319,  -0.00042,   0.00090,475929544.06129,   0.00118,275929545.47812,   0.00110,  -0.00017,   0.00038,  -1.41683,   1.00000
533077892.73109,174163840.82802,40242727.33467,   0.00320,  -0.00042,   0.00091,475941825.45983,   0.00120,275941834.04113,   0.00111,  -0.00017,   0.00038,  -8.58130,   1.00000
533050857.45213,174092048.32754,40335700.33894,   0.00321,  -0.00042,   0.00091,475954040.27095,   0.00121,275954044.08877,   0.00113,  -0.00018,   0.00039,  -3.81782,   1.00000
533027728.94555,174042857.32192,40431707.93303,   0.00322,  -0.00043,   0.00092,475966360.20971,   0.00122,275966367.80098,   0.00114,  -0.00018,   0.00039,  -7.59128,   1.00000
533005803.93406,174008151.45900,40533863.13906,   0.00323,  -0.00043,   0.00092,475978624.86147,   0.00123,275978633.68578,   0.00115,  -0.00018,   0.00039,  -8.82431,   1.00000
532980853.74257,173972855.78943,40646434.75333,   0.00324,  -0.00043,   0.00092,475990905.13945,   0.00124,275990914.16752,   0.00116,  -0.00018,   0.00040,  -9.02806,   1.00000
532962430.83852,173974589.91101,40763104.69818,   0.00325,  -0.00043,   0.00093,476003237.79446,   0.00125,276003243.24917,   0.00117,  -0.00018,   0.00040,  -5.45472,   1.00000
532941143.50369,173971912.32383,40886194.45041,   0.00326,  -0.00043,   0.00093,476015484.53297,   0.00126,276015493.93128,   0.00118,  -0.00019,   0.00040,  -9.39830,   1.00000
532919725.47316,173972858.05070,41012501.81496,   0.00328,  -0.00044,   0.00094,476027832.48454,   0.00128,276027837.50551,   0.00119,  -0.00019,   0.00040,  -5.02097,   1.00000
532901817.83670,174006242.21956,41149893.12117,   0.00329,  -0.00044,   0.00094,476040143.37338,   0.00129,276040151.66723,   0.00120,  -0.00019,   0.00041,  -8.29385,   1.00000
532882361.17664,174039046.29636,41292000.54307,   0.00330,  -0.00044,   0.00095,476052466.10867,   0.00130,276052473.17863,   0.00121,  -0.00019,   0.00041,  -7.06996,   1.00000
532865334.14736,174089886.28309,41438404.90751,   0.00331,  -0.00044,   0.00095,476064818.71690,   0.00131,276064822.80595,   0.00122,  -0.00020,   0.00041,  -4.08905,   1.00000
532849330.83493,174154660.24413,41590685.07141,   0.00332,  -0.00044,   0.00096,476077111.54522,   0.00132,276077115.01522,   0.00123,  -0.00020,   0.00042,  -3.47000,   1.00000
532831471.52664,174222285.34558,41751459.28132,   0.00333,  -0.00045,   0.00096,476089506.44099,   0.00133,276089507.88099,   0.00124,  -0.00020,   0.00042,  -1.44000,   1.00000
532820176.82974,174322750.75011,41912150.66982,   0.00334,  -0.00045,   0.00097,476101846.77981,   0.00134,276101856.66871,   0.00126,  -0.00020,   0.00042,  -9.88890,   1.00000
532805591.21034,174421870.83442,42082893.27030,   0.00335,  -0.00045,   0.00097,476114218.18554,   0.00136,276114220.55065,   0.00127,  -0.00020,   0.00043,  -2.36511,   1.00000
532790260.36516,174534254.57390,42264858.10792,   0.00336,  -0.00045,   0.00098,476126528.68247,   0.00137,276126535.18455,   0.00128,  -0.00021,   0.00043,  -6.50208,   1.00000
532780199.09598,174668599.37337,42443747.33205,   0.00337,  -0.00045,   0.00098,476138954.58007,   0.00138,276138956.22400,   0.00129,  -0.00021,   0.00043,  -1.64393,   1.00000
532765333.11484,174797404.53306,42634212.27662,   0.00338,  -0.00045,   0.00099,476151303.17593,   0.00139,276151307.41541,   0.00130,  -0.00021,   0.00044,  -4.23948,   1.00000
532756610.02182,174962282.05671,42828253.10556,   0.00339,  -0.00046,   0.00100,476163702.08830,   0.00140,276163708.28565,   0.00131,  -0.00021,   0.00044,  -6.19735,   1.00000
532744652.80468,175121856.86427,43028315.95634,   0.00340,  -0.00046,   0.00100,476176023.05452,   0.00141,276176031.80773,   0.00132,  -0.00022,   0.00044,  -8.75320,   1.00000
532734513.41725,175302275.95218,43236096.69752,   0.00341,  -0.00046,   0.00101,476188468.18515,   0.00143,276188477.74809,   0.00133,  -0.00022,   0.00044,  -9.56294,   1.00000
532725021.52812,175495895.16075,43449411.86300,   0.00342,  -0.00046,   0.00101,476200858.27991,   0.00144,276200867.53993,   0.00134,  -0.00022,   0.00045,  -9.26002,   1.00000
532717526.47004,175706594.47151,43666548.31715,   0.00343,  -0.00046,   0.00102,476213282.34689,   0.00145,276213286.74008,   0.00135,  -0.00022,   0.00045,  -4.39319,   1.00000
532708039.05272,175915680.74695,43887892.23618,   0.00344,  -0.00046,   0.00103,476225708.59786,   0.00146,276225714.59856,   0.00136,  -0.00022,   0.00045,  -6.00070,   1.00000
532702996.21605,176156385.46007,44114277.79701,   0.00345,  -0.00046,   0.00103,476238100.63392,   0.00147,276238107.75776,   0.00137,  -0.00023,   0.00046,  -7.12384,   1.00000
532694172.22990,176394881.48084,44350276.27041,   0.00347,  -0.00047,   0.00104,476250512.83971,   0.00148,276250517.82445,   0.00139,  -0.00023,   0.00046,  -4.98474,   1.00000
532687151.58464,176650159.84424,44589933.19581,   0.00348,  -0.00047,   0.00104,476262948.78898,   0.00149,276262958.12615,   0.00140,  -0.00023,   0.00046,  -9.33717,   1.00000
532685786.99297,176940685.72045,44832785.57324,   0.00349,  -0.00047,   0.00105,476275447.07893,   0.00151,276275449.74808,   0.00141,  -0.00023,   0.00047,  -2.66915,   1.00000
532680780.26065,177225215.79033,45081405.32077,   0.00350,  -0.00047,   0.00106,476287858.18983,   0.00152,276287865.38836,   0.00142,  -0.00024,   0.00047,  -7.19853,   1.00000
532674956.75415,177511570.13374,45332271.77655,   0.00351,  -0.00047,   0.00106,476300371.33441,   0.00153,276300375.82891,   0.00143,  -0.00024,   0.00047,  -4.49450,   1.00000
532670031.38337,177824742.70550,45595204.78917,   0.00352,  -0.00047,   0.00107,476312773.57831,   0.00154,276312776.05900,   0.00144,  -0.00024,   0.00048,  -2.48069,   1.00000
532668020.91972,178158080.49659,45859823.59044,   0.00353,  -0.00047,   0.00108,476325288.29260,   0.00155,276325292.83549,   0.00145,  -0.00024,   0.00048,  -4.54289,   1.00000
532666045.10594,178503729.06607,46129650.64660,   0.00354,  -0.00047,   0.00108,476337753.60278,   0.00156,276337755.69524,   0.00146,  -0.00024,   0.00048,  -2.09246,   1.00000
532661618.45161,178846926.60470,46403321.74198,   0.00355,  -0.00047,   0.00109,476350222.37126,   0.00158,276350228.85597,   0.00147,  -0.00025,   0.00049,  -6.48471,   1.00000
532660563.36108,179224275.34951,46685342.18991,   0.00356,  -0.00047,   0.00110,476362757.44984,   0.00159,276362763.77686,   0.00148,  -0.00025,   0.00049,  -6.32701,   1.00000
532655525.31109,179595147.98776,46972927.67596,   0.00357,  -0.00047,   0.00111,476375215.28076,   0.00160,276375224.23469,   0.00149,  -0.00025,   0.00049,  -8.95393,   1.00000
532654950.76523,179986171.86817,47256502.67653,   0.00358,  -0.00047,   0.00111,476387787.68904,   0.00161,276387793.79626,   0.00151,  -0.00025,   0.00050,  -6.10722,   1.00000
532654623.80426,180403407.12844,47551978.59950,   0.00359,  -0.00047,   0.00112,476400252.53224,   0.00162,276400255.76792,   0.00152,  -0.00026,   0.00050,  -3.23569,   1.00000
532651143.86954,180821029.93581,47854701.82462,   0.00360,  -0.00047,   0.00113,476412819.89654,   0.00163,276412822.95130,   0.00153,  -0.00026,   0.00051,  -3.05476,   1.00000
532649082.24636,181250916.72040,48156968.04492,   0.00361,  -0.00047,   0.00114,476425320.37695,   0.00165,276425329.68990,   0.00154,  -0.00026,   0.00051,  -9.31295,   1.00000
532646098.81346,181695795.41770,48467786.13986,   0.00362,  -0.00047,   0.00114,476437877.30776,   0.00166,276437878.70793,   0.00155,  -0.00026,   0.00051,  -1.40017,   1.00000
532647656.81239,182174492.60163,48781160.89789,   0.00363,  -0.00047,   0.00115,476450480.55678,   0.00167,276450483.63149,   0.00156,  -0.00026,   0.00052,  -3.07471,   1.00000
532644810.87550,182646145.62184,49099933.39446,   0.00364,  -0.00047,   0.00116,476463007.74483,   0.00168,276463015.74550,   0.00157,  -0.00027,   0.00052,  -8.00067,   1.00000
532642668.63950,183132956.27422,49421682.66171,   0.00365,  -0.00047,   0.00117,476475575.17122,   0.00169,276475582.42607,   0.00158,  -0.00027,   0.00052,  -7.25485,   1.00000
532641152.08321,183634808.64446,49746372.06381,   0.00366,  -0.00047,   0.00117,476488182.85451,   0.00171,276488183.94190,   0.00159,  -0.00027,   0.00053,  -1.08739,   1.00000
532638731.28583,184147928.85736,50075898.02293,   0.00367,  -0.00047,   0.00118,476500729.54944,   0.00172,276500735.64304,   0.00160,  -0.00027,   0.00053,  -6.09360,   1.00000
532634832.83277,184675380.21903,50413708.06779,   0.00368,  -0.00047,   0.00119,476513322.81267,   0.00173,276513332.01591,   0.00162,  -0.00027,   0.00053,  -9.20323,   1.00000
532631309.74704,185217551.98227,50754313.26462,   0.00369,  -0.00047,   0.00120,476525956.61683,   0.00174,276525964.38964,   0.00163,  -0.00028,   0.00054,  -7.77281,   1.00000
532626633.12739,185770728.31468,51099649.74542,   0.00370,  -0.00047,   0.00121,476538538.70556,   0.00175,276538548.15301,   0.00164,  -0.00028,   0.00054,  -9.44746,   1.00000
532622171.58311,186338425.63720,51447707.74310,   0.00371,  -0.00047,   0.00122,476551161.48704,   0.00176,276551168.63298,   0.00165,  -0.00028,   0.00055,  -7.14593,   1.00000
532617841.62249,186920524.25967,51798449.03906,   0.00372,  -0.00047,   0.00122,476563825.09223,   0.00178,276563826.14452,   0.00166,  -0.00028,   0.00055,  -1.05229,   1.00000
532615610.34579,187531733.94753,52153303.64464,   0.00373,  -0.00047,   0.00123,476576449.19663,   0.00179,276576458.94789,   0.00167,  -0.00028,   0.00055,  -9.75126,   1.00000
532607769.43910,188138124.07437,52516710.35756,   0.00374,  -0.00047,   0.00124,476589107.91976,   0.00180,276589116.21648,   0.00168,  -0.00029,   0.00056,  -8.29673,   1.00000
532601827.03298,188759137.03106,52877254.31996,   0.00375,  -0.00047,   0.00125,476601792.68748,   0.00181,276601802.26924,   0.00169,  -0.00029,   0.00056,  -9.58175,   1.00000
532592179.36556,189390079.30253,53247778.76239,   0.00376,  -0.00047,   0.00126,476614450.47649,   0.00182,276614451.60099,   0.00170,  -0.00029,   0.00057,  -1.12449,   1.00000
532585639.99778,190053201.57120,53620187.93585,   0.00377,  -0.00047,   0.00127,476627161.44772,   0.00184,276627163.28664,   0.00171,  -0.00029,   0.00057,  -1.83892,   1.00000
532573774.27255,190708219.09664,53997669.73989,   0.00378,  -0.00046,   0.00128,476639799.90853,   0.00185,276639806.52731,   0.00172,  -0.00029,   0.00057,  -6.61878,   1.00000
532566275.43648,191398584.04308,54374845.94335,   0.00379,  -0.00046,   0.00129,476652594.97084,   0.00186,276652597.83523,   0.00174,  -0.00030,   0.00058,  -2.86440,   1.00000
532553315.10414,192080669.59064,54757057.05307,   0.00380,  -0.00046,   0.00129,476665318.21837,   0.00187,276665321.26765,   0.00175,  -0.00030,   0.00058,  -3.04928,   1.00000
532541558.93961,192791078.22653,55143098.01291,   0.00381,  -0.00046,   0.00130,476678019.49383,   0.00188,276678024.33313,   0.00176,  -0.00030,   0.00059,  -4.83930,   1.00000
532523541.87166,193495836.84999,55537367.35762,   0.00381,  -0.00046,   0.00131,476690749.50966,   0.00189,276690755.06702,   0.00177,  -0.00030,   0.00059,  -5.55736,   1.00000
532510110.30262,194232626.43039,55927837.32365,   0.00382,  -0.00046,   0.00132,476703537.20404,   0.00191,276703541.33640,   0.00178,  -0.00030,   0.00060,  -4.13236,   1.00000
532492030.04400,194978473.49114,56328015.22758,   0.00383,  -0.00046,   0.00133,476716288.70804,   0.00192,276716295.29155,   0.00179,  -0.00030,   0.00060,  -6.58351,   1.00000
532475041.43852,195737798.21196,56724925.48480,   0.00384,  -0.00045,   0.00134,476729078.93644,   0.00193,276729081.78397,   0.00180,  -0.00031,   0.00060,  -2.84753,   1.00000
532454666.20623,196509217.93626,57129277.80756,   0.00385,  -0.00045,   0.00135,476741919.07619,   0.00194,276741921.66897,   0.00181,  -0.00031,   0.00061,  -2.59278,   1.00000
532431517.58945,197290039.72245,57537859.77717,   0.00386,  -0.00045,   0.00136,476754718.24073,   0.00195,276754720.68624,   0.00182,  -0.00031,   0.00061,  -2.44551,   1.00000
532409221.32043,198084011.62039,57943058.97806,   0.00387,  -0.00045,   0.00137,476767547.63198,   0.00197,276767553.45023,   0.00184,  -0.00031,   0.00062,  -5.81824,   1.00000
532384848.54620,198904713.70737,58357157.58391,   0.00388,  -0.00045,   0.00138,476780378.93580,   0.00198,276780381.21939,   0.00185,  -0.00031,   0.00062,  -2.28359,   1.00000
532355749.89765,199719451.96291,58773797.77664,   0.00389,  -0.00044,   0.00139,476793229.01847,   0.00199,276793229.60117,   0.00186,  -0.00032,   0.00063,  -0.58270,   1.00000
532328041.04669,200564436.24121,59191597.09336,   0.00390,  -0.00044,   0.00140,476806143.43864,   0.00200,276806148.49595,   0.00187,  -0.00032,   0.00063,  -5.05731,   1.00000
532297008.53518,201418267.87886,59613484.68965,   0.00391,  -0.00044,   0.00141,476819027.66679,   0.00202,276819029.12427,   0.00188,  -0.00032,   0.00064,  -1.45748,   1.00000
532264044.53925,202283892.02502,60037112.99338,   0.00392,  -0.00044,   0.00142,476831949.82870,   0.00203,276831956.56637,   0.00189,  -0.00032,   0.00064,  -6.73767,   1.00000
532227559.42691,203158197.81612,60464775.17973,   0.00393,  -0.00044,   0.00143,476844842.33845,   0.00204,276844846.84804,   0.00190,  -0.00032,   0.00064,  -4.50959,   1.00000
532188965.13808,204044071.07309,60894091.73008,   0.00394,  -0.00043,   0.00144,476857783.56945,   0.00205,276857784.95034,   0.00191,  -0.00032,   0.00065,  -1.38089,   1.00000
532148156.28400,204941370.12495,61325015.73394,   0.00395,  -0.00043,   0.00145,476870764.28645,   0.00206,276870771.39187,   0.00192,  -0.00032,   0.00065,  -7.10542,   1.00000
532106395.32579,205865061.56252,61759156.34968,   0.00395,  -0.00043,   0.00146,476883742.50572,   0.00208,276883747.98077,   0.00194,  -0.00033,   0.00066,  -5.47505,   1.00000
532057787.04433,206779002.07449,62197949.65416,   0.00396,  -0.00042,   0.00147,476896656.54729,   0.00209,276896664.02247,   0.00195,  -0.00033,   0.00066,  -7.47518,   1.00000
532011037.44644,207724808.43434,62635047.23992,   0.00397,  -0.00042,   0.00148,476909736.31668,   0.00210,276909740.20878,   0.00196,  -0.00033,   0.00067,  -3.89210,   1.00000
531962501.61298,208679367.93399,63070698.33392,   0.00398,  -0.00042,   0.00149,476922763.23057,   0.00211,276922771.32157,   0.00197,  -0.00033,   0.00067,  -8.09100,   1.00000
531907235.40045,209641108.96470,63515503.72328,   0.00399,  -0.00042,   0.00150,476935778.25874,   0.00212,276935780.57653,   0.00198,  -0.00033,   0.00068,  -2.31779,   1.00000
531851801.98131,210631312.94727,63960849.28491,   0.00400,  -0.00041,   0.00151,476948861.66517,   0.00214,276948868.06420,   0.00199,  -0.00033,   0.00068,  -6.39903,   1.00000
