# sigma_xx, sigma_yy, sigma_xy, epsilon_xx, epsilon_yy, epsilon_xy, vonMises, epsPlastic, hardening, epsilonP__xx, epsilonP__yy, epsilonP__xy, yieldValue, iteration
   0.00000,   0.00000,   0.00000,   0.00000,   0.00000,   0.00000,   0.00000,   0.00000,274640135.82653,   0.00000,   0.00000,   0.00000,-474640135.82653,   0.00000
   0.00000,   0.00000,   0.00000,   0.00000,   0.00000,   0.00000,   0.00000,   0.00000,274640135.82653,   0.00000,   0.00000,   0.00000,-474640135.82653,   0.00000
-3788611.21135,-3077212.59961,339155.15211,  -0.00001,  -0.00001,   0.00000,3536881.22376,   0.00000,274640135.82653,   0.00000,   0.00000,   0.00000,-471103254.60277,   0.00000
-7571018.36504,-6139949.06469,678310.30422,  -0.00002,  -0.00001,   0.00001,7064979.90641,   0.00000,274640135.82653,   0.00000,   0.00000,   0.00000,-467575155.92012,   0.00000
-11359629.57640,-9217161.66430,1017465.45632,  -0.00003,  -0.00002,   0.00001,10601859.21766,   0.00000,274640135.82653,   0.00000,   0.00000,   0.00000,-464038276.60887,   0.00000
-15148240.78775,-12294374.26391,1356620.60843,  -0.00004,  -0.00003,   0.00002,14138739.48575,   0.00000,274640135.82653,   0.00000,   0.00000,   0.00000,-460501396.34078,   0.00000
-18922375.86456,-15365382.80587,1691639.72210,  -0.00006,  -0.00003,   0.00002,17663144.77162,   0.00000,274640135.82653,   0.00000,   0.00000,   0.00000,-456976991.05491,   0.00000
-22696510.94137,-18436391.34782,2030794.87421,  -0.00007,  -0.00004,   0.00003,21188741.35856,   0.00000,274640135.82653,   0.00000,   0.00000,   0.00000,-453451394.46797,   0.00000
-26476850.07584,-21521876.02432,2365813.98788,  -0.00008,  -0.00005,   0.00003,24721943.29283,   0.00000,274640135.82653,   0.00000,   0.00000,   0.00000,-449918192.53370,   0.00000
-30250985.15266,-24592884.56627,2696697.06310,  -0.00009,  -0.00005,   0.00004,28245169.73345,   0.00000,274640135.82653,   0.00000,   0.00000,   0.00000,-446394966.09308,   0.00000
-34010644.09493,-27657689.05056,3031716.17677,  -0.00010,  -0.00006,   0.00004,31758302.30840,   0.00000,274640135.82653,   0.00000,   0.00000,   0.00000,-442881833.51813,   0.00000
-37770303.03720,-30722493.53485,3362599.25200,  -0.00011,  -0.00007,   0.00004,35270252.77539,   0.00000,274640135.82653,   0.00000,   0.00000,   0.00000,-439369883.05114,   0.00000
-41521689.90259,-33795570.09603,3693482.32722,  -0.00012,  -0.00007,   0.00005,38779731.09729,   0.00000,274640135.82653,   0.00000,   0.00000,   0.00000,-435860404.72924,   0.00000
-45281348.84486,-36860374.58032,4024365.40245,  -0.00013,  -0.00008,   0.00005,42291687.57764,   0.00000,274640135.82653,   0.00000,   0.00000,   0.00000,-432348448.24889,   0.00000
-49032735.71025,-39933451.14149,4351112.43924,  -0.00015,  -0.00009,   0.00006,45799998.62291,   0.00000,274640135.82653,   0.00000,   0.00000,   0.00000,-428840137.20362,   0.00000
-52777918.51797,-42992051.56813,4681995.51447,  -0.00016,  -0.00009,   0.00006,49300683.89521,   0.00000,274640135.82653,   0.00000,   0.00000,   0.00000,-425339451.93132,   0.00000
-56514829.24882,-46058924.07164,5008742.55125,  -0.00017,  -0.00010,   0.00007,52797733.74115,   0.00000,274640135.82653,   0.00000,   0.00000,   0.00000,-421842402.08538,   0.00000
-60260012.05655,-49117524.49827,5331353.54960,  -0.00018,  -0.00011,   0.00007,56296071.26126,   0.00000,274640135.82653,   0.00000,   0.00000,   0.00000,-418344064.56527,   0.00000
-63996922.78740,-52184397.00179,5658100.58639,  -0.00019,  -0.00011,   0.00007,59793134.20288,   0.00000,274640135.82653,   0.00000,   0.00000,   0.00000,-414847001.62365,   0.00000
-67727629.46059,-55236793.37076,5980711.58473,  -0.00020,  -0.00012,   0.00008,63280208.54428,   0.00000,274640135.82653,   0.00000,   0.00000,   0.00000,-411359927.28225,   0.00000
-71450064.05690,-58297461.81661,6303322.58308,  -0.00021,  -0.00013,   0.00008,66764840.69929,   0.00000,274640135.82653,   0.00000,   0.00000,   0.00000,-407875295.12724,   0.00000
-75166294.59554,-61343654.12792,6621797.54299,  -0.00022,  -0.00013,   0.00009,70239484.44674,   0.00000,274640135.82653,   0.00000,   0.00000,   0.00000,-404400651.37979,   0.00000
-78888729.19185,-64404322.57377,6944408.54133,  -0.00023,  -0.00014,   0.00009,73724131.91996,   0.00000,274640135.82653,   0.00000,   0.00000,   0.00000,-400916003.90657,   0.00000
-82611163.78816,-67464991.01963,7262883.50124,  -0.00024,  -0.00015,   0.00009,77207618.81369,   0.00000,274640135.82653,   0.00000,   0.00000,   0.00000,-397432517.01284,   0.00000
-86312918.19226,-70504979.27328,7577222.42271,  -0.00026,  -0.00015,   0.00010,80669847.77448,   0.00000,274640135.82653,   0.00000,   0.00000,   0.00000,-393970288.05205,   0.00000
-90020876.65403,-73559443.66147,7895697.38261,  -0.00027,  -0.00016,   0.00010,84142085.14311,   0.00000,274640135.82653,   0.00000,   0.00000,   0.00000,-390498050.68342,   0.00000
-93722631.05813,-76599431.91512,8210036.30408,  -0.00028,  -0.00017,   0.00011,87604328.28278,   0.00000,274640135.82653,   0.00000,   0.00000,   0.00000,-387035807.54375,   0.00000
-97416113.38536,-79647692.24565,8524375.22554,  -0.00029,  -0.00017,   0.00011,91064155.00865,   0.00000,274640135.82653,   0.00000,   0.00000,   0.00000,-383575980.81788,   0.00000
-101117867.78946,-82687680.49930,8834578.10857,  -0.00030,  -0.00018,   0.00011,94525250.90771,   0.00000,274640135.82653,   0.00000,   0.00000,   0.00000,-380114884.91882,   0.00000
-104811350.11669,-85735940.82983,9144780.99159,  -0.00031,  -0.00019,   0.00012,97983937.50770,   0.00000,274640135.82653,   0.00000,   0.00000,   0.00000,-376656198.31883,   0.00000
-108484152.25171,-88763520.96816,9454983.87462,  -0.00032,  -0.00019,   0.00012,101422526.00649,   0.00000,274640135.82653,   0.00000,   0.00000,   0.00000,-373217609.82004,   0.00000
-112171430.52128,-91797305.16415,9765186.75765,  -0.00033,  -0.00020,   0.00013,104872382.63511,   0.00000,274640135.82653,   0.00000,   0.00000,   0.00000,-369767753.19142,   0.00000
-115844232.65630,-94824885.30248,10071253.60223,  -0.00034,  -0.00021,   0.00013,108309830.97175,   0.00000,274640135.82653,   0.00000,   0.00000,   0.00000,-366330304.85478,   0.00000
-119508762.71444,-97860737.51769,10377320.44682,  -0.00035,  -0.00021,   0.00013,111744883.52023,   0.00000,274640135.82653,   0.00000,   0.00000,   0.00000,-362895252.30630,   0.00000
-123181564.84946,-100888317.65602,10679251.25296,  -0.00036,  -0.00022,   0.00014,115181200.44651,   0.00000,274640135.82653,   0.00000,   0.00000,   0.00000,-359458935.38002,   0.00000
-126839890.84995,-103909693.73669,10981182.05911,  -0.00037,  -0.00023,   0.00014,118606269.77404,   0.00000,274640135.82653,   0.00000,   0.00000,   0.00000,-356033866.05249,   0.00000
-130498216.85043,-106931069.81736,11283112.86525,  -0.00039,  -0.00023,   0.00015,122031349.51373,   0.00000,274640135.82653,   0.00000,   0.00000,   0.00000,-352608786.31280,   0.00000
-134142066.71637,-109946241.84037,11580907.63296,  -0.00040,  -0.00024,   0.00015,125444036.58367,   0.00000,274640135.82653,   0.00000,   0.00000,   0.00000,-349196099.24286,   0.00000
-137800392.71685,-112967617.92104,11878702.40066,  -0.00041,  -0.00025,   0.00015,128867992.65154,   0.00000,274640135.82653,   0.00000,   0.00000,   0.00000,-345772143.17499,   0.00000
-141438038.52513,-115968313.80951,12176497.16836,  -0.00042,  -0.00025,   0.00016,132271837.37760,   0.00000,274640135.82653,   0.00000,   0.00000,   0.00000,-342368298.44893,   0.00000
-145081888.39107,-118983485.83252,12474291.93607,  -0.00043,  -0.00026,   0.00016,135684558.09694,   0.00000,274640135.82653,   0.00000,   0.00000,   0.00000,-338955577.72959,   0.00000
-148711262.12247,-121992453.79787,12767950.66533,  -0.00044,  -0.00027,   0.00017,139084895.60179,   0.00000,274640135.82653,   0.00000,   0.00000,   0.00000,-335555240.22474,   0.00000
-152334431.79621,-124986945.62867,13057473.35616,  -0.00045,  -0.00027,   0.00017,142475237.06003,   0.00000,274640135.82653,   0.00000,   0.00000,   0.00000,-332164898.76650,   0.00000
-155957601.46995,-127981437.45948,13351132.08542,  -0.00046,  -0.00028,   0.00017,145866726.69079,   0.00000,274640135.82653,   0.00000,   0.00000,   0.00000,-328773409.13574,   0.00000
-159572499.06681,-130984201.36717,13640654.77625,  -0.00047,  -0.00028,   0.00018,149254713.50670,   0.00000,274640135.82653,   0.00000,   0.00000,   0.00000,-325385422.31983,   0.00000
-163195668.74055,-133978693.19797,13926041.42863,  -0.00048,  -0.00029,   0.00018,152643958.22599,   0.00000,274640135.82653,   0.00000,   0.00000,   0.00000,-321996177.60054,   0.00000
-166804362.27974,-136966980.97112,14211428.08101,  -0.00049,  -0.00030,   0.00018,156021964.16508,   0.00000,274640135.82653,   0.00000,   0.00000,   0.00000,-318618171.66144,   0.00000
-170398579.68440,-139949064.68661,14496814.73340,  -0.00050,  -0.00030,   0.00019,159388731.49192,   0.00000,274640135.82653,   0.00000,   0.00000,   0.00000,-315251404.33461,   0.00000
-173986593.03140,-142916672.26755,14778065.34734,  -0.00051,  -0.00031,   0.00019,162745502.29643,   0.00000,274640135.82653,   0.00000,   0.00000,   0.00000,-311894633.53010,   0.00000
-177580810.43605,-145898755.98304,15059315.96128,  -0.00052,  -0.00032,   0.00020,166111170.28999,   0.00000,274640135.82653,   0.00000,   0.00000,   0.00000,-308528965.53654,   0.00000
-181168823.78305,-148866363.56398,15340566.57523,  -0.00053,  -0.00032,   0.00020,169467967.09850,   0.00000,274640135.82653,   0.00000,   0.00000,   0.00000,-305172168.72803,   0.00000
-184763041.18770,-151848447.27947,15617681.15073,  -0.00054,  -0.00033,   0.00020,172832541.22042,   0.00000,274640135.82653,   0.00000,   0.00000,   0.00000,-301807594.60611,   0.00000
-188336578.40016,-154809850.80275,15894795.72623,  -0.00056,  -0.00034,   0.00021,176176992.42454,   0.00000,274640135.82653,   0.00000,   0.00000,   0.00000,-298463143.40199,   0.00000
-191895639.47807,-157765050.26838,16171910.30173,  -0.00057,  -0.00034,   0.00021,179510206.88742,   0.00000,274640135.82653,   0.00000,   0.00000,   0.00000,-295129928.93911,   0.00000
-195469176.69053,-160726453.79166,16444888.83880,  -0.00058,  -0.00035,   0.00021,182853568.45365,   0.00000,274640135.82653,   0.00000,   0.00000,   0.00000,-291786567.37288,   0.00000
-199022033.71078,-163667177.12274,16713731.33742,  -0.00059,  -0.00036,   0.00022,186175687.92055,   0.00000,274640135.82653,   0.00000,   0.00000,   0.00000,-288464447.90598,   0.00000
-202581094.78869,-166622376.58837,16982573.83604,  -0.00060,  -0.00036,   0.00022,189506718.40984,   0.00000,274640135.82653,   0.00000,   0.00000,   0.00000,-285133417.41669,   0.00000
-206119475.67441,-169556895.86179,17251416.33466,  -0.00061,  -0.00037,   0.00022,192817620.59320,   0.00000,274640135.82653,   0.00000,   0.00000,   0.00000,-281822515.23333,   0.00000
-209672332.69466,-172497619.19287,17520258.83329,  -0.00062,  -0.00038,   0.00023,196139786.71636,   0.00000,274640135.82653,   0.00000,   0.00000,   0.00000,-278500349.11017,   0.00000
-213210713.58037,-175432138.46629,17784965.29347,  -0.00063,  -0.00038,   0.00023,199449610.51967,   0.00000,274640135.82653,   0.00000,   0.00000,   0.00000,-275190525.30686,   0.00000
-216734618.33154,-178360453.68206,18045535.71521,  -0.00064,  -0.00039,   0.00023,202747097.25299,   0.00000,274640135.82653,   0.00000,   0.00000,   0.00000,-271893038.57354,   0.00000
-220272999.21725,-181294972.95548,18306106.13695,  -0.00065,  -0.00040,   0.00024,206055852.94495,   0.00000,274640135.82653,   0.00000,   0.00000,   0.00000,-268584282.88158,   0.00000
-223790699.91076,-184208812.03670,18566676.55869,  -0.00066,  -0.00040,   0.00024,209344475.10838,   0.00000,274640135.82653,   0.00000,   0.00000,   0.00000,-265295660.71815,   0.00000
-227293924.46973,-187116447.06026,18827246.98043,  -0.00067,  -0.00041,   0.00024,212621863.79283,   0.00000,274640135.82653,   0.00000,   0.00000,   0.00000,-262018272.03370,   0.00000
-230811625.16324,-190030286.14148,19079545.32529,  -0.00068,  -0.00041,   0.00025,215908322.99015,   0.00000,274640135.82653,   0.00000,   0.00000,   0.00000,-258731812.83638,   0.00000
-234314849.72221,-192937921.16504,19335979.70860,  -0.00069,  -0.00042,   0.00025,219184649.44927,   0.00000,274640135.82653,   0.00000,   0.00000,   0.00000,-255455486.37725,   0.00000
-237797394.08898,-195824875.99640,19588278.05346,  -0.00070,  -0.00043,   0.00025,222439743.29259,   0.00000,274640135.82653,   0.00000,   0.00000,   0.00000,-252200392.53394,   0.00000
-241294414.59029,-198718034.88542,19840576.39832,  -0.00071,  -0.00043,   0.00026,225706104.08324,   0.00000,274640135.82653,   0.00000,   0.00000,   0.00000,-248934031.74329,   0.00000
-244776958.95706,-201604989.71677,20088738.70474,  -0.00072,  -0.00044,   0.00026,228960143.88921,   0.00000,274640135.82653,   0.00000,   0.00000,   0.00000,-245679991.93732,   0.00000
-248259503.32382,-204491944.54813,20332764.97272,  -0.00073,  -0.00045,   0.00026,232213117.16338,   0.00000,274640135.82653,   0.00000,   0.00000,   0.00000,-242427018.66315,   0.00000
-251727571.55605,-207372695.32183,20580927.27914,  -0.00074,  -0.00045,   0.00027,235455948.63829,   0.00000,274640135.82653,   0.00000,   0.00000,   0.00000,-239184187.18824,   0.00000
-255189435.73062,-210238969.96099,20824953.54712,  -0.00075,  -0.00046,   0.00027,238688802.74650,   0.00000,274640135.82653,   0.00000,   0.00000,   0.00000,-235951333.08003,   0.00000
-258651299.90518,-213105244.60014,21064843.77666,  -0.00076,  -0.00047,   0.00027,241920595.68440,   0.00000,274640135.82653,   0.00000,   0.00000,   0.00000,-232719540.14213,   0.00000
-262098687.94521,-215965315.18164,21304734.00620,  -0.00077,  -0.00047,   0.00028,245141161.18381,   0.00000,274640135.82653,   0.00000,   0.00000,   0.00000,-229498974.64272,   0.00000
-265539871.92757,-218810909.62859,21544624.23574,  -0.00078,  -0.00048,   0.00028,248352832.35157,   0.00000,274640135.82653,   0.00000,   0.00000,   0.00000,-226287303.47496,   0.00000
-268987259.96759,-221670980.21009,21780378.42684,  -0.00079,  -0.00048,   0.00028,251572364.46872,   0.00000,274640135.82653,   0.00000,   0.00000,   0.00000,-223067771.35781,   0.00000
-272428443.94996,-224516574.65704,22011996.57950,  -0.00080,  -0.00049,   0.00029,254781930.82356,   0.00000,274640135.82653,   0.00000,   0.00000,   0.00000,-219858205.00297,   0.00000
-275848947.74012,-227341488.91180,22243614.73216,  -0.00081,  -0.00050,   0.00029,257971353.53568,   0.00000,274640135.82653,   0.00000,   0.00000,   0.00000,-216668782.29085,   0.00000
-279275655.58794,-230180879.30109,22475232.88481,  -0.00082,  -0.00050,   0.00029,261169717.44243,   0.00000,274640135.82653,   0.00000,   0.00000,   0.00000,-213470418.38410,   0.00000
-282681683.24356,-232999589.49818,22702714.99903,  -0.00083,  -0.00051,   0.00030,264346867.57802,   0.00000,274640135.82653,   0.00000,   0.00000,   0.00000,-210293268.24851,   0.00000
-286087710.89919,-235818299.69528,22930197.11325,  -0.00084,  -0.00052,   0.00030,267524042.04053,   0.00000,274640135.82653,   0.00000,   0.00000,   0.00000,-207116093.78600,   0.00000
-289493738.55481,-238637009.89237,23157679.22747,  -0.00085,  -0.00052,   0.00030,270701239.97340,   0.00000,274640135.82653,   0.00000,   0.00000,   0.00000,-203938895.85313,   0.00000
-292893562.15277,-241441243.95492,23376889.26481,  -0.00086,  -0.00053,   0.00030,273867420.28869,   0.00000,274640135.82653,   0.00000,   0.00000,   0.00000,-200772715.53784,   0.00000
-296278909.61619,-244239273.95981,23600235.34059,  -0.00087,  -0.00053,   0.00031,277023433.62594,   0.00000,274640135.82653,   0.00000,   0.00000,   0.00000,-197616702.20059,   0.00000
-299658053.02194,-247022827.83016,23819445.37793,  -0.00088,  -0.00054,   0.00031,280169492.45927,   0.00000,274640135.82653,   0.00000,   0.00000,   0.00000,-194470643.36726,   0.00000
-303028924.35082,-249814653.77739,24034519.37682,  -0.00089,  -0.00055,   0.00031,283312193.13493,   0.00000,274640135.82653,   0.00000,   0.00000,   0.00000,-191327942.69160,   0.00000
-306393591.62204,-252592003.59008,24249593.37572,  -0.00090,  -0.00055,   0.00032,286445999.11047,   0.00000,274640135.82653,   0.00000,   0.00000,   0.00000,-188194136.71606,   0.00000
-309752054.83560,-255354877.26823,24464667.37462,  -0.00091,  -0.00056,   0.00032,289570907.93565,   0.00000,274640135.82653,   0.00000,   0.00000,   0.00000,-185069227.89088,   0.00000
-313116722.10682,-258132227.08092,24675605.33508,  -0.00092,  -0.00056,   0.00032,292703720.51431,   0.00000,274640135.82653,   0.00000,   0.00000,   0.00000,-181936415.31222,   0.00000
-316460709.18583,-260888896.70141,24886543.29553,  -0.00093,  -0.00057,   0.00032,295816381.76957,   0.00000,274640135.82653,   0.00000,   0.00000,   0.00000,-178823754.05696,   0.00000
-319804696.26485,-263645566.32189,25093345.21755,  -0.00094,  -0.00058,   0.00033,298928028.22371,   0.00000,274640135.82653,   0.00000,   0.00000,   0.00000,-175712107.60281,   0.00000
-323128003.15166,-266381555.75018,25300147.13957,  -0.00095,  -0.00058,   0.00033,302019522.24075,   0.00000,274640135.82653,   0.00000,   0.00000,   0.00000,-172620613.58578,   0.00000
-326451310.03848,-269117545.17847,25502813.02314,  -0.00096,  -0.00059,   0.00033,305110006.69783,   0.00000,274640135.82653,   0.00000,   0.00000,   0.00000,-169530129.12870,   0.00000
-329774616.92529,-271853534.60675,25705478.90672,  -0.00097,  -0.00059,   0.00033,308200522.30512,   0.00000,274640135.82653,   0.00000,   0.00000,   0.00000,-166439613.52141,   0.00000
-333077243.61990,-274568843.84283,25904008.75186,  -0.00098,  -0.00060,   0.00034,311269850.03980,   0.00000,274640135.82653,   0.00000,   0.00000,   0.00000,-163370285.78673,   0.00000
-336379870.31451,-277284153.07892,26102538.59699,  -0.00099,  -0.00061,   0.00034,314339209.79122,   0.00000,274640135.82653,   0.00000,   0.00000,   0.00000,-160300926.03531,   0.00000
-339682497.00913,-279999462.31500,26296932.40369,  -0.00100,  -0.00061,   0.00034,317407572.55019,   0.00000,274640135.82653,   0.00000,   0.00000,   0.00000,-157232563.27634,   0.00000
-342978919.64608,-282700295.41655,26491326.21039,  -0.00101,  -0.00062,   0.00034,320467042.82618,   0.00000,274640135.82653,   0.00000,   0.00000,   0.00000,-154173093.00035,   0.00000
-346260866.14849,-285394924.46043,26681583.97864,  -0.00102,  -0.00062,   0.00035,323514261.45760,   0.00000,274640135.82653,   0.00000,   0.00000,   0.00000,-151125874.36893,   0.00000
-349522132.45870,-288068873.31211,26871841.74690,  -0.00103,  -0.00063,   0.00035,326541326.00847,   0.00000,274640135.82653,   0.00000,   0.00000,   0.00000,-148098809.81806,   0.00000
-352797874.90345,-290749026.22145,27057963.47671,  -0.00104,  -0.00063,   0.00035,329578667.94812,   0.00000,274640135.82653,   0.00000,   0.00000,   0.00000,-145061467.87841,   0.00000
-356044665.07912,-293416771.01547,27244085.20653,  -0.00105,  -0.00064,   0.00035,332593520.10505,   0.00000,274640135.82653,   0.00000,   0.00000,   0.00000,-142046615.72148,   0.00000
-359299727.33167,-296076243.73261,27430206.93634,  -0.00106,  -0.00065,   0.00036,335610743.68772,   0.00000,274640135.82653,   0.00000,   0.00000,   0.00000,-139029392.13881,   0.00000
-362540313.44967,-298729512.39209,27612192.62772,  -0.00107,  -0.00065,   0.00036,338615724.58472,   0.00000,274640135.82653,   0.00000,   0.00000,   0.00000,-136024411.24181,   0.00000
-365780899.56768,-301382781.05157,27790042.28065,  -0.00108,  -0.00066,   0.00036,341619732.72273,   0.00000,274640135.82653,   0.00000,   0.00000,   0.00000,-133020403.10380,   0.00000
-369015281.62803,-304021573.57650,27967891.93359,  -0.00109,  -0.00066,   0.00036,344614854.03018,   0.00000,274640135.82653,   0.00000,   0.00000,   0.00000,-130025281.79635,   0.00000
-372228983.49617,-306639685.90924,28145741.58652,  -0.00110,  -0.00067,   0.00037,347589819.83351,   0.00000,274640135.82653,   0.00000,   0.00000,   0.00000,-127050315.99301,   0.00000
-375448889.42198,-309272274.37652,28319455.20102,  -0.00111,  -0.00068,   0.00037,350572747.01721,   0.00000,274640135.82653,   0.00000,   0.00000,   0.00000,-124067388.80932,   0.00000
-378648115.15558,-311884182.65159,28489032.77707,  -0.00111,  -0.00068,   0.00037,353534518.19728,   0.00000,274640135.82653,   0.00000,   0.00000,   0.00000,-121105617.62925,   0.00000
-381841136.83153,-314481614.79213,28662746.39157,  -0.00112,  -0.00069,   0.00037,356488403.18633,   0.00000,274640135.82653,   0.00000,   0.00000,   0.00000,-118151732.64020,   0.00000
-385034158.50747,-317079046.93266,28828187.92918,  -0.00113,  -0.00069,   0.00037,359440335.05306,   0.00000,274640135.82653,   0.00000,   0.00000,   0.00000,-115199800.77347,   0.00000
-388227180.18341,-319676479.07320,28993629.46679,  -0.00114,  -0.00070,   0.00038,362392312.71265,   0.00000,274640135.82653,   0.00000,   0.00000,   0.00000,-112247823.11388,   0.00000
-391399521.66715,-322253231.02153,29159071.00441,  -0.00115,  -0.00070,   0.00038,365324135.87538,   0.00000,274640135.82653,   0.00000,   0.00000,   0.00000,-109315999.95115,   0.00000
-394557387.01635,-324823778.91220,29320376.50358,  -0.00116,  -0.00071,   0.00038,368243738.55170,   0.00000,274640135.82653,   0.00000,   0.00000,   0.00000,-106396397.27483,   0.00000
-397723524.44244,-327386054.72599,29481682.00275,  -0.00117,  -0.00071,   0.00038,371165736.43882,   0.00000,274640135.82653,   0.00000,   0.00000,   0.00000,-103474399.38771,   0.00000
-400860709.59944,-329935922.42446,29638851.46349,  -0.00118,  -0.00072,   0.00039,374064243.10465,   0.00000,274640135.82653,   0.00000,   0.00000,   0.00000,-100575892.72188,   0.00000
-404006166.83331,-332477518.04605,29796020.92422,  -0.00119,  -0.00072,   0.00039,376965149.33097,   0.00000,274640135.82653,   0.00000,   0.00000,   0.00000,-97674986.49556,   0.00000
-407137147.93265,-335012909.60998,29949054.34651,  -0.00120,  -0.00073,   0.00039,379853845.39531,   0.00000,274640135.82653,   0.00000,   0.00000,   0.00000,-94786290.43122,   0.00000
-410268129.03199,-337548301.17391,30097951.73036,  -0.00121,  -0.00074,   0.00039,382741614.45987,   0.00000,274640135.82653,   0.00000,   0.00000,   0.00000,-91898521.36666,   0.00000
-413378429.93913,-340063012.54564,30250985.15266,  -0.00122,  -0.00074,   0.00039,385610205.96217,   0.00000,274640135.82653,   0.00000,   0.00000,   0.00000,-89029929.86436,   0.00000
-416497002.92315,-342569451.84049,30395746.49807,  -0.00123,  -0.00075,   0.00040,388479262.00660,   0.00000,274640135.82653,   0.00000,   0.00000,   0.00000,-86160873.81993,   0.00000
-419586623.63808,-345063483.02001,30544643.88192,  -0.00124,  -0.00075,   0.00040,391326776.59261,   0.00000,274640135.82653,   0.00000,   0.00000,   0.00000,-83313359.23392,   0.00000
-422690720.48756,-347563718.25720,30689405.22733,  -0.00125,  -0.00076,   0.00040,394184656.89219,   0.00000,274640135.82653,   0.00000,   0.00000,   0.00000,-80455478.93434,   0.00000
-425774137.14483,-350043273.30218,30830030.53430,  -0.00125,  -0.00076,   0.00040,397021421.00922,   0.00000,274640135.82653,   0.00000,   0.00000,   0.00000,-77618714.81731,   0.00000
-428836873.60990,-352502148.15496,30970655.84128,  -0.00126,  -0.00077,   0.00040,399838034.75351,   0.00000,274640135.82653,   0.00000,   0.00000,   0.00000,-74802101.07302,   0.00000
-431905814.13264,-354975499.14229,31107145.10981,  -0.00127,  -0.00077,   0.00040,402662661.23065,   0.00000,274640135.82653,   0.00000,   0.00000,   0.00000,-71977474.59588,   0.00000
-434962346.54005,-357419897.86053,31243634.37834,  -0.00128,  -0.00078,   0.00041,405469509.19673,   0.00000,274640135.82653,   0.00000,   0.00000,   0.00000,-69170626.62980,   0.00000
-438004402.81292,-359858092.52111,31375987.60843,  -0.00129,  -0.00078,   0.00041,408264170.01684,   0.00000,274640135.82653,   0.00000,   0.00000,   0.00000,-66375965.80969,   0.00000
-441046459.08579,-362296287.18169,31508340.83852,  -0.00130,  -0.00079,   0.00041,411058889.70259,   0.00000,274640135.82653,   0.00000,   0.00000,   0.00000,-63581246.12394,   0.00000
-444082311.30100,-364720005.70773,31640694.06861,  -0.00131,  -0.00079,   0.00041,413844752.56419,   0.00000,274640135.82653,   0.00000,   0.00000,   0.00000,-60795383.26234,   0.00000
-447103687.38167,-367137520.17611,31764775.22182,  -0.00132,  -0.00080,   0.00041,416617486.16582,   0.00000,274640135.82653,   0.00000,   0.00000,   0.00000,-58022649.66071,   0.00000
-450118859.40468,-369540558.50995,31892992.41347,  -0.00133,  -0.00080,   0.00041,419382315.04274,   0.00000,274640135.82653,   0.00000,   0.00000,   0.00000,-55257820.78379,   0.00000
-453127827.37003,-371929120.70925,32017073.56668,  -0.00134,  -0.00081,   0.00042,422137351.30326,   0.00000,274640135.82653,   0.00000,   0.00000,   0.00000,-52502784.52327,   0.00000
-456122319.20083,-374311478.85088,32137018.68145,  -0.00135,  -0.00081,   0.00042,424880215.29005,   0.00000,274640135.82653,   0.00000,   0.00000,   0.00000,-49759920.53648,   0.00000
-459116811.03164,-376693836.99252,32256963.79622,  -0.00135,  -0.00082,   0.00042,427623145.96474,   0.00000,274640135.82653,   0.00000,   0.00000,   0.00000,-47016989.86178,   0.00000
-462090622.67025,-379055514.94196,32376908.91099,  -0.00136,  -0.00082,   0.00042,430345931.47079,   0.00000,274640135.82653,   0.00000,   0.00000,   0.00000,-44294204.35574,   0.00000
-465064434.30885,-381417192.89139,32492717.98732,  -0.00137,  -0.00083,   0.00042,433067849.43132,   0.00000,274640135.82653,   0.00000,   0.00000,   0.00000,-41572286.39521,   0.00000
-468011361.69760,-383743714.51408,32608527.06365,  -0.00138,  -0.00083,   0.00042,435760717.41984,   0.00000,274640135.82653,   0.00000,   0.00000,   0.00000,-38879418.40669,   0.00000
-470964493.14400,-386084712.27132,32720200.10154,  -0.00139,  -0.00084,   0.00043,438461631.74280,   0.00000,274640135.82653,   0.00000,   0.00000,   0.00000,-36178504.08373,   0.00000
-473911420.53274,-388411233.89401,32827737.10099,  -0.00140,  -0.00084,   0.00043,441152788.14755,   0.00000,274640135.82653,   0.00000,   0.00000,   0.00000,-33487347.67898,   0.00000
-476852143.86383,-390723279.38216,32939410.13888,  -0.00141,  -0.00085,   0.00043,443836038.36178,   0.00000,274640135.82653,   0.00000,   0.00000,   0.00000,-30804097.46475,   0.00000
-479778391.06037,-393029120.81265,33042811.09989,  -0.00142,  -0.00085,   0.00043,446506211.83587,   0.00000,274640135.82653,   0.00000,   0.00000,   0.00000,-28133923.99065,   0.00000
-482683958.06471,-395314282.05094,33150348.09934,  -0.00143,  -0.00086,   0.00043,449157165.54891,   0.00000,274640135.82653,   0.00000,   0.00000,   0.00000,-25482970.27762,   0.00000
-485589525.06905,-397599443.28923,33249613.02190,  -0.00143,  -0.00086,   0.00043,451806362.97475,   0.00000,274640135.82653,   0.00000,   0.00000,   0.00000,-22833772.85178,   0.00000
-488488888.01573,-399870128.39297,33353013.98291,  -0.00144,  -0.00087,   0.00043,454447653.25799,   0.00000,274640135.82653,   0.00000,   0.00000,   0.00000,-20192482.56854,   0.00000
-491367570.77020,-402120133.30452,33452278.90548,  -0.00145,  -0.00087,   0.00043,457067897.63200,   0.00000,274640135.82653,   0.00000,   0.00000,   0.00000,-17572238.19453,   0.00000
-494246253.52468,-404370138.21606,33547407.78961,  -0.00146,  -0.00088,   0.00044,459687315.09769,   0.00000,274640135.82653,   0.00000,   0.00000,   0.00000,-14952820.72884,   0.00000
-497124936.27916,-406620143.12761,33642536.67374,  -0.00147,  -0.00088,   0.00044,462306814.94768,   0.00000,274640135.82653,   0.00000,   0.00000,   0.00000,-12333320.87885,   0.00000
-499976734.78377,-408834991.71241,33733529.51942,  -0.00148,  -0.00089,   0.00044,464896391.24575,   0.00000,274640135.82653,   0.00000,   0.00000,   0.00000,-9743744.58078,   0.00000
-502834737.34605,-411064316.43176,33824522.36511,  -0.00149,  -0.00089,   0.00044,467494944.01519,   0.00000,274640135.82653,   0.00000,   0.00000,   0.00000,-7145191.81134,   0.00000
-505665855.65846,-413258484.82436,33915515.21080,  -0.00149,  -0.00089,   0.00044,470064478.59559,   0.00000,274640135.82653,   0.00000,   0.00000,   0.00000,-4575657.23094,   0.00000
-508496973.97088,-415452653.21696,34002372.01805,  -0.00150,  -0.00090,   0.00044,472633205.05664,   0.00000,274640135.82653,   0.00000,   0.00000,   0.00000,-2006930.76989,   0.00000
-510708091.37391,-417170246.61814,34067309.38671,  -0.00151,  -0.00090,   0.00044,474640172.69552,   0.00000,274640135.82653,   0.00000,   0.00000,   0.00000,  -2.14193,   0.00000
-510719181.50116,-417174512.88346,34038396.94801,  -0.00151,  -0.00090,   0.00044,474642463.53456,   0.00000,274642470.85138,  -0.00000,  -0.00000,   0.00000,  -7.31682,   1.00000
-510772965.32054,-417187106.83326,33909389.30944,  -0.00152,  -0.00091,   0.00044,474653293.05667,   0.00001,274653295.27311,  -0.00001,  -0.00001,   0.00000,  -2.21644,   1.00000
-510831635.68450,-417194170.37859,33773864.45772,  -0.00153,  -0.00091,   0.00045,474664067.65488,   0.00002,274664070.73997,  -0.00002,  -0.00001,   0.00001,  -3.08509,   1.00000
-510890115.91585,-417196887.69940,33644912.51801,  -0.00154,  -0.00092,   0.00045,474674759.96216,   0.00003,274674760.60376,  -0.00003,  -0.00001,   0.00001,  -0.64160,   1.00000
-510950056.36698,-417201025.64029,33508685.19689,  -0.00155,  -0.00092,   0.00045,474685437.19007,   0.00004,274685439.39664,  -0.00003,  -0.00002,   0.00001,  -2.20656,   1.00000
-511006416.96301,-417207737.12859,33378278.81683,  -0.00155,  -0.00092,   0.00045,474696062.45294,   0.00005,274696070.33240,  -0.00004,  -0.00002,   0.00001,  -7.87946,   1.00000
-511066701.19087,-417208203.98984,33245372.86550,  -0.00156,  -0.00093,   0.00045,474706648.85863,   0.00006,274706656.38910,  -0.00005,  -0.00003,   0.00002,  -7.53047,   1.00000
-511130876.31983,-417202455.57705,33109975.61853,  -0.00157,  -0.00093,   0.00045,474717196.23529,   0.00007,274717197.66137,  -0.00006,  -0.00003,   0.00002,  -1.42608,   1.00000
-511195779.54991,-417193167.65920,32977062.97142,  -0.00158,  -0.00094,   0.00045,474727645.76479,   0.00008,274727649.98995,  -0.00007,  -0.00004,   0.00002,  -4.22516,   1.00000
-511258037.21437,-417187279.53151,32845882.85626,  -0.00159,  -0.00094,   0.00045,474738046.92371,   0.00009,274738051.00727,  -0.00008,  -0.00004,   0.00003,  -4.08357,   1.00000
-511322950.25698,-417178714.38001,32710532.23024,  -0.00160,  -0.00095,   0.00045,474748485.96538,   0.00010,274748493.12117,  -0.00008,  -0.00004,   0.00003,  -7.15579,   1.00000
-511392923.40477,-417160444.60500,32574317.09167,  -0.00160,  -0.00095,   0.00045,474758799.55836,   0.00011,274758805.22596,  -0.00009,  -0.00005,   0.00003,  -5.66760,   1.00000
-511455912.74435,-417151813.28059,32443159.34328,  -0.00161,  -0.00095,   0.00045,474769102.14817,   0.00012,274769107.37659,  -0.00010,  -0.00005,   0.00003,  -5.22842,   1.00000
-511527063.17911,-417130790.34911,32306126.77066,  -0.00162,  -0.00096,   0.00046,474779319.21454,   0.00013,274779324.12838,  -0.00011,  -0.00006,   0.00004,  -4.91383,   1.00000
-511594627.35334,-417112513.89210,32174859.12343,  -0.00163,  -0.00096,   0.00046,474789485.51119,   0.00014,274789493.50866,  -0.00012,  -0.00006,   0.00004,  -7.99747,   1.00000
-511668183.91080,-417084700.69645,32040127.38163,  -0.00164,  -0.00097,   0.00046,474799658.72691,   0.00015,274799666.80995,  -0.00012,  -0.00007,   0.00004,  -8.08304,   1.00000
-511741190.04027,-417057563.18716,31904651.22574,  -0.00165,  -0.00097,   0.00046,474809691.56522,   0.00015,274809700.25366,  -0.00013,  -0.00007,   0.00004,  -8.68843,   1.00000
-511813683.65859,-417030526.50750,31769966.26387,  -0.00165,  -0.00097,   0.00046,474819722.75658,   0.00016,274819730.84530,  -0.00014,  -0.00007,   0.00005,  -8.08872,   1.00000
-511889072.59270,-416996676.89331,31636766.26904,  -0.00166,  -0.00098,   0.00046,474829720.96385,   0.00017,274829721.17530,  -0.00015,  -0.00008,   0.00005,  -0.21145,   1.00000
-511964811.90647,-416963650.31793,31500293.18264,  -0.00167,  -0.00098,   0.00046,474839702.34364,   0.00018,274839705.27961,  -0.00015,  -0.00008,   0.00005,  -2.93597,   1.00000
-512041267.76928,-416927221.88226,31366190.46488,  -0.00168,  -0.00098,   0.00046,474849595.87005,   0.00019,274849601.34232,  -0.00016,  -0.00009,   0.00005,  -5.47226,   1.00000
-512119332.21546,-416888101.00244,31230382.83922,  -0.00169,  -0.00099,   0.00046,474859404.17048,   0.00020,274859405.95376,  -0.00017,  -0.00009,   0.00005,  -1.78328,   1.00000
-512200249.15751,-416842207.51496,31096036.43078,  -0.00169,  -0.00099,   0.00046,474869170.50862,   0.00021,274869170.65848,  -0.00018,  -0.00009,   0.00006,  -0.14986,   1.00000
-512280598.82057,-416796502.03680,30962454.07821,  -0.00170,  -0.00100,   0.00046,474878926.75500,   0.00022,274878932.91601,  -0.00018,  -0.00010,   0.00006,  -6.16101,   1.00000
-512359141.53195,-416755069.89561,30826452.74216,  -0.00171,  -0.00100,   0.00046,474888638.44089,   0.00023,274888641.31103,  -0.00019,  -0.00010,   0.00006,  -2.87013,   1.00000
-512441804.15464,-416703322.32967,30693440.54885,  -0.00172,  -0.00100,   0.00046,474898221.80355,   0.00024,274898224.78073,  -0.00020,  -0.00011,   0.00006,  -2.97718,   1.00000
-512526884.79384,-416649070.43146,30556256.38704,  -0.00173,  -0.00101,   0.00046,474907843.50289,   0.00024,274907850.41484,  -0.00021,  -0.00011,   0.00007,  -6.91195,   1.00000
-512610537.23350,-416594892.55417,30422231.48150,  -0.00173,  -0.00101,   0.00046,474917331.97374,   0.00025,274917340.72514,  -0.00021,  -0.00011,   0.00007,  -8.75140,   1.00000
-512699137.89217,-416530607.12028,30288760.17773,  -0.00174,  -0.00101,   0.00046,474926832.75049,   0.00026,274926839.43333,  -0.00022,  -0.00012,   0.00007,  -6.68284,   1.00000
-512785875.69811,-416470656.88196,30152827.00826,  -0.00175,  -0.00102,   0.00046,474936280.77580,   0.00027,274936284.77447,  -0.00023,  -0.00012,   0.00007,  -3.99867,   1.00000
-512874155.07448,-416408055.68204,30015097.48967,  -0.00176,  -0.00102,   0.00047,474945635.08687,   0.00028,274945639.56998,  -0.00024,  -0.00013,   0.00008,  -4.48312,   1.00000
-512960983.34180,-416345053.18638,29882174.81269,  -0.00177,  -0.00102,   0.00047,474954986.25279,   0.00029,274954995.64170,  -0.00024,  -0.00013,   0.00008,  -9.38892,   1.00000
-513054867.10306,-416269059.97020,29747232.20013,  -0.00177,  -0.00103,   0.00047,474964265.15601,   0.00030,274964272.00783,  -0.00025,  -0.00013,   0.00008,  -6.85182,   1.00000
-513146859.22204,-416197433.01577,29609801.21845,  -0.00178,  -0.00103,   0.00047,474973491.67572,   0.00030,274973495.33052,  -0.00026,  -0.00014,   0.00008,  -3.65480,   1.00000
-513236133.30806,-416129490.28612,29473943.67465,  -0.00179,  -0.00103,   0.00047,474982663.61637,   0.00031,274982668.91981,  -0.00027,  -0.00014,   0.00008,  -5.30344,   1.00000
-513331598.83834,-416047887.32595,29340104.38429,  -0.00180,  -0.00104,   0.00047,474991760.87150,   0.00032,274991766.40454,  -0.00027,  -0.00014,   0.00009,  -5.53303,   1.00000
-513427249.21056,-415967266.71576,29202917.53346,  -0.00181,  -0.00104,   0.00047,475000851.44849,   0.00033,275000858.91337,  -0.00028,  -0.00015,   0.00009,  -7.46488,   1.00000
-513523573.77381,-415883389.89321,29067920.56397,  -0.00181,  -0.00104,   0.00047,475009854.82104,   0.00034,275009864.80167,  -0.00029,  -0.00015,   0.00009,  -9.98063,   1.00000
-513619265.42705,-415799868.23669,28933634.41864,  -0.00182,  -0.00105,   0.00047,475018865.89597,   0.00035,275018869.00104,  -0.00029,  -0.00016,   0.00009,  -3.10508,   1.00000
-513719846.08598,-415706731.07488,28798074.33716,  -0.00183,  -0.00105,   0.00047,475027742.21666,   0.00035,275027746.52510,  -0.00030,  -0.00016,   0.00009,  -4.30843,   1.00000
-513819758.79673,-415613975.91118,28663217.10391,  -0.00184,  -0.00105,   0.00047,475036618.26393,   0.00036,275036622.55616,  -0.00031,  -0.00016,   0.00010,  -4.29222,   1.00000
-513917761.00407,-415525613.71284,28525805.78203,  -0.00184,  -0.00106,   0.00047,475045442.53605,   0.00037,275045446.10110,  -0.00032,  -0.00017,   0.00010,  -3.56506,   1.00000
-514021083.65675,-415422976.67617,28394410.77570,  -0.00185,  -0.00106,   0.00047,475054189.57952,   0.00038,275054197.41323,  -0.00032,  -0.00017,   0.00010,  -7.83371,   1.00000
-514125330.92068,-415322001.20276,28255562.14220,  -0.00186,  -0.00106,   0.00047,475062932.30084,   0.00039,275062941.11930,  -0.00033,  -0.00017,   0.00010,  -8.81846,   1.00000
-514227402.72671,-415220573.88026,28123697.26671,  -0.00187,  -0.00106,   0.00047,475071548.78736,   0.00039,275071554.05559,  -0.00034,  -0.00018,   0.00010,  -5.26823,   1.00000
-514331631.32548,-415116778.82782,27987638.20956,  -0.00187,  -0.00107,   0.00047,475080204.46959,   0.00040,275080210.46661,  -0.00034,  -0.00018,   0.00011,  -5.99701,   1.00000
-514440712.74594,-415003350.60195,27850213.57089,  -0.00188,  -0.00107,   0.00047,475088740.81966,   0.00041,275088740.94584,  -0.00035,  -0.00018,   0.00011,  -0.12619,   1.00000
-514546257.72341,-414893133.87969,27718324.33371,  -0.00189,  -0.00107,   0.00047,475097222.67800,   0.00042,275097225.63889,  -0.00036,  -0.00019,   0.00011,  -2.96089,   1.00000
-514655285.17846,-414776923.49987,27583627.24366,  -0.00190,  -0.00107,   0.00047,475105664.51750,   0.00043,275105669.35027,  -0.00036,  -0.00019,   0.00011,  -4.83277,   1.00000
-514764384.77687,-414661770.95804,27445528.39856,  -0.00190,  -0.00108,   0.00047,475114108.18697,   0.00043,275114108.98204,  -0.00037,  -0.00019,   0.00011,  -0.79507,   1.00000
-514877517.63745,-414536345.38150,27310080.14728,  -0.00191,  -0.00108,   0.00047,475122422.92190,   0.00044,275122426.23220,  -0.00038,  -0.00020,   0.00011,  -3.31030,   1.00000
-514987917.71389,-414414779.17234,27176061.38780,  -0.00192,  -0.00108,   0.00047,475130692.89363,   0.00045,275130694.80194,  -0.00038,  -0.00020,   0.00012,  -1.90831,   1.00000
-515100978.81392,-414286616.38529,27043280.90763,  -0.00193,  -0.00109,   0.00047,475138921.16749,   0.00046,275138925.78805,  -0.00039,  -0.00020,   0.00012,  -4.62056,   1.00000
-515214071.41517,-414159527.39517,26907069.64821,  -0.00193,  -0.00109,   0.00047,475147143.92796,   0.00046,275147153.03381,  -0.00040,  -0.00021,   0.00012,  -9.10585,   1.00000
-515331207.37336,-414022158.11288,26773443.72708,  -0.00194,  -0.00109,   0.00047,475155252.46883,   0.00047,275155258.24827,  -0.00040,  -0.00021,   0.00012,  -5.77944,   1.00000
-515448342.09816,-413885880.16623,26636379.57667,  -0.00195,  -0.00109,   0.00047,475163355.67261,   0.00048,275163359.91192,  -0.00041,  -0.00021,   0.00012,  -4.23931,   1.00000
-515565368.49231,-413745815.44691,26505366.09789,  -0.00195,  -0.00110,   0.00047,475171378.01150,   0.00049,275171379.40885,  -0.00042,  -0.00022,   0.00012,  -1.39735,   1.00000
-515684544.00740,-413603690.32008,26368147.82739,  -0.00196,  -0.00110,   0.00047,475179301.72890,   0.00049,275179308.09734,  -0.00042,  -0.00022,   0.00013,  -6.36844,   1.00000
-515804165.91123,-413458140.01322,26234890.08924,  -0.00197,  -0.00110,   0.00047,475187277.22849,   0.00050,275187287.04959,  -0.00043,  -0.00022,   0.00013,  -9.82110,   1.00000
-515923239.37927,-413313325.37598,26100235.09211,  -0.00198,  -0.00110,   0.00047,475195129.36682,   0.00051,275195130.34496,  -0.00043,  -0.00023,   0.00013,  -0.97815,   1.00000
-516044905.94697,-413161907.88033,25966761.25462,  -0.00198,  -0.00110,   0.00047,475202932.70804,   0.00051,275202936.72406,  -0.00044,  -0.00023,   0.00013,  -4.01603,   1.00000
-516169162.76467,-413003914.26444,25834457.74450,  -0.00199,  -0.00111,   0.00047,475210701.44030,   0.00052,275210706.24964,  -0.00045,  -0.00023,   0.00013,  -4.80934,   1.00000
-516294790.07671,-412843273.91968,25699970.36304,  -0.00200,  -0.00111,   0.00047,475218384.60661,   0.00053,275218388.33871,  -0.00045,  -0.00024,   0.00013,  -3.73211,   1.00000
-516419610.28390,-412683186.21114,25566084.54263,  -0.00200,  -0.00111,   0.00047,475226061.90086,   0.00054,275226070.30401,  -0.00046,  -0.00024,   0.00014,  -8.40315,   1.00000
-516545807.33706,-412520428.67955,25430000.72878,  -0.00201,  -0.00111,   0.00047,475233660.52011,   0.00054,275233664.93180,  -0.00047,  -0.00024,   0.00014,  -4.41169,   1.00000
-516671917.54430,-412353875.49671,25299865.11023,  -0.00202,  -0.00111,   0.00047,475241171.38579,   0.00055,275241177.97515,  -0.00047,  -0.00025,   0.00014,  -6.58936,   1.00000
-516801311.78174,-412181285.60656,25166769.44156,  -0.00203,  -0.00112,   0.00047,475248648.41746,   0.00056,275248651.78514,  -0.00048,  -0.00025,   0.00014,  -3.36767,   1.00000
-516930591.25059,-412009809.99948,25030175.16063,  -0.00203,  -0.00112,   0.00047,475256114.14072,   0.00056,275256122.94337,  -0.00048,  -0.00025,   0.00014,  -8.80266,   1.00000
-517059811.32143,-411834550.53836,24899503.53451,  -0.00204,  -0.00112,   0.00047,475263512.51982,   0.00057,275263512.59625,  -0.00049,  -0.00025,   0.00014,  -0.07643,   1.00000
-517192255.49100,-411653218.79097,24765851.88741,  -0.00205,  -0.00112,   0.00047,475270856.70524,   0.00058,275270863.37708,  -0.00050,  -0.00026,   0.00014,  -6.67184,   1.00000
-517325332.65851,-411468635.52514,24634008.46602,  -0.00205,  -0.00112,   0.00047,475278120.89227,   0.00058,275278130.14213,  -0.00050,  -0.00026,   0.00015,  -9.24986,   1.00000
-517459751.22808,-411281325.66299,24499872.97806,  -0.00206,  -0.00113,   0.00047,475285305.73292,   0.00059,275285310.25428,  -0.00051,  -0.00026,   0.00015,  -4.52137,   1.00000
-517592621.93603,-411094074.32786,24370376.38776,  -0.00207,  -0.00113,   0.00047,475292484.86822,   0.00060,275292493.45918,  -0.00051,  -0.00027,   0.00015,  -8.59096,   1.00000
-517732036.91299,-410893528.51000,24238389.42803,  -0.00207,  -0.00113,   0.00046,475299599.10968,   0.00060,275299601.81849,  -0.00052,  -0.00027,   0.00015,  -2.70881,   1.00000
-517869401.54610,-410697447.56064,24103553.52056,  -0.00208,  -0.00113,   0.00046,475306651.52379,   0.00061,275306660.17705,  -0.00052,  -0.00027,   0.00015,  -8.65326,   1.00000
-518006721.68281,-410497557.50198,23974555.12827,  -0.00209,  -0.00113,   0.00046,475313635.70180,   0.00062,275313637.49034,  -0.00053,  -0.00027,   0.00015,  -1.78854,   1.00000
-518143856.24370,-410298783.62102,23841995.97547,  -0.00209,  -0.00113,   0.00046,475320603.34344,   0.00062,275320612.82576,  -0.00054,  -0.00028,   0.00015,  -9.48232,   1.00000
-518286794.56175,-410086125.87498,23710997.32686,  -0.00210,  -0.00114,   0.00046,475327510.83958,   0.00063,275327516.40027,  -0.00054,  -0.00028,   0.00015,  -5.56068,   1.00000
-518425196.02463,-409880732.82463,23581870.66396,  -0.00211,  -0.00114,   0.00046,475334317.74356,   0.00064,275334324.79952,  -0.00055,  -0.00028,   0.00016,  -7.05596,   1.00000
-518568544.10025,-409665872.55371,23449004.47920,  -0.00211,  -0.00114,   0.00046,475341134.76630,   0.00064,275341143.22751,  -0.00055,  -0.00029,   0.00016,  -8.46121,   1.00000
-518712515.40428,-409447680.71859,23317832.52213,  -0.00212,  -0.00114,   0.00046,475347877.27671,   0.00065,275347878.37423,  -0.00056,  -0.00029,   0.00016,  -1.09753,   1.00000
-518857088.89483,-409226124.25178,23188333.36012,  -0.00213,  -0.00114,   0.00046,475354520.69968,   0.00065,275354530.42033,  -0.00056,  -0.00029,   0.00016,  -9.72065,   1.00000
-519004751.02274,-408998407.75186,23055743.53503,  -0.00213,  -0.00114,   0.00046,475361140.89568,   0.00066,275361144.81070,  -0.00057,  -0.00029,   0.00016,  -3.91503,   1.00000
-519149052.90058,-408774131.94405,22928402.19012,  -0.00214,  -0.00114,   0.00046,475367711.88854,   0.00067,275367714.75481,  -0.00057,  -0.00030,   0.00016,  -2.86627,   1.00000
-519296416.87884,-408543654.44365,22797947.37385,  -0.00215,  -0.00114,   0.00046,475374241.51040,   0.00067,275374247.26227,  -0.00058,  -0.00030,   0.00016,  -5.75188,   1.00000
-519444402.58173,-408309777.85933,22669120.57475,  -0.00215,  -0.00115,   0.00046,475380690.10374,   0.00068,275380696.86571,  -0.00058,  -0.00030,   0.00016,  -6.76198,   1.00000
-519595416.54862,-408069681.59001,22537169.01411,  -0.00216,  -0.00115,   0.00046,475387103.00785,   0.00068,275387109.24757,  -0.00059,  -0.00030,   0.00017,  -6.23972,   1.00000
-519746390.15308,-407825679.11738,22410915.30546,  -0.00216,  -0.00115,   0.00046,475393434.39536,   0.00069,275393441.38889,  -0.00059,  -0.00031,   0.00017,  -6.99354,   1.00000
-519898624.83916,-407578721.67074,22282149.69562,  -0.00217,  -0.00115,   0.00046,475399684.62680,   0.00070,275399688.42232,  -0.00060,  -0.00031,   0.00017,  -3.79553,   1.00000
-520049920.57022,-407332398.82018,22153846.33569,  -0.00218,  -0.00115,   0.00046,475405931.89818,   0.00070,275405936.86546,  -0.00061,  -0.00031,   0.00017,  -4.96727,   1.00000
-520204196.08957,-407079801.11067,22022385.65718,  -0.00218,  -0.00115,   0.00046,475412143.12480,   0.00071,275412148.47057,  -0.00061,  -0.00031,   0.00017,  -5.34577,   1.00000
-520361717.21950,-406815855.15485,21897047.87954,  -0.00219,  -0.00115,   0.00046,475418238.91182,   0.00071,275418244.26374,  -0.00062,  -0.00031,   0.00017,  -5.35192,   1.00000
-520517184.50327,-406556289.57309,21768682.24625,  -0.00220,  -0.00115,   0.00045,475424281.39945,   0.00072,275424291.14643,  -0.00062,  -0.00032,   0.00017,  -9.74698,   1.00000
-520671713.36878,-406297370.77920,21640762.27558,  -0.00220,  -0.00115,   0.00045,475430337.90371,   0.00072,275430339.57896,  -0.00063,  -0.00032,   0.00017,  -1.67525,   1.00000
-520830107.50446,-406027471.06639,21514820.31393,  -0.00221,  -0.00115,   0.00045,475436261.99295,   0.00073,275436270.08553,  -0.00063,  -0.00032,   0.00017,  -8.09258,   1.00000
-520991411.99991,-405751234.60075,21385669.32377,  -0.00221,  -0.00115,   0.00045,475442160.18315,   0.00073,275442164.29861,  -0.00063,  -0.00032,   0.00017,  -4.11547,   1.00000
-521149434.77206,-405478433.20181,21261656.52402,  -0.00222,  -0.00115,   0.00045,475448010.82146,   0.00074,275448014.47232,  -0.00064,  -0.00033,   0.00018,  -3.65086,   1.00000
-521310346.76212,-405199252.30226,21134414.46315,  -0.00223,  -0.00116,   0.00045,475453824.68355,   0.00075,275453828.53746,  -0.00064,  -0.00033,   0.00018,  -3.85392,   1.00000
-521471849.35796,-404916463.88681,21008644.73722,  -0.00223,  -0.00116,   0.00045,475459550.96301,   0.00075,275459560.68197,  -0.00065,  -0.00033,   0.00018,  -9.71896,   1.00000
-521635612.24840,-404626829.57501,20883729.33500,  -0.00224,  -0.00116,   0.00045,475465255.98934,   0.00076,275465259.20283,  -0.00065,  -0.00033,   0.00018,  -3.21348,   1.00000
-521800549.74893,-404333991.64616,20756161.68996,  -0.00224,  -0.00116,   0.00045,475470867.81416,   0.00076,275470873.71303,  -0.00066,  -0.00033,   0.00018,  -5.89886,   1.00000
-521965484.53321,-404037056.96970,20634127.23526,  -0.00225,  -0.00116,   0.00045,475476407.25744,   0.00077,275476408.76154,  -0.00066,  -0.00034,   0.00018,  -1.50409,   1.00000
-522129992.40941,-403741177.60663,20508379.85400,  -0.00226,  -0.00116,   0.00045,475481934.88526,   0.00077,275481943.78110,  -0.00067,  -0.00034,   0.00018,  -8.89584,   1.00000
-522295113.31235,-403441601.99606,20384046.48470,  -0.00226,  -0.00116,   0.00045,475487394.61203,   0.00078,275487397.11342,  -0.00067,  -0.00034,   0.00018,  -2.50139,   1.00000
-522466213.07792,-403127949.00712,20256855.87730,  -0.00227,  -0.00116,   0.00045,475492770.50777,   0.00078,275492779.72725,  -0.00068,  -0.00034,   0.00018,  -9.21948,   1.00000
-522634091.79373,-402817699.41503,20134729.38404,  -0.00227,  -0.00116,   0.00045,475498109.73017,   0.00079,275498118.53344,  -0.00068,  -0.00034,   0.00018,  -8.80327,   1.00000
-522804143.30552,-402500484.41358,20013392.54586,  -0.00228,  -0.00116,   0.00044,475503416.30767,   0.00079,275503424.39550,  -0.00069,  -0.00035,   0.00018,  -8.08783,   1.00000
-522975344.40932,-402179900.46758,19889313.57243,  -0.00229,  -0.00116,   0.00044,475508638.85083,   0.00080,275508646.79210,  -0.00069,  -0.00035,   0.00019,  -7.94127,   1.00000
-523145495.48079,-401859925.98044,19765599.18685,  -0.00229,  -0.00116,   0.00044,475513865.40623,   0.00080,275513871.72241,  -0.00069,  -0.00035,   0.00019,  -6.31618,   1.00000
-523319407.68889,-401528486.71393,19643641.25190,  -0.00230,  -0.00116,   0.00044,475518975.64049,   0.00081,275518980.20861,  -0.00070,  -0.00035,   0.00019,  -4.56813,   1.00000
-523490700.23146,-401200816.99112,19522596.08154,  -0.00230,  -0.00116,   0.00044,475524034.55171,   0.00081,275524042.87141,  -0.00070,  -0.00035,   0.00019,  -8.31969,   1.00000
-523667845.36242,-400858840.37019,19398608.51093,  -0.00231,  -0.00116,   0.00044,475529026.42720,   0.00081,275529035.69860,  -0.00071,  -0.00036,   0.00019,  -9.27140,   1.00000
-523841818.91892,-400520214.57585,19279623.93287,  -0.00231,  -0.00116,   0.00044,475533981.44816,   0.00082,275533984.88062,  -0.00071,  -0.00036,   0.00019,  -3.43246,   1.00000
-524018431.16903,-400174888.81373,19157268.16085,  -0.00232,  -0.00116,   0.00044,475538897.65474,   0.00082,275538899.66929,  -0.00072,  -0.00036,   0.00019,  -2.01456,   1.00000
-524195595.45134,-399825592.72738,19036195.93686,  -0.00232,  -0.00116,   0.00044,475543733.53164,   0.00083,275543733.65013,  -0.00072,  -0.00036,   0.00019,  -0.11849,   1.00000
-524373304.44333,-399472287.24043,18916390.84436,  -0.00233,  -0.00116,   0.00044,475548480.09414,   0.00083,275548486.91998,  -0.00072,  -0.00036,   0.00019,  -6.82583,   1.00000
-524553061.88402,-399111819.96910,18797293.48030,  -0.00234,  -0.00116,   0.00044,475553201.12329,   0.00084,275553208.16603,  -0.00073,  -0.00036,   0.00019,  -7.04275,   1.00000
-524730772.51307,-398755429.30193,18674945.96045,  -0.00234,  -0.00116,   0.00044,475557874.89897,   0.00084,275557881.75002,  -0.00073,  -0.00037,   0.00019,  -6.85105,   1.00000
-524913097.04672,-398383684.47931,18557789.52422,  -0.00235,  -0.00116,   0.00043,475562488.56869,   0.00085,275562490.53977,  -0.00074,  -0.00037,   0.00019,  -1.97107,   1.00000
-525093357.97391,-398015978.40432,18437361.07891,  -0.00235,  -0.00116,   0.00043,475567046.66801,   0.00085,275567051.83057,  -0.00074,  -0.00037,   0.00019,  -5.16256,   1.00000
-525278188.43509,-397632848.49021,18322098.66930,  -0.00236,  -0.00116,   0.00043,475571543.54083,   0.00085,275571548.59909,  -0.00074,  -0.00037,   0.00019,  -5.05826,   1.00000
-525460956.99713,-397253730.58523,18203543.67704,  -0.00236,  -0.00116,   0.00043,475575993.24970,   0.00086,275575997.95959,  -0.00075,  -0.00037,   0.00020,  -4.70990,   1.00000
-525644253.02084,-396870399.49415,18086176.45275,  -0.00237,  -0.00115,   0.00043,475580360.58729,   0.00086,275580367.04151,  -0.00075,  -0.00037,   0.00020,  -6.45421,   1.00000
-525829497.99682,-396479741.13227,17969460.53313,  -0.00237,  -0.00115,   0.00043,475584700.53394,   0.00087,275584704.76246,  -0.00075,  -0.00038,   0.00020,  -4.22852,   1.00000
-526017177.82427,-396082102.77774,17849283.53053,  -0.00238,  -0.00115,   0.00043,475589007.84696,   0.00087,275589009.31802,  -0.00076,  -0.00038,   0.00020,  -1.47105,   1.00000
-526203429.87656,-395682853.42017,17734888.34530,  -0.00238,  -0.00115,   0.00043,475593181.49591,   0.00087,275593186.90423,  -0.00076,  -0.00038,   0.00020,  -5.40831,   1.00000
-526388518.98254,-395284084.54860,17620751.03583,  -0.00239,  -0.00115,   0.00043,475597360.35049,   0.00088,275597368.10726,  -0.00076,  -0.00038,   0.00020,  -7.75678,   1.00000
-526579065.59384,-394870344.38928,17503485.32260,  -0.00239,  -0.00115,   0.00043,475601472.04974,   0.00088,275601481.76448,  -0.00077,  -0.00038,   0.00020,  -9.71474,   1.00000
-526767039.09619,-394460115.76606,17386984.35422,  -0.00240,  -0.00115,   0.00043,475605541.24139,   0.00088,275605550.21879,  -0.00077,  -0.00038,   0.00020,  -8.97740,   1.00000
-526958549.18103,-394037498.72082,17271949.04936,  -0.00240,  -0.00115,   0.00042,475609498.40829,   0.00089,275609504.28271,  -0.00077,  -0.00038,   0.00020,  -5.87442,   1.00000
-527148841.07675,-393615317.94866,17157155.83701,  -0.00241,  -0.00115,   0.00042,475613461.20031,   0.00089,275613462.28814,  -0.00078,  -0.00039,   0.00020,  -1.08783,   1.00000
-527339595.93440,-393188606.25410,17043448.92577,  -0.00241,  -0.00115,   0.00042,475617331.72174,   0.00090,275617340.67913,  -0.00078,  -0.00039,   0.00020,  -8.95739,   1.00000
-527530843.91321,-392757342.39404,16930815.40034,  -0.00242,  -0.00115,   0.00042,475621137.59623,   0.00090,275621139.39355,  -0.00078,  -0.00039,   0.00020,  -1.79731,   1.00000
-527723859.21493,-392318459.74182,16818750.01422,  -0.00242,  -0.00114,   0.00042,475624899.34696,   0.00090,275624907.80977,  -0.00079,  -0.00039,   0.00020,  -8.46281,   1.00000
-527918640.93425,-391871955.70771,16707247.17011,  -0.00243,  -0.00114,   0.00042,475628644.17800,   0.00091,275628645.96301,  -0.00079,  -0.00039,   0.00020,  -1.78501,   1.00000
-528113043.11151,-391424088.52643,16593157.82046,  -0.00243,  -0.00114,   0.00042,475632248.17475,   0.00091,275632253.72990,  -0.00079,  -0.00039,   0.00020,  -5.55515,   1.00000
-528308692.50236,-390968182.18801,16483727.72113,  -0.00244,  -0.00114,   0.00042,475635832.07526,   0.00091,275635833.25408,  -0.00080,  -0.00039,   0.00020,  -1.17882,   1.00000
-528506507.73174,-390504872.58972,16370721.70069,  -0.00244,  -0.00114,   0.00042,475639379.52350,   0.00092,275639381.11774,  -0.00080,  -0.00039,   0.00020,  -1.59424,   1.00000
-528701290.96363,-390044528.95054,16262507.53284,  -0.00245,  -0.00114,   0.00042,475642881.89268,   0.00092,275642885.88227,  -0.00080,  -0.00039,   0.00020,  -3.98959,   1.00000
-528899929.73475,-389571548.09048,16151502.43073,  -0.00245,  -0.00114,   0.00041,475646271.33579,   0.00092,275646275.51928,  -0.00081,  -0.00040,   0.00020,  -4.18349,   1.00000
-529097252.06225,-389098866.24478,16040688.75868,  -0.00246,  -0.00114,   0.00041,475649661.02133,   0.00093,275649669.76097,  -0.00081,  -0.00040,   0.00021,  -8.73963,   1.00000
-529294985.61384,-388621258.21835,15930853.87514,  -0.00246,  -0.00113,   0.00041,475652979.77920,   0.00093,275652984.97102,  -0.00081,  -0.00040,   0.00021,  -5.19182,   1.00000
-529496035.25884,-388130484.33140,15822302.70710,  -0.00247,  -0.00113,   0.00041,475656186.12024,   0.00093,275656187.18915,  -0.00081,  -0.00040,   0.00021,  -1.06890,   1.00000
-529695728.33411,-387639953.49555,15713924.45805,  -0.00247,  -0.00113,   0.00041,475659387.51257,   0.00093,275659394.24997,  -0.00082,  -0.00040,   0.00021,  -6.73740,   1.00000
-529895798.36259,-387144352.24943,15606489.64524,  -0.00248,  -0.00113,   0.00041,475662515.38388,   0.00094,275662522.51210,  -0.00082,  -0.00040,   0.00021,  -7.12822,   1.00000
-530097415.26791,-386640744.78890,15499531.81246,  -0.00248,  -0.00113,   0.00041,475665620.17240,   0.00094,275665621.67434,  -0.00082,  -0.00040,   0.00021,  -1.50193,   1.00000
-530299365.35879,-386131962.00533,15393495.17983,  -0.00249,  -0.00113,   0.00041,475668638.51573,   0.00094,275668642.26345,  -0.00083,  -0.00040,   0.00021,  -3.74772,   1.00000
-530502098.70100,-385618259.40413,15284253.74215,  -0.00249,  -0.00112,   0.00041,475671575.81474,   0.00095,275671582.61808,  -0.00083,  -0.00040,   0.00021,  -6.80334,   1.00000
-530703003.28152,-385104428.21464,15179282.52906,  -0.00249,  -0.00112,   0.00041,475674524.80275,   0.00095,275674529.70114,  -0.00083,  -0.00040,   0.00021,  -4.89840,   1.00000
-530907087.90903,-384576965.72457,15075502.48010,  -0.00250,  -0.00112,   0.00040,475677363.27612,   0.00095,275677364.51807,  -0.00083,  -0.00041,   0.00021,  -1.24195,   1.00000
-531113013.93880,-384041582.66492,14968043.70946,  -0.00250,  -0.00112,   0.00040,475680160.76079,   0.00095,275680169.25761,  -0.00084,  -0.00041,   0.00021,  -8.49683,   1.00000
-531314855.22398,-383511665.03464,14865715.17476,  -0.00251,  -0.00112,   0.00040,475682873.64346,   0.00096,275682881.17029,  -0.00084,  -0.00041,   0.00021,  -7.52682,   1.00000
-531522439.18683,-382962559.86656,14759551.56794,  -0.00251,  -0.00111,   0.00040,475685573.42915,   0.00096,275685579.36462,  -0.00084,  -0.00041,   0.00021,  -5.93547,   1.00000
-531725943.55963,-382418829.68693,14658497.05867,  -0.00252,  -0.00111,   0.00040,475688177.18260,   0.00096,275688184.75782,  -0.00084,  -0.00041,   0.00021,  -7.57522,   1.00000
-531934011.53039,-381858586.18081,14554020.45491,  -0.00252,  -0.00111,   0.00040,475690720.33469,   0.00096,275690726.85304,  -0.00084,  -0.00041,   0.00021,  -6.51835,   1.00000
-532140151.12015,-381298081.83661,14453779.75863,  -0.00252,  -0.00111,   0.00040,475693266.72135,   0.00097,275693276.20864,  -0.00085,  -0.00041,   0.00021,  -9.48729,   1.00000
-532345893.52763,-380734932.14939,14350662.35606,  -0.00253,  -0.00111,   0.00040,475695686.11924,   0.00097,275695695.91247,  -0.00085,  -0.00041,   0.00021,  -9.79323,   1.00000
-532553935.36825,-380160531.23275,14247515.66060,  -0.00253,  -0.00110,   0.00040,475698130.86787,   0.00097,275698138.00102,  -0.00085,  -0.00041,   0.00021,  -7.13315,   1.00000
-532761134.78122,-379583057.79992,14145588.82514,  -0.00254,  -0.00110,   0.00040,475700448.74325,   0.00097,275700452.12861,  -0.00085,  -0.00041,   0.00021,  -3.38536,   1.00000
-532969117.17117,-378996709.03856,14048155.19489,  -0.00254,  -0.00110,   0.00039,475702738.99396,   0.00097,275702740.31520,  -0.00086,  -0.00041,   0.00021,  -1.32124,   1.00000
-533177665.21560,-378404696.13164,13947378.93642,  -0.00255,  -0.00110,   0.00039,475704942.67638,   0.00098,275704949.34171,  -0.00086,  -0.00041,   0.00021,  -6.66533,   1.00000
-533387356.58272,-377803997.05175,13846964.64830,  -0.00255,  -0.00109,   0.00039,475707128.75326,   0.00098,275707131.10375,  -0.00086,  -0.00041,   0.00021,  -2.35049,   1.00000
-533597153.30007,-377197235.51810,13747311.54882,  -0.00255,  -0.00109,   0.00039,475709229.58440,   0.00098,275709235.44533,  -0.00086,  -0.00041,   0.00021,  -5.86093,   1.00000
-533807057.18455,-376584352.34800,13648408.95845,  -0.00256,  -0.00109,   0.00039,475711258.04005,   0.00098,275711262.36603,  -0.00086,  -0.00042,   0.00021,  -4.32598,   1.00000
-534017601.84234,-375962362.81180,13553965.51965,  -0.00256,  -0.00109,   0.00039,475713262.27115,   0.00098,275713263.94289,  -0.00086,  -0.00042,   0.00021,  -1.67174,   1.00000
-534225955.25884,-375343065.00094,13455869.85699,  -0.00256,  -0.00108,   0.00039,475715210.56977,   0.00099,275715219.85757,  -0.00087,  -0.00042,   0.00021,  -9.28780,   1.00000
-534437022.21372,-374708766.27923,13358755.64921,  -0.00257,  -0.00108,   0.00039,475717060.91858,   0.00099,275717065.45979,  -0.00087,  -0.00042,   0.00021,  -4.54121,   1.00000
-534646416.66970,-374074197.42042,13261705.28915,  -0.00257,  -0.00108,   0.00039,475718914.16633,   0.00099,275718917.54724,  -0.00087,  -0.00042,   0.00021,  -3.38091,   1.00000
-534858429.17303,-373424435.87915,13165612.61688,  -0.00258,  -0.00107,   0.00038,475720654.84556,   0.00099,275720659.67342,  -0.00087,  -0.00042,   0.00021,  -4.82786,   1.00000
-535067839.04176,-372776930.31176,13069962.08698,  -0.00258,  -0.00107,   0.00038,475722353.19544,   0.00099,275722357.69078,  -0.00087,  -0.00042,   0.00021,  -4.49534,   1.00000
-535278118.98404,-372120281.78234,12974612.52832,  -0.00258,  -0.00107,   0.00038,475724022.95804,   0.00099,275724029.53972,  -0.00087,  -0.00042,   0.00021,  -6.58168,   1.00000
-535490528.72557,-371447913.61829,12884306.77619,  -0.00259,  -0.00107,   0.00038,475725588.24601,   0.00100,275725593.23122,  -0.00088,  -0.00042,   0.00021,  -4.98521,   1.00000
-535701540.92598,-370775371.34011,12789918.30877,  -0.00259,  -0.00106,   0.00038,475727154.16465,   0.00100,275727162.42859,  -0.00088,  -0.00042,   0.00021,  -8.26394,   1.00000
-535912464.77845,-370096052.77531,12696189.60946,  -0.00259,  -0.00106,   0.00038,475728651.67970,   0.00100,275728654.92467,  -0.00088,  -0.00042,   0.00021,  -3.24497,   1.00000
-536123262.87628,-369409867.20815,12603110.02662,  -0.00260,  -0.00106,   0.00038,475730065.04587,   0.00100,275730070.84539,  -0.00088,  -0.00042,   0.00021,  -5.79952,   1.00000
-536334741.42860,-368714256.03639,12510299.25056,  -0.00260,  -0.00105,   0.00038,475731452.66784,   0.00100,275731461.31204,  -0.00088,  -0.00042,   0.00021,  -8.64420,   1.00000
-536546047.96650,-368011639.21963,12418120.65490,  -0.00261,  -0.00105,   0.00038,475732768.18233,   0.00100,275732775.35310,  -0.00088,  -0.00042,   0.00021,  -7.17077,   1.00000
-536757153.26510,-367301929.41042,12326564.12675,  -0.00261,  -0.00105,   0.00037,475734004.94422,   0.00100,275734013.05769,  -0.00088,  -0.00042,   0.00021,  -8.11347,   1.00000
-536967677.74796,-366584817.63733,12239743.64612,  -0.00261,  -0.00104,   0.00037,475735169.20386,   0.00100,275735175.82797,  -0.00088,  -0.00042,   0.00021,  -6.62412,   1.00000
-537179096.70963,-365858262.70173,12149039.39275,  -0.00262,  -0.00104,   0.00037,475736310.07264,   0.00101,275736312.31656,  -0.00088,  -0.00042,   0.00021,  -2.24391,   1.00000
-537390981.99219,-365121975.77428,12058573.03512,  -0.00262,  -0.00104,   0.00037,475737422.49534,   0.00101,275737424.12649,  -0.00089,  -0.00042,   0.00021,  -1.63115,   1.00000
-537601790.99206,-364380666.92457,11969050.64527,  -0.00262,  -0.00103,   0.00037,475738406.56897,   0.00101,275738408.56694,  -0.00089,  -0.00042,   0.00021,  -1.99797,   1.00000
-537810274.42969,-363638394.22516,11883656.77475,  -0.00263,  -0.00103,   0.00037,475739395.40510,   0.00101,275739402.00786,  -0.00089,  -0.00042,   0.00022,  -6.60277,   1.00000
-538021847.04774,-362877304.16813,11794576.55175,  -0.00263,  -0.00102,   0.00037,475740333.00620,   0.00101,275740337.65579,  -0.00089,  -0.00042,   0.00022,  -4.64959,   1.00000
-538229952.25269,-362120068.56261,11706191.59682,  -0.00263,  -0.00102,   0.00037,475741172.39380,   0.00101,275741178.02939,  -0.00089,  -0.00042,   0.00022,  -5.63559,   1.00000
-538440321.06605,-361343375.30866,11622354.34779,  -0.00263,  -0.00102,   0.00037,475741955.86961,   0.00101,275741963.64628,  -0.00089,  -0.00042,   0.00022,  -7.77667,   1.00000
-538648954.10006,-360566014.11691,11534380.51632,  -0.00264,  -0.00101,   0.00037,475742751.60303,   0.00101,275742756.03974,  -0.00089,  -0.00042,   0.00022,  -4.43671,   1.00000
-538858689.04425,-359773774.28061,11447496.93507,  -0.00264,  -0.00101,   0.00036,475743383.15471,   0.00101,275743389.32351,  -0.00089,  -0.00042,   0.00022,  -6.16880,   1.00000
-539065956.94079,-358980352.27857,11364721.37204,  -0.00264,  -0.00101,   0.00036,475744030.76249,   0.00101,275744032.10114,  -0.00089,  -0.00042,   0.00022,  -1.33864,   1.00000
-539275878.50018,-358167506.24962,11278209.75039,  -0.00265,  -0.00100,   0.00036,475744609.14208,   0.00101,275744618.54361,  -0.00089,  -0.00042,   0.00022,  -9.40153,   1.00000
-539481985.52765,-357357845.70821,11196469.37752,  -0.00265,  -0.00100,   0.00036,475745105.31490,   0.00101,275745110.74908,  -0.00089,  -0.00042,   0.00022,  -5.43417,   1.00000
-539688099.52990,-356537734.21822,11114902.19972,  -0.00265,  -0.00099,   0.00036,475745574.50118,   0.00101,275745579.80269,  -0.00089,  -0.00042,   0.00022,  -5.30151,   1.00000
-539894494.55517,-355707314.94164,11029377.32077,  -0.00266,  -0.00099,   0.00036,475746024.29893,   0.00101,275746024.65977,  -0.00089,  -0.00042,   0.00022,  -0.36085,   1.00000
-540099230.39351,-354870418.11787,10948798.39065,  -0.00266,  -0.00099,   0.00036,475746341.20561,   0.00102,275746343.67272,  -0.00089,  -0.00042,   0.00022,  -2.46711,   1.00000
-540305946.08551,-354013376.88580,10868570.92816,  -0.00266,  -0.00098,   0.00036,475746604.15635,   0.00102,275746608.66912,  -0.00089,  -0.00042,   0.00022,  -4.51277,   1.00000
-540510617.44050,-353155258.09775,10784173.78173,  -0.00266,  -0.00098,   0.00036,475746878.59584,   0.00102,275746881.48456,  -0.00089,  -0.00042,   0.00022,  -2.88872,   1.00000
-540713546.72958,-352290316.49023,10704693.06000,  -0.00267,  -0.00097,   0.00035,475747024.75399,   0.00102,275747028.53333,  -0.00089,  -0.00042,   0.00022,  -3.77934,   1.00000
-540916161.40483,-351414477.48729,10625353.60150,  -0.00267,  -0.00097,   0.00035,475747152.22433,   0.00102,275747153.45296,  -0.00089,  -0.00042,   0.00022,  -1.22862,   1.00000
-541116341.79744,-350537267.11998,10545965.19870,  -0.00267,  -0.00096,   0.00035,475747285.32959,   0.00102,275747287.61466,  -0.00089,  -0.00042,   0.00022,  -2.28508,   1.00000
-541310735.60414,-349639746.77843,10467380.46833,  -0.00268,  -0.00096,   0.00035,475741752.05053,   0.00102,275747287.61466,  -0.00089,  -0.00042,   0.00022,-5535.56413,   0.00000
-541498925.35317,-348727750.30233,10388795.73797,  -0.00268,  -0.00096,   0.00035,475731236.29911,   0.00102,275747287.61466,  -0.00089,  -0.00042,   0.00022,-16051.31555,   0.00000
-541680911.04455,-347801277.69170,10310211.00760,  -0.00268,  -0.00095,   0.00035,475715804.38808,   0.00102,275747287.61466,  -0.00089,  -0.00042,   0.00022,-31483.22658,   0.00000
-541833944.46684,-346862396.96574,10231626.27723,  -0.00268,  -0.00095,   0.00035,475678235.36396,   0.00102,275747287.61466,  -0.00089,  -0.00042,   0.00022,-69052.25070,   0.00000
-541974569.77381,-345894563.97070,10157177.58531,  -0.00269,  -0.00094,   0.00035,475628984.54611,   0.00102,275747287.61466,  -0.00089,  -0.00042,   0.00022,-118303.06855,   0.00000
-542094514.88858,-344906050.78346,10078592.85494,  -0.00269,  -0.00094,   0.00035,475562511.93670,   0.00102,275747287.61466,  -0.00089,  -0.00042,   0.00022,-184775.67797,   0.00000
-542214460.00335,-343917537.59622,10000008.12457,  -0.00269,  -0.00093,   0.00035,475498403.63247,   0.00102,275747287.61466,  -0.00089,  -0.00042,   0.00022,-248883.98219,   0.00000
-542307520.86826,-342893868.08223,9925559.43265,  -0.00269,  -0.00093,   0.00034,475410642.10661,   0.00102,275747287.61466,  -0.00089,  -0.00042,   0.00022,-336645.50805,   0.00000
-542386105.59863,-341863994.51059,9846974.70228,  -0.00270,  -0.00092,   0.00034,475312830.03360,   0.00102,275747287.61466,  -0.00089,  -0.00042,   0.00022,-434457.58106,   0.00000
-542452282.21367,-340805168.66986,9772526.01036,  -0.00270,  -0.00092,   0.00034,475203752.85724,   0.00102,275747287.61466,  -0.00089,  -0.00042,   0.00022,-543534.75743,   0.00000
-542489506.55963,-339733934.71381,9693941.27999,  -0.00270,  -0.00091,   0.00034,475072451.32885,   0.00102,275747287.61466,  -0.00089,  -0.00042,   0.00022,-674836.28581,   0.00000
-542520526.84794,-338648224.62322,9619492.58806,  -0.00270,  -0.00091,   0.00034,474936977.67817,   0.00102,275747287.61466,  -0.00089,  -0.00042,   0.00022,-810309.93650,   0.00000
-542545343.07858,-337548038.39809,9545043.89614,  -0.00270,  -0.00090,   0.00034,474797151.22713,   0.00102,275747287.61466,  -0.00089,  -0.00042,   0.00022,-950136.38753,   0.00000
-542543275.05936,-336412695.84622,9466459.16577,  -0.00271,  -0.00090,   0.00034,474633651.36715,   0.00102,275747287.61466,  -0.00089,  -0.00042,   0.00022,-1113636.24751,   0.00000
-542526730.90560,-335271149.23668,9392010.47384,  -0.00271,  -0.00089,   0.00034,474460816.37737,   0.00102,275747287.61466,  -0.00089,  -0.00042,   0.00022,-1286471.23729,   0.00000
-542489506.55963,-334108922.43495,9317561.78192,  -0.00271,  -0.00089,   0.00034,474271550.04462,   0.00102,275747287.61466,  -0.00089,  -0.00042,   0.00022,-1475737.57004,   0.00000
-542446078.15601,-332932219.49867,9243113.08999,  -0.00271,  -0.00088,   0.00034,474078199.40080,   0.00102,275747287.61466,  -0.00089,  -0.00042,   0.00022,-1669088.21387,   0.00000
-542381969.56019,-331734836.37019,9172800.43651,  -0.00272,  -0.00088,   0.00033,473868789.27283,   0.00102,275747287.61466,  -0.00089,  -0.00042,   0.00022,-1878498.34183,   0.00000
-542297180.77216,-330516773.04951,9098351.74458,  -0.00272,  -0.00087,   0.00033,473642898.53352,   0.00102,275747287.61466,  -0.00089,  -0.00042,   0.00022,-2104389.08114,   0.00000
-542206187.92647,-329284233.59429,9023903.05265,  -0.00272,  -0.00087,   0.00033,473413138.97799,   0.00102,275747287.61466,  -0.00089,  -0.00042,   0.00022,-2334148.63667,   0.00000
-542094514.88858,-328031013.94686,8949454.36073,  -0.00272,  -0.00086,   0.00033,473167279.09844,   0.00102,275747287.61466,  -0.00089,  -0.00042,   0.00022,-2580008.51622,   0.00000
-541968365.71615,-326771590.24178,8879141.70724,  -0.00272,  -0.00085,   0.00033,472912290.35916,   0.00102,275747287.61466,  -0.00089,  -0.00042,   0.00022,-2834997.25550,   0.00000
-541815332.29386,-325477010.20995,8804693.01532,  -0.00272,  -0.00085,   0.00033,472634395.59588,   0.00102,275747287.61466,  -0.00089,  -0.00042,   0.00022,-3112892.01879,   0.00000
-541656094.81391,-324167954.04359,8734380.36183,  -0.00273,  -0.00084,   0.00033,472353159.85786,   0.00102,275747287.61466,  -0.00089,  -0.00042,   0.00022,-3394127.75680,   0.00000
-541476177.14175,-322838217.68502,8664067.70834,  -0.00273,  -0.00084,   0.00033,472056097.80037,   0.00102,275747287.61466,  -0.00089,  -0.00042,   0.00022,-3691189.81430,   0.00000
-541296259.46960,-321508481.32645,8589619.01642,  -0.00273,  -0.00083,   0.00033,471761963.72260,   0.00102,275747287.61466,  -0.00089,  -0.00042,   0.00022,-3985323.89207,   0.00000
-541074981.41304,-320137384.58347,8519306.36293,  -0.00273,  -0.00083,   0.00033,471433438.40744,   0.00102,275747287.61466,  -0.00089,  -0.00042,   0.00022,-4313849.20722,   0.00000
-540853703.35648,-318766287.84050,8448993.70945,  -0.00273,  -0.00082,   0.00033,471108165.81588,   0.00102,275747287.61466,  -0.00089,  -0.00042,   0.00022,-4639121.79878,   0.00000
-540626221.24226,-317380714.96299,8378681.05596,  -0.00274,  -0.00081,   0.00032,470779672.02101,   0.00102,275747287.61466,  -0.00089,  -0.00042,   0.00022,-4967615.59365,   0.00000
-540357378.74364,-315953781.70107,8308368.40248,  -0.00274,  -0.00081,   0.00032,470416856.20980,   0.00102,275747287.61466,  -0.00089,  -0.00042,   0.00022,-5330431.40487,   0.00000
-540088536.24502,-314526848.43915,8242191.78743,  -0.00274,  -0.00080,   0.00032,470057678.76450,   0.00102,275747287.61466,  -0.00089,  -0.00042,   0.00022,-5689608.85016,   0.00000
-539799013.55419,-313079234.98503,8171879.13394,  -0.00274,  -0.00080,   0.00032,469682934.57332,   0.00102,275747287.61466,  -0.00089,  -0.00042,   0.00022,-6064353.04134,   0.00000
-539497082.74805,-311602669.26183,8101566.48046,  -0.00274,  -0.00079,   0.00032,469298946.17376,   0.00102,275747287.61466,  -0.00089,  -0.00042,   0.00022,-6448341.44090,   0.00000
-539180675.80736,-310119899.48097,8035389.86541,  -0.00274,  -0.00078,   0.00032,468906385.86564,   0.00102,275747287.61466,  -0.00089,  -0.00042,   0.00022,-6840901.74902,   0.00000
-538843588.67447,-308616449.50790,7965077.21193,  -0.00274,  -0.00078,   0.00032,468498514.56607,   0.00102,275747287.61466,  -0.00089,  -0.00042,   0.00022,-7248773.04859,   0.00000
-538485821.34938,-307092319.34264,7898900.59688,  -0.00275,  -0.00077,   0.00032,468075838.37897,   0.00102,275747287.61466,  -0.00089,  -0.00042,   0.00022,-7671449.23570,   0.00000
-538121849.96663,-305553713.04283,7832723.98184,  -0.00275,  -0.00077,   0.00032,467650641.32739,   0.00102,275747287.61466,  -0.00089,  -0.00042,   0.00022,-8096646.28727,   0.00000
-537737198.39168,-303994426.55082,7766547.36679,  -0.00275,  -0.00076,   0.00032,467210608.20788,   0.00102,275747287.61466,  -0.00089,  -0.00042,   0.00022,-8536679.40678,   0.00000
-537338070.68219,-302428936.00115,7700370.75175,  -0.00275,  -0.00075,   0.00032,466762005.38932,   0.00102,275747287.61466,  -0.00089,  -0.00042,   0.00022,-8985282.22534,   0.00000
-536912058.72283,-300828289.12474,7634194.13670,  -0.00275,  -0.00075,   0.00031,466292531.64085,   0.00102,275747287.61466,  -0.00089,  -0.00042,   0.00022,-9454755.97382,   0.00000
-536479842.70582,-299213166.11379,7568017.52165,  -0.00275,  -0.00074,   0.00031,465820923.51126,   0.00102,275747287.61466,  -0.00089,  -0.00042,   0.00022,-9926364.10340,   0.00000
-536033150.55426,-297591839.04517,7501840.90661,  -0.00275,  -0.00073,   0.00031,465340931.94964,   0.00102,275747287.61466,  -0.00089,  -0.00042,   0.00022,-10406355.66502,   0.00000
-535574050.28738,-295941559.70748,7435664.29156,  -0.00275,  -0.00073,   0.00031,464852898.91836,   0.00102,275747287.61466,  -0.00089,  -0.00042,   0.00022,-10894388.69631,   0.00000
-535085997.75142,-294278872.25446,7373623.71496,  -0.00276,  -0.00072,   0.00031,464344362.13614,   0.00102,275747287.61466,  -0.00089,  -0.00042,   0.00022,-11402925.47852,   0.00000
-534585537.10014,-292587232.53236,7307447.09991,  -0.00276,  -0.00071,   0.00031,463827854.50530,   0.00102,275747287.61466,  -0.00089,  -0.00042,   0.00022,-11919433.10936,   0.00000
-534070600.31432,-290889388.75260,7245406.52331,  -0.00276,  -0.00071,   0.00031,463303420.96714,   0.00102,275747287.61466,  -0.00089,  -0.00042,   0.00022,-12443866.64752,   0.00000
-533549459.47084,-289177068.83830,7183365.94670,  -0.00276,  -0.00070,   0.00031,462777415.51687,   0.00102,275747287.61466,  -0.00089,  -0.00042,   0.00022,-12969872.09780,   0.00000
-533001434.37749,-287429592.59725,7121325.37010,  -0.00276,  -0.00069,   0.00031,462231602.59473,   0.00102,275747287.61466,  -0.00089,  -0.00042,   0.00022,-13515685.01993,   0.00000
-532438933.14961,-285675912.29855,7055148.75505,  -0.00276,  -0.00069,   0.00031,461677692.55422,   0.00102,275747287.61466,  -0.00089,  -0.00042,   0.00022,-14069595.06044,   0.00000
-531855751.72952,-283901551.80764,6993108.17845,  -0.00276,  -0.00068,   0.00031,461110257.09554,   0.00102,275747287.61466,  -0.00089,  -0.00042,   0.00022,-14637030.51912,   0.00000
-531266366.25177,-282112715.18220,6935203.64028,  -0.00276,  -0.00067,   0.00031,460541887.40891,   0.00102,275747287.61466,  -0.00089,  -0.00042,   0.00022,-15205400.20575,   0.00000
-530656300.58182,-280303198.36455,6873163.06368,  -0.00276,  -0.00067,   0.00031,459959840.84123,   0.00102,275747287.61466,  -0.00089,  -0.00042,   0.00022,-15787446.77343,   0.00000
-530025554.71967,-278473001.35470,6811122.48707,  -0.00276,  -0.00066,   0.00030,459364417.74534,   0.00102,275747287.61466,  -0.00089,  -0.00042,   0.00022,-16382869.86933,   0.00000
-529380332.72297,-276636600.28718,6749081.91047,  -0.00276,  -0.00065,   0.00030,458761397.79722,   0.00102,275747287.61466,  -0.00089,  -0.00042,   0.00022,-16985889.81744,   0.00000
-528722702.61096,-274771246.95059,6691177.37230,  -0.00276,  -0.00064,   0.00030,458152216.71777,   0.00102,275747287.61466,  -0.00089,  -0.00042,   0.00022,-17595070.89690,   0.00000
-528044392.30674,-272885213.42179,6633272.83414,  -0.00276,  -0.00064,   0.00030,457530014.51875,   0.00102,275747287.61466,  -0.00089,  -0.00042,   0.00022,-18217273.09592,   0.00000
-527351605.86799,-270992975.83534,6571232.25753,  -0.00277,  -0.00063,   0.00030,456900286.12168,   0.00102,275747287.61466,  -0.00089,  -0.00042,   0.00022,-18847001.49298,   0.00000
-526652615.37157,-269086262.11434,6513327.71937,  -0.00277,  -0.00062,   0.00030,456270402.66408,   0.00102,275747287.61466,  -0.00089,  -0.00042,   0.00022,-19476884.95058,   0.00000
-525926740.62529,-267144392.06660,6455423.18120,  -0.00277,  -0.00061,   0.00030,455622322.52909,   0.00102,275747287.61466,  -0.00089,  -0.00042,   0.00022,-20124965.08557,   0.00000
-525186389.74447,-265196317.96120,6397518.64304,  -0.00277,  -0.00061,   0.00030,454967162.51154,   0.00102,275747287.61466,  -0.00089,  -0.00042,   0.00022,-20780125.10312,   0.00000
-524425358.67144,-263227563.66360,6339614.10487,  -0.00277,  -0.00060,   0.00030,454299537.44688,   0.00102,275747287.61466,  -0.00089,  -0.00042,   0.00022,-21447750.16778,   0.00000
-523658123.54076,-261244333.23145,6281709.56671,  -0.00277,  -0.00059,   0.00030,453632113.38636,   0.00102,275747287.61466,  -0.00089,  -0.00042,   0.00022,-22115174.22830,   0.00000
-522870208.21788,-259240422.60711,6227941.06698,  -0.00277,  -0.00058,   0.00030,452952667.90036,   0.00102,275747287.61466,  -0.00089,  -0.00042,   0.00022,-22794619.71431,   0.00000
-522061612.70279,-257215831.79056,6170036.52882,  -0.00277,  -0.00058,   0.00030,452260995.08644,   0.00102,275747287.61466,  -0.00089,  -0.00042,   0.00022,-23486292.52822,   0.00000
-521232336.99550,-255170560.78181,6112131.99065,  -0.00277,  -0.00057,   0.00030,451557406.05504,   0.00102,275747287.61466,  -0.00089,  -0.00042,   0.00022,-24189881.55963,   0.00000
-520396857.23055,-253110813.63852,6058363.49093,  -0.00277,  -0.00056,   0.00029,450854757.49092,   0.00102,275747287.61466,  -0.00089,  -0.00042,   0.00022,-24892530.12374,   0.00000
-519546901.33106,-251044862.43757,6004594.99121,  -0.00277,  -0.00055,   0.00029,450145632.82066,   0.00102,275747287.61466,  -0.00089,  -0.00042,   0.00022,-25601654.79401,   0.00000
-518670061.18171,-248943754.90988,5946690.45304,  -0.00277,  -0.00055,   0.00029,449419672.76365,   0.00102,275747287.61466,  -0.00089,  -0.00042,   0.00022,-26327614.85101,   0.00000
-517793221.03236,-246842647.38219,5892921.95332,  -0.00277,  -0.00054,   0.00029,448700169.85174,   0.00102,275747287.61466,  -0.00089,  -0.00042,   0.00022,-27047117.76293,   0.00000
-516889496.63314,-244706383.52775,5839153.45359,  -0.00277,  -0.00053,   0.00029,447964388.76710,   0.00102,275747287.61466,  -0.00089,  -0.00042,   0.00022,-27782898.84756,   0.00000
-515971296.09939,-242563915.61565,5785384.95387,  -0.00277,  -0.00052,   0.00029,447222568.37879,   0.00102,275747287.61466,  -0.00089,  -0.00042,   0.00022,-28524719.23587,   0.00000
-515032415.37343,-240400767.51135,5735752.49258,  -0.00277,  -0.00051,   0.00029,446469961.50515,   0.00102,275747287.61466,  -0.00089,  -0.00042,   0.00022,-29277326.10952,   0.00000
-514087330.58981,-238223143.27251,5681983.99286,  -0.00277,  -0.00051,   0.00029,445718974.78142,   0.00102,275747287.61466,  -0.00089,  -0.00042,   0.00022,-30028312.83324,   0.00000
-513107089.47945,-236018634.78381,5628215.49313,  -0.00277,  -0.00050,   0.00029,444944802.09501,   0.00102,275747287.61466,  -0.00089,  -0.00042,   0.00022,-30802485.51966,   0.00000
-512120644.31143,-233799650.16057,5578583.03185,  -0.00277,  -0.00049,   0.00029,444172899.92870,   0.00102,275747287.61466,  -0.00089,  -0.00042,   0.00022,-31574387.68596,   0.00000
-511134199.14341,-231580665.53733,5524814.53213,  -0.00277,  -0.00048,   0.00029,443407878.70200,   0.00102,275747287.61466,  -0.00089,  -0.00042,   0.00022,-32339408.91266,   0.00000
-510106393.59098,-229320320.52968,5475182.07084,  -0.00277,  -0.00047,   0.00029,442615536.74022,   0.00102,275747287.61466,  -0.00089,  -0.00042,   0.00022,-33131750.87444,   0.00000
-509078588.03856,-227059975.52203,5425549.60956,  -0.00277,  -0.00046,   0.00029,441830487.07651,   0.00102,275747287.61466,  -0.00089,  -0.00042,   0.00022,-33916800.53815,   0.00000
-508023898.23627,-224764474.18764,5375917.14827,  -0.00277,  -0.00046,   0.00029,441030982.05200,   0.00102,275747287.61466,  -0.00089,  -0.00042,   0.00022,-34716305.56267,   0.00000
-506969208.43398,-222468972.85326,5326284.68699,  -0.00277,  -0.00045,   0.00028,440239038.52308,   0.00102,275747287.61466,  -0.00089,  -0.00042,   0.00022,-35508249.09158,   0.00000
-505879362.30495,-220146587.26900,5276652.22571,  -0.00277,  -0.00044,   0.00028,439425036.93706,   0.00102,275747287.61466,  -0.00089,  -0.00042,   0.00022,-36322250.67761,   0.00000
-504783312.11826,-217809725.55021,5227019.76442,  -0.00277,  -0.00043,   0.00028,438614317.21889,   0.00102,275747287.61466,  -0.00089,  -0.00042,   0.00022,-37132970.39578,   0.00000
-503666581.73937,-215452183.63922,5177387.30314,  -0.00277,  -0.00042,   0.00028,437794495.34221,   0.00102,275747287.61466,  -0.00089,  -0.00042,   0.00022,-37952792.27245,   0.00000
-502549851.36048,-213094641.72822,5127754.84185,  -0.00277,  -0.00041,   0.00028,436982700.47983,   0.00102,275747287.61466,  -0.00089,  -0.00042,   0.00022,-38764587.13484,   0.00000
-501406236.73172,-210701943.49048,5082258.41901,  -0.00276,  -0.00041,   0.00028,436157933.22881,   0.00102,275747287.61466,  -0.00089,  -0.00042,   0.00022,-39589354.38585,   0.00000
-500233669.83389,-208296837.13743,5032625.95772,  -0.00276,  -0.00040,   0.00028,435316192.56924,   0.00102,275747287.61466,  -0.00089,  -0.00042,   0.00022,-40431095.04542,   0.00000
-499063170.95527,-205868982.57295,4987129.53488,  -0.00276,  -0.00039,   0.00028,434487138.73756,   0.00102,275747287.61466,  -0.00089,  -0.00042,   0.00022,-41260148.87710,   0.00000
-497863719.80757,-203428719.89314,4937497.07360,  -0.00276,  -0.00038,   0.00028,433641424.46076,   0.00102,275747287.61466,  -0.00089,  -0.00042,   0.00022,-42105863.15390,   0.00000
-496658064.60221,-200973981.07880,4892000.65075,  -0.00276,  -0.00037,   0.00028,432800439.85442,   0.00102,275747287.61466,  -0.00089,  -0.00042,   0.00022,-42946847.76024,   0.00000
-495431729.20465,-198498562.07226,4846504.22791,  -0.00276,  -0.00036,   0.00028,431951684.10953,   0.00102,275747287.61466,  -0.00089,  -0.00042,   0.00022,-43795603.50513,   0.00000
-494190917.67255,-196016939.00805,4801007.80507,  -0.00276,  -0.00035,   0.00028,431099363.89213,   0.00102,275747287.61466,  -0.00089,  -0.00042,   0.00022,-44647923.72253,   0.00000
-492923221.89058,-193500159.61710,4755511.38222,  -0.00276,  -0.00034,   0.00028,430235676.11433,   0.00102,275747287.61466,  -0.00089,  -0.00042,   0.00022,-45511611.50033,   0.00000
-491649322.05096,-190968904.09162,4710014.95938,  -0.00276,  -0.00033,   0.00028,429377454.80686,   0.00102,275747287.61466,  -0.00089,  -0.00042,   0.00022,-46369832.80780,   0.00000
-490360946.07679,-188431444.50847,4664518.53653,  -0.00276,  -0.00033,   0.00028,428516182.32760,   0.00102,275747287.61466,  -0.00089,  -0.00042,   0.00022,-47231105.28706,   0.00000
-489051889.91043,-185873304.73312,4623158.15213,  -0.00276,  -0.00032,   0.00028,427648297.37489,   0.00102,275747287.61466,  -0.00089,  -0.00042,   0.00022,-48098990.23977,   0.00000
-487736629.68640,-183300688.82322,4577661.72929,  -0.00276,  -0.00031,   0.00028,426786325.03374,   0.00102,275747287.61466,  -0.00089,  -0.00042,   0.00022,-48960962.58092,   0.00000
-486386213.13563,-180701188.66347,4532165.30644,  -0.00276,  -0.00030,   0.00027,425905532.50312,   0.00102,275747287.61466,  -0.00089,  -0.00042,   0.00022,-49841755.11154,   0.00000
-485029592.52719,-178087212.36917,4490804.92204,  -0.00275,  -0.00029,   0.00027,425031404.45541,   0.00102,275747287.61466,  -0.00089,  -0.00042,   0.00022,-50715883.15925,   0.00000
-483658495.78422,-175467032.01722,4449444.53764,  -0.00275,  -0.00028,   0.00027,424155032.71103,   0.00102,275747287.61466,  -0.00089,  -0.00042,   0.00022,-51592254.90363,   0.00000
-482281194.98359,-172832375.53072,4403948.11479,  -0.00275,  -0.00027,   0.00027,423285436.48533,   0.00102,275747287.61466,  -0.00089,  -0.00042,   0.00022,-52461851.12933,   0.00000
-480862533.79855,-170156358.65982,4362587.73039,  -0.00275,  -0.00026,   0.00027,422394651.42394,   0.00102,275747287.61466,  -0.00089,  -0.00042,   0.00022,-53352636.19072,   0.00000
-479443872.61351,-167480341.78892,4321227.34599,  -0.00275,  -0.00025,   0.00027,421514753.28366,   0.00102,275747287.61466,  -0.00089,  -0.00042,   0.00022,-54232534.33100,   0.00000
-478019007.37082,-164789848.78348,4279866.96158,  -0.00275,  -0.00024,   0.00027,420642529.36814,   0.00102,275747287.61466,  -0.00089,  -0.00042,   0.00022,-55104758.24653,   0.00000
-476565189.85904,-162086947.66271,4238506.57718,  -0.00275,  -0.00023,   0.00027,419756425.34148,   0.00102,275747287.61466,  -0.00089,  -0.00042,   0.00022,-55990862.27318,   0.00000
-475098964.23193,-159355094.27287,4197146.19278,  -0.00275,  -0.00022,   0.00027,418875255.60642,   0.00102,275747287.61466,  -0.00089,  -0.00042,   0.00022,-56872032.00825,   0.00000
-473618262.47029,-156617036.82536,4155785.80837,  -0.00274,  -0.00021,   0.00027,417993154.94625,   0.00102,275747287.61466,  -0.00089,  -0.00042,   0.00022,-57754132.66842,   0.00000
-472116880.51645,-153858299.18565,4118561.46241,  -0.00274,  -0.00020,   0.00027,417107315.31507,   0.00102,275747287.61466,  -0.00089,  -0.00042,   0.00022,-58639972.29959,   0.00000
-470594818.37040,-151078881.35374,4077201.07801,  -0.00274,  -0.00019,   0.00027,416217783.67075,   0.00102,275747287.61466,  -0.00089,  -0.00042,   0.00022,-59529503.94391,   0.00000
-469066552.16670,-148284987.38729,4035840.69360,  -0.00274,  -0.00018,   0.00027,415337458.10422,   0.00102,275747287.61466,  -0.00089,  -0.00042,   0.00022,-60409829.51044,   0.00000
-467523809.82845,-145484889.36318,3998616.34764,  -0.00274,  -0.00017,   0.00027,414457094.08824,   0.00102,275747287.61466,  -0.00089,  -0.00042,   0.00022,-61290193.52642,   0.00000
-465954183.24034,-142649635.01233,3957255.96324,  -0.00274,  -0.00016,   0.00027,413571039.48523,   0.00102,275747287.61466,  -0.00089,  -0.00042,   0.00022,-62176248.12943,   0.00000
-464370080.51769,-139808176.60381,3920031.61727,  -0.00273,  -0.00016,   0.00027,412685429.40403,   0.00102,275747287.61466,  -0.00089,  -0.00042,   0.00022,-63061858.21064,   0.00000
-462779773.73738,-136952242.06076,3882807.27131,  -0.00273,  -0.00015,   0.00027,411810073.41868,   0.00102,275747287.61466,  -0.00089,  -0.00042,   0.00022,-63937214.19598,   0.00000
-461154310.63032,-134069423.26784,3841446.88691,  -0.00273,  -0.00014,   0.00027,410920291.71990,   0.00102,275747287.61466,  -0.00089,  -0.00042,   0.00022,-64826995.89476,   0.00000
-459543323.65781,-131192808.53258,3804222.54094,  -0.00273,  -0.00013,   0.00027,410056406.34368,   0.00102,275747287.61466,  -0.00089,  -0.00042,   0.00022,-65690881.27098,   0.00000
-457890976.30089,-128274833.41292,3766998.19498,  -0.00273,  -0.00012,   0.00026,409176320.41068,   0.00102,275747287.61466,  -0.00089,  -0.00042,   0.00022,-66570967.20398,   0.00000
-456224152.80944,-125350654.23560,3729773.84902,  -0.00273,  -0.00011,   0.00026,408297687.63750,   0.00102,275747287.61466,  -0.00089,  -0.00042,   0.00022,-67449599.97716,   0.00000
-454551125.26032,-122411998.92374,3692549.50305,  -0.00272,  -0.00010,   0.00026,407430749.77875,   0.00102,275747287.61466,  -0.00089,  -0.00042,   0.00022,-68316537.83591,   0.00000
-452863621.57666,-119467139.55422,3655325.15709,  -0.00272,  -0.00008,   0.00026,406565640.34468,   0.00102,275747287.61466,  -0.00089,  -0.00042,   0.00022,-69181647.26998,   0.00000
-451163709.77768,-116493327.91561,3618100.81113,  -0.00272,  -0.00007,   0.00026,405710609.23138,   0.00102,275747287.61466,  -0.00089,  -0.00042,   0.00022,-70036678.38328,   0.00000
-449434845.70962,-113507108.16168,3585012.50361,  -0.00272,  -0.00006,   0.00026,404845713.13232,   0.00102,275747287.61466,  -0.00089,  -0.00042,   0.00022,-70901574.48234,   0.00000
-447699777.58389,-110506412.27322,3547788.15764,  -0.00272,  -0.00005,   0.00026,403993591.79112,   0.00102,275747287.61466,  -0.00089,  -0.00042,   0.00022,-71753695.82355,   0.00000
-445944029.26597,-107485036.19255,3510563.81168,  -0.00271,  -0.00004,   0.00026,403142372.23666,   0.00102,275747287.61466,  -0.00089,  -0.00042,   0.00022,-72604915.37800,   0.00000
-444173804.81350,-104457456.05422,3477475.50416,  -0.00271,  -0.00003,   0.00026,402294347.23685,   0.00102,275747287.61466,  -0.00089,  -0.00042,   0.00022,-73452940.37781,   0.00000
-442376696.11117,-101394719.58915,3440251.15819,  -0.00271,  -0.00002,   0.00026,401445980.61499,   0.00102,275747287.61466,  -0.00089,  -0.00042,   0.00022,-74301306.99967,   0.00000
-440579587.40885,-98331983.12407,3407162.85067,  -0.00271,  -0.00001,   0.00026,400613671.09553,   0.00102,275747287.61466,  -0.00089,  -0.00042,   0.00022,-75133616.51913,   0.00000
-438761798.51432,-95248566.46680,3369938.50471,  -0.00270,  -0.00000,   0.00026,399783494.37813,   0.00102,275747287.61466,  -0.00089,  -0.00042,   0.00022,-75963793.23653,   0.00000
-436929533.48524,-92158945.75186,3336850.19718,  -0.00270,   0.00001,   0.00026,398957550.43311,   0.00102,275747287.61466,  -0.00089,  -0.00042,   0.00022,-76789737.18155,   0.00000
-435084860.34085,-89040372.76785,3299625.85122,  -0.00270,   0.00002,   0.00026,398145159.61184,   0.00102,275747287.61466,  -0.00089,  -0.00042,   0.00022,-77602128.00283,   0.00000
-433211234.92738,-85909391.66851,3266537.54370,  -0.00270,   0.00003,   0.00026,397325426.81051,   0.00102,275747287.61466,  -0.00089,  -0.00042,   0.00022,-78421860.80415,   0.00000
-431337609.51390,-82778410.56917,3233449.23618,  -0.00270,   0.00004,   0.00026,396522789.36418,   0.00102,275747287.61466,  -0.00089,  -0.00042,   0.00022,-79224498.25048,   0.00000
-429437099.85057,-79612273.14309,3200360.92865,  -0.00269,   0.00005,   0.00026,395722882.83876,   0.00102,275747287.61466,  -0.00089,  -0.00042,   0.00022,-80024404.77590,   0.00000
-427536590.18723,-76446135.71701,3167272.62113,  -0.00269,   0.00006,   0.00026,394940656.63732,   0.00102,275747287.61466,  -0.00089,  -0.00042,   0.00022,-80806630.97734,   0.00000
-425600924.19715,-73253114.04106,3134184.31361,  -0.00269,   0.00007,   0.00026,394151039.18666,   0.00102,275747287.61466,  -0.00089,  -0.00042,   0.00022,-81596248.42801,   0.00000
-423659054.14941,-70045616.23058,3101096.00609,  -0.00269,   0.00008,   0.00026,393378664.12104,   0.00102,275747287.61466,  -0.00089,  -0.00042,   0.00022,-82368623.49362,   0.00000
-421702707.96713,-66831914.36243,3068007.69856,  -0.00268,   0.00009,   0.00026,392612681.19179,   0.00102,275747287.61466,  -0.00089,  -0.00042,   0.00022,-83134606.42287,   0.00000
-419725681.59265,-63597532.30209,3034919.39104,  -0.00268,   0.00010,   0.00026,391852534.14691,   0.00102,275747287.61466,  -0.00089,  -0.00042,   0.00022,-83894753.46776,   0.00000
-417742451.16050,-60348674.10720,3001831.08352,  -0.00268,   0.00012,   0.00025,391110659.39426,   0.00102,275747287.61466,  -0.00089,  -0.00042,   0.00022,-84636628.22040,   0.00000
-415738540.53616,-57079135.72011,2968742.77599,  -0.00267,   0.00013,   0.00025,390375467.39435,   0.00102,275747287.61466,  -0.00089,  -0.00042,   0.00022,-85371820.22031,   0.00000
-413720153.77727,-53803393.27536,2935654.46847,  -0.00267,   0.00014,   0.00025,389647888.26745,   0.00102,275747287.61466,  -0.00089,  -0.00042,   0.00022,-86099399.34721,   0.00000
-411681086.82618,-50506970.63841,2902566.16095,  -0.00267,   0.00015,   0.00025,388927732.92695,   0.00102,275747287.61466,  -0.00089,  -0.00042,   0.00022,-86819554.68772,   0.00000
-409621339.68289,-47189867.80925,2873613.89187,  -0.00267,   0.00016,   0.00025,388215560.79886,   0.00102,275747287.61466,  -0.00089,  -0.00042,   0.00022,-87531726.81580,   0.00000
-407561592.53960,-43872764.98010,2840525.58434,  -0.00266,   0.00017,   0.00025,387523706.38813,   0.00102,275747287.61466,  -0.00089,  -0.00042,   0.00022,-88223581.22653,   0.00000
-405481165.20411,-40534981.95874,2807437.27682,  -0.00266,   0.00018,   0.00025,386840449.66072,   0.00102,275747287.61466,  -0.00089,  -0.00042,   0.00022,-88906837.95394,   0.00000
-403380057.67642,-37176518.74519,2778485.00774,  -0.00266,   0.00019,   0.00025,386166360.70250,   0.00102,275747287.61466,  -0.00089,  -0.00042,   0.00022,-89580926.91216,   0.00000
-401278950.14872,-33818055.53163,2745396.70022,  -0.00265,   0.00020,   0.00025,385513416.75968,   0.00102,275747287.61466,  -0.00089,  -0.00042,   0.00022,-90233870.85498,   0.00000
-399136482.23663,-30418231.93367,2712308.39269,  -0.00265,   0.00022,   0.00025,384858732.58481,   0.00102,275747287.61466,  -0.00089,  -0.00042,   0.00022,-90888555.02985,   0.00000
-397000218.38219,-27032884.47025,2683356.12361,  -0.00265,   0.00023,   0.00025,384225832.55210,   0.00102,275747287.61466,  -0.00089,  -0.00042,   0.00022,-91521455.06256,   0.00000
-394837070.27789,-23612380.68009,2650267.81609,  -0.00264,   0.00024,   0.00025,383603812.72283,   0.00102,275747287.61466,  -0.00089,  -0.00042,   0.00022,-92143474.89184,   0.00000
-392673922.17359,-20191876.88993,2621315.54701,  -0.00264,   0.00025,   0.00025,383004323.00264,   0.00102,275747287.61466,  -0.00089,  -0.00042,   0.00022,-92742964.61202,   0.00000
-390475617.74255,-16744488.84990,2588227.23948,  -0.00264,   0.00026,   0.00025,382404717.66383,   0.00102,275747287.61466,  -0.00089,  -0.00042,   0.00022,-93342569.95083,   0.00000
-388277313.31151,-13297100.80988,2559274.97040,  -0.00264,   0.00027,   0.00025,381828196.98155,   0.00102,275747287.61466,  -0.00089,  -0.00042,   0.00022,-93919090.63311,   0.00000
-386058328.68827,-9829032.57765,2530322.70132,  -0.00263,   0.00028,   0.00025,381264043.33527,   0.00102,275747287.61466,  -0.00089,  -0.00042,   0.00022,-94483244.27939,   0.00000
-383818663.87282,-6340284.15322,2497234.39380,  -0.00263,   0.00030,   0.00025,380712693.62454,   0.00102,275747287.61466,  -0.00089,  -0.00042,   0.00022,-95034593.99012,   0.00000
-381578999.05738,-2851535.72879,2468282.12471,  -0.00262,   0.00031,   0.00025,380185290.19205,   0.00102,275747287.61466,  -0.00089,  -0.00042,   0.00022,-95561997.42261,   0.00000
-379318654.04973,657892.88784,2435193.81719,  -0.00262,   0.00032,   0.00025,379671457.55858,   0.00102,275747287.61466,  -0.00089,  -0.00042,   0.00022,-96075830.05608,   0.00000
-377037628.84988,4188001.69667,2406241.54811,  -0.00262,   0.00033,   0.00025,379171883.38727,   0.00102,275747287.61466,  -0.00089,  -0.00042,   0.00022,-96575404.22739,   0.00000
-374742127.51549,7724314.56316,2377289.27903,  -0.00261,   0.00034,   0.00025,378685763.86795,   0.00102,275747287.61466,  -0.00089,  -0.00042,   0.00022,-97061523.74671,   0.00000
-372425945.98890,11281307.62185,2348337.00994,  -0.00261,   0.00035,   0.00025,378214686.21748,   0.00102,275747287.61466,  -0.00089,  -0.00042,   0.00022,-97532601.39718,   0.00000
-370109764.46231,14838300.68055,2315248.70242,  -0.00261,   0.00036,   0.00025,377768836.74675,   0.00102,275747287.61466,  -0.00089,  -0.00042,   0.00022,-97978450.86791,   0.00000
-367772902.74352,18415973.93144,2286296.43334,  -0.00260,   0.00038,   0.00025,377338884.46858,   0.00102,275747287.61466,  -0.00089,  -0.00042,   0.00022,-98408403.14608,   0.00000
-365415360.83252,22014327.37454,2257344.16426,  -0.00260,   0.00039,   0.00025,376925293.30253,   0.00102,275747287.61466,  -0.00089,  -0.00042,   0.00022,-98821994.31213,   0.00000
-363057818.92153,25612680.81763,2228391.89517,  -0.00260,   0.00040,   0.00024,376537873.95749,   0.00102,275747287.61466,  -0.00089,  -0.00042,   0.00022,-99209413.65718,   0.00000
-360665120.68379,29237918.51059,2195303.58765,  -0.00259,   0.00041,   0.00024,376156537.41279,   0.00102,275747287.61466,  -0.00089,  -0.00042,   0.00022,-99590750.20187,   0.00000
-358266218.38839,32877632.33809,2166351.31857,  -0.00259,   0.00042,   0.00024,375803999.69654,   0.00102,275747287.61466,  -0.00089,  -0.00042,   0.00022,-99943287.91812,   0.00000
-355852839.95846,36523550.22325,2137399.04949,  -0.00258,   0.00044,   0.00024,375467612.35000,   0.00102,275747287.61466,  -0.00089,  -0.00042,   0.00022,-100279675.26466,   0.00000
-353433257.47086,40183944.24296,2108446.78040,  -0.00258,   0.00045,   0.00024,375160626.68765,   0.00102,275747287.61466,  -0.00089,  -0.00042,   0.00022,-100586660.92701,   0.00000
-350984722.71417,43856746.37798,2079494.51132,  -0.00258,   0.00046,   0.00024,374859587.89992,   0.00102,275747287.61466,  -0.00089,  -0.00042,   0.00022,-100887699.71474,   0.00000
-348529983.89983,47544024.64754,2050542.24224,  -0.00257,   0.00047,   0.00024,374588729.50518,   0.00102,275747287.61466,  -0.00089,  -0.00042,   0.00022,-101158558.10948,   0.00000
-346060768.95095,51237506.97477,2017453.93472,  -0.00257,   0.00048,   0.00024,374335196.51759,   0.00102,275747287.61466,  -0.00089,  -0.00042,   0.00022,-101412091.09707,   0.00000
-343570873.80986,54951669.49420,1988501.66563,  -0.00256,   0.00050,   0.00024,374101973.84233,   0.00102,275747287.61466,  -0.00089,  -0.00042,   0.00022,-101645313.77233,   0.00000
-341074774.61112,58680308.14816,1959549.39655,  -0.00256,   0.00051,   0.00024,373900084.00326,   0.00102,275747287.61466,  -0.00089,  -0.00042,   0.00022,-101847203.61140,   0.00000
-338564199.27783,62415150.85979,1930597.12747,  -0.00256,   0.00052,   0.00024,373716584.16365,   0.00102,275747287.61466,  -0.00089,  -0.00042,   0.00022,-102030703.45102,   0.00000
-336039147.81000,66156197.62908,1901644.85839,  -0.00255,   0.00053,   0.00024,373551699.74013,   0.00102,275747287.61466,  -0.00089,  -0.00042,   0.00022,-102195587.87454,   0.00000
-333493416.14997,69917924.59057,1872692.58930,  -0.00255,   0.00054,   0.00024,373408708.05172,   0.00102,275747287.61466,  -0.00089,  -0.00042,   0.00022,-102338579.56294,   0.00000
-330941480.43228,73694127.68660,1839604.28178,  -0.00254,   0.00056,   0.00024,373298384.77243,   0.00102,275747287.61466,  -0.00089,  -0.00042,   0.00022,-102448902.84223,   0.00000
-328360592.44551,77482738.89795,1810652.01270,  -0.00254,   0.00057,   0.00024,373197490.51844,   0.00102,275747287.61466,  -0.00089,  -0.00042,   0.00022,-102549797.09622,   0.00000
-325773500.40107,81285826.24385,1781699.74362,  -0.00254,   0.00058,   0.00024,373130071.98843,   0.00102,275747287.61466,  -0.00089,  -0.00042,   0.00022,-102617215.62623,   0.00000
-323180204.29898,85103389.72428,1752747.47453,  -0.00253,   0.00059,   0.00024,373096473.63926,   0.00102,275747287.61466,  -0.00089,  -0.00042,   0.00022,-102650813.97540,   0.00000
-320564159.98546,88918885.18550,1723795.20545,  -0.00253,   0.00061,   0.00024,373069793.67925,   0.00102,275747287.61466,  -0.00089,  -0.00042,   0.00022,-102677493.93541,   0.00000
-317935707.55663,92763332.91579,1694842.93637,  -0.00252,   0.00062,   0.00024,373081148.59479,   0.00102,275747287.61466,  -0.00089,  -0.00042,   0.00022,-102666139.01987,   0.00000
-315298983.05091,96599508.56921,1661754.62885,  -0.00252,   0.00063,   0.00024,373109802.69779,   0.00102,275747287.61466,  -0.00089,  -0.00042,   0.00022,-102637484.91688,   0.00000
-312635374.29533,100470840.54937,1632802.35976,  -0.00251,   0.00064,   0.00024,373167528.10639,   0.00102,275747287.61466,  -0.00089,  -0.00042,   0.00022,-102579759.50827,   0.00000
-309957289.40521,104348376.58719,1603850.09068,  -0.00251,   0.00065,   0.00024,373247052.12225,   0.00102,275747287.61466,  -0.00089,  -0.00042,   0.00022,-102500235.49242,   0.00000
-307279204.51509,108225912.62501,1574897.82160,  -0.00250,   0.00067,   0.00024,373358234.05909,   0.00102,275747287.61466,  -0.00089,  -0.00042,   0.00022,-102389053.55558,   0.00000
-304580439.43276,112124128.85503,1545945.55252,  -0.00250,   0.00068,   0.00024,373495717.02657,   0.00102,275747287.61466,  -0.00089,  -0.00042,   0.00022,-102251570.58809,   0.00000
-301867198.21590,116028549.14271,1512857.24499,  -0.00249,   0.00069,   0.00024,373655601.89669,   0.00102,275747287.61466,  -0.00089,  -0.00042,   0.00022,-102091685.71797,   0.00000
-299147752.94138,119947445.56494,1483904.97591,  -0.00249,   0.00070,   0.00023,373852086.42078,   0.00102,275747287.61466,  -0.00089,  -0.00042,   0.00022,-101895201.19388,   0.00000
-296413831.53231,123872546.04482,1454952.70683,  -0.00248,   0.00072,   0.00023,374071455.53255,   0.00102,275747287.61466,  -0.00089,  -0.00042,   0.00022,-101675832.08212,   0.00000
-293659229.93104,127818326.71691,1426000.43775,  -0.00248,   0.00073,   0.00023,374318580.61671,   0.00102,275747287.61466,  -0.00089,  -0.00042,   0.00022,-101428706.99795,   0.00000
-290890152.19524,131770311.44665,1392912.13022,  -0.00247,   0.00074,   0.00023,374589111.14320,   0.00102,275747287.61466,  -0.00089,  -0.00042,   0.00022,-101158176.47146,   0.00000
-288106598.32489,135728500.23406,1363959.86114,  -0.00247,   0.00075,   0.00023,374883309.08672,   0.00102,275747287.61466,  -0.00089,  -0.00042,   0.00022,-100863978.52795,   0.00000
-285316840.39688,139701165.15601,1335007.59206,  -0.00246,   0.00077,   0.00023,375215347.15132,   0.00102,275747287.61466,  -0.00089,  -0.00042,   0.00022,-100531940.46334,   0.00000
-282506402.27666,143694510.27016,1301919.28454,  -0.00246,   0.00078,   0.00023,375576468.53056,   0.00102,275747287.61466,  -0.00089,  -0.00042,   0.00022,-100170819.08411,   0.00000
-279681488.02191,147694059.44197,1272967.01545,  -0.00245,   0.00079,   0.00023,375962000.19203,   0.00102,275747287.61466,  -0.00089,  -0.00042,   0.00022,-99785287.42263,   0.00000
-276856573.76716,151693608.61378,1244014.74637,  -0.00245,   0.00081,   0.00023,376380829.47145,   0.00102,275747287.61466,  -0.00089,  -0.00042,   0.00022,-99366458.14322,   0.00000
-273996503.18566,155720042.03545,1210926.43885,  -0.00244,   0.00082,   0.00023,376820860.98258,   0.00102,275747287.61466,  -0.00089,  -0.00042,   0.00022,-98926426.63208,   0.00000
-271136432.60417,159746475.45712,1181974.16977,  -0.00244,   0.00083,   0.00023,377294556.24437,   0.00102,275747287.61466,  -0.00089,  -0.00042,   0.00022,-98452731.37030,   0.00000
-268270157.96501,163787385.01334,1148885.86224,  -0.00243,   0.00084,   0.00023,377807375.00802,   0.00102,275747287.61466,  -0.00089,  -0.00042,   0.00022,-97939912.60664,   0.00000
-265374931.05677,167840702.68487,1119933.59316,  -0.00243,   0.00086,   0.00023,378336930.74879,   0.00102,275747287.61466,  -0.00089,  -0.00042,   0.00022,-97410356.86587,   0.00000
-262479704.14853,171894020.35640,1086845.28564,  -0.00242,   0.00087,   0.00023,378900230.44367,   0.00102,275747287.61466,  -0.00089,  -0.00042,   0.00022,-96847057.17100,   0.00000
-259563797.04809,175968018.22014,1057893.01656,  -0.00242,   0.00088,   0.00023,379494917.69390,   0.00102,275747287.61466,  -0.00089,  -0.00042,   0.00022,-96252369.92077,   0.00000
-256633413.81311,180048220.14154,1024804.70903,  -0.00241,   0.00090,   0.00023,380115259.78508,   0.00102,275747287.61466,  -0.00089,  -0.00042,   0.00022,-95632027.82958,   0.00000
-253696826.52047,184142898.19747,995852.43995,  -0.00241,   0.00091,   0.00023,380775696.18917,   0.00102,275747287.61466,  -0.00089,  -0.00042,   0.00022,-94971591.42549,   0.00000
-250751967.15094,188229304.17653,962764.13243,  -0.00240,   0.00092,   0.00023,381455723.54192,   0.00102,275747287.61466,  -0.00089,  -0.00042,   0.00022,-94291564.07274,   0.00000
-247780223.53156,192350866.48233,929675.82491,  -0.00240,   0.00093,   0.00023,382174343.19267,   0.00102,275747287.61466,  -0.00089,  -0.00042,   0.00022,-93572944.42199,   0.00000
-244800207.83529,196464156.71125,900723.55582,  -0.00239,   0.00095,   0.00023,382912792.85542,   0.00102,275747287.61466,  -0.00089,  -0.00042,   0.00022,-92834494.75924,   0.00000
-241813988.08137,200591923.07471,867635.24830,  -0.00239,   0.00096,   0.00023,383691693.55487,   0.00102,275747287.61466,  -0.00089,  -0.00042,   0.00022,-92055594.05979,   0.00000
-238807088.13524,204740369.63037,834546.94078,  -0.00238,   0.00097,   0.00023,384503556.81185,   0.00102,275747287.61466,  -0.00089,  -0.00042,   0.00022,-91243730.80281,   0.00000
-235791916.11223,208880544.10916,801458.63326,  -0.00237,   0.00099,   0.00023,385335153.02020,   0.00102,275747287.61466,  -0.00089,  -0.00042,   0.00022,-90412134.59446,   0.00000
-232756063.89702,213041398.78014,772506.36417,  -0.00237,   0.00100,   0.00023,386200065.51069,   0.00102,275747287.61466,  -0.00089,  -0.00042,   0.00022,-89547222.10397,   0.00000
-229714007.62415,217216729.58566,739418.05665,  -0.00236,   0.00101,   0.00023,387105926.85202,   0.00102,275747287.61466,  -0.00089,  -0.00042,   0.00022,-88641360.76264,   0.00000
-226663679.27440,221383788.31431,706329.74913,  -0.00236,   0.00102,   0.00022,388031398.11975,   0.00102,275747287.61466,  -0.00089,  -0.00042,   0.00022,-87715889.49491,   0.00000
-223592670.73244,225571527.23515,673241.44161,  -0.00235,   0.00104,   0.00022,388990612.07475,   0.00102,275747287.61466,  -0.00089,  -0.00042,   0.00022,-86756675.53992,   0.00000
-220515458.13283,229773742.29054,640153.13408,  -0.00235,   0.00105,   0.00022,389990937.53308,   0.00102,275747287.61466,  -0.00089,  -0.00042,   0.00022,-85756350.08158,   0.00000
-217429973.45633,233967685.26905,607064.82656,  -0.00234,   0.00106,   0.00022,391010695.87439,   0.00102,275747287.61466,  -0.00089,  -0.00042,   0.00022,-84736591.74027,   0.00000
-214323808.58764,238182308.43975,573976.51904,  -0.00233,   0.00108,   0.00022,392064579.89895,   0.00102,275747287.61466,  -0.00089,  -0.00042,   0.00022,-83682707.71572,   0.00000
-211203167.58440,242403135.66812,540888.21151,  -0.00233,   0.00109,   0.00022,393145324.20607,   0.00102,275747287.61466,  -0.00089,  -0.00042,   0.00022,-82601963.40860,   0.00000
-208076322.52350,246638439.03103,507799.90399,  -0.00232,   0.00110,   0.00022,394267255.26134,   0.00102,275747287.61466,  -0.00089,  -0.00042,   0.00022,-81480032.35332,   0.00000
-204941205.38572,250865470.31706,474711.59647,  -0.00232,   0.00112,   0.00022,395408307.69230,   0.00102,275747287.61466,  -0.00089,  -0.00042,   0.00022,-80338979.92236,   0.00000
-201785408.05574,255113181.79529,441623.28895,  -0.00231,   0.00113,   0.00022,396583899.08352,   0.00102,275747287.61466,  -0.00089,  -0.00042,   0.00022,-79163388.53114,   0.00000
-198623406.66810,259375369.40806,404398.94298,  -0.00230,   0.00114,   0.00022,397800641.05674,   0.00102,275747287.61466,  -0.00089,  -0.00042,   0.00022,-77946646.55792,   0.00000
-195453133.20358,263629284.94395,371310.63546,  -0.00230,   0.00116,   0.00022,399036227.07774,   0.00102,275747287.61466,  -0.00089,  -0.00042,   0.00022,-76711060.53692,   0.00000
-192262179.54686,267903880.67205,338222.32794,  -0.00229,   0.00117,   0.00022,400306585.19858,   0.00102,275747287.61466,  -0.00089,  -0.00042,   0.00022,-75440702.41608,   0.00000
-189056749.75559,272184680.45780,300997.98197,  -0.00229,   0.00118,   0.00022,401603757.10896,   0.00102,275747287.61466,  -0.00089,  -0.00042,   0.00022,-74143530.50570,   0.00000
-185851319.96433,276465480.24355,267909.67445,  -0.00228,   0.00120,   0.00022,402933697.58981,   0.00102,275747287.61466,  -0.00089,  -0.00042,   0.00022,-72813590.02485,   0.00000
-182625209.98086,280766960.22151,234821.36693,  -0.00227,   0.00121,   0.00022,404298582.43870,   0.00102,275747287.61466,  -0.00089,  -0.00042,   0.00022,-71448705.17596,   0.00000
-179390827.92052,285060168.12258,197597.02097,  -0.00227,   0.00122,   0.00022,405681729.05925,   0.00102,275747287.61466,  -0.00089,  -0.00042,   0.00022,-70065558.55541,   0.00000
-176150241.80251,289367852.15820,164508.71344,  -0.00226,   0.00124,   0.00022,407105588.10537,   0.00102,275747287.61466,  -0.00089,  -0.00042,   0.00022,-68641699.50929,   0.00000
-172888975.49230,293696216.38601,127284.36748,  -0.00225,   0.00125,   0.00022,408564501.55038,   0.00102,275747287.61466,  -0.00089,  -0.00042,   0.00022,-67182786.06428,   0.00000
-169619437.10521,298016308.53695,94196.05996,  -0.00225,   0.00126,   0.00022,410041289.04146,   0.00102,275747287.61466,  -0.00089,  -0.00042,   0.00022,-65705998.57320,   0.00000
-166349898.71812,302336400.68789,56971.71399,  -0.00224,   0.00128,   0.00022,411549787.21291,   0.00102,275747287.61466,  -0.00089,  -0.00042,   0.00022,-64197500.40175,   0.00000
-163045204.00429,306683377.08869,23883.40647,  -0.00223,   0.00129,   0.00022,413087990.41454,   0.00102,275747287.61466,  -0.00089,  -0.00042,   0.00022,-62659297.20013,   0.00000
-159754985.42500,311024149.43182,-13340.93949,  -0.00223,   0.00130,   0.00022,414662918.39418,   0.00102,275747287.61466,  -0.00089,  -0.00042,   0.00022,-61084369.22049,   0.00000
-156435814.57662,315377329.89028,-50565.28545,  -0.00222,   0.00132,   0.00022,416258743.40596,   0.00102,275747287.61466,  -0.00089,  -0.00042,   0.00022,-59488544.20871,   0.00000
-153116643.72825,319730510.34874,-87789.63142,  -0.00221,   0.00133,   0.00021,417885620.23315,   0.00102,275747287.61466,  -0.00089,  -0.00042,   0.00022,-57861667.38151,   0.00000
-149776792.68767,324104370.99940,-120877.93894,  -0.00221,   0.00134,   0.00021,419547479.96800,   0.00102,275747287.61466,  -0.00089,  -0.00042,   0.00022,-56199807.64666,   0.00000
-146428669.57022,328469959.57318,-158102.28490,  -0.00220,   0.00136,   0.00021,421226024.57255,   0.00102,275747287.61466,  -0.00089,  -0.00042,   0.00022,-54521263.04211,   0.00000
-143074342.39510,332850024.28150,-195326.63087,  -0.00219,   0.00137,   0.00021,422944226.71758,   0.00102,275747287.61466,  -0.00089,  -0.00042,   0.00022,-52803060.89708,   0.00000
-139705539.08544,337236293.04749,-232550.97683,  -0.00219,   0.00138,   0.00021,424687997.66277,   0.00102,275747287.61466,  -0.00089,  -0.00042,   0.00022,-51059289.95190,   0.00000
-136336735.77578,341622561.81347,-269775.32279,  -0.00218,   0.00140,   0.00021,426461725.76584,   0.00102,275747287.61466,  -0.00089,  -0.00042,   0.00022,-49285561.84882,   0.00000
-132938980.19704,346021238.69477,-306999.66876,  -0.00217,   0.00141,   0.00021,428256305.76640,   0.00102,275747287.61466,  -0.00089,  -0.00042,   0.00022,-47490981.84826,   0.00000
-129541224.61830,350419915.57607,-344224.01472,  -0.00217,   0.00142,   0.00021,430080488.48191,   0.00102,275747287.61466,  -0.00089,  -0.00042,   0.00022,-45666799.13275,   0.00000
-126143469.03956,354818592.45738,-381448.36068,  -0.00216,   0.00144,   0.00021,431933898.84985,   0.00102,275747287.61466,  -0.00089,  -0.00042,   0.00022,-43813388.76481,   0.00000
-122710557.13408,359244153.58854,-418672.70664,  -0.00215,   0.00145,   0.00021,433817725.33429,   0.00102,275747287.61466,  -0.00089,  -0.00042,   0.00022,-41929562.28037,   0.00000
-119298325.42080,363649034.52751,-460033.09105,  -0.00215,   0.00146,   0.00021,435724760.04050,   0.00102,275747287.61466,  -0.00089,  -0.00042,   0.00022,-40022527.57416,   0.00000
-115850937.38077,368080799.71633,-497257.43701,  -0.00214,   0.00148,   0.00021,437662155.41865,   0.00102,275747287.61466,  -0.00089,  -0.00042,   0.00022,-38085132.19602,   0.00000
-112409753.39841,372498088.77062,-534481.78297,  -0.00213,   0.00149,   0.00021,439618077.55058,   0.00102,275747287.61466,  -0.00089,  -0.00042,   0.00022,-36129210.06408,   0.00000
-108947889.22384,376936058.01710,-571706.12894,  -0.00213,   0.00150,   0.00021,441608200.59960,   0.00102,275747287.61466,  -0.00089,  -0.00042,   0.00022,-34139087.01506,   0.00000
-105471548.91474,381380231.32125,-613066.51334,  -0.00212,   0.00152,   0.00021,443622609.59929,   0.00102,275747287.61466,  -0.00089,  -0.00042,   0.00022,-32124678.01537,   0.00000
-101995208.60563,385824404.62540,-650290.85930,  -0.00211,   0.00153,   0.00021,445664675.57185,   0.00102,275747287.61466,  -0.00089,  -0.00042,   0.00022,-30082612.04281,   0.00000
-98504392.16198,390274781.98720,-687515.20527,  -0.00210,   0.00154,   0.00021,447730632.11895,   0.00102,275747287.61466,  -0.00089,  -0.00042,   0.00022,-28016655.49572,   0.00000
-95013575.71833,394725159.34901,-728875.58967,  -0.00210,   0.00156,   0.00021,449823713.90190,   0.00102,275747287.61466,  -0.00089,  -0.00042,   0.00022,-25923573.71276,   0.00000
-91493807.00560,399187944.82614,-766099.93563,  -0.00209,   0.00157,   0.00021,451937072.52793,   0.00102,275747287.61466,  -0.00089,  -0.00042,   0.00022,-23810215.08673,   0.00000
-87988514.42741,403644526.24561,-807460.32004,  -0.00208,   0.00158,   0.00021,454080301.74937,   0.00102,275747287.61466,  -0.00089,  -0.00042,   0.00022,-21666985.86529,   0.00000
-84454269.58014,408113515.78039,-844684.66600,  -0.00207,   0.00160,   0.00020,456243613.40245,   0.00102,275747287.61466,  -0.00089,  -0.00042,   0.00022,-19503674.21221,   0.00000
-80920024.73287,412582505.31518,-886045.05040,  -0.00207,   0.00161,   0.00020,458433109.46840,   0.00102,275747287.61466,  -0.00089,  -0.00042,   0.00022,-17314178.14626,   0.00000
-77371303.75106,417057698.90763,-927405.43481,  -0.00206,   0.00162,   0.00020,460645548.12642,   0.00102,275747287.61466,  -0.00089,  -0.00042,   0.00022,-15101739.48824,   0.00000
-73822582.76925,421532892.50008,-964629.78077,  -0.00205,   0.00164,   0.00020,462883561.56230,   0.00102,275747287.61466,  -0.00089,  -0.00042,   0.00022,-12863726.05237,   0.00000
-70259385.65289,426014290.15019,-1005990.16517,  -0.00204,   0.00165,   0.00020,465144165.86520,   0.00102,275747287.61466,  -0.00089,  -0.00042,   0.00022,-10603121.74946,   0.00000
-66696188.53654,430495687.80030,-1047350.54958,  -0.00204,   0.00166,   0.00020,467429814.16163,   0.00102,275747287.61466,  -0.00089,  -0.00042,   0.00022,-8317473.45304,   0.00000
-63104039.15110,434989493.56573,-1088710.93398,  -0.00203,   0.00168,   0.00020,469735169.19275,   0.00102,275747287.61466,  -0.00089,  -0.00042,   0.00022,-6012118.42192,   0.00000
-59511889.76566,439483299.33116,-1125935.27994,  -0.00202,   0.00169,   0.00020,472065165.27795,   0.00102,275747287.61466,  -0.00089,  -0.00042,   0.00022,-3682122.33671,   0.00000
-55919740.38023,443977105.09659,-1167295.66435,  -0.00201,   0.00170,   0.00020,474419497.28422,   0.00102,275747287.61466,  -0.00089,  -0.00042,   0.00022,-1327790.33044,   0.00000
-53898938.23952,446498472.90519,-1190470.00082,  -0.00201,   0.00171,   0.00020,475747860.86922,   0.00102,275747287.61466,  -0.00089,  -0.00042,   0.00022,  -7.19312,   0.00000
-52121027.00056,447541822.58684,-1205935.11929,  -0.00201,   0.00172,   0.00020,475753073.21909,   0.00102,275753080.46416,  -0.00090,  -0.00042,   0.00022,  -7.24507,   1.00000
-48077742.81498,449897159.86365,-1240883.80025,  -0.00200,   0.00173,   0.00020,475766311.47076,   0.00103,275766316.46993,  -0.00090,  -0.00041,   0.00022,  -4.99916,   1.00000
-44047956.71478,452218834.30401,-1275578.69504,  -0.00199,   0.00175,   0.00020,475779669.10333,   0.00105,275779671.13865,  -0.00091,  -0.00040,   0.00022,  -2.03532,   1.00000
-40025889.98725,454510330.29257,-1310053.81689,  -0.00198,   0.00176,   0.00020,475793065.74739,   0.00106,275793071.61002,  -0.00092,  -0.00039,   0.00022,  -5.86264,   1.00000
-36010134.40081,456772764.27934,-1344239.50562,  -0.00198,   0.00177,   0.00020,475806638.81331,   0.00107,275806647.92462,  -0.00092,  -0.00038,   0.00022,  -9.11131,   1.00000
-31994877.60503,459009431.98750,-1378169.74768,  -0.00197,   0.00179,   0.00020,475820322.70386,   0.00108,275820328.38240,  -0.00093,  -0.00037,   0.00022,  -5.67855,   1.00000
-27988201.06661,461215909.70148,-1411875.64063,  -0.00196,   0.00180,   0.00020,475834045.18280,   0.00110,275834051.86676,  -0.00093,  -0.00035,   0.00022,  -6.68396,   1.00000
-23996854.77359,463388835.23878,-1445316.95999,  -0.00195,   0.00181,   0.00020,475847878.07581,   0.00111,275847886.96572,  -0.00094,  -0.00034,   0.00021,  -8.88991,   1.00000
-19999413.53139,465539977.72800,-1478460.98775,  -0.00194,   0.00183,   0.00020,475861882.77192,   0.00112,275861884.47938,  -0.00095,  -0.00033,   0.00021,  -1.70746,   1.00000
-16025636.77011,467653481.35546,-1511371.99432,  -0.00194,   0.00184,   0.00020,475875926.28768,   0.00114,275875929.94268,  -0.00095,  -0.00032,   0.00021,  -3.65500,   1.00000
-12054013.84395,469741000.91577,-1548129.70608,  -0.00193,   0.00185,   0.00019,475890073.26899,   0.00115,275890075.16077,  -0.00096,  -0.00031,   0.00021,  -1.89178,   1.00000
-8084915.63323,471802471.66430,-1580483.05938,  -0.00192,   0.00187,   0.00019,475904312.95419,   0.00116,275904319.22688,  -0.00096,  -0.00030,   0.00021,  -6.27269,   1.00000
-4140246.52892,473826778.60792,-1612601.39324,  -0.00191,   0.00188,   0.00019,475918605.32288,   0.00117,275918606.45412,  -0.00097,  -0.00028,   0.00021,  -1.13124,   1.00000
-191498.29885,475828743.54036,-1644407.62665,  -0.00190,   0.00189,   0.00019,475933044.10920,   0.00119,275933052.11877,  -0.00098,  -0.00027,   0.00021,  -8.00957,   1.00000
3732280.73768,477793803.08145,-1680089.26706,  -0.00190,   0.00191,   0.00019,475947534.58186,   0.00120,275947537.96699,  -0.00098,  -0.00026,   0.00021,  -3.38513,   1.00000
7659307.66712,479736375.89345,-1711317.12643,  -0.00189,   0.00192,   0.00019,475962175.66753,   0.00122,275962180.20784,  -0.00099,  -0.00025,   0.00021,  -4.54030,   1.00000
11560839.53210,481642398.83251,-1742307.39013,  -0.00188,   0.00193,   0.00019,475976858.45447,   0.00123,275976859.22575,  -0.00099,  -0.00024,   0.00021,  -0.77129,   1.00000
15457968.58489,483522408.39181,-1773018.85717,  -0.00187,   0.00195,   0.00019,475991622.61366,   0.00124,275991631.05942,  -0.00100,  -0.00022,   0.00021,  -8.44577,   1.00000
19350344.69872,485376283.15073,-1807560.56519,  -0.00186,   0.00196,   0.00019,476006486.84994,   0.00126,276006495.26841,  -0.00101,  -0.00021,   0.00021,  -8.41847,   1.00000
23216563.77190,487194209.47860,-1837728.21788,  -0.00186,   0.00197,   0.00019,476021389.10369,   0.00127,276021391.38925,  -0.00101,  -0.00020,   0.00021,  -2.28556,   1.00000
27063131.03128,488979574.44544,-1871721.69135,  -0.00185,   0.00199,   0.00019,476036373.62863,   0.00128,276036380.04485,  -0.00102,  -0.00019,   0.00021,  -6.41622,   1.00000
30910654.05927,490742182.54674,-1901246.65454,  -0.00184,   0.00200,   0.00019,476051510.49508,   0.00130,276051519.19345,  -0.00102,  -0.00017,   0.00021,  -8.69838,   1.00000
34745753.80679,492475871.42145,-1930534.33009,  -0.00183,   0.00201,   0.00019,476066683.19063,   0.00131,276066683.92884,  -0.00103,  -0.00016,   0.00021,  -0.73821,   1.00000
38553901.40478,494174390.83999,-1963694.05428,  -0.00182,   0.00203,   0.00019,476081872.59904,   0.00133,276081874.66448,  -0.00103,  -0.00015,   0.00021,  -2.06544,   1.00000
42361927.51394,495850050.04429,-1992378.77351,  -0.00181,   0.00204,   0.00019,476097206.32807,   0.00134,276097213.20785,  -0.00104,  -0.00013,   0.00021,  -6.87978,   1.00000
46142576.26149,497490959.15688,-2024935.36413,  -0.00181,   0.00205,   0.00019,476112568.99421,   0.00135,276112574.56324,  -0.00105,  -0.00012,   0.00021,  -5.56903,   1.00000
49916274.15285,499106339.81570,-2053066.01376,  -0.00180,   0.00207,   0.00019,476128017.68015,   0.00137,276128019.11663,  -0.00105,  -0.00011,   0.00021,  -1.43647,   1.00000
53668301.84253,500690103.16775,-2080905.92130,  -0.00179,   0.00208,   0.00019,476143538.18442,   0.00138,276143545.66750,  -0.00106,  -0.00010,   0.00021,  -7.48308,   1.00000
57406910.69364,502245871.93610,-2112617.81424,  -0.00178,   0.00209,   0.00018,476159085.61933,   0.00140,276159091.21385,  -0.00106,  -0.00008,   0.00021,  -5.59451,   1.00000
61123421.31969,503770501.18684,-2139902.79034,  -0.00177,   0.00210,   0.00018,476174706.86634,   0.00141,276174715.31541,  -0.00107,  -0.00007,   0.00021,  -8.44907,   1.00000
64831985.28677,505269859.65932,-2171002.99381,  -0.00176,   0.00212,   0.00018,476190412.59888,   0.00143,276190418.89124,  -0.00107,  -0.00005,   0.00021,  -6.29236,   1.00000
68517923.89100,506738401.70162,-2197675.47192,  -0.00175,   0.00213,   0.00018,476206194.56853,   0.00144,276206198.03617,  -0.00108,  -0.00004,   0.00021,  -3.46764,   1.00000
72189834.28566,508179614.06240,-2228220.22494,  -0.00175,   0.00214,   0.00018,476221991.39939,   0.00146,276221991.86364,  -0.00108,  -0.00003,   0.00021,  -0.46425,   1.00000
75838737.36894,509590454.53248,-2254337.36241,  -0.00174,   0.00216,   0.00018,476237855.38337,   0.00147,276237858.23567,  -0.00109,  -0.00001,   0.00021,  -2.85230,   1.00000
79478774.89122,510976504.78747,-2280158.92548,  -0.00173,   0.00217,   0.00018,476253792.50825,   0.00149,276253799.59340,  -0.00109,   0.00000,   0.00021,  -7.08515,   1.00000
83090032.01168,512330423.88667,-2309857.83622,  -0.00172,   0.00218,   0.00018,476269746.74859,   0.00150,276269748.35027,  -0.00110,   0.00001,   0.00021,  -1.60167,   1.00000
86692056.94506,513659902.72635,-2335124.96633,  -0.00171,   0.00220,   0.00018,476285768.51979,   0.00152,276285769.67464,  -0.00110,   0.00003,   0.00021,  -1.15486,   1.00000
90270248.78061,514959715.89943,-2364207.81925,  -0.00170,   0.00221,   0.00018,476301851.33352,   0.00153,276301858.31176,  -0.00111,   0.00004,   0.00021,  -6.97824,   1.00000
93838735.13965,516235299.25572,-2388858.11183,  -0.00169,   0.00222,   0.00018,476318008.08167,   0.00155,276318017.45510,  -0.00111,   0.00006,   0.00021,  -9.37343,   1.00000
97378029.97121,517479923.70442,-2413282.71368,  -0.00169,   0.00224,   0.00018,476334177.27325,   0.00156,276334177.91087,  -0.00112,   0.00007,   0.00021,  -0.63762,   1.00000
100902429.97883,518698783.17197,-2441583.35282,  -0.00168,   0.00225,   0.00018,476350337.85903,   0.00158,276350344.82700,  -0.00112,   0.00009,   0.00021,  -6.96797,   1.00000
104407163.23508,519890754.29584,-2465391.68551,  -0.00167,   0.00226,   0.00018,476366631.65823,   0.00159,276366635.28374,  -0.00113,   0.00010,   0.00021,  -3.62551,   1.00000
107882544.26627,521052733.74376,-2488978.85516,  -0.00166,   0.00227,   0.00018,476382918.59938,   0.00161,276382922.62716,  -0.00113,   0.00011,   0.00021,  -4.02778,   1.00000
111342831.69547,522189675.08862,-2516444.74185,  -0.00165,   0.00229,   0.00018,476399205.82956,   0.00162,276399213.15182,  -0.00114,   0.00013,   0.00021,  -7.32226,   1.00000
114792474.57368,523303371.11175,-2539478.59566,  -0.00164,   0.00230,   0.00018,476415562.68411,   0.00164,276415568.12275,  -0.00114,   0.00014,   0.00021,  -5.43863,   1.00000
118202919.71693,524385006.38815,-2562235.04870,  -0.00163,   0.00231,   0.00018,476431969.42353,   0.00165,276431970.37736,  -0.00115,   0.00016,   0.00021,  -0.95384,   1.00000
121616556.75172,525448070.99401,-2584685.85423,  -0.00162,   0.00233,   0.00017,476448443.00747,   0.00167,276448443.75482,  -0.00115,   0.00017,   0.00021,  -0.74735,   1.00000
124986469.24050,526478285.47115,-2611039.29696,  -0.00161,   0.00234,   0.00017,476464891.79335,   0.00168,276464898.90815,  -0.00116,   0.00019,   0.00021,  -7.11480,   1.00000
128341080.10365,527484796.01536,-2633035.57981,  -0.00161,   0.00235,   0.00017,476481345.95151,   0.00170,276481351.66186,  -0.00116,   0.00020,   0.00021,  -5.71035,   1.00000
131684385.13367,528468911.41681,-2654737.32925,  -0.00160,   0.00236,   0.00017,476497856.08204,   0.00171,276497864.24430,  -0.00116,   0.00022,   0.00021,  -8.16226,   1.00000
135002132.89790,529426741.50174,-2676156.95371,  -0.00159,   0.00238,   0.00017,476514424.37385,   0.00173,276514425.67325,  -0.00117,   0.00023,   0.00021,  -1.29940,   1.00000
138290371.81545,530357465.60609,-2697371.09313,  -0.00158,   0.00239,   0.00017,476530969.17163,   0.00175,276530972.21583,  -0.00117,   0.00025,   0.00021,  -3.04421,   1.00000
141566978.65950,531266405.69974,-2718292.51069,  -0.00157,   0.00240,   0.00017,476547574.43115,   0.00176,276547575.59251,  -0.00118,   0.00026,   0.00021,  -1.16135,   1.00000
144814099.75826,532148874.30758,-2739012.21679,  -0.00156,   0.00242,   0.00017,476564155.50183,   0.00178,276564161.74655,  -0.00118,   0.00028,   0.00021,  -6.24472,   1.00000
148049387.78068,533009931.48645,-2759440.36658,  -0.00155,   0.00243,   0.00017,476580798.79622,   0.00179,276580803.01259,  -0.00119,   0.00029,   0.00021,  -4.21637,   1.00000
151258760.46226,533846110.66370,-2779592.39492,  -0.00154,   0.00244,   0.00017,476597482.06678,   0.00181,276597486.78668,  -0.00119,   0.00031,   0.00021,  -4.71990,   1.00000
154438736.29396,534656841.89968,-2799549.03287,  -0.00153,   0.00245,   0.00017,476614149.25353,   0.00182,276614149.65066,  -0.00119,   0.00032,   0.00021,  -0.39713,   1.00000
157603266.06883,535445895.54168,-2819296.13069,  -0.00152,   0.00247,   0.00017,476630800.38904,   0.00184,276630803.10550,  -0.00120,   0.00034,   0.00021,  -2.71646,   1.00000
160741871.73763,536211110.70900,-2834667.72883,  -0.00151,   0.00248,   0.00017,476647493.45718,   0.00185,276647494.98424,  -0.00120,   0.00035,   0.00020,  -1.52705,   1.00000
163851308.33466,536951859.24163,-2853986.00462,  -0.00151,   0.00249,   0.00017,476664160.01719,   0.00187,276664162.98132,  -0.00120,   0.00037,   0.00020,  -2.96413,   1.00000
166948557.10425,537672510.35612,-2873017.85395,  -0.00150,   0.00250,   0.00017,476680880.68229,   0.00189,276680880.81764,  -0.00121,   0.00038,   0.00020,  -0.13536,   1.00000
170019789.34725,538370204.72875,-2887679.09518,  -0.00149,   0.00252,   0.00017,476697633.07804,   0.00190,276697633.56470,  -0.00121,   0.00040,   0.00020,  -0.48666,   1.00000
173059094.50203,539043731.42720,-2906376.48650,  -0.00148,   0.00253,   0.00017,476714291.36945,   0.00192,276714297.81718,  -0.00121,   0.00041,   0.00020,  -6.44773,   1.00000
176089019.78932,539698596.46362,-2920603.59031,  -0.00147,   0.00254,   0.00017,476731067.64528,   0.00193,276731070.44781,  -0.00122,   0.00043,   0.00020,  -2.80253,   1.00000
179087309.97165,540329977.33328,-2938872.16549,  -0.00146,   0.00255,   0.00016,476747750.67012,   0.00195,276747752.91262,  -0.00122,   0.00044,   0.00020,  -2.24250,   1.00000
182075942.19022,540943001.73945,-2952671.12992,  -0.00145,   0.00257,   0.00016,476764541.40680,   0.00196,276764542.23193,  -0.00122,   0.00046,   0.00020,  -0.82514,   1.00000
185033265.78666,541533295.88226,-2966413.84775,  -0.00144,   0.00258,   0.00016,476781233.44026,   0.00198,276781239.44848,  -0.00123,   0.00048,   0.00020,  -6.00822,   1.00000
187964699.12614,542102355.12726,-2984034.77551,  -0.00143,   0.00259,   0.00016,476797964.41014,   0.00200,276797965.87511,  -0.00123,   0.00049,   0.00020,  -1.46497,   1.00000
190870309.80180,542650670.18814,-2997297.63660,  -0.00142,   0.00260,   0.00016,476814717.54327,   0.00201,276814719.63044,  -0.00123,   0.00051,   0.00020,  -2.08717,   1.00000
193761076.48650,543180362.11591,-3010403.08523,  -0.00141,   0.00262,   0.00016,476831454.96064,   0.00203,276831455.66162,  -0.00123,   0.00052,   0.00020,  -0.70097,   1.00000
196623728.23431,543689310.78981,-3023376.59619,  -0.00140,   0.00263,   0.00016,476848152.24697,   0.00204,276848156.98816,  -0.00124,   0.00054,   0.00020,  -4.74119,   1.00000
199473954.27002,544180622.82738,-3032005.35392,  -0.00139,   0.00264,   0.00016,476864894.06310,   0.00206,276864899.82168,  -0.00124,   0.00055,   0.00020,  -5.75858,   1.00000
202283030.48569,544649596.59797,-3044667.41384,  -0.00138,   0.00265,   0.00016,476881585.45193,   0.00207,276881589.43461,  -0.00124,   0.00057,   0.00020,  -3.98269,   1.00000
205079764.21967,545101386.29674,-3057090.01594,  -0.00137,   0.00266,   0.00016,476898316.89320,   0.00209,276898319.42394,  -0.00124,   0.00058,   0.00020,  -2.53074,   1.00000
207862036.14582,545535714.32179,-3069363.01672,  -0.00136,   0.00268,   0.00016,476915024.16056,   0.00211,276915029.25273,  -0.00125,   0.00060,   0.00020,  -5.09217,   1.00000
210603774.20739,545949082.00713,-3077440.24469,  -0.00136,   0.00269,   0.00016,476931677.05075,   0.00212,276931682.01880,  -0.00125,   0.00061,   0.00020,  -4.96804,   1.00000
213333212.68062,546345824.17293,-3089416.90292,  -0.00135,   0.00270,   0.00016,476948364.92935,   0.00214,276948373.85125,  -0.00125,   0.00063,   0.00020,  -8.92190,   1.00000
216035563.14336,546724209.54502,-3097175.48956,  -0.00134,   0.00271,   0.00016,476965020.56248,   0.00215,276965025.06783,  -0.00125,   0.00065,   0.00020,  -4.50535,   1.00000
218711033.14632,547084503.61133,-3104853.57226,  -0.00133,   0.00272,   0.00016,476981628.00629,   0.00217,276981635.38203,  -0.00125,   0.00066,   0.00020,  -7.37574,   1.00000
221374329.92408,547428910.82235,-3112332.80500,  -0.00132,   0.00274,   0.00016,476998278.70295,   0.00218,276998282.76388,  -0.00126,   0.00068,   0.00020,  -4.06093,   1.00000
224010976.23754,547755775.56261,-3119735.46369,  -0.00131,   0.00275,   0.00016,477014883.79468,   0.00220,277014888.04460,  -0.00126,   0.00069,   0.00020,  -4.24991,   1.00000
226621218.36844,548065456.56497,-3127063.69443,  -0.00130,   0.00276,   0.00016,477031440.64538,   0.00222,277031450.56034,  -0.00126,   0.00071,   0.00020,  -9.91496,   1.00000
229206670.59313,548358533.92783,-3134227.85053,  -0.00129,   0.00277,   0.00016,477048022.60946,   0.00223,277048028.77818,  -0.00126,   0.00072,   0.00020,  -6.16872,   1.00000
231778818.02546,548636383.55439,-3141290.40888,  -0.00128,   0.00278,   0.00016,477064578.91486,   0.00225,277064582.98463,  -0.00126,   0.00074,   0.00020,  -4.06977,   1.00000
234312449.38495,548896820.04275,-3144215.37754,  -0.00127,   0.00280,   0.00016,477081065.33063,   0.00226,277081071.95386,  -0.00126,   0.00075,   0.00020,  -6.62323,   1.00000
236834297.77216,549142654.05341,-3151084.44427,  -0.00126,   0.00281,   0.00016,477097591.95798,   0.00228,277097595.35672,  -0.00127,   0.00077,   0.00020,  -3.39874,   1.00000
239342159.81754,549373835.73039,-3153847.44797,  -0.00125,   0.00282,   0.00016,477114033.24726,   0.00229,277114034.83986,  -0.00127,   0.00079,   0.00020,  -1.59261,   1.00000
241814215.17388,549588876.54860,-3156428.81918,  -0.00124,   0.00283,   0.00015,477130521.09867,   0.00231,277130524.49012,  -0.00127,   0.00080,   0.00020,  -3.39145,   1.00000
244272726.67259,549789702.40947,-3159042.97543,  -0.00123,   0.00284,   0.00015,477146927.92162,   0.00232,277146930.10802,  -0.00127,   0.00082,   0.00020,  -2.18640,   1.00000
246694821.32569,549974995.24262,-3161573.10063,  -0.00122,   0.00285,   0.00015,477163319.74437,   0.00234,277163325.50501,  -0.00127,   0.00083,   0.00019,  -5.76064,   1.00000
249104721.11550,550146710.82729,-3164045.32298,  -0.00121,   0.00286,   0.00015,477179689.52093,   0.00235,277179694.75134,  -0.00127,   0.00085,   0.00019,  -5.23041,   1.00000
251490169.67722,550304236.30899,-3166495.84578,  -0.00120,   0.00288,   0.00015,477196010.32310,   0.00237,277196015.95502,  -0.00127,   0.00086,   0.00019,  -5.63192,   1.00000
253864324.45650,550448623.84223,-3168796.40294,  -0.00119,   0.00289,   0.00015,477212362.05045,   0.00239,277212368.73273,  -0.00127,   0.00088,   0.00019,  -6.68228,   1.00000
256201555.34172,550578710.38946,-3167107.79367,  -0.00118,   0.00290,   0.00015,477228585.76279,   0.00240,277228592.23438,  -0.00127,   0.00089,   0.00019,  -6.47159,   1.00000
258527774.61650,550696111.73151,-3165305.48954,  -0.00117,   0.00291,   0.00015,477244837.52576,   0.00242,277244846.65534,  -0.00127,   0.00091,   0.00019,  -9.12958,   1.00000
260830337.09549,550800390.50263,-3163521.67645,  -0.00116,   0.00292,   0.00015,477261047.02591,   0.00243,277261051.50106,  -0.00128,   0.00092,   0.00019,  -4.47516,   1.00000
263109895.01054,550891902.36637,-3161663.83389,  -0.00115,   0.00293,   0.00015,477277259.78316,   0.00245,277277263.80128,  -0.00128,   0.00094,   0.00019,  -4.01812,   1.00000
265365906.50646,550970769.34717,-3159921.12970,  -0.00114,   0.00294,   0.00015,477293359.10870,   0.00246,277293368.54555,  -0.00128,   0.00095,   0.00019,  -9.43685,   1.00000
267599311.45528,551037445.70226,-3158106.81844,  -0.00113,   0.00296,   0.00015,477309478.13493,   0.00248,277309479.73568,  -0.00128,   0.00097,   0.00019,  -1.60076,   1.00000
269810058.25310,551092192.75229,-3152215.34423,  -0.00112,   0.00297,   0.00015,477325533.78430,   0.00249,277325539.59571,  -0.00128,   0.00099,   0.00019,  -5.81141,   1.00000
272010309.64129,551135310.35526,-3150350.95830,  -0.00111,   0.00298,   0.00015,477341624.60552,   0.00251,277341629.04759,  -0.00128,   0.00100,   0.00019,  -4.44208,   1.00000
274176328.99672,551166784.74151,-3144544.82871,  -0.00110,   0.00299,   0.00015,477357583.75205,   0.00252,277357586.05918,  -0.00128,   0.00102,   0.00019,  -2.30713,   1.00000
276332176.39998,551187112.48970,-3138666.14241,  -0.00109,   0.00300,   0.00015,477373568.56685,   0.00254,277373571.89706,  -0.00128,   0.00103,   0.00019,  -3.33021,   1.00000
278466163.78959,551196288.08907,-3132942.40244,  -0.00108,   0.00301,   0.00015,477389445.34198,   0.00255,277389449.37631,  -0.00128,   0.00105,   0.00019,  -4.03432,   1.00000
280578475.08834,551194697.04282,-3127187.35858,  -0.00107,   0.00302,   0.00015,477405325.75611,   0.00257,277405331.04506,  -0.00128,   0.00106,   0.00019,  -5.28895,   1.00000
282669443.42598,551182612.66318,-3117394.65931,  -0.00107,   0.00303,   0.00015,477421154.58970,   0.00258,277421159.92506,  -0.00128,   0.00108,   0.00019,  -5.33536,   1.00000
284739067.63842,551160249.54496,-3107607.56204,  -0.00106,   0.00304,   0.00015,477436983.71361,   0.00260,277436992.17402,  -0.00128,   0.00109,   0.00019,  -8.46042,   1.00000
286787991.00362,551127622.52346,-3102112.71439,  -0.00105,   0.00305,   0.00015,477452713.62935,   0.00261,277452715.97946,  -0.00128,   0.00111,   0.00019,  -2.35012,   1.00000
288816365.46331,551085288.81291,-3088480.15561,  -0.00104,   0.00306,   0.00015,477468380.58579,   0.00263,277468386.14592,  -0.00128,   0.00112,   0.00019,  -5.56013,   1.00000
290835301.02048,551032897.65419,-3078947.91259,  -0.00103,   0.00308,   0.00015,477484081.11281,   0.00264,277484084.40030,  -0.00127,   0.00114,   0.00019,  -3.28749,   1.00000
292822576.85858,550971421.89733,-3069557.31438,  -0.00102,   0.00309,   0.00015,477499700.81307,   0.00266,277499703.99303,  -0.00127,   0.00115,   0.00019,  -3.17996,   1.00000
294789959.26060,550900820.93238,-3056165.55897,  -0.00101,   0.00310,   0.00015,477515260.98055,   0.00267,277515269.73156,  -0.00127,   0.00116,   0.00019,  -8.75101,   1.00000
296748865.99750,550820673.60927,-3042865.24411,  -0.00100,   0.00311,   0.00015,477530806.09666,   0.00269,277530807.55488,  -0.00127,   0.00118,   0.00019,  -1.45823,   1.00000
298677002.53779,550732232.45396,-3029741.18627,  -0.00099,   0.00312,   0.00015,477546258.82039,   0.00270,277546265.94207,  -0.00127,   0.00119,   0.00019,  -7.12168,   1.00000
300597046.64799,550634548.13201,-3016707.53652,  -0.00098,   0.00313,   0.00015,477561695.14764,   0.00272,277561696.53555,  -0.00127,   0.00121,   0.00019,  -1.38790,   1.00000
302486911.44424,550529084.94173,-3003849.80956,  -0.00097,   0.00314,   0.00015,477577042.72572,   0.00273,277577047.19945,  -0.00127,   0.00122,   0.00019,  -4.47374,   1.00000
304368344.19401,550414873.63783,-2986891.49516,  -0.00096,   0.00315,   0.00015,477592423.43515,   0.00275,277592424.49769,  -0.00127,   0.00124,   0.00019,  -1.06254,   1.00000
306220944.04661,550293252.50023,-2970232.33355,  -0.00095,   0.00316,   0.00015,477607661.03291,   0.00276,277607666.81995,  -0.00127,   0.00125,   0.00019,  -5.78704,   1.00000
308054441.52924,550163954.09802,-2953650.74443,  -0.00094,   0.00317,   0.00015,477622903.41192,   0.00277,277622909.37892,  -0.00127,   0.00127,   0.00019,  -5.96700,   1.00000
309881638.87164,550025961.28567,-2937278.90755,  -0.00093,   0.00318,   0.00015,477638068.74556,   0.00279,277638070.26081,  -0.00127,   0.00128,   0.00018,  -1.51525,   1.00000
311679181.60030,549881621.05867,-2916926.39358,  -0.00092,   0.00319,   0.00015,477653201.78063,   0.00280,277653203.96019,  -0.00126,   0.00130,   0.00018,  -2.17956,   1.00000
313469826.74537,549728886.81203,-2900829.49313,  -0.00091,   0.00320,   0.00015,477668302.07239,   0.00282,277668310.79146,  -0.00126,   0.00131,   0.00018,  -8.71907,   1.00000
315233362.71531,549569945.32803,-2880923.89002,  -0.00090,   0.00321,   0.00015,477683278.99458,   0.00283,277683282.05001,  -0.00126,   0.00132,   0.00018,  -3.05543,   1.00000
316989333.45978,549403108.72988,-2861084.09134,  -0.00089,   0.00322,   0.00015,477698278.81085,   0.00285,277698280.17053,  -0.00126,   0.00134,   0.00018,  -1.35968,   1.00000
318717683.97416,549230639.34390,-2837381.45717,  -0.00088,   0.00323,   0.00015,477713190.24413,   0.00286,277713196.34236,  -0.00126,   0.00135,   0.00018,  -6.09823,   1.00000
320429303.40778,549051458.75984,-2818007.48130,  -0.00087,   0.00324,   0.00015,477728050.13078,   0.00287,277728058.52834,  -0.00126,   0.00137,   0.00018,  -8.39756,   1.00000
322124502.03710,548865893.59037,-2794723.97836,  -0.00086,   0.00325,   0.00015,477742862.58175,   0.00289,277742866.09047,  -0.00125,   0.00138,   0.00018,  -3.50872,   1.00000
323813878.88021,548672688.99617,-2771621.14572,  -0.00085,   0.00326,   0.00015,477757639.18286,   0.00290,277757647.30894,  -0.00125,   0.00139,   0.00018,  -8.12608,   1.00000
325476724.93025,548474655.36551,-2744683.00950,  -0.00084,   0.00327,   0.00015,477772342.61570,   0.00292,277772346.11415,  -0.00125,   0.00141,   0.00018,  -3.49845,   1.00000
327123701.47521,548270489.49034,-2722100.89727,  -0.00083,   0.00328,   0.00015,477786985.25703,   0.00293,277786991.09431,  -0.00125,   0.00142,   0.00018,  -5.83728,   1.00000
328744829.92154,548061938.62598,-2695679.17979,  -0.00082,   0.00329,   0.00015,477801551.93266,   0.00294,277801553.40145,  -0.00125,   0.00144,   0.00018,  -1.46879,   1.00000
330360941.29526,547846206.75269,-2669464.80426,  -0.00081,   0.00330,   0.00015,477816081.10859,   0.00296,277816089.92101,  -0.00125,   0.00145,   0.00018,  -8.81242,   1.00000
331963408.87159,547624629.92828,-2639475.71585,  -0.00080,   0.00331,   0.00015,477830515.66100,   0.00297,277830519.58919,  -0.00124,   0.00146,   0.00018,  -3.92818,   1.00000
333549362.83872,547397820.90953,-2609687.37687,  -0.00079,   0.00332,   0.00015,477844942.22243,   0.00299,277844947.87657,  -0.00124,   0.00148,   0.00018,  -5.65413,   1.00000
335110401.59173,547167147.32482,-2584320.73279,  -0.00078,   0.00333,   0.00015,477859291.03626,   0.00300,277859293.89530,  -0.00124,   0.00149,   0.00018,  -2.85904,   1.00000
336657090.04750,546931428.46313,-2550991.41605,  -0.00077,   0.00334,   0.00015,477873584.98840,   0.00301,277873585.45092,  -0.00124,   0.00150,   0.00018,  -0.46252,   1.00000
338199482.19147,546688864.28365,-2522027.88761,  -0.00076,   0.00334,   0.00015,477887847.86784,   0.00303,277887852.42407,  -0.00123,   0.00152,   0.00018,  -4.55624,   1.00000
339717784.23900,546443060.45571,-2489273.83543,  -0.00075,   0.00335,   0.00015,477902034.93012,   0.00304,277902036.46705,  -0.00123,   0.00153,   0.00018,  -1.53694,   1.00000
341214083.51057,546193764.05594,-2456934.11486,  -0.00074,   0.00336,   0.00015,477916084.30116,   0.00305,277916086.02391,  -0.00123,   0.00154,   0.00018,  -1.72275,   1.00000
342704954.18830,545938364.44196,-2424776.89187,  -0.00073,   0.00337,   0.00015,477930162.10318,   0.00307,277930162.95093,  -0.00123,   0.00156,   0.00018,  -0.84775,   1.00000
344182388.95602,545678380.73621,-2388811.80322,  -0.00072,   0.00338,   0.00015,477944183.61606,   0.00308,277944186.20660,  -0.00122,   0.00157,   0.00018,  -2.59054,   1.00000
345638639.27849,545415276.44328,-2353281.14503,  -0.00071,   0.00339,   0.00015,477958065.67613,   0.00309,277958075.34848,  -0.00122,   0.00158,   0.00018,  -9.67235,   1.00000
347080063.36336,545148220.57483,-2318001.07961,  -0.00070,   0.00340,   0.00015,477971958.62069,   0.00311,277971962.54315,  -0.00122,   0.00160,   0.00018,  -3.92246,   1.00000
348510633.87319,544876395.13759,-2283106.16949,  -0.00069,   0.00341,   0.00015,477985740.13273,   0.00312,277985745.43356,  -0.00122,   0.00161,   0.00018,  -5.30083,   1.00000
349926691.18338,544600885.30541,-2244354.78559,  -0.00068,   0.00342,   0.00015,477999517.83734,   0.00313,277999526.18313,  -0.00121,   0.00162,   0.00018,  -8.34579,   1.00000
351332325.95383,544320762.51691,-2206012.49345,  -0.00067,   0.00343,   0.00015,478013196.13631,   0.00315,278013203.06078,  -0.00121,   0.00163,   0.00018,  -6.92447,   1.00000
352716210.63460,544038631.21473,-2168046.72516,  -0.00066,   0.00343,   0.00015,478026792.48902,   0.00316,278026797.32025,  -0.00121,   0.00165,   0.00018,  -4.83124,   1.00000
354088207.45052,543752645.42487,-2126312.26540,  -0.00065,   0.00344,   0.00015,478040335.28421,   0.00317,278040338.69620,  -0.00121,   0.00166,   0.00018,  -3.41199,   1.00000
355448440.71448,543462812.37042,-2084940.90813,  -0.00065,   0.00345,   0.00015,478053819.28013,   0.00319,278053827.58217,  -0.00120,   0.00167,   0.00018,  -8.30204,   1.00000
356797083.60194,543169222.75014,-2043928.82522,  -0.00064,   0.00346,   0.00015,478067256.52923,   0.00320,278067264.06219,  -0.00120,   0.00168,   0.00018,  -7.53296,   1.00000
358134333.69957,542872008.45787,-1999168.80396,  -0.00063,   0.00347,   0.00015,478080645.43132,   0.00321,278080648.05821,  -0.00120,   0.00170,   0.00018,  -2.62688,   1.00000
359453225.59791,542572773.51456,-1954885.07013,  -0.00062,   0.00348,   0.00015,478093889.43755,   0.00322,278093899.38362,  -0.00119,   0.00171,   0.00018,  -9.94607,   1.00000
360758923.36803,542270648.36358,-1910921.85056,  -0.00061,   0.00349,   0.00015,478107139.09703,   0.00324,278107148.86005,  -0.00119,   0.00172,   0.00018,  -9.76302,   1.00000
362056106.62017,541964515.25636,-1863284.38000,  -0.00060,   0.00349,   0.00015,478120291.66733,   0.00325,278120296.20479,  -0.00119,   0.00173,   0.00018,  -4.53747,   1.00000
363331187.58523,541657955.84992,-1816026.64683,  -0.00059,   0.00350,   0.00015,478133410.77780,   0.00326,278133411.14642,  -0.00118,   0.00175,   0.00018,  -0.36862,   1.00000
364598208.83459,541347449.05607,-1769217.69808,  -0.00058,   0.00351,   0.00015,478146415.43744,   0.00327,278146424.66950,  -0.00118,   0.00176,   0.00018,  -9.23205,   1.00000
365855015.80951,541033737.72326,-1722799.24177,  -0.00057,   0.00352,   0.00015,478159382.83300,   0.00329,278159386.70800,  -0.00118,   0.00177,   0.00018,  -3.87500,   1.00000
367101766.51988,540716898.94945,-1672662.57097,  -0.00056,   0.00353,   0.00015,478172287.36122,   0.00330,278172297.33479,  -0.00118,   0.00178,   0.00018,  -9.97357,   1.00000
368332064.59358,540398699.09663,-1618912.14555,  -0.00055,   0.00353,   0.00015,478185066.55975,   0.00331,278185076.19572,  -0.00117,   0.00179,   0.00018,  -9.63597,   1.00000
369550231.18731,540078172.53232,-1569656.58131,  -0.00054,   0.00354,   0.00015,478197850.01948,   0.00332,278197853.62380,  -0.00117,   0.00181,   0.00017,  -3.60432,   1.00000
370761374.06062,539753951.97008,-1516743.30083,  -0.00053,   0.00355,   0.00016,478210528.74888,   0.00334,278210530.77781,  -0.00117,   0.00182,   0.00017,  -2.02893,   1.00000
371951787.14133,539430090.70516,-1464241.14097,  -0.00052,   0.00356,   0.00016,478223170.12726,   0.00335,278223175.22925,  -0.00116,   0.00183,   0.00017,  -5.10198,   1.00000
373135633.60572,539102634.10754,-1408098.15426,  -0.00051,   0.00357,   0.00016,478235712.21003,   0.00336,278235719.85002,  -0.00116,   0.00184,   0.00017,  -7.63999,   1.00000
374301741.62154,538774945.53289,-1352427.17270,  -0.00050,   0.00357,   0.00016,478248180.79910,   0.00337,278248182.67241,  -0.00116,   0.00185,   0.00017,  -1.87332,   1.00000
375470402.03537,538441076.26132,-1297209.64513,  -0.00049,   0.00358,   0.00016,478260573.63371,   0.00338,278260577.89344,  -0.00115,   0.00186,   0.00017,  -4.25973,   1.00000
376619074.94627,538107989.27740,-1238308.16479,  -0.00048,   0.00359,   0.00016,478272937.57438,   0.00340,278272940.19012,  -0.00115,   0.00187,   0.00017,  -2.61573,   1.00000
377753268.65185,537773999.51319,-1179923.77314,  -0.00047,   0.00360,   0.00016,478285162.92879,   0.00341,278285172.32701,  -0.00114,   0.00189,   0.00017,  -9.39822,   1.00000
378876569.81236,537438335.01863,-1121957.98639,  -0.00047,   0.00360,   0.00016,478297399.75461,   0.00342,278297403.15836,  -0.00114,   0.00190,   0.00017,  -3.40374,   1.00000
379994455.61581,537099221.65207,-1060365.53310,  -0.00046,   0.00361,   0.00016,478309530.51330,   0.00343,278309535.78450,  -0.00114,   0.00191,   0.00017,  -5.27120,   1.00000
381107054.40849,536756627.64725,-999272.73336,  -0.00045,   0.00362,   0.00016,478321568.17802,   0.00344,278321570.65250,  -0.00113,   0.00192,   0.00017,  -2.47449,   1.00000
382200581.45883,536415247.99286,-934527.52341,  -0.00044,   0.00363,   0.00016,478333568.84661,   0.00345,278333572.57167,  -0.00113,   0.00193,   0.00017,  -3.72507,   1.00000
383280800.30394,536073208.63340,-870312.22864,  -0.00043,   0.00363,   0.00016,478345440.86858,   0.00347,278345445.22170,  -0.00113,   0.00194,   0.00017,  -4.35312,   1.00000
384350807.80263,535729778.67152,-806551.66075,  -0.00042,   0.00364,   0.00016,478357311.63471,   0.00348,278357316.91646,  -0.00112,   0.00195,   0.00017,  -5.28175,   1.00000
385416327.93924,535382987.65214,-739180.76051,  -0.00041,   0.00365,   0.00016,478369086.93190,   0.00349,278369091.69373,  -0.00112,   0.00196,   0.00017,  -4.76183,   1.00000
386477471.10099,535032791.62321,-672325.17764,  -0.00040,   0.00365,   0.00016,478380768.40686,   0.00350,278380770.00784,  -0.00112,   0.00197,   0.00017,  -1.60098,   1.00000
387520387.40122,534684175.12214,-605951.40383,  -0.00039,   0.00366,   0.00017,478392412.80388,   0.00351,278392415.43708,  -0.00111,   0.00198,   0.00017,  -2.63320,   1.00000
388551088.78657,534335087.17344,-535979.27829,  -0.00038,   0.00367,   0.00017,478403925.47002,   0.00352,278403932.48359,  -0.00111,   0.00199,   0.00017,  -7.01356,   1.00000
389572220.69884,533984872.97730,-466495.10578,  -0.00037,   0.00367,   0.00017,478415446.84145,   0.00353,278415448.86238,  -0.00110,   0.00200,   0.00017,  -2.02093,   1.00000
390592630.31842,533630182.88802,-393424.10100,  -0.00036,   0.00368,   0.00017,478426820.46914,   0.00354,278426822.22457,  -0.00110,   0.00201,   0.00017,  -1.75543,   1.00000
391595502.51966,533277353.36499,-320865.48562,  -0.00036,   0.00369,   0.00017,478438155.76964,   0.00355,278438162.70659,  -0.00110,   0.00203,   0.00017,  -6.93695,   1.00000
392584048.97623,532925337.16379,-248821.36185,  -0.00035,   0.00369,   0.00017,478449422.16721,   0.00357,278449422.81506,  -0.00109,   0.00204,   0.00017,  -0.64785,   1.00000
393569506.36363,532569983.02588,-173176.26773,  -0.00034,   0.00370,   0.00017,478460581.24570,   0.00358,278460588.14776,  -0.00109,   0.00205,   0.00017,  -6.90206,   1.00000
394548977.57472,532212489.14371,-98052.22681,  -0.00033,   0.00371,   0.00017,478471696.86865,   0.00359,278471706.10543,  -0.00109,   0.00206,   0.00017,  -9.23677,   1.00000
395517633.84772,531854662.75080,-19335.68319,  -0.00032,   0.00371,   0.00017,478482689.69086,   0.00360,278482697.07454,  -0.00108,   0.00207,   0.00017,  -7.38369,   1.00000
396477526.90127,531495974.73506,58847.40472,  -0.00031,   0.00372,   0.00017,478493679.44147,   0.00361,278493687.96724,  -0.00108,   0.00208,   0.00017,  -8.52577,   1.00000
397426996.12625,531136990.19202,140618.38991,  -0.00030,   0.00373,   0.00017,478504545.82712,   0.00362,278504552.21643,  -0.00107,   0.00208,   0.00017,  -6.38931,   1.00000
398363197.60197,530779026.41567,217741.54294,  -0.00029,   0.00373,   0.00018,478515333.23140,   0.00363,278515336.75314,  -0.00107,   0.00209,   0.00017,  -3.52174,   1.00000
399294137.14236,530419000.81720,302573.81762,  -0.00028,   0.00374,   0.00018,478526072.20684,   0.00364,278526074.72043,  -0.00107,   0.00210,   0.00017,  -2.51359,   1.00000
400223032.27999,530055593.67936,382752.91232,  -0.00028,   0.00374,   0.00018,478536718.00419,   0.00365,278536719.65459,  -0.00106,   0.00211,   0.00017,  -1.65040,   1.00000
401139076.66256,529693244.28304,470640.30711,  -0.00027,   0.00375,   0.00018,478547278.17174,   0.00366,278547285.35846,  -0.00106,   0.00212,   0.00017,  -7.18671,   1.00000
402042525.23503,529332050.98094,553866.03933,  -0.00026,   0.00376,   0.00018,478557768.85513,   0.00367,278557771.68034,  -0.00105,   0.00213,   0.00017,  -2.82521,   1.00000
402941203.86312,528968820.01286,640672.60274,  -0.00025,   0.00376,   0.00018,478568202.61962,   0.00368,278568212.11148,  -0.00105,   0.00214,   0.00017,  -9.49186,   1.00000
403830778.83658,528605340.49484,731076.86318,  -0.00024,   0.00377,   0.00018,478578521.25473,   0.00369,278578527.21752,  -0.00105,   0.00215,   0.00017,  -5.96279,   1.00000
404715844.84553,528239863.47936,816808.90331,  -0.00023,   0.00377,   0.00018,478588787.31009,   0.00370,278588796.64926,  -0.00104,   0.00216,   0.00017,  -9.33917,   1.00000
405588892.41053,527875577.13056,910250.19788,  -0.00022,   0.00378,   0.00019,478598986.19307,   0.00371,278598987.30565,  -0.00104,   0.00217,   0.00017,  -1.11258,   1.00000
406457660.35721,527509304.44764,999009.56995,  -0.00021,   0.00379,   0.00019,478609122.66672,   0.00372,278609132.57766,  -0.00104,   0.00218,   0.00017,  -9.91094,   1.00000
407310495.15818,527146012.34960,1095527.65943,  -0.00021,   0.00379,   0.00019,478619112.69178,   0.00373,278619119.82962,  -0.00103,   0.00219,   0.00017,  -7.13783,   1.00000
408166814.86323,526777477.40716,1187334.12933,  -0.00020,   0.00380,   0.00019,478629087.76116,   0.00374,278629095.52878,  -0.00103,   0.00220,   0.00017,  -7.76761,   1.00000
409007595.44658,526411949.25906,1282796.81443,  -0.00019,   0.00380,   0.00019,478638908.34106,   0.00375,278638913.44501,  -0.00102,   0.00220,   0.00017,  -5.10395,   1.00000
409841269.53066,526045969.66126,1381773.90166,  -0.00018,   0.00381,   0.00019,478648731.60518,   0.00376,278648732.42911,  -0.00102,   0.00221,   0.00017,  -0.82393,   1.00000
410674567.04878,525676396.13192,1480216.76854,  -0.00017,   0.00381,   0.00019,478658458.82712,   0.00377,278658461.23973,  -0.00102,   0.00222,   0.00017,  -2.41261,   1.00000
411496906.93686,525308154.91993,1578127.08359,  -0.00016,   0.00382,   0.00019,478668102.71941,   0.00378,278668111.86041,  -0.00101,   0.00223,   0.00017,  -9.14100,   1.00000
412311813.82405,524939600.52931,1679675.86619,  -0.00016,   0.00382,   0.00020,478677637.99188,   0.00378,278677639.00791,  -0.00101,   0.00224,   0.00017,  -1.01603,   1.00000
413116106.17046,524572393.00306,1780694.04949,  -0.00015,   0.00383,   0.00020,478687080.34618,   0.00379,278687088.18447,  -0.00100,   0.00225,   0.00017,  -7.83829,   1.00000
413917138.43203,524203131.95877,1885264.89541,  -0.00014,   0.00383,   0.00020,478696483.56431,   0.00380,278696493.52756,  -0.00100,   0.00225,   0.00017,  -9.96325,   1.00000
414707831.68691,523835263.10777,1989303.51210,  -0.00013,   0.00384,   0.00020,478705811.95393,   0.00381,278705820.98567,  -0.00100,   0.00226,   0.00017,  -9.03174,   1.00000
415498868.41260,523463599.70860,2096948.58507,  -0.00012,   0.00384,   0.00020,478715059.42265,   0.00382,278715059.77099,  -0.00099,   0.00227,   0.00017,  -0.34834,   1.00000
416272694.19124,523096747.29679,2204110.72754,  -0.00011,   0.00385,   0.00020,478724184.63464,   0.00383,278724186.82828,  -0.00099,   0.00228,   0.00018,  -2.19364,   1.00000
417047189.28981,522726093.63896,2310773.05051,  -0.00011,   0.00385,   0.00021,478733222.11988,   0.00384,278733225.45233,  -0.00098,   0.00229,   0.00018,  -3.33245,   1.00000
417815376.86738,522355038.18694,2425035.73241,  -0.00010,   0.00386,   0.00021,478742258.75973,   0.00385,278742266.24748,  -0.00098,   0.00229,   0.00018,  -7.48774,   1.00000
418570395.53727,521987131.26677,2534772.47862,  -0.00009,   0.00386,   0.00021,478751142.49806,   0.00386,278751150.24176,  -0.00098,   0.00230,   0.00018,  -7.74369,   1.00000
419326361.37306,521615257.32464,2648139.56380,  -0.00008,   0.00386,   0.00021,478759944.07955,   0.00386,278759946.70028,  -0.00097,   0.00231,   0.00018,  -2.62073,   1.00000
420076302.90959,521243059.37397,2764971.33354,  -0.00007,   0.00387,   0.00021,478768738.65370,   0.00387,278768745.37549,  -0.00097,   0.00232,   0.00018,  -6.72179,   1.00000
420813596.03374,520873995.18301,2877311.66659,  -0.00007,   0.00387,   0.00021,478777379.62295,   0.00388,278777387.55769,  -0.00097,   0.00232,   0.00018,  -7.93474,   1.00000
421548556.58289,520502673.59726,2997329.75895,  -0.00006,   0.00388,   0.00022,478785985.57561,   0.00389,278785987.70607,  -0.00096,   0.00233,   0.00018,  -2.13046,   1.00000
422278022.61087,520130835.58922,3116919.95455,  -0.00005,   0.00388,   0.00022,478794464.59764,   0.00390,278794466.45036,  -0.00096,   0.00234,   0.00018,  -1.85272,   1.00000
422998596.17010,519760393.64652,3236010.73135,  -0.00004,   0.00389,   0.00022,478802858.80989,   0.00391,278802868.37958,  -0.00095,   0.00235,   0.00018,  -9.56969,   1.00000
423717150.87370,519387720.19049,3358655.11359,  -0.00003,   0.00389,   0.00022,478811220.13150,   0.00391,278811228.44053,  -0.00095,   0.00235,   0.00018,  -8.30903,   1.00000
424423852.92180,519018040.28129,3480978.89305,  -0.00003,   0.00389,   0.00022,478819431.84929,   0.00392,278819432.83645,  -0.00095,   0.00236,   0.00018,  -0.98717,   1.00000
425128727.66316,518646068.87616,3606859.66235,  -0.00002,   0.00390,   0.00022,478827594.01088,   0.00393,278827595.72149,  -0.00094,   0.00237,   0.00018,  -1.71061,   1.00000
425825197.37874,518275488.24894,3732254.00565,  -0.00001,   0.00390,   0.00023,478835679.04036,   0.00394,278835682.08706,  -0.00094,   0.00237,   0.00018,  -3.04670,   1.00000
426523583.27832,517900536.74326,3861312.76713,  -0.00000,   0.00391,   0.00023,478843679.65641,   0.00395,278843683.11978,  -0.00093,   0.00238,   0.00018,  -3.46336,   1.00000
427203503.65982,517532643.26518,3989869.86300,   0.00000,   0.00391,   0.00023,478851614.91596,   0.00395,278851616.97656,  -0.00093,   0.00239,   0.00018,  -2.06060,   1.00000
427889185.70566,517158205.06416,4122216.40478,   0.00001,   0.00391,   0.00023,478859414.72148,   0.00396,278859421.93250,  -0.00093,   0.00239,   0.00018,  -7.21102,   1.00000
428563268.77393,516787234.16776,4253976.44780,   0.00002,   0.00392,   0.00023,478867187.59197,   0.00397,278867194.61663,  -0.00092,   0.00240,   0.00018,  -7.02466,   1.00000
429233081.89581,516415370.92689,4389518.97334,   0.00003,   0.00392,   0.00024,478874844.14246,   0.00398,278874847.75623,  -0.00092,   0.00241,   0.00018,  -3.61376,   1.00000
429898833.26750,516042677.18024,4524730.79387,   0.00003,   0.00392,   0.00024,478882372.03551,   0.00398,278882381.15691,  -0.00092,   0.00241,   0.00018,  -9.12141,   1.00000
430559709.80440,515669693.07701,4663382.09920,   0.00004,   0.00393,   0.00024,478889908.07558,   0.00399,278889917.87149,  -0.00091,   0.00242,   0.00018,  -9.79591,   1.00000
431216735.39427,515295835.70223,4801717.85314,   0.00005,   0.00393,   0.00024,478897329.94181,   0.00400,278897335.06770,  -0.00091,   0.00243,   0.00018,  -5.12589,   1.00000
431859800.60920,514926827.97876,4943848.77844,   0.00006,   0.00393,   0.00024,478904638.96008,   0.00400,278904641.79189,  -0.00091,   0.00243,   0.00018,  -2.83181,   1.00000
432505725.05530,514553174.59336,5085573.76568,   0.00006,   0.00394,   0.00025,478911857.24963,   0.00401,278911864.50828,  -0.00090,   0.00244,   0.00018,  -7.25865,   1.00000
433144459.67078,514180797.28368,5226881.67894,   0.00007,   0.00394,   0.00025,478919004.11500,   0.00402,278919011.59012,  -0.00090,   0.00244,   0.00018,  -7.47513,   1.00000
433775880.88282,513809393.12371,5376018.67287,   0.00008,   0.00394,   0.00025,478926079.80776,   0.00403,278926084.14994,  -0.00090,   0.00245,   0.00018,  -4.34218,   1.00000
434410494.47099,513433355.86407,5520644.78994,   0.00008,   0.00394,   0.00025,478933067.53476,   0.00403,278933072.73718,  -0.00089,   0.00246,   0.00018,  -5.20242,   1.00000
435031767.18562,513062120.56599,5669127.08771,   0.00009,   0.00395,   0.00026,478939948.26105,   0.00404,278939951.08819,  -0.00089,   0.00246,   0.00018,  -2.82714,   1.00000
435652414.37279,512688198.95977,5821203.45427,   0.00010,   0.00395,   0.00026,478946785.17885,   0.00405,278946790.13524,  -0.00088,   0.00247,   0.00018,  -4.95638,   1.00000
436263871.81054,512316857.63820,5973189.56887,   0.00010,   0.00395,   0.00026,478953473.25312,   0.00405,278953475.25729,  -0.00088,   0.00247,   0.00018,  -2.00417,   1.00000
436874844.29202,511942764.21378,6128780.05581,   0.00011,   0.00396,   0.00026,478960117.16908,   0.00406,278960121.35312,  -0.00088,   0.00248,   0.00018,  -4.18404,   1.00000
437479311.21359,511569831.36728,6283995.24875,   0.00012,   0.00396,   0.00027,478966688.22551,   0.00406,278966692.34150,  -0.00087,   0.00248,   0.00018,  -4.11599,   1.00000
438081151.14590,511195612.32680,6439030.36373,   0.00013,   0.00396,   0.00027,478973141.29156,   0.00407,278973145.28657,  -0.00087,   0.00249,   0.00018,  -3.99500,   1.00000
438676380.20798,510822149.33247,6601958.73651,   0.00013,   0.00396,   0.00027,478979520.41738,   0.00408,278979524.57899,  -0.00087,   0.00249,   0.00018,  -4.16161,   1.00000
439265551.23045,510449970.52393,6760414.47982,   0.00014,   0.00396,   0.00027,478985823.21372,   0.00408,278985828.30501,  -0.00086,   0.00250,   0.00018,  -5.09129,   1.00000
439852254.55667,510076197.26662,6922855.57581,   0.00015,   0.00397,   0.00027,478992009.62136,   0.00409,278992015.01847,  -0.00086,   0.00250,   0.00018,  -5.39710,   1.00000
440432768.14639,509703282.36155,7089093.98720,   0.00015,   0.00397,   0.00028,478998118.45571,   0.00409,278998127.68167,  -0.00086,   0.00251,   0.00019,  -9.22596,   1.00000
441011170.71820,509328874.53048,7255214.86618,   0.00016,   0.00397,   0.00028,479004119.31393,   0.00410,279004122.90358,  -0.00086,   0.00251,   0.00019,  -3.58966,   1.00000
441583552.50205,508955264.88474,7425154.78434,   0.00016,   0.00397,   0.00028,479010041.99548,   0.00411,279010044.26111,  -0.00085,   0.00252,   0.00019,  -2.26562,   1.00000
442156144.42612,508578815.56041,7594621.47342,   0.00017,   0.00398,   0.00028,479015922.79545,   0.00411,279015927.01444,  -0.00085,   0.00252,   0.00019,  -4.21898,   1.00000
442716896.63184,508206950.75575,7768103.95499,   0.00018,   0.00398,   0.00029,479021692.19320,   0.00412,279021700.06975,  -0.00085,   0.00253,   0.00019,  -7.87655,   1.00000
443275923.28384,507833422.24176,7941529.12870,   0.00018,   0.00398,   0.00029,479027351.45816,   0.00412,279027356.12373,  -0.00084,   0.00253,   0.00019,  -4.66557,   1.00000
443835345.79733,507456966.84128,8114509.14193,   0.00019,   0.00398,   0.00029,479032968.38043,   0.00413,279032973.86361,  -0.00084,   0.00254,   0.00019,  -5.48318,   1.00000
444386907.12474,507082137.05792,8295904.47854,   0.00020,   0.00398,   0.00030,479038433.21293,   0.00413,279038440.44784,  -0.00084,   0.00254,   0.00019,  -7.23491,   1.00000
444933332.58178,506708398.35514,8472937.97681,   0.00020,   0.00398,   0.00030,479043825.87871,   0.00414,279043831.94824,  -0.00083,   0.00255,   0.00019,  -6.06954,   1.00000
445480125.36365,506331405.30713,8653672.30983,   0.00021,   0.00399,   0.00030,479049177.34599,   0.00414,279049186.28434,  -0.00083,   0.00255,   0.00019,  -8.93835,   1.00000
446015715.66121,505958870.33258,8838519.58203,   0.00021,   0.00399,   0.00030,479054430.85696,   0.00415,279054431.07507,  -0.00083,   0.00255,   0.00019,  -0.21811,   1.00000
446550082.49244,505584365.26957,9023409.72413,   0.00022,   0.00399,   0.00031,479059549.87890,   0.00415,279059559.62038,  -0.00083,   0.00256,   0.00019,  -9.74149,   1.00000
447088848.65413,505203728.36283,9212269.80674,   0.00023,   0.00399,   0.00031,479064599.23276,   0.00416,279064609.21463,  -0.00082,   0.00256,   0.00019,  -9.98188,   1.00000
447613019.97414,504830492.94043,9400918.42339,   0.00023,   0.00399,   0.00031,479069590.49219,   0.00416,279069590.59749,  -0.00082,   0.00257,   0.00019,  -0.10529,   1.00000
448135990.40771,504454886.65817,9593788.28846,   0.00024,   0.00399,   0.00032,479074452.08924,   0.00417,279074456.97497,  -0.00082,   0.00257,   0.00019,  -4.88573,   1.00000
448654173.96639,504079960.53058,9786510.30560,   0.00024,   0.00399,   0.00032,479079245.50433,   0.00417,279079249.46081,  -0.00081,   0.00257,   0.00019,  -3.95648,   1.00000
449171302.87069,503702553.82526,9983492.87245,   0.00025,   0.00399,   0.00032,479083917.57756,   0.00418,279083927.18211,  -0.00081,   0.00258,   0.00019,  -9.60455,   1.00000
449683788.30057,503325768.23254,10180357.56083,   0.00026,   0.00399,   0.00032,479088529.66787,   0.00418,279088531.11842,  -0.00081,   0.00258,   0.00019,  -1.45055,   1.00000
450191439.43860,502949277.39348,10381240.15664,   0.00026,   0.00400,   0.00033,479093058.87439,   0.00419,279093062.40158,  -0.00081,   0.00258,   0.00019,  -3.52720,   1.00000
450698492.21458,502570421.00756,10582319.38130,   0.00027,   0.00400,   0.00033,479097468.60834,   0.00419,279097478.24310,  -0.00080,   0.00259,   0.00019,  -9.63476,   1.00000
451200844.59056,502191795.63135,10787448.09193,   0.00027,   0.00400,   0.00033,479101812.28249,   0.00420,279101821.54192,  -0.00080,   0.00259,   0.00019,  -9.25943,   1.00000
451698816.57909,501813660.47456,10992517.39102,   0.00028,   0.00400,   0.00034,479106084.78084,   0.00420,279106091.29073,  -0.00080,   0.00260,   0.00019,  -6.50989,   1.00000
452196409.63360,501433010.65451,11197851.54297,   0.00028,   0.00400,   0.00034,479110243.68862,   0.00420,279110245.84842,  -0.00080,   0.00260,   0.00019,  -2.15980,   1.00000
452683713.82508,501056086.52671,11411677.75120,   0.00029,   0.00400,   0.00034,479114282.49599,   0.00421,279114292.45525,  -0.00079,   0.00260,   0.00019,  -9.95927,   1.00000
453172611.69307,500675937.61070,11621095.96402,   0.00029,   0.00400,   0.00035,479118292.12249,   0.00421,279118301.29124,  -0.00079,   0.00260,   0.00019,  -9.16875,   1.00000
453655329.50255,500296414.07596,11839367.50086,   0.00030,   0.00400,   0.00035,479122152.70766,   0.00422,279122160.66567,  -0.00079,   0.00261,   0.00019,  -7.95801,   1.00000
454139712.16930,499913582.00459,12053255.08363,   0.00030,   0.00400,   0.00035,479125975.37090,   0.00422,279125982.47593,  -0.00079,   0.00261,   0.00020,  -7.10503,   1.00000
454614404.26871,499534658.04830,12271604.78837,   0.00031,   0.00400,   0.00036,479129687.07029,   0.00422,279129695.25188,  -0.00079,   0.00261,   0.00020,  -8.18160,   1.00000
455084893.80735,499155662.54287,12494135.99080,   0.00031,   0.00400,   0.00036,479133326.58152,   0.00423,279133335.96375,  -0.00078,   0.00262,   0.00020,  -9.38223,   1.00000
455555494.37573,498773769.21921,12717087.08935,   0.00032,   0.00400,   0.00036,479136852.27800,   0.00423,279136862.07389,  -0.00078,   0.00262,   0.00020,  -9.79589,   1.00000
456025951.33769,498388566.47645,12944606.11037,   0.00032,   0.00400,   0.00037,479140271.53507,   0.00423,279140274.96124,  -0.00078,   0.00262,   0.00020,  -3.42616,   1.00000
456488683.84531,498006654.60821,13171889.16437,   0.00033,   0.00400,   0.00037,479143652.98629,   0.00424,279143656.07495,  -0.00078,   0.00262,   0.00020,  -3.08866,   1.00000
456946094.54713,497625272.48428,13404110.75903,   0.00033,   0.00400,   0.00037,479146878.19395,   0.00424,279146886.99109,  -0.00078,   0.00263,   0.00020,  -8.79714,   1.00000
457405172.12496,497240002.36227,13636160.43941,   0.00034,   0.00400,   0.00038,479150077.93232,   0.00424,279150082.01786,  -0.00077,   0.00263,   0.00020,  -4.08553,   1.00000
457859058.23508,496855122.83312,13873212.10579,   0.00034,   0.00400,   0.00038,479153117.19343,   0.00425,279153127.02336,  -0.00077,   0.00263,   0.00020,  -9.82993,   1.00000
458309450.17814,496470236.38971,14110464.62192,   0.00035,   0.00400,   0.00038,479156093.88737,   0.00425,279156099.01830,  -0.00077,   0.00263,   0.00020,  -5.13093,   1.00000
458756394.46976,496085303.09940,14347940.13681,   0.00035,   0.00400,   0.00039,479158995.09172,   0.00425,279158998.04410,  -0.00077,   0.00264,   0.00020,  -2.95238,   1.00000
459199585.97566,495699898.27122,14589775.68833,   0.00036,   0.00400,   0.00039,479161815.58624,   0.00425,279161825.56602,  -0.00077,   0.00264,   0.00020,  -9.97978,   1.00000
459637918.69067,495314663.21414,14836747.33448,   0.00036,   0.00400,   0.00039,479164500.15722,   0.00426,279164503.12682,  -0.00077,   0.00264,   0.00020,  -2.96961,   1.00000
460078100.72028,494925267.57022,15083635.97514,   0.00036,   0.00400,   0.00040,479167142.40684,   0.00426,279167145.32051,  -0.00076,   0.00264,   0.00020,  -2.91366,   1.00000
460513525.36443,494535879.02292,15335729.14939,   0.00037,   0.00400,   0.00040,479169631.11422,   0.00426,279169637.76925,  -0.00076,   0.00264,   0.00020,  -6.65503,   1.00000
460941775.21327,494149613.23716,15587738.10562,   0.00037,   0.00400,   0.00040,479172091.41440,   0.00426,279172098.29128,  -0.00076,   0.00265,   0.00020,  -6.87687,   1.00000
461370889.97183,493759673.11552,15840520.39007,   0.00038,   0.00399,   0.00041,479174435.20050,   0.00427,279174445.11786,  -0.00076,   0.00265,   0.00020,  -9.91735,   1.00000
461800520.72458,493365560.48403,16098225.16343,   0.00038,   0.00399,   0.00041,479176672.04733,   0.00427,279176679.91244,  -0.00076,   0.00265,   0.00020,  -7.86511,   1.00000
462218073.09648,492978496.55607,16356300.11948,   0.00039,   0.00399,   0.00041,479178839.33700,   0.00427,279178845.05474,  -0.00076,   0.00265,   0.00020,  -5.71773,   1.00000
462641257.07337,492583137.36246,16618947.91524,   0.00039,   0.00399,   0.00042,479180932.80846,   0.00427,279180936.02447,  -0.00076,   0.00265,   0.00020,  -3.21601,   1.00000
463060061.53698,492187366.89142,16887019.43583,   0.00039,   0.00399,   0.00042,479182873.85293,   0.00427,279182877.51143,  -0.00075,   0.00265,   0.00020,  -3.65850,   1.00000
463471952.62056,491794574.00117,17155111.83659,   0.00040,   0.00399,   0.00043,479184782.69741,   0.00428,279184787.03298,  -0.00075,   0.00266,   0.00020,  -4.33557,   1.00000
463880046.70532,491401712.49026,17424594.64170,   0.00040,   0.00399,   0.00043,479186540.84178,   0.00428,279186545.30812,  -0.00075,   0.00266,   0.00020,  -4.46634,   1.00000
464289838.88522,491003787.58384,17698284.05838,   0.00040,   0.00399,   0.00043,479188263.90077,   0.00428,279188270.55353,  -0.00075,   0.00266,   0.00020,  -6.65276,   1.00000
464691941.01770,490609223.35897,17972967.10875,   0.00041,   0.00398,   0.00044,479189879.32541,   0.00428,279189885.17295,  -0.00075,   0.00266,   0.00020,  -5.84754,   1.00000
465094882.96495,490209908.49242,18252824.06210,   0.00041,   0.00398,   0.00044,479191382.73190,   0.00428,279191388.35800,  -0.00075,   0.00266,   0.00020,  -5.62610,   1.00000
465495131.39579,489809845.11577,18533288.43418,   0.00041,   0.00398,   0.00044,479192812.81646,   0.00428,279192818.93891,  -0.00075,   0.00266,   0.00020,  -6.12245,   1.00000
465887889.85725,489413010.03701,18814855.40976,   0.00042,   0.00398,   0.00045,479194138.26399,   0.00429,279194138.73193,  -0.00075,   0.00266,   0.00020,  -0.46793,   1.00000
466277591.00274,489014853.54716,19101198.89901,   0.00042,   0.00398,   0.00045,479195386.43718,   0.00429,279195387.70772,  -0.00075,   0.00266,   0.00020,  -1.27054,   1.00000
466668263.97866,488611642.42281,19392852.48546,   0.00042,   0.00398,   0.00046,479196522.28426,   0.00429,279196525.51440,  -0.00075,   0.00266,   0.00020,  -3.23014,   1.00000
467056403.71727,488207493.60871,19685225.70276,   0.00043,   0.00397,   0.00046,479197588.85997,   0.00429,279197590.72160,  -0.00075,   0.00266,   0.00020,  -1.86164,   1.00000
467437268.72187,487806364.77210,19978844.99670,   0.00043,   0.00397,   0.00046,479198536.75729,   0.00429,279198545.02179,  -0.00074,   0.00267,   0.00020,  -8.26450,   1.00000
467823969.81895,487395956.67201,20277380.09674,   0.00043,   0.00397,   0.00047,479199426.56909,   0.00429,279199426.61488,  -0.00074,   0.00267,   0.00020,  -0.04579,   1.00000
468203475.29076,486988440.36327,20577235.13205,   0.00044,   0.00397,   0.00047,479200190.87468,   0.00429,279200197.30977,  -0.00074,   0.00267,   0.00020,  -6.43509,   1.00000
468575372.04387,486583262.43884,20882561.92586,   0.00044,   0.00397,   0.00048,479200857.17979,   0.00429,279200858.91523,  -0.00074,   0.00267,   0.00021,  -1.73544,   1.00000
468949622.88285,486172890.96587,21188231.45479,   0.00044,   0.00396,   0.00048,479201479.85405,   0.00429,279201486.37588,  -0.00074,   0.00267,   0.00021,  -6.52183,   1.00000
469320341.90457,485760910.35875,21500005.02417,   0.00045,   0.00396,   0.00048,479201961.04843,   0.00429,279201964.53172,  -0.00074,   0.00267,   0.00021,  -3.48329,   1.00000
469688766.07677,485347621.27980,21812715.73451,   0.00045,   0.00396,   0.00049,479202367.27986,   0.00429,279202370.06704,  -0.00074,   0.00267,   0.00021,  -2.78719,   1.00000
470050283.14201,484936981.99796,22126949.82467,   0.00045,   0.00396,   0.00049,479202655.69238,   0.00429,279202664.29868,  -0.00074,   0.00267,   0.00021,  -8.60630,   1.00000
470413666.22260,484520379.98858,22445726.39845,   0.00045,   0.00396,   0.00050,479202921.09286,   0.00429,279202926.65190,  -0.00074,   0.00267,   0.00021,  -5.55904,   1.00000
470769656.88887,484105737.91975,22770203.28368,   0.00046,   0.00395,   0.00050,479203077.69089,   0.00429,279203079.82544,  -0.00074,   0.00267,   0.00021,  -2.13456,   1.00000
471123288.17552,483690066.05650,23092814.28203,   0.00046,   0.00395,   0.00051,479202892.83254,   0.00429,279203079.82544,  -0.00074,   0.00267,   0.00021,-186.99290,   0.00000
471470715.40451,483259918.05870,23419561.31881,   0.00046,   0.00395,   0.00051,479194440.85859,   0.00429,279203079.82544,  -0.00074,   0.00267,   0.00021,-8638.96685,   0.00000
471776782.24910,482788409.67650,23750444.39404,   0.00046,   0.00394,   0.00051,479147022.51990,   0.00429,279203079.82544,  -0.00074,   0.00267,   0.00021,-56057.30555,   0.00000
472068372.95914,482310697.23664,24081327.46927,   0.00047,   0.00394,   0.00052,479091079.34707,   0.00429,279203079.82544,  -0.00074,   0.00267,   0.00021,-112000.47837,   0.00000
472318603.28478,481791624.41238,24412210.54450,   0.00047,   0.00394,   0.00052,478995567.11628,   0.00429,279203079.82544,  -0.00074,   0.00267,   0.00021,-207512.70916,   0.00000
472548153.41822,481251871.39592,24747229.65816,   0.00047,   0.00394,   0.00053,478881732.78076,   0.00429,279203079.82544,  -0.00074,   0.00267,   0.00021,-321347.04469,   0.00000
472757023.35946,480691438.18725,25082248.77183,   0.00047,   0.00393,   0.00053,478748959.28952,   0.00429,279203079.82544,  -0.00074,   0.00267,   0.00021,-454120.53593,   0.00000
472945213.10849,480110324.78638,25421403.92394,   0.00047,   0.00393,   0.00054,478597912.68813,   0.00429,279203079.82544,  -0.00074,   0.00267,   0.00021,-605167.13732,   0.00000
473092042.47313,479487851.00111,25760559.07605,   0.00048,   0.00393,   0.00054,478407370.70997,   0.00429,279203079.82544,  -0.00074,   0.00267,   0.00021,-795709.11548,   0.00000
473224395.70322,478859173.15818,26099714.22815,   0.00048,   0.00392,   0.00054,478208300.64948,   0.00429,279203079.82544,  -0.00074,   0.00267,   0.00021,-994779.17597,   0.00000
473329864.68344,478195338.98850,26443005.41870,   0.00048,   0.00392,   0.00055,477980653.94178,   0.00429,279203079.82544,  -0.00074,   0.00267,   0.00021,-1222425.88366,   0.00000
473393973.27927,477490144.43442,26786296.60925,   0.00048,   0.00392,   0.00055,477713567.26783,   0.00429,279203079.82544,  -0.00074,   0.00267,   0.00021,-1489512.55762,   0.00000
473443605.74055,476778745.82269,27133723.83824,   0.00048,   0.00391,   0.00056,477438675.25590,   0.00429,279203079.82544,  -0.00074,   0.00267,   0.00021,-1764404.56954,   0.00000
473451877.81743,476025986.82654,27477015.02879,   0.00048,   0.00391,   0.00056,477123655.30834,   0.00429,279203079.82544,  -0.00074,   0.00267,   0.00021,-2079424.51710,   0.00000
473460149.89432,475273227.83040,27828578.29622,   0.00049,   0.00391,   0.00057,476811818.48912,   0.00429,279203079.82544,  -0.00074,   0.00267,   0.00021,-2391261.33632,   0.00000
473427061.58679,474479108.44986,28176005.52521,   0.00049,   0.00390,   0.00057,476459881.58754,   0.00429,279203079.82544,  -0.00074,   0.00267,   0.00021,-2743198.23791,   0.00000
473358816.95253,473658104.81945,28527568.79263,   0.00049,   0.00390,   0.00058,476079611.25656,   0.00429,279203079.82544,  -0.00074,   0.00267,   0.00021,-3123468.56889,   0.00000
473278164.20294,472808148.91996,28883268.09850,   0.00049,   0.00390,   0.00058,475681325.24154,   0.00429,279203079.82544,  -0.00074,   0.00267,   0.00021,-3521754.58391,   0.00000
473154083.04973,471939580.84749,29234831.36593,   0.00049,   0.00389,   0.00059,475253238.53852,   0.00429,279203079.82544,  -0.00074,   0.00267,   0.00021,-3949841.28693,   0.00000
473017593.78120,471042060.50593,29590530.67180,   0.00049,   0.00389,   0.00059,474807206.43045,   0.00429,279203079.82544,  -0.00074,   0.00267,   0.00021,-4395873.39499,   0.00000
472845948.18592,470117655.91452,29950366.01611,   0.00049,   0.00389,   0.00059,474332948.06713,   0.00429,279203079.82544,  -0.00074,   0.00267,   0.00021,-4870131.75831,   0.00000
472653622.39845,469172571.13090,30310201.36042,   0.00049,   0.00388,   0.00060,473840012.99222,   0.00429,279203079.82544,  -0.00074,   0.00267,   0.00021,-5363066.83322,   0.00000
472440616.41877,468206806.15508,30670036.70473,   0.00050,   0.00388,   0.00060,473328417.39655,   0.00429,279203079.82544,  -0.00074,   0.00267,   0.00021,-5874662.42889,   0.00000
472192454.11235,467214156.92940,31029872.04904,   0.00050,   0.00387,   0.00061,472787840.02712,   0.00429,279203079.82544,  -0.00074,   0.00267,   0.00021,-6415239.79833,   0.00000
471902931.42153,466180147.31931,31393843.43179,   0.00050,   0.00387,   0.00061,472208903.52115,   0.00429,279203079.82544,  -0.00074,   0.00267,   0.00021,-6994176.30430,   0.00000
471613408.73070,465146137.70923,31757814.81454,   0.00050,   0.00387,   0.00062,471631908.97438,   0.00429,279203079.82544,  -0.00074,   0.00267,   0.00021,-7571170.85106,   0.00000
471282525.65548,464070767.71474,32125922.23573,   0.00050,   0.00386,   0.00062,471016642.57493,   0.00429,279203079.82544,  -0.00074,   0.00267,   0.00021,-8186437.25051,   0.00000
470930962.38805,462974717.52805,32489893.61848,   0.00050,   0.00386,   0.00063,470381983.79733,   0.00429,279203079.82544,  -0.00074,   0.00267,   0.00021,-8821096.02811,   0.00000
470544242.79387,461851783.09149,32858001.03967,   0.00050,   0.00385,   0.00063,469719279.04913,   0.00429,279203079.82544,  -0.00074,   0.00267,   0.00021,-9483800.77631,   0.00000
470136843.00750,460708168.46274,33230244.49930,   0.00050,   0.00385,   0.00064,469038944.24766,   0.00429,279203079.82544,  -0.00074,   0.00267,   0.00021,-10164135.57778,   0.00000
469708763.02893,459543873.64178,33598351.92049,   0.00050,   0.00384,   0.00064,468339254.36309,   0.00429,279203079.82544,  -0.00074,   0.00267,   0.00021,-10863825.46235,   0.00000
469239322.66595,458338218.43642,33970595.38012,   0.00050,   0.00384,   0.00065,467601489.83497,   0.00429,279203079.82544,  -0.00074,   0.00267,   0.00021,-11601589.99047,   0.00000
468755406.16843,457126359.17340,34346974.87819,   0.00050,   0.00383,   0.00065,466856327.95164,   0.00429,279203079.82544,  -0.00074,   0.00267,   0.00021,-12346751.87381,   0.00000
468230129.28650,455873139.52598,34719218.33783,   0.00050,   0.00383,   0.00066,466071353.57197,   0.00429,279203079.82544,  -0.00074,   0.00267,   0.00021,-13131726.25348,   0.00000
467684172.21238,454599239.68636,35095597.83590,   0.00050,   0.00382,   0.00066,465268941.06815,   0.00429,279203079.82544,  -0.00074,   0.00267,   0.00021,-13934138.75729,   0.00000
467117534.94605,453304659.65453,35471977.33397,   0.00050,   0.00382,   0.00067,464448204.05417,   0.00429,279203079.82544,  -0.00074,   0.00267,   0.00021,-14754875.77127,   0.00000
466515741.35298,451983195.37284,35852492.87048,   0.00050,   0.00382,   0.00067,463599691.64808,   0.00429,279203079.82544,  -0.00074,   0.00267,   0.00021,-15603388.17736,   0.00000
465893267.56771,450641050.89895,36233008.40699,   0.00050,   0.00381,   0.00068,462732919.20009,   0.00429,279203079.82544,  -0.00074,   0.00267,   0.00021,-16470160.62536,   0.00000
465250113.59024,449278226.23286,36613523.94350,   0.00050,   0.00381,   0.00068,461847915.85640,   0.00429,279203079.82544,  -0.00074,   0.00267,   0.00021,-17355163.96905,   0.00000
464571803.28602,447888517.31690,36994039.48001,   0.00050,   0.00380,   0.00069,460934252.42966,   0.00429,279203079.82544,  -0.00074,   0.00267,   0.00021,-18268827.39578,   0.00000
463872812.78960,446478128.20875,37374555.01652,   0.00050,   0.00380,   0.00069,460002404.69039,   0.00429,279203079.82544,  -0.00074,   0.00267,   0.00021,-19200675.13505,   0.00000
463132461.90878,445026378.71619,37759206.59148,   0.00050,   0.00379,   0.00070,459032967.97181,   0.00429,279203079.82544,  -0.00074,   0.00267,   0.00021,-20170111.85363,   0.00000
462392111.02796,443574629.22363,38143858.16643,   0.00050,   0.00378,   0.00070,458065899.81582,   0.00429,279203079.82544,  -0.00074,   0.00267,   0.00021,-21137180.00962,   0.00000
461595923.62820,442075315.28900,38532645.77982,   0.00050,   0.00378,   0.00071,457050885.56567,   0.00429,279203079.82544,  -0.00074,   0.00267,   0.00021,-22152194.25977,   0.00000
460793532.17077,440561525.21984,38917297.35477,   0.00050,   0.00377,   0.00071,456027305.70663,   0.00429,279203079.82544,  -0.00074,   0.00267,   0.00021,-23175774.11881,   0.00000
459947712.30972,439029122.97769,39306084.96816,   0.00050,   0.00377,   0.00072,454975749.98801,   0.00429,279203079.82544,  -0.00074,   0.00267,   0.00021,-24227329.83744,   0.00000
459089484.33335,437467768.46646,39694872.58156,   0.00049,   0.00376,   0.00072,453906818.14945,   0.00429,279203079.82544,  -0.00074,   0.00267,   0.00021,-25296261.67600,   0.00000
458196100.03024,435879529.70537,40083660.19495,   0.00049,   0.00376,   0.00073,452809484.60578,   0.00429,279203079.82544,  -0.00074,   0.00267,   0.00021,-26393595.21966,   0.00000
457282035.53492,434270610.75208,40476583.84678,   0.00049,   0.00375,   0.00073,451695401.84504,   0.00429,279203079.82544,  -0.00074,   0.00267,   0.00021,-27507677.98040,   0.00000
456332814.71286,432634807.54892,40865371.46017,   0.00049,   0.00375,   0.00074,450551873.56045,   0.00429,279203079.82544,  -0.00074,   0.00267,   0.00021,-28651206.26499,   0.00000
455362913.69860,430978324.15357,41258295.11201,   0.00049,   0.00374,   0.00074,449391693.71656,   0.00429,279203079.82544,  -0.00074,   0.00267,   0.00021,-29811386.10889,   0.00000
454372332.49214,429301160.56601,41651218.76384,   0.00049,   0.00374,   0.00075,448213794.30273,   0.00429,279203079.82544,  -0.00074,   0.00267,   0.00021,-30989285.52271,   0.00000
453346594.95894,427597112.72859,42048278.45411,   0.00049,   0.00373,   0.00075,447008841.15168,   0.00429,279203079.82544,  -0.00074,   0.00267,   0.00021,-32194238.67376,   0.00000
452300177.23353,425872384.69897,42441202.10594,   0.00049,   0.00372,   0.00076,445785094.19344,   0.00429,279203079.82544,  -0.00074,   0.00267,   0.00021,-33417985.63201,   0.00000
451233079.31592,424126976.47714,42838261.79622,   0.00048,   0.00372,   0.00076,444544949.86334,   0.00429,279203079.82544,  -0.00074,   0.00267,   0.00021,-34658129.96210,   0.00000
450130825.07157,422354684.00546,43235321.48649,   0.00048,   0.00371,   0.00077,443276725.61151,   0.00429,279203079.82544,  -0.00074,   0.00267,   0.00021,-35926354.21393,   0.00000
448993414.50048,420555507.28391,43632381.17676,   0.00048,   0.00371,   0.00077,441980454.12744,   0.00429,279203079.82544,  -0.00074,   0.00267,   0.00021,-37222625.69800,   0.00000
447849799.87172,418741854.42782,44029440.86703,   0.00048,   0.00370,   0.00078,440677323.19756,   0.00429,279203079.82544,  -0.00074,   0.00267,   0.00021,-38525756.62788,   0.00000
446671028.91623,416901317.32187,44430636.59575,   0.00048,   0.00369,   0.00078,439347494.01585,   0.00429,279203079.82544,  -0.00074,   0.00267,   0.00021,-39855585.80959,   0.00000
445450897.57632,415019419.83151,44827696.28602,   0.00048,   0.00369,   0.00079,437978783.70558,   0.00429,279203079.82544,  -0.00074,   0.00267,   0.00021,-41224296.11986,   0.00000
444216290.10188,413131318.28349,45228892.01473,   0.00047,   0.00368,   0.00079,436603819.29661,   0.00429,279203079.82544,  -0.00074,   0.00267,   0.00021,-42599260.52884,   0.00000
442961002.43524,411222536.54328,45630087.74345,   0.00047,   0.00368,   0.00080,435211663.39009,   0.00429,279203079.82544,  -0.00074,   0.00267,   0.00021,-43991416.43535,   0.00000
441685034.57639,409293074.61086,46031283.47216,   0.00047,   0.00367,   0.00080,433802376.72939,   0.00429,279203079.82544,  -0.00074,   0.00267,   0.00021,-45400703.09605,   0.00000
440373910.39081,407336728.42858,46432479.20087,   0.00047,   0.00366,   0.00081,432365411.09357,   0.00429,279203079.82544,  -0.00074,   0.00267,   0.00021,-46837668.73187,   0.00000
439027629.87847,405353497.99643,46837810.96803,   0.00047,   0.00366,   0.00081,430902163.20548,   0.00429,279203079.82544,  -0.00074,   0.00267,   0.00021,-48300916.61996,   0.00000
437660669.17394,403349587.37209,47239006.69674,   0.00046,   0.00365,   0.00082,429420623.53338,   0.00429,279203079.82544,  -0.00074,   0.00267,   0.00021,-49782456.29206,   0.00000
436273028.27721,401324996.55554,47644338.46389,   0.00046,   0.00364,   0.00082,427923574.31536,   0.00429,279203079.82544,  -0.00074,   0.00267,   0.00021,-51279505.51009,   0.00000
434864707.18827,399279725.54679,48045534.19261,   0.00046,   0.00364,   0.00083,426408339.41435,   0.00429,279203079.82544,  -0.00074,   0.00267,   0.00021,-52794740.41110,   0.00000
433421229.77259,397207570.28818,48450865.95976,   0.00046,   0.00363,   0.00084,424867134.47770,   0.00429,279203079.82544,  -0.00074,   0.00267,   0.00021,-54335945.34774,   0.00000
431957072.16471,395114734.83737,48856197.72691,   0.00045,   0.00362,   0.00084,423309279.39064,   0.00429,279203079.82544,  -0.00074,   0.00267,   0.00021,-55893800.43481,   0.00000
430457758.23009,392995015.13669,49261529.49407,   0.00045,   0.00362,   0.00085,421724205.13376,   0.00429,279203079.82544,  -0.00074,   0.00267,   0.00021,-57478874.69168,   0.00000
428943968.16092,390869091.37836,49666861.26122,   0.00045,   0.00361,   0.00085,420132153.79440,   0.00429,279203079.82544,  -0.00074,   0.00267,   0.00021,-59070926.03105,   0.00000
427403293.84190,388708011.29328,50076329.06681,   0.00045,   0.00360,   0.00086,418515621.52376,   0.00429,279203079.82544,  -0.00074,   0.00267,   0.00021,-60687458.30168,   0.00000
425827463.19613,386520046.95834,50481660.83397,   0.00044,   0.00360,   0.00086,416870625.35477,   0.00429,279203079.82544,  -0.00074,   0.00267,   0.00021,-62332454.47068,   0.00000
424237156.41581,384325878.56574,50886992.60112,   0.00044,   0.00359,   0.00087,415218841.10349,   0.00429,279203079.82544,  -0.00074,   0.00267,   0.00021,-63984238.72196,   0.00000
422605489.25110,382090349.78873,51296460.40671,   0.00044,   0.00358,   0.00087,413532267.52820,   0.00429,279203079.82544,  -0.00074,   0.00267,   0.00021,-65670812.29724,   0.00000
