# sigma_xx, sigma_yy, sigma_xy, epsilon_xx, epsilon_yy, epsilon_xy, vonMises, epsPlastic, hardening, epsilonP__xx, epsilonP__yy, epsilonP__xy, yieldValue, iteration
   0.00000,   0.00000,   0.00000,   0.00000,   0.00000,   0.00000,   0.00000,   0.00000,274640135.82653,   0.00000,   0.00000,   0.00000,-474640135.82653,   0.00000
   0.00000,   0.00000,   0.00000,   0.00000,   0.00000,   0.00000,   0.00000,   0.00000,274640135.82653,   0.00000,   0.00000,   0.00000,-474640135.82653,   0.00000
-3788611.21135,-3077212.59961,339155.15211,  -0.00001,  -0.00001,   0.00000,3536881.22376,   0.00000,274640135.82653,   0.00000,   0.00000,   0.00000,-471103254.60277,   0.00000
-7571018.36504,-6139949.06469,678310.30422,  -0.00002,  -0.00001,   0.00001,7064979.90641,   0.00000,274640135.82653,   0.00000,   0.00000,   0.00000,-467575155.92012,   0.00000
-11359629.57640,-9217161.66430,1017465.45632,  -0.00003,  -0.00002,   0.00001,10601859.21766,   0.00000,274640135.82653,   0.00000,   0.00000,   0.00000,-464038276.60887,   0.00000
-15148240.78775,-12294374.26391,1356620.60843,  -0.00004,  -0.00003,   0.00002,14138739.48575,   0.00000,274640135.82653,   0.00000,   0.00000,   0.00000,-460501396.34078,   0.00000
-18922375.86456,-15365382.80587,1691639.72210,  -0.00006,  -0.00003,   0.00002,17663144.77162,   0.00000,274640135.82653,   0.00000,   0.00000,   0.00000,-456976991.05491,   0.00000
-22696510.94137,-18436391.34782,2030794.87421,  -0.00007,  -0.00004,   0.00003,21188741.35856,   0.00000,274640135.82653,   0.00000,   0.00000,   0.00000,-453451394.46797,   0.00000
-26476850.07584,-21521876.02432,2365813.98788,  -0.00008,  -0.00005,   0.00003,24721943.29283,   0.00000,274640135.82653,   0.00000,   0.00000,   0.00000,-449918192.53370,   0.00000
-30250985.15266,-24592884.56627,2696697.06310,  -0.00009,  -0.00005,   0.00004,28245169.73345,   0.00000,274640135.82653,   0.00000,   0.00000,   0.00000,-446394966.09308,   0.00000
-34010644.09493,-27657689.05056,3031716.17677,  -0.00010,  -0.00006,   0.00004,31758302.30840,   0.00000,274640135.82653,   0.00000,   0.00000,   0.00000,-442881833.51813,   0.00000
-37770303.03720,-30722493.53485,3362599.25200,  -0.00011,  -0.00007,   0.00004,35270252.77539,   0.00000,274640135.82653,   0.00000,   0.00000,   0.00000,-439369883.05114,   0.00000
-41521689.90259,-33795570.09603,3693482.32722,  -0.00012,  -0.00007,   0.00005,38779731.09729,   0.00000,274640135.82653,   0.00000,   0.00000,   0.00000,-435860404.72924,   0.00000
-45281348.84486,-36860374.58032,4024365.40245,  -0.00013,  -0.00008,   0.00005,42291687.57764,   0.00000,274640135.82653,   0.00000,   0.00000,   0.00000,-432348448.24889,   0.00000
-49032735.71025,-39933451.14149,4351112.43924,  -0.00015,  -0.00009,   0.00006,45799998.62291,   0.00000,274640135.82653,   0.00000,   0.00000,   0.00000,-428840137.20362,   0.00000
-52777918.51797,-42992051.56813,4681995.51447,  -0.00016,  -0.00009,   0.00006,49300683.89521,   0.00000,274640135.82653,   0.00000,   0.00000,   0.00000,-425339451.93132,   0.00000
-56514829.24882,-46058924.07164,5008742.55125,  -0.00017,  -0.00010,   0.00007,52797733.74115,   0.00000,274640135.82653,   0.00000,   0.00000,   0.00000,-421842402.08538,   0.00000
-60260012.05655,-49117524.49827,5331353.54960,  -0.00018,  -0.00011,   0.00007,56296071.26126,   0.00000,274640135.82653,   0.00000,   0.00000,   0.00000,-418344064.56527,   0.00000
-63996922.78740,-52184397.00179,5658100.58639,  -0.00019,  -0.00011,   0.00007,59793134.20288,   0.00000,274640135.82653,   0.00000,   0.00000,   0.00000,-414847001.62365,   0.00000
-67727629.46059,-55236793.37076,5980711.58473,  -0.00020,  -0.00012,   0.00008,63280208.54428,   0.00000,274640135.82653,   0.00000,   0.00000,   0.00000,-411359927.28225,   0.00000
-71450064.05690,-58297461.81661,6303322.58308,  -0.00021,  -0.00013,   0.00008,66764840.69929,   0.00000,274640135.82653,   0.00000,   0.00000,   0.00000,-407875295.12724,   0.00000
-75166294.59554,-61343654.12792,6621797.54299,  -0.00022,  -0.00013,   0.00009,70239484.44674,   0.00000,274640135.82653,   0.00000,   0.00000,   0.00000,-404400651.37979,   0.00000
-78888729.19185,-64404322.57377,6944408.54133,  -0.00023,  -0.00014,   0.00009,73724131.91996,   0.00000,274640135.82653,   0.00000,   0.00000,   0.00000,-400916003.90657,   0.00000
-82611163.78816,-67464991.01963,7262883.50124,  -0.00024,  -0.00015,   0.00009,77207618.81369,   0.00000,274640135.82653,   0.00000,   0.00000,   0.00000,-397432517.01284,   0.00000
-86312918.19226,-70504979.27328,7577222.42271,  -0.00026,  -0.00015,   0.00010,80669847.77448,   0.00000,274640135.82653,   0.00000,   0.00000,   0.00000,-393970288.05205,   0.00000
-90020876.65403,-73559443.66147,7895697.38261,  -0.00027,  -0.00016,   0.00010,84142085.14311,   0.00000,274640135.82653,   0.00000,   0.00000,   0.00000,-390498050.68342,   0.00000
-93722631.05813,-76599431.91512,8210036.30408,  -0.00028,  -0.00017,   0.00011,87604328.28278,   0.00000,274640135.82653,   0.00000,   0.00000,   0.00000,-387035807.54375,   0.00000
-97416113.38536,-79647692.24565,8524375.22554,  -0.00029,  -0.00017,   0.00011,91064155.00865,   0.00000,274640135.82653,   0.00000,   0.00000,   0.00000,-383575980.81788,   0.00000
-101117867.78946,-82687680.49930,8834578.10857,  -0.00030,  -0.00018,   0.00011,94525250.90771,   0.00000,274640135.82653,   0.00000,   0.00000,   0.00000,-380114884.91882,   0.00000
-104811350.11669,-85735940.82983,9144780.99159,  -0.00031,  -0.00019,   0.00012,97983937.50770,   0.00000,274640135.82653,   0.00000,   0.00000,   0.00000,-376656198.31883,   0.00000
-108484152.25171,-88763520.96816,9454983.87462,  -0.00032,  -0.00019,   0.00012,101422526.00649,   0.00000,274640135.82653,   0.00000,   0.00000,   0.00000,-373217609.82004,   0.00000
-112171430.52128,-91797305.16415,9765186.75765,  -0.00033,  -0.00020,   0.00013,104872382.63511,   0.00000,274640135.82653,   0.00000,   0.00000,   0.00000,-369767753.19142,   0.00000
-115844232.65630,-94824885.30248,10071253.60223,  -0.00034,  -0.00021,   0.00013,108309830.97175,   0.00000,274640135.82653,   0.00000,   0.00000,   0.00000,-366330304.85478,   0.00000
-119508762.71444,-97860737.51769,10377320.44682,  -0.00035,  -0.00021,   0.00013,111744883.52023,   0.00000,274640135.82653,   0.00000,   0.00000,   0.00000,-362895252.30630,   0.00000
-123181564.84946,-100888317.65602,10679251.25296,  -0.00036,  -0.00022,   0.00014,115181200.44651,   0.00000,274640135.82653,   0.00000,   0.00000,   0.00000,-359458935.38002,   0.00000
-126839890.84995,-103909693.73669,10981182.05911,  -0.00037,  -0.00023,   0.00014,118606269.77404,   0.00000,274640135.82653,   0.00000,   0.00000,   0.00000,-356033866.05249,   0.00000
-130498216.85043,-106931069.81736,11283112.86525,  -0.00039,  -0.00023,   0.00015,122031349.51373,   0.00000,274640135.82653,   0.00000,   0.00000,   0.00000,-352608786.31280,   0.00000
-134142066.71637,-109946241.84037,11580907.63296,  -0.00040,  -0.00024,   0.00015,125444036.58367,   0.00000,274640135.82653,   0.00000,   0.00000,   0.00000,-349196099.24286,   0.00000
-137800392.71685,-112967617.92104,11878702.40066,  -0.00041,  -0.00025,   0.00015,128867992.65154,   0.00000,274640135.82653,   0.00000,   0.00000,   0.00000,-345772143.17499,   0.00000
-141438038.52513,-115968313.80951,12176497.16836,  -0.00042,  -0.00025,   0.00016,132271837.37760,   0.00000,274640135.82653,   0.00000,   0.00000,   0.00000,-342368298.44893,   0.00000
-145081888.39107,-118983485.83252,12474291.93607,  -0.00043,  -0.00026,   0.00016,135684558.09694,   0.00000,274640135.82653,   0.00000,   0.00000,   0.00000,-338955577.72959,   0.00000
-148711262.12247,-121992453.79787,12767950.66533,  -0.00044,  -0.00027,   0.00017,139084895.60179,   0.00000,274640135.82653,   0.00000,   0.00000,   0.00000,-335555240.22474,   0.00000
-152334431.79621,-124986945.62867,13057473.35616,  -0.00045,  -0.00027,   0.00017,142475237.06003,   0.00000,274640135.82653,   0.00000,   0.00000,   0.00000,-332164898.76650,   0.00000
-155957601.46995,-127981437.45948,13351132.08542,  -0.00046,  -0.00028,   0.00017,145866726.69079,   0.00000,274640135.82653,   0.00000,   0.00000,   0.00000,-328773409.13574,   0.00000
-159572499.06681,-130984201.36717,13640654.77625,  -0.00047,  -0.00028,   0.00018,149254713.50670,   0.00000,274640135.82653,   0.00000,   0.00000,   0.00000,-325385422.31983,   0.00000
-163195668.74055,-133978693.19797,13926041.42863,  -0.00048,  -0.00029,   0.00018,152643958.22599,   0.00000,274640135.82653,   0.00000,   0.00000,   0.00000,-321996177.60054,   0.00000
-166804362.27974,-136966980.97112,14211428.08101,  -0.00049,  -0.00030,   0.00018,156021964.16508,   0.00000,274640135.82653,   0.00000,   0.00000,   0.00000,-318618171.66144,   0.00000
-170398579.68440,-139949064.68661,14496814.73340,  -0.00050,  -0.00030,   0.00019,159388731.49192,   0.00000,274640135.82653,   0.00000,   0.00000,   0.00000,-315251404.33461,   0.00000
-173986593.03140,-142916672.26755,14778065.34734,  -0.00051,  -0.00031,   0.00019,162745502.29643,   0.00000,274640135.82653,   0.00000,   0.00000,   0.00000,-311894633.53010,   0.00000
-177580810.43605,-145898755.98304,15059315.96128,  -0.00052,  -0.00032,   0.00020,166111170.28999,   0.00000,274640135.82653,   0.00000,   0.00000,   0.00000,-308528965.53654,   0.00000
-181168823.78305,-148866363.56398,15340566.57523,  -0.00053,  -0.00032,   0.00020,169467967.09850,   0.00000,274640135.82653,   0.00000,   0.00000,   0.00000,-305172168.72803,   0.00000
-184763041.18770,-151848447.27947,15617681.15073,  -0.00054,  -0.00033,   0.00020,172832541.22042,   0.00000,274640135.82653,   0.00000,   0.00000,   0.00000,-301807594.60611,   0.00000
-188336578.40016,-154809850.80275,15894795.72623,  -0.00056,  -0.00034,   0.00021,176176992.42454,   0.00000,274640135.82653,   0.00000,   0.00000,   0.00000,-298463143.40199,   0.00000
-191895639.47807,-157765050.26838,16171910.30173,  -0.00057,  -0.00034,   0.00021,179510206.88742,   0.00000,274640135.82653,   0.00000,   0.00000,   0.00000,-295129928.93911,   0.00000
-195469176.69053,-160726453.79166,16444888.83880,  -0.00058,  -0.00035,   0.00021,182853568.45365,   0.00000,274640135.82653,   0.00000,   0.00000,   0.00000,-291786567.37288,   0.00000
-199022033.71078,-163667177.12274,16713731.33742,  -0.00059,  -0.00036,   0.00022,186175687.92055,   0.00000,274640135.82653,   0.00000,   0.00000,   0.00000,-288464447.90598,   0.00000
-202581094.78869,-166622376.58837,16982573.83604,  -0.00060,  -0.00036,   0.00022,189506718.40984,   0.00000,274640135.82653,   0.00000,   0.00000,   0.00000,-285133417.41669,   0.00000
-206119475.67441,-169556895.86179,17251416.33466,  -0.00061,  -0.00037,   0.00022,192817620.59320,   0.00000,274640135.82653,   0.00000,   0.00000,   0.00000,-281822515.23333,   0.00000
-209672332.69466,-172497619.19287,17520258.83329,  -0.00062,  -0.00038,   0.00023,196139786.71636,   0.00000,274640135.82653,   0.00000,   0.00000,   0.00000,-278500349.11017,   0.00000
-213210713.58037,-175432138.46629,17784965.29347,  -0.00063,  -0.00038,   0.00023,199449610.51967,   0.00000,274640135.82653,   0.00000,   0.00000,   0.00000,-275190525.30686,   0.00000
-216734618.33154,-178360453.68206,18045535.71521,  -0.00064,  -0.00039,   0.00023,202747097.25299,   0.00000,274640135.82653,   0.00000,   0.00000,   0.00000,-271893038.57354,   0.00000
-220272999.21725,-181294972.95548,18306106.13695,  -0.00065,  -0.00040,   0.00024,206055852.94495,   0.00000,274640135.82653,   0.00000,   0.00000,   0.00000,-268584282.88158,   0.00000
-223790699.91076,-184208812.03670,18566676.55869,  -0.00066,  -0.00040,   0.00024,209344475.10838,   0.00000,274640135.82653,   0.00000,   0.00000,   0.00000,-265295660.71815,   0.00000
-227293924.46973,-187116447.06026,18827246.98043,  -0.00067,  -0.00041,   0.00024,212621863.79283,   0.00000,274640135.82653,   0.00000,   0.00000,   0.00000,-262018272.03370,   0.00000
-230811625.16324,-190030286.14148,19079545.32529,  -0.00068,  -0.00041,   0.00025,215908322.99015,   0.00000,274640135.82653,   0.00000,   0.00000,   0.00000,-258731812.83638,   0.00000
-234314849.72221,-192937921.16504,19335979.70860,  -0.00069,  -0.00042,   0.00025,219184649.44927,   0.00000,274640135.82653,   0.00000,   0.00000,   0.00000,-255455486.37725,   0.00000
-237797394.08898,-195824875.99640,19588278.05346,  -0.00070,  -0.00043,   0.00025,222439743.29259,   0.00000,274640135.82653,   0.00000,   0.00000,   0.00000,-252200392.53394,   0.00000
-241294414.59029,-198718034.88542,19840576.39832,  -0.00071,  -0.00043,   0.00026,225706104.08324,   0.00000,274640135.82653,   0.00000,   0.00000,   0.00000,-248934031.74329,   0.00000
-244776958.95706,-201604989.71677,20088738.70474,  -0.00072,  -0.00044,   0.00026,228960143.88921,   0.00000,274640135.82653,   0.00000,   0.00000,   0.00000,-245679991.93732,   0.00000
-248259503.32382,-204491944.54813,20332764.97272,  -0.00073,  -0.00045,   0.00026,232213117.16338,   0.00000,274640135.82653,   0.00000,   0.00000,   0.00000,-242427018.66315,   0.00000
-251727571.55605,-207372695.32183,20580927.27914,  -0.00074,  -0.00045,   0.00027,235455948.63829,   0.00000,274640135.82653,   0.00000,   0.00000,   0.00000,-239184187.18824,   0.00000
-255189435.73062,-210238969.96099,20824953.54712,  -0.00075,  -0.00046,   0.00027,238688802.74650,   0.00000,274640135.82653,   0.00000,   0.00000,   0.00000,-235951333.08003,   0.00000
-258651299.90518,-213105244.60014,21064843.77666,  -0.00076,  -0.00047,   0.00027,241920595.68440,   0.00000,274640135.82653,   0.00000,   0.00000,   0.00000,-232719540.14213,   0.00000
-262098687.94521,-215965315.18164,21304734.00620,  -0.00077,  -0.00047,   0.00028,245141161.18381,   0.00000,274640135.82653,   0.00000,   0.00000,   0.00000,-229498974.64272,   0.00000
-265539871.92757,-218810909.62859,21544624.23574,  -0.00078,  -0.00048,   0.00028,248352832.35157,   0.00000,274640135.82653,   0.00000,   0.00000,   0.00000,-226287303.47496,   0.00000
-268987259.96759,-221670980.21009,21780378.42684,  -0.00079,  -0.00048,   0.00028,251572364.46872,   0.00000,274640135.82653,   0.00000,   0.00000,   0.00000,-223067771.35781,   0.00000
-272428443.94996,-224516574.65704,22011996.57950,  -0.00080,  -0.00049,   0.00029,254781930.82356,   0.00000,274640135.82653,   0.00000,   0.00000,   0.00000,-219858205.00297,   0.00000
-275848947.74012,-227341488.91180,22243614.73216,  -0.00081,  -0.00050,   0.00029,257971353.53568,   0.00000,274640135.82653,   0.00000,   0.00000,   0.00000,-216668782.29085,   0.00000
-279275655.58794,-230180879.30109,22475232.88481,  -0.00082,  -0.00050,   0.00029,261169717.44243,   0.00000,274640135.82653,   0.00000,   0.00000,   0.00000,-213470418.38410,   0.00000
-282681683.24356,-232999589.49818,22702714.99903,  -0.00083,  -0.00051,   0.00030,264346867.57802,   0.00000,274640135.82653,   0.00000,   0.00000,   0.00000,-210293268.24851,   0.00000
-286087710.89919,-235818299.69528,22930197.11325,  -0.00084,  -0.00052,   0.00030,267524042.04053,   0.00000,274640135.82653,   0.00000,   0.00000,   0.00000,-207116093.78600,   0.00000
-289493738.55481,-238637009.89237,23157679.22747,  -0.00085,  -0.00052,   0.00030,270701239.97340,   0.00000,274640135.82653,   0.00000,   0.00000,   0.00000,-203938895.85313,   0.00000
-292893562.15277,-241441243.95492,23376889.26481,  -0.00086,  -0.00053,   0.00030,273867420.28869,   0.00000,274640135.82653,   0.00000,   0.00000,   0.00000,-200772715.53784,   0.00000
-296278909.61619,-244239273.95981,23600235.34059,  -0.00087,  -0.00053,   0.00031,277023433.62594,   0.00000,274640135.82653,   0.00000,   0.00000,   0.00000,-197616702.20059,   0.00000
-299658053.02194,-247022827.83016,23819445.37793,  -0.00088,  -0.00054,   0.00031,280169492.45927,   0.00000,274640135.82653,   0.00000,   0.00000,   0.00000,-194470643.36726,   0.00000
-303028924.35082,-249814653.77739,24034519.37682,  -0.00089,  -0.00055,   0.00031,283312193.13493,   0.00000,274640135.82653,   0.00000,   0.00000,   0.00000,-191327942.69160,   0.00000
-306393591.62204,-252592003.59008,24249593.37572,  -0.00090,  -0.00055,   0.00032,286445999.11047,   0.00000,274640135.82653,   0.00000,   0.00000,   0.00000,-188194136.71606,   0.00000
-309752054.83560,-255354877.26823,24464667.37462,  -0.00091,  -0.00056,   0.00032,289570907.93565,   0.00000,274640135.82653,   0.00000,   0.00000,   0.00000,-185069227.89088,   0.00000
-313116722.10682,-258132227.08092,24675605.33508,  -0.00092,  -0.00056,   0.00032,292703720.51431,   0.00000,274640135.82653,   0.00000,   0.00000,   0.00000,-181936415.31222,   0.00000
-316460709.18583,-260888896.70141,24886543.29553,  -0.00093,  -0.00057,   0.00032,295816381.76957,   0.00000,274640135.82653,   0.00000,   0.00000,   0.00000,-178823754.05696,   0.00000
-319804696.26485,-263645566.32189,25093345.21755,  -0.00094,  -0.00058,   0.00033,298928028.22371,   0.00000,274640135.82653,   0.00000,   0.00000,   0.00000,-175712107.60281,   0.00000
-323128003.15166,-266381555.75018,25300147.13957,  -0.00095,  -0.00058,   0.00033,302019522.24075,   0.00000,274640135.82653,   0.00000,   0.00000,   0.00000,-172620613.58578,   0.00000
-326451310.03848,-269117545.17847,25502813.02314,  -0.00096,  -0.00059,   0.00033,305110006.69783,   0.00000,274640135.82653,   0.00000,   0.00000,   0.00000,-169530129.12870,   0.00000
-329774616.92529,-271853534.60675,25705478.90672,  -0.00097,  -0.00059,   0.00033,308200522.30512,   0.00000,274640135.82653,   0.00000,   0.00000,   0.00000,-166439613.52141,   0.00000
-333077243.61990,-274568843.84283,25904008.75186,  -0.00098,  -0.00060,   0.00034,311269850.03980,   0.00000,274640135.82653,   0.00000,   0.00000,   0.00000,-163370285.78673,   0.00000
-336379870.31451,-277284153.07892,26102538.59699,  -0.00099,  -0.00061,   0.00034,314339209.79122,   0.00000,274640135.82653,   0.00000,   0.00000,   0.00000,-160300926.03531,   0.00000
-339682497.00913,-279999462.31500,26296932.40369,  -0.00100,  -0.00061,   0.00034,317407572.55019,   0.00000,274640135.82653,   0.00000,   0.00000,   0.00000,-157232563.27634,   0.00000
-342978919.64608,-282700295.41655,26491326.21039,  -0.00101,  -0.00062,   0.00034,320467042.82618,   0.00000,274640135.82653,   0.00000,   0.00000,   0.00000,-154173093.00035,   0.00000
-346260866.14849,-285394924.46043,26681583.97864,  -0.00102,  -0.00062,   0.00035,323514261.45760,   0.00000,274640135.82653,   0.00000,   0.00000,   0.00000,-151125874.36893,   0.00000
-349522132.45870,-288068873.31211,26871841.74690,  -0.00103,  -0.00063,   0.00035,326541326.00847,   0.00000,274640135.82653,   0.00000,   0.00000,   0.00000,-148098809.81806,   0.00000
-352797874.90345,-290749026.22145,27057963.47671,  -0.00104,  -0.00063,   0.00035,329578667.94812,   0.00000,274640135.82653,   0.00000,   0.00000,   0.00000,-145061467.87841,   0.00000
-356044665.07912,-293416771.01547,27244085.20653,  -0.00105,  -0.00064,   0.00035,332593520.10505,   0.00000,274640135.82653,   0.00000,   0.00000,   0.00000,-142046615.72148,   0.00000
-359299727.33167,-296076243.73261,27430206.93634,  -0.00106,  -0.00065,   0.00036,335610743.68772,   0.00000,274640135.82653,   0.00000,   0.00000,   0.00000,-139029392.13881,   0.00000
-362540313.44967,-298729512.39209,27612192.62772,  -0.00107,  -0.00065,   0.00036,338615724.58472,   0.00000,274640135.82653,   0.00000,   0.00000,   0.00000,-136024411.24181,   0.00000
-365780899.56768,-301382781.05157,27790042.28065,  -0.00108,  -0.00066,   0.00036,341619732.72273,   0.00000,274640135.82653,   0.00000,   0.00000,   0.00000,-133020403.10380,   0.00000
-369015281.62803,-304021573.57650,27967891.93359,  -0.00109,  -0.00066,   0.00036,344614854.03018,   0.00000,274640135.82653,   0.00000,   0.00000,   0.00000,-130025281.79635,   0.00000
-372228983.49617,-306639685.90924,28145741.58652,  -0.00110,  -0.00067,   0.00037,347589819.83351,   0.00000,274640135.82653,   0.00000,   0.00000,   0.00000,-127050315.99301,   0.00000
-375448889.42198,-309272274.37652,28319455.20102,  -0.00111,  -0.00068,   0.00037,350572747.01721,   0.00000,274640135.82653,   0.00000,   0.00000,   0.00000,-124067388.80932,   0.00000
-378648115.15558,-311884182.65159,28489032.77707,  -0.00111,  -0.00068,   0.00037,353534518.19728,   0.00000,274640135.82653,   0.00000,   0.00000,   0.00000,-121105617.62925,   0.00000
-381841136.83153,-314481614.79213,28662746.39157,  -0.00112,  -0.00069,   0.00037,356488403.18633,   0.00000,274640135.82653,   0.00000,   0.00000,   0.00000,-118151732.64020,   0.00000
-385034158.50747,-317079046.93266,28828187.92918,  -0.00113,  -0.00069,   0.00037,359440335.05306,   0.00000,274640135.82653,   0.00000,   0.00000,   0.00000,-115199800.77347,   0.00000
-388227180.18341,-319676479.07320,28993629.46679,  -0.00114,  -0.00070,   0.00038,362392312.71265,   0.00000,274640135.82653,   0.00000,   0.00000,   0.00000,-112247823.11388,   0.00000
-391399521.66715,-322253231.02153,29159071.00441,  -0.00115,  -0.00070,   0.00038,365324135.87538,   0.00000,274640135.82653,   0.00000,   0.00000,   0.00000,-109315999.95115,   0.00000
-394557387.01635,-324823778.91220,29320376.50358,  -0.00116,  -0.00071,   0.00038,368243738.55170,   0.00000,274640135.82653,   0.00000,   0.00000,   0.00000,-106396397.27483,   0.00000
-397723524.44244,-327386054.72599,29481682.00275,  -0.00117,  -0.00071,   0.00038,371165736.43882,   0.00000,274640135.82653,   0.00000,   0.00000,   0.00000,-103474399.38771,   0.00000
-400860709.59944,-329935922.42446,29638851.46349,  -0.00118,  -0.00072,   0.00039,374064243.10465,   0.00000,274640135.82653,   0.00000,   0.00000,   0.00000,-100575892.72188,   0.00000
-404006166.83331,-332477518.04605,29796020.92422,  -0.00119,  -0.00072,   0.00039,376965149.33097,   0.00000,274640135.82653,   0.00000,   0.00000,   0.00000,-97674986.49556,   0.00000
-407137147.93265,-335012909.60998,29949054.34651,  -0.00120,  -0.00073,   0.00039,379853845.39531,   0.00000,274640135.82653,   0.00000,   0.00000,   0.00000,-94786290.43122,   0.00000
-410268129.03199,-337548301.17391,30097951.73036,  -0.00121,  -0.00074,   0.00039,382741614.45987,   0.00000,274640135.82653,   0.00000,   0.00000,   0.00000,-91898521.36666,   0.00000
-413378429.93913,-340063012.54564,30250985.15266,  -0.00122,  -0.00074,   0.00039,385610205.96217,   0.00000,274640135.82653,   0.00000,   0.00000,   0.00000,-89029929.86436,   0.00000
-416497002.92315,-342569451.84049,30395746.49807,  -0.00123,  -0.00075,   0.00040,388479262.00660,   0.00000,274640135.82653,   0.00000,   0.00000,   0.00000,-86160873.81993,   0.00000
-419586623.63808,-345063483.02001,30544643.88192,  -0.00124,  -0.00075,   0.00040,391326776.59261,   0.00000,274640135.82653,   0.00000,   0.00000,   0.00000,-83313359.23392,   0.00000
-422690720.48756,-347563718.25720,30689405.22733,  -0.00125,  -0.00076,   0.00040,394184656.89219,   0.00000,274640135.82653,   0.00000,   0.00000,   0.00000,-80455478.93434,   0.00000
-425774137.14483,-350043273.30218,30830030.53430,  -0.00125,  -0.00076,   0.00040,397021421.00922,   0.00000,274640135.82653,   0.00000,   0.00000,   0.00000,-77618714.81731,   0.00000
-428836873.60990,-352502148.15496,30970655.84128,  -0.00126,  -0.00077,   0.00040,399838034.75351,   0.00000,274640135.82653,   0.00000,   0.00000,   0.00000,-74802101.07302,   0.00000
-431905814.13264,-354975499.14229,31107145.10981,  -0.00127,  -0.00077,   0.00040,402662661.23065,   0.00000,274640135.82653,   0.00000,   0.00000,   0.00000,-71977474.59588,   0.00000
-434962346.54005,-357419897.86053,31243634.37834,  -0.00128,  -0.00078,   0.00041,405469509.19673,   0.00000,274640135.82653,   0.00000,   0.00000,   0.00000,-69170626.62980,   0.00000
-438004402.81292,-359858092.52111,31375987.60843,  -0.00129,  -0.00078,   0.00041,408264170.01684,   0.00000,274640135.82653,   0.00000,   0.00000,   0.00000,-66375965.80969,   0.00000
-441046459.08579,-362296287.18169,31508340.83852,  -0.00130,  -0.00079,   0.00041,411058889.70259,   0.00000,274640135.82653,   0.00000,   0.00000,   0.00000,-63581246.12394,   0.00000
-444082311.30100,-364720005.70773,31640694.06861,  -0.00131,  -0.00079,   0.00041,413844752.56419,   0.00000,274640135.82653,   0.00000,   0.00000,   0.00000,-60795383.26234,   0.00000
-447103687.38167,-367137520.17611,31764775.22182,  -0.00132,  -0.00080,   0.00041,416617486.16582,   0.00000,274640135.82653,   0.00000,   0.00000,   0.00000,-58022649.66071,   0.00000
-450118859.40468,-369540558.50995,31892992.41347,  -0.00133,  -0.00080,   0.00041,419382315.04274,   0.00000,274640135.82653,   0.00000,   0.00000,   0.00000,-55257820.78379,   0.00000
-453127827.37003,-371929120.70925,32017073.56668,  -0.00134,  -0.00081,   0.00042,422137351.30326,   0.00000,274640135.82653,   0.00000,   0.00000,   0.00000,-52502784.52327,   0.00000
-456122319.20083,-374311478.85088,32137018.68145,  -0.00135,  -0.00081,   0.00042,424880215.29005,   0.00000,274640135.82653,   0.00000,   0.00000,   0.00000,-49759920.53648,   0.00000
-459116811.03164,-376693836.99252,32256963.79622,  -0.00135,  -0.00082,   0.00042,427623145.96474,   0.00000,274640135.82653,   0.00000,   0.00000,   0.00000,-47016989.86178,   0.00000
-462090622.67025,-379055514.94196,32376908.91099,  -0.00136,  -0.00082,   0.00042,430345931.47079,   0.00000,274640135.82653,   0.00000,   0.00000,   0.00000,-44294204.35574,   0.00000
-465064434.30885,-381417192.89139,32492717.98732,  -0.00137,  -0.00083,   0.00042,433067849.43132,   0.00000,274640135.82653,   0.00000,   0.00000,   0.00000,-41572286.39521,   0.00000
-468011361.69760,-383743714.51408,32608527.06365,  -0.00138,  -0.00083,   0.00042,435760717.41984,   0.00000,274640135.82653,   0.00000,   0.00000,   0.00000,-38879418.40669,   0.00000
-470964493.14400,-386084712.27132,32720200.10154,  -0.00139,  -0.00084,   0.00043,438461631.74280,   0.00000,274640135.82653,   0.00000,   0.00000,   0.00000,-36178504.08373,   0.00000
-473911420.53274,-388411233.89401,32827737.10099,  -0.00140,  -0.00084,   0.00043,441152788.14755,   0.00000,274640135.82653,   0.00000,   0.00000,   0.00000,-33487347.67898,   0.00000
-476852143.86383,-390723279.38216,32939410.13888,  -0.00141,  -0.00085,   0.00043,443836038.36178,   0.00000,274640135.82653,   0.00000,   0.00000,   0.00000,-30804097.46475,   0.00000
-479778391.06037,-393029120.81265,33042811.09989,  -0.00142,  -0.00085,   0.00043,446506211.83587,   0.00000,274640135.82653,   0.00000,   0.00000,   0.00000,-28133923.99065,   0.00000
-482683958.06471,-395314282.05094,33150348.09934,  -0.00143,  -0.00086,   0.00043,449157165.54891,   0.00000,274640135.82653,   0.00000,   0.00000,   0.00000,-25482970.27762,   0.00000
-485589525.06905,-397599443.28923,33249613.02190,  -0.00143,  -0.00086,   0.00043,451806362.97475,   0.00000,274640135.82653,   0.00000,   0.00000,   0.00000,-22833772.85178,   0.00000
-488488888.01573,-399870128.39297,33353013.98291,  -0.00144,  -0.00087,   0.00043,454447653.25799,   0.00000,274640135.82653,   0.00000,   0.00000,   0.00000,-20192482.56854,   0.00000
-491367570.77020,-402120133.30452,33452278.90548,  -0.00145,  -0.00087,   0.00043,457067897.63200,   0.00000,274640135.82653,   0.00000,   0.00000,   0.00000,-17572238.19453,   0.00000
-494246253.52468,-404370138.21606,33547407.78961,  -0.00146,  -0.00088,   0.00044,459687315.09769,   0.00000,274640135.82653,   0.00000,   0.00000,   0.00000,-14952820.72884,   0.00000
-497124936.27916,-406620143.12761,33642536.67374,  -0.00147,  -0.00088,   0.00044,462306814.94768,   0.00000,274640135.82653,   0.00000,   0.00000,   0.00000,-12333320.87885,   0.00000
-499976734.78377,-408834991.71241,33733529.51942,  -0.00148,  -0.00089,   0.00044,464896391.24575,   0.00000,274640135.82653,   0.00000,   0.00000,   0.00000,-9743744.58078,   0.00000
-502834737.34605,-411064316.43176,33824522.36511,  -0.00149,  -0.00089,   0.00044,467494944.01519,   0.00000,274640135.82653,   0.00000,   0.00000,   0.00000,-7145191.81134,   0.00000
-505665855.65846,-413258484.82436,33915515.21080,  -0.00149,  -0.00089,   0.00044,470064478.59559,   0.00000,274640135.82653,   0.00000,   0.00000,   0.00000,-4575657.23094,   0.00000
-508496973.97088,-415452653.21696,34002372.01805,  -0.00150,  -0.00090,   0.00044,472633205.05664,   0.00000,274640135.82653,   0.00000,   0.00000,   0.00000,-2006930.76989,   0.00000
-510708051.08152,-417170215.31906,34067308.20338,  -0.00151,  -0.00090,   0.00044,474640136.12278,   0.00000,274640135.82653,   0.00000,   0.00000,   0.00000,   0.29625,   0.00000
-510718683.73750,-417174122.57988,34038357.84616,  -0.00151,  -0.00090,   0.00044,474640136.12278,   0.00000,274642004.65584,  -0.00000,  -0.00000,   0.00000,   0.55451,   1.00000
-510770115.45870,-417184872.65690,33909166.06103,  -0.00152,  -0.00091,   0.00044,477190693.71833,   0.00001,274650669.30714,  -0.00001,  -0.00001,   0.00000,   0.00000,   2.00000
-510826453.01123,-417190107.18817,33773459.50332,  -0.00153,  -0.00091,   0.00045,477188793.80169,   0.00002,274659296.38623,  -0.00002,  -0.00001,   0.00001,   0.00000,   2.00000
-510882616.91673,-417191008.19068,33644328.03111,  -0.00154,  -0.00092,   0.00045,477178184.04721,   0.00003,274667856.49573,  -0.00003,  -0.00001,   0.00001,   0.00000,   2.00000
-510940249.35826,-417193336.11010,33507922.74947,  -0.00155,  -0.00092,   0.00045,477185081.23309,   0.00003,274676409.34347,  -0.00003,  -0.00002,   0.00001,   0.00000,   2.00000
-510994318.27284,-417198250.13123,33377340.55886,  -0.00155,  -0.00092,   0.00045,477183272.95440,   0.00004,274684925.39537,  -0.00004,  -0.00002,   0.00001,   0.00000,   2.00000
-511052315.52242,-417196923.02986,33244260.05948,  -0.00156,  -0.00093,   0.00045,477182128.90982,   0.00005,274693407.07859,  -0.00005,  -0.00003,   0.00002,  -0.00000,   2.00000
-511114208.63155,-417189384.41605,33108689.55895,  -0.00157,  -0.00093,   0.00045,477180961.50744,   0.00006,274701854.47514,  -0.00006,  -0.00003,   0.00002,   0.00000,   2.00000
-511176860.16190,-417178329.96045,32975606.86147,  -0.00158,  -0.00094,   0.00045,477169294.18703,   0.00006,274710232.10001,  -0.00007,  -0.00004,   0.00002,   0.00000,   2.00000
-511236875.45045,-417170682.48585,32844258.28002,  -0.00159,  -0.00094,   0.00045,477166434.43132,   0.00007,274718570.11112,  -0.00008,  -0.00004,   0.00003,   0.00000,   2.00000
-511299542.20953,-417160354.82130,32708739.80366,  -0.00160,  -0.00095,   0.00045,477185358.33760,   0.00008,274726942.59842,  -0.00008,  -0.00004,   0.00003,   0.00000,   2.00000
-511367293.59299,-417140341.75547,32572359.55236,  -0.00160,  -0.00095,   0.00045,477163884.44865,   0.00009,274735212.39209,  -0.00009,  -0.00005,   0.00003,  -0.00000,   2.00000
-511428065.84031,-417129970.71041,32441037.91479,  -0.00161,  -0.00095,   0.00045,477170650.50390,   0.00009,274743475.67139,  -0.00010,  -0.00005,   0.00003,   0.00000,   2.00000
-511497019.11599,-417107223.70741,32303843.83222,  -0.00162,  -0.00096,   0.00046,477159569.24809,   0.00010,274751671.96585,  -0.00011,  -0.00006,   0.00004,   0.00000,   2.00000
-511562401.35912,-417087235.10558,32172416.66537,  -0.00163,  -0.00096,   0.00046,477157377.02065,   0.00011,274759831.69151,  -0.00012,  -0.00006,   0.00004,   0.00000,   2.00000
-511633773.26098,-417057707.70665,32037526.09092,  -0.00164,  -0.00097,   0.00046,477167279.43291,   0.00012,274767996.04791,  -0.00012,  -0.00007,   0.00004,   0.00000,   2.00000
-511704626.66491,-417028881.10689,31901894.30928,  -0.00165,  -0.00097,   0.00046,477143150.91053,   0.00012,274776049.62110,  -0.00013,  -0.00007,   0.00004,   0.00000,   2.00000
-511774968.18278,-417000155.90369,31767054.64307,  -0.00165,  -0.00097,   0.00046,477151324.23161,   0.00013,274784102.35016,  -0.00014,  -0.00007,   0.00005,   0.00000,   2.00000
-511848207.06378,-416964619.51970,31633700.95269,  -0.00166,  -0.00098,   0.00046,477150622.77911,   0.00014,274792124.20102,  -0.00015,  -0.00008,   0.00005,   0.00000,   2.00000
-511921810.45021,-416929917.34420,31497076.08272,  -0.00167,  -0.00098,   0.00046,477157941.46710,   0.00015,274800142.45874,  -0.00015,  -0.00008,   0.00005,   0.00000,   2.00000
-511996150.32060,-416891829.09275,31362823.86560,  -0.00168,  -0.00098,   0.00046,477145857.44059,   0.00015,274808091.41619,  -0.00016,  -0.00009,   0.00005,   0.00000,   2.00000
-512072112.84545,-416851059.63038,31226868.59609,  -0.00169,  -0.00099,   0.00046,477132885.44094,   0.00016,274815968.33840,  -0.00017,  -0.00009,   0.00005,   0.00000,   2.00000
-512150939.87359,-416803527.19678,31092376.25170,  -0.00169,  -0.00099,   0.00046,477132024.06537,   0.00017,274823814.57078,  -0.00018,  -0.00009,   0.00006,   0.00000,   2.00000
-512229209.64298,-416756190.82778,30958649.53091,  -0.00170,  -0.00100,   0.00046,477140002.38758,   0.00017,274831660.17606,  -0.00019,  -0.00010,   0.00006,   0.00000,   2.00000
-512305675.05176,-416713130.06801,30822504.85352,  -0.00171,  -0.00100,   0.00046,477135807.56050,   0.00018,274839463.89831,  -0.00019,  -0.00010,   0.00006,   0.00000,   2.00000
-512386291.94488,-416659778.89104,30689352.34608,  -0.00172,  -0.00100,   0.00046,477114649.67771,   0.00019,274847168.52085,  -0.00020,  -0.00011,   0.00006,   0.00000,   2.00000
-512469323.16673,-416603920.78235,30552028.48937,  -0.00173,  -0.00101,   0.00046,477133058.47454,   0.00020,274854908.38855,  -0.00021,  -0.00011,   0.00007,   0.00000,   2.00000
-512550953.91784,-416548158.72858,30417866.61360,  -0.00173,  -0.00101,   0.00046,477109341.53123,   0.00020,274862540.76435,  -0.00022,  -0.00011,   0.00007,   0.00000,   2.00000
-512637527.98644,-416482285.67788,30284258.83596,  -0.00174,  -0.00101,   0.00046,477119626.90443,   0.00021,274870181.21082,  -0.00022,  -0.00012,   0.00007,   0.00000,   2.00000
-512722250.97262,-416420757.39528,30148190.83156,  -0.00175,  -0.00102,   0.00046,477115250.94726,   0.00022,274877780.04441,  -0.00023,  -0.00012,   0.00007,   0.00000,   2.00000
-512808539.35152,-416356597.16043,30010328.93036,  -0.00176,  -0.00102,   0.00047,477101981.00006,   0.00022,274885307.33132,  -0.00024,  -0.00013,   0.00008,  -0.00000,   2.00000
-512893382.23501,-416292040.37563,29877275.07703,  -0.00177,  -0.00102,   0.00047,477110441.87038,   0.00023,274892836.89364,  -0.00024,  -0.00013,   0.00008,   0.00000,   2.00000
-512985290.55115,-416214501.15900,29742202.75578,  -0.00177,  -0.00103,   0.00047,477099637.46381,   0.00024,274900303.60332,  -0.00025,  -0.00013,   0.00008,   0.00000,   2.00000
-513075318.77872,-416141337.69147,29604643.66183,  -0.00178,  -0.00103,   0.00047,477095107.45671,   0.00024,274907728.89216,  -0.00026,  -0.00014,   0.00008,  -0.00000,   2.00000
-513162645.82139,-416071872.01557,29468659.94419,  -0.00179,  -0.00103,   0.00047,477091308.05267,   0.00025,274915115.37358,  -0.00027,  -0.00014,   0.00008,  -0.00000,   2.00000
-513256179.97764,-415988758.88168,29334696.30198,  -0.00180,  -0.00104,   0.00047,477081160.63817,   0.00026,274922441.80003,  -0.00027,  -0.00014,   0.00009,   0.00000,   2.00000
-513349902.83117,-415906631.61472,29197386.17940,  -0.00181,  -0.00104,   0.00047,477087887.54814,   0.00026,274929765.45037,  -0.00028,  -0.00015,   0.00009,   0.00000,   2.00000
-513444319.86460,-415821264.28185,29062268.02784,  -0.00181,  -0.00104,   0.00047,477075149.22366,   0.00027,274937020.53484,  -0.00029,  -0.00015,   0.00009,   0.00000,   2.00000
-513538095.05174,-415736245.72306,28927860.90736,  -0.00182,  -0.00105,   0.00047,477082572.54923,   0.00028,274944275.48368,  -0.00029,  -0.00016,   0.00009,   0.00000,   2.00000
-513636795.83764,-415641640.78045,28792182.99368,  -0.00183,  -0.00105,   0.00047,477060176.59842,   0.00028,274951429.52356,  -0.00030,  -0.00016,   0.00009,  -0.00000,   2.00000
-513734828.54982,-415547418.34342,28657208.71421,  -0.00184,  -0.00105,   0.00047,477067509.77355,   0.00029,274958583.53533,  -0.00031,  -0.00016,   0.00010,   0.00000,   2.00000
-513830961.95082,-415457598.17621,28519681.84811,  -0.00184,  -0.00106,   0.00047,477062694.39865,   0.00030,274965696.42359,  -0.00032,  -0.00017,   0.00010,   0.00000,   2.00000
-513932437.48450,-415353520.71307,28388173.42962,  -0.00185,  -0.00106,   0.00047,477053073.74335,   0.00030,274972752.18867,  -0.00032,  -0.00017,   0.00010,   0.00000,   2.00000
-514034836.44440,-415251104.57030,28249212.10707,  -0.00186,  -0.00106,   0.00047,477058834.64722,   0.00031,274979803.00022,  -0.00033,  -0.00017,   0.00010,   0.00000,   2.00000
-514135083.51717,-415148255.62162,28117236.72649,  -0.00187,  -0.00106,   0.00047,477035176.55094,   0.00032,274986749.47440,  -0.00034,  -0.00018,   0.00010,   0.00000,   2.00000
-514237483.64922,-415043036.68496,27981067.74338,  -0.00187,  -0.00107,   0.00047,477052983.91042,   0.00032,274993732.12257,  -0.00034,  -0.00018,   0.00011,   0.00000,   2.00000
-514344756.84349,-414928201.11241,27843535.15709,  -0.00188,  -0.00107,   0.00047,477030387.33427,   0.00033,275000614.32827,  -0.00035,  -0.00018,   0.00011,   0.00000,   2.00000
-514448513.53753,-414816593.21168,27711539.95394,  -0.00189,  -0.00107,   0.00047,477026783.34576,   0.00034,275007460.63207,  -0.00036,  -0.00019,   0.00011,   0.00000,   2.00000
-514555761.06155,-414698998.90730,27576738.15274,  -0.00190,  -0.00107,   0.00047,477024291.87920,   0.00034,275014274.94716,  -0.00036,  -0.00019,   0.00011,   0.00000,   2.00000
-514663075.85435,-414582459.44347,27438535.06485,  -0.00190,  -0.00108,   0.00047,477030592.76894,   0.00035,275021087.08260,  -0.00037,  -0.00019,   0.00011,   0.00000,   2.00000
-514774457.66801,-414455673.93456,27302985.33405,  -0.00191,  -0.00108,   0.00047,477008585.34711,   0.00035,275027801.47198,  -0.00038,  -0.00020,   0.00011,   0.00000,   2.00000
-514883113.36290,-414332753.77544,27168866.20942,  -0.00192,  -0.00108,   0.00047,477004089.50898,   0.00036,275034477.61042,  -0.00038,  -0.00020,   0.00012,   0.00000,   2.00000
-514994443.21147,-414203248.02155,27035986.87799,  -0.00193,  -0.00109,   0.00047,477002179.43039,   0.00037,275041124.40762,  -0.00039,  -0.00020,   0.00012,  -0.00000,   2.00000
-515105807.91713,-414074819.47525,26899677.72117,  -0.00193,  -0.00109,   0.00047,477008338.32147,   0.00037,275047769.21273,  -0.00040,  -0.00021,   0.00012,   0.00000,   2.00000
-515221233.86065,-413936125.42521,26765955.61061,  -0.00194,  -0.00109,   0.00047,476986191.40697,   0.00038,275054316.48507,  -0.00040,  -0.00021,   0.00012,   0.00000,   2.00000
-515336661.85907,-413798526.12365,26628796.21514,  -0.00195,  -0.00109,   0.00047,476992271.51901,   0.00038,275060861.89770,  -0.00041,  -0.00021,   0.00012,   0.00000,   2.00000
-515451998.07255,-413657153.75357,26497689.12245,  -0.00195,  -0.00110,   0.00047,476979521.06469,   0.00039,275067341.89554,  -0.00042,  -0.00022,   0.00012,   0.00000,   2.00000
-515569511.58672,-413513743.61845,26360379.57725,  -0.00196,  -0.00110,   0.00047,476964629.46711,   0.00040,275073749.47657,  -0.00042,  -0.00022,   0.00013,   0.00000,   2.00000
-515687459.90273,-413366900.28581,26227030.63781,  -0.00197,  -0.00110,   0.00047,476983411.04688,   0.00040,275080198.64524,  -0.00043,  -0.00022,   0.00013,  -0.00000,   2.00000
-515804875.38448,-413220805.66855,26092285.93788,  -0.00198,  -0.00110,   0.00047,476957747.84171,   0.00041,275086539.15894,  -0.00043,  -0.00023,   0.00013,   0.00000,   2.00000
-515924905.31290,-413068125.53923,25958724.33045,  -0.00198,  -0.00110,   0.00047,476955563.25789,   0.00041,275092850.72353,  -0.00044,  -0.00023,   0.00013,  -0.00000,   2.00000
-516047531.33975,-412908874.80585,25826334.04977,  -0.00199,  -0.00111,   0.00047,476953361.23454,   0.00042,275099133.41828,  -0.00045,  -0.00023,   0.00013,   0.00000,   2.00000
-516171544.65738,-412746991.30120,25691761.48354,  -0.00200,  -0.00111,   0.00047,476939011.16628,   0.00042,275105346.33272,  -0.00045,  -0.00024,   0.00013,   0.00000,   2.00000
-516294757.68726,-412585666.64120,25557791.57231,  -0.00200,  -0.00111,   0.00047,476945486.47141,   0.00043,275111560.03566,  -0.00046,  -0.00024,   0.00014,   0.00000,   2.00000
-516419356.87173,-412421680.38669,25421624.80335,  -0.00201,  -0.00111,   0.00047,476931082.08753,   0.00044,275117704.02972,  -0.00047,  -0.00024,   0.00014,   0.00000,   2.00000
-516543893.62705,-412253918.22805,25291408.20572,  -0.00202,  -0.00111,   0.00047,476917942.15334,   0.00044,275123782.86119,  -0.00047,  -0.00025,   0.00014,   0.00000,   2.00000
-516671717.14934,-412080122.55775,25158232.34208,  -0.00203,  -0.00112,   0.00047,476914886.97917,   0.00045,275129830.83360,  -0.00048,  -0.00025,   0.00014,   0.00000,   2.00000
-516799436.33392,-411907450.17130,25021559.15042,  -0.00203,  -0.00112,   0.00047,476920558.27749,   0.00045,275135877.51123,  -0.00048,  -0.00025,   0.00014,   0.00000,   2.00000
-516927098.18539,-411730996.66929,24890809.28306,  -0.00204,  -0.00112,   0.00047,476907328.05515,   0.00046,275141859.10706,  -0.00049,  -0.00025,   0.00014,   0.00000,   2.00000
-517058009.46711,-411548491.28638,24757081.44403,  -0.00205,  -0.00112,   0.00047,476904213.90714,   0.00046,275147810.02898,  -0.00050,  -0.00026,   0.00014,   0.00000,   2.00000
-517189567.35142,-411362745.92722,24625163.13357,  -0.00205,  -0.00112,   0.00047,476890250.23625,   0.00047,275153693.76803,  -0.00050,  -0.00026,   0.00015,  -0.00000,   2.00000
-517322477.10343,-411174283.13560,24490953.87937,  -0.00206,  -0.00113,   0.00047,476875582.41581,   0.00047,275159508.18786,  -0.00051,  -0.00026,   0.00015,   0.00000,   2.00000
-517453848.41560,-410985887.12514,24361384.68521,  -0.00207,  -0.00113,   0.00047,476882334.67214,   0.00048,275165325.87099,  -0.00051,  -0.00027,   0.00015,   0.00000,   2.00000
-517591769.08128,-410784201.75918,24229325.93828,  -0.00207,  -0.00113,   0.00046,476870400.83585,   0.00049,275171083.76111,  -0.00052,  -0.00027,   0.00015,  -0.00000,   2.00000
-517727663.10234,-410587000.41038,24094420.12253,  -0.00208,  -0.00113,   0.00046,476864349.05570,   0.00049,275176801.90415,  -0.00052,  -0.00027,   0.00015,   0.00000,   2.00000
-517863515.91111,-410385993.68914,23965352.49871,  -0.00209,  -0.00113,   0.00046,476850811.43819,   0.00050,275182455.18608,  -0.00053,  -0.00027,   0.00015,   0.00000,   2.00000
-517999199.78493,-410186116.87695,23832725.64604,  -0.00209,  -0.00113,   0.00046,476856153.86974,   0.00050,275188107.58102,  -0.00054,  -0.00028,   0.00015,  -0.00000,   2.00000
-518140690.00756,-409972359.46165,23701659.94806,  -0.00210,  -0.00114,   0.00046,476844753.39681,   0.00051,275193702.61132,  -0.00054,  -0.00028,   0.00016,   0.00000,   2.00000
-518277669.46877,-409765887.68844,23572468.09256,  -0.00211,  -0.00114,   0.00046,476827657.82854,   0.00051,275199221.21151,  -0.00055,  -0.00028,   0.00016,  -0.00000,   2.00000
-518419593.57421,-409549948.43075,23439537.24540,  -0.00211,  -0.00114,   0.00046,476835728.52260,   0.00052,275204748.67820,  -0.00055,  -0.00029,   0.00016,   0.00000,   2.00000
-518562148.92866,-409330684.96546,23308301.52661,  -0.00212,  -0.00114,   0.00046,476821410.81789,   0.00052,275210209.37880,  -0.00056,  -0.00029,   0.00016,  -0.00000,   2.00000
-518705341.66644,-409108084.65123,23178740.91604,  -0.00213,  -0.00114,   0.00046,476807030.67329,   0.00053,275215603.34666,  -0.00056,  -0.00029,   0.00016,   0.00000,   2.00000
-518851615.18731,-408879319.70975,23046089.77090,  -0.00213,  -0.00114,   0.00046,476803515.40167,   0.00053,275220967.53182,  -0.00057,  -0.00029,   0.00016,   0.00000,   2.00000
-518994543.23597,-408654007.83055,22918688.37822,  -0.00214,  -0.00114,   0.00046,476798311.26673,   0.00054,275226296.32634,  -0.00057,  -0.00030,   0.00016,   0.00000,   2.00000
-519140545.67032,-408422504.76976,22788174.67267,  -0.00215,  -0.00114,   0.00046,476794749.45877,   0.00054,275231595.42039,  -0.00058,  -0.00030,   0.00016,   0.00000,   2.00000
-519287185.26282,-408187615.52393,22659290.20840,  -0.00215,  -0.00115,   0.00046,476780235.62957,   0.00055,275236827.92791,  -0.00058,  -0.00030,   0.00016,   0.00000,   2.00000
-519436859.30281,-407946512.55152,22527281.81660,  -0.00216,  -0.00115,   0.00046,476776616.44390,   0.00055,275242030.90652,  -0.00059,  -0.00030,   0.00017,   0.00000,   2.00000
-519586511.36840,-407701518.48391,22400972.62240,  -0.00216,  -0.00115,   0.00046,476762616.45328,   0.00056,275247169.40209,  -0.00060,  -0.00031,   0.00017,  -0.00000,   2.00000
-519737437.97443,-407453580.85933,22272152.61114,  -0.00217,  -0.00115,   0.00046,476747383.96043,   0.00056,275252239.47266,  -0.00060,  -0.00031,   0.00017,   0.00000,   2.00000
-519887430.25988,-407206282.58830,22143795.63783,  -0.00218,  -0.00115,   0.00046,476752846.79227,   0.00056,275257311.29236,  -0.00061,  -0.00031,   0.00017,   0.00000,   2.00000
-520040409.18926,-406952715.91924,22012282.18355,  -0.00218,  -0.00115,   0.00046,476749126.90853,   0.00057,275262353.83969,  -0.00061,  -0.00031,   0.00017,   0.00000,   2.00000
-520196657.67952,-406687820.25947,21886893.13269,  -0.00219,  -0.00115,   0.00046,476726384.09874,   0.00057,275267302.96056,  -0.00062,  -0.00032,   0.00017,  -0.00000,   2.00000
-520350867.34492,-406427317.49537,21758477.41037,  -0.00220,  -0.00115,   0.00045,476719615.42642,   0.00058,275272212.94681,  -0.00062,  -0.00032,   0.00017,  -0.00000,   2.00000
-520504124.56474,-406167452.43513,21630507.20116,  -0.00220,  -0.00115,   0.00045,476724940.41036,   0.00058,275277124.81819,  -0.00063,  -0.00032,   0.00017,   0.00000,   2.00000
-520661287.73532,-405896638.03685,21504517.27234,  -0.00221,  -0.00115,   0.00045,476701527.33402,   0.00059,275281941.43841,  -0.00063,  -0.00032,   0.00017,  -0.00000,   2.00000
-520821357.29810,-405619485.34861,21375318.57892,  -0.00221,  -0.00115,   0.00045,476697643.76657,   0.00059,275286729.18517,  -0.00064,  -0.00032,   0.00018,  -0.00000,   2.00000
-520978158.31140,-405345778.84524,21251259.12559,  -0.00222,  -0.00115,   0.00045,476691850.30396,   0.00060,275291481.68926,  -0.00064,  -0.00033,   0.00018,   0.00000,   2.00000
-521137856.73729,-405065700.28848,21123971.24301,  -0.00223,  -0.00116,   0.00045,476687924.47453,   0.00060,275296205.40462,  -0.00065,  -0.00033,   0.00018,  -0.00000,   2.00000
-521298169.12184,-404782032.84906,20998157.13725,  -0.00223,  -0.00116,   0.00045,476672953.17112,   0.00060,275300863.07417,  -0.00065,  -0.00033,   0.00018,   0.00000,   2.00000
-521460735.10903,-404491515.99407,20873197.46493,  -0.00224,  -0.00116,   0.00045,476669522.06933,   0.00061,275305493.98595,  -0.00065,  -0.00033,   0.00018,   0.00000,   2.00000
-521624503.27545,-404197817.23474,20745587.16596,  -0.00224,  -0.00116,   0.00045,476653939.38175,   0.00061,275310057.11554,  -0.00066,  -0.00033,   0.00018,   0.00000,   2.00000
-521788277.50934,-403900029.59622,20623510.76990,  -0.00225,  -0.00116,   0.00045,476639383.20457,   0.00062,275314556.17774,  -0.00066,  -0.00034,   0.00018,  -0.00000,   2.00000
-521951637.74299,-403603308.14068,20497722.52696,  -0.00226,  -0.00116,   0.00045,476643824.33462,   0.00062,275319055.67582,  -0.00067,  -0.00034,   0.00018,   0.00000,   2.00000
-522115612.70718,-403302893.08014,20373348.67050,  -0.00226,  -0.00116,   0.00045,476628673.86513,   0.00063,275323489.30012,  -0.00067,  -0.00034,   0.00018,   0.00000,   2.00000
-522285595.62424,-402988423.38451,20246119.22772,  -0.00227,  -0.00116,   0.00045,476616052.14535,   0.00063,275327865.87028,  -0.00068,  -0.00034,   0.00018,   0.00000,   2.00000
-522452358.73213,-402677359.39657,20123954.31212,  -0.00227,  -0.00116,   0.00045,476609850.87270,   0.00063,275332207.30566,  -0.00068,  -0.00034,   0.00018,   0.00000,   2.00000
-522621301.05890,-402359336.11898,20002579.71680,  -0.00228,  -0.00116,   0.00044,476606206.68675,   0.00064,275336522.40585,  -0.00069,  -0.00035,   0.00018,   0.00000,   2.00000
-522791410.78881,-402037958.29879,19878464.04873,  -0.00229,  -0.00116,   0.00044,476590404.08611,   0.00064,275340770.07632,  -0.00069,  -0.00035,   0.00019,   0.00000,   2.00000
-522960468.20052,-401717189.69720,19754713.32296,  -0.00229,  -0.00116,   0.00044,476595181.97088,   0.00064,275345020.25991,  -0.00069,  -0.00035,   0.00019,   0.00000,   2.00000
-523133310.73621,-401384975.17103,19632720.27697,  -0.00230,  -0.00116,   0.00044,476571383.75471,   0.00065,275349176.15402,  -0.00070,  -0.00035,   0.00019,   0.00000,   2.00000
-523303549.13571,-401056542.86184,19511640.99841,  -0.00230,  -0.00116,   0.00044,476564440.70832,   0.00065,275353295.17105,  -0.00070,  -0.00035,   0.00019,   0.00000,   2.00000
-523479651.26799,-400713813.16056,19387620.07421,  -0.00231,  -0.00116,   0.00044,476551694.52323,   0.00066,275357357.79958,  -0.00071,  -0.00036,   0.00019,  -0.00000,   2.00000
-523652583.33487,-400374436.78440,19268602.51709,  -0.00231,  -0.00116,   0.00044,476545179.07497,   0.00066,275361385.33667,  -0.00071,  -0.00036,   0.00019,   0.00000,   2.00000
-523828165.86768,-400028370.38426,19146214.61195,  -0.00232,  -0.00116,   0.00044,476540834.65639,   0.00066,275365385.27438,  -0.00072,  -0.00036,   0.00019,  -0.00000,   2.00000
-524004316.55315,-399678346.68804,19025111.15902,  -0.00232,  -0.00116,   0.00044,476525324.37678,   0.00067,275369319.83890,  -0.00072,  -0.00036,   0.00019,   0.00000,   2.00000
-524181038.13960,-399324333.84710,18905276.15065,  -0.00233,  -0.00116,   0.00044,476509758.90805,   0.00067,275373189.05904,  -0.00072,  -0.00036,   0.00019,   0.00000,   2.00000
-524359807.38716,-398963160.07383,18786149.15146,  -0.00234,  -0.00116,   0.00044,476505817.24389,   0.00067,275377032.60478,  -0.00073,  -0.00036,   0.00019,  -0.00000,   2.00000
-524536539.00082,-398606070.87877,18663772.66265,  -0.00234,  -0.00116,   0.00044,476498099.44397,   0.00068,275380837.72373,  -0.00073,  -0.00037,   0.00019,   0.00000,   2.00000
-524717892.62385,-398233634.74462,18546587.81168,  -0.00235,  -0.00116,   0.00043,476486219.64497,   0.00068,275384590.45783,  -0.00074,  -0.00037,   0.00019,   0.00000,   2.00000
-524897201.20496,-397865252.04353,18426131.98342,  -0.00235,  -0.00116,   0.00043,476478430.71282,   0.00068,275388304.84323,  -0.00074,  -0.00037,   0.00019,   0.00000,   2.00000
-525081088.88362,-397481453.73839,18310842.78188,  -0.00236,  -0.00116,   0.00043,476466515.03914,   0.00069,275391967.03283,  -0.00074,  -0.00037,   0.00020,   0.00000,   2.00000
-525262923.92161,-397101675.43508,18192261.62293,  -0.00236,  -0.00116,   0.00043,476458655.82805,   0.00069,275395590.95105,  -0.00075,  -0.00037,   0.00020,   0.00000,   2.00000
-525445305.21533,-396717698.67228,18074869.14341,  -0.00237,  -0.00115,   0.00043,476442873.19320,   0.00069,275399149.80270,  -0.00075,  -0.00037,   0.00020,   0.00000,   2.00000
-525629637.24638,-396326397.30728,17958128.31380,  -0.00237,  -0.00115,   0.00043,476438751.64812,   0.00070,275402683.44230,  -0.00075,  -0.00038,   0.00020,  -0.00000,   2.00000
-525816409.98498,-395928121.52386,17837926.91156,  -0.00238,  -0.00115,   0.00043,476434166.74442,   0.00070,275406190.38948,  -0.00076,  -0.00038,   0.00020,   0.00000,   2.00000
-526001788.74791,-395528259.95029,17723508.66235,  -0.00238,  -0.00115,   0.00043,476407068.36004,   0.00070,275409594.17014,  -0.00076,  -0.00038,   0.00020,  -0.00000,   2.00000
-526186001.73909,-395128878.27714,17609348.52209,  -0.00239,  -0.00115,   0.00043,476411163.13009,   0.00071,275413001.19847,  -0.00077,  -0.00038,   0.00020,   0.00000,   2.00000
-526375685.31768,-394714535.89821,17492060.64460,  -0.00239,  -0.00115,   0.00043,476398205.72670,   0.00071,275416353.48557,  -0.00077,  -0.00038,   0.00020,   0.00000,   2.00000
-526562801.92829,-394303710.72527,17375537.95973,  -0.00240,  -0.00115,   0.00043,476390551.51468,   0.00071,275419669.23366,  -0.00077,  -0.00038,   0.00020,   0.00000,   2.00000
-526753475.90926,-393880512.98889,17260481.74394,  -0.00240,  -0.00115,   0.00042,476366288.09090,   0.00072,275422892.03945,  -0.00078,  -0.00038,   0.00020,   0.00000,   2.00000
-526942928.65632,-393457750.81251,17145667.83689,  -0.00241,  -0.00115,   0.00042,476370262.06509,   0.00072,275426118.33636,  -0.00078,  -0.00039,   0.00020,   0.00000,   2.00000
-527132874.76139,-393030480.30490,17031941.47152,  -0.00241,  -0.00115,   0.00042,476354224.19075,   0.00072,275429279.95844,  -0.00078,  -0.00039,   0.00020,   0.00000,   2.00000
-527323313.40798,-392598658.43419,16919288.54603,  -0.00242,  -0.00115,   0.00042,476338135.92248,   0.00073,275432376.93447,  -0.00079,  -0.00039,   0.00020,   0.00000,   2.00000
-527515540.72957,-392159234.05414,16807204.77079,  -0.00242,  -0.00114,   0.00042,476333765.08570,   0.00073,275435449.41201,  -0.00079,  -0.00039,   0.00020,   0.00000,   2.00000
-527709525.37442,-391712183.27411,16695683.40699,  -0.00243,  -0.00114,   0.00042,476329400.81821,   0.00073,275438497.50582,  -0.00079,  -0.00039,   0.00020,  -0.00000,   2.00000
-527903168.89190,-391263797.18757,16581576.86767,  -0.00243,  -0.00114,   0.00042,476301053.56506,   0.00073,275441439.48756,  -0.00079,  -0.00039,   0.00020,   0.00000,   2.00000
-528098056.04052,-390807370.75533,16472129.64219,  -0.00244,  -0.00114,   0.00042,476297036.31730,   0.00074,275444358.69313,  -0.00080,  -0.00039,   0.00020,   0.00000,   2.00000
-528295120.36140,-390343550.24813,16359107.09897,  -0.00244,  -0.00114,   0.00042,476292165.75016,   0.00074,275447252.29259,  -0.00080,  -0.00039,   0.00020,  -0.00000,   2.00000
-528489163.70515,-389882704.58257,16250876.94605,  -0.00245,  -0.00114,   0.00042,476284540.68151,   0.00074,275450110.95065,  -0.00080,  -0.00040,   0.00020,   0.00000,   2.00000
-528687083.44168,-389409237.14688,16139856.52759,  -0.00245,  -0.00114,   0.00041,476259679.25160,   0.00074,275452875.92688,  -0.00081,  -0.00040,   0.00021,   0.00000,   2.00000
-528883690.24911,-388936072.52110,16029027.94432,  -0.00246,  -0.00114,   0.00041,476263317.79402,   0.00075,275455644.85472,  -0.00081,  -0.00040,   0.00021,   0.00000,   2.00000
-529080715.21260,-388457987.57753,15919178.41201,  -0.00246,  -0.00113,   0.00041,476247003.20523,   0.00075,275458349.54182,  -0.00081,  -0.00040,   0.00021,   0.00000,   2.00000
-529281078.60602,-387966753.10811,15810613.27997,  -0.00247,  -0.00113,   0.00041,476222512.24598,   0.00075,275460962.24204,  -0.00082,  -0.00040,   0.00021,  -0.00000,   2.00000
-529480094.97104,-387475769.58922,15702221.66098,  -0.00247,  -0.00113,   0.00041,476226042.80342,   0.00075,275463579.05048,  -0.00082,  -0.00040,   0.00021,   0.00000,   2.00000
-529679498.31132,-386979723.55349,15594773.81734,  -0.00248,  -0.00113,   0.00041,476209639.84036,   0.00076,275466131.76508,  -0.00082,  -0.00040,   0.00021,   0.00000,   2.00000
-529880447.24153,-386475671.63437,15487803.05526,  -0.00248,  -0.00113,   0.00041,476205026.59464,   0.00076,275468660.93463,  -0.00082,  -0.00040,   0.00021,   0.00000,   2.00000
-530081754.09754,-385966462.28572,15381754.31603,  -0.00249,  -0.00113,   0.00041,476188584.05467,   0.00076,275471126.12940,  -0.00083,  -0.00040,   0.00021,   0.00000,   2.00000
-530283861.18894,-385452345.64759,15272501.31890,  -0.00249,  -0.00112,   0.00041,476171697.82236,   0.00076,275473526.01165,  -0.00083,  -0.00040,   0.00021,  -0.00000,   2.00000
-530484132.20378,-384938096.74684,15167518.54328,  -0.00249,  -0.00112,   0.00041,476175472.78792,   0.00077,275475931.56588,  -0.00083,  -0.00041,   0.00021,   0.00000,   2.00000
-530687604.04283,-384410231.43773,15063727.47217,  -0.00250,  -0.00112,   0.00040,476150907.85094,   0.00077,275478245.64701,  -0.00083,  -0.00041,   0.00021,  -0.00000,   2.00000
-530892935.03541,-383874458.71276,14956258.38338,  -0.00250,  -0.00112,   0.00040,476145814.33067,   0.00077,275480535.29653,  -0.00084,  -0.00041,   0.00021,  -0.00000,   2.00000
-531094191.26492,-383344158.95107,14853919.75191,  -0.00251,  -0.00112,   0.00040,476125789.93859,   0.00077,275482749.33901,  -0.00084,  -0.00041,   0.00021,   0.00000,   2.00000
-531301191.21768,-382794673.54263,14747746.24312,  -0.00251,  -0.00111,   0.00040,476124503.26417,   0.00077,275484952.33257,  -0.00084,  -0.00041,   0.00021,   0.00000,   2.00000
-531504134.46660,-382250579.27217,14646682.45222,  -0.00252,  -0.00111,   0.00040,476104401.26147,   0.00078,275487079.68162,  -0.00084,  -0.00041,   0.00021,   0.00000,   2.00000
-531711650.44464,-381689978.69506,14542196.83935,  -0.00252,  -0.00111,   0.00040,476091249.49393,   0.00078,275489155.49297,  -0.00085,  -0.00041,   0.00021,   0.00000,   2.00000
-531917240.68161,-381129120.28353,14441947.42589,  -0.00252,  -0.00111,   0.00040,476094809.46751,   0.00078,275491237.34741,  -0.00085,  -0.00041,   0.00021,   0.00000,   2.00000
-532122457.16481,-380565632.66061,14338821.78694,  -0.00253,  -0.00111,   0.00040,476065867.57542,   0.00078,275493213.46193,  -0.00085,  -0.00041,   0.00021,   0.00000,   2.00000
-532329964.17645,-379990889.16999,14235666.83432,  -0.00253,  -0.00110,   0.00040,476072926.97007,   0.00078,275495207.99238,  -0.00085,  -0.00041,   0.00021,   0.00000,   2.00000
-532536654.81271,-379413090.92569,14133732.28473,  -0.00254,  -0.00110,   0.00040,476044322.26931,   0.00078,275497098.13313,  -0.00085,  -0.00041,   0.00021,   0.92855,   1.00000
-532744134.07193,-378826422.08663,14036291.18710,  -0.00254,  -0.00110,   0.00039,476039825.79585,   0.00079,275498967.19346,  -0.00086,  -0.00041,   0.00021,   0.91453,   1.00000
-532952203.02950,-378234105.66515,13935508.08408,  -0.00255,  -0.00110,   0.00039,476022687.80599,   0.00079,275500771.67901,  -0.00086,  -0.00041,   0.00021,   0.85860,   1.00000
-533161409.31629,-377633100.05220,13835086.83320,  -0.00255,  -0.00109,   0.00039,476017810.78493,   0.00079,275502554.03254,  -0.00086,  -0.00041,   0.00021,   0.84378,   1.00000
-533370745.26173,-377026048.61106,13735427.38486,  -0.00255,  -0.00109,   0.00039,476001015.90163,   0.00079,275504273.21516,  -0.00086,  -0.00042,   0.00021,   0.79076,   1.00000
-533580198.15273,-376412882.52598,13636518.61084,  -0.00256,  -0.00109,   0.00039,475984183.08875,   0.00079,275505929.26202,  -0.00086,  -0.00042,   0.00021,   0.73911,   1.00000
-533790295.20337,-375790613.18593,13542069.13751,  -0.00256,  -0.00109,   0.00039,475979617.50905,   0.00079,275507564.69670,  -0.00086,  -0.00042,   0.00021,   0.72614,   1.00000
-533998221.52256,-375171049.70464,13443968.02114,  -0.00256,  -0.00108,   0.00039,475970221.10585,   0.00080,275509162.87797,  -0.00087,  -0.00042,   0.00021,   0.69847,   1.00000
-534208869.41681,-374536490.80527,13346848.32959,  -0.00257,  -0.00108,   0.00039,475945528.83887,   0.00080,275510671.05269,  -0.00087,  -0.00042,   0.00021,   0.62660,   1.00000
-534417846.95753,-373901664.20589,13249792.70431,  -0.00257,  -0.00108,   0.00039,475948353.84846,   0.00080,275512184.59622,  -0.00087,  -0.00042,   0.00021,   0.63569,   1.00000
-534629467.39694,-373251661.24362,13153695.20597,  -0.00258,  -0.00107,   0.00038,475923674.65231,   0.00080,275513608.35243,  -0.00087,  -0.00042,   0.00021,   0.56667,   1.00000
-534838491.95284,-372603919.23961,13058040.00166,  -0.00258,  -0.00107,   0.00038,475914480.72394,   0.00080,275514996.14160,  -0.00087,  -0.00042,   0.00021,   0.54235,   1.00000
-535048393.86525,-371947039.71226,12962685.99668,  -0.00258,  -0.00107,   0.00038,475909486.51164,   0.00080,275516362.60860,  -0.00087,  -0.00042,   0.00021,   0.52969,   1.00000
-535260443.06968,-371274451.89826,12872375.99546,  -0.00259,  -0.00107,   0.00038,475885141.72393,   0.00080,275517640.75717,  -0.00088,  -0.00042,   0.00021,   0.46689,   1.00000
-535471098.29893,-370601693.19735,12777983.50919,  -0.00259,  -0.00106,   0.00038,475887516.60326,   0.00081,275518923.45473,  -0.00088,  -0.00042,   0.00021,   0.47370,   1.00000
-535681670.92163,-369922162.15056,12684250.76857,  -0.00259,  -0.00106,   0.00038,475870539.95632,   0.00081,275520143.55002,  -0.00088,  -0.00042,   0.00021,   0.43176,   1.00000
-535892141.58192,-369235779.51994,12591167.60986,  -0.00260,  -0.00106,   0.00038,475853531.11839,   0.00081,275521301.08372,  -0.00088,  -0.00042,   0.00021,   0.39150,   1.00000
-536103297.33974,-368539974.85614,12498353.38522,  -0.00260,  -0.00105,   0.00038,475848512.61747,   0.00081,275522437.86585,  -0.00088,  -0.00042,   0.00021,   0.38039,   1.00000
-536314291.26237,-367837171.16620,12406171.41806,  -0.00261,  -0.00105,   0.00038,475831495.07423,   0.00081,275523512.23896,  -0.00088,  -0.00042,   0.00021,   0.34230,   1.00000
-536525101.78362,-367127285.89107,12314611.79243,  -0.00261,  -0.00105,   0.00037,475814447.23760,   0.00081,275524524.24583,  -0.00088,  -0.00042,   0.00021,   0.30597,   1.00000
-536735343.69513,-366410006.43289,12227788.32970,  -0.00261,  -0.00104,   0.00037,475797688.79170,   0.00081,275525475.04117,  -0.00088,  -0.00042,   0.00021,   0.27208,   1.00000
-536946480.99991,-365683284.87848,12137081.09778,  -0.00262,  -0.00104,   0.00037,475792310.12973,   0.00081,275526404.40396,  -0.00089,  -0.00042,   0.00021,   0.26189,   1.00000
-537158092.92703,-364946837.04119,12046611.96240,  -0.00262,  -0.00104,   0.00037,475787284.06895,   0.00081,275527313.61901,  -0.00089,  -0.00042,   0.00021,   0.25254,   1.00000
-537368655.55251,-364205383.64098,11957087.06993,  -0.00262,  -0.00103,   0.00037,475758168.26685,   0.00081,275528118.72182,  -0.00089,  -0.00042,   0.00022,   0.19949,   1.00000
-537576894.99930,-363462968.61085,11871690.86000,  -0.00263,  -0.00103,   0.00037,475760934.86608,   0.00081,275528931.20444,  -0.00089,  -0.00042,   0.00022,   0.20466,   1.00000
-537788226.43847,-362701738.04606,11782608.20889,  -0.00263,  -0.00102,   0.00037,475748073.27647,   0.00082,275529696.48820,  -0.00089,  -0.00042,   0.00022,   0.18293,   1.00000
-537996113.34255,-361944375.76859,11694221.09075,  -0.00263,  -0.00102,   0.00037,475726399.97453,   0.00082,275530383.87875,  -0.00089,  -0.00042,   0.00022,   0.14867,   1.00000
-538206275.20912,-361167562.87187,11610381.80109,  -0.00263,  -0.00102,   0.00037,475714151.75339,   0.00082,275531026.51441,  -0.00089,  -0.00042,   0.00022,   0.13092,   1.00000
-538414692.55620,-360390077.28026,11522405.79556,  -0.00264,  -0.00101,   0.00037,475716263.12710,   0.00082,275531674.74063,  -0.00089,  -0.00042,   0.00022,   0.13419,   1.00000
-538624249.61559,-359597735.10542,11435520.38737,  -0.00264,  -0.00101,   0.00036,475679621.37629,   0.00082,275532192.84265,  -0.00089,  -0.00042,   0.00022,   0.08636,   1.00000
-538831329.48705,-358804205.13886,11352742.83288,  -0.00264,  -0.00101,   0.00036,475682261.47439,   0.00082,275532718.75427,  -0.00089,  -0.00042,   0.00022,   0.08964,   1.00000
-539041087.52880,-357991265.96767,11266229.63410,  -0.00265,  -0.00100,   0.00036,475669532.12393,   0.00082,275533198.56699,  -0.00089,  -0.00042,   0.00022,   0.07517,   1.00000
-539247036.76381,-357181515.12729,11184487.47712,  -0.00265,  -0.00100,   0.00036,475647964.62702,   0.00082,275533601.35495,  -0.00089,  -0.00042,   0.00022,   0.05336,   1.00000
-539453000.81679,-356361318.23860,11102918.64556,  -0.00265,  -0.00099,   0.00036,475642890.88450,   0.00082,275533985.20933,  -0.00089,  -0.00042,   0.00022,   0.04882,   1.00000
-539659243.81562,-355530812.42144,11017392.00167,  -0.00266,  -0.00099,   0.00036,475637570.76032,   0.00082,275534349.30577,  -0.00089,  -0.00042,   0.00022,   0.04425,   1.00000
-539863861.28080,-354693848.19497,10936811.61177,  -0.00266,  -0.00099,   0.00036,475608585.81620,   0.00082,275534610.44195,  -0.00089,  -0.00042,   0.00022,   0.02293,   1.00000
-540070467.87714,-353836744.77420,10856582.70827,  -0.00266,  -0.00098,   0.00036,475596239.96399,   0.00082,275534827.40200,  -0.00089,  -0.00042,   0.00022,   0.01594,   1.00000
-540275023.04161,-352978559.93586,10772184.01529,  -0.00266,  -0.00098,   0.00036,475598230.98616,   0.00082,275535050.78349,  -0.00089,  -0.00042,   0.00022,   0.01703,   1.00000
-540477864.53365,-352113567.89069,10692701.89648,  -0.00267,  -0.00097,   0.00035,475569221.56643,   0.00082,275535171.26862,  -0.00089,  -0.00042,   0.00022,   0.00499,   1.00000
-540680390.52757,-351237677.85353,10613360.94600,  -0.00267,  -0.00097,   0.00035,475564189.57343,   0.00082,275535273.66895,  -0.00089,  -0.00042,   0.00022,   0.00363,   1.00000
-540880483.34203,-350360417.43947,10533971.13347,  -0.00267,  -0.00096,   0.00035,475566407.96973,   0.00082,275535383.62524,  -0.00090,  -0.00042,   0.00022,   0.00422,   1.00000
-541074877.14872,-349462897.09792,10455386.40310,  -0.00268,  -0.00096,   0.00035,475529904.76814,   0.00082,275535383.62524,  -0.00090,  -0.00042,   0.00022,-5478.85710,   0.00000
-541263066.89776,-348550900.62182,10376801.67273,  -0.00268,  -0.00096,   0.00035,475519444.93383,   0.00082,275535383.62524,  -0.00090,  -0.00042,   0.00022,-15938.69141,   0.00000
-541445052.58913,-347624428.01118,10298216.94237,  -0.00268,  -0.00095,   0.00035,475504070.47064,   0.00082,275535383.62524,  -0.00090,  -0.00042,   0.00022,-31313.15460,   0.00000
-541598086.01143,-346685547.28523,10219632.21200,  -0.00268,  -0.00095,   0.00035,475466559.55792,   0.00082,275535383.62524,  -0.00090,  -0.00042,   0.00022,-68824.06732,   0.00000
-541738711.31840,-345717714.29019,10145183.52007,  -0.00269,  -0.00094,   0.00035,475417368.78390,   0.00082,275535383.62524,  -0.00090,  -0.00042,   0.00022,-118014.84133,   0.00000
-541858656.43317,-344729201.10295,10066598.78971,  -0.00269,  -0.00094,   0.00035,475350957.85671,   0.00082,275535383.62524,  -0.00090,  -0.00042,   0.00022,-184425.76853,   0.00000
-541978601.54794,-343740687.91570,9988014.05934,  -0.00269,  -0.00093,   0.00035,475286912.30402,   0.00082,275535383.62524,  -0.00090,  -0.00042,   0.00022,-248471.32122,   0.00000
-542071662.41285,-342717018.40172,9913565.36742,  -0.00269,  -0.00093,   0.00034,475199215.40958,   0.00082,275535383.62524,  -0.00090,  -0.00042,   0.00022,-336168.21566,   0.00000
-542150247.14321,-341687144.83007,9834980.63705,  -0.00270,  -0.00092,   0.00034,475101469.09548,   0.00082,275535383.62524,  -0.00090,  -0.00042,   0.00022,-433914.52976,   0.00000
-542216423.75826,-340628318.98935,9760531.94512,  -0.00270,  -0.00092,   0.00034,474992459.82338,   0.00082,275535383.62524,  -0.00090,  -0.00042,   0.00022,-542923.80186,   0.00000
-542253648.10422,-339557085.03330,9681947.21476,  -0.00270,  -0.00091,   0.00034,474861227.18676,   0.00082,275535383.62524,  -0.00090,  -0.00042,   0.00022,-674156.43848,   0.00000
-542284668.39252,-338471374.94271,9607498.52283,  -0.00270,  -0.00091,   0.00034,474725824.02017,   0.00082,275535383.62524,  -0.00090,  -0.00042,   0.00022,-809559.60507,   0.00000
-542309484.62317,-337371188.71758,9533049.83090,  -0.00270,  -0.00090,   0.00034,474586069.88201,   0.00082,275535383.62524,  -0.00090,  -0.00042,   0.00022,-949313.74322,   0.00000
-542307416.60395,-336235846.16571,9454465.10054,  -0.00271,  -0.00090,   0.00034,474422644.88287,   0.00082,275535383.62524,  -0.00090,  -0.00042,   0.00022,-1112738.74237,   0.00000
-542290872.45018,-335094299.55617,9380016.40861,  -0.00271,  -0.00089,   0.00034,474249885.61085,   0.00082,275535383.62524,  -0.00090,  -0.00042,   0.00022,-1285498.01439,   0.00000
-542253648.10422,-333932072.75443,9305567.71669,  -0.00271,  -0.00089,   0.00034,474060696.74452,   0.00082,275535383.62524,  -0.00090,  -0.00042,   0.00022,-1474686.88072,   0.00000
-542210219.70060,-332755369.81816,9231119.02476,  -0.00271,  -0.00088,   0.00034,473867425.54250,   0.00082,275535383.62524,  -0.00090,  -0.00042,   0.00022,-1667958.08273,   0.00000
-542146111.10477,-331557986.68968,9160806.37127,  -0.00272,  -0.00088,   0.00033,473658096.47289,   0.00082,275535383.62524,  -0.00090,  -0.00042,   0.00022,-1877287.15235,   0.00000
-542061322.31675,-330339923.36900,9086357.67935,  -0.00272,  -0.00087,   0.00033,473432288.86023,   0.00082,275535383.62524,  -0.00090,  -0.00042,   0.00022,-2103094.76501,   0.00000
-541970329.47106,-329107383.91378,9011908.98742,  -0.00272,  -0.00087,   0.00033,473202614.52492,   0.00082,275535383.62524,  -0.00090,  -0.00042,   0.00022,-2332769.10032,   0.00000
-541858656.43317,-327854164.26635,8937460.29549,  -0.00272,  -0.00086,   0.00033,472956841.80754,   0.00082,275535383.62524,  -0.00090,  -0.00042,   0.00022,-2578541.81770,   0.00000
-541732507.26074,-326594740.56127,8867147.64201,  -0.00272,  -0.00085,   0.00033,472701941.23229,   0.00082,275535383.62524,  -0.00090,  -0.00042,   0.00022,-2833442.39295,   0.00000
-541579473.83845,-325300160.52944,8792698.95008,  -0.00272,  -0.00085,   0.00033,472424137.62317,   0.00082,275535383.62524,  -0.00090,  -0.00042,   0.00022,-3111246.00207,   0.00000
-541420236.35849,-323991104.36307,8722386.29660,  -0.00273,  -0.00084,   0.00033,472142995.08804,   0.00082,275535383.62524,  -0.00090,  -0.00042,   0.00022,-3392388.53720,   0.00000
-541240318.68634,-322661368.00451,8652073.64311,  -0.00273,  -0.00084,   0.00033,471846028.34259,   0.00082,275535383.62524,  -0.00090,  -0.00042,   0.00022,-3689355.28265,   0.00000
-541060401.01418,-321331631.64594,8577624.95119,  -0.00273,  -0.00083,   0.00033,471551991.31632,   0.00082,275535383.62524,  -0.00090,  -0.00042,   0.00022,-3983392.30892,   0.00000
-540839122.95762,-319960534.90296,8507312.29770,  -0.00273,  -0.00083,   0.00033,471223565.65285,   0.00082,275535383.62524,  -0.00090,  -0.00042,   0.00022,-4311817.97239,   0.00000
-540617844.90107,-318589438.15999,8436999.64421,  -0.00273,  -0.00082,   0.00033,470898394.30101,   0.00082,275535383.62524,  -0.00090,  -0.00042,   0.00022,-4636989.32423,   0.00000
-540390362.78685,-317203865.28247,8366686.99073,  -0.00274,  -0.00081,   0.00032,470570004.20688,   0.00082,275535383.62524,  -0.00090,  -0.00042,   0.00022,-4965379.41836,   0.00000
-540121520.28823,-315776932.02056,8296374.33724,  -0.00274,  -0.00081,   0.00032,470207295.09581,   0.00082,275535383.62524,  -0.00090,  -0.00042,   0.00022,-5328088.52943,   0.00000
-539852677.78960,-314349998.75864,8230197.72220,  -0.00274,  -0.00080,   0.00032,469848225.82063,   0.00082,275535383.62524,  -0.00090,  -0.00042,   0.00022,-5687157.80461,   0.00000
-539563155.09878,-312902385.30452,8159885.06871,  -0.00274,  -0.00080,   0.00032,469473592.43047,   0.00082,275535383.62524,  -0.00090,  -0.00042,   0.00022,-6061791.19477,   0.00000
-539261224.29263,-311425819.58132,8089572.41523,  -0.00274,  -0.00079,   0.00032,469089718.42209,   0.00082,275535383.62524,  -0.00090,  -0.00042,   0.00022,-6445665.20315,   0.00000
-538944817.35195,-309943049.80046,8023395.80018,  -0.00274,  -0.00078,   0.00032,468697273.88413,   0.00082,275535383.62524,  -0.00090,  -0.00042,   0.00022,-6838109.74110,   0.00000
-538607730.21906,-308439599.82739,7953083.14669,  -0.00274,  -0.00078,   0.00032,468289521.14618,   0.00082,275535383.62524,  -0.00090,  -0.00042,   0.00022,-7245862.47906,   0.00000
-538249962.89397,-306915469.66213,7886906.53165,  -0.00275,  -0.00077,   0.00032,467866965.92084,   0.00082,275535383.62524,  -0.00090,  -0.00042,   0.00022,-7668417.70439,   0.00000
-537885991.51122,-305376863.36232,7820729.91660,  -0.00275,  -0.00077,   0.00032,467441892.70547,   0.00082,275535383.62524,  -0.00090,  -0.00042,   0.00022,-8093490.91977,   0.00000
-537501339.93627,-303817576.87031,7754553.30156,  -0.00275,  -0.00076,   0.00032,467001986.15784,   0.00082,275535383.62524,  -0.00090,  -0.00042,   0.00022,-8533397.46740,   0.00000
-537102212.22678,-302252086.32064,7688376.68651,  -0.00275,  -0.00075,   0.00032,466553511.67827,   0.00082,275535383.62524,  -0.00090,  -0.00042,   0.00022,-8981871.94697,   0.00000
-536676200.26742,-300651439.44423,7622200.07147,  -0.00275,  -0.00075,   0.00031,466084170.13378,   0.00082,275535383.62524,  -0.00090,  -0.00042,   0.00022,-9451213.49146,   0.00000
-536243984.25041,-299036316.43328,7556023.45642,  -0.00275,  -0.00074,   0.00031,465612697.31657,   0.00082,275535383.62524,  -0.00090,  -0.00042,   0.00022,-9922686.30867,   0.00000
-535797292.09885,-297414989.36466,7489846.84138,  -0.00275,  -0.00073,   0.00031,465132842.96550,   0.00082,275535383.62524,  -0.00090,  -0.00042,   0.00022,-10402540.65974,   0.00000
-535338191.83197,-295764710.02697,7423670.22633,  -0.00275,  -0.00073,   0.00031,464644951.43777,   0.00082,275535383.62524,  -0.00090,  -0.00042,   0.00022,-10890432.18747,   0.00000
-534850139.29601,-294102022.57395,7361629.64972,  -0.00276,  -0.00072,   0.00031,464136557.72782,   0.00082,275535383.62524,  -0.00090,  -0.00042,   0.00022,-11398825.89741,   0.00000
-534349678.64473,-292410382.85185,7295453.03468,  -0.00276,  -0.00071,   0.00031,463620197.85916,   0.00082,275535383.62524,  -0.00090,  -0.00042,   0.00022,-11915185.76608,   0.00000
-533834741.85891,-290712539.07209,7233412.45807,  -0.00276,  -0.00071,   0.00031,463095913.93790,   0.00082,275535383.62524,  -0.00090,  -0.00042,   0.00022,-12439469.68734,   0.00000
-533313601.01542,-289000219.15779,7171371.88147,  -0.00276,  -0.00070,   0.00031,462570061.56040,   0.00082,275535383.62524,  -0.00090,  -0.00042,   0.00022,-12965322.06484,   0.00000
-532765575.92208,-287252742.91674,7109331.30486,  -0.00276,  -0.00069,   0.00031,462024406.23883,   0.00082,275535383.62524,  -0.00090,  -0.00042,   0.00022,-13510977.38640,   0.00000
-532203074.69419,-285499062.61804,7043154.68982,  -0.00276,  -0.00069,   0.00031,461470656.27844,   0.00082,275535383.62524,  -0.00090,  -0.00042,   0.00022,-14064727.34680,   0.00000
-531619893.27410,-283724702.12713,6981114.11321,  -0.00276,  -0.00068,   0.00031,460903384.14968,   0.00082,275535383.62524,  -0.00090,  -0.00042,   0.00022,-14631999.47555,   0.00000
-531030507.79636,-281935865.50168,6923209.57505,  -0.00276,  -0.00067,   0.00031,460335181.29265,   0.00082,275535383.62524,  -0.00090,  -0.00042,   0.00022,-15200202.33259,   0.00000
-530420442.12640,-280126348.68404,6861168.99844,  -0.00276,  -0.00067,   0.00031,459753305.42853,   0.00082,275535383.62524,  -0.00090,  -0.00042,   0.00022,-15782078.19671,   0.00000
-529789696.26425,-278296151.67418,6799128.42184,  -0.00276,  -0.00066,   0.00030,459158056.75099,   0.00082,275535383.62524,  -0.00090,  -0.00042,   0.00022,-16377326.87425,   0.00000
-529144474.26756,-276459750.60667,6737087.84523,  -0.00276,  -0.00065,   0.00030,458555213.70975,   0.00082,275535383.62524,  -0.00090,  -0.00042,   0.00022,-16980169.91549,   0.00000
-528486844.15555,-274594397.27008,6679183.30707,  -0.00276,  -0.00064,   0.00030,457946214.62623,   0.00082,275535383.62524,  -0.00090,  -0.00042,   0.00022,-17589168.99901,   0.00000
-527808533.85133,-272708363.74128,6621278.76890,  -0.00276,  -0.00064,   0.00030,457324198.37907,   0.00082,275535383.62524,  -0.00090,  -0.00042,   0.00022,-18211185.24616,   0.00000
-527115747.41257,-270816126.15483,6559238.19230,  -0.00277,  -0.00063,   0.00030,456694658.85133,   0.00082,275535383.62524,  -0.00090,  -0.00042,   0.00022,-18840724.77391,   0.00000
-526416756.91615,-268909412.43383,6501333.65413,  -0.00277,  -0.00062,   0.00030,456064968.26421,   0.00082,275535383.62524,  -0.00090,  -0.00042,   0.00022,-19470415.36103,   0.00000
-525690882.16987,-266967542.38609,6443429.11597,  -0.00277,  -0.00061,   0.00030,455417086.58422,   0.00082,275535383.62524,  -0.00090,  -0.00042,   0.00022,-20118297.04102,   0.00000
-524950531.28905,-265019468.28069,6385524.57780,  -0.00277,  -0.00061,   0.00030,454762127.89210,   0.00082,275535383.62524,  -0.00090,  -0.00042,   0.00022,-20773255.73314,   0.00000
-524189500.21603,-263050713.98309,6327620.03964,  -0.00277,  -0.00060,   0.00030,454094708.50867,   0.00082,275535383.62524,  -0.00090,  -0.00042,   0.00022,-21440675.11656,   0.00000
-523422265.08535,-261067483.55094,6269715.50147,  -0.00277,  -0.00059,   0.00030,453427494.72406,   0.00082,275535383.62524,  -0.00090,  -0.00042,   0.00022,-22107888.90118,   0.00000
-522634349.76246,-259063572.92660,6215947.00175,  -0.00277,  -0.00058,   0.00030,452748263.80327,   0.00082,275535383.62524,  -0.00090,  -0.00042,   0.00022,-22787119.82196,   0.00000
-521825754.24738,-257038982.11005,6158042.46359,  -0.00277,  -0.00058,   0.00030,452056810.44578,   0.00082,275535383.62524,  -0.00090,  -0.00042,   0.00022,-23478573.17946,   0.00000
-520996478.54009,-254993711.10130,6100137.92542,  -0.00277,  -0.00057,   0.00030,451353445.61315,   0.00082,275535383.62524,  -0.00090,  -0.00042,   0.00022,-24181938.01208,   0.00000
-520160998.77514,-252933963.95801,6046369.42570,  -0.00277,  -0.00056,   0.00029,450651025.96511,   0.00082,275535383.62524,  -0.00090,  -0.00042,   0.00022,-24884357.66013,   0.00000
-519311042.87565,-250868012.75706,5992600.92597,  -0.00277,  -0.00055,   0.00029,449942133.55256,   0.00082,275535383.62524,  -0.00090,  -0.00042,   0.00022,-25593250.07267,   0.00000
-518434202.72630,-248766905.22937,5934696.38781,  -0.00277,  -0.00055,   0.00029,449216412.63451,   0.00082,275535383.62524,  -0.00090,  -0.00042,   0.00022,-26318970.99073,   0.00000
-517557362.57694,-246665797.70167,5880927.88808,  -0.00277,  -0.00054,   0.00029,448497152.22670,   0.00082,275535383.62524,  -0.00090,  -0.00042,   0.00022,-27038231.39853,   0.00000
-516653638.17773,-244529533.84724,5827159.38836,  -0.00277,  -0.00053,   0.00029,447761620.53191,   0.00082,275535383.62524,  -0.00090,  -0.00042,   0.00022,-27773763.09333,   0.00000
-515735437.64397,-242387065.93514,5773390.88863,  -0.00277,  -0.00052,   0.00029,447020053.21040,   0.00082,275535383.62524,  -0.00090,  -0.00042,   0.00022,-28515330.41484,   0.00000
-514796556.91802,-240223917.83084,5723758.42735,  -0.00277,  -0.00051,   0.00029,446267704.58501,   0.00082,275535383.62524,  -0.00090,  -0.00042,   0.00022,-29267679.04023,   0.00000
-513851472.13440,-238046293.59200,5669989.92763,  -0.00277,  -0.00051,   0.00029,445516982.01811,   0.00082,275535383.62524,  -0.00090,  -0.00042,   0.00022,-30018401.60712,   0.00000
-512871231.02404,-235841785.10330,5616221.42790,  -0.00277,  -0.00050,   0.00029,444743079.07978,   0.00082,275535383.62524,  -0.00090,  -0.00042,   0.00022,-30792304.54545,   0.00000
-511884785.85602,-233622800.48006,5566588.96662,  -0.00277,  -0.00049,   0.00029,443971452.27859,   0.00082,275535383.62524,  -0.00090,  -0.00042,   0.00022,-31563931.34665,   0.00000
-510898340.68799,-231403815.85682,5512820.46689,  -0.00277,  -0.00048,   0.00029,443206710.83505,   0.00082,275535383.62524,  -0.00090,  -0.00042,   0.00022,-32328672.79019,   0.00000
-509870535.13557,-229143470.84917,5463188.00561,  -0.00277,  -0.00047,   0.00029,442414656.17348,   0.00082,275535383.62524,  -0.00090,  -0.00042,   0.00022,-33120727.45175,   0.00000
-508842729.58314,-226883125.84152,5413555.54432,  -0.00277,  -0.00046,   0.00029,441629898.15295,   0.00082,275535383.62524,  -0.00090,  -0.00042,   0.00022,-33905485.47229,   0.00000
-507788039.78086,-224587624.50713,5363923.08304,  -0.00277,  -0.00046,   0.00029,440830692.93239,   0.00082,275535383.62524,  -0.00090,  -0.00042,   0.00022,-34704690.69285,   0.00000
-506733349.97857,-222292123.17274,5314290.62176,  -0.00277,  -0.00045,   0.00028,440039053.73321,   0.00082,275535383.62524,  -0.00090,  -0.00042,   0.00022,-35496329.89203,   0.00000
-505643503.84954,-219969737.58849,5264658.16047,  -0.00277,  -0.00044,   0.00028,439225362.95337,   0.00082,275535383.62524,  -0.00090,  -0.00042,   0.00022,-36310020.67187,   0.00000
-504547453.66285,-217632875.86970,5215025.69919,  -0.00277,  -0.00043,   0.00028,438414960.71956,   0.00082,275535383.62524,  -0.00090,  -0.00042,   0.00022,-37120422.90568,   0.00000
-503430723.28396,-215275333.95870,5165393.23790,  -0.00277,  -0.00042,   0.00028,437595463.11533,   0.00082,275535383.62524,  -0.00090,  -0.00042,   0.00022,-37939920.50991,   0.00000
-502313992.90507,-212917792.04771,5115760.77662,  -0.00277,  -0.00041,   0.00028,436783997.39420,   0.00082,275535383.62524,  -0.00090,  -0.00042,   0.00022,-38751386.23104,   0.00000
-501170378.27631,-210525093.80997,5070264.35378,  -0.00276,  -0.00041,   0.00028,435959568.10898,   0.00082,275535383.62524,  -0.00090,  -0.00042,   0.00022,-39575815.51626,   0.00000
-499997811.37847,-208119987.45691,5020631.89249,  -0.00276,  -0.00040,   0.00028,435118170.80370,   0.00082,275535383.62524,  -0.00090,  -0.00042,   0.00022,-40417212.82154,   0.00000
-498827312.49986,-205692132.89243,4975135.46965,  -0.00276,  -0.00039,   0.00028,434289469.47330,   0.00082,275535383.62524,  -0.00090,  -0.00042,   0.00022,-41245914.15194,   0.00000
-497627861.35216,-203251870.21263,4925503.00836,  -0.00276,  -0.00038,   0.00028,433444113.33963,   0.00082,275535383.62524,  -0.00090,  -0.00042,   0.00022,-42091270.28561,   0.00000
-496422206.14680,-200797131.39829,4880006.58552,  -0.00276,  -0.00037,   0.00028,432603494.17171,   0.00082,275535383.62524,  -0.00090,  -0.00042,   0.00022,-42931889.45353,   0.00000
-495195870.74924,-198321712.39175,4834510.16268,  -0.00276,  -0.00036,   0.00028,431755111.63427,   0.00082,275535383.62524,  -0.00090,  -0.00042,   0.00022,-43780271.99097,   0.00000
-493955059.21714,-195840089.32754,4789013.73983,  -0.00276,  -0.00035,   0.00028,430903170.27257,   0.00082,275535383.62524,  -0.00090,  -0.00042,   0.00022,-44632213.35267,   0.00000
-492687363.43517,-193323309.93659,4743517.31699,  -0.00276,  -0.00034,   0.00028,430039871.70951,   0.00082,275535383.62524,  -0.00090,  -0.00042,   0.00022,-45495511.91573,   0.00000
-491413463.59555,-190792054.41110,4698020.89415,  -0.00276,  -0.00033,   0.00028,429182047.79053,   0.00082,275535383.62524,  -0.00090,  -0.00042,   0.00022,-46353335.83470,   0.00000
-490125087.62138,-188254594.82796,4652524.47130,  -0.00276,  -0.00033,   0.00028,428321178.73903,   0.00082,275535383.62524,  -0.00090,  -0.00042,   0.00022,-47214204.88621,   0.00000
-488816031.45501,-185696455.05260,4611164.08690,  -0.00276,  -0.00032,   0.00028,427453705.46430,   0.00082,275535383.62524,  -0.00090,  -0.00042,   0.00022,-48081678.16094,   0.00000
-487500771.23098,-183123839.14271,4565667.66405,  -0.00276,  -0.00031,   0.00028,426592153.65965,   0.00082,275535383.62524,  -0.00090,  -0.00042,   0.00022,-48943229.96559,   0.00000
-486150354.68021,-180524338.98296,4520171.24121,  -0.00276,  -0.00030,   0.00027,425711790.69895,   0.00082,275535383.62524,  -0.00090,  -0.00042,   0.00022,-49823592.92629,   0.00000
-484793734.07178,-177910362.68866,4478810.85681,  -0.00275,  -0.00029,   0.00027,424838100.84483,   0.00082,275535383.62524,  -0.00090,  -0.00042,   0.00022,-50697282.78041,   0.00000
-483422637.32881,-175290182.33671,4437450.47240,  -0.00275,  -0.00028,   0.00027,423962173.97617,   0.00082,275535383.62524,  -0.00090,  -0.00042,   0.00022,-51573209.64907,   0.00000
-482045336.52817,-172655525.85021,4391954.04956,  -0.00275,  -0.00027,   0.00027,423093032.07968,   0.00082,275535383.62524,  -0.00090,  -0.00042,   0.00022,-52442351.54556,   0.00000
-480626675.34314,-169979508.97931,4350593.66516,  -0.00275,  -0.00026,   0.00027,422202713.44791,   0.00082,275535383.62524,  -0.00090,  -0.00042,   0.00022,-53332670.17733,   0.00000
-479208014.15810,-167303492.10841,4309233.28075,  -0.00275,  -0.00025,   0.00027,421323288.65663,   0.00082,275535383.62524,  -0.00090,  -0.00042,   0.00022,-54212094.96861,   0.00000
-477783148.91540,-164612999.10296,4267872.89635,  -0.00275,  -0.00024,   0.00027,420451547.76091,   0.00082,275535383.62524,  -0.00090,  -0.00042,   0.00022,-55083835.86433,   0.00000
-476329331.40362,-161910097.98220,4226512.51195,  -0.00275,  -0.00023,   0.00027,419565934.37589,   0.00082,275535383.62524,  -0.00090,  -0.00042,   0.00022,-55969449.24935,   0.00000
-474863105.77652,-159178244.59236,4185152.12754,  -0.00275,  -0.00022,   0.00027,418685268.04157,   0.00082,275535383.62524,  -0.00090,  -0.00042,   0.00022,-56850115.58367,   0.00000
-473382404.01488,-156440187.14485,4143791.74314,  -0.00274,  -0.00021,   0.00027,417803678.46596,   0.00082,275535383.62524,  -0.00090,  -0.00042,   0.00022,-57731705.15928,   0.00000
-471881022.06103,-153681449.50514,4106567.39718,  -0.00274,  -0.00020,   0.00027,416918360.26544,   0.00082,275535383.62524,  -0.00090,  -0.00042,   0.00022,-58617023.35980,   0.00000
-470358959.91499,-150902031.67323,4065207.01277,  -0.00274,  -0.00019,   0.00027,416029361.21470,   0.00082,275535383.62524,  -0.00090,  -0.00042,   0.00022,-59506022.41054,   0.00000
-468830693.71128,-148108137.70678,4023846.62837,  -0.00274,  -0.00018,   0.00027,415149578.94774,   0.00082,275535383.62524,  -0.00090,  -0.00042,   0.00022,-60385804.67750,   0.00000
-467287951.37304,-145308039.68267,3986622.28241,  -0.00274,  -0.00017,   0.00027,414269766.19728,   0.00082,275535383.62524,  -0.00090,  -0.00042,   0.00022,-61265617.42796,   0.00000
-465718324.78493,-142472785.33182,3945261.89800,  -0.00274,  -0.00016,   0.00027,413384277.59512,   0.00082,275535383.62524,  -0.00090,  -0.00042,   0.00022,-62151106.03012,   0.00000
-464134222.06228,-139631326.92330,3908037.55204,  -0.00273,  -0.00016,   0.00027,412499241.84557,   0.00082,275535383.62524,  -0.00090,  -0.00042,   0.00022,-63036141.77967,   0.00000
-462543915.28196,-136775392.38025,3870813.20608,  -0.00273,  -0.00015,   0.00027,411624471.58057,   0.00082,275535383.62524,  -0.00090,  -0.00042,   0.00022,-63910912.04467,   0.00000
-460918452.17491,-133892573.58733,3829452.82167,  -0.00273,  -0.00014,   0.00027,410735288.43807,   0.00082,275535383.62524,  -0.00090,  -0.00042,   0.00022,-64800095.18717,   0.00000
-459307465.20240,-131015958.85207,3792228.47571,  -0.00273,  -0.00013,   0.00027,409872009.40490,   0.00082,275535383.62524,  -0.00090,  -0.00042,   0.00022,-65663374.22034,   0.00000
-457655117.84548,-128097983.73241,3755004.12975,  -0.00273,  -0.00012,   0.00026,408992545.96348,   0.00082,275535383.62524,  -0.00090,  -0.00042,   0.00022,-66542837.66176,   0.00000
-455988294.35402,-125173804.55509,3717779.78378,  -0.00273,  -0.00011,   0.00026,408114545.14311,   0.00082,275535383.62524,  -0.00090,  -0.00042,   0.00022,-67420838.48213,   0.00000
-454315266.80491,-122235149.24323,3680555.43782,  -0.00272,  -0.00010,   0.00026,407248251.54461,   0.00082,275535383.62524,  -0.00090,  -0.00042,   0.00022,-68287132.08063,   0.00000
-452627763.12125,-119290289.87370,3643331.09186,  -0.00272,  -0.00008,   0.00026,406383796.08814,   0.00082,275535383.62524,  -0.00090,  -0.00042,   0.00022,-69151587.53709,   0.00000
-450927851.32227,-116316478.23510,3606106.74590,  -0.00272,  -0.00007,   0.00026,405529434.96224,   0.00082,275535383.62524,  -0.00090,  -0.00042,   0.00022,-70005948.66300,   0.00000
-449198987.25420,-113330258.48117,3573018.43837,  -0.00272,  -0.00006,   0.00026,404665219.26760,   0.00082,275535383.62524,  -0.00090,  -0.00042,   0.00022,-70870164.35764,   0.00000
-447463919.12848,-110329562.59271,3535794.09241,  -0.00272,  -0.00005,   0.00026,403813791.67860,   0.00082,275535383.62524,  -0.00090,  -0.00042,   0.00022,-71721591.94664,   0.00000
-445708170.81056,-107308186.51204,3498569.74645,  -0.00271,  -0.00004,   0.00026,402963279.80019,   0.00082,275535383.62524,  -0.00090,  -0.00042,   0.00022,-72572103.82505,   0.00000
-443937946.35809,-104280606.37371,3465481.43892,  -0.00271,  -0.00003,   0.00026,402115972.73498,   0.00082,275535383.62524,  -0.00090,  -0.00042,   0.00022,-73419410.89026,   0.00000
-442140837.65576,-101217869.90863,3428257.09296,  -0.00271,  -0.00002,   0.00026,401268342.34055,   0.00082,275535383.62524,  -0.00090,  -0.00042,   0.00022,-74267041.28469,   0.00000
-440343728.95343,-98155133.44356,3395168.78544,  -0.00271,  -0.00001,   0.00026,400436778.88866,   0.00082,275535383.62524,  -0.00090,  -0.00042,   0.00022,-75098604.73658,   0.00000
-438525940.05890,-95071716.78629,3357944.43947,  -0.00270,  -0.00000,   0.00026,399607363.33693,   0.00082,275535383.62524,  -0.00090,  -0.00042,   0.00022,-75928020.28831,   0.00000
-436693675.02983,-91982096.07135,3324856.13195,  -0.00270,   0.00001,   0.00026,398782191.48213,   0.00082,275535383.62524,  -0.00090,  -0.00042,   0.00022,-76753192.14311,   0.00000
-434849001.88544,-88863523.08733,3287631.78599,  -0.00270,   0.00002,   0.00026,397970591.15717,   0.00082,275535383.62524,  -0.00090,  -0.00042,   0.00022,-77564792.46807,   0.00000
-432975376.47196,-85732541.98800,3254543.47847,  -0.00270,   0.00003,   0.00026,397151661.08600,   0.00082,275535383.62524,  -0.00090,  -0.00042,   0.00022,-78383722.53924,   0.00000
-431101751.05849,-82601560.88866,3221455.17094,  -0.00270,   0.00004,   0.00026,396349837.14886,   0.00082,275535383.62524,  -0.00090,  -0.00042,   0.00022,-79185546.47638,   0.00000
-429201241.39515,-79435423.46258,3188366.86342,  -0.00269,   0.00005,   0.00026,395550763.87829,   0.00082,275535383.62524,  -0.00090,  -0.00042,   0.00022,-79984619.74695,   0.00000
-427300731.73182,-76269286.03650,3155278.55590,  -0.00269,   0.00006,   0.00026,394769381.97801,   0.00082,275535383.62524,  -0.00090,  -0.00042,   0.00022,-80766001.64723,   0.00000
-425365065.74174,-73076264.36055,3122190.24838,  -0.00269,   0.00007,   0.00026,393980626.15860,   0.00082,275535383.62524,  -0.00090,  -0.00042,   0.00022,-81554757.46664,   0.00000
-423423195.69400,-69868766.55007,3089101.94085,  -0.00269,   0.00008,   0.00026,393209128.11317,   0.00082,275535383.62524,  -0.00090,  -0.00042,   0.00022,-82326255.51207,   0.00000
-421466849.51172,-66655064.68192,3056013.63333,  -0.00268,   0.00009,   0.00026,392444034.77130,   0.00082,275535383.62524,  -0.00090,  -0.00042,   0.00022,-83091348.85394,   0.00000
-419489823.13723,-63420682.62158,3022925.32581,  -0.00268,   0.00010,   0.00026,391684794.18571,   0.00082,275535383.62524,  -0.00090,  -0.00042,   0.00022,-83850589.43953,   0.00000
-417506592.70509,-60171824.42669,2989837.01828,  -0.00268,   0.00012,   0.00025,390943841.73434,   0.00082,275535383.62524,  -0.00090,  -0.00042,   0.00022,-84591541.89090,   0.00000
-415502682.08074,-56902286.03960,2956748.71076,  -0.00267,   0.00013,   0.00025,390209589.31792,   0.00082,275535383.62524,  -0.00090,  -0.00042,   0.00022,-85325794.30732,   0.00000
-413484295.32186,-53626543.59485,2923660.40324,  -0.00267,   0.00014,   0.00025,389482962.96159,   0.00082,275535383.62524,  -0.00090,  -0.00042,   0.00022,-86052420.66365,   0.00000
-411445228.37077,-50330120.95789,2890572.09572,  -0.00267,   0.00015,   0.00025,388763778.06373,   0.00082,275535383.62524,  -0.00090,  -0.00042,   0.00022,-86771605.56151,   0.00000
-409385481.22748,-47013018.12874,2861619.82663,  -0.00267,   0.00016,   0.00025,388052593.94434,   0.00082,275535383.62524,  -0.00090,  -0.00042,   0.00022,-87482789.68090,   0.00000
-407325734.08419,-43695915.29959,2828531.51911,  -0.00266,   0.00017,   0.00025,387361740.05298,   0.00082,275535383.62524,  -0.00090,  -0.00042,   0.00022,-88173643.57226,   0.00000
-405245306.74870,-40358132.27823,2795443.21159,  -0.00266,   0.00018,   0.00025,386679502.03778,   0.00082,275535383.62524,  -0.00090,  -0.00042,   0.00022,-88855881.58746,   0.00000
-403144199.22100,-36999669.06468,2766490.94251,  -0.00266,   0.00019,   0.00025,386006449.86363,   0.00082,275535383.62524,  -0.00090,  -0.00042,   0.00022,-89528933.76161,   0.00000
-401043091.69331,-33641205.85112,2733402.63498,  -0.00265,   0.00020,   0.00025,385354555.43320,   0.00082,275535383.62524,  -0.00090,  -0.00042,   0.00022,-90180828.19204,   0.00000
-398900623.78121,-30241382.25316,2700314.32746,  -0.00265,   0.00022,   0.00025,384700945.80236,   0.00082,275535383.62524,  -0.00090,  -0.00042,   0.00022,-90834437.82287,   0.00000
-396764359.92678,-26856034.78974,2671362.05838,  -0.00265,   0.00023,   0.00025,384069127.87277,   0.00082,275535383.62524,  -0.00090,  -0.00042,   0.00022,-91466255.75247,   0.00000
-394601211.82248,-23435530.99958,2638273.75086,  -0.00264,   0.00024,   0.00025,383448214.25848,   0.00082,275535383.62524,  -0.00090,  -0.00042,   0.00022,-92087169.36676,   0.00000
-392438063.71818,-20015027.20941,2609321.48177,  -0.00264,   0.00025,   0.00025,382849843.04754,   0.00082,275535383.62524,  -0.00090,  -0.00042,   0.00022,-92685540.57770,   0.00000
-390239759.28714,-16567639.16939,2576233.17425,  -0.00264,   0.00026,   0.00025,382251377.76968,   0.00082,275535383.62524,  -0.00090,  -0.00042,   0.00022,-93284005.85556,   0.00000
-388041454.85610,-13120251.12936,2547280.90517,  -0.00264,   0.00027,   0.00025,381676009.54245,   0.00082,275535383.62524,  -0.00090,  -0.00042,   0.00022,-93859374.08279,   0.00000
-385822470.23285,-9652182.89714,2518328.63609,  -0.00263,   0.00028,   0.00025,381113027.93280,   0.00082,275535383.62524,  -0.00090,  -0.00042,   0.00022,-94422355.69244,   0.00000
-383582805.41741,-6163434.47271,2485240.32856,  -0.00263,   0.00030,   0.00025,380562870.37599,   0.00082,275535383.62524,  -0.00090,  -0.00042,   0.00022,-94972513.24925,   0.00000
-381343140.60196,-2674686.04828,2456288.05948,  -0.00262,   0.00031,   0.00025,380036671.52650,   0.00082,275535383.62524,  -0.00090,  -0.00042,   0.00022,-95498712.09873,   0.00000
-379082795.59432,834742.56835,2423199.75196,  -0.00262,   0.00032,   0.00025,379524063.72756,   0.00082,275535383.62524,  -0.00090,  -0.00042,   0.00022,-96011319.89768,   0.00000
-376801770.39447,4364851.37718,2394247.48288,  -0.00262,   0.00033,   0.00025,379025734.07278,   0.00082,275535383.62524,  -0.00090,  -0.00042,   0.00022,-96509649.55246,   0.00000
-374506269.06008,7901164.24367,2365295.21379,  -0.00261,   0.00034,   0.00025,378540874.10500,   0.00082,275535383.62524,  -0.00090,  -0.00042,   0.00022,-96994509.52024,   0.00000
-372190087.53349,11458157.30236,2336342.94471,  -0.00261,   0.00035,   0.00025,378071076.24276,   0.00082,275535383.62524,  -0.00090,  -0.00042,   0.00022,-97464307.38248,   0.00000
-369873906.00690,15015150.36106,2303254.63719,  -0.00261,   0.00036,   0.00025,377626519.65171,   0.00082,275535383.62524,  -0.00090,  -0.00042,   0.00022,-97908863.97353,   0.00000
-367537044.28811,18592823.61195,2274302.36811,  -0.00260,   0.00038,   0.00025,377197880.16768,   0.00082,275535383.62524,  -0.00090,  -0.00042,   0.00022,-98337503.45756,   0.00000
-365179502.37711,22191177.05505,2245350.09902,  -0.00260,   0.00039,   0.00025,376785622.17899,   0.00082,275535383.62524,  -0.00090,  -0.00042,   0.00022,-98749761.44625,   0.00000
-362821960.46612,25789530.49815,2216397.82994,  -0.00260,   0.00040,   0.00024,376399548.55532,   0.00082,275535383.62524,  -0.00090,  -0.00042,   0.00022,-99135835.06992,   0.00000
-360429262.22838,29414768.19110,2183309.52242,  -0.00259,   0.00041,   0.00024,376019581.10899,   0.00082,275535383.62524,  -0.00090,  -0.00042,   0.00022,-99515802.51625,   0.00000
-358030359.93298,33054482.01861,2154357.25334,  -0.00259,   0.00042,   0.00024,375668429.96891,   0.00082,275535383.62524,  -0.00090,  -0.00042,   0.00022,-99866953.65633,   0.00000
-355616981.50304,36700399.90377,2125404.98425,  -0.00258,   0.00044,   0.00024,375333444.23220,   0.00082,275535383.62524,  -0.00090,  -0.00042,   0.00022,-100201939.39304,   0.00000
-353197399.01544,40360793.92347,2096452.71517,  -0.00258,   0.00045,   0.00024,375027877.81088,   0.00082,275535383.62524,  -0.00090,  -0.00042,   0.00022,-100507505.81436,   0.00000
-350748864.25876,44033596.05849,2067500.44609,  -0.00258,   0.00046,   0.00024,374728276.01034,   0.00082,275535383.62524,  -0.00090,  -0.00042,   0.00022,-100807107.61490,   0.00000
-348294125.44442,47720874.32806,2038548.17701,  -0.00257,   0.00047,   0.00024,374458872.09581,   0.00082,275535383.62524,  -0.00090,  -0.00042,   0.00022,-101076511.52943,   0.00000
-345824910.49553,51414356.65528,2005459.86948,  -0.00257,   0.00048,   0.00024,374206808.71128,   0.00082,275535383.62524,  -0.00090,  -0.00042,   0.00022,-101328574.91396,   0.00000
-343335015.35445,55128519.17471,1976507.60040,  -0.00256,   0.00050,   0.00024,373975075.53183,   0.00082,275535383.62524,  -0.00090,  -0.00042,   0.00022,-101560308.09341,   0.00000
-340838916.15570,58857157.82867,1947555.33132,  -0.00256,   0.00051,   0.00024,373774692.28333,   0.00082,275535383.62524,  -0.00090,  -0.00042,   0.00022,-101760691.34191,   0.00000
-338328340.82242,62592000.54030,1918603.06224,  -0.00256,   0.00052,   0.00024,373592713.44604,   0.00082,275535383.62524,  -0.00090,  -0.00042,   0.00022,-101942670.17920,   0.00000
-335803289.35459,66333047.30959,1889650.79315,  -0.00255,   0.00053,   0.00024,373429364.30679,   0.00082,275535383.62524,  -0.00090,  -0.00042,   0.00022,-102106019.31845,   0.00000
-333257557.69456,70094774.27108,1860698.52407,  -0.00255,   0.00054,   0.00024,373287927.76941,   0.00082,275535383.62524,  -0.00090,  -0.00042,   0.00022,-102247455.85583,   0.00000
-330705621.97687,73870977.36711,1827610.21655,  -0.00254,   0.00056,   0.00024,373179176.39898,   0.00082,275535383.62524,  -0.00090,  -0.00042,   0.00022,-102356207.22626,   0.00000
-328124733.99009,77659588.57847,1798657.94747,  -0.00254,   0.00057,   0.00024,373079870.95201,   0.00082,275535383.62524,  -0.00090,  -0.00042,   0.00022,-102455512.67322,   0.00000
-325537641.94566,81462675.92436,1769705.67838,  -0.00254,   0.00058,   0.00024,373014057.23359,   0.00082,275535383.62524,  -0.00090,  -0.00042,   0.00022,-102521326.39165,   0.00000
-322944345.84357,85280239.40479,1740753.40930,  -0.00253,   0.00059,   0.00024,372982079.38255,   0.00082,275535383.62524,  -0.00090,  -0.00042,   0.00022,-102553304.24269,   0.00000
-320328301.53005,89095734.86601,1711801.14022,  -0.00253,   0.00061,   0.00024,372957030.96345,   0.00082,275535383.62524,  -0.00090,  -0.00042,   0.00022,-102578352.66179,   0.00000
-317699849.10121,92940182.59631,1682848.87114,  -0.00252,   0.00062,   0.00024,372970038.45781,   0.00082,275535383.62524,  -0.00090,  -0.00042,   0.00022,-102565345.16742,   0.00000
-315063124.59550,96776358.24972,1649760.56361,  -0.00252,   0.00063,   0.00024,373000352.47013,   0.00082,275535383.62524,  -0.00090,  -0.00042,   0.00022,-102535031.15511,   0.00000
-312399515.83992,100647690.22988,1620808.29453,  -0.00251,   0.00064,   0.00024,373059761.70371,   0.00082,275535383.62524,  -0.00090,  -0.00042,   0.00022,-102475621.92153,   0.00000
-309721430.94980,104525226.26770,1591856.02545,  -0.00251,   0.00065,   0.00024,373140981.91261,   0.00082,275535383.62524,  -0.00090,  -0.00042,   0.00022,-102394401.71263,   0.00000
-307043346.05967,108402762.30552,1562903.75637,  -0.00250,   0.00067,   0.00024,373253868.16461,   0.00082,275535383.62524,  -0.00090,  -0.00042,   0.00022,-102281515.46063,   0.00000
-304344580.97735,112300978.53554,1533951.48728,  -0.00250,   0.00068,   0.00024,373393073.08460,   0.00082,275535383.62524,  -0.00090,  -0.00042,   0.00022,-102142310.54064,   0.00000
-301631339.76049,116205398.82323,1500863.17976,  -0.00249,   0.00069,   0.00024,373554691.77441,   0.00082,275535383.62524,  -0.00090,  -0.00042,   0.00022,-101980691.85083,   0.00000
-298911894.48596,120124295.24545,1471910.91068,  -0.00249,   0.00070,   0.00023,373752922.66978,   0.00082,275535383.62524,  -0.00090,  -0.00042,   0.00022,-101782460.95546,   0.00000
-296177973.07690,124049395.72533,1442958.64160,  -0.00248,   0.00072,   0.00023,373974048.95531,   0.00082,275535383.62524,  -0.00090,  -0.00042,   0.00022,-101561334.66993,   0.00000
-293423371.47563,127995176.39742,1414006.37251,  -0.00248,   0.00073,   0.00023,374222947.64264,   0.00082,275535383.62524,  -0.00090,  -0.00042,   0.00022,-101312435.98260,   0.00000
-290654293.73982,131947161.12716,1380918.06499,  -0.00247,   0.00074,   0.00023,374495262.36177,   0.00082,275535383.62524,  -0.00090,  -0.00042,   0.00022,-101040121.26347,   0.00000
-287870739.86947,135905349.91457,1351965.79591,  -0.00247,   0.00075,   0.00023,374791254.00023,   0.00082,275535383.62524,  -0.00090,  -0.00042,   0.00022,-100744129.62501,   0.00000
-285080981.94146,139878014.83652,1323013.52683,  -0.00246,   0.00077,   0.00023,375125096.75481,   0.00082,275535383.62524,  -0.00090,  -0.00042,   0.00022,-100410286.87043,   0.00000
-282270543.82125,143871359.95067,1289925.21930,  -0.00246,   0.00078,   0.00023,375488038.23556,   0.00082,275535383.62524,  -0.00090,  -0.00042,   0.00022,-100047345.38968,   0.00000
-279445629.56650,147870909.12248,1260972.95022,  -0.00245,   0.00079,   0.00023,375875398.37181,   0.00082,275535383.62524,  -0.00090,  -0.00042,   0.00022,-99659985.25343,   0.00000
-276620715.31174,151870458.29429,1232020.68114,  -0.00245,   0.00081,   0.00023,376296059.87183,   0.00082,275535383.62524,  -0.00090,  -0.00042,   0.00022,-99239323.75341,   0.00000
-273760644.73025,155896891.71596,1198932.37362,  -0.00244,   0.00082,   0.00023,376737942.54618,   0.00082,275535383.62524,  -0.00090,  -0.00042,   0.00022,-98797441.07905,   0.00000
-270900574.14875,159923325.13763,1169980.10453,  -0.00244,   0.00083,   0.00023,377213491.48340,   0.00082,275535383.62524,  -0.00090,  -0.00042,   0.00022,-98321892.14184,   0.00000
-268034299.50960,163964234.69385,1136891.79701,  -0.00243,   0.00084,   0.00023,377728172.54211,   0.00082,275535383.62524,  -0.00090,  -0.00042,   0.00022,-97807211.08312,   0.00000
-265139072.60136,168017552.36538,1107939.52793,  -0.00243,   0.00086,   0.00023,378259601.76532,   0.00082,275535383.62524,  -0.00090,  -0.00042,   0.00022,-97275781.85992,   0.00000
-262243845.69312,172070870.03692,1074851.22041,  -0.00242,   0.00087,   0.00023,378824776.80962,   0.00082,275535383.62524,  -0.00090,  -0.00042,   0.00022,-96710606.81562,   0.00000
-259327938.59268,176144867.90065,1045898.95132,  -0.00242,   0.00088,   0.00023,379421350.77335,   0.00082,275535383.62524,  -0.00090,  -0.00042,   0.00022,-96114032.85189,   0.00000
-256397555.35770,180225069.82205,1012810.64380,  -0.00241,   0.00090,   0.00023,380043585.47212,   0.00082,275535383.62524,  -0.00090,  -0.00042,   0.00022,-95491798.15311,   0.00000
-253460968.06505,184319747.87799,983858.37472,  -0.00241,   0.00091,   0.00023,380705919.90780,   0.00082,275535383.62524,  -0.00090,  -0.00042,   0.00022,-94829463.71744,   0.00000
-250516108.69553,188406153.85704,950770.06720,  -0.00240,   0.00092,   0.00023,381387844.50592,   0.00082,275535383.62524,  -0.00090,  -0.00042,   0.00022,-94147539.11932,   0.00000
-247544365.07614,192527716.16284,917681.75967,  -0.00240,   0.00093,   0.00023,382108377.09786,   0.00082,275535383.62524,  -0.00090,  -0.00042,   0.00022,-93427006.52738,   0.00000
-244564349.37988,196641006.39176,888729.49059,  -0.00239,   0.00095,   0.00023,382848737.35236,   0.00082,275535383.62524,  -0.00090,  -0.00042,   0.00022,-92686646.27288,   0.00000
-241578129.62595,200768772.75522,855641.18307,  -0.00239,   0.00096,   0.00023,383629552.82697,   0.00082,275535383.62524,  -0.00090,  -0.00042,   0.00022,-91905830.79827,   0.00000
-238571229.67982,204917219.31089,822552.87555,  -0.00238,   0.00097,   0.00023,384443339.35486,   0.00082,275535383.62524,  -0.00090,  -0.00042,   0.00022,-91092044.27038,   0.00000
-235556057.65682,209057393.78967,789464.56802,  -0.00237,   0.00099,   0.00023,385276855.60511,   0.00082,275535383.62524,  -0.00090,  -0.00042,   0.00022,-90258528.02012,   0.00000
-232520205.44161,213218248.46065,760512.29894,  -0.00237,   0.00100,   0.00023,386143695.38822,   0.00082,275535383.62524,  -0.00090,  -0.00042,   0.00022,-89391688.23701,   0.00000
-229478149.16873,217393579.26617,727423.99142,  -0.00236,   0.00101,   0.00023,387051486.11034,   0.00082,275535383.62524,  -0.00090,  -0.00042,   0.00022,-88483897.51490,   0.00000
-226427820.81898,221560637.99482,694335.68389,  -0.00236,   0.00102,   0.00022,387978882.28106,   0.00082,275535383.62524,  -0.00090,  -0.00042,   0.00022,-87556501.34418,   0.00000
-223356812.27703,225748376.91566,661247.37637,  -0.00235,   0.00104,   0.00022,388940027.33003,   0.00082,275535383.62524,  -0.00090,  -0.00042,   0.00022,-86595356.29520,   0.00000
-220279599.67742,229950591.97105,628159.06885,  -0.00235,   0.00105,   0.00022,389942284.03482,   0.00082,275535383.62524,  -0.00090,  -0.00042,   0.00022,-85593099.59042,   0.00000
-217194115.00092,234144534.94956,595070.76133,  -0.00234,   0.00106,   0.00022,390963967.92554,   0.00082,275535383.62524,  -0.00090,  -0.00042,   0.00022,-84571415.69970,   0.00000
-214087950.13222,238359158.12026,561982.45380,  -0.00233,   0.00108,   0.00022,392019782.25807,   0.00082,275535383.62524,  -0.00090,  -0.00042,   0.00022,-83515601.36717,   0.00000
-210967309.12899,242579985.34863,528894.14628,  -0.00233,   0.00109,   0.00022,393102455.80188,   0.00082,275535383.62524,  -0.00090,  -0.00042,   0.00022,-82432927.82335,   0.00000
-207840464.06809,246815288.71154,495805.83876,  -0.00232,   0.00110,   0.00022,394226314.26757,   0.00082,275535383.62524,  -0.00090,  -0.00042,   0.00022,-81309069.35766,   0.00000
-204705346.93031,251042319.99757,462717.53124,  -0.00232,   0.00112,   0.00022,395369286.89955,   0.00082,275535383.62524,  -0.00090,  -0.00042,   0.00022,-80166096.72569,   0.00000
-201549549.60033,255290031.47580,429629.22371,  -0.00231,   0.00113,   0.00022,396546801.42478,   0.00082,275535383.62524,  -0.00090,  -0.00042,   0.00022,-78988582.20046,   0.00000
-198387548.21269,259552219.08857,392404.87775,  -0.00230,   0.00114,   0.00022,397765463.61211,   0.00082,275535383.62524,  -0.00090,  -0.00042,   0.00022,-77769920.01313,   0.00000
-195217274.74817,263806134.62446,359316.57023,  -0.00230,   0.00116,   0.00022,399002961.15948,   0.00082,275535383.62524,  -0.00090,  -0.00042,   0.00022,-76532422.46576,   0.00000
-192026321.09144,268080730.35256,326228.26270,  -0.00229,   0.00117,   0.00022,400275232.38145,   0.00082,275535383.62524,  -0.00090,  -0.00042,   0.00022,-75260151.24379,   0.00000
-188820891.30018,272361530.13831,289003.91674,  -0.00229,   0.00118,   0.00022,401574313.84124,   0.00082,275535383.62524,  -0.00090,  -0.00042,   0.00022,-73961069.78400,   0.00000
-185615461.50892,276642329.92406,255915.60922,  -0.00228,   0.00120,   0.00022,402906153.43667,   0.00082,275535383.62524,  -0.00090,  -0.00042,   0.00022,-72629230.18857,   0.00000
-182389351.52545,280943809.90202,222827.30170,  -0.00227,   0.00121,   0.00022,404272937.66869,   0.00082,275535383.62524,  -0.00090,  -0.00042,   0.00022,-71262445.95655,   0.00000
-179154969.46510,285237017.80309,185602.95573,  -0.00227,   0.00122,   0.00022,405657974.12284,   0.00082,275535383.62524,  -0.00090,  -0.00042,   0.00022,-69877409.50240,   0.00000
-175914383.34709,289544701.83871,152514.64821,  -0.00226,   0.00124,   0.00022,407083716.31494,   0.00082,275535383.62524,  -0.00090,  -0.00042,   0.00022,-68451667.31030,   0.00000
-172653117.03689,293873066.06653,115290.30225,  -0.00225,   0.00125,   0.00022,408544512.29582,   0.00082,275535383.62524,  -0.00090,  -0.00042,   0.00022,-66990871.32942,   0.00000
-169383578.64980,298193158.21746,82201.99472,  -0.00225,   0.00126,   0.00022,410023171.12961,   0.00082,275535383.62524,  -0.00090,  -0.00042,   0.00022,-65512212.49563,   0.00000
-166114040.26271,302513250.36840,44977.64876,  -0.00224,   0.00128,   0.00022,411533528.81815,   0.00082,275535383.62524,  -0.00090,  -0.00042,   0.00022,-64001854.80709,   0.00000
-162809345.54887,306860226.76920,11889.34124,  -0.00223,   0.00129,   0.00022,413073595.00486,   0.00082,275535383.62524,  -0.00090,  -0.00042,   0.00022,-62461788.62038,   0.00000
-159519126.96958,311200999.11233,-25335.00472,  -0.00223,   0.00130,   0.00022,414650367.57936,   0.00082,275535383.62524,  -0.00090,  -0.00042,   0.00022,-60885016.04587,   0.00000
-156199956.12121,315554179.57079,-62559.35069,  -0.00222,   0.00132,   0.00022,416248035.76798,   0.00082,275535383.62524,  -0.00090,  -0.00042,   0.00022,-59287347.85726,   0.00000
-152880785.27283,319907360.02925,-99783.69665,  -0.00221,   0.00133,   0.00021,417876742.34481,   0.00082,275535383.62524,  -0.00090,  -0.00042,   0.00022,-57658641.28042,   0.00000
-149540934.23226,324281220.67991,-132872.00417,  -0.00221,   0.00134,   0.00021,419540428.03533,   0.00082,275535383.62524,  -0.00090,  -0.00042,   0.00022,-55994955.58990,   0.00000
-146192811.11480,328646809.25369,-170096.35014,  -0.00220,   0.00136,   0.00021,421220786.47818,   0.00082,275535383.62524,  -0.00090,  -0.00042,   0.00022,-54314597.14706,   0.00000
-142838483.93969,333026873.96202,-207320.69610,  -0.00219,   0.00137,   0.00021,422940792.55685,   0.00082,275535383.62524,  -0.00090,  -0.00042,   0.00022,-52594591.06838,   0.00000
-139469680.63003,337413142.72800,-244545.04206,  -0.00219,   0.00138,   0.00021,424686358.81566,   0.00082,275535383.62524,  -0.00090,  -0.00042,   0.00022,-50849024.80957,   0.00000
-136100877.32037,341799411.49398,-281769.38803,  -0.00218,   0.00140,   0.00021,426461867.53201,   0.00082,275535383.62524,  -0.00090,  -0.00042,   0.00022,-49073516.09323,   0.00000
-132703121.74163,346198088.37528,-318993.73399,  -0.00217,   0.00141,   0.00021,428258224.96954,   0.00082,275535383.62524,  -0.00090,  -0.00042,   0.00022,-47277158.65569,   0.00000
-129305366.16289,350596765.25659,-356218.07995,  -0.00217,   0.00142,   0.00021,430084170.02709,   0.00082,275535383.62524,  -0.00090,  -0.00042,   0.00022,-45451213.59815,   0.00000
-125907610.58415,354995442.13789,-393442.42591,  -0.00216,   0.00144,   0.00021,431939327.47593,   0.00082,275535383.62524,  -0.00090,  -0.00042,   0.00022,-43596056.14931,   0.00000
-122474698.67867,359421003.26905,-430666.77188,  -0.00215,   0.00145,   0.00021,433824901.20224,   0.00082,275535383.62524,  -0.00090,  -0.00042,   0.00022,-41710482.42300,   0.00000
-119062466.96538,363825884.20802,-472027.15628,  -0.00215,   0.00146,   0.00021,435733658.10803,   0.00082,275535383.62524,  -0.00090,  -0.00042,   0.00022,-39801725.51721,   0.00000
-115615078.92536,368257649.39684,-509251.50224,  -0.00214,   0.00148,   0.00021,437672775.05617,   0.00082,275535383.62524,  -0.00090,  -0.00042,   0.00022,-37862608.56907,   0.00000
-112173894.94300,372674938.45113,-546475.84821,  -0.00213,   0.00149,   0.00021,439630399.03707,   0.00082,275535383.62524,  -0.00090,  -0.00042,   0.00022,-35904984.58817,   0.00000
-108712030.76843,377112907.69761,-583700.19417,  -0.00213,   0.00150,   0.00021,441622217.43079,   0.00082,275535383.62524,  -0.00090,  -0.00042,   0.00022,-33913166.19445,   0.00000
-105235690.45932,381557081.00176,-625060.57857,  -0.00212,   0.00152,   0.00021,443638311.66850,   0.00082,275535383.62524,  -0.00090,  -0.00042,   0.00022,-31897071.95674,   0.00000
-101759350.15022,386001254.30591,-662284.92454,  -0.00211,   0.00153,   0.00021,445682046.22581,   0.00082,275535383.62524,  -0.00090,  -0.00042,   0.00022,-29853337.39942,   0.00000
-98268533.70657,390451631.66771,-699509.27050,  -0.00210,   0.00154,   0.00021,447749660.69870,   0.00082,275535383.62524,  -0.00090,  -0.00042,   0.00022,-27785722.92654,   0.00000
-94777717.26292,394902009.02952,-740869.65490,  -0.00210,   0.00156,   0.00021,449844384.25640,   0.00082,275535383.62524,  -0.00090,  -0.00042,   0.00022,-25690999.36884,   0.00000
-91257948.55019,399364794.50665,-778094.00087,  -0.00209,   0.00157,   0.00021,451959379.17649,   0.00082,275535383.62524,  -0.00090,  -0.00042,   0.00022,-23576004.44875,   0.00000
-87752655.97200,403821375.92612,-819454.38527,  -0.00208,   0.00158,   0.00021,454104222.70362,   0.00082,275535383.62524,  -0.00090,  -0.00042,   0.00022,-21431160.92162,   0.00000
-84218411.12473,408290365.46091,-856678.73123,  -0.00207,   0.00160,   0.00020,456269142.99849,   0.00082,275535383.62524,  -0.00090,  -0.00042,   0.00022,-19266240.62675,   0.00000
-80684166.27746,412759354.99569,-898039.11564,  -0.00207,   0.00161,   0.00020,458460231.29401,   0.00082,275535383.62524,  -0.00090,  -0.00042,   0.00022,-17075152.33123,   0.00000
-77135445.29564,417234548.58814,-939399.50004,  -0.00206,   0.00162,   0.00020,460674251.03737,   0.00082,275535383.62524,  -0.00090,  -0.00042,   0.00022,-14861132.58786,   0.00000
-73586724.31383,421709742.18059,-976623.84600,  -0.00205,   0.00164,   0.00020,462913828.44539,   0.00082,275535383.62524,  -0.00090,  -0.00042,   0.00022,-12621555.17984,   0.00000
-70023527.19748,426191139.83070,-1017984.23041,  -0.00204,   0.00165,   0.00020,465175985.81430,   0.00082,275535383.62524,  -0.00090,  -0.00042,   0.00022,-10359397.81094,   0.00000
-66460330.08112,430672537.48081,-1059344.61481,  -0.00204,   0.00166,   0.00020,467463170.36270,   0.00082,275535383.62524,  -0.00090,  -0.00042,   0.00022,-8072213.26254,   0.00000
-62868180.69569,435166343.24624,-1100704.99921,  -0.00203,   0.00168,   0.00020,469770055.87060,   0.00082,275535383.62524,  -0.00090,  -0.00042,   0.00022,-5765327.75464,   0.00000
-59276031.31025,439660149.01167,-1137929.34518,  -0.00202,   0.00169,   0.00020,472101565.26444,   0.00082,275535383.62524,  -0.00090,  -0.00042,   0.00022,-3433818.36080,   0.00000
-55683881.92481,444153954.77710,-1179289.72958,  -0.00201,   0.00170,   0.00020,474457394.08023,   0.00082,275535383.62524,  -0.00090,  -0.00042,   0.00022,-1077989.54501,   0.00000
-54044119.58318,446199896.78135,-1198094.34359,  -0.00201,   0.00171,   0.00020,475535384.19242,   0.00082,275535383.62524,  -0.00090,  -0.00042,   0.00022,   0.56718,   0.00000
-51839453.91450,447492945.46632,-1217240.15730,  -0.00201,   0.00172,   0.00020,475535384.19242,   0.00083,275541270.73120,  -0.00090,  -0.00042,   0.00022,  -0.00000,   2.00000
-47796604.15309,449843966.44447,-1252116.68363,  -0.00200,   0.00173,   0.00020,477941059.60643,   0.00084,275552128.47640,  -0.00090,  -0.00041,   0.00022,   0.00000,   2.00000
-43767298.03483,452161282.73020,-1286738.61488,  -0.00199,   0.00175,   0.00020,477976702.52589,   0.00085,275563083.81470,  -0.00091,  -0.00040,   0.00022,   0.00000,   2.00000
-39745753.92966,454448398.92569,-1321140.35154,  -0.00198,   0.00176,   0.00020,477999315.11156,   0.00086,275574077.00007,  -0.00092,  -0.00039,   0.00022,  -0.00000,   2.00000
-35730570.42821,456706396.47173,-1355251.54834,  -0.00198,   0.00177,   0.00020,478045710.57675,   0.00087,275585214.68370,  -0.00092,  -0.00038,   0.00022,   0.00000,   2.00000
-31715930.31264,458938578.57306,-1389106.53416,  -0.00197,   0.00179,   0.00020,478079350.72725,   0.00088,275596438.13317,  -0.00093,  -0.00036,   0.00022,   0.00000,   2.00000
-27709913.75528,461140547.93192,-1422736.76318,  -0.00196,   0.00180,   0.00020,478102022.41959,   0.00089,275607697.18248,  -0.00094,  -0.00035,   0.00022,   0.00000,   2.00000
-23719275.36909,463308927.32744,-1456101.66034,  -0.00195,   0.00181,   0.00020,478137335.62358,   0.00090,275619048.07284,  -0.00094,  -0.00034,   0.00022,   0.00000,   2.00000
-19722591.63047,465455456.64140,-1489168.18636,  -0.00194,   0.00183,   0.00020,478182187.05982,   0.00091,275630532.55342,  -0.00095,  -0.00033,   0.00022,   0.00000,   2.00000
-15749618.29975,467564333.87898,-1522001.30176,  -0.00194,   0.00184,   0.00020,478206300.56463,   0.00092,275642056.64064,  -0.00095,  -0.00032,   0.00021,   0.00000,   2.00000
-11778846.18977,469647181.88829,-1558680.34493,  -0.00193,   0.00185,   0.00019,478240074.20146,   0.00093,275653662.91594,  -0.00096,  -0.00031,   0.00021,   0.00000,   2.00000
-7810647.84562,471703946.05292,-1590954.34441,  -0.00192,   0.00187,   0.00019,478273875.05530,   0.00094,275665350.59729,  -0.00097,  -0.00030,   0.00021,   0.00000,   2.00000
-3866923.01212,473723517.46596,-1622992.90480,  -0.00191,   0.00188,   0.00019,478297614.09269,   0.00095,275677074.05642,  -0.00097,  -0.00028,   0.00021,   0.00000,   2.00000
80826.19733,475720701.57273,-1654718.38685,  -0.00190,   0.00189,   0.00019,478342734.19980,   0.00096,275688927.78921,  -0.00098,  -0.00027,   0.00021,  -0.00000,   2.00000
4003561.48527,477680950.31410,-1690318.81745,  -0.00190,   0.00191,   0.00019,478366295.40980,   0.00097,275700814.87815,  -0.00098,  -0.00026,   0.00021,   0.00000,   2.00000
7929489.43019,479618662.26732,-1721464.48425,  -0.00189,   0.00192,   0.00019,478411480.54038,   0.00098,275712830.60756,  -0.00099,  -0.00025,   0.00021,   0.00000,   2.00000
11829876.62876,481519802.22239,-1752372.19870,  -0.00188,   0.00193,   0.00019,478434770.31527,   0.00100,275724876.88129,  -0.00100,  -0.00024,   0.00021,  -0.00000,   2.00000
15725809.77862,483394901.42184,-1783000.50077,  -0.00187,   0.00195,   0.00019,478468574.01198,   0.00101,275736999.63158,  -0.00100,  -0.00022,   0.00021,   0.00000,   2.00000
19616939.37970,485243819.93260,-1817458.30358,  -0.00186,   0.00196,   0.00019,478502517.77508,   0.00102,275749198.58836,  -0.00101,  -0.00021,   0.00021,   0.00000,   2.00000
23481865.93222,487056768.93682,-1847541.72544,  -0.00186,   0.00197,   0.00019,478525370.06303,   0.00103,275761424.11567,  -0.00101,  -0.00020,   0.00021,   0.00000,   2.00000
27327088.49478,488837135.00232,-1881450.33097,  -0.00185,   0.00199,   0.00019,478559617.46326,   0.00104,275773725.88361,  -0.00102,  -0.00019,   0.00021,   0.00000,   2.00000
31173209.35028,490594689.61698,-1910889.46274,  -0.00184,   0.00200,   0.00019,478604930.67807,   0.00105,275786151.53409,  -0.00102,  -0.00017,   0.00021,   0.00000,   2.00000
35006860.89187,492323295.62280,-1940090.98086,  -0.00183,   0.00201,   0.00019,478627148.62517,   0.00106,275798598.62945,  -0.00103,  -0.00016,   0.00021,  -0.00000,   2.00000
38813513.75757,494016728.42126,-1973164.27636,  -0.00182,   0.00203,   0.00019,478649499.88833,   0.00108,275811067.39649,  -0.00104,  -0.00015,   0.00021,   0.00000,   2.00000
42619986.31330,495687253.13751,-2001761.64965,  -0.00181,   0.00204,   0.00019,478694869.82939,   0.00109,275823657.84087,  -0.00104,  -0.00013,   0.00021,   0.00000,   2.00000
46399035.15128,497323010.20312,-2034230.58216,  -0.00181,   0.00205,   0.00019,478716978.73272,   0.00110,275836267.41842,  -0.00105,  -0.00012,   0.00021,  -0.00000,   2.00000
50171080.16936,498933202.57534,-2062272.98363,  -0.00180,   0.00207,   0.00019,478750583.61285,   0.00111,275848945.69754,  -0.00105,  -0.00011,   0.00021,   0.00000,   2.00000
53921402.16125,500511761.40734,-2090024.15293,  -0.00179,   0.00208,   0.00019,478784121.20366,   0.00112,275861691.61608,  -0.00106,  -0.00009,   0.00021,   0.00000,   2.00000
57658258.72327,502062301.60941,-2121646.98762,  -0.00178,   0.00209,   0.00018,478805943.62732,   0.00113,275874453.58284,  -0.00106,  -0.00008,   0.00021,   0.00000,   2.00000
61372964.27096,503581682.48526,-2148842.41908,  -0.00177,   0.00210,   0.00018,478839122.60004,   0.00115,275887280.39594,  -0.00107,  -0.00007,   0.00021,   0.00000,   2.00000
65079669.36860,505075755.81550,-2179852.45219,  -0.00176,   0.00212,   0.00018,478872684.06848,   0.00116,275900172.88639,  -0.00107,  -0.00005,   0.00021,   0.00000,   2.00000
68763695.99118,506538988.94427,-2206434.27492,  -0.00175,   0.00213,   0.00018,478905665.42919,   0.00117,275913127.80825,  -0.00108,  -0.00004,   0.00021,  -0.00000,   2.00000
72433647.99455,507974878.60169,-2236888.12828,  -0.00175,   0.00214,   0.00018,478927218.32024,   0.00118,275926095.21961,  -0.00109,  -0.00003,   0.00021,   0.00000,   2.00000
76080540.04600,509380380.36451,-2262913.93708,  -0.00174,   0.00216,   0.00018,478959889.42477,   0.00119,275939122.56241,  -0.00109,  -0.00001,   0.00021,   0.00000,   2.00000
79718512.70727,510761064.99595,-2288643.68274,  -0.00173,   0.00217,   0.00018,478993222.63309,   0.00121,275952211.89056,  -0.00110,   0.00000,   0.00021,   0.00000,   2.00000
83327659.22469,512109604.63048,-2318250.56892,  -0.00172,   0.00218,   0.00018,479013751.68629,   0.00122,275965307.75195,  -0.00110,   0.00002,   0.00021,   0.00000,   2.00000
86927519.99653,513433682.00695,-2343425.22539,  -0.00171,   0.00220,   0.00018,479046881.56301,   0.00123,275978463.60709,  -0.00111,   0.00003,   0.00021,   0.00000,   2.00000
90503495.39668,514728081.18940,-2372415.16767,  -0.00170,   0.00221,   0.00018,479079154.96745,   0.00124,275991675.11487,  -0.00111,   0.00004,   0.00021,   0.00000,   2.00000
94069710.97096,515998221.13416,-2396972.07947,  -0.00169,   0.00222,   0.00018,479112238.58470,   0.00125,276004944.97181,  -0.00112,   0.00006,   0.00021,   0.00000,   2.00000
97606689.80912,517237390.18782,-2421303.20107,  -0.00169,   0.00224,   0.00018,479132092.38252,   0.00127,276018216.38424,  -0.00112,   0.00007,   0.00021,   0.00000,   2.00000
101128730.00788,518450801.51532,-2449510.27830,  -0.00168,   0.00225,   0.00018,479152985.00049,   0.00128,276031493.49374,  -0.00113,   0.00009,   0.00021,   0.00000,   2.00000
104631041.50775,519637282.48229,-2473224.30857,  -0.00167,   0.00226,   0.00018,479196696.36594,   0.00129,276044872.50221,  -0.00113,   0.00010,   0.00021,   0.00000,   2.00000
108103958.20608,520793777.82515,-2496717.19902,  -0.00166,   0.00227,   0.00018,479215985.76236,   0.00130,276058249.37662,  -0.00114,   0.00012,   0.00021,   0.00000,   2.00000
111561737.01221,521925231.65259,-2524088.69154,  -0.00165,   0.00229,   0.00018,479236562.29070,   0.00132,276071629.31464,  -0.00114,   0.00013,   0.00021,   0.00000,   2.00000
115008816.97251,523033412.78813,-2547027.73143,  -0.00164,   0.00230,   0.00018,479269190.52100,   0.00133,276085062.65493,  -0.00114,   0.00015,   0.00021,   0.00000,   2.00000
118416649.86095,524109527.48042,-2569689.14105,  -0.00163,   0.00231,   0.00018,479298566.05548,   0.00134,276098535.24501,  -0.00115,   0.00016,   0.00021,   0.00000,   2.00000
121827619.47337,525167045.95755,-2592044.47495,  -0.00162,   0.00233,   0.00017,479332802.28945,   0.00135,276112066.71869,  -0.00115,   0.00017,   0.00021,   0.00000,   2.00000
125194826.76663,526191736.43269,-2618302.56945,  -0.00161,   0.00234,   0.00017,479349570.81226,   0.00137,276125583.61790,  -0.00116,   0.00019,   0.00021,   0.00000,   2.00000
128546688.08780,527192712.14147,-2640203.44989,  -0.00161,   0.00235,   0.00017,479369510.63577,   0.00138,276139099.05235,  -0.00116,   0.00020,   0.00021,   0.00000,   2.00000
131887191.37677,528171278.09414,-2661809.48143,  -0.00160,   0.00236,   0.00017,479401788.00292,   0.00139,276152664.07769,  -0.00117,   0.00022,   0.00021,   0.00000,   2.00000
135202085.87476,529123540.52347,-2683133.09951,  -0.00159,   0.00238,   0.00017,479432036.74212,   0.00140,276166269.70677,  -0.00117,   0.00023,   0.00021,   0.00000,   2.00000
138487433.73079,530048715.23822,-2704251.40073,  -0.00158,   0.00239,   0.00017,479449737.66017,   0.00142,276179863.52669,  -0.00117,   0.00025,   0.00021,   0.00000,   2.00000
141761096.66206,530952085.40207,-2725076.65283,  -0.00157,   0.00240,   0.00017,479481749.34848,   0.00143,276193504.51925,  -0.00118,   0.00026,   0.00021,   0.00000,   2.00000
145005236.78255,531829002.06340,-2745700.37561,  -0.00156,   0.00242,   0.00017,479499115.05279,   0.00144,276207131.79219,  -0.00118,   0.00028,   0.00021,   0.00000,   2.00000
148237490.66632,532684484.27717,-2766032.21254,  -0.00155,   0.00243,   0.00017,479530972.58998,   0.00146,276220804.84283,  -0.00119,   0.00029,   0.00021,   0.00000,   2.00000
151443781.71605,533515087.06710,-2786087.77704,  -0.00154,   0.00244,   0.00017,479560419.06133,   0.00147,276234513.25578,  -0.00119,   0.00031,   0.00021,   0.00000,   2.00000
154620637.96068,534320249.33451,-2805948.09626,  -0.00153,   0.00245,   0.00017,479577253.48816,   0.00148,276248204.97195,  -0.00119,   0.00032,   0.00021,   0.00000,   2.00000
157782009.49763,535103743.93055,-2825598.99249,  -0.00152,   0.00247,   0.00017,479596408.53660,   0.00149,276261889.41751,  -0.00120,   0.00034,   0.00021,   0.00000,   2.00000
160917409.62752,535863394.66182,-2840874.30742,  -0.00151,   0.00248,   0.00017,479625212.73468,   0.00151,276275605.90169,  -0.00120,   0.00035,   0.00021,   0.00000,   2.00000
164023606.05232,536598596.05465,-2860096.52088,  -0.00151,   0.00249,   0.00017,479641521.64297,   0.00152,276289303.21713,  -0.00121,   0.00037,   0.00020,   0.00000,   2.00000
167117563.82143,537313684.05503,-2879032.05556,  -0.00150,   0.00250,   0.00017,479672770.13022,   0.00153,276303041.98056,  -0.00121,   0.00039,   0.00020,   0.00000,   2.00000
170185460.74592,538005819.57823,-2893596.98292,  -0.00149,   0.00252,   0.00017,479701091.15683,   0.00154,276316809.87651,  -0.00121,   0.00040,   0.00020,   0.00000,   2.00000
173221409.69272,538673825.65226,-2912198.65613,  -0.00148,   0.00253,   0.00017,479704406.64452,   0.00156,276330505.50826,  -0.00122,   0.00042,   0.00020,   0.00000,   2.00000
176247916.42534,539323134.90503,-2926329.53462,  -0.00147,   0.00254,   0.00017,479747738.10699,   0.00157,276344290.71283,  -0.00122,   0.00043,   0.00020,   0.00000,   2.00000
179242767.76076,539948996.52699,-2944502.48000,  -0.00146,   0.00255,   0.00016,479750728.87775,   0.00158,276358002.28659,  -0.00122,   0.00045,   0.00020,   0.00000,   2.00000
182227901.52536,540556477.54290,-2958205.38679,  -0.00145,   0.00257,   0.00016,479793928.05485,   0.00160,276371802.15318,  -0.00122,   0.00046,   0.00020,   0.00000,   2.00000
185181708.83013,541141270.12906,-2971852.75791,  -0.00144,   0.00258,   0.00016,479796522.86347,   0.00161,276385526.78222,  -0.00123,   0.00048,   0.00020,   0.00000,   2.00000
188109580.87053,541704821.30082,-2989378.23577,  -0.00143,   0.00259,   0.00016,479823911.65330,   0.00162,276399275.91476,  -0.00123,   0.00049,   0.00020,   0.00000,   2.00000
191011590.46087,542247639.75208,-3002545.73954,  -0.00142,   0.00260,   0.00016,479850967.27132,   0.00163,276413047.95015,  -0.00123,   0.00051,   0.00020,   0.00000,   2.00000
193898720.89419,542771842.15320,-3015556.06113,  -0.00141,   0.00262,   0.00016,479868829.19871,   0.00165,276426805.92402,  -0.00124,   0.00052,   0.00020,   0.00000,   2.00000
196757709.47352,543275328.92414,-3028434.86584,  -0.00140,   0.00263,   0.00016,479883141.00431,   0.00166,276440535.82322,  -0.00124,   0.00054,   0.00020,   0.00000,   2.00000
199604225.96242,543761171.35022,-3036968.91716,  -0.00139,   0.00264,   0.00016,479913251.37937,   0.00167,276454300.34270,  -0.00124,   0.00055,   0.00020,   0.00000,   2.00000
202409570.06445,544224706.72818,-3049536.78341,  -0.00138,   0.00265,   0.00016,479923713.02853,   0.00169,276468021.57493,  -0.00124,   0.00057,   0.00020,   0.00000,   2.00000
205202527.30482,544671054.92723,-3061865.15532,  -0.00137,   0.00266,   0.00016,479953622.91080,   0.00170,276481776.48433,  -0.00125,   0.00059,   0.00020,   0.00000,   2.00000
207980991.91732,545099957.55638,-3074044.22836,  -0.00136,   0.00268,   0.00016,479971004.62449,   0.00171,276495515.30310,  -0.00125,   0.00060,   0.00020,   0.00000,   2.00000
210718902.67257,545507933.49532,-3082028.14759,  -0.00136,   0.00269,   0.00016,479980594.41826,   0.00172,276509207.67291,  -0.00125,   0.00062,   0.00020,   0.00000,   2.00000
213444471.97183,545899286.27061,-3093911.50444,  -0.00135,   0.00270,   0.00016,480010279.88922,   0.00174,276522932.63121,  -0.00125,   0.00063,   0.00020,   0.00000,   2.00000
216142926.41082,546272298.28454,-3101577.24027,  -0.00134,   0.00271,   0.00016,480023301.05562,   0.00175,276536624.70607,  -0.00125,   0.00065,   0.00020,   0.00000,   2.00000
218814479.71249,546627252.79523,-3109163.03653,  -0.00133,   0.00272,   0.00016,480036172.61259,   0.00176,276550283.59829,  -0.00126,   0.00066,   0.00020,   0.00000,   2.00000
221473815.73095,546966312.96940,-3116550.01207,  -0.00132,   0.00274,   0.00016,480065482.66469,   0.00178,276563973.48109,  -0.00126,   0.00068,   0.00020,   0.00000,   2.00000
224106480.42438,547287861.09404,-3123860.96204,  -0.00131,   0.00275,   0.00016,480078095.16862,   0.00179,276577629.20877,  -0.00126,   0.00069,   0.00020,   0.00000,   2.00000
226712721.62291,547592258.51749,-3131098.05027,  -0.00130,   0.00276,   0.00016,480090485.13007,   0.00180,276591250.22477,  -0.00126,   0.00071,   0.00020,   0.00000,   2.00000
229294136.07751,547880055.11250,-3138171.23524,  -0.00129,   0.00277,   0.00016,480115233.26553,   0.00181,276604884.65247,  -0.00126,   0.00073,   0.00020,   0.00000,   2.00000
231862219.13140,548152640.84748,-3145143.22078,  -0.00128,   0.00278,   0.00016,480131578.75404,   0.00183,276618499.82623,  -0.00126,   0.00074,   0.00020,   0.00000,   2.00000
234391776.01675,548407859.68779,-3147978.42041,  -0.00127,   0.00280,   0.00016,480139025.90620,   0.00184,276632061.78589,  -0.00127,   0.00076,   0.00020,   0.00000,   2.00000
236909508.72127,548648471.34525,-3154757.77759,  -0.00126,   0.00281,   0.00016,480167724.95058,   0.00185,276645652.57103,  -0.00127,   0.00077,   0.00020,   0.00000,   2.00000
239413242.84637,548874461.77937,-3157431.83594,  -0.00125,   0.00282,   0.00016,480171136.07983,   0.00187,276659174.84199,  -0.00127,   0.00079,   0.00020,   0.00000,   2.00000
241881136.20409,549084330.75389,-3159924.50439,  -0.00124,   0.00283,   0.00015,480203142.83055,   0.00188,276672738.78924,  -0.00127,   0.00080,   0.00020,   0.00000,   2.00000
244335472.80251,549280010.96734,-3162450.68721,  -0.00123,   0.00284,   0.00015,480206392.86712,   0.00189,276686234.14179,  -0.00127,   0.00082,   0.00020,   0.00000,   2.00000
246753373.44427,549460193.03983,-3164893.38050,  -0.00122,   0.00285,   0.00015,480225348.95919,   0.00190,276699721.50811,  -0.00127,   0.00083,   0.00020,   0.00000,   2.00000
249159054.13137,549626810.13098,-3167278.61489,  -0.00121,   0.00286,   0.00015,480240888.15710,   0.00192,276713187.87547,  -0.00127,   0.00085,   0.00019,   0.00000,   2.00000
251540269.14236,549779268.28854,-3169642.78665,  -0.00120,   0.00288,   0.00015,480251610.78919,   0.00193,276726615.19165,  -0.00127,   0.00087,   0.00019,   0.00000,   2.00000
253910155.11699,549918593.91032,-3171857.20310,  -0.00119,   0.00289,   0.00015,480279566.01953,   0.00194,276740068.96075,  -0.00127,   0.00088,   0.00019,   0.00000,   2.00000
256243124.52424,550043673.60313,-3170083.58091,  -0.00118,   0.00290,   0.00015,480272510.33875,   0.00195,276753416.84947,  -0.00128,   0.00090,   0.00019,   0.00000,   2.00000
258565049.13655,550156076.57402,-3168196.56928,  -0.00117,   0.00291,   0.00015,480300189.23053,   0.00197,276766790.64578,  -0.00128,   0.00091,   0.00019,   0.00000,   2.00000
260863301.16595,550255379.61245,-3166328.70178,  -0.00116,   0.00292,   0.00015,480310317.61596,   0.00198,276780124.15573,  -0.00128,   0.00093,   0.00019,   0.00000,   2.00000
263138525.63485,550341939.51514,-3164387.28420,  -0.00115,   0.00293,   0.00015,480332819.05290,   0.00199,276793464.24231,  -0.00128,   0.00094,   0.00019,   0.00000,   2.00000
265390208.43981,550415904.82348,-3162562.01360,  -0.00114,   0.00294,   0.00015,480330069.66980,   0.00200,276806716.29514,  -0.00128,   0.00096,   0.00019,   0.00000,   2.00000
267619254.77859,550477683.74722,-3160665.48347,  -0.00113,   0.00296,   0.00015,480352201.60682,   0.00202,276819974.15604,  -0.00128,   0.00097,   0.00019,   0.00000,   2.00000
269825638.98232,550527579.13789,-3154692.66499,  -0.00112,   0.00297,   0.00015,480361566.86849,   0.00203,276833190.20681,  -0.00128,   0.00099,   0.00019,   0.00000,   2.00000
272021493.27986,550565845.27968,-3152747.18210,  -0.00111,   0.00298,   0.00015,480388751.90935,   0.00204,276846431.10466,  -0.00128,   0.00100,   0.00019,   0.00000,   2.00000
274183128.96127,550592524.48367,-3146861.13762,  -0.00110,   0.00299,   0.00015,480380051.87951,   0.00205,276859563.48147,  -0.00128,   0.00102,   0.00019,   0.00000,   2.00000
276334563.53710,550608067.88740,-3140902.92728,  -0.00109,   0.00300,   0.00015,480406905.76553,   0.00207,276872720.04368,  -0.00128,   0.00103,   0.00019,   0.00000,   2.00000
278464143.45455,550612502.41221,-3135100.67274,  -0.00108,   0.00301,   0.00015,480403295.89156,   0.00208,276885787.91113,  -0.00128,   0.00105,   0.00019,   0.00000,   2.00000
280572027.13506,550606191.72453,-3129267.64050,  -0.00107,   0.00302,   0.00015,480424532.26319,   0.00209,276898859.67435,  -0.00128,   0.00106,   0.00019,   0.00000,   2.00000
282658560.84432,550589418.86142,-3119397.78624,  -0.00107,   0.00303,   0.00015,480433040.01369,   0.00210,276911888.46254,  -0.00128,   0.00108,   0.00019,   0.00000,   2.00000
284723732.76016,550562392.04754,-3109534.15738,  -0.00106,   0.00304,   0.00015,480453981.33418,   0.00211,276924920.46535,  -0.00128,   0.00109,   0.00019,   0.00000,   2.00000
286768206.76054,550525133.94536,-3103963.69142,  -0.00105,   0.00305,   0.00015,480449862.10021,   0.00213,276937863.71800,  -0.00128,   0.00111,   0.00019,   0.00000,   2.00000
288792132.08486,550478212.71099,-3090256.48847,  -0.00104,   0.00306,   0.00015,480457813.03259,   0.00214,276950763.24924,  -0.00128,   0.00112,   0.00019,   0.00000,   2.00000
290806587.69375,550421235.83866,-3080649.98980,  -0.00103,   0.00308,   0.00015,480484082.54166,   0.00215,276963686.38807,  -0.00128,   0.00114,   0.00019,   0.00000,   2.00000
292789390.84125,550355222.67818,-3071186.12236,  -0.00102,   0.00309,   0.00015,480486254.88406,   0.00216,276976545.20604,  -0.00128,   0.00115,   0.00019,   0.00000,   2.00000
294752300.45629,550280123.54910,-3057722.02611,  -0.00101,   0.00310,   0.00015,480493868.93917,   0.00218,276989360.13080,  -0.00127,   0.00117,   0.00019,  -0.00000,   2.00000
296706714.26390,550195482.43489,-3044349.99679,  -0.00100,   0.00311,   0.00015,480507291.09115,   0.00219,277002152.60065,  -0.00127,   0.00118,   0.00019,   0.00000,   2.00000
298630372.78757,550102608.14005,-3031155.34300,  -0.00099,   0.00312,   0.00015,480508878.66827,   0.00220,277014880.06308,  -0.00127,   0.00120,   0.00019,   0.00000,   2.00000
300545920.20846,550000496.65630,-3018051.71935,  -0.00098,   0.00313,   0.00015,480522103.72806,   0.00221,277027585.15833,  -0.00127,   0.00121,   0.00019,   0.00000,   2.00000
302431302.16628,549890662.07930,-3005125.08819,  -0.00097,   0.00314,   0.00015,480523314.63237,   0.00222,277040224.84552,  -0.00127,   0.00123,   0.00019,   0.00000,   2.00000
304308223.69838,549772081.12362,-2988098.38737,  -0.00096,   0.00315,   0.00015,480548721.20997,   0.00224,277052886.94618,  -0.00127,   0.00124,   0.00019,  -0.00000,   2.00000
306156340.27722,549646155.19263,-2971372.17119,  -0.00095,   0.00316,   0.00015,480537159.08402,   0.00225,277065438.32739,  -0.00127,   0.00126,   0.00019,   0.00000,   2.00000
307985338.62528,549512569.05242,-2954724.19573,  -0.00094,   0.00317,   0.00015,480556300.26766,   0.00226,277077990.35533,  -0.00127,   0.00127,   0.00019,   0.00000,   2.00000
309808036.84841,549370311.74980,-2938286.88354,  -0.00093,   0.00318,   0.00015,480556670.81144,   0.00227,277090475.62424,  -0.00127,   0.00128,   0.00018,   0.00000,   2.00000
311601081.89250,549221748.74033,-2917869.84929,  -0.00092,   0.00319,   0.00015,480569329.37445,   0.00228,277102938.90622,  -0.00126,   0.00130,   0.00018,   0.00000,   2.00000
313387222.74436,549064817.03191,-2901709.19492,  -0.00091,   0.00320,   0.00015,480582028.97520,   0.00229,277115380.50475,  -0.00126,   0.00131,   0.00018,  -0.00000,   2.00000
315146273.21401,548901718.63115,-2881741.03677,  -0.00090,   0.00321,   0.00015,480569557.57607,   0.00231,277127710.93675,  -0.00126,   0.00133,   0.00018,   0.00000,   2.00000
316897738.24134,548730738.86529,-2861839.30611,  -0.00089,   0.00322,   0.00015,480594376.95549,   0.00232,277140063.92343,  -0.00126,   0.00134,   0.00018,  -0.00000,   2.00000
318621600.50905,548554178.72177,-2838075.93383,  -0.00088,   0.00323,   0.00015,480593977.98943,   0.00233,277152349.82008,  -0.00126,   0.00136,   0.00018,  -0.00000,   2.00000
320328732.85439,548370935.82289,-2818642.11000,  -0.00087,   0.00324,   0.00015,480599905.47757,   0.00234,277164591.69880,  -0.00126,   0.00137,   0.00018,   0.00000,   2.00000
322019443.30757,548181331.54540,-2795299.68853,  -0.00086,   0.00325,   0.00015,480605567.15741,   0.00235,277176789.05014,  -0.00126,   0.00138,   0.00018,   0.00000,   2.00000
323704329.58276,547984116.89107,-2772138.82426,  -0.00085,   0.00326,   0.00015,480617707.93485,   0.00236,277188965.12416,  -0.00125,   0.00140,   0.00018,   0.00000,   2.00000
325362694.75202,547782106.92767,-2745143.76865,  -0.00084,   0.00327,   0.00015,480616675.25821,   0.00238,277201073.76495,  -0.00125,   0.00141,   0.00018,  -0.00000,   2.00000
327005198.61932,547574003.44803,-2722505.71910,  -0.00083,   0.00328,   0.00015,480622135.90748,   0.00239,277213138.47382,  -0.00125,   0.00142,   0.00018,   0.00000,   2.00000
328621866.54924,547361551.16565,-2696029.16242,  -0.00082,   0.00329,   0.00015,480620701.73712,   0.00240,277225135.51485,  -0.00125,   0.00144,   0.00018,   0.00000,   2.00000
330233517.75051,547141948.81243,-2669760.87582,  -0.00081,   0.00330,   0.00015,480632452.96652,   0.00241,277237111.71738,  -0.00125,   0.00145,   0.00018,   0.00000,   2.00000
331831535.61781,546916526.32419,-2639719.01200,  -0.00080,   0.00331,   0.00015,480625127.59996,   0.00242,277249000.37765,  -0.00124,   0.00147,   0.00018,   0.00000,   2.00000
333413036.20152,546685901.16740,-2609878.81918,  -0.00079,   0.00332,   0.00015,480642360.90505,   0.00243,277260888.28846,  -0.00124,   0.00148,   0.00018,   0.00000,   2.00000
334969636.14684,546451449.08905,-2584461.36877,  -0.00078,   0.00333,   0.00015,480640483.67277,   0.00244,277272708.83668,  -0.00124,   0.00149,   0.00018,   0.00000,   2.00000
336511892.31113,546211982.28268,-2551082.33847,  -0.00077,   0.00334,   0.00015,480645001.29406,   0.00245,277284484.93359,  -0.00124,   0.00151,   0.00018,   0.00000,   2.00000
338049850.30209,545965694.20528,-2522070.00153,  -0.00076,   0.00334,   0.00015,480656486.88875,   0.00247,277296241.18929,  -0.00123,   0.00152,   0.00018,  -0.00000,   2.00000
339563732.26918,545716200.85990,-2489268.28385,  -0.00075,   0.00335,   0.00015,480654062.10074,   0.00248,277307929.53769,  -0.00123,   0.00153,   0.00018,   0.00000,   2.00000
341055645.37623,545463268.41860,-2456882.22075,  -0.00074,   0.00336,   0.00015,480639215.51802,   0.00249,277319507.46654,  -0.00123,   0.00155,   0.00018,   0.00000,   2.00000
342542111.09798,545204239.95120,-2424679.40889,  -0.00073,   0.00337,   0.00015,480662581.58186,   0.00250,277331108.36659,  -0.00123,   0.00156,   0.00018,   0.00000,   2.00000
344015149.94435,544940659.42102,-2388669.83630,  -0.00072,   0.00338,   0.00015,480666682.83527,   0.00251,277342665.44141,  -0.00123,   0.00157,   0.00018,   0.00000,   2.00000
345467040.47371,544674013.30301,-2353096.04295,  -0.00071,   0.00339,   0.00015,480651476.01244,   0.00252,277354112.37938,  -0.00122,   0.00159,   0.00018,   0.00000,   2.00000
346904091.21212,544403421.80681,-2317773.68977,  -0.00070,   0.00340,   0.00015,480667559.92176,   0.00253,277365558.14663,  -0.00122,   0.00160,   0.00018,   0.00000,   2.00000
348330313.79655,544128104.35304,-2282837.69109,  -0.00069,   0.00341,   0.00015,480659147.61954,   0.00254,277376918.34167,  -0.00122,   0.00161,   0.00018,  -0.00000,   2.00000
349742019.80133,543849125.27118,-2244046.20102,  -0.00068,   0.00342,   0.00015,480674975.30564,   0.00255,277388277.15338,  -0.00121,   0.00162,   0.00018,  -0.00000,   2.00000
351143321.25731,543565562.97452,-2205664.97477,  -0.00067,   0.00343,   0.00015,480666408.96422,   0.00256,277399550.78046,  -0.00121,   0.00164,   0.00018,  -0.00000,   2.00000
352522893.25399,543280031.48658,-2167661.43320,  -0.00066,   0.00343,   0.00015,480662705.03394,   0.00257,277410756.68833,  -0.00121,   0.00165,   0.00018,   0.00000,   2.00000
353890586.67712,542990673.56700,-2125890.31928,  -0.00065,   0.00344,   0.00015,480665991.27123,   0.00258,277421919.39577,  -0.00121,   0.00166,   0.00018,   0.00000,   2.00000
355246529.75203,542697502.57815,-2084483.43687,  -0.00065,   0.00345,   0.00015,480669252.31113,   0.00259,277433039.20344,  -0.00120,   0.00168,   0.00018,   0.00000,   2.00000
356590887.61375,542400595.32292,-2043436.87915,  -0.00064,   0.00346,   0.00015,480672432.19918,   0.00261,277444116.21700,  -0.00120,   0.00169,   0.00018,   0.00000,   2.00000
357923859.10508,542100085.34869,-1998643.50186,  -0.00063,   0.00347,   0.00015,480675480.08023,   0.00262,277455150.36501,  -0.00120,   0.00170,   0.00018,  -0.00000,   2.00000
359238515.56618,541797614.04046,-1954327.78031,  -0.00062,   0.00348,   0.00015,480658992.94214,   0.00263,277466075.47778,  -0.00119,   0.00171,   0.00018,   0.00000,   2.00000
360539969.75061,541492263.45782,-1910333.53741,  -0.00061,   0.00349,   0.00015,480673948.67238,   0.00264,277476999.45426,  -0.00119,   0.00173,   0.00018,   0.00000,   2.00000
361832928.08056,541182931.45247,-1862666.26551,  -0.00060,   0.00349,   0.00015,480664575.37986,   0.00265,277487839.63681,  -0.00119,   0.00174,   0.00018,  -0.00000,   2.00000
363103795.27839,540873205.96539,-1815379.86840,  -0.00059,   0.00350,   0.00015,480671888.26078,   0.00266,277498653.44169,  -0.00119,   0.00175,   0.00018,   0.00000,   2.00000
364366634.38736,540559579.44577,-1768543.50839,  -0.00058,   0.00351,   0.00015,480662354.52431,   0.00267,277509383.96568,  -0.00118,   0.00176,   0.00018,   0.00000,   2.00000
365619259.21878,540242757.18526,-1722098.67022,  -0.00057,   0.00352,   0.00015,480664813.94059,   0.00268,277520072.45133,  -0.00118,   0.00177,   0.00018,   0.00000,   2.00000
366861846.19559,539922845.44706,-1671936.81317,  -0.00056,   0.00353,   0.00015,480667159.18607,   0.00269,277530718.86940,  -0.00118,   0.00179,   0.00018,   0.00000,   2.00000
368088011.71043,539601608.11992,-1618162.52388,  -0.00055,   0.00353,   0.00015,480649786.88599,   0.00270,277541257.01534,  -0.00117,   0.00180,   0.00018,   0.00000,   2.00000
369302039.74683,539278055.87442,-1568884.10538,  -0.00054,   0.00354,   0.00015,480664024.17910,   0.00271,277551794.33831,  -0.00117,   0.00181,   0.00017,   0.00000,   2.00000
370509070.04130,538950844.63612,-1515949.21225,  -0.00053,   0.00355,   0.00016,480654053.15405,   0.00272,277562249.32337,  -0.00117,   0.00182,   0.00017,   0.00000,   2.00000
371695385.65899,538624028.18640,-1463426.59744,  -0.00052,   0.00356,   0.00016,480660412.86713,   0.00273,277572677.64206,  -0.00116,   0.00183,   0.00017,   0.00000,   2.00000
372875157.26115,538293645.01407,-1407264.40138,  -0.00051,   0.00357,   0.00016,480650256.66375,   0.00274,277583023.99379,  -0.00116,   0.00184,   0.00017,  -0.00000,   2.00000
374037208.52746,537963055.71858,-1351575.40733,  -0.00050,   0.00357,   0.00016,480644328.35198,   0.00275,277593303.23766,  -0.00116,   0.00186,   0.00017,  -0.00000,   2.00000
375201827.66366,537626311.41741,-1296341.02949,  -0.00049,   0.00358,   0.00016,480641772.75426,   0.00276,277603527.06690,  -0.00115,   0.00187,   0.00017,   0.00000,   2.00000
376346468.65613,537290374.27293,-1237423.88863,  -0.00048,   0.00359,   0.00016,480647592.07414,   0.00277,277613724.05886,  -0.00115,   0.00188,   0.00017,   0.00000,   2.00000
377476673.17470,536953583.67067,-1179025.12655,  -0.00047,   0.00360,   0.00016,480629347.82955,   0.00278,277623813.99520,  -0.00115,   0.00189,   0.00017,   0.00000,   2.00000
378595974.87953,536615120.78538,-1121046.04165,  -0.00047,   0.00360,   0.00016,480642699.10435,   0.00279,277633903.20866,  -0.00114,   0.00190,   0.00017,  -0.00000,   2.00000
379709890.23402,536273245.16273,-1059441.54927,  -0.00046,   0.00361,   0.00016,480632076.32888,   0.00279,277643911.72913,  -0.00114,   0.00191,   0.00017,   0.00000,   2.00000
380818538.05523,535927910.48805,-998337.90685,  -0.00045,   0.00362,   0.00016,480621416.52583,   0.00280,277653839.95870,  -0.00113,   0.00192,   0.00017,   0.00000,   2.00000
381908130.12571,535583823.07744,-933583.09798,  -0.00044,   0.00363,   0.00016,480626590.04001,   0.00281,277663741.27987,  -0.00113,   0.00193,   0.00017,   0.00000,   2.00000
382984450.27253,535239113.17413,-869359.46006,  -0.00043,   0.00363,   0.00016,480607808.27556,   0.00282,277673536.27372,  -0.00113,   0.00194,   0.00017,   0.00000,   2.00000
384050558.93367,534893029.04123,-805591.70596,  -0.00042,   0.00364,   0.00016,480620656.00073,   0.00283,277683330.76961,  -0.00112,   0.00196,   0.00017,   0.00000,   2.00000
385112202.31255,534543607.77712,-738214.86097,  -0.00041,   0.00365,   0.00016,480609650.54093,   0.00284,277693045.63266,  -0.00112,   0.00197,   0.00017,   0.00000,   2.00000
386169489.68103,534190803.76681,-671354.54330,  -0.00040,   0.00365,   0.00016,480598605.63416,   0.00285,277702681.23319,  -0.00112,   0.00198,   0.00017,   0.00000,   2.00000
387208566.82144,533839611.25547,-604977.22928,  -0.00039,   0.00366,   0.00017,480603185.97540,   0.00286,277712289.95171,  -0.00111,   0.00199,   0.00017,   0.00000,   2.00000
388235468.49855,533487987.21166,-535002.81027,  -0.00038,   0.00367,   0.00017,480583885.27606,   0.00287,277721793.02392,  -0.00111,   0.00200,   0.00017,  -0.00000,   2.00000
389252793.43659,533135241.52481,-465517.53293,  -0.00037,   0.00367,   0.00017,480596258.13893,   0.00288,277731295.84590,  -0.00110,   0.00201,   0.00017,   0.00000,   2.00000
390269434.27277,532778053.66605,-392446.66881,  -0.00036,   0.00368,   0.00017,480573058.36231,   0.00289,277740680.95750,  -0.00110,   0.00202,   0.00017,  -0.00000,   2.00000
391268555.68027,532422758.84393,-319889.42870,  -0.00036,   0.00369,   0.00017,480577136.59687,   0.00290,277750039.16554,  -0.00110,   0.00203,   0.00017,   0.00000,   2.00000
392253367.91341,532068294.84059,-247847.86663,  -0.00035,   0.00369,   0.00017,480569259.63764,   0.00290,277759331.34635,  -0.00109,   0.00204,   0.00017,   0.00000,   2.00000
393235123.83807,531710529.90741,-172206.56573,  -0.00034,   0.00370,   0.00017,480557634.72408,   0.00291,277768545.55896,  -0.00109,   0.00205,   0.00017,   0.00000,   2.00000
394210902.00868,531350639.32024,-97087.53305,  -0.00033,   0.00371,   0.00017,480557761.71205,   0.00292,277777720.95104,  -0.00109,   0.00206,   0.00017,   0.00000,   2.00000
395175898.69965,530990445.19777,-18377.21624,  -0.00032,   0.00371,   0.00017,480537801.26218,   0.00293,277786791.81787,  -0.00108,   0.00207,   0.00017,   0.00000,   2.00000
396132134.66047,530629406.77683,59798.38056,  -0.00031,   0.00372,   0.00017,480549527.80980,   0.00294,277795862.84773,  -0.00108,   0.00208,   0.00017,   0.00000,   2.00000
397077980.96483,530268101.14962,141560.65297,  -0.00030,   0.00373,   0.00017,480529391.43428,   0.00295,277804829.61941,  -0.00107,   0.00209,   0.00017,   0.00000,   2.00000
398010584.48209,529907844.20702,218673.93960,  -0.00029,   0.00373,   0.00018,480520858.52339,   0.00296,277813730.83274,  -0.00107,   0.00210,   0.00017,   0.00000,   2.00000
398937938.97096,529545544.68306,303495.05458,  -0.00028,   0.00374,   0.00018,480520555.58107,   0.00296,277822593.84076,  -0.00107,   0.00211,   0.00017,   0.00000,   2.00000
399863271.78208,529179884.67830,383661.83365,  -0.00028,   0.00374,   0.00018,480508462.67402,   0.00297,277831380.30993,  -0.00106,   0.00212,   0.00017,   0.00000,   2.00000
400775784.30967,528815317.42344,471535.65412,  -0.00027,   0.00375,   0.00018,480499679.99505,   0.00298,277840101.57474,  -0.00106,   0.00213,   0.00017,  -0.00000,   2.00000
401675718.67406,528451922.89010,554746.63286,  -0.00026,   0.00376,   0.00018,480490735.35355,   0.00299,277848757.55669,  -0.00105,   0.00214,   0.00017,   0.00000,   2.00000
402570903.29611,528086519.26893,641537.20092,  -0.00025,   0.00376,   0.00018,480490124.08462,   0.00300,277857375.83882,  -0.00105,   0.00214,   0.00017,   0.00000,   2.00000
403457012.53306,527720886.30188,731924.27507,  -0.00024,   0.00377,   0.00018,480469334.05650,   0.00301,277865890.91723,  -0.00105,   0.00215,   0.00017,   0.00000,   2.00000
404338629.70164,527353279.47417,817637.93719,  -0.00023,   0.00377,   0.00018,480468530.93524,   0.00301,277874368.47492,  -0.00104,   0.00216,   0.00017,   0.00000,   2.00000
405208244.36764,526986876.85406,911059.58610,  -0.00022,   0.00378,   0.00019,480459253.15684,   0.00302,277882781.22756,  -0.00104,   0.00217,   0.00017,   0.00000,   2.00000
406073604.55392,526618522.37669,999798.13178,  -0.00021,   0.00379,   0.00019,480458308.90794,   0.00303,277891156.65408,  -0.00104,   0.00218,   0.00017,  -0.00000,   2.00000
406923072.64202,526253175.64046,1096294.28657,  -0.00021,   0.00379,   0.00019,480428673.35198,   0.00304,277899401.84556,  -0.00103,   0.00219,   0.00017,   0.00000,   2.00000
407776025.34544,525882594.05014,1188077.51513,  -0.00020,   0.00380,   0.00019,480436069.65155,   0.00305,277907637.68312,  -0.00103,   0.00220,   0.00017,  -0.00000,   2.00000
408613486.60617,525515055.00889,1283515.95475,  -0.00019,   0.00380,   0.00019,480406198.71126,   0.00305,277915743.43795,  -0.00102,   0.00221,   0.00017,  -0.00000,   2.00000
409443840.23602,525147074.00176,1382467.38848,  -0.00018,   0.00381,   0.00019,480416556.98778,   0.00306,277923850.23148,  -0.00102,   0.00222,   0.00017,  -0.00000,   2.00000
410273843.87474,524775522.96372,1480883.44286,  -0.00017,   0.00381,   0.00019,480403654.67198,   0.00307,277931882.73980,  -0.00102,   0.00222,   0.00017,   0.00000,   2.00000
411092919.41963,524405334.76654,1578765.81965,  -0.00016,   0.00382,   0.00019,480393657.59219,   0.00308,277939850.82299,  -0.00101,   0.00223,   0.00017,   0.00000,   2.00000
411904585.50243,524034844.29681,1680285.54074,  -0.00016,   0.00382,   0.00020,480372004.72934,   0.00308,277947717.16653,  -0.00101,   0.00224,   0.00017,   0.00000,   2.00000
412705674.64848,523665741.45650,1781273.58757,  -0.00015,   0.00383,   0.00020,480361758.96549,   0.00309,277955519.21797,  -0.00100,   0.00225,   0.00017,  -0.00000,   2.00000
413503510.49331,523294593.20831,1885812.97998,  -0.00014,   0.00383,   0.00020,480360152.18695,   0.00310,277963285.23153,  -0.00100,   0.00226,   0.00017,   0.00000,   2.00000
414291029.99250,522924857.56217,1989818.99016,  -0.00013,   0.00384,   0.00020,480349746.36813,   0.00311,277970987.06867,  -0.00100,   0.00227,   0.00017,  -0.00000,   2.00000
415078907.54419,522551334.43759,2097430.24154,  -0.00012,   0.00384,   0.00020,480336487.81238,   0.00311,277978615.85779,  -0.00099,   0.00227,   0.00017,  -0.00000,   2.00000
415849622.50182,522182667.65915,2204557.63181,  -0.00011,   0.00385,   0.00020,480317143.15420,   0.00312,277986152.45479,  -0.00099,   0.00228,   0.00018,   0.00000,   2.00000
416621027.19743,521810213.99921,2311184.09409,  -0.00011,   0.00385,   0.00021,480303651.81506,   0.00313,277993616.16472,  -0.00098,   0.00229,   0.00018,   0.00000,   2.00000
417386126.65231,521437371.46952,2425409.44003,  -0.00010,   0.00386,   0.00021,480313263.32973,   0.00314,278001081.74594,  -0.00098,   0.00230,   0.00018,   0.00000,   2.00000
418138103.99238,521067708.74526,2535108.05290,  -0.00009,   0.00386,   0.00021,480282042.63947,   0.00314,278008417.95883,  -0.00098,   0.00230,   0.00018,  -0.00000,   2.00000
418891044.47737,520694087.31105,2648435.84072,  -0.00008,   0.00386,   0.00021,480268429.58119,   0.00315,278015682.01715,  -0.00097,   0.00231,   0.00018,   0.00000,   2.00000
419637968.23237,520320161.30620,2765226.88949,  -0.00007,   0.00387,   0.00021,480277740.26634,   0.00316,278022947.94526,  -0.00097,   0.00232,   0.00018,   0.00000,   2.00000
420372291.01748,519949400.51943,2877525.78618,  -0.00007,   0.00387,   0.00021,480246212.92707,   0.00316,278030084.73341,  -0.00096,   0.00233,   0.00018,   0.00000,   2.00000
421104285.06428,519576385.67929,2997501.06471,  -0.00006,   0.00388,   0.00022,480243954.59985,   0.00317,278037186.90620,  -0.00096,   0.00233,   0.00018,   0.00000,   2.00000
421830824.18805,519202884.08924,3117047.57067,  -0.00005,   0.00388,   0.00022,480221174.61527,   0.00318,278044188.88033,  -0.00096,   0.00234,   0.00018,  -0.00000,   2.00000
422548502.30561,518830808.46319,3236093.66219,  -0.00004,   0.00389,   0.00022,480209713.63085,   0.00318,278051127.44530,  -0.00095,   0.00235,   0.00018,   0.00000,   2.00000
423264163.63434,518456502.12983,3358691.98720,  -0.00003,   0.00389,   0.00022,480207182.72577,   0.00319,278058031.51773,  -0.00095,   0.00236,   0.00018,   0.00000,   2.00000
423968016.42467,518085215.56293,3480969.02438,  -0.00003,   0.00389,   0.00022,480175207.26348,   0.00320,278064807.10343,  -0.00095,   0.00236,   0.00018,  -0.00000,   2.00000
424670058.37528,517711656.47308,3606801.82438,  -0.00002,   0.00390,   0.00022,480172500.33909,   0.00320,278071548.42218,  -0.00094,   0.00237,   0.00018,   0.00000,   2.00000
425363720.26927,517339509.08299,3732147.16983,  -0.00001,   0.00390,   0.00023,480160684.22527,   0.00321,278078226.57094,  -0.00094,   0.00238,   0.00018,   0.00000,   2.00000
426059316.95169,516963001.56304,3861155.83720,  -0.00000,   0.00391,   0.00023,480146505.27274,   0.00322,278084834.29656,  -0.00093,   0.00238,   0.00018,   0.00000,   2.00000
426736475.63759,516593578.02448,3989661.83230,   0.00000,   0.00391,   0.00023,480136872.71023,   0.00322,278091386.53312,  -0.00093,   0.00239,   0.00018,   0.00000,   2.00000
427419430.81738,516217629.91440,4121956.49103,   0.00001,   0.00391,   0.00023,480111204.00691,   0.00323,278097832.34682,  -0.00093,   0.00240,   0.00018,   0.00000,   2.00000
428090796.64892,515845160.94582,4253663.36341,   0.00002,   0.00392,   0.00023,480110375.19066,   0.00323,278104251.50375,  -0.00092,   0.00240,   0.00018,   0.00000,   2.00000
428757923.49583,515471816.74435,4389151.89550,   0.00003,   0.00392,   0.00024,480086895.00998,   0.00324,278110571.95311,  -0.00092,   0.00241,   0.00018,  -0.00000,   2.00000
429421030.23978,515097672.28537,4524309.08368,   0.00003,   0.00392,   0.00024,480063204.18305,   0.00325,278116793.49000,  -0.00092,   0.00242,   0.00018,   0.00000,   2.00000
430079256.99588,514723239.32268,4662904.15952,   0.00004,   0.00393,   0.00024,480071278.83721,   0.00325,278123017.74350,  -0.00091,   0.00242,   0.00018,  -0.00000,   2.00000
430733661.85669,514347947.40239,4801182.90843,   0.00005,   0.00393,   0.00024,480047483.56057,   0.00326,278129143.29957,  -0.00091,   0.00243,   0.00018,   0.00000,   2.00000
431374146.86919,513977535.47043,4943256.18036,   0.00006,   0.00393,   0.00024,480025859.76060,   0.00326,278135177.56685,  -0.00091,   0.00244,   0.00018,   0.00000,   2.00000
432017515.68291,513602494.95355,5084922.61132,   0.00006,   0.00394,   0.00025,480010990.15491,   0.00327,278141142.42016,  -0.00090,   0.00244,   0.00018,   0.00000,   2.00000
432653714.69945,513228743.84661,5226171.01029,   0.00007,   0.00394,   0.00025,479998188.98870,   0.00327,278147044.77611,  -0.00090,   0.00245,   0.00018,   0.00000,   2.00000
433282620.40193,512855979.37834,5375247.46445,   0.00008,   0.00394,   0.00025,479985572.90268,   0.00328,278152885.53824,  -0.00089,   0.00245,   0.00018,   0.00000,   2.00000
433914740.64040,512478595.59434,5519812.16343,   0.00008,   0.00394,   0.00025,479970416.96647,   0.00329,278158656.90716,  -0.00089,   0.00246,   0.00018,   0.00000,   2.00000
434533555.27292,512106036.84741,5668232.44633,   0.00009,   0.00395,   0.00026,479948306.82969,   0.00329,278164337.17170,  -0.00089,   0.00246,   0.00018,  -0.00000,   2.00000
435151756.55178,511730803.87317,5820245.58915,   0.00010,   0.00395,   0.00026,479944528.46574,   0.00330,278169984.89227,  -0.00088,   0.00247,   0.00018,   0.00000,   2.00000
435760811.50637,511358173.21611,5972168.21200,   0.00010,   0.00395,   0.00026,479910851.85447,   0.00330,278175505.44544,  -0.00088,   0.00248,   0.00018,   0.00000,   2.00000
436369394.04032,510982802.82479,6127694.02162,   0.00011,   0.00396,   0.00026,479906922.39150,   0.00331,278180993.66891,  -0.00088,   0.00248,   0.00018,   0.00000,   2.00000
436971492.31222,510608607.06817,6282843.66040,   0.00012,   0.00396,   0.00027,479893537.71781,   0.00331,278186419.77894,  -0.00087,   0.00249,   0.00018,  -0.00000,   2.00000
437570996.21543,510233142.33842,6437812.74195,   0.00013,   0.00396,   0.00027,479868872.88074,   0.00332,278191748.33225,  -0.00087,   0.00249,   0.00018,   0.00000,   2.00000
438163911.83557,509858449.35776,6600674.20977,   0.00013,   0.00396,   0.00027,479855636.42304,   0.00332,278197015.95013,  -0.00087,   0.00250,   0.00018,   0.00000,   2.00000
438750793.62831,509485057.57578,6759062.29701,   0.00014,   0.00396,   0.00027,479841811.27243,   0.00333,278202221.05165,  -0.00086,   0.00250,   0.00018,   0.00000,   2.00000
439335239.13440,509110086.84916,6921435.28221,   0.00015,   0.00397,   0.00027,479817084.97418,   0.00333,278207329.43393,  -0.00086,   0.00251,   0.00018,   0.00000,   2.00000
439913520.58932,508735993.34259,7087604.84883,   0.00015,   0.00397,   0.00028,479803428.79663,   0.00334,278212376.52867,  -0.00086,   0.00251,   0.00019,   0.00000,   2.00000
440489714.67375,508360412.78490,7253656.32848,   0.00016,   0.00397,   0.00028,479778372.22042,   0.00334,278217326.56978,  -0.00085,   0.00252,   0.00019,   0.00000,   2.00000
441059914.18723,507985649.70538,7423526.16341,   0.00016,   0.00397,   0.00028,479764545.82776,   0.00335,278222215.46489,  -0.00085,   0.00252,   0.00019,   0.00000,   2.00000
441630334.38178,507608056.13716,7592921.64751,   0.00017,   0.00398,   0.00028,479759856.21411,   0.00335,278227072.33301,  -0.00085,   0.00253,   0.00019,  -0.00000,   2.00000
442188953.81427,507235072.40596,7766332.70454,   0.00018,   0.00398,   0.00029,479736515.84348,   0.00336,278231838.46329,  -0.00085,   0.00253,   0.00019,   0.00000,   2.00000
442745873.30024,506860432.67232,7939686.03402,   0.00018,   0.00398,   0.00029,479711163.20106,   0.00336,278236507.88211,  -0.00084,   0.00254,   0.00019,   0.00000,   2.00000
443303199.64680,506482875.55034,8112593.14337,   0.00019,   0.00398,   0.00029,479706256.84576,   0.00337,278241145.49836,  -0.00084,   0.00254,   0.00019,   0.00000,   2.00000
443852711.44874,506106967.91243,8293915.80132,   0.00020,   0.00398,   0.00030,479671768.53052,   0.00337,278245658.16830,  -0.00084,   0.00254,   0.00019,   0.00000,   2.00000
444397107.66151,505732162.54063,8470875.98027,   0.00020,   0.00398,   0.00030,479657033.40893,   0.00337,278250108.68907,  -0.00083,   0.00255,   0.00019,  -0.00000,   2.00000
444941881.44228,505354111.41147,8651535.92888,   0.00021,   0.00399,   0.00030,479652139.19558,   0.00338,278254528.33993,  -0.00083,   0.00255,   0.00019,  -0.00000,   2.00000
445475479.24045,504980528.17537,8836308.49054,   0.00021,   0.00399,   0.00030,479628244.02393,   0.00338,278258857.40672,  -0.00083,   0.00256,   0.00019,   0.00000,   2.00000
446007901.49459,504605007.82469,9021124.20733,   0.00022,   0.00399,   0.00031,479602457.56002,   0.00339,278263090.29623,  -0.00083,   0.00256,   0.00019,   0.00000,   2.00000
446544730.68010,504223350.84233,9209908.97813,   0.00023,   0.00399,   0.00031,479586353.55595,   0.00339,278267257.87531,  -0.00082,   0.00257,   0.00019,   0.98576,   1.00000
447066983.30401,503849105.24061,9398481.63766,   0.00023,   0.00399,   0.00031,479572954.45741,   0.00339,278271368.95735,  -0.00082,   0.00257,   0.00019,   0.93974,   1.00000
447588078.85734,503472516.73533,9591275.82107,   0.00024,   0.00399,   0.00032,479547202.40743,   0.00340,278275384.89369,  -0.00082,   0.00257,   0.00019,   0.87856,   1.00000
448104404.30244,503096614.94101,9783921.55334,   0.00024,   0.00399,   0.00032,479532124.07481,   0.00340,278279339.65407,  -0.00081,   0.00258,   0.00019,   0.83485,   1.00000
448619711.28038,502718251.47264,9980827.99085,   0.00025,   0.00399,   0.00032,479506240.45692,   0.00341,278283199.49448,  -0.00081,   0.00258,   0.00019,   0.77929,   1.00000
449130383.91355,502340506.76597,10177615.78464,   0.00026,   0.00399,   0.00032,479491001.43802,   0.00341,278286998.27050,  -0.00081,   0.00258,   0.00019,   0.73980,   1.00000
449636252.84710,501963079.15330,10378421.31016,   0.00026,   0.00400,   0.00033,479475954.03000,   0.00341,278290736.83699,  -0.00081,   0.00259,   0.00019,   0.70246,   1.00000
450141557.61803,501583301.97721,10579423.70134,   0.00027,   0.00400,   0.00033,479449616.23285,   0.00342,278294379.93972,  -0.00080,   0.00259,   0.00019,   0.65396,   1.00000
450642176.97909,501203760.14945,10784475.02121,   0.00027,   0.00400,   0.00033,479434421.88462,   0.00342,278297962.97660,  -0.00080,   0.00260,   0.00019,   0.62036,   1.00000
451138435.35596,500824717.53284,10989466.54428,   0.00028,   0.00400,   0.00034,479418882.87433,   0.00342,278301485.10558,  -0.00080,   0.00260,   0.00019,   0.58802,   1.00000
451634343.51804,500443169.63796,11194723.12257,   0.00028,   0.00400,   0.00034,479392343.49815,   0.00343,278304912.00670,  -0.00080,   0.00260,   0.00019,   0.54607,   1.00000
452120009.71916,500065378.85106,11408472.46202,   0.00029,   0.00400,   0.00034,479367560.54405,   0.00343,278308249.57641,  -0.00079,   0.00260,   0.00019,   0.50851,   1.00000
452607268.19996,499684357.12878,11617812.64671,   0.00029,   0.00400,   0.00035,479361130.43507,   0.00343,278311555.77490,  -0.00079,   0.00261,   0.00019,   0.48985,   1.00000
453088390.28887,499303978.14390,11836007.13422,   0.00030,   0.00400,   0.00035,479325313.48336,   0.00344,278314738.48391,  -0.00079,   0.00261,   0.00019,   0.44589,   1.00000
453571183.98545,498920293.58223,12049816.79405,   0.00030,   0.00400,   0.00035,479318746.18627,   0.00344,278317889.96357,  -0.00079,   0.00261,   0.00020,   0.42941,   1.00000
454044325.04460,498540537.47999,12268089.21884,   0.00031,   0.00400,   0.00036,479293353.09787,   0.00344,278320951.27309,  -0.00079,   0.00262,   0.00020,   0.39829,   1.00000
454513284.11643,498160719.56766,12490542.98006,   0.00031,   0.00400,   0.00036,479277569.35296,   0.00344,278323952.90381,  -0.00078,   0.00262,   0.00020,   0.37658,   1.00000
454982383.10701,497778012.42183,12713417.11436,   0.00032,   0.00400,   0.00036,479250548.15842,   0.00345,278326859.82516,  -0.00078,   0.00262,   0.00020,   0.34743,   1.00000
455451360.80397,497391997.35072,12940859.44630,   0.00032,   0.00400,   0.00037,479223786.60677,   0.00345,278329673.19998,  -0.00078,   0.00262,   0.00020,   0.32025,   1.00000
455912632.27504,497009289.76293,13168065.37592,   0.00033,   0.00400,   0.00037,479218292.22560,   0.00345,278332460.07233,  -0.00078,   0.00263,   0.00020,   0.30944,   1.00000
456368631.91657,496627134.66650,13400211.46689,   0.00033,   0.00400,   0.00037,479181654.59801,   0.00346,278335122.90007,  -0.00078,   0.00263,   0.00020,   0.27838,   1.00000
456826293.75329,496241081.63179,13632184.48004,   0.00034,   0.00400,   0.00038,479174934.10543,   0.00346,278337755.91931,  -0.00077,   0.00263,   0.00020,   0.26828,   1.00000
457278818.07154,495855445.97234,13869161.37226,   0.00034,   0.00400,   0.00038,479138163.64215,   0.00346,278340265.05237,  -0.00077,   0.00263,   0.00020,   0.24031,   1.00000
457727859.15167,495469801.39970,14106338.87130,   0.00035,   0.00400,   0.00038,479121512.75404,   0.00346,278342713.80109,  -0.00077,   0.00264,   0.00020,   0.22590,   1.00000
458173475.70218,495084121.28560,14343739.62241,   0.00035,   0.00400,   0.00039,479104792.36050,   0.00346,278345102.16768,  -0.00077,   0.00264,   0.00020,   0.21221,   1.00000
458615367.96329,494697987.03756,14585500.88309,   0.00036,   0.00400,   0.00039,479088381.23782,   0.00347,278347431.34295,  -0.00077,   0.00264,   0.00020,   0.19946,   1.00000
459052432.00755,494312022.82136,14832399.50739,   0.00036,   0.00400,   0.00039,479051313.41799,   0.00347,278349636.82151,  -0.00076,   0.00264,   0.00020,   0.17690,   1.00000
459491356.57482,493921905.14747,15079214.69185,   0.00036,   0.00400,   0.00040,479044205.67214,   0.00347,278351812.89232,  -0.00076,   0.00265,   0.00020,   0.17042,   1.00000
459925571.02335,493531812.74324,15331236.46519,   0.00037,   0.00400,   0.00040,479007013.27935,   0.00347,278353865.42563,  -0.00076,   0.00265,   0.00020,   0.15018,   1.00000
460352619.66161,493144848.36830,15583173.52760,   0.00037,   0.00400,   0.00040,479000644.24292,   0.00348,278355891.39816,  -0.00076,   0.00265,   0.00020,   0.14505,   1.00000
460780564.46739,492754218.89575,15835885.13933,   0.00038,   0.00399,   0.00041,478972770.46278,   0.00348,278357823.55180,  -0.00076,   0.00265,   0.00020,   0.13086,   1.00000
461209047.83885,492359417.00963,16093520.13265,   0.00038,   0.00399,   0.00041,478945244.62571,   0.00348,278359663.29853,  -0.00076,   0.00265,   0.00020,   0.11778,   1.00000
461625481.07282,491971680.27089,16351526.09446,   0.00039,   0.00399,   0.00041,478928734.00027,   0.00348,278361445.45395,  -0.00076,   0.00265,   0.00020,   0.10984,   1.00000
462047556.73406,491575644.73721,16614105.01099,   0.00039,   0.00399,   0.00042,478910995.90836,   0.00348,278363166.37094,  -0.00075,   0.00266,   0.00020,   0.10184,   1.00000
462465298.92643,491179213.51247,16882110.09659,   0.00039,   0.00399,   0.00042,478873406.59566,   0.00348,278364764.10233,  -0.00075,   0.00266,   0.00020,   0.08739,   1.00000
462876140.11335,490785768.15425,17150135.90534,   0.00040,   0.00399,   0.00043,478866546.80992,   0.00349,278366335.27804,  -0.00075,   0.00266,   0.00020,   0.08421,   1.00000
463283228.08779,490392266.38916,17419554.65696,   0.00040,   0.00399,   0.00043,478828352.69079,   0.00349,278367781.88431,  -0.00075,   0.00266,   0.00020,   0.07119,   1.00000
463692018.83701,489993700.81087,17693179.59659,   0.00040,   0.00399,   0.00043,478821068.52725,   0.00349,278369201.10762,  -0.00075,   0.00266,   0.00020,   0.06840,   1.00000
464093152.95938,489598506.73461,17967799.94382,   0.00041,   0.00398,   0.00044,478793387.39206,   0.00349,278370529.18536,  -0.00075,   0.00266,   0.00020,   0.05984,   1.00000
464495154.15079,489198565.88889,18247595.75212,   0.00041,   0.00398,   0.00044,478765413.29295,   0.00349,278371765.49936,  -0.00075,   0.00266,   0.00020,   0.05187,   1.00000
464894482.41945,488797882.83823,18527999.85942,   0.00041,   0.00398,   0.00044,478747534.19095,   0.00349,278372941.95301,  -0.00075,   0.00266,   0.00020,   0.04701,   1.00000
465286351.06337,488400435.00061,18809508.41258,   0.00042,   0.00398,   0.00045,478719585.69360,   0.00349,278374027.21853,  -0.00075,   0.00267,   0.00020,   0.04008,   1.00000
465675187.27267,488001676.69577,19095794.65729,   0.00042,   0.00398,   0.00045,478702026.39845,   0.00349,278375054.11652,  -0.00075,   0.00267,   0.00020,   0.03600,   1.00000
466065022.75230,487597867.13928,19387392.82786,   0.00042,   0.00398,   0.00046,478673843.65441,   0.00349,278375989.57611,  -0.00074,   0.00267,   0.00020,   0.02999,   1.00000
466452341.50811,487193121.25997,19679711.52123,   0.00043,   0.00397,   0.00046,478655687.56632,   0.00350,278376865.27934,  -0.00074,   0.00267,   0.00020,   0.02641,   1.00000
466832429.25124,486791415.53382,19973279.10200,   0.00043,   0.00397,   0.00046,478627423.69683,   0.00350,278377649.77013,  -0.00074,   0.00267,   0.00020,   0.02132,   1.00000
467218348.46927,486380409.40235,20271762.39424,   0.00043,   0.00397,   0.00047,478609124.61061,   0.00350,278378374.53438,  -0.00074,   0.00267,   0.00020,   0.01831,   1.00000
467597122.32149,485972321.67626,20571568.93723,   0.00044,   0.00397,   0.00047,478580726.43523,   0.00350,278379008.13807,  -0.00074,   0.00267,   0.00020,   0.01410,   1.00000
467968311.52629,485566571.70746,20876849.22939,   0.00044,   0.00397,   0.00048,478552749.76796,   0.00350,278379552.18441,  -0.00074,   0.00267,   0.00021,   0.01049,   1.00000
468341866.94871,485155633.94225,21182472.70257,   0.00044,   0.00396,   0.00048,478544303.36367,   0.00350,278380068.10693,  -0.00074,   0.00267,   0.00021,   0.00952,   1.00000
468711925.26279,484743086.95242,21494203.45371,   0.00045,   0.00396,   0.00048,478505711.70774,   0.00350,278380461.58826,  -0.00074,   0.00267,   0.00021,   0.00559,   1.00000
469079710.42316,484329237.12213,21806872.93803,   0.00045,   0.00396,   0.00049,478487068.99733,   0.00350,278380795.47717,  -0.00074,   0.00267,   0.00021,   0.00407,   1.00000
469440630.96603,483918054.24230,22121069.16498,   0.00045,   0.00396,   0.00049,478458253.56330,   0.00350,278381038.09098,  -0.00074,   0.00267,   0.00021,   0.00218,   1.00000
469803410.05017,483500894.10653,22439807.36814,   0.00045,   0.00396,   0.00050,478450153.48850,   0.00350,278381254.59251,  -0.00074,   0.00267,   0.00021,   0.00175,   1.00000
470158830.96604,483085702.66767,22764248.89239,   0.00046,   0.00395,   0.00050,478421814.76239,   0.00350,278381381.65793,  -0.00074,   0.00267,   0.00021,   0.00061,   1.00000
470512121.26451,482669679.21589,23086839.76101,   0.00046,   0.00395,   0.00051,478381730.86072,   0.00350,278381382.75201,  -0.00074,   0.00267,   0.00021,   0.00000,   1.00000
470859548.49350,482239531.21810,23413586.79779,   0.00046,   0.00395,   0.00051,478373473.43064,   0.00350,278381382.75201,  -0.00074,   0.00267,   0.00021,-7909.32137,   0.00000
471165615.33808,481768022.83590,23744469.87302,   0.00046,   0.00394,   0.00051,478326601.31242,   0.00350,278381382.75201,  -0.00074,   0.00267,   0.00021,-54781.43959,   0.00000
471457206.04813,481290310.39604,24075352.94825,   0.00047,   0.00394,   0.00052,478271202.18263,   0.00350,278381382.75201,  -0.00074,   0.00267,   0.00021,-110180.56938,   0.00000
471707436.37377,480771237.57177,24406236.02347,   0.00047,   0.00394,   0.00052,478176236.88331,   0.00350,278381382.75201,  -0.00074,   0.00267,   0.00021,-205145.86870,   0.00000
471936986.50721,480231484.55531,24741255.13714,   0.00047,   0.00394,   0.00053,478062953.45076,   0.00350,278381382.75201,  -0.00074,   0.00267,   0.00021,-318429.30124,   0.00000
472145856.44844,479671051.34664,25076274.25081,   0.00047,   0.00393,   0.00053,477930733.99892,   0.00350,278381382.75201,  -0.00074,   0.00267,   0.00021,-450648.75308,   0.00000
472334046.19748,479089937.94578,25415429.40292,   0.00047,   0.00393,   0.00054,477780245.62653,   0.00350,278381382.75201,  -0.00074,   0.00267,   0.00021,-601137.12548,   0.00000
472480875.56211,478467464.16050,25754584.55503,   0.00048,   0.00393,   0.00054,477590265.30530,   0.00350,278381382.75201,  -0.00074,   0.00267,   0.00021,-791117.44670,   0.00000
472613228.79220,477838786.31757,26093739.70713,   0.00048,   0.00392,   0.00054,477391755.11403,   0.00350,278381382.75201,  -0.00074,   0.00267,   0.00021,-989627.63797,   0.00000
472718697.77243,477174952.14790,26437030.89768,   0.00048,   0.00392,   0.00055,477164678.07256,   0.00350,278381382.75201,  -0.00074,   0.00267,   0.00021,-1216704.67945,   0.00000
472782806.36826,476469757.59382,26780322.08823,   0.00048,   0.00392,   0.00055,476898164.92370,   0.00350,278381382.75201,  -0.00074,   0.00267,   0.00021,-1483217.82830,   0.00000
472832438.82954,475758358.98208,27127749.31722,   0.00048,   0.00391,   0.00056,476623845.95069,   0.00350,278381382.75201,  -0.00074,   0.00267,   0.00021,-1757536.80131,   0.00000
472840710.90642,475005599.98594,27471040.50777,   0.00048,   0.00391,   0.00056,476309402.09736,   0.00350,278381382.75201,  -0.00074,   0.00267,   0.00021,-2071980.65464,   0.00000
472848982.98330,474252840.98980,27822603.77520,   0.00049,   0.00391,   0.00057,475998147.26400,   0.00350,278381382.75201,  -0.00074,   0.00267,   0.00021,-2383235.48800,   0.00000
472815894.67578,473458721.60925,28170031.00418,   0.00049,   0.00390,   0.00057,475646795.65464,   0.00350,278381382.75201,  -0.00074,   0.00267,   0.00021,-2734587.09737,   0.00000
472747650.04151,472637717.97884,28521594.27161,   0.00049,   0.00390,   0.00058,475267110.79131,   0.00350,278381382.75201,  -0.00074,   0.00267,   0.00021,-3114271.96069,   0.00000
472666997.29193,471787762.07935,28877293.57748,   0.00049,   0.00390,   0.00058,474869426.44138,   0.00350,278381382.75201,  -0.00074,   0.00267,   0.00021,-3511956.31063,   0.00000
472542916.13872,470919194.00688,29228856.84491,   0.00049,   0.00389,   0.00059,474441928.89399,   0.00350,278381382.75201,  -0.00074,   0.00267,   0.00021,-3939453.85802,   0.00000
472406426.87018,470021673.66533,29584556.15078,   0.00049,   0.00389,   0.00059,473996502.45919,   0.00350,278381382.75201,  -0.00074,   0.00267,   0.00021,-4384880.29281,   0.00000
472234781.27491,469097269.07391,29944391.49509,   0.00049,   0.00389,   0.00059,473522850.54327,   0.00350,278381382.75201,  -0.00074,   0.00267,   0.00021,-4858532.20874,   0.00000
472042455.48743,468152184.29029,30304226.83940,   0.00049,   0.00388,   0.00060,473030526.83435,   0.00350,278381382.75201,  -0.00074,   0.00267,   0.00021,-5350855.91765,   0.00000
471829449.50776,467186419.31447,30664062.18371,   0.00050,   0.00388,   0.00060,472519547.63887,   0.00350,278381382.75201,  -0.00074,   0.00267,   0.00021,-5861835.11313,   0.00000
471581287.20134,466193770.08879,31023897.52802,   0.00050,   0.00387,   0.00061,471979586.61137,   0.00350,278381382.75201,  -0.00074,   0.00267,   0.00021,-6401796.14063,   0.00000
471291764.51051,465159760.47871,31387868.91077,   0.00050,   0.00387,   0.00061,471401273.55897,   0.00350,278381382.75201,  -0.00074,   0.00267,   0.00021,-6980109.19303,   0.00000
471002241.81969,464125750.86862,31751840.29352,   0.00050,   0.00387,   0.00062,470824907.32675,   0.00350,278381382.75201,  -0.00074,   0.00267,   0.00021,-7556475.42526,   0.00000
470671358.74446,463050380.87413,32119947.71471,   0.00050,   0.00386,   0.00062,470210276.74909,   0.00350,278381382.75201,  -0.00074,   0.00267,   0.00021,-8171106.00292,   0.00000
470319795.47703,461954330.68744,32483919.09746,   0.00050,   0.00386,   0.00063,469576258.26865,   0.00350,278381382.75201,  -0.00074,   0.00267,   0.00021,-8805124.48336,   0.00000
469933075.88286,460831396.25089,32852026.51865,   0.00050,   0.00385,   0.00063,468914195.79156,   0.00350,278381382.75201,  -0.00074,   0.00267,   0.00021,-9467186.96045,   0.00000
469525676.09649,459687781.62213,33224269.97828,   0.00050,   0.00385,   0.00064,468234510.66093,   0.00350,278381382.75201,  -0.00074,   0.00267,   0.00021,-10146872.09107,   0.00000
469097596.11791,458523486.80118,33592377.39947,   0.00050,   0.00384,   0.00064,467535475.30420,   0.00350,278381382.75201,  -0.00074,   0.00267,   0.00021,-10845907.44781,   0.00000
468628155.75493,457317831.59582,33964620.85910,   0.00050,   0.00384,   0.00065,466798373.88051,   0.00350,278381382.75201,  -0.00074,   0.00267,   0.00021,-11583008.87150,   0.00000
468144239.25741,456105972.33280,34341000.35717,   0.00050,   0.00383,   0.00065,466053876.95592,   0.00350,278381382.75201,  -0.00074,   0.00267,   0.00021,-12327505.79609,   0.00000
467618962.37549,454852752.68538,34713243.81680,   0.00050,   0.00383,   0.00066,465269573.73449,   0.00350,278381382.75201,  -0.00074,   0.00267,   0.00021,-13111809.01751,   0.00000
467073005.30136,453578852.84575,35089623.31488,   0.00050,   0.00382,   0.00066,464467840.74190,   0.00350,278381382.75201,  -0.00074,   0.00267,   0.00021,-13913542.01010,   0.00000
466506368.03504,452284272.81392,35466002.81295,   0.00050,   0.00382,   0.00067,463647790.34182,   0.00350,278381382.75201,  -0.00074,   0.00267,   0.00021,-14733592.41018,   0.00000
465904574.44197,450962808.53223,35846518.34946,   0.00050,   0.00382,   0.00067,462799968.02096,   0.00350,278381382.75201,  -0.00074,   0.00267,   0.00021,-15581414.73105,   0.00000
465282100.65670,449620664.05834,36227033.88597,   0.00050,   0.00381,   0.00068,461933893.12820,   0.00350,278381382.75201,  -0.00074,   0.00267,   0.00021,-16447489.62381,   0.00000
464638946.67922,448257839.39225,36607549.42248,   0.00050,   0.00381,   0.00068,461049594.98521,   0.00350,278381382.75201,  -0.00074,   0.00267,   0.00021,-17331787.76680,   0.00000
463960636.37501,446868130.47630,36988064.95899,   0.00050,   0.00380,   0.00069,460136639.26884,   0.00350,278381382.75201,  -0.00074,   0.00267,   0.00021,-18244743.48317,   0.00000
463261645.87859,445457741.36814,37368580.49550,   0.00050,   0.00380,   0.00069,459205507.23628,   0.00350,278381382.75201,  -0.00074,   0.00267,   0.00021,-19175875.51573,   0.00000
462521294.99777,444005991.87558,37753232.07046,   0.00050,   0.00379,   0.00070,458236797.29379,   0.00350,278381382.75201,  -0.00074,   0.00267,   0.00021,-20144585.45822,   0.00000
461780944.11695,442554242.38302,38137883.64541,   0.00050,   0.00378,   0.00070,457270463.11457,   0.00350,278381382.75201,  -0.00074,   0.00267,   0.00021,-21110919.63744,   0.00000
460984756.71718,441054928.44840,38526671.25880,   0.00050,   0.00378,   0.00071,456256189.15185,   0.00350,278381382.75201,  -0.00074,   0.00267,   0.00021,-22125193.60015,   0.00000
460182365.25976,439541138.37923,38911322.83375,   0.00050,   0.00377,   0.00071,455233362.21049,   0.00350,278381382.75201,  -0.00074,   0.00267,   0.00021,-23148020.54151,   0.00000
459336545.39871,438008736.13709,39300110.44714,   0.00050,   0.00377,   0.00072,454182552.72856,   0.00350,278381382.75201,  -0.00074,   0.00267,   0.00021,-24198830.02344,   0.00000
458478317.42234,436447381.62586,39688898.06054,   0.00049,   0.00376,   0.00072,453114388.63829,   0.00350,278381382.75201,  -0.00074,   0.00267,   0.00021,-25266994.11371,   0.00000
457584933.11922,434859142.86477,40077685.67393,   0.00049,   0.00376,   0.00073,452017827.09721,   0.00350,278381382.75201,  -0.00074,   0.00267,   0.00021,-26363555.65480,   0.00000
456670868.62391,433250223.91147,40470609.32576,   0.00049,   0.00375,   0.00073,450904527.96739,   0.00350,278381382.75201,  -0.00074,   0.00267,   0.00021,-27476854.78462,   0.00000
455721647.80185,431614420.70832,40859396.93915,   0.00049,   0.00375,   0.00074,449761786.25253,   0.00350,278381382.75201,  -0.00074,   0.00267,   0.00021,-28619596.49947,   0.00000
454751746.78759,429957937.31296,41252320.59098,   0.00049,   0.00374,   0.00074,448602405.13059,   0.00350,278381382.75201,  -0.00074,   0.00267,   0.00021,-29778977.62142,   0.00000
453761165.58113,428280773.72540,41645244.24282,   0.00049,   0.00374,   0.00075,447425315.05814,   0.00350,278381382.75201,  -0.00074,   0.00267,   0.00021,-30956067.69386,   0.00000
452735428.04792,426576725.88798,42042303.93309,   0.00049,   0.00373,   0.00075,446221178.61984,   0.00350,278381382.75201,  -0.00074,   0.00267,   0.00021,-32160204.13217,   0.00000
451689010.32252,424851997.85836,42435227.58492,   0.00049,   0.00372,   0.00076,444998257.64236,   0.00350,278381382.75201,  -0.00074,   0.00267,   0.00021,-33383125.10964,   0.00000
450621912.40491,423106589.63654,42832287.27519,   0.00048,   0.00372,   0.00076,443758952.65319,   0.00350,278381382.75201,  -0.00074,   0.00267,   0.00021,-34622430.09882,   0.00000
449519658.16056,421334297.16485,43229346.96547,   0.00048,   0.00371,   0.00077,442491574.07176,   0.00350,278381382.75201,  -0.00074,   0.00267,   0.00021,-35889808.68025,   0.00000
448382247.58946,419535120.44330,43626406.65574,   0.00048,   0.00371,   0.00077,441196154.86170,   0.00350,278381382.75201,  -0.00074,   0.00267,   0.00021,-37185227.89031,   0.00000
447238632.96071,417721467.58721,44023466.34601,   0.00048,   0.00370,   0.00078,439893893.95749,   0.00350,278381382.75201,  -0.00074,   0.00267,   0.00021,-38487488.79451,   0.00000
446059862.00521,415880930.48126,44424662.07473,   0.00048,   0.00369,   0.00078,438564944.07369,   0.00350,278381382.75201,  -0.00074,   0.00267,   0.00021,-39816438.67832,   0.00000
444839730.66531,413999032.99090,44821721.76500,   0.00048,   0.00369,   0.00079,437197126.23753,   0.00350,278381382.75201,  -0.00074,   0.00267,   0.00021,-41184256.51448,   0.00000
443605123.19087,412110931.44289,45222917.49371,   0.00047,   0.00368,   0.00079,435823062.06167,   0.00350,278381382.75201,  -0.00074,   0.00267,   0.00021,-42558320.69033,   0.00000
442349835.52422,410202149.70267,45624113.22243,   0.00047,   0.00368,   0.00080,434431820.05735,   0.00350,278381382.75201,  -0.00074,   0.00267,   0.00021,-43949562.69466,   0.00000
441073867.66538,408272687.77025,46025308.95114,   0.00047,   0.00367,   0.00080,433023461.31777,   0.00350,278381382.75201,  -0.00074,   0.00267,   0.00021,-45357921.43424,   0.00000
439762743.47979,406316341.58797,46426504.67985,   0.00047,   0.00366,   0.00081,431587432.51776,   0.00350,278381382.75201,  -0.00074,   0.00267,   0.00021,-46793950.23425,   0.00000
438416462.96746,404333111.15583,46831836.44700,   0.00047,   0.00366,   0.00081,430125133.00118,   0.00350,278381382.75201,  -0.00074,   0.00267,   0.00021,-48256249.75083,   0.00000
437049502.26293,402329200.53148,47233032.17572,   0.00046,   0.00365,   0.00082,428644554.58571,   0.00350,278381382.75201,  -0.00074,   0.00267,   0.00021,-49736828.16629,   0.00000
435661861.36619,400304609.71494,47638363.94287,   0.00046,   0.00364,   0.00082,427148484.46842,   0.00350,278381382.75201,  -0.00074,   0.00267,   0.00021,-51232898.28359,   0.00000
434253540.27726,398259338.70619,48039559.67158,   0.00046,   0.00364,   0.00083,425634242.28873,   0.00350,278381382.75201,  -0.00074,   0.00267,   0.00021,-52747140.46328,   0.00000
432810062.86158,396187183.44758,48444891.43874,   0.00046,   0.00363,   0.00084,424094043.33120,   0.00350,278381382.75201,  -0.00074,   0.00267,   0.00021,-54287339.42081,   0.00000
431345905.25370,394094347.99676,48850223.20589,   0.00045,   0.00362,   0.00084,422537211.06181,   0.00350,278381382.75201,  -0.00074,   0.00267,   0.00021,-55844171.69020,   0.00000
429846591.31907,391974628.29609,49255554.97304,   0.00045,   0.00362,   0.00085,420953171.41810,   0.00350,278381382.75201,  -0.00074,   0.00267,   0.00021,-57428211.33391,   0.00000
428332801.24991,389848704.53775,49660886.74020,   0.00045,   0.00361,   0.00085,419362163.76006,   0.00350,278381382.75201,  -0.00074,   0.00267,   0.00021,-59019218.99194,   0.00000
426792126.93088,387687624.45267,50070354.54579,   0.00045,   0.00360,   0.00086,417746704.53761,   0.00350,278381382.75201,  -0.00074,   0.00267,   0.00021,-60634678.21440,   0.00000
425216296.28511,385499660.11773,50475686.31295,   0.00044,   0.00360,   0.00086,416102792.11893,   0.00350,278381382.75201,  -0.00074,   0.00267,   0.00021,-62278590.63307,   0.00000
423625989.50480,383305491.72513,50881018.08010,   0.00044,   0.00359,   0.00087,414452101.88692,   0.00350,278381382.75201,  -0.00074,   0.00267,   0.00021,-63929280.86509,   0.00000
421994322.34008,381069962.94813,51290485.88569,   0.00044,   0.00358,   0.00087,412766648.11643,   0.00350,278381382.75201,  -0.00074,   0.00267,   0.00021,-65614734.63558,   0.00000
