# sigma_xx, sigma_yy, sigma_xy, epsilon_xx, epsilon_yy, epsilon_xy, vonMises, epsPlastic, hardening, epsilonP__xx, epsilonP__yy, epsilonP__xy, yieldValue, iteration
   0.00000,   0.00000,   0.00000,   0.00000,   0.00000,   0.00000,1181185.37500,   0.00000,274640576.00000,   0.00000,   0.00000,   0.00000,-473459392.00000,   0.00000
   0.00000,   0.00000,   0.00000,   0.00000,   0.00000,   0.00000,1181185.37500,   0.00000,274640576.00000,   0.00000,   0.00000,   0.00000,-473459392.00000,   0.00000
410199.95263,1733425.60627,-95272.24706,  -0.00000,   0.00001,  -0.00000,2689376.50000,   0.00000,274640576.00000,   0.00000,   0.00000,   0.00000,-471951200.00000,   0.00000
820399.90526,3466851.21254,-185251.59151,  -0.00000,   0.00001,  -0.00000,4357817.50000,   0.00000,274640576.00000,   0.00000,   0.00000,   0.00000,-470282752.00000,   0.00000
1230599.85789,5200276.81881,-280523.83857,  -0.00000,   0.00002,  -0.00000,5811310.00000,   0.00000,274640576.00000,   0.00000,   0.00000,   0.00000,-468829280.00000,   0.00000
1643446.26182,6904591.46070,-370503.18302,  -0.00001,   0.00003,  -0.00000,7215092.00000,   0.00000,274640576.00000,   0.00000,   0.00000,   0.00000,-467425488.00000,   0.00000
2064232.01968,8627431.26174,-465775.43008,  -0.00001,   0.00004,  -0.00001,8665322.00000,   0.00000,274640576.00000,   0.00000,   0.00000,   0.00000,-465975248.00000,   0.00000
2469139.06969,10313220.74447,-555754.77453,  -0.00001,   0.00004,  -0.00001,10113189.00000,   0.00000,274640576.00000,   0.00000,   0.00000,   0.00000,-464527392.00000,   0.00000
2874046.11971,11999010.22721,-645734.11898,  -0.00001,   0.00005,  -0.00001,11591362.00000,   0.00000,274640576.00000,   0.00000,   0.00000,   0.00000,-463049216.00000,   0.00000
3297478.32887,13692739.06387,-741006.36604,  -0.00001,   0.00006,  -0.00001,13101059.00000,   0.00000,274640576.00000,   0.00000,   0.00000,   0.00000,-461539520.00000,   0.00000
3694446.02496,15360003.38746,-830985.71049,  -0.00001,   0.00006,  -0.00001,14613647.00000,   0.00000,274640576.00000,   0.00000,   0.00000,   0.00000,-460026928.00000,   0.00000
4128464.03936,17043146.41889,-920965.05493,  -0.00001,   0.00007,  -0.00001,16142562.00000,   0.00000,274640576.00000,   0.00000,   0.00000,   0.00000,-458498016.00000,   0.00000
4528078.18676,18681299.77810,-1016237.30200,  -0.00002,   0.00008,  -0.00001,17642822.00000,   0.00000,274640576.00000,   0.00000,   0.00000,   0.00000,-456997760.00000,   0.00000
4954156.84723,20345917.65037,-1106216.64644,  -0.00002,   0.00008,  -0.00001,19158394.00000,   0.00000,274640576.00000,   0.00000,   0.00000,   0.00000,-455482176.00000,   0.00000
5353770.99463,21984071.00958,-1196195.99089,  -0.00002,   0.00009,  -0.00002,20651210.00000,   0.00000,274640576.00000,   0.00000,   0.00000,   0.00000,-453989360.00000,   0.00000
5782496.10641,23619577.91748,-1286175.33534,  -0.00002,   0.00010,  -0.00002,22126786.00000,   0.00000,274640576.00000,   0.00000,   0.00000,   0.00000,-452513792.00000,   0.00000
6192696.05904,25247145.47146,-1376154.67979,  -0.00002,   0.00010,  -0.00002,23594144.00000,   0.00000,274640576.00000,   0.00000,   0.00000,   0.00000,-451046432.00000,   0.00000
6613481.81689,26864127.22021,-1471426.92685,  -0.00002,   0.00011,  -0.00002,25044080.00000,   0.00000,274640576.00000,   0.00000,   0.00000,   0.00000,-449596496.00000,   0.00000
7034267.57475,28481108.96896,-1561406.27130,  -0.00002,   0.00012,  -0.00002,26489246.00000,   0.00000,274640576.00000,   0.00000,   0.00000,   0.00000,-448151328.00000,   0.00000
7447113.97869,30079565.55855,-1651385.61574,  -0.00002,   0.00012,  -0.00002,27916040.00000,   0.00000,274640576.00000,   0.00000,   0.00000,   0.00000,-446724544.00000,   0.00000
7870546.18785,31667436.34292,-1741364.96019,  -0.00003,   0.00013,  -0.00002,29328240.00000,   0.00000,274640576.00000,   0.00000,   0.00000,   0.00000,-445312336.00000,   0.00000
8275453.23787,33247367.77337,-1831344.30464,  -0.00003,   0.00014,  -0.00002,30737064.00000,   0.00000,274640576.00000,   0.00000,   0.00000,   0.00000,-443903520.00000,   0.00000
8709471.25226,34824652.75251,-1916030.74647,  -0.00003,   0.00014,  -0.00002,32134494.00000,   0.00000,274640576.00000,   0.00000,   0.00000,   0.00000,-442506080.00000,   0.00000
9124964.10750,36393998.37773,-2006010.09092,  -0.00003,   0.00015,  -0.00003,33530670.00000,   0.00000,274640576.00000,   0.00000,   0.00000,   0.00000,-441109904.00000,   0.00000
9551042.76798,37952758.19771,-2095989.43537,  -0.00003,   0.00015,  -0.00003,34914880.00000,   0.00000,274640576.00000,   0.00000,   0.00000,   0.00000,-439725696.00000,   0.00000
9977121.42845,39511518.01770,-2185968.77981,  -0.00003,   0.00016,  -0.00003,36300148.00000,   0.00000,274640576.00000,   0.00000,   0.00000,   0.00000,-438340432.00000,   0.00000
10395260.73500,41051752.67854,-2270655.22165,  -0.00003,   0.00017,  -0.00003,37670216.00000,   0.00000,274640576.00000,   0.00000,   0.00000,   0.00000,-436970368.00000,   0.00000
10831925.20070,42599926.69330,-2360634.56609,  -0.00003,   0.00017,  -0.00003,39045196.00000,   0.00000,274640576.00000,   0.00000,   0.00000,   0.00000,-435595376.00000,   0.00000
11260650.31248,44129575.54891,-2450613.91054,  -0.00003,   0.00018,  -0.00003,40406152.00000,   0.00000,274640576.00000,   0.00000,   0.00000,   0.00000,-434234432.00000,   0.00000
11681436.07034,45640699.24536,-2535300.35237,  -0.00004,   0.00018,  -0.00003,41752048.00000,   0.00000,274640576.00000,   0.00000,   0.00000,   0.00000,-432888528.00000,   0.00000
12102221.82820,47151822.94182,-2625279.69682,  -0.00004,   0.00019,  -0.00003,43100416.00000,   0.00000,274640576.00000,   0.00000,   0.00000,   0.00000,-431540160.00000,   0.00000
12533593.39128,48652360.83305,-2709966.13866,  -0.00004,   0.00020,  -0.00004,44436548.00000,   0.00000,274640576.00000,   0.00000,   0.00000,   0.00000,-430204032.00000,   0.00000
12964964.95437,50152898.72428,-2794652.58049,  -0.00004,   0.00020,  -0.00004,45774240.00000,   0.00000,274640576.00000,   0.00000,   0.00000,   0.00000,-428866336.00000,   0.00000
13406922.32268,51642850.81028,-2884631.92494,  -0.00004,   0.00021,  -0.00004,47101600.00000,   0.00000,274640576.00000,   0.00000,   0.00000,   0.00000,-427538976.00000,   0.00000
13848879.69100,53132802.89628,-2969318.36677,  -0.00004,   0.00021,  -0.00004,48429532.00000,   0.00000,274640576.00000,   0.00000,   0.00000,   0.00000,-426211040.00000,   0.00000
14282897.70539,54604229.82312,-3054004.80860,  -0.00004,   0.00022,  -0.00004,49743484.00000,   0.00000,274640576.00000,   0.00000,   0.00000,   0.00000,-424897088.00000,   0.00000
14708976.36587,56057131.59082,-3138691.25044,  -0.00004,   0.00023,  -0.00004,51043296.00000,   0.00000,274640576.00000,   0.00000,   0.00000,   0.00000,-423597280.00000,   0.00000
15153580.18549,57517972.71244,-3223377.69227,  -0.00004,   0.00023,  -0.00004,52347308.00000,   0.00000,274640576.00000,   0.00000,   0.00000,   0.00000,-422293264.00000,   0.00000
15590244.65119,58960288.67491,-3308064.13410,  -0.00004,   0.00024,  -0.00004,53637044.00000,   0.00000,274640576.00000,   0.00000,   0.00000,   0.00000,-421003536.00000,   0.00000
16045434.27604,60410543.99130,-3392750.57593,  -0.00004,   0.00024,  -0.00004,54930984.00000,   0.00000,274640576.00000,   0.00000,   0.00000,   0.00000,-419709600.00000,   0.00000
16492684.54697,61842274.14854,-3477437.01777,  -0.00005,   0.00025,  -0.00005,56210420.00000,   0.00000,274640576.00000,   0.00000,   0.00000,   0.00000,-418430160.00000,   0.00000
16939934.81790,63274004.30578,-3562123.45960,  -0.00005,   0.00025,  -0.00005,57490824.00000,   0.00000,274640576.00000,   0.00000,   0.00000,   0.00000,-417149760.00000,   0.00000
17379245.73491,64687209.30386,-3646809.90143,  -0.00005,   0.00026,  -0.00005,58756500.00000,   0.00000,274640576.00000,   0.00000,   0.00000,   0.00000,-415884080.00000,   0.00000
17829142.45715,66089828.49672,-3726203.44065,  -0.00005,   0.00027,  -0.00005,60008924.00000,   0.00000,274640576.00000,   0.00000,   0.00000,   0.00000,-414631648.00000,   0.00000
18279039.17939,67492447.68958,-3810889.88248,  -0.00005,   0.00027,  -0.00005,61263008.00000,   0.00000,274640576.00000,   0.00000,   0.00000,   0.00000,-413377568.00000,   0.00000
18739521.70686,68884481.07721,-3895576.32432,  -0.00005,   0.00028,  -0.00005,62504788.00000,   0.00000,274640576.00000,   0.00000,   0.00000,   0.00000,-412135792.00000,   0.00000
19200004.23432,70276514.46484,-3974969.86354,  -0.00005,   0.00028,  -0.00005,63745828.00000,   0.00000,274640576.00000,   0.00000,   0.00000,   0.00000,-410894752.00000,   0.00000
19652547.40787,71650022.69332,-4054363.40275,  -0.00005,   0.00029,  -0.00005,64971180.00000,   0.00000,274640576.00000,   0.00000,   0.00000,   0.00000,-409669392.00000,   0.00000
20123615.74056,73031470.27572,-4139049.84459,  -0.00005,   0.00029,  -0.00005,66200652.00000,   0.00000,274640576.00000,   0.00000,   0.00000,   0.00000,-408439920.00000,   0.00000
20586744.71934,74394392.69897,-4218443.38381,  -0.00005,   0.00030,  -0.00005,67413080.00000,   0.00000,274640576.00000,   0.00000,   0.00000,   0.00000,-407227488.00000,   0.00000
21041934.34419,75738789.96307,-4297836.92302,  -0.00005,   0.00030,  -0.00006,68609528.00000,   0.00000,274640576.00000,   0.00000,   0.00000,   0.00000,-406031040.00000,   0.00000
21515649.12819,77091126.58109,-4377230.46224,  -0.00005,   0.00031,  -0.00006,69808736.00000,   0.00000,274640576.00000,   0.00000,   0.00000,   0.00000,-404831840.00000,   0.00000
21981424.55827,78424938.03996,-4456624.00146,  -0.00005,   0.00031,  -0.00006,70991776.00000,   0.00000,274640576.00000,   0.00000,   0.00000,   0.00000,-403648800.00000,   0.00000
22447199.98836,79758749.49883,-4536017.54068,  -0.00005,   0.00032,  -0.00006,72174440.00000,   0.00000,274640576.00000,   0.00000,   0.00000,   0.00000,-402466144.00000,   0.00000
22923561.22367,81081975.15247,-4615411.07990,  -0.00005,   0.00032,  -0.00006,73343824.00000,   0.00000,274640576.00000,   0.00000,   0.00000,   0.00000,-401296752.00000,   0.00000
23399922.45898,82405200.80611,-4694804.61912,  -0.00005,   0.00033,  -0.00006,74512752.00000,   0.00000,274640576.00000,   0.00000,   0.00000,   0.00000,-400127824.00000,   0.00000
23886869.49952,83717840.65452,-4774198.15833,  -0.00005,   0.00033,  -0.00006,75668584.00000,   0.00000,274640576.00000,   0.00000,   0.00000,   0.00000,-398972000.00000,   0.00000
24365877.18613,85011955.34378,-4853591.69755,  -0.00005,   0.00034,  -0.00006,76808144.00000,   0.00000,274640576.00000,   0.00000,   0.00000,   0.00000,-397832432.00000,   0.00000
24844884.87275,86306070.03304,-4927692.33416,  -0.00006,   0.00034,  -0.00006,77946168.00000,   0.00000,274640576.00000,   0.00000,   0.00000,   0.00000,-396694400.00000,   0.00000
25342417.71852,87608124.07622,-5007085.87338,  -0.00006,   0.00035,  -0.00007,79088096.00000,   0.00000,274640576.00000,   0.00000,   0.00000,   0.00000,-395552480.00000,   0.00000
25824071.85645,88873127.80110,-5086479.41259,  -0.00006,   0.00035,  -0.00007,80198128.00000,   0.00000,274640576.00000,   0.00000,   0.00000,   0.00000,-394442448.00000,   0.00000
26324251.15352,90146070.87991,-5160580.04920,  -0.00006,   0.00036,  -0.00007,81309856.00000,   0.00000,274640576.00000,   0.00000,   0.00000,   0.00000,-393330720.00000,   0.00000
26824430.45060,91419013.95871,-5234680.68580,  -0.00006,   0.00036,  -0.00007,82421512.00000,   0.00000,274640576.00000,   0.00000,   0.00000,   0.00000,-392219072.00000,   0.00000
27316670.39375,92673431.87836,-5314074.22502,  -0.00006,   0.00037,  -0.00007,83518048.00000,   0.00000,274640576.00000,   0.00000,   0.00000,   0.00000,-391122528.00000,   0.00000
27827435.49606,93935789.15193,-5388174.86162,  -0.00006,   0.00037,  -0.00007,84616824.00000,   0.00000,274640576.00000,   0.00000,   0.00000,   0.00000,-390023744.00000,   0.00000
28330261.24444,95179621.26635,-5462275.49823,  -0.00006,   0.00038,  -0.00007,85699680.00000,   0.00000,274640576.00000,   0.00000,   0.00000,   0.00000,-388940896.00000,   0.00000
28825147.63890,96404928.22162,-5536376.13483,  -0.00006,   0.00038,  -0.00007,86766576.00000,   0.00000,274640576.00000,   0.00000,   0.00000,   0.00000,-387874000.00000,   0.00000
29338559.19251,97638174.53082,-5610476.77144,  -0.00006,   0.00039,  -0.00007,87836944.00000,   0.00000,274640576.00000,   0.00000,   0.00000,   0.00000,-386803632.00000,   0.00000
29844031.39221,98852895.68086,-5684577.40804,  -0.00006,   0.00039,  -0.00007,88891536.00000,   0.00000,274640576.00000,   0.00000,   0.00000,   0.00000,-385749040.00000,   0.00000
30368028.75105,100075556.18482,-5758678.04464,  -0.00006,   0.00040,  -0.00007,89949712.00000,   0.00000,274640576.00000,   0.00000,   0.00000,   0.00000,-384690864.00000,   0.00000
30884086.75597,101279691.52964,-5832778.68125,  -0.00006,   0.00040,  -0.00008,90992112.00000,   0.00000,274640576.00000,   0.00000,   0.00000,   0.00000,-383648464.00000,   0.00000
31410730.56612,102473241.06922,-5901586.41524,  -0.00006,   0.00041,  -0.00008,92021384.00000,   0.00000,274640576.00000,   0.00000,   0.00000,   0.00000,-382619200.00000,   0.00000
31937374.37626,103666790.60880,-5975687.05184,  -0.00006,   0.00041,  -0.00008,93052056.00000,   0.00000,274640576.00000,   0.00000,   0.00000,   0.00000,-381588512.00000,   0.00000
32464018.18641,104860340.14839,-6044494.78583,  -0.00006,   0.00041,  -0.00008,94081880.00000,   0.00000,274640576.00000,   0.00000,   0.00000,   0.00000,-380558688.00000,   0.00000
33001247.80179,106043303.88274,-6118595.42243,  -0.00006,   0.00042,  -0.00008,95100800.00000,   0.00000,274640576.00000,   0.00000,   0.00000,   0.00000,-379539776.00000,   0.00000
33530538.06325,107207742.45794,-6187403.15642,  -0.00006,   0.00042,  -0.00008,96103192.00000,   0.00000,274640576.00000,   0.00000,   0.00000,   0.00000,-378537376.00000,   0.00000
34078353.48385,108380120.38707,-6261503.79303,  -0.00006,   0.00043,  -0.00008,97110536.00000,   0.00000,274640576.00000,   0.00000,   0.00000,   0.00000,-377530048.00000,   0.00000
34618229.55054,109533973.15704,-6330311.52702,  -0.00006,   0.00043,  -0.00008,98101424.00000,   0.00000,274640576.00000,   0.00000,   0.00000,   0.00000,-376539152.00000,   0.00000
35176630.77638,110695765.28094,-6399119.26100,  -0.00006,   0.00044,  -0.00008,99096312.00000,   0.00000,274640576.00000,   0.00000,   0.00000,   0.00000,-375544256.00000,   0.00000
35727092.64829,111839032.24569,-6467926.99499,  -0.00006,   0.00044,  -0.00008,100075840.00000,   0.00000,274640576.00000,   0.00000,   0.00000,   0.00000,-374564736.00000,   0.00000
36277554.52020,112982299.21043,-6536734.72898,  -0.00006,   0.00044,  -0.00008,101055744.00000,   0.00000,274640576.00000,   0.00000,   0.00000,   0.00000,-373584832.00000,   0.00000
36838602.19735,114114980.36995,-6605542.46297,  -0.00005,   0.00045,  -0.00009,102024072.00000,   0.00000,274640576.00000,   0.00000,   0.00000,   0.00000,-372616512.00000,   0.00000
37410235.67972,115237075.72423,-6674350.19696,  -0.00005,   0.00045,  -0.00009,102980568.00000,   0.00000,274640576.00000,   0.00000,   0.00000,   0.00000,-371660000.00000,   0.00000
37963344.00294,116351231.72460,-6743157.93095,  -0.00005,   0.00046,  -0.00009,103933800.00000,   0.00000,274640576.00000,   0.00000,   0.00000,   0.00000,-370706784.00000,   0.00000
38534977.48532,117473327.07889,-6811965.66494,  -0.00005,   0.00046,  -0.00009,104891360.00000,   0.00000,274640576.00000,   0.00000,   0.00000,   0.00000,-369749216.00000,   0.00000
39109257.41900,118566311.46879,-6875480.49632,  -0.00005,   0.00046,  -0.00009,105820296.00000,   0.00000,274640576.00000,   0.00000,   0.00000,   0.00000,-368820288.00000,   0.00000
39691476.70660,119677821.01785,-6944288.23030,  -0.00005,   0.00047,  -0.00009,106766624.00000,   0.00000,274640576.00000,   0.00000,   0.00000,   0.00000,-367873952.00000,   0.00000
40284281.79943,120778744.76168,-7013095.96429,  -0.00005,   0.00047,  -0.00009,107701536.00000,   0.00000,274640576.00000,   0.00000,   0.00000,   0.00000,-366939040.00000,   0.00000
40869147.53834,121861143.34636,-7076610.79567,  -0.00005,   0.00047,  -0.00009,108619896.00000,   0.00000,274640576.00000,   0.00000,   0.00000,   0.00000,-366020672.00000,   0.00000
41454013.27725,122943541.93104,-7140125.62704,  -0.00005,   0.00048,  -0.00009,109538784.00000,   0.00000,274640576.00000,   0.00000,   0.00000,   0.00000,-365101792.00000,   0.00000
42049464.82138,124015354.71048,-7208933.36103,  -0.00005,   0.00048,  -0.00009,110447208.00000,   0.00000,274640576.00000,   0.00000,   0.00000,   0.00000,-364193376.00000,   0.00000
42663441.52467,125095106.84386,-7272448.19241,  -0.00005,   0.00049,  -0.00009,111359160.00000,   0.00000,274640576.00000,   0.00000,   0.00000,   0.00000,-363281408.00000,   0.00000
43269478.87404,126156333.81808,-7335963.02378,  -0.00005,   0.00049,  -0.00010,112255648.00000,   0.00000,274640576.00000,   0.00000,   0.00000,   0.00000,-362384928.00000,   0.00000
43875516.22341,127217560.79229,-7399477.85516,  -0.00005,   0.00049,  -0.00010,113152632.00000,   0.00000,274640576.00000,   0.00000,   0.00000,   0.00000,-361487936.00000,   0.00000
44492139.37800,128268201.96129,-7462992.68653,  -0.00005,   0.00050,  -0.00010,114038408.00000,   0.00000,274640576.00000,   0.00000,   0.00000,   0.00000,-360602176.00000,   0.00000
45108762.53260,129318843.13028,-7526507.51791,  -0.00005,   0.00050,  -0.00010,114924536.00000,   0.00000,274640576.00000,   0.00000,   0.00000,   0.00000,-359716032.00000,   0.00000
45735971.49243,130358898.49404,-7590022.34928,  -0.00005,   0.00050,  -0.00010,115799424.00000,   0.00000,274640576.00000,   0.00000,   0.00000,   0.00000,-358841152.00000,   0.00000
46355241.09833,131380428.69865,-7653537.18066,  -0.00005,   0.00051,  -0.00010,116658992.00000,   0.00000,274640576.00000,   0.00000,   0.00000,   0.00000,-357981584.00000,   0.00000
47000975.21731,132428423.41633,-7717052.01203,  -0.00004,   0.00051,  -0.00010,117539224.00000,   0.00000,274640576.00000,   0.00000,   0.00000,   0.00000,-357101344.00000,   0.00000
47630830.62844,133439367.81571,-7780566.84341,  -0.00004,   0.00051,  -0.00010,118388136.00000,   0.00000,274640576.00000,   0.00000,   0.00000,   0.00000,-356252448.00000,   0.00000
48279211.19872,134458251.56901,-7838788.77217,  -0.00004,   0.00052,  -0.00010,119240888.00000,   0.00000,274640576.00000,   0.00000,   0.00000,   0.00000,-355399680.00000,   0.00000
48927591.76901,135477135.32232,-7902303.60354,  -0.00004,   0.00052,  -0.00010,120095280.00000,   0.00000,274640576.00000,   0.00000,   0.00000,   0.00000,-354545296.00000,   0.00000
49586558.14452,136485433.27039,-7960525.53230,  -0.00004,   0.00052,  -0.00010,120937648.00000,   0.00000,274640576.00000,   0.00000,   0.00000,   0.00000,-353702928.00000,   0.00000
50245524.52003,137493731.21847,-8024040.36368,  -0.00004,   0.00053,  -0.00010,121781600.00000,   0.00000,274640576.00000,   0.00000,   0.00000,   0.00000,-352858976.00000,   0.00000
50896551.54162,138483504.00739,-8082262.29244,  -0.00004,   0.00053,  -0.00011,122609224.00000,   0.00000,274640576.00000,   0.00000,   0.00000,   0.00000,-352031360.00000,   0.00000
51558164.36844,139462690.99108,-8140484.22120,  -0.00004,   0.00053,  -0.00011,123425968.00000,   0.00000,274640576.00000,   0.00000,   0.00000,   0.00000,-351214608.00000,   0.00000
52246241.70834,140468342.48785,-8203999.05257,  -0.00004,   0.00054,  -0.00011,124264888.00000,   0.00000,274640576.00000,   0.00000,   0.00000,   0.00000,-350375680.00000,   0.00000
52918440.34039,141436943.66631,-8262220.98133,  -0.00004,   0.00054,  -0.00011,125071520.00000,   0.00000,274640576.00000,   0.00000,   0.00000,   0.00000,-349569056.00000,   0.00000
53609164.13159,142413484.19870,-8320442.91009,  -0.00003,   0.00054,  -0.00011,125883520.00000,   0.00000,274640576.00000,   0.00000,   0.00000,   0.00000,-348757056.00000,   0.00000
54299887.92279,143390024.73109,-8378664.83885,  -0.00003,   0.00055,  -0.00011,126696184.00000,   0.00000,274640576.00000,   0.00000,   0.00000,   0.00000,-347944384.00000,   0.00000
55001197.51922,144355979.45824,-8436886.76761,  -0.00003,   0.00055,  -0.00011,127498312.00000,   0.00000,274640576.00000,   0.00000,   0.00000,   0.00000,-347142272.00000,   0.00000
55702507.11565,145321934.18540,-8495108.69637,  -0.00003,   0.00055,  -0.00011,128301376.00000,   0.00000,274640576.00000,   0.00000,   0.00000,   0.00000,-346339200.00000,   0.00000
56395877.35815,146269363.75341,-8553330.62513,  -0.00003,   0.00056,  -0.00011,129089112.00000,   0.00000,274640576.00000,   0.00000,   0.00000,   0.00000,-345551456.00000,   0.00000
57126297.91896,147232672.02926,-8611552.55389,  -0.00003,   0.00056,  -0.00011,129887416.00000,   0.00000,274640576.00000,   0.00000,   0.00000,   0.00000,-344753152.00000,   0.00000
57830253.96670,148169515.79204,-8669774.48265,  -0.00003,   0.00056,  -0.00011,130665672.00000,   0.00000,274640576.00000,   0.00000,   0.00000,   0.00000,-343974912.00000,   0.00000
58571260.33274,149122238.26266,-8722703.50880,  -0.00002,   0.00056,  -0.00011,131453408.00000,   0.00000,274640576.00000,   0.00000,   0.00000,   0.00000,-343187168.00000,   0.00000
59293741.53963,150067021.37936,-8780925.43756,  -0.00002,   0.00057,  -0.00011,132238264.00000,   0.00000,274640576.00000,   0.00000,   0.00000,   0.00000,-342402304.00000,   0.00000
60026808.55174,151001218.69083,-8839147.36632,  -0.00002,   0.00057,  -0.00011,133013152.00000,   0.00000,274640576.00000,   0.00000,   0.00000,   0.00000,-341627424.00000,   0.00000
60770461.36909,151924830.19707,-8892076.39246,  -0.00002,   0.00057,  -0.00012,133776912.00000,   0.00000,274640576.00000,   0.00000,   0.00000,   0.00000,-340863664.00000,   0.00000
61532639.34559,152856381.05723,-8950298.32122,  -0.00002,   0.00058,  -0.00012,134547872.00000,   0.00000,274640576.00000,   0.00000,   0.00000,   0.00000,-340092704.00000,   0.00000
62276292.16293,153779992.56347,-9003227.34737,  -0.00002,   0.00058,  -0.00012,135313696.00000,   0.00000,274640576.00000,   0.00000,   0.00000,   0.00000,-339326880.00000,   0.00000
63049055.94466,154700957.61841,-9061449.27613,  -0.00001,   0.00058,  -0.00012,136075984.00000,   0.00000,274640576.00000,   0.00000,   0.00000,   0.00000,-338564592.00000,   0.00000
63803294.56723,155613983.31942,-9114378.30228,  -0.00001,   0.00058,  -0.00012,136833056.00000,   0.00000,274640576.00000,   0.00000,   0.00000,   0.00000,-337807520.00000,   0.00000
64586644.15419,156524362.56912,-9167307.32842,  -0.00001,   0.00059,  -0.00012,137585824.00000,   0.00000,274640576.00000,   0.00000,   0.00000,   0.00000,-337054752.00000,   0.00000
65369993.74114,157434741.81883,-9225529.25718,  -0.00001,   0.00059,  -0.00012,138340784.00000,   0.00000,274640576.00000,   0.00000,   0.00000,   0.00000,-336299792.00000,   0.00000
66145403.97418,158326595.90938,-9278458.28333,  -0.00001,   0.00059,  -0.00012,139079984.00000,   0.00000,274640576.00000,   0.00000,   0.00000,   0.00000,-335560592.00000,   0.00000
66939339.36636,159226389.35386,-9331387.30947,  -0.00001,   0.00059,  -0.00012,139825696.00000,   0.00000,274640576.00000,   0.00000,   0.00000,   0.00000,-334814880.00000,   0.00000
67751799.91770,160134122.15225,-9384316.33562,  -0.00000,   0.00060,  -0.00012,140578256.00000,   0.00000,274640576.00000,   0.00000,   0.00000,   0.00000,-334062320.00000,   0.00000
68556321.11511,161023329.79150,-9437245.36176,  -0.00000,   0.00060,  -0.00012,141316128.00000,   0.00000,274640576.00000,   0.00000,   0.00000,   0.00000,-333324448.00000,   0.00000
69360842.31252,161912537.43075,-9490174.38791,  -0.00000,   0.00060,  -0.00012,142055264.00000,   0.00000,274640576.00000,   0.00000,   0.00000,   0.00000,-332585312.00000,   0.00000
70194474.47432,162799098.61868,-9543103.41405,   0.00000,   0.00060,  -0.00012,142791120.00000,   0.00000,274640576.00000,   0.00000,   0.00000,   0.00000,-331849456.00000,   0.00000
71009581.47696,163677720.45270,-9596032.44020,   0.00000,   0.00061,  -0.00012,143522784.00000,   0.00000,274640576.00000,   0.00000,   0.00000,   0.00000,-331117792.00000,   0.00000
71853799.44398,164553695.83541,-9648961.46635,   0.00001,   0.00061,  -0.00013,144251184.00000,   0.00000,274640576.00000,   0.00000,   0.00000,   0.00000,-330389392.00000,   0.00000
72687431.60577,165440257.02335,-9701890.49249,   0.00001,   0.00061,  -0.00013,144991392.00000,   0.00000,274640576.00000,   0.00000,   0.00000,   0.00000,-329649184.00000,   0.00000
73542235.37803,166305646.60083,-9754819.51864,   0.00001,   0.00061,  -0.00013,145712864.00000,   0.00000,274640576.00000,   0.00000,   0.00000,   0.00000,-328927712.00000,   0.00000
74404978.50420,167189561.33746,-9807748.54478,   0.00001,   0.00062,  -0.00013,146451760.00000,   0.00000,274640576.00000,   0.00000,   0.00000,   0.00000,-328188816.00000,   0.00000
75251842.92253,168036425.75579,-9855384.66831,   0.00001,   0.00062,  -0.00013,147159440.00000,   0.00000,274640576.00000,   0.00000,   0.00000,   0.00000,-327481136.00000,   0.00000
76125171.85393,168909754.68720,-9908313.69446,   0.00002,   0.00062,  -0.00013,147891632.00000,   0.00000,274640576.00000,   0.00000,   0.00000,   0.00000,-326748944.00000,   0.00000
77009086.59056,169772497.81337,-9961242.72060,   0.00002,   0.00062,  -0.00013,148615584.00000,   0.00000,274640576.00000,   0.00000,   0.00000,   0.00000,-326024992.00000,   0.00000
77893001.32720,170635240.93954,-10014171.74675,   0.00002,   0.00062,  -0.00013,149341392.00000,   0.00000,274640576.00000,   0.00000,   0.00000,   0.00000,-325299184.00000,   0.00000
78768976.70991,171479458.90657,-10061807.87028,   0.00002,   0.00063,  -0.00013,150051968.00000,   0.00000,274640576.00000,   0.00000,   0.00000,   0.00000,-324588608.00000,   0.00000
79682002.41092,172339555.58143,-10114736.89643,   0.00003,   0.00063,  -0.00013,150777488.00000,   0.00000,274640576.00000,   0.00000,   0.00000,   0.00000,-323863088.00000,   0.00000
80576502.95278,173191712.90238,-10162373.01996,   0.00003,   0.00063,  -0.00013,151497824.00000,   0.00000,274640576.00000,   0.00000,   0.00000,   0.00000,-323142752.00000,   0.00000
81500114.45902,174041223.77201,-10215302.04610,   0.00003,   0.00063,  -0.00013,152217616.00000,   0.00000,274640576.00000,   0.00000,   0.00000,   0.00000,-322422960.00000,   0.00000
82423725.96526,174890734.64165,-10262938.16963,   0.00003,   0.00064,  -0.00013,152938272.00000,   0.00000,274640576.00000,   0.00000,   0.00000,   0.00000,-321702304.00000,   0.00000
83347337.47150,175740245.51129,-10315867.19578,   0.00004,   0.00064,  -0.00013,153662016.00000,   0.00000,274640576.00000,   0.00000,   0.00000,   0.00000,-320978560.00000,   0.00000
84281534.78297,176579170.57570,-10363503.31931,   0.00004,   0.00064,  -0.00013,154377120.00000,   0.00000,274640576.00000,   0.00000,   0.00000,   0.00000,-320263456.00000,   0.00000
85234257.25359,177426034.99403,-10416432.34546,   0.00004,   0.00064,  -0.00014,155101824.00000,   0.00000,274640576.00000,   0.00000,   0.00000,   0.00000,-319538752.00000,   0.00000
86179040.37029,178254374.25320,-10464068.46899,   0.00004,   0.00064,  -0.00014,155811728.00000,   0.00000,274640576.00000,   0.00000,   0.00000,   0.00000,-318828848.00000,   0.00000
87150288.00006,179109178.02546,-10516997.49513,   0.00005,   0.00065,  -0.00014,156547200.00000,   0.00000,274640576.00000,   0.00000,   0.00000,   0.00000,-318093376.00000,   0.00000
88105656.92199,179926931.47941,-10564633.61866,   0.00005,   0.00065,  -0.00014,157251872.00000,   0.00000,274640576.00000,   0.00000,   0.00000,   0.00000,-317388704.00000,   0.00000
89087490.35699,180771149.44643,-10612269.74220,   0.00005,   0.00065,  -0.00014,157981440.00000,   0.00000,274640576.00000,   0.00000,   0.00000,   0.00000,-316659136.00000,   0.00000
90079909.59722,181604781.60822,-10665198.76834,   0.00006,   0.00065,  -0.00014,158705072.00000,   0.00000,274640576.00000,   0.00000,   0.00000,   0.00000,-315935504.00000,   0.00000
91072328.83745,182438413.77002,-10712834.89187,   0.00006,   0.00065,  -0.00014,159429856.00000,   0.00000,274640576.00000,   0.00000,   0.00000,   0.00000,-315210720.00000,   0.00000
92064748.07768,183272045.93181,-10760471.01540,   0.00006,   0.00065,  -0.00014,160157024.00000,   0.00000,274640576.00000,   0.00000,   0.00000,   0.00000,-314483552.00000,   0.00000
93086278.28229,184103031.64230,-10813400.04155,   0.00006,   0.00066,  -0.00014,160885312.00000,   0.00000,274640576.00000,   0.00000,   0.00000,   0.00000,-313755264.00000,   0.00000
94107808.48690,184934017.35278,-10861036.16508,   0.00007,   0.00066,  -0.00014,161615088.00000,   0.00000,274640576.00000,   0.00000,   0.00000,   0.00000,-313025488.00000,   0.00000
95129338.69152,185765003.06327,-10908672.28861,   0.00007,   0.00066,  -0.00014,162347056.00000,   0.00000,274640576.00000,   0.00000,   0.00000,   0.00000,-312293520.00000,   0.00000
96161454.70135,186585402.96852,-10956308.41214,   0.00007,   0.00066,  -0.00014,163072544.00000,   0.00000,274640576.00000,   0.00000,   0.00000,   0.00000,-311568032.00000,   0.00000
97212095.87035,187413742.22770,-11009237.43829,   0.00008,   0.00066,  -0.00014,163808704.00000,   0.00000,274640576.00000,   0.00000,   0.00000,   0.00000,-310831872.00000,   0.00000
98262737.03934,188242081.48688,-11056873.56182,   0.00008,   0.00066,  -0.00014,164546272.00000,   0.00000,274640576.00000,   0.00000,   0.00000,   0.00000,-310094304.00000,   0.00000
99323964.01356,189059834.94083,-11104509.68535,   0.00008,   0.00067,  -0.00014,165277568.00000,   0.00000,274640576.00000,   0.00000,   0.00000,   0.00000,-309363008.00000,   0.00000
100385190.98777,189877588.39478,-11152145.80888,   0.00009,   0.00067,  -0.00014,166011232.00000,   0.00000,274640576.00000,   0.00000,   0.00000,   0.00000,-308629344.00000,   0.00000
101464943.12115,190703281.20265,-11205074.83503,   0.00009,   0.00067,  -0.00015,166755888.00000,   0.00000,274640576.00000,   0.00000,   0.00000,   0.00000,-307884688.00000,   0.00000
102563220.41367,191536913.36445,-11252710.95856,   0.00009,   0.00067,  -0.00015,167509408.00000,   0.00000,274640576.00000,   0.00000,   0.00000,   0.00000,-307131168.00000,   0.00000
103653558.35227,192352020.36709,-11300347.08209,   0.00010,   0.00067,  -0.00015,168249488.00000,   0.00000,274640576.00000,   0.00000,   0.00000,   0.00000,-306391088.00000,   0.00000
104743896.29087,193167127.36973,-11347983.20562,   0.00010,   0.00067,  -0.00015,168992160.00000,   0.00000,274640576.00000,   0.00000,   0.00000,   0.00000,-305648416.00000,   0.00000
105871284.54777,193998113.08022,-11395619.32915,   0.00010,   0.00068,  -0.00015,169752336.00000,   0.00000,274640576.00000,   0.00000,   0.00000,   0.00000,-304888240.00000,   0.00000
106998672.80467,194829098.79070,-11448548.35530,   0.00011,   0.00068,  -0.00015,170516336.00000,   0.00000,274640576.00000,   0.00000,   0.00000,   0.00000,-304124240.00000,   0.00000
108118121.70765,195641559.34204,-11496184.47883,   0.00011,   0.00068,  -0.00015,171265856.00000,   0.00000,274640576.00000,   0.00000,   0.00000,   0.00000,-303374720.00000,   0.00000
109256095.76978,196461959.24730,-11543820.60236,   0.00011,   0.00068,  -0.00015,172025648.00000,   0.00000,274640576.00000,   0.00000,   0.00000,   0.00000,-302614928.00000,   0.00000
110412594.99106,197290298.50648,-11591456.72589,   0.00012,   0.00068,  -0.00015,172795776.00000,   0.00000,274640576.00000,   0.00000,   0.00000,   0.00000,-301844800.00000,   0.00000
111569094.21234,198118637.76565,-11644385.75204,   0.00012,   0.00068,  -0.00015,173569664.00000,   0.00000,274640576.00000,   0.00000,   0.00000,   0.00000,-301070912.00000,   0.00000
112736179.23885,198936391.21960,-11692021.87557,   0.00013,   0.00069,  -0.00015,174336992.00000,   0.00000,274640576.00000,   0.00000,   0.00000,   0.00000,-300303584.00000,   0.00000
113929728.77844,199780609.18663,-11739657.99910,   0.00013,   0.00069,  -0.00015,175130736.00000,   0.00000,274640576.00000,   0.00000,   0.00000,   0.00000,-299509840.00000,   0.00000
115107399.61018,200587776.83535,-11792587.02524,   0.00013,   0.00069,  -0.00015,175896768.00000,   0.00000,274640576.00000,   0.00000,   0.00000,   0.00000,-298743808.00000,   0.00000
116311534.95499,201421408.99714,-11840223.14877,   0.00014,   0.00069,  -0.00015,176688080.00000,   0.00000,274640576.00000,   0.00000,   0.00000,   0.00000,-297952496.00000,   0.00000
117515670.29980,202255041.15893,-11887859.27231,   0.00014,   0.00069,  -0.00015,177482032.00000,   0.00000,274640576.00000,   0.00000,   0.00000,   0.00000,-297158544.00000,   0.00000
118730391.44985,203078087.51550,-11940788.29845,   0.00014,   0.00069,  -0.00016,178272160.00000,   0.00000,274640576.00000,   0.00000,   0.00000,   0.00000,-296368416.00000,   0.00000
119963637.75904,203909073.22598,-11988424.42198,   0.00015,   0.00069,  -0.00016,179072112.00000,   0.00000,274640576.00000,   0.00000,   0.00000,   0.00000,-295568464.00000,   0.00000
121196884.06823,204740058.93647,-12036060.54551,   0.00015,   0.00070,  -0.00016,179874864.00000,   0.00000,274640576.00000,   0.00000,   0.00000,   0.00000,-294765712.00000,   0.00000
122448655.53657,205578984.00088,-12088989.57166,   0.00016,   0.00070,  -0.00016,180689936.00000,   0.00000,274640576.00000,   0.00000,   0.00000,   0.00000,-293950640.00000,   0.00000
123700427.00492,206417909.06529,-12136625.69519,   0.00016,   0.00070,  -0.00016,181506368.00000,   0.00000,274640576.00000,   0.00000,   0.00000,   0.00000,-293134208.00000,   0.00000
124962784.27849,207246248.32447,-12189554.72134,   0.00016,   0.00070,  -0.00016,182319776.00000,   0.00000,274640576.00000,   0.00000,   0.00000,   0.00000,-292320800.00000,   0.00000
126243666.71122,208082526.93757,-12237190.84487,   0.00017,   0.00070,  -0.00016,183143504.00000,   0.00000,274640576.00000,   0.00000,   0.00000,   0.00000,-291497072.00000,   0.00000
127524549.14394,208918805.55067,-12290119.87101,   0.00017,   0.00070,  -0.00016,183971360.00000,   0.00000,274640576.00000,   0.00000,   0.00000,   0.00000,-290669216.00000,   0.00000
128823956.73581,209763023.51769,-12337755.99454,   0.00018,   0.00070,  -0.00016,184809888.00000,   0.00000,274640576.00000,   0.00000,   0.00000,   0.00000,-289830688.00000,   0.00000
130141889.48684,210615180.83863,-12390685.02069,   0.00018,   0.00070,  -0.00016,185661328.00000,   0.00000,274640576.00000,   0.00000,   0.00000,   0.00000,-288979248.00000,   0.00000
131451882.88394,211448813.00043,-12443614.04683,   0.00019,   0.00071,  -0.00016,186500816.00000,   0.00000,274640576.00000,   0.00000,   0.00000,   0.00000,-288139760.00000,   0.00000
132788340.79412,212308909.67529,-12491250.17037,   0.00019,   0.00071,  -0.00016,187367152.00000,   0.00000,274640576.00000,   0.00000,   0.00000,   0.00000,-287273424.00000,   0.00000
134116859.35038,213150481.19101,-12544179.19651,   0.00019,   0.00071,  -0.00016,188222400.00000,   0.00000,274640576.00000,   0.00000,   0.00000,   0.00000,-286418176.00000,   0.00000
135463903.06578,213999992.06065,-12597108.22266,   0.00020,   0.00071,  -0.00016,189090464.00000,   0.00000,274640576.00000,   0.00000,   0.00000,   0.00000,-285550112.00000,   0.00000
136810946.78119,214849502.93028,-12644744.34619,   0.00020,   0.00071,  -0.00016,189961456.00000,   0.00000,274640576.00000,   0.00000,   0.00000,   0.00000,-284679120.00000,   0.00000
138195040.81490,215714892.50776,-12697673.37233,   0.00021,   0.00071,  -0.00017,190855488.00000,   0.00000,274640576.00000,   0.00000,   0.00000,   0.00000,-283785088.00000,   0.00000
139560609.68945,216572342.73132,-12750602.39848,   0.00021,   0.00071,  -0.00017,191744608.00000,   0.00000,274640576.00000,   0.00000,   0.00000,   0.00000,-282895968.00000,   0.00000
140963228.88231,217445671.66273,-12803531.42462,   0.00022,   0.00071,  -0.00017,192655840.00000,   0.00000,274640576.00000,   0.00000,   0.00000,   0.00000,-281984736.00000,   0.00000
142357908.72125,218300475.43498,-12856460.45077,   0.00022,   0.00072,  -0.00017,193555568.00000,   0.00000,274640576.00000,   0.00000,   0.00000,   0.00000,-281085008.00000,   0.00000
143771113.71934,219163218.56115,-12909389.47692,   0.00023,   0.00072,  -0.00017,194468192.00000,   0.00000,274640576.00000,   0.00000,   0.00000,   0.00000,-280172384.00000,   0.00000
145192258.07135,220044486.84648,-12962318.50306,   0.00023,   0.00072,  -0.00017,195399696.00000,   0.00000,274640576.00000,   0.00000,   0.00000,   0.00000,-279240880.00000,   0.00000
146623988.22858,220915169.32657,-13015247.52921,   0.00024,   0.00072,  -0.00017,196328272.00000,   0.00000,274640576.00000,   0.00000,   0.00000,   0.00000,-278312304.00000,   0.00000
148055718.38582,221785851.80667,-13068176.55535,   0.00024,   0.00072,  -0.00017,197259584.00000,   0.00000,274640576.00000,   0.00000,   0.00000,   0.00000,-277380992.00000,   0.00000
149524498.86136,222672412.99461,-13126398.48411,   0.00025,   0.00072,  -0.00017,198213168.00000,   0.00000,274640576.00000,   0.00000,   0.00000,   0.00000,-276427408.00000,   0.00000
150974754.17775,223551034.82862,-13179327.51026,   0.00025,   0.00072,  -0.00017,199158496.00000,   0.00000,274640576.00000,   0.00000,   0.00000,   0.00000,-275482080.00000,   0.00000
152462059.81245,224445535.37048,-13232256.53640,   0.00026,   0.00072,  -0.00017,200125088.00000,   0.00000,274640576.00000,   0.00000,   0.00000,   0.00000,-274515488.00000,   0.00000
153949365.44714,225340035.91234,-13290478.46516,   0.00026,   0.00073,  -0.00017,201095440.00000,   0.00000,274640576.00000,   0.00000,   0.00000,   0.00000,-273545136.00000,   0.00000
155455196.24098,226242475.80813,-13343407.49131,   0.00027,   0.00073,  -0.00017,202077104.00000,   0.00000,274640576.00000,   0.00000,   0.00000,   0.00000,-272563472.00000,   0.00000
156953087.68090,227126390.54476,-13401629.42007,   0.00027,   0.00073,  -0.00017,203047648.00000,   0.00000,274640576.00000,   0.00000,   0.00000,   0.00000,-271592928.00000,   0.00000
158477443.63390,228036769.79446,-13454558.44622,   0.00028,   0.00073,  -0.00017,204046160.00000,   0.00000,274640576.00000,   0.00000,   0.00000,   0.00000,-270594416.00000,   0.00000
159993860.23297,228928623.88502,-13512780.37498,   0.00028,   0.00073,  -0.00018,205035056.00000,   0.00000,274640576.00000,   0.00000,   0.00000,   0.00000,-269605520.00000,   0.00000
161536741.34511,229846942.48864,-13571002.30374,   0.00029,   0.00073,  -0.00018,206054992.00000,   0.00000,274640576.00000,   0.00000,   0.00000,   0.00000,-268585584.00000,   0.00000
163098147.61641,230773200.44619,-13629224.23250,   0.00029,   0.00073,  -0.00018,207093072.00000,   0.00000,274640576.00000,   0.00000,   0.00000,   0.00000,-267547504.00000,   0.00000
164670139.69293,231688872.59851,-13687446.16126,   0.00030,   0.00073,  -0.00018,208137584.00000,   0.00000,274640576.00000,   0.00000,   0.00000,   0.00000,-266502992.00000,   0.00000
166242131.76946,232604544.75083,-13745668.09002,   0.00030,   0.00073,  -0.00018,209195712.00000,   0.00000,274640576.00000,   0.00000,   0.00000,   0.00000,-265444864.00000,   0.00000
167822063.19990,233538742.06230,-13803890.01878,   0.00031,   0.00074,  -0.00018,210277168.00000,   0.00000,274640576.00000,   0.00000,   0.00000,   0.00000,-264363408.00000,   0.00000
169431105.59473,234470292.92246,-13862111.94754,   0.00031,   0.00074,  -0.00018,211355328.00000,   0.00000,274640576.00000,   0.00000,   0.00000,   0.00000,-263285248.00000,   0.00000
171048087.34348,235420368.94178,-13920333.87630,   0.00032,   0.00074,  -0.00018,212438864.00000,   0.00000,274640576.00000,   0.00000,   0.00000,   0.00000,-262201712.00000,   0.00000
172657129.73831,236351919.80194,-13978555.80506,   0.00032,   0.00074,  -0.00018,213529296.00000,   0.00000,274640576.00000,   0.00000,   0.00000,   0.00000,-261111280.00000,   0.00000
174284697.29228,237291410.01602,-14042070.63643,   0.00033,   0.00074,  -0.00018,214648656.00000,   0.00000,274640576.00000,   0.00000,   0.00000,   0.00000,-259991920.00000,   0.00000
175938729.35933,238257364.74318,-14100292.56519,   0.00034,   0.00074,  -0.00018,215784240.00000,   0.00000,274640576.00000,   0.00000,   0.00000,   0.00000,-258856336.00000,   0.00000
177584822.07246,239204794.31119,-14163807.39657,   0.00034,   0.00074,  -0.00018,216902432.00000,   0.00000,274640576.00000,   0.00000,   0.00000,   0.00000,-257738144.00000,   0.00000
179275904.45781,240186627.74619,-14222029.32533,   0.00035,   0.00074,  -0.00018,218058496.00000,   0.00000,274640576.00000,   0.00000,   0.00000,   0.00000,-256582080.00000,   0.00000
180940522.33009,241141996.66812,-14285544.15670,   0.00035,   0.00074,  -0.00019,219192080.00000,   0.00000,274640576.00000,   0.00000,   0.00000,   0.00000,-255448496.00000,   0.00000
182623665.36153,242105304.94397,-14349058.98808,   0.00036,   0.00075,  -0.00019,220334928.00000,   0.00000,274640576.00000,   0.00000,   0.00000,   0.00000,-254305648.00000,   0.00000
184333272.90603,243095077.73289,-14412573.81945,   0.00036,   0.00075,  -0.00019,221498352.00000,   0.00000,274640576.00000,   0.00000,   0.00000,   0.00000,-253142224.00000,   0.00000
186053466.25576,244074264.71658,-14476088.65083,   0.00037,   0.00075,  -0.00019,222652016.00000,   0.00000,274640576.00000,   0.00000,   0.00000,   0.00000,-251988560.00000,   0.00000
187781598.95942,245071976.85943,-14539603.48220,   0.00038,   0.00075,  -0.00019,223817776.00000,   0.00000,274640576.00000,   0.00000,   0.00000,   0.00000,-250822800.00000,   0.00000
189528256.82222,246077628.35620,-14603118.31358,   0.00038,   0.00075,  -0.00019,224997072.00000,   0.00000,274640576.00000,   0.00000,   0.00000,   0.00000,-249643504.00000,   0.00000
191266975.33110,247064754.69381,-14671926.04756,   0.00039,   0.00075,  -0.00019,226170960.00000,   0.00000,274640576.00000,   0.00000,   0.00000,   0.00000,-248469616.00000,   0.00000
193032158.35306,248078345.54450,-14735440.87894,   0.00039,   0.00075,  -0.00019,227379840.00000,   0.00000,274640576.00000,   0.00000,   0.00000,   0.00000,-247260736.00000,   0.00000
194815866.53417,249099875.74911,-14804248.61293,   0.00040,   0.00075,  -0.00019,228611040.00000,   0.00000,274640576.00000,   0.00000,   0.00000,   0.00000,-246029536.00000,   0.00000
196599574.71527,250121405.95372,-14867763.44430,   0.00041,   0.00075,  -0.00019,229850576.00000,   0.00000,274640576.00000,   0.00000,   0.00000,   0.00000,-244790000.00000,   0.00000
198393868.70161,251132350.35310,-14936571.17829,   0.00041,   0.00076,  -0.00019,231095504.00000,   0.00000,274640576.00000,   0.00000,   0.00000,   0.00000,-243545072.00000,   0.00000
200214627.20102,252169759.26556,-15005378.91228,   0.00042,   0.00076,  -0.00020,232372912.00000,   0.00000,274640576.00000,   0.00000,   0.00000,   0.00000,-242267664.00000,   0.00000
202043325.05435,253225693.33716,-15074186.64627,   0.00043,   0.00076,  -0.00020,233670272.00000,   0.00000,274640576.00000,   0.00000,   0.00000,   0.00000,-240970304.00000,   0.00000
203882608.71291,254271041.60354,-15142994.38026,   0.00043,   0.00076,  -0.00020,234968864.00000,   0.00000,274640576.00000,   0.00000,   0.00000,   0.00000,-239671712.00000,   0.00000
205721892.37147,255316389.86991,-15211802.11425,   0.00044,   0.00076,  -0.00020,236271200.00000,   0.00000,274640576.00000,   0.00000,   0.00000,   0.00000,-238369376.00000,   0.00000
207579701.18918,256369677.49021,-15285902.75085,   0.00044,   0.00076,  -0.00020,237588816.00000,   0.00000,274640576.00000,   0.00000,   0.00000,   0.00000,-237051760.00000,   0.00000
209463974.51997,257449429.62358,-15354710.48484,   0.00045,   0.00076,  -0.00020,238934192.00000,   0.00000,274640576.00000,   0.00000,   0.00000,   0.00000,-235706384.00000,   0.00000
211340308.49683,258510656.59780,-15428811.12145,   0.00046,   0.00076,  -0.00020,240268144.00000,   0.00000,274640576.00000,   0.00000,   0.00000,   0.00000,-234372432.00000,   0.00000
213243106.98676,259598348.08509,-15497618.85544,   0.00046,   0.00077,  -0.00020,241629296.00000,   0.00000,274640576.00000,   0.00000,   0.00000,   0.00000,-233011280.00000,   0.00000
215145905.47670,260686039.57239,-15571719.49204,   0.00047,   0.00077,  -0.00020,242993440.00000,   0.00000,274640576.00000,   0.00000,   0.00000,   0.00000,-231647136.00000,   0.00000
217067229.12578,261781670.41360,-15645820.12864,   0.00048,   0.00077,  -0.00020,244371088.00000,   0.00000,274640576.00000,   0.00000,   0.00000,   0.00000,-230269488.00000,   0.00000
219007077.93402,262885240.60874,-15719920.76525,   0.00048,   0.00077,  -0.00020,245762464.00000,   0.00000,274640576.00000,   0.00000,   0.00000,   0.00000,-228878112.00000,   0.00000
220946926.74226,263988810.80387,-15799314.30447,   0.00049,   0.00077,  -0.00021,247157568.00000,   0.00000,274640576.00000,   0.00000,   0.00000,   0.00000,-227483008.00000,   0.00000
222905300.70965,265100320.35293,-15873414.94107,   0.00050,   0.00077,  -0.00021,248566160.00000,   0.00000,274640576.00000,   0.00000,   0.00000,   0.00000,-226074416.00000,   0.00000
224890139.19011,266238294.41506,-15952808.48029,   0.00050,   0.00077,  -0.00021,250004896.00000,   0.00000,274640576.00000,   0.00000,   0.00000,   0.00000,-224635680.00000,   0.00000
226867038.31665,267357743.31804,-16026909.11689,   0.00051,   0.00077,  -0.00021,251432496.00000,   0.00000,274640576.00000,   0.00000,   0.00000,   0.00000,-223208080.00000,   0.00000
228870401.95626,268503656.73409,-16106302.65611,   0.00052,   0.00078,  -0.00021,252891280.00000,   0.00000,274640576.00000,   0.00000,   0.00000,   0.00000,-221749296.00000,   0.00000
230873765.59587,269649570.15015,-16185696.19533,   0.00052,   0.00078,  -0.00021,254354848.00000,   0.00000,274640576.00000,   0.00000,   0.00000,   0.00000,-220285728.00000,   0.00000
232895654.39463,270803422.92012,-16265089.73455,   0.00053,   0.00078,  -0.00021,255835408.00000,   0.00000,274640576.00000,   0.00000,   0.00000,   0.00000,-218805168.00000,   0.00000
234936068.35254,271965215.04402,-16349776.17638,   0.00054,   0.00078,  -0.00021,257334192.00000,   0.00000,274640576.00000,   0.00000,   0.00000,   0.00000,-217306384.00000,   0.00000
236984421.66438,273145532.32706,-16429169.71560,   0.00055,   0.00078,  -0.00021,258851488.00000,   0.00000,274640576.00000,   0.00000,   0.00000,   0.00000,-215789088.00000,   0.00000
239051300.13537,274333788.96403,-16513856.15743,   0.00055,   0.00078,  -0.00021,260387312.00000,   0.00000,274640576.00000,   0.00000,   0.00000,   0.00000,-214253264.00000,   0.00000
241110239.25243,275503520.44185,-16593249.69665,   0.00056,   0.00078,  -0.00022,261913168.00000,   0.00000,274640576.00000,   0.00000,   0.00000,   0.00000,-212727408.00000,   0.00000
243195642.88257,276699716.43274,-16677936.13848,   0.00057,   0.00078,  -0.00022,263471520.00000,   0.00000,274640576.00000,   0.00000,   0.00000,   0.00000,-211169056.00000,   0.00000
245307511.02578,277922376.93671,-16762622.58032,   0.00057,   0.00079,  -0.00022,265060832.00000,   0.00000,274640576.00000,   0.00000,   0.00000,   0.00000,-209579744.00000,   0.00000
247411439.81507,279126512.28152,-16847309.02215,   0.00058,   0.00079,  -0.00022,266640384.00000,   0.00000,274640576.00000,   0.00000,   0.00000,   0.00000,-208000192.00000,   0.00000
249541833.11743,280357112.13940,-16937288.36660,   0.00059,   0.00079,  -0.00022,268250944.00000,   0.00000,274640576.00000,   0.00000,   0.00000,   0.00000,-206389632.00000,   0.00000
251664287.06587,281569186.83814,-17021974.80843,   0.00060,   0.00079,  -0.00022,269849824.00000,   0.00000,274640576.00000,   0.00000,   0.00000,   0.00000,-204790752.00000,   0.00000
253821144.88130,282826251.20910,-17111954.15288,   0.00060,   0.00079,  -0.00022,271492768.00000,   0.00000,274640576.00000,   0.00000,   0.00000,   0.00000,-203147808.00000,   0.00000
255988588.50196,284072729.77483,-17201933.49733,   0.00061,   0.00079,  -0.00022,273136320.00000,   0.00000,274640576.00000,   0.00000,   0.00000,   0.00000,-201504256.00000,   0.00000
258156032.12263,285319208.34056,-17291912.84177,   0.00062,   0.00079,  -0.00022,274781376.00000,   0.00000,274640576.00000,   0.00000,   0.00000,   0.00000,-199859200.00000,   0.00000
260349940.25636,286592151.41936,-17381892.18622,   0.00063,   0.00080,  -0.00023,276453984.00000,   0.00000,274640576.00000,   0.00000,   0.00000,   0.00000,-198186592.00000,   0.00000
262543848.39010,287865094.49816,-17477164.43328,   0.00063,   0.00080,  -0.00023,278125888.00000,   0.00000,274640576.00000,   0.00000,   0.00000,   0.00000,-196514688.00000,   0.00000
264756281.68298,289145976.93088,-17567143.77773,   0.00064,   0.00080,  -0.00023,279800704.00000,   0.00000,274640576.00000,   0.00000,   0.00000,   0.00000,-194839872.00000,   0.00000
266995179.48894,290453323.87668,-17662416.02479,   0.00065,   0.00080,  -0.00023,281474656.00000,   0.00000,274640576.00000,   0.00000,   0.00000,   0.00000,-193165920.00000,   0.00000
269226137.94098,291742145.66333,-17757688.27185,   0.00066,   0.00080,  -0.00023,283081760.00000,   0.00000,274640576.00000,   0.00000,   0.00000,   0.00000,-191558816.00000,   0.00000
271483560.90609,293057431.96304,-17852960.51892,   0.00066,   0.00080,  -0.00023,284677344.00000,   0.00000,274640576.00000,   0.00000,   0.00000,   0.00000,-189963232.00000,   0.00000
273740983.87120,294372718.26276,-17948232.76598,   0.00067,   0.00081,  -0.00023,286310336.00000,   0.00000,274640576.00000,   0.00000,   0.00000,   0.00000,-188330240.00000,   0.00000
276024871.34939,295714469.07555,-18048797.91565,   0.00068,   0.00081,  -0.00023,288031488.00000,   0.00000,274640576.00000,   0.00000,   0.00000,   0.00000,-186609088.00000,   0.00000
278308758.82757,297056219.88835,-18144070.16272,   0.00069,   0.00081,  -0.00024,289780928.00000,   0.00000,274640576.00000,   0.00000,   0.00000,   0.00000,-184859648.00000,   0.00000
280629696.62405,298413849.40898,-18244635.31239,   0.00069,   0.00081,  -0.00024,291563776.00000,   0.00000,274640576.00000,   0.00000,   0.00000,   0.00000,-183076800.00000,   0.00000
282932109.26139,299763539.57569,-18345200.46207,   0.00070,   0.00081,  -0.00024,293337504.00000,   0.00000,274640576.00000,   0.00000,   0.00000,   0.00000,-181303072.00000,   0.00000
285260986.41180,301139694.25548,-18451058.51436,   0.00071,   0.00081,  -0.00024,295144864.00000,   0.00000,274640576.00000,   0.00000,   0.00000,   0.00000,-179495712.00000,   0.00000
287600449.36743,302505263.13004,-18551623.66404,   0.00072,   0.00082,  -0.00024,296959616.00000,   0.00000,274640576.00000,   0.00000,   0.00000,   0.00000,-177680960.00000,   0.00000
289974316.19006,303915821.67682,-18657481.71633,   0.00073,   0.00082,  -0.00024,298827136.00000,   0.00000,274640576.00000,   0.00000,   0.00000,   0.00000,-175813440.00000,   0.00000
292340243.65877,305307855.06445,-18763339.76862,   0.00073,   0.00082,  -0.00024,300692352.00000,   0.00000,274640576.00000,   0.00000,   0.00000,   0.00000,-173948224.00000,   0.00000
294714110.48140,306718413.61123,-18869197.82091,   0.00074,   0.00082,  -0.00025,302579840.00000,   0.00000,274640576.00000,   0.00000,   0.00000,   0.00000,-172060736.00000,   0.00000
297106502.46318,308136911.51193,-18975055.87320,   0.00075,   0.00082,  -0.00025,304483968.00000,   0.00000,274640576.00000,   0.00000,   0.00000,   0.00000,-170156608.00000,   0.00000
299517419.60412,309563348.76656,-19086206.82811,   0.00076,   0.00082,  -0.00025,306401664.00000,   0.00000,274640576.00000,   0.00000,   0.00000,   0.00000,-168238912.00000,   0.00000
301936276.09897,311008311.18033,-19192064.88040,   0.00077,   0.00083,  -0.00025,308328480.00000,   0.00000,274640576.00000,   0.00000,   0.00000,   0.00000,-166312096.00000,   0.00000
304373657.75298,312461212.94803,-19303215.83531,   0.00078,   0.00083,  -0.00025,310265120.00000,   0.00000,274640576.00000,   0.00000,   0.00000,   0.00000,-164375456.00000,   0.00000
306811039.40698,313914114.71572,-19414366.79021,   0.00078,   0.00083,  -0.00025,312198368.00000,   0.00000,274640576.00000,   0.00000,   0.00000,   0.00000,-162442208.00000,   0.00000
309274885.57406,315393480.99649,-19530810.64773,   0.00079,   0.00083,  -0.00025,314156384.00000,   0.00000,274640576.00000,   0.00000,   0.00000,   0.00000,-160484192.00000,   0.00000
311757256.90029,316880786.63119,-19641961.60264,   0.00080,   0.00083,  -0.00026,316125312.00000,   0.00000,274640576.00000,   0.00000,   0.00000,   0.00000,-158515264.00000,   0.00000
314239628.22652,318368092.26588,-19758405.46016,   0.00081,   0.00084,  -0.00026,318094688.00000,   0.00000,274640576.00000,   0.00000,   0.00000,   0.00000,-156545888.00000,   0.00000
316729938.90667,319873923.05972,-19874849.31768,   0.00082,   0.00084,  -0.00026,320077568.00000,   0.00000,274640576.00000,   0.00000,   0.00000,   0.00000,-154563008.00000,   0.00000
319257299.90512,321395632.56141,-19991293.17520,   0.00083,   0.00084,  -0.00026,322086880.00000,   0.00000,274640576.00000,   0.00000,   0.00000,   0.00000,-152553696.00000,   0.00000
321766135.74443,322909402.70917,-20113029.93533,   0.00083,   0.00084,  -0.00026,324085728.00000,   0.00000,274640576.00000,   0.00000,   0.00000,   0.00000,-150554848.00000,   0.00000
324301436.09680,324449637.37001,-20229473.79285,   0.00084,   0.00084,  -0.00026,326111584.00000,   0.00000,274640576.00000,   0.00000,   0.00000,   0.00000,-148528992.00000,   0.00000
326855261.60833,325997811.38477,-20351210.55299,   0.00085,   0.00085,  -0.00026,328154112.00000,   0.00000,274640576.00000,   0.00000,   0.00000,   0.00000,-146486464.00000,   0.00000
329427612.27900,327553924.75345,-20478240.21574,   0.00086,   0.00085,  -0.00027,330214592.00000,   0.00000,274640576.00000,   0.00000,   0.00000,   0.00000,-144425984.00000,   0.00000
331989377.14445,329120623.92736,-20599976.97587,   0.00087,   0.00085,  -0.00027,332278560.00000,   0.00000,274640576.00000,   0.00000,   0.00000,   0.00000,-142362016.00000,   0.00000
334588192.32820,330703201.80911,-20727006.63862,   0.00088,   0.00085,  -0.00027,334375040.00000,   0.00000,274640576.00000,   0.00000,   0.00000,   0.00000,-140265536.00000,   0.00000
337194946.86587,332304304.85002,-20854036.30137,   0.00089,   0.00085,  -0.00027,336490656.00000,   0.00000,274640576.00000,   0.00000,   0.00000,   0.00000,-138149920.00000,   0.00000
339801701.40355,333905407.89092,-20981065.96412,   0.00089,   0.00086,  -0.00027,338611904.00000,   0.00000,274640576.00000,   0.00000,   0.00000,   0.00000,-136028672.00000,   0.00000
342426981.10037,335514450.28575,-21108095.62687,   0.00090,   0.00086,  -0.00027,340752384.00000,   0.00000,274640576.00000,   0.00000,   0.00000,   0.00000,-133888192.00000,   0.00000
345078725.31026,337149957.19365,-21240418.19224,   0.00091,   0.00086,  -0.00028,342925056.00000,   0.00000,274640576.00000,   0.00000,   0.00000,   0.00000,-131715520.00000,   0.00000
347730469.52016,338785464.10155,-21372740.75760,   0.00092,   0.00086,  -0.00028,345101888.00000,   0.00000,274640576.00000,   0.00000,   0.00000,   0.00000,-129538688.00000,   0.00000
350382213.73005,340420971.00945,-21505063.32296,   0.00093,   0.00087,  -0.00028,347281248.00000,   0.00000,274640576.00000,   0.00000,   0.00000,   0.00000,-127359328.00000,   0.00000
353060422.45302,342082942.43042,-21637385.88833,   0.00094,   0.00087,  -0.00028,349488736.00000,   0.00000,274640576.00000,   0.00000,   0.00000,   0.00000,-125151840.00000,   0.00000
355757156.33514,343752853.20532,-21775001.35631,   0.00095,   0.00087,  -0.00028,351711136.00000,   0.00000,274640576.00000,   0.00000,   0.00000,   0.00000,-122929440.00000,   0.00000
358461829.57118,345441289.13936,-21912616.82428,   0.00096,   0.00087,  -0.00028,353946784.00000,   0.00000,274640576.00000,   0.00000,   0.00000,   0.00000,-120693792.00000,   0.00000
361185027.96637,347137664.42733,-22050232.29226,   0.00097,   0.00088,  -0.00029,356196576.00000,   0.00000,274640576.00000,   0.00000,   0.00000,   0.00000,-118444000.00000,   0.00000
363908226.36157,348834039.71529,-22187847.76024,   0.00098,   0.00088,  -0.00029,358447776.00000,   0.00000,274640576.00000,   0.00000,   0.00000,   0.00000,-116192800.00000,   0.00000
366639364.11068,350548940.16241,-22330756.13084,   0.00098,   0.00088,  -0.00029,360714912.00000,   0.00000,274640576.00000,   0.00000,   0.00000,   0.00000,-113925664.00000,   0.00000
369407552.17810,352279719.31737,-22473664.50143,   0.00099,   0.00088,  -0.00029,363011616.00000,   0.00000,274640576.00000,   0.00000,   0.00000,   0.00000,-111628960.00000,   0.00000
372165154.44028,354021084.27756,-22616572.87202,   0.00100,   0.00089,  -0.00029,365309920.00000,   0.00000,274640576.00000,   0.00000,   0.00000,   0.00000,-109330656.00000,   0.00000
374941281.86162,355770388.59168,-22759481.24261,   0.00101,   0.00089,  -0.00030,367623520.00000,   0.00000,274640576.00000,   0.00000,   0.00000,   0.00000,-107017056.00000,   0.00000
377743873.79603,357546157.41886,-22907682.51582,   0.00102,   0.00089,  -0.00030,369965472.00000,   0.00000,274640576.00000,   0.00000,   0.00000,   0.00000,-104675104.00000,   0.00000
380546465.73044,359321926.24605,-23055883.78903,   0.00103,   0.00089,  -0.00030,372308064.00000,   0.00000,274640576.00000,   0.00000,   0.00000,   0.00000,-102332512.00000,   0.00000
383367582.82400,361105634.42716,-23209377.96485,   0.00104,   0.00090,  -0.00030,374666272.00000,   0.00000,274640576.00000,   0.00000,   0.00000,   0.00000,-99974304.00000,   0.00000
386196639.27149,362907867.76741,-23357579.23806,   0.00105,   0.00090,  -0.00030,377037952.00000,   0.00000,274640576.00000,   0.00000,   0.00000,   0.00000,-97602624.00000,   0.00000
389044220.87812,364718040.46159,-23511073.41388,   0.00106,   0.00090,  -0.00031,379426912.00000,   0.00000,274640576.00000,   0.00000,   0.00000,   0.00000,-95213664.00000,   0.00000
391899741.83868,366546738.31492,-23664567.58970,   0.00107,   0.00090,  -0.00031,381830784.00000,   0.00000,274640576.00000,   0.00000,   0.00000,   0.00000,-92809792.00000,   0.00000
394755262.79923,368375436.16826,-23823354.66814,   0.00108,   0.00091,  -0.00031,384233408.00000,   0.00000,274640576.00000,   0.00000,   0.00000,   0.00000,-90407168.00000,   0.00000
397637248.27286,370230598.53466,-23976848.84396,   0.00109,   0.00091,  -0.00031,386641280.00000,   0.00000,274640576.00000,   0.00000,   0.00000,   0.00000,-87999296.00000,   0.00000
400537758.90564,372093700.25499,-24135635.92240,   0.00110,   0.00091,  -0.00031,389023456.00000,   0.00000,274640576.00000,   0.00000,   0.00000,   0.00000,-85617120.00000,   0.00000
403438269.53842,373956801.97531,-24299715.90345,   0.00111,   0.00091,  -0.00032,391426944.00000,   0.00000,274640576.00000,   0.00000,   0.00000,   0.00000,-83213632.00000,   0.00000
406346719.52512,375838428.85479,-24458502.98189,   0.00112,   0.00092,  -0.00032,393897856.00000,   0.00000,274640576.00000,   0.00000,   0.00000,   0.00000,-80742720.00000,   0.00000
409281634.02490,377746520.24734,-24622582.96294,   0.00113,   0.00092,  -0.00032,396399168.00000,   0.00000,274640576.00000,   0.00000,   0.00000,   0.00000,-78241408.00000,   0.00000
412216548.52467,379654611.63989,-24786662.94399,   0.00114,   0.00092,  -0.00032,398929248.00000,   0.00000,274640576.00000,   0.00000,   0.00000,   0.00000,-75711328.00000,   0.00000
415169988.18359,381570642.38636,-24956035.82766,   0.00114,   0.00093,  -0.00032,401504960.00000,   0.00000,274640576.00000,   0.00000,   0.00000,   0.00000,-73135616.00000,   0.00000
418131367.19644,383505198.29198,-25125408.71132,   0.00115,   0.00093,  -0.00033,404116352.00000,   0.00000,274640576.00000,   0.00000,   0.00000,   0.00000,-70524224.00000,   0.00000
421111271.36844,385447693.55152,-25294781.59499,   0.00116,   0.00093,  -0.00033,406758944.00000,   0.00000,274640576.00000,   0.00000,   0.00000,   0.00000,-67881632.00000,   0.00000
424099114.89436,387408713.97022,-25464154.47866,   0.00117,   0.00094,  -0.00033,409421696.00000,   0.00000,274640576.00000,   0.00000,   0.00000,   0.00000,-65218880.00000,   0.00000
427105483.57943,389377673.74284,-25638820.26494,   0.00118,   0.00094,  -0.00033,412100128.00000,   0.00000,274640576.00000,   0.00000,   0.00000,   0.00000,-62540448.00000,   0.00000
430119791.61842,391365158.67460,-25813486.05122,   0.00119,   0.00094,  -0.00034,414787840.00000,   0.00000,274640576.00000,   0.00000,   0.00000,   0.00000,-59852736.00000,   0.00000
433134099.65742,393352643.60637,-25988151.83750,   0.00120,   0.00095,  -0.00034,417475040.00000,   0.00000,274640576.00000,   0.00000,   0.00000,   0.00000,-57165536.00000,   0.00000
436174872.20948,395366593.05121,-26168110.52639,   0.00121,   0.00095,  -0.00034,420192128.00000,   0.00000,274640576.00000,   0.00000,   0.00000,   0.00000,-54448448.00000,   0.00000
439234169.92070,397388481.84998,-26348069.21529,   0.00122,   0.00095,  -0.00034,422924512.00000,   0.00000,274640576.00000,   0.00000,   0.00000,   0.00000,-51716064.00000,   0.00000
442282881.82669,399420956.45397,-26528027.90418,   0.00123,   0.00095,  -0.00034,425648768.00000,   0.00000,274640576.00000,   0.00000,   0.00000,   0.00000,-48991808.00000,   0.00000
445368644.05098,401469309.76580,-26713279.49569,   0.00124,   0.00096,  -0.00035,428390528.00000,   0.00000,274640576.00000,   0.00000,   0.00000,   0.00000,-46250048.00000,   0.00000
448443820.47004,403528248.88287,-26898531.08720,   0.00125,   0.00096,  -0.00035,431110080.00000,   0.00000,274640576.00000,   0.00000,   0.00000,   0.00000,-43530496.00000,   0.00000
451537522.04825,405595127.35385,-27083782.67871,   0.00126,   0.00096,  -0.00035,433819680.00000,   0.00000,274640576.00000,   0.00000,   0.00000,   0.00000,-40820896.00000,   0.00000
454657688.13953,407688470.33791,-27274327.17284,   0.00127,   0.00097,  -0.00035,436529664.00000,   0.00000,274640576.00000,   0.00000,   0.00000,   0.00000,-38110912.00000,   0.00000
457777854.23082,409781813.32197,-27459578.76435,   0.00128,   0.00097,  -0.00036,439211776.00000,   0.00000,274640576.00000,   0.00000,   0.00000,   0.00000,-35428800.00000,   0.00000
460905959.67602,411893681.46518,-27655416.16108,   0.00129,   0.00098,  -0.00036,441883488.00000,   0.00000,274640576.00000,   0.00000,   0.00000,   0.00000,-32757088.00000,   0.00000
464034065.12123,414005549.60839,-27845960.65521,   0.00130,   0.00098,  -0.00036,444534880.00000,   0.00000,274640576.00000,   0.00000,   0.00000,   0.00000,-30105696.00000,   0.00000
467188635.07951,416143882.26467,-28041798.05195,   0.00131,   0.00098,  -0.00036,447199648.00000,   0.00000,274640576.00000,   0.00000,   0.00000,   0.00000,-27440928.00000,   0.00000
470361730.19694,418290154.27488,-28237635.44869,   0.00132,   0.00099,  -0.00037,449872480.00000,   0.00000,274640576.00000,   0.00000,   0.00000,   0.00000,-24768096.00000,   0.00000
473542764.66829,420454951.44423,-28438765.74804,   0.00133,   0.00099,  -0.00037,452558400.00000,   0.00000,274640576.00000,   0.00000,   0.00000,   0.00000,-22082176.00000,   0.00000
476723799.13964,422619748.61359,-28639896.04739,   0.00134,   0.00099,  -0.00037,455246624.00000,   0.00000,274640576.00000,   0.00000,   0.00000,   0.00000,-19393952.00000,   0.00000
479912772.96491,424803070.94210,-28841026.34675,   0.00136,   0.00100,  -0.00037,457946048.00000,   0.00000,274640576.00000,   0.00000,   0.00000,   0.00000,-16694528.00000,   0.00000
483120271.94934,426994332.62453,-29047449.54871,   0.00137,   0.00100,  -0.00038,460658816.00000,   0.00000,274640576.00000,   0.00000,   0.00000,   0.00000,-13981760.00000,   0.00000
486354235.44683,429212058.82003,-29253872.75068,   0.00138,   0.00100,  -0.00038,463400736.00000,   0.00000,274640576.00000,   0.00000,   0.00000,   0.00000,-11239840.00000,   0.00000
489569673.78518,431421845.66161,-29460295.95265,   0.00139,   0.00101,  -0.00038,466141376.00000,   0.00000,274640576.00000,   0.00000,   0.00000,   0.00000,-8499200.00000,   0.00000
492830101.79575,433666036.37018,-29672012.05723,   0.00140,   0.00101,  -0.00039,468941632.00000,   0.00000,274640576.00000,   0.00000,   0.00000,   0.00000,-5698944.00000,   0.00000
496072004.64717,435902287.72483,-29883728.16181,   0.00141,   0.00102,  -0.00039,471749536.00000,   0.00000,274640576.00000,   0.00000,   0.00000,   0.00000,-2891040.00000,   0.00000
499340372.01166,438165003.59256,-30095444.26640,   0.00142,   0.00102,  -0.00039,474603072.00000,   0.00000,274640576.00000,   0.00000,   0.00000,   0.00000,-37504.00000,   0.00000
499381965.74930,438193964.66028,-30098199.26356,   0.00142,   0.00102,  -0.00039,474639616.00000,   0.00000,274640576.00000,   0.00000,   0.00000,   0.00000,-960.00000,   0.00000
499608385.12922,437882890.01846,-30097304.56282,   0.00143,   0.00102,  -0.00039,474639616.00000,   0.00001,274650112.00000,   0.00001,   0.00001,  -0.00000,-128.00000,   2.00000
499834820.09422,437569033.46628,-30096315.31059,   0.00144,   0.00103,  -0.00040,477531040.00000,   0.00002,274659776.00000,   0.00002,   0.00001,  -0.00001, -64.00000,   2.00000
500062734.36153,437252294.76292,-30094237.18911,   0.00145,   0.00103,  -0.00040,477555840.00000,   0.00003,274669504.00000,   0.00003,   0.00002,  -0.00001, -32.00000,   2.00000
500282834.16394,436944255.69311,-30096421.67538,   0.00146,   0.00104,  -0.00040,477579424.00000,   0.00004,274679264.00000,   0.00004,   0.00002,  -0.00001,   0.00000,   2.00000
500499791.72585,436641090.20305,-30096603.43298,   0.00147,   0.00104,  -0.00041,477616160.00000,   0.00004,274689120.00000,   0.00004,   0.00003,  -0.00001,  64.00000,   2.00000
500713634.95587,436338746.95616,-30101927.13123,   0.00148,   0.00104,  -0.00041,477628032.00000,   0.00005,274698976.00000,   0.00005,   0.00004,  -0.00002,   0.00000,   2.00000
500926768.72995,436039220.17386,-30102016.84869,   0.00149,   0.00105,  -0.00041,477637568.00000,   0.00006,274708832.00000,   0.00006,   0.00004,  -0.00002,  64.00000,   2.00000
501126414.11299,435755188.83066,-30110643.21973,   0.00150,   0.00105,  -0.00041,477674112.00000,   0.00007,274718784.00000,   0.00007,   0.00005,  -0.00002,  32.00000,   2.00000
501333629.76775,435461373.64418,-30113850.72578,   0.00151,   0.00106,  -0.00042,477685856.00000,   0.00008,274728736.00000,   0.00008,   0.00005,  -0.00003,  32.00000,   2.00000
501528453.94692,435183965.53536,-30120398.41047,   0.00152,   0.00106,  -0.00042,477721600.00000,   0.00009,274738784.00000,   0.00009,   0.00006,  -0.00003,   0.00000,   2.00000
501728812.04451,434895001.08064,-30131908.99767,   0.00153,   0.00107,  -0.00042,477735520.00000,   0.00010,274748832.00000,   0.00010,   0.00007,  -0.00003,  96.00000,   2.00000
501915609.72935,434629010.90352,-30137418.45572,   0.00154,   0.00107,  -0.00043,477754752.00000,   0.00011,274758912.00000,   0.00011,   0.00007,  -0.00003, -32.00000,   2.00000
502107817.89277,434351238.56443,-30147889.48303,   0.00156,   0.00107,  -0.00043,477768832.00000,   0.00012,274768992.00000,   0.00012,   0.00008,  -0.00004, -32.00000,   2.00000
502291406.63210,434085425.48487,-30160608.75108,   0.00157,   0.00108,  -0.00043,477818624.00000,   0.00013,274779200.00000,   0.00013,   0.00008,  -0.00004, -32.00000,   2.00000
502469942.61352,433825906.45307,-30174295.56385,   0.00158,   0.00108,  -0.00044,477815168.00000,   0.00014,274789376.00000,   0.00014,   0.00009,  -0.00004,  32.00000,   2.00000
502650287.83522,433563331.92741,-30186813.84693,   0.00159,   0.00109,  -0.00044,477840096.00000,   0.00014,274799584.00000,   0.00015,   0.00010,  -0.00005, -96.00000,   2.00000
502823516.06365,433309593.57060,-30203539.86862,   0.00160,   0.00109,  -0.00044,477863680.00000,   0.00015,274809856.00000,   0.00016,   0.00010,  -0.00005, -32.00000,   2.00000
502993854.58721,433060673.86690,-30218178.71882,   0.00161,   0.00110,  -0.00045,477900640.00000,   0.00016,274820192.00000,   0.00017,   0.00011,  -0.00005,   0.00000,   2.00000
503162733.47637,432813378.64687,-30232716.22727,   0.00162,   0.00110,  -0.00045,477911488.00000,   0.00017,274830560.00000,   0.00017,   0.00011,  -0.00006, -32.00000,   2.00000
503324539.79141,432574842.87152,-30251445.18852,   0.00163,   0.00111,  -0.00045,477935104.00000,   0.00018,274840928.00000,   0.00018,   0.00012,  -0.00006, 128.00000,   2.00000
503484881.44779,432337812.42620,-30270037.43398,   0.00164,   0.00111,  -0.00046,477945920.00000,   0.00019,274851328.00000,   0.00019,   0.00013,  -0.00006, -32.00000,   2.00000
503638172.41318,432109465.73518,-30292786.66906,   0.00165,   0.00112,  -0.00046,477969600.00000,   0.00020,274861760.00000,   0.00020,   0.00013,  -0.00006, 128.00000,   2.00000
503793462.59727,431878000.16645,-30314302.42009,   0.00166,   0.00112,  -0.00046,477994720.00000,   0.00021,274872256.00000,   0.00021,   0.00014,  -0.00007,  96.00000,   2.00000
503942748.32919,431656061.37594,-30334771.64755,   0.00167,   0.00113,  -0.00047,478017472.00000,   0.00022,274882784.00000,   0.00022,   0.00014,  -0.00007,   0.00000,   2.00000
504085141.53672,431442824.13929,-30359387.02672,   0.00169,   0.00113,  -0.00047,478041152.00000,   0.00023,274893344.00000,   0.00023,   0.00015,  -0.00007, -32.00000,   2.00000
504229622.10680,431226431.96754,-30382752.19697,   0.00170,   0.00113,  -0.00047,478066304.00000,   0.00024,274903968.00000,   0.00024,   0.00016,  -0.00008,  64.00000,   2.00000
504372881.85724,431011539.28902,-30405950.99954,   0.00171,   0.00114,  -0.00048,478077248.00000,   0.00025,274914592.00000,   0.00025,   0.00016,  -0.00008,  96.00000,   2.00000
504509245.72109,430805309.97307,-30433268.38846,   0.00172,   0.00114,  -0.00048,478101056.00000,   0.00026,274925248.00000,   0.00026,   0.00017,  -0.00008,  64.00000,   2.00000
504638714.73057,430607657.68161,-30464665.44345,   0.00173,   0.00115,  -0.00048,478124640.00000,   0.00027,274935936.00000,   0.00027,   0.00017,  -0.00009,  32.00000,   2.00000
504767042.49527,430411360.42001,-30495827.29516,   0.00174,   0.00115,  -0.00049,478135744.00000,   0.00028,274946656.00000,   0.00028,   0.00018,  -0.00009,-160.00000,   2.00000
504893020.85213,430220013.63738,-30524790.99422,   0.00175,   0.00116,  -0.00049,478172608.00000,   0.00029,274957472.00000,   0.00029,   0.00019,  -0.00009,-192.00000,   2.00000
505018109.14154,430030181.11848,-30553552.35398,   0.00176,   0.00116,  -0.00049,478183648.00000,   0.00030,274968256.00000,   0.00030,   0.00019,  -0.00010, -32.00000,   2.00000
505136336.08729,429848827.93179,-30586370.53432,   0.00177,   0.00117,  -0.00050,478207648.00000,   0.00031,274979104.00000,   0.00031,   0.00020,  -0.00010,  32.00000,   2.00000
505252555.24285,429667955.71277,-30624118.50503,   0.00179,   0.00118,  -0.00050,478219648.00000,   0.00032,274989952.00000,   0.00032,   0.00021,  -0.00010,  64.00000,   2.00000
505363150.89218,429496483.33228,-30660680.68783,   0.00180,   0.00118,  -0.00050,478242560.00000,   0.00033,275000832.00000,   0.00033,   0.00021,  -0.00011,   0.00000,   2.00000
505471491.13094,429329861.31911,-30694982.42706,   0.00181,   0.00119,  -0.00051,478279712.00000,   0.00034,275011808.00000,   0.00034,   0.00022,  -0.00011,  32.00000,   2.00000
505578899.25050,429164461.59198,-30729017.01798,   0.00182,   0.00119,  -0.00051,478290816.00000,   0.00035,275022784.00000,   0.00035,   0.00022,  -0.00011,  32.00000,   2.00000
505684497.84019,428999547.43579,-30767973.97449,   0.00183,   0.00120,  -0.00052,478302912.00000,   0.00036,275033760.00000,   0.00037,   0.00023,  -0.00012, 224.00000,   2.00000
505783396.31783,428843016.50338,-30810890.21072,   0.00184,   0.00120,  -0.00052,478327104.00000,   0.00037,275044800.00000,   0.00038,   0.00024,  -0.00012,  64.00000,   2.00000
505876861.70100,428695814.88442,-30852567.94846,   0.00185,   0.00121,  -0.00052,478349824.00000,   0.00038,275055840.00000,   0.00039,   0.00024,  -0.00012,   0.00000,   2.00000
505972915.82446,428545315.52742,-30892832.06383,   0.00186,   0.00121,  -0.00053,478375360.00000,   0.00039,275066976.00000,   0.00040,   0.00025,  -0.00013,  96.00000,   2.00000
506062489.46587,428403251.69575,-30937045.20234,   0.00187,   0.00122,  -0.00053,478399456.00000,   0.00040,275078112.00000,   0.00041,   0.00026,  -0.00013,  96.00000,   2.00000
506148049.34726,428266772.49544,-30981995.48992,   0.00189,   0.00122,  -0.00054,478396384.00000,   0.00041,275089216.00000,   0.00042,   0.00026,  -0.00013, -64.00000,   2.00000
506230647.06042,428134287.55906,-31029769.65181,   0.00190,   0.00123,  -0.00054,478434624.00000,   0.00042,275100416.00000,   0.00043,   0.00027,  -0.00014,  96.00000,   2.00000
506307809.46082,428010895.73724,-31076239.43081,   0.00191,   0.00123,  -0.00054,478457824.00000,   0.00043,275111648.00000,   0.00044,   0.00027,  -0.00014,   0.00000,   2.00000
506387793.93817,427884166.93952,-31121246.11252,   0.00192,   0.00124,  -0.00055,478483456.00000,   0.00044,275122944.00000,   0.00045,   0.00028,  -0.00014, 128.00000,   2.00000
506462616.65184,427761898.03871,-31172140.50783,   0.00193,   0.00125,  -0.00055,478481568.00000,   0.00045,275134176.00000,   0.00046,   0.00029,  -0.00015,  96.00000,   2.00000
506535550.52064,427644388.15672,-31220613.55634,   0.00194,   0.00125,  -0.00056,478518848.00000,   0.00046,275145504.00000,   0.00047,   0.00029,  -0.00015,   0.00000,   2.00000
506599176.04414,427539781.66821,-31274062.61227,   0.00195,   0.00126,  -0.00056,478528672.00000,   0.00047,275156800.00000,   0.00048,   0.00030,  -0.00015, 128.00000,   2.00000
506665444.65128,427431490.89413,-31325956.64013,   0.00196,   0.00126,  -0.00056,478554464.00000,   0.00048,275168160.00000,   0.00049,   0.00031,  -0.00016,  96.00000,   2.00000
506725395.83259,427331327.50435,-31381665.53979,   0.00198,   0.00127,  -0.00057,478578752.00000,   0.00049,275179584.00000,   0.00050,   0.00031,  -0.00016, -32.00000,   2.00000
506785004.17140,427232102.37863,-31436917.73513,   0.00199,   0.00128,  -0.00057,478590144.00000,   0.00050,275190976.00000,   0.00051,   0.00032,  -0.00016,  32.00000,   2.00000
506839717.12247,427142060.89037,-31490802.40668,   0.00200,   0.00128,  -0.00058,478613280.00000,   0.00051,275202432.00000,   0.00052,   0.00033,  -0.00017,  32.00000,   2.00000
506892866.74636,427051852.39346,-31549396.58136,   0.00201,   0.00129,  -0.00058,478625952.00000,   0.00052,275213856.00000,   0.00054,   0.00033,  -0.00017,  64.00000,   2.00000
506940996.88807,426970621.28747,-31606576.15978,   0.00202,   0.00129,  -0.00058,478649184.00000,   0.00053,275225344.00000,   0.00055,   0.00034,  -0.00017,  64.00000,   2.00000
506987685.24478,426889213.08310,-31668437.79605,   0.00203,   0.00130,  -0.00059,478661632.00000,   0.00055,275236832.00000,   0.00056,   0.00035,  -0.00018,  64.00000,   2.00000
507032710.69895,426812339.61428,-31727736.41428,   0.00204,   0.00130,  -0.00059,478699232.00000,   0.00056,275248416.00000,   0.00057,   0.00035,  -0.00018,  96.00000,   2.00000
507073021.11886,426739641.09993,-31792810.26241,   0.00205,   0.00131,  -0.00060,478697632.00000,   0.00057,275259936.00000,   0.00058,   0.00036,  -0.00018, -32.00000,   2.00000
507111853.30178,426671530.01559,-31855290.10220,   0.00207,   0.00132,  -0.00060,478735168.00000,   0.00058,275271552.00000,   0.00059,   0.00036,  -0.00019,  96.00000,   2.00000
507141531.91420,426615842.11318,-31922600.13682,   0.00208,   0.00132,  -0.00061,478745344.00000,   0.00059,275283136.00000,   0.00060,   0.00037,  -0.00019, 128.00000,   2.00000
507174146.31142,426556158.71251,-31988193.50270,   0.00209,   0.00133,  -0.00061,478771296.00000,   0.00060,275294784.00000,   0.00061,   0.00038,  -0.00020,  64.00000,   2.00000
507206546.39178,426497028.39462,-32053219.59221,   0.00210,   0.00134,  -0.00062,478783008.00000,   0.00061,275306432.00000,   0.00062,   0.00038,  -0.00020, 128.00000,   2.00000
507225485.18082,426458682.35834,-32122134.29822,   0.00211,   0.00134,  -0.00062,478804864.00000,   0.00062,275318144.00000,   0.00063,   0.00039,  -0.00020,  96.00000,   2.00000
507251783.44155,426407751.50172,-32190221.47367,   0.00212,   0.00135,  -0.00062,478819296.00000,   0.00063,275329824.00000,   0.00065,   0.00040,  -0.00021, -32.00000,   2.00000
507272536.59632,426364909.55796,-32261966.06105,   0.00213,   0.00135,  -0.00063,478843584.00000,   0.00064,275341568.00000,   0.00066,   0.00040,  -0.00021,   0.00000,   2.00000
507288611.82063,426330759.73605,-32332146.09393,   0.00215,   0.00136,  -0.00063,478867168.00000,   0.00065,275353312.00000,   0.00067,   0.00041,  -0.00021, 160.00000,   2.00000
507303258.04146,426295854.83113,-32406855.14284,   0.00216,   0.00137,  -0.00064,478880096.00000,   0.00066,275365088.00000,   0.00068,   0.00042,  -0.00022,   0.00000,   2.00000
507310506.55703,426274363.07502,-32481147.59256,   0.00217,   0.00137,  -0.00064,478889184.00000,   0.00067,275376864.00000,   0.00069,   0.00042,  -0.00022,  96.00000,   2.00000
507319520.63857,426247508.57183,-32558773.57332,   0.00218,   0.00138,  -0.00065,478916512.00000,   0.00068,275388672.00000,   0.00070,   0.00043,  -0.00022, -32.00000,   2.00000
507324136.94259,426229363.76466,-32634782.91400,   0.00219,   0.00139,  -0.00065,478939936.00000,   0.00070,275400544.00000,   0.00071,   0.00044,  -0.00023,   0.00000,   2.00000
507328693.40232,426211364.13383,-32710113.02706,   0.00220,   0.00139,  -0.00066,478951936.00000,   0.00071,275412384.00000,   0.00072,   0.00044,  -0.00023,  64.00000,   2.00000
507332202.17292,426192707.31828,-32789940.69140,   0.00221,   0.00140,  -0.00066,478964832.00000,   0.00072,275424256.00000,   0.00074,   0.00045,  -0.00024, -64.00000,   2.00000
507326754.23578,426190933.95051,-32867165.70052,   0.00222,   0.00141,  -0.00067,479000096.00000,   0.00073,275436160.00000,   0.00075,   0.00046,  -0.00024,  64.00000,   2.00000
507321569.71050,426184411.79721,-32950976.84834,   0.00224,   0.00141,  -0.00067,478987296.00000,   0.00074,275448032.00000,   0.00076,   0.00046,  -0.00024, -32.00000,   2.00000
507309501.40647,426189258.94615,-33036123.70059,   0.00225,   0.00142,  -0.00068,479037856.00000,   0.00075,275460000.00000,   0.00077,   0.00047,  -0.00025,  32.00000,   2.00000
507303195.53503,426186685.58382,-33116304.26835,   0.00226,   0.00143,  -0.00068,479037184.00000,   0.00076,275471936.00000,   0.00078,   0.00048,  -0.00025,  64.00000,   2.00000
507285780.12145,426199040.50358,-33204172.06452,   0.00227,   0.00143,  -0.00069,479074720.00000,   0.00077,275483968.00000,   0.00079,   0.00048,  -0.00026,  32.00000,   2.00000
507270994.24477,426208361.59951,-33288232.48670,   0.00228,   0.00144,  -0.00069,479059648.00000,   0.00078,275495872.00000,   0.00080,   0.00049,  -0.00026, -64.00000,   2.00000
507253957.40806,426220625.17541,-33374555.26859,   0.00229,   0.00145,  -0.00070,479098784.00000,   0.00079,275507904.00000,   0.00082,   0.00050,  -0.00026,  32.00000,   2.00000
507228183.35244,426244590.95155,-33465469.10349,   0.00230,   0.00145,  -0.00070,479109280.00000,   0.00081,275519904.00000,   0.00083,   0.00050,  -0.00027,   0.00000,   2.00000
507205999.28232,426264053.90111,-33554387.64751,   0.00232,   0.00146,  -0.00071,479135648.00000,   0.00082,275531968.00000,   0.00084,   0.00051,  -0.00027,  32.00000,   2.00000
507176429.15380,426296216.95031,-33642731.25775,   0.00233,   0.00147,  -0.00071,479145184.00000,   0.00083,275544000.00000,   0.00085,   0.00052,  -0.00027,  96.00000,   2.00000
507148984.89314,426322586.25013,-33734221.27307,   0.00234,   0.00147,  -0.00072,479172864.00000,   0.00084,275556096.00000,   0.00086,   0.00052,  -0.00028, 128.00000,   2.00000
507113043.73680,426360655.67851,-33830264.43998,   0.00235,   0.00148,  -0.00072,479183360.00000,   0.00085,275568192.00000,   0.00087,   0.00053,  -0.00028,  64.00000,   2.00000
507077431.08343,426398412.06437,-33925437.62278,   0.00236,   0.00149,  -0.00073,479195584.00000,   0.00086,275580288.00000,   0.00088,   0.00054,  -0.00029,   0.00000,   2.00000
507042313.88109,426435999.44507,-34019762.40511,   0.00237,   0.00150,  -0.00073,479207712.00000,   0.00087,275592384.00000,   0.00090,   0.00054,  -0.00029,  64.00000,   2.00000
506997167.88877,426488806.66218,-34116397.83985,   0.00238,   0.00150,  -0.00074,479244480.00000,   0.00088,275604544.00000,   0.00091,   0.00055,  -0.00029, -32.00000,   2.00000
506957202.20884,426533083.02639,-34213164.17890,   0.00239,   0.00151,  -0.00074,479244960.00000,   0.00089,275616672.00000,   0.00092,   0.00056,  -0.00030, 160.00000,   2.00000
506911649.64928,426584121.62856,-34313188.12194,   0.00241,   0.00152,  -0.00075,479270144.00000,   0.00091,275628832.00000,   0.00093,   0.00056,  -0.00030,  32.00000,   2.00000
506863557.93636,426639393.04697,-34413542.25259,   0.00242,   0.00152,  -0.00075,479268000.00000,   0.00092,275640960.00000,   0.00094,   0.00057,  -0.00031,  96.00000,   2.00000
506813233.11718,426696931.19997,-34515898.48436,   0.00243,   0.00153,  -0.00076,479307488.00000,   0.00093,275653152.00000,   0.00095,   0.00058,  -0.00031,  32.00000,   2.00000
506755823.13188,426766874.33430,-34617560.66573,   0.00244,   0.00154,  -0.00077,479316992.00000,   0.00094,275665344.00000,   0.00097,   0.00059,  -0.00032, 128.00000,   2.00000
506698843.07754,426836151.38642,-34718290.20079,   0.00245,   0.00155,  -0.00077,479329344.00000,   0.00095,275677536.00000,   0.00098,   0.00059,  -0.00032,   0.00000,   2.00000
506641200.15543,426903882.06104,-34823250.86139,   0.00246,   0.00155,  -0.00078,479342752.00000,   0.00096,275689728.00000,   0.00099,   0.00060,  -0.00032,  64.00000,   2.00000
506578324.17543,426978305.91075,-34931387.49033,   0.00247,   0.00156,  -0.00078,479367904.00000,   0.00097,275701984.00000,   0.00100,   0.00061,  -0.00033,  64.00000,   2.00000
506516072.09350,427052140.90651,-35038540.90155,   0.00248,   0.00157,  -0.00079,479380352.00000,   0.00099,275714208.00000,   0.00101,   0.00061,  -0.00033, -64.00000,   2.00000
506454299.94439,427125280.62534,-35144709.43124,   0.00250,   0.00158,  -0.00079,479392704.00000,   0.00100,275726432.00000,   0.00102,   0.00062,  -0.00034,  64.00000,   2.00000
506379816.81288,427217970.82107,-35254276.03962,   0.00251,   0.00158,  -0.00080,479415200.00000,   0.00101,275738688.00000,   0.00104,   0.00063,  -0.00034, 128.00000,   2.00000
506310394.25047,427301499.17812,-35363856.74869,   0.00252,   0.00159,  -0.00080,479416032.00000,   0.00102,275750912.00000,   0.00105,   0.00063,  -0.00034,  64.00000,   2.00000
506239090.63094,427387101.43689,-35475294.99342,   0.00253,   0.00160,  -0.00081,479455520.00000,   0.00103,275763232.00000,   0.00106,   0.00064,  -0.00035, 224.00000,   2.00000
506161786.37896,427480775.38357,-35588221.24395,   0.00254,   0.00161,  -0.00082,479439360.00000,   0.00104,275775456.00000,   0.00107,   0.00065,  -0.00035,  32.00000,   2.00000
506082789.93026,427576514.05245,-35702970.01833,   0.00255,   0.00161,  -0.00082,479478848.00000,   0.00105,275787744.00000,   0.00108,   0.00065,  -0.00036,  64.00000,   2.00000
506004431.42424,427671366.82435,-35816661.81494,   0.00256,   0.00162,  -0.00083,479491392.00000,   0.00106,275800064.00000,   0.00109,   0.00066,  -0.00036,   0.00000,   2.00000
505917746.96867,427777085.26868,-35934682.40571,   0.00257,   0.00163,  -0.00083,479502432.00000,   0.00108,275812352.00000,   0.00111,   0.00067,  -0.00037,  64.00000,   2.00000
505831805.84558,427881862.67999,-36051621.51903,   0.00258,   0.00164,  -0.00084,479514912.00000,   0.00109,275824640.00000,   0.00112,   0.00068,  -0.00037,  64.00000,   2.00000
505740788.86143,427992874.90977,-36171574.17949,   0.00260,   0.00164,  -0.00084,479540224.00000,   0.00110,275836992.00000,   0.00113,   0.00068,  -0.00037,  32.00000,   2.00000
505651743.78342,428099109.74355,-36292759.18022,   0.00261,   0.00165,  -0.00085,479526784.00000,   0.00111,275849216.00000,   0.00114,   0.00069,  -0.00038,  32.00000,   2.00000
505557762.26687,428216404.00044,-36409439.55293,   0.00262,   0.00166,  -0.00086,479576896.00000,   0.00112,275861600.00000,   0.00115,   0.00070,  -0.00038,   0.00000,   2.00000
505464544.89191,428327873.23866,-36532535.09344,   0.00263,   0.00167,  -0.00086,479564672.00000,   0.00113,275873888.00000,   0.00116,   0.00070,  -0.00039,  96.00000,   2.00000
505361755.82679,428453673.10909,-36657503.39983,   0.00264,   0.00167,  -0.00087,479601856.00000,   0.00114,275886272.00000,   0.00118,   0.00071,  -0.00039,   0.00000,   2.00000
505265642.78321,428571190.31427,-36777259.05587,   0.00265,   0.00168,  -0.00087,479601472.00000,   0.00116,275898592.00000,   0.00119,   0.00072,  -0.00040,  32.00000,   2.00000
505159898.57286,428698183.83421,-36906409.30521,   0.00266,   0.00169,  -0.00088,479613760.00000,   0.00117,275910912.00000,   0.00120,   0.00072,  -0.00040,  32.00000,   2.00000
505055101.52771,428824081.51253,-37034380.39019,   0.00267,   0.00170,  -0.00089,479626368.00000,   0.00118,275923232.00000,   0.00121,   0.00073,  -0.00041,  96.00000,   2.00000
504946543.91883,428956924.66704,-37160086.98205,   0.00268,   0.00171,  -0.00089,479650624.00000,   0.00119,275935584.00000,   0.00122,   0.00074,  -0.00041, -32.00000,   2.00000
504834239.05146,429091962.14936,-37291083.86358,   0.00269,   0.00171,  -0.00090,479650048.00000,   0.00120,275947904.00000,   0.00123,   0.00075,  -0.00041,  32.00000,   2.00000
504726224.35444,429221303.10585,-37419558.11693,   0.00271,   0.00172,  -0.00091,479676832.00000,   0.00121,275960256.00000,   0.00125,   0.00075,  -0.00042,  96.00000,   2.00000
504611293.54371,429362160.07607,-37547087.48618,   0.00272,   0.00173,  -0.00091,479686944.00000,   0.00122,275972608.00000,   0.00126,   0.00076,  -0.00042,  96.00000,   2.00000
504491199.24365,429503953.04572,-37685017.49593,   0.00273,   0.00174,  -0.00092,479687840.00000,   0.00124,275984928.00000,   0.00127,   0.00077,  -0.00043,  64.00000,   2.00000
504372228.19052,429649174.19828,-37814115.56940,   0.00274,   0.00175,  -0.00092,479725056.00000,   0.00125,275997312.00000,   0.00128,   0.00077,  -0.00043, 128.00000,   2.00000
504249546.14884,429796467.64672,-37948485.52863,   0.00275,   0.00175,  -0.00093,479724672.00000,   0.00126,276009664.00000,   0.00129,   0.00078,  -0.00044,  96.00000,   2.00000
504126568.05724,429941335.76588,-38086743.79719,   0.00276,   0.00176,  -0.00094,479738560.00000,   0.00127,276022016.00000,   0.00130,   0.00079,  -0.00044,  64.00000,   2.00000
504002368.96165,430090325.77517,-38219933.85782,   0.00277,   0.00177,  -0.00094,479735712.00000,   0.00128,276034336.00000,   0.00132,   0.00080,  -0.00045, 128.00000,   2.00000
503872008.44481,430243882.44866,-38361026.69896,   0.00278,   0.00178,  -0.00095,479762528.00000,   0.00129,276046656.00000,   0.00133,   0.00080,  -0.00045,  64.00000,   2.00000
503738086.19017,430404049.69161,-38499681.66771,   0.00279,   0.00179,  -0.00096,479786880.00000,   0.00130,276059040.00000,   0.00134,   0.00081,  -0.00046,   0.00000,   2.00000
503606429.19789,430559177.29270,-38639541.36943,   0.00280,   0.00179,  -0.00096,479773440.00000,   0.00132,276071328.00000,   0.00135,   0.00082,  -0.00046, 192.00000,   2.00000
503469914.46158,430719810.03010,-38782089.88888,   0.00281,   0.00180,  -0.00097,479799200.00000,   0.00133,276083680.00000,   0.00136,   0.00082,  -0.00047, 160.00000,   2.00000
503329844.83946,430886919.52123,-38922159.07072,   0.00282,   0.00181,  -0.00098,479823520.00000,   0.00134,276096064.00000,   0.00137,   0.00083,  -0.00047,  64.00000,   2.00000
503194021.25405,431043203.68289,-39067169.80378,   0.00283,   0.00182,  -0.00098,479825600.00000,   0.00135,276108384.00000,   0.00139,   0.00084,  -0.00047,   0.00000,   2.00000
503051395.60273,431210654.85833,-39211058.45539,   0.00284,   0.00183,  -0.00099,479835712.00000,   0.00136,276120704.00000,   0.00140,   0.00085,  -0.00048,  64.00000,   2.00000
502901836.05495,431389008.93974,-39353814.28546,   0.00286,   0.00184,  -0.00100,479846048.00000,   0.00137,276133024.00000,   0.00141,   0.00085,  -0.00048, 160.00000,   2.00000
502756507.58932,431556356.39905,-39501475.83057,   0.00287,   0.00184,  -0.00100,479848128.00000,   0.00139,276145312.00000,   0.00142,   0.00086,  -0.00049, -32.00000,   2.00000
502606570.97035,431729096.04485,-39651697.98943,   0.00288,   0.00185,  -0.00101,479873632.00000,   0.00140,276157632.00000,   0.00143,   0.00087,  -0.00049,  32.00000,   2.00000
502459048.54644,431901152.44839,-39795347.05048,   0.00289,   0.00186,  -0.00102,479885152.00000,   0.00141,276169952.00000,   0.00144,   0.00087,  -0.00050, -32.00000,   2.00000
502301978.48959,432081793.22889,-39948065.61521,   0.00290,   0.00187,  -0.00102,479898112.00000,   0.00142,276182272.00000,   0.00145,   0.00088,  -0.00050, -64.00000,   2.00000
502142588.99320,432265073.57221,-40100694.02383,   0.00291,   0.00188,  -0.00103,479896608.00000,   0.00143,276194560.00000,   0.00147,   0.00089,  -0.00051, -32.00000,   2.00000
501984430.11176,432446446.45970,-40251817.37179,   0.00292,   0.00189,  -0.00104,479909152.00000,   0.00144,276206816.00000,   0.00148,   0.00090,  -0.00051,-128.00000,   2.00000
501827693.82636,432626067.35751,-40401453.38374,   0.00293,   0.00189,  -0.00104,479921632.00000,   0.00145,276219072.00000,   0.00149,   0.00090,  -0.00052, -32.00000,   2.00000
501664887.64343,432809425.00771,-40558604.56533,   0.00294,   0.00190,  -0.00105,479949024.00000,   0.00147,276231392.00000,   0.00150,   0.00091,  -0.00052,  32.00000,   2.00000
501501241.70107,432996488.05203,-40710481.36614,   0.00295,   0.00191,  -0.00106,479946272.00000,   0.00148,276243648.00000,   0.00151,   0.00092,  -0.00053,  64.00000,   2.00000
501333837.64464,433184747.24699,-40867332.30501,   0.00296,   0.00192,  -0.00106,479946208.00000,   0.00149,276255872.00000,   0.00152,   0.00093,  -0.00053, -64.00000,   2.00000
501163460.94979,433379012.39938,-41021371.80642,   0.00297,   0.00193,  -0.00107,479970720.00000,   0.00150,276268128.00000,   0.00153,   0.00093,  -0.00054,  64.00000,   2.00000
500993032.84983,433569838.52440,-41178903.29858,   0.00298,   0.00194,  -0.00108,479984768.00000,   0.00151,276280416.00000,   0.00155,   0.00094,  -0.00054, -32.00000,   2.00000
500819099.97979,433761865.06274,-41341351.92669,   0.00299,   0.00194,  -0.00108,479984768.00000,   0.00152,276292608.00000,   0.00156,   0.00095,  -0.00055,  96.00000,   2.00000
500644479.03812,433957414.63607,-41498468.88054,   0.00300,   0.00195,  -0.00109,479982112.00000,   0.00153,276304800.00000,   0.00157,   0.00096,  -0.00055,  96.00000,   2.00000
500473467.16098,434144854.72907,-41657577.31672,   0.00301,   0.00196,  -0.00110,480010464.00000,   0.00154,276316992.00000,   0.00158,   0.00096,  -0.00056,  32.00000,   2.00000
500290696.06827,434345823.50539,-41821830.06072,   0.00302,   0.00197,  -0.00111,480008320.00000,   0.00156,276329184.00000,   0.00159,   0.00097,  -0.00056, -32.00000,   2.00000
500109466.60713,434544362.52853,-41984384.23772,   0.00303,   0.00198,  -0.00111,480021056.00000,   0.00157,276341344.00000,   0.00160,   0.00098,  -0.00057,  32.00000,   2.00000
499925308.07238,434748408.45934,-42144017.13136,   0.00304,   0.00199,  -0.00112,480045920.00000,   0.00158,276353536.00000,   0.00161,   0.00098,  -0.00057,   0.00000,   2.00000
499742198.11632,434945513.48856,-42309866.63724,   0.00305,   0.00200,  -0.00113,480034016.00000,   0.00159,276365664.00000,   0.00162,   0.00099,  -0.00058, 192.00000,   2.00000
499555954.16010,435147920.26811,-42472759.19110,   0.00306,   0.00201,  -0.00113,480058912.00000,   0.00160,276377824.00000,   0.00164,   0.00100,  -0.00058,   0.00000,   2.00000
499366194.90049,435351241.27037,-42640610.54423,   0.00307,   0.00201,  -0.00114,480059040.00000,   0.00161,276389952.00000,   0.00165,   0.00101,  -0.00059,  32.00000,   2.00000
499178045.94907,435552103.40800,-42806788.65064,   0.00308,   0.00202,  -0.00115,480071936.00000,   0.00162,276402080.00000,   0.00166,   0.00101,  -0.00059,  96.00000,   2.00000
498981630.83967,435761547.67999,-42976621.84477,   0.00309,   0.00203,  -0.00116,480084064.00000,   0.00164,276414208.00000,   0.00167,   0.00102,  -0.00060,  64.00000,   2.00000
498791181.90747,435960512.04178,-43146048.44492,   0.00310,   0.00204,  -0.00116,480084992.00000,   0.00165,276426272.00000,   0.00168,   0.00103,  -0.00060,-128.00000,   2.00000
498594333.96540,436169714.51323,-43314078.72185,   0.00311,   0.00205,  -0.00117,480095424.00000,   0.00166,276438336.00000,   0.00169,   0.00104,  -0.00061, 128.00000,   2.00000
498393431.66148,436379407.31579,-43487051.97636,   0.00312,   0.00206,  -0.00118,480095904.00000,   0.00167,276450368.00000,   0.00170,   0.00104,  -0.00061,   0.00000,   2.00000
498189755.02556,436594520.45808,-43657074.08804,   0.00313,   0.00207,  -0.00119,480120448.00000,   0.00168,276462464.00000,   0.00171,   0.00105,  -0.00062, -32.00000,   2.00000
497990547.08399,436797956.75271,-43831855.19014,   0.00314,   0.00207,  -0.00119,480122784.00000,   0.00169,276474496.00000,   0.00172,   0.00106,  -0.00062,  32.00000,   2.00000
497780749.13955,437015964.45697,-44006762.40801,   0.00315,   0.00208,  -0.00120,480119264.00000,   0.00170,276486464.00000,   0.00174,   0.00107,  -0.00063,  64.00000,   2.00000
497576188.95566,437226772.04192,-44178473.61136,   0.00316,   0.00209,  -0.00121,480146112.00000,   0.00171,276498496.00000,   0.00175,   0.00107,  -0.00063,  96.00000,   2.00000
497363839.67793,437442997.01524,-44356774.19257,   0.00317,   0.00210,  -0.00122,480132064.00000,   0.00173,276510432.00000,   0.00176,   0.00108,  -0.00064,   0.00000,   2.00000
497153099.82992,437656930.03382,-44533459.26562,   0.00318,   0.00211,  -0.00122,480144544.00000,   0.00174,276522400.00000,   0.00177,   0.00109,  -0.00065, -32.00000,   2.00000
496942098.92838,437867089.26903,-44713613.30727,   0.00319,   0.00212,  -0.00123,480158560.00000,   0.00175,276534336.00000,   0.00178,   0.00110,  -0.00065,   0.00000,   2.00000
496724023.97888,438087275.22669,-44892384.29262,   0.00320,   0.00213,  -0.00124,480168992.00000,   0.00176,276546272.00000,   0.00179,   0.00110,  -0.00066,  32.00000,   2.00000
496507875.83502,438302047.07553,-45072499.53192,   0.00321,   0.00214,  -0.00125,480155200.00000,   0.00177,276558144.00000,   0.00180,   0.00111,  -0.00066, -96.00000,   2.00000
496286986.03408,438521090.67733,-45254801.26376,   0.00321,   0.00215,  -0.00125,480180928.00000,   0.00178,276570016.00000,   0.00181,   0.00112,  -0.00067,  32.00000,   2.00000
496063327.73261,438742544.66241,-45437134.46646,   0.00322,   0.00215,  -0.00126,480179136.00000,   0.00179,276581888.00000,   0.00182,   0.00113,  -0.00067, -32.00000,   2.00000
495836938.05900,438966540.12918,-45619546.22656,   0.00323,   0.00216,  -0.00127,480177184.00000,   0.00180,276593696.00000,   0.00183,   0.00113,  -0.00068,  32.00000,   2.00000
495605508.49437,439194731.78136,-45804167.58578,   0.00324,   0.00217,  -0.00128,480202624.00000,   0.00181,276605536.00000,   0.00184,   0.00114,  -0.00068,-128.00000,   2.00000
495378551.09956,439412202.15789,-45993778.37858,   0.00325,   0.00218,  -0.00129,480203904.00000,   0.00183,276617376.00000,   0.00185,   0.00115,  -0.00069, 128.00000,   2.00000
495141403.40724,439645628.66510,-46178573.40164,   0.00326,   0.00219,  -0.00129,480198336.00000,   0.00184,276629120.00000,   0.00187,   0.00116,  -0.00069,  32.00000,   2.00000
494907130.86718,439866973.32368,-46373448.97264,   0.00327,   0.00220,  -0.00130,480201024.00000,   0.00185,276640864.00000,   0.00188,   0.00116,  -0.00070, -64.00000,   2.00000
494667092.19205,440100010.18969,-46561900.39574,   0.00328,   0.00221,  -0.00131,480209280.00000,   0.00186,276652576.00000,   0.00189,   0.00117,  -0.00070,  32.00000,   2.00000
494426779.38100,440329709.86188,-46753883.87530,   0.00329,   0.00222,  -0.00132,480222528.00000,   0.00187,276664320.00000,   0.00190,   0.00118,  -0.00071,  64.00000,   2.00000
494183654.10603,440561917.39481,-46945882.00515,   0.00330,   0.00223,  -0.00132,480220384.00000,   0.00188,276676000.00000,   0.00191,   0.00118,  -0.00071,  64.00000,   2.00000
493936333.36190,440795326.95561,-47142956.49924,   0.00331,   0.00223,  -0.00133,480219776.00000,   0.00189,276687616.00000,   0.00192,   0.00119,  -0.00072,  96.00000,   2.00000
493690605.22401,441026718.02973,-47338338.98335,   0.00331,   0.00224,  -0.00134,480231488.00000,   0.00190,276699264.00000,   0.00193,   0.00120,  -0.00073,  96.00000,   2.00000
493442163.50886,441260406.65536,-47533618.35649,   0.00332,   0.00225,  -0.00135,480229600.00000,   0.00191,276710880.00000,   0.00194,   0.00121,  -0.00073,  64.00000,   2.00000
493185073.84427,441502581.81529,-47732413.56357,   0.00333,   0.00226,  -0.00136,480241344.00000,   0.00192,276722464.00000,   0.00195,   0.00121,  -0.00074,  32.00000,   2.00000
492930102.61949,441739452.17010,-47932482.35936,   0.00334,   0.00227,  -0.00137,480227360.00000,   0.00194,276733984.00000,   0.00196,   0.00122,  -0.00074,  64.00000,   2.00000
492672192.20151,441981324.57422,-48129225.55580,   0.00335,   0.00228,  -0.00137,480251616.00000,   0.00195,276745536.00000,   0.00197,   0.00123,  -0.00075, -64.00000,   2.00000
492414892.59404,442216447.60175,-48332297.79144,   0.00336,   0.00229,  -0.00138,480239328.00000,   0.00196,276756992.00000,   0.00198,   0.00124,  -0.00075, -32.00000,   2.00000
492154799.62377,442456507.22566,-48531966.36526,   0.00337,   0.00230,  -0.00139,480263712.00000,   0.00197,276768512.00000,   0.00199,   0.00124,  -0.00076,  96.00000,   2.00000
491887891.73597,442702941.57948,-48733043.88434,   0.00338,   0.00231,  -0.00140,480248512.00000,   0.00198,276779936.00000,   0.00200,   0.00125,  -0.00076,  64.00000,   2.00000
491621246.90950,442945267.20806,-48937234.55112,   0.00338,   0.00232,  -0.00141,480262368.00000,   0.00199,276791360.00000,   0.00201,   0.00126,  -0.00077, 128.00000,   2.00000
491356728.31643,443182037.12377,-49142632.89921,   0.00339,   0.00232,  -0.00141,480248672.00000,   0.00200,276802720.00000,   0.00202,   0.00127,  -0.00077,  32.00000,   2.00000
491087655.65204,443421909.08543,-49349579.49687,   0.00340,   0.00233,  -0.00142,480275008.00000,   0.00201,276814112.00000,   0.00203,   0.00127,  -0.00078, -64.00000,   2.00000
490816204.34214,443663670.86538,-49556240.37333,   0.00341,   0.00234,  -0.00143,480273504.00000,   0.00202,276825472.00000,   0.00204,   0.00128,  -0.00079, -32.00000,   2.00000
490537784.11092,443911643.19146,-49764316.19467,   0.00342,   0.00235,  -0.00144,480258272.00000,   0.00203,276836736.00000,   0.00205,   0.00129,  -0.00079, -32.00000,   2.00000
490265707.58031,444152330.73081,-49968709.70545,   0.00343,   0.00236,  -0.00145,480284352.00000,   0.00204,276848032.00000,   0.00206,   0.00130,  -0.00080, -32.00000,   2.00000
489984829.03465,444397691.66782,-50179618.12450,   0.00343,   0.00237,  -0.00146,480270880.00000,   0.00205,276859264.00000,   0.00207,   0.00130,  -0.00080,  32.00000,   2.00000
489705908.85915,444640324.92587,-50388558.49331,   0.00344,   0.00238,  -0.00146,480283104.00000,   0.00206,276870496.00000,   0.00208,   0.00131,  -0.00081, -64.00000,   2.00000
489422632.72573,444883145.72979,-50602309.60845,   0.00345,   0.00239,  -0.00147,480283264.00000,   0.00207,276881696.00000,   0.00209,   0.00132,  -0.00081,  32.00000,   2.00000
489138317.97271,445129126.51721,-50810772.69560,   0.00346,   0.00240,  -0.00148,480280064.00000,   0.00208,276892832.00000,   0.00210,   0.00133,  -0.00082,  64.00000,   2.00000
488849685.43531,445375352.69378,-51024107.81360,   0.00347,   0.00241,  -0.00149,480280128.00000,   0.00209,276903936.00000,   0.00211,   0.00133,  -0.00083,   0.00000,   2.00000
488556740.31815,445624599.53183,-51238983.19252,   0.00347,   0.00241,  -0.00150,480306112.00000,   0.00211,276915104.00000,   0.00212,   0.00134,  -0.00083,  64.00000,   2.00000
488260931.60667,445872638.52542,-51456975.27543,   0.00348,   0.00242,  -0.00151,480278752.00000,   0.00212,276926144.00000,   0.00213,   0.00135,  -0.00084,   0.00000,   2.00000
487966989.65783,446117900.75957,-51673030.82082,   0.00349,   0.00243,  -0.00151,480290624.00000,   0.00213,276937152.00000,   0.00214,   0.00135,  -0.00084, -64.00000,   2.00000
487670279.09604,446364910.91112,-51888940.35196,   0.00350,   0.00244,  -0.00152,480288800.00000,   0.00214,276948160.00000,   0.00215,   0.00136,  -0.00085, -32.00000,   2.00000
487373807.84520,446607730.45149,-52108002.01510,   0.00350,   0.00245,  -0.00153,480302464.00000,   0.00215,276959136.00000,   0.00216,   0.00137,  -0.00085, 128.00000,   2.00000
487071441.42657,446858244.66268,-52323658.51726,   0.00351,   0.00246,  -0.00154,480285504.00000,   0.00216,276970048.00000,   0.00217,   0.00138,  -0.00086, 128.00000,   2.00000
486767395.24378,447102822.57815,-52547499.01183,   0.00352,   0.00247,  -0.00155,480300672.00000,   0.00217,276980960.00000,   0.00218,   0.00138,  -0.00086,  64.00000,   2.00000
486462277.21734,447350785.49539,-52766189.31871,   0.00353,   0.00248,  -0.00156,480297088.00000,   0.00218,276991840.00000,   0.00219,   0.00139,  -0.00087, 128.00000,   2.00000
486157024.21159,447591753.16979,-52991453.74661,   0.00353,   0.00249,  -0.00157,480284704.00000,   0.00219,277002624.00000,   0.00220,   0.00140,  -0.00088, -64.00000,   2.00000
485844234.41963,447841612.65597,-53214975.37406,   0.00354,   0.00250,  -0.00157,480295136.00000,   0.00220,277013408.00000,   0.00220,   0.00141,  -0.00088,-128.00000,   2.00000
485528724.69969,448093394.28100,-53438450.40058,   0.00355,   0.00250,  -0.00158,480293024.00000,   0.00221,277024160.00000,   0.00221,   0.00141,  -0.00089,  64.00000,   2.00000
485213077.40226,448340624.98941,-53665047.34825,   0.00356,   0.00251,  -0.00159,480306560.00000,   0.00222,277034912.00000,   0.00222,   0.00142,  -0.00089,  32.00000,   2.00000
484894260.70861,448587093.36146,-53895059.21482,   0.00356,   0.00252,  -0.00160,480278592.00000,   0.00223,277045568.00000,   0.00223,   0.00143,  -0.00090, -32.00000,   2.00000
484572726.01398,448837922.69174,-54121514.45708,   0.00357,   0.00253,  -0.00161,480302400.00000,   0.00224,277056224.00000,   0.00224,   0.00143,  -0.00090,  96.00000,   2.00000
484246506.52625,449088960.56262,-54352958.50554,   0.00358,   0.00254,  -0.00162,480302208.00000,   0.00225,277066880.00000,   0.00225,   0.00144,  -0.00091,  32.00000,   2.00000
483923408.05422,449336173.96158,-54580992.66023,   0.00358,   0.00255,  -0.00163,480286208.00000,   0.00226,277077408.00000,   0.00226,   0.00145,  -0.00092,   0.00000,   2.00000
483595611.71563,449583693.94184,-54814049.27498,   0.00359,   0.00256,  -0.00163,480285824.00000,   0.00227,277087936.00000,   0.00227,   0.00146,  -0.00092, 160.00000,   2.00000
483259984.63856,449839791.89078,-55045344.37821,   0.00360,   0.00257,  -0.00164,480296288.00000,   0.00228,277098432.00000,   0.00228,   0.00146,  -0.00093,   0.00000,   2.00000
482923960.75395,450088899.29166,-55283331.54969,   0.00361,   0.00258,  -0.00165,480283520.00000,   0.00229,277108864.00000,   0.00229,   0.00147,  -0.00093, -96.00000,   2.00000
482589890.09595,450335392.95895,-55519433.71832,   0.00361,   0.00259,  -0.00166,480294752.00000,   0.00230,277119328.00000,   0.00229,   0.00148,  -0.00094, -32.00000,   2.00000
482247615.12107,450588071.22672,-55757370.49473,   0.00362,   0.00259,  -0.00167,480279168.00000,   0.00231,277129664.00000,   0.00230,   0.00148,  -0.00094, -64.00000,   2.00000
481907348.64177,450838146.59740,-55993447.62268,   0.00363,   0.00260,  -0.00168,480290400.00000,   0.00232,277140032.00000,   0.00231,   0.00149,  -0.00095,  32.00000,   2.00000
481558757.75820,451094334.08549,-56231395.11006,   0.00363,   0.00261,  -0.00169,480274912.00000,   0.00233,277150304.00000,   0.00232,   0.00150,  -0.00096,   0.00000,   2.00000
481214644.70748,451339086.94900,-56474211.91882,   0.00364,   0.00262,  -0.00170,480275520.00000,   0.00234,277160544.00000,   0.00233,   0.00151,  -0.00096,  64.00000,   2.00000
480862685.09836,451592438.51689,-56715256.43996,   0.00365,   0.00263,  -0.00171,480285728.00000,   0.00235,277170784.00000,   0.00234,   0.00151,  -0.00097, -32.00000,   2.00000
480512271.04650,451840867.67617,-56958116.73072,   0.00365,   0.00264,  -0.00171,480271008.00000,   0.00236,277180960.00000,   0.00235,   0.00152,  -0.00097,  96.00000,   2.00000
480158258.97217,452090758.91781,-57200955.72519,   0.00366,   0.00265,  -0.00172,480268864.00000,   0.00237,277191072.00000,   0.00235,   0.00153,  -0.00098,  32.00000,   2.00000
479799140.55633,452340708.68598,-57448828.52813,   0.00366,   0.00266,  -0.00173,480268416.00000,   0.00238,277201152.00000,   0.00236,   0.00153,  -0.00098,  32.00000,   2.00000
479436740.76386,452592410.65761,-57696719.93414,   0.00367,   0.00267,  -0.00174,480266048.00000,   0.00238,277211200.00000,   0.00237,   0.00154,  -0.00099, 160.00000,   2.00000
479070937.85454,452845749.16512,-57944629.33416,   0.00368,   0.00267,  -0.00175,480263904.00000,   0.00239,277221216.00000,   0.00238,   0.00155,  -0.00100,  96.00000,   2.00000
478701668.73255,453100662.61000,-58192565.79343,   0.00368,   0.00268,  -0.00176,480261504.00000,   0.00240,277231168.00000,   0.00239,   0.00156,  -0.00100, -32.00000,   2.00000
478333681.06748,453350609.67272,-58442395.84930,   0.00369,   0.00269,  -0.00177,480246496.00000,   0.00241,277241056.00000,   0.00240,   0.00156,  -0.00101,  64.00000,   2.00000
477961015.18816,453602675.98444,-58693492.86795,   0.00369,   0.00270,  -0.00178,480272064.00000,   0.00242,277251008.00000,   0.00240,   0.00157,  -0.00101,  64.00000,   2.00000
477585959.21491,453855826.86277,-58943430.28089,   0.00370,   0.00271,  -0.00179,480241984.00000,   0.00243,277260800.00000,   0.00241,   0.00158,  -0.00102, -64.00000,   2.00000
477205560.52061,454108877.11120,-59198437.52110,   0.00371,   0.00272,  -0.00179,480241376.00000,   0.00244,277270592.00000,   0.00242,   0.00158,  -0.00102, -96.00000,   2.00000
476825160.53846,454357382.84351,-59456539.92402,   0.00371,   0.00273,  -0.00180,480254272.00000,   0.00245,277280352.00000,   0.00243,   0.00159,  -0.00103,  96.00000,   2.00000
476442157.20797,454606993.85373,-59713521.95578,   0.00372,   0.00274,  -0.00181,480224032.00000,   0.00246,277290016.00000,   0.00244,   0.00160,  -0.00104, 192.00000,   2.00000
476051061.56871,454864892.52254,-59968726.22032,   0.00372,   0.00275,  -0.00182,480234144.00000,   0.00247,277299680.00000,   0.00244,   0.00160,  -0.00104, -96.00000,   2.00000
475664396.39534,455111463.00172,-60228910.69214,   0.00373,   0.00275,  -0.00183,480234240.00000,   0.00248,277309280.00000,   0.00245,   0.00161,  -0.00105,-128.00000,   2.00000
475268688.07415,455364131.10628,-60491159.83123,   0.00373,   0.00276,  -0.00184,480218496.00000,   0.00249,277318848.00000,   0.00246,   0.00162,  -0.00105, -64.00000,   2.00000
474869402.48286,455618433.91331,-60753513.49651,   0.00374,   0.00277,  -0.00185,480216000.00000,   0.00250,277328352.00000,   0.00247,   0.00162,  -0.00106,  64.00000,   2.00000
474471911.01360,455869826.77530,-61013982.79100,   0.00374,   0.00278,  -0.00186,480226848.00000,   0.00250,277337856.00000,   0.00247,   0.00163,  -0.00106,  64.00000,   2.00000
474067676.25267,456118716.56487,-61283428.79736,   0.00375,   0.00279,  -0.00187,480200576.00000,   0.00251,277347232.00000,   0.00248,   0.00164,  -0.00107,  96.00000,   2.00000
473661479.57635,456370869.40505,-61547986.78291,   0.00376,   0.00280,  -0.00188,480196000.00000,   0.00252,277356576.00000,   0.00249,   0.00164,  -0.00108,  32.00000,   2.00000
473255377.85696,456618505.82178,-61815672.17146,   0.00376,   0.00281,  -0.00189,480208384.00000,   0.00253,277365952.00000,   0.00250,   0.00165,  -0.00108,  32.00000,   2.00000
472839856.66040,456872074.09140,-62085490.70220,   0.00377,   0.00281,  -0.00189,480192768.00000,   0.00254,277375232.00000,   0.00250,   0.00166,  -0.00109, 128.00000,   2.00000
472426848.72299,457122400.10278,-62352424.41917,   0.00377,   0.00282,  -0.00190,480175488.00000,   0.00255,277384416.00000,   0.00251,   0.00166,  -0.00109, -64.00000,   2.00000
472001678.24577,457377033.11234,-62627487.81072,   0.00378,   0.00283,  -0.00191,480189504.00000,   0.00256,277393632.00000,   0.00252,   0.00167,  -0.00110,  96.00000,   2.00000
471584730.75964,457624087.40303,-62897662.03676,   0.00378,   0.00284,  -0.00192,480185376.00000,   0.00257,277402784.00000,   0.00253,   0.00168,  -0.00110,  64.00000,   2.00000
471162456.47883,457870437.00958,-63171991.59125,   0.00378,   0.00285,  -0.00193,480157024.00000,   0.00257,277411840.00000,   0.00253,   0.00168,  -0.00111, -64.00000,   2.00000
470731978.80960,458124912.31036,-63444547.61456,   0.00379,   0.00286,  -0.00194,480166784.00000,   0.00258,277420864.00000,   0.00254,   0.00169,  -0.00112,  96.00000,   2.00000
470299931.42896,458372369.97553,-63724212.98995,   0.00379,   0.00287,  -0.00195,480153472.00000,   0.00259,277429856.00000,   0.00255,   0.00170,  -0.00112, 160.00000,   2.00000
469863763.81085,458621149.04471,-64004022.54063,   0.00380,   0.00287,  -0.00196,480150816.00000,   0.00260,277438784.00000,   0.00256,   0.00170,  -0.00113,  32.00000,   2.00000
469425718.66946,458873416.23516,-64279102.51909,   0.00380,   0.00288,  -0.00197,480145824.00000,   0.00261,277447680.00000,   0.00256,   0.00171,  -0.00113, -32.00000,   2.00000
468985919.01125,459118609.00629,-64561332.81564,   0.00381,   0.00289,  -0.00198,480132416.00000,   0.00262,277456512.00000,   0.00257,   0.00172,  -0.00114,  32.00000,   2.00000
468531844.50938,459376039.02394,-64843819.89223,   0.00381,   0.00290,  -0.00199,480129248.00000,   0.00263,277465280.00000,   0.00258,   0.00172,  -0.00114,   0.00000,   2.00000
468083976.90756,459624003.45345,-65126471.24632,   0.00382,   0.00291,  -0.00200,480126752.00000,   0.00263,277474016.00000,   0.00258,   0.00173,  -0.00115,  64.00000,   2.00000
467634245.72493,459864907.98047,-65416290.84975,   0.00382,   0.00292,  -0.00200,480113440.00000,   0.00264,277482688.00000,   0.00259,   0.00174,  -0.00115,  96.00000,   2.00000
467171950.99103,460119796.18636,-65701404.33769,   0.00382,   0.00293,  -0.00201,480108160.00000,   0.00265,277491328.00000,   0.00260,   0.00174,  -0.00116,  32.00000,   2.00000
466715903.26590,460365314.50111,-65986732.19473,   0.00383,   0.00293,  -0.00202,480105344.00000,   0.00266,277499936.00000,   0.00260,   0.00175,  -0.00117, -64.00000,   2.00000
466251878.03287,460608146.62148,-66281378.21792,   0.00383,   0.00294,  -0.00203,480078880.00000,   0.00267,277508416.00000,   0.00261,   0.00176,  -0.00117,  32.00000,   2.00000
465787383.22065,460856287.78088,-66567148.16310,   0.00384,   0.00295,  -0.00204,480099520.00000,   0.00267,277516928.00000,   0.00262,   0.00176,  -0.00118,  64.00000,   2.00000
465314683.02749,461101573.88186,-66862263.55769,   0.00384,   0.00296,  -0.00205,480072928.00000,   0.00268,277525344.00000,   0.00262,   0.00177,  -0.00118, -32.00000,   2.00000
464839748.88817,461350154.58485,-67152702.82965,   0.00384,   0.00297,  -0.00206,480067776.00000,   0.00269,277533696.00000,   0.00263,   0.00177,  -0.00119,  32.00000,   2.00000
464362686.94408,461591601.98081,-67450412.94759,   0.00385,   0.00298,  -0.00207,480054016.00000,   0.00270,277542016.00000,   0.00263,   0.00178,  -0.00119,-128.00000,   2.00000
463881240.70119,461834280.61733,-67748359.77576,   0.00385,   0.00298,  -0.00208,480050816.00000,   0.00271,277550272.00000,   0.00264,   0.00179,  -0.00120,  96.00000,   2.00000
463397493.00856,462080256.31044,-68041656.90746,   0.00385,   0.00299,  -0.00209,480045632.00000,   0.00271,277558496.00000,   0.00265,   0.00179,  -0.00120, 192.00000,   2.00000
462900764.13897,462329383.33927,-68342228.26872,   0.00386,   0.00300,  -0.00210,480032032.00000,   0.00272,277566624.00000,   0.00265,   0.00180,  -0.00121,  64.00000,   2.00000
462410265.70001,462569246.76558,-68643070.58835,   0.00386,   0.00301,  -0.00211,480028896.00000,   0.00273,277574752.00000,   0.00266,   0.00181,  -0.00121,  96.00000,   2.00000
461908794.81182,462814402.09832,-68946284.96243,   0.00386,   0.00302,  -0.00212,480012928.00000,   0.00274,277582784.00000,   0.00267,   0.00181,  -0.00122, 160.00000,   2.00000
461413331.93001,463050148.10265,-69249747.58135,   0.00387,   0.00302,  -0.00213,480009632.00000,   0.00274,277590784.00000,   0.00267,   0.00182,  -0.00122,  64.00000,   2.00000
460906939.20811,463291364.81372,-69555627.92654,   0.00387,   0.00303,  -0.00213,479993568.00000,   0.00275,277598720.00000,   0.00268,   0.00182,  -0.00123,  64.00000,   2.00000
460395759.67390,463533487.15852,-69861723.87514,   0.00387,   0.00304,  -0.00214,479990464.00000,   0.00276,277606592.00000,   0.00268,   0.00183,  -0.00124,  32.00000,   2.00000
459880012.72778,463776732.74649,-70168078.09909,   0.00388,   0.00305,  -0.00215,479987136.00000,   0.00277,277614464.00000,   0.00269,   0.00184,  -0.00124,  32.00000,   2.00000
459363579.15880,464014691.39186,-70476838.71415,   0.00388,   0.00306,  -0.00216,479971040.00000,   0.00277,277622240.00000,   0.00269,   0.00184,  -0.00125, -64.00000,   2.00000
458842590.98778,464253895.28745,-70785869.60972,   0.00388,   0.00307,  -0.00217,479967488.00000,   0.00278,277629984.00000,   0.00270,   0.00185,  -0.00125,  64.00000,   2.00000
458314230.06840,464492083.62873,-71099500.97244,   0.00389,   0.00307,  -0.00218,479938880.00000,   0.00279,277637600.00000,   0.00271,   0.00185,  -0.00126,  64.00000,   2.00000
457787689.17527,464727152.38686,-71411173.00779,   0.00389,   0.00308,  -0.00219,479947872.00000,   0.00280,277645248.00000,   0.00271,   0.00186,  -0.00126,  32.00000,   2.00000
457253673.51436,464961346.47182,-71727483.66651,   0.00389,   0.00309,  -0.00220,479919040.00000,   0.00280,277652768.00000,   0.00272,   0.00187,  -0.00127, -32.00000,   2.00000
456710529.02507,465202588.68200,-72041733.58877,   0.00389,   0.00310,  -0.00221,479928512.00000,   0.00281,277660288.00000,   0.00272,   0.00187,  -0.00127,   0.00000,   2.00000
456170685.99137,465432839.56596,-72360715.18149,   0.00390,   0.00311,  -0.00222,479899264.00000,   0.00282,277667680.00000,   0.00273,   0.00188,  -0.00128, -32.00000,   2.00000
455621534.01048,465670075.23373,-72677581.76757,   0.00390,   0.00311,  -0.00223,479908704.00000,   0.00282,277675104.00000,   0.00273,   0.00188,  -0.00128,  32.00000,   2.00000
455071413.96714,465902425.89621,-72996918.37196,   0.00390,   0.00312,  -0.00224,479892384.00000,   0.00283,277682464.00000,   0.00274,   0.00189,  -0.00129,   0.00000,   2.00000
454509250.79855,466140027.93359,-73318638.12593,   0.00390,   0.00313,  -0.00225,479876320.00000,   0.00284,277689728.00000,   0.00274,   0.00189,  -0.00129,  32.00000,   2.00000
453948097.75928,466375060.74544,-73637975.53568,   0.00390,   0.00314,  -0.00226,479857472.00000,   0.00285,277696896.00000,   0.00275,   0.00190,  -0.00130,   0.00000,   2.00000
453386322.69812,466604855.89516,-73960088.12184,   0.00391,   0.00314,  -0.00226,479868928.00000,   0.00285,277704128.00000,   0.00275,   0.00191,  -0.00130, -32.00000,   2.00000
452816120.71326,466833950.92023,-74286893.40128,   0.00391,   0.00315,  -0.00227,479839936.00000,   0.00286,277711200.00000,   0.00276,   0.00191,  -0.00131,  32.00000,   2.00000
452240423.35898,467064339.44031,-74613827.56928,   0.00391,   0.00316,  -0.00228,479836320.00000,   0.00287,277718240.00000,   0.00276,   0.00192,  -0.00131,  32.00000,   2.00000
451654434.70971,467302580.75209,-74938330.36215,   0.00391,   0.00317,  -0.00229,479817952.00000,   0.00287,277725216.00000,   0.00277,   0.00192,  -0.00132,  96.00000,   2.00000
451071597.34292,467529801.13020,-75267902.04178,   0.00391,   0.00317,  -0.00230,479816160.00000,   0.00288,277732192.00000,   0.00277,   0.00193,  -0.00132,   0.00000,   2.00000
450475872.80538,467762514.02091,-75599859.58305,   0.00391,   0.00318,  -0.00231,479800320.00000,   0.00289,277739040.00000,   0.00278,   0.00193,  -0.00133,   0.00000,   2.00000
449880626.04214,467993297.93843,-75929539.15002,   0.00392,   0.00319,  -0.00232,479781312.00000,   0.00289,277745856.00000,   0.00278,   0.00194,  -0.00133,  64.00000,   2.00000
449279229.71958,468225433.77326,-76259336.88187,   0.00392,   0.00320,  -0.00233,479777568.00000,   0.00290,277752608.00000,   0.00279,   0.00194,  -0.00134, -64.00000,   2.00000
448673841.43304,468451270.35926,-76596604.74052,   0.00392,   0.00321,  -0.00234,479763296.00000,   0.00290,277759296.00000,   0.00279,   0.00195,  -0.00134,  96.00000,   2.00000
448064453.46655,468681041.68386,-76929203.55975,   0.00392,   0.00321,  -0.00235,479757248.00000,   0.00291,277765952.00000,   0.00280,   0.00195,  -0.00135, 128.00000,   2.00000
447441540.25168,468916476.25538,-77264309.45971,   0.00392,   0.00322,  -0.00236,479741216.00000,   0.00292,277772544.00000,   0.00280,   0.00196,  -0.00135, -64.00000,   2.00000
446816415.79663,469147932.63780,-77602136.20997,   0.00392,   0.00323,  -0.00237,479724448.00000,   0.00292,277779040.00000,   0.00280,   0.00196,  -0.00136,  32.00000,   2.00000
446184950.75369,469381141.61819,-77940226.56526,   0.00392,   0.00324,  -0.00238,479720800.00000,   0.00293,277785504.00000,   0.00281,   0.00197,  -0.00136,  96.00000,   2.00000
445550943.13371,469610233.16640,-78281089.11194,   0.00392,   0.00324,  -0.00238,479703968.00000,   0.00294,277791904.00000,   0.00281,   0.00197,  -0.00137,  64.00000,   2.00000
444910464.11911,469841057.13085,-78622279.65281,   0.00393,   0.00325,  -0.00239,479700256.00000,   0.00294,277798272.00000,   0.00282,   0.00198,  -0.00137,  96.00000,   2.00000
444262188.62049,470074165.95454,-78963910.65904,   0.00393,   0.00326,  -0.00240,479668480.00000,   0.00295,277804544.00000,   0.00282,   0.00198,  -0.00138,   0.00000,   2.00000
443612610.55825,470302596.71955,-79308400.08145,   0.00393,   0.00326,  -0.00241,479679328.00000,   0.00295,277810784.00000,   0.00283,   0.00199,  -0.00138, -32.00000,   2.00000
442955068.31561,470533178.49927,-79653440.40216,   0.00393,   0.00327,  -0.00242,479647552.00000,   0.00296,277816928.00000,   0.00283,   0.00199,  -0.00139, -64.00000,   2.00000
442283389.29094,470769151.78201,-80001336.54512,   0.00393,   0.00328,  -0.00243,479631552.00000,   0.00297,277823008.00000,   0.00283,   0.00200,  -0.00139, -96.00000,   2.00000
441614063.25045,470994215.59599,-80354663.90686,   0.00393,   0.00329,  -0.00244,479629248.00000,   0.00297,277829024.00000,   0.00284,   0.00200,  -0.00140,   0.00000,   2.00000
440942857.68808,471225729.23540,-80699000.56659,   0.00393,   0.00329,  -0.00245,479620032.00000,   0.00298,277835040.00000,   0.00284,   0.00201,  -0.00140,  32.00000,   2.00000
440254923.37719,471459598.07420,-81051026.70814,   0.00393,   0.00330,  -0.00246,479606688.00000,   0.00298,277840960.00000,   0.00285,   0.00201,  -0.00140,   0.00000,   2.00000
439563954.46060,471688573.14073,-81406165.20889,   0.00393,   0.00331,  -0.00247,479589632.00000,   0.00299,277846816.00000,   0.00285,   0.00202,  -0.00141,  32.00000,   2.00000
438870066.01509,471912761.86704,-81764472.03787,   0.00393,   0.00331,  -0.00248,479572544.00000,   0.00299,277852608.00000,   0.00285,   0.00202,  -0.00141,  32.00000,   2.00000
438163895.89038,472143996.69230,-82120967.51005,   0.00393,   0.00332,  -0.00249,479553824.00000,   0.00300,277858304.00000,   0.00286,   0.00203,  -0.00142, -96.00000,   2.00000
437462547.36594,472366528.31875,-82478269.37955,   0.00393,   0.00333,  -0.00249,479548608.00000,   0.00300,277863968.00000,   0.00286,   0.00203,  -0.00142,  64.00000,   2.00000
436746381.00669,472593319.07602,-82838521.85801,   0.00393,   0.00334,  -0.00250,479532800.00000,   0.00301,277869568.00000,   0.00286,   0.00204,  -0.00143,  64.00000,   2.00000
436023181.68994,472820483.62654,-83199291.76373,   0.00393,   0.00334,  -0.00251,479528800.00000,   0.00301,277875136.00000,   0.00287,   0.00204,  -0.00143,   0.00000,   2.00000
435296838.45702,473042608.31141,-83563305.84338,   0.00393,   0.00335,  -0.00252,479511616.00000,   0.00302,277880640.00000,   0.00287,   0.00205,  -0.00144,  96.00000,   2.00000
434561308.06473,473265670.67364,-83928210.55077,   0.00393,   0.00336,  -0.00253,479480032.00000,   0.00303,277886016.00000,   0.00287,   0.00205,  -0.00144, -96.00000,   2.00000
433824477.26848,473483032.57063,-84295984.44421,   0.00393,   0.00336,  -0.00254,479490560.00000,   0.00303,277891424.00000,   0.00288,   0.00205,  -0.00144,  32.00000,   2.00000
433074658.88092,473707030.54508,-84661993.27889,   0.00393,   0.00337,  -0.00255,479472256.00000,   0.00304,277896768.00000,   0.00288,   0.00206,  -0.00145,  96.00000,   2.00000
432321004.85919,473925656.44418,-85031237.75875,   0.00393,   0.00338,  -0.00256,479455168.00000,   0.00304,277902016.00000,   0.00288,   0.00206,  -0.00145,  32.00000,   2.00000
431555496.93142,474142887.44826,-85406256.32605,   0.00393,   0.00338,  -0.00257,479426176.00000,   0.00305,277907136.00000,   0.00289,   0.00207,  -0.00146,  32.00000,   2.00000
430793028.75534,474359550.72576,-85774648.07914,   0.00393,   0.00339,  -0.00258,479431264.00000,   0.00305,277912288.00000,   0.00289,   0.00207,  -0.00146, -64.00000,   2.00000
430018401.00111,474574855.01578,-86148887.58108,   0.00392,   0.00340,  -0.00258,479402304.00000,   0.00306,277917312.00000,   0.00289,   0.00208,  -0.00146, -32.00000,   2.00000
429233584.51448,474787795.32509,-86528376.42567,   0.00392,   0.00340,  -0.00259,479401280.00000,   0.00306,277922336.00000,   0.00290,   0.00208,  -0.00147, 128.00000,   2.00000
428449289.86681,475001085.54602,-86901857.44516,   0.00392,   0.00341,  -0.00260,479378560.00000,   0.00306,277927264.00000,   0.00290,   0.00208,  -0.00147,  32.00000,   2.00000
427654743.55450,475212164.50001,-87280647.77910,   0.00392,   0.00342,  -0.00261,479377376.00000,   0.00307,277932160.00000,   0.00290,   0.00209,  -0.00148,  32.00000,   2.00000
426847305.86267,475421757.74221,-87665370.78737,   0.00392,   0.00342,  -0.00262,479348512.00000,   0.00307,277936960.00000,   0.00291,   0.00209,  -0.00148, -64.00000,   2.00000
426034225.90226,475634577.15316,-88046039.77859,   0.00392,   0.00343,  -0.00263,479341696.00000,   0.00308,277941696.00000,   0.00291,   0.00210,  -0.00148,  32.00000,   2.00000
425216610.99956,475842556.97769,-88430250.39489,   0.00392,   0.00344,  -0.00264,479324384.00000,   0.00308,277946400.00000,   0.00291,   0.00210,  -0.00149, 128.00000,   2.00000
424393932.82344,476045237.51063,-88817921.18246,   0.00392,   0.00344,  -0.00265,479307296.00000,   0.00309,277951008.00000,   0.00291,   0.00210,  -0.00149, -32.00000,   2.00000
423556924.62883,476254783.66488,-89204155.99826,   0.00391,   0.00345,  -0.00266,479288576.00000,   0.00309,277955520.00000,   0.00292,   0.00211,  -0.00150,   0.00000,   2.00000
422720246.95968,476461392.23416,-89588572.20297,   0.00391,   0.00345,  -0.00266,479296064.00000,   0.00310,277960096.00000,   0.00292,   0.00211,  -0.00150,   0.00000,   2.00000
421869733.01836,476666253.87822,-89979099.99430,   0.00391,   0.00346,  -0.00267,479267232.00000,   0.00310,277964512.00000,   0.00292,   0.00211,  -0.00150,  64.00000,   2.00000
421013900.10766,476865870.97600,-90373213.40963,   0.00391,   0.00347,  -0.00268,479249856.00000,   0.00310,277968896.00000,   0.00292,   0.00212,  -0.00151,   0.00000,   2.00000
420140827.63441,477069309.74729,-90770600.19726,   0.00391,   0.00347,  -0.00269,479234240.00000,   0.00311,277973184.00000,   0.00293,   0.00212,  -0.00151,  64.00000,   2.00000
419273581.73648,477266998.75223,-91164441.41585,   0.00391,   0.00348,  -0.00270,479225440.00000,   0.00311,277977440.00000,   0.00293,   0.00213,  -0.00151, -32.00000,   2.00000
418388684.61084,477468138.93495,-91561534.22222,   0.00390,   0.00349,  -0.00271,479210080.00000,   0.00312,277981632.00000,   0.00293,   0.00213,  -0.00152,   0.00000,   2.00000
417500600.10324,477666753.76359,-91957675.54033,   0.00390,   0.00349,  -0.00272,479189600.00000,   0.00312,277985760.00000,   0.00293,   0.00213,  -0.00152,   0.00000,   2.00000
416595365.91720,477860315.48107,-92364697.43077,   0.00390,   0.00350,  -0.00273,479163744.00000,   0.00312,277989760.00000,   0.00294,   0.00214,  -0.00153, -32.00000,   2.00000
415692506.90046,478053359.62643,-92765209.74434,   0.00390,   0.00350,  -0.00273,479168096.00000,   0.00313,277993792.00000,   0.00294,   0.00214,  -0.00153,   0.00000,   2.00000
414774729.27103,478244104.20496,-93172028.09785,   0.00389,   0.00351,  -0.00274,479139296.00000,   0.00313,277997696.00000,   0.00294,   0.00214,  -0.00153,  96.00000,   2.00000
413850176.78923,478437410.92575,-93574917.47040,   0.00389,   0.00352,  -0.00275,479132224.00000,   0.00314,278001568.00000,   0.00294,   0.00215,  -0.00154,  96.00000,   2.00000
412919454.08002,478624911.15402,-93981545.53169,   0.00389,   0.00352,  -0.00276,479114944.00000,   0.00314,278005376.00000,   0.00294,   0.00215,  -0.00154, 128.00000,   2.00000
411979187.52631,478811683.01758,-94388801.52731,   0.00389,   0.00353,  -0.00277,479111072.00000,   0.00314,278009152.00000,   0.00295,   0.00215,  -0.00154,   0.00000,   2.00000
411023278.51347,478995564.22272,-94802398.95534,   0.00388,   0.00353,  -0.00278,479082496.00000,   0.00315,278012832.00000,   0.00295,   0.00215,  -0.00155,  32.00000,   2.00000
410063425.06840,479176443.78512,-95215210.37338,   0.00388,   0.00354,  -0.00279,479062080.00000,   0.00315,278016416.00000,   0.00295,   0.00216,  -0.00155,   0.00000,   2.00000
409093717.67738,479356245.37225,-95628639.12972,   0.00388,   0.00354,  -0.00279,479058304.00000,   0.00315,278020000.00000,   0.00295,   0.00216,  -0.00155,  64.00000,   2.00000
408116998.88679,479529460.91966,-96045792.53132,   0.00388,   0.00355,  -0.00280,479041088.00000,   0.00316,278023520.00000,   0.00295,   0.00216,  -0.00155, -96.00000,   2.00000
407133150.72631,479704907.50675,-96459117.02908,   0.00387,   0.00356,  -0.00281,479034080.00000,   0.00316,278026976.00000,   0.00296,   0.00217,  -0.00156, -96.00000,   2.00000
406132595.38386,479876660.99435,-96878853.11673,   0.00387,   0.00356,  -0.00282,479005824.00000,   0.00316,278030336.00000,   0.00296,   0.00217,  -0.00156, -32.00000,   2.00000
405127408.30736,480044970.15012,-97297927.03654,   0.00387,   0.00357,  -0.00283,478985504.00000,   0.00317,278033632.00000,   0.00296,   0.00217,  -0.00156,   0.00000,   2.00000
404109295.99489,480208571.82584,-97722178.83257,   0.00386,   0.00357,  -0.00284,478985216.00000,   0.00317,278036928.00000,   0.00296,   0.00217,  -0.00157, -64.00000,   2.00000
403086207.01518,480368507.05417,-98145806.00233,   0.00386,   0.00358,  -0.00285,478964896.00000,   0.00317,278040128.00000,   0.00296,   0.00218,  -0.00157,  96.00000,   2.00000
402045450.03734,480532864.90538,-98568272.03800,   0.00386,   0.00358,  -0.00285,478947104.00000,   0.00318,278043264.00000,   0.00296,   0.00218,  -0.00157,  64.00000,   2.00000
401004068.32183,480684225.15548,-98996584.32353,   0.00385,   0.00359,  -0.00286,478944384.00000,   0.00318,278046368.00000,   0.00297,   0.00218,  -0.00158, -32.00000,   2.00000
399950086.81653,480837977.89501,-99422594.99910,   0.00385,   0.00359,  -0.00287,478909760.00000,   0.00318,278049376.00000,   0.00297,   0.00219,  -0.00158, -64.00000,   2.00000
398882702.93400,480986778.00070,-99853923.44857,   0.00385,   0.00360,  -0.00288,478909536.00000,   0.00318,278052352.00000,   0.00297,   0.00219,  -0.00158,  32.00000,   2.00000
397799669.85051,481134618.27983,-100287549.45079,   0.00384,   0.00360,  -0.00289,478878400.00000,   0.00319,278055232.00000,   0.00297,   0.00219,  -0.00158, 128.00000,   2.00000
396715543.41204,481277856.20154,-100719404.56651,   0.00384,   0.00361,  -0.00290,478885728.00000,   0.00319,278058112.00000,   0.00297,   0.00219,  -0.00159,   0.00000,   2.00000
395615577.00613,481420385.86041,-101153742.48092,   0.00383,   0.00361,  -0.00290,478854272.00000,   0.00319,278060864.00000,   0.00297,   0.00220,  -0.00159,   0.00000,   2.00000
394506899.97439,481556005.31159,-101592380.78754,   0.00383,   0.00362,  -0.00291,478836928.00000,   0.00319,278063584.00000,   0.00297,   0.00220,  -0.00159, -96.00000,   2.00000
393387019.44017,481690143.13228,-102032076.08125,   0.00383,   0.00362,  -0.00292,478833152.00000,   0.00320,278066240.00000,   0.00297,   0.00220,  -0.00159, 128.00000,   2.00000
392260817.09940,481820822.52843,-102471692.79701,   0.00382,   0.00363,  -0.00293,478812448.00000,   0.00320,278068864.00000,   0.00298,   0.00220,  -0.00160, 224.00000,   2.00000
391112528.79433,481952166.77698,-102914908.98463,   0.00382,   0.00363,  -0.00294,478797920.00000,   0.00320,278071392.00000,   0.00298,   0.00220,  -0.00160, -64.00000,   2.00000
389968176.30496,482069474.32787,-103363328.41697,   0.00381,   0.00364,  -0.00294,478777120.00000,   0.00320,278073856.00000,   0.00298,   0.00221,  -0.00160,  64.00000,   2.00000
388801634.26987,482195867.03315,-103807467.42480,   0.00381,   0.00364,  -0.00295,478772768.00000,   0.00321,278076288.00000,   0.00298,   0.00221,  -0.00160, 128.00000,   2.00000
387627906.10710,482310112.91533,-104259260.61376,   0.00380,   0.00365,  -0.00296,478741440.00000,   0.00321,278078624.00000,   0.00298,   0.00221,  -0.00161,  32.00000,   2.00000
386434053.12669,482428030.40500,-104710034.84948,   0.00380,   0.00365,  -0.00297,478723360.00000,   0.00321,278080896.00000,   0.00298,   0.00221,  -0.00161, -32.00000,   2.00000
385240824.93996,482536093.43787,-105162279.09966,   0.00379,   0.00366,  -0.00298,478716160.00000,   0.00321,278083136.00000,   0.00298,   0.00221,  -0.00161,  32.00000,   2.00000
384027014.93211,482647229.55584,-105613344.33052,   0.00379,   0.00366,  -0.00298,478698400.00000,   0.00322,278085312.00000,   0.00298,   0.00222,  -0.00161,  64.00000,   2.00000
382810849.04325,482744478.28381,-106070144.43834,   0.00378,   0.00367,  -0.00299,478694976.00000,   0.00322,278087456.00000,   0.00298,   0.00222,  -0.00161, -32.00000,   2.00000
381578736.59178,482842983.05745,-106524921.19950,   0.00378,   0.00367,  -0.00300,478660416.00000,   0.00322,278089472.00000,   0.00298,   0.00222,  -0.00162,  64.00000,   2.00000
380320110.55595,482936856.89477,-106987315.53202,   0.00377,   0.00368,  -0.00301,478650432.00000,   0.00322,278091488.00000,   0.00299,   0.00222,  -0.00162, -32.00000,   2.00000
379067067.30631,483027608.10415,-107442651.96473,   0.00377,   0.00368,  -0.00302,478636832.00000,   0.00322,278093440.00000,   0.00299,   0.00222,  -0.00162,  96.00000,   2.00000
377798459.11843,483111821.36031,-107903220.08549,   0.00376,   0.00369,  -0.00302,478637216.00000,   0.00323,278095360.00000,   0.00299,   0.00223,  -0.00162,   0.00000,   2.00000
376510587.07900,483193952.07724,-108366645.43176,   0.00376,   0.00369,  -0.00303,478607072.00000,   0.00323,278097184.00000,   0.00299,   0.00223,  -0.00162,  64.00000,   2.00000
375214391.12655,483272053.72485,-108830376.14108,   0.00375,   0.00370,  -0.00304,478586816.00000,   0.00323,278098944.00000,   0.00299,   0.00223,  -0.00162, -32.00000,   2.00000
373907106.17865,483342644.35451,-109298792.43493,   0.00375,   0.00370,  -0.00305,478570240.00000,   0.00323,278100608.00000,   0.00299,   0.00223,  -0.00163, -64.00000,   2.00000
372586636.41430,483410689.08107,-109768284.31949,   0.00374,   0.00370,  -0.00305,478567200.00000,   0.00323,278102272.00000,   0.00299,   0.00223,  -0.00163,-128.00000,   2.00000
371257329.77701,483474631.65676,-110238048.99655,   0.00374,   0.00371,  -0.00306,478547008.00000,   0.00323,278103872.00000,   0.00299,   0.00223,  -0.00163, -32.00000,   2.00000
369903011.42585,483537462.91964,-110711346.22288,   0.00373,   0.00371,  -0.00307,478534272.00000,   0.00323,278105408.00000,   0.00299,   0.00223,  -0.00163,  96.00000,   2.00000
368550738.00074,483593779.78053,-111182142.23314,   0.00373,   0.00372,  -0.00308,478524096.00000,   0.00324,278106880.00000,   0.00299,   0.00224,  -0.00163,   0.00000,   2.00000
367174779.55285,483643524.65176,-111659988.82797,   0.00372,   0.00372,  -0.00308,478497856.00000,   0.00324,278108288.00000,   0.00299,   0.00224,  -0.00163,  32.00000,   2.00000
365784547.80481,483689467.05537,-112138523.96129,   0.00371,   0.00373,  -0.00309,478495392.00000,   0.00324,278109664.00000,   0.00299,   0.00224,  -0.00163,  32.00000,   2.00000
364384173.75398,483730066.16000,-112617071.77163,   0.00371,   0.00373,  -0.00310,478475264.00000,   0.00324,278110976.00000,   0.00299,   0.00224,  -0.00164,   0.00000,   2.00000
362973522.03393,483765299.56028,-113095672.87819,   0.00370,   0.00373,  -0.00311,478455456.00000,   0.00324,278112192.00000,   0.00299,   0.00224,  -0.00164, 160.00000,   2.00000
361548068.11058,483796154.46345,-113574863.41994,   0.00370,   0.00374,  -0.00311,478453152.00000,   0.00324,278113408.00000,   0.00299,   0.00224,  -0.00164,  96.00000,   2.00000
360097445.99535,483819169.39273,-114060975.95755,   0.00369,   0.00374,  -0.00312,478427392.00000,   0.00324,278114560.00000,   0.00299,   0.00224,  -0.00164,  64.00000,   2.00000
358647675.06967,483834660.17780,-114544481.85953,   0.00368,   0.00374,  -0.00313,478417344.00000,   0.00324,278115648.00000,   0.00299,   0.00224,  -0.00164,-128.00000,   2.00000
357173536.20666,483850984.29616,-115026994.23092,   0.00368,   0.00375,  -0.00314,478401504.00000,   0.00325,278116672.00000,   0.00300,   0.00224,  -0.00164, -32.00000,   2.00000
355684616.24423,483856283.70201,-115513486.42330,   0.00367,   0.00375,  -0.00314,478385824.00000,   0.00325,278117632.00000,   0.00300,   0.00224,  -0.00164,-960.00000,   1.00000
354183069.61849,483853868.78336,-116004919.18126,   0.00366,   0.00376,  -0.00315,478368896.00000,   0.00325,278118528.00000,   0.00300,   0.00225,  -0.00164, 224.00000,   2.00000
352667013.60200,483848060.86123,-116492053.33406,   0.00366,   0.00376,  -0.00316,478364096.00000,   0.00325,278119424.00000,   0.00300,   0.00225,  -0.00164,-992.00000,   1.00000
351137255.99346,483833291.07842,-116983845.97243,   0.00365,   0.00376,  -0.00317,478347328.00000,   0.00325,278120256.00000,   0.00300,   0.00225,  -0.00165,-960.00000,   1.00000
349595627.48485,483812471.44581,-117475870.41680,   0.00364,   0.00377,  -0.00317,478327584.00000,   0.00325,278121024.00000,   0.00300,   0.00225,  -0.00165,-736.00000,   1.00000
348037845.43635,483786133.45565,-117968347.07981,   0.00364,   0.00377,  -0.00318,478325888.00000,   0.00325,278121760.00000,   0.00300,   0.00225,  -0.00165,-736.00000,   1.00000
346455442.37553,483754813.78266,-118463702.94597,   0.00363,   0.00377,  -0.00319,478297024.00000,   0.00325,278122400.00000,   0.00300,   0.00225,  -0.00165,-672.00000,   1.00000
344870346.43965,483711940.22306,-118960857.92837,   0.00362,   0.00378,  -0.00319,478290656.00000,   0.00325,278123040.00000,   0.00300,   0.00225,  -0.00165,-768.00000,   1.00000
343259077.54682,483668764.90789,-119457016.09539,   0.00362,   0.00378,  -0.00320,478275648.00000,   0.00325,278123584.00000,   0.00300,   0.00225,  -0.00165,-544.00000,   1.00000
341632425.53708,483615189.75694,-119957646.83422,   0.00361,   0.00378,  -0.00321,478260064.00000,   0.00325,278124096.00000,   0.00300,   0.00225,  -0.00165,-608.00000,   1.00000
340005558.33198,483554200.12032,-120456056.55881,   0.00360,   0.00379,  -0.00322,478249440.00000,   0.00325,278124544.00000,   0.00300,   0.00225,  -0.00165,-352.00000,   1.00000
338351976.37345,483492579.95887,-120953478.10630,   0.00359,   0.00379,  -0.00322,478234592.00000,   0.00325,278124960.00000,   0.00300,   0.00225,  -0.00165,-512.00000,   1.00000
336680061.90140,483416502.48878,-121459580.98458,   0.00359,   0.00379,  -0.00323,478222976.00000,   0.00325,278125312.00000,   0.00300,   0.00225,  -0.00165,-320.00000,   1.00000
334997380.21501,483337862.37243,-121962011.74320,   0.00358,   0.00380,  -0.00324,478199296.00000,   0.00325,278125600.00000,   0.00300,   0.00225,  -0.00165,-288.00000,   1.00000
333297816.35803,483253470.81861,-122465001.43049,   0.00357,   0.00380,  -0.00324,478197440.00000,   0.00325,278125856.00000,   0.00300,   0.00225,  -0.00165,-288.00000,   1.00000
331582125.37100,483158488.83150,-122972610.08474,   0.00356,   0.00380,  -0.00325,478181728.00000,   0.00325,278126080.00000,   0.00300,   0.00225,  -0.00165,-288.00000,   1.00000
329839612.25572,483057505.41350,-123483312.19304,   0.00356,   0.00381,  -0.00326,478153280.00000,   0.00325,278126176.00000,   0.00300,   0.00225,  -0.00165, -32.00000,   1.00000
328093002.27955,482949888.41168,-123991998.34945,   0.00355,   0.00381,  -0.00326,478160128.00000,   0.00325,278126304.00000,   0.00300,   0.00225,  -0.00165, -96.00000,   1.00000
326332581.29205,482835820.10129,-124501357.70219,   0.00354,   0.00381,  -0.00327,478140000.00000,   0.00325,278126336.00000,   0.00300,   0.00225,  -0.00165, -96.00000,   1.00000
324554166.01356,482708790.43854,-125009476.35319,   0.00353,   0.00382,  -0.00328,478119552.00000,   0.00325,278126336.00000,   0.00300,   0.00225,  -0.00165,-6784.00000,   0.00000
322738700.41676,482565882.06795,-125517595.00419,   0.00353,   0.00382,  -0.00328,478101152.00000,   0.00325,278126336.00000,   0.00300,   0.00225,  -0.00165,-25184.00000,   0.00000
320915295.46604,482404448.53820,-126025713.65519,   0.00352,   0.00382,  -0.00329,478074112.00000,   0.00325,278126336.00000,   0.00300,   0.00225,  -0.00165,-52224.00000,   0.00000
319046900.84310,482208611.14146,-126528539.40357,   0.00351,   0.00382,  -0.00330,478016864.00000,   0.00325,278126336.00000,   0.00300,   0.00225,  -0.00165,-109472.00000,   0.00000
317170566.86624,481994248.58557,-127026072.24934,   0.00350,   0.00383,  -0.00330,477947392.00000,   0.00325,278126336.00000,   0.00300,   0.00225,  -0.00165,-178944.00000,   0.00000
315257182.57108,481764007.32184,-127523605.09511,   0.00349,   0.00383,  -0.00331,477869216.00000,   0.00325,278126336.00000,   0.00300,   0.00225,  -0.00165,-257120.00000,   0.00000
313335858.92199,481515240.89896,-128015845.03826,   0.00348,   0.00383,  -0.00332,477785408.00000,   0.00325,278126336.00000,   0.00300,   0.00225,  -0.00165,-340928.00000,   0.00000
311377484.95460,481250595.76823,-128508084.98141,   0.00348,   0.00383,  -0.00332,477703072.00000,   0.00325,278126336.00000,   0.00300,   0.00225,  -0.00165,-423264.00000,   0.00000
309411171.63329,480967425.47835,-128995032.02195,   0.00347,   0.00384,  -0.00333,477624480.00000,   0.00325,278126336.00000,   0.00300,   0.00225,  -0.00165,-501856.00000,   0.00000
307399868.63976,480649851.32148,-129481979.06249,   0.00346,   0.00384,  -0.00333,477539968.00000,   0.00325,278126336.00000,   0.00300,   0.00225,  -0.00165,-586368.00000,   0.00000
305380626.29231,480313752.00545,-129963633.20042,   0.00345,   0.00384,  -0.00334,477459552.00000,   0.00325,278126336.00000,   0.00300,   0.00225,  -0.00165,-666784.00000,   0.00000
303324333.62655,479961773.98158,-130445287.33834,   0.00344,   0.00384,  -0.00335,477381888.00000,   0.00325,278126336.00000,   0.00300,   0.00225,  -0.00165,-744448.00000,   0.00000
301260101.60687,479591270.79856,-130921648.57365,   0.00343,   0.00385,  -0.00335,477298784.00000,   0.00325,278126336.00000,   0.00300,   0.00225,  -0.00165,-827552.00000,   0.00000
299158819.26889,479204888.90770,-131392716.90635,   0.00342,   0.00385,  -0.00336,477203744.00000,   0.00325,278126336.00000,   0.00300,   0.00225,  -0.00165,-922592.00000,   0.00000
297041658.22306,478781456.69853,-131863785.23905,   0.00342,   0.00385,  -0.00337,477083680.00000,   0.00325,278126336.00000,   0.00300,   0.00225,  -0.00165,-1042656.00000,   0.00000
294887446.85894,478342145.78153,-132334853.57174,   0.00341,   0.00385,  -0.00337,476947552.00000,   0.00325,278126336.00000,   0.00300,   0.00225,  -0.00165,-1178784.00000,   0.00000
292733235.49481,477902834.86452,-132800629.00182,   0.00340,   0.00386,  -0.00338,476803552.00000,   0.00325,278126336.00000,   0.00300,   0.00225,  -0.00165,-1322784.00000,   0.00000
290544620.26369,477418534.27529,-133261111.52929,   0.00339,   0.00386,  -0.00338,476615616.00000,   0.00325,278126336.00000,   0.00300,   0.00225,  -0.00165,-1510720.00000,   0.00000
288318954.71427,476918354.97821,-133721594.05676,   0.00338,   0.00386,  -0.00339,476410176.00000,   0.00325,278126336.00000,   0.00300,   0.00225,  -0.00165,-1716160.00000,   0.00000
286093289.16484,476418175.68113,-134176783.68161,   0.00337,   0.00386,  -0.00340,476201120.00000,   0.00325,278126336.00000,   0.00300,   0.00225,  -0.00165,-1925216.00000,   0.00000
283833219.74843,475873006.71183,-134631973.30646,   0.00336,   0.00386,  -0.00340,475962240.00000,   0.00325,278126336.00000,   0.00300,   0.00225,  -0.00165,-2164096.00000,   0.00000
281554625.17286,475319898.38861,-135081870.02870,   0.00335,   0.00387,  -0.00341,475721792.00000,   0.00325,278126336.00000,   0.00300,   0.00225,  -0.00165,-2404544.00000,   0.00000
279257505.43814,474758850.71147,-135526473.84832,   0.00334,   0.00387,  -0.00341,475482688.00000,   0.00325,278126336.00000,   0.00300,   0.00225,  -0.00165,-2643648.00000,   0.00000
276925981.83642,474152813.36210,-135971077.66795,   0.00333,   0.00387,  -0.00342,475224128.00000,   0.00325,278126336.00000,   0.00300,   0.00225,  -0.00165,-2902208.00000,   0.00000
274575933.07556,473538836.65881,-136415681.48757,   0.00332,   0.00387,  -0.00342,474974528.00000,   0.00325,278126336.00000,   0.00300,   0.00225,  -0.00165,-3151808.00000,   0.00000
272199419.80162,472898395.44245,-136854992.40458,   0.00331,   0.00387,  -0.00343,474716128.00000,   0.00325,278126336.00000,   0.00300,   0.00225,  -0.00165,-3410208.00000,   0.00000
269804381.36853,472250014.87217,-137289010.41897,   0.00330,   0.00387,  -0.00344,474462944.00000,   0.00325,278126336.00000,   0.00300,   0.00225,  -0.00165,-3663392.00000,   0.00000
267374939.06845,471556644.62966,-137723028.43337,   0.00329,   0.00388,  -0.00344,474191200.00000,   0.00325,278126336.00000,   0.00300,   0.00225,  -0.00165,-3935136.00000,   0.00000
264953436.12228,470881799.54630,-138151753.54515,   0.00329,   0.00388,  -0.00345,473943936.00000,   0.00325,278126336.00000,   0.00300,   0.00225,  -0.00165,-4182400.00000,   0.00000
262479004.14998,470154025.43680,-138575185.75431,   0.00328,   0.00388,  -0.00345,473665184.00000,   0.00325,278126336.00000,   0.00300,   0.00225,  -0.00165,-4461152.00000,   0.00000
260004572.17767,469426251.32730,-138998617.96348,   0.00327,   0.00388,  -0.00346,473399616.00000,   0.00325,278126336.00000,   0.00300,   0.00225,  -0.00165,-4726720.00000,   0.00000
257503675.69229,468672012.70472,-139422050.17264,   0.00326,   0.00388,  -0.00346,473126656.00000,   0.00325,278126336.00000,   0.00300,   0.00225,  -0.00165,-4999680.00000,   0.00000
254976314.69384,467891309.56907,-139840189.47919,   0.00325,   0.00388,  -0.00347,472842240.00000,   0.00325,278126336.00000,   0.00300,   0.00225,  -0.00165,-5284096.00000,   0.00000
252430428.53623,467102667.07950,-140253035.88313,   0.00324,   0.00389,  -0.00347,472561152.00000,   0.00325,278126336.00000,   0.00300,   0.00225,  -0.00165,-5565184.00000,   0.00000
249858077.86556,466287560.07686,-140665882.28706,   0.00323,   0.00389,  -0.00348,472275168.00000,   0.00325,278126336.00000,   0.00300,   0.00225,  -0.00165,-5851168.00000,   0.00000
247277787.84096,465453927.91507,-141073435.78838,   0.00322,   0.00389,  -0.00349,471987104.00000,   0.00325,278126336.00000,   0.00300,   0.00225,  -0.00165,-6139232.00000,   0.00000
244660447.49806,464604417.04543,-141480989.28971,   0.00321,   0.00389,  -0.00349,471703840.00000,   0.00325,278126336.00000,   0.00300,   0.00225,  -0.00165,-6422496.00000,   0.00000
242035167.80123,463736381.01664,-141883249.88841,   0.00319,   0.00389,  -0.00350,471419776.00000,   0.00325,278126336.00000,   0.00300,   0.00225,  -0.00165,-6706560.00000,   0.00000
239364898.43219,462833941.12086,-142280217.58450,   0.00318,   0.00389,  -0.00350,471123520.00000,   0.00325,278126336.00000,   0.00300,   0.00225,  -0.00165,-7002816.00000,   0.00000
236694629.06314,461931501.22508,-142677185.28060,   0.00317,   0.00389,  -0.00351,470845120.00000,   0.00325,278126336.00000,   0.00300,   0.00225,  -0.00165,-7281216.00000,   0.00000
234016420.34017,461010536.17014,-143068860.07407,   0.00316,   0.00389,  -0.00351,470566240.00000,   0.00325,278126336.00000,   0.00300,   0.00225,  -0.00165,-7560096.00000,   0.00000
231293221.94498,460055167.24822,-143460534.86755,   0.00315,   0.00389,  -0.00352,470280416.00000,   0.00325,278126336.00000,   0.00300,   0.00225,  -0.00165,-7845920.00000,   0.00000
228562084.19587,459081273.16714,-143846916.75841,   0.00314,   0.00390,  -0.00352,469992800.00000,   0.00325,278126336.00000,   0.00300,   0.00225,  -0.00165,-8133536.00000,   0.00000
225793896.12845,458091500.37821,-144233298.64928,   0.00313,   0.00390,  -0.00353,469710304.00000,   0.00325,278126336.00000,   0.00300,   0.00225,  -0.00165,-8416032.00000,   0.00000
223017768.70711,457083202.43014,-144614387.63753,   0.00312,   0.00390,  -0.00353,469423552.00000,   0.00325,278126336.00000,   0.00300,   0.00225,  -0.00165,-8702784.00000,   0.00000
220223116.12663,456066965.12814,-144995476.62577,   0.00311,   0.00390,  -0.00354,469143584.00000,   0.00325,278126336.00000,   0.00300,   0.00225,  -0.00165,-8982752.00000,   0.00000
217420524.19221,455032202.66700,-145371272.71141,   0.00310,   0.00390,  -0.00354,468853888.00000,   0.00325,278126336.00000,   0.00300,   0.00225,  -0.00165,-9272448.00000,   0.00000
214572942.58558,453963036.33886,-145741775.89443,   0.00309,   0.00390,  -0.00355,468540640.00000,   0.00325,278126336.00000,   0.00300,   0.00225,  -0.00165,-9585696.00000,   0.00000
211717421.62502,452875344.85156,-146112279.07745,   0.00308,   0.00390,  -0.00355,468215040.00000,   0.00325,278126336.00000,   0.00300,   0.00225,  -0.00165,-9911296.00000,   0.00000
208843375.50532,451779714.01035,-146477489.35785,   0.00307,   0.00390,  -0.00356,467875936.00000,   0.00325,278126336.00000,   0.00300,   0.00225,  -0.00165,-10250400.00000,   0.00000
205961390.03169,450665558.00998,-146842699.63826,   0.00306,   0.00390,  -0.00356,467515808.00000,   0.00325,278126336.00000,   0.00300,   0.00225,  -0.00165,-10610528.00000,   0.00000
203034414.88584,449516998.14262,-147202617.01605,   0.00305,   0.00390,  -0.00357,467115520.00000,   0.00325,278126336.00000,   0.00300,   0.00225,  -0.00165,-11010816.00000,   0.00000
200107439.73998,448368438.27526,-147557241.49122,   0.00303,   0.00390,  -0.00357,466697472.00000,   0.00325,278126336.00000,   0.00300,   0.00225,  -0.00165,-11428864.00000,   0.00000
197154000.08106,447193413.89483,-147911865.96640,   0.00302,   0.00390,  -0.00357,466249408.00000,   0.00325,278126336.00000,   0.00300,   0.00225,  -0.00165,-11876928.00000,   0.00000
194174095.90906,445991925.00133,-148266490.44157,   0.00301,   0.00390,  -0.00358,465775424.00000,   0.00325,278126336.00000,   0.00300,   0.00225,  -0.00165,-12350912.00000,   0.00000
191194191.73706,444790436.10782,-148615822.01413,   0.00300,   0.00390,  -0.00358,465297568.00000,   0.00325,278126336.00000,   0.00300,   0.00225,  -0.00165,-12828768.00000,   0.00000
188187823.05199,443562482.70124,-148959860.68408,   0.00299,   0.00390,  -0.00359,464806080.00000,   0.00325,278126336.00000,   0.00300,   0.00225,  -0.00165,-13320256.00000,   0.00000
185154989.85385,442308064.78159,-149303899.35403,   0.00298,   0.00390,  -0.00359,464318208.00000,   0.00325,278126336.00000,   0.00300,   0.00225,  -0.00165,-13808128.00000,   0.00000
182122156.65570,441053646.86194,-149642645.12136,   0.00297,   0.00390,  -0.00360,463857888.00000,   0.00325,278126336.00000,   0.00300,   0.00225,  -0.00165,-14268448.00000,   0.00000
179044333.78534,439764825.07529,-149981390.88869,   0.00296,   0.00390,  -0.00360,463412992.00000,   0.00325,278126336.00000,   0.00300,   0.00225,  -0.00165,-14713344.00000,   0.00000
175958571.56105,438457478.12950,-150314843.75341,   0.00294,   0.00390,  -0.00361,462990944.00000,   0.00325,278126336.00000,   0.00300,   0.00225,  -0.00165,-15135392.00000,   0.00000
172864869.98284,437131606.02455,-150643003.71551,   0.00293,   0.00390,  -0.00361,462590624.00000,   0.00325,278126336.00000,   0.00300,   0.00225,  -0.00165,-15535712.00000,   0.00000
169752643.24547,435797794.56568,-150971163.67761,   0.00292,   0.00390,  -0.00361,462222208.00000,   0.00325,278126336.00000,   0.00300,   0.00225,  -0.00165,-15904128.00000,   0.00000
166613951.99504,434437518.59374,-151294030.73710,   0.00291,   0.00390,  -0.00362,461861120.00000,   0.00325,278126336.00000,   0.00300,   0.00225,  -0.00165,-16265216.00000,   0.00000
163456735.58545,433069303.26787,-151616897.79659,   0.00290,   0.00390,  -0.00362,461520192.00000,   0.00325,278126336.00000,   0.00300,   0.00225,  -0.00165,-16606144.00000,   0.00000
160291579.82194,431682562.78286,-151939764.85608,   0.00289,   0.00390,  -0.00363,461184192.00000,   0.00325,278126336.00000,   0.00300,   0.00225,  -0.00165,-16942144.00000,   0.00000
157099959.54536,430269357.78477,-152252046.11034,   0.00287,   0.00390,  -0.00363,460834080.00000,   0.00325,278126336.00000,   0.00300,   0.00225,  -0.00165,-17292256.00000,   0.00000
153900399.91486,428837627.62753,-152569620.26721,   0.00286,   0.00390,  -0.00363,460486880.00000,   0.00325,278126336.00000,   0.00300,   0.00225,  -0.00165,-17639456.00000,   0.00000
150682315.12521,427397958.11637,-152876608.61886,   0.00285,   0.00390,  -0.00364,460134080.00000,   0.00325,278126336.00000,   0.00300,   0.00225,  -0.00165,-17992256.00000,   0.00000
147437765.82248,425931824.09214,-153183596.97050,   0.00284,   0.00390,  -0.00364,459773472.00000,   0.00325,278126336.00000,   0.00300,   0.00225,  -0.00165,-18352864.00000,   0.00000
144185277.16583,424447164.90875,-153490585.32215,   0.00283,   0.00390,  -0.00365,459409088.00000,   0.00325,278126336.00000,   0.00300,   0.00225,  -0.00165,-18717248.00000,   0.00000
140914263.35003,422954566.37145,-153792280.77118,   0.00281,   0.00390,  -0.00365,459047936.00000,   0.00325,278126336.00000,   0.00300,   0.00225,  -0.00165,-19078400.00000,   0.00000
137616785.02116,421435503.32107,-154088683.31759,   0.00280,   0.00390,  -0.00365,458679616.00000,   0.00325,278126336.00000,   0.00300,   0.00225,  -0.00165,-19446720.00000,   0.00000
134311367.33837,419897915.11154,-154385085.86401,   0.00279,   0.00390,  -0.00366,458316416.00000,   0.00325,278126336.00000,   0.00300,   0.00225,  -0.00165,-19809920.00000,   0.00000
130987424.49642,418352387.54809,-154681488.41042,   0.00278,   0.00390,  -0.00366,457971392.00000,   0.00325,278126336.00000,   0.00300,   0.00225,  -0.00165,-20154944.00000,   0.00000
127655542.30056,416788334.82548,-154972598.05422,   0.00277,   0.00390,  -0.00367,457632384.00000,   0.00325,278126336.00000,   0.00300,   0.00225,  -0.00165,-20493952.00000,   0.00000
124297195.59162,415197817.58981,-155258414.79541,   0.00275,   0.00390,  -0.00367,457298208.00000,   0.00325,278126336.00000,   0.00300,   0.00225,  -0.00165,-20828128.00000,   0.00000
120938848.88268,413607300.35413,-155544231.53660,   0.00274,   0.00390,  -0.00367,456989376.00000,   0.00325,278126336.00000,   0.00300,   0.00225,  -0.00165,-21136960.00000,   0.00000
117554037.66067,411990318.60538,-155824755.37517,   0.00273,   0.00390,  -0.00368,456682752.00000,   0.00325,278126336.00000,   0.00300,   0.00225,  -0.00165,-21443584.00000,   0.00000
114161287.08473,410354811.69748,-156105279.21374,   0.00272,   0.00390,  -0.00368,456382176.00000,   0.00325,278126336.00000,   0.00300,   0.00225,  -0.00165,-21744160.00000,   0.00000
110750011.34965,408711365.43566,-156380510.14970,   0.00270,   0.00390,  -0.00368,456087264.00000,   0.00325,278126336.00000,   0.00300,   0.00225,  -0.00165,-22039072.00000,   0.00000
107312271.10149,407041454.66077,-156655741.08565,   0.00269,   0.00389,  -0.00369,455786880.00000,   0.00325,278126336.00000,   0.00300,   0.00225,  -0.00165,-22339456.00000,   0.00000
103866591.49941,405353018.72672,-156925679.11900,   0.00268,   0.00389,  -0.00369,455473568.00000,   0.00325,278126336.00000,   0.00300,   0.00225,  -0.00165,-22652768.00000,   0.00000
100402386.73818,403656643.43876,-157190324.24972,   0.00267,   0.00389,  -0.00369,455149536.00000,   0.00325,278126336.00000,   0.00300,   0.00225,  -0.00165,-22976800.00000,   0.00000
96930242.62303,401941742.99164,-157460262.28307,   0.00266,   0.00389,  -0.00370,454793376.00000,   0.00325,278126336.00000,   0.00300,   0.00225,  -0.00165,-23332960.00000,   0.00000
93450159.15395,400208317.38537,-157719614.51118,   0.00264,   0.00389,  -0.00370,454411616.00000,   0.00325,278126336.00000,   0.00300,   0.00225,  -0.00165,-23714720.00000,   0.00000
89951550.52573,398466952.42518,-157978966.73929,   0.00263,   0.00389,  -0.00371,454256256.00000,   0.00325,278126336.00000,   0.00300,   0.00225,  -0.00165,-23870080.00000,   0.00000
86418538.03051,396680597.79276,-158238318.96741,   0.00262,   0.00389,  -0.00371,454145152.00000,   0.00325,278126336.00000,   0.00300,   0.00225,  -0.00165,-23981184.00000,   0.00000
82893464.88921,394912768.31950,-158492378.29291,   0.00260,   0.00389,  -0.00371,453911776.00000,   0.00325,278126336.00000,   0.00300,   0.00225,  -0.00165,-24214560.00000,   0.00000
79352513.04007,393107888.52793,-158746437.61840,   0.00259,   0.00389,  -0.00372,453618528.00000,   0.00325,278126336.00000,   0.00300,   0.00225,  -0.00165,-24507808.00000,   0.00000
75793036.03178,391295069.38245,-158995204.04129,   0.00258,   0.00388,  -0.00372,453321920.00000,   0.00325,278126336.00000,   0.00300,   0.00225,  -0.00165,-24804416.00000,   0.00000
72207094.51041,389455785.72389,-159238677.56156,   0.00257,   0.00388,  -0.00372,453015776.00000,   0.00325,278126336.00000,   0.00300,   0.00225,  -0.00165,-25110560.00000,   0.00000
68639678.14820,387624441.41925,-159482151.08183,   0.00255,   0.00388,  -0.00372,452722144.00000,   0.00325,278126336.00000,   0.00300,   0.00225,  -0.00165,-25404192.00000,   0.00000
65027272.11376,385758693.24762,-159725624.60210,   0.00254,   0.00388,  -0.00373,452428544.00000,   0.00325,278126336.00000,   0.00300,   0.00225,  -0.00165,-25697792.00000,   0.00000
61425451.88455,383882359.27075,-159963805.21975,   0.00253,   0.00388,  -0.00373,452139712.00000,   0.00325,278126336.00000,   0.00300,   0.00225,  -0.00165,-25986624.00000,   0.00000
57797167.14227,381979560.78082,-160201985.83741,   0.00252,   0.00388,  -0.00373,451864768.00000,   0.00325,278126336.00000,   0.00300,   0.00225,  -0.00165,-26261568.00000,   0.00000
54150357.24083,380068822.93696,-160434873.55245,   0.00250,   0.00388,  -0.00374,451618656.00000,   0.00325,278126336.00000,   0.00300,   0.00225,  -0.00165,-26507680.00000,   0.00000
50503547.33940,378158085.09310,-160662468.36488,   0.00249,   0.00387,  -0.00374,451408672.00000,   0.00325,278126336.00000,   0.00300,   0.00225,  -0.00165,-26717664.00000,   0.00000
46840858.73012,376210296.93095,-160895356.07992,   0.00248,   0.00387,  -0.00374,451225952.00000,   0.00325,278126336.00000,   0.00300,   0.00225,  -0.00165,-26900384.00000,   0.00000
43159644.96170,374254569.41487,-161117657.98973,   0.00246,   0.00387,  -0.00375,451080576.00000,   0.00325,278126336.00000,   0.00300,   0.00225,  -0.00165,-27045760.00000,   0.00000
39470491.83935,372280316.73963,-161345252.80215,   0.00245,   0.00387,  -0.00375,450977568.00000,   0.00325,278126336.00000,   0.00300,   0.00225,  -0.00165,-27148768.00000,   0.00000
35781338.71700,370306064.06440,-161562261.80935,   0.00244,   0.00387,  -0.00375,450911136.00000,   0.00325,278126336.00000,   0.00300,   0.00225,  -0.00165,-27215200.00000,   0.00000
32057781.72765,368286821.71695,-161784563.71916,   0.00243,   0.00387,  -0.00375,450866208.00000,   0.00325,278126336.00000,   0.00300,   0.00225,  -0.00165,-27260128.00000,   0.00000
28342164.09223,366286104.52864,-162001572.72636,   0.00241,   0.00386,  -0.00376,450846720.00000,   0.00325,278126336.00000,   0.00300,   0.00225,  -0.00165,-27279616.00000,   0.00000
24610667.74897,364248337.02204,-162213288.83094,   0.00240,   0.00386,  -0.00376,450801728.00000,   0.00325,278126336.00000,   0.00300,   0.00225,  -0.00165,-27324608.00000,   0.00000
20860646.24655,362202630.16151,-162425004.93553,   0.00239,   0.00386,  -0.00376,450765152.00000,   0.00325,278126336.00000,   0.00300,   0.00225,  -0.00165,-27361184.00000,   0.00000
17102685.39021,360138398.14183,-162631428.13749,   0.00237,   0.00386,  -0.00377,450727840.00000,   0.00325,278126336.00000,   0.00300,   0.00225,  -0.00165,-27398496.00000,   0.00000
13326199.37472,358066226.76823,-162837851.33946,   0.00236,   0.00386,  -0.00377,450709920.00000,   0.00325,278126336.00000,   0.00300,   0.00225,  -0.00165,-27416416.00000,   0.00000
9560299.16446,355983469.58940,-163044274.54143,   0.00235,   0.00385,  -0.00377,450698816.00000,   0.00325,278126336.00000,   0.00300,   0.00225,  -0.00165,-27427520.00000,   0.00000
5767934.44113,353874247.89750,-163245404.84078,   0.00233,   0.00385,  -0.00377,450691168.00000,   0.00325,278126336.00000,   0.00300,   0.00225,  -0.00165,-27435168.00000,   0.00000
1949105.20472,351738561.69252,-163446535.14014,   0.00232,   0.00385,  -0.00378,450694304.00000,   0.00325,278126336.00000,   0.00300,   0.00225,  -0.00165,-27432032.00000,   0.00000
-1851198.87253,349610814.84147,-163642372.53687,   0.00231,   0.00385,  -0.00378,450714496.00000,   0.00325,278126336.00000,   0.00300,   0.00225,  -0.00165,-27411840.00000,   0.00000
-5677967.46286,347456603.47734,-163838209.93361,   0.00229,   0.00384,  -0.00378,450749280.00000,   0.00325,278126336.00000,   0.00300,   0.00225,  -0.00165,-27377056.00000,   0.00000
-9504736.05319,345302392.11321,-164028754.42774,   0.00228,   0.00384,  -0.00378,450805024.00000,   0.00325,278126336.00000,   0.00300,   0.00225,  -0.00165,-27321312.00000,   0.00000
-13357969.15659,343121716.23601,-164219298.92186,   0.00227,   0.00384,  -0.00379,450878496.00000,   0.00325,278126336.00000,   0.00300,   0.00225,  -0.00165,-27247840.00000,   0.00000
-17200616.45476,340930454.55359,-164409843.41599,   0.00225,   0.00384,  -0.00379,450967296.00000,   0.00325,278126336.00000,   0.00300,   0.00225,  -0.00165,-27159040.00000,   0.00000
-21061788.91209,338731253.51724,-164595095.00750,   0.00224,   0.00383,  -0.00379,451080032.00000,   0.00325,278126336.00000,   0.00300,   0.00225,  -0.00165,-27046304.00000,   0.00000
-24938840.07725,336495002.16258,-164780346.59901,   0.00223,   0.00383,  -0.00379,451198944.00000,   0.00325,278126336.00000,   0.00300,   0.00225,  -0.00165,-26927392.00000,   0.00000
-28807951.88850,334277275.96708,-164960305.28790,   0.00221,   0.00383,  -0.00380,451350720.00000,   0.00325,278126336.00000,   0.00300,   0.00225,  -0.00165,-26775616.00000,   0.00000
-32711467.56674,332014560.09936,-165140263.97680,   0.00220,   0.00383,  -0.00380,451509568.00000,   0.00325,278126336.00000,   0.00300,   0.00225,  -0.00165,-26616768.00000,   0.00000
-36614983.24498,329751844.23163,-165320222.66569,   0.00219,   0.00382,  -0.00380,451694528.00000,   0.00325,278126336.00000,   0.00300,   0.00225,  -0.00165,-26431808.00000,   0.00000
-40526438.27714,327470603.20476,-165494888.45197,   0.00217,   0.00382,  -0.00380,451888288.00000,   0.00325,278126336.00000,   0.00300,   0.00225,  -0.00165,-26238048.00000,   0.00000
-44437893.30930,325189362.17788,-165669554.23825,   0.00216,   0.00382,  -0.00381,452107104.00000,   0.00325,278126336.00000,   0.00300,   0.00225,  -0.00165,-26019232.00000,   0.00000
-48357287.69538,322889595.99185,-165838927.12192,   0.00215,   0.00382,  -0.00381,452334880.00000,   0.00325,278126336.00000,   0.00300,   0.00225,  -0.00165,-25791456.00000,   0.00000
-52284621.43538,320571304.64667,-166008300.00558,   0.00213,   0.00381,  -0.00381,452578432.00000,   0.00325,278126336.00000,   0.00300,   0.00225,  -0.00165,-25547904.00000,   0.00000
-56230480.33454,318245073.94758,-166177672.88925,   0.00212,   0.00381,  -0.00381,452852768.00000,   0.00325,278126336.00000,   0.00300,   0.00225,  -0.00165,-25273568.00000,   0.00000
-60184278.58762,315900318.08932,-166341752.87030,   0.00211,   0.00381,  -0.00381,453140928.00000,   0.00325,278126336.00000,   0.00300,   0.00225,  -0.00165,-24985408.00000,   0.00000
-64146016.19462,313537037.07192,-166505832.85135,   0.00209,   0.00380,  -0.00382,453449792.00000,   0.00325,278126336.00000,   0.00300,   0.00225,  -0.00165,-24676544.00000,   0.00000
-68107753.80162,311173756.05452,-166669912.83240,   0.00208,   0.00380,  -0.00382,453789888.00000,   0.00325,278126336.00000,   0.00300,   0.00225,  -0.00165,-24336448.00000,   0.00000
-72077430.76254,308791949.87797,-166828699.91084,   0.00207,   0.00380,  -0.00382,454143680.00000,   0.00325,278126336.00000,   0.00300,   0.00225,  -0.00165,-23982656.00000,   0.00000
-76055047.07738,306391618.54226,-166987486.98928,   0.00205,   0.00379,  -0.00382,454514944.00000,   0.00325,278126336.00000,   0.00300,   0.00225,  -0.00165,-23611392.00000,   0.00000
-80051188.55137,303983347.85264,-167140981.16510,   0.00204,   0.00379,  -0.00382,454908416.00000,   0.00325,278126336.00000,   0.00300,   0.00225,  -0.00165,-23217920.00000,   0.00000
-84036744.22014,301564491.35778,-167294475.34092,   0.00203,   0.00379,  -0.00383,455310880.00000,   0.00325,278126336.00000,   0.00300,   0.00225,  -0.00165,-22815456.00000,   0.00000
-88048764.40198,299119170.34986,-167447969.51674,   0.00201,   0.00378,  -0.00383,455727904.00000,   0.00325,278126336.00000,   0.00300,   0.00225,  -0.00165,-22398432.00000,   0.00000
-92060784.58381,296673849.34193,-167601463.69257,   0.00200,   0.00378,  -0.00383,456165088.00000,   0.00325,278126336.00000,   0.00300,   0.00225,  -0.00165,-21961248.00000,   0.00000
-96080744.11957,294210003.17485,-167749664.96577,   0.00199,   0.00378,  -0.00383,456607168.00000,   0.00325,278126336.00000,   0.00300,   0.00225,  -0.00165,-21519168.00000,   0.00000
-100090117.85010,291735571.20254,-167892573.33637,   0.00197,   0.00377,  -0.00383,457051584.00000,   0.00325,278126336.00000,   0.00300,   0.00225,  -0.00165,-21074752.00000,   0.00000
-104118016.73979,289253199.87631,-168040774.60957,   0.00196,   0.00377,  -0.00384,457531904.00000,   0.00325,278126336.00000,   0.00300,   0.00225,  -0.00165,-20594432.00000,   0.00000
-108153854.98339,286752303.39093,-168183682.98017,   0.00195,   0.00377,  -0.00384,458034048.00000,   0.00325,278126336.00000,   0.00300,   0.00225,  -0.00165,-20092288.00000,   0.00000
-112197632.58091,284232881.74640,-168326591.35076,   0.00193,   0.00376,  -0.00384,458582720.00000,   0.00325,278126336.00000,   0.00300,   0.00225,  -0.00165,-19543616.00000,   0.00000
-116241410.17844,281713460.10187,-168469499.72135,   0.00192,   0.00376,  -0.00384,459208192.00000,   0.00325,278126336.00000,   0.00300,   0.00225,  -0.00165,-18918144.00000,   0.00000
-120293127.12989,279175513.29819,-168607115.18933,   0.00191,   0.00376,  -0.00384,459905504.00000,   0.00325,278126336.00000,   0.00300,   0.00225,  -0.00165,-18220832.00000,   0.00000
-124363369.24048,276629627.14059,-168744730.65731,   0.00189,   0.00375,  -0.00385,460693184.00000,   0.00325,278126336.00000,   0.00300,   0.00225,  -0.00165,-17433152.00000,   0.00000
-128423025.54585,274073155.17775,-168877053.22268,   0.00188,   0.00375,  -0.00385,461532864.00000,   0.00325,278126336.00000,   0.00300,   0.00225,  -0.00165,-16593472.00000,   0.00000
-132490621.20514,271498158.05577,-169014668.69065,   0.00187,   0.00375,  -0.00385,462425056.00000,   0.00325,278126336.00000,   0.00300,   0.00225,  -0.00165,-15701280.00000,   0.00000
-136566156.21836,268904635.77463,-169146991.25602,   0.00185,   0.00374,  -0.00385,463332704.00000,   0.00325,278126336.00000,   0.00300,   0.00225,  -0.00165,-14793632.00000,   0.00000
-140641691.23157,266311113.49350,-169279313.82138,   0.00184,   0.00374,  -0.00385,464245856.00000,   0.00325,278126336.00000,   0.00300,   0.00225,  -0.00165,-13880480.00000,   0.00000
-144717226.24478,263717591.21236,-169406343.48413,   0.00183,   0.00373,  -0.00385,465129952.00000,   0.00325,278126336.00000,   0.00300,   0.00225,  -0.00165,-12996384.00000,   0.00000
-148808639.96584,261087018.61292,-169538666.04950,   0.00181,   0.00373,  -0.00386,465954464.00000,   0.00325,278126336.00000,   0.00300,   0.00225,  -0.00165,-12171872.00000,   0.00000
-152900053.68689,258456446.01349,-169665695.71225,   0.00180,   0.00373,  -0.00386,466699712.00000,   0.00325,278126336.00000,   0.00300,   0.00225,  -0.00165,-11426624.00000,   0.00000
-156999406.76187,255807348.25490,-169787432.47238,   0.00178,   0.00372,  -0.00386,467336192.00000,   0.00325,278126336.00000,   0.00300,   0.00225,  -0.00165,-10790144.00000,   0.00000
-161098759.83685,253158250.49631,-169914462.13513,   0.00177,   0.00372,  -0.00386,467880032.00000,   0.00325,278126336.00000,   0.00300,   0.00225,  -0.00165,-10246304.00000,   0.00000
-165206052.26575,250490627.57857,-170036198.89526,   0.00176,   0.00371,  -0.00386,468306336.00000,   0.00325,278126336.00000,   0.00300,   0.00225,  -0.00165,-9820000.00000,   0.00000
-169302758.88942,247812418.85560,-170157935.65540,   0.00174,   0.00371,  -0.00386,468643296.00000,   0.00325,278126336.00000,   0.00300,   0.00225,  -0.00165,-9483040.00000,   0.00000
-173417990.67224,245126270.77871,-170279672.41553,   0.00173,   0.00371,  -0.00387,468993696.00000,   0.00325,278126336.00000,   0.00300,   0.00225,  -0.00165,-9132640.00000,   0.00000
-177541161.80898,242421597.54267,-170401409.17567,   0.00172,   0.00370,  -0.00387,469500032.00000,   0.00325,278126336.00000,   0.00300,   0.00225,  -0.00165,-8626304.00000,   0.00000
-181653747.14050,239706338.50140,-170517853.03319,   0.00170,   0.00370,  -0.00387,470039680.00000,   0.00325,278126336.00000,   0.00300,   0.00225,  -0.00165,-8086656.00000,   0.00000
-185766332.47201,236991079.46013,-170634296.89071,   0.00169,   0.00369,  -0.00387,470612480.00000,   0.00325,278126336.00000,   0.00300,   0.00225,  -0.00165,-7513856.00000,   0.00000
-189905382.31660,234249355.90579,-170750740.74823,   0.00168,   0.00369,  -0.00387,471268224.00000,   0.00325,278126336.00000,   0.00300,   0.00225,  -0.00165,-6858112.00000,   0.00000
-194033846.35596,231497046.54622,-170867184.60575,   0.00166,   0.00368,  -0.00387,472106656.00000,   0.00325,278126336.00000,   0.00300,   0.00225,  -0.00165,-6019680.00000,   0.00000
-198162310.39532,228744737.18665,-170978335.56066,   0.00165,   0.00368,  -0.00387,473133824.00000,   0.00325,278126336.00000,   0.00300,   0.00225,  -0.00165,-4992512.00000,   0.00000
-202298713.78860,225973902.66792,-171094779.41818,   0.00164,   0.00367,  -0.00388,474292640.00000,   0.00325,278126336.00000,   0.00300,   0.00225,  -0.00165,-3833696.00000,   0.00000
-206416592.02272,223211007.50312,-171205930.37308,   0.00162,   0.00367,  -0.00388,475507744.00000,   0.00325,278126336.00000,   0.00300,   0.00225,  -0.00165,-2618592.00000,   0.00000
-210560934.76993,220421647.82525,-171317081.32799,   0.00161,   0.00367,  -0.00388,476748736.00000,   0.00325,278126336.00000,   0.00300,   0.00225,  -0.00165,-1377600.00000,   0.00000
-214694691.71190,217621702.34215,-171428232.28289,   0.00160,   0.00366,  -0.00388,477960384.00000,   0.00325,278126336.00000,   0.00300,   0.00225,  -0.00165,-165952.00000,   0.00000
-215277117.75351,217225354.90808,-171443118.57150,   0.00159,   0.00366,  -0.00388,478125760.00000,   0.00325,278126336.00000,   0.00300,   0.00225,  -0.00165,-576.00000,   0.00000
-218366118.90725,214389891.68888,-171177318.38617,   0.00158,   0.00366,  -0.00388,478125760.00000,   0.00326,278130816.00000,   0.00299,   0.00226,  -0.00166,  64.00000,   2.00000
-222004259.65282,211088046.01005,-170900039.97347,   0.00157,   0.00365,  -0.00388,479221728.00000,   0.00326,278135712.00000,   0.00299,   0.00226,  -0.00166, 128.00000,   2.00000
-225694824.91487,207799154.09243,-170651362.50169,   0.00156,   0.00365,  -0.00388,479149536.00000,   0.00327,278140288.00000,   0.00299,   0.00226,  -0.00167,  96.00000,   2.00000
-229445595.71556,204493914.19273,-170433871.21553,   0.00154,   0.00364,  -0.00389,479079040.00000,   0.00327,278144480.00000,   0.00299,   0.00226,  -0.00167,  96.00000,   2.00000
-233198009.71890,201209824.47752,-170233338.73383,   0.00153,   0.00364,  -0.00389,479043456.00000,   0.00328,278148512.00000,   0.00298,   0.00227,  -0.00167,  32.00000,   2.00000
-236970537.88924,197900621.52758,-170033738.37553,   0.00152,   0.00363,  -0.00389,479049344.00000,   0.00328,278152544.00000,   0.00298,   0.00227,  -0.00168,  96.00000,   2.00000
-240698034.38983,194594540.40524,-169823754.02404,   0.00150,   0.00363,  -0.00389,479084128.00000,   0.00328,278156736.00000,   0.00298,   0.00227,  -0.00168, 128.00000,   2.00000
-244376604.26093,191273475.85513,-169592239.66065,   0.00149,   0.00362,  -0.00389,479132416.00000,   0.00329,278161120.00000,   0.00298,   0.00228,  -0.00169,   0.00000,   2.00000
-248009647.68785,187924605.77789,-169332831.16682,   0.00148,   0.00362,  -0.00389,479227392.00000,   0.00329,278165920.00000,   0.00297,   0.00228,  -0.00169,  96.00000,   2.00000
-251594167.05617,184546753.25599,-169047542.96492,   0.00146,   0.00361,  -0.00389,479284000.00000,   0.00330,278170976.00000,   0.00297,   0.00228,  -0.00170,  96.00000,   2.00000
-255126034.92531,181161177.54990,-168735248.76662,   0.00145,   0.00361,  -0.00389,479358432.00000,   0.00330,278176352.00000,   0.00296,   0.00228,  -0.00170,  32.00000,   2.00000
-258613967.71733,177769272.01620,-168404962.24199,   0.00144,   0.00360,  -0.00390,479423616.00000,   0.00331,278181984.00000,   0.00296,   0.00229,  -0.00171,  32.00000,   2.00000
-262073099.33571,174371833.84597,-168061186.19372,   0.00142,   0.00360,  -0.00390,479447808.00000,   0.00331,278187712.00000,   0.00296,   0.00229,  -0.00171,  96.00000,   2.00000
-265524467.08395,170956462.13040,-167709920.58065,   0.00141,   0.00359,  -0.00390,479473184.00000,   0.00332,278193504.00000,   0.00295,   0.00230,  -0.00172,  64.00000,   2.00000
-268976457.98482,167525415.75953,-167351540.62199,   0.00140,   0.00359,  -0.00390,479485184.00000,   0.00332,278199360.00000,   0.00295,   0.00230,  -0.00172,  32.00000,   2.00000
-272412533.95313,164091439.88943,-166992340.45028,   0.00138,   0.00358,  -0.00390,479511840.00000,   0.00333,278205248.00000,   0.00294,   0.00230,  -0.00173,  96.00000,   2.00000
-275829120.70873,160651344.47189,-166633415.76076,   0.00137,   0.00357,  -0.00390,479522048.00000,   0.00334,278211200.00000,   0.00294,   0.00231,  -0.00174, -64.00000,   2.00000
-279222136.16581,157211017.06723,-166267573.61191,   0.00136,   0.00357,  -0.00390,479553888.00000,   0.00334,278217216.00000,   0.00294,   0.00231,  -0.00174,  32.00000,   2.00000
-282597918.21751,153756142.04871,-165890381.53716,   0.00135,   0.00356,  -0.00391,479583680.00000,   0.00335,278223360.00000,   0.00293,   0.00231,  -0.00175,  96.00000,   2.00000
-285930715.07299,150294367.17745,-165509115.47257,   0.00133,   0.00356,  -0.00391,479622880.00000,   0.00335,278229632.00000,   0.00293,   0.00232,  -0.00176, -96.00000,   2.00000
-289226724.45741,146835787.07903,-165110742.81075,   0.00132,   0.00355,  -0.00391,479669120.00000,   0.00336,278236064.00000,   0.00292,   0.00232,  -0.00176,   0.00000,   2.00000
-292491909.19716,143360433.64695,-164704002.12762,   0.00131,   0.00355,  -0.00391,479720032.00000,   0.00337,278242688.00000,   0.00292,   0.00232,  -0.00177,  96.00000,   2.00000
-295724894.64327,139882160.01997,-164286653.10155,   0.00129,   0.00354,  -0.00391,479745760.00000,   0.00337,278249408.00000,   0.00291,   0.00233,  -0.00177,   0.00000,   2.00000
-298931720.08529,136405242.07602,-163859712.44248,   0.00128,   0.00354,  -0.00391,479783072.00000,   0.00338,278256224.00000,   0.00291,   0.00233,  -0.00178,  64.00000,   2.00000
-302126749.07700,132910385.06864,-163430755.05889,   0.00127,   0.00353,  -0.00391,479812928.00000,   0.00339,278263136.00000,   0.00290,   0.00234,  -0.00179,   0.00000,   2.00000
-305299006.45482,129428252.54272,-162997030.14663,   0.00125,   0.00352,  -0.00391,479819744.00000,   0.00339,278270048.00000,   0.00290,   0.00234,  -0.00180, 160.00000,   2.00000
-308481885.37334,125911790.79135,-162563204.97860,   0.00124,   0.00352,  -0.00392,479828320.00000,   0.00340,278276960.00000,   0.00289,   0.00234,  -0.00180, -96.00000,   2.00000
-311631610.89633,122423566.88195,-162128907.34932,   0.00123,   0.00351,  -0.00392,479838304.00000,   0.00341,278283904.00000,   0.00289,   0.00235,  -0.00181,  64.00000,   2.00000
-314787986.25373,118899669.37819,-161698835.00283,   0.00122,   0.00351,  -0.00392,479850432.00000,   0.00341,278290880.00000,   0.00288,   0.00235,  -0.00182,   0.00000,   2.00000
-317934122.18321,115378074.01185,-161262656.89319,   0.00120,   0.00350,  -0.00392,479862400.00000,   0.00342,278297888.00000,   0.00288,   0.00236,  -0.00182, -64.00000,   2.00000
-321062663.67083,111851226.39356,-160828129.88493,   0.00119,   0.00349,  -0.00392,479867616.00000,   0.00343,278304896.00000,   0.00287,   0.00236,  -0.00183, 128.00000,   2.00000
-324168750.47869,108324909.23910,-160392925.31506,   0.00118,   0.00349,  -0.00392,479895520.00000,   0.00343,278312000.00000,   0.00286,   0.00236,  -0.00184,  64.00000,   2.00000
-327255324.18346,104796065.61179,-159954050.98302,   0.00117,   0.00348,  -0.00392,479901152.00000,   0.00344,278319104.00000,   0.00286,   0.00237,  -0.00184,   0.00000,   2.00000
-330328650.93631,101253541.89907,-159510690.56155,   0.00115,   0.00348,  -0.00392,479925344.00000,   0.00345,278326272.00000,   0.00285,   0.00237,  -0.00185,  32.00000,   2.00000
-333372394.81001,97714359.76842,-159063997.78033,   0.00114,   0.00347,  -0.00393,479961856.00000,   0.00345,278333600.00000,   0.00285,   0.00238,  -0.00186,   0.00000,   2.00000
-336390937.84762,94175093.85526,-158610946.56490,   0.00113,   0.00346,  -0.00393,479975936.00000,   0.00346,278340928.00000,   0.00284,   0.00238,  -0.00186,  32.00000,   2.00000
-339376521.56258,90633923.86704,-158157944.06791,   0.00111,   0.00346,  -0.00393,480002336.00000,   0.00347,278348320.00000,   0.00284,   0.00238,  -0.00187, -32.00000,   2.00000
-342336932.49023,87101353.32692,-157692574.53024,   0.00110,   0.00345,  -0.00393,480033984.00000,   0.00347,278355808.00000,   0.00283,   0.00239,  -0.00188, 128.00000,   2.00000
-345275452.34518,83558113.99617,-157222703.57283,   0.00109,   0.00344,  -0.00393,480073440.00000,   0.00348,278363424.00000,   0.00282,   0.00239,  -0.00189, 128.00000,   2.00000
-348174456.53335,80033975.42328,-156746863.80171,   0.00108,   0.00344,  -0.00393,480101056.00000,   0.00349,278371104.00000,   0.00282,   0.00240,  -0.00189,  96.00000,   2.00000
-351059271.64131,76502618.72147,-156258845.95088,   0.00107,   0.00343,  -0.00393,480131136.00000,   0.00350,278378848.00000,   0.00281,   0.00240,  -0.00190,  96.00000,   2.00000
-353911471.60170,72972500.88529,-155769207.38072,   0.00105,   0.00343,  -0.00393,480161280.00000,   0.00350,278386688.00000,   0.00281,   0.00240,  -0.00191,  64.00000,   2.00000
-356744785.43869,69435014.53379,-155270636.99471,   0.00104,   0.00342,  -0.00394,480197760.00000,   0.00351,278394592.00000,   0.00280,   0.00241,  -0.00192, 256.00000,   2.00000
-359537267.43084,65918163.55883,-154765875.20962,   0.00103,   0.00341,  -0.00394,480226560.00000,   0.00352,278402592.00000,   0.00279,   0.00241,  -0.00193,  96.00000,   2.00000
-362298839.84871,62411976.07824,-154251759.05209,   0.00102,   0.00341,  -0.00394,480265920.00000,   0.00353,278410688.00000,   0.00279,   0.00241,  -0.00193,  64.00000,   2.00000
-365034069.43434,58888573.60239,-153737966.91175,   0.00100,   0.00340,  -0.00394,480292832.00000,   0.00354,278418880.00000,   0.00278,   0.00242,  -0.00194, 160.00000,   2.00000
-367731554.09292,55384483.21853,-153216817.94282,   0.00099,   0.00339,  -0.00394,480311648.00000,   0.00354,278427104.00000,   0.00277,   0.00242,  -0.00195,  96.00000,   2.00000
-370396022.35486,51886768.22901,-152693322.54119,   0.00098,   0.00339,  -0.00394,480348064.00000,   0.00355,278435456.00000,   0.00277,   0.00243,  -0.00196, -32.00000,   2.00000
-373057224.58251,48358791.85322,-152163741.69794,   0.00097,   0.00338,  -0.00394,480364608.00000,   0.00356,278443840.00000,   0.00276,   0.00243,  -0.00197, 128.00000,   2.00000
-375672276.12621,44861339.26345,-151638660.48039,   0.00095,   0.00337,  -0.00395,480381824.00000,   0.00357,278452288.00000,   0.00275,   0.00243,  -0.00197,  64.00000,   2.00000
-378277277.51155,41339252.26433,-151118346.59820,   0.00094,   0.00336,  -0.00395,480383072.00000,   0.00358,278460736.00000,   0.00274,   0.00244,  -0.00198,  64.00000,   2.00000
-380865194.01984,37818973.84089,-150598787.63235,   0.00093,   0.00336,  -0.00395,480397952.00000,   0.00358,278469216.00000,   0.00274,   0.00244,  -0.00199, 160.00000,   2.00000
-383436036.49787,34292386.49975,-150084621.55035,   0.00092,   0.00335,  -0.00395,480399392.00000,   0.00359,278477696.00000,   0.00273,   0.00245,  -0.00200, 128.00000,   2.00000
-385988790.34019,30769791.36988,-149570986.44200,   0.00091,   0.00334,  -0.00395,480416832.00000,   0.00360,278486240.00000,   0.00272,   0.00245,  -0.00201, 160.00000,   2.00000
-388516680.72818,27243872.08801,-149064506.85506,   0.00089,   0.00334,  -0.00395,480429472.00000,   0.00361,278494784.00000,   0.00272,   0.00245,  -0.00201,  32.00000,   2.00000
-391034015.62169,23708723.71135,-148552413.27519,   0.00088,   0.00333,  -0.00395,480448384.00000,   0.00362,278503360.00000,   0.00271,   0.00246,  -0.00202,  96.00000,   2.00000
-393512031.27022,20192128.63700,-148043527.80313,   0.00087,   0.00332,  -0.00395,480470688.00000,   0.00362,278512000.00000,   0.00270,   0.00246,  -0.00203,  32.00000,   2.00000
-395964172.77892,16674843.42443,-147533391.66045,   0.00086,   0.00331,  -0.00396,480486048.00000,   0.00363,278520672.00000,   0.00269,   0.00247,  -0.00204,  32.00000,   2.00000
-398400830.14827,13140553.43137,-147021612.48354,   0.00085,   0.00331,  -0.00396,480509088.00000,   0.00364,278529440.00000,   0.00269,   0.00247,  -0.00205, 128.00000,   2.00000
-400819643.80091,9618794.23591,-146505739.28827,   0.00084,   0.00330,  -0.00396,480495168.00000,   0.00365,278538176.00000,   0.00268,   0.00247,  -0.00205, 160.00000,   2.00000
-403214624.96114,6118501.24650,-145995850.84799,   0.00082,   0.00329,  -0.00396,480498752.00000,   0.00366,278546880.00000,   0.00267,   0.00248,  -0.00206, 160.00000,   2.00000
-405562506.93321,2657137.41771,-145476506.61022,   0.00081,   0.00329,  -0.00396,480575232.00000,   0.00367,278555680.00000,   0.00266,   0.00248,  -0.00207, 128.00000,   2.00000
-407815053.10218,-743091.80456,-144938671.32291,   0.00080,   0.00328,  -0.00396,480697952.00000,   0.00368,278564672.00000,   0.00266,   0.00249,  -0.00208,  96.00000,   2.00000
-409994409.03577,-4124123.71093,-144377080.38124,   0.00079,   0.00327,  -0.00397,480827872.00000,   0.00368,278573952.00000,   0.00265,   0.00249,  -0.00209,  32.00000,   2.00000
-412106908.24637,-7471454.13895,-143801136.53093,   0.00078,   0.00326,  -0.00397,480910016.00000,   0.00369,278583392.00000,   0.00264,   0.00249,  -0.00210, 160.00000,   2.00000
-414175356.05525,-10810809.46300,-143220383.25511,   0.00077,   0.00326,  -0.00397,480966016.00000,   0.00370,278592960.00000,   0.00263,   0.00250,  -0.00211, 160.00000,   2.00000
-416222780.49365,-14154555.24393,-142630883.85492,   0.00076,   0.00325,  -0.00397,481010208.00000,   0.00371,278602624.00000,   0.00262,   0.00250,  -0.00212, 128.00000,   2.00000
-418240368.85584,-17479887.45211,-142039222.03294,   0.00074,   0.00324,  -0.00397,481027520.00000,   0.00372,278612288.00000,   0.00261,   0.00250,  -0.00213,  96.00000,   2.00000
-420236783.12597,-20808449.90366,-141451167.49829,   0.00073,   0.00323,  -0.00397,481039840.00000,   0.00373,278621984.00000,   0.00260,   0.00251,  -0.00213, 224.00000,   2.00000
-422219624.65505,-24132615.44963,-140860484.23110,   0.00072,   0.00322,  -0.00398,481052160.00000,   0.00374,278631744.00000,   0.00260,   0.00251,  -0.00214, 288.00000,   2.00000
-424192881.00711,-27477022.47197,-140276617.12032,   0.00071,   0.00322,  -0.00398,481030048.00000,   0.00375,278641408.00000,   0.00259,   0.00251,  -0.00215,  96.00000,   2.00000
-426160197.45870,-30812114.27238,-139689614.73605,   0.00070,   0.00321,  -0.00398,481040000.00000,   0.00376,278651168.00000,   0.00258,   0.00252,  -0.00216, 160.00000,   2.00000
-428124373.68006,-34172736.76932,-139113137.48102,   0.00069,   0.00320,  -0.00398,481005312.00000,   0.00377,278660832.00000,   0.00257,   0.00252,  -0.00217, 160.00000,   2.00000
-430082382.17859,-37539439.17082,-138545825.81081,   0.00068,   0.00319,  -0.00398,480997440.00000,   0.00378,278670496.00000,   0.00256,   0.00253,  -0.00218,  96.00000,   2.00000
-432037658.39958,-40924478.37610,-137990740.85204,   0.00067,   0.00319,  -0.00398,480970336.00000,   0.00379,278680096.00000,   0.00255,   0.00253,  -0.00219, 192.00000,   2.00000
-433975557.29565,-44310122.96692,-137454812.73148,   0.00065,   0.00318,  -0.00399,480948608.00000,   0.00380,278689632.00000,   0.00254,   0.00253,  -0.00220, 128.00000,   2.00000
-435911397.02691,-47723020.19890,-136932974.51584,   0.00064,   0.00317,  -0.00399,480937664.00000,   0.00381,278699200.00000,   0.00253,   0.00254,  -0.00221, 192.00000,   2.00000
-437834065.31320,-51154686.74097,-136430661.94145,   0.00063,   0.00316,  -0.00399,480916960.00000,   0.00381,278708704.00000,   0.00253,   0.00254,  -0.00222, 224.00000,   2.00000
-439733114.22610,-54585297.77409,-135948575.46556,   0.00062,   0.00315,  -0.00399,480898848.00000,   0.00382,278718176.00000,   0.00252,   0.00254,  -0.00222, 224.00000,   2.00000
-441610228.36003,-58031619.80602,-135490720.72871,   0.00061,   0.00314,  -0.00399,480887424.00000,   0.00383,278727616.00000,   0.00251,   0.00255,  -0.00223, 128.00000,   2.00000
-443465860.39147,-61480315.14942,-135048922.73604,   0.00060,   0.00314,  -0.00399,480887520.00000,   0.00384,278737056.00000,   0.00250,   0.00255,  -0.00224, 160.00000,   2.00000
-445297999.36524,-64938121.66428,-134625380.12090,   0.00059,   0.00313,  -0.00400,480878624.00000,   0.00385,278746496.00000,   0.00249,   0.00256,  -0.00225,  96.00000,   2.00000
-447099024.96714,-68400615.79269,-134222764.06816,   0.00058,   0.00312,  -0.00400,480878272.00000,   0.00386,278755936.00000,   0.00248,   0.00256,  -0.00225,  96.00000,   2.00000
-448865460.92347,-71851864.62564,-133831370.26145,   0.00057,   0.00311,  -0.00400,480893312.00000,   0.00387,278765440.00000,   0.00247,   0.00256,  -0.00226,  96.00000,   2.00000
