# sigma_xx, sigma_yy, sigma_xy, epsilon_xx, epsilon_yy, epsilon_xy, vonMises, epsPlastic, hardening, epsilonP__xx, epsilonP__yy, epsilonP__xy, yieldValue, iteration
   0.00000,   0.00000,   0.00000,   0.00000,   0.00000,   0.00000,   0.00000,   0.00000,274640135.82653,   0.00000,   0.00000,   0.00000,-474640135.82653,   0.00000
   0.00000,   0.00000,   0.00000,   0.00000,   0.00000,   0.00000,   0.00000,   0.00000,274640135.82653,   0.00000,   0.00000,   0.00000,-474640135.82653,   0.00000
-2028127.59458,-3346410.53105,608438.27837,  -0.00000,  -0.00001,   0.00001,3104095.49743,   0.00000,274640135.82653,   0.00000,   0.00000,   0.00000,-471536040.32910,   0.00000
-4030903.59422,-6667469.46717,1216876.55675,  -0.00001,  -0.00002,   0.00002,6186256.69570,   0.00000,274640135.82653,   0.00000,   0.00000,   0.00000,-468453879.13083,   0.00000
-6026074.11539,-9970782.28684,1815174.19715,  -0.00001,  -0.00003,   0.00002,9248241.33037,   0.00000,274640135.82653,   0.00000,   0.00000,   0.00000,-465391894.49616,   0.00000
-7978146.92517,-13241138.03310,2413471.83755,  -0.00001,  -0.00004,   0.00003,12280609.06545,   0.00000,274640135.82653,   0.00000,   0.00000,   0.00000,-462359526.76108,   0.00000
-9897262.66154,-16468396.06797,3006699.15896,  -0.00001,  -0.00006,   0.00004,15273917.48182,   0.00000,274640135.82653,   0.00000,   0.00000,   0.00000,-459366218.34471,   0.00000
-11816378.39791,-19695654.10284,3594856.16139,  -0.00002,  -0.00007,   0.00005,18264261.81840,   0.00000,274640135.82653,   0.00000,   0.00000,   0.00000,-456375874.00813,   0.00000
-13692396.42289,-22889955.06430,4177942.84483,  -0.00002,  -0.00008,   0.00005,21222135.68538,   0.00000,274640135.82653,   0.00000,   0.00000,   0.00000,-453418000.14115,   0.00000
-15560808.96939,-26066509.90930,4755959.20928,  -0.00002,  -0.00009,   0.00006,24162847.04743,   0.00000,274640135.82653,   0.00000,   0.00000,   0.00000,-450477288.77910,   0.00000
-17386123.80451,-29210107.68090,5328905.25475,  -0.00002,  -0.00010,   0.00007,27071180.92797,   0.00000,274640135.82653,   0.00000,   0.00000,   0.00000,-447568954.89856,   0.00000
-19196227.68267,-32318213.21959,5896780.98123,  -0.00002,  -0.00011,   0.00008,29948127.84655,   0.00000,274640135.82653,   0.00000,   0.00000,   0.00000,-444692007.97998,   0.00000
-20970839.32793,-35411107.80132,6464656.70772,  -0.00003,  -0.00012,   0.00008,32810019.27392,   0.00000,274640135.82653,   0.00000,   0.00000,   0.00000,-441830116.55261,   0.00000
-22730240.01623,-38468510.15014,7027462.11521,  -0.00003,  -0.00013,   0.00009,35640528.71283,   0.00000,274640135.82653,   0.00000,   0.00000,   0.00000,-438999607.11370,   0.00000
-24454148.47162,-41510701.54201,7580126.88473,  -0.00003,  -0.00014,   0.00010,38450095.34550,   0.00000,274640135.82653,   0.00000,   0.00000,   0.00000,-436190040.48102,   0.00000
-26162845.97005,-44517400.70097,8132791.65425,  -0.00003,  -0.00015,   0.00011,41231280.32418,   0.00000,274640135.82653,   0.00000,   0.00000,   0.00000,-433408855.50235,   0.00000
-27853797.35203,-47516494.38145,8680386.10479,  -0.00003,  -0.00016,   0.00011,44002088.23039,   0.00000,274640135.82653,   0.00000,   0.00000,   0.00000,-430638047.59613,   0.00000
-29494045.54414,-50464884.87207,9222910.23634,  -0.00004,  -0.00017,   0.00012,46726608.42172,   0.00000,274640135.82653,   0.00000,   0.00000,   0.00000,-427913527.40480,   0.00000
-31126688.25778,-53395529.24623,9765434.36789,  -0.00004,  -0.00018,   0.00013,49437014.44623,   0.00000,274640135.82653,   0.00000,   0.00000,   0.00000,-425203121.38030,   0.00000
-32733979.37648,-56300822.02547,10297817.86147,  -0.00004,  -0.00019,   0.00013,52119873.15436,   0.00000,274640135.82653,   0.00000,   0.00000,   0.00000,-422520262.67217,   0.00000
-34315918.90025,-59180763.20977,10830201.35504,  -0.00004,  -0.00020,   0.00014,54781224.31518,   0.00000,274640135.82653,   0.00000,   0.00000,   0.00000,-419858911.51135,   0.00000
-35854760.71263,-62027747.32065,11352444.21065,  -0.00004,  -0.00021,   0.00015,57407745.42147,   0.00000,274640135.82653,   0.00000,   0.00000,   0.00000,-417232390.40505,   0.00000
-37385997.04654,-64856985.31509,11874687.06625,  -0.00004,  -0.00022,   0.00015,60020186.90951,   0.00000,274640135.82653,   0.00000,   0.00000,   0.00000,-414619948.91702,   0.00000
-38884276.30703,-67643125.59814,12391859.60287,  -0.00005,  -0.00023,   0.00016,62593929.03333,   0.00000,274640135.82653,   0.00000,   0.00000,   0.00000,-412046206.79320,   0.00000
-40364809.45107,-70421660.40271,12903961.82050,  -0.00005,  -0.00024,   0.00017,65157561.99020,   0.00000,274640135.82653,   0.00000,   0.00000,   0.00000,-409482573.83633,   0.00000
-41812385.52170,-73157097.49590,13416064.03813,  -0.00005,  -0.00025,   0.00017,67685567.55851,   0.00000,274640135.82653,   0.00000,   0.00000,   0.00000,-406954568.26802,   0.00000
-43234609.99740,-75867182.99415,13918025.61779,  -0.00005,  -0.00026,   0.00018,70186232.26840,   0.00000,274640135.82653,   0.00000,   0.00000,   0.00000,-404453903.55813,   0.00000
-44631482.87817,-78551916.89747,14419987.19744,  -0.00005,  -0.00027,   0.00019,72665620.96644,   0.00000,274640135.82653,   0.00000,   0.00000,   0.00000,-401974514.86009,   0.00000
-46003004.16400,-81211299.20586,14916878.45812,  -0.00005,  -0.00028,   0.00019,75120753.21832,   0.00000,274640135.82653,   0.00000,   0.00000,   0.00000,-399519382.60820,   0.00000
-47331427.73845,-83837724.44084,15403629.08081,  -0.00005,  -0.00029,   0.00020,77541500.25392,   0.00000,274640135.82653,   0.00000,   0.00000,   0.00000,-397098635.57261,   0.00000
-48644640.35594,-86428657.44291,15895450.02250,  -0.00005,  -0.00030,   0.00021,79936968.28902,   0.00000,274640135.82653,   0.00000,   0.00000,   0.00000,-394703167.53751,   0.00000
-49932501.37849,-88994238.85005,16377130.32621,  -0.00005,  -0.00031,   0.00021,82305257.92147,   0.00000,274640135.82653,   0.00000,   0.00000,   0.00000,-392334877.90506,   0.00000
-51202616.28460,-91552214.77871,16853740.31094,  -0.00005,  -0.00032,   0.00022,84663739.04666,   0.00000,274640135.82653,   0.00000,   0.00000,   0.00000,-389976396.77987,   0.00000
-52432168.63881,-94049346.87954,17330350.29566,  -0.00006,  -0.00033,   0.00023,86972546.61552,   0.00000,274640135.82653,   0.00000,   0.00000,   0.00000,-387667589.21101,   0.00000
-53643974.87657,-96538873.50188,17801889.96140,  -0.00006,  -0.00033,   0.00023,89271625.34320,   0.00000,274640135.82653,   0.00000,   0.00000,   0.00000,-385368510.48333,   0.00000
-54830429.51940,-99003048.52929,18268359.30815,  -0.00006,  -0.00034,   0.00024,91546702.83642,   0.00000,274640135.82653,   0.00000,   0.00000,   0.00000,-383093432.99011,   0.00000
-55983927.08881,-101424125.84532,18729758.33592,  -0.00006,  -0.00035,   0.00024,93783495.73015,   0.00000,274640135.82653,   0.00000,   0.00000,   0.00000,-380856640.09638,   0.00000
-57112073.06330,-103819851.56641,19191157.36369,  -0.00006,  -0.00036,   0.00025,95999401.47548,   0.00000,274640135.82653,   0.00000,   0.00000,   0.00000,-378640734.35105,   0.00000
-58214867.44285,-106190225.69257,19642415.75348,  -0.00006,  -0.00037,   0.00026,98188382.21249,   0.00000,274640135.82653,   0.00000,   0.00000,   0.00000,-376451753.61404,   0.00000
-59292310.22747,-108535248.22380,20093674.14327,  -0.00006,  -0.00038,   0.00026,100356563.17621,   0.00000,274640135.82653,   0.00000,   0.00000,   0.00000,-374283572.65032,   0.00000
-60336795.93867,-110837173.04365,20539862.21408,  -0.00006,  -0.00039,   0.00027,102486612.78147,   0.00000,274640135.82653,   0.00000,   0.00000,   0.00000,-372153523.04506,   0.00000
-61381281.64988,-113139097.86349,20980979.96590,  -0.00006,  -0.00040,   0.00027,104614047.48772,   0.00000,274640135.82653,   0.00000,   0.00000,   0.00000,-370026088.33881,   0.00000
-62375064.17122,-115390319.49348,21417027.39874,  -0.00006,  -0.00040,   0.00028,106696593.51555,   0.00000,274640135.82653,   0.00000,   0.00000,   0.00000,-367943542.31098,   0.00000
-63343495.09764,-117616189.52852,21853074.83157,  -0.00006,  -0.00041,   0.00028,108758523.91594,   0.00000,274640135.82653,   0.00000,   0.00000,   0.00000,-365881611.91059,   0.00000
-64278968.95063,-119798961.85219,22284051.94542,  -0.00006,  -0.00042,   0.00029,110782490.82920,   0.00000,274640135.82653,   0.00000,   0.00000,   0.00000,-363857644.99733,   0.00000
-65189091.20870,-121956382.58092,22709958.74028,  -0.00006,  -0.00043,   0.00030,112782878.99874,   0.00000,274640135.82653,   0.00000,   0.00000,   0.00000,-361857256.82779,   0.00000
-66081467.35031,-124106197.83117,23130795.21615,  -0.00006,  -0.00044,   0.00030,114774082.74224,   0.00000,274640135.82653,   0.00000,   0.00000,   0.00000,-359866053.08429,   0.00000
-66933280.94004,-126195169.25359,23551631.69203,  -0.00006,  -0.00044,   0.00031,116716177.92527,   0.00000,274640135.82653,   0.00000,   0.00000,   0.00000,-357923957.90126,   0.00000
-67767348.41331,-128276535.19752,23962327.52993,  -0.00006,  -0.00045,   0.00031,118646119.87429,   0.00000,274640135.82653,   0.00000,   0.00000,   0.00000,-355994015.95224,   0.00000
-68568458.81317,-130314803.43007,24373023.36783,  -0.00006,  -0.00046,   0.00032,120541399.98174,   0.00000,274640135.82653,   0.00000,   0.00000,   0.00000,-354098735.84479,   0.00000
-69344217.61809,-132327720.06769,24778648.88675,  -0.00006,  -0.00047,   0.00032,122413349.43566,   0.00000,274640135.82653,   0.00000,   0.00000,   0.00000,-352226786.39087,   0.00000
-70094624.82808,-134315285.11037,25184274.40566,  -0.00006,  -0.00047,   0.00033,124265102.73444,   0.00000,274640135.82653,   0.00000,   0.00000,   0.00000,-350375033.09209,   0.00000
-70819680.44315,-136277498.55813,25579759.28661,  -0.00006,  -0.00048,   0.00033,126090551.22147,   0.00000,274640135.82653,   0.00000,   0.00000,   0.00000,-348549584.60506,   0.00000
-71511778.98480,-138196614.29450,25975244.16755,  -0.00006,  -0.00049,   0.00034,127881558.19683,   0.00000,274640135.82653,   0.00000,   0.00000,   0.00000,-346758577.62970,   0.00000
-72196272.04797,-140097983.91441,26365658.72950,  -0.00006,  -0.00050,   0.00034,129655846.43653,   0.00000,274640135.82653,   0.00000,   0.00000,   0.00000,-344984289.39000,   0.00000
-72830061.92127,-141948650.34446,26756073.29146,  -0.00005,  -0.00050,   0.00035,131389385.54456,   0.00000,274640135.82653,   0.00000,   0.00000,   0.00000,-343250750.28197,   0.00000
-73446105.67812,-143791711.29604,27136347.21544,  -0.00005,  -0.00051,   0.00035,133111192.14337,   0.00000,274640135.82653,   0.00000,   0.00000,   0.00000,-341528943.68316,   0.00000
-74029192.36156,-145591674.53622,27516621.13943,  -0.00005,  -0.00052,   0.00036,134798799.14997,   0.00000,274640135.82653,   0.00000,   0.00000,   0.00000,-339841336.67655,   0.00000
-74586927.45007,-147366286.18148,27891824.74442,  -0.00005,  -0.00053,   0.00036,136463530.71821,   0.00000,274640135.82653,   0.00000,   0.00000,   0.00000,-338176605.10832,   0.00000
-75111705.46517,-149097800.11535,28267028.34942,  -0.00005,  -0.00053,   0.00037,138094195.83920,   0.00000,274640135.82653,   0.00000,   0.00000,   0.00000,-336545939.98733,   0.00000
-75618737.36381,-150821708.57074,28632091.31644,  -0.00005,  -0.00054,   0.00037,139713363.73798,   0.00000,274640135.82653,   0.00000,   0.00000,   0.00000,-334926772.08855,   0.00000
-76085206.71057,-152484773.19829,28997154.28347,  -0.00005,  -0.00055,   0.00038,141284231.66842,   0.00000,274640135.82653,   0.00000,   0.00000,   0.00000,-333355904.15811,   0.00000
-76533929.94087,-154140232.34737,29357146.93151,  -0.00005,  -0.00055,   0.00038,142846848.56386,   0.00000,274640135.82653,   0.00000,   0.00000,   0.00000,-331793287.26267,   0.00000
-76967442.21421,-155760199.26354,29717139.57954,  -0.00005,  -0.00056,   0.00039,144381743.49236,   0.00000,274640135.82653,   0.00000,   0.00000,   0.00000,-330258392.33417,   0.00000
-77357856.77616,-157347209.10629,30072061.90859,  -0.00005,  -0.00057,   0.00039,145888060.08262,   0.00000,274640135.82653,   0.00000,   0.00000,   0.00000,-328752075.74391,   0.00000
-77722919.74319,-158908867.35412,30421913.91866,  -0.00004,  -0.00057,   0.00040,147371970.78397,   0.00000,274640135.82653,   0.00000,   0.00000,   0.00000,-327268165.04256,   0.00000
-78055025.63680,-160427427.89056,30766695.60974,  -0.00004,  -0.00058,   0.00040,148819179.96725,   0.00000,274640135.82653,   0.00000,   0.00000,   0.00000,-325820955.85928,   0.00000
-78369385.41396,-161938382.94852,31111477.30082,  -0.00004,  -0.00058,   0.00040,150261641.66232,   0.00000,274640135.82653,   0.00000,   0.00000,   0.00000,-324378494.16421,   0.00000
-78643182.63923,-163388494.17864,31451188.67291,  -0.00004,  -0.00059,   0.00041,151653192.59273,   0.00000,274640135.82653,   0.00000,   0.00000,   0.00000,-322986943.23380,   0.00000
-78916979.86450,-164838605.40876,31785829.72601,  -0.00004,  -0.00060,   0.00041,153042829.14994,   0.00000,274640135.82653,   0.00000,   0.00000,   0.00000,-321597306.67659,   0.00000
-79140073.89990,-166238013.44902,32115400.46013,  -0.00004,  -0.00060,   0.00042,154390208.83195,   0.00000,274640135.82653,   0.00000,   0.00000,   0.00000,-320249926.99458,   0.00000
-79337816.34037,-167612069.89435,32444971.19425,  -0.00003,  -0.00061,   0.00042,155718810.44243,   0.00000,274640135.82653,   0.00000,   0.00000,   0.00000,-318921325.38410,   0.00000
-79502601.70743,-168943028.62829,32769471.60938,  -0.00003,  -0.00061,   0.00043,157011194.16380,   0.00000,274640135.82653,   0.00000,   0.00000,   0.00000,-317628941.66273,   0.00000
-79642035.47956,-170248635.76730,33093972.02451,  -0.00003,  -0.00062,   0.00043,158284986.20812,   0.00000,274640135.82653,   0.00000,   0.00000,   0.00000,-316355149.61841,   0.00000
-79756117.65675,-171528891.31137,33408331.80167,  -0.00003,  -0.00062,   0.00043,159533915.90047,   0.00000,274640135.82653,   0.00000,   0.00000,   0.00000,-315106219.92606,   0.00000
-79854988.87699,-172773654.62255,33722691.57883,  -0.00003,  -0.00063,   0.00044,160755642.18409,   0.00000,274640135.82653,   0.00000,   0.00000,   0.00000,-313884493.64244,   0.00000
-79918367.86432,-174003206.97676,34037051.35599,  -0.00002,  -0.00064,   0.00044,161967811.15575,   0.00000,274640135.82653,   0.00000,   0.00000,   0.00000,-312672324.67078,   0.00000
-79941184.29976,-175171915.50313,34341270.49518,  -0.00002,  -0.00064,   0.00045,163126672.02078,   0.00000,274640135.82653,   0.00000,   0.00000,   0.00000,-311513463.80574,   0.00000
-79946254.61874,-176333018.55103,34650559.95335,  -0.00002,  -0.00065,   0.00045,164284985.84884,   0.00000,274640135.82653,   0.00000,   0.00000,   0.00000,-310355149.97769,   0.00000
-79936113.98077,-177458629.36602,34949708.77355,  -0.00002,  -0.00065,   0.00045,165409917.05762,   0.00000,274640135.82653,   0.00000,   0.00000,   0.00000,-309230218.76891,   0.00000
-79882875.63141,-178551283.10760,35248857.59375,  -0.00002,  -0.00066,   0.00046,166511532.51710,   0.00000,274640135.82653,   0.00000,   0.00000,   0.00000,-308128603.30943,   0.00000
-79796680.20864,-179600839.13779,35542936.09497,  -0.00001,  -0.00066,   0.00046,167577808.14950,   0.00000,274640135.82653,   0.00000,   0.00000,   0.00000,-307062327.67703,   0.00000
-79702879.30739,-180632649.05153,35831944.27719,  -0.00001,  -0.00067,   0.00047,168628423.87624,   0.00000,274640135.82653,   0.00000,   0.00000,   0.00000,-306011711.95029,   0.00000
-79565980.69476,-181631501.89186,36120952.45942,  -0.00001,  -0.00067,   0.00047,169656207.69678,   0.00000,274640135.82653,   0.00000,   0.00000,   0.00000,-304983928.12975,   0.00000
-79403730.48719,-182605003.13726,36404890.32266,  -0.00001,  -0.00068,   0.00047,170663321.33629,   0.00000,274640135.82653,   0.00000,   0.00000,   0.00000,-303976814.49024,   0.00000
-79226269.32267,-183543012.14975,36683757.86692,  -0.00000,  -0.00068,   0.00048,171640628.11770,   0.00000,274640135.82653,   0.00000,   0.00000,   0.00000,-302999507.70883,   0.00000
-78998104.96828,-184430317.97238,36962625.41117,   0.00000,  -0.00069,   0.00048,172581297.33351,   0.00000,274640135.82653,   0.00000,   0.00000,   0.00000,-302058838.49302,   0.00000
-78769940.61389,-185317623.79501,37241492.95543,   0.00000,  -0.00069,   0.00048,173524215.61543,   0.00000,274640135.82653,   0.00000,   0.00000,   0.00000,-301115920.21110,   0.00000
-78491073.06963,-186154226.42777,37510219.86171,   0.00001,  -0.00069,   0.00049,174424337.06912,   0.00000,274640135.82653,   0.00000,   0.00000,   0.00000,-300215798.75741,   0.00000
-78186853.93045,-186965477.46560,37778946.76799,   0.00001,  -0.00070,   0.00049,175307666.32278,   0.00000,274640135.82653,   0.00000,   0.00000,   0.00000,-299332469.50375,   0.00000
-77867423.83430,-187741236.27053,38042603.35528,   0.00001,  -0.00070,   0.00049,176161573.80446,   0.00000,274640135.82653,   0.00000,   0.00000,   0.00000,-298478562.02206,   0.00000
-77504896.02677,-188484038.00204,38306259.94258,   0.00001,  -0.00071,   0.00050,176994108.30303,   0.00000,274640135.82653,   0.00000,   0.00000,   0.00000,-297646027.52349,   0.00000
-77134762.74076,-189209093.61710,38564846.21089,   0.00002,  -0.00071,   0.00050,177811687.68036,   0.00000,274640135.82653,   0.00000,   0.00000,   0.00000,-296828448.14617,   0.00000
-76731672.38134,-189891051.52078,38823432.47920,   0.00002,  -0.00071,   0.00050,178598655.56343,   0.00000,274640135.82653,   0.00000,   0.00000,   0.00000,-296041480.26310,   0.00000
-76285484.31053,-190540052.35104,39076948.42852,   0.00002,  -0.00072,   0.00051,179361562.73776,   0.00000,274640135.82653,   0.00000,   0.00000,   0.00000,-295278573.08877,   0.00000
-75831690.76125,-191171307.06486,39325394.05885,   0.00003,  -0.00072,   0.00051,180109773.14538,   0.00000,274640135.82653,   0.00000,   0.00000,   0.00000,-294530362.68115,   0.00000
-75344940.13855,-191759464.06728,39573839.68919,   0.00003,  -0.00073,   0.00051,180827854.83974,   0.00000,274640135.82653,   0.00000,   0.00000,   0.00000,-293812280.98679,   0.00000
-74815091.80446,-192314663.99630,39817215.00054,   0.00003,  -0.00073,   0.00052,181522506.97555,   0.00000,274640135.82653,   0.00000,   0.00000,   0.00000,-293117628.85098,   0.00000
-74277637.99190,-192852117.80886,40055519.99290,   0.00004,  -0.00073,   0.00052,182202747.24094,   0.00000,274640135.82653,   0.00000,   0.00000,   0.00000,-292437388.58559,   0.00000
-73707227.10593,-193346473.91004,40293824.98526,   0.00004,  -0.00074,   0.00052,182853380.70242,   0.00000,274640135.82653,   0.00000,   0.00000,   0.00000,-291786755.12411,   0.00000
-73111464.62502,-193815478.41629,40527059.65864,   0.00005,  -0.00074,   0.00053,183485476.62706,   0.00000,274640135.82653,   0.00000,   0.00000,   0.00000,-291154659.19947,   0.00000
-72490350.54918,-194259131.32760,40760294.33202,   0.00005,  -0.00074,   0.00053,184102561.85528,   0.00000,274640135.82653,   0.00000,   0.00000,   0.00000,-290537573.97125,   0.00000
-71836279.39993,-194659686.52753,40988458.68641,   0.00005,  -0.00075,   0.00053,184687244.29204,   0.00000,274640135.82653,   0.00000,   0.00000,   0.00000,-289952891.53449,   0.00000
-71156856.65574,-195034890.13253,41216623.04080,   0.00006,  -0.00075,   0.00054,185257299.29686,   0.00000,274640135.82653,   0.00000,   0.00000,   0.00000,-289382836.52967,   0.00000
-70444476.83815,-195366996.02614,41439717.07620,   0.00006,  -0.00075,   0.00054,185795349.99790,   0.00000,274640135.82653,   0.00000,   0.00000,   0.00000,-288844785.82863,   0.00000
-69714350.90410,-195691496.44127,41657740.79262,   0.00006,  -0.00075,   0.00054,186329946.47502,   0.00000,274640135.82653,   0.00000,   0.00000,   0.00000,-288310189.35151,   0.00000
-68951267.89664,-195972899.14502,41875764.50903,   0.00007,  -0.00076,   0.00054,186836328.46445,   0.00000,274640135.82653,   0.00000,   0.00000,   0.00000,-287803807.36208,   0.00000
-68155227.81577,-196211204.13738,42093788.22545,   0.00007,  -0.00076,   0.00055,187314744.24395,   0.00000,274640135.82653,   0.00000,   0.00000,   0.00000,-287325391.58258,   0.00000
-67333836.13997,-196424157.53481,42306741.62288,   0.00008,  -0.00076,   0.00055,187776154.70405,   0.00000,274640135.82653,   0.00000,   0.00000,   0.00000,-286863981.12248,   0.00000
-66504838.98568,-196619364.81579,42514624.70133,   0.00008,  -0.00076,   0.00055,188224358.07041,   0.00000,274640135.82653,   0.00000,   0.00000,   0.00000,-286415777.75612,   0.00000
-65632744.12001,-196781615.02336,42722507.77977,   0.00009,  -0.00077,   0.00056,188655722.78240,   0.00000,274640135.82653,   0.00000,   0.00000,   0.00000,-285984413.04413,   0.00000
-64745438.29739,-196908372.99802,42925320.53923,   0.00009,  -0.00077,   0.00056,189060068.90153,   0.00000,274640135.82653,   0.00000,   0.00000,   0.00000,-285580066.92500,   0.00000
-63815034.76337,-197002173.89927,43128133.29869,   0.00009,  -0.00077,   0.00056,189448204.66960,   0.00000,274640135.82653,   0.00000,   0.00000,   0.00000,-285191931.15693,   0.00000
-62877025.75088,-197078228.68406,43325875.73916,   0.00010,  -0.00077,   0.00056,189823734.69699,   0.00000,274640135.82653,   0.00000,   0.00000,   0.00000,-284816401.12954,   0.00000
-61888313.54853,-197103580.27899,43518547.86064,   0.00010,  -0.00078,   0.00057,190166160.39278,   0.00000,274640135.82653,   0.00000,   0.00000,   0.00000,-284473975.43375,   0.00000
-60891995.86769,-197111185.75747,43716290.30111,   0.00011,  -0.00078,   0.00057,190503289.51470,   0.00000,274640135.82653,   0.00000,   0.00000,   0.00000,-284136846.31183,   0.00000
-59870326.59192,-197093439.64102,43903892.10361,   0.00011,  -0.00078,   0.00057,190821609.31314,   0.00000,274640135.82653,   0.00000,   0.00000,   0.00000,-283818526.51339,   0.00000
-58815700.24274,-197032595.81318,44091493.90611,   0.00012,  -0.00078,   0.00057,191114363.19426,   0.00000,274640135.82653,   0.00000,   0.00000,   0.00000,-283525772.63227,   0.00000
-57735722.29863,-196946400.39041,44279095.70861,   0.00012,  -0.00078,   0.00058,191395847.72337,   0.00000,274640135.82653,   0.00000,   0.00000,   0.00000,-283244288.10316,   0.00000
-56630392.75958,-196834853.37271,44461627.19212,   0.00013,  -0.00079,   0.00058,191662815.14369,   0.00000,274640135.82653,   0.00000,   0.00000,   0.00000,-282977320.68284,   0.00000
-55492106.14713,-196680208.64363,44639088.35665,   0.00013,  -0.00079,   0.00058,191901599.60144,   0.00000,274640135.82653,   0.00000,   0.00000,   0.00000,-282738536.22509,   0.00000
-54328467.93974,-196500212.31961,44821619.84016,   0.00014,  -0.00079,   0.00058,192133529.61016,   0.00000,274640135.82653,   0.00000,   0.00000,   0.00000,-282506606.21637,   0.00000
-53139478.13742,-196294864.40066,44994010.68570,   0.00014,  -0.00079,   0.00058,192348262.96132,   0.00000,274640135.82653,   0.00000,   0.00000,   0.00000,-282291872.86521,   0.00000
-51935277.37814,-196054024.24880,45166401.53124,   0.00015,  -0.00079,   0.00059,192541800.16784,   0.00000,274640135.82653,   0.00000,   0.00000,   0.00000,-282098335.65868,   0.00000
-50687978.90747,-195780227.02353,45338792.37678,   0.00015,  -0.00079,   0.00059,192723332.17282,   0.00000,274640135.82653,   0.00000,   0.00000,   0.00000,-281916803.65371,   0.00000
-49433074.95833,-195488683.68181,45506112.90333,   0.00016,  -0.00079,   0.00059,192894444.00564,   0.00000,274640135.82653,   0.00000,   0.00000,   0.00000,-281745691.82089,   0.00000
-48152819.41425,-195171788.74516,45673433.42988,   0.00016,  -0.00079,   0.00059,193056563.74531,   0.00000,274640135.82653,   0.00000,   0.00000,   0.00000,-281583572.08122,   0.00000
-46821860.68031,-194804190.61864,45835683.63745,   0.00017,  -0.00080,   0.00060,193190564.80740,   0.00000,274640135.82653,   0.00000,   0.00000,   0.00000,-281449571.01913,   0.00000
-45483296.46789,-194418846.37567,45997933.84501,   0.00017,  -0.00080,   0.00060,193318488.01657,   0.00000,274640135.82653,   0.00000,   0.00000,   0.00000,-281321647.80996,   0.00000
-44111775.18206,-193990404.42132,46155113.73359,   0.00018,  -0.00080,   0.00060,193421167.87268,   0.00000,274640135.82653,   0.00000,   0.00000,   0.00000,-281218967.95385,   0.00000
-42740253.89622,-193561962.46696,46312293.62217,   0.00018,  -0.00080,   0.00060,193531808.28568,   0.00000,274640135.82653,   0.00000,   0.00000,   0.00000,-281108327.54085,   0.00000
-41318029.42053,-193082817.32274,46464403.19177,   0.00019,  -0.00080,   0.00060,193616049.60758,   0.00000,274640135.82653,   0.00000,   0.00000,   0.00000,-281024086.21895,   0.00000
-39862847.87142,-192560574.46714,46616512.76136,   0.00019,  -0.00080,   0.00061,193679907.01053,   0.00000,274640135.82653,   0.00000,   0.00000,   0.00000,-280960228.81600,   0.00000
-38407666.32231,-192038331.61154,46768622.33095,   0.00020,  -0.00080,   0.00061,193752516.32700,   0.00000,274640135.82653,   0.00000,   0.00000,   0.00000,-280887619.49953,   0.00000
-36901781.58333,-191465385.56607,46915661.58156,   0.00021,  -0.00080,   0.00061,193800308.10080,   0.00000,274640135.82653,   0.00000,   0.00000,   0.00000,-280839827.72573,   0.00000
-35388291.36588,-190874693.40415,47057630.51318,   0.00021,  -0.00080,   0.00061,193840171.92499,   0.00000,274640135.82653,   0.00000,   0.00000,   0.00000,-280799963.90154,   0.00000
-33849449.55350,-190258649.64730,47204669.76379,   0.00022,  -0.00080,   0.00061,193878392.24591,   0.00000,274640135.82653,   0.00000,   0.00000,   0.00000,-280761743.58062,   0.00000
-32277650.66770,-189599508.17906,47341568.37642,   0.00022,  -0.00080,   0.00062,193890860.61910,   0.00000,274640135.82653,   0.00000,   0.00000,   0.00000,-280749275.20743,   0.00000
-30680500.18697,-188915015.11589,47483537.30804,   0.00023,  -0.00080,   0.00062,193902624.57540,   0.00000,274640135.82653,   0.00000,   0.00000,   0.00000,-280737511.25113,   0.00000
-29057998.11131,-188205170.45779,47620435.92067,   0.00023,  -0.00080,   0.00062,193906693.29708,   0.00000,274640135.82653,   0.00000,   0.00000,   0.00000,-280733442.52945,   0.00000
-27427890.55716,-187477579.68323,47752264.21432,   0.00024,  -0.00080,   0.00062,193904238.58082,   0.00000,274640135.82653,   0.00000,   0.00000,   0.00000,-280735897.24571,   0.00000
-25747079.81316,-186699285.71881,47884092.50797,   0.00025,  -0.00080,   0.00062,193884586.65478,   0.00000,274640135.82653,   0.00000,   0.00000,   0.00000,-280755549.17175,   0.00000
-24058663.59067,-185903245.63794,48015920.80162,   0.00025,  -0.00080,   0.00062,193862936.98527,   0.00000,274640135.82653,   0.00000,   0.00000,   0.00000,-280777198.84126,   0.00000
-22344895.77326,-185081853.96214,48142678.77628,   0.00026,  -0.00080,   0.00063,193835251.84069,   0.00000,274640135.82653,   0.00000,   0.00000,   0.00000,-280804883.98584,   0.00000
-20605776.36091,-184235110.69140,48269436.75094,   0.00027,  -0.00080,   0.00063,193805784.52392,   0.00000,274640135.82653,   0.00000,   0.00000,   0.00000,-280834351.30261,   0.00000
-18833699.87514,-183345269.70928,48396194.72560,   0.00027,  -0.00080,   0.00063,193761970.94445,   0.00000,274640135.82653,   0.00000,   0.00000,   0.00000,-280878164.88208,   0.00000
-17036271.79445,-182430077.13223,48517882.38128,   0.00028,  -0.00080,   0.00063,193713690.67236,   0.00000,274640135.82653,   0.00000,   0.00000,   0.00000,-280926445.15417,   0.00000
-15231238.23528,-181497138.43872,48639570.03695,   0.00028,  -0.00080,   0.00063,193665172.51478,   0.00000,274640135.82653,   0.00000,   0.00000,   0.00000,-280974963.31174,   0.00000
-13400853.08117,-180538848.15028,48756187.37364,   0.00029,  -0.00080,   0.00063,193612968.04932,   0.00000,274640135.82653,   0.00000,   0.00000,   0.00000,-281027167.77720,   0.00000
-11537510.85365,-179537460.15046,48872804.71033,   0.00030,  -0.00079,   0.00064,193548576.53730,   0.00000,274640135.82653,   0.00000,   0.00000,   0.00000,-281091559.28923,   0.00000
-9656422.50968,-178528466.67216,48989422.04701,   0.00030,  -0.00079,   0.00064,193498330.79721,   0.00000,274640135.82653,   0.00000,   0.00000,   0.00000,-281141805.02932,   0.00000
-7742377.09230,-177476375.48247,49100969.06472,   0.00031,  -0.00079,   0.00064,193433282.35533,   0.00000,274640135.82653,   0.00000,   0.00000,   0.00000,-281206853.47120,   0.00000
-5795374.60150,-176381186.58140,49212516.08242,   0.00032,  -0.00079,   0.00064,193358034.52462,   0.00000,274640135.82653,   0.00000,   0.00000,   0.00000,-281282101.30191,   0.00000
-3848372.11071,-175285997.68033,49318992.78113,   0.00032,  -0.00079,   0.00064,193293854.92730,   0.00000,274640135.82653,   0.00000,   0.00000,   0.00000,-281346280.89923,   0.00000
-1868412.54650,-174147711.06787,49430539.79884,   0.00033,  -0.00079,   0.00064,193224406.48565,   0.00000,274640135.82653,   0.00000,   0.00000,   0.00000,-281415729.34088,   0.00000
129293.13415,-173001818.97694,49531946.17856,   0.00034,  -0.00079,   0.00064,193163803.83017,   0.00000,274640135.82653,   0.00000,   0.00000,   0.00000,-281476331.99636,   0.00000
2159955.88822,-171812829.17462,49638422.87728,   0.00034,  -0.00079,   0.00065,193099303.17768,   0.00000,274640135.82653,   0.00000,   0.00000,   0.00000,-281540832.64885,   0.00000
4215970.23723,-170598487.77736,49739829.25701,   0.00035,  -0.00078,   0.00065,193036287.85153,   0.00000,274640135.82653,   0.00000,   0.00000,   0.00000,-281603847.97500,   0.00000
6287195.54319,-169348654.14720,49841235.63674,   0.00036,  -0.00078,   0.00065,192965462.97785,   0.00000,274640135.82653,   0.00000,   0.00000,   0.00000,-281674672.84868,   0.00000
8376166.96560,-168091215.03857,49937571.69748,   0.00037,  -0.00078,   0.00065,192909460.70609,   0.00000,274640135.82653,   0.00000,   0.00000,   0.00000,-281730675.12044,   0.00000
10498095.46143,-166790678.21854,50038978.07721,   0.00037,  -0.00078,   0.00065,192852334.16261,   0.00000,274640135.82653,   0.00000,   0.00000,   0.00000,-281787801.66392,   0.00000
12645375.55219,-165464789.80359,50130243.81896,   0.00038,  -0.00078,   0.00065,192795203.85989,   0.00000,274640135.82653,   0.00000,   0.00000,   0.00000,-281844931.96663,   0.00000
14800261.12143,-164121155.27218,50226579.87971,   0.00039,  -0.00078,   0.00065,192748450.75889,   0.00000,274640135.82653,   0.00000,   0.00000,   0.00000,-281891685.06763,   0.00000
16998244.40205,-162744563.66736,50317845.62146,   0.00039,  -0.00077,   0.00065,192709008.47732,   0.00000,274640135.82653,   0.00000,   0.00000,   0.00000,-281931127.34921,   0.00000
19203833.16115,-161350225.94609,50409111.36322,   0.00040,  -0.00077,   0.00066,192677089.88307,   0.00000,274640135.82653,   0.00000,   0.00000,   0.00000,-281963045.94346,   0.00000
21442378.99367,-159912790.51343,50500377.10497,   0.00041,  -0.00077,   0.00066,192643845.24313,   0.00000,274640135.82653,   0.00000,   0.00000,   0.00000,-281996290.58340,   0.00000
23688530.30466,-158457608.96432,50586572.52774,   0.00042,  -0.00077,   0.00066,192615139.95259,   0.00000,274640135.82653,   0.00000,   0.00000,   0.00000,-282024995.87394,   0.00000
25952427.73211,-156994821.93673,50672767.95051,   0.00042,  -0.00076,   0.00066,192609676.87545,   0.00000,274640135.82653,   0.00000,   0.00000,   0.00000,-282030458.95108,   0.00000
28249282.23297,-155488937.19776,50758963.37328,   0.00043,  -0.00076,   0.00066,192605034.97251,   0.00000,274640135.82653,   0.00000,   0.00000,   0.00000,-282035100.85402,   0.00000
30571488.32876,-153957700.86386,50840088.47707,   0.00044,  -0.00076,   0.00066,192609577.63847,   0.00000,274640135.82653,   0.00000,   0.00000,   0.00000,-282030558.18806,   0.00000
32926651.49796,-152383366.81856,50921213.58085,   0.00045,  -0.00076,   0.00066,192616818.71734,   0.00000,274640135.82653,   0.00000,   0.00000,   0.00000,-282023317.10919,   0.00000
35281814.66717,-150809032.77327,51002338.68463,   0.00045,  -0.00075,   0.00066,192646574.87369,   0.00000,274640135.82653,   0.00000,   0.00000,   0.00000,-281993560.95284,   0.00000
37662329.43130,-149209347.13305,51078393.46943,   0.00046,  -0.00075,   0.00066,192687463.92610,   0.00000,274640135.82653,   0.00000,   0.00000,   0.00000,-281952671.90043,   0.00000
40075801.26885,-147566563.78144,51159518.57321,   0.00047,  -0.00075,   0.00067,192737380.64933,   0.00000,274640135.82653,   0.00000,   0.00000,   0.00000,-281902755.17720,   0.00000
42489273.10639,-145923780.42984,51235573.35801,   0.00048,  -0.00075,   0.00067,192806989.79917,   0.00000,274640135.82653,   0.00000,   0.00000,   0.00000,-281833146.02736,   0.00000
44953448.13381,-144230293.88836,51306557.82382,   0.00049,  -0.00074,   0.00067,192883197.39434,   0.00000,274640135.82653,   0.00000,   0.00000,   0.00000,-281756938.43219,   0.00000
47425228.63970,-142519061.23044,51382612.60862,   0.00049,  -0.00074,   0.00067,192977596.69289,   0.00000,274640135.82653,   0.00000,   0.00000,   0.00000,-281662539.13364,   0.00000
49904614.62407,-140790082.45606,51453597.07443,   0.00050,  -0.00074,   0.00067,193082393.40322,   0.00000,274640135.82653,   0.00000,   0.00000,   0.00000,-281557742.42331,   0.00000
52409352.20337,-139035752.08675,51524581.54024,   0.00051,  -0.00073,   0.00067,193206629.71381,   0.00000,274640135.82653,   0.00000,   0.00000,   0.00000,-281433506.11272,   0.00000
54957187.49406,-137248464.64403,51595566.00605,   0.00052,  -0.00073,   0.00067,193355968.10951,   0.00000,274640135.82653,   0.00000,   0.00000,   0.00000,-281284167.71701,   0.00000
57494882.14677,-135451036.56334,51661480.15287,   0.00053,  -0.00073,   0.00067,193512562.27382,   0.00000,274640135.82653,   0.00000,   0.00000,   0.00000,-281127573.55271,   0.00000
60075674.51087,-133620651.40923,51727394.29969,   0.00053,  -0.00073,   0.00067,193695859.21249,   0.00000,274640135.82653,   0.00000,   0.00000,   0.00000,-280944276.61404,   0.00000
62664072.35345,-131772520.13867,51793308.44652,   0.00054,  -0.00072,   0.00067,193896431.53831,   0.00000,274640135.82653,   0.00000,   0.00000,   0.00000,-280743704.28822,   0.00000
65285427.26944,-129881291.15673,51859222.59334,   0.00055,  -0.00072,   0.00067,194110353.40168,   0.00000,274640135.82653,   0.00000,   0.00000,   0.00000,-280529782.42485,   0.00000
67906782.18543,-127990062.17479,51925136.74017,   0.00056,  -0.00071,   0.00068,194352359.98758,   0.00000,274640135.82653,   0.00000,   0.00000,   0.00000,-280287775.83894,   0.00000
70561094.17484,-126055735.48146,51985980.56800,   0.00057,  -0.00071,   0.00068,194605173.64232,   0.00000,274640135.82653,   0.00000,   0.00000,   0.00000,-280034962.18421,   0.00000
73233152.28069,-124113803.30965,52046824.39584,   0.00058,  -0.00071,   0.00068,194892769.52196,   0.00000,274640135.82653,   0.00000,   0.00000,   0.00000,-279747366.30457,   0.00000
75912815.86503,-122154125.02139,52107668.22368,   0.00058,  -0.00070,   0.00068,195200094.09662,   0.00000,274640135.82653,   0.00000,   0.00000,   0.00000,-279440041.72991,   0.00000
78643182.63923,-120143743.54327,52163441.73253,   0.00059,  -0.00070,   0.00068,195527055.96617,   0.00000,274640135.82653,   0.00000,   0.00000,   0.00000,-279113079.86036,   0.00000
81355803.29697,-118140967.54362,52224285.56037,   0.00060,  -0.00070,   0.00068,195881689.46051,   0.00000,274640135.82653,   0.00000,   0.00000,   0.00000,-278758446.36602,   0.00000
84119127.14459,-116087488.35411,52280059.06922,   0.00061,  -0.00069,   0.00068,196257800.92911,   0.00000,274640135.82653,   0.00000,   0.00000,   0.00000,-278382334.89742,   0.00000
86882450.99220,-114034009.16460,52335832.57807,   0.00062,  -0.00069,   0.00068,196664658.40148,   0.00000,274640135.82653,   0.00000,   0.00000,   0.00000,-277975477.42505,   0.00000
89678731.91322,-111937432.26371,52391606.08692,   0.00063,  -0.00068,   0.00068,197092140.49141,   0.00000,274640135.82653,   0.00000,   0.00000,   0.00000,-277547995.33512,   0.00000
92482618.31272,-109823109.24636,52447379.59577,   0.00063,  -0.00068,   0.00068,197542556.39798,   0.00000,274640135.82653,   0.00000,   0.00000,   0.00000,-277097579.42854,   0.00000
95304250.82868,-107701180.75053,52498082.78563,   0.00064,  -0.00068,   0.00068,198027702.59328,   0.00000,274640135.82653,   0.00000,   0.00000,   0.00000,-276612433.23325,   0.00000
98133488.82312,-105561506.13825,52548785.97550,   0.00065,  -0.00067,   0.00068,198536285.88255,   0.00000,274640135.82653,   0.00000,   0.00000,   0.00000,-276103849.94398,   0.00000
101013430.00742,-103371128.33611,52599489.16536,   0.00066,  -0.00067,   0.00068,199076101.61363,   0.00000,274640135.82653,   0.00000,   0.00000,   0.00000,-275564034.21289,   0.00000
103875625.07526,-101188356.01245,52650192.35523,   0.00067,  -0.00066,   0.00068,199640579.22561,   0.00000,274640135.82653,   0.00000,   0.00000,   0.00000,-274999556.60092,   0.00000
106788523.33297,-98954880.49892,52700895.54509,   0.00068,  -0.00066,   0.00069,200237997.96499,   0.00000,274640135.82653,   0.00000,   0.00000,   0.00000,-274402137.86154,   0.00000
109701421.59069,-96721404.98539,52746528.41597,   0.00069,  -0.00065,   0.00069,200864373.36253,   0.00000,274640135.82653,   0.00000,   0.00000,   0.00000,-273775762.46400,   0.00000
112639671.44333,-94462577.87693,52797231.60583,   0.00070,  -0.00065,   0.00069,201528536.27584,   0.00000,274640135.82653,   0.00000,   0.00000,   0.00000,-273111599.55069,   0.00000
115593132.25293,-92168258.53557,52842864.47671,   0.00071,  -0.00064,   0.00069,202207524.04957,   0.00000,274640135.82653,   0.00000,   0.00000,   0.00000,-272432611.77696,   0.00000
118564339.17899,-89866333.71572,52888497.34759,   0.00071,  -0.00064,   0.00069,202928515.46039,   0.00000,274640135.82653,   0.00000,   0.00000,   0.00000,-271711620.36614,   0.00000
121543151.58352,-87546662.77942,52934130.21847,   0.00072,  -0.00064,   0.00069,203676016.24015,   0.00000,274640135.82653,   0.00000,   0.00000,   0.00000,-270964119.58638,   0.00000
124547315.58299,-85201640.24819,52979763.08935,   0.00073,  -0.00063,   0.00069,204459176.33381,   0.00000,274640135.82653,   0.00000,   0.00000,   0.00000,-270180959.49272,   0.00000
127576831.17739,-82831266.12203,53020325.64124,   0.00074,  -0.00063,   0.00069,205274649.55082,   0.00000,274640135.82653,   0.00000,   0.00000,   0.00000,-269365486.27571,   0.00000
130613952.25027,-80443145.87942,53065958.51211,   0.00075,  -0.00062,   0.00069,206121540.15191,   0.00000,274640135.82653,   0.00000,   0.00000,   0.00000,-268518595.67462,   0.00000
133658678.80163,-78037279.52035,53106521.06401,   0.00076,  -0.00062,   0.00069,206992093.64240,   0.00000,274640135.82653,   0.00000,   0.00000,   0.00000,-267648042.18413,   0.00000
136738897.58589,-75616202.20432,53147083.61590,   0.00077,  -0.00061,   0.00069,207915487.08186,   0.00000,274640135.82653,   0.00000,   0.00000,   0.00000,-266724648.74467,   0.00000
139816581.21067,-73167238.13387,53187646.16779,   0.00078,  -0.00061,   0.00069,208851361.79755,   0.00000,274640135.82653,   0.00000,   0.00000,   0.00000,-265788774.02898,   0.00000
142929757.06834,-70703063.10646,53228208.71968,   0.00079,  -0.00060,   0.00069,209840741.59362,   0.00000,274640135.82653,   0.00000,   0.00000,   0.00000,-264799394.23290,   0.00000
146032792.28804,-68228747.44107,53268771.27157,   0.00080,  -0.00060,   0.00069,210848426.32163,   0.00000,274640135.82653,   0.00000,   0.00000,   0.00000,-263791709.50490,   0.00000
149186530.69761,-65703728.58582,53309333.82346,   0.00081,  -0.00059,   0.00069,211899427.63347,   0.00000,274640135.82653,   0.00000,   0.00000,   0.00000,-262740708.19306,   0.00000
152340269.10718,-63178709.73058,53344826.05637,   0.00082,  -0.00058,   0.00069,212980703.34662,   0.00000,274640135.82653,   0.00000,   0.00000,   0.00000,-261659432.47991,   0.00000
155501612.99523,-60635944.75887,53380318.28927,   0.00083,  -0.00058,   0.00069,214090709.27625,   0.00000,274640135.82653,   0.00000,   0.00000,   0.00000,-260549426.55028,   0.00000
158680702.99973,-58085574.30869,53420880.84117,   0.00084,  -0.00057,   0.00069,215248532.49730,   0.00000,274640135.82653,   0.00000,   0.00000,   0.00000,-259391603.32923,   0.00000
161892750.07764,-55492106.14713,53456373.07407,   0.00084,  -0.00057,   0.00069,216437421.69691,   0.00000,274640135.82653,   0.00000,   0.00000,   0.00000,-258202714.12962,   0.00000
165104797.15555,-52898637.98556,53491865.30698,   0.00085,  -0.00056,   0.00070,217659867.22631,   0.00000,274640135.82653,   0.00000,   0.00000,   0.00000,-256980268.60022,   0.00000
168332055.19042,-50269677.59109,53527357.53988,   0.00086,  -0.00056,   0.00070,218906951.57536,   0.00000,274640135.82653,   0.00000,   0.00000,   0.00000,-255733184.25117,   0.00000
171577059.34175,-47633111.71814,53562849.77279,   0.00087,  -0.00055,   0.00070,220198289.02050,   0.00000,274640135.82653,   0.00000,   0.00000,   0.00000,-254441846.80603,   0.00000
174829668.97155,-44978799.72874,53598342.00569,   0.00088,  -0.00055,   0.00070,221518579.45177,   0.00000,274640135.82653,   0.00000,   0.00000,   0.00000,-253121556.37476,   0.00000
178100024.71781,-42316882.26086,53633834.23860,   0.00089,  -0.00054,   0.00070,222882793.48303,   0.00000,274640135.82653,   0.00000,   0.00000,   0.00000,-251757342.34350,   0.00000
181403337.53747,-39611867.08159,53664256.15252,   0.00090,  -0.00053,   0.00070,224280077.00936,   0.00000,274640135.82653,   0.00000,   0.00000,   0.00000,-250360058.81717,   0.00000
184706650.35714,-36906851.90232,53699748.38542,   0.00091,  -0.00053,   0.00070,225713518.25616,   0.00000,274640135.82653,   0.00000,   0.00000,   0.00000,-248926617.57037,   0.00000
188017568.65529,-34184090.60660,53730170.29934,   0.00092,  -0.00052,   0.00070,227172096.38813,   0.00000,274640135.82653,   0.00000,   0.00000,   0.00000,-247468039.43840,   0.00000
191353838.54837,-31435977.71595,53765662.53224,   0.00093,  -0.00052,   0.00070,228674761.67958,   0.00000,274640135.82653,   0.00000,   0.00000,   0.00000,-245965374.14695,   0.00000
194697713.91993,-28670118.70884,53796084.44616,   0.00094,  -0.00051,   0.00070,230202602.47892,   0.00000,274640135.82653,   0.00000,   0.00000,   0.00000,-244437533.34761,   0.00000
198059335.40794,-25896654.22326,53826506.36008,   0.00095,  -0.00050,   0.00070,231773789.56158,   0.00000,274640135.82653,   0.00000,   0.00000,   0.00000,-242866346.26495,   0.00000
201436167.85291,-23087697.50477,53856928.27400,   0.00096,  -0.00050,   0.00070,233370895.73162,   0.00000,274640135.82653,   0.00000,   0.00000,   0.00000,-241269240.09491,   0.00000
204805394.81940,-20296486.90273,53887350.18792,   0.00097,  -0.00049,   0.00070,235001205.68225,   0.00000,274640135.82653,   0.00000,   0.00000,   0.00000,-239638930.14428,   0.00000
208207578.85930,-17462178.58931,53917772.10184,   0.00098,  -0.00049,   0.00070,236669516.30175,   0.00000,274640135.82653,   0.00000,   0.00000,   0.00000,-237970619.52478,   0.00000
211635114.49414,-14602518.68096,53948194.01576,   0.00099,  -0.00048,   0.00070,238378446.72790,   0.00000,274640135.82653,   0.00000,   0.00000,   0.00000,-236261689.09863,   0.00000
215062650.12898,-11742858.77260,53978615.92967,   0.00100,  -0.00047,   0.00070,240117391.02661,   0.00000,274640135.82653,   0.00000,   0.00000,   0.00000,-234522744.79992,   0.00000
218497791.24229,-8865452.74780,54009037.84359,   0.00101,  -0.00047,   0.00070,241884045.31988,   0.00000,274640135.82653,   0.00000,   0.00000,   0.00000,-232756090.50665,   0.00000
221950678.47206,-5980441.24451,54039459.75751,   0.00102,  -0.00046,   0.00070,243692474.18851,   0.00000,274640135.82653,   0.00000,   0.00000,   0.00000,-230947661.63802,   0.00000
225418776.65879,-3059937.50832,54069881.67143,   0.00103,  -0.00045,   0.00070,245526804.58468,   0.00000,274640135.82653,   0.00000,   0.00000,   0.00000,-229113331.24185,   0.00000
228886874.84551,-139433.77213,54100303.58535,   0.00104,  -0.00045,   0.00070,247389700.72085,   0.00000,274640135.82653,   0.00000,   0.00000,   0.00000,-227250435.10568,   0.00000
232372719.14869,2788675.44254,54125655.18028,   0.00105,  -0.00044,   0.00070,249290202.10582,   0.00000,274640135.82653,   0.00000,   0.00000,   0.00000,-225349933.72071,   0.00000
235873774.40883,5752276.89012,54156077.09420,   0.00106,  -0.00043,   0.00070,251219738.35762,   0.00000,274640135.82653,   0.00000,   0.00000,   0.00000,-223420397.46891,   0.00000
239392575.78542,8723483.81618,54186499.00812,   0.00107,  -0.00043,   0.00070,253189844.33576,   0.00000,274640135.82653,   0.00000,   0.00000,   0.00000,-221450291.49077,   0.00000
242918982.64050,11712436.85868,54211850.60305,   0.00108,  -0.00042,   0.00070,255183099.54958,   0.00000,274640135.82653,   0.00000,   0.00000,   0.00000,-219457036.27695,   0.00000
246445389.49557,14701389.90119,54242272.51697,   0.00109,  -0.00041,   0.00071,257206227.55240,   0.00000,274640135.82653,   0.00000,   0.00000,   0.00000,-217433908.27413,   0.00000
249997147.94557,17715694.53863,54272694.43089,   0.00110,  -0.00041,   0.00071,259268437.70065,   0.00000,274640135.82653,   0.00000,   0.00000,   0.00000,-215371698.12588,   0.00000
253556511.87405,20747745.29253,54298046.02582,   0.00111,  -0.00040,   0.00071,261353173.17665,   0.00000,274640135.82653,   0.00000,   0.00000,   0.00000,-213286962.64988,   0.00000
257123481.28102,23797542.16287,54328467.93974,   0.00112,  -0.00039,   0.00071,263466597.57596,   0.00000,274640135.82653,   0.00000,   0.00000,   0.00000,-211173538.25057,   0.00000
260708196.80443,26854944.51170,54353819.53467,   0.00113,  -0.00039,   0.00071,265615626.16089,   0.00000,274640135.82653,   0.00000,   0.00000,   0.00000,-209024509.66564,   0.00000
264292912.32785,29912346.86052,54384241.44859,   0.00114,  -0.00038,   0.00071,267792471.68083,   0.00000,274640135.82653,   0.00000,   0.00000,   0.00000,-206847664.14570,   0.00000
267910584.92467,33012846.92073,54409593.04352,   0.00115,  -0.00037,   0.00071,270004907.16544,   0.00000,274640135.82653,   0.00000,   0.00000,   0.00000,-204635228.66109,   0.00000
271510511.40505,36105741.50246,54440014.95744,   0.00116,  -0.00037,   0.00071,272230857.39604,   0.00000,274640135.82653,   0.00000,   0.00000,   0.00000,-202409278.43049,   0.00000
275128184.00188,39206241.56267,54470436.87136,   0.00118,  -0.00036,   0.00071,274494062.67866,   0.00000,274640135.82653,   0.00000,   0.00000,   0.00000,-200146073.14787,   0.00000
278771208.19364,42332093.21781,54495788.46629,   0.00119,  -0.00035,   0.00071,276791973.77080,   0.00000,274640135.82653,   0.00000,   0.00000,   0.00000,-197848162.05573,   0.00000
282404091.74742,45468085.51093,54526210.38021,   0.00120,  -0.00034,   0.00071,279102789.84415,   0.00000,274640135.82653,   0.00000,   0.00000,   0.00000,-195537345.98238,   0.00000
286054721.41766,48611683.28252,54551561.97514,   0.00121,  -0.00034,   0.00071,281447004.99322,   0.00000,274640135.82653,   0.00000,   0.00000,   0.00000,-193193130.83331,   0.00000
289730702.68283,51780632.64905,54581983.88906,   0.00122,  -0.00033,   0.00071,283831382.70397,   0.00000,274640135.82653,   0.00000,   0.00000,   0.00000,-190808753.12256,   0.00000
293396543.31003,54959722.65355,54607335.48399,   0.00123,  -0.00032,   0.00071,286221930.25445,   0.00000,274640135.82653,   0.00000,   0.00000,   0.00000,-188418205.57208,   0.00000
297080130.05368,58146418.13653,54637757.39791,   0.00124,  -0.00031,   0.00071,288650857.87692,   0.00000,274640135.82653,   0.00000,   0.00000,   0.00000,-185989277.94961,   0.00000
300771322.27581,61350859.73596,54668179.31183,   0.00125,  -0.00031,   0.00071,291102330.07681,   0.00000,274640135.82653,   0.00000,   0.00000,   0.00000,-183537805.74972,   0.00000
304462514.49794,64555301.33540,54693530.90676,   0.00126,  -0.00030,   0.00071,293571605.00517,   0.00000,274640135.82653,   0.00000,   0.00000,   0.00000,-181068530.82135,   0.00000
308179058.31501,67785094.52976,54723952.82068,   0.00127,  -0.00029,   0.00071,296079951.13030,   0.00000,274640135.82653,   0.00000,   0.00000,   0.00000,-178560184.69623,   0.00000
311895602.13207,71014887.72412,54754374.73460,   0.00128,  -0.00029,   0.00071,298608228.95304,   0.00000,274640135.82653,   0.00000,   0.00000,   0.00000,-176031906.87349,   0.00000
315619751.42761,74262427.03494,54779726.32953,   0.00129,  -0.00028,   0.00071,301155278.96649,   0.00000,274640135.82653,   0.00000,   0.00000,   0.00000,-173484856.86004,   0.00000
319343900.72315,77509966.34576,54810148.24345,   0.00130,  -0.00027,   0.00071,303724289.22566,   0.00000,274640135.82653,   0.00000,   0.00000,   0.00000,-170915846.60087,   0.00000
323093401.61363,80782857.25151,54840570.15737,   0.00131,  -0.00026,   0.00071,306328700.02023,   0.00000,274640135.82653,   0.00000,   0.00000,   0.00000,-168311435.80630,   0.00000
326825156.38765,84048142.67878,54870992.07129,   0.00132,  -0.00025,   0.00071,308937215.42272,   0.00000,274640135.82653,   0.00000,   0.00000,   0.00000,-165702920.40381,   0.00000
330600008.87306,87346385.17946,54901413.98521,   0.00133,  -0.00025,   0.00071,311595149.07673,   0.00000,274640135.82653,   0.00000,   0.00000,   0.00000,-163044986.74980,   0.00000
334364720.72049,90654768.31811,54931835.89913,   0.00134,  -0.00024,   0.00071,314259155.75585,   0.00000,274640135.82653,   0.00000,   0.00000,   0.00000,-160380980.07067,   0.00000
338129432.56793,93963151.45677,54962257.81304,   0.00136,  -0.00023,   0.00071,316940734.62991,   0.00000,274640135.82653,   0.00000,   0.00000,   0.00000,-157699401.19662,   0.00000
341911890.53181,97279140.07390,54992679.72696,   0.00137,  -0.00022,   0.00071,319653971.91219,   0.00000,274640135.82653,   0.00000,   0.00000,   0.00000,-154986163.91434,   0.00000
345701953.97418,100612874.80749,55023101.64088,   0.00138,  -0.00022,   0.00072,322386955.82364,   0.00000,274640135.82653,   0.00000,   0.00000,   0.00000,-152253180.00289,   0.00000
349492017.41655,103946609.54107,55053523.55480,   0.00139,  -0.00021,   0.00072,325136477.44947,   0.00000,274640135.82653,   0.00000,   0.00000,   0.00000,-149503658.37706,   0.00000
353289686.33739,107298090.39111,55083945.46872,   0.00140,  -0.00020,   0.00072,327905317.31016,   0.00000,274640135.82653,   0.00000,   0.00000,   0.00000,-146734818.51637,   0.00000
357087355.25824,110649571.24115,55119437.70162,   0.00141,  -0.00019,   0.00072,330692608.60177,   0.00000,274640135.82653,   0.00000,   0.00000,   0.00000,-143947527.22476,   0.00000
360910375.77402,114026403.68612,55149859.61554,   0.00142,  -0.00018,   0.00072,333510912.74988,   0.00000,274640135.82653,   0.00000,   0.00000,   0.00000,-141129223.07665,   0.00000
364733396.28979,117403236.13109,55185351.84845,   0.00143,  -0.00018,   0.00072,336347080.18585,   0.00000,274640135.82653,   0.00000,   0.00000,   0.00000,-138293055.64068,   0.00000
368564022.28405,120797814.69252,55215773.76237,   0.00144,  -0.00017,   0.00072,339199302.92826,   0.00000,274640135.82653,   0.00000,   0.00000,   0.00000,-135440832.89827,   0.00000
372394648.27831,124192393.25394,55251265.99527,   0.00145,  -0.00016,   0.00072,342068778.44385,   0.00000,274640135.82653,   0.00000,   0.00000,   0.00000,-132571357.38268,   0.00000
376225274.27257,127586971.81536,55281687.90919,   0.00146,  -0.00015,   0.00072,344950205.05561,   0.00000,274640135.82653,   0.00000,   0.00000,   0.00000,-129689930.77092,   0.00000
380063505.74531,130999296.49324,55317180.14210,   0.00147,  -0.00015,   0.00072,347851984.99127,   0.00000,274640135.82653,   0.00000,   0.00000,   0.00000,-126788150.83526,   0.00000
383919483.33450,134419226.64960,55352672.37500,   0.00148,  -0.00014,   0.00072,350782401.42363,   0.00000,274640135.82653,   0.00000,   0.00000,   0.00000,-123857734.40290,   0.00000
387765320.28571,137849297.44393,55388164.60791,   0.00150,  -0.00013,   0.00072,353715622.75853,   0.00000,274640135.82653,   0.00000,   0.00000,   0.00000,-120924513.06799,   0.00000
391628903.35338,141286973.71673,55423656.84081,   0.00151,  -0.00012,   0.00072,356677010.08311,   0.00000,274640135.82653,   0.00000,   0.00000,   0.00000,-117963125.74342,   0.00000
395492486.42105,144724649.98954,55459149.07372,   0.00152,  -0.00011,   0.00072,359651457.81334,   0.00000,274640135.82653,   0.00000,   0.00000,   0.00000,-114988678.01319,   0.00000
399363674.96720,148180072.37880,55494641.30662,   0.00153,  -0.00010,   0.00072,362642945.76435,   0.00000,274640135.82653,   0.00000,   0.00000,   0.00000,-111997190.06218,   0.00000
403234863.51335,151635494.76806,55530133.53953,   0.00154,  -0.00010,   0.00072,365647025.94491,   0.00000,274640135.82653,   0.00000,   0.00000,   0.00000,-108993109.88162,   0.00000
407113657.53798,155108663.27378,55570696.09142,   0.00155,  -0.00009,   0.00072,368670149.52064,   0.00000,274640135.82653,   0.00000,   0.00000,   0.00000,-105969986.30589,   0.00000
410992451.56261,158581831.77949,55606188.32432,   0.00156,  -0.00008,   0.00072,371703109.12813,   0.00000,274640135.82653,   0.00000,   0.00000,   0.00000,-102937026.69840,   0.00000
414871245.58724,162055000.28521,55646750.87621,   0.00157,  -0.00007,   0.00072,374750178.59878,   0.00000,274640135.82653,   0.00000,   0.00000,   0.00000,-99889957.22775,   0.00000
418775391.20680,165553520.38585,55682243.10912,   0.00158,  -0.00006,   0.00072,377826140.86415,   0.00000,274640135.82653,   0.00000,   0.00000,   0.00000,-96813994.96238,   0.00000
422661790.70991,169044435.00802,55722805.66101,   0.00159,  -0.00006,   0.00072,380900879.41019,   0.00000,274640135.82653,   0.00000,   0.00000,   0.00000,-93739256.41634,   0.00000
426565936.32947,172542955.10866,55763368.21290,   0.00160,  -0.00005,   0.00072,384001669.13000,   0.00000,274640135.82653,   0.00000,   0.00000,   0.00000,-90638466.69652,   0.00000
430459941.31106,176051615.84728,55803930.76479,   0.00162,  -0.00004,   0.00073,387103345.83548,   0.00000,274640135.82653,   0.00000,   0.00000,   0.00000,-87536789.99105,   0.00000
434371692.40910,179567882.06438,55844493.31669,   0.00163,  -0.00003,   0.00073,390230712.40255,   0.00000,274640135.82653,   0.00000,   0.00000,   0.00000,-84409423.42398,   0.00000
438265697.39069,183076542.80300,55885055.86858,   0.00164,  -0.00002,   0.00073,393353647.16107,   0.00000,274640135.82653,   0.00000,   0.00000,   0.00000,-81286488.66546,   0.00000
442177448.48873,186592809.02010,55925618.42047,   0.00165,  -0.00001,   0.00073,396501783.75172,   0.00000,274640135.82653,   0.00000,   0.00000,   0.00000,-78138352.07481,   0.00000
446096805.06525,190126821.35365,55971251.29135,   0.00166,  -0.00000,   0.00073,399667290.42761,   0.00000,274640135.82653,   0.00000,   0.00000,   0.00000,-74972845.39892,   0.00000
450016161.64177,193660833.68720,56011813.84324,   0.00167,   0.00000,   0.00073,402840575.26146,   0.00000,274640135.82653,   0.00000,   0.00000,   0.00000,-71799560.56507,   0.00000
453925377.58032,197204986.65872,56057446.71412,   0.00168,   0.00001,   0.00073,406016033.10834,   0.00000,274640135.82653,   0.00000,   0.00000,   0.00000,-68624102.71819,   0.00000
457844734.15684,200738998.99227,56103079.58499,   0.00169,   0.00002,   0.00073,409210605.06761,   0.00000,274640135.82653,   0.00000,   0.00000,   0.00000,-65429530.75892,   0.00000
461771696.21184,204290757.44228,56148712.45587,   0.00170,   0.00003,   0.00073,412419879.66820,   0.00000,274640135.82653,   0.00000,   0.00000,   0.00000,-62220256.15833,   0.00000
465706263.74532,207860262.00873,56194345.32675,   0.00171,   0.00004,   0.00073,415643837.86225,   0.00000,274640135.82653,   0.00000,   0.00000,   0.00000,-58996297.96428,   0.00000
469633225.80032,211412020.45874,56239978.19763,   0.00172,   0.00005,   0.00073,418871227.79211,   0.00000,274640135.82653,   0.00000,   0.00000,   0.00000,-55768908.03442,   0.00000
473550047.21735,214973919.54671,56285611.06851,   0.00174,   0.00005,   0.00073,422098014.20174,   0.00000,274640135.82653,   0.00000,   0.00000,   0.00000,-52542121.62479,   0.00000
477484614.75083,218543424.11317,56331243.93938,   0.00175,   0.00006,   0.00073,425348433.65072,   0.00000,274640135.82653,   0.00000,   0.00000,   0.00000,-49291702.17580,   0.00000
481419182.28431,222112928.67963,56381947.12925,   0.00176,   0.00007,   0.00073,428609297.08123,   0.00000,274640135.82653,   0.00000,   0.00000,   0.00000,-46030838.74530,   0.00000
485353749.81779,225682433.24608,56432650.31911,   0.00177,   0.00008,   0.00073,431878385.61357,   0.00000,274640135.82653,   0.00000,   0.00000,   0.00000,-42761750.21295,   0.00000
489278176.71329,229262078.45051,56483353.50898,   0.00178,   0.00009,   0.00073,435146424.50608,   0.00000,274640135.82653,   0.00000,   0.00000,   0.00000,-39493711.32045,   0.00000
493220349.72525,232849329.13342,56528986.37986,   0.00179,   0.00010,   0.00073,438435485.35208,   0.00000,274640135.82653,   0.00000,   0.00000,   0.00000,-36204650.47445,   0.00000
497144776.62076,236428974.33785,56584759.88871,   0.00180,   0.00011,   0.00074,441721251.86465,   0.00000,274640135.82653,   0.00000,   0.00000,   0.00000,-32918883.96188,   0.00000
501086949.63272,240016225.02076,56635463.07857,   0.00181,   0.00011,   0.00074,445027693.90432,   0.00000,274640135.82653,   0.00000,   0.00000,   0.00000,-29612441.92221,   0.00000
505018982.00671,243613616.34164,56686166.26844,   0.00182,   0.00012,   0.00074,448332722.50077,   0.00000,274640135.82653,   0.00000,   0.00000,   0.00000,-26307413.32576,   0.00000
508961155.01867,247200867.02455,56741939.77729,   0.00183,   0.00013,   0.00074,451655876.04089,   0.00000,274640135.82653,   0.00000,   0.00000,   0.00000,-22984259.78564,   0.00000
512893187.39265,250798258.34543,56792642.96715,   0.00184,   0.00014,   0.00074,454975474.97988,   0.00000,274640135.82653,   0.00000,   0.00000,   0.00000,-19664660.84665,   0.00000
516825219.76664,254395649.66631,56848416.47600,   0.00186,   0.00015,   0.00074,458304041.19645,   0.00000,274640135.82653,   0.00000,   0.00000,   0.00000,-16336094.63008,   0.00000
520757252.14063,257993040.98719,56904189.98485,   0.00187,   0.00016,   0.00074,461639511.16913,   0.00000,274640135.82653,   0.00000,   0.00000,   0.00000,-13000624.65740,   0.00000
524714636.10954,261615783.90300,56959963.49370,   0.00188,   0.00017,   0.00074,465003171.17971,   0.00000,274640135.82653,   0.00000,   0.00000,   0.00000,-9636964.64682,   0.00000
528628922.36708,265205569.74541,57020807.32154,   0.00189,   0.00018,   0.00074,468338888.67945,   0.00000,274640135.82653,   0.00000,   0.00000,   0.00000,-6301247.14708,   0.00000
532568560.21954,268820707.18274,57076580.83039,   0.00190,   0.00018,   0.00074,471700747.50937,   0.00000,274640135.82653,   0.00000,   0.00000,   0.00000,-2939388.31716,   0.00000
536005089.99427,271974176.58992,57129654.64931,   0.00191,   0.00019,   0.00074,474640135.84333,   0.00000,274640135.82653,   0.00000,   0.00000,   0.00000,   0.01680,   0.00000
536026315.39054,272225232.29897,57078729.79837,   0.00191,   0.00019,   0.00074,474640135.84333,   0.00000,274641805.84102,   0.00000,   0.00000,   0.00000,   0.00000,   2.00000
536186175.57272,274175790.86881,56681982.36935,   0.00192,   0.00020,   0.00074,478018330.89629,   0.00001,274654876.52528,   0.00002,   0.00000,   0.00001,   0.00000,   2.00000
536334671.70442,276107297.84864,56289149.06849,   0.00193,   0.00021,   0.00074,478023566.53688,   0.00003,274667892.27762,   0.00003,   0.00000,   0.00001,   0.00000,   2.00000
536473856.80826,278020156.97653,55896217.17480,   0.00194,   0.00022,   0.00075,478058667.81812,   0.00004,274680968.78188,   0.00004,   0.00000,   0.00002,   0.00000,   2.00000
536602096.61676,279928532.20226,55506314.00510,   0.00195,   0.00023,   0.00075,478070472.21673,   0.00005,274694015.79873,   0.00006,   0.00000,   0.00002,   0.00000,   2.00000
536720465.99067,281804078.28760,55119240.30771,   0.00196,   0.00024,   0.00075,478083637.56925,   0.00006,274707039.01719,   0.00007,   0.00000,   0.00003,   0.00000,   2.00000
536827128.54457,283674443.35887,54738017.45635,   0.00197,   0.00025,   0.00075,478112050.66252,   0.00007,274720097.05900,   0.00009,   0.00000,   0.00004,   0.00000,   2.00000
536924491.18157,285512346.87870,54359626.76174,   0.00199,   0.00025,   0.00075,478124881.52891,   0.00008,274733130.23413,   0.00010,   0.00000,   0.00004,   0.00000,   2.00000
537011530.51093,287346350.92974,53984213.39514,   0.00200,   0.00026,   0.00075,478136418.16039,   0.00010,274746133.72042,   0.00011,   0.00000,   0.00005,   0.00000,   2.00000
537090344.44325,289161917.73654,53608814.33237,   0.00201,   0.00027,   0.00075,478170933.02653,   0.00011,274759195.47558,   0.00013,   0.00000,   0.00005,   0.00000,   2.00000
537159372.47799,290959792.57348,53237298.49555,   0.00202,   0.00028,   0.00075,478175400.27245,   0.00012,274772200.73796,   0.00014,   0.00000,   0.00006,   0.00000,   2.00000
537217794.60563,292738886.20390,52872560.33870,   0.00203,   0.00029,   0.00075,478196406.08329,   0.00013,274785212.91778,   0.00016,   0.00001,   0.00006,   0.00000,   2.00000
537269607.45214,294501140.68880,52504945.28114,   0.00204,   0.00030,   0.00075,478213918.02215,   0.00014,274798218.76627,   0.00017,   0.00001,   0.00007,   0.00000,   2.00000
537311211.87370,296244864.56062,52144139.80110,   0.00205,   0.00031,   0.00075,478234702.27497,   0.00016,274811230.85084,   0.00018,   0.00001,   0.00008,   0.00000,   2.00000
537343838.32614,297971713.65307,51787157.51965,   0.00206,   0.00032,   0.00075,478238717.67744,   0.00017,274824185.83024,   0.00020,   0.00001,   0.00008,   0.00000,   2.00000
537369391.55120,299680584.70117,51430279.82557,   0.00207,   0.00033,   0.00076,478272548.48391,   0.00018,274837196.74345,   0.00021,   0.00001,   0.00009,   0.00000,   2.00000
537385579.15090,301386462.35833,51076314.84239,   0.00208,   0.00033,   0.00076,478283788.22449,   0.00019,274850178.01743,   0.00022,   0.00001,   0.00009,   0.00000,   2.00000
537393068.38330,303060741.21769,50730061.16429,   0.00209,   0.00034,   0.00076,478296739.80689,   0.00020,274863136.59995,   0.00024,   0.00001,   0.00010,   0.00000,   2.00000
537391472.31069,304732349.38473,50386652.77595,   0.00210,   0.00035,   0.00076,478307833.12938,   0.00022,274876065.63305,   0.00025,   0.00001,   0.00010,   0.00000,   2.00000
537384359.24320,306372798.76807,50044284.55569,   0.00211,   0.00036,   0.00076,478333770.72840,   0.00023,274889021.22365,   0.00027,   0.00001,   0.00011,  -0.00000,   2.00000
537369358.90471,307997555.88477,49705665.40313,   0.00212,   0.00037,   0.00076,478337185.44570,   0.00024,274901919.02133,   0.00028,   0.00002,   0.00011,   0.00000,   2.00000
537346474.27795,309619064.46308,49368081.97616,   0.00214,   0.00038,   0.00076,478363065.35498,   0.00025,274914843.30718,   0.00029,   0.00002,   0.00012,   0.00000,   2.00000
537317878.08773,311210874.38901,49033361.52743,   0.00215,   0.00039,   0.00076,478373628.90167,   0.00026,274927737.04447,   0.00031,   0.00002,   0.00012,   0.00000,   2.00000
537278997.74958,312799796.41263,48706288.31473,   0.00216,   0.00040,   0.00076,478386047.54193,   0.00027,274940607.34993,   0.00032,   0.00002,   0.00013,   0.00000,   2.00000
537235748.49463,314358278.87068,48380290.01516,   0.00217,   0.00041,   0.00076,478411214.99897,   0.00029,274953502.03615,   0.00034,   0.00002,   0.00014,   0.00000,   2.00000
537184201.34021,315915046.00932,48057047.57659,   0.00218,   0.00041,   0.00077,478421989.81812,   0.00030,274966367.49149,   0.00035,   0.00002,   0.00014,   0.00000,   2.00000
537126943.23219,317444191.84933,47738347.32063,   0.00219,   0.00042,   0.00077,478417040.59656,   0.00031,274979145.94717,   0.00036,   0.00003,   0.00015,   0.00000,   2.00000
537064699.21536,318956415.93764,47419838.01413,   0.00220,   0.00043,   0.00077,478449562.63285,   0.00032,274991976.70547,   0.00038,   0.00003,   0.00015,   0.00000,   2.00000
536992752.72660,320466439.09867,47108899.29413,   0.00221,   0.00044,   0.00077,478461702.64941,   0.00033,275004784.14380,   0.00039,   0.00003,   0.00016,   0.00000,   2.00000
536916614.85352,321948174.09698,46800737.60752,   0.00222,   0.00045,   0.00077,478471235.19951,   0.00034,275017559.08339,   0.00040,   0.00003,   0.00016,   0.00000,   2.00000
536833585.13430,323427434.91293,46493543.22871,   0.00223,   0.00046,   0.00077,478496641.01028,   0.00036,275030360.13847,   0.00042,   0.00003,   0.00017,   0.00000,   2.00000
536745835.51417,324880300.26509,46190794.18291,   0.00224,   0.00047,   0.00077,478491038.45179,   0.00037,275043073.45334,   0.00043,   0.00004,   0.00017,   0.00000,   2.00000
536652962.62791,326318261.69980,45889900.34811,   0.00225,   0.00048,   0.00077,478508188.24147,   0.00038,275055783.22675,   0.00045,   0.00004,   0.00018,   0.00000,   2.00000
536553466.94512,327740547.30552,45595732.04924,   0.00226,   0.00048,   0.00077,478526723.04561,   0.00039,275068494.71103,   0.00046,   0.00004,   0.00018,   0.00000,   2.00000
536448215.74865,329149861.95021,45305016.31657,   0.00227,   0.00049,   0.00078,478528841.82085,   0.00040,275081147.96841,   0.00047,   0.00004,   0.00019,   0.00000,   2.00000
536336546.29799,330557149.63046,45015200.26205,   0.00228,   0.00050,   0.00078,478553973.19426,   0.00041,275093827.41060,   0.00049,   0.00004,   0.00019,   0.00000,   2.00000
536222008.05804,331937506.95544,44728091.88501,   0.00229,   0.00051,   0.00078,478562569.35238,   0.00043,275106472.83655,   0.00050,   0.00005,   0.00020,   0.00000,   2.00000
536103888.10600,333293095.52077,44445286.90364,   0.00230,   0.00052,   0.00078,478556101.01813,   0.00044,275119029.88668,   0.00051,   0.00005,   0.00020,   0.00000,   2.00000
535979056.91467,334644344.45951,44166651.79911,   0.00231,   0.00053,   0.00078,478597240.46697,   0.00045,275131672.25314,   0.00053,   0.00005,   0.00021,   0.00000,   2.00000
535848105.16166,335985408.92030,43892942.44587,   0.00232,   0.00054,   0.00078,478584149.88319,   0.00046,275144202.60637,   0.00054,   0.00005,   0.00021,   0.00000,   2.00000
535715663.61996,337311649.50056,43614508.80754,   0.00233,   0.00055,   0.00078,478613988.39167,   0.00047,275156777.40425,   0.00055,   0.00006,   0.00022,   0.00000,   2.00000
535577144.13576,338612244.77334,43350079.02691,   0.00234,   0.00056,   0.00078,478609850.15484,   0.00048,275169273.69188,   0.00057,   0.00006,   0.00022,   0.00000,   2.00000
535434427.33419,339912464.73683,43081554.17486,   0.00235,   0.00056,   0.00079,478633175.47117,   0.00050,275181791.20039,   0.00058,   0.00006,   0.00023,   0.00000,   2.00000
535287521.28136,341188400.67909,42822072.01535,   0.00236,   0.00057,   0.00079,478627385.28045,   0.00051,275194224.98921,   0.00059,   0.00006,   0.00023,  -0.00000,   2.00000
535138642.81073,342452137.68339,42559362.82078,   0.00237,   0.00058,   0.00079,478642016.49989,   0.00052,275206649.29780,   0.00061,   0.00007,   0.00023,   0.00000,   2.00000
534982674.52879,343713936.67231,42302350.23050,   0.00238,   0.00059,   0.00079,478667965.23595,   0.00053,275219104.94008,   0.00062,   0.00007,   0.00024,   0.00000,   2.00000
534824488.47575,344953009.87966,42049400.75803,   0.00239,   0.00060,   0.00079,478660472.13036,   0.00054,275231471.76261,   0.00063,   0.00007,   0.00024,   0.00000,   2.00000
534663846.46877,346166655.55380,41803867.88027,   0.00240,   0.00061,   0.00079,478668853.40501,   0.00055,275243807.60796,   0.00065,   0.00008,   0.00025,   0.00000,   2.00000
534498343.12047,347382808.27458,41555638.86603,   0.00241,   0.00062,   0.00079,478677123.78857,   0.00056,275256112.21388,   0.00066,   0.00008,   0.00025,   0.00000,   2.00000
534329460.42685,348583323.31833,41312434.84073,   0.00242,   0.00063,   0.00079,478708801.33225,   0.00057,275268469.74171,   0.00067,   0.00008,   0.00026,  -0.00000,   2.00000
534157839.76488,349764464.39539,41074657.48822,   0.00243,   0.00063,   0.00080,478686069.42526,   0.00059,275280685.56532,   0.00069,   0.00008,   0.00026,   0.00000,   2.00000
533984616.17970,350931201.75942,40836960.38919,   0.00244,   0.00064,   0.00080,478716144.15077,   0.00060,275292949.25277,   0.00070,   0.00009,   0.00027,   0.00000,   2.00000
533803761.98160,352099108.53290,40606303.04230,   0.00245,   0.00065,   0.00080,478726949.57176,   0.00061,275305191.79832,   0.00071,   0.00009,   0.00027,  -0.00000,   2.00000
533621638.35274,353245947.83515,40379482.06027,   0.00246,   0.00066,   0.00080,478718621.64157,   0.00062,275317345.43284,   0.00073,   0.00009,   0.00028,   0.00000,   2.00000
533441000.83264,354370494.74368,40150118.31812,   0.00247,   0.00067,   0.00080,478723498.05364,   0.00063,275329457.88733,   0.00074,   0.00010,   0.00028,   0.00000,   2.00000
533254087.94851,355494191.47920,39926293.90665,   0.00248,   0.00068,   0.00080,478748768.01526,   0.00064,275341601.87845,   0.00075,   0.00010,   0.00028,   0.00000,   2.00000
533062297.49901,356608095.97021,39710274.26759,   0.00249,   0.00069,   0.00080,478750376.74327,   0.00065,275353693.39999,   0.00076,   0.00010,   0.00029,   0.00000,   2.00000
532872342.18980,357700193.80619,39491638.39328,   0.00250,   0.00070,   0.00081,478754970.79367,   0.00066,275365743.56335,   0.00078,   0.00011,   0.00029,   0.00000,   2.00000
532678921.48741,358780347.17049,39279357.74420,   0.00251,   0.00070,   0.00081,478771018.14916,   0.00068,275377793.30286,   0.00079,   0.00011,   0.00030,  -0.00000,   2.00000
532481072.44765,359854826.41438,39071280.43093,   0.00252,   0.00071,   0.00081,478756429.93975,   0.00069,275389734.40502,   0.00080,   0.00011,   0.00030,  -0.00000,   2.00000
532282570.68402,360915792.14015,38863175.77293,   0.00253,   0.00072,   0.00081,478785688.20344,   0.00070,275401722.46511,   0.00082,   0.00012,   0.00031,   0.00000,   2.00000
532083706.54839,361957556.91543,38658704.82428,   0.00254,   0.00073,   0.00081,478776450.49756,   0.00071,275413621.66199,   0.00083,   0.00012,   0.00031,   0.00000,   2.00000
531879010.76513,362999098.39089,38459632.54096,   0.00255,   0.00074,   0.00081,478801326.68113,   0.00072,275425552.71027,   0.00084,   0.00012,   0.00031,   0.00000,   2.00000
531675508.83188,364022675.03176,38259198.24138,   0.00256,   0.00075,   0.00082,478790681.78974,   0.00073,275437390.62602,   0.00085,   0.00013,   0.00032,   0.00000,   2.00000
531469068.99573,365035115.36418,38065008.40792,   0.00257,   0.00076,   0.00082,478806193.47447,   0.00074,275449228.02552,   0.00087,   0.00013,   0.00032,   0.00000,   2.00000
531262656.68456,366029234.02237,37874323.33597,   0.00258,   0.00076,   0.00082,478796516.02794,   0.00075,275460976.69532,   0.00088,   0.00013,   0.00033,  -0.00000,   2.00000
531050638.75995,367023524.42918,37688953.95334,   0.00259,   0.00077,   0.00082,478821138.28041,   0.00076,275472757.44675,   0.00089,   0.00014,   0.00033,  -0.00000,   2.00000
530840154.79893,368000703.68261,37502090.57940,   0.00260,   0.00078,   0.00082,478810089.46866,   0.00077,275484445.32112,   0.00090,   0.00014,   0.00033,   0.00000,   2.00000
530627063.51854,368967305.10615,37321383.64089,   0.00261,   0.00079,   0.00082,478825236.21571,   0.00078,275496132.64819,   0.00092,   0.00015,   0.00034,   0.00000,   2.00000
530411390.08587,369927233.25438,37143196.99011,   0.00262,   0.00080,   0.00083,478824571.52255,   0.00079,275507764.25094,   0.00093,   0.00015,   0.00034,   0.00000,   2.00000
530197554.17447,370866866.37863,36967041.70047,   0.00263,   0.00081,   0.00083,478828942.08334,   0.00081,275519358.24743,   0.00094,   0.00015,   0.00035,   0.00000,   2.00000
529981245.28942,371800212.73344,36793364.16941,   0.00264,   0.00082,   0.00083,478828093.99408,   0.00082,275530896.72967,   0.00095,   0.00016,   0.00035,   0.00000,   2.00000
529762625.86758,372723509.56996,36625755.82217,   0.00265,   0.00082,   0.00083,478842894.54391,   0.00083,275542434.66650,   0.00096,   0.00016,   0.00035,  -0.00000,   2.00000
529543076.45666,373637708.55927,36459251.22757,   0.00266,   0.00083,   0.00083,478856478.56653,   0.00084,275553967.92597,   0.00098,   0.00016,   0.00036,  -0.00000,   2.00000
529319710.62741,374549050.53390,36296432.76264,   0.00267,   0.00084,   0.00083,478840979.52700,   0.00085,275565395.46527,   0.00099,   0.00017,   0.00036,   0.00000,   2.00000
529100096.54221,375437793.98411,36134242.29724,   0.00268,   0.00085,   0.00084,478859338.72826,   0.00086,275576835.71556,   0.00100,   0.00017,   0.00037,   0.00000,   2.00000
528876948.28889,376320120.57739,35979332.65750,   0.00268,   0.00086,   0.00084,478859341.15505,   0.00087,275588225.00932,   0.00101,   0.00018,   0.00037,  -0.00000,   2.00000
528656020.98792,377187353.60973,35822631.29335,   0.00269,   0.00087,   0.00084,478847333.73054,   0.00088,275599522.14226,   0.00102,   0.00018,   0.00037,   0.00000,   2.00000
528429985.89633,378055785.21314,35671039.66046,   0.00270,   0.00087,   0.00084,478871279.32842,   0.00089,275610852.15824,   0.00104,   0.00018,   0.00038,   0.00000,   2.00000
528204997.80913,378908562.48556,35522548.81822,   0.00271,   0.00088,   0.00084,478860282.26969,   0.00090,275622094.14776,   0.00105,   0.00019,   0.00038,   0.00000,   2.00000
527979456.71920,379753103.42371,35375025.11622,   0.00272,   0.00089,   0.00084,478873308.74805,   0.00091,275633331.72758,   0.00106,   0.00019,   0.00038,   0.00000,   2.00000
527753832.77703,380581566.13288,35235494.07792,   0.00273,   0.00090,   0.00085,478863226.28486,   0.00092,275644485.31318,   0.00107,   0.00020,   0.00039,  -0.00000,   2.00000
527529019.58867,381402930.57614,35091931.82746,   0.00274,   0.00091,   0.00085,478874946.38802,   0.00093,275655630.64398,   0.00108,   0.00020,   0.00039,  -0.00000,   2.00000
527300938.69567,382218875.18349,34955481.82039,   0.00275,   0.00092,   0.00085,478874441.76588,   0.00094,275666725.71486,   0.00109,   0.00020,   0.00040,   0.00000,   2.00000
527070858.71495,383030338.13223,34821147.89796,   0.00276,   0.00092,   0.00085,478872758.53758,   0.00095,275677766.79783,   0.00111,   0.00021,   0.00040,   0.00000,   2.00000
526842564.28248,383823054.58409,34693452.99224,   0.00277,   0.00093,   0.00085,478876709.22848,   0.00096,275688773.78362,   0.00112,   0.00021,   0.00040,   0.00000,   2.00000
526615236.22629,384609093.17148,34561638.98033,   0.00277,   0.00094,   0.00086,478888174.84293,   0.00097,275699772.74285,   0.00113,   0.00022,   0.00041,   0.00000,   2.00000
526384766.74779,385390223.05849,34436835.12032,   0.00278,   0.00095,   0.00086,478887420.28625,   0.00098,275710721.82682,   0.00114,   0.00022,   0.00041,  -0.00000,   2.00000
526155811.28507,386157304.51976,34314881.24018,   0.00279,   0.00096,   0.00086,478875594.62967,   0.00099,275721583.45334,   0.00115,   0.00022,   0.00041,  -0.00000,   2.00000
525926703.41608,386917192.34846,34193702.26815,   0.00280,   0.00096,   0.00086,478887937.15920,   0.00100,275732441.04066,   0.00116,   0.00023,   0.00042,  -0.00000,   2.00000
525695740.20760,387673396.52760,34074501.50062,   0.00281,   0.00097,   0.00086,478885876.62205,   0.00101,275743245.31078,   0.00117,   0.00023,   0.00042,   0.00000,   2.00000
525466953.79762,388411738.30396,33961831.71842,   0.00282,   0.00098,   0.00086,478889238.64259,   0.00102,275754015.30712,   0.00119,   0.00024,   0.00042,  -0.00000,   2.00000
525236367.51139,389146695.85395,33851069.50617,   0.00283,   0.00099,   0.00087,478887031.93170,   0.00103,275764732.20633,   0.00120,   0.00024,   0.00043,  -0.00000,   2.00000
525005172.35236,389879170.59672,33737252.13353,   0.00284,   0.00100,   0.00087,478883695.18546,   0.00104,275775392.43929,   0.00121,   0.00025,   0.00043,  -0.00000,   2.00000
524775127.15228,390593356.11154,33634867.80439,   0.00284,   0.00100,   0.00087,478887838.29630,   0.00105,275786022.06723,   0.00122,   0.00025,   0.00043,  -0.00000,   2.00000
524544511.80118,391305344.04053,33529358.26449,   0.00285,   0.00101,   0.00087,478884367.18533,   0.00106,275796595.27719,   0.00123,   0.00025,   0.00044,   0.00000,   2.00000
524317532.69972,392001016.35464,33425335.62763,   0.00286,   0.00102,   0.00087,478886157.20985,   0.00107,275807130.45730,   0.00124,   0.00026,   0.00044,   0.00000,   2.00000
524087637.52126,392693091.84622,33328081.38113,   0.00287,   0.00103,   0.00088,478884691.37383,   0.00108,275817616.77706,   0.00125,   0.00026,   0.00044,   0.00000,   2.00000
523857884.70042,393378876.61493,33231423.35060,   0.00288,   0.00104,   0.00088,478896414.34415,   0.00109,275828099.45821,   0.00126,   0.00027,   0.00045,   0.00000,   2.00000
523626411.60175,394062039.11016,33136527.56705,   0.00289,   0.00104,   0.00088,478893819.52172,   0.00110,275838529.84438,   0.00127,   0.00027,   0.00045,   0.00000,   2.00000
523395690.91024,394732156.55389,33049150.62360,   0.00290,   0.00105,   0.00088,478882066.81155,   0.00111,275848877.21618,   0.00128,   0.00028,   0.00045,   0.00000,   2.00000
523170005.05157,395387456.42414,32958179.09033,   0.00290,   0.00106,   0.00088,478882340.84878,   0.00112,275859182.96836,   0.00129,   0.00028,   0.00046,  -0.00000,   2.00000
522937797.95501,396049328.80000,32873037.00766,   0.00291,   0.00107,   0.00089,478890758.06196,   0.00113,275869474.93515,   0.00130,   0.00029,   0.00046,   0.00000,   2.00000
522711267.16479,396689831.12312,32791211.80960,   0.00292,   0.00108,   0.00089,478867485.18958,   0.00114,275879645.87234,   0.00132,   0.00029,   0.00046,  -0.00000,   2.00000
522481323.35315,397334207.02185,32709043.24422,   0.00293,   0.00108,   0.00089,478888979.87311,   0.00115,275889848.13100,   0.00133,   0.00029,   0.00047,   0.00000,   2.00000
522253410.36972,397967074.22078,32629336.20520,   0.00294,   0.00109,   0.00089,478875769.96735,   0.00116,275899964.09284,   0.00134,   0.00030,   0.00047,  -0.00000,   2.00000
522024676.59053,398593546.81603,32555047.84252,   0.00294,   0.00110,   0.00090,478887987.72236,   0.00117,275910080.35679,   0.00135,   0.00030,   0.00047,   0.00000,   2.00000
521799163.02742,399209635.82564,32478208.76355,   0.00295,   0.00111,   0.00090,478873577.01885,   0.00118,275920106.90800,   0.00136,   0.00031,   0.00048,   0.00000,   2.00000
521570833.80584,399823282.46454,32407907.58969,   0.00296,   0.00111,   0.00090,478871433.37227,   0.00119,275930085.71706,   0.00137,   0.00031,   0.00048,   0.00000,   2.00000
521346663.53008,400422216.12354,32338833.90081,   0.00297,   0.00112,   0.00090,478872079.28113,   0.00119,275940026.57278,   0.00138,   0.00032,   0.00048,  -0.00000,   2.00000
521120827.09047,401019758.31466,32271287.69232,   0.00298,   0.00113,   0.00090,478868778.78389,   0.00120,275949916.35844,   0.00139,   0.00032,   0.00048,   0.00000,   2.00000
520894276.11614,401611327.97429,32209076.58080,   0.00298,   0.00114,   0.00091,478880658.42313,   0.00121,275959806.62781,   0.00140,   0.00032,   0.00049,   0.00000,   2.00000
520669885.10340,402192326.38729,32149164.67823,   0.00299,   0.00114,   0.00091,478866915.77807,   0.00122,275969611.06503,   0.00141,   0.00033,   0.00049,   0.00000,   2.00000
520444949.15099,402773015.33762,32085754.20715,   0.00300,   0.00115,   0.00091,478862430.53232,   0.00123,275979361.27870,   0.00142,   0.00033,   0.00049,   0.00000,   2.00000
520221054.65292,403342546.85835,32029597.31888,   0.00301,   0.00116,   0.00091,478849527.89242,   0.00124,275989029.29643,   0.00143,   0.00034,   0.00050,   0.00000,   2.00000
519996514.49745,403906450.34897,31978696.66850,   0.00302,   0.00117,   0.00092,478861102.04772,   0.00125,275998697.98178,   0.00144,   0.00034,   0.00050,  -0.00000,   2.00000
519773585.66291,404466422.01902,31923109.47288,   0.00302,   0.00117,   0.00092,478870617.77828,   0.00126,276008360.42650,   0.00145,   0.00035,   0.00050,   0.00000,   2.00000
519549562.68088,405019462.90117,31875832.49907,   0.00303,   0.00118,   0.00092,478843398.27270,   0.00127,276017893.23052,   0.00146,   0.00035,   0.00051,   0.00000,   2.00000
519331061.54250,405559598.45590,31824667.72069,   0.00304,   0.00119,   0.00092,478842261.75174,   0.00128,276027384.74201,   0.00147,   0.00036,   0.00051,  -0.00000,   2.00000
519109750.80203,406098345.41682,31779838.80161,   0.00305,   0.00120,   0.00092,478839447.50652,   0.00128,276036829.56296,   0.00148,   0.00036,   0.00051,   0.00000,   2.00000
518888970.31751,406632646.08112,31735235.64181,   0.00305,   0.00120,   0.00093,478849696.14045,   0.00129,276046271.80276,   0.00148,   0.00036,   0.00051,   0.00000,   2.00000
518669317.99495,407156604.22148,31697746.63316,   0.00306,   0.00121,   0.00093,478836294.60040,   0.00130,276055632.23921,   0.00149,   0.00037,   0.00052,   0.00000,   2.00000
518449061.06328,407681046.78994,31656582.61697,   0.00307,   0.00122,   0.00093,478831307.29121,   0.00131,276064939.45317,   0.00150,   0.00037,   0.00052,  -0.00000,   2.00000
518232217.00341,408191401.62103,31621403.66988,   0.00308,   0.00122,   0.00093,478831823.41939,   0.00132,276074212.26524,   0.00151,   0.00038,   0.00052,   0.00000,   2.00000
518014748.35702,408702416.57151,31582531.60036,   0.00308,   0.00123,   0.00094,478826731.66206,   0.00133,276083432.03733,   0.00152,   0.00038,   0.00053,   0.00000,   2.00000
517798421.15749,409203521.54520,31550730.74885,   0.00309,   0.00124,   0.00094,478813016.16719,   0.00134,276092570.24486,   0.00153,   0.00039,   0.00053,   0.00000,   2.00000
517581577.80259,409699793.39915,31524027.50361,   0.00310,   0.00125,   0.00094,478823873.02257,   0.00134,276101709.54234,   0.00154,   0.00039,   0.00053,   0.00000,   2.00000
517368089.86805,410188037.08250,31494398.59646,   0.00310,   0.00125,   0.00094,478808011.61123,   0.00135,276110760.61781,   0.00155,   0.00040,   0.00053,   0.00000,   2.00000
517152832.92377,410676426.03979,31465991.32164,   0.00311,   0.00126,   0.00095,478803688.05904,   0.00136,276119762.44845,   0.00156,   0.00040,   0.00054,   0.00000,   2.00000
516938730.01627,411155314.62233,31444584.01632,   0.00312,   0.00127,   0.00095,478789671.42555,   0.00137,276128682.96774,   0.00157,   0.00040,   0.00054,  -0.00000,   2.00000
516725228.87197,411630458.43002,31423249.50494,   0.00313,   0.00127,   0.00095,478799252.59317,   0.00138,276137601.37751,   0.00158,   0.00041,   0.00054,   0.00000,   2.00000
516516386.48278,412093098.08855,31402819.94364,   0.00313,   0.00128,   0.00095,478798132.62341,   0.00139,276146482.06145,   0.00159,   0.00041,   0.00054,  -0.00000,   2.00000
516303319.71663,412560250.98389,31384639.81458,   0.00314,   0.00129,   0.00096,478779587.00114,   0.00139,276155267.03489,   0.00159,   0.00042,   0.00055,  -0.00000,   2.00000
516094931.53608,413015054.88078,31367345.56317,   0.00315,   0.00129,   0.00096,478778290.51234,   0.00140,276164014.33369,   0.00160,   0.00042,   0.00055,   0.00000,   2.00000
515883622.85989,413469613.83250,31356148.65809,   0.00315,   0.00130,   0.00096,478774636.70720,   0.00141,276172716.29888,   0.00161,   0.00043,   0.00055,   0.00000,   2.00000
515674560.22515,413916082.27671,31346883.24464,   0.00316,   0.00131,   0.00096,478759203.28509,   0.00142,276181333.94748,   0.00162,   0.00043,   0.00056,   0.00000,   2.00000
515467203.87429,414360005.28558,31332656.56420,   0.00317,   0.00132,   0.00097,478767408.63652,   0.00143,276189946.37693,   0.00163,   0.00044,   0.00056,   0.00000,   2.00000
515260995.32771,414795185.27701,31325343.07874,   0.00317,   0.00132,   0.00097,478752848.70408,   0.00143,276198477.91558,   0.00164,   0.00044,   0.00056,   0.00000,   2.00000
515054330.33936,415226270.71159,31322979.02416,   0.00318,   0.00133,   0.00097,478762945.54872,   0.00144,276207011.00945,   0.00165,   0.00044,   0.00056,  -0.00000,   2.00000
514848459.35431,415654590.62895,31318618.88300,   0.00319,   0.00134,   0.00097,478732298.78314,   0.00145,276215410.15362,   0.00165,   0.00045,   0.00057,   0.00000,   2.00000
514643210.16466,416079743.77475,31314229.98223,   0.00319,   0.00134,   0.00098,478741250.36479,   0.00146,276223807.60065,   0.00166,   0.00045,   0.00057,   0.00000,   2.00000
514441649.06941,416492352.46736,31315614.66331,   0.00320,   0.00135,   0.00098,478740371.50769,   0.00147,276232170.79295,   0.00167,   0.00046,   0.00057,   0.00000,   2.00000
514235584.88162,416910220.36770,31319103.50542,   0.00321,   0.00136,   0.00098,478721356.85568,   0.00147,276240439.61514,   0.00168,   0.00046,   0.00057,   0.00000,   2.00000
514035388.41322,417317356.63578,31318398.03742,   0.00321,   0.00136,   0.00098,478718312.80609,   0.00148,276248667.55472,   0.00169,   0.00047,   0.00058,  -0.00000,   2.00000
513835223.10675,417715521.68946,31329494.77450,   0.00322,   0.00137,   0.00099,478704256.85652,   0.00149,276256818.33595,   0.00170,   0.00047,   0.00058,   0.00000,   2.00000
513636769.55232,418111672.97781,31335512.87996,   0.00323,   0.00137,   0.00099,478711898.76252,   0.00150,276264964.27761,   0.00170,   0.00047,   0.00058,  -0.00000,   2.00000
513437872.31822,418504876.94618,31344454.95802,   0.00323,   0.00138,   0.00099,478681809.50268,   0.00150,276272980.28988,   0.00171,   0.00048,   0.00058,   0.00000,   2.00000
513238513.58088,418894453.54724,31358257.40292,   0.00324,   0.00139,   0.00099,478691311.25663,   0.00151,276280998.22640,   0.00172,   0.00048,   0.00059,   0.00000,   2.00000
513045060.04470,419273699.33566,31367816.18749,   0.00324,   0.00139,   0.00100,478687898.67630,   0.00152,276288975.32608,   0.00173,   0.00049,   0.00059,  -0.00000,   2.00000
512845808.20010,419657834.10521,31384398.21792,   0.00325,   0.00140,   0.00100,478669534.59347,   0.00153,276296862.22943,   0.00174,   0.00049,   0.00059,  -0.00000,   2.00000
512651388.43500,420030904.63329,31401687.36771,   0.00326,   0.00141,   0.00100,478666963.88990,   0.00153,276304711.68586,   0.00174,   0.00049,   0.00059,   0.00000,   2.00000
512459108.25260,420397241.58534,31420765.80214,   0.00326,   0.00141,   0.00100,478650434.65089,   0.00154,276312477.68635,   0.00175,   0.00050,   0.00060,   0.00000,   2.00000
512267439.85109,420761067.20761,31439690.56894,   0.00327,   0.00142,   0.00101,478658633.26666,   0.00155,276320242.43258,   0.00176,   0.00050,   0.00060,   0.00000,   2.00000
512072580.28987,421125772.77153,31464508.05896,   0.00327,   0.00142,   0.00101,478653961.30478,   0.00156,276327963.37150,   0.00177,   0.00051,   0.00060,  -0.00000,   2.00000
511880919.87107,421484767.67062,31486116.97937,   0.00328,   0.00143,   0.00101,478636276.32238,   0.00156,276335597.66917,   0.00177,   0.00051,   0.00060,   0.00000,   2.00000
511690276.23748,421836432.17530,31514466.04672,   0.00329,   0.00144,   0.00101,478620499.29713,   0.00157,276343152.05552,   0.00178,   0.00052,   0.00060,  -0.00000,   2.00000
511502802.76751,422182578.77300,31539596.01748,   0.00329,   0.00144,   0.00102,478602613.59073,   0.00158,276350619.90856,   0.00179,   0.00052,   0.00061,  -0.00000,   2.00000
511314836.55481,422525574.73332,31569509.26015,   0.00330,   0.00145,   0.00102,478611488.58945,   0.00158,276358090.03792,   0.00180,   0.00052,   0.00061,  -0.00000,   2.00000
511124673.70464,422870558.99317,31600301.20737,   0.00330,   0.00146,   0.00102,478605518.77482,   0.00159,276365513.40056,   0.00180,   0.00053,   0.00061,  -0.00000,   2.00000
510943648.03081,423196834.66479,31632614.17264,   0.00331,   0.00146,   0.00103,478591294.54081,   0.00160,276372863.03147,   0.00181,   0.00053,   0.00061,   0.00000,   2.00000
510756109.62531,423533461.48215,31664932.23294,   0.00332,   0.00147,   0.00103,478596218.92179,   0.00160,276380202.39281,   0.00182,   0.00054,   0.00062,  -0.00000,   2.00000
510573806.90590,423854939.13919,31704823.56300,   0.00332,   0.00147,   0.00103,478569051.71626,   0.00161,276387425.72657,   0.00182,   0.00054,   0.00062,   0.00000,   2.00000
510390321.11047,424179507.10905,31740588.48669,   0.00333,   0.00148,   0.00103,478561813.20084,   0.00162,276394599.21907,   0.00183,   0.00054,   0.00062,   0.00000,   2.00000
510207753.67091,424497272.39368,31783050.49979,   0.00333,   0.00148,   0.00104,478545500.67432,   0.00162,276401693.20165,   0.00184,   0.00055,   0.00062,   0.00000,   2.00000
510025752.02212,424813026.33961,31825251.42543,   0.00334,   0.00149,   0.00104,478552955.65753,   0.00163,276408786.37025,   0.00185,   0.00055,   0.00063,   0.00000,   2.00000
509846826.81604,425123844.27861,31864198.29480,   0.00334,   0.00150,   0.00104,478534512.21816,   0.00164,276415793.37616,   0.00185,   0.00056,   0.00063,   0.00000,   2.00000
509667366.27749,425431844.17977,31907869.66958,   0.00335,   0.00150,   0.00104,478542882.97794,   0.00164,276422802.95690,   0.00186,   0.00056,   0.00063,  -0.00000,   2.00000
509491274.50466,425730375.57550,31955226.64243,   0.00335,   0.00151,   0.00105,478500473.50581,   0.00165,276429647.86633,   0.00187,   0.00056,   0.00063,   0.00000,   2.00000
509310308.46560,426034265.40437,32006387.73618,   0.00336,   0.00151,   0.00105,478519782.34982,   0.00166,276436532.02258,   0.00187,   0.00057,   0.00063,   0.00000,   2.00000
509136702.08906,426325380.27164,32055154.97758,   0.00336,   0.00152,   0.00105,478489981.19314,   0.00166,276443293.61575,   0.00188,   0.00057,   0.00064,   0.00000,   2.00000
508963626.62709,426614735.07196,32103643.61572,   0.00337,   0.00152,   0.00106,478497060.57142,   0.00167,276450054.54439,   0.00189,   0.00057,   0.00064,   0.00000,   2.00000
508791360.58583,426897763.34231,32158806.26896,   0.00337,   0.00153,   0.00106,478480270.87700,   0.00168,276456736.30813,   0.00189,   0.00058,   0.00064,   0.00000,   2.00000
508617744.12376,427184321.79323,32209799.11545,   0.00338,   0.00153,   0.00106,478472485.60775,   0.00168,276463368.81774,   0.00190,   0.00058,   0.00064,   0.00000,   2.00000
508444906.51212,427464629.51072,32267465.41779,   0.00338,   0.00154,   0.00106,478455565.68496,   0.00169,276469922.26741,   0.00190,   0.00059,   0.00064,   0.00000,   2.00000
508276929.95656,427735305.15029,32325714.20953,   0.00339,   0.00154,   0.00107,478451266.60223,   0.00169,276476438.51477,   0.00191,   0.00059,   0.00065,   0.00000,   2.00000
508103438.54045,428013094.09164,32385858.44289,   0.00339,   0.00155,   0.00107,478430613.99142,   0.00170,276482863.91378,   0.00192,   0.00059,   0.00065,   0.00000,   2.00000
507937826.63150,428276964.40169,32445477.09317,   0.00340,   0.00156,   0.00107,478439895.87727,   0.00171,276489297.27449,   0.00192,   0.00060,   0.00065,  -0.00000,   2.00000
507771004.05317,428540089.33817,32507899.47096,   0.00340,   0.00156,   0.00108,478407985.78184,   0.00171,276495603.20206,   0.00193,   0.00060,   0.00065,   0.00000,   2.00000
507604664.21517,428801713.13294,32569997.91213,   0.00341,   0.00157,   0.00108,478414578.57971,   0.00172,276501908.70656,   0.00194,   0.00060,   0.00065,   0.00000,   2.00000
507440119.64499,429058304.30224,32633794.27918,   0.00341,   0.00157,   0.00108,478396256.76538,   0.00172,276508131.96986,   0.00194,   0.00061,   0.00066,  -0.00000,   2.00000
507276240.20988,429309015.82884,32704251.39230,   0.00342,   0.00158,   0.00108,478378888.84753,   0.00173,276514276.48386,   0.00195,   0.00061,   0.00066,   0.00000,   2.00000
507115234.12317,429555730.58511,32771423.48938,   0.00342,   0.00158,   0.00109,478359347.55680,   0.00174,276520335.41733,   0.00195,   0.00062,   0.00066,  -0.00000,   2.00000
506953564.62581,429800171.85302,32843225.00803,   0.00343,   0.00159,   0.00109,478366721.10321,   0.00174,276526397.48582,   0.00196,   0.00062,   0.00066,  -0.00000,   2.00000
506794747.03914,430040705.97438,32911749.97883,   0.00343,   0.00159,   0.00109,478347080.90549,   0.00175,276532374.01104,   0.00196,   0.00062,   0.00066,   0.00000,   2.00000
506632137.02828,430283395.15655,32986024.10312,   0.00344,   0.00160,   0.00110,478340688.51741,   0.00175,276538308.80606,   0.00197,   0.00063,   0.00067,   0.00000,   2.00000
506474359.07491,430516933.46358,33060864.52815,   0.00344,   0.00160,   0.00110,478335645.74147,   0.00176,276544206.49338,   0.00198,   0.00063,   0.00067,   0.00000,   2.00000
506318270.77931,430745785.16175,33137400.74132,   0.00345,   0.00160,   0.00110,478316874.16724,   0.00176,276550022.19563,   0.00198,   0.00063,   0.00067,   0.00000,   2.00000
506163853.43026,430970004.79545,33215635.46284,   0.00345,   0.00161,   0.00110,478298013.99707,   0.00177,276555755.95122,   0.00199,   0.00064,   0.00067,   0.00000,   2.00000
506009848.16849,431193042.01704,33293508.38334,   0.00345,   0.00161,   0.00111,478303993.09019,   0.00177,276561489.53359,   0.00199,   0.00064,   0.00067,  -0.00000,   2.00000
505854317.12148,431415922.01252,33374222.14907,   0.00346,   0.00162,   0.00111,478271387.57978,   0.00178,276567096.43401,   0.00200,   0.00064,   0.00068,   0.00000,   2.00000
505703591.41759,431629873.62133,33455509.28596,   0.00346,   0.00162,   0.00111,478265960.66392,   0.00178,276572666.26018,   0.00200,   0.00065,   0.00068,  -0.00000,   2.00000
505553257.03206,431842723.41618,33536432.35763,   0.00347,   0.00163,   0.00112,478271764.88629,   0.00179,276578235.97015,   0.00201,   0.00065,   0.00068,  -0.00000,   2.00000
505401319.98985,432055547.24468,33620216.97490,   0.00347,   0.00163,   0.00112,478238996.04726,   0.00179,276583679.15226,   0.00201,   0.00065,   0.00068,   0.00000,   2.00000
505253034.79379,432258608.56147,33709541.29677,   0.00347,   0.00164,   0.00112,478234452.11106,   0.00180,276589088.81313,   0.00202,   0.00066,   0.00068,   0.00000,   2.00000
505107455.50576,432458279.24874,33795615.33592,   0.00348,   0.00164,   0.00112,478214077.63379,   0.00180,276594413.20934,   0.00202,   0.00066,   0.00069,  -0.00000,   2.00000
504961089.67130,432656005.32434,33886281.02459,   0.00348,   0.00165,   0.00113,478220705.02690,   0.00181,276599741.13386,   0.00203,   0.00066,   0.00069,   0.00000,   2.00000
504814163.95076,432854830.01799,33974859.34579,   0.00349,   0.00165,   0.00113,478186617.73523,   0.00181,276604939.20051,   0.00203,   0.00066,   0.00069,  -0.00000,   2.00000
504670857.55401,433044027.62130,34068986.38518,   0.00349,   0.00165,   0.00113,478181802.95501,   0.00182,276610103.80020,   0.00204,   0.00067,   0.00069,   0.00000,   2.00000
504529043.45620,433233261.27338,34157767.50600,   0.00349,   0.00166,   0.00114,478186095.61627,   0.00182,276615264.86644,   0.00204,   0.00067,   0.00069,   0.00000,   2.00000
504388717.38830,433414113.40490,34255389.01616,   0.00350,   0.00166,   0.00114,478142680.15339,   0.00183,276620266.24854,   0.00205,   0.00067,   0.00069,  -0.00000,   2.00000
504248707.30268,433594100.28665,34352621.39635,   0.00350,   0.00167,   0.00114,478147894.77665,   0.00183,276625267.73830,   0.00205,   0.00068,   0.00070,   0.00000,   2.00000
504110150.82345,433769999.91266,34451603.33216,   0.00351,   0.00167,   0.00115,478128165.89909,   0.00184,276630187.69826,   0.00206,   0.00068,   0.00070,   0.00000,   2.00000
503971900.23894,433945067.47805,34550197.37265,   0.00351,   0.00167,   0.00115,478133295.02130,   0.00184,276635107.79024,   0.00206,   0.00068,   0.00070,   0.00000,   2.00000
503832931.73226,434121513.91712,34646768.85328,   0.00351,   0.00168,   0.00115,478098788.12571,   0.00185,276639898.28236,   0.00207,   0.00069,   0.00070,  -0.00000,   2.00000
503701961.52782,434280906.06317,34749891.66399,   0.00352,   0.00168,   0.00115,478082167.52483,   0.00185,276644618.23449,   0.00207,   0.00069,   0.00070,  -0.00000,   2.00000
503566828.00669,434447185.89736,34851642.44364,   0.00352,   0.00169,   0.00116,478098450.23766,   0.00186,276649375.54469,   0.00208,   0.00069,   0.00070,   0.00000,   2.00000
503434175.06031,434606350.04257,34957346.12003,   0.00352,   0.00169,   0.00116,478053519.05862,   0.00186,276653969.82464,   0.00208,   0.00069,   0.00071,  -0.00000,   2.00000
503301785.63210,434764792.43041,35062663.68951,   0.00353,   0.00169,   0.00116,478058312.71639,   0.00186,276658564.33336,   0.00208,   0.00070,   0.00071,   0.00000,   2.00000
503177362.12412,434906331.51699,35174543.29041,   0.00353,   0.00170,   0.00117,478041461.84418,   0.00187,276663088.32448,   0.00209,   0.00070,   0.00071,   0.00000,   2.00000
503043184.70998,435064700.27167,35282448.62447,   0.00353,   0.00170,   0.00117,478029317.48777,   0.00187,276667557.39078,   0.00209,   0.00070,   0.00071,   0.00000,   2.00000
502918151.28983,435207202.04301,35391976.18018,   0.00354,   0.00170,   0.00117,478011205.18092,   0.00188,276671952.24935,   0.00210,   0.00071,   0.00071,   0.00000,   2.00000
502794410.68583,435345946.71510,35503325.49908,   0.00354,   0.00171,   0.00117,477990838.97730,   0.00188,276676265.80267,   0.00210,   0.00071,   0.00071,   0.00000,   2.00000
502670893.94600,435484083.90029,35614294.03533,   0.00354,   0.00171,   0.00118,477995337.07988,   0.00189,276680579.65102,   0.00211,   0.00071,   0.00071,  -0.00000,   2.00000
502545238.30874,435622952.56622,35728304.10351,   0.00355,   0.00172,   0.00118,477961345.60030,   0.00189,276684767.93526,   0.00211,   0.00071,   0.00072,   0.00000,   2.00000
502423038.65699,435752653.44430,35847904.75960,   0.00355,   0.00172,   0.00118,477955459.37588,   0.00189,276688923.02811,   0.00211,   0.00072,   0.00072,   0.00000,   2.00000
502306699.51886,435875263.58702,35963181.18115,   0.00355,   0.00172,   0.00119,477947242.96915,   0.00190,276693037.43214,   0.00212,   0.00072,   0.00072,   0.00000,   2.00000
502187123.56802,436001796.93873,36079296.79905,   0.00356,   0.00172,   0.00119,477938001.13179,   0.00190,276697107.92988,   0.00212,   0.00072,   0.00072,   0.00000,   2.00000
502071988.72156,436116149.20102,36203264.27321,   0.00356,   0.00173,   0.00119,477907040.06107,   0.00190,276701063.70965,   0.00212,   0.00072,   0.00072,   0.00000,   2.00000
501954796.56504,436235490.59235,36323115.29448,   0.00356,   0.00173,   0.00120,477896495.37686,   0.00191,276704971.89179,   0.00213,   0.00073,   0.00072,  -0.00000,   2.00000
501842230.71948,436346809.24558,36443631.22185,   0.00356,   0.00173,   0.00120,477889155.29673,   0.00191,276708843.13496,   0.00213,   0.00073,   0.00073,   0.00000,   2.00000
501725136.39500,436461071.34858,36569956.77490,   0.00357,   0.00174,   0.00120,477880851.28829,   0.00192,276712674.42287,   0.00214,   0.00073,   0.00073,   0.00000,   2.00000
501614869.19100,436565324.91821,36694271.46194,   0.00357,   0.00174,   0.00120,477847317.70260,   0.00192,276716383.43635,   0.00214,   0.00073,   0.00073,   0.00000,   2.00000
501504745.91729,436669142.42093,36818220.88422,   0.00357,   0.00174,   0.00121,477851199.28622,   0.00192,276720092.89278,   0.00214,   0.00073,   0.00073,   0.00000,   2.00000
501398948.16539,436760931.76378,36950099.29738,   0.00358,   0.00175,   0.00121,477819874.09051,   0.00193,276723687.75286,   0.00215,   0.00074,   0.00073,   0.00000,   2.00000
501291019.78703,436857834.00766,37077900.63728,   0.00358,   0.00175,   0.00121,477808960.28731,   0.00193,276727235.10236,   0.00215,   0.00074,   0.00073,  -0.00000,   2.00000
501182918.51246,436950238.05412,37212599.08899,   0.00358,   0.00175,   0.00122,477788924.30327,   0.00193,276730705.30900,   0.00215,   0.00074,   0.00073,   0.00000,   2.00000
501076178.98585,437043310.77698,37341980.25994,   0.00358,   0.00175,   0.00122,477791384.72446,   0.00194,276734172.15017,   0.00216,   0.00074,   0.00073,  -0.00000,   2.00000
500978463.51671,437121037.33062,37473141.60980,   0.00359,   0.00176,   0.00122,477772119.50765,   0.00194,276737564.66022,   0.00216,   0.00075,   0.00074,   0.00000,   2.00000
500872533.87582,437206265.00286,37611420.40183,   0.00359,   0.00176,   0.00123,477749900.65598,   0.00194,276740873.43597,   0.00216,   0.00075,   0.00074,  -0.00000,   2.00000
500776867.27663,437277258.61814,37746543.66269,   0.00359,   0.00176,   0.00123,477729273.55630,   0.00194,276744103.97752,   0.00217,   0.00075,   0.00074,   0.00000,   2.00000
500681277.79666,437347942.51449,37881320.95091,   0.00359,   0.00176,   0.00123,477732669.12172,   0.00195,276747335.06210,   0.00217,   0.00075,   0.00074,  -0.00000,   2.00000
500581853.53064,437418673.26711,38024331.40131,   0.00360,   0.00177,   0.00123,477698861.17276,   0.00195,276750445.10679,   0.00217,   0.00075,   0.00074,  -0.00000,   2.00000
500488221.17974,437482713.28672,38163134.15084,   0.00360,   0.00177,   0.00124,477689470.65428,   0.00195,276753514.32292,   0.00217,   0.00076,   0.00074,   0.00000,   2.00000
500399099.00539,437539007.47812,38302691.59939,   0.00360,   0.00177,   0.00124,477681241.81361,   0.00196,276756546.65653,   0.00218,   0.00076,   0.00074,   0.00000,   2.00000
500305173.08091,437598391.34999,38448143.29038,   0.00360,   0.00177,   0.00124,477672195.95871,   0.00196,276759539.56556,   0.00218,   0.00076,   0.00074,  -0.00000,   2.00000
500217911.41613,437648136.70517,38591804.41390,   0.00360,   0.00178,   0.00125,477637731.14535,   0.00196,276762410.10483,   0.00218,   0.00076,   0.00074,   0.00000,   2.00000
500127101.18363,437702083.86834,38736435.37800,   0.00361,   0.00178,   0.00125,477627306.27769,   0.00196,276765237.25132,   0.00218,   0.00076,   0.00075,  -0.00000,   2.00000
500039467.30822,437747214.24650,38886790.15196,   0.00361,   0.00178,   0.00125,477620074.69703,   0.00197,276768031.60861,   0.00219,   0.00076,   0.00075,   0.00000,   2.00000
499958460.26034,437782768.19815,39035408.14397,   0.00361,   0.00178,   0.00126,477585397.52629,   0.00197,276770703.57203,   0.00219,   0.00077,   0.00075,   0.92560,   1.00000
499877453.99078,437818108.88422,39183709.37542,   0.00361,   0.00178,   0.00126,477588240.19349,   0.00197,276773376.19765,   0.00219,   0.00077,   0.00075,   0.92865,   1.00000
499792848.09433,437857682.48556,39333011.36544,   0.00362,   0.00179,   0.00126,477577629.33712,   0.00197,276776005.49762,   0.00219,   0.00077,   0.00075,   0.90125,   1.00000
499713525.13222,437886591.98643,39485577.10984,   0.00362,   0.00179,   0.00126,477544028.01839,   0.00198,276778516.46741,   0.00220,   0.00077,   0.00075,   0.82441,   1.00000
499638628.52685,437907859.73215,39638968.62976,   0.00362,   0.00179,   0.00127,477535235.82171,   0.00198,276780990.61323,   0.00220,   0.00077,   0.00075,   0.80293,   1.00000
499564529.56188,437925943.69304,39794524.90244,   0.00362,   0.00179,   0.00127,477512959.01348,   0.00198,276783383.96982,   0.00220,   0.00077,   0.00075,   0.75379,   1.00000
499486771.39166,437948287.47233,39951119.16817,   0.00362,   0.00179,   0.00127,477502085.40039,   0.00198,276785734.08004,   0.00220,   0.00078,   0.00075,   0.72913,   1.00000
499417855.12324,437955561.17447,40109709.61873,   0.00362,   0.00180,   0.00128,477481656.18808,   0.00199,276788009.85482,   0.00221,   0.00078,   0.00075,   0.68613,   1.00000
499345251.29568,437967109.50207,40269356.63195,   0.00363,   0.00180,   0.00128,477470671.75480,   0.00199,276790242.41526,   0.00221,   0.00078,   0.00076,   0.66260,   1.00000
499277029.09019,437971045.86004,40429871.54488,   0.00363,   0.00180,   0.00128,477461606.30997,   0.00199,276792438.18494,   0.00221,   0.00078,   0.00076,   0.64326,   1.00000
499209534.10713,437971816.00030,40592619.26630,   0.00363,   0.00180,   0.00129,477439068.64366,   0.00199,276794553.22178,   0.00221,   0.00078,   0.00076,   0.59904,   1.00000
499142750.03021,437969419.16887,40757615.64823,   0.00363,   0.00180,   0.00129,477416455.96118,   0.00199,276796587.54155,   0.00221,   0.00078,   0.00076,   0.55629,   1.00000
499080314.14631,437959425.02359,40923508.95308,   0.00363,   0.00180,   0.00129,477407199.22273,   0.00200,276798585.09947,   0.00222,   0.00078,   0.00076,   0.53849,   1.00000
499019930.53170,437947443.74659,41086751.51523,   0.00363,   0.00180,   0.00129,477383166.13463,   0.00200,276800497.66618,   0.00222,   0.00078,   0.00076,   0.49557,   1.00000
498962503.61899,437926703.47476,41255846.57847,   0.00364,   0.00181,   0.00130,477375098.27333,   0.00200,276802377.76123,   0.00222,   0.00079,   0.00076,   0.48090,   1.00000
498905725.37295,437902804.66607,41427249.74287,   0.00364,   0.00181,   0.00130,477352268.28017,   0.00200,276804177.18540,   0.00222,   0.00079,   0.00076,   0.44240,   1.00000
498850968.96792,437876929.51602,41596051.84152,   0.00364,   0.00181,   0.00130,477328037.12909,   0.00200,276805891.60231,   0.00222,   0.00079,   0.00076,   0.40329,   1.00000
498799118.05500,437842281.79165,41770734.39811,   0.00364,   0.00181,   0.00131,477319799.43404,   0.00200,276807573.63607,   0.00222,   0.00079,   0.00076,   0.38995,   1.00000
498748531.19407,437808701.25424,41940250.09532,   0.00364,   0.00181,   0.00131,477320348.83864,   0.00201,276809252.14375,   0.00223,   0.00079,   0.00076,   0.39002,   1.00000
498697876.14392,437767711.17866,42119673.27656,   0.00364,   0.00181,   0.00131,477273774.30566,   0.00201,276810772.88158,   0.00223,   0.00079,   0.00076,   0.32164,   1.00000
498648477.39081,437727791.44162,42293945.95493,   0.00364,   0.00181,   0.00131,477274161.38717,   0.00201,276812290.08609,   0.00223,   0.00079,   0.00076,   0.32161,   1.00000
498607748.92008,437672821.47257,42470423.45749,   0.00364,   0.00181,   0.00132,477252936.16372,   0.00201,276813733.01134,   0.00223,   0.00079,   0.00077,   0.29230,   1.00000
498567570.87527,437614671.38825,42649328.68779,   0.00365,   0.00181,   0.00132,477229701.27990,   0.00201,276815095.30652,   0.00223,   0.00079,   0.00077,   0.26182,   1.00000
498523526.07528,437560798.02054,42829457.55374,   0.00365,   0.00181,   0.00132,477217863.91585,   0.00201,276816414.54667,   0.00223,   0.00079,   0.00077,   0.24673,   1.00000
498483707.12512,437499319.69571,43010612.04506,   0.00365,   0.00181,   0.00133,477207932.32151,   0.00201,276817697.11154,   0.00223,   0.00079,   0.00077,   0.23437,   1.00000
498452497.36642,437422758.17372,43194033.20957,   0.00365,   0.00181,   0.00133,477186503.16464,   0.00202,276818905.45345,   0.00223,   0.00080,   0.00077,   0.20912,   1.00000
498413682.88125,437354852.74411,43380158.79847,   0.00365,   0.00181,   0.00133,477161115.97692,   0.00202,276820026.82291,   0.00224,   0.00080,   0.00077,   0.18103,   1.00000
498383445.15362,437271831.66315,43568587.79276,   0.00365,   0.00181,   0.00133,477139546.10447,   0.00202,276821074.00127,   0.00224,   0.00080,   0.00077,   0.15872,   1.00000
498352987.65182,437188667.15721,43756842.38444,   0.00365,   0.00182,   0.00134,477140835.19238,   0.00202,276822122.13863,   0.00224,   0.00080,   0.00077,   0.15988,   1.00000
498324449.52670,437103496.77971,43942728.45464,   0.00365,   0.00182,   0.00134,477115855.74176,   0.00202,276823085.11326,   0.00224,   0.00080,   0.00077,   0.13567,   1.00000
498302977.65314,437001921.77380,44135882.22886,   0.00365,   0.00182,   0.00134,477095554.17776,   0.00202,276823978.52908,   0.00224,   0.00080,   0.00077,   0.11745,   1.00000
498277544.65232,436904563.47311,44330357.07606,   0.00366,   0.00182,   0.00135,477083297.84092,   0.00202,276824828.97496,   0.00224,   0.00080,   0.00077,   0.10703,   1.00000
498254004.35327,436805164.47504,44522522.95706,   0.00366,   0.00182,   0.00135,477058131.07005,   0.00202,276825594.22972,   0.00224,   0.00080,   0.00077,   0.08715,   1.00000
498238950.66635,436690558.37947,44717097.09454,   0.00366,   0.00182,   0.00135,477036260.82365,   0.00202,276826285.36553,   0.00224,   0.00080,   0.00077,   0.07151,   1.00000
498223631.08876,436575777.89834,44911540.60046,   0.00366,   0.00182,   0.00135,477037220.10562,   0.00202,276826977.51011,   0.00224,   0.00080,   0.00077,   0.07214,   1.00000
498207181.09649,436456362.47454,45113548.17662,   0.00366,   0.00182,   0.00136,477014772.56115,   0.00202,276827593.84596,   0.00224,   0.00080,   0.00077,   0.05755,   1.00000
498196942.44772,436327306.99333,45314614.81144,   0.00366,   0.00182,   0.00136,476977953.82326,   0.00202,276828087.42030,   0.00224,   0.00080,   0.00077,   0.03713,   1.00000
498186408.34806,436198044.00646,45515574.29364,   0.00366,   0.00181,   0.00136,476978738.35861,   0.00202,276828582.05002,   0.00224,   0.00080,   0.00077,   0.03752,   1.00000
498177727.36882,436066659.52477,45714348.14840,   0.00366,   0.00181,   0.00137,476953229.90041,   0.00202,276828991.38720,   0.00224,   0.00080,   0.00077,   0.02585,   1.00000
498175902.61849,435918626.12019,45920539.72523,   0.00366,   0.00181,   0.00137,476932544.28668,   0.00202,276829331.52383,   0.00224,   0.00080,   0.00077,   0.01797,   1.00000
498173751.52538,435770352.07821,46126642.67601,   0.00366,   0.00181,   0.00137,476933200.43663,   0.00203,276829672.77344,   0.00224,   0.00080,   0.00077,   0.01820,   1.00000
498177758.00185,435612314.10773,46331934.19768,   0.00366,   0.00181,   0.00137,476896142.23557,   0.00203,276829891.20041,   0.00224,   0.00080,   0.00077,   0.00750,   1.00000
498176156.35579,435457022.72876,46543605.22187,   0.00366,   0.00181,   0.00138,476884756.22371,   0.00203,276830071.53525,   0.00224,   0.00080,   0.00077,   0.00515,   1.00000
498184407.43223,435287576.61592,46752965.15382,   0.00366,   0.00181,   0.00138,476860969.87421,   0.00203,276830173.11848,   0.00224,   0.00080,   0.00077,   0.00164,   1.00000
498188581.90363,435122156.75602,46963836.06384,   0.00366,   0.00181,   0.00138,476848000.22167,   0.00203,276830231.74186,   0.00224,   0.00080,   0.00077,   0.00055,   1.00000
498196187.38211,434937090.11302,47181859.78026,   0.00366,   0.00181,   0.00139,476827114.48663,   0.00203,276830231.74186,   0.00224,   0.00080,   0.00077,-3117.25523,   0.00000
498196187.38211,434734277.35356,47394813.17769,   0.00366,   0.00181,   0.00139,476811470.57802,   0.00203,276830231.74186,   0.00224,   0.00080,   0.00077,-18761.16384,   0.00000
498170835.78717,434506112.99917,47602696.25613,   0.00366,   0.00181,   0.00139,476769882.08953,   0.00203,276830231.74186,   0.00224,   0.00080,   0.00077,-60349.65233,   0.00000
498127738.07579,434270343.16630,47815649.65356,   0.00366,   0.00181,   0.00139,476716770.93934,   0.00203,276830231.74186,   0.00224,   0.00080,   0.00077,-113460.80252,   0.00000
498069429.40745,433999081.10052,48028603.05100,   0.00366,   0.00181,   0.00140,476641295.26548,   0.00203,276830231.74186,   0.00224,   0.00080,   0.00077,-188936.47638,   0.00000
498003515.26062,433710072.91830,48236486.12944,   0.00367,   0.00180,   0.00140,476553316.45874,   0.00203,276830231.74186,   0.00224,   0.00080,   0.00077,-276915.28312,   0.00000
497912249.51887,433395713.14114,48449439.52687,   0.00367,   0.00180,   0.00140,476442507.02421,   0.00203,276830231.74186,   0.00224,   0.00080,   0.00077,-387724.71765,   0.00000
497813378.29863,433063607.24753,48657322.60531,   0.00367,   0.00180,   0.00141,476319215.78140,   0.00203,276830231.74186,   0.00224,   0.00080,   0.00077,-511015.96046,   0.00000
497689155.48346,432706149.75898,48865205.68376,   0.00367,   0.00180,   0.00141,476171580.69186,   0.00203,276830231.74186,   0.00224,   0.00080,   0.00077,-658651.05000,   0.00000
497557327.18981,432330946.15398,49078159.08119,   0.00367,   0.00180,   0.00141,476014608.92419,   0.00203,276830231.74186,   0.00224,   0.00080,   0.00077,-815622.81767,   0.00000
497392541.82276,431912644.83760,49280971.84065,   0.00367,   0.00180,   0.00141,475818860.20525,   0.00203,276830231.74186,   0.00224,   0.00080,   0.00077,-1011371.53661,   0.00000
497227756.45570,431494343.52122,49488854.91909,   0.00367,   0.00180,   0.00142,475625153.04807,   0.00203,276830231.74186,   0.00224,   0.00080,   0.00077,-1205078.69379,   0.00000
497047760.13168,431040549.97193,49696737.99754,   0.00367,   0.00179,   0.00142,475409285.75842,   0.00203,276830231.74186,   0.00224,   0.00080,   0.00077,-1420945.98344,   0.00000
496850017.69121,430579150.94417,49904621.07598,   0.00367,   0.00179,   0.00142,475180492.18975,   0.00203,276830231.74186,   0.00224,   0.00080,   0.00077,-1649739.55211,   0.00000
496637064.29378,430082259.68350,50107433.83544,   0.00367,   0.00179,   0.00142,474927992.06561,   0.00203,276830231.74186,   0.00224,   0.00080,   0.00077,-1902239.67625,   0.00000
496406364.77989,429577762.94435,50310246.59489,   0.00367,   0.00179,   0.00143,474662575.36706,   0.00203,276830231.74186,   0.00224,   0.00080,   0.00077,-2167656.37480,   0.00000
496160454.30905,429037773.97229,50518129.67334,   0.00367,   0.00179,   0.00143,474376723.01927,   0.00203,276830231.74186,   0.00224,   0.00080,   0.00077,-2453508.72259,   0.00000
495889192.24327,428472433.40530,50720942.43280,   0.00367,   0.00179,   0.00143,474065090.75853,   0.00203,276830231.74186,   0.00224,   0.00080,   0.00077,-2765140.98333,   0.00000
495610324.69902,427889346.72186,50918684.87327,   0.00367,   0.00178,   0.00143,473741117.41533,   0.00203,276830231.74186,   0.00224,   0.00080,   0.00077,-3089114.32653,   0.00000
495323851.67629,427288513.92197,51121497.63273,   0.00367,   0.00178,   0.00144,473408092.70316,   0.00203,276830231.74186,   0.00224,   0.00080,   0.00077,-3422139.03870,   0.00000
495004421.58014,426644583.41069,51324310.39218,   0.00367,   0.00178,   0.00144,473039720.54972,   0.00203,276830231.74186,   0.00224,   0.00080,   0.00077,-3790511.19214,   0.00000
494684991.48399,426000652.89941,51522052.83265,   0.00367,   0.00178,   0.00144,472670322.21496,   0.00203,276830231.74186,   0.00224,   0.00080,   0.00077,-4159909.52690,   0.00000
494340209.79292,425331370.79320,51724865.59211,   0.00366,   0.00177,   0.00145,472278523.85121,   0.00203,276830231.74186,   0.00224,   0.00080,   0.00077,-4551707.89066,   0.00000
493980217.14488,424626596.45408,51922608.03258,   0.00366,   0.00177,   0.00145,471863258.47593,   0.00203,276830231.74186,   0.00224,   0.00080,   0.00077,-4966973.26594,   0.00000
493612619.01836,423904075.99852,52120350.47306,   0.00366,   0.00177,   0.00145,471437456.01770,   0.00203,276830231.74186,   0.00224,   0.00080,   0.00077,-5392775.72416,   0.00000
493219669.29691,423156203.94802,52318092.91353,   0.00366,   0.00177,   0.00145,470987686.34349,   0.00203,276830231.74186,   0.00224,   0.00080,   0.00077,-5842545.39837,   0.00000
492819114.09698,422390585.78106,52515835.35400,   0.00366,   0.00176,   0.00146,470527438.92047,   0.00203,276830231.74186,   0.00224,   0.00080,   0.00077,-6302792.82139,   0.00000
492410953.41857,421607221.49766,52708507.47548,   0.00366,   0.00176,   0.00146,470055042.13935,   0.00203,276830231.74186,   0.00224,   0.00080,   0.00077,-6775189.60251,   0.00000
491977441.14523,420798505.61932,52906249.91595,   0.00366,   0.00176,   0.00146,469560461.21393,   0.00203,276830231.74186,   0.00224,   0.00080,   0.00077,-7269770.52793,   0.00000
491536323.39341,419972043.62453,53098922.03744,   0.00366,   0.00176,   0.00146,469053778.31830,   0.00203,276830231.74186,   0.00224,   0.00080,   0.00077,-7776453.42356,   0.00000
491062248.56818,419102483.91835,53291594.15892,   0.00366,   0.00175,   0.00147,468512110.71424,   0.00203,276830231.74186,   0.00224,   0.00080,   0.00077,-8318121.02762,   0.00000
490580568.26447,418215178.09573,53484266.28041,   0.00366,   0.00175,   0.00147,467960136.80650,   0.00203,276830231.74186,   0.00224,   0.00080,   0.00077,-8870094.93536,   0.00000
490091282.48228,417310126.15665,53676938.40189,   0.00366,   0.00175,   0.00147,467397895.57255,   0.00203,276830231.74186,   0.00224,   0.00080,   0.00077,-9432336.16931,   0.00000
489594391.22161,416387328.10111,53869610.52338,   0.00366,   0.00174,   0.00147,466825427.02664,   0.00203,276830231.74186,   0.00224,   0.00080,   0.00077,-10004804.71522,   0.00000
489072148.36600,415439178.45065,54057212.32588,   0.00366,   0.00174,   0.00148,466227511.40635,   0.00203,276830231.74186,   0.00224,   0.00080,   0.00077,-10602720.33551,   0.00000
488524553.91547,414465677.20525,54249884.44736,   0.00366,   0.00174,   0.00148,465607696.64730,   0.00203,276830231.74186,   0.00224,   0.00080,   0.00077,-11222535.09456,   0.00000
487979494.62442,413464289.20543,54437486.24986,   0.00366,   0.00173,   0.00148,464978419.34649,   0.00203,276830231.74186,   0.00224,   0.00080,   0.00077,-11851812.39537,   0.00000
487416689.21693,412455295.72713,54625088.05236,   0.00366,   0.00173,   0.00148,464336629.98026,   0.00203,276830231.74186,   0.00224,   0.00080,   0.00077,-12493601.76160,   0.00000
486838672.85247,411410810.01592,54812689.85486,   0.00366,   0.00173,   0.00149,463673751.83935,   0.00203,276830231.74186,   0.00224,   0.00080,   0.00077,-13156479.90251,   0.00000
486253051.00954,410348578.18826,55000291.65735,   0.00366,   0.00172,   0.00149,463000899.95909,   0.00203,276830231.74186,   0.00224,   0.00080,   0.00077,-13829331.78277,   0.00000
485642077.57167,409260994.76567,55182823.14087,   0.00366,   0.00172,   0.00149,462302781.18032,   0.00203,276830231.74186,   0.00224,   0.00080,   0.00077,-14527450.56155,   0.00000
485015893.17685,408137919.11017,55370424.94337,   0.00366,   0.00171,   0.00149,461585584.85765,   0.00203,276830231.74186,   0.00224,   0.00080,   0.00077,-15244646.88421,   0.00000
484371962.66557,407007237.97619,55552956.42688,   0.00366,   0.00171,   0.00149,460854194.08657,   0.00203,276830231.74186,   0.00224,   0.00080,   0.00077,-15976037.65529,   0.00000
483730567.31378,405848670.08779,55735487.91039,   0.00365,   0.00171,   0.00150,460115562.85183,   0.00203,276830231.74186,   0.00224,   0.00080,   0.00077,-16714668.89003,   0.00000
483063820.36707,404664750.60446,55918019.39390,   0.00365,   0.00170,   0.00150,459353664.63470,   0.00203,276830231.74186,   0.00224,   0.00080,   0.00077,-17476567.10716,   0.00000
482389467.94187,403463085.00467,56100550.87741,   0.00365,   0.00170,   0.00150,458582088.89945,   0.00203,276830231.74186,   0.00224,   0.00080,   0.00077,-18248142.84241,   0.00000
481689763.92174,402236067.80995,56278012.04194,   0.00365,   0.00169,   0.00150,457785463.16827,   0.00203,276830231.74186,   0.00224,   0.00080,   0.00077,-19044768.57359,   0.00000
480974848.94465,400973558.38233,56460543.52545,   0.00365,   0.00169,   0.00151,456970220.13578,   0.00203,276830231.74186,   0.00224,   0.00080,   0.00077,-19860011.60608,   0.00000
480259933.96756,399711048.95470,56638004.68998,   0.00365,   0.00168,   0.00151,456154486.52807,   0.00203,276830231.74186,   0.00224,   0.00080,   0.00077,-20675745.21379,   0.00000
479529808.03352,398413047.29417,56815465.85450,   0.00365,   0.00168,   0.00151,455318407.75512,   0.00203,276830231.74186,   0.00224,   0.00080,   0.00077,-21511823.98674,   0.00000
478774330.50454,397089694.03871,56992927.01903,   0.00365,   0.00168,   0.00151,454459363.90262,   0.00203,276830231.74186,   0.00224,   0.00080,   0.00077,-22370867.83924,   0.00000
478021388.13505,395738454.02882,57165317.86457,   0.00365,   0.00167,   0.00152,453591828.71617,   0.00203,276830231.74186,   0.00224,   0.00080,   0.00077,-23238403.02569,   0.00000
477232953.53266,394372003.06198,57342779.02909,   0.00365,   0.00167,   0.00152,452700602.87689,   0.00203,276830231.74186,   0.00224,   0.00080,   0.00077,-24129628.86497,   0.00000
476447054.08976,392977665.34071,57515169.87463,   0.00365,   0.00166,   0.00152,451801033.78580,   0.00203,276830231.74186,   0.00224,   0.00080,   0.00077,-25029197.95607,   0.00000
475653549.16838,391565581.50298,57687560.72017,   0.00365,   0.00166,   0.00152,450892347.31330,   0.00203,276830231.74186,   0.00224,   0.00080,   0.00077,-25937884.42856,   0.00000
474834692.65207,390128146.07032,57859951.56571,   0.00364,   0.00165,   0.00152,449960997.59156,   0.00203,276830231.74186,   0.00224,   0.00080,   0.00077,-26869234.15031,   0.00000
474008230.65728,388672964.52121,58032342.41125,   0.00364,   0.00165,   0.00153,449020656.71942,   0.00203,276830231.74186,   0.00224,   0.00080,   0.00077,-27809575.02244,   0.00000
473166557.70553,387182290.73920,58204733.25679,   0.00364,   0.00164,   0.00153,448060686.51448,   0.00203,276830231.74186,   0.00224,   0.00080,   0.00077,-28769545.22738,   0.00000
472299533.15885,385666265.36225,58372053.78334,   0.00364,   0.00164,   0.00153,447076291.21156,   0.00203,276830231.74186,   0.00224,   0.00080,   0.00077,-29753940.53030,   0.00000
471442649.25014,384140099.34733,58539374.30989,   0.00364,   0.00163,   0.00153,446096779.15541,   0.00203,276830231.74186,   0.00224,   0.00080,   0.00077,-30733452.58645,   0.00000
470560413.74650,382588581.73748,58706694.83644,   0.00364,   0.00163,   0.00154,445094947.84816,   0.00203,276830231.74186,   0.00224,   0.00080,   0.00077,-31735283.89370,   0.00000
469670572.76438,381019318.01118,58874015.36300,   0.00364,   0.00162,   0.00154,444084513.74576,   0.00203,276830231.74186,   0.00224,   0.00080,   0.00077,-32745717.99610,   0.00000
468747774.70884,379406956.57349,59041335.88955,   0.00364,   0.00161,   0.00154,443041292.00204,   0.00203,276830231.74186,   0.00224,   0.00080,   0.00077,-33788939.73982,   0.00000
467835117.29128,377784454.49783,59208656.41610,   0.00364,   0.00161,   0.00154,442003338.71381,   0.00203,276830231.74186,   0.00224,   0.00080,   0.00077,-34826893.02805,   0.00000
466897108.27879,376136600.82723,59370906.62367,   0.00364,   0.00160,   0.00154,440941350.54093,   0.00203,276830231.74186,   0.00224,   0.00080,   0.00077,-35888881.20093,   0.00000
465943888.30934,374453254.92373,59533156.83124,   0.00363,   0.00160,   0.00155,439860582.31379,   0.00203,276830231.74186,   0.00224,   0.00080,   0.00077,-36969649.42807,   0.00000
464983062.86141,372752162.90378,59695407.03880,   0.00363,   0.00159,   0.00155,438771701.64767,   0.00203,276830231.74186,   0.00224,   0.00080,   0.00077,-38058530.09419,   0.00000
464014631.93500,371033324.76738,59857657.24637,   0.00363,   0.00159,   0.00155,437674802.22561,   0.00203,276830231.74186,   0.00224,   0.00080,   0.00077,-39155429.51625,   0.00000
463038595.53011,369296740.51452,60014837.13495,   0.00363,   0.00158,   0.00155,436567888.73262,   0.00203,276830231.74186,   0.00224,   0.00080,   0.00077,-40262343.00924,   0.00000
462037207.53029,367534804.66673,60177087.34251,   0.00363,   0.00157,   0.00155,435441505.24322,   0.00203,276830231.74186,   0.00224,   0.00080,   0.00077,-41388726.49865,   0.00000
461020608.57350,365737376.58604,60334267.23109,   0.00363,   0.00157,   0.00156,434294869.45702,   0.00203,276830231.74186,   0.00224,   0.00080,   0.00077,-42535362.28484,   0.00000
459996404.13824,363922202.38889,60491447.11967,   0.00363,   0.00156,   0.00156,433140626.41437,   0.00203,276830231.74186,   0.00224,   0.00080,   0.00077,-43689605.32749,   0.00000
458964594.22450,362089282.07529,60648627.00825,   0.00363,   0.00156,   0.00156,431978881.88972,   0.00203,276830231.74186,   0.00224,   0.00080,   0.00077,-44851349.85214,   0.00000
457925178.83228,360238615.64524,60800736.57785,   0.00363,   0.00155,   0.00156,430807597.22196,   0.00203,276830231.74186,   0.00224,   0.00080,   0.00077,-46022634.51990,   0.00000
456870552.48310,358352456.98228,60957916.46643,   0.00362,   0.00154,   0.00157,429620882.73973,   0.00203,276830231.74186,   0.00224,   0.00080,   0.00077,-47209349.00213,   0.00000
455808320.65544,356448552.20287,61110026.03602,   0.00362,   0.00154,   0.00157,428424888.88132,   0.00203,276830231.74186,   0.00224,   0.00080,   0.00077,-48405342.86054,   0.00000
454720737.23285,354519295.82853,61262135.60561,   0.00362,   0.00153,   0.00157,427208090.04372,   0.00203,276830231.74186,   0.00224,   0.00080,   0.00077,-49622141.69814,   0.00000
453617942.85330,352554547.22129,61414245.17521,   0.00362,   0.00152,   0.00157,425974185.74614,   0.00203,276830231.74186,   0.00224,   0.00080,   0.00077,-50856045.99572,   0.00000
452507542.99527,350572052.49759,61561284.42581,   0.00362,   0.00152,   0.00157,424731347.51506,   0.00203,276830231.74186,   0.00224,   0.00080,   0.00077,-52098884.22680,   0.00000
451389537.65876,348571811.65744,61713393.99541,   0.00362,   0.00151,   0.00157,423484099.67826,   0.00203,276830231.74186,   0.00224,   0.00080,   0.00077,-53346132.06360,   0.00000
450263926.84377,346553824.70083,61860433.24601,   0.00362,   0.00150,   0.00158,422228150.24957,   0.00203,276830231.74186,   0.00224,   0.00080,   0.00077,-54602081.49229,   0.00000
449123105.07182,344500345.51132,62007472.49662,   0.00362,   0.00149,   0.00158,420955777.52143,   0.00203,276830231.74186,   0.00224,   0.00080,   0.00077,-55874454.22044,   0.00000
447974677.82139,342429120.20536,62154511.74723,   0.00362,   0.00149,   0.00158,419677244.46858,   0.00203,276830231.74186,   0.00224,   0.00080,   0.00077,-57152987.27328,   0.00000
446800898.97602,340332543.30447,62301550.99783,   0.00361,   0.00148,   0.00158,418378831.71696,   0.00203,276830231.74186,   0.00224,   0.00080,   0.00077,-58451400.02491,   0.00000
445637260.76864,338225825.76560,62443519.92945,   0.00361,   0.00147,   0.00158,417086113.92414,   0.00203,276830231.74186,   0.00224,   0.00080,   0.00077,-59744117.81772,   0.00000
444440665.48784,336076010.51535,62585488.86107,   0.00361,   0.00147,   0.00159,415763844.58390,   0.00203,276830231.74186,   0.00224,   0.00080,   0.00077,-61066387.15796,   0.00000
443254210.84501,333916054.62712,62727457.79269,   0.00361,   0.00146,   0.00159,414449914.42966,   0.00203,276830231.74186,   0.00224,   0.00080,   0.00077,-62380317.31220,   0.00000
442042404.60725,331730747.14396,62869426.72431,   0.00361,   0.00145,   0.00159,413116706.72088,   0.00203,276830231.74186,   0.00224,   0.00080,   0.00077,-63713525.02098,   0.00000
440815387.41253,329509947.42790,63011395.65594,   0.00361,   0.00144,   0.00159,411768459.26978,   0.00203,276830231.74186,   0.00224,   0.00080,   0.00077,-65061772.47208,   0.00000
439580764.73933,327271401.59539,63148294.26857,   0.00361,   0.00143,   0.00159,410412874.12495,   0.00203,276830231.74186,   0.00224,   0.00080,   0.00077,-66417357.61691,   0.00000
438338536.58765,325015109.64642,63290263.20019,   0.00361,   0.00143,   0.00160,409054787.12862,   0.00203,276830231.74186,   0.00224,   0.00080,   0.00077,-67775444.61324,   0.00000
437088702.95749,322741071.58100,63427161.81282,   0.00360,   0.00142,   0.00160,407689675.77896,   0.00203,276830231.74186,   0.00224,   0.00080,   0.00077,-69140555.96290,   0.00000
435823658.37037,320431541.28268,63564060.42546,   0.00360,   0.00141,   0.00160,406310419.01281,   0.00203,276830231.74186,   0.00224,   0.00080,   0.00077,-70519812.72905,   0.00000
434551008.30478,318104264.86790,63695888.71910,   0.00360,   0.00140,   0.00160,404924526.07937,   0.00203,276830231.74186,   0.00224,   0.00080,   0.00077,-71905705.66249,   0.00000
433263147.28222,315741496.22022,63832787.33174,   0.00360,   0.00139,   0.00160,403527405.59214,   0.00203,276830231.74186,   0.00224,   0.00080,   0.00077,-73302826.14972,   0.00000
431975286.25966,313378727.57253,63964615.62539,   0.00360,   0.00139,   0.00160,402133591.53343,   0.00203,276830231.74186,   0.00224,   0.00080,   0.00077,-74696640.20843,   0.00000
430654468.16370,310972861.21347,64096443.91903,   0.00360,   0.00138,   0.00161,400712617.18420,   0.00203,276830231.74186,   0.00224,   0.00080,   0.00077,-76117614.55766,   0.00000
429343790.70570,308556854.21643,64228272.21268,   0.00360,   0.00137,   0.00161,399302224.28412,   0.00203,276830231.74186,   0.00224,   0.00080,   0.00077,-77528007.45774,   0.00000
428017902.29075,306105354.98648,64355030.18734,   0.00360,   0.00136,   0.00161,397876803.59972,   0.00203,276830231.74186,   0.00224,   0.00080,   0.00077,-78953428.14214,   0.00000
426666662.28086,303628504.16160,64486858.48099,   0.00359,   0.00135,   0.00161,396436897.30849,   0.00203,276830231.74186,   0.00224,   0.00080,   0.00077,-80393334.43337,   0.00000
425325562.90894,301141512.69875,64613616.45565,   0.00359,   0.00134,   0.00161,395005848.08948,   0.00203,276830231.74186,   0.00224,   0.00080,   0.00077,-81824383.65238,   0.00000
423976858.05855,298636775.11945,64740374.43031,   0.00359,   0.00133,   0.00161,393572313.87789,   0.00203,276830231.74186,   0.00224,   0.00080,   0.00077,-83257917.86397,   0.00000
422595196.13474,296088939.82876,64867132.40497,   0.00359,   0.00133,   0.00162,392113288.58399,   0.00203,276830231.74186,   0.00224,   0.00080,   0.00077,-84716943.15787,   0.00000
421223674.84891,293530963.90010,64993890.37963,   0.00359,   0.00132,   0.00162,390666401.27536,   0.00203,276830231.74186,   0.00224,   0.00080,   0.00077,-86163830.46650,   0.00000
419826801.96815,290947636.37651,65115578.03531,   0.00359,   0.00131,   0.00162,389201195.46625,   0.00203,276830231.74186,   0.00224,   0.00080,   0.00077,-87629036.27562,   0.00000
418432464.24687,288336422.09849,65237265.69098,   0.00359,   0.00130,   0.00162,387739606.33134,   0.00203,276830231.74186,   0.00224,   0.00080,   0.00077,-89090625.41052,   0.00000
417030521.04712,285707461.70402,65358953.34666,   0.00359,   0.00129,   0.00162,386276916.06466,   0.00203,276830231.74186,   0.00224,   0.00080,   0.00077,-90553315.67720,   0.00000
415603226.25244,283053149.71462,65480641.00233,   0.00358,   0.00128,   0.00162,384799256.82194,   0.00203,276830231.74186,   0.00224,   0.00080,   0.00077,-92030974.91992,   0.00000
414186072.09573,280388697.08724,65602328.65801,   0.00358,   0.00127,   0.00163,383335136.97785,   0.00203,276830231.74186,   0.00224,   0.00080,   0.00077,-93495094.76401,   0.00000
412735960.86561,277681146.74848,65718945.99470,   0.00358,   0.00126,   0.00163,381845174.54286,   0.00203,276830231.74186,   0.00224,   0.00080,   0.00077,-94985057.19900,   0.00000
411295990.27346,274963455.77175,65835563.33138,   0.00358,   0.00125,   0.00163,380369413.84895,   0.00203,276830231.74186,   0.00224,   0.00080,   0.00077,-96460817.89291,   0.00000
409840808.72435,272210272.56211,65952180.66807,   0.00358,   0.00124,   0.00163,378885356.19479,   0.00203,276830231.74186,   0.00224,   0.00080,   0.00077,-97944875.54707,   0.00000
408360275.58031,269431737.75754,66068798.00476,   0.00358,   0.00123,   0.00163,377387884.69120,   0.00203,276830231.74186,   0.00224,   0.00080,   0.00077,-99442347.05066,   0.00000
406889883.07424,266643062.31499,66185415.34145,   0.00358,   0.00122,   0.00163,375905656.77140,   0.00203,276830231.74186,   0.00224,   0.00080,   0.00077,-100924574.97046,   0.00000
405411885.08969,263836640.75600,66296962.35915,   0.00358,   0.00121,   0.00163,374422116.53015,   0.00203,276830231.74186,   0.00224,   0.00080,   0.00077,-102408115.21171,   0.00000
403918676.14818,260994726.96409,66408509.37685,   0.00357,   0.00120,   0.00164,372931857.31489,   0.00203,276830231.74186,   0.00224,   0.00080,   0.00077,-103898374.42697,   0.00000
402417861.72819,258135067.05574,66520056.39455,   0.00357,   0.00119,   0.00164,371443724.22795,   0.00203,276830231.74186,   0.00224,   0.00080,   0.00077,-105386507.51391,   0.00000
400909441.82973,255257661.03093,66631603.41226,   0.00357,   0.00118,   0.00164,369958050.83333,   0.00203,276830231.74186,   0.00224,   0.00080,   0.00077,-106872180.90853,   0.00000
399385810.97430,252344762.77322,66738080.11097,   0.00357,   0.00117,   0.00164,368464247.37289,   0.00203,276830231.74186,   0.00224,   0.00080,   0.00077,-108365984.36897,   0.00000
397854574.64039,249414118.39906,66849627.12867,   0.00357,   0.00116,   0.00164,366976477.41487,   0.00203,276830231.74186,   0.00224,   0.00080,   0.00077,-109853754.32699,   0.00000
396315732.82801,246465727.90844,66956103.82739,   0.00357,   0.00115,   0.00164,365489574.49789,   0.00203,276830231.74186,   0.00224,   0.00080,   0.00077,-111340657.24397,   0.00000
394761680.05866,243481845.18492,67062580.52610,   0.00357,   0.00114,   0.00164,363998708.55385,   0.00203,276830231.74186,   0.00224,   0.00080,   0.00077,-112831523.18801,   0.00000
393225373.40577,240505567.93988,67169057.22482,   0.00357,   0.00113,   0.00165,362534519.02719,   0.00203,276830231.74186,   0.00224,   0.00080,   0.00077,-114295712.71467,   0.00000
391648504.20099,237468446.86700,67270463.60455,   0.00356,   0.00112,   0.00165,361042376.89033,   0.00203,276830231.74186,   0.00224,   0.00080,   0.00077,-115787854.85153,   0.00000
390071634.99620,234431325.79412,67376940.30326,   0.00356,   0.00111,   0.00165,359566228.46042,   0.00203,276830231.74186,   0.00224,   0.00080,   0.00077,-117264003.28144,   0.00000
388497300.95091,231366317.96681,67478346.68299,   0.00356,   0.00110,   0.00165,358099591.85654,   0.00203,276830231.74186,   0.00224,   0.00080,   0.00077,-118730639.88533,   0.00000
386915361.42714,228283564.02306,67579753.06272,   0.00356,   0.00109,   0.00165,356639220.92440,   0.00203,276830231.74186,   0.00224,   0.00080,   0.00077,-120191010.81746,   0.00000
385308070.30844,225175458.48437,67676089.12346,   0.00356,   0.00108,   0.00165,355168317.66948,   0.00203,276830231.74186,   0.00224,   0.00080,   0.00077,-121661914.07238,   0.00000
383703314.34923,222039466.19125,67777495.50319,   0.00356,   0.00106,   0.00165,353714355.92186,   0.00203,276830231.74186,   0.00224,   0.00080,   0.00077,-123115875.82000,   0.00000
382090952.91154,218885727.78168,67873831.56393,   0.00356,   0.00105,   0.00165,352265202.43992,   0.00203,276830231.74186,   0.00224,   0.00080,   0.00077,-124565029.30194,   0.00000
380470985.99537,215714243.25566,67975237.94366,   0.00356,   0.00104,   0.00166,350827156.90696,   0.00203,276830231.74186,   0.00224,   0.00080,   0.00077,-126003074.83490,   0.00000
378835808.12225,212507266.49674,68066503.68542,   0.00355,   0.00103,   0.00166,349384734.30630,   0.00203,276830231.74186,   0.00224,   0.00080,   0.00077,-127445497.43556,   0.00000
377210770.88709,209290149.09984,68162839.74616,   0.00355,   0.00102,   0.00166,347968894.97371,   0.00203,276830231.74186,   0.00224,   0.00080,   0.00077,-128861336.76815,   0.00000
375560382.05700,206047680.10801,68259175.80690,   0.00355,   0.00101,   0.00166,346548476.88438,   0.00203,276830231.74186,   0.00224,   0.00080,   0.00077,-130281754.85748,   0.00000
373912528.38641,202777324.36175,68350441.54866,   0.00355,   0.00100,   0.00166,345142852.58105,   0.00203,276830231.74186,   0.00224,   0.00080,   0.00077,-131687379.16081,   0.00000
372239323.12088,199481617.02057,68441707.29042,   0.00355,   0.00098,   0.00166,343733805.44008,   0.00203,276830231.74186,   0.00224,   0.00080,   0.00077,-133096426.30178,   0.00000
370576258.49333,196175769.04140,68532973.03217,   0.00355,   0.00097,   0.00166,342350578.20511,   0.00203,276830231.74186,   0.00224,   0.00080,   0.00077,-134479653.53675,   0.00000
368905588.38730,192852174.94579,68624238.77393,   0.00355,   0.00096,   0.00166,340979336.46550,   0.00203,276830231.74186,   0.00224,   0.00080,   0.00077,-135850895.27636,   0.00000
367219707.32430,189493088.61727,68715504.51568,   0.00355,   0.00095,   0.00167,339614206.44841,   0.00203,276830231.74186,   0.00224,   0.00080,   0.00077,-137216025.29345,   0.00000
365526220.78283,186116256.17230,68801699.93845,   0.00355,   0.00094,   0.00167,338259262.82916,   0.00203,276830231.74186,   0.00224,   0.00080,   0.00077,-138570968.91270,   0.00000
363842874.87933,182729283.08936,68887895.36122,   0.00354,   0.00092,   0.00167,336932496.49868,   0.00203,276830231.74186,   0.00224,   0.00080,   0.00077,-139897735.24318,   0.00000
362126571.90242,179299212.29503,68974090.78399,   0.00354,   0.00091,   0.00167,335599654.51807,   0.00203,276830231.74186,   0.00224,   0.00080,   0.00077,-141230577.22379,   0.00000
360420409.56348,175859000.86273,69060286.20676,   0.00354,   0.00090,   0.00167,334296359.67335,   0.00203,276830231.74186,   0.00224,   0.00080,   0.00077,-142533872.06851,   0.00000
358706641.74607,172401043.31397,69141411.31055,   0.00354,   0.00089,   0.00167,333005674.96945,   0.00203,276830231.74186,   0.00224,   0.00080,   0.00077,-143824556.77242,   0.00000
356985268.45017,168925339.64877,69227606.73331,   0.00354,   0.00088,   0.00167,331734500.98747,   0.00203,276830231.74186,   0.00224,   0.00080,   0.00077,-145095730.75439,   0.00000
355248684.19731,165414143.75065,69308731.83710,   0.00354,   0.00086,   0.00167,330471497.39159,   0.00203,276830231.74186,   0.00224,   0.00080,   0.00077,-146358734.35027,   0.00000
353522240.58243,161892807.21457,69389856.94088,   0.00354,   0.00085,   0.00167,329240648.17757,   0.00203,276830231.74186,   0.00224,   0.00080,   0.00077,-147589583.56429,   0.00000
351762839.89413,158328372.96710,69470982.04466,   0.00354,   0.00084,   0.00168,328008510.78108,   0.00203,276830231.74186,   0.00224,   0.00080,   0.00077,-148821720.96078,   0.00000
350021185.32229,154771544.19811,69547036.82946,   0.00354,   0.00082,   0.00168,326812044.92610,   0.00203,276830231.74186,   0.00224,   0.00080,   0.00077,-150018186.81576,   0.00000
348264319.79349,151179223.19621,69628161.93324,   0.00353,   0.00081,   0.00168,325633394.22839,   0.00203,276830231.74186,   0.00224,   0.00080,   0.00077,-151196837.51348,   0.00000
346499848.78620,147569156.07787,69704216.71804,   0.00353,   0.00080,   0.00168,324472100.88501,   0.00203,276830231.74186,   0.00224,   0.00080,   0.00077,-152358130.85685,   0.00000
344720166.82196,143923596.72661,69780271.50284,   0.00353,   0.00079,   0.00168,323327214.61130,   0.00203,276830231.74186,   0.00224,   0.00080,   0.00077,-153503017.13056,   0.00000
342950625.49569,140267896.73739,69856326.28763,   0.00353,   0.00077,   0.00168,322218823.82502,   0.00203,276830231.74186,   0.00224,   0.00080,   0.00077,-154611407.91684,   0.00000
341173478.69095,136594450.63171,69927310.75344,   0.00353,   0.00076,   0.00168,321129987.67039,   0.00203,276830231.74186,   0.00224,   0.00080,   0.00077,-155700244.07147,   0.00000
339370980.29127,132895652.93110,70003365.53824,   0.00353,   0.00075,   0.00168,320053749.20504,   0.00203,276830231.74186,   0.00224,   0.00080,   0.00077,-156776482.53682,   0.00000
337588763.16753,129176573.95454,70074350.00405,   0.00353,   0.00073,   0.00168,319022638.74144,   0.00203,276830231.74186,   0.00224,   0.00080,   0.00077,-157807593.00042,   0.00000
335788799.92734,125449889.49951,70145334.46986,   0.00353,   0.00072,   0.00168,318006649.19101,   0.00203,276830231.74186,   0.00224,   0.00080,   0.00077,-158823582.55085,   0.00000
333966020.25172,121669966.69511,70216318.93567,   0.00353,   0.00071,   0.00169,317008270.00516,   0.00203,276830231.74186,   0.00224,   0.00080,   0.00077,-159821961.73671,   0.00000
332160986.69254,117897649.36920,70282233.08249,   0.00353,   0.00069,   0.00169,316051505.49448,   0.00203,276830231.74186,   0.00224,   0.00080,   0.00077,-160778726.24738,   0.00000
330348347.65489,114107585.92683,70353217.54830,   0.00353,   0.00068,   0.00169,315125443.52487,   0.00203,276830231.74186,   0.00224,   0.00080,   0.00077,-161704788.21699,   0.00000
328520497.66028,110282030.25156,70419131.69513,   0.00352,   0.00066,   0.00169,314220461.53015,   0.00203,276830231.74186,   0.00224,   0.00080,   0.00077,-162609770.21171,   0.00000
326695182.82516,106428587.82187,70485045.84195,   0.00352,   0.00065,   0.00169,313355237.53826,   0.00203,276830231.74186,   0.00224,   0.00080,   0.00077,-163474994.20360,   0.00000
324852121.87358,102567539.91369,70550959.98878,   0.00352,   0.00064,   0.00169,312509251.41412,   0.00203,276830231.74186,   0.00224,   0.00080,   0.00077,-164320980.32774,   0.00000
323011596.08151,98678605.25109,70616874.13560,   0.00352,   0.00062,   0.00169,311704753.40331,   0.00203,276830231.74186,   0.00224,   0.00080,   0.00077,-165125478.33855,   0.00000
321171070.28943,94789670.58849,70682788.28242,   0.00352,   0.00061,   0.00169,310934732.32172,   0.00203,276830231.74186,   0.00224,   0.00080,   0.00077,-165895499.42014,   0.00000
319325474.17836,90855103.05501,70743632.11026,   0.00352,   0.00059,   0.00169,310201617.98138,   0.00203,276830231.74186,   0.00224,   0.00080,   0.00077,-166628613.76048,   0.00000
317462131.95084,86912930.04305,70804475.93810,   0.00352,   0.00058,   0.00169,309490419.89129,   0.00203,276830231.74186,   0.00224,   0.00080,   0.00077,-167339811.85057,   0.00000
315601324.88282,82942870.27666,70865319.76594,   0.00352,   0.00056,   0.00169,308824411.09020,   0.00203,276830231.74186,   0.00224,   0.00080,   0.00077,-168005820.65166,   0.00000
313740517.81479,78972810.51028,70926163.59377,   0.00352,   0.00055,   0.00169,308195407.01022,   0.00203,276830231.74186,   0.00224,   0.00080,   0.00077,-168634824.73164,   0.00000
311882245.90626,74974863.98947,70987007.42161,   0.00352,   0.00054,   0.00170,307613234.82947,   0.00203,276830231.74186,   0.00224,   0.00080,   0.00077,-169216996.91239,   0.00000
309991016.92432,70933819.75727,71042780.93046,   0.00352,   0.00052,   0.00170,307047912.55641,   0.00203,276830231.74186,   0.00224,   0.00080,   0.00077,-169782319.18545,   0.00000
308117534.05883,66900381.00355,71098554.43931,   0.00352,   0.00051,   0.00170,306535330.23223,   0.00203,276830231.74186,   0.00224,   0.00080,   0.00077,-170294901.50963,   0.00000
306246586.35283,62839055.49541,71154327.94816,   0.00352,   0.00049,   0.00170,306072356.59314,   0.00203,276830231.74186,   0.00224,   0.00080,   0.00077,-170757875.14873,   0.00000
304350287.05190,58752378.39234,71210101.45701,   0.00352,   0.00048,   0.00170,305634212.11506,   0.00203,276830231.74186,   0.00224,   0.00080,   0.00077,-171196019.62680,   0.00000
302464128.38894,54655560.65129,71265874.96586,   0.00351,   0.00046,   0.00170,305248927.20883,   0.00203,276830231.74186,   0.00224,   0.00080,   0.00077,-171581304.53303,   0.00000
300570364.24751,50540996.79380,71321648.47472,   0.00351,   0.00045,   0.00170,304903497.89483,   0.00203,276830231.74186,   0.00224,   0.00080,   0.00077,-171926733.84704,   0.00000
298661389.14911,46390940.70339,71372351.66458,   0.00351,   0.00043,   0.00170,304594155.72169,   0.00203,276830231.74186,   0.00224,   0.00080,   0.00077,-172236076.02017,   0.00000
296744808.57224,42223138.49654,71423054.85444,   0.00351,   0.00042,   0.00170,304326364.25854,   0.00203,276830231.74186,   0.00224,   0.00080,   0.00077,-172503867.48332,   0.00000
294838368.63333,38045195.65171,71473758.04431,   0.00351,   0.00040,   0.00170,304114142.02103,   0.00203,276830231.74186,   0.00224,   0.00080,   0.00077,-172716089.72083,   0.00000
292924323.21595,33849506.69042,71524461.23417,   0.00351,   0.00039,   0.00170,303944649.66625,   0.00203,276830231.74186,   0.00224,   0.00080,   0.00077,-172885582.07561,   0.00000
291020418.43654,29643677.09117,71575164.42404,   0.00351,   0.00037,   0.00170,303831744.08606,   0.00203,276830231.74186,   0.00224,   0.00080,   0.00077,-172998487.65580,   0.00000
289083556.58372,25394749.78053,71620797.29492,   0.00351,   0.00035,   0.00170,303745958.38279,   0.00203,276830231.74186,   0.00224,   0.00080,   0.00077,-173084273.35907,   0.00000
287156835.36887,21135681.83192,71666430.16579,   0.00351,   0.00034,   0.00170,303718193.84995,   0.00203,276830231.74186,   0.00224,   0.00080,   0.00077,-173112037.89191,   0.00000
285240254.79200,16866473.24533,71717133.35566,   0.00351,   0.00032,   0.00170,303752408.05277,   0.00203,276830231.74186,   0.00224,   0.00080,   0.00077,-173077823.68909,   0.00000
283298322.62019,12571913.06381,71762766.22654,   0.00351,   0.00031,   0.00171,303815856.34039,   0.00203,276830231.74186,   0.00224,   0.00080,   0.00077,-173014375.40147,   0.00000
281366531.08635,8267212.24432,71803328.77843,   0.00351,   0.00029,   0.00171,303935040.51674,   0.00203,276830231.74186,   0.00224,   0.00080,   0.00077,-172895191.22512,   0.00000
279427134.07404,3944765.30838,71848961.64931,   0.00351,   0.00028,   0.00171,304104636.32721,   0.00203,276830231.74186,   0.00224,   0.00080,   0.00077,-172725595.41465,   0.00000
277490272.22122,-405568.38199,71889524.20120,   0.00351,   0.00026,   0.00171,304331838.64569,   0.00203,276830231.74186,   0.00224,   0.00080,   0.00077,-172498393.09617,   0.00000
275528058.77347,-4781253.66729,71935157.07208,   0.00351,   0.00024,   0.00171,304597999.94174,   0.00203,276830231.74186,   0.00224,   0.00080,   0.00077,-172232231.80012,   0.00000
273575985.96368,-9167079.59056,71975719.62397,   0.00351,   0.00023,   0.00171,304921729.18272,   0.00203,276830231.74186,   0.00224,   0.00080,   0.00077,-171908502.55914,   0.00000
271634053.79188,-13563046.15181,72016282.17586,   0.00351,   0.00021,   0.00171,305306788.82659,   0.00203,276830231.74186,   0.00224,   0.00080,   0.00077,-171523442.91527,   0.00000
269684516.14159,-17976758.82951,72056844.72775,   0.00351,   0.00020,   0.00171,305740939.73105,   0.00203,276830231.74186,   0.00224,   0.00080,   0.00077,-171089292.01081,   0.00000
267727373.01282,-22408217.62366,72092336.96066,   0.00351,   0.00018,   0.00171,306220970.64219,   0.00203,276830231.74186,   0.00224,   0.00080,   0.00077,-170609261.09967,   0.00000
265755018.92710,-26875168.65071,72132899.51255,   0.00351,   0.00016,   0.00171,306756713.54454,   0.00203,276830231.74186,   0.00224,   0.00080,   0.00077,-170073518.19732,   0.00000
263800410.95782,-31334514.19929,72168391.74545,   0.00351,   0.00015,   0.00171,307348981.82023,   0.00203,276830231.74186,   0.00224,   0.00080,   0.00077,-169481249.92163,   0.00000
261830592.03159,-35829351.98077,72203883.97836,   0.00351,   0.00013,   0.00171,307994195.42077,   0.00203,276830231.74186,   0.00224,   0.00080,   0.00077,-168836036.32109,   0.00000
259853167.62688,-40341935.87871,72239376.21126,   0.00351,   0.00011,   0.00171,308690302.35597,   0.00203,276830231.74186,   0.00224,   0.00080,   0.00077,-168139929.38589,   0.00000
257893489.33862,-44846914.29816,72274868.44417,   0.00351,   0.00010,   0.00171,309446270.95120,   0.00203,276830231.74186,   0.00224,   0.00080,   0.00077,-167383960.79067,   0.00000
255910994.61492,-49405131.06697,72305290.35809,   0.00351,   0.00008,   0.00171,310255999.80060,   0.00203,276830231.74186,   0.00224,   0.00080,   0.00077,-166574231.94126,   0.00000
253928499.89122,-53963347.83579,72340782.59099,   0.00351,   0.00006,   0.00171,311117541.14696,   0.00203,276830231.74186,   0.00224,   0.00080,   0.00077,-165712690.59490,   0.00000
251956145.80549,-58531705.24257,72371204.50491,   0.00351,   0.00005,   0.00171,312038549.72195,   0.00203,276830231.74186,   0.00224,   0.00080,   0.00077,-164791682.01991,   0.00000
249976186.24128,-63117808.76581,72401626.41883,   0.00351,   0.00003,   0.00171,313011001.58715,   0.00203,276830231.74186,   0.00224,   0.00080,   0.00077,-163819230.15471,   0.00000
247981015.72012,-67739404.52195,72432048.33275,   0.00351,   0.00001,   0.00171,314039013.97316,   0.00203,276830231.74186,   0.00224,   0.00080,   0.00077,-162791217.76870,   0.00000
246003591.31541,-72353394.79962,72462470.24667,   0.00351,  -0.00001,   0.00171,315126013.56667,   0.00203,276830231.74186,   0.00224,   0.00080,   0.00077,-161704218.17519,   0.00000
244010955.95373,-77002877.31018,72492892.16058,   0.00351,  -0.00002,   0.00172,316268862.97036,   0.00203,276830231.74186,   0.00224,   0.00080,   0.00077,-160561368.77150,   0.00000
242018320.59206,-81652359.82075,72518243.75552,   0.00351,  -0.00004,   0.00172,317455554.99133,   0.00203,276830231.74186,   0.00224,   0.00080,   0.00077,-159374676.75054,   0.00000
240028220.38988,-86329729.08575,72548665.66943,   0.00351,  -0.00006,   0.00172,318712827.82152,   0.00203,276830231.74186,   0.00224,   0.00080,   0.00077,-158117403.92034,   0.00000
238038120.18770,-91007098.35074,72574017.26437,   0.00351,  -0.00008,   0.00172,320013376.55406,   0.00203,276830231.74186,   0.00224,   0.00080,   0.00077,-156816855.18780,   0.00000
236050555.14502,-95712354.37016,72599368.85930,   0.00351,  -0.00009,   0.00172,321380893.68064,   0.00203,276830231.74186,   0.00224,   0.00080,   0.00077,-155449338.06122,   0.00000
234055384.62385,-100435356.50603,72624720.45423,   0.00351,  -0.00011,   0.00172,322799736.62928,   0.00203,276830231.74186,   0.00224,   0.00080,   0.00077,-154030495.11258,   0.00000
232052608.62421,-105176104.75836,72650072.04916,   0.00351,  -0.00013,   0.00172,324269817.53132,   0.00203,276830231.74186,   0.00224,   0.00080,   0.00077,-152560414.21054,   0.00000
230042227.14608,-109934599.12713,72670353.32511,   0.00351,  -0.00015,   0.00172,325787635.02684,   0.00203,276830231.74186,   0.00224,   0.00080,   0.00077,-151042596.71502,   0.00000
228041986.30593,-114703234.13388,72695704.92004,   0.00351,  -0.00016,   0.00172,327370018.98188,   0.00203,276830231.74186,   0.00224,   0.00080,   0.00077,-149460212.75998,   0.00000
226059491.58223,-119464263.66215,72715986.19599,   0.00351,  -0.00018,   0.00172,329003766.96603,   0.00203,276830231.74186,   0.00224,   0.00080,   0.00077,-147826464.77584,   0.00000
224044039.78512,-124268390.90181,72736267.47193,   0.00351,  -0.00020,   0.00172,330683611.43704,   0.00203,276830231.74186,   0.00224,   0.00080,   0.00077,-146146620.30482,   0.00000
222038728.62598,-129082658.77944,72756548.74788,   0.00351,  -0.00022,   0.00172,332423563.25562,   0.00203,276830231.74186,   0.00224,   0.00080,   0.00077,-144406668.48624,   0.00000
220043558.10482,-133907067.29504,72776830.02382,   0.00351,  -0.00024,   0.00172,334223067.19153,   0.00203,276830231.74186,   0.00224,   0.00080,   0.00077,-142607164.55033,   0.00000
218023035.98872,-138756827.40557,72792040.98078,   0.00351,  -0.00025,   0.00172,336059116.58363,   0.00203,276830231.74186,   0.00224,   0.00080,   0.00077,-140771115.15824,   0.00000
216030400.62705,-143609122.67560,72812322.25673,   0.00351,  -0.00027,   0.00172,337966793.09260,   0.00203,276830231.74186,   0.00224,   0.00080,   0.00077,-138863438.64926,   0.00000
214012413.67044,-148486769.54055,72827533.21369,   0.00351,  -0.00029,   0.00172,339910568.62521,   0.00203,276830231.74186,   0.00224,   0.00080,   0.00077,-136919663.11665,   0.00000
212012172.83029,-153356810.92703,72847814.48964,   0.00351,  -0.00031,   0.00172,341908461.16562,   0.00203,276830231.74186,   0.00224,   0.00080,   0.00077,-134921770.57624,   0.00000
209996721.03318,-158262344.54642,72863025.44659,   0.00351,  -0.00033,   0.00172,343958176.81148,   0.00203,276830231.74186,   0.00224,   0.00080,   0.00077,-132872054.93038,   0.00000
207991409.87404,-163178018.80377,72878236.40355,   0.00351,  -0.00035,   0.00172,346064778.06538,   0.00203,276830231.74186,   0.00224,   0.00080,   0.00077,-130765453.67648,   0.00000
205978493.23642,-168111439.17758,72888377.04153,   0.00351,  -0.00036,   0.00172,348215569.89766,   0.00203,276830231.74186,   0.00224,   0.00080,   0.00077,-128614661.84420,   0.00000
203983322.71526,-173037254.07291,72903587.99849,   0.00351,  -0.00038,   0.00172,350417751.70720,   0.00203,276830231.74186,   0.00224,   0.00080,   0.00077,-126412480.03466,   0.00000
201955195.12068,-178006166.67963,72913728.63646,   0.00351,  -0.00040,   0.00172,352662163.84479,   0.00203,276830231.74186,   0.00224,   0.00080,   0.00077,-124168067.89707,   0.00000
199962559.75901,-182959868.32938,72928939.59342,   0.00351,  -0.00042,   0.00172,354965284.24545,   0.00203,276830231.74186,   0.00224,   0.00080,   0.00077,-121864947.49641,   0.00000
197936967.32392,-187956667.69052,72939080.23139,   0.00351,  -0.00044,   0.00172,357310303.55798,   0.00203,276830231.74186,   0.00224,   0.00080,   0.00077,-119519928.18388,   0.00000
195929121.00529,-192945861.57318,72949220.86936,   0.00351,  -0.00046,   0.00172,359700994.56647,   0.00203,276830231.74186,   0.00224,   0.00080,   0.00077,-117129237.17539,   0.00000
193931415.32463,-197945196.09381,72959361.50734,   0.00351,  -0.00048,   0.00172,362144573.11452,   0.00203,276830231.74186,   0.00224,   0.00080,   0.00077,-114685658.62734,   0.00000
191908358.04904,-202969882.20938,72969502.14531,   0.00351,  -0.00050,   0.00172,364624262.12662,   0.00203,276830231.74186,   0.00224,   0.00080,   0.00077,-112205969.61524,   0.00000
189895441.41143,-208004708.96292,72974572.46430,   0.00351,  -0.00051,   0.00172,367152895.02168,   0.00203,276830231.74186,   0.00224,   0.00080,   0.00077,-109677336.72019,   0.00000
187892665.41178,-213049676.35443,72984713.10227,   0.00352,  -0.00053,   0.00172,369735844.76689,   0.00203,276830231.74186,   0.00224,   0.00080,   0.00077,-107094386.97498,   0.00000
185889889.41214,-218094643.74594,72989783.42126,   0.00352,  -0.00055,   0.00172,372349888.24395,   0.00203,276830231.74186,   0.00224,   0.00080,   0.00077,-104480343.49791,   0.00000
183871902.45553,-223175103.37036,72994853.74024,   0.00352,  -0.00057,   0.00172,375015173.20247,   0.00203,276830231.74186,   0.00224,   0.00080,   0.00077,-101815058.53939,   0.00000
181871661.61538,-228247957.51629,73004994.37821,   0.00352,  -0.00059,   0.00172,377724045.19092,   0.00203,276830231.74186,   0.00224,   0.00080,   0.00077,-99106186.55094,   0.00000
179856209.81827,-233356303.89513,73004994.37821,   0.00352,  -0.00061,   0.00172,380477579.82049,   0.00203,276830231.74186,   0.00224,   0.00080,   0.00077,-96352651.92137,   0.00000
177858504.13761,-238457044.79550,73010064.69720,   0.00352,  -0.00063,   0.00172,383273311.92811,   0.00203,276830231.74186,   0.00224,   0.00080,   0.00077,-93556919.81375,   0.00000
175853192.97847,-243575531.81231,73015135.01619,   0.00352,  -0.00065,   0.00172,386109505.19677,   0.00203,276830231.74186,   0.00224,   0.00080,   0.00077,-90720726.54509,   0.00000
173847881.81933,-248694018.82913,73015135.01619,   0.00352,  -0.00067,   0.00172,388973468.54680,   0.00203,276830231.74186,   0.00224,   0.00080,   0.00077,-87856763.19506,   0.00000
171845105.81969,-253840392.60037,73020205.33517,   0.00352,  -0.00069,   0.00172,391896370.99491,   0.00203,276830231.74186,   0.00224,   0.00080,   0.00077,-84933860.74695,   0.00000
169842329.82004,-258986766.37160,73020205.33517,   0.00352,  -0.00071,   0.00172,394845956.17659,   0.00203,276830231.74186,   0.00224,   0.00080,   0.00077,-81984275.56527,   0.00000
167849694.45837,-264143280.78082,73020205.33517,   0.00352,  -0.00073,   0.00172,397840939.12679,   0.00203,276830231.74186,   0.00224,   0.00080,   0.00077,-78989292.61507,   0.00000
165849453.61822,-269317541.30648,73020205.33517,   0.00352,  -0.00075,   0.00172,400874042.01056,   0.00203,276830231.74186,   0.00224,   0.00080,   0.00077,-75956189.73130,   0.00000
163841607.29959,-274509547.94860,73020205.33517,   0.00353,  -0.00077,   0.00172,403944923.11949,   0.00203,276830231.74186,   0.00224,   0.00080,   0.00077,-72885308.62237,   0.00000
161851507.09741,-279693949.11224,73020205.33517,   0.00353,  -0.00079,   0.00172,407049571.76137,   0.00203,276830231.74186,   0.00224,   0.00080,   0.00077,-69780659.98049,   0.00000
159853801.41675,-284896096.39233,73015135.01619,   0.00353,  -0.00081,   0.00172,410188221.92790,   0.00203,276830231.74186,   0.00224,   0.00080,   0.00077,-66642009.81396,   0.00000
157866236.37406,-290108384.31039,73015135.01619,   0.00353,  -0.00083,   0.00172,413372195.27931,   0.00203,276830231.74186,   0.00224,   0.00080,   0.00077,-63458036.46255,   0.00000
155871065.85290,-295338418.34491,73010064.69720,   0.00353,  -0.00085,   0.00172,416589358.02129,   0.00203,276830231.74186,   0.00224,   0.00080,   0.00077,-60240873.72057,   0.00000
153875895.33173,-300568452.37943,73004994.37821,   0.00353,  -0.00086,   0.00172,419831648.47442,   0.00203,276830231.74186,   0.00224,   0.00080,   0.00077,-56998583.26744,   0.00000
151890865.44854,-305808627.05191,72999924.05923,   0.00353,  -0.00088,   0.00172,423114943.18753,   0.00203,276830231.74186,   0.00224,   0.00080,   0.00077,-53715288.55433,   0.00000
149898230.08687,-311066547.84086,72994853.74024,   0.00353,  -0.00090,   0.00172,426432817.15536,   0.00203,276830231.74186,   0.00224,   0.00080,   0.00077,-50397414.58650,   0.00000
147915735.36317,-316334609.26777,72989783.42126,   0.00353,  -0.00093,   0.00172,429790695.09580,   0.00203,276830231.74186,   0.00224,   0.00080,   0.00077,-47039536.64606,   0.00000
145933240.63947,-321602670.69469,72979642.78328,   0.00354,  -0.00095,   0.00172,433169012.32267,   0.00203,276830231.74186,   0.00224,   0.00080,   0.00077,-43661219.41919,   0.00000
143960886.55374,-326880872.75957,72974572.46430,   0.00354,  -0.00097,   0.00172,436588784.50135,   0.00203,276830231.74186,   0.00224,   0.00080,   0.00077,-40241447.24051,   0.00000
141988532.46802,-332159074.82446,72964431.82632,   0.00354,  -0.00099,   0.00172,440027952.35773,   0.00203,276830231.74186,   0.00224,   0.00080,   0.00077,-36802279.38413,   0.00000
140008572.90381,-337455023.00580,72954291.18835,   0.00354,  -0.00101,   0.00172,443499577.26818,   0.00203,276830231.74186,   0.00224,   0.00080,   0.00077,-33330654.47368,   0.00000
138038753.97758,-342761111.82511,72944150.55038,   0.00354,  -0.00103,   0.00172,447008659.27421,   0.00203,276830231.74186,   0.00224,   0.00080,   0.00077,-29821572.46765,   0.00000
136061329.57286,-348084946.76088,72934009.91240,   0.00354,  -0.00105,   0.00172,450549470.79422,   0.00203,276830231.74186,   0.00224,   0.00080,   0.00077,-26280760.94764,   0.00000
134101651.28460,-353401176.21816,72923869.27443,   0.00354,  -0.00107,   0.00172,454115621.46251,   0.00203,276830231.74186,   0.00224,   0.00080,   0.00077,-22714610.27935,   0.00000
132141972.99634,-358717405.67545,72913728.63646,   0.00355,  -0.00109,   0.00172,457701364.82972,   0.00203,276830231.74186,   0.00224,   0.00080,   0.00077,-19128866.91214,   0.00000
130167083.75112,-364069127.36564,72898517.67950,   0.00355,  -0.00111,   0.00172,461326562.67080,   0.00203,276830231.74186,   0.00224,   0.00080,   0.00077,-15503669.07106,   0.00000
128209940.62236,-369413243.57735,72888377.04153,   0.00355,  -0.00113,   0.00172,464977988.67488,   0.00203,276830231.74186,   0.00224,   0.00080,   0.00077,-11852243.06698,   0.00000
126252797.49359,-374757359.78906,72873166.08457,   0.00355,  -0.00115,   0.00172,468645396.49001,   0.00203,276830231.74186,   0.00224,   0.00080,   0.00077,-8184835.25186,   0.00000
124305795.00280,-380111616.63875,72857955.12761,   0.00355,  -0.00117,   0.00172,472347005.22731,   0.00203,276830231.74186,   0.00224,   0.00080,   0.00077,-4483226.51455,   0.00000
122351187.03352,-385483619.60488,72842744.17065,   0.00355,  -0.00119,   0.00172,476077733.70298,   0.00203,276830231.74186,   0.00224,   0.00080,   0.00077,-752498.03888,   0.00000
121962080.57224,-386561301.89817,72839688.36074,   0.00355,  -0.00119,   0.00172,476830232.33894,   0.00203,276830231.74186,   0.00224,   0.00080,   0.00077,   0.59708,   0.00000
119512681.52413,-388524932.19268,72368181.90492,   0.00355,  -0.00121,   0.00172,476830232.33894,   0.00204,276843812.71273,   0.00225,   0.00079,   0.00078,   0.00000,   2.00000
116451576.48759,-390961501.48349,71778333.00569,   0.00356,  -0.00123,   0.00172,480625507.04847,   0.00205,276860918.68552,   0.00226,   0.00077,   0.00079,   0.00000,   2.00000
113405525.36643,-393367174.70557,71190246.51350,   0.00356,  -0.00125,   0.00172,480660134.75078,   0.00207,276878089.26897,   0.00228,   0.00076,   0.00079,   0.00000,   2.00000
110380849.07980,-395741381.95619,70596897.79668,   0.00356,  -0.00127,   0.00172,480708457.34261,   0.00209,276895385.72736,   0.00229,   0.00074,   0.00080,   0.00000,   2.00000
107370997.88901,-398083340.98823,70010217.54298,   0.00356,  -0.00129,   0.00172,480744985.45293,   0.00210,276912753.87243,   0.00230,   0.00073,   0.00081,   0.00000,   2.00000
104383070.67614,-400394161.27327,69418480.64181,   0.00356,  -0.00131,   0.00172,480792943.53315,   0.00212,276930244.61011,   0.00231,   0.00071,   0.00082,  -0.00000,   2.00000
101400200.49815,-402682989.21397,68827134.69328,   0.00357,  -0.00134,   0.00172,480838917.44996,   0.00214,276947848.00554,   0.00232,   0.00069,   0.00082,   0.00000,   2.00000
98444148.24325,-404933871.09388,68239735.41466,   0.00357,  -0.00136,   0.00172,480860730.79802,   0.00215,276965454.49904,   0.00233,   0.00068,   0.00083,  -0.00000,   2.00000
95499499.61452,-407160240.75220,67650570.53818,   0.00357,  -0.00138,   0.00172,480922459.93331,   0.00217,276983243.32537,   0.00234,   0.00066,   0.00084,   0.00000,   2.00000
92582452.91492,-409351067.85815,67060773.05918,   0.00357,  -0.00140,   0.00172,480941661.62490,   0.00219,277001022.17908,   0.00235,   0.00065,   0.00085,   0.00000,   2.00000
89676861.02028,-411515830.07900,66474183.47181,   0.00357,  -0.00142,   0.00172,481005245.05100,   0.00220,277018990.09833,   0.00236,   0.00063,   0.00085,   0.00000,   2.00000
86799053.83489,-413645727.26756,65887089.19627,   0.00357,  -0.00144,   0.00172,481024016.56730,   0.00222,277036944.84943,   0.00237,   0.00061,   0.00086,  -0.00000,   2.00000
83943780.55591,-415742327.66906,65305124.38570,   0.00358,  -0.00146,   0.00172,481074896.81673,   0.00224,277055030.20560,   0.00238,   0.00059,   0.00087,   0.00000,   2.00000
81095467.42189,-417819700.48568,64719360.43281,   0.00358,  -0.00148,   0.00172,481117929.84551,   0.00225,277073210.00427,   0.00239,   0.00058,   0.00087,   0.00000,   2.00000
78264266.28211,-419868802.57285,64136336.27271,   0.00358,  -0.00150,   0.00172,481150599.86321,   0.00227,277091437.15876,   0.00241,   0.00056,   0.00088,  -0.00000,   2.00000
75467156.72667,-421879583.76870,63555651.18361,   0.00358,  -0.00152,   0.00172,481186413.23226,   0.00229,277109725.33101,   0.00242,   0.00054,   0.00089,   0.00000,   2.00000
72677002.88997,-423869920.69086,62976146.46343,   0.00358,  -0.00155,   0.00171,481231151.48023,   0.00231,277128113.75638,   0.00243,   0.00053,   0.00090,   0.00000,   2.00000
69921649.12322,-425824243.88596,62394374.49544,   0.00359,  -0.00157,   0.00171,481264474.52747,   0.00232,277146550.83354,   0.00244,   0.00051,   0.00090,   0.00000,   2.00000
67183308.60420,-427749862.49684,61820387.54328,   0.00359,  -0.00159,   0.00171,481298289.89407,   0.00234,277165038.31129,   0.00245,   0.00049,   0.00091,   0.00000,   2.00000
64469754.65160,-429647123.65754,61242603.70220,   0.00359,  -0.00161,   0.00171,481343725.18745,   0.00236,277183627.44931,   0.00246,   0.00047,   0.00092,   0.00000,   2.00000
61756772.55945,-431527945.64951,60668333.41656,   0.00359,  -0.00163,   0.00171,481372269.62841,   0.00238,277202242.30885,   0.00247,   0.00045,   0.00092,   0.00000,   2.00000
59095285.84114,-433360710.61699,60101254.67807,   0.00360,  -0.00165,   0.00171,481411403.39789,   0.00239,277220929.78302,   0.00248,   0.00044,   0.00093,   0.00000,   2.00000
56442194.31466,-435177585.23719,59526170.86052,   0.00360,  -0.00167,   0.00171,481451459.83244,   0.00241,277239693.31062,   0.00249,   0.00042,   0.00094,   0.00000,   2.00000
53806543.70580,-436967141.48240,58959188.90206,   0.00360,  -0.00169,   0.00171,481484354.38708,   0.00243,277258500.54766,   0.00250,   0.00040,   0.00095,   0.00000,   2.00000
51188744.58346,-438731308.48007,58395512.28647,   0.00360,  -0.00172,   0.00171,481515165.71525,   0.00245,277277341.87662,   0.00251,   0.00038,   0.00095,  -0.00000,   2.00000
48605996.08005,-440460567.39825,57834851.49904,   0.00360,  -0.00174,   0.00171,481548400.05350,   0.00247,277296227.77039,   0.00252,   0.00036,   0.00096,   0.00000,   2.00000
46048810.11871,-442163273.22926,57270876.67304,   0.00361,  -0.00176,   0.00171,481592479.59251,   0.00248,277315205.77210,   0.00253,   0.00034,   0.00097,  -0.00000,   2.00000
43492287.81041,-443851270.17859,56710684.18111,   0.00361,  -0.00178,   0.00171,481620241.96524,   0.00250,277334203.07645,   0.00255,   0.00033,   0.00097,   0.00000,   2.00000
40988207.46595,-445495686.73481,56153411.47634,   0.00361,  -0.00180,   0.00171,481655188.76220,   0.00252,277353251.31915,   0.00256,   0.00031,   0.00098,   0.00000,   2.00000
38475090.84465,-447132036.43955,55598404.97351,   0.00361,  -0.00182,   0.00171,481695792.12839,   0.00254,277372374.83378,   0.00257,   0.00029,   0.00099,   0.00000,   2.00000
35997290.47806,-448735117.28750,55046706.31167,   0.00362,  -0.00184,   0.00171,481727898.19654,   0.00256,277391535.74480,   0.00258,   0.00027,   0.00099,   0.00000,   2.00000
33564221.99125,-450299588.84055,54499907.47984,   0.00362,  -0.00186,   0.00171,481746419.57683,   0.00257,277410674.17496,   0.00259,   0.00025,   0.00100,   0.00000,   2.00000
31139441.32718,-451847184.22323,53955207.32664,   0.00362,  -0.00189,   0.00171,481788856.74287,   0.00259,277429895.13811,   0.00260,   0.00023,   0.00101,   0.00000,   2.00000
28723359.83246,-453379455.52971,53407821.53196,   0.00362,  -0.00191,   0.00171,481829603.69442,   0.00261,277449190.53306,   0.00261,   0.00021,   0.00101,   0.00000,   2.00000
26351907.58264,-454874301.76647,52865460.13615,   0.00363,  -0.00193,   0.00171,481847377.62528,   0.00263,277468459.30267,   0.00262,   0.00019,   0.00102,   0.00000,   2.00000
23988885.62547,-456352843.48965,52325348.50538,   0.00363,  -0.00195,   0.00171,481889500.09343,   0.00265,277487808.06487,   0.00263,   0.00017,   0.00103,  -0.00000,   2.00000
21652917.83743,-457804144.56411,51790505.92736,   0.00363,  -0.00197,   0.00171,481904791.90751,   0.00266,277507118.97465,   0.00264,   0.00015,   0.00103,   0.00000,   2.00000
19342844.00506,-459230370.18609,51257759.75725,   0.00363,  -0.00199,   0.00171,481948473.12271,   0.00268,277526516.26307,   0.00265,   0.00013,   0.00104,   0.00000,   2.00000
17050441.05088,-460635558.47095,50728830.22053,   0.00364,  -0.00201,   0.00171,481976773.32123,   0.00270,277545932.18889,   0.00266,   0.00011,   0.00105,   0.00000,   2.00000
14793098.12662,-462010918.55667,50203546.71894,   0.00364,  -0.00204,   0.00170,482006593.21585,   0.00272,277565373.30612,   0.00267,   0.00009,   0.00105,   0.00000,   2.00000
12553424.03726,-463367390.82316,49677256.94375,   0.00364,  -0.00206,   0.00170,482032909.77904,   0.00274,277584824.13884,   0.00268,   0.00007,   0.00106,   0.00000,   2.00000
10348642.20805,-464694800.28825,49154698.73168,   0.00364,  -0.00208,   0.00170,482062236.39874,   0.00276,277604297.77883,   0.00269,   0.00006,   0.00106,   0.00000,   2.00000
8152237.58458,-466007610.00362,48634628.79938,   0.00365,  -0.00210,   0.00170,482103393.05746,   0.00278,277623845.37129,   0.00270,   0.00004,   0.00107,   0.00000,   2.00000
5982079.72241,-467295843.63624,48119906.22445,   0.00365,  -0.00212,   0.00170,482117257.46496,   0.00279,277643347.98387,   0.00271,   0.00002,   0.00108,   0.00000,   2.00000
3846611.52171,-468556110.12950,47608960.21503,   0.00365,  -0.00214,   0.00170,482145882.04877,   0.00281,277662869.99300,   0.00272,  -0.00000,   0.00108,   0.00000,   2.00000
1728188.13983,-469797631.70933,47101943.64694,   0.00366,  -0.00217,   0.00170,482172904.62097,   0.00283,277682404.29719,   0.00273,  -0.00002,   0.00109,   0.00000,   2.00000
-381823.96924,-471026852.17786,46592602.86865,   0.00366,  -0.00219,   0.00170,482212052.91116,   0.00285,277702003.18403,   0.00274,  -0.00004,   0.00109,   0.00000,   2.00000
-2448729.70330,-472222876.94973,46093377.85803,   0.00366,  -0.00221,   0.00170,482227840.72224,   0.00287,277721565.40559,   0.00275,  -0.00006,   0.00110,   0.00000,   2.00000
-4481250.94673,-473393827.40068,45593100.49565,   0.00366,  -0.00223,   0.00170,482254055.72617,   0.00289,277741136.31999,   0.00276,  -0.00008,   0.00111,   0.00000,   2.00000
-6523286.46006,-474560496.09211,45095568.17509,   0.00367,  -0.00225,   0.00170,482293137.25718,   0.00291,277760771.16679,   0.00277,  -0.00010,   0.00111,   0.00000,   2.00000
-8522517.45196,-475696561.03875,44603262.16638,   0.00367,  -0.00227,   0.00170,482306723.72843,   0.00292,277780359.82256,   0.00278,  -0.00013,   0.00112,   0.00000,   2.00000
-10487675.55825,-476808509.02866,44109953.41281,   0.00367,  -0.00229,   0.00170,482332375.01791,   0.00294,277799954.63048,   0.00279,  -0.00015,   0.00112,   0.00000,   2.00000
-12436679.03973,-477902517.03012,43625557.59749,   0.00368,  -0.00232,   0.00170,482359661.70665,   0.00296,277819562.57541,   0.00280,  -0.00017,   0.00113,   0.00000,   2.00000
-14369414.51583,-478981456.49512,43140239.39587,   0.00368,  -0.00234,   0.00170,482384043.20790,   0.00298,277839171.07259,   0.00281,  -0.00019,   0.00113,   0.00000,   2.00000
-16286109.37213,-480042929.41777,42663820.62326,   0.00368,  -0.00236,   0.00169,482411064.64531,   0.00300,277858791.44490,   0.00282,  -0.00021,   0.00114,   0.00000,   2.00000
-18160852.60480,-481077208.92575,42187663.49204,   0.00369,  -0.00238,   0.00169,482422018.53252,   0.00302,277878354.90326,   0.00283,  -0.00023,   0.00115,   0.00000,   2.00000
-20010541.07408,-482092081.59827,41714152.73539,   0.00369,  -0.00240,   0.00169,482461971.53851,   0.00304,277897986.08993,   0.00284,  -0.00025,   0.00115,   0.00000,   2.00000
-21844548.21082,-483093019.04556,41239732.84900,   0.00369,  -0.00242,   0.00169,482485806.39675,   0.00306,277917615.58725,   0.00285,  -0.00027,   0.00116,   0.00000,   2.00000
-23654934.00080,-484073561.67916,40775485.81713,   0.00370,  -0.00244,   0.00169,482498112.94301,   0.00307,277937194.19726,   0.00286,  -0.00029,   0.00116,   0.00000,   2.00000
-25449907.61011,-485040680.69730,40310275.79769,   0.00370,  -0.00247,   0.00169,482521658.77804,   0.00309,277956770.24436,   0.00287,  -0.00031,   0.00117,   0.00000,   2.00000
-27212023.31551,-485985301.30492,39848999.70561,   0.00370,  -0.00249,   0.00169,482546913.37217,   0.00311,277976351.17218,   0.00288,  -0.00033,   0.00117,   0.00000,   2.00000
-28959078.11151,-486915804.62405,39391694.33342,   0.00371,  -0.00251,   0.00169,482571475.51686,   0.00313,277995934.00498,   0.00289,  -0.00035,   0.00118,   0.00000,   2.00000
-30665620.92378,-487820523.69606,38939507.13274,   0.00371,  -0.00253,   0.00169,482582204.18040,   0.00315,278015460.03708,   0.00290,  -0.00037,   0.00118,   0.00000,   2.00000
-32365421.05699,-488715684.22857,38490062.02285,   0.00371,  -0.00255,   0.00169,482620550.53929,   0.00317,278035047.05989,   0.00291,  -0.00039,   0.00119,   0.00000,   2.00000
-34042682.11648,-489593628.96610,38045720.55721,   0.00371,  -0.00257,   0.00169,482630551.58029,   0.00319,278054574.30181,   0.00292,  -0.00041,   0.00119,   0.00000,   2.00000
-35680031.29186,-490448067.42181,37601490.52900,   0.00372,  -0.00259,   0.00169,482639412.79883,   0.00320,278074037.51735,   0.00292,  -0.00043,   0.00120,   0.00000,   2.00000
-37311009.09089,-491293598.97682,37160017.80772,   0.00372,  -0.00262,   0.00169,482677383.99832,   0.00322,278093560.53775,   0.00293,  -0.00045,   0.00120,   0.00000,   2.00000
-38902496.62596,-492115130.80784,36723580.60245,   0.00373,  -0.00264,   0.00168,482687075.42800,   0.00324,278113023.36864,   0.00294,  -0.00047,   0.00121,   0.00000,   2.00000
-40480153.49926,-492924513.10062,36291020.80269,   0.00373,  -0.00266,   0.00168,482710568.58895,   0.00326,278132484.84249,   0.00295,  -0.00049,   0.00121,   0.00000,   2.00000
-42044051.97153,-493723035.08869,35857387.85553,   0.00373,  -0.00268,   0.00168,482732834.57816,   0.00328,278151939.79322,   0.00296,  -0.00052,   0.00122,   0.00000,   2.00000
-43586687.00785,-494505033.92462,35433675.35145,   0.00374,  -0.00270,   0.00168,482743006.70425,   0.00330,278171337.25305,   0.00297,  -0.00054,   0.00122,   0.00000,   2.00000
-45098250.58587,-495269052.48910,35008824.96565,   0.00374,  -0.00272,   0.00168,482765046.96916,   0.00332,278190727.84737,   0.00298,  -0.00056,   0.00123,   0.00000,   2.00000
-46578984.34703,-496014321.46225,34587807.34479,   0.00374,  -0.00274,   0.00168,482788028.75418,   0.00334,278210115.75868,   0.00299,  -0.00058,   0.00123,   0.00000,   2.00000
-48056824.40317,-496752639.79026,34171666.76135,   0.00375,  -0.00276,   0.00168,482796613.38258,   0.00335,278229440.28556,   0.00300,  -0.00060,   0.00124,   0.00000,   2.00000
-49504111.29623,-497473760.19092,33754360.47211,   0.00375,  -0.00279,   0.00168,482818190.44353,   0.00337,278248756.68936,   0.00300,  -0.00062,   0.00124,   0.00000,   2.00000
-50913667.46725,-498172502.29777,33346853.19734,   0.00375,  -0.00281,   0.00168,482827355.05909,   0.00339,278268013.05520,   0.00301,  -0.00064,   0.00124,   0.00000,   2.00000
-52328431.78501,-498869463.37063,32938098.72581,   0.00376,  -0.00283,   0.00168,482848886.26757,   0.00341,278287261.60769,   0.00302,  -0.00066,   0.00125,   0.00000,   2.00000
-53713143.55457,-499548945.57461,32533092.86283,   0.00376,  -0.00285,   0.00168,482871059.82633,   0.00343,278306505.26906,   0.00303,  -0.00068,   0.00125,   0.00000,   2.00000
-55060757.45929,-500208003.03918,32132835.09824,   0.00376,  -0.00287,   0.00167,482878627.55521,   0.00345,278325683.04059,   0.00304,  -0.00070,   0.00126,   0.00000,   2.00000
-56414066.54393,-500864760.67750,31736230.24699,   0.00377,  -0.00289,   0.00167,482900977.47898,   0.00346,278344857.17425,   0.00305,  -0.00072,   0.00126,   0.00000,   2.00000
-57730640.41787,-501502597.90201,31339337.81371,   0.00377,  -0.00291,   0.00167,482907219.07572,   0.00348,278363960.47488,   0.00306,  -0.00074,   0.00126,   0.00000,   2.00000
-59018009.79272,-502124087.99893,30946128.42730,   0.00378,  -0.00293,   0.00167,482928686.63166,   0.00350,278383057.26676,   0.00306,  -0.00076,   0.00127,   0.00000,   2.00000
-60286852.54897,-502733515.49539,30557525.52202,   0.00378,  -0.00295,   0.00167,482935918.19890,   0.00352,278402088.17543,   0.00307,  -0.00078,   0.00127,   0.00000,   2.00000
-61544484.45019,-503334224.54986,30172515.46454,   0.00378,  -0.00297,   0.00167,482957490.48235,   0.00354,278421113.54095,   0.00308,  -0.00080,   0.00128,   0.00000,   2.00000
-62783914.53686,-503923273.15679,29792021.81244,   0.00379,  -0.00300,   0.00167,482964486.24454,   0.00356,278440072.66285,   0.00309,  -0.00083,   0.00128,   0.00000,   2.00000
-63994848.10239,-504497859.42280,29410128.37135,   0.00379,  -0.00302,   0.00167,482984401.15880,   0.00357,278459019.99707,   0.00310,  -0.00085,   0.00128,   0.00000,   2.00000
-65188060.62491,-505061271.31239,29032713.03663,   0.00379,  -0.00304,   0.00167,482991130.55409,   0.00359,278477900.77799,   0.00311,  -0.00087,   0.00129,   0.00000,   2.00000
-66370723.62229,-505616709.09978,28658805.81238,   0.00380,  -0.00306,   0.00166,483012261.05309,   0.00361,278496775.40014,   0.00311,  -0.00089,   0.00129,   0.00000,   2.00000
-67518415.12652,-506154434.93915,28289326.07488,   0.00380,  -0.00308,   0.00166,483018155.36107,   0.00363,278515580.77322,   0.00312,  -0.00091,   0.00130,   0.00000,   2.00000
-68649099.14713,-506682590.39653,27919218.01037,   0.00381,  -0.00310,   0.00166,483023573.48619,   0.00365,278534315.42923,   0.00313,  -0.00093,   0.00130,   0.00000,   2.00000
-69769804.86176,-507203350.13755,27552557.21485,   0.00381,  -0.00312,   0.00166,483044342.38115,   0.00366,278553043.58462,   0.00314,  -0.00095,   0.00130,   0.00000,   2.00000
-70856211.39029,-507707149.42950,27190234.66517,   0.00381,  -0.00314,   0.00166,483049751.41650,   0.00368,278571701.78931,   0.00315,  -0.00097,   0.00131,   0.00000,   2.00000
-71933034.68241,-508203957.66900,26831294.17309,   0.00382,  -0.00316,   0.00166,483070286.71373,   0.00370,278590353.22217,   0.00315,  -0.00099,   0.00131,   0.00000,   2.00000
-72993569.22035,-508691070.85213,26476561.85344,   0.00382,  -0.00318,   0.00166,483076150.96810,   0.00372,278608937.23679,   0.00316,  -0.00101,   0.00131,   0.00000,   2.00000
-74020504.20748,-509162799.27766,26121058.56855,   0.00383,  -0.00320,   0.00166,483080250.71635,   0.00374,278627447.17306,   0.00317,  -0.00103,   0.00132,   0.00000,   2.00000
-75031688.06100,-509625300.23864,25769706.64379,   0.00383,  -0.00322,   0.00166,483085811.49528,   0.00375,278645889.61217,   0.00318,  -0.00105,   0.00132,   0.00000,   2.00000
-76033993.08350,-510081485.48322,25421632.83262,   0.00383,  -0.00324,   0.00165,483105892.60095,   0.00377,278664325.01845,   0.00318,  -0.00107,   0.00132,   0.00000,   2.00000
-77003336.83516,-510522916.24761,25072694.71339,   0.00384,  -0.00326,   0.00165,483109590.36141,   0.00379,278682686.00023,   0.00319,  -0.00109,   0.00133,   0.00000,   2.00000
-77981714.23281,-510964966.20308,24726966.01716,   0.00384,  -0.00328,   0.00165,483130385.91181,   0.00381,278701043.45971,   0.00320,  -0.00111,   0.00133,   0.00000,   2.00000
-78903226.41457,-511382532.63940,24386149.98754,   0.00385,  -0.00330,   0.00165,483119049.30803,   0.00383,278719265.33580,   0.00321,  -0.00113,   0.00133,   0.00000,   2.00000
-79834223.21981,-511801065.36264,24048459.44184,   0.00385,  -0.00332,   0.00165,483139618.10001,   0.00384,278737483.81731,   0.00321,  -0.00115,   0.00134,   0.00000,   2.00000
-80733004.04982,-512204846.88540,23714740.39234,   0.00385,  -0.00334,   0.00165,483143549.82943,   0.00386,278755630.64417,   0.00322,  -0.00117,   0.00134,   0.00000,   2.00000
-81617474.81904,-512601427.87425,23379907.59846,   0.00386,  -0.00336,   0.00165,483147556.60633,   0.00388,278773706.63055,   0.00323,  -0.00119,   0.00134,   0.00000,   2.00000
-82494250.48733,-512992746.12661,23048191.11345,   0.00386,  -0.00338,   0.00164,483166920.93934,   0.00390,278791775.39473,   0.00324,  -0.00121,   0.00134,   0.00000,   2.00000
-83332926.85557,-513367335.64567,22721096.46531,   0.00387,  -0.00340,   0.00164,483155741.69302,   0.00391,278809711.73172,   0.00324,  -0.00123,   0.00135,   0.00000,   2.00000
-84181910.48651,-513744176.19871,22391996.68097,   0.00387,  -0.00342,   0.00164,483175213.45754,   0.00393,278827642.18830,   0.00325,  -0.00125,   0.00135,   0.00000,   2.00000
-84982090.69068,-514100750.47916,22066780.96026,   0.00387,  -0.00344,   0.00164,483177394.18237,   0.00395,278845496.21551,   0.00326,  -0.00127,   0.00135,   0.00000,   2.00000
-85786464.03034,-514456582.64949,21745236.83956,   0.00388,  -0.00346,   0.00164,483182712.63527,   0.00396,278863287.06137,   0.00327,  -0.00129,   0.00136,   0.00000,   2.00000
-86560020.67509,-514798977.46201,21427423.14926,   0.00388,  -0.00348,   0.00164,483185685.37609,   0.00398,278881005.71126,   0.00327,  -0.00131,   0.00136,   0.00000,   2.00000
-87326982.92233,-515137658.66700,21107556.98868,   0.00389,  -0.00350,   0.00164,483203749.58731,   0.00400,278898714.43580,   0.00328,  -0.00133,   0.00136,   0.00000,   2.00000
-88074680.64942,-515467115.47754,20792008.47480,   0.00389,  -0.00352,   0.00163,483192929.04442,   0.00402,278916295.16913,   0.00329,  -0.00135,   0.00136,   0.00000,   2.00000
-88815984.94116,-515792366.55767,20479365.23297,   0.00390,  -0.00354,   0.00163,483211476.73821,   0.00403,278933868.83818,   0.00329,  -0.00137,   0.00137,   0.00000,   2.00000
-89520928.47081,-516103074.64410,20165983.71323,   0.00390,  -0.00356,   0.00163,483198556.23646,   0.00405,278951307.08659,   0.00330,  -0.00139,   0.00137,   0.00000,   2.00000
-90219879.46800,-516409857.58656,19855476.45510,   0.00390,  -0.00358,   0.00163,483216887.92816,   0.00407,278968738.42875,   0.00331,  -0.00141,   0.00137,   0.00000,   2.00000
-90900385.95829,-516708048.62173,19549099.29926,   0.00391,  -0.00360,   0.00163,483205597.15803,   0.00408,278986042.05197,   0.00332,  -0.00143,   0.00137,   0.00000,   2.00000
-91557656.73277,-516996308.78970,19245575.11205,   0.00391,  -0.00362,   0.00163,483222448.75577,   0.00410,279003333.72585,   0.00332,  -0.00145,   0.00138,   0.00000,   2.00000
-92203214.61095,-517279277.01098,18940448.80830,   0.00392,  -0.00364,   0.00162,483225118.32532,   0.00412,279020555.73925,   0.00333,  -0.00146,   0.00138,   0.00000,   2.00000
-92830946.41089,-517554102.88527,18639327.44943,   0.00392,  -0.00366,   0.00162,483213490.04046,   0.00413,279037650.31419,   0.00334,  -0.00148,   0.00138,   0.00000,   2.00000
-93453419.38804,-517825548.77429,18340936.69813,   0.00393,  -0.00368,   0.00162,483231330.15697,   0.00415,279054738.26710,   0.00334,  -0.00150,   0.00138,   0.00000,   2.00000
-94047102.12150,-518085837.53785,18040900.80782,   0.00393,  -0.00370,   0.00162,483232391.57765,   0.00417,279071751.52580,   0.00335,  -0.00152,   0.00139,   0.00000,   2.00000
-94623549.70442,-518338400.90054,17744747.31014,   0.00394,  -0.00371,   0.00162,483220440.84231,   0.00418,279088637.66194,   0.00336,  -0.00154,   0.00139,   0.00000,   2.00000
-95189092.37720,-518585647.08383,17451833.15021,   0.00394,  -0.00373,   0.00162,483223158.52165,   0.00420,279105457.12203,   0.00336,  -0.00156,   0.00139,   0.00000,   2.00000
-95750009.09816,-518830478.43424,17156545.61985,   0.00394,  -0.00375,   0.00161,483240079.22474,   0.00422,279122268.04536,   0.00337,  -0.00158,   0.00139,   0.00000,   2.00000
-96294106.33226,-519067887.81774,16865020.42640,   0.00395,  -0.00377,   0.00161,483227844.86603,   0.00423,279138952.11793,   0.00338,  -0.00160,   0.00139,   0.00000,   2.00000
-96810197.76591,-519294186.79421,16576697.37989,   0.00395,  -0.00379,   0.00161,483228865.32020,   0.00425,279155564.08704,   0.00338,  -0.00162,   0.00140,   0.00000,   2.00000
-97316055.92618,-519516127.71465,16286472.92002,   0.00396,  -0.00381,   0.00161,483230685.68106,   0.00426,279172107.65856,   0.00339,  -0.00163,   0.00140,   0.00000,   2.00000
-97811739.70580,-519733237.20257,15999353.08845,   0.00396,  -0.00383,   0.00161,483232948.87158,   0.00428,279188585.06999,   0.00339,  -0.00165,   0.00140,   0.00000,   2.00000
-98279907.51814,-519939594.26030,15715346.10830,   0.00397,  -0.00385,   0.00161,483233649.25713,   0.00430,279204990.55449,   0.00340,  -0.00167,   0.00140,   0.00000,   2.00000
-98749750.81219,-520145687.56637,15429805.21192,   0.00397,  -0.00386,   0.00160,483221839.37220,   0.00431,279221273.74813,   0.00341,  -0.00169,   0.00140,   0.00000,   2.00000
-99198358.31971,-520343388.55709,15146820.66049,   0.00398,  -0.00388,   0.00160,483237161.48136,   0.00433,279237545.40873,   0.00341,  -0.00171,   0.00140,   0.00000,   2.00000
-99631375.64704,-520534480.94974,14867301.77658,   0.00398,  -0.00390,   0.00160,483224189.16871,   0.00434,279253691.11624,   0.00342,  -0.00173,   0.00141,   0.00000,   2.00000
-100037557.67045,-520715751.13065,14585741.88882,   0.00399,  -0.00392,   0.00160,483223958.28913,   0.00436,279269763.32325,   0.00343,  -0.00174,   0.00141,   0.00000,   2.00000
-100451980.25530,-520898731.75103,14307053.42735,   0.00399,  -0.00394,   0.00160,483227159.32981,   0.00437,279285776.22698,   0.00343,  -0.00176,   0.00141,   0.00000,   2.00000
-100833765.45954,-521069431.92688,14031756.56470,   0.00400,  -0.00395,   0.00159,483212326.96899,   0.00439,279301657.45089,   0.00344,  -0.00178,   0.00141,   0.00000,   2.00000
-101206646.02730,-521236523.97567,13754271.81445,   0.00400,  -0.00397,   0.00159,483213326.93603,   0.00441,279317471.75256,   0.00344,  -0.00180,   0.00141,   0.00000,   2.00000
