# sigma_xx, sigma_yy, sigma_xy, epsilon_xx, epsilon_yy, epsilon_xy, vonMises, epsPlastic, hardening, epsilonP__xx, epsilonP__yy, epsilonP__xy, yieldValue, iteration
   0.00000,   0.00000,   0.00000,   0.00000,   0.00000,   0.00000,   0.00000,   0.00000,274640135.82653,   0.00000,   0.00000,   0.00000,-474640135.82653,   0.00000
   0.00000,   0.00000,   0.00000,   0.00000,   0.00000,   0.00000,   0.00000,   0.00000,274640135.82653,   0.00000,   0.00000,   0.00000,-474640135.82653,   0.00000
1007095.06730,3230408.76778,484286.15258,  -0.00000,   0.00001,   0.00001,2983295.45618,   0.00000,274640135.82653,   0.00000,   0.00000,   0.00000,-471656840.37035,   0.00000
1994928.75353,6452562.65796,979578.80863,  -0.00000,   0.00003,   0.00001,5968385.60527,   0.00000,274640135.82653,   0.00000,   0.00000,   0.00000,-468671750.22126,   0.00000
2974507.56216,9655455.16707,1469368.21294,  -0.00001,   0.00004,   0.00002,8934898.66455,   0.00000,274640135.82653,   0.00000,   0.00000,   0.00000,-465705237.16198,   0.00000
3954086.37078,12858347.67618,1970164.12072,  -0.00001,   0.00005,   0.00003,11906868.88648,   0.00000,274640135.82653,   0.00000,   0.00000,   0.00000,-462733266.94005,   0.00000
4925410.30181,16041978.80423,2470960.02851,  -0.00001,   0.00006,   0.00003,14862986.01628,   0.00000,274640135.82653,   0.00000,   0.00000,   0.00000,-459777149.81025,   0.00000
5869217.97417,19198093.67360,2977259.18802,  -0.00001,   0.00008,   0.00004,17802498.15862,   0.00000,274640135.82653,   0.00000,   0.00000,   0.00000,-456837637.66791,   0.00000
6821280.52413,22373469.92404,3489061.59927,  -0.00001,   0.00009,   0.00005,20760707.17272,   0.00000,274640135.82653,   0.00000,   0.00000,   0.00000,-453879428.65381,   0.00000
7745826.81542,25521329.91581,4000864.01052,  -0.00001,   0.00010,   0.00005,23699642.41484,   0.00000,274640135.82653,   0.00000,   0.00000,   0.00000,-450940493.41169,   0.00000
8662118.22911,28649928.52652,4518169.67351,  -0.00002,   0.00011,   0.00006,26625611.73444,   0.00000,274640135.82653,   0.00000,   0.00000,   0.00000,-448014524.09209,   0.00000
9578409.64280,31778527.13722,5040978.58822,  -0.00002,   0.00013,   0.00007,29554481.26617,   0.00000,274640135.82653,   0.00000,   0.00000,   0.00000,-445085654.56036,   0.00000
10486446.17889,34887864.36686,5563787.50294,  -0.00002,   0.00014,   0.00007,32467616.41540,   0.00000,274640135.82653,   0.00000,   0.00000,   0.00000,-442172519.41113,   0.00000
11375221.33391,37988946.71889,6092099.66939,  -0.00002,   0.00015,   0.00008,35380278.28017,   0.00000,274640135.82653,   0.00000,   0.00000,   0.00000,-439259857.54636,   0.00000
12255741.61132,41070767.68986,6625915.08758,  -0.00002,   0.00016,   0.00009,38280108.36891,   0.00000,274640135.82653,   0.00000,   0.00000,   0.00000,-436360027.45762,   0.00000
13136261.88874,44152588.66082,7159730.50576,  -0.00003,   0.00018,   0.00009,41180064.55668,   0.00000,274640135.82653,   0.00000,   0.00000,   0.00000,-433460071.26985,   0.00000
13997520.78509,47226154.75419,7699049.17568,  -0.00003,   0.00019,   0.00010,44079669.60916,   0.00000,274640135.82653,   0.00000,   0.00000,   0.00000,-430560466.21737,   0.00000
14850524.80384,50280459.46649,8243871.09733,  -0.00003,   0.00020,   0.00011,46966538.22312,   0.00000,274640135.82653,   0.00000,   0.00000,   0.00000,-427673597.60341,   0.00000
15695273.94499,53315502.79772,8788693.01899,  -0.00003,   0.00021,   0.00011,49837801.07311,   0.00000,274640135.82653,   0.00000,   0.00000,   0.00000,-424802334.75342,   0.00000
16520761.70507,56342291.25134,9339018.19237,  -0.00003,   0.00022,   0.00012,52708856.61327,   0.00000,274640135.82653,   0.00000,   0.00000,   0.00000,-421931279.21326,   0.00000
17337994.58755,59349818.32390,9894846.61750,  -0.00004,   0.00024,   0.00013,55567293.71921,   0.00000,274640135.82653,   0.00000,   0.00000,   0.00000,-419072842.10732,   0.00000
18155227.47003,62357345.39646,10450675.04262,  -0.00004,   0.00025,   0.00014,58425926.14432,   0.00000,274640135.82653,   0.00000,   0.00000,   0.00000,-416214209.68221,   0.00000
18953198.97144,65356617.59142,11012006.71947,  -0.00004,   0.00026,   0.00014,61284476.93258,   0.00000,274640135.82653,   0.00000,   0.00000,   0.00000,-413355658.89395,   0.00000
19734660.71765,68317367.02424,11573338.39632,  -0.00004,   0.00027,   0.00015,64111823.37390,   0.00000,274640135.82653,   0.00000,   0.00000,   0.00000,-410528312.45263,   0.00000
20524377.34146,71297377.83813,12145676.57665,  -0.00005,   0.00028,   0.00016,66961065.13605,   0.00000,274640135.82653,   0.00000,   0.00000,   0.00000,-407679070.69048,   0.00000
21286577.70660,74249872.39335,12718014.75697,  -0.00005,   0.00030,   0.00017,69791689.76717,   0.00000,274640135.82653,   0.00000,   0.00000,   0.00000,-404848446.05936,   0.00000
22040523.19414,77183105.56750,13290352.93729,  -0.00005,   0.00031,   0.00017,72606892.66766,   0.00000,274640135.82653,   0.00000,   0.00000,   0.00000,-402033243.15887,   0.00000
22775207.30061,80108083.86405,13868194.36935,  -0.00005,   0.00032,   0.00018,75422260.61777,   0.00000,274640135.82653,   0.00000,   0.00000,   0.00000,-399217875.20876,   0.00000
23520897.91055,83022055.65714,14451539.05314,  -0.00005,   0.00033,   0.00019,78228396.45316,   0.00000,274640135.82653,   0.00000,   0.00000,   0.00000,-396411739.37337,   0.00000
24228065.75835,85919517.69502,15034883.73693,  -0.00006,   0.00034,   0.00020,81028650.20253,   0.00000,274640135.82653,   0.00000,   0.00000,   0.00000,-393611485.62400,   0.00000
24946240.10962,88805973.22943,15623731.67245,  -0.00006,   0.00036,   0.00020,83819709.01645,   0.00000,274640135.82653,   0.00000,   0.00000,   0.00000,-390820426.81008,   0.00000
25645153.07983,91684173.88625,16218082.85971,  -0.00006,   0.00037,   0.00021,86611116.94415,   0.00000,274640135.82653,   0.00000,   0.00000,   0.00000,-388029018.88237,   0.00000
26316549.79136,94534858.28439,16812434.04697,  -0.00006,   0.00038,   0.00022,89384242.09256,   0.00000,274640135.82653,   0.00000,   0.00000,   0.00000,-385255893.73397,   0.00000
27007207.88396,97393797.56013,17412288.48596,  -0.00007,   0.00039,   0.00023,92163821.07157,   0.00000,274640135.82653,   0.00000,   0.00000,   0.00000,-382476314.75496,   0.00000
27670349.71789,100225220.57721,18017646.17668,  -0.00007,   0.00040,   0.00023,94928304.05407,   0.00000,274640135.82653,   0.00000,   0.00000,   0.00000,-379711831.77246,   0.00000
28305975.29315,103029127.33561,18623003.86741,  -0.00007,   0.00041,   0.00024,97674654.86571,   0.00000,274640135.82653,   0.00000,   0.00000,   0.00000,-376965480.96082,   0.00000
28941600.86841,105833034.09402,19233864.80987,  -0.00007,   0.00043,   0.00025,100424571.70187,   0.00000,274640135.82653,   0.00000,   0.00000,   0.00000,-374215564.12466,   0.00000
29577226.44367,108636940.85243,19844725.75233,  -0.00008,   0.00044,   0.00026,103174886.78302,   0.00000,274640135.82653,   0.00000,   0.00000,   0.00000,-371465249.04351,   0.00000
30177080.88267,111394069.97109,20461089.94652,  -0.00008,   0.00045,   0.00027,105894833.59143,   0.00000,274640135.82653,   0.00000,   0.00000,   0.00000,-368745302.23510,   0.00000
30785190.19926,114170460.47083,21077454.14072,  -0.00008,   0.00046,   0.00027,108630750.05797,   0.00000,274640135.82653,   0.00000,   0.00000,   0.00000,-366009385.76856,   0.00000
31385044.63825,116927589.58950,21699321.58664,  -0.00009,   0.00047,   0.00028,111354776.67082,   0.00000,274640135.82653,   0.00000,   0.00000,   0.00000,-363285359.15571,   0.00000
31957382.81857,119657202.44950,22326692.28430,  -0.00009,   0.00048,   0.00029,114064161.56729,   0.00000,274640135.82653,   0.00000,   0.00000,   0.00000,-360575974.25924,   0.00000
32529720.99890,122386815.30950,22954062.98196,  -0.00009,   0.00049,   0.00030,116774026.97537,   0.00000,274640135.82653,   0.00000,   0.00000,   0.00000,-357866108.85116,   0.00000
33074542.92055,125088911.91083,23586936.93136,  -0.00009,   0.00050,   0.00031,119469382.97309,   0.00000,274640135.82653,   0.00000,   0.00000,   0.00000,-355170752.85344,   0.00000
33611109.96460,127771747.13109,24225314.13249,  -0.00010,   0.00052,   0.00031,122153073.51534,   0.00000,274640135.82653,   0.00000,   0.00000,   0.00000,-352487062.31119,   0.00000
34147677.00865,130454582.35135,24863691.33362,  -0.00010,   0.00053,   0.00032,124837295.70653,   0.00000,274640135.82653,   0.00000,   0.00000,   0.00000,-349802840.12000,   0.00000
34664982.67164,133129162.69401,25502068.53475,  -0.00010,   0.00054,   0.00033,127519337.21600,   0.00000,274640135.82653,   0.00000,   0.00000,   0.00000,-347120798.61053,   0.00000
35154772.07595,135776226.77800,26151452.23934,  -0.00010,   0.00055,   0.00034,130190455.92803,   0.00000,274640135.82653,   0.00000,   0.00000,   0.00000,-344449679.89850,   0.00000
35655567.98373,138412284.35852,26795332.69220,  -0.00011,   0.00056,   0.00035,132846079.87109,   0.00000,274640135.82653,   0.00000,   0.00000,   0.00000,-341794055.95544,   0.00000
36137102.51045,141040087.06144,27450219.64853,  -0.00011,   0.00057,   0.00036,135506309.55120,   0.00000,274640135.82653,   0.00000,   0.00000,   0.00000,-339133826.27533,   0.00000
36591120.77849,143640373.50570,28105106.60487,  -0.00011,   0.00058,   0.00037,138149179.57368,   0.00000,274640135.82653,   0.00000,   0.00000,   0.00000,-336490956.25285,   0.00000
37036884.16893,146221398.56888,28759993.56120,  -0.00012,   0.00059,   0.00037,140777323.72611,   0.00000,274640135.82653,   0.00000,   0.00000,   0.00000,-333862812.10042,   0.00000
37482647.55938,148802423.63206,29420383.76926,  -0.00012,   0.00060,   0.00038,143409477.68278,   0.00000,274640135.82653,   0.00000,   0.00000,   0.00000,-331230658.14375,   0.00000
37909149.56875,151375193.81765,30080773.97732,  -0.00012,   0.00061,   0.00039,146039744.41962,   0.00000,274640135.82653,   0.00000,   0.00000,   0.00000,-328600391.40691,   0.00000
38327396.70053,153928702.62216,30746667.43712,  -0.00013,   0.00063,   0.00040,148658740.25852,   0.00000,274640135.82653,   0.00000,   0.00000,   0.00000,-325981395.56800,   0.00000
38718127.57363,156454695.16801,31418064.14865,  -0.00013,   0.00064,   0.00041,151264062.02552,   0.00000,274640135.82653,   0.00000,   0.00000,   0.00000,-323376073.80101,   0.00000
39108858.44673,158980687.71385,32089460.86019,  -0.00013,   0.00065,   0.00042,153870104.82320,   0.00000,274640135.82653,   0.00000,   0.00000,   0.00000,-320770031.00333,   0.00000
39491334.44224,161487418.87863,32766360.82345,  -0.00014,   0.00066,   0.00043,156465016.82421,   0.00000,274640135.82653,   0.00000,   0.00000,   0.00000,-318175119.00232,   0.00000
39846294.17907,163966633.78474,33443260.78672,  -0.00014,   0.00067,   0.00043,159043002.06331,   0.00000,274640135.82653,   0.00000,   0.00000,   0.00000,-315597133.76322,   0.00000
40201253.91591,166445848.69085,34125664.00172,  -0.00014,   0.00068,   0.00044,161625221.93962,   0.00000,274640135.82653,   0.00000,   0.00000,   0.00000,-313014913.88691,   0.00000
40528697.39407,168897547.33828,34808067.21672,  -0.00014,   0.00069,   0.00045,164190632.65840,   0.00000,274640135.82653,   0.00000,   0.00000,   0.00000,-310449503.16813,   0.00000
40856140.87224,171349245.98572,35495973.68345,  -0.00015,   0.00070,   0.00046,166760342.58094,   0.00000,274640135.82653,   0.00000,   0.00000,   0.00000,-307879793.24559,   0.00000
41156068.09173,173773428.37449,36183880.15018,  -0.00015,   0.00071,   0.00047,169313362.87266,   0.00000,274640135.82653,   0.00000,   0.00000,   0.00000,-305326772.95387,   0.00000
41455995.31123,176197610.76326,36877289.86865,  -0.00015,   0.00072,   0.00048,171870747.32032,   0.00000,274640135.82653,   0.00000,   0.00000,   0.00000,-302769388.50621,   0.00000
41747667.65312,178602531.77096,37570699.58712,  -0.00016,   0.00073,   0.00049,174413776.32942,   0.00000,274640135.82653,   0.00000,   0.00000,   0.00000,-300226359.49711,   0.00000
42011823.73635,180979936.51999,38269612.55732,  -0.00016,   0.00074,   0.00050,176943842.21951,   0.00000,274640135.82653,   0.00000,   0.00000,   0.00000,-297696293.60702,   0.00000
42256718.43851,183349086.39142,38968525.52752,  -0.00017,   0.00075,   0.00051,179472630.11258,   0.00000,274640135.82653,   0.00000,   0.00000,   0.00000,-295167505.71395,   0.00000
42512619.64413,185707229.75938,39672941.74946,  -0.00017,   0.00076,   0.00052,181992923.24470,   0.00000,274640135.82653,   0.00000,   0.00000,   0.00000,-292647212.58183,   0.00000
42721743.21002,188029601.99108,40377357.97139,  -0.00017,   0.00077,   0.00052,184494767.69256,   0.00000,274640135.82653,   0.00000,   0.00000,   0.00000,-290145368.13397,   0.00000
42950128.15697,190360229.10037,41087277.44506,  -0.00018,   0.00078,   0.00053,187003281.25339,   0.00000,274640135.82653,   0.00000,   0.00000,   0.00000,-287636854.57314,   0.00000
43150996.84526,192663339.95099,41797196.91873,  -0.00018,   0.00079,   0.00054,189495574.95144,   0.00000,274640135.82653,   0.00000,   0.00000,   0.00000,-285144560.87509,   0.00000
43332604.15248,194958195.92402,42512619.64413,  -0.00018,   0.00080,   0.00055,191990455.22459,   0.00000,274640135.82653,   0.00000,   0.00000,   0.00000,-282649680.60194,   0.00000
43505956.58210,197233790.51597,43228042.36954,  -0.00019,   0.00081,   0.00056,194471289.89652,   0.00000,274640135.82653,   0.00000,   0.00000,   0.00000,-280168845.93000,   0.00000
43671054.13411,199490123.72686,43948968.34667,  -0.00019,   0.00082,   0.00057,196941772.86055,   0.00000,274640135.82653,   0.00000,   0.00000,   0.00000,-277698362.96598,   0.00000
43816890.30506,201738202.06014,44669894.32381,  -0.00019,   0.00083,   0.00058,199411333.06098,   0.00000,274640135.82653,   0.00000,   0.00000,   0.00000,-275228802.76555,   0.00000
43954471.59841,203967019.01236,45396323.55268,  -0.00020,   0.00084,   0.00059,201870642.86417,   0.00000,274640135.82653,   0.00000,   0.00000,   0.00000,-272769492.96236,   0.00000
44072791.51068,206187581.08697,46122752.78155,  -0.00020,   0.00085,   0.00060,204329127.25587,   0.00000,274640135.82653,   0.00000,   0.00000,   0.00000,-270311008.57065,   0.00000
44182856.54536,208388881.78052,46849182.01042,  -0.00021,   0.00086,   0.00061,206773722.60039,   0.00000,274640135.82653,   0.00000,   0.00000,   0.00000,-267866413.22614,   0.00000
44265405.32137,210562666.21540,47581114.49102,  -0.00021,   0.00087,   0.00062,209206376.85084,   0.00000,274640135.82653,   0.00000,   0.00000,   0.00000,-265433758.97569,   0.00000
44347954.09738,212736450.65028,48318550.22336,  -0.00021,   0.00088,   0.00063,211643943.94049,   0.00000,274640135.82653,   0.00000,   0.00000,   0.00000,-262996191.88604,   0.00000
44422247.99578,214890973.70409,49055985.95570,  -0.00022,   0.00089,   0.00064,214067736.58076,   0.00000,274640135.82653,   0.00000,   0.00000,   0.00000,-260572399.24577,   0.00000
44469025.63552,217017980.49923,49793421.68804,  -0.00022,   0.00090,   0.00065,216476036.76378,   0.00000,274640135.82653,   0.00000,   0.00000,   0.00000,-258164099.06275,   0.00000
44496541.89419,219136732.41677,50536360.67211,  -0.00022,   0.00091,   0.00066,218887629.13935,   0.00000,274640135.82653,   0.00000,   0.00000,   0.00000,-255752506.68718,   0.00000
44515803.27526,221236222.95324,51279299.65618,  -0.00023,   0.00092,   0.00067,221285595.16877,   0.00000,274640135.82653,   0.00000,   0.00000,   0.00000,-253354540.65776,   0.00000
44535064.65633,223335713.48971,52022238.64026,  -0.00023,   0.00093,   0.00068,223684783.57501,   0.00000,274640135.82653,   0.00000,   0.00000,   0.00000,-250955352.25152,   0.00000
44526809.77873,225407687.76751,52770680.87606,  -0.00024,   0.00094,   0.00069,226072580.24415,   0.00000,274640135.82653,   0.00000,   0.00000,   0.00000,-248567555.58238,   0.00000
44510300.02353,227460400.66424,53524626.36360,  -0.00024,   0.00095,   0.00070,228450709.96514,   0.00000,274640135.82653,   0.00000,   0.00000,   0.00000,-246189425.86139,   0.00000
44474528.88726,229504858.68337,54273068.59941,  -0.00025,   0.00096,   0.00071,230824698.28276,   0.00000,274640135.82653,   0.00000,   0.00000,   0.00000,-243815437.54377,   0.00000
44430502.87339,231530055.32144,55032517.33868,  -0.00025,   0.00097,   0.00072,233192995.62464,   0.00000,274640135.82653,   0.00000,   0.00000,   0.00000,-241447140.20189,   0.00000
44378221.98191,233535990.57843,55786462.82622,  -0.00025,   0.00098,   0.00073,235543969.89746,   0.00000,274640135.82653,   0.00000,   0.00000,   0.00000,-239096165.92907,   0.00000
44306679.70937,235533670.95783,56545911.56550,  -0.00026,   0.00099,   0.00074,237898712.57776,   0.00000,274640135.82653,   0.00000,   0.00000,   0.00000,-236741423.24877,   0.00000
44207621.17816,237503835.07855,57310863.55650,  -0.00026,   0.00099,   0.00075,240242608.88218,   0.00000,274640135.82653,   0.00000,   0.00000,   0.00000,-234397526.94435,   0.00000
44100307.76935,239454737.81821,58070312.29578,  -0.00027,   0.00100,   0.00075,242569298.31434,   0.00000,274640135.82653,   0.00000,   0.00000,   0.00000,-232070837.51219,   0.00000
43992994.36054,241405640.55786,58840767.53852,  -0.00027,   0.00101,   0.00076,244905323.82098,   0.00000,274640135.82653,   0.00000,   0.00000,   0.00000,-229734812.00555,   0.00000
43858164.69306,243329027.03885,59605719.52953,  -0.00027,   0.00102,   0.00077,247222804.10460,   0.00000,274640135.82653,   0.00000,   0.00000,   0.00000,-227417331.72193,   0.00000
43723335.02558,245252413.51984,60376174.77227,  -0.00028,   0.00103,   0.00078,249545727.99649,   0.00000,274640135.82653,   0.00000,   0.00000,   0.00000,-225094407.83004,   0.00000
43552734.22183,247129022.36109,61146630.01501,  -0.00028,   0.00104,   0.00079,251839593.40923,   0.00000,274640135.82653,   0.00000,   0.00000,   0.00000,-222800542.41730,   0.00000
43390388.29568,249024892.58341,61922588.50949,  -0.00029,   0.00105,   0.00080,254153609.14472,   0.00000,274640135.82653,   0.00000,   0.00000,   0.00000,-220486526.68181,   0.00000
43211532.61433,250882240.04359,62698547.00396,  -0.00029,   0.00106,   0.00082,256439958.29705,   0.00000,274640135.82653,   0.00000,   0.00000,   0.00000,-218200177.52948,   0.00000
43013415.55191,252731332.62617,63480008.75017,  -0.00030,   0.00107,   0.00083,258730703.83695,   0.00000,274640135.82653,   0.00000,   0.00000,   0.00000,-215909431.98957,   0.00000
42787782.23083,254552908.95008,64255967.24465,  -0.00030,   0.00107,   0.00084,261003278.34806,   0.00000,274640135.82653,   0.00000,   0.00000,   0.00000,-213636857.47847,   0.00000
42562148.90974,256374485.27399,65037428.99085,  -0.00031,   0.00108,   0.00085,263281533.17247,   0.00000,274640135.82653,   0.00000,   0.00000,   0.00000,-211358602.65405,   0.00000
42328260.71105,258176800.21683,65824393.98880,  -0.00031,   0.00109,   0.00086,265550973.35140,   0.00000,274640135.82653,   0.00000,   0.00000,   0.00000,-209089162.47513,   0.00000
42066856.25369,259951598.90100,66611358.98674,  -0.00032,   0.00110,   0.00087,267806510.48948,   0.00000,274640135.82653,   0.00000,   0.00000,   0.00000,-206833625.33705,   0.00000
41805451.79633,261726397.58517,67398323.98468,  -0.00032,   0.00111,   0.00088,270063723.81823,   0.00000,274640135.82653,   0.00000,   0.00000,   0.00000,-204576412.00830,   0.00000
41508276.20270,263454418.62961,68185288.98263,  -0.00032,   0.00112,   0.00089,272292728.17029,   0.00000,274640135.82653,   0.00000,   0.00000,   0.00000,-202347407.65624,   0.00000
41219355.48667,265201701.05511,68977757.23230,  -0.00033,   0.00113,   0.00090,274542031.92990,   0.00000,274640135.82653,   0.00000,   0.00000,   0.00000,-200098103.89663,   0.00000
40913925.01544,266910460.71848,69770225.48198,  -0.00033,   0.00113,   0.00091,276764235.07539,   0.00000,274640135.82653,   0.00000,   0.00000,   0.00000,-197875900.75114,   0.00000
40589233.16315,268610965.50424,70562693.73166,  -0.00034,   0.00114,   0.00092,278987284.24225,   0.00000,274640135.82653,   0.00000,   0.00000,   0.00000,-195652851.58428,   0.00000
40245279.92978,270303215.41241,71360665.23307,  -0.00034,   0.00115,   0.00093,281215426.09935,   0.00000,274640135.82653,   0.00000,   0.00000,   0.00000,-193424709.72718,   0.00000
39884816.94121,271956942.55843,72158636.73448,  -0.00035,   0.00116,   0.00094,283416708.97191,   0.00000,274640135.82653,   0.00000,   0.00000,   0.00000,-191223426.85462,   0.00000
39524353.95264,273610669.70446,72956608.23589,  -0.00035,   0.00117,   0.00095,285619831.65168,   0.00000,274640135.82653,   0.00000,   0.00000,   0.00000,-189020304.17485,   0.00000
39136374.70540,275236880.59182,73760082.98904,  -0.00036,   0.00118,   0.00096,287813953.96863,   0.00000,274640135.82653,   0.00000,   0.00000,   0.00000,-186826181.85790,   0.00000
38748395.45817,276863091.47918,74563557.74218,  -0.00036,   0.00118,   0.00097,290009967.84093,   0.00000,274640135.82653,   0.00000,   0.00000,   0.00000,-184630167.98560,   0.00000
38332899.95226,278461786.10787,75367032.49533,  -0.00037,   0.00119,   0.00098,292192913.18440,   0.00000,274640135.82653,   0.00000,   0.00000,   0.00000,-182447222.64213,   0.00000
37909149.56875,280041219.35549,76176010.50020,  -0.00037,   0.00120,   0.00099,294367826.73443,   0.00000,274640135.82653,   0.00000,   0.00000,   0.00000,-180272309.09210,   0.00000
37485399.18524,281620652.60311,76979485.25335,  -0.00038,   0.00121,   0.00100,296540398.58450,   0.00000,274640135.82653,   0.00000,   0.00000,   0.00000,-178099737.24203,   0.00000
37034132.54307,283172569.59206,77788463.25823,  -0.00038,   0.00122,   0.00101,298704395.20701,   0.00000,274640135.82653,   0.00000,   0.00000,   0.00000,-175935740.61952,   0.00000
36574611.02329,284705225.19994,78602944.51484,  -0.00039,   0.00122,   0.00102,300860521.20356,   0.00000,274640135.82653,   0.00000,   0.00000,   0.00000,-173779614.62297,   0.00000
36095828.12244,286229625.93022,79411922.51972,  -0.00039,   0.00123,   0.00103,303013815.69444,   0.00000,274640135.82653,   0.00000,   0.00000,   0.00000,-171626320.13209,   0.00000
35600535.46639,287715503.89837,80226403.77633,  -0.00040,   0.00124,   0.00104,305145229.18910,   0.00000,274640135.82653,   0.00000,   0.00000,   0.00000,-169494906.63743,   0.00000
35094236.30688,289212388.36998,81040885.03294,  -0.00040,   0.00125,   0.00105,307292366.07678,   0.00000,274640135.82653,   0.00000,   0.00000,   0.00000,-167347769.74975,   0.00000
34571427.39216,290670750.07945,81855366.28956,  -0.00041,   0.00126,   0.00106,309413426.96056,   0.00000,274640135.82653,   0.00000,   0.00000,   0.00000,-165226708.86597,   0.00000
34048618.47744,292129111.78893,82675350.79790,  -0.00041,   0.00126,   0.00107,311540967.75548,   0.00000,274640135.82653,   0.00000,   0.00000,   0.00000,-163099168.07104,   0.00000
33498293.30406,293559957.23973,83495335.30625,  -0.00042,   0.00127,   0.00109,313656244.40244,   0.00000,274640135.82653,   0.00000,   0.00000,   0.00000,-160983891.42409,   0.00000
32928706.74960,294982547.81294,84315319.81460,  -0.00043,   0.00128,   0.00110,315773382.18340,   0.00000,274640135.82653,   0.00000,   0.00000,   0.00000,-158866753.64313,   0.00000
32370126.69861,296394131.88268,85135304.32294,  -0.00043,   0.00129,   0.00111,317878988.04684,   0.00000,274640135.82653,   0.00000,   0.00000,   0.00000,-156761147.77969,   0.00000
31784030.38896,297778199.69374,85960792.08302,  -0.00044,   0.00129,   0.00112,319976972.26363,   0.00000,274640135.82653,   0.00000,   0.00000,   0.00000,-154663163.56290,   0.00000
31170417.82063,299134751.24614,86780776.59137,  -0.00044,   0.00130,   0.00113,322058610.70090,   0.00000,274640135.82653,   0.00000,   0.00000,   0.00000,-152581525.12563,   0.00000
30556805.25230,300491302.79854,87606264.35145,  -0.00045,   0.00131,   0.00114,324146972.60041,   0.00000,274640135.82653,   0.00000,   0.00000,   0.00000,-150493163.22612,   0.00000
29934937.80638,301828592.96987,88431752.11153,  -0.00045,   0.00131,   0.00115,326223702.72782,   0.00000,274640135.82653,   0.00000,   0.00000,   0.00000,-148416433.09871,   0.00000
29293808.97938,303157628.26360,89262743.12334,  -0.00046,   0.00132,   0.00116,328307089.62136,   0.00000,274640135.82653,   0.00000,   0.00000,   0.00000,-146333046.20517,   0.00000
28636170.39718,304448140.79519,90088230.88342,  -0.00046,   0.00133,   0.00117,330360620.96270,   0.00000,274640135.82653,   0.00000,   0.00000,   0.00000,-144279514.86382,   0.00000
27959270.43392,305730398.44918,90919221.89524,  -0.00047,   0.00134,   0.00118,332420987.87395,   0.00000,274640135.82653,   0.00000,   0.00000,   0.00000,-142219147.95258,   0.00000
27282370.47065,307012656.10317,91750212.90705,  -0.00047,   0.00134,   0.00119,334483737.16596,   0.00000,274640135.82653,   0.00000,   0.00000,   0.00000,-140156398.66057,   0.00000
26588960.75218,308256390.99503,92581203.91887,  -0.00048,   0.00135,   0.00120,336521316.26181,   0.00000,274640135.82653,   0.00000,   0.00000,   0.00000,-138118819.56471,   0.00000
25876289.65265,309491871.00928,93412194.93068,  -0.00049,   0.00136,   0.00121,338561388.48507,   0.00000,274640135.82653,   0.00000,   0.00000,   0.00000,-136078747.34146,   0.00000
25163618.55311,310727351.02354,94248689.19423,  -0.00049,   0.00136,   0.00123,340608449.81020,   0.00000,274640135.82653,   0.00000,   0.00000,   0.00000,-134031686.01633,   0.00000
24415176.31731,311916053.39805,95085183.45778,  -0.00050,   0.00137,   0.00124,342630728.48433,   0.00000,274640135.82653,   0.00000,   0.00000,   0.00000,-132009407.34219,   0.00000
23666734.08150,313104755.77257,95916174.46959,  -0.00050,   0.00138,   0.00125,344650943.66562,   0.00000,274640135.82653,   0.00000,   0.00000,   0.00000,-129989192.16091,   0.00000
22918291.84569,314293458.14708,96752668.73314,  -0.00051,   0.00139,   0.00126,346678227.54987,   0.00000,274640135.82653,   0.00000,   0.00000,   0.00000,-127961908.27666,   0.00000
22134078.47362,315435382.88186,97594666.24842,  -0.00051,   0.00139,   0.00127,348685651.16170,   0.00000,274640135.82653,   0.00000,   0.00000,   0.00000,-125954484.66483,   0.00000
21349865.10154,316577307.61664,98431160.51197,  -0.00052,   0.00140,   0.00128,350691040.24059,   0.00000,274640135.82653,   0.00000,   0.00000,   0.00000,-123949095.58594,   0.00000
20538135.47080,317691716.09275,99267654.77552,  -0.00053,   0.00141,   0.00129,352685763.58198,   0.00000,274640135.82653,   0.00000,   0.00000,   0.00000,-121954372.24455,   0.00000
19726405.84005,318806124.56885,100109652.29080,  -0.00053,   0.00141,   0.00130,354687756.48138,   0.00000,274640135.82653,   0.00000,   0.00000,   0.00000,-119952379.34515,   0.00000
18906421.33170,319901271.66389,100951649.80608,  -0.00054,   0.00142,   0.00131,356678840.06320,   0.00000,274640135.82653,   0.00000,   0.00000,   0.00000,-117961295.76333,   0.00000
18058920.56469,320968902.50026,101788144.06963,  -0.00054,   0.00143,   0.00132,358654831.12544,   0.00000,274640135.82653,   0.00000,   0.00000,   0.00000,-115985304.70109,   0.00000
17203164.92007,322017271.95557,102630141.58491,  -0.00055,   0.00143,   0.00133,360624727.34080,   0.00000,274640135.82653,   0.00000,   0.00000,   0.00000,-114015408.48573,   0.00000
16347409.27546,323065641.41087,103477642.35192,  -0.00056,   0.00144,   0.00135,362602023.69456,   0.00000,274640135.82653,   0.00000,   0.00000,   0.00000,-112038112.13197,   0.00000
15464137.37217,324086494.60750,104319639.86721,  -0.00056,   0.00144,   0.00136,364564451.42751,   0.00000,274640135.82653,   0.00000,   0.00000,   0.00000,-110075684.39902,   0.00000
14572610.59128,325088086.42307,105161637.38249,  -0.00057,   0.00145,   0.00137,366516238.04853,   0.00000,274640135.82653,   0.00000,   0.00000,   0.00000,-108123897.77800,   0.00000
13661822.42933,326081423.36103,106009138.14950,  -0.00057,   0.00146,   0.00138,368476167.02222,   0.00000,274640135.82653,   0.00000,   0.00000,   0.00000,-106163968.80431,   0.00000
12742779.38977,327055498.91792,106851135.66479,  -0.00058,   0.00146,   0.00139,370420811.11443,   0.00000,274640135.82653,   0.00000,   0.00000,   0.00000,-104219324.71210,   0.00000
11815481.47262,328010313.09375,107698636.43180,  -0.00059,   0.00147,   0.00140,372359718.80550,   0.00000,274640135.82653,   0.00000,   0.00000,   0.00000,-102280417.02103,   0.00000
10888183.55546,328965127.26958,108540633.94708,  -0.00059,   0.00148,   0.00141,374296650.35166,   0.00000,274640135.82653,   0.00000,   0.00000,   0.00000,-100343485.47487,   0.00000
9933369.37963,329892425.18673,109388134.71410,  -0.00060,   0.00148,   0.00142,376228697.41234,   0.00000,274640135.82653,   0.00000,   0.00000,   0.00000,-98411438.41419,   0.00000
8951038.94514,330792206.84522,110235635.48111,  -0.00060,   0.00149,   0.00143,378151235.97746,   0.00000,274640135.82653,   0.00000,   0.00000,   0.00000,-96488899.84906,   0.00000
7979715.01411,331680982.00024,111083136.24813,  -0.00061,   0.00149,   0.00144,380062651.98852,   0.00000,274640135.82653,   0.00000,   0.00000,   0.00000,-94577483.83801,   0.00000
6989129.70201,332561502.27766,111930637.01515,  -0.00062,   0.00150,   0.00146,381977862.92624,   0.00000,274640135.82653,   0.00000,   0.00000,   0.00000,-92662272.90029,   0.00000
5971028.13125,333414506.29641,112778137.78216,  -0.00062,   0.00151,   0.00147,383883815.59294,   0.00000,274640135.82653,   0.00000,   0.00000,   0.00000,-90756320.23359,   0.00000
4963933.06395,334256503.81169,113631141.80091,  -0.00063,   0.00151,   0.00148,385783531.55844,   0.00000,274640135.82653,   0.00000,   0.00000,   0.00000,-88856604.26809,   0.00000
3937576.61558,335090246.44937,114478642.56793,  -0.00064,   0.00152,   0.00149,387682361.04982,   0.00000,274640135.82653,   0.00000,   0.00000,   0.00000,-86957774.77671,   0.00000
2883703.90855,335896472.82838,115326143.33494,  -0.00064,   0.00152,   0.00150,389572186.17960,   0.00000,274640135.82653,   0.00000,   0.00000,   0.00000,-85067949.64693,   0.00000
1829831.20151,336702699.20739,116173644.10196,  -0.00065,   0.00153,   0.00151,391465060.48805,   0.00000,274640135.82653,   0.00000,   0.00000,   0.00000,-83175075.33848,   0.00000
759448.73927,337470402.82427,117026648.12071,  -0.00065,   0.00153,   0.00152,393339887.60854,   0.00000,274640135.82653,   0.00000,   0.00000,   0.00000,-81300248.21799,   0.00000
-310933.72296,338238106.44114,117874148.88772,  -0.00066,   0.00154,   0.00153,395212889.32722,   0.00000,274640135.82653,   0.00000,   0.00000,   0.00000,-79427246.49931,   0.00000
-1408832.44387,338978293.79935,118727152.90647,  -0.00067,   0.00155,   0.00154,397082161.02700,   0.00000,274640135.82653,   0.00000,   0.00000,   0.00000,-77557974.79952,   0.00000
-2506731.16478,339718481.15755,119574653.67349,  -0.00067,   0.00155,   0.00155,398949628.96148,   0.00000,274640135.82653,   0.00000,   0.00000,   0.00000,-75690506.86505,   0.00000
-3612884.76328,340439407.13469,120427657.69224,  -0.00068,   0.00156,   0.00157,400812267.05917,   0.00000,274640135.82653,   0.00000,   0.00000,   0.00000,-73827868.76736,   0.00000
-4746554.62046,341132816.85316,121275158.45925,  -0.00069,   0.00156,   0.00158,402661552.97087,   0.00000,274640135.82653,   0.00000,   0.00000,   0.00000,-71978582.85566,   0.00000
-5888479.35524,341806965.19056,122128162.47800,  -0.00069,   0.00157,   0.00159,404506196.62826,   0.00000,274640135.82653,   0.00000,   0.00000,   0.00000,-70133939.19827,   0.00000
-7030404.09002,342481113.52796,122975663.24502,  -0.00070,   0.00157,   0.00160,406349063.70998,   0.00000,274640135.82653,   0.00000,   0.00000,   0.00000,-68291072.11655,   0.00000
-8180583.70240,343136000.48429,123828667.26377,  -0.00071,   0.00158,   0.00161,408187341.86681,   0.00000,274640135.82653,   0.00000,   0.00000,   0.00000,-66452793.95972,   0.00000
-9358279.57344,343763371.18195,124681671.28252,  -0.00071,   0.00158,   0.00162,410017589.81657,   0.00000,274640135.82653,   0.00000,   0.00000,   0.00000,-64622546.00996,   0.00000
-10535975.44449,344390741.87961,125529172.04953,  -0.00072,   0.00159,   0.00163,411846089.42787,   0.00000,274640135.82653,   0.00000,   0.00000,   0.00000,-62794046.39866,   0.00000
-11741187.57421,344990596.31860,126382176.06828,  -0.00073,   0.00159,   0.00164,413671765.55803,   0.00000,274640135.82653,   0.00000,   0.00000,   0.00000,-60968370.26850,   0.00000
-12954654.58153,345571189.37652,127229676.83530,  -0.00073,   0.00160,   0.00165,415483089.18291,   0.00000,274640135.82653,   0.00000,   0.00000,   0.00000,-59157046.64362,   0.00000
-14168121.58884,346151782.43445,128082680.85405,  -0.00074,   0.00160,   0.00167,417302806.24255,   0.00000,274640135.82653,   0.00000,   0.00000,   0.00000,-57337329.58398,   0.00000
-15389843.47376,346713114.11130,128930181.62107,  -0.00075,   0.00161,   0.00168,419108179.98925,   0.00000,274640135.82653,   0.00000,   0.00000,   0.00000,-55531955.83728,   0.00000
-16639081.61735,347246929.52949,129783185.63981,  -0.00075,   0.00161,   0.00169,420911136.62030,   0.00000,274640135.82653,   0.00000,   0.00000,   0.00000,-53728999.20623,   0.00000
-17877313.25747,347769738.44420,130630686.40683,  -0.00076,   0.00162,   0.00170,422698126.98408,   0.00000,274640135.82653,   0.00000,   0.00000,   0.00000,-51942008.84245,   0.00000
-19154067.65973,348276037.60372,131483690.42558,  -0.00077,   0.00162,   0.00171,424497187.28064,   0.00000,274640135.82653,   0.00000,   0.00000,   0.00000,-50142948.54589,   0.00000
-20419815.55852,348771330.25977,132331191.19260,  -0.00077,   0.00163,   0.00172,426280293.23670,   0.00000,274640135.82653,   0.00000,   0.00000,   0.00000,-48359842.58983,   0.00000
-21713079.71598,349239106.65715,133178691.95961,  -0.00078,   0.00163,   0.00173,428056257.97135,   0.00000,274640135.82653,   0.00000,   0.00000,   0.00000,-46583877.85518,   0.00000
-23006343.87344,349706883.05452,134026192.72663,  -0.00079,   0.00164,   0.00174,429835705.50965,   0.00000,274640135.82653,   0.00000,   0.00000,   0.00000,-44804430.31688,   0.00000
-24307862.90850,350155398.07084,134879196.74538,  -0.00079,   0.00164,   0.00175,431611396.46021,   0.00000,274640135.82653,   0.00000,   0.00000,   0.00000,-43028739.36632,   0.00000
-25617636.82116,350584651.70608,135726697.51239,  -0.00080,   0.00165,   0.00176,433373073.53308,   0.00000,274640135.82653,   0.00000,   0.00000,   0.00000,-41267062.29345,   0.00000
-26946672.11489,351005650.46372,136574198.27941,  -0.00081,   0.00165,   0.00178,435140274.94135,   0.00000,274640135.82653,   0.00000,   0.00000,   0.00000,-39499860.88518,   0.00000
-28283962.28622,351407387.84029,137421699.04642,  -0.00081,   0.00165,   0.00179,436898727.58173,   0.00000,274640135.82653,   0.00000,   0.00000,   0.00000,-37741408.24480,   0.00000
-29629507.33515,351789863.83579,138269199.81344,  -0.00082,   0.00166,   0.00180,438648482.50579,   0.00000,274640135.82653,   0.00000,   0.00000,   0.00000,-35991653.32074,   0.00000
-30994313.76515,352164084.95370,139111197.32872,  -0.00083,   0.00166,   0.00181,440398739.81383,   0.00000,274640135.82653,   0.00000,   0.00000,   0.00000,-34241396.01270,   0.00000
-32356368.56928,352508038.18706,139958698.09574,  -0.00083,   0.00167,   0.00182,442131250.98624,   0.00000,274640135.82653,   0.00000,   0.00000,   0.00000,-32508884.84029,   0.00000
-33737684.75448,352843736.54283,140806198.86275,  -0.00084,   0.00167,   0.00183,443869599.60748,   0.00000,274640135.82653,   0.00000,   0.00000,   0.00000,-30770536.21905,   0.00000
-35119000.93968,353179434.89860,141648196.37803,  -0.00085,   0.00168,   0.00184,445606329.60027,   0.00000,274640135.82653,   0.00000,   0.00000,   0.00000,-29033806.22626,   0.00000
-36527833.38355,353487616.99569,142495697.14505,  -0.00086,   0.00168,   0.00185,447342135.14079,   0.00000,274640135.82653,   0.00000,   0.00000,   0.00000,-27298000.68574,   0.00000
-37925659.32395,353784792.58932,143337694.66033,  -0.00086,   0.00168,   0.00186,449061956.47369,   0.00000,274640135.82653,   0.00000,   0.00000,   0.00000,-25578179.35284,   0.00000
-39351001.52302,354054451.92428,144179692.17561,  -0.00087,   0.00169,   0.00187,450775780.66345,   0.00000,274640135.82653,   0.00000,   0.00000,   0.00000,-23864355.16308,   0.00000
-40776343.72210,354324111.25924,145021689.69090,  -0.00088,   0.00169,   0.00189,452493314.00490,   0.00000,274640135.82653,   0.00000,   0.00000,   0.00000,-22146821.82163,   0.00000
-42218195.67637,354555247.83206,145863687.20618,  -0.00088,   0.00170,   0.00190,454190629.99871,   0.00000,274640135.82653,   0.00000,   0.00000,   0.00000,-20449505.82782,   0.00000
-43671054.13411,354797390.90835,146705684.72146,  -0.00089,   0.00170,   0.00191,455906130.05128,   0.00000,274640135.82653,   0.00000,   0.00000,   0.00000,-18734005.77525,   0.00000
-45121160.96599,355009266.10011,147547682.23674,  -0.00090,   0.00170,   0.00192,457599042.85769,   0.00000,274640135.82653,   0.00000,   0.00000,   0.00000,-17041092.96884,   0.00000
-46590529.17893,355212886.41426,148384176.50029,  -0.00090,   0.00171,   0.00193,459292956.55403,   0.00000,274640135.82653,   0.00000,   0.00000,   0.00000,-15347179.27250,   0.00000
-48068152.26947,355397245.34734,149226174.01557,  -0.00091,   0.00171,   0.00194,460984155.04501,   0.00000,274640135.82653,   0.00000,   0.00000,   0.00000,-13655980.78152,   0.00000
-49565036.74108,355573349.40283,150062668.27912,  -0.00092,   0.00171,   0.00195,462676473.39490,   0.00000,274640135.82653,   0.00000,   0.00000,   0.00000,-11963662.43163,   0.00000
-51050914.70923,355738446.95484,150899162.54267,  -0.00093,   0.00172,   0.00196,464358141.32737,   0.00000,274640135.82653,   0.00000,   0.00000,   0.00000,-10281994.49915,   0.00000
-52545047.55497,355884283.12579,151735656.80622,  -0.00093,   0.00172,   0.00197,466031855.36899,   0.00000,274640135.82653,   0.00000,   0.00000,   0.00000,-8608280.45754,   0.00000
-54066696.65939,356002603.03807,152572151.06976,  -0.00094,   0.00173,   0.00198,467700470.01485,   0.00000,274640135.82653,   0.00000,   0.00000,   0.00000,-6939665.81167,   0.00000
-55588345.76380,356120922.95035,153408645.33331,  -0.00095,   0.00173,   0.00199,469372971.45815,   0.00000,274640135.82653,   0.00000,   0.00000,   0.00000,-5267164.36837,   0.00000
-57118249.74582,356219981.48156,154239636.34513,  -0.00095,   0.00173,   0.00201,471032300.15264,   0.00000,274640135.82653,   0.00000,   0.00000,   0.00000,-3607835.67388,   0.00000
-58675669.98650,356291523.75410,155070627.35694,  -0.00096,   0.00174,   0.00202,472686816.42372,   0.00000,274640135.82653,   0.00000,   0.00000,   0.00000,-1953319.40281,   0.00000
-60213828.84612,356371320.90424,155901618.36875,  -0.00097,   0.00174,   0.00203,474342333.23616,   0.00000,274640135.82653,   0.00000,   0.00000,   0.00000,-297802.59037,   0.00000
-60496570.62201,356380762.19377,156051685.18127,  -0.00097,   0.00174,   0.00203,474640160.55424,   0.00000,274640135.82653,   0.00000,   0.00000,   0.00000,  -0.44273,   0.00000
-61531763.15556,355471271.23986,156282851.08408,  -0.00098,   0.00174,   0.00204,474649075.90067,   0.00001,274649079.39953,  -0.00000,   0.00000,   0.00001,  -3.49886,   1.00000
-62782498.09438,354361720.55358,156567823.71334,  -0.00098,   0.00175,   0.00205,474659915.49007,   0.00002,274659925.46620,  -0.00001,   0.00001,   0.00001,  -9.97613,   1.00000
-64057974.07681,353231514.72121,156853526.24201,  -0.00099,   0.00175,   0.00206,474670736.75533,   0.00003,274670745.31505,  -0.00001,   0.00002,   0.00002,  -8.55972,   1.00000
-65330128.99114,352106011.25418,157133464.20225,  -0.00100,   0.00175,   0.00207,474681553.00761,   0.00004,274681558.90973,  -0.00001,   0.00002,   0.00003,  -5.90212,   1.00000
-66608355.32857,350970110.31621,157415128.87066,  -0.00100,   0.00175,   0.00208,474692323.03113,   0.00005,274692326.82342,  -0.00002,   0.00003,   0.00003,  -3.79228,   1.00000
-67900812.93470,349824685.55425,157693645.17395,  -0.00101,   0.00176,   0.00209,474703137.48576,   0.00006,274703145.75791,  -0.00002,   0.00003,   0.00004,  -8.27215,   1.00000
-69180718.47014,348679218.92024,157974923.08145,  -0.00102,   0.00176,   0.00210,474713890.00445,   0.00007,274713898.64894,  -0.00002,   0.00004,   0.00005,  -8.64449,   1.00000
-70486376.80713,347516534.81184,158253157.13401,  -0.00103,   0.00176,   0.00211,474724591.66460,   0.00008,274724591.81378,  -0.00003,   0.00005,   0.00006,  -0.14917,   1.00000
-71778423.59008,346349936.61270,158537784.33093,  -0.00103,   0.00177,   0.00212,474735252.87993,   0.00009,274735255.97145,  -0.00003,   0.00005,   0.00006,  -3.09152,   1.00000
-73085719.01869,345177502.92661,158815530.42960,  -0.00104,   0.00177,   0.00213,474745926.74240,   0.00010,274745936.20417,  -0.00004,   0.00006,   0.00007,  -9.46177,   1.00000
-74400212.32875,343998134.30292,159091292.25748,  -0.00105,   0.00177,   0.00214,474756527.12496,   0.00011,274756536.22954,  -0.00004,   0.00006,   0.00008,  -9.10458,   1.00000
-75709090.89781,342815898.33582,159368551.90836,  -0.00106,   0.00178,   0.00216,474767198.33703,   0.00012,274767204.01036,  -0.00004,   0.00007,   0.00008,  -5.67332,   1.00000
-77035779.77035,341614929.11899,159647563.85336,  -0.00106,   0.00178,   0.00217,474777713.82050,   0.00013,274777718.24585,  -0.00005,   0.00007,   0.00009,  -4.42535,   1.00000
-78357967.79333,340414824.00387,159924414.76296,  -0.00107,   0.00178,   0.00218,474788260.85506,   0.00013,274788264.04172,  -0.00005,   0.00008,   0.00010,  -3.18666,   1.00000
-79694105.86610,339205012.86332,160197922.46234,  -0.00108,   0.00178,   0.00219,474798856.93901,   0.00014,274798864.66672,  -0.00005,   0.00008,   0.00010,  -7.72770,   1.00000
-81028470.14842,337983033.45911,160477936.43869,  -0.00109,   0.00179,   0.00220,474809326.22369,   0.00015,274809326.88438,  -0.00006,   0.00009,   0.00011,  -0.66069,   1.00000
-82359518.27849,336765639.48873,160752165.85205,  -0.00109,   0.00179,   0.00221,474819774.76800,   0.00016,274819783.96009,  -0.00006,   0.00010,   0.00012,  -9.19209,   1.00000
-83704448.32920,335538496.13502,161023004.64466,  -0.00110,   0.00179,   0.00222,474830291.62556,   0.00017,274830296.81440,  -0.00006,   0.00010,   0.00013,  -5.18884,   1.00000
-85066117.74064,334288261.56129,161299087.86351,  -0.00111,   0.00179,   0.00223,474840687.03010,   0.00018,274840696.60168,  -0.00007,   0.00011,   0.00013,  -9.57158,   1.00000
-86406052.56016,333053276.87712,161570645.96510,  -0.00111,   0.00180,   0.00224,474851061.93157,   0.00019,274851066.86852,  -0.00007,   0.00011,   0.00014,  -4.93695,   1.00000
-87769212.03617,331792691.85730,161846014.60668,  -0.00112,   0.00180,   0.00225,474861459.17229,   0.00020,274861459.55758,  -0.00008,   0.00012,   0.00015,  -0.38530,   1.00000
-89129011.02413,330536668.34537,162115587.33191,  -0.00113,   0.00180,   0.00226,474871842.76575,   0.00021,274871847.61526,  -0.00008,   0.00012,   0.00015,  -4.84951,   1.00000
-90496220.77202,329273034.04802,162383088.15451,  -0.00114,   0.00180,   0.00227,474882158.08185,   0.00022,274882158.76010,  -0.00008,   0.00013,   0.00016,  -0.67825,   1.00000
-91868202.44134,327994352.36523,162655603.26332,  -0.00114,   0.00180,   0.00228,474892460.65279,   0.00023,274892469.04164,  -0.00009,   0.00013,   0.00017,  -8.38886,   1.00000
-93236846.29479,326720222.74983,162922335.18348,  -0.00115,   0.00181,   0.00229,474902767.47513,   0.00024,274902774.63564,  -0.00009,   0.00014,   0.00017,  -7.16051,   1.00000
-94612967.69577,325438307.28487,163186976.45042,  -0.00116,   0.00181,   0.00230,474912999.83033,   0.00025,274913004.08237,  -0.00009,   0.00014,   0.00018,  -4.25204,   1.00000
-95993837.14459,324141226.97283,163456583.79544,  -0.00117,   0.00181,   0.00231,474923232.01260,   0.00026,274923233.77819,  -0.00010,   0.00015,   0.00019,  -1.76559,   1.00000
-97382203.51747,322836224.82995,163724051.07102,  -0.00117,   0.00181,   0.00232,474933384.03496,   0.00027,274933388.37493,  -0.00010,   0.00015,   0.00019,  -4.33997,   1.00000
-98765845.97608,321532086.58063,163989261.30964,  -0.00118,   0.00181,   0.00233,474943572.48677,   0.00028,274943576.68825,  -0.00010,   0.00016,   0.00020,  -4.20147,   1.00000
-100157040.20619,320219924.57544,164252337.85218,  -0.00119,   0.00182,   0.00234,474953686.29816,   0.00029,274953690.12285,  -0.00011,   0.00016,   0.00021,  -3.82469,   1.00000
-101542059.08962,318905016.50496,164516671.18888,  -0.00120,   0.00182,   0.00235,474963868.77669,   0.00030,274963875.61421,  -0.00011,   0.00017,   0.00021,  -6.83752,   1.00000
-102936124.66463,317585601.77024,164775353.18052,  -0.00120,   0.00182,   0.00236,474973938.60668,   0.00030,274973948.26823,  -0.00012,   0.00017,   0.00022,  -9.66155,   1.00000
-104352994.22151,316239887.27815,165037423.82513,  -0.00121,   0.00182,   0.00237,474984048.81317,   0.00031,274984051.96836,  -0.00012,   0.00018,   0.00023,  -3.15519,   1.00000
-105748385.95317,314909546.38114,165295179.05635,  -0.00122,   0.00182,   0.00238,474994114.11357,   0.00032,274994123.26348,  -0.00012,   0.00018,   0.00024,  -9.14991,   1.00000
-107160867.83490,313554534.35863,165557852.92919,  -0.00123,   0.00182,   0.00239,475004085.90558,   0.00033,275004090.34711,  -0.00013,   0.00019,   0.00024,  -4.44154,   1.00000
-108557586.74924,312213228.14520,165814642.51620,  -0.00123,   0.00183,   0.00240,475014158.82753,   0.00034,275014160.96346,  -0.00013,   0.00019,   0.00025,  -2.13593,   1.00000
-109972961.36372,310850634.04909,166072826.21481,  -0.00124,   0.00183,   0.00241,475024088.34597,   0.00035,275024089.77093,  -0.00013,   0.00020,   0.00026,  -1.42496,   1.00000
-111403070.18702,309481499.38560,166323688.08236,  -0.00125,   0.00183,   0.00242,475034040.21043,   0.00036,275034044.33287,  -0.00014,   0.00020,   0.00026,  -4.12243,   1.00000
-112819701.32554,308107690.63212,166580830.90380,  -0.00125,   0.00183,   0.00243,475043967.79757,   0.00037,275043974.59292,  -0.00014,   0.00021,   0.00027,  -6.79535,   1.00000
-114233060.83485,306738328.14304,166832207.37822,  -0.00126,   0.00183,   0.00244,475053900.62066,   0.00038,275053900.70961,  -0.00014,   0.00021,   0.00028,  -0.08895,   1.00000
-115652581.87772,305356784.90314,167084824.05132,  -0.00127,   0.00183,   0.00245,475063786.91085,   0.00039,275063793.90579,  -0.00015,   0.00022,   0.00028,  -6.99494,   1.00000
-117079875.55217,303966535.69024,167335210.43651,  -0.00128,   0.00183,   0.00246,475073609.24910,   0.00040,275073615.52865,  -0.00015,   0.00022,   0.00029,  -6.27955,   1.00000
-118513319.16030,302563984.93875,167586793.22520,  -0.00128,   0.00184,   0.00247,475083396.57831,   0.00040,275083405.25039,  -0.00015,   0.00023,   0.00030,  -8.67208,   1.00000
-119941848.66642,301162331.67981,167836044.42833,  -0.00129,   0.00184,   0.00248,475093230.13778,   0.00041,275093230.40459,  -0.00016,   0.00023,   0.00030,  -0.26682,   1.00000
-121367124.25888,299765084.76199,168079538.53034,  -0.00130,   0.00184,   0.00249,475103046.71906,   0.00042,275103051.57731,  -0.00016,   0.00024,   0.00031,  -4.85825,   1.00000
-122809649.89154,298342093.18288,168327697.90804,  -0.00131,   0.00184,   0.00250,475112770.12093,   0.00043,275112775.04261,  -0.00017,   0.00024,   0.00032,  -4.92168,   1.00000
-124231103.79163,296934558.19371,168571787.43779,  -0.00131,   0.00184,   0.00251,475122457.34882,   0.00044,275122462.49516,  -0.00017,   0.00025,   0.00032,  -5.14634,   1.00000
-125676576.70128,295503405.85526,168815318.74404,  -0.00132,   0.00184,   0.00252,475132146.65273,   0.00045,275132151.84228,  -0.00017,   0.00025,   0.00033,  -5.18955,   1.00000
-127117067.67256,294073169.47417,169056501.28263,  -0.00133,   0.00184,   0.00253,475141872.24528,   0.00046,275141877.09561,  -0.00018,   0.00026,   0.00034,  -4.85033,   1.00000
-128547714.78614,292644898.45082,169297134.92726,  -0.00134,   0.00184,   0.00254,475151496.04041,   0.00047,275151499.78242,  -0.00018,   0.00026,   0.00034,  -3.74201,   1.00000
-130004062.76413,291196260.01398,169533711.73462,  -0.00134,   0.00184,   0.00255,475161081.41177,   0.00048,275161086.67860,  -0.00018,   0.00027,   0.00035,  -5.26683,   1.00000
-131435915.73632,289756262.85759,169773113.13997,  -0.00135,   0.00185,   0.00256,475170707.63608,   0.00048,275170715.69950,  -0.00019,   0.00027,   0.00036,  -8.06342,   1.00000
-132893443.80734,288295789.99143,170008400.92845,  -0.00136,   0.00185,   0.00257,475180302.05346,   0.00049,275180310.05195,  -0.00019,   0.00028,   0.00036,  -7.99849,   1.00000
-134341271.53380,286837078.06382,170243159.97470,  -0.00136,   0.00185,   0.00258,475189798.85321,   0.00050,275189802.08806,  -0.00019,   0.00028,   0.00037,  -3.23485,   1.00000
-135784107.12982,285379292.34850,170475569.14497,  -0.00137,   0.00185,   0.00259,475199322.05461,   0.00051,275199330.23096,  -0.00020,   0.00028,   0.00038,  -8.17636,   1.00000
-137233142.51527,283908631.83418,170709016.53215,  -0.00138,   0.00185,   0.00260,475208822.88159,   0.00052,275208830.48861,  -0.00020,   0.00029,   0.00038,  -7.60702,   1.00000
-138679024.75047,282442294.99933,170936738.97269,  -0.00139,   0.00185,   0.00261,475218318.37681,   0.00053,275218326.82755,  -0.00021,   0.00029,   0.00039,  -8.45074,   1.00000
-140142314.18827,280949057.17183,171168829.82767,  -0.00139,   0.00185,   0.00262,475227731.62618,   0.00054,275227732.70701,  -0.00021,   0.00030,   0.00040,  -1.08083,   1.00000
-141602427.55591,279460092.30012,171395168.68044,  -0.00140,   0.00185,   0.00263,475237129.96124,   0.00055,275237135.28373,  -0.00021,   0.00030,   0.00040,  -5.32249,   1.00000
-143039990.54797,277983318.02771,171621065.40818,  -0.00141,   0.00185,   0.00264,475246531.24073,   0.00055,275246538.15350,  -0.00022,   0.00031,   0.00041,  -6.91277,   1.00000
-144501259.73786,276482222.99483,171846007.81316,  -0.00142,   0.00185,   0.00265,475255946.22249,   0.00056,275255950.96302,  -0.00022,   0.00031,   0.00041,  -4.74053,   1.00000
-145953197.04262,274982528.55998,172070491.23927,  -0.00142,   0.00185,   0.00266,475265260.43922,   0.00057,275265261.17781,  -0.00022,   0.00032,   0.00042,  -0.73859,   1.00000
-147402061.41200,273487100.85927,172289273.88630,  -0.00143,   0.00185,   0.00267,475274558.72366,   0.00058,275274567.37874,  -0.00023,   0.00032,   0.00043,  -8.65509,   1.00000
-148857157.79625,271978443.81986,172509003.29714,  -0.00144,   0.00185,   0.00268,475283845.83787,   0.00059,275283848.08928,  -0.00023,   0.00032,   0.00043,  -2.25140,   1.00000
-150318450.67626,270456495.43731,172729632.94555,  -0.00144,   0.00185,   0.00269,475293101.35950,   0.00060,275293104.16578,  -0.00023,   0.00033,   0.00044,  -2.80628,   1.00000
-151776663.60611,268938800.04863,172944555.84744,  -0.00145,   0.00185,   0.00270,475302351.94497,   0.00061,275302356.45823,  -0.00024,   0.00033,   0.00045,  -4.51327,   1.00000
-153225816.57734,267422260.08209,173159089.79798,  -0.00146,   0.00185,   0.00270,475311499.29729,   0.00061,275311505.63413,  -0.00024,   0.00034,   0.00045,  -6.33684,   1.00000
-154696427.30613,265877776.94923,173375754.36555,  -0.00147,   0.00185,   0.00271,475320708.25534,   0.00062,275320710.15040,  -0.00024,   0.00034,   0.00046,  -1.89506,   1.00000
-156148788.35146,264352036.45794,173585476.64176,  -0.00147,   0.00185,   0.00272,475329829.25236,   0.00063,275329831.45698,  -0.00025,   0.00035,   0.00047,  -2.20462,   1.00000
-157607389.73004,262812788.84056,173796057.46300,  -0.00148,   0.00185,   0.00273,475338929.27210,   0.00064,275338929.35974,  -0.00025,   0.00035,   0.00047,  -0.08764,   1.00000
-159060885.55916,261274562.42416,174004263.93224,  -0.00149,   0.00185,   0.00274,475348058.96087,   0.00065,275348064.12626,  -0.00025,   0.00035,   0.00048,  -5.16539,   1.00000
-160522725.21650,259725948.38780,174210000.91677,  -0.00150,   0.00185,   0.00275,475357132.98507,   0.00066,275357135.16770,  -0.00026,   0.00036,   0.00049,  -2.18262,   1.00000
-161973631.26877,258175017.06583,174418674.97880,  -0.00150,   0.00185,   0.00276,475366137.01908,   0.00066,275366144.24086,  -0.00026,   0.00036,   0.00049,  -7.22178,   1.00000
-163421619.51841,256628286.73432,174621700.91146,  -0.00151,   0.00185,   0.00277,475375145.33072,   0.00067,275375148.85096,  -0.00027,   0.00037,   0.00050,  -3.52024,   1.00000
-164875858.27201,255067844.42206,174825513.95690,  -0.00152,   0.00185,   0.00278,475384123.26939,   0.00068,275384131.65525,  -0.00027,   0.00037,   0.00050,  -8.38585,   1.00000
-166338518.62816,253496773.64291,175026809.73030,  -0.00152,   0.00185,   0.00279,475393044.96875,   0.00069,275393051.98560,  -0.00027,   0.00037,   0.00051,  -7.01685,   1.00000
-167798251.31992,251929861.17869,175222455.23341,  -0.00153,   0.00185,   0.00279,475401961.20196,   0.00070,275401968.15215,  -0.00028,   0.00038,   0.00052,  -6.95019,   1.00000
-169261957.39470,250346009.52200,175422098.59607,  -0.00154,   0.00185,   0.00280,475410904.72334,   0.00071,275410905.13327,  -0.00028,   0.00038,   0.00052,  -0.40994,   1.00000
-170708036.68362,248780755.20584,175615081.15226,  -0.00154,   0.00185,   0.00281,475419753.92211,   0.00071,275419754.85465,  -0.00028,   0.00039,   0.00053,  -0.93253,   1.00000
-172160384.28979,247201580.16550,175808797.27224,  -0.00155,   0.00185,   0.00282,475428583.26819,   0.00072,275428584.16676,  -0.00029,   0.00039,   0.00054,  -0.89858,   1.00000
-173618960.73214,245608439.48543,176003204.39301,  -0.00156,   0.00185,   0.00283,475437393.30484,   0.00073,275437393.83431,  -0.00029,   0.00039,   0.00054,  -0.52947,   1.00000
-175057824.48800,244030790.08333,176194284.88615,  -0.00157,   0.00185,   0.00284,475446154.38855,   0.00074,275446156.54254,  -0.00029,   0.00040,   0.00055,  -2.15399,   1.00000
-176505296.02524,242442124.13693,176382813.65265,  -0.00157,   0.00185,   0.00285,475454848.35770,   0.00075,275454858.13808,  -0.00030,   0.00040,   0.00055,  -9.78038,   1.00000
-177975815.37335,240827997.68053,176569663.37927,  -0.00158,   0.00185,   0.00286,475463576.57990,   0.00075,275463584.07903,  -0.00030,   0.00041,   0.00056,  -7.49912,   1.00000
-179409947.04742,239240698.51475,176755595.30929,  -0.00159,   0.00185,   0.00286,475472210.96182,   0.00076,275472218.95911,  -0.00030,   0.00041,   0.00057,  -7.99729,   1.00000
-180855747.99839,237643149.44206,176936822.86500,  -0.00159,   0.00185,   0.00287,475480930.70754,   0.00077,275480933.97445,  -0.00031,   0.00041,   0.00057,  -3.26691,   1.00000
-182304842.99721,236030418.22988,177120816.07497,  -0.00160,   0.00185,   0.00288,475489487.69574,   0.00078,275489490.35949,  -0.00031,   0.00042,   0.00058,  -2.66375,   1.00000
-183737433.79575,234434171.78393,177299482.65561,  -0.00161,   0.00185,   0.00289,475498136.95252,   0.00079,275498138.26743,  -0.00031,   0.00042,   0.00058,  -1.31491,   1.00000
-185190099.07976,232811181.52251,177478493.47211,  -0.00161,   0.00184,   0.00290,475506668.45744,   0.00079,275506672.38778,  -0.00032,   0.00042,   0.00059,  -3.93034,   1.00000
-186623442.63603,231203611.05031,177654367.10004,  -0.00162,   0.00184,   0.00291,475515147.38993,   0.00080,275515156.82489,  -0.00032,   0.00043,   0.00060,  -9.43496,   1.00000
-188079648.77445,229570293.72244,177828363.34828,  -0.00163,   0.00184,   0.00291,475523663.64743,   0.00081,275523669.47568,  -0.00032,   0.00043,   0.00060,  -5.82825,   1.00000
-189514111.85539,227949494.74899,178002457.22981,  -0.00163,   0.00184,   0.00292,475532166.24478,   0.00082,275532174.07207,  -0.00033,   0.00043,   0.00061,  -7.82729,   1.00000
-190943319.46316,226331400.46258,178173199.11815,  -0.00164,   0.00184,   0.00293,475540523.65495,   0.00083,275540532.38332,  -0.00033,   0.00044,   0.00061,  -8.72837,   1.00000
-192364946.94426,224711585.48407,178344810.16167,  -0.00165,   0.00184,   0.00294,475548962.37700,   0.00083,275548969.33219,  -0.00033,   0.00044,   0.00062,  -6.95520,   1.00000
-193814364.99781,223071600.77954,178508044.67447,  -0.00165,   0.00184,   0.00295,475557350.74593,   0.00084,275557352.27764,  -0.00034,   0.00045,   0.00063,  -1.53171,   1.00000
-195237161.85444,221439782.91520,178676860.90995,  -0.00166,   0.00184,   0.00295,475565624.74431,   0.00085,275565627.16605,  -0.00034,   0.00045,   0.00063,  -2.42174,   1.00000
-196671255.74874,219797760.11691,178840777.66206,  -0.00167,   0.00184,   0.00296,475573980.51982,   0.00086,275573985.58087,  -0.00034,   0.00045,   0.00064,  -5.06105,   1.00000
-198100397.18252,218158087.71185,179001391.98786,  -0.00167,   0.00184,   0.00297,475582187.87401,   0.00086,275582197.60009,  -0.00035,   0.00046,   0.00064,  -9.72608,   1.00000
-199505544.00972,216528166.57530,179165459.45362,  -0.00168,   0.00183,   0.00298,475590437.52034,   0.00087,275590441.06681,  -0.00035,   0.00046,   0.00065,  -3.54647,   1.00000
-200938528.81059,214877723.72371,179321046.04324,  -0.00169,   0.00183,   0.00299,475598627.89392,   0.00088,275598632.83832,  -0.00035,   0.00046,   0.00066,  -4.94440,   1.00000
-202361504.95444,213223875.10630,179479698.10645,  -0.00169,   0.00183,   0.00299,475606759.79074,   0.00089,275606763.03160,  -0.00036,   0.00047,   0.00066,  -3.24085,   1.00000
-203779375.38506,211571216.35493,179636014.80716,  -0.00170,   0.00183,   0.00300,475614925.32077,   0.00089,275614930.00015,  -0.00036,   0.00047,   0.00067,  -4.67937,   1.00000
-205192674.38488,209920544.71063,179789100.07034,  -0.00171,   0.00183,   0.00301,475622947.51477,   0.00090,275622950.00618,  -0.00036,   0.00047,   0.00067,  -2.49141,   1.00000
-206598232.40667,208268350.45374,179943030.26811,  -0.00171,   0.00183,   0.00302,475631044.96078,   0.00091,275631049.01493,  -0.00037,   0.00048,   0.00068,  -4.05415,   1.00000
-208015482.85467,206606652.51155,180091055.36906,  -0.00172,   0.00183,   0.00303,475639040.89581,   0.00092,275639049.92805,  -0.00037,   0.00048,   0.00068,  -9.03223,   1.00000
-209411583.64049,204957514.27071,180239498.83149,  -0.00173,   0.00182,   0.00303,475647035.60347,   0.00092,275647037.77548,  -0.00037,   0.00048,   0.00069,  -2.17201,   1.00000
-210816745.14892,203296054.54705,180385184.27956,  -0.00173,   0.00182,   0.00304,475654961.57774,   0.00093,275654970.45181,  -0.00038,   0.00049,   0.00070,  -8.87408,   1.00000
-212228192.81072,201619570.90143,180531224.56695,  -0.00174,   0.00182,   0.00305,475662888.49646,   0.00094,275662891.28486,  -0.00038,   0.00049,   0.00070,  -2.78840,   1.00000
-213621349.20304,199958275.91900,180674583.45804,  -0.00175,   0.00182,   0.00306,475670752.67790,   0.00095,275670755.68659,  -0.00038,   0.00049,   0.00071,  -3.00869,   1.00000
-215012281.94587,198300830.57247,180812538.29149,  -0.00175,   0.00182,   0.00306,475678606.72589,   0.00095,275678613.11388,  -0.00039,   0.00050,   0.00071,  -6.38799,   1.00000
-216404961.01943,196623205.19111,180956238.32860,  -0.00176,   0.00182,   0.00307,475686356.32994,   0.00096,275686361.31110,  -0.00039,   0.00050,   0.00072,  -4.98116,   1.00000
-217799977.16703,194954488.27578,181089111.88327,  -0.00177,   0.00181,   0.00308,475694192.70779,   0.00097,275694200.66056,  -0.00039,   0.00050,   0.00072,  -7.95277,   1.00000
-219183767.93830,193279311.31352,181227417.43306,  -0.00177,   0.00181,   0.00309,475701833.62696,   0.00097,275701837.34079,  -0.00040,   0.00051,   0.00073,  -3.71383,   1.00000
-220578360.36471,191594050.50004,181360586.44847,  -0.00178,   0.00181,   0.00309,475709556.04647,   0.00098,275709561.68682,  -0.00040,   0.00051,   0.00074,  -5.64035,   1.00000
-221955018.58050,189923879.89645,181491235.17898,  -0.00178,   0.00181,   0.00310,475717220.68859,   0.00099,275717227.23871,  -0.00040,   0.00051,   0.00074,  -6.55012,   1.00000
-223322278.41640,188249687.55866,181625045.12734,  -0.00179,   0.00181,   0.00311,475724820.76546,   0.00100,275724830.74102,  -0.00041,   0.00051,   0.00075,  -9.97556,   1.00000
-224701697.31749,186565134.53917,181752897.08576,  -0.00180,   0.00180,   0.00311,475732331.66498,   0.00100,275732338.43668,  -0.00041,   0.00052,   0.00075,  -6.77170,   1.00000
-226073210.72640,184879342.23509,181881590.60157,  -0.00180,   0.00180,   0.00312,475739921.89931,   0.00101,275739925.11563,  -0.00041,   0.00052,   0.00076,  -3.21633,   1.00000
-227430013.93032,183211027.36897,182004776.79286,  -0.00181,   0.00180,   0.00313,475747406.31864,   0.00102,275747408.09163,  -0.00042,   0.00052,   0.00076,  -1.77299,   1.00000
-228804435.85206,181510513.38746,182130643.44814,  -0.00181,   0.00180,   0.00314,475754832.66184,   0.00102,275754838.04001,  -0.00042,   0.00053,   0.00077,  -5.37817,   1.00000
-230150057.90088,179841709.95203,182251699.78571,  -0.00182,   0.00180,   0.00314,475762247.31797,   0.00103,275762250.83962,  -0.00042,   0.00053,   0.00077,  -3.52165,   1.00000
-231516294.87652,178142975.49619,182372296.92860,  -0.00183,   0.00179,   0.00315,475769566.30095,   0.00104,275769568.39378,  -0.00043,   0.00053,   0.00078,  -2.09284,   1.00000
-232866343.39893,176462341.31928,182488250.73223,  -0.00183,   0.00179,   0.00316,475776961.32582,   0.00104,275776964.68462,  -0.00043,   0.00053,   0.00078,  -3.35880,   1.00000
-234221530.58208,174762838.45854,182606698.78092,  -0.00184,   0.00179,   0.00316,475784209.41213,   0.00105,275784212.91705,  -0.00043,   0.00054,   0.00079,  -3.50492,   1.00000
-235559449.56813,173078166.00349,182722874.48931,  -0.00184,   0.00179,   0.00317,475791393.29009,   0.00106,275791398.71283,  -0.00044,   0.00054,   0.00079,  -5.42273,   1.00000
-236892532.92150,171394754.55849,182836854.80933,  -0.00185,   0.00179,   0.00318,475798610.76999,   0.00106,275798619.32577,  -0.00044,   0.00054,   0.00080,  -8.55578,   1.00000
-238235046.17369,169697963.78638,182947901.35235,  -0.00186,   0.00178,   0.00318,475805782.02091,   0.00107,275805789.50329,  -0.00044,   0.00055,   0.00080,  -7.48237,   1.00000
-239560489.51957,168015948.09768,183056768.07114,  -0.00186,   0.00178,   0.00319,475812894.67326,   0.00108,275812895.86572,  -0.00044,   0.00055,   0.00081,  -1.19246,   1.00000
-240895407.87106,166320427.42783,183162687.42640,  -0.00187,   0.00178,   0.00320,475819944.42376,   0.00108,275819952.25230,  -0.00045,   0.00055,   0.00082,  -7.82854,   1.00000
-242221438.32296,164620238.56270,183271817.76259,  -0.00187,   0.00178,   0.00320,475826939.80840,   0.00109,275826946.91337,  -0.00045,   0.00055,   0.00082,  -7.10498,   1.00000
-243545787.77255,162923573.87175,183375695.42760,  -0.00188,   0.00177,   0.00321,475833929.88613,   0.00110,275833932.87281,  -0.00045,   0.00056,   0.00083,  -2.98667,   1.00000
-244850183.98668,161239329.75584,183480552.50635,  -0.00188,   0.00177,   0.00322,475840890.48667,   0.00110,275840897.09388,  -0.00046,   0.00056,   0.00083,  -6.60721,   1.00000
-246167314.42234,159543607.32731,183579376.85150,  -0.00189,   0.00177,   0.00322,475847762.93841,   0.00111,275847768.52140,  -0.00046,   0.00056,   0.00084,  -5.58300,   1.00000
-247475719.69532,157843022.85882,183681432.12472,  -0.00190,   0.00177,   0.00323,475854571.17377,   0.00112,275854578.20982,  -0.00046,   0.00056,   0.00084,  -7.03606,   1.00000
-248782573.51867,156145887.59379,183778275.32434,  -0.00190,   0.00176,   0.00323,475861372.98853,   0.00112,275861378.68264,  -0.00047,   0.00057,   0.00085,  -5.69410,   1.00000
-250095760.54773,154432715.83137,183875131.74641,  -0.00191,   0.00176,   0.00324,475868167.57016,   0.00113,275868174.85844,  -0.00047,   0.00057,   0.00085,  -7.28828,   1.00000
-251380717.16683,152747281.12395,183970201.86101,  -0.00191,   0.00176,   0.00325,475874798.07890,   0.00113,275874803.04592,  -0.00047,   0.00057,   0.00086,  -4.96702,   1.00000
-252672693.61062,151049905.87390,184062951.43328,  -0.00192,   0.00175,   0.00325,475881561.96552,   0.00114,275881566.39811,  -0.00047,   0.00057,   0.00086,  -4.43259,   1.00000
-253947778.45365,149362750.99493,184156143.76806,  -0.00192,   0.00175,   0.00326,475888117.34248,   0.00115,275888122.37801,  -0.00048,   0.00058,   0.00087,  -5.03554,   1.00000
-255247407.76760,147650453.66874,184243007.10140,  -0.00193,   0.00175,   0.00326,475894681.82847,   0.00115,275894689.25989,  -0.00048,   0.00058,   0.00087,  -7.43142,   1.00000
-256512697.75333,145961471.55425,184334330.42686,  -0.00193,   0.00175,   0.00327,475901168.56880,   0.00116,275901173.13392,  -0.00048,   0.00058,   0.00087,  -4.56512,   1.00000
-257776713.01795,144275803.39018,184420531.55312,  -0.00194,   0.00174,   0.00328,475907639.10571,   0.00116,275907646.52571,  -0.00049,   0.00058,   0.00088,  -7.42001,   1.00000
-259050471.75951,142575897.20744,184503668.86476,  -0.00194,   0.00174,   0.00328,475914066.07718,   0.00117,275914073.00634,  -0.00049,   0.00059,   0.00088,  -6.92916,   1.00000
-260315884.81975,140870657.27343,184590072.98157,  -0.00195,   0.00174,   0.00329,475920431.26286,   0.00118,275920437.87392,  -0.00049,   0.00059,   0.00089,  -6.61106,   1.00000
-261580041.88461,139168678.56315,184671346.88768,  -0.00196,   0.00173,   0.00329,475926787.70675,   0.00118,275926792.52114,  -0.00049,   0.00059,   0.00089,  -4.81438,   1.00000
-262828348.34196,137480902.54846,184750887.82797,  -0.00196,   0.00173,   0.00330,475933072.46161,   0.00119,275933076.88387,  -0.00050,   0.00059,   0.00090,  -4.42226,   1.00000
-264071873.61282,135789611.33351,184830714.41966,  -0.00197,   0.00173,   0.00331,475939249.31669,   0.00119,275939255.32198,  -0.00050,   0.00060,   0.00090,  -6.00529,   1.00000
-265325220.31700,134083795.08087,184907414.68709,  -0.00197,   0.00172,   0.00331,475945380.40528,   0.00120,275945388.29055,  -0.00050,   0.00060,   0.00091,  -7.88527,   1.00000
-266559508.65716,132390112.97160,184985461.54775,  -0.00198,   0.00172,   0.00332,475951489.21404,   0.00121,275951493.99582,  -0.00050,   0.00060,   0.00091,  -4.78178,   1.00000
-267792747.18834,130699577.14921,185058445.48522,  -0.00198,   0.00172,   0.00332,475957580.53741,   0.00121,275957588.55604,  -0.00051,   0.00060,   0.00092,  -8.01863,   1.00000
-269021403.54381,129005258.38773,185131733.30657,  -0.00199,   0.00172,   0.00333,475963574.19833,   0.00122,275963577.27251,  -0.00051,   0.00060,   0.00092,  -3.07418,   1.00000
-270245599.55807,127312162.37408,185202981.72289,  -0.00199,   0.00171,   0.00333,475969595.39221,   0.00122,275969598.63953,  -0.00051,   0.00061,   0.00092,  -3.24732,   1.00000
-271468780.20469,125617006.87448,185271527.32138,  -0.00200,   0.00171,   0.00334,475975464.89194,   0.00123,275975470.38463,  -0.00052,   0.00061,   0.00093,  -5.49269,   1.00000
-272673215.45665,123933878.07299,185341548.45746,  -0.00200,   0.00171,   0.00334,475981308.82807,   0.00123,275981312.89880,  -0.00052,   0.00061,   0.00093,  -4.07073,   1.00000
-273887607.16071,122235868.59364,185408388.43697,  -0.00200,   0.00170,   0.00335,475987111.16349,   0.00124,275987111.34623,  -0.00052,   0.00061,   0.00094,  -0.18274,   1.00000
-275086863.00600,120551645.87596,185473732.52036,  -0.00201,   0.00170,   0.00335,475992827.65732,   0.00124,275992836.14811,  -0.00052,   0.00061,   0.00094,  -8.49079,   1.00000
-276292555.34810,118850655.76669,185538871.55389,  -0.00201,   0.00170,   0.00336,475998555.11967,   0.00125,275998561.42782,  -0.00053,   0.00062,   0.00095,  -6.30815,   1.00000
-277472627.21525,117175893.00298,185603121.18994,  -0.00202,   0.00169,   0.00336,476004104.41397,   0.00125,276004105.79986,  -0.00053,   0.00062,   0.00095,  -1.38588,   1.00000
-278673320.50156,115473530.51744,185663579.25549,  -0.00202,   0.00169,   0.00337,476009707.85767,   0.00126,276009713.80454,  -0.00053,   0.00062,   0.00095,  -5.94688,   1.00000
-279848422.20698,113802846.73676,185720905.27840,  -0.00203,   0.00168,   0.00337,476015271.19554,   0.00126,276015277.24591,  -0.00053,   0.00062,   0.00096,  -6.05037,   1.00000
-281026612.73112,112107897.27132,185783304.61442,  -0.00203,   0.00168,   0.00338,476020744.44782,   0.00127,276020748.62324,  -0.00054,   0.00062,   0.00096,  -4.17542,   1.00000
-282193724.50233,110428162.21257,185841360.05182,  -0.00204,   0.00168,   0.00338,476026096.82726,   0.00127,276026100.24738,  -0.00054,   0.00063,   0.00097,  -3.42013,   1.00000
-283356635.01322,108749563.75175,185897468.94165,  -0.00204,   0.00167,   0.00339,476031477.47055,   0.00128,276031483.16637,  -0.00054,   0.00063,   0.00097,  -5.69581,   1.00000
-284515672.50085,107066260.32560,185953949.98656,  -0.00205,   0.00167,   0.00339,476036758.66914,   0.00128,276036760.28893,  -0.00054,   0.00063,   0.00097,  -1.61979,   1.00000
-285674174.54023,105385721.64064,186005502.38789,  -0.00205,   0.00167,   0.00340,476042019.27844,   0.00129,276042024.61847,  -0.00055,   0.00063,   0.00098,  -5.34003,   1.00000
-286818292.85105,103718535.94273,186055819.96860,  -0.00205,   0.00166,   0.00340,476047209.48742,   0.00129,276047211.54208,  -0.00055,   0.00063,   0.00098,  -2.05466,   1.00000
-287958719.51736,102046413.43008,186106536.30188,  -0.00206,   0.00166,   0.00341,476052284.67631,   0.00130,276052292.54187,  -0.00055,   0.00063,   0.00099,  -7.86556,   1.00000
-289105608.75803,100357139.00805,186156920.93972,  -0.00206,   0.00166,   0.00341,476057368.15288,   0.00130,276057376.68369,  -0.00055,   0.00064,   0.00099,  -8.53082,   1.00000
-290238288.72214,98681071.40097,186206108.77200,  -0.00207,   0.00165,   0.00341,476062378.49458,   0.00131,276062382.93723,  -0.00055,   0.00064,   0.00099,  -4.44265,   1.00000
-291356879.17887,97018150.77931,186254144.18989,  -0.00207,   0.00165,   0.00342,476067302.95618,   0.00131,276067310.62603,  -0.00056,   0.00064,   0.00100,  -7.66984,   1.00000
-292485696.24358,95339504.60311,186298854.15816,  -0.00208,   0.00164,   0.00342,476072194.32598,   0.00132,276072197.79140,  -0.00056,   0.00064,   0.00100,  -3.46543,   1.00000
-293600539.46536,93673904.39370,186342446.56641,  -0.00208,   0.00164,   0.00343,476076998.16268,   0.00132,276077005.97070,  -0.00056,   0.00064,   0.00100,  -7.80802,   1.00000
-294701545.69789,92021296.52592,186384977.24403,  -0.00208,   0.00164,   0.00343,476081734.16035,   0.00133,276081734.28667,  -0.00056,   0.00064,   0.00101,  -0.12631,   1.00000
-295809053.98388,90351334.90041,186427126.30177,  -0.00209,   0.00163,   0.00344,476086466.20504,   0.00133,276086466.85901,  -0.00057,   0.00064,   0.00101,  -0.65397,   1.00000
-296902822.75270,88694280.97629,186468235.78635,  -0.00209,   0.00163,   0.00344,476091118.26637,   0.00133,276091119.29140,  -0.00057,   0.00065,   0.00102,  -1.02503,   1.00000
-297993357.78297,87031634.42901,186509773.32923,  -0.00209,   0.00162,   0.00344,476095665.06423,   0.00134,276095666.08932,  -0.00057,   0.00065,   0.00102,  -1.02509,   1.00000
-299070334.60686,85381764.39355,186550323.07311,  -0.00210,   0.00162,   0.00345,476100128.85460,   0.00134,276100132.01501,  -0.00057,   0.00065,   0.00102,  -3.16042,   1.00000
-300157652.93918,83715787.51073,186587479.07911,  -0.00210,   0.00162,   0.00345,476104553.68224,   0.00135,276104559.02486,  -0.00057,   0.00065,   0.00103,  -5.34262,   1.00000
-301221213.08013,82080988.99221,186622317.66945,  -0.00211,   0.00161,   0.00345,476108928.07781,   0.00135,276108928.49379,  -0.00058,   0.00065,   0.00103,  -0.41598,   1.00000
-302301594.07905,80410116.82404,186658066.48606,  -0.00211,   0.00161,   0.00346,476113272.78215,   0.00136,276113279.96451,  -0.00058,   0.00065,   0.00103,  -7.18236,   1.00000
-303358361.76982,78770378.86548,186691559.39751,  -0.00211,   0.00160,   0.00346,476117565.71431,   0.00136,276117572.91022,  -0.00058,   0.00065,   0.00103,  -7.19591,   1.00000
-304416097.47287,77125916.09038,186722558.99213,  -0.00212,   0.00160,   0.00347,476121706.95459,   0.00136,276121715.99793,  -0.00058,   0.00066,   0.00104,  -9.04334,   1.00000
-305467061.88546,75474019.75990,186756966.01918,  -0.00212,   0.00160,   0.00347,476125796.07753,   0.00137,276125797.90264,  -0.00058,   0.00066,   0.00104,  -1.82511,   1.00000
-306507988.23786,73842914.11469,186785344.28134,  -0.00212,   0.00159,   0.00347,476129877.64304,   0.00137,276129886.98134,  -0.00058,   0.00066,   0.00104,  -9.33830,   1.00000
-307529039.52042,72214472.11225,186821077.29185,  -0.00213,   0.00159,   0.00348,476133838.47445,   0.00137,276133846.51820,  -0.00059,   0.00066,   0.00105,  -8.04374,   1.00000
-308577664.52876,70560593.66725,186846461.35317,  -0.00213,   0.00158,   0.00348,476137790.96696,   0.00138,276137792.78538,  -0.00059,   0.00066,   0.00105,  -1.81842,   1.00000
-309600260.59292,68929086.17790,186875002.55924,  -0.00213,   0.00158,   0.00348,476141578.80632,   0.00138,276141587.17183,  -0.00059,   0.00066,   0.00105,  -8.36551,   1.00000
-310619266.47305,67298430.27785,186901803.28456,  -0.00214,   0.00157,   0.00349,476145407.07947,   0.00139,276145409.86989,  -0.00059,   0.00066,   0.00106,  -2.79043,   1.00000
-311635669.85957,65661207.63325,186929068.45450,  -0.00214,   0.00157,   0.00349,476149125.00293,   0.00139,276149127.47149,  -0.00059,   0.00066,   0.00106,  -2.46855,   1.00000
-312639445.70228,64036045.04198,186955626.52087,  -0.00214,   0.00157,   0.00349,476152759.69374,   0.00139,276152760.34813,  -0.00060,   0.00067,   0.00106,  -0.65439,   1.00000
-313630701.36663,62422874.74939,186981514.95061,  -0.00215,   0.00156,   0.00349,476156300.93526,   0.00140,276156307.94338,  -0.00060,   0.00067,   0.00106,  -7.00812,   1.00000
-314622503.26426,60811625.06766,187002766.84147,  -0.00215,   0.00156,   0.00350,476159829.70961,   0.00140,276159838.91971,  -0.00060,   0.00067,   0.00107,  -9.21009,   1.00000
-315611937.14162,59193497.39761,187024519.45641,  -0.00215,   0.00155,   0.00350,476163261.93230,   0.00140,276163264.56144,  -0.00060,   0.00067,   0.00107,  -2.62915,   1.00000
-316594979.58989,57567314.25261,187049686.75835,  -0.00215,   0.00155,   0.00350,476166625.66987,   0.00141,276166629.60733,  -0.00060,   0.00067,   0.00107,  -3.93747,   1.00000
-317572712.90879,55962824.38058,187066196.30769,  -0.00216,   0.00154,   0.00351,476169945.56625,   0.00141,276169952.60984,  -0.00060,   0.00067,   0.00107,  -7.04359,   1.00000
-318531338.95075,54360087.29554,187090207.96546,  -0.00216,   0.00154,   0.00351,476173143.01201,   0.00141,276173144.65530,  -0.00060,   0.00067,   0.00108,  -1.64328,   1.00000
-319504638.45192,52741285.37302,187107707.77562,  -0.00216,   0.00153,   0.00351,476176254.57054,   0.00141,276176257.75618,  -0.00061,   0.00067,   0.00108,  -3.18564,   1.00000
-320451945.48798,51151881.78102,187126592.30895,  -0.00217,   0.00153,   0.00351,476179345.47431,   0.00142,276179345.56183,  -0.00061,   0.00067,   0.00108,  -0.08751,   1.00000
-321397183.52879,49555129.46050,187145994.52204,  -0.00217,   0.00153,   0.00352,476182327.76010,   0.00142,276182328.24385,  -0.00061,   0.00067,   0.00108,  -0.48375,   1.00000
-322343240.51621,47960011.92732,187160816.31955,  -0.00217,   0.00152,   0.00352,476185286.00390,   0.00142,276185293.68813,  -0.00061,   0.00067,   0.00109,  -7.68424,   1.00000
-323287274.15592,46357402.49602,187176142.23774,  -0.00217,   0.00152,   0.00352,476188149.11360,   0.00143,276188154.41879,  -0.00061,   0.00068,   0.00109,  -5.30519,   1.00000
-324219543.51709,44766116.19491,187191014.62208,  -0.00218,   0.00151,   0.00352,476190923.03517,   0.00143,276190927.00677,  -0.00061,   0.00068,   0.00109,  -3.97160,   1.00000
-325136011.74721,43185167.41670,187208398.44605,  -0.00218,   0.00151,   0.00353,476193648.91438,   0.00143,276193655.13965,  -0.00061,   0.00068,   0.00109,  -6.22526,   1.00000
-326054768.57448,41597384.36849,187223369.29749,  -0.00218,   0.00150,   0.00353,476196230.62698,   0.00143,276196234.37894,  -0.00062,   0.00068,   0.00109,  -3.75195,   1.00000
-326960686.32699,40029105.42762,187235844.18108,  -0.00218,   0.00150,   0.00353,476198852.90394,   0.00144,276198855.32412,  -0.00062,   0.00068,   0.00110,  -2.42018,   1.00000
-327869003.61409,38453816.34874,187245921.68750,  -0.00218,   0.00149,   0.00353,476201322.48861,   0.00144,276201327.32925,  -0.00062,   0.00068,   0.00110,  -4.84063,   1.00000
-328758944.65489,36879326.51959,187263624.89741,  -0.00219,   0.00149,   0.00353,476203667.04852,   0.00144,276203667.33836,  -0.00062,   0.00068,   0.00110,  -0.28983,   1.00000
-329662423.88870,35296560.23828,187272616.61089,  -0.00219,   0.00148,   0.00354,476206057.59354,   0.00144,276206061.32514,  -0.00062,   0.00068,   0.00110,  -3.73159,   1.00000
-330542227.08550,33734253.21268,187285497.61255,  -0.00219,   0.00148,   0.00354,476208286.11059,   0.00144,276208293.21991,  -0.00062,   0.00068,   0.00110,  -7.10932,   1.00000
-331415112.33043,32183527.44805,187295194.38325,  -0.00219,   0.00147,   0.00354,476210387.33059,   0.00145,276210390.10116,  -0.00062,   0.00068,   0.00110,  -2.77057,   1.00000
-332280823.97278,30632459.03441,187306276.75841,  -0.00219,   0.00147,   0.00354,476212553.58724,   0.00145,276212556.56113,  -0.00062,   0.00068,   0.00111,  -2.97389,   1.00000
-333149247.23801,29073806.14378,187314969.31906,  -0.00220,   0.00146,   0.00354,476214570.29692,   0.00145,276214574.55101,  -0.00062,   0.00068,   0.00111,  -4.25408,   1.00000
-334006706.96940,27525755.61110,187323443.84967,  -0.00220,   0.00146,   0.00354,476216497.36030,   0.00145,276216501.21211,  -0.00063,   0.00068,   0.00111,  -3.85181,   1.00000
-334862721.76676,25969179.56236,187332443.21206,  -0.00220,   0.00145,   0.00355,476218315.17265,   0.00145,276218323.91003,  -0.00063,   0.00068,   0.00111,  -8.73737,   1.00000
-335698504.71792,24442120.95917,187340560.39171,  -0.00220,   0.00145,   0.00355,476220057.86043,   0.00145,276220066.80741,  -0.00063,   0.00068,   0.00111,  -8.94699,   1.00000
-336540863.26292,22896323.73279,187347871.25654,  -0.00220,   0.00144,   0.00355,476221815.36955,   0.00146,276221822.71230,  -0.00063,   0.00068,   0.00111,  -7.34274,   1.00000
-337376802.27373,21361538.78003,187352119.86026,  -0.00221,   0.00144,   0.00355,476223435.10703,   0.00146,276223442.16437,  -0.00063,   0.00068,   0.00111,  -7.05733,   1.00000
-338195049.33189,19826598.08431,187364112.48397,  -0.00221,   0.00143,   0.00355,476224920.22375,   0.00146,276224928.66068,  -0.00063,   0.00069,   0.00112,  -8.43693,   1.00000
-339009860.20495,18312269.14682,187368161.13353,  -0.00221,   0.00143,   0.00355,476226361.87077,   0.00146,276226362.25750,  -0.00063,   0.00069,   0.00112,  -0.38673,   1.00000
-339819181.33753,16788339.25906,187375675.33073,  -0.00221,   0.00142,   0.00355,476227734.55560,   0.00146,276227736.10352,  -0.00063,   0.00069,   0.00112,  -1.54792,   1.00000
-340630109.13754,15265233.52081,187378803.59010,  -0.00221,   0.00142,   0.00355,476229088.64355,   0.00146,276229090.30798,  -0.00063,   0.00069,   0.00112,  -1.66442,   1.00000
-341427896.30705,13742212.48044,187386795.76192,  -0.00221,   0.00141,   0.00356,476230264.84683,   0.00146,276230267.21569,  -0.00063,   0.00069,   0.00112,  -2.36887,   1.00000
-342218171.27116,12239057.99856,187389857.23610,  -0.00221,   0.00141,   0.00356,476231430.21026,   0.00147,276231433.86776,  -0.00063,   0.00069,   0.00112,  -3.65750,   1.00000
-342995486.65084,10735768.13976,187397827.51407,  -0.00221,   0.00140,   0.00356,476232420.01048,   0.00147,276232422.69979,  -0.00063,   0.00069,   0.00112,  -2.68931,   1.00000
-343774581.58931,9233115.57075,187401457.42426,  -0.00222,   0.00140,   0.00356,476233390.83517,   0.00147,276233391.31307,  -0.00063,   0.00069,   0.00112,  -0.47790,   1.00000
-344543598.29722,7740173.36697,187405125.48621,  -0.00222,   0.00139,   0.00356,476234261.44090,   0.00147,276234265.22957,  -0.00063,   0.00069,   0.00112,  -3.78867,   1.00000
-345311686.34846,6237698.69777,187409340.09454,  -0.00222,   0.00139,   0.00356,476235028.25194,   0.00147,276235035.88014,  -0.00063,   0.00069,   0.00112,  -7.62819,   1.00000
-346069812.27408,4744780.95930,187413618.97622,  -0.00222,   0.00138,   0.00356,476235705.40535,   0.00147,276235711.55354,  -0.00063,   0.00069,   0.00112,  -6.14818,   1.00000
-346809054.52179,3280528.86651,187417548.15287,  -0.00222,   0.00138,   0.00356,476236297.80747,   0.00147,276236299.37081,  -0.00063,   0.00069,   0.00112,  -1.56334,   1.00000
-347568253.20889,1778337.52920,187418062.53840,  -0.00222,   0.00137,   0.00356,476236849.99024,   0.00147,276236851.46607,  -0.00063,   0.00069,   0.00112,  -1.47583,   1.00000
-348292535.55960,313237.59299,187425593.52193,  -0.00222,   0.00137,   0.00356,476237279.18020,   0.00147,276237284.19557,  -0.00064,   0.00069,   0.00113,  -5.01537,   1.00000
-349023297.73914,-1151113.54180,187425958.83088,  -0.00222,   0.00136,   0.00356,476237642.47871,   0.00147,276237651.56487,  -0.00064,   0.00069,   0.00113,  -9.08616,   1.00000
-349741685.25384,-2616568.82649,187431324.73933,  -0.00222,   0.00136,   0.00356,476237833.57298,   0.00147,276237840.59819,  -0.00064,   0.00069,   0.00113,  -7.02521,   1.00000
-350457720.98175,-4082131.89155,187435335.34099,  -0.00222,   0.00135,   0.00356,476238047.78724,   0.00147,276238052.53057,  -0.00064,   0.00069,   0.00113,  -4.74333,   1.00000
-351168704.82357,-5538283.04534,187436645.72872,  -0.00222,   0.00135,   0.00356,476238121.77174,   0.00147,276238123.59388,  -0.00064,   0.00069,   0.00113,  -1.82214,   1.00000
-351865788.15611,-6985768.49326,187441083.79277,  -0.00222,   0.00134,   0.00356,476238134.31898,   0.00147,276238141.63964,  -0.00064,   0.00069,   0.00113,  -7.32066,   1.00000
-352553694.62284,-8444130.20273,187441083.79277,  -0.00222,   0.00134,   0.00356,476225662.16707,   0.00147,276238141.63964,  -0.00064,   0.00069,   0.00113,-12479.47257,   0.00000
-353222339.70851,-9894237.03461,187430077.28930,  -0.00222,   0.00133,   0.00356,476192349.01316,   0.00147,276238141.63964,  -0.00064,   0.00069,   0.00113,-45792.62648,   0.00000
-353882729.91657,-11325082.48541,187419070.78583,  -0.00222,   0.00133,   0.00356,476163015.36628,   0.00147,276238141.63964,  -0.00064,   0.00069,   0.00113,-75126.27336,   0.00000
-354512852.24010,-12758679.56209,187402561.03063,  -0.00222,   0.00132,   0.00356,476107330.40746,   0.00147,276238141.63964,  -0.00064,   0.00069,   0.00113,-130811.23218,   0.00000
-355123713.18256,-14184021.76116,187375044.77196,  -0.00222,   0.00132,   0.00356,476030648.03864,   0.00147,276238141.63964,  -0.00064,   0.00069,   0.00113,-207493.60100,   0.00000
-355742829.00262,-15628625.34130,187347528.51329,  -0.00222,   0.00131,   0.00356,475956649.54345,   0.00147,276238141.63964,  -0.00064,   0.00069,   0.00113,-281492.09619,   0.00000
-356315167.18294,-17037457.78517,187314509.00289,  -0.00222,   0.00131,   0.00356,475857378.38377,   0.00147,276238141.63964,  -0.00064,   0.00069,   0.00113,-380763.25587,   0.00000
-356895760.24086,-18465551.61011,187275986.24075,  -0.00222,   0.00130,   0.00356,475754315.02126,   0.00147,276238141.63964,  -0.00064,   0.00069,   0.00113,-483826.61838,   0.00000
-357448837.04012,-19866129.17638,187231960.22688,  -0.00222,   0.00129,   0.00356,475637078.25442,   0.00147,276238141.63964,  -0.00064,   0.00069,   0.00113,-601063.38522,   0.00000
-357990907.33590,-21277713.24611,187176927.70954,  -0.00222,   0.00129,   0.00356,475498275.22874,   0.00147,276238141.63964,  -0.00064,   0.00069,   0.00113,-739866.41090,   0.00000
-358494454.86955,-22672787.56065,187121895.19220,  -0.00222,   0.00128,   0.00356,475339953.96140,   0.00147,276238141.63964,  -0.00064,   0.00069,   0.00113,-898187.67824,   0.00000
-359006257.28080,-24087123.25625,187061359.42313,  -0.00222,   0.00128,   0.00356,475177978.10118,   0.00147,276238141.63964,  -0.00064,   0.00069,   0.00113,-1060163.53846,   0.00000
-359490543.43338,-25473942.69319,186995320.40232,  -0.00222,   0.00127,   0.00356,475001558.55460,   0.00147,276238141.63964,  -0.00064,   0.00069,   0.00113,-1236583.08504,   0.00000
-359955568.20489,-26852507.25252,186923778.12978,  -0.00222,   0.00127,   0.00356,474810336.04228,   0.00147,276238141.63964,  -0.00064,   0.00069,   0.00113,-1427805.59736,   0.00000
-360409586.47294,-28242078.31533,186846732.60551,  -0.00222,   0.00126,   0.00355,474604123.13681,   0.00147,276238141.63964,  -0.00064,   0.00069,   0.00113,-1634018.50283,   0.00000
-360855349.86338,-29612387.99706,186764183.82950,  -0.00222,   0.00126,   0.00355,474394634.77304,   0.00147,276238141.63964,  -0.00064,   0.00069,   0.00113,-1843506.86661,   0.00000
-361270845.36929,-30985449.30466,186676131.80176,  -0.00222,   0.00125,   0.00355,474158746.48836,   0.00147,276238141.63964,  -0.00064,   0.00069,   0.00113,-2079395.15128,   0.00000
-361667079.49413,-32350255.73466,186588079.77402,  -0.00222,   0.00125,   0.00355,473914472.73188,   0.00147,276238141.63964,  -0.00064,   0.00069,   0.00113,-2323668.90777,   0.00000
-362044052.23790,-33706807.28706,186489021.24281,  -0.00222,   0.00124,   0.00355,473648773.51516,   0.00147,276238141.63964,  -0.00064,   0.00069,   0.00113,-2589368.12448,   0.00000
-362421024.98167,-35063358.83945,186384459.45986,  -0.00222,   0.00124,   0.00355,473379594.21210,   0.00147,276238141.63964,  -0.00064,   0.00069,   0.00113,-2858547.42755,   0.00000
-362759474.96330,-36403400.63665,186274394.42519,  -0.00222,   0.00123,   0.00355,473083941.60777,   0.00147,276238141.63964,  -0.00064,   0.00069,   0.00113,-3154200.03187,   0.00000
-363078663.56386,-37735187.55625,186158826.13878,  -0.00221,   0.00122,   0.00355,472773248.49876,   0.00147,276238141.63964,  -0.00064,   0.00069,   0.00113,-3464893.14088,   0.00000
-363406107.04203,-39086235.85691,186037754.60063,  -0.00221,   0.00122,   0.00354,472459198.31002,   0.00147,276238141.63964,  -0.00064,   0.00069,   0.00113,-3778943.32962,   0.00000
-363686772.88046,-40401513.02131,185916683.06249,  -0.00221,   0.00121,   0.00354,472124871.46440,   0.00147,276238141.63964,  -0.00064,   0.00069,   0.00113,-4113270.17524,   0.00000
-363967438.71888,-41716790.18570,185784605.02087,  -0.00221,   0.00121,   0.00354,471780449.09026,   0.00147,276238141.63964,  -0.00064,   0.00069,   0.00113,-4457692.54939,   0.00000
-364217836.67278,-43034818.97596,185647023.72753,  -0.00221,   0.00120,   0.00354,471409622.07249,   0.00147,276238141.63964,  -0.00064,   0.00069,   0.00113,-4828519.56715,   0.00000
-364468234.62667,-44352847.76622,185503939.18244,  -0.00221,   0.00120,   0.00354,471035242.19260,   0.00147,276238141.63964,  -0.00064,   0.00069,   0.00113,-5202899.44704,   0.00000
-364671854.94082,-45635105.42022,185360854.63736,  -0.00221,   0.00119,   0.00354,470640229.24561,   0.00147,276238141.63964,  -0.00064,   0.00069,   0.00113,-5597912.39403,   0.00000
-364883730.13257,-46936624.45528,185206763.58882,  -0.00220,   0.00119,   0.00353,470235481.92025,   0.00147,276238141.63964,  -0.00064,   0.00069,   0.00113,-6002659.71939,   0.00000
-365076343.94326,-48229888.61273,185047169.28853,  -0.00220,   0.00118,   0.00353,469815530.01592,   0.00147,276238141.63964,  -0.00064,   0.00069,   0.00113,-6422611.62372,   0.00000
-365230434.99181,-49506643.01499,184882071.73652,  -0.00220,   0.00118,   0.00353,469368711.07087,   0.00147,276238141.63964,  -0.00064,   0.00069,   0.00113,-6869430.56877,   0.00000
-365384526.04036,-50783397.41725,184716974.18450,  -0.00220,   0.00117,   0.00353,468924748.10207,   0.00147,276238141.63964,  -0.00064,   0.00069,   0.00113,-7313393.53758,   0.00000
-365519355.70783,-52051896.94191,184540870.12902,  -0.00220,   0.00116,   0.00352,468458986.23324,   0.00147,276238141.63964,  -0.00064,   0.00069,   0.00113,-7779155.40641,   0.00000
-365607407.73558,-53284625.33029,184359262.82180,  -0.00220,   0.00116,   0.00352,467965583.68446,   0.00147,276238141.63964,  -0.00064,   0.00069,   0.00113,-8272557.95518,   0.00000
-365703714.64092,-54536615.09975,184177655.51458,  -0.00219,   0.00115,   0.00352,467475596.08533,   0.00147,276238141.63964,  -0.00064,   0.00069,   0.00113,-8762545.55432,   0.00000
-365780760.16519,-55780349.99160,183985041.70390,  -0.00219,   0.00115,   0.00352,466963724.33237,   0.00147,276238141.63964,  -0.00064,   0.00069,   0.00113,-9274417.30727,   0.00000
-365827537.80493,-57026836.50932,183792427.89321,  -0.00219,   0.00114,   0.00352,466432020.73005,   0.00147,276238141.63964,  -0.00064,   0.00069,   0.00113,-9806120.90960,   0.00000
-365866060.56707,-58254061.64598,183588807.57906,  -0.00219,   0.00114,   0.00351,465889339.57709,   0.00147,276238141.63964,  -0.00064,   0.00069,   0.00113,-10348802.06255,   0.00000
-365885321.94814,-59473031.90503,183379684.01317,  -0.00218,   0.00113,   0.00351,465331200.80388,   0.00147,276238141.63964,  -0.00064,   0.00069,   0.00113,-10906940.83576,   0.00000
-365866060.56707,-60675492.40888,183170560.44728,  -0.00218,   0.00113,   0.00351,464752352.24476,   0.00147,276238141.63964,  -0.00064,   0.00069,   0.00113,-11485789.39488,   0.00000
-365846799.18600,-61877952.91273,182950430.37793,  -0.00218,   0.00112,   0.00350,464163215.30731,   0.00147,276238141.63964,  -0.00064,   0.00069,   0.00113,-12074926.33233,   0.00000
-365808276.42386,-63072158.53898,182730300.30858,  -0.00218,   0.00111,   0.00350,463565057.60257,   0.00147,276238141.63964,  -0.00064,   0.00069,   0.00113,-12673084.03707,   0.00000
-365750492.28066,-64258109.28763,182499163.73575,  -0.00217,   0.00111,   0.00350,462944841.63941,   0.00147,276238141.63964,  -0.00064,   0.00069,   0.00113,-13293300.00023,   0.00000
-365654185.37531,-65427550.28107,182262523.91120,  -0.00217,   0.00110,   0.00350,462297277.61104,   0.00147,276238141.63964,  -0.00064,   0.00069,   0.00113,-13940864.02860,   0.00000
-365557878.46997,-66596991.27452,182025884.08664,  -0.00217,   0.00110,   0.00349,461652395.58358,   0.00147,276238141.63964,  -0.00064,   0.00069,   0.00113,-14585746.05606,   0.00000
-365442310.18356,-67758177.39037,181778237.75862,  -0.00217,   0.00109,   0.00349,460985391.26971,   0.00147,276238141.63964,  -0.00064,   0.00069,   0.00113,-15252750.36994,   0.00000
-365288219.13501,-68902853.75101,181530591.43059,  -0.00216,   0.00109,   0.00349,460297460.81122,   0.00147,276238141.63964,  -0.00064,   0.00069,   0.00113,-15940680.82842,   0.00000
-365134128.08646,-70047530.11166,181271938.59910,  -0.00216,   0.00108,   0.00348,459599163.73586,   0.00147,276238141.63964,  -0.00064,   0.00069,   0.00113,-16638977.90378,   0.00000
-364960775.65685,-71183951.59470,181013285.76761,  -0.00216,   0.00108,   0.00348,458891709.90281,   0.00147,276238141.63964,  -0.00064,   0.00069,   0.00113,-17346431.73684,   0.00000
-364748900.46509,-72303863.32254,180743626.43265,  -0.00215,   0.00107,   0.00348,458150226.32719,   0.00147,276238141.63964,  -0.00064,   0.00069,   0.00113,-18087915.31245,   0.00000
-364537025.27334,-73423775.05038,180473967.09769,  -0.00215,   0.00107,   0.00347,457411376.54907,   0.00147,276238141.63964,  -0.00064,   0.00069,   0.00113,-18826765.09057,   0.00000
-364286627.31945,-74527177.02302,180193301.25926,  -0.00215,   0.00106,   0.00347,456638446.09666,   0.00147,276238141.63964,  -0.00064,   0.00069,   0.00113,-19599695.54298,   0.00000
-364036229.36556,-75630578.99566,179907132.16910,  -0.00214,   0.00105,   0.00346,455861622.18762,   0.00147,276238141.63964,  -0.00064,   0.00069,   0.00113,-20376519.45202,   0.00000
-363758315.15300,-76706464.70964,179620963.07894,  -0.00214,   0.00105,   0.00346,455074115.21564,   0.00147,276238141.63964,  -0.00064,   0.00069,   0.00113,-21164026.42400,   0.00000
-363450133.05590,-77785102.04947,179323787.48531,  -0.00214,   0.00104,   0.00346,454253869.44283,   0.00147,276238141.63964,  -0.00064,   0.00069,   0.00113,-21984272.19681,   0.00000
-363141950.95880,-78863739.38931,179026611.89168,  -0.00213,   0.00104,   0.00345,453436232.61836,   0.00147,276238141.63964,  -0.00064,   0.00069,   0.00113,-22801909.02128,   0.00000
-362786991.22197,-79906605.59288,178718429.79459,  -0.00213,   0.00103,   0.00345,452582833.34677,   0.00147,276238141.63964,  -0.00064,   0.00069,   0.00113,-23655308.29287,   0.00000
-362440286.36274,-80968733.17752,178410247.69749,  -0.00213,   0.00103,   0.00345,451733566.98636,   0.00147,276238141.63964,  -0.00064,   0.00069,   0.00113,-24504574.65328,   0.00000
-362046803.86376,-81995089.62588,178091059.09692,  -0.00212,   0.00102,   0.00344,450848421.05739,   0.00147,276238141.63964,  -0.00064,   0.00069,   0.00113,-25389720.58225,   0.00000
-361634059.98372,-83013191.19665,177771870.49636,  -0.00212,   0.00102,   0.00344,449953886.20128,   0.00147,276238141.63964,  -0.00064,   0.00069,   0.00113,-26284255.43836,   0.00000
-361229570.98128,-84050554.14848,177441675.39233,  -0.00212,   0.00101,   0.00343,449050551.14798,   0.00147,276238141.63964,  -0.00064,   0.00069,   0.00113,-27187590.49166,   0.00000
-360778304.33911,-85052145.96405,177111480.28830,  -0.00211,   0.00100,   0.00343,448124215.77428,   0.00147,276238141.63964,  -0.00064,   0.00069,   0.00113,-28113925.86536,   0.00000
-360327037.69693,-86053737.77961,176770278.68080,  -0.00211,   0.00100,   0.00342,447187349.70823,   0.00147,276238141.63964,  -0.00064,   0.00069,   0.00113,-29050791.93141,   0.00000
-359837248.29262,-87038819.83997,176429077.07330,  -0.00210,   0.00099,   0.00342,446229144.83804,   0.00147,276238141.63964,  -0.00064,   0.00069,   0.00113,-30008996.80160,   0.00000
-359319942.62963,-87996385.64167,176076868.96233,  -0.00210,   0.00099,   0.00341,445246583.55535,   0.00147,276238141.63964,  -0.00064,   0.00069,   0.00113,-30991558.08429,   0.00000
-358791630.46318,-88964957.94683,175724660.85136,  -0.00209,   0.00098,   0.00341,444256440.37094,   0.00147,276238141.63964,  -0.00064,   0.00069,   0.00113,-31981701.26871,   0.00000
-358263318.29673,-89933530.25199,175361446.23693,  -0.00209,   0.00098,   0.00341,443255762.06663,   0.00147,276238141.63964,  -0.00064,   0.00069,   0.00113,-32982379.57301,   0.00000
-357688228.49054,-90866331.42088,174998231.62249,  -0.00209,   0.00097,   0.00340,442231709.72265,   0.00147,276238141.63964,  -0.00064,   0.00069,   0.00113,-34006431.91699,   0.00000
-357102132.18088,-91810139.09324,174629513.75632,  -0.00208,   0.00097,   0.00340,441193652.77250,   0.00147,276238141.63964,  -0.00064,   0.00069,   0.00113,-35044488.86714,   0.00000
-356488519.61256,-92726430.50693,174249789.38668,  -0.00208,   0.00096,   0.00339,440131020.14474,   0.00147,276238141.63964,  -0.00064,   0.00069,   0.00113,-36107121.49490,   0.00000
-355855645.66316,-93634467.04301,173870065.01705,  -0.00207,   0.00096,   0.00339,439058878.47754,   0.00147,276238141.63964,  -0.00064,   0.00069,   0.00113,-37179263.16210,   0.00000
-355203510.33270,-94534248.70150,173479334.14394,  -0.00207,   0.00095,   0.00338,437964152.72242,   0.00147,276238141.63964,  -0.00064,   0.00069,   0.00113,-38273988.91722,   0.00000
-354532113.62117,-95425775.48239,173088603.27084,  -0.00206,   0.00095,   0.00338,436859920.43920,   0.00147,276238141.63964,  -0.00064,   0.00069,   0.00113,-39378221.20044,   0.00000
-353833200.65097,-96289786.00461,172686865.89427,  -0.00206,   0.00094,   0.00337,435730874.00007,   0.00147,276238141.63964,  -0.00064,   0.00069,   0.00113,-40507267.63957,   0.00000
-353123281.17730,-97164803.03029,172285128.51769,  -0.00205,   0.00093,   0.00337,434594515.75165,   0.00147,276238141.63964,  -0.00064,   0.00069,   0.00113,-41643625.88800,   0.00000
-352385845.44496,-98012303.79731,171877887.88939,  -0.00205,   0.00093,   0.00336,433439813.88878,   0.00147,276238141.63964,  -0.00064,   0.00069,   0.00113,-42798327.75086,   0.00000
-351609886.95048,-98843294.80912,171459640.75761,  -0.00204,   0.00092,   0.00335,432250454.06870,   0.00147,276238141.63964,  -0.00064,   0.00069,   0.00113,-43987687.57094,   0.00000
-350833928.45601,-99674285.82093,171041393.62584,  -0.00204,   0.00092,   0.00335,431063524.72645,   0.00147,276238141.63964,  -0.00064,   0.00069,   0.00113,-45174616.91319,   0.00000
-350038708.58046,-100497021.95515,170612139.99060,  -0.00203,   0.00091,   0.00334,429853938.07860,   0.00147,276238141.63964,  -0.00064,   0.00069,   0.00113,-46384203.56104,   0.00000
-349224227.32385,-101311503.21176,170182886.35536,  -0.00203,   0.00091,   0.00334,428634803.33443,   0.00147,276238141.63964,  -0.00064,   0.00069,   0.00113,-47603338.30522,   0.00000
-348362968.42750,-102090213.33210,169748129.46838,  -0.00202,   0.00090,   0.00333,427385074.65761,   0.00147,276238141.63964,  -0.00064,   0.00069,   0.00113,-48853066.98204,   0.00000
-347509964.40875,-102888184.83351,169302366.07794,  -0.00202,   0.00090,   0.00333,426127161.73801,   0.00147,276238141.63964,  -0.00064,   0.00069,   0.00113,-50110979.90163,   0.00000
-346610182.75026,-103650385.19865,168856602.68749,  -0.00201,   0.00089,   0.00332,424845147.07790,   0.00147,276238141.63964,  -0.00064,   0.00069,   0.00113,-51392994.56174,   0.00000
-345710401.09178,-104412585.56380,168405336.04532,  -0.00200,   0.00089,   0.00332,423558997.35276,   0.00147,276238141.63964,  -0.00064,   0.00069,   0.00113,-52679144.28689,   0.00000
-344763841.79355,-105139014.79267,167948566.15141,  -0.00200,   0.00088,   0.00331,422242052.61254,   0.00147,276238141.63964,  -0.00064,   0.00069,   0.00113,-53996089.02710,   0.00000
-343825537.37293,-105884705.40261,167480789.75403,  -0.00199,   0.00088,   0.00330,420917034.65558,   0.00147,276238141.63964,  -0.00064,   0.00069,   0.00113,-55321106.98406,   0.00000
-342840455.31256,-106594624.87627,167013013.35665,  -0.00199,   0.00087,   0.00330,419567732.33459,   0.00147,276238141.63964,  -0.00064,   0.00069,   0.00113,-56670409.30505,   0.00000
-341855373.25220,-107304544.34994,166539733.70753,  -0.00198,   0.00087,   0.00329,418214269.37549,   0.00147,276238141.63964,  -0.00064,   0.00069,   0.00113,-58023872.26415,   0.00000
-340831768.42970,-107997954.06841,166060950.80669,  -0.00198,   0.00086,   0.00328,416832624.59939,   0.00147,276238141.63964,  -0.00064,   0.00069,   0.00113,-59405517.04025,   0.00000
-339788902.22613,-108683108.90928,165571161.40237,  -0.00197,   0.00086,   0.00328,415428249.44365,   0.00147,276238141.63964,  -0.00064,   0.00069,   0.00113,-60809892.19599,   0.00000
-338737781.14496,-109349002.36908,165081371.99806,  -0.00196,   0.00085,   0.00327,414023463.59053,   0.00147,276238141.63964,  -0.00064,   0.00069,   0.00113,-62214678.04912,   0.00000
-337648137.30166,-109998386.07367,164586079.34201,  -0.00196,   0.00085,   0.00327,412590465.15601,   0.00147,276238141.63964,  -0.00064,   0.00069,   0.00113,-63647676.48363,   0.00000
-336539232.07728,-110639514.90067,164085283.43423,  -0.00195,   0.00084,   0.00326,411141289.97417,   0.00147,276238141.63964,  -0.00064,   0.00069,   0.00113,-65096851.66547,   0.00000
-335411065.47184,-111272388.85006,163578984.27471,  -0.00194,   0.00084,   0.00325,409675956.27349,   0.00147,276238141.63964,  -0.00064,   0.00069,   0.00113,-66562185.36615,   0.00000
-334263637.48533,-111897007.92186,163067181.86346,  -0.00194,   0.00083,   0.00325,408194483.35050,   0.00147,276238141.63964,  -0.00064,   0.00069,   0.00113,-68043658.28914,   0.00000
-333088693.24015,-112494110.73498,162549876.20048,  -0.00193,   0.00083,   0.00324,406693831.93126,   0.00147,276238141.63964,  -0.00064,   0.00069,   0.00113,-69544309.70838,   0.00000
-331894487.61390,-113082958.67050,162027067.28576,  -0.00193,   0.00082,   0.00323,405177007.52144,   0.00147,276238141.63964,  -0.00064,   0.00069,   0.00113,-71061134.11820,   0.00000
-330672765.72898,-113644290.34736,161498755.11931,  -0.00192,   0.00082,   0.00323,403640898.12629,   0.00147,276238141.63964,  -0.00064,   0.00069,   0.00113,-72597243.51335,   0.00000
-329440037.34059,-114216628.52768,160964939.70113,  -0.00191,   0.00081,   0.00322,402091757.57169,   0.00147,276238141.63964,  -0.00064,   0.00069,   0.00113,-74146384.06795,   0.00000
-328179792.69354,-114761450.44933,160425621.03121,  -0.00190,   0.00081,   0.00321,400523304.53256,   0.00147,276238141.63964,  -0.00064,   0.00069,   0.00113,-75714837.10708,   0.00000
-326881025.28435,-115289762.61579,159880799.10955,  -0.00190,   0.00080,   0.00320,398926695.04314,   0.00147,276238141.63964,  -0.00064,   0.00069,   0.00113,-77311446.59650,   0.00000
-325582257.87515,-115818074.78224,159330473.93617,  -0.00189,   0.00080,   0.00320,397325965.13840,   0.00147,276238141.63964,  -0.00064,   0.00069,   0.00113,-78912176.50124,   0.00000
-324255974.20729,-116318870.69002,158774645.51105,  -0.00188,   0.00079,   0.00319,395705814.87377,   0.00147,276238141.63964,  -0.00064,   0.00069,   0.00113,-80532326.76587,   0.00000
-322910429.15836,-116811411.72020,158218817.08593,  -0.00188,   0.00079,   0.00318,394076147.86783,   0.00147,276238141.63964,  -0.00064,   0.00069,   0.00113,-82161993.77181,   0.00000
-321526361.34729,-117287442.99518,157651982.15734,  -0.00187,   0.00078,   0.00318,392411751.83985,   0.00147,276238141.63964,  -0.00064,   0.00069,   0.00113,-83826389.79979,   0.00000
-320134038.65862,-117744212.88909,157079643.97702,  -0.00186,   0.00078,   0.00317,390739831.13029,   0.00147,276238141.63964,  -0.00064,   0.00069,   0.00113,-85498310.50936,   0.00000
-318722454.58889,-118192727.90540,156501802.54496,  -0.00186,   0.00077,   0.00316,389051783.48876,   0.00147,276238141.63964,  -0.00064,   0.00069,   0.00113,-87186358.15088,   0.00000
-317272347.75701,-118624733.16651,155923961.11290,  -0.00185,   0.00077,   0.00315,387342312.84963,   0.00147,276238141.63964,  -0.00064,   0.00069,   0.00113,-88895828.79001,   0.00000
-315822240.92514,-119056738.42762,155335113.17738,  -0.00184,   0.00076,   0.00315,385622122.10665,   0.00147,276238141.63964,  -0.00064,   0.00069,   0.00113,-90616019.53299,   0.00000
-314325356.45353,-119452972.55246,154746265.24186,  -0.00183,   0.00076,   0.00314,383877016.76862,   0.00147,276238141.63964,  -0.00064,   0.00069,   0.00113,-92361124.87102,   0.00000
-312828471.98191,-119849206.67730,154146410.80286,  -0.00183,   0.00075,   0.00313,382121170.46930,   0.00147,276238141.63964,  -0.00064,   0.00069,   0.00113,-94116971.17034,   0.00000
-311284809.87056,-120209669.66586,153546556.36387,  -0.00182,   0.00075,   0.00312,380340358.47435,   0.00147,276238141.63964,  -0.00064,   0.00069,   0.00113,-95897783.16529,   0.00000
-309730141.25575,-120581139.15790,152935695.42141,  -0.00181,   0.00074,   0.00311,378540538.20015,   0.00147,276238141.63964,  -0.00064,   0.00069,   0.00113,-97697603.43949,   0.00000
-308167217.76333,-120933347.26887,152324834.47895,  -0.00180,   0.00074,   0.00311,376739672.74513,   0.00147,276238141.63964,  -0.00064,   0.00069,   0.00113,-99498468.89451,   0.00000
-306557516.63117,-121249784.24357,151708470.28476,  -0.00179,   0.00073,   0.00310,374907146.23868,   0.00147,276238141.63964,  -0.00064,   0.00069,   0.00113,-101330995.40096,   0.00000
-304928554.11795,-121557966.34066,151081099.58710,  -0.00179,   0.00073,   0.00309,373051957.95881,   0.00147,276238141.63964,  -0.00064,   0.00069,   0.00113,-103186183.68083,   0.00000
-303299591.60472,-121866148.43776,150453728.88944,  -0.00178,   0.00073,   0.00308,371199435.56159,   0.00147,276238141.63964,  -0.00064,   0.00069,   0.00113,-105038706.07805,   0.00000
-301632106.32936,-122157820.77965,149820854.94004,  -0.00177,   0.00072,   0.00307,369319110.91202,   0.00147,276238141.63964,  -0.00064,   0.00069,   0.00113,-106919030.72762,   0.00000
-299937104.79533,-122421976.86288,149182477.73891,  -0.00176,   0.00072,   0.00307,367419037.26047,   0.00147,276238141.63964,  -0.00064,   0.00069,   0.00113,-108819104.37917,   0.00000
-298222841.88023,-122677878.06850,148538597.28605,  -0.00175,   0.00071,   0.00306,365503111.34682,   0.00147,276238141.63964,  -0.00064,   0.00069,   0.00113,-110735030.29282,   0.00000
-296508578.96513,-122933779.27413,147889213.58146,  -0.00174,   0.00071,   0.00305,363583263.87277,   0.00147,276238141.63964,  -0.00064,   0.00069,   0.00113,-112654877.76687,   0.00000
-294747538.41029,-123153909.34348,147234326.62513,  -0.00174,   0.00070,   0.00304,361631754.64991,   0.00147,276238141.63964,  -0.00064,   0.00069,   0.00113,-114606386.98973,   0.00000
-292958981.59678,-123346523.15417,146573936.41706,  -0.00173,   0.00070,   0.00303,359660415.35881,   0.00147,276238141.63964,  -0.00064,   0.00069,   0.00113,-116577726.28083,   0.00000
-291159418.27981,-123550143.46832,145908042.95726,  -0.00172,   0.00069,   0.00302,357677407.59281,   0.00147,276238141.63964,  -0.00064,   0.00069,   0.00113,-118560734.04684,   0.00000
-289332338.70416,-123726247.52381,145242149.49746,  -0.00171,   0.00069,   0.00301,355681357.34548,   0.00147,276238141.63964,  -0.00064,   0.00069,   0.00113,-120556784.29416,   0.00000
-287477742.86985,-123874835.32062,144565249.53420,  -0.00170,   0.00069,   0.00301,353658738.80559,   0.00147,276238141.63964,  -0.00064,   0.00069,   0.00113,-122579402.83405,   0.00000
-285612140.53207,-124034429.62090,143882846.31920,  -0.00169,   0.00068,   0.00300,351624680.59244,   0.00147,276238141.63964,  -0.00064,   0.00069,   0.00113,-124613461.04720,   0.00000
-283719021.93562,-124166507.66252,143200443.10420,  -0.00168,   0.00068,   0.00299,349577610.32102,   0.00147,276238141.63964,  -0.00064,   0.00069,   0.00113,-126660531.31862,   0.00000
-281798387.08050,-124271069.44546,142507033.38573,  -0.00168,   0.00067,   0.00298,347503966.05650,   0.00147,276238141.63964,  -0.00064,   0.00069,   0.00113,-128734175.58314,   0.00000
-279877752.22538,-124375631.22840,141813623.66726,  -0.00167,   0.00067,   0.00297,345433341.33708,   0.00147,276238141.63964,  -0.00064,   0.00069,   0.00113,-130804800.30256,   0.00000
-277918594.60812,-124463683.25614,141114710.69706,  -0.00166,   0.00066,   0.00296,343335501.33024,   0.00147,276238141.63964,  -0.00064,   0.00069,   0.00113,-132902640.30940,   0.00000
-275931920.73219,-124524219.02522,140410294.47513,  -0.00165,   0.00066,   0.00295,341217894.39194,   0.00147,276238141.63964,  -0.00064,   0.00069,   0.00113,-135020247.24770,   0.00000
-273925985.47520,-124576499.91669,139700375.00146,  -0.00164,   0.00066,   0.00294,339084935.77564,   0.00147,276238141.63964,  -0.00064,   0.00069,   0.00113,-137153205.86401,   0.00000
-271892533.95953,-124601264.54949,138984952.27606,  -0.00163,   0.00065,   0.00293,336932222.37548,   0.00147,276238141.63964,  -0.00064,   0.00069,   0.00113,-139305919.26416,   0.00000
-269839821.06280,-124617774.30469,138264026.29892,  -0.00162,   0.00065,   0.00292,334764250.91309,   0.00147,276238141.63964,  -0.00064,   0.00069,   0.00113,-141473890.72655,   0.00000
-267767846.78500,-124626029.18229,137537597.07005,  -0.00161,   0.00064,   0.00291,332581110.79483,   0.00147,276238141.63964,  -0.00064,   0.00069,   0.00113,-143657030.84481,   0.00000
-265668356.24853,-124606767.80123,136805664.58944,  -0.00160,   0.00064,   0.00290,330378293.03050,   0.00147,276238141.63964,  -0.00064,   0.00069,   0.00113,-145859848.60914,   0.00000
-263541349.45339,-124559990.16149,136073732.10884,  -0.00159,   0.00064,   0.00289,328162624.06887,   0.00147,276238141.63964,  -0.00064,   0.00069,   0.00113,-148075517.57077,   0.00000
-261403336.15478,-124524219.02522,135330793.12477,  -0.00158,   0.00063,   0.00289,325929761.90395,   0.00147,276238141.63964,  -0.00064,   0.00069,   0.00113,-150308379.73569,   0.00000
-259237806.59750,-124460931.63028,134587854.14070,  -0.00157,   0.00063,   0.00288,323684192.37806,   0.00147,276238141.63964,  -0.00064,   0.00069,   0.00113,-152553949.26158,   0.00000
-257044760.78156,-124370127.97667,133833908.65316,  -0.00156,   0.00062,   0.00287,321412185.98583,   0.00147,276238141.63964,  -0.00064,   0.00069,   0.00113,-154825955.65381,   0.00000
-254832453.58454,-124271069.44546,133079963.16562,  -0.00155,   0.00062,   0.00286,319132270.93661,   0.00147,276238141.63964,  -0.00064,   0.00069,   0.00113,-157105870.70303,   0.00000
-252592630.12886,-124144494.65558,132320514.42634,  -0.00154,   0.00062,   0.00285,316832863.73384,   0.00147,276238141.63964,  -0.00064,   0.00069,   0.00113,-159405277.90580,   0.00000
-250352806.67317,-124017919.86570,131555562.43533,  -0.00153,   0.00061,   0.00284,314530341.88109,   0.00147,276238141.63964,  -0.00064,   0.00069,   0.00113,-161707799.75855,   0.00000
-248074460.45535,-123874835.32062,130785107.19259,  -0.00152,   0.00061,   0.00283,312201797.89665,   0.00147,276238141.63964,  -0.00064,   0.00069,   0.00113,-164036343.74299,   0.00000
-245768597.97886,-123704234.51687,130009148.69812,  -0.00151,   0.00060,   0.00282,309853935.49908,   0.00147,276238141.63964,  -0.00064,   0.00069,   0.00113,-166384206.14056,   0.00000
-243443474.12130,-123525378.83552,129233190.20364,  -0.00150,   0.00060,   0.00281,307498698.03541,   0.00147,276238141.63964,  -0.00064,   0.00069,   0.00113,-168739443.60423,   0.00000
-241110095.38614,-123327261.77310,128446225.20570,  -0.00149,   0.00060,   0.00280,305128730.29677,   0.00147,276238141.63964,  -0.00064,   0.00069,   0.00113,-171109411.34287,   0.00000
-238729939.01124,-123093373.57441,127659260.20776,  -0.00148,   0.00059,   0.00279,302735113.56053,   0.00147,276238141.63964,  -0.00064,   0.00069,   0.00113,-173503028.07911,   0.00000
-236338776.13288,-122870491.87919,126866791.95808,  -0.00147,   0.00059,   0.00278,300332585.49523,   0.00147,276238141.63964,  -0.00064,   0.00069,   0.00113,-175905556.14441,   0.00000
-233931103.49931,-122609087.42183,126063317.20493,  -0.00146,   0.00059,   0.00276,297910305.65813,   0.00147,276238141.63964,  -0.00064,   0.00069,   0.00113,-178327835.98151,   0.00000
-231493162.98121,-122350434.59034,125259842.45179,  -0.00145,   0.00058,   0.00275,295475055.88321,   0.00147,276238141.63964,  -0.00064,   0.00069,   0.00113,-180763085.75643,   0.00000
-229019451.32683,-122045004.11911,124450864.44691,  -0.00144,   0.00058,   0.00274,293015810.53023,   0.00147,276238141.63964,  -0.00064,   0.00069,   0.00113,-183222331.10941,   0.00000
-226553994.55006,-121758835.02895,123641886.44203,  -0.00143,   0.00058,   0.00273,290566557.18692,   0.00147,276238141.63964,  -0.00064,   0.00069,   0.00113,-185671584.45272,   0.00000
-224033505.25595,-121417633.42145,122821901.93369,  -0.00142,   0.00057,   0.00272,288075153.30460,   0.00147,276238141.63964,  -0.00064,   0.00069,   0.00113,-188162988.33504,   0.00000
-221521270.83944,-121095693.19502,122001917.42534,  -0.00141,   0.00057,   0.00271,285594068.67324,   0.00147,276238141.63964,  -0.00064,   0.00069,   0.00113,-190644072.96640,   0.00000
-218973265.28666,-120726975.32885,121170926.41353,  -0.00140,   0.00057,   0.00270,283082132.44596,   0.00147,276238141.63964,  -0.00064,   0.00069,   0.00113,-193156009.19369,   0.00000
-216394991.84934,-120361009.08855,120339935.40171,  -0.00139,   0.00056,   0.00269,280558631.27528,   0.00147,276238141.63964,  -0.00064,   0.00069,   0.00113,-195679510.36436,   0.00000
-213800208.65682,-119956520.08611,119503441.13816,  -0.00137,   0.00056,   0.00268,278022632.60443,   0.00147,276238141.63964,  -0.00064,   0.00069,   0.00113,-198215509.03521,   0.00000
-211194418.96083,-119563037.58713,118661443.62288,  -0.00136,   0.00056,   0.00267,275479529.02686,   0.00147,276238141.63964,  -0.00064,   0.00069,   0.00113,-200758612.61279,   0.00000
-208552858.12858,-119122777.44843,117813942.85587,  -0.00135,   0.00055,   0.00266,272913008.90444,   0.00147,276238141.63964,  -0.00064,   0.00069,   0.00113,-203325132.73520,   0.00000
-205892035.91525,-118674262.43212,116966442.08885,  -0.00134,   0.00055,   0.00265,270341397.56800,   0.00147,276238141.63964,  -0.00064,   0.00069,   0.00113,-205896744.07164,   0.00000
-203211952.32086,-118217492.53820,116107934.81837,  -0.00133,   0.00055,   0.00264,267750673.63924,   0.00147,276238141.63964,  -0.00064,   0.00069,   0.00113,-208487468.00040,   0.00000
-200504352.46780,-117733206.38562,115249427.54788,  -0.00132,   0.00054,   0.00262,265149721.07171,   0.00147,276238141.63964,  -0.00064,   0.00069,   0.00113,-211088420.56793,   0.00000
-197777491.23366,-117240665.35544,114385417.02567,  -0.00131,   0.00054,   0.00261,262537265.68148,   0.00147,276238141.63964,  -0.00064,   0.00069,   0.00113,-213700875.95816,   0.00000
-195042375.12193,-116728862.94419,113515903.25171,  -0.00130,   0.00054,   0.00260,259918567.51046,   0.00147,276238141.63964,  -0.00064,   0.00069,   0.00113,-216319574.12918,   0.00000
-192260481.37046,-116181289.39667,112640886.22603,  -0.00128,   0.00053,   0.00259,257272271.77911,   0.00147,276238141.63964,  -0.00064,   0.00069,   0.00113,-218965869.86053,   0.00000
-189478587.61899,-115633715.84915,111765869.20034,  -0.00127,   0.00053,   0.00258,254633082.69206,   0.00147,276238141.63964,  -0.00064,   0.00069,   0.00113,-221605058.94758,   0.00000
-186658171.10538,-115069632.54643,110879845.67119,  -0.00126,   0.00053,   0.00257,251965526.49538,   0.00147,276238141.63964,  -0.00064,   0.00069,   0.00113,-224272615.14426,   0.00000
-183829499.71417,-114486287.86264,109993822.14204,  -0.00125,   0.00053,   0.00256,249299740.83431,   0.00147,276238141.63964,  -0.00064,   0.00069,   0.00113,-226938400.80534,   0.00000
-180973312.06430,-113875426.92018,109102295.36115,  -0.00124,   0.00052,   0.00254,246618068.92949,   0.00147,276238141.63964,  -0.00064,   0.00069,   0.00113,-229620072.71015,   0.00000
-178078601.65228,-113248056.22252,108205265.32853,  -0.00122,   0.00052,   0.00253,243916365.68119,   0.00147,276238141.63964,  -0.00064,   0.00069,   0.00113,-232321775.95845,   0.00000
-175175636.36267,-112601424.14379,107308235.29591,  -0.00121,   0.00052,   0.00252,241217184.81798,   0.00147,276238141.63964,  -0.00064,   0.00069,   0.00113,-235020956.82166,   0.00000
-172253409.69198,-111946537.18746,106400198.75982,  -0.00120,   0.00051,   0.00251,238501778.80556,   0.00147,276238141.63964,  -0.00064,   0.00069,   0.00113,-237736362.83408,   0.00000
-169322928.14370,-111272388.85006,105492162.22373,  -0.00119,   0.00051,   0.00250,235789356.59998,   0.00147,276238141.63964,  -0.00064,   0.00069,   0.00113,-240448785.03966,   0.00000
-166345668.95568,-110562469.37639,104578622.43591,  -0.00118,   0.00051,   0.00249,233052393.45883,   0.00147,276238141.63964,  -0.00064,   0.00069,   0.00113,-243185748.18081,   0.00000
-163349148.38658,-109844295.02512,103659579.39636,  -0.00116,   0.00051,   0.00247,230307764.92033,   0.00147,276238141.63964,  -0.00064,   0.00069,   0.00113,-245930376.71931,   0.00000
-160352627.81749,-109126120.67385,102735033.10507,  -0.00115,   0.00050,   0.00246,227565982.36339,   0.00147,276238141.63964,  -0.00064,   0.00069,   0.00113,-248672159.27625,   0.00000
-157328590.98973,-108380430.06391,101810486.81378,  -0.00114,   0.00050,   0.00245,224818567.93115,   0.00147,276238141.63964,  -0.00064,   0.00069,   0.00113,-251419573.70850,   0.00000
-154257776.52223,-107598968.31771,100880437.27075,  -0.00113,   0.00050,   0.00244,222048665.53001,   0.00147,276238141.63964,  -0.00064,   0.00069,   0.00113,-254189476.10963,   0.00000
-151178707.17713,-106798245.19043,99944884.47600,  -0.00112,   0.00050,   0.00243,219276505.44823,   0.00147,276238141.63964,  -0.00064,   0.00069,   0.00113,-256961636.19141,   0.00000
-148107892.70964,-106016783.44422,99003828.42950,  -0.00110,   0.00049,   0.00241,216515260.42768,   0.00147,276238141.63964,  -0.00064,   0.00069,   0.00113,-259722881.21196,   0.00000
-144982045.72480,-105180289.18067,98057269.13128,  -0.00109,   0.00049,   0.00240,213726735.36034,   0.00147,276238141.63964,  -0.00064,   0.00069,   0.00113,-262511406.27930,   0.00000
-141836937.35889,-104335540.03952,97110709.83305,  -0.00108,   0.00049,   0.00239,210941835.94213,   0.00147,276238141.63964,  -0.00064,   0.00069,   0.00113,-265296305.69751,   0.00000
-138683574.11539,-103471529.51730,96158647.28309,  -0.00106,   0.00049,   0.00238,208156541.95669,   0.00147,276238141.63964,  -0.00064,   0.00069,   0.00113,-268081599.68295,   0.00000
-135491688.10974,-102591009.23989,95201081.48140,  -0.00105,   0.00049,   0.00236,205359249.71273,   0.00147,276238141.63964,  -0.00064,   0.00069,   0.00113,-270878891.92691,   0.00000
-132291547.22650,-101691227.58140,94238012.42797,  -0.00104,   0.00048,   0.00235,202562776.33764,   0.00147,276238141.63964,  -0.00064,   0.00069,   0.00113,-273675365.30200,   0.00000
-129072144.96219,-100783191.04531,93274943.37455,  -0.00103,   0.00048,   0.00234,199772902.92389,   0.00147,276238141.63964,  -0.00064,   0.00069,   0.00113,-276465238.71575,   0.00000
-125844487.82027,-99855893.12815,92306371.06939,  -0.00101,   0.00048,   0.00233,196985073.54776,   0.00147,276238141.63964,  -0.00064,   0.00069,   0.00113,-279253068.09188,   0.00000
-122570053.03862,-98892824.07473,91332295.51249,  -0.00100,   0.00048,   0.00231,194182065.27414,   0.00147,276238141.63964,  -0.00064,   0.00069,   0.00113,-282056076.36550,   0.00000
-119295618.25697,-97929755.02130,90352716.70386,  -0.00099,   0.00048,   0.00230,191389474.71094,   0.00147,276238141.63964,  -0.00064,   0.00069,   0.00113,-284848666.92870,   0.00000
-115974405.83558,-96930914.83160,89373137.89523,  -0.00097,   0.00047,   0.00229,188591710.14664,   0.00147,276238141.63964,  -0.00064,   0.00069,   0.00113,-287646431.49300,   0.00000
-112644938.53659,-95912813.26084,88388055.83487,  -0.00096,   0.00047,   0.00227,185799360.10032,   0.00147,276238141.63964,  -0.00064,   0.00069,   0.00113,-290438781.53933,   0.00000
-109296209.85653,-94886456.81247,87397470.52278,  -0.00095,   0.00047,   0.00226,183011815.57606,   0.00147,276238141.63964,  -0.00064,   0.00069,   0.00113,-293226326.06358,   0.00000
-105939226.29887,-93840838.98303,86401381.95895,  -0.00093,   0.00047,   0.00225,180231499.09489,   0.00147,276238141.63964,  -0.00064,   0.00069,   0.00113,-296006642.54475,   0.00000
-102543719.97907,-92778711.39840,85405293.39512,  -0.00092,   0.00047,   0.00224,177458226.10957,   0.00147,276238141.63964,  -0.00064,   0.00069,   0.00113,-298779915.53007,   0.00000
-99139958.78168,-91697322.43269,84403701.57955,  -0.00091,   0.00046,   0.00222,174694636.78997,   0.00147,276238141.63964,  -0.00064,   0.00069,   0.00113,-301543504.84967,   0.00000
-95708681.32561,-90588417.20832,83396606.51225,  -0.00089,   0.00046,   0.00221,171933990.21803,   0.00147,276238141.63964,  -0.00064,   0.00069,   0.00113,-304304151.42162,   0.00000
-92258142.48847,-89471257.10634,82389511.44496,  -0.00088,   0.00046,   0.00220,169193124.87595,   0.00147,276238141.63964,  -0.00064,   0.00069,   0.00113,-307045016.76369,   0.00000
-88780087.39267,-88326580.74570,81371409.87419,  -0.00087,   0.00046,   0.00218,166450491.92092,   0.00147,276238141.63964,  -0.00064,   0.00069,   0.00113,-309787649.71872,   0.00000
-85302032.29686,-87181904.38505,80353308.30342,  -0.00085,   0.00046,   0.00217,163738480.53692,   0.00147,276238141.63964,  -0.00064,   0.00069,   0.00113,-312499661.10272,   0.00000
-81796460.94239,-86009711.76574,79335206.73266,  -0.00084,   0.00046,   0.00216,161044300.09645,   0.00147,276238141.63964,  -0.00064,   0.00069,   0.00113,-315193841.54320,   0.00000
-78263373.32925,-84810002.88776,78306098.65843,  -0.00083,   0.00046,   0.00214,158353751.25946,   0.00147,276238141.63964,  -0.00064,   0.00069,   0.00113,-317884390.38018,   0.00000
-74711024.33503,-83602039.13217,77276990.58419,  -0.00081,   0.00045,   0.00213,155692787.06939,   0.00147,276238141.63964,  -0.00064,   0.00069,   0.00113,-320545354.57026,   0.00000
-71150420.46322,-82374813.99552,76247882.50996,  -0.00080,   0.00045,   0.00212,153062759.75327,   0.00147,276238141.63964,  -0.00064,   0.00069,   0.00113,-323175381.88637,   0.00000
-67562300.33274,-81120072.60020,75207767.93226,  -0.00078,   0.00045,   0.00210,150443002.39274,   0.00147,276238141.63964,  -0.00064,   0.00069,   0.00113,-325795139.24690,   0.00000
-63954918.82119,-79857076.32728,74167653.35456,  -0.00077,   0.00045,   0.00209,147860251.11409,   0.00147,276238141.63964,  -0.00064,   0.00069,   0.00113,-328377890.52555,   0.00000
-60320021.05097,-78566563.79568,73122035.52512,  -0.00076,   0.00045,   0.00208,145301649.48205,   0.00147,276238141.63964,  -0.00064,   0.00069,   0.00113,-330936492.15759,   0.00000
-56657607.02208,-77248535.00542,72076417.69569,  -0.00074,   0.00045,   0.00206,142778616.80978,   0.00147,276238141.63964,  -0.00064,   0.00069,   0.00113,-333459524.82987,   0.00000
-52995192.99319,-75930506.21516,71025296.61452,  -0.00073,   0.00045,   0.00205,140298819.31461,   0.00147,276238141.63964,  -0.00064,   0.00069,   0.00113,-335939322.32503,   0.00000
-49305262.70563,-74584961.16623,69968672.28161,  -0.00071,   0.00045,   0.00204,137852600.84962,   0.00147,276238141.63964,  -0.00064,   0.00069,   0.00113,-338385540.79002,   0.00000
-45615332.41807,-73239416.11730,68906544.69698,  -0.00070,   0.00044,   0.00202,135455771.44865,   0.00147,276238141.63964,  -0.00064,   0.00069,   0.00113,-340782370.19099,   0.00000
-41889630.99424,-71847093.42863,67844417.11234,  -0.00069,   0.00044,   0.00201,133100310.24450,   0.00147,276238141.63964,  -0.00064,   0.00069,   0.00113,-343137831.39514,   0.00000
-38152923.06695,-70465777.24343,66776786.27597,  -0.00067,   0.00044,   0.00199,130805250.19697,   0.00147,276238141.63964,  -0.00064,   0.00069,   0.00113,-345432891.44267,   0.00000
-34380444.00338,-69037683.41849,65709155.43960,  -0.00066,   0.00044,   0.00198,128560296.27582,   0.00147,276238141.63964,  -0.00064,   0.00069,   0.00113,-347677845.36383,   0.00000
-30588703.55875,-67601334.71595,64636021.35150,  -0.00064,   0.00044,   0.00197,126377283.64479,   0.00147,276238141.63964,  -0.00064,   0.00069,   0.00113,-349860857.99486,   0.00000
-26788708.23651,-66145724.63234,63557384.01166,  -0.00063,   0.00044,   0.00195,124256011.70594,   0.00147,276238141.63964,  -0.00064,   0.00069,   0.00113,-351982129.93370,   0.00000
-22969451.53321,-64681859.67113,62473243.42009,  -0.00061,   0.00044,   0.00194,122206179.31895,   0.00147,276238141.63964,  -0.00064,   0.00069,   0.00113,-354031962.32069,   0.00000
-19141939.95230,-63198733.32886,61389102.82851,  -0.00060,   0.00044,   0.00192,120235657.10444,   0.00147,276238141.63964,  -0.00064,   0.00069,   0.00113,-356002484.53520,   0.00000
-15286912.11273,-61688090.72791,60304962.23694,  -0.00058,   0.00044,   0.00191,118347603.31090,   0.00147,276238141.63964,  -0.00064,   0.00069,   0.00113,-357890538.32874,   0.00000
-11404368.01448,-60149931.86829,59209815.14190,  -0.00057,   0.00044,   0.00190,116531148.54799,   0.00147,276238141.63964,  -0.00064,   0.00069,   0.00113,-359706993.09166,   0.00000
-7502562.53517,-58603518.13108,58114668.04686,  -0.00056,   0.00044,   0.00188,114816933.19788,   0.00147,276238141.63964,  -0.00064,   0.00069,   0.00113,-361421208.44177,   0.00000
-3600757.05586,-57057104.39386,57019520.95182,  -0.00054,   0.00044,   0.00187,113210896.78419,   0.00147,276238141.63964,  -0.00064,   0.00069,   0.00113,-363027244.85545,   0.00000
317558.17866,-55472167.89451,55913367.35332,  -0.00053,   0.00044,   0.00185,111686130.92536,   0.00147,276238141.63964,  -0.00064,   0.00069,   0.00113,-364552010.71428,   0.00000
4274396.17531,-53870721.63995,54812717.00654,  -0.00051,   0.00043,   0.00184,110290034.70908,   0.00147,276238141.63964,  -0.00064,   0.00069,   0.00113,-365948106.93057,   0.00000
8239489.04956,-52250014.00433,53701060.15630,  -0.00050,   0.00043,   0.00182,108994853.76480,   0.00147,276238141.63964,  -0.00064,   0.00069,   0.00113,-367243287.87484,   0.00000
12223843.30488,-50621051.49110,52589403.30606,  -0.00048,   0.00043,   0.00181,107831502.91461,   0.00147,276238141.63964,  -0.00064,   0.00069,   0.00113,-368406638.72503,   0.00000
16216452.43780,-48972827.59681,51477746.45582,  -0.00047,   0.00043,   0.00180,106795841.87819,   0.00147,276238141.63964,  -0.00064,   0.00069,   0.00113,-369442299.76145,   0.00000
20236577.82939,-47297087.44384,50355083.10211,  -0.00045,   0.00043,   0.00178,105879969.47836,   0.00147,276238141.63964,  -0.00064,   0.00069,   0.00113,-370358172.16129,   0.00000
24275964.60205,-45613092.41328,49232419.74840,  -0.00044,   0.00043,   0.00177,105112663.06457,   0.00147,276238141.63964,  -0.00064,   0.00069,   0.00113,-371125478.57507,   0.00000
28323606.25231,-43909836.00165,48109756.39469,  -0.00042,   0.00043,   0.00175,104487469.37031,   0.00147,276238141.63964,  -0.00064,   0.00069,   0.00113,-371750672.26933,   0.00000
32398764.16124,-42179063.33135,46981589.78925,  -0.00041,   0.00043,   0.00174,104005346.81196,   0.00147,276238141.63964,  -0.00064,   0.00069,   0.00113,-372232794.82769,   0.00000
36473922.07017,-40448290.66104,45847919.93207,  -0.00039,   0.00043,   0.00172,103671665.83169,   0.00147,276238141.63964,  -0.00064,   0.00069,   0.00113,-372566475.80796,   0.00000
40584851.11537,-38670740.35101,44714250.07489,  -0.00038,   0.00043,   0.00171,103489588.93676,   0.00147,276238141.63964,  -0.00064,   0.00069,   0.00113,-372748552.70288,   0.00000
44706786.66404,-36904196.54443,43580580.21772,  -0.00036,   0.00043,   0.00169,103480845.83474,   0.00147,276238141.63964,  -0.00064,   0.00069,   0.00113,-372757295.80491,   0.00000
48845231.96791,-35099129.97572,42435903.85707,  -0.00034,   0.00043,   0.00168,103608149.12490,   0.00147,276238141.63964,  -0.00064,   0.00069,   0.00113,-372629992.51474,   0.00000
53002938.65285,-33285808.52942,41291227.49643,  -0.00033,   0.00043,   0.00166,103905719.89681,   0.00147,276238141.63964,  -0.00064,   0.00069,   0.00113,-372332421.74283,   0.00000
57168900.21538,-31453225.70204,40146551.13578,  -0.00031,   0.00043,   0.00165,104359817.86495,   0.00147,276238141.63964,  -0.00064,   0.00069,   0.00113,-371878323.77469,   0.00000
61354123.15899,-29612387.99706,38996371.52340,  -0.00030,   0.00043,   0.00163,104977211.94466,   0.00147,276238141.63964,  -0.00064,   0.00069,   0.00113,-371260929.69498,   0.00000
65566862.36127,-27744034.03341,37840688.65929,  -0.00028,   0.00043,   0.00162,105752481.19922,   0.00147,276238141.63964,  -0.00064,   0.00069,   0.00113,-370485660.44042,   0.00000
69787856.44114,-25856418.68869,36685005.79518,  -0.00027,   0.00043,   0.00160,106680514.99763,   0.00147,276238141.63964,  -0.00064,   0.00069,   0.00113,-369557626.64201,   0.00000
74017105.39862,-23949541.96291,35529322.93107,  -0.00025,   0.00044,   0.00159,107758000.10840,   0.00147,276238141.63964,  -0.00064,   0.00069,   0.00113,-368480141.53124,   0.00000
78265615.73717,-22034410.35952,34368136.81522,  -0.00024,   0.00044,   0.00157,108991123.60762,   0.00147,276238141.63964,  -0.00064,   0.00069,   0.00113,-367247018.03202,   0.00000
82541642.33438,-20091762.49747,33201447.44764,  -0.00022,   0.00044,   0.00156,110373081.18967,   0.00147,276238141.63964,  -0.00064,   0.00069,   0.00113,-365865060.44998,   0.00000
86817668.93160,-18149114.63541,32034758.08006,  -0.00021,   0.00044,   0.00154,111897448.59615,   0.00147,276238141.63964,  -0.00064,   0.00069,   0.00113,-364340693.04349,   0.00000
91121211.78748,-16178950.51469,30862565.46075,  -0.00019,   0.00044,   0.00153,113563079.80229,   0.00147,276238141.63964,  -0.00064,   0.00069,   0.00113,-362675061.83735,   0.00000
95433009.52097,-14189525.01289,29690372.84143,  -0.00017,   0.00044,   0.00151,115358162.78168,   0.00147,276238141.63964,  -0.00064,   0.00069,   0.00113,-360879978.85796,   0.00000
99772323.51312,-12172583.25243,28512676.97039,  -0.00016,   0.00044,   0.00150,117286373.80595,   0.00147,276238141.63964,  -0.00064,   0.00069,   0.00113,-358951767.83369,   0.00000
104111637.50528,-10155641.49197,27334981.09934,  -0.00014,   0.00044,   0.00148,119336893.53629,   0.00147,276238141.63964,  -0.00064,   0.00069,   0.00113,-356901248.10335,   0.00000
108478467.75610,-8111183.47284,26151781.97656,  -0.00013,   0.00044,   0.00147,121511337.41553,   0.00147,276238141.63964,  -0.00064,   0.00069,   0.00113,-354726804.22411,   0.00000
112853552.88453,-6047464.07263,24968582.85377,  -0.00011,   0.00044,   0.00145,123795251.99331,   0.00147,276238141.63964,  -0.00064,   0.00069,   0.00113,-352442889.64633,   0.00000
117247899.39402,-3975489.79483,23779880.47926,  -0.00009,   0.00044,   0.00143,126196039.58029,   0.00147,276238141.63964,  -0.00064,   0.00069,   0.00113,-350042102.05935,   0.00000
121650500.78112,-1884254.13596,22591178.10474,  -0.00008,   0.00044,   0.00142,128696150.67151,   0.00147,276238141.63964,  -0.00064,   0.00069,   0.00113,-347541990.96813,   0.00000
126072363.54928,215236.40051,21396972.47849,  -0.00006,   0.00044,   0.00140,131303629.46093,   0.00147,276238141.63964,  -0.00064,   0.00069,   0.00113,-344934512.17871,   0.00000
130510736.07265,2353249.69912,20202766.85224,  -0.00005,   0.00044,   0.00139,133999705.33339,   0.00147,276238141.63964,  -0.00064,   0.00069,   0.00113,-342238436.30626,   0.00000
134949108.59601,4491262.99772,19003057.97426,  -0.00003,   0.00045,   0.00137,136779713.60285,   0.00147,276238141.63964,  -0.00064,   0.00069,   0.00113,-339458428.03679,   0.00000
139406742.50044,6637531.17393,17803349.09628,  -0.00001,   0.00045,   0.00136,139656212.86788,   0.00147,276238141.63964,  -0.00064,   0.00069,   0.00113,-336581928.77176,   0.00000
143900147.54115,8830576.98988,16598136.96656,   0.00000,   0.00045,   0.00134,142621894.08679,   0.00147,276238141.63964,  -0.00064,   0.00069,   0.00113,-333616247.55285,   0.00000
148393552.58185,11023622.80582,15392924.83684,   0.00002,   0.00045,   0.00133,145661108.61258,   0.00147,276238141.63964,  -0.00064,   0.00069,   0.00113,-330577033.02706,   0.00000
152886957.62255,13216668.62177,14187712.70713,   0.00003,   0.00045,   0.00131,148769349.86962,   0.00147,276238141.63964,  -0.00064,   0.00069,   0.00113,-327468791.77002,   0.00000
157416133.79953,15456492.07746,12976997.32568,   0.00005,   0.00045,   0.00129,151956732.26799,   0.00147,276238141.63964,  -0.00064,   0.00069,   0.00113,-324281409.37165,   0.00000
161945309.97650,17696315.53314,11760778.69249,   0.00007,   0.00045,   0.00128,155204882.16786,   0.00147,276238141.63964,  -0.00064,   0.00069,   0.00113,-321033259.47178,   0.00000
166474486.15347,19936138.98882,10550063.31104,   0.00008,   0.00045,   0.00126,158512640.47828,   0.00147,276238141.63964,  -0.00064,   0.00069,   0.00113,-317725501.16136,   0.00000
171039433.46672,22222740.08425,9328341.42612,   0.00010,   0.00046,   0.00125,161890169.45036,   0.00147,276238141.63964,  -0.00064,   0.00069,   0.00113,-314347972.18928,   0.00000
175623642.16103,24517596.05727,8112122.79294,   0.00012,   0.00046,   0.00123,165337008.24179,   0.00147,276238141.63964,  -0.00064,   0.00069,   0.00113,-310901133.39785,   0.00000
180188589.47427,26804197.15269,6884897.65628,   0.00013,   0.00046,   0.00122,168815839.69524,   0.00147,276238141.63964,  -0.00064,   0.00069,   0.00113,-307422301.94441,   0.00000
184808569.30486,29145830.76545,5663175.77136,   0.00015,   0.00046,   0.00120,172376048.60886,   0.00147,276238141.63964,  -0.00064,   0.00069,   0.00113,-303862093.03078,   0.00000
189409287.75437,31479209.50061,4435950.63471,   0.00016,   0.00046,   0.00118,175964193.06757,   0.00147,276238141.63964,  -0.00064,   0.00069,   0.00113,-300273948.57207,   0.00000
194029267.58495,33820843.11337,3208725.49806,   0.00018,   0.00046,   0.00117,179610301.61999,   0.00147,276238141.63964,  -0.00064,   0.00069,   0.00113,-296627840.01965,   0.00000
198665757.17074,36200999.48827,1975997.10967,   0.00020,   0.00047,   0.00115,183298691.09252,   0.00147,276238141.63964,  -0.00064,   0.00069,   0.00113,-292939450.54713,   0.00000
203321508.13759,38589410.74077,737765.46955,   0.00021,   0.00047,   0.00114,187041048.96085,   0.00147,276238141.63964,  -0.00064,   0.00069,   0.00113,-289197092.67880,   0.00000
207977259.10444,40977821.99327,-494962.91883,   0.00023,   0.00047,   0.00112,190819291.64147,   0.00147,276238141.63964,  -0.00064,   0.00069,   0.00113,-285418849.99817,   0.00000
212649519.82650,43404756.00791,-1733194.55895,   0.00025,   0.00047,   0.00110,194635049.49884,   0.00147,276238141.63964,  -0.00064,   0.00069,   0.00113,-281603092.14080,   0.00000
217321780.54855,45831690.02254,-2976929.45081,   0.00026,   0.00047,   0.00109,198483404.73886,   0.00147,276238141.63964,  -0.00064,   0.00069,   0.00113,-277754736.90078,   0.00000
222013302.65167,48266878.91478,-4215161.09093,   0.00028,   0.00048,   0.00107,202378387.45031,   0.00147,276238141.63964,  -0.00064,   0.00069,   0.00113,-273859754.18933,   0.00000
226740595.89107,50748845.44675,-5458895.98278,   0.00030,   0.00048,   0.00105,206323334.39988,   0.00147,276238141.63964,  -0.00064,   0.00069,   0.00113,-269914807.23976,   0.00000
231448627.74939,53222557.10113,-6708134.12637,   0.00031,   0.00048,   0.00104,210280330.16776,   0.00147,276238141.63964,  -0.00064,   0.00069,   0.00113,-265957811.47188,   0.00000
236175920.98878,55704523.63310,-7957372.26996,   0.00033,   0.00048,   0.00102,214280077.83303,   0.00147,276238141.63964,  -0.00064,   0.00069,   0.00113,-261958063.80661,   0.00000
240919723.98338,58225012.92721,-9206610.41355,   0.00035,   0.00048,   0.00101,218309863.53614,   0.00147,276238141.63964,  -0.00064,   0.00069,   0.00113,-257928278.10350,   0.00000
245663526.97797,60745502.22132,-10461351.80887,   0.00036,   0.00049,   0.00099,222364452.75413,   0.00147,276238141.63964,  -0.00064,   0.00069,   0.00113,-253873688.88551,   0.00000
250426591.35364,63274246.39304,-11716093.20419,   0.00038,   0.00049,   0.00097,226458284.43410,   0.00147,276238141.63964,  -0.00064,   0.00069,   0.00113,-249779857.20554,   0.00000
255197910.60690,65822251.94582,-12970834.59951,   0.00040,   0.00049,   0.00096,230576600.96366,   0.00147,276238141.63964,  -0.00064,   0.00069,   0.00113,-245661540.67598,   0.00000
259977484.73776,68389518.87967,-14231079.24657,   0.00041,   0.00049,   0.00094,234719523.28678,   0.00147,276238141.63964,  -0.00064,   0.00069,   0.00113,-241518618.35287,   0.00000
264784575.12730,70984302.07219,-15491323.89363,   0.00043,   0.00050,   0.00092,238901731.78330,   0.00147,276238141.63964,  -0.00064,   0.00069,   0.00113,-237336409.85634,   0.00000
269591665.51683,73579085.26471,-16751568.54068,   0.00045,   0.00050,   0.00091,243103033.51981,   0.00147,276238141.63964,  -0.00064,   0.00069,   0.00113,-233135108.11983,   0.00000
274407010.78397,76193129.83829,-18011813.18774,   0.00046,   0.00050,   0.00089,247325590.75776,   0.00147,276238141.63964,  -0.00064,   0.00069,   0.00113,-228912550.88188,   0.00000
279222356.05110,78807174.41188,-19277561.08653,   0.00048,   0.00050,   0.00088,251566776.48058,   0.00147,276238141.63964,  -0.00064,   0.00069,   0.00113,-224671365.15906,   0.00000
284045956.19584,81440480.36654,-20548812.23705,   0.00050,   0.00051,   0.00086,255829198.89614,   0.00147,276238141.63964,  -0.00064,   0.00069,   0.00113,-220408942.74351,   0.00000
288897072.59924,84101302.57986,-21814560.13584,   0.00052,   0.00051,   0.00084,260126032.21649,   0.00147,276238141.63964,  -0.00064,   0.00069,   0.00113,-216112109.42315,   0.00000
293748189.00265,86762124.79319,-23085811.28636,   0.00053,   0.00051,   0.00083,264439618.54683,   0.00147,276238141.63964,  -0.00064,   0.00069,   0.00113,-211798523.09281,   0.00000
298607560.28365,89442208.38758,-24357062.43689,   0.00055,   0.00051,   0.00081,268771396.42914,   0.00147,276238141.63964,  -0.00064,   0.00069,   0.00113,-207466745.21051,   0.00000
303475186.44226,92141553.36304,-25633816.83914,   0.00057,   0.00052,   0.00079,273122421.73358,   0.00147,276238141.63964,  -0.00064,   0.00069,   0.00113,-203115719.90606,   0.00000
308362073.98193,94849153.21611,-26910571.24140,   0.00058,   0.00052,   0.00078,277503487.30911,   0.00147,276238141.63964,  -0.00064,   0.00069,   0.00113,-198734654.33053,   0.00000
313237955.01814,97567759.57264,-28187325.64366,   0.00060,   0.00052,   0.00076,281884967.08509,   0.00147,276238141.63964,  -0.00064,   0.00069,   0.00113,-194353174.55455,   0.00000
318141352.31302,100313882.18784,-29464080.04592,   0.00062,   0.00052,   0.00074,286299138.86528,   0.00147,276238141.63964,  -0.00064,   0.00069,   0.00113,-189939002.77436,   0.00000
323044749.60789,103060004.80304,-30746337.69991,   0.00063,   0.00053,   0.00073,290727180.08283,   0.00147,276238141.63964,  -0.00064,   0.00069,   0.00113,-185510961.55681,   0.00000
327956401.78037,105825388.79931,-32028595.35390,   0.00065,   0.00053,   0.00071,295170786.86187,   0.00147,276238141.63964,  -0.00064,   0.00069,   0.00113,-181067354.77777,   0.00000
332887315.33392,108599027.67318,-33310853.00789,   0.00067,   0.00053,   0.00069,299641975.59108,   0.00147,276238141.63964,  -0.00064,   0.00069,   0.00113,-176596166.04856,   0.00000
337807222.38400,111383673.05051,-34593110.66188,   0.00068,   0.00054,   0.00068,304111628.88105,   0.00147,276238141.63964,  -0.00064,   0.00069,   0.00113,-172126512.75859,   0.00000
342754645.69274,114195834.68652,-35880871.56761,   0.00070,   0.00054,   0.00066,308613988.30820,   0.00147,276238141.63964,  -0.00064,   0.00069,   0.00113,-167624153.33144,   0.00000
347682807.62042,116999741.44493,-37168632.47333,   0.00072,   0.00054,   0.00064,313110199.98776,   0.00147,276238141.63964,  -0.00064,   0.00069,   0.00113,-163127941.65188,   0.00000
352638485.80677,119831164.46200,-38456393.37906,   0.00074,   0.00055,   0.00063,317636603.42480,   0.00147,276238141.63964,  -0.00064,   0.00069,   0.00113,-158601538.21484,   0.00000
357594163.99312,122662587.47908,-39744154.28478,   0.00075,   0.00055,   0.00061,322172414.19095,   0.00147,276238141.63964,  -0.00064,   0.00069,   0.00113,-154065727.44869,   0.00000
362558097.05707,125513271.87722,-41037418.44224,   0.00077,   0.00055,   0.00059,326723600.75294,   0.00147,276238141.63964,  -0.00064,   0.00069,   0.00113,-149514540.88670,   0.00000
367549546.37969,128391472.53403,-42330682.59970,   0.00079,   0.00056,   0.00058,331304198.34728,   0.00147,276238141.63964,  -0.00064,   0.00069,   0.00113,-144933943.29236,   0.00000
372521734.32124,131261418.31325,-43623946.75716,   0.00080,   0.00056,   0.00056,335877086.85143,   0.00147,276238141.63964,  -0.00064,   0.00069,   0.00113,-140361054.78821,   0.00000
377502177.14039,134150625.47353,-44917210.91462,   0.00082,   0.00056,   0.00054,340462624.07012,   0.00147,276238141.63964,  -0.00064,   0.00069,   0.00113,-135775517.56952,   0.00000
382501881.34061,137048087.51141,-46215978.32381,   0.00084,   0.00057,   0.00053,345074580.59045,   0.00147,276238141.63964,  -0.00064,   0.00069,   0.00113,-131163561.04919,   0.00000
387490579.03736,139956556.05276,-47509242.48127,   0.00085,   0.00057,   0.00051,349680316.63697,   0.00147,276238141.63964,  -0.00064,   0.00069,   0.00113,-126557825.00267,   0.00000
392506792.99278,142892540.85278,-48808009.89046,   0.00087,   0.00057,   0.00049,354316572.16750,   0.00147,276238141.63964,  -0.00064,   0.00069,   0.00113,-121921569.47214,   0.00000
397523006.94820,145828525.65279,-50112280.55139,   0.00089,   0.00058,   0.00047,358962432.45926,   0.00147,276238141.63964,  -0.00064,   0.00069,   0.00113,-117275709.18038,   0.00000
402528214.40015,148775516.95628,-51411047.96058,   0.00091,   0.00058,   0.00046,363601515.67909,   0.00147,276238141.63964,  -0.00064,   0.00069,   0.00113,-112636625.96056,   0.00000
407552683.23317,151730763.13737,-52709815.36978,   0.00092,   0.00058,   0.00044,368263639.74211,   0.00147,276238141.63964,  -0.00064,   0.00069,   0.00113,-107974501.89753,   0.00000
412585406.94380,154705270.69952,-54014086.03070,   0.00094,   0.00059,   0.00042,372939494.02882,   0.00147,276238141.63964,  -0.00064,   0.00069,   0.00113,-103298647.61082,   0.00000
417618130.65442,157679778.26168,-55318356.69163,   0.00096,   0.00059,   0.00041,377621825.43583,   0.00147,276238141.63964,  -0.00064,   0.00069,   0.00113,-98616316.20382,   0.00000
422639847.86157,160665292.32730,-56622627.35256,   0.00097,   0.00060,   0.00039,382299082.18324,   0.00147,276238141.63964,  -0.00064,   0.00069,   0.00113,-93939059.45641,   0.00000
427689081.32740,163678322.65160,-57926898.01348,   0.00099,   0.00060,   0.00037,387003473.73769,   0.00147,276238141.63964,  -0.00064,   0.00069,   0.00113,-89234667.90195,   0.00000
432738314.79322,166691352.97589,-59236671.92614,   0.00101,   0.00060,   0.00036,391716314.40659,   0.00147,276238141.63964,  -0.00064,   0.00069,   0.00113,-84521827.23306,   0.00000
437795803.13665,169723644.68125,-60540942.58707,   0.00103,   0.00061,   0.00034,396437383.02718,   0.00147,276238141.63964,  -0.00064,   0.00069,   0.00113,-79800758.61247,   0.00000
442853291.48007,172755936.38661,-61850716.49973,   0.00104,   0.00061,   0.00032,401166610.86711,   0.00147,276238141.63964,  -0.00064,   0.00069,   0.00113,-75071530.77253,   0.00000
447899773.32003,175799234.59544,-63160490.41239,   0.00106,   0.00061,   0.00030,405890235.34294,   0.00147,276238141.63964,  -0.00064,   0.00069,   0.00113,-70347906.29670,   0.00000
452973771.41866,178870049.06294,-64464761.07332,   0.00108,   0.00062,   0.00029,410637805.84337,   0.00147,276238141.63964,  -0.00064,   0.00069,   0.00113,-65600335.79627,   0.00000
458047769.51728,181940863.53044,-65780038.23771,   0.00109,   0.00062,   0.00027,415395799.86979,   0.00147,276238141.63964,  -0.00064,   0.00069,   0.00113,-60842341.76986,   0.00000
463121767.61591,185011677.99794,-67089812.15037,   0.00111,   0.00063,   0.00025,420156263.75722,   0.00147,276238141.63964,  -0.00064,   0.00069,   0.00113,-56081877.88242,   0.00000
468184759.21107,188093498.96890,-68399586.06303,   0.00113,   0.00063,   0.00024,424910736.16555,   0.00147,276238141.63964,  -0.00064,   0.00069,   0.00113,-51327405.47409,   0.00000
473275267.06490,191202836.19854,-69714863.22743,   0.00115,   0.00064,   0.00022,429693979.57703,   0.00147,276238141.63964,  -0.00064,   0.00069,   0.00113,-46544162.06261,   0.00000
478346513.53766,194303918.55057,-71024637.14009,   0.00116,   0.00064,   0.00020,434463226.30921,   0.00147,276238141.63964,  -0.00064,   0.00069,   0.00113,-41774915.33043,   0.00000
483445276.26908,197432517.16128,-72339914.30448,   0.00118,   0.00064,   0.00019,439261090.67471,   0.00147,276238141.63964,  -0.00064,   0.00069,   0.00113,-36977050.96493,   0.00000
488524777.61944,200552860.89438,-73655191.46888,   0.00120,   0.00065,   0.00017,444047439.22539,   0.00147,276238141.63964,  -0.00064,   0.00069,   0.00113,-32190702.41425,   0.00000
493604278.96981,203673204.62748,-74970468.63327,   0.00121,   0.00065,   0.00015,448838174.27464,   0.00147,276238141.63964,  -0.00064,   0.00069,   0.00113,-27399967.36500,   0.00000
498700290.07537,206832071.12272,-76285745.79767,   0.00123,   0.00066,   0.00013,453643931.00327,   0.00147,276238141.63964,  -0.00064,   0.00069,   0.00113,-22594210.63637,   0.00000
503788046.30333,209971676.23690,-77601022.96206,   0.00125,   0.00066,   0.00012,458448509.82822,   0.00147,276238141.63964,  -0.00064,   0.00069,   0.00113,-17789631.81143,   0.00000
508892312.28649,213149804.11320,-78916300.12646,   0.00126,   0.00067,   0.00010,463268038.06884,   0.00147,276238141.63964,  -0.00064,   0.00069,   0.00113,-12970103.57080,   0.00000
513988323.39205,216308670.60845,-80231577.29085,   0.00128,   0.00067,   0.00008,468086129.47438,   0.00147,276238141.63964,  -0.00064,   0.00069,   0.00113,-8152012.16527,   0.00000
519100844.25282,219506059.86582,-81546854.45525,   0.00130,   0.00067,   0.00007,472919109.61758,   0.00147,276238141.63964,  -0.00064,   0.00069,   0.00113,-3319032.02206,   0.00000
522605758.25911,221700654.85950,-82455746.25590,   0.00131,   0.00068,   0.00005,476238144.59068,   0.00147,276238141.63964,  -0.00064,   0.00069,   0.00113,  -1.64994,   0.00000
522582566.35068,222135444.42070,-82578548.76032,   0.00132,   0.00068,   0.00005,476245980.39764,   0.00148,276245986.86980,  -0.00063,   0.00069,   0.00112,  -6.47216,   1.00000
522511802.80267,223520350.33942,-82958559.05559,   0.00133,   0.00068,   0.00003,476271222.54736,   0.00150,276271226.78878,  -0.00061,   0.00069,   0.00111,  -4.24142,   1.00000
522433855.73231,224902517.74855,-83340081.37770,   0.00135,   0.00069,   0.00001,476296435.09668,   0.00153,276296440.12186,  -0.00059,   0.00068,   0.00110,  -5.02517,   1.00000
522354890.49335,226269391.43385,-83711345.31986,   0.00137,   0.00069,  -0.00000,476321649.66913,   0.00155,276321650.38089,  -0.00057,   0.00068,   0.00109,  -0.71176,   1.00000
522270999.08981,227635847.56009,-84081129.33554,   0.00138,   0.00070,  -0.00002,476346914.52955,   0.00157,276346917.08779,  -0.00055,   0.00068,   0.00107,  -2.55824,   1.00000
522186317.32592,228987160.44394,-84440798.08585,   0.00140,   0.00070,  -0.00004,476372178.83455,   0.00160,276372179.79063,  -0.00053,   0.00068,   0.00106,  -0.95608,   1.00000
522094594.28627,230336040.06272,-84802200.39048,   0.00142,   0.00071,  -0.00005,476397412.79930,   0.00162,276397415.98456,  -0.00051,   0.00068,   0.00105,  -3.18526,   1.00000
522001400.00378,231670846.35521,-85155337.22093,   0.00143,   0.00071,  -0.00007,476422743.88508,   0.00164,276422745.81443,  -0.00049,   0.00068,   0.00104,  -1.92935,   1.00000
521907502.06018,233005647.53139,-85500551.39159,   0.00145,   0.00072,  -0.00009,476448013.83151,   0.00167,276448018.03193,  -0.00047,   0.00067,   0.00102,  -4.20042,   1.00000
521806952.43858,234323331.45299,-85845673.40141,   0.00147,   0.00072,  -0.00011,476473309.56828,   0.00169,276473315.85917,  -0.00045,   0.00067,   0.00101,  -6.29089,   1.00000
521703058.33919,235625240.24400,-86185860.60211,   0.00148,   0.00073,  -0.00012,476498619.27028,   0.00171,276498623.50443,  -0.00043,   0.00067,   0.00100,  -4.23415,   1.00000
521595506.03684,236926374.11928,-86523153.08705,   0.00150,   0.00073,  -0.00014,476523886.84020,   0.00174,276523889.17673,  -0.00041,   0.00067,   0.00098,  -2.33653,   1.00000
521491990.52742,238231528.04888,-86846364.37855,   0.00152,   0.00074,  -0.00016,476549259.14272,   0.00176,276549261.69995,  -0.00039,   0.00067,   0.00097,  -2.55723,   1.00000
521379863.02814,239518015.08112,-87172921.16671,   0.00154,   0.00074,  -0.00017,476574575.25354,   0.00179,276574576.34002,  -0.00037,   0.00067,   0.00096,  -1.08648,   1.00000
521264738.62669,240789025.09447,-87494768.73413,   0.00155,   0.00075,  -0.00019,476599892.76013,   0.00181,276599899.66804,  -0.00035,   0.00067,   0.00095,  -6.90791,   1.00000
521146103.43889,242059597.45860,-87813941.15693,   0.00157,   0.00075,  -0.00021,476625176.23428,   0.00183,276625180.90746,  -0.00033,   0.00067,   0.00093,  -4.67317,   1.00000
521031772.03385,243334234.97463,-88119177.32974,   0.00159,   0.00076,  -0.00023,476650561.70522,   0.00186,276650568.12777,  -0.00031,   0.00067,   0.00092,  -6.42256,   1.00000
520907536.33619,244574171.98965,-88429293.34982,   0.00160,   0.00076,  -0.00024,476675861.98665,   0.00188,276675864.70468,  -0.00029,   0.00067,   0.00091,  -2.71804,   1.00000
520779919.44904,245814035.96871,-88736886.49500,   0.00162,   0.00077,  -0.00026,476701118.10633,   0.00190,276701119.28780,  -0.00027,   0.00066,   0.00089,  -1.18147,   1.00000
520656844.78447,247058123.61786,-89030646.31416,   0.00164,   0.00077,  -0.00028,476726474.29590,   0.00193,276726479.29822,  -0.00025,   0.00066,   0.00088,  -5.00232,   1.00000
520525640.78943,248284388.35018,-89328177.14162,   0.00165,   0.00078,  -0.00029,476751779.82679,   0.00195,276751780.36224,  -0.00023,   0.00066,   0.00087,  -0.53545,   1.00000
520396718.69871,249513452.04407,-89615240.38873,   0.00167,   0.00078,  -0.00031,476777096.55372,   0.00198,276777104.76672,  -0.00021,   0.00066,   0.00085,  -8.21300,   1.00000
520260810.06551,250710013.69449,-89904231.18546,   0.00169,   0.00079,  -0.00033,476802410.85341,   0.00200,276802418.54446,  -0.00019,   0.00066,   0.00084,  -7.69105,   1.00000
520126298.46193,251924587.36644,-90184808.59584,   0.00170,   0.00079,  -0.00035,476827704.79221,   0.00202,276827706.97726,  -0.00017,   0.00066,   0.00083,  -2.18505,   1.00000
519984986.99963,253106856.95320,-90467413.72585,   0.00172,   0.00080,  -0.00036,476852976.14478,   0.00205,276852984.26354,  -0.00015,   0.00066,   0.00081,  -8.11875,   1.00000
519847481.51725,254308529.64477,-90738347.39816,   0.00174,   0.00080,  -0.00038,476878314.34379,   0.00207,276878317.87386,  -0.00013,   0.00066,   0.00080,  -3.53007,   1.00000
519704266.43227,255478225.19344,-91009997.36793,   0.00175,   0.00081,  -0.00040,476903536.72944,   0.00209,276903541.63453,  -0.00011,   0.00066,   0.00079,  -4.90508,   1.00000
519560345.22503,256649859.88778,-91276259.48900,   0.00177,   0.00082,  -0.00041,476928799.44959,   0.00212,276928804.37473,  -0.00009,   0.00066,   0.00077,  -4.92514,   1.00000
519414581.50904,257807269.06431,-91538598.93652,   0.00179,   0.00082,  -0.00043,476954071.14455,   0.00214,276954071.81113,  -0.00008,   0.00066,   0.00076,  -0.66658,   1.00000
519265684.12826,258965544.35006,-91798993.13723,   0.00180,   0.00083,  -0.00045,476979295.92820,   0.00217,276979297.04568,  -0.00006,   0.00066,   0.00075,  -1.11748,   1.00000
519115064.94399,260109742.37808,-92055542.34254,   0.00182,   0.00083,  -0.00047,477004519.42573,   0.00219,277004526.73312,  -0.00004,   0.00066,   0.00073,  -7.30739,   1.00000
518962846.45058,261240036.85194,-92308308.44823,   0.00183,   0.00084,  -0.00048,477029759.18141,   0.00221,277029760.46520,  -0.00002,   0.00066,   0.00072,  -1.28380,   1.00000
518807572.66458,262371520.21924,-92559253.60976,   0.00185,   0.00084,  -0.00050,477054951.57414,   0.00224,277054952.15673,   0.00000,   0.00066,   0.00070,  -0.58260,   1.00000
518654183.88779,263490714.05541,-92801740.32202,   0.00187,   0.00085,  -0.00052,477080125.99322,   0.00226,277080130.86547,   0.00002,   0.00066,   0.00069,  -4.87225,   1.00000
518494358.60624,264609763.21578,-93047277.75837,   0.00188,   0.00085,  -0.00053,477105276.56988,   0.00228,277105284.23010,   0.00004,   0.00066,   0.00068,  -7.66022,   1.00000
518339123.37613,265717592.35048,-93281036.26144,   0.00190,   0.00086,  -0.00055,477130503.11244,   0.00231,277130504.63754,   0.00006,   0.00066,   0.00066,  -1.52510,   1.00000
518177431.54324,266810198.64575,-93518128.04785,   0.00192,   0.00087,  -0.00057,477155561.67676,   0.00233,277155566.93917,   0.00008,   0.00066,   0.00065,  -5.26241,   1.00000
518011938.34403,267903798.31255,-93754921.75228,   0.00193,   0.00087,  -0.00058,477180682.36460,   0.00236,277180684.80392,   0.00010,   0.00066,   0.00063,  -2.43932,   1.00000
517848689.62152,268985608.49794,-93983474.26553,   0.00195,   0.00088,  -0.00060,477205781.96318,   0.00238,277205788.72643,   0.00012,   0.00066,   0.00062,  -6.76325,   1.00000
517687777.08648,270055808.71729,-94203905.04467,   0.00196,   0.00088,  -0.00062,477230877.29058,   0.00240,277230877.92527,   0.00014,   0.00066,   0.00061,  -0.63469,   1.00000
517520460.65537,271126389.54466,-94427642.85710,   0.00198,   0.00089,  -0.00064,477255939.19629,   0.00243,277255942.07370,   0.00016,   0.00066,   0.00059,  -2.87741,   1.00000
517349508.69965,272183249.63621,-94651497.10877,   0.00200,   0.00089,  -0.00065,477280926.47153,   0.00245,277280928.42397,   0.00017,   0.00066,   0.00058,  -1.95244,   1.00000
517181096.74110,273228851.01845,-94867321.65195,   0.00201,   0.00090,  -0.00067,477305898.95412,   0.00247,277305899.88597,   0.00019,   0.00067,   0.00056,  -0.93185,   1.00000
517011835.23802,274261766.24520,-95079940.47106,   0.00203,   0.00091,  -0.00069,477330870.92499,   0.00250,277330872.97929,   0.00021,   0.00067,   0.00055,  -2.05430,   1.00000
516839690.21735,275297093.06952,-95291259.15099,   0.00205,   0.00091,  -0.00070,477355803.09497,   0.00252,277355804.46590,   0.00023,   0.00067,   0.00053,  -1.37092,   1.00000
516667326.21218,276335358.77028,-95497810.01116,   0.00206,   0.00092,  -0.00072,477380771.16596,   0.00255,277380774.28729,   0.00025,   0.00067,   0.00052,  -3.12133,   1.00000
516490991.13880,277344991.09973,-95706377.63926,   0.00208,   0.00092,  -0.00074,477405625.05866,   0.00257,277405628.64387,   0.00027,   0.00067,   0.00051,  -3.58521,   1.00000
516314534.45312,278357831.63165,-95910217.79197,   0.00209,   0.00093,  -0.00075,477430514.62872,   0.00259,277430521.50732,   0.00029,   0.00067,   0.00049,  -6.87860,   1.00000
516138222.99974,279359552.50928,-96109818.34381,   0.00211,   0.00094,  -0.00077,477455310.32298,   0.00262,277455318.66032,   0.00031,   0.00067,   0.00048,  -8.33734,   1.00000
515961795.98055,280364530.86808,-96304786.47967,   0.00213,   0.00094,  -0.00079,477480150.26920,   0.00264,277480154.02741,   0.00032,   0.00067,   0.00046,  -3.75820,   1.00000
515782048.18797,281356908.79245,-96500333.87484,   0.00214,   0.00095,  -0.00081,477504902.57513,   0.00266,277504910.68569,   0.00034,   0.00067,   0.00045,  -8.11056,   1.00000
515601851.41390,282337277.51499,-96692971.10660,   0.00216,   0.00095,  -0.00082,477529660.26247,   0.00269,277529667.91576,   0.00036,   0.00067,   0.00043,  -7.65328,   1.00000
515421963.47389,283307121.77800,-96881573.51108,   0.00217,   0.00096,  -0.00084,477554322.11049,   0.00271,277554329.02975,   0.00038,   0.00068,   0.00042,  -6.91926,   1.00000
515238230.46002,284263570.03868,-97072057.45251,   0.00219,   0.00097,  -0.00086,477579004.54471,   0.00273,277579007.72479,   0.00040,   0.00068,   0.00041,  -3.18007,   1.00000
515055181.60417,285225096.82518,-97256854.08572,   0.00220,   0.00097,  -0.00087,477603621.12617,   0.00276,277603628.58387,   0.00042,   0.00068,   0.00039,  -7.45770,   1.00000
514872108.68541,286190208.22014,-97437171.85963,   0.00222,   0.00098,  -0.00089,477628281.16835,   0.00278,277628287.76448,   0.00043,   0.00068,   0.00038,  -6.59613,   1.00000
514685687.00300,287128265.72398,-97620059.96577,   0.00224,   0.00098,  -0.00091,477652820.57625,   0.00280,277652829.46325,   0.00045,   0.00068,   0.00036,  -8.88700,   1.00000
514502847.18653,288071893.47903,-97793829.31983,   0.00225,   0.00099,  -0.00092,477677386.26125,   0.00283,277677392.15152,   0.00047,   0.00068,   0.00035,  -5.89028,   1.00000
514316938.64232,289003976.11921,-97968542.40851,   0.00227,   0.00100,  -0.00094,477701870.66723,   0.00285,277701875.57826,   0.00049,   0.00068,   0.00033,  -4.91103,   1.00000
514130937.22923,289924852.87074,-98140659.83680,   0.00228,   0.00100,  -0.00096,477726356.75191,   0.00287,277726358.45893,   0.00051,   0.00069,   0.00032,  -1.70702,   1.00000
513939018.67847,290834415.28880,-98317330.07627,   0.00230,   0.00101,  -0.00097,477750677.89077,   0.00290,277750683.82044,   0.00053,   0.00069,   0.00030,  -5.92966,   1.00000
513753714.46137,291749960.29049,-98481404.33994,   0.00231,   0.00101,  -0.00099,477775107.82947,   0.00292,277775108.78411,   0.00054,   0.00069,   0.00029,  -0.95464,   1.00000
513561870.62285,292652648.76797,-98651239.81370,   0.00233,   0.00102,  -0.00101,477799463.57743,   0.00294,277799472.01701,   0.00056,   0.00069,   0.00028,  -8.43959,   1.00000
513370694.07604,293546271.84225,-98817484.91783,   0.00234,   0.00103,  -0.00102,477823728.90635,   0.00297,277823738.69835,   0.00058,   0.00069,   0.00026,  -9.79200,   1.00000
513180204.36400,294431013.47391,-98980204.16440,   0.00236,   0.00103,  -0.00104,477847903.23908,   0.00299,277847908.70434,   0.00060,   0.00069,   0.00025,  -5.46526,   1.00000
512986253.89288,295318261.40139,-99143343.13314,   0.00237,   0.00104,  -0.00106,477872128.33622,   0.00301,277872135.10683,   0.00062,   0.00070,   0.00023,  -6.77061,   1.00000
512796049.15564,296196730.99430,-99299428.32059,   0.00239,   0.00105,  -0.00107,477896335.46308,   0.00304,277896342.81967,   0.00063,   0.00070,   0.00022,  -7.35659,   1.00000
512602995.41342,297064782.13960,-99456783.37032,   0.00240,   0.00105,  -0.00109,477920468.08332,   0.00306,277920471.17319,   0.00065,   0.00070,   0.00020,  -3.08987,   1.00000
512410702.81774,297924432.37547,-99610770.05357,   0.00242,   0.00106,  -0.00111,477944499.41423,   0.00308,277944502.70151,   0.00067,   0.00070,   0.00019,  -3.28727,   1.00000
512212018.12413,298772132.71330,-99770722.59680,   0.00243,   0.00106,  -0.00112,477968464.44403,   0.00310,277968472.90902,   0.00069,   0.00070,   0.00017,  -8.46499,   1.00000
512017131.79095,299626373.50386,-99921843.46360,   0.00245,   0.00107,  -0.00114,477992463.30840,   0.00313,277992464.62200,   0.00070,   0.00071,   0.00016,  -1.31360,   1.00000
511826150.81979,300472347.99458,-100066103.05189,   0.00246,   0.00108,  -0.00116,478016432.99211,   0.00315,278016437.01630,   0.00072,   0.00071,   0.00014,  -4.02419,   1.00000
511625655.45276,301306789.97548,-100220064.44758,   0.00248,   0.00108,  -0.00117,478040262.99345,   0.00317,278040270.30313,   0.00074,   0.00071,   0.00013,  -7.30968,   1.00000
511429197.62195,302133270.87305,-100367167.73366,   0.00249,   0.00109,  -0.00119,478064081.82148,   0.00320,278064084.55289,   0.00076,   0.00071,   0.00012,  -2.73141,   1.00000
511236771.98361,302951902.54375,-100507499.33519,   0.00251,   0.00110,  -0.00121,478087870.40478,   0.00322,278087879.32243,   0.00077,   0.00071,   0.00010,  -8.91765,   1.00000
511034565.97554,303774078.86618,-100655704.08210,   0.00252,   0.00110,  -0.00122,478111573.12661,   0.00324,278111576.21842,   0.00079,   0.00072,   0.00009,  -3.09182,   1.00000
510836452.30312,304588490.64064,-100797135.96439,   0.00254,   0.00111,  -0.00124,478135246.05181,   0.00326,278135253.91420,   0.00081,   0.00072,   0.00007,  -7.86239,   1.00000
510638848.89429,305393332.12562,-100936506.36351,   0.00255,   0.00112,  -0.00125,478158924.08368,   0.00329,278158929.73900,   0.00083,   0.00072,   0.00006,  -5.65531,   1.00000
510438945.39905,306191320.35079,-101076482.13632,   0.00257,   0.00112,  -0.00127,478182426.18400,   0.00331,278182431.63418,   0.00084,   0.00072,   0.00004,  -5.45019,   1.00000
510239606.09660,306979981.62430,-101214435.75952,   0.00258,   0.00113,  -0.00129,478205924.11899,   0.00333,278205931.78342,   0.00086,   0.00073,   0.00003,  -7.66443,   1.00000
510040875.74920,307759433.15453,-101350400.92874,   0.00260,   0.00114,  -0.00130,478229426.24816,   0.00335,278229429.99745,   0.00088,   0.00073,   0.00001,  -3.74929,   1.00000
509839428.84286,308546942.89853,-101485087.26473,   0.00261,   0.00114,  -0.00132,478252789.69143,   0.00338,278252796.21276,   0.00089,   0.00073,  -0.00000,  -6.52134,   1.00000
509639041.96435,309310914.15406,-101619816.27182,   0.00263,   0.00115,  -0.00134,478276110.55532,   0.00340,278276118.82730,   0.00091,   0.00073,  -0.00001,  -8.27198,   1.00000
509438887.93251,310080359.04117,-101750625.90079,   0.00264,   0.00115,  -0.00135,478299473.06575,   0.00342,278299481.25596,   0.00093,   0.00074,  -0.00003,  -8.19020,   1.00000
509236406.74455,310843777.80684,-101882237.45222,   0.00265,   0.00116,  -0.00137,478322667.88318,   0.00344,278322670.31656,   0.00094,   0.00074,  -0.00004,  -2.43338,   1.00000
509034627.66960,311598361.43811,-102011966.76151,   0.00267,   0.00117,  -0.00138,478345857.31266,   0.00347,278345857.42842,   0.00096,   0.00074,  -0.00006,  -0.11575,   1.00000
508830218.14652,312344718.91016,-102143492.98957,   0.00268,   0.00117,  -0.00140,478368960.47973,   0.00349,278368966.09187,   0.00098,   0.00075,  -0.00007,  -5.61214,   1.00000
508626313.09624,313099243.56043,-102270183.81723,   0.00270,   0.00118,  -0.00142,478392015.29776,   0.00351,278392020.64150,   0.00099,   0.00075,  -0.00009,  -5.34374,   1.00000
508423721.96411,313830868.44681,-102397101.99820,   0.00271,   0.00119,  -0.00143,478415025.19867,   0.00353,278415030.77947,   0.00101,   0.00075,  -0.00010,  -5.58080,   1.00000
508221603.51962,314570869.57295,-102519247.82737,   0.00273,   0.00119,  -0.00145,478437986.61716,   0.00355,278437986.88710,   0.00103,   0.00075,  -0.00012,  -0.26994,   1.00000
508017445.59550,315288814.98558,-102645367.77841,   0.00274,   0.00120,  -0.00146,478460821.85449,   0.00358,278460822.07212,   0.00104,   0.00076,  -0.00013,  -0.21762,   1.00000
507810074.56047,316013285.40978,-102771324.07835,   0.00275,   0.00121,  -0.00148,478483618.85545,   0.00360,278483621.87505,   0.00106,   0.00076,  -0.00014,  -3.01961,   1.00000
507607224.22517,316731541.60804,-102890928.54848,   0.00277,   0.00121,  -0.00150,478506399.54704,   0.00362,278506401.60660,   0.00108,   0.00076,  -0.00016,  -2.05956,   1.00000
507401743.75747,317442248.35667,-103012512.09266,   0.00278,   0.00122,  -0.00151,478529093.36248,   0.00364,278529103.16630,   0.00109,   0.00077,  -0.00017,  -9.80383,   1.00000
507197332.25216,318147618.82588,-103131487.04300,   0.00280,   0.00123,  -0.00153,478551698.91718,   0.00366,278551708.58561,   0.00111,   0.00077,  -0.00019,  -9.66842,   1.00000
506990306.41850,318845678.96031,-103252474.66390,   0.00281,   0.00123,  -0.00154,478574226.10327,   0.00369,278574236.07332,   0.00112,   0.00077,  -0.00020,  -9.97005,   1.00000
506784213.83503,319535845.60111,-103371788.47061,   0.00282,   0.00124,  -0.00156,478596754.75935,   0.00371,278596761.57251,   0.00114,   0.00077,  -0.00022,  -6.81317,   1.00000
506578455.99134,320234993.24855,-103486440.22514,   0.00284,   0.00125,  -0.00158,478619227.01939,   0.00373,278619234.38889,   0.00116,   0.00078,  -0.00023,  -7.36950,   1.00000
506374494.99861,320915168.16980,-103600717.26403,   0.00285,   0.00125,  -0.00159,478641561.06635,   0.00375,278641567.83605,   0.00117,   0.00078,  -0.00025,  -6.76970,   1.00000
506164240.81678,321586353.21533,-103721675.70272,   0.00286,   0.00126,  -0.00161,478663835.01935,   0.00377,278663841.83472,   0.00119,   0.00078,  -0.00026,  -6.81538,   1.00000
505957976.83424,322268929.99134,-103833401.75261,   0.00288,   0.00127,  -0.00162,478686042.93792,   0.00379,278686045.68935,   0.00120,   0.00079,  -0.00027,  -2.75143,   1.00000
505748987.60807,322941735.47355,-103948148.76912,   0.00289,   0.00127,  -0.00164,478708261.99544,   0.00381,278708265.59355,   0.00122,   0.00079,  -0.00029,  -3.59811,   1.00000
505545577.38402,323598282.49746,-104058034.37150,   0.00290,   0.00128,  -0.00165,478730323.07759,   0.00384,278730327.98238,   0.00123,   0.00079,  -0.00030,  -4.90479,   1.00000
505334999.50971,324260024.27695,-104172520.23921,   0.00292,   0.00129,  -0.00167,478752365.82551,   0.00386,278752374.98287,   0.00125,   0.00080,  -0.00032,  -9.15736,   1.00000
505125497.49146,324917414.45721,-104284587.04709,   0.00293,   0.00129,  -0.00169,478774319.59010,   0.00388,278774326.67660,   0.00127,   0.00080,  -0.00033,  -7.08650,   1.00000
504917931.85016,325556799.97151,-104396449.13486,   0.00294,   0.00130,  -0.00170,478796133.59557,   0.00390,278796139.12215,   0.00128,   0.00080,  -0.00034,  -5.52658,   1.00000
504710534.23420,326202876.58812,-104504634.13204,   0.00296,   0.00131,  -0.00172,478817990.07037,   0.00392,278817993.67900,   0.00130,   0.00081,  -0.00036,  -3.60863,   1.00000
504500483.67735,326842723.49514,-104615058.15236,   0.00297,   0.00131,  -0.00173,478839767.58342,   0.00394,278839771.22373,   0.00131,   0.00081,  -0.00037,  -3.64031,   1.00000
504287765.11933,327479548.91178,-104726855.81299,   0.00298,   0.00132,  -0.00175,478861376.75419,   0.00396,278861378.88870,   0.00133,   0.00081,  -0.00039,  -2.13451,   1.00000
504079831.07544,328111596.00194,-104832613.97340,   0.00300,   0.00133,  -0.00176,478882959.08178,   0.00398,278882966.56569,   0.00134,   0.00082,  -0.00040,  -7.48391,   1.00000
503872987.59598,328736747.15340,-104936961.43953,   0.00301,   0.00133,  -0.00178,478904549.22209,   0.00400,278904552.12159,   0.00136,   0.00082,  -0.00041,  -2.89950,   1.00000
503659684.11745,329357000.73888,-105047334.40066,   0.00302,   0.00134,  -0.00179,478925981.52641,   0.00403,278925986.35974,   0.00137,   0.00082,  -0.00043,  -4.83333,   1.00000
503451219.61356,329972729.90632,-105151711.58045,   0.00303,   0.00135,  -0.00181,478947394.86352,   0.00405,278947400.60882,   0.00139,   0.00083,  -0.00044,  -5.74530,   1.00000
503236259.52865,330583773.67616,-105262138.41758,   0.00305,   0.00135,  -0.00182,478968658.62959,   0.00407,278968663.94431,   0.00140,   0.00083,  -0.00046,  -5.31473,   1.00000
503026164.74635,331190448.60389,-105366587.21482,   0.00306,   0.00136,  -0.00184,478989903.45093,   0.00409,278989907.43840,   0.00142,   0.00083,  -0.00047,  -3.98747,   1.00000
502817072.94660,331793850.46636,-105468843.63921,   0.00307,   0.00137,  -0.00186,479011050.26552,   0.00411,279011056.35798,   0.00143,   0.00084,  -0.00048,  -6.09245,   1.00000
502605264.09948,332391819.96929,-105573485.82837,   0.00308,   0.00137,  -0.00187,479032126.01316,   0.00413,279032129.10208,   0.00145,   0.00084,  -0.00050,  -3.08892,   1.00000
502390739.02704,332984438.64221,-105680495.93236,   0.00310,   0.00138,  -0.00189,479053122.82206,   0.00415,279053126.03085,   0.00146,   0.00084,  -0.00051,  -3.20878,   1.00000
502181114.39973,333572985.30044,-105781596.98091,   0.00311,   0.00139,  -0.00190,479074100.18668,   0.00417,279074103.08289,   0.00148,   0.00085,  -0.00053,  -2.89620,   1.00000
501968555.21557,334159700.41050,-105884305.22476,   0.00312,   0.00139,  -0.00192,479094909.23627,   0.00419,279094911.72519,   0.00149,   0.00085,  -0.00054,  -2.48892,   1.00000
501757163.58495,334740189.96303,-105985699.39781,   0.00313,   0.00140,  -0.00193,479115709.57556,   0.00421,279115718.86598,   0.00150,   0.00085,  -0.00055,  -9.29042,   1.00000
501543932.11986,335305685.84190,-106091017.85101,   0.00315,   0.00141,  -0.00195,479136305.10623,   0.00423,279136312.68058,   0.00152,   0.00086,  -0.00057,  -7.57435,   1.00000
501330768.76461,335878583.03358,-106192723.40419,   0.00316,   0.00141,  -0.00196,479156944.55884,   0.00425,279156950.65397,   0.00153,   0.00086,  -0.00058,  -6.09513,   1.00000
501118550.03932,336448886.30398,-106292343.68856,   0.00317,   0.00142,  -0.00198,479177486.11775,   0.00427,279177494.87487,   0.00155,   0.00087,  -0.00059,  -8.75712,   1.00000
500903539.36034,337014368.54624,-106394440.99417,   0.00318,   0.00143,  -0.00199,479197956.54158,   0.00429,279197963.83525,   0.00156,   0.00087,  -0.00061,  -7.29367,   1.00000
500689467.11042,337577418.12645,-106494469.97979,   0.00319,   0.00143,  -0.00201,479218337.00603,   0.00431,279218339.29745,   0.00157,   0.00087,  -0.00062,  -2.29142,   1.00000
500476302.16983,338138100.59699,-106592458.48969,   0.00321,   0.00144,  -0.00202,479238619.60410,   0.00433,279238621.28821,   0.00159,   0.00088,  -0.00063,  -1.68411,   1.00000
500265554.80860,338679738.56046,-106691560.80244,   0.00322,   0.00145,  -0.00203,479258855.69840,   0.00435,279258856.11972,   0.00160,   0.00088,  -0.00065,  -0.42133,   1.00000
500046685.92331,339231397.92932,-106794581.61606,   0.00323,   0.00145,  -0.00205,479278980.48624,   0.00437,279278988.55712,   0.00162,   0.00088,  -0.00066,  -8.07089,   1.00000
499832811.90714,339779703.66408,-106891823.81920,   0.00324,   0.00146,  -0.00206,479299100.94621,   0.00439,279299101.43210,   0.00163,   0.00089,  -0.00067,  -0.48589,   1.00000
499616947.35747,340314009.98050,-106993183.79070,   0.00325,   0.00147,  -0.00208,479318992.73801,   0.00441,279319001.80572,   0.00164,   0.00089,  -0.00069,  -9.06771,   1.00000
499401082.13087,340856003.81617,-107090965.39472,   0.00326,   0.00147,  -0.00209,479338944.40357,   0.00443,279338947.29574,   0.00166,   0.00089,  -0.00070,  -2.89216,   1.00000
499183207.88145,341384210.99678,-107192895.22347,   0.00328,   0.00148,  -0.00211,479358675.04660,   0.00445,279358680.51451,   0.00167,   0.00090,  -0.00071,  -5.46791,   1.00000
498969040.58457,341922513.83858,-107286719.23032,   0.00329,   0.00149,  -0.00212,479378431.53077,   0.00446,279378440.62152,   0.00168,   0.00090,  -0.00073,  -9.09075,   1.00000
498753240.80704,342443568.11283,-107385531.58127,   0.00330,   0.00149,  -0.00214,479398070.86236,   0.00448,279398080.10628,   0.00170,   0.00091,  -0.00074,  -9.24393,   1.00000
498536951.11023,342976088.15304,-107480018.56103,   0.00331,   0.00150,  -0.00215,479417666.07537,   0.00450,279417673.41642,   0.00171,   0.00091,  -0.00075,  -7.34105,   1.00000
498319023.67306,343491514.81673,-107579511.87714,   0.00332,   0.00151,  -0.00217,479437136.57713,   0.00452,279437146.31337,   0.00172,   0.00091,  -0.00077,  -9.73624,   1.00000
498101900.92567,344005485.03028,-107677079.60412,   0.00333,   0.00151,  -0.00218,479456517.14254,   0.00454,279456526.96320,   0.00174,   0.00092,  -0.00078,  -9.82066,   1.00000
497885557.44752,344518053.75278,-107772748.07314,   0.00334,   0.00152,  -0.00219,479475807.64279,   0.00456,279475815.35781,   0.00175,   0.00092,  -0.00079,  -7.71502,   1.00000
497666222.61536,345026868.97587,-107871049.60927,   0.00335,   0.00152,  -0.00221,479495026.97622,   0.00458,279495030.19392,   0.00176,   0.00093,  -0.00081,  -3.21770,   1.00000
497447638.32799,345534396.95080,-107967458.81935,   0.00337,   0.00153,  -0.00222,479514149.03182,   0.00460,279514153.10304,   0.00178,   0.00093,  -0.00082,  -4.07122,   1.00000
497226038.25169,346038275.60104,-108066506.52158,   0.00338,   0.00154,  -0.00224,479533200.03019,   0.00462,279533202.76671,   0.00179,   0.00093,  -0.00083,  -2.73652,   1.00000
497014603.23002,346529124.30222,-108157843.85752,   0.00339,   0.00154,  -0.00225,479552157.90836,   0.00463,279552167.81968,   0.00180,   0.00094,  -0.00084,  -9.91132,   1.00000
496790640.67426,347028411.54012,-108257713.40942,   0.00340,   0.00155,  -0.00226,479571047.61893,   0.00465,279571052.52852,   0.00181,   0.00094,  -0.00086,  -4.90958,   1.00000
496571136.56360,347529075.90768,-108351207.94599,   0.00341,   0.00156,  -0.00228,479589821.45892,   0.00467,279589827.13289,   0.00183,   0.00094,  -0.00087,  -5.67396,   1.00000
496354308.08235,348012021.61634,-108446082.36568,   0.00342,   0.00156,  -0.00229,479608547.13931,   0.00469,279608554.19052,   0.00184,   0.00095,  -0.00088,  -7.05121,   1.00000
496133782.27459,348495585.97663,-108542921.24278,   0.00343,   0.00157,  -0.00231,479627112.91007,   0.00471,279627117.28061,   0.00185,   0.00095,  -0.00090,  -4.37054,   1.00000
495913074.36340,348987277.33673,-108636209.08598,   0.00344,   0.00158,  -0.00232,479645724.70044,   0.00473,279645727.43421,   0.00186,   0.00096,  -0.00091,  -2.73377,   1.00000
495690052.01963,349466789.81230,-108733951.53748,   0.00345,   0.00158,  -0.00233,479664122.36336,   0.00474,279664126.65383,   0.00188,   0.00096,  -0.00092,  -4.29047,   1.00000
495472063.60587,349944170.89236,-108826119.54248,   0.00346,   0.00159,  -0.00235,479682500.13998,   0.00476,279682507.10958,   0.00189,   0.00096,  -0.00093,  -6.96960,   1.00000
495246472.90315,350419925.97624,-108924799.53634,   0.00347,   0.00160,  -0.00236,479700736.84703,   0.00478,279700742.93685,   0.00190,   0.00097,  -0.00095,  -6.08982,   1.00000
495027416.37823,350880910.90631,-109020400.65826,   0.00348,   0.00160,  -0.00238,479718906.34122,   0.00480,279718912.69051,   0.00191,   0.00097,  -0.00096,  -6.34928,   1.00000
494802969.60698,351355694.54523,-109115523.52973,   0.00349,   0.00161,  -0.00239,479736963.55133,   0.00481,279736967.07078,   0.00193,   0.00098,  -0.00097,  -3.51945,   1.00000
494579782.46159,351825988.93347,-109209603.51234,   0.00350,   0.00162,  -0.00240,479755019.91713,   0.00483,279755021.58971,   0.00194,   0.00098,  -0.00098,  -1.67258,   1.00000
494354148.70026,352284701.75189,-109308230.06775,   0.00351,   0.00162,  -0.00242,479772861.95921,   0.00485,279772865.81511,   0.00195,   0.00098,  -0.00100,  -3.85590,   1.00000
494133558.18246,352741627.64703,-109401321.14446,   0.00352,   0.00163,  -0.00243,479790684.37528,   0.00487,279790691.62235,   0.00196,   0.00099,  -0.00101,  -7.24707,   1.00000
493908930.51743,353199862.72760,-109496486.39689,   0.00353,   0.00164,  -0.00244,479808346.96446,   0.00488,279808355.01661,   0.00197,   0.00099,  -0.00102,  -8.05215,   1.00000
493685563.68390,353653849.74754,-109590638.41428,   0.00354,   0.00164,  -0.00246,479826015.50322,   0.00490,279826018.74075,   0.00198,   0.00100,  -0.00103,  -3.23754,   1.00000
493462655.36096,354107696.42062,-109683088.47488,   0.00355,   0.00165,  -0.00247,479843587.46669,   0.00492,279843592.18540,   0.00200,   0.00100,  -0.00104,  -4.71871,   1.00000
493231833.55630,354560467.64338,-109782117.06627,   0.00356,   0.00165,  -0.00248,479861018.38880,   0.00494,279861022.59236,   0.00201,   0.00100,  -0.00106,  -4.20356,   1.00000
493009832.94605,355014146.49680,-109871159.22067,   0.00357,   0.00166,  -0.00250,479878411.08134,   0.00495,279878415.92993,   0.00202,   0.00101,  -0.00107,  -4.84859,   1.00000
492786028.74699,355452731.38399,-109965591.13072,   0.00358,   0.00167,  -0.00251,479895684.67404,   0.00497,279895689.76382,   0.00203,   0.00101,  -0.00108,  -5.08978,   1.00000
492557987.31818,355893045.09861,-110062142.71780,   0.00359,   0.00167,  -0.00252,479912798.54270,   0.00499,279912802.21192,   0.00204,   0.00102,  -0.00109,  -3.66922,   1.00000
492329592.68917,356341852.89140,-110155135.79934,   0.00360,   0.00168,  -0.00254,479929959.99036,   0.00500,279929963.70846,   0.00205,   0.00102,  -0.00110,  -3.71810,   1.00000
492098502.00416,356779892.72921,-110252835.19076,   0.00361,   0.00169,  -0.00255,479946913.49790,   0.00502,279946915.76127,   0.00206,   0.00102,  -0.00112,  -2.26336,   1.00000
491872445.04560,357216560.16063,-110345072.37262,   0.00362,   0.00169,  -0.00256,479963847.78637,   0.00504,279963849.80091,   0.00208,   0.00103,  -0.00113,  -2.01454,   1.00000
491648322.65240,357641080.20445,-110438269.49942,   0.00363,   0.00170,  -0.00257,479980637.45602,   0.00505,279980645.79470,   0.00209,   0.00103,  -0.00114,  -8.33868,   1.00000
491418144.19138,358080073.12874,-110531056.09079,   0.00364,   0.00171,  -0.00259,479997322.16459,   0.00507,279997329.56338,   0.00210,   0.00103,  -0.00115,  -7.39879,   1.00000
491190833.20263,358502783.34571,-110625494.91938,   0.00364,   0.00171,  -0.00260,480013957.93284,   0.00509,280013965.60520,   0.00211,   0.00104,  -0.00116,  -7.67237,   1.00000
490957386.14042,358940012.67425,-110719514.67847,   0.00365,   0.00172,  -0.00261,480030488.71147,   0.00510,280030489.93546,   0.00212,   0.00104,  -0.00117,  -1.22400,   1.00000
490726813.96103,359361027.29257,-110815191.52781,   0.00366,   0.00172,  -0.00263,480046958.02818,   0.00512,280046966.67036,   0.00213,   0.00105,  -0.00118,  -8.64218,   1.00000
490495482.69901,359786881.67555,-110908596.66138,   0.00367,   0.00173,  -0.00264,480063255.22573,   0.00514,280063264.37586,   0.00214,   0.00105,  -0.00120,  -9.15013,   1.00000
490267046.49339,360196719.97074,-111003699.01724,   0.00368,   0.00174,  -0.00265,480079509.54493,   0.00515,280079514.30546,   0.00215,   0.00105,  -0.00121,  -4.76053,   1.00000
490032289.88752,360621269.62541,-111098390.56710,   0.00369,   0.00174,  -0.00266,480095652.82532,   0.00517,280095653.41032,   0.00216,   0.00106,  -0.00122,  -0.58501,   1.00000
489804223.65197,361032488.16062,-111190329.78679,   0.00370,   0.00175,  -0.00268,480111722.15682,   0.00518,280111725.77741,   0.00217,   0.00106,  -0.00123,  -3.62059,   1.00000
489565941.25868,361455815.84537,-111286337.10140,   0.00371,   0.00176,  -0.00269,480127699.07340,   0.00520,280127706.66226,   0.00218,   0.00107,  -0.00124,  -7.58886,   1.00000
489338173.30467,361868537.28982,-111375154.96928,   0.00371,   0.00176,  -0.00270,480143595.76369,   0.00521,280143601.67758,   0.00219,   0.00107,  -0.00125,  -5.91388,   1.00000
489101800.28643,362281163.05545,-111470712.88238,   0.00372,   0.00177,  -0.00271,480159351.23611,   0.00523,280159356.33696,   0.00220,   0.00107,  -0.00126,  -5.10085,   1.00000
488867238.27076,362682445.44445,-111567368.29514,   0.00373,   0.00177,  -0.00272,480174968.54714,   0.00525,280174973.54223,   0.00221,   0.00108,  -0.00127,  -4.99509,   1.00000
488632144.35038,363092535.59597,-111660458.47192,   0.00374,   0.00178,  -0.00274,480190640.88190,   0.00526,280190641.55958,   0.00222,   0.00108,  -0.00129,  -0.67769,   1.00000
488397675.93815,363495766.23884,-111754043.44557,   0.00375,   0.00179,  -0.00275,480206073.64989,   0.00528,280206082.36260,   0.00223,   0.00109,  -0.00130,  -8.71271,   1.00000
488159437.63294,363897382.78659,-111850561.79995,   0.00375,   0.00179,  -0.00276,480221453.64064,   0.00529,280221454.12155,   0.00224,   0.00109,  -0.00131,  -0.48090,   1.00000
487926170.36580,364298314.70129,-111941739.07097,   0.00376,   0.00180,  -0.00277,480236803.14801,   0.00531,280236808.48895,   0.00225,   0.00109,  -0.00132,  -5.34094,   1.00000
487687881.84718,364702104.02236,-112035238.41428,   0.00377,   0.00181,  -0.00279,480251998.54106,   0.00532,280252004.31901,   0.00226,   0.00110,  -0.00133,  -5.77794,   1.00000
487449549.21079,365107005.36267,-112127240.48155,   0.00378,   0.00181,  -0.00280,480267110.45727,   0.00534,280267112.26806,   0.00227,   0.00110,  -0.00134,  -1.81078,   1.00000
487209108.00509,365498266.82118,-112224892.00050,   0.00379,   0.00182,  -0.00281,480282096.86664,   0.00535,280282102.00305,   0.00228,   0.00110,  -0.00135,  -5.13641,   1.00000
486970615.77173,365905552.09989,-112313898.76639,   0.00379,   0.00182,  -0.00282,480297030.21210,   0.00537,280297034.67406,   0.00229,   0.00111,  -0.00136,  -4.46196,   1.00000
486735042.57008,366297483.29410,-112404787.08275,   0.00380,   0.00183,  -0.00283,480311914.57862,   0.00538,280311919.18899,   0.00230,   0.00111,  -0.00137,  -4.61037,   1.00000
486494245.73310,366692518.86320,-112498038.22340,   0.00381,   0.00184,  -0.00284,480326638.81329,   0.00540,280326645.85518,   0.00231,   0.00112,  -0.00138,  -7.04189,   1.00000
486255098.40323,367076875.82541,-112592549.06315,   0.00382,   0.00184,  -0.00286,480341230.19626,   0.00541,280341235.17666,   0.00232,   0.00112,  -0.00139,  -4.98040,   1.00000
486010154.42158,367471948.98680,-112687310.87347,   0.00382,   0.00185,  -0.00287,480355800.33560,   0.00542,280355806.36174,   0.00233,   0.00112,  -0.00140,  -6.02614,   1.00000
485770641.01672,367859140.96916,-112778912.52245,   0.00383,   0.00185,  -0.00288,480370213.36169,   0.00544,280370221.07932,   0.00234,   0.00113,  -0.00141,  -7.71763,   1.00000
485527088.47097,368245086.68506,-112873519.27479,   0.00384,   0.00186,  -0.00289,480384561.35192,   0.00545,280384567.75578,   0.00235,   0.00113,  -0.00142,  -6.40386,   1.00000
485283293.33762,368632535.97864,-112966685.55036,   0.00385,   0.00187,  -0.00290,480398820.16532,   0.00547,280398827.36348,   0.00236,   0.00114,  -0.00143,  -7.19816,   1.00000
485034048.82505,369023337.49576,-113062245.60610,   0.00385,   0.00187,  -0.00291,480412929.45143,   0.00548,280412930.05079,   0.00236,   0.00114,  -0.00144,  -0.59935,   1.00000
484791552.30873,369401921.07350,-113155301.51452,   0.00386,   0.00188,  -0.00292,480426960.65290,   0.00549,280426965.55200,   0.00237,   0.00114,  -0.00145,  -4.89910,   1.00000
484546897.05984,369794046.38966,-113244196.55055,   0.00387,   0.00188,  -0.00294,480440962.68260,   0.00551,280440964.34242,   0.00238,   0.00115,  -0.00146,  -1.65982,   1.00000
484299929.43483,370173113.49513,-113338894.47705,   0.00387,   0.00189,  -0.00295,480454844.77184,   0.00552,280454845.15158,   0.00239,   0.00115,  -0.00147,  -0.37974,   1.00000
484056413.57344,370556630.54447,-113427765.95738,   0.00388,   0.00190,  -0.00296,480468613.56917,   0.00554,280468619.92827,   0.00240,   0.00115,  -0.00148,  -6.35909,   1.00000
483810555.62254,370927251.38864,-113522471.41361,   0.00389,   0.00190,  -0.00297,480482272.83867,   0.00555,280482276.69750,   0.00241,   0.00116,  -0.00149,  -3.85883,   1.00000
483557127.01217,371313368.03438,-113616829.84773,   0.00389,   0.00191,  -0.00298,480495826.17472,   0.00556,280495827.89083,   0.00242,   0.00116,  -0.00150,  -1.71611,   1.00000
483310453.61608,371687533.89510,-113708761.77436,   0.00390,   0.00191,  -0.00299,480509307.22526,   0.00558,280509311.63007,   0.00243,   0.00117,  -0.00151,  -4.40481,   1.00000
483063316.90378,372063542.22683,-113799334.29141,   0.00391,   0.00192,  -0.00300,480522698.98611,   0.00559,280522708.84378,   0.00243,   0.00117,  -0.00152,  -9.85766,   1.00000
482810348.17174,372443292.23547,-113892386.58547,   0.00391,   0.00193,  -0.00301,480535940.17605,   0.00560,280535950.13452,   0.00244,   0.00117,  -0.00153,  -9.95847,   1.00000
482562245.62799,372823015.56836,-113980258.93349,   0.00392,   0.00193,  -0.00302,480549173.87109,   0.00562,280549174.46424,   0.00245,   0.00118,  -0.00154,  -0.59315,   1.00000
482304384.56757,373203700.54888,-114075041.72850,   0.00393,   0.00194,  -0.00303,480562260.06729,   0.00563,280562262.56387,   0.00246,   0.00118,  -0.00155,  -2.49657,   1.00000
482057106.06535,373575475.44053,-114163047.55159,   0.00393,   0.00194,  -0.00304,480575260.54684,   0.00564,280575263.55553,   0.00247,   0.00118,  -0.00156,  -3.00869,   1.00000
481799989.61310,373948340.03271,-114257982.82103,   0.00394,   0.00195,  -0.00305,480588123.63166,   0.00565,280588128.50830,   0.00247,   0.00119,  -0.00157,  -4.87663,   1.00000
481551538.55195,374324123.86425,-114343345.62967,   0.00394,   0.00195,  -0.00306,480600955.36101,   0.00567,280600957.20059,   0.00248,   0.00119,  -0.00158,  -1.83958,   1.00000
481293155.14303,374701017.69762,-114435660.54474,   0.00395,   0.00196,  -0.00307,480613649.43279,   0.00568,280613650.02706,   0.00249,   0.00119,  -0.00159,  -0.59427,   1.00000
481041515.89801,375066375.18608,-114525666.47122,   0.00396,   0.00197,  -0.00309,480626271.62154,   0.00569,280626274.98587,   0.00250,   0.00120,  -0.00160,  -3.36433,   1.00000
480783701.37592,375435807.63738,-114618213.47307,   0.00396,   0.00197,  -0.00310,480638742.21642,   0.00570,280638744.96606,   0.00251,   0.00120,  -0.00161,  -2.74965,   1.00000
480530689.94492,375805447.52966,-114705629.36992,   0.00397,   0.00198,  -0.00311,480651195.37235,   0.00572,280651198.19048,   0.00251,   0.00120,  -0.00161,  -2.81813,   1.00000
480271409.30263,376179190.83127,-114795610.82341,   0.00397,   0.00198,  -0.00312,480663496.50260,   0.00573,280663496.58720,   0.00252,   0.00121,  -0.00162,  -0.08460,   1.00000
480007530.30138,376552231.25692,-114888706.24845,   0.00398,   0.00199,  -0.00313,480675722.21386,   0.00574,280675728.96861,   0.00253,   0.00121,  -0.00163,  -6.75475,   1.00000
479748662.64891,376918762.54157,-114978983.83987,   0.00398,   0.00199,  -0.00314,480687799.70708,   0.00575,280687804.90010,   0.00254,   0.00122,  -0.00164,  -5.19302,   1.00000
479492603.55376,377297144.30783,-115061295.64579,   0.00399,   0.00200,  -0.00315,480699913.87050,   0.00576,280699915.50369,   0.00254,   0.00122,  -0.00165,  -1.63318,   1.00000
479228217.74299,377665292.21584,-115153485.99913,   0.00399,   0.00201,  -0.00316,480711835.45537,   0.00578,280711839.73449,   0.00255,   0.00122,  -0.00166,  -4.27911,   1.00000
478966800.76768,378038612.19302,-115240020.47735,   0.00400,   0.00201,  -0.00317,480723653.31505,   0.00579,280723659.06673,   0.00256,   0.00123,  -0.00167,  -5.75168,   1.00000
