# sigma_xx, sigma_yy, sigma_xy, epsilon_xx, epsilon_yy, epsilon_xy, vonMises, epsPlastic, hardening, epsilonP__xx, epsilonP__yy, epsilonP__xy, yieldValue, iteration
   0.00000,   0.00000,   0.00000,   0.00000,   0.00000,   0.00000,   0.00000,   0.00000,274640135.82653,   0.00000,   0.00000,   0.00000,-474640135.82653,   0.00000
   0.00000,   0.00000,   0.00000,   0.00000,   0.00000,   0.00000,   0.00000,   0.00000,274640135.82653,   0.00000,   0.00000,   0.00000,-474640135.82653,   0.00000
-2083529.33348,-2230386.02659,422212.99269,  -0.00001,  -0.00001,   0.00001,2281103.46834,   0.00000,274640135.82653,   0.00000,   0.00000,   0.00000,-472359032.35819,   0.00000
-4160174.75946,-4444709.60236,844425.98537,  -0.00001,  -0.00001,   0.00001,4550922.38036,   0.00000,274640135.82653,   0.00000,   0.00000,   0.00000,-470089213.44617,   0.00000
-6259766.54375,-6681979.53644,1262049.70640,  -0.00002,  -0.00002,   0.00002,6839897.96296,   0.00000,274640135.82653,   0.00000,   0.00000,   0.00000,-467800237.86357,   0.00000
-8359358.32804,-8919249.47051,1679673.42743,  -0.00002,  -0.00002,   0.00002,9128887.60480,   0.00000,274640135.82653,   0.00000,   0.00000,   0.00000,-465511248.22173,   0.00000
-10465834.01981,-11172581.85540,2097297.14846,  -0.00003,  -0.00003,   0.00003,11429166.45085,   0.00000,274640135.82653,   0.00000,   0.00000,   0.00000,-463210969.37568,   0.00000
-12597550.70572,-13423619.60445,2510331.59782,  -0.00003,  -0.00004,   0.00003,13736535.68553,   0.00000,274640135.82653,   0.00000,   0.00000,   0.00000,-460903600.14100,   0.00000
-14720088.84830,-15683835.89682,2923366.04719,  -0.00004,  -0.00004,   0.00004,16044764.67246,   0.00000,274640135.82653,   0.00000,   0.00000,   0.00000,-458595371.15407,   0.00000
-16867867.98501,-17941757.55337,3331811.22490,  -0.00004,  -0.00005,   0.00004,18360156.17443,   0.00000,274640135.82653,   0.00000,   0.00000,   0.00000,-456279979.65210,   0.00000
-19006468.57840,-20208857.75323,3740256.40261,  -0.00005,  -0.00005,   0.00005,20676395.07970,   0.00000,274640135.82653,   0.00000,   0.00000,   0.00000,-453963740.74683,   0.00000
-21177194.07341,-22489725.76807,4148701.58032,  -0.00005,  -0.00006,   0.00005,23013630.76756,   0.00000,274640135.82653,   0.00000,   0.00000,   0.00000,-451626505.05897,   0.00000
-23338741.02511,-24779772.32623,4557146.75802,  -0.00006,  -0.00007,   0.00006,25351686.72724,   0.00000,274640135.82653,   0.00000,   0.00000,   0.00000,-449288449.09928,   0.00000
-25509466.52012,-27060640.34107,4961002.66407,  -0.00006,  -0.00007,   0.00006,27686518.04245,   0.00000,274640135.82653,   0.00000,   0.00000,   0.00000,-446953617.78407,   0.00000
-27696254.46593,-29348392.26341,5360269.29846,  -0.00007,  -0.00008,   0.00007,30029444.89083,   0.00000,274640135.82653,   0.00000,   0.00000,   0.00000,-444610690.93570,   0.00000
-29889926.31924,-31652206.63655,5764125.20451,  -0.00007,  -0.00009,   0.00007,32386157.13919,   0.00000,274640135.82653,   0.00000,   0.00000,   0.00000,-442253978.68734,   0.00000
-32099660.62336,-33962904.91718,6163391.83890,  -0.00008,  -0.00009,   0.00008,34750994.19877,   0.00000,274640135.82653,   0.00000,   0.00000,   0.00000,-439889141.62776,   0.00000
-34293332.47667,-36266719.29032,6558069.20163,  -0.00009,  -0.00010,   0.00009,37102907.33807,   0.00000,274640135.82653,   0.00000,   0.00000,   0.00000,-437537228.48846,   0.00000
-36519129.23160,-38584301.47843,6952746.56436,  -0.00009,  -0.00010,   0.00009,39475968.42099,   0.00000,274640135.82653,   0.00000,   0.00000,   0.00000,-435164167.40553,   0.00000
-38744925.98652,-40901883.66655,7347423.92709,  -0.00010,  -0.00011,   0.00010,41849096.01050,   0.00000,274640135.82653,   0.00000,   0.00000,   0.00000,-432791039.81603,   0.00000
-40970722.74145,-43219465.85467,7742101.28981,  -0.00010,  -0.00012,   0.00010,44222279.39964,   0.00000,274640135.82653,   0.00000,   0.00000,   0.00000,-430417856.42689,   0.00000
-43212581.94718,-45543931.95028,8132189.38088,  -0.00011,  -0.00012,   0.00011,46603686.51529,   0.00000,274640135.82653,   0.00000,   0.00000,   0.00000,-428036449.31124,   0.00000
-45454441.15292,-47868398.04589,8522277.47195,  -0.00011,  -0.00013,   0.00011,48985162.13987,   0.00000,274640135.82653,   0.00000,   0.00000,   0.00000,-425654973.68666,   0.00000
-47703184.26614,-50208926.59231,8907776.29136,  -0.00012,  -0.00014,   0.00012,51375576.46405,   0.00000,274640135.82653,   0.00000,   0.00000,   0.00000,-423264559.36247,   0.00000
-49961105.92268,-52540276.59540,9297864.38243,  -0.00012,  -0.00014,   0.00012,53767771.86914,   0.00000,274640135.82653,   0.00000,   0.00000,   0.00000,-420872363.95739,   0.00000
-52241973.93753,-54894572.95680,9678773.93018,  -0.00013,  -0.00015,   0.00013,56177158.39781,   0.00000,274640135.82653,   0.00000,   0.00000,   0.00000,-418462977.42872,   0.00000
-54522841.95237,-57248869.31819,10064272.74959,  -0.00014,  -0.00015,   0.00013,58589000.98928,   0.00000,274640135.82653,   0.00000,   0.00000,   0.00000,-416051134.83725,   0.00000
-56803709.96721,-59603165.67959,10445182.29734,  -0.00014,  -0.00016,   0.00014,60998552.34635,   0.00000,274640135.82653,   0.00000,   0.00000,   0.00000,-413641583.48018,   0.00000
-59084577.98205,-61957462.04099,10826091.84509,  -0.00015,  -0.00017,   0.00014,63408175.76829,   0.00000,274640135.82653,   0.00000,   0.00000,   0.00000,-411231960.05824,   0.00000
-61381508.44770,-64318642.30987,11202412.12118,  -0.00015,  -0.00017,   0.00015,65826166.17737,   0.00000,274640135.82653,   0.00000,   0.00000,   0.00000,-408813969.64916,   0.00000
-63694501.36416,-66686706.48625,11578732.39727,  -0.00016,  -0.00018,   0.00015,68254896.82459,   0.00000,274640135.82653,   0.00000,   0.00000,   0.00000,-406385239.00194,   0.00000
-65991431.82981,-69047886.75513,11955052.67337,  -0.00017,  -0.00019,   0.00016,70673054.84959,   0.00000,274640135.82653,   0.00000,   0.00000,   0.00000,-403967080.97694,   0.00000
-68304424.74627,-71415950.93151,12326783.67780,  -0.00017,  -0.00019,   0.00016,73099629.47104,   0.00000,274640135.82653,   0.00000,   0.00000,   0.00000,-401540506.35549,   0.00000
-70633480.11354,-73790899.01537,12698514.68223,  -0.00018,  -0.00020,   0.00017,75536971.85940,   0.00000,274640135.82653,   0.00000,   0.00000,   0.00000,-399103163.96713,   0.00000
-72946473.03000,-76158963.19175,13070245.68666,  -0.00018,  -0.00020,   0.00017,77963721.14277,   0.00000,274640135.82653,   0.00000,   0.00000,   0.00000,-396676414.68376,   0.00000
-75291590.84807,-78540795.18310,13437387.41943,  -0.00019,  -0.00021,   0.00017,80409631.80241,   0.00000,274640135.82653,   0.00000,   0.00000,   0.00000,-394230504.02412,   0.00000
-77627530.12283,-80931805.71777,13804529.15220,  -0.00020,  -0.00022,   0.00018,82856197.70905,   0.00000,274640135.82653,   0.00000,   0.00000,   0.00000,-391783938.11748,   0.00000
-79972647.94091,-83313637.70913,14167081.61331,  -0.00020,  -0.00022,   0.00018,85300017.78508,   0.00000,274640135.82653,   0.00000,   0.00000,   0.00000,-389340118.04145,   0.00000
-82317765.75899,-85695469.70048,14534223.34608,  -0.00021,  -0.00023,   0.00019,87746221.74287,   0.00000,274640135.82653,   0.00000,   0.00000,   0.00000,-386893914.08366,   0.00000
-84669767.48455,-88093364.14264,14896775.80720,  -0.00021,  -0.00024,   0.00019,90201482.58935,   0.00000,274640135.82653,   0.00000,   0.00000,   0.00000,-384438653.23718,   0.00000
-87030947.75344,-90482080.04149,15254738.99665,  -0.00022,  -0.00024,   0.00020,92654048.37540,   0.00000,274640135.82653,   0.00000,   0.00000,   0.00000,-381986087.45113,   0.00000
-89399011.92981,-92886858.39114,15612702.18610,  -0.00023,  -0.00025,   0.00020,95117968.03457,   0.00000,274640135.82653,   0.00000,   0.00000,   0.00000,-379522167.79196,   0.00000
-91760192.19870,-95275574.28998,15970665.37555,  -0.00023,  -0.00025,   0.00021,97570740.37616,   0.00000,274640135.82653,   0.00000,   0.00000,   0.00000,-377069395.45037,   0.00000
-94137434.91839,-97671174.09632,16328628.56500,  -0.00024,  -0.00026,   0.00021,100034361.29608,   0.00000,274640135.82653,   0.00000,   0.00000,   0.00000,-374605774.53045,   0.00000
-96521561.54557,-100082836.35346,16682002.48280,  -0.00024,  -0.00027,   0.00022,102507082.42610,   0.00000,274640135.82653,   0.00000,   0.00000,   0.00000,-372133053.40043,   0.00000
-98898804.26527,-102478436.15979,17035376.40059,  -0.00025,  -0.00027,   0.00022,104968665.37690,   0.00000,274640135.82653,   0.00000,   0.00000,   0.00000,-369671470.44963,   0.00000
-101282930.89245,-104890098.41693,17384161.04672,  -0.00026,  -0.00028,   0.00023,107439356.90756,   0.00000,274640135.82653,   0.00000,   0.00000,   0.00000,-367200778.91897,   0.00000
-103676236.06296,-107292582.13075,17737534.96451,  -0.00026,  -0.00029,   0.00023,109911916.87677,   0.00000,274640135.82653,   0.00000,   0.00000,   0.00000,-364728218.94976,   0.00000
-106069541.23346,-109695065.84458,18086319.61065,  -0.00027,  -0.00029,   0.00024,112382358.97857,   0.00000,274640135.82653,   0.00000,   0.00000,   0.00000,-362257776.84795,   0.00000
-108469730.31145,-112113612.00921,18430514.98512,  -0.00027,  -0.00030,   0.00024,114861929.20441,   0.00000,274640135.82653,   0.00000,   0.00000,   0.00000,-359778206.62212,   0.00000
-110879097.93276,-114522979.63052,18774710.35959,  -0.00028,  -0.00030,   0.00024,117341176.89495,   0.00000,274640135.82653,   0.00000,   0.00000,   0.00000,-357298958.93158,   0.00000
-113272403.10327,-116925463.34434,19118905.73407,  -0.00029,  -0.00031,   0.00025,119809727.21572,   0.00000,274640135.82653,   0.00000,   0.00000,   0.00000,-354830408.61081,   0.00000
-115688654.63207,-119350893.41646,19463101.10854,  -0.00029,  -0.00032,   0.00025,122300421.89495,   0.00000,274640135.82653,   0.00000,   0.00000,   0.00000,-352339713.93158,   0.00000
-118098022.25338,-121760261.03777,19802707.21135,  -0.00030,  -0.00032,   0.00026,124777801.10751,   0.00000,274640135.82653,   0.00000,   0.00000,   0.00000,-349862334.71902,   0.00000
-120523452.32550,-124176512.56657,20142313.31417,  -0.00031,  -0.00033,   0.00026,127266119.60112,   0.00000,274640135.82653,   0.00000,   0.00000,   0.00000,-347374016.22541,   0.00000
-122932819.94681,-126585880.18788,20477330.14532,  -0.00031,  -0.00034,   0.00027,129741540.05449,   0.00000,274640135.82653,   0.00000,   0.00000,   0.00000,-344898595.77204,   0.00000
-125358250.01893,-129002131.71669,20812346.97647,  -0.00032,  -0.00034,   0.00027,132227912.01010,   0.00000,274640135.82653,   0.00000,   0.00000,   0.00000,-342412223.81643,   0.00000
-127783680.09105,-131418383.24549,21147363.80763,  -0.00033,  -0.00035,   0.00027,134714396.77251,   0.00000,274640135.82653,   0.00000,   0.00000,   0.00000,-339925739.05402,   0.00000
-130209110.16317,-133834634.77429,21482380.63878,  -0.00033,  -0.00036,   0.00028,137200988.20857,   0.00000,274640135.82653,   0.00000,   0.00000,   0.00000,-337439147.61796,   0.00000
-132634540.23529,-136250886.30309,21812808.19827,  -0.00034,  -0.00036,   0.00028,139685530.47767,   0.00000,274640135.82653,   0.00000,   0.00000,   0.00000,-334954605.34886,   0.00000
-135069148.85073,-138657959.28857,22143235.75777,  -0.00034,  -0.00037,   0.00029,142169830.73887,   0.00000,274640135.82653,   0.00000,   0.00000,   0.00000,-332470305.08766,   0.00000
-137494578.92285,-141074210.81737,22469074.04560,  -0.00035,  -0.00037,   0.00029,144652448.45183,   0.00000,274640135.82653,   0.00000,   0.00000,   0.00000,-329987687.37470,   0.00000
-139929187.53829,-143481283.80285,22794912.33344,  -0.00036,  -0.00038,   0.00030,147134839.32171,   0.00000,274640135.82653,   0.00000,   0.00000,   0.00000,-327505296.50482,   0.00000
-142370680.06122,-145904419.23914,23120750.62127,  -0.00036,  -0.00039,   0.00030,149628560.21317,   0.00000,274640135.82653,   0.00000,   0.00000,   0.00000,-325011575.61336,   0.00000
-144805288.67666,-148311492.22463,23446588.90911,  -0.00037,  -0.00039,   0.00030,152111174.81432,   0.00000,274640135.82653,   0.00000,   0.00000,   0.00000,-322528961.01221,   0.00000
-147255959.74291,-150725449.11760,23767837.92528,  -0.00038,  -0.00040,   0.00031,154602679.09367,   0.00000,274640135.82653,   0.00000,   0.00000,   0.00000,-320037456.73286,   0.00000
-149697452.26584,-153148584.55389,24089086.94146,  -0.00038,  -0.00040,   0.00031,157094607.06506,   0.00000,274640135.82653,   0.00000,   0.00000,   0.00000,-317545528.76147,   0.00000
-152132060.88128,-155555657.53937,24405746.68597,  -0.00039,  -0.00041,   0.00032,159573322.30415,   0.00000,274640135.82653,   0.00000,   0.00000,   0.00000,-315066813.52238,   0.00000
-154575848.04004,-157953551.98153,24722406.43049,  -0.00040,  -0.00042,   0.00032,162051859.82129,   0.00000,274640135.82653,   0.00000,   0.00000,   0.00000,-312588276.00523,   0.00000
-157026519.10629,-160367508.87450,25039066.17500,  -0.00040,  -0.00042,   0.00033,164541722.41012,   0.00000,274640135.82653,   0.00000,   0.00000,   0.00000,-310098413.41641,   0.00000
-159477190.17253,-162781465.76748,25355725.91952,  -0.00041,  -0.00043,   0.00033,167031696.15581,   0.00000,274640135.82653,   0.00000,   0.00000,   0.00000,-307608439.67072,   0.00000
-161904914.88048,-165172476.30215,25667796.39237,  -0.00041,  -0.00044,   0.00033,169497551.57188,   0.00000,274640135.82653,   0.00000,   0.00000,   0.00000,-305142584.25465,   0.00000
-164355585.94673,-167586433.19512,25979866.86523,  -0.00042,  -0.00044,   0.00034,171985654.18503,   0.00000,274640135.82653,   0.00000,   0.00000,   0.00000,-302654481.64149,   0.00000
-166799373.10549,-169984327.63728,26287348.06643,  -0.00043,  -0.00045,   0.00034,174460589.32642,   0.00000,274640135.82653,   0.00000,   0.00000,   0.00000,-300179546.50011,   0.00000
-169259222.71506,-172389105.98693,26599418.53928,  -0.00043,  -0.00045,   0.00035,176948663.32660,   0.00000,274640135.82653,   0.00000,   0.00000,   0.00000,-297691472.49993,   0.00000
-171703009.87382,-174787000.42910,26902310.46882,  -0.00044,  -0.00046,   0.00035,179421760.06248,   0.00000,274640135.82653,   0.00000,   0.00000,   0.00000,-295218375.76405,   0.00000
-174139913.12509,-177168832.42045,27209791.67001,  -0.00045,  -0.00047,   0.00035,181885837.06942,   0.00000,274640135.82653,   0.00000,   0.00000,   0.00000,-292754298.75711,   0.00000
-176583700.28385,-179566726.86261,27512683.59955,  -0.00045,  -0.00047,   0.00036,184359157.08577,   0.00000,274640135.82653,   0.00000,   0.00000,   0.00000,-290280978.74076,   0.00000
-179036665.98592,-181955442.76146,27815575.52909,  -0.00046,  -0.00048,   0.00036,186832368.21791,   0.00000,274640135.82653,   0.00000,   0.00000,   0.00000,-287807767.60862,   0.00000
-181473569.23719,-184337274.75281,28118467.45862,  -0.00047,  -0.00048,   0.00037,189294713.71064,   0.00000,274640135.82653,   0.00000,   0.00000,   0.00000,-285345422.11589,   0.00000
-183910472.48846,-186719106.74416,28416770.11650,  -0.00047,  -0.00049,   0.00037,191755119.98872,   0.00000,274640135.82653,   0.00000,   0.00000,   0.00000,-282885015.83781,   0.00000
-186363438.19054,-189107822.64301,28715072.77438,  -0.00048,  -0.00050,   0.00037,194226625.04357,   0.00000,274640135.82653,   0.00000,   0.00000,   0.00000,-280413510.78296,   0.00000
-188800341.44181,-191489654.63436,29013375.43225,  -0.00049,  -0.00050,   0.00038,196687245.25222,   0.00000,274640135.82653,   0.00000,   0.00000,   0.00000,-277952890.57431,   0.00000
-191246423.23640,-193862308.08240,29307088.81847,  -0.00049,  -0.00051,   0.00038,199145756.26832,   0.00000,274640135.82653,   0.00000,   0.00000,   0.00000,-275494379.55821,   0.00000
-193676442.58018,-196228077.62294,29600802.20469,  -0.00050,  -0.00052,   0.00038,201593376.18888,   0.00000,274640135.82653,   0.00000,   0.00000,   0.00000,-273046759.63765,   0.00000
-196106461.92396,-198593847.16349,29889926.31924,  -0.00051,  -0.00052,   0.00039,204039081.79204,   0.00000,274640135.82653,   0.00000,   0.00000,   0.00000,-270601054.03449,   0.00000
-198552543.71855,-200966500.61152,30183639.70546,  -0.00051,  -0.00053,   0.00039,206497925.90755,   0.00000,274640135.82653,   0.00000,   0.00000,   0.00000,-268142209.91898,   0.00000
-200982563.06233,-203332270.15207,30472763.82002,  -0.00052,  -0.00053,   0.00040,208943843.97810,   0.00000,274640135.82653,   0.00000,   0.00000,   0.00000,-265696291.84843,   0.00000
-203405698.49862,-205681977.24180,30757298.66292,  -0.00052,  -0.00054,   0.00040,211376682.62484,   0.00000,274640135.82653,   0.00000,   0.00000,   0.00000,-263263453.20169,   0.00000
-205844896.38572,-208038568.23903,31046422.77747,  -0.00053,  -0.00055,   0.00040,213822662.08573,   0.00000,274640135.82653,   0.00000,   0.00000,   0.00000,-260817473.74080,   0.00000
-208268031.82201,-210388275.32876,31330957.62037,  -0.00054,  -0.00055,   0.00041,216255714.76820,   0.00000,274640135.82653,   0.00000,   0.00000,   0.00000,-258384421.05833,   0.00000
-210691167.25830,-212737982.41850,31610903.19161,  -0.00054,  -0.00056,   0.00041,218686878.64158,   0.00000,274640135.82653,   0.00000,   0.00000,   0.00000,-255953257.18495,   0.00000
-213107418.78710,-215071627.05743,31895438.03451,  -0.00055,  -0.00056,   0.00041,221108964.79546,   0.00000,274640135.82653,   0.00000,   0.00000,   0.00000,-253531171.03107,   0.00000
-215523670.31590,-217405271.69636,32175383.60574,  -0.00056,  -0.00057,   0.00042,223529166.90291,   0.00000,274640135.82653,   0.00000,   0.00000,   0.00000,-251110968.92362,   0.00000
-217939921.84470,-219738916.33528,32450739.90532,  -0.00056,  -0.00057,   0.00042,225947494.33162,   0.00000,274640135.82653,   0.00000,   0.00000,   0.00000,-248692641.49491,   0.00000
-220356173.37350,-222072560.97421,32730685.47656,  -0.00057,  -0.00058,   0.00043,228367902.84369,   0.00000,274640135.82653,   0.00000,   0.00000,   0.00000,-246272232.98284,   0.00000
-222749478.54401,-224383259.25484,33006041.77614,  -0.00058,  -0.00059,   0.00043,230764207.82612,   0.00000,274640135.82653,   0.00000,   0.00000,   0.00000,-243875928.00041,   0.00000
-225158846.16532,-226700841.44296,33276808.80406,  -0.00058,  -0.00059,   0.00043,233169714.25549,   0.00000,274640135.82653,   0.00000,   0.00000,   0.00000,-241470421.57104,   0.00000
-227568213.78663,-229018423.63108,33552165.10364,  -0.00059,  -0.00060,   0.00044,235577291.02775,   0.00000,274640135.82653,   0.00000,   0.00000,   0.00000,-239062844.79878,   0.00000
-229954635.04964,-231313059.46090,33822932.13156,  -0.00060,  -0.00060,   0.00044,237960769.24854,   0.00000,274640135.82653,   0.00000,   0.00000,   0.00000,-236679366.57799,   0.00000
-232341056.31266,-233607695.29072,34093699.15947,  -0.00060,  -0.00061,   0.00044,240344344.69744,   0.00000,274640135.82653,   0.00000,   0.00000,   0.00000,-234295791.12909,   0.00000
-234727477.57567,-235902331.12054,34359876.91573,  -0.00061,  -0.00062,   0.00045,242726065.44001,   0.00000,274640135.82653,   0.00000,   0.00000,   0.00000,-231914070.38651,   0.00000
-237113898.83868,-238196966.95036,34626054.67199,  -0.00061,  -0.00062,   0.00045,245107885.52825,   0.00000,274640135.82653,   0.00000,   0.00000,   0.00000,-229532250.29828,   0.00000
-239493436.19421,-240475540.32937,34892232.42825,  -0.00062,  -0.00063,   0.00045,247478648.88542,   0.00000,274640135.82653,   0.00000,   0.00000,   0.00000,-227161486.94111,   0.00000
-241872973.54973,-242754113.70838,35158410.18451,  -0.00063,  -0.00063,   0.00046,249849509.00925,   0.00000,274640135.82653,   0.00000,   0.00000,   0.00000,-224790626.81728,   0.00000
-244236448.45445,-245025803.17991,35419998.66911,  -0.00063,  -0.00064,   0.00046,252207422.46492,   0.00000,274640135.82653,   0.00000,   0.00000,   0.00000,-222432713.36160,   0.00000
-246593039.45167,-247281430.20062,35681587.15371,  -0.00064,  -0.00064,   0.00046,254554277.78840,   0.00000,274640135.82653,   0.00000,   0.00000,   0.00000,-220085858.03813,   0.00000
-248949630.44890,-249537057.22133,35938586.36665,  -0.00065,  -0.00065,   0.00047,256899297.81700,   0.00000,274640135.82653,   0.00000,   0.00000,   0.00000,-217740838.00953,   0.00000
-251306221.44613,-251792684.24205,36195585.57959,  -0.00065,  -0.00066,   0.00047,259244413.55031,   0.00000,274640135.82653,   0.00000,   0.00000,   0.00000,-215395722.27621,   0.00000
-253655928.53586,-254032248.81195,36452584.79253,  -0.00066,  -0.00066,   0.00047,261578478.43729,   0.00000,274640135.82653,   0.00000,   0.00000,   0.00000,-213061657.38924,   0.00000
-256005635.62560,-256271813.38186,36709584.00547,  -0.00067,  -0.00067,   0.00048,263912637.06369,   0.00000,274640135.82653,   0.00000,   0.00000,   0.00000,-210727498.76284,   0.00000
-258339280.26453,-258504494.04427,36961993.94675,  -0.00067,  -0.00067,   0.00048,266233843.11859,   0.00000,274640135.82653,   0.00000,   0.00000,   0.00000,-208406292.70794,   0.00000
-260666040.99596,-260721112.25588,37214403.88803,  -0.00068,  -0.00068,   0.00048,268543997.77108,   0.00000,274640135.82653,   0.00000,   0.00000,   0.00000,-206096138.05545,   0.00000
-262992801.72740,-262937730.46749,37462224.55765,  -0.00068,  -0.00068,   0.00049,270852336.62414,   0.00000,274640135.82653,   0.00000,   0.00000,   0.00000,-203787799.20239,   0.00000
-265303500.00803,-265147464.77160,37710045.22727,  -0.00069,  -0.00069,   0.00049,273149624.38613,   0.00000,274640135.82653,   0.00000,   0.00000,   0.00000,-201490511.44039,   0.00000
-267623376.83198,-267348020.53240,37957865.89689,  -0.00070,  -0.00069,   0.00049,275447008.72520,   0.00000,274640135.82653,   0.00000,   0.00000,   0.00000,-199193127.10133,   0.00000
-269927191.20512,-269541692.38571,38205686.56651,  -0.00070,  -0.00070,   0.00050,277733332.54355,   0.00000,274640135.82653,   0.00000,   0.00000,   0.00000,-196906803.28298,   0.00000
-272208059.21996,-271712417.88072,38448917.96447,  -0.00071,  -0.00071,   0.00050,279995559.74252,   0.00000,274640135.82653,   0.00000,   0.00000,   0.00000,-194644576.08401,   0.00000
-274504989.68561,-273890027.28322,38692149.36244,  -0.00071,  -0.00071,   0.00050,282269028.69423,   0.00000,274640135.82653,   0.00000,   0.00000,   0.00000,-192371107.13230,   0.00000
-276785857.70045,-276060752.77823,38935380.76040,  -0.00072,  -0.00072,   0.00051,284531421.17730,   0.00000,274640135.82653,   0.00000,   0.00000,   0.00000,-190108714.64923,   0.00000
-279059841.80781,-278215415.82243,39174022.88670,  -0.00073,  -0.00072,   0.00051,286780883.58628,   0.00000,274640135.82653,   0.00000,   0.00000,   0.00000,-187859252.24025,   0.00000
-281333825.91516,-280370078.86663,39412665.01300,  -0.00073,  -0.00073,   0.00051,289030431.37071,   0.00000,274640135.82653,   0.00000,   0.00000,   0.00000,-185609704.45582,   0.00000
-283584863.66421,-282501795.55254,39651307.13930,  -0.00074,  -0.00073,   0.00052,291257763.30728,   0.00000,274640135.82653,   0.00000,   0.00000,   0.00000,-183382372.51925,   0.00000
-285835901.41327,-284633512.23844,39885359.99394,  -0.00075,  -0.00074,   0.00052,293483301.24279,   0.00000,274640135.82653,   0.00000,   0.00000,   0.00000,-181156834.58374,   0.00000
-288086939.16232,-286765228.92434,40119412.84858,  -0.00075,  -0.00074,   0.00052,295708920.79695,   0.00000,274640135.82653,   0.00000,   0.00000,   0.00000,-178931215.02958,   0.00000
-290315030.55308,-288873999.25195,40353465.70323,  -0.00076,  -0.00075,   0.00052,297912314.40277,   0.00000,274640135.82653,   0.00000,   0.00000,   0.00000,-176727821.42376,   0.00000
-292543121.94383,-290982769.57955,40582929.28621,  -0.00076,  -0.00075,   0.00053,300113920.02457,   0.00000,274640135.82653,   0.00000,   0.00000,   0.00000,-174526215.80196,   0.00000
-294764329.42710,-293075477.45635,40812392.86919,  -0.00077,  -0.00076,   0.00053,302304487.29725,   0.00000,274640135.82653,   0.00000,   0.00000,   0.00000,-172335648.52928,   0.00000
-296969474.45956,-295161301.42566,41041856.45217,  -0.00078,  -0.00076,   0.00053,304483937.17570,   0.00000,274640135.82653,   0.00000,   0.00000,   0.00000,-170156198.65082,   0.00000
-299174619.49201,-297247125.39496,41266730.76349,  -0.00078,  -0.00077,   0.00054,306661605.14865,   0.00000,274640135.82653,   0.00000,   0.00000,   0.00000,-167978530.67788,   0.00000
-301372880.61698,-299316886.91346,41491605.07482,  -0.00079,  -0.00077,   0.00054,308828236.09829,   0.00000,274640135.82653,   0.00000,   0.00000,   0.00000,-165811899.72824,   0.00000
-303548195.38365,-301363702.07366,41716479.38614,  -0.00079,  -0.00078,   0.00054,310972625.62280,   0.00000,274640135.82653,   0.00000,   0.00000,   0.00000,-163667510.20373,   0.00000
-305723510.15032,-303410517.23386,41941353.69746,  -0.00080,  -0.00078,   0.00055,313117086.29747,   0.00000,274640135.82653,   0.00000,   0.00000,   0.00000,-161523049.52906,   0.00000
-307898824.91699,-305457332.39406,42161638.73712,  -0.00081,  -0.00079,   0.00055,315259775.32053,   0.00000,274640135.82653,   0.00000,   0.00000,   0.00000,-159380360.50600,   0.00000
-310051193.32536,-307481201.19596,42377334.50513,  -0.00081,  -0.00079,   0.00055,317378376.16124,   0.00000,274640135.82653,   0.00000,   0.00000,   0.00000,-157261759.66528,   0.00000
-312187499.28293,-309498186.09038,42597619.54479,  -0.00082,  -0.00080,   0.00055,319487666.00019,   0.00000,274640135.82653,   0.00000,   0.00000,   0.00000,-155152469.82633,   0.00000
-314332983.78381,-311505992.44147,42813315.31279,  -0.00082,  -0.00080,   0.00056,321595304.46655,   0.00000,274640135.82653,   0.00000,   0.00000,   0.00000,-153044831.35998,   0.00000
-316462405.83388,-313506914.88507,43029011.08080,  -0.00083,  -0.00081,   0.00056,323691789.88756,   0.00000,274640135.82653,   0.00000,   0.00000,   0.00000,-150948345.93897,   0.00000
-318568881.52566,-315484890.97038,43240117.57714,  -0.00083,  -0.00081,   0.00056,325764183.35458,   0.00000,274640135.82653,   0.00000,   0.00000,   0.00000,-148875952.47195,   0.00000
-320675357.21743,-317462867.05568,43451224.07348,  -0.00084,  -0.00082,   0.00056,327836643.78749,   0.00000,274640135.82653,   0.00000,   0.00000,   0.00000,-146803492.03904,   0.00000
-322774949.00172,-319424780.69018,43662330.56983,  -0.00085,  -0.00082,   0.00057,329898072.52732,   0.00000,274640135.82653,   0.00000,   0.00000,   0.00000,-144742063.29921,   0.00000
-324858478.33520,-321379810.41719,43873437.06617,  -0.00085,  -0.00083,   0.00057,331948328.43420,   0.00000,274640135.82653,   0.00000,   0.00000,   0.00000,-142691807.39232,   0.00000
-326919061.31037,-323311893.78590,44079954.29085,  -0.00086,  -0.00083,   0.00057,333974489.43799,   0.00000,274640135.82653,   0.00000,   0.00000,   0.00000,-140665646.38854,   0.00000
-328979644.28555,-325243977.15461,44286471.51554,  -0.00086,  -0.00084,   0.00058,336000711.00690,   0.00000,274640135.82653,   0.00000,   0.00000,   0.00000,-138639424.81963,   0.00000
-331040227.26073,-327176060.52331,44488399.46856,  -0.00087,  -0.00084,   0.00058,338025179.94420,   0.00000,274640135.82653,   0.00000,   0.00000,   0.00000,-136614955.88233,   0.00000
-333070979.97012,-329069135.08292,44694916.69325,  -0.00087,  -0.00085,   0.00058,340018088.92637,   0.00000,274640135.82653,   0.00000,   0.00000,   0.00000,-134622046.90016,   0.00000
-335101732.67952,-330962209.64252,44892255.37461,  -0.00088,  -0.00085,   0.00058,342007440.46216,   0.00000,274640135.82653,   0.00000,   0.00000,   0.00000,-132632695.36437,   0.00000
-337116422.93810,-332848400.29463,45094183.32763,  -0.00088,  -0.00086,   0.00059,343987404.15201,   0.00000,274640135.82653,   0.00000,   0.00000,   0.00000,-130652731.67452,   0.00000
-339124229.28919,-334718528.49593,45291522.00900,  -0.00089,  -0.00086,   0.00059,345954533.28747,   0.00000,274640135.82653,   0.00000,   0.00000,   0.00000,-128685602.53906,   0.00000
-341115973.18948,-336581772.78975,45488860.69036,  -0.00090,  -0.00087,   0.00059,347910458.73472,   0.00000,274640135.82653,   0.00000,   0.00000,   0.00000,-126729677.09181,   0.00000
-343100833.18227,-338428954.63275,45686199.37173,  -0.00090,  -0.00087,   0.00059,349855354.67645,   0.00000,274640135.82653,   0.00000,   0.00000,   0.00000,-124784781.15008,   0.00000
-345062746.81677,-340253190.11746,45878948.78143,  -0.00091,  -0.00088,   0.00060,351776159.01964,   0.00000,274640135.82653,   0.00000,   0.00000,   0.00000,-122863976.80689,   0.00000
-347024660.45126,-342077425.60217,46071698.19114,  -0.00091,  -0.00088,   0.00060,353697019.66928,   0.00000,274640135.82653,   0.00000,   0.00000,   0.00000,-120943116.15725,   0.00000
-348970511.63495,-343894777.17939,46264447.60084,  -0.00092,  -0.00088,   0.00060,355606660.16903,   0.00000,274640135.82653,   0.00000,   0.00000,   0.00000,-119033475.65749,   0.00000
-350909478.91115,-345696066.30580,46452607.73889,  -0.00092,  -0.00089,   0.00060,357503483.13999,   0.00000,274640135.82653,   0.00000,   0.00000,   0.00000,-117136652.68654,   0.00000
-352825499.82905,-347474409.07391,46640767.87693,  -0.00093,  -0.00089,   0.00061,359378004.21843,   0.00000,274640135.82653,   0.00000,   0.00000,   0.00000,-115262131.60809,   0.00000
-354725458.29614,-349245867.93453,46824338.74332,  -0.00093,  -0.00090,   0.00061,361239508.59214,   0.00000,274640135.82653,   0.00000,   0.00000,   0.00000,-113400627.23439,   0.00000
-356618532.85574,-351001264.34434,47012498.88137,  -0.00094,  -0.00090,   0.00061,363091771.84251,   0.00000,274640135.82653,   0.00000,   0.00000,   0.00000,-111548363.98402,   0.00000
-358488661.05705,-352733714.39586,47196069.74775,  -0.00094,  -0.00091,   0.00061,364919941.07397,   0.00000,274640135.82653,   0.00000,   0.00000,   0.00000,-109720194.75256,   0.00000
-360358789.25835,-354466164.44737,47375051.34248,  -0.00095,  -0.00091,   0.00062,366746380.14516,   0.00000,274640135.82653,   0.00000,   0.00000,   0.00000,-107893755.68137,   0.00000
-362212855.00885,-356191730.59140,47558622.20886,  -0.00095,  -0.00091,   0.00062,368563353.09756,   0.00000,274640135.82653,   0.00000,   0.00000,   0.00000,-106076782.72897,   0.00000
-364053152.94436,-357885171.83380,47737603.80359,  -0.00096,  -0.00092,   0.00062,370356457.53765,   0.00000,274640135.82653,   0.00000,   0.00000,   0.00000,-104283678.28888,   0.00000
-365877388.42907,-359571729.16872,47911996.12665,  -0.00096,  -0.00092,   0.00062,372136540.36980,   0.00000,274640135.82653,   0.00000,   0.00000,   0.00000,-102503595.45673,   0.00000
-367685561.46297,-361251402.59615,48090977.72138,  -0.00097,  -0.00093,   0.00063,373907140.35408,   0.00000,274640135.82653,   0.00000,   0.00000,   0.00000,-100732995.47245,   0.00000
-369486850.58938,-362915013.57277,48265370.04445,  -0.00097,  -0.00093,   0.00063,375664946.82757,   0.00000,274640135.82653,   0.00000,   0.00000,   0.00000,-98975188.99896,   0.00000
-371265193.35749,-364555678.19109,48435173.09585,  -0.00098,  -0.00093,   0.00063,377398661.79602,   0.00000,274640135.82653,   0.00000,   0.00000,   0.00000,-97241474.03050,   0.00000
-373043536.12560,-366196342.80941,48609565.41892,  -0.00098,  -0.00094,   0.00063,379134187.64976,   0.00000,274640135.82653,   0.00000,   0.00000,   0.00000,-95505948.17677,   0.00000
-374782870.08460,-367807177.16195,48779368.47033,  -0.00099,  -0.00094,   0.00063,380834308.00194,   0.00000,274640135.82653,   0.00000,   0.00000,   0.00000,-93805827.82459,   0.00000
-376538266.49442,-369424895.42197,48949171.52173,  -0.00099,  -0.00095,   0.00064,382545780.19902,   0.00000,274640135.82653,   0.00000,   0.00000,   0.00000,-92094355.62751,   0.00000
-378247770.18763,-370996720.96540,49114385.30148,  -0.00100,  -0.00095,   0.00064,384210786.80528,   0.00000,274640135.82653,   0.00000,   0.00000,   0.00000,-90429349.02125,   0.00000
-379964157.78834,-372584608.95964,49279599.08123,  -0.00100,  -0.00095,   0.00064,385886889.57514,   0.00000,274640135.82653,   0.00000,   0.00000,   0.00000,-88753246.25138,   0.00000
-381650715.12326,-374133488.14476,49444812.86097,  -0.00101,  -0.00096,   0.00064,387529599.59211,   0.00000,274640135.82653,   0.00000,   0.00000,   0.00000,-87110536.23442,   0.00000
-383337272.45817,-375682367.32989,49605437.36906,  -0.00101,  -0.00096,   0.00064,389170592.18949,   0.00000,274640135.82653,   0.00000,   0.00000,   0.00000,-85469543.63703,   0.00000
-385000883.43479,-377208300.15672,49766061.87715,  -0.00102,  -0.00097,   0.00065,390789247.41822,   0.00000,274640135.82653,   0.00000,   0.00000,   0.00000,-83850888.40830,   0.00000
-386648431.96061,-378727349.07606,49926686.38524,  -0.00102,  -0.00097,   0.00065,392396612.18613,   0.00000,274640135.82653,   0.00000,   0.00000,   0.00000,-82243523.64040,   0.00000
-388289096.57893,-380230335.54460,50082721.62167,  -0.00103,  -0.00097,   0.00065,393991210.72052,   0.00000,274640135.82653,   0.00000,   0.00000,   0.00000,-80648925.10601,   0.00000
-389906814.83895,-381710375.65483,50238756.85809,  -0.00103,  -0.00098,   0.00065,395563467.03126,   0.00000,274640135.82653,   0.00000,   0.00000,   0.00000,-79076668.79527,   0.00000
-391508470.64817,-383183531.85758,50394792.09452,  -0.00103,  -0.00098,   0.00066,397124424.26995,   0.00000,274640135.82653,   0.00000,   0.00000,   0.00000,-77515711.55658,   0.00000
-393087180.09908,-384633741.70202,50550827.33095,  -0.00104,  -0.00098,   0.00066,398663030.57704,   0.00000,274640135.82653,   0.00000,   0.00000,   0.00000,-75977105.24949,   0.00000
-394659005.64251,-386067889.09566,50702273.29572,  -0.00104,  -0.00099,   0.00066,400188877.97711,   0.00000,274640135.82653,   0.00000,   0.00000,   0.00000,-74451257.84942,   0.00000
-396214768.73513,-387495152.58181,50849129.98883,  -0.00105,  -0.00099,   0.00066,401701675.41835,   0.00000,274640135.82653,   0.00000,   0.00000,   0.00000,-72938460.40818,   0.00000
-397747585.46945,-388899469.70966,51000575.95359,  -0.00105,  -0.00099,   0.00066,403193862.13416,   0.00000,274640135.82653,   0.00000,   0.00000,   0.00000,-71446273.69237,   0.00000
-399273518.29628,-390287724.38670,51147432.64670,  -0.00106,  -0.00100,   0.00066,404673296.56769,   0.00000,274640135.82653,   0.00000,   0.00000,   0.00000,-69966839.25884,   0.00000
-400783388.67230,-391669095.15625,51294289.33981,  -0.00106,  -0.00100,   0.00067,406141416.13219,   0.00000,274640135.82653,   0.00000,   0.00000,   0.00000,-68498719.69434,   0.00000
-402270312.69002,-393027519.56751,51436556.76126,  -0.00106,  -0.00100,   0.00067,407585439.54768,   0.00000,274640135.82653,   0.00000,   0.00000,   0.00000,-67054696.27885,   0.00000
-403734290.34945,-394362997.62046,51578824.18271,  -0.00107,  -0.00101,   0.00067,409007104.36862,   0.00000,274640135.82653,   0.00000,   0.00000,   0.00000,-65633031.45791,   0.00000
-405198268.00888,-395698475.67342,51721091.60416,  -0.00107,  -0.00101,   0.00067,410428796.50582,   0.00000,274640135.82653,   0.00000,   0.00000,   0.00000,-64211339.32071,   0.00000
-406616352.95171,-396988061.00978,51863359.02561,  -0.00108,  -0.00101,   0.00067,411805737.65690,   0.00000,274640135.82653,   0.00000,   0.00000,   0.00000,-62834398.16963,   0.00000
-408041321.80202,-398293708.79695,52001037.17540,  -0.00108,  -0.00102,   0.00068,413192002.54141,   0.00000,274640135.82653,   0.00000,   0.00000,   0.00000,-61448133.28512,   0.00000
-409452522.83736,-399567231.68250,52138715.32518,  -0.00108,  -0.00102,   0.00068,414556228.92925,   0.00000,274640135.82653,   0.00000,   0.00000,   0.00000,-60083906.89728,   0.00000
-410831598.97109,-400826986.75307,52271804.20331,  -0.00109,  -0.00102,   0.00068,415896031.10413,   0.00000,274640135.82653,   0.00000,   0.00000,   0.00000,-58744104.72240,   0.00000
-412203791.19732,-402070679.37283,52404893.08144,  -0.00109,  -0.00103,   0.00068,417224827.61533,   0.00000,274640135.82653,   0.00000,   0.00000,   0.00000,-57415308.21120,   0.00000
-413553037.06525,-403291425.63429,52537981.95957,  -0.00110,  -0.00103,   0.00068,418531257.14545,   0.00000,274640135.82653,   0.00000,   0.00000,   0.00000,-56108878.68108,   0.00000
-414879336.57489,-404489225.53746,52671070.83770,  -0.00110,  -0.00103,   0.00068,419815317.80012,   0.00000,274640135.82653,   0.00000,   0.00000,   0.00000,-54824818.02641,   0.00000
-416189573.63372,-405680141.53314,52799570.44417,  -0.00110,  -0.00103,   0.00069,421086306.13769,   0.00000,274640135.82653,   0.00000,   0.00000,   0.00000,-53553829.68884,   0.00000
-417492926.78505,-406854995.07801,52928070.05064,  -0.00111,  -0.00104,   0.00069,422346291.63886,   0.00000,274640135.82653,   0.00000,   0.00000,   0.00000,-52293844.18767,   0.00000
-418764155.03478,-408016080.80790,53051980.38545,  -0.00111,  -0.00104,   0.00069,423581831.86742,   0.00000,274640135.82653,   0.00000,   0.00000,   0.00000,-51058303.95911,   0.00000
-420021615.46952,-409145041.63617,53175890.72026,  -0.00111,  -0.00104,   0.00069,424795347.51383,   0.00000,274640135.82653,   0.00000,   0.00000,   0.00000,-49844788.31270,   0.00000
-421263013.45345,-410267118.55695,53299801.05507,  -0.00112,  -0.00105,   0.00069,425997510.28177,   0.00000,274640135.82653,   0.00000,   0.00000,   0.00000,-48642625.54475,   0.00000
-422497527.52989,-411373133.02692,53423711.38988,  -0.00112,  -0.00105,   0.00069,427188673.26413,   0.00000,274640135.82653,   0.00000,   0.00000,   0.00000,-47451462.56240,   0.00000
-423699916.70472,-412465379.68192,53543032.45303,  -0.00112,  -0.00105,   0.00070,428355379.10679,   0.00000,274640135.82653,   0.00000,   0.00000,   0.00000,-46284756.71973,   0.00000
-424895421.97206,-413541563.88610,53662353.51619,  -0.00113,  -0.00105,   0.00070,429511084.76790,   0.00000,274640135.82653,   0.00000,   0.00000,   0.00000,-45129051.05863,   0.00000
-426045034.52280,-414571855.37369,53777085.30768,  -0.00113,  -0.00106,   0.00070,430620295.60533,   0.00000,274640135.82653,   0.00000,   0.00000,   0.00000,-44019840.22120,   0.00000
-427201530.98103,-415618209.31209,53896406.37083,  -0.00113,  -0.00106,   0.00070,431742257.04889,   0.00000,274640135.82653,   0.00000,   0.00000,   0.00000,-42897878.77764,   0.00000
-428328197.17347,-416625554.44138,54006548.89066,  -0.00114,  -0.00106,   0.00070,432827386.43301,   0.00000,274640135.82653,   0.00000,   0.00000,   0.00000,-41812749.39352,   0.00000
-429438800.91510,-417626015.66318,54121280.68215,  -0.00114,  -0.00106,   0.00070,433902865.12166,   0.00000,274640135.82653,   0.00000,   0.00000,   0.00000,-40737270.70487,   0.00000
-430535636.84176,-418594351.98337,54231423.20198,  -0.00114,  -0.00107,   0.00071,434954620.59981,   0.00000,274640135.82653,   0.00000,   0.00000,   0.00000,-39685515.22672,   0.00000
-431607231.77428,-419564982.93938,54341565.72181,  -0.00115,  -0.00107,   0.00071,435994625.98544,   0.00000,274640135.82653,   0.00000,   0.00000,   0.00000,-38645509.84109,   0.00000
-432665058.89183,-420503488.99378,54451708.24164,  -0.00115,  -0.00107,   0.00071,437012627.05258,   0.00000,274640135.82653,   0.00000,   0.00000,   0.00000,-37627508.77395,   0.00000
-433699939.65108,-421419048.68988,54557261.48982,  -0.00115,  -0.00107,   0.00071,438006530.32942,   0.00000,274640135.82653,   0.00000,   0.00000,   0.00000,-36633605.49711,   0.00000
-434702695.50871,-422320840.57100,54662814.73799,  -0.00115,  -0.00107,   0.00071,438977662.35044,   0.00000,274640135.82653,   0.00000,   0.00000,   0.00000,-35662473.47609,   0.00000
-435698567.45885,-423206570.00131,54763778.71450,  -0.00116,  -0.00108,   0.00071,439936087.02458,   0.00000,274640135.82653,   0.00000,   0.00000,   0.00000,-34704048.80195,   0.00000
-436671493.05070,-424069353.07332,54869331.96267,  -0.00116,  -0.00108,   0.00071,440873839.39815,   0.00000,274640135.82653,   0.00000,   0.00000,   0.00000,-33766296.42838,   0.00000
-437644418.64254,-424932136.14533,54970295.93918,  -0.00116,  -0.00108,   0.00071,441809891.37758,   0.00000,274640135.82653,   0.00000,   0.00000,   0.00000,-32830244.44895,   0.00000
-438578335.42528,-425765088.95156,55066670.64404,  -0.00117,  -0.00108,   0.00072,442710444.79120,   0.00000,274640135.82653,   0.00000,   0.00000,   0.00000,-31929691.03533,   0.00000
-439482421.94223,-426559032.94868,55163045.34889,  -0.00117,  -0.00108,   0.00072,443577609.44528,   0.00000,274640135.82653,   0.00000,   0.00000,   0.00000,-31062526.38125,   0.00000
-440393392.36666,-427369039.39660,55259420.05374,  -0.00117,  -0.00109,   0.00072,444455785.58128,   0.00000,274640135.82653,   0.00000,   0.00000,   0.00000,-30184350.24525,   0.00000
-441258470.07451,-428133153.12793,55355794.75859,  -0.00117,  -0.00109,   0.00072,445289171.35096,   0.00000,274640135.82653,   0.00000,   0.00000,   0.00000,-29350964.47557,   0.00000
-442116663.87486,-428881204.40845,55447580.19179,  -0.00118,  -0.00109,   0.00072,446109859.92954,   0.00000,274640135.82653,   0.00000,   0.00000,   0.00000,-28530275.89698,   0.00000
-442942732.77360,-429615487.87400,55539365.62498,  -0.00118,  -0.00109,   0.00072,446907750.10002,   0.00000,274640135.82653,   0.00000,   0.00000,   0.00000,-27732385.72651,   0.00000
-443761917.76484,-430333708.88873,55631151.05817,  -0.00118,  -0.00109,   0.00072,447694654.46118,   0.00000,274640135.82653,   0.00000,   0.00000,   0.00000,-26945481.36535,   0.00000
-444558156.39779,-431028983.54517,55718347.21970,  -0.00118,  -0.00109,   0.00072,448457457.79016,   0.00000,274640135.82653,   0.00000,   0.00000,   0.00000,-26182678.03637,   0.00000
-445331448.67244,-431701311.84330,55805543.38124,  -0.00118,  -0.00110,   0.00073,449197870.92458,   0.00000,274640135.82653,   0.00000,   0.00000,   0.00000,-25442264.90195,   0.00000
-446088678.49628,-432366756.23395,55892739.54277,  -0.00119,  -0.00110,   0.00073,449926884.13284,   0.00000,274640135.82653,   0.00000,   0.00000,   0.00000,-24713251.69369,   0.00000
-446822961.96182,-433009254.26630,55975346.43264,  -0.00119,  -0.00110,   0.00073,450631794.58757,   0.00000,274640135.82653,   0.00000,   0.00000,   0.00000,-24008341.23896,   0.00000
-447527415.16158,-433612743.48954,56057953.32252,  -0.00119,  -0.00110,   0.00073,451303324.55552,   0.00000,274640135.82653,   0.00000,   0.00000,   0.00000,-23336811.27101,   0.00000
-448215805.91052,-434209348.80530,56140560.21239,  -0.00119,  -0.00110,   0.00073,451963451.56680,   0.00000,274640135.82653,   0.00000,   0.00000,   0.00000,-22676684.25973,   0.00000
-448904196.65947,-434805954.12105,56218577.83061,  -0.00119,  -0.00110,   0.00073,452621876.91275,   0.00000,274640135.82653,   0.00000,   0.00000,   0.00000,-22018258.91378,   0.00000
-449546694.69182,-435356666.72021,56296595.44882,  -0.00120,  -0.00110,   0.00073,453235509.87024,   0.00000,274640135.82653,   0.00000,   0.00000,   0.00000,-21404625.95629,   0.00000
-450173130.27336,-435900495.41188,56374613.06703,  -0.00120,  -0.00111,   0.00073,453837734.88829,   0.00000,274640135.82653,   0.00000,   0.00000,   0.00000,-20802400.93824,   0.00000
-450792681.94741,-436428261.65273,56448041.41359,  -0.00120,  -0.00111,   0.00073,454427273.89185,   0.00000,274640135.82653,   0.00000,   0.00000,   0.00000,-20212861.93468,   0.00000
-451373224.81236,-436926197.62781,56521469.76014,  -0.00120,  -0.00111,   0.00073,454983003.03888,   0.00000,274640135.82653,   0.00000,   0.00000,   0.00000,-19657132.78765,   0.00000
-451930821.31900,-437401187.24458,56594898.10670,  -0.00120,  -0.00111,   0.00074,455516339.48609,   0.00000,274640135.82653,   0.00000,   0.00000,   0.00000,-19123796.34044,   0.00000
-452481533.91816,-437860114.41054,56663737.18159,  -0.00120,  -0.00111,   0.00074,456036993.51328,   0.00000,274640135.82653,   0.00000,   0.00000,   0.00000,-18603142.31325,   0.00000
-452993237.70821,-438289211.31072,56732576.25649,  -0.00121,  -0.00111,   0.00074,456523836.07279,   0.00000,274640135.82653,   0.00000,   0.00000,   0.00000,-18116299.75374,   0.00000
-453504941.49826,-438718308.21090,56801415.33138,  -0.00121,  -0.00111,   0.00074,457010686.49903,   0.00000,274640135.82653,   0.00000,   0.00000,   0.00000,-17629449.32750,   0.00000
-453977636.47920,-439117574.84528,56870254.40627,  -0.00121,  -0.00111,   0.00074,457463722.82970,   0.00000,274640135.82653,   0.00000,   0.00000,   0.00000,-17176412.99683,   0.00000
-454443447.55266,-439500779.02886,56934504.20951,  -0.00121,  -0.00111,   0.00074,457904079.33902,   0.00000,274640135.82653,   0.00000,   0.00000,   0.00000,-16736056.48751,   0.00000
-454886312.26781,-439861036.85415,56994164.74108,  -0.00121,  -0.00111,   0.00074,458320333.72930,   0.00000,274640135.82653,   0.00000,   0.00000,   0.00000,-16319802.09723,   0.00000
-455290168.17386,-440191464.41364,57058414.54432,  -0.00121,  -0.00112,   0.00074,458704485.18382,   0.00000,274640135.82653,   0.00000,   0.00000,   0.00000,-15935650.64271,   0.00000
-455694024.07991,-440521891.97313,57118075.07590,  -0.00121,  -0.00112,   0.00074,459086931.57432,   0.00000,274640135.82653,   0.00000,   0.00000,   0.00000,-15553204.25221,   0.00000
-456074933.62766,-440829373.17433,57177735.60747,  -0.00122,  -0.00112,   0.00074,459446987.77197,   0.00000,274640135.82653,   0.00000,   0.00000,   0.00000,-15193148.05456,   0.00000
-456409950.45881,-441090961.65893,57232806.86739,  -0.00122,  -0.00112,   0.00074,459760544.11203,   0.00000,274640135.82653,   0.00000,   0.00000,   0.00000,-14879591.71450,   0.00000
-456744967.28997,-441352550.14353,57287878.12730,  -0.00122,  -0.00112,   0.00074,460074108.73168,   0.00000,274640135.82653,   0.00000,   0.00000,   0.00000,-14566027.09485,   0.00000
-457057037.76282,-441591192.26983,57342949.38722,  -0.00122,  -0.00112,   0.00075,460365285.56255,   0.00000,274640135.82653,   0.00000,   0.00000,   0.00000,-14274850.26398,   0.00000
-457336983.33406,-441816066.58115,57398020.64713,  -0.00122,  -0.00112,   0.00075,460633611.73304,   0.00000,274640135.82653,   0.00000,   0.00000,   0.00000,-14006524.09349,   0.00000
-457603161.09032,-442008815.99086,57448502.63539,  -0.00122,  -0.00112,   0.00075,460878298.89401,   0.00000,274640135.82653,   0.00000,   0.00000,   0.00000,-13761836.93252,   0.00000
-457853276.39577,-442194681.49307,57498984.62365,  -0.00122,  -0.00112,   0.00075,461111564.61204,   0.00000,274640135.82653,   0.00000,   0.00000,   0.00000,-13528571.21449,   0.00000
-458064382.89211,-442350716.72950,57544877.34024,  -0.00122,  -0.00112,   0.00075,461309295.49399,   0.00000,274640135.82653,   0.00000,   0.00000,   0.00000,-13330840.33254,   0.00000
-458261721.57348,-442474627.06431,57595359.32850,  -0.00122,  -0.00112,   0.00075,461486828.57981,   0.00000,274640135.82653,   0.00000,   0.00000,   0.00000,-13153307.24672,   0.00000
-458442997.80403,-442591653.49163,57636662.77343,  -0.00122,  -0.00112,   0.00075,461649503.66402,   0.00000,274640135.82653,   0.00000,   0.00000,   0.00000,-12990632.16251,   0.00000
-458592149.13297,-442694912.10397,57682555.49003,  -0.00122,  -0.00112,   0.00075,461791040.32098,   0.00000,274640135.82653,   0.00000,   0.00000,   0.00000,-12849095.50555,   0.00000
-458727532.64693,-442766045.81470,57723858.93497,  -0.00122,  -0.00112,   0.00075,461908948.24559,   0.00000,274640135.82653,   0.00000,   0.00000,   0.00000,-12731187.58094,   0.00000
-458830791.25927,-442823411.71044,57765162.37990,  -0.00122,  -0.00112,   0.00075,462003998.40000,   0.00000,274640135.82653,   0.00000,   0.00000,   0.00000,-12636137.42653,   0.00000
-458920282.05664,-442848652.70457,57806465.82484,  -0.00122,  -0.00112,   0.00075,462077145.45419,   0.00000,274640135.82653,   0.00000,   0.00000,   0.00000,-12562990.37234,   0.00000
-458993710.40319,-442867009.79121,57843179.99812,  -0.00122,  -0.00112,   0.00075,462137147.31533,   0.00000,274640135.82653,   0.00000,   0.00000,   0.00000,-12502988.51120,   0.00000
-459028129.94064,-442855536.61206,57879894.17140,  -0.00123,  -0.00112,   0.00075,462163334.79381,   0.00000,274640135.82653,   0.00000,   0.00000,   0.00000,-12476801.03271,   0.00000
-459055665.57060,-442828000.98210,57916608.34467,  -0.00123,  -0.00112,   0.00075,462178580.62505,   0.00000,274640135.82653,   0.00000,   0.00000,   0.00000,-12461555.20148,   0.00000
-459044192.39145,-442770635.08636,57948733.24629,  -0.00123,  -0.00112,   0.00075,462158289.24707,   0.00000,274640135.82653,   0.00000,   0.00000,   0.00000,-12481846.57946,   0.00000
-459032719.21230,-442713269.19061,57980858.14791,  -0.00123,  -0.00112,   0.00075,462138009.65907,   0.00000,274640135.82653,   0.00000,   0.00000,   0.00000,-12502126.16746,   0.00000
-458975353.31655,-442610010.57827,58012983.04953,  -0.00123,  -0.00112,   0.00075,462072969.38520,   0.00000,274640135.82653,   0.00000,   0.00000,   0.00000,-12567166.44133,   0.00000
-458917987.42081,-442506751.96593,58040518.67948,  -0.00123,  -0.00112,   0.00075,462006214.35997,   0.00000,274640135.82653,   0.00000,   0.00000,   0.00000,-12633921.46656,   0.00000
-458821612.71595,-442373663.08780,58068054.30944,  -0.00123,  -0.00112,   0.00075,461905649.84836,   0.00000,274640135.82653,   0.00000,   0.00000,   0.00000,-12734485.97817,   0.00000
-458718354.10361,-442224511.75886,58095589.93940,  -0.00122,  -0.00112,   0.00076,461794152.97816,   0.00000,274640135.82653,   0.00000,   0.00000,   0.00000,-12845982.84837,   0.00000
-458576086.68216,-442045530.16414,58123125.56936,  -0.00122,  -0.00112,   0.00076,461648851.22207,   0.00000,274640135.82653,   0.00000,   0.00000,   0.00000,-12991284.60446,   0.00000
-458426935.35322,-441850486.11860,58146071.92765,  -0.00122,  -0.00112,   0.00076,461490888.25973,   0.00000,274640135.82653,   0.00000,   0.00000,   0.00000,-13149247.56679,   0.00000
-458238775.21518,-441625611.80728,58169018.28595,  -0.00122,  -0.00112,   0.00076,461299122.82780,   0.00000,274640135.82653,   0.00000,   0.00000,   0.00000,-13341012.99873,   0.00000
-458034552.62633,-441393853.58847,58187375.37259,  -0.00122,  -0.00112,   0.00076,461094199.79341,   0.00000,274640135.82653,   0.00000,   0.00000,   0.00000,-13545936.03312,   0.00000
-457816562.22249,-441129970.46804,58210321.73089,  -0.00122,  -0.00111,   0.00076,460869150.17758,   0.00000,274640135.82653,   0.00000,   0.00000,   0.00000,-13770985.64895,   0.00000
-457566446.91704,-440852319.53263,58228678.81753,  -0.00122,  -0.00111,   0.00076,460619505.26265,   0.00000,274640135.82653,   0.00000,   0.00000,   0.00000,-14020630.56388,   0.00000
-457293385.25329,-440551722.23892,58242446.63251,  -0.00122,  -0.00111,   0.00076,460345760.80541,   0.00000,274640135.82653,   0.00000,   0.00000,   0.00000,-14294375.02112,   0.00000
-457013439.68206,-440235062.49441,58256214.44749,  -0.00122,  -0.00111,   0.00076,460061097.77454,   0.00000,274640135.82653,   0.00000,   0.00000,   0.00000,-14579038.05198,   0.00000
-456701369.20920,-439904634.93491,58269982.26246,  -0.00122,  -0.00111,   0.00076,459753577.34022,   0.00000,274640135.82653,   0.00000,   0.00000,   0.00000,-14886558.48631,   0.00000
-456359468.47056,-439535198.56631,58283750.07744,  -0.00122,  -0.00111,   0.00076,459412768.88970,   0.00000,274640135.82653,   0.00000,   0.00000,   0.00000,-15227366.93683,   0.00000
-456001505.28110,-439158878.29022,58297517.89242,  -0.00122,  -0.00111,   0.00076,459060546.57214,   0.00000,274640135.82653,   0.00000,   0.00000,   0.00000,-15579589.25439,   0.00000
-455613711.82586,-438743549.20502,58306696.43574,  -0.00122,  -0.00111,   0.00076,458673295.41577,   0.00000,274640135.82653,   0.00000,   0.00000,   0.00000,-15966840.41076,   0.00000
-455225918.37063,-438328220.11983,58311285.70740,  -0.00122,  -0.00111,   0.00076,458284318.82461,   0.00000,274640135.82653,   0.00000,   0.00000,   0.00000,-16355817.00192,   0.00000
-454799116.10628,-437883060.76884,58320464.25072,  -0.00122,  -0.00111,   0.00076,457863311.01653,   0.00000,274640135.82653,   0.00000,   0.00000,   0.00000,-16776824.81000,   0.00000
-454349367.48363,-437414955.05956,58325053.52238,  -0.00121,  -0.00110,   0.00076,457418209.17898,   0.00000,274640135.82653,   0.00000,   0.00000,   0.00000,-17221926.64755,   0.00000
-453876672.50269,-436923902.99198,58329642.79404,  -0.00121,  -0.00110,   0.00076,456950769.01829,   0.00000,274640135.82653,   0.00000,   0.00000,   0.00000,-17689366.80823,   0.00000
-453387915.07094,-436425967.01690,58329642.79404,  -0.00121,  -0.00110,   0.00076,456470161.82423,   0.00000,274640135.82653,   0.00000,   0.00000,   0.00000,-18169974.00230,   0.00000
-452869327.37340,-435889022.23273,58334232.06570,  -0.00121,  -0.00110,   0.00076,455958053.95095,   0.00000,274640135.82653,   0.00000,   0.00000,   0.00000,-18682081.87558,   0.00000
-452334677.22505,-435345193.54106,58334232.06570,  -0.00121,  -0.00110,   0.00076,455432781.04437,   0.00000,274640135.82653,   0.00000,   0.00000,   0.00000,-19207354.78216,   0.00000
-451777080.71840,-434778418.49109,58329642.79404,  -0.00121,  -0.00110,   0.00076,454883414.58909,   0.00000,274640135.82653,   0.00000,   0.00000,   0.00000,-19756721.23744,   0.00000
-451196537.85346,-434188697.08283,58329642.79404,  -0.00121,  -0.00110,   0.00076,454313487.83852,   0.00000,274640135.82653,   0.00000,   0.00000,   0.00000,-20326647.98801,   0.00000
-450593048.63022,-433576029.31627,58325053.52238,  -0.00120,  -0.00109,   0.00076,453719472.15664,   0.00000,274640135.82653,   0.00000,   0.00000,   0.00000,-20920663.66989,   0.00000
-449966613.04868,-432940415.19141,58320464.25072,  -0.00120,  -0.00109,   0.00076,453103137.64120,   0.00000,274640135.82653,   0.00000,   0.00000,   0.00000,-21536998.18533,   0.00000
-449324115.01633,-432297917.15906,58311285.70740,  -0.00120,  -0.00109,   0.00076,452473633.02951,   0.00000,274640135.82653,   0.00000,   0.00000,   0.00000,-22166502.79702,   0.00000
-448651786.71819,-431616410.31760,58302107.16408,  -0.00120,  -0.00109,   0.00076,451810894.97079,   0.00000,274640135.82653,   0.00000,   0.00000,   0.00000,-22829240.85574,   0.00000
-447963395.96924,-430928019.56865,58292928.62076,  -0.00120,  -0.00109,   0.00076,451136763.84766,   0.00000,274640135.82653,   0.00000,   0.00000,   0.00000,-23503371.97887,   0.00000
-447235996.41119,-430209798.55392,58283750.07744,  -0.00120,  -0.00109,   0.00076,450428891.06369,   0.00000,274640135.82653,   0.00000,   0.00000,   0.00000,-24211244.76284,   0.00000
-446501712.94565,-429475515.08838,58269982.26246,  -0.00119,  -0.00108,   0.00076,449708368.90951,   0.00000,274640135.82653,   0.00000,   0.00000,   0.00000,-24931766.91702,   0.00000
-445751367.02930,-428734347.71535,58256214.44749,  -0.00119,  -0.00108,   0.00076,448976458.28942,   0.00000,274640135.82653,   0.00000,   0.00000,   0.00000,-25663677.53711,   0.00000
-444971190.84716,-427954171.53321,58242446.63251,  -0.00119,  -0.00108,   0.00076,448211338.60121,   0.00000,274640135.82653,   0.00000,   0.00000,   0.00000,-26428797.22532,   0.00000
-444168068.30672,-427151048.99277,58224089.54587,  -0.00119,  -0.00108,   0.00076,447422137.43061,   0.00000,274640135.82653,   0.00000,   0.00000,   0.00000,-27217998.39592,   0.00000
-443348883.31547,-426341042.54484,58205732.45923,  -0.00119,  -0.00108,   0.00076,446621555.28460,   0.00000,274640135.82653,   0.00000,   0.00000,   0.00000,-28018580.54193,   0.00000
-442506751.96593,-425508089.73862,58187375.37259,  -0.00118,  -0.00107,   0.00076,445798686.85454,   0.00000,274640135.82653,   0.00000,   0.00000,   0.00000,-28841448.97199,   0.00000
-441641674.25809,-424652190.57409,58169018.28595,  -0.00118,  -0.00107,   0.00076,444953538.07270,   0.00000,274640135.82653,   0.00000,   0.00000,   0.00000,-29686597.75383,   0.00000
-440753650.19195,-423773345.05127,58146071.92765,  -0.00118,  -0.00107,   0.00076,444084312.36638,   0.00000,274640135.82653,   0.00000,   0.00000,   0.00000,-30555823.46015,   0.00000
-439833501.22419,-422880731.71347,58123125.56936,  -0.00118,  -0.00107,   0.00076,443192286.03589,   0.00000,274640135.82653,   0.00000,   0.00000,   0.00000,-31447849.79064,   0.00000
-438899584.44145,-421955993.47406,58100179.21106,  -0.00117,  -0.00106,   0.00076,442278518.51100,   0.00000,274640135.82653,   0.00000,   0.00000,   0.00000,-32361617.31553,   0.00000
-437949605.20791,-421024371.32715,58072643.58110,  -0.00117,  -0.00106,   0.00075,441351579.29370,   0.00000,274640135.82653,   0.00000,   0.00000,   0.00000,-33288556.53283,   0.00000
-436976679.61606,-420069802.82194,58045107.95114,  -0.00117,  -0.00106,   0.00075,440402377.14869,   0.00000,274640135.82653,   0.00000,   0.00000,   0.00000,-34237758.67784,   0.00000
-435980807.66592,-419092287.95844,58017572.32118,  -0.00117,  -0.00106,   0.00075,439430918.78328,   0.00000,274640135.82653,   0.00000,   0.00000,   0.00000,-35209217.04325,   0.00000
-434961989.35748,-418091826.73664,57990036.69123,  -0.00116,  -0.00105,   0.00075,438437211.17701,   0.00000,274640135.82653,   0.00000,   0.00000,   0.00000,-36202924.64952,   0.00000
-433927108.59823,-417084481.60735,57957911.78961,  -0.00116,  -0.00105,   0.00075,437430332.56286,   0.00000,274640135.82653,   0.00000,   0.00000,   0.00000,-37209803.26367,   0.00000
-432862397.57319,-416038127.66895,57925786.88799,  -0.00116,  -0.00105,   0.00075,436390315.93544,   0.00000,274640135.82653,   0.00000,   0.00000,   0.00000,-38249819.89109,   0.00000
-431781624.09735,-414984889.82306,57893661.98637,  -0.00116,  -0.00105,   0.00075,435338957.91730,   0.00000,274640135.82653,   0.00000,   0.00000,   0.00000,-39301177.90923,   0.00000
-430677904.26320,-413908705.61887,57861537.08476,  -0.00115,  -0.00104,   0.00075,434265370.86998,   0.00000,274640135.82653,   0.00000,   0.00000,   0.00000,-40374764.95655,   0.00000
-429551238.07076,-412809575.05639,57824822.91148,  -0.00115,  -0.00104,   0.00075,433167724.75296,   0.00000,274640135.82653,   0.00000,   0.00000,   0.00000,-41472411.07357,   0.00000
-428424571.87832,-411710444.49391,57788108.73820,  -0.00115,  -0.00104,   0.00075,432070167.34435,   0.00000,274640135.82653,   0.00000,   0.00000,   0.00000,-42569968.48218,   0.00000
-427252012.96928,-410565421.21483,57746805.29327,  -0.00114,  -0.00103,   0.00075,430926241.45987,   0.00000,274640135.82653,   0.00000,   0.00000,   0.00000,-43713894.36666,   0.00000
-426063391.60943,-409413514.02826,57710091.11999,  -0.00114,  -0.00103,   0.00075,429772838.40689,   0.00000,274640135.82653,   0.00000,   0.00000,   0.00000,-44867297.41964,   0.00000
-424851823.89129,-408238660.48339,57668787.67505,  -0.00114,  -0.00103,   0.00075,428595384.83686,   0.00000,274640135.82653,   0.00000,   0.00000,   0.00000,-46044750.98967,   0.00000
-423633372.26565,-407047744.48771,57627484.23012,  -0.00113,  -0.00103,   0.00075,427407150.77701,   0.00000,274640135.82653,   0.00000,   0.00000,   0.00000,-47232985.04952,   0.00000
-422375911.83091,-405826998.22625,57581591.51352,  -0.00113,  -0.00102,   0.00075,426183451.11770,   0.00000,274640135.82653,   0.00000,   0.00000,   0.00000,-48456684.70882,   0.00000
-421118451.39617,-404606251.96478,57540288.06858,  -0.00113,  -0.00102,   0.00075,424961722.08297,   0.00000,274640135.82653,   0.00000,   0.00000,   0.00000,-49678413.74356,   0.00000
-419821982.15232,-403355675.43753,57494395.35199,  -0.00112,  -0.00102,   0.00075,423704537.29229,   0.00000,274640135.82653,   0.00000,   0.00000,   0.00000,-50935598.53424,   0.00000
-418518629.00098,-402089036.45947,57448502.63539,  -0.00112,  -0.00101,   0.00075,422436593.05459,   0.00000,274640135.82653,   0.00000,   0.00000,   0.00000,-52203542.77194,   0.00000
-417176267.04054,-400792567.21562,57398020.64713,  -0.00112,  -0.00101,   0.00075,421133198.63338,   0.00000,274640135.82653,   0.00000,   0.00000,   0.00000,-53506937.19314,   0.00000
-415827021.17260,-399480035.52096,57347538.65888,  -0.00111,  -0.00101,   0.00075,419819053.52092,   0.00000,274640135.82653,   0.00000,   0.00000,   0.00000,-54821082.30561,   0.00000
-414461712.85386,-398160619.91882,57301645.94228,  -0.00111,  -0.00100,   0.00074,418495512.56431,   0.00000,274640135.82653,   0.00000,   0.00000,   0.00000,-56144623.26222,   0.00000
-413066574.26933,-396802195.50756,57246574.68236,  -0.00111,  -0.00100,   0.00074,417135187.33854,   0.00000,274640135.82653,   0.00000,   0.00000,   0.00000,-57504948.48799,   0.00000
-411655373.23399,-395436887.18882,57196092.69411,  -0.00110,  -0.00100,   0.00074,415765484.05828,   0.00000,274640135.82653,   0.00000,   0.00000,   0.00000,-58874651.76825,   0.00000
-410228109.74784,-394064694.96259,57141021.43419,  -0.00110,  -0.00099,   0.00074,414382625.00014,   0.00000,274640135.82653,   0.00000,   0.00000,   0.00000,-60257510.82638,   0.00000
-408771015.99591,-392653493.92725,57085950.17428,  -0.00109,  -0.00099,   0.00074,412966777.46099,   0.00000,274640135.82653,   0.00000,   0.00000,   0.00000,-61673358.36554,   0.00000
-407297859.79316,-391235408.98442,57030878.91436,  -0.00109,  -0.00099,   0.00074,411539682.81306,   0.00000,274640135.82653,   0.00000,   0.00000,   0.00000,-63100453.01347,   0.00000
-405817819.68293,-389801261.59078,56971218.38279,  -0.00109,  -0.00098,   0.00074,410099972.43794,   0.00000,274640135.82653,   0.00000,   0.00000,   0.00000,-64540163.38859,   0.00000
-404298770.76359,-388337283.93135,56916147.12287,  -0.00108,  -0.00098,   0.00074,408628681.08706,   0.00000,274640135.82653,   0.00000,   0.00000,   0.00000,-66011454.73947,   0.00000
-402772837.93676,-386857243.82112,56856486.59130,  -0.00108,  -0.00097,   0.00074,407144785.43731,   0.00000,274640135.82653,   0.00000,   0.00000,   0.00000,-67495350.38922,   0.00000
-401214780.20831,-385363435.89591,56792236.78806,  -0.00107,  -0.00097,   0.00074,405636346.77871,   0.00000,274640135.82653,   0.00000,   0.00000,   0.00000,-69003789.04782,   0.00000
-399649838.57237,-383853565.51988,56732576.25649,  -0.00107,  -0.00097,   0.00074,404119157.38293,   0.00000,274640135.82653,   0.00000,   0.00000,   0.00000,-70520978.44360,   0.00000
-398061950.57813,-382320748.78556,56668326.45325,  -0.00107,  -0.00096,   0.00074,402577975.19361,   0.00000,274640135.82653,   0.00000,   0.00000,   0.00000,-72062160.63292,   0.00000
-396451116.22560,-380764985.69295,56604076.65002,  -0.00106,  -0.00096,   0.00074,401014741.33613,   0.00000,274640135.82653,   0.00000,   0.00000,   0.00000,-73625394.49040,   0.00000
-394840281.87307,-379209222.60033,56539826.84678,  -0.00106,  -0.00096,   0.00074,399451702.22939,   0.00000,274640135.82653,   0.00000,   0.00000,   0.00000,-75188433.59714,   0.00000
-393190438.71142,-377623629.24192,56475577.04355,  -0.00105,  -0.00095,   0.00073,397855248.06605,   0.00000,274640135.82653,   0.00000,   0.00000,   0.00000,-76784887.76048,   0.00000
-391517649.19148,-376015089.52522,56406737.96865,  -0.00105,  -0.00095,   0.00073,396234821.20131,   0.00000,274640135.82653,   0.00000,   0.00000,   0.00000,-78405314.62522,   0.00000
-389837975.76406,-374390487.35770,56337898.89376,  -0.00104,  -0.00094,   0.00073,394603764.79476,   0.00000,274640135.82653,   0.00000,   0.00000,   0.00000,-80036371.03177,   0.00000
-388142239.88582,-372759001.28270,56269059.81886,  -0.00104,  -0.00094,   0.00073,392961549.01477,   0.00000,274640135.82653,   0.00000,   0.00000,   0.00000,-81678586.81176,   0.00000
-386423557.64928,-371104568.84940,56200220.74397,  -0.00103,  -0.00093,   0.00073,391297346.79340,   0.00000,274640135.82653,   0.00000,   0.00000,   0.00000,-83342789.03313,   0.00000
-384681929.05445,-369427190.05780,56126792.39741,  -0.00103,  -0.00093,   0.00073,389609190.92460,   0.00000,274640135.82653,   0.00000,   0.00000,   0.00000,-85030944.90193,   0.00000
-382924238.00881,-367742927.35871,56053364.05086,  -0.00103,  -0.00093,   0.00073,387909901.00701,   0.00000,274640135.82653,   0.00000,   0.00000,   0.00000,-86730234.81951,   0.00000
-381152779.14819,-366026539.75801,55979935.70430,  -0.00102,  -0.00092,   0.00073,386189196.62935,   0.00000,274640135.82653,   0.00000,   0.00000,   0.00000,-88450939.19718,   0.00000
-379372141.74424,-364319330.70062,55906507.35775,  -0.00102,  -0.00092,   0.00073,384468210.10568,   0.00000,274640135.82653,   0.00000,   0.00000,   0.00000,-90171925.72085,   0.00000
-377561674.07452,-362573112.83413,55833079.01120,  -0.00101,  -0.00091,   0.00073,382714471.32259,   0.00000,274640135.82653,   0.00000,   0.00000,   0.00000,-91925664.50394,   0.00000
-375728260.04649,-360803948.60934,55755061.39298,  -0.00101,  -0.00091,   0.00072,380936813.01965,   0.00000,274640135.82653,   0.00000,   0.00000,   0.00000,-93703322.80688,   0.00000
-373878783.56765,-359027900.47705,55677043.77477,  -0.00100,  -0.00090,   0.00072,379148075.34296,   0.00000,274640135.82653,   0.00000,   0.00000,   0.00000,-95492060.48357,   0.00000
-372029307.08882,-357251852.34477,55599026.15655,  -0.00100,  -0.00090,   0.00072,377359626.06167,   0.00000,274640135.82653,   0.00000,   0.00000,   0.00000,-97280509.76486,   0.00000
-370133937.89339,-355429911.49590,55516419.26668,  -0.00099,  -0.00090,   0.00072,375525098.50069,   0.00000,274640135.82653,   0.00000,   0.00000,   0.00000,-99115037.32584,   0.00000
-368238568.69795,-353607970.64702,55438401.64847,  -0.00099,  -0.00089,   0.00072,373692917.41025,   0.00000,274640135.82653,   0.00000,   0.00000,   0.00000,-100947218.41628,   0.00000
-366336315.59503,-351769967.34733,55355794.75859,  -0.00098,  -0.00089,   0.00072,371848200.63616,   0.00000,274640135.82653,   0.00000,   0.00000,   0.00000,-102791935.19037,   0.00000
-364401937.59049,-349918196.23267,55273187.86872,  -0.00098,  -0.00088,   0.00072,369981112.16735,   0.00000,274640135.82653,   0.00000,   0.00000,   0.00000,-104659023.65918,   0.00000
-362453791.77098,-348034300.21638,55190580.97885,  -0.00097,  -0.00088,   0.00072,368092752.17373,   0.00000,274640135.82653,   0.00000,   0.00000,   0.00000,-106547383.65280,   0.00000
-360489583.50065,-346143520.29261,55103384.81731,  -0.00097,  -0.00087,   0.00072,366191332.56574,   0.00000,274640135.82653,   0.00000,   0.00000,   0.00000,-108448803.26078,   0.00000
-358509312.77952,-344245856.46135,55020777.92744,  -0.00096,  -0.00087,   0.00072,364281003.65585,   0.00000,274640135.82653,   0.00000,   0.00000,   0.00000,-110359132.17068,   0.00000
-356506095.70008,-342325246.27179,54933581.76591,  -0.00095,  -0.00086,   0.00071,362346834.83553,   0.00000,274640135.82653,   0.00000,   0.00000,   0.00000,-112293300.99100,   0.00000
-354495994.71316,-340388573.63142,54846385.60437,  -0.00095,  -0.00086,   0.00071,360402252.17059,   0.00000,274640135.82653,   0.00000,   0.00000,   0.00000,-114237883.65594,   0.00000
-352462947.36794,-338428954.63275,54759189.44284,  -0.00094,  -0.00085,   0.00071,358435944.43347,   0.00000,274640135.82653,   0.00000,   0.00000,   0.00000,-116204191.39306,   0.00000
-350413837.57191,-336462451.72660,54667404.00965,  -0.00094,  -0.00085,   0.00071,356456610.62580,   0.00000,274640135.82653,   0.00000,   0.00000,   0.00000,-118183525.20072,   0.00000
-348357843.86839,-334479886.36963,54580207.84811,  -0.00093,  -0.00084,   0.00071,354469021.21855,   0.00000,274640135.82653,   0.00000,   0.00000,   0.00000,-120171114.60798,   0.00000
-346262841.35576,-332467490.74688,54488422.41492,  -0.00093,  -0.00084,   0.00071,352446328.16169,   0.00000,274640135.82653,   0.00000,   0.00000,   0.00000,-122193807.66484,   0.00000
-344183901.29394,-330461979.03162,54396636.98173,  -0.00092,  -0.00083,   0.00071,350435395.85458,   0.00000,274640135.82653,   0.00000,   0.00000,   0.00000,-124204739.97195,   0.00000
-342065952.42302,-328426637.05057,54304851.54853,  -0.00092,  -0.00083,   0.00071,348391521.18378,   0.00000,274640135.82653,   0.00000,   0.00000,   0.00000,-126248614.64275,   0.00000
-339948003.55210,-326391295.06952,54208476.84368,  -0.00091,  -0.00082,   0.00070,346345969.17776,   0.00000,274640135.82653,   0.00000,   0.00000,   0.00000,-128294166.64877,   0.00000
-337807108.32287,-324333006.73017,54116691.41049,  -0.00090,  -0.00082,   0.00070,344280983.23690,   0.00000,274640135.82653,   0.00000,   0.00000,   0.00000,-130359152.58963,   0.00000
-335643266.73535,-322251772.03252,54020316.70564,  -0.00090,  -0.00081,   0.00070,342192275.56676,   0.00000,274640135.82653,   0.00000,   0.00000,   0.00000,-132447860.25977,   0.00000
-333479425.14783,-320170537.33487,53923942.00078,  -0.00089,  -0.00081,   0.00070,340104083.77030,   0.00000,274640135.82653,   0.00000,   0.00000,   0.00000,-134536052.05623,   0.00000
-331292637.20201,-318066356.27893,53827567.29593,  -0.00089,  -0.00080,   0.00070,337994374.93386,   0.00000,274640135.82653,   0.00000,   0.00000,   0.00000,-136645760.89267,   0.00000
-329098965.34870,-315946112.77217,53731192.59108,  -0.00088,  -0.00080,   0.00070,335874469.88711,   0.00000,274640135.82653,   0.00000,   0.00000,   0.00000,-138765665.93942,   0.00000
-326873168.59378,-313812101.45044,53630228.61457,  -0.00088,  -0.00079,   0.00070,333730357.74837,   0.00000,274640135.82653,   0.00000,   0.00000,   0.00000,-140909778.07816,   0.00000
-324656550.38217,-311668911.58539,53529264.63806,  -0.00087,  -0.00079,   0.00070,331587362.50989,   0.00000,274640135.82653,   0.00000,   0.00000,   0.00000,-143052773.31664,   0.00000
-322407807.26895,-309511953.90536,53432889.93320,  -0.00086,  -0.00078,   0.00069,329424641.75585,   0.00000,274640135.82653,   0.00000,   0.00000,   0.00000,-145215494.07068,   0.00000
-320152180.24823,-307338933.77452,53331925.95669,  -0.00086,  -0.00077,   0.00069,327249586.68732,   0.00000,274640135.82653,   0.00000,   0.00000,   0.00000,-147390549.13920,   0.00000
-317873606.86922,-305142967.28538,53226372.70852,  -0.00085,  -0.00077,   0.00069,325050926.87318,   0.00000,274640135.82653,   0.00000,   0.00000,   0.00000,-149589208.95335,   0.00000
-315595033.49021,-302947000.79624,53125408.73201,  -0.00085,  -0.00076,   0.00069,322855182.32158,   0.00000,274640135.82653,   0.00000,   0.00000,   0.00000,-151784953.50494,   0.00000
-313293513.75290,-300728087.94880,53024444.75550,  -0.00084,  -0.00076,   0.00069,320638151.98475,   0.00000,274640135.82653,   0.00000,   0.00000,   0.00000,-154001983.84178,   0.00000
-310991994.01559,-298509175.10137,52918891.50732,  -0.00083,  -0.00075,   0.00069,318419552.79138,   0.00000,274640135.82653,   0.00000,   0.00000,   0.00000,-156220583.03515,   0.00000
-308667527.91998,-296267315.89563,52813338.25915,  -0.00083,  -0.00075,   0.00069,316179713.69692,   0.00000,274640135.82653,   0.00000,   0.00000,   0.00000,-158460422.12961,   0.00000
-306326999.37356,-294018572.78241,52707785.01098,  -0.00082,  -0.00074,   0.00069,313929381.11616,   0.00000,274640135.82653,   0.00000,   0.00000,   0.00000,-160710754.71037,   0.00000
-303972703.01217,-291737704.76756,52602231.76281,  -0.00081,  -0.00073,   0.00068,311658431.98940,   0.00000,274640135.82653,   0.00000,   0.00000,   0.00000,-162981703.83713,   0.00000
-301609228.10745,-289466015.29604,52496678.51464,  -0.00081,  -0.00073,   0.00068,309387754.79868,   0.00000,274640135.82653,   0.00000,   0.00000,   0.00000,-165252381.02785,   0.00000
-299238869.29525,-287178263.37371,52386535.99480,  -0.00080,  -0.00072,   0.00068,307104875.39914,   0.00000,274640135.82653,   0.00000,   0.00000,   0.00000,-167535260.42739,   0.00000
-296845564.12475,-284867565.09308,52280982.74663,  -0.00080,  -0.00072,   0.00068,304803295.57366,   0.00000,274640135.82653,   0.00000,   0.00000,   0.00000,-169836840.25287,   0.00000
-294452258.95424,-282556866.81245,52170840.22680,  -0.00079,  -0.00071,   0.00068,302500244.26449,   0.00000,274640135.82653,   0.00000,   0.00000,   0.00000,-172139891.56204,   0.00000
-292036007.42544,-280223222.17352,52060697.70697,  -0.00078,  -0.00071,   0.00068,300176217.61903,   0.00000,274640135.82653,   0.00000,   0.00000,   0.00000,-174463918.20750,   0.00000
-289603693.44583,-277882693.62711,51950555.18714,  -0.00078,  -0.00070,   0.00068,297841932.58941,   0.00000,274640135.82653,   0.00000,   0.00000,   0.00000,-176798203.23712,   0.00000
-287164495.55873,-275526102.62988,51840412.66731,  -0.00077,  -0.00069,   0.00067,295497972.27983,   0.00000,274640135.82653,   0.00000,   0.00000,   0.00000,-179142163.54670,   0.00000
-284718413.76414,-273153449.18185,51730270.14748,  -0.00076,  -0.00069,   0.00067,293144380.33099,   0.00000,274640135.82653,   0.00000,   0.00000,   0.00000,-181495755.49554,   0.00000
-282263153.42624,-270789974.27713,51620127.62764,  -0.00076,  -0.00068,   0.00067,290791297.36693,   0.00000,274640135.82653,   0.00000,   0.00000,   0.00000,-183848838.45960,   0.00000
-279794125.27335,-268394374.47080,51505395.83615,  -0.00075,  -0.00068,   0.00067,288415569.88558,   0.00000,274640135.82653,   0.00000,   0.00000,   0.00000,-186224565.94095,   0.00000
-277309034.66965,-265991890.75698,51390664.04466,  -0.00074,  -0.00067,   0.00067,286029776.86767,   0.00000,274640135.82653,   0.00000,   0.00000,   0.00000,-188610358.95886,   0.00000
-274807881.61515,-263582523.13567,51280521.52483,  -0.00074,  -0.00066,   0.00067,283636455.96125,   0.00000,274640135.82653,   0.00000,   0.00000,   0.00000,-191003679.86528,   0.00000
-272315907.10396,-261163976.97103,51165789.73334,  -0.00073,  -0.00066,   0.00067,281242395.37194,   0.00000,274640135.82653,   0.00000,   0.00000,   0.00000,-193397740.45459,   0.00000
-269784923.78367,-258715600.54062,51051057.94185,  -0.00072,  -0.00065,   0.00066,278816660.26531,   0.00000,274640135.82653,   0.00000,   0.00000,   0.00000,-195823475.56122,   0.00000
-267276886.82168,-256290170.46850,50931736.87870,  -0.00072,  -0.00064,   0.00066,276411418.51683,   0.00000,274640135.82653,   0.00000,   0.00000,   0.00000,-198228717.30970,   0.00000
-264739019.59390,-253825731.58727,50817005.08721,  -0.00071,  -0.00064,   0.00066,273977698.36491,   0.00000,274640135.82653,   0.00000,   0.00000,   0.00000,-200662437.46162,   0.00000
-262185089.91530,-251354408.79855,50702273.29572,  -0.00070,  -0.00063,   0.00066,271534239.97163,   0.00000,274640135.82653,   0.00000,   0.00000,   0.00000,-203105895.85490,   0.00000
-259631160.23671,-248883086.00983,50582952.23257,  -0.00070,  -0.00063,   0.00066,269089633.12120,   0.00000,274640135.82653,   0.00000,   0.00000,   0.00000,-205550502.70533,   0.00000
-257070346.65063,-246395700.77031,50468220.44107,  -0.00069,  -0.00062,   0.00066,266638519.53232,   0.00000,274640135.82653,   0.00000,   0.00000,   0.00000,-208001616.29421,   0.00000
-254493470.61375,-243901431.62329,50348899.37792,  -0.00068,  -0.00061,   0.00065,264175222.37552,   0.00000,274640135.82653,   0.00000,   0.00000,   0.00000,-210464913.45101,   0.00000
-251909710.66937,-241391100.02547,50229578.31477,  -0.00068,  -0.00061,   0.00065,261702951.73822,   0.00000,274640135.82653,   0.00000,   0.00000,   0.00000,-212937184.08831,   0.00000
-249309888.27418,-238873884.52016,50110257.25162,  -0.00067,  -0.00060,   0.00065,259221228.45393,   0.00000,274640135.82653,   0.00000,   0.00000,   0.00000,-215418907.37260,   0.00000
-246719244.42231,-236347490.47152,49990936.18847,  -0.00066,  -0.00059,   0.00065,256741754.79119,   0.00000,274640135.82653,   0.00000,   0.00000,   0.00000,-217898381.03534,   0.00000
-244096475.66883,-233807328.60791,49871615.12532,  -0.00065,  -0.00059,   0.00065,254241903.37472,   0.00000,274640135.82653,   0.00000,   0.00000,   0.00000,-220398232.45181,   0.00000
-241489769.36615,-231274050.65179,49752294.06217,  -0.00065,  -0.00058,   0.00065,251754941.07261,   0.00000,274640135.82653,   0.00000,   0.00000,   0.00000,-222885194.75392,   0.00000
-238860116.70518,-228717826.33737,49628383.72736,  -0.00064,  -0.00057,   0.00065,249245586.03830,   0.00000,274640135.82653,   0.00000,   0.00000,   0.00000,-225394549.78823,   0.00000
-236214401.59340,-226154718.11546,49509062.66421,  -0.00063,  -0.00057,   0.00064,246729893.80395,   0.00000,274640135.82653,   0.00000,   0.00000,   0.00000,-227910242.02258,   0.00000
-233577865.02493,-223582431.35023,49389741.60106,  -0.00063,  -0.00056,   0.00064,244216820.45362,   0.00000,274640135.82653,   0.00000,   0.00000,   0.00000,-230423315.37291,   0.00000
-230925266.00566,-221003260.67751,49265831.26625,  -0.00062,  -0.00056,   0.00064,241692054.77398,   0.00000,274640135.82653,   0.00000,   0.00000,   0.00000,-232948081.05255,   0.00000
-228265783.07890,-218408027.55399,49141920.93144,  -0.00061,  -0.00055,   0.00064,239159026.51335,   0.00000,274640135.82653,   0.00000,   0.00000,   0.00000,-235481109.31318,   0.00000
-225590237.70133,-215805910.52297,49022599.86829,  -0.00061,  -0.00054,   0.00064,236620129.32990,   0.00000,274640135.82653,   0.00000,   0.00000,   0.00000,-238020006.49663,   0.00000
-222914692.32375,-213203793.49195,48898689.53348,  -0.00060,  -0.00054,   0.00064,234080766.18747,   0.00000,274640135.82653,   0.00000,   0.00000,   0.00000,-240559369.63906,   0.00000
-220232263.03869,-210585614.01013,48774779.19867,  -0.00059,  -0.00053,   0.00063,231533456.39877,   0.00000,274640135.82653,   0.00000,   0.00000,   0.00000,-243106679.42776,   0.00000
-217549833.75363,-207967434.52830,48650868.86386,  -0.00058,  -0.00052,   0.00063,228988699.07998,   0.00000,274640135.82653,   0.00000,   0.00000,   0.00000,-245651436.74655,   0.00000
-214844458.11028,-205326308.68818,48526958.52905,  -0.00058,  -0.00052,   0.00063,226425289.67974,   0.00000,274640135.82653,   0.00000,   0.00000,   0.00000,-248214846.14679,   0.00000
-212139082.46692,-202685182.84806,48403048.19424,  -0.00057,  -0.00051,   0.00063,223864669.29936,   0.00000,274640135.82653,   0.00000,   0.00000,   0.00000,-250775466.52717,   0.00000
-209433706.82356,-200044057.00793,48279137.85943,  -0.00056,  -0.00050,   0.00063,221306934.74946,   0.00000,274640135.82653,   0.00000,   0.00000,   0.00000,-253333201.07707,   0.00000
-206728331.18020,-197402931.16781,48150638.25296,  -0.00056,  -0.00050,   0.00063,218749156.58876,   0.00000,274640135.82653,   0.00000,   0.00000,   0.00000,-255890979.23777,   0.00000
-204000009.17854,-194738858.96939,48026727.91815,  -0.00055,  -0.00049,   0.00062,216176311.61610,   0.00000,274640135.82653,   0.00000,   0.00000,   0.00000,-258463824.21043,   0.00000
-201280865.72021,-192065608.22765,47902817.58334,  -0.00054,  -0.00048,   0.00062,213607332.89627,   0.00000,274640135.82653,   0.00000,   0.00000,   0.00000,-261032802.93026,   0.00000
-198552543.71855,-189401536.02922,47774317.97687,  -0.00053,  -0.00047,   0.00062,211038039.41232,   0.00000,274640135.82653,   0.00000,   0.00000,   0.00000,-263602096.41421,   0.00000
-195794391.45110,-186698455.02170,47650407.64206,  -0.00053,  -0.00047,   0.00062,208444070.41392,   0.00000,274640135.82653,   0.00000,   0.00000,   0.00000,-266196065.41261,   0.00000
-193059185.54196,-184018320.37247,47521908.03559,  -0.00052,  -0.00046,   0.00062,205871706.47990,   0.00000,274640135.82653,   0.00000,   0.00000,   0.00000,-268768429.34662,   0.00000
-190317095.72532,-181322123.27243,47397997.70077,  -0.00051,  -0.00045,   0.00062,203296138.62421,   0.00000,274640135.82653,   0.00000,   0.00000,   0.00000,-271343997.20232,   0.00000
-187558943.45788,-178619042.26490,47269498.09430,  -0.00051,  -0.00045,   0.00061,200710580.26986,   0.00000,274640135.82653,   0.00000,   0.00000,   0.00000,-273929555.55667,   0.00000
-184800791.19043,-175915961.25737,47145587.75949,  -0.00050,  -0.00044,   0.00061,198132451.56181,   0.00000,274640135.82653,   0.00000,   0.00000,   0.00000,-276507684.26472,   0.00000
-182035755.01550,-173196817.79903,47017088.15302,  -0.00049,  -0.00043,   0.00061,195545288.97576,   0.00000,274640135.82653,   0.00000,   0.00000,   0.00000,-279094846.85077,   0.00000
-179270718.84057,-170477674.34069,46888588.54655,  -0.00048,  -0.00043,   0.00061,192962670.13224,   0.00000,274640135.82653,   0.00000,   0.00000,   0.00000,-281677465.69429,   0.00000
-176489620.21482,-167751646.97487,46764678.21174,  -0.00048,  -0.00042,   0.00061,190377472.47532,   0.00000,274640135.82653,   0.00000,   0.00000,   0.00000,-284262663.35121,   0.00000
-173724584.03989,-165032503.51653,46636178.60527,  -0.00047,  -0.00041,   0.00061,187804565.31992,   0.00000,274640135.82653,   0.00000,   0.00000,   0.00000,-286835570.50661,   0.00000
-170936601.50666,-162290413.69989,46507678.99880,  -0.00046,  -0.00041,   0.00060,185216146.58589,   0.00000,274640135.82653,   0.00000,   0.00000,   0.00000,-289423989.24064,   0.00000
-168164681.42423,-159555207.79075,46379179.39233,  -0.00045,  -0.00040,   0.00060,182643802.43324,   0.00000,274640135.82653,   0.00000,   0.00000,   0.00000,-291996333.39329,   0.00000
-165369814.98351,-156797055.52330,46250679.78586,  -0.00045,  -0.00039,   0.00060,180056570.02335,   0.00000,274640135.82653,   0.00000,   0.00000,   0.00000,-294583565.80318,   0.00000
-162581832.45028,-154054965.70667,46126769.45105,  -0.00044,  -0.00038,   0.00060,177488824.03997,   0.00000,274640135.82653,   0.00000,   0.00000,   0.00000,-297151311.78656,   0.00000
-159786966.00956,-151296813.43922,45998269.84458,  -0.00043,  -0.00038,   0.00060,174913875.84500,   0.00000,274640135.82653,   0.00000,   0.00000,   0.00000,-299726259.98153,   0.00000
-156985215.66135,-148522598.72097,45869770.23811,  -0.00042,  -0.00037,   0.00060,172335647.91234,   0.00000,274640135.82653,   0.00000,   0.00000,   0.00000,-302304487.91419,   0.00000
-154190349.22063,-145764446.45353,45741270.63164,  -0.00042,  -0.00036,   0.00059,169774138.95247,   0.00000,274640135.82653,   0.00000,   0.00000,   0.00000,-304865996.87406,   0.00000
-151388598.87242,-142990231.73527,45612771.02517,  -0.00041,  -0.00036,   0.00059,167210041.70563,   0.00000,274640135.82653,   0.00000,   0.00000,   0.00000,-307430094.12089,   0.00000
-148586848.52420,-140216017.01702,45484271.41870,  -0.00040,  -0.00035,   0.00059,164653526.35388,   0.00000,274640135.82653,   0.00000,   0.00000,   0.00000,-309986609.47265,   0.00000
-145785098.17599,-137441802.29877,45355771.81223,  -0.00040,  -0.00034,   0.00059,162104951.61394,   0.00000,274640135.82653,   0.00000,   0.00000,   0.00000,-312535184.21259,   0.00000
-142983347.82778,-134667587.58051,45231861.47742,  -0.00039,  -0.00033,   0.00059,159568600.49139,   0.00000,274640135.82653,   0.00000,   0.00000,   0.00000,-315071535.33514,   0.00000
-140174713.57208,-131877310.41145,45103361.87095,  -0.00038,  -0.00033,   0.00059,157027548.12127,   0.00000,274640135.82653,   0.00000,   0.00000,   0.00000,-317612587.70526,   0.00000
-137366079.31638,-129087033.24239,44974862.26448,  -0.00037,  -0.00032,   0.00058,154495750.61507,   0.00000,274640135.82653,   0.00000,   0.00000,   0.00000,-320144385.21146,   0.00000
-134557445.06068,-126296756.07333,44846362.65801,  -0.00037,  -0.00031,   0.00058,151973670.51627,   0.00000,274640135.82653,   0.00000,   0.00000,   0.00000,-322666465.31026,   0.00000
-131748810.80498,-123506478.90427,44717863.05154,  -0.00036,  -0.00031,   0.00058,149461799.75231,   0.00000,274640135.82653,   0.00000,   0.00000,   0.00000,-325178336.07422,   0.00000
-128933292.64179,-120700139.28439,44589363.44507,  -0.00035,  -0.00030,   0.00058,146951302.10984,   0.00000,274640135.82653,   0.00000,   0.00000,   0.00000,-327688833.71669,   0.00000
-126117774.47860,-117893799.66452,44465453.11026,  -0.00034,  -0.00029,   0.00058,144456453.51164,   0.00000,274640135.82653,   0.00000,   0.00000,   0.00000,-330183682.31489,   0.00000
-123309140.22290,-115103522.49546,44336953.50379,  -0.00034,  -0.00028,   0.00058,141978677.60979,   0.00000,274640135.82653,   0.00000,   0.00000,   0.00000,-332661458.21674,   0.00000
-120493622.05971,-112297182.87559,44208453.89732,  -0.00033,  -0.00028,   0.00057,139504258.41191,   0.00000,274640135.82653,   0.00000,   0.00000,   0.00000,-335135877.41462,   0.00000
-117671219.98903,-109474780.80491,44079954.29085,  -0.00032,  -0.00027,   0.00057,137034082.40834,   0.00000,274640135.82653,   0.00000,   0.00000,   0.00000,-337606053.41819,   0.00000
-114855701.82584,-106668441.18504,43956043.95604,  -0.00031,  -0.00026,   0.00057,134591646.51855,   0.00000,274640135.82653,   0.00000,   0.00000,   0.00000,-340048489.30798,   0.00000
-112049362.20597,-103852923.02185,43827544.34957,  -0.00031,  -0.00025,   0.00057,132160494.60510,   0.00000,274640135.82653,   0.00000,   0.00000,   0.00000,-342479641.22143,   0.00000
-109226960.13529,-101030520.95117,43703634.01476,  -0.00030,  -0.00025,   0.00057,129739975.25038,   0.00000,274640135.82653,   0.00000,   0.00000,   0.00000,-344900160.57615,   0.00000
-106420620.51542,-98215002.78798,43575134.40829,  -0.00029,  -0.00024,   0.00057,127341315.83666,   0.00000,274640135.82653,   0.00000,   0.00000,   0.00000,-347298819.98987,   0.00000
-103598218.44474,-95392600.71730,43451224.07348,  -0.00029,  -0.00023,   0.00056,124955441.13749,   0.00000,274640135.82653,   0.00000,   0.00000,   0.00000,-349684694.68904,   0.00000
-100791878.82487,-92577082.55411,43322724.46701,  -0.00028,  -0.00022,   0.00056,122593133.29163,   0.00000,274640135.82653,   0.00000,   0.00000,   0.00000,-352047002.53490,   0.00000
-97985539.20500,-89761564.39092,43198814.13220,  -0.00027,  -0.00022,   0.00056,120255485.01319,   0.00000,274640135.82653,   0.00000,   0.00000,   0.00000,-354384650.81334,   0.00000
-95172315.67764,-86929983.77692,43070314.52573,  -0.00026,  -0.00021,   0.00056,117925484.40888,   0.00000,274640135.82653,   0.00000,   0.00000,   0.00000,-356714651.41765,   0.00000
-92365976.05777,-84114465.61373,42946404.19092,  -0.00026,  -0.00020,   0.00056,115631237.30372,   0.00000,274640135.82653,   0.00000,   0.00000,   0.00000,-359008898.52281,   0.00000
-89568814.98122,-81289768.90723,42822493.85611,  -0.00025,  -0.00020,   0.00056,113361672.60226,   0.00000,274640135.82653,   0.00000,   0.00000,   0.00000,-361278463.22427,   0.00000
-86755591.45386,-78458188.29323,42698583.52130,  -0.00024,  -0.00019,   0.00056,111108237.91764,   0.00000,274640135.82653,   0.00000,   0.00000,   0.00000,-363531897.90888,   0.00000
-83958430.37731,-75633491.58672,42574673.18649,  -0.00023,  -0.00018,   0.00055,108890689.38276,   0.00000,274640135.82653,   0.00000,   0.00000,   0.00000,-365749446.44377,   0.00000
-81161269.30076,-72808794.88021,42450762.85168,  -0.00023,  -0.00017,   0.00055,106701545.62025,   0.00000,274640135.82653,   0.00000,   0.00000,   0.00000,-367938590.20628,   0.00000
-78364108.22420,-69984098.17370,42326852.51687,  -0.00022,  -0.00017,   0.00055,104542591.05101,   0.00000,274640135.82653,   0.00000,   0.00000,   0.00000,-370097544.77552,   0.00000
-75560063.24016,-67143339.01638,42202942.18206,  -0.00021,  -0.00016,   0.00055,102408306.18343,   0.00000,274640135.82653,   0.00000,   0.00000,   0.00000,-372231829.64310,   0.00000
-72778964.61442,-64325526.21736,42079031.84725,  -0.00021,  -0.00015,   0.00055,100324177.44849,   0.00000,274640135.82653,   0.00000,   0.00000,   0.00000,-374315958.37804,   0.00000
-69997865.98868,-61507713.41834,41955121.51244,  -0.00020,  -0.00014,   0.00055,98276080.68684,   0.00000,274640135.82653,   0.00000,   0.00000,   0.00000,-376364055.13969,   0.00000
-67209883.45545,-58673838.16851,41835800.44929,  -0.00019,  -0.00014,   0.00054,96265406.51775,   0.00000,274640135.82653,   0.00000,   0.00000,   0.00000,-378374729.30878,   0.00000
-64421900.92221,-55839962.91868,41711890.11448,  -0.00018,  -0.00013,   0.00054,94290039.50212,   0.00000,274640135.82653,   0.00000,   0.00000,   0.00000,-380350096.32441,   0.00000
-61640802.29647,-53022150.11967,41592569.05133,  -0.00018,  -0.00012,   0.00054,92371177.53430,   0.00000,274640135.82653,   0.00000,   0.00000,   0.00000,-382268958.29223,   0.00000
-58868882.21405,-50195158.77733,41468658.71652,  -0.00017,  -0.00011,   0.00054,90493730.91699,   0.00000,274640135.82653,   0.00000,   0.00000,   0.00000,-384146404.90954,   0.00000
-56096962.13162,-47368167.43499,41349337.65337,  -0.00016,  -0.00011,   0.00054,88671897.04082,   0.00000,274640135.82653,   0.00000,   0.00000,   0.00000,-385968238.78571,   0.00000
-53341104.50001,-44548060.00014,41230016.59022,  -0.00016,  -0.00010,   0.00054,86909741.45287,   0.00000,274640135.82653,   0.00000,   0.00000,   0.00000,-387730394.37365,   0.00000
-50569184.41759,-41721068.65780,41110695.52707,  -0.00015,  -0.00009,   0.00053,85195994.19991,   0.00000,274640135.82653,   0.00000,   0.00000,   0.00000,-389444141.62662,   0.00000
-47813326.78597,-38900961.22295,40991374.46392,  -0.00014,  -0.00008,   0.00053,83548147.63053,   0.00000,274640135.82653,   0.00000,   0.00000,   0.00000,-391091988.19600,   0.00000
-45073531.60517,-36087737.69559,40872053.40076,  -0.00013,  -0.00008,   0.00053,81969021.74207,   0.00000,274640135.82653,   0.00000,   0.00000,   0.00000,-392671114.08446,   0.00000
-42317673.97355,-33267630.26074,40757321.60927,  -0.00013,  -0.00007,   0.00053,80456135.97940,   0.00000,274640135.82653,   0.00000,   0.00000,   0.00000,-394183999.84713,   0.00000
-39577878.79275,-30454406.73338,40638000.54612,  -0.00012,  -0.00006,   0.00053,79012023.30011,   0.00000,274640135.82653,   0.00000,   0.00000,   0.00000,-395628112.52642,   0.00000
-36838083.61194,-27641183.20602,40523268.75463,  -0.00011,  -0.00005,   0.00053,77648162.41762,   0.00000,274640135.82653,   0.00000,   0.00000,   0.00000,-396991973.40891,   0.00000
-34114350.88194,-24834843.58615,40403947.69148,  -0.00011,  -0.00005,   0.00053,76359483.96248,   0.00000,274640135.82653,   0.00000,   0.00000,   0.00000,-398280651.86405,   0.00000
-31390618.15195,-22028503.96628,40289215.89999,  -0.00010,  -0.00004,   0.00052,75158501.12926,   0.00000,274640135.82653,   0.00000,   0.00000,   0.00000,-399481634.69726,   0.00000
-28666885.42195,-19222164.34641,40174484.10850,  -0.00009,  -0.00003,   0.00052,74041946.61965,   0.00000,274640135.82653,   0.00000,   0.00000,   0.00000,-400598189.20688,   0.00000
-25959215.14276,-16422708.63403,40059752.31701,  -0.00009,  -0.00002,   0.00052,73017921.43131,   0.00000,274640135.82653,   0.00000,   0.00000,   0.00000,-401622214.39522,   0.00000
-23251544.86357,-13623252.92164,39945020.52552,  -0.00008,  -0.00002,   0.00052,72085225.09201,   0.00000,274640135.82653,   0.00000,   0.00000,   0.00000,-402554910.73451,   0.00000
-20543874.58438,-10823797.20926,39834878.00569,  -0.00007,  -0.00001,   0.00052,71255141.24438,   0.00000,274640135.82653,   0.00000,   0.00000,   0.00000,-403384994.58215,   0.00000
-17852266.75600,-8031225.40437,39720146.21419,  -0.00007,  -0.00000,   0.00052,70518781.02575,   0.00000,274640135.82653,   0.00000,   0.00000,   0.00000,-404121354.80078,   0.00000
-15176721.37843,-5245537.50697,39610003.69436,  -0.00006,   0.00001,   0.00051,69893459.29566,   0.00000,274640135.82653,   0.00000,   0.00000,   0.00000,-404746676.53086,   0.00000
-12485113.55005,-2452965.70208,39499861.17453,  -0.00005,   0.00001,   0.00051,69368484.51704,   0.00000,274640135.82653,   0.00000,   0.00000,   0.00000,-405271651.30949,   0.00000
-9809568.17248,332722.19532,39389718.65470,  -0.00005,   0.00002,   0.00051,68951084.10995,   0.00000,274640135.82653,   0.00000,   0.00000,   0.00000,-405689051.71658,   0.00000
-7150085.24572,3111526.18524,39279576.13487,  -0.00004,   0.00003,   0.00051,68641884.41248,   0.00000,274640135.82653,   0.00000,   0.00000,   0.00000,-405998251.41405,   0.00000
-4490602.31896,5890330.17515,39169433.61504,  -0.00003,   0.00004,   0.00051,68440092.18486,   0.00000,274640135.82653,   0.00000,   0.00000,   0.00000,-406200043.64167,   0.00000
-1831119.39220,8669134.16506,39063880.36687,  -0.00003,   0.00004,   0.00051,68354526.93885,   0.00000,274640135.82653,   0.00000,   0.00000,   0.00000,-406285608.88768,   0.00000
812301.08376,11441054.24749,38953737.84703,  -0.00002,   0.00005,   0.00051,68369913.34898,   0.00000,274640135.82653,   0.00000,   0.00000,   0.00000,-406270222.47755,   0.00000
3432775.20141,14190027.97161,38848184.59886,  -0.00001,   0.00006,   0.00051,68497985.39499,   0.00000,274640135.82653,   0.00000,   0.00000,   0.00000,-406142150.43154,   0.00000
6076195.67737,16961948.05403,38742631.35069,  -0.00001,   0.00007,   0.00050,68735276.03915,   0.00000,274640135.82653,   0.00000,   0.00000,   0.00000,-405904859.78738,   0.00000
8687491.25170,19720100.32148,38637078.10252,   0.00000,   0.00007,   0.00050,69076103.50051,   0.00000,274640135.82653,   0.00000,   0.00000,   0.00000,-405564032.32602,   0.00000
11291902.91855,22462190.13811,38536114.12601,   0.00001,   0.00008,   0.00050,69523466.99312,   0.00000,274640135.82653,   0.00000,   0.00000,   0.00000,-405116668.83341,   0.00000
13896314.58539,25204279.95475,38430560.87784,   0.00001,   0.00009,   0.00050,70063119.48593,   0.00000,274640135.82653,   0.00000,   0.00000,   0.00000,-404577016.34060,   0.00000
16491547.70892,27955548.31470,38329596.90132,   0.00002,   0.00010,   0.00050,70710165.92050,   0.00000,274640135.82653,   0.00000,   0.00000,   0.00000,-403929969.90603,   0.00000
19079896.92496,30690754.22385,38228632.92481,   0.00003,   0.00010,   0.00050,71446998.25924,   0.00000,274640135.82653,   0.00000,   0.00000,   0.00000,-403193137.56729,   0.00000
21652183.69019,33419076.22551,38127668.94830,   0.00003,   0.00011,   0.00050,72271800.55473,   0.00000,274640135.82653,   0.00000,   0.00000,   0.00000,-402368335.27180,   0.00000
24224470.45542,36147398.22716,38026704.97179,   0.00004,   0.00012,   0.00049,73184005.49354,   0.00000,274640135.82653,   0.00000,   0.00000,   0.00000,-401456130.33299,   0.00000
26780694.76984,38868836.32133,37930330.26693,   0.00005,   0.00012,   0.00049,74183471.67817,   0.00000,274640135.82653,   0.00000,   0.00000,   0.00000,-400456664.14836,   0.00000
29320856.63345,41583390.50801,37829366.29042,   0.00005,   0.00013,   0.00049,75251665.96327,   0.00000,274640135.82653,   0.00000,   0.00000,   0.00000,-399388469.86326,   0.00000
31861018.49706,44297944.69469,37732991.58557,   0.00006,   0.00014,   0.00049,76402818.86511,   0.00000,274640135.82653,   0.00000,   0.00000,   0.00000,-398237316.96142,   0.00000
34394296.45318,46996436.43056,37641206.15238,   0.00006,   0.00015,   0.00049,77626055.55265,   0.00000,274640135.82653,   0.00000,   0.00000,   0.00000,-397014080.27388,   0.00000
36918395.86598,49704106.70974,37544831.44752,   0.00007,   0.00015,   0.00049,78913328.37186,   0.00000,274640135.82653,   0.00000,   0.00000,   0.00000,-395726807.45467,   0.00000
39419548.92049,52388830.63063,37448456.74267,   0.00008,   0.00016,   0.00049,80252769.90380,   0.00000,274640135.82653,   0.00000,   0.00000,   0.00000,-394387365.92273,   0.00000
41920701.97499,55073554.55152,37356671.30948,   0.00008,   0.00017,   0.00049,81659551.01476,   0.00000,274640135.82653,   0.00000,   0.00000,   0.00000,-392980584.81177,   0.00000
44405792.57869,57751394.56493,37264885.87629,   0.00009,   0.00018,   0.00048,83118088.87765,   0.00000,274640135.82653,   0.00000,   0.00000,   0.00000,-391522046.94888,   0.00000
46874820.73158,60422350.67084,37177689.71475,   0.00010,   0.00018,   0.00048,84630752.45388,   0.00000,274640135.82653,   0.00000,   0.00000,   0.00000,-390009383.37265,   0.00000
49343848.88446,63093306.77675,37085904.28156,   0.00010,   0.00019,   0.00048,86188207.29478,   0.00000,274640135.82653,   0.00000,   0.00000,   0.00000,-388451928.53175,   0.00000
51812877.03735,65764262.88266,36998708.12003,   0.00011,   0.00020,   0.00048,87799715.49412,   0.00000,274640135.82653,   0.00000,   0.00000,   0.00000,-386840420.33241,   0.00000
54242896.38113,68405388.72278,36911511.95849,   0.00011,   0.00021,   0.00048,89434119.59043,   0.00000,274640135.82653,   0.00000,   0.00000,   0.00000,-385206016.23610,   0.00000
56672915.72491,71046514.56291,36824315.79696,   0.00012,   0.00021,   0.00048,91110395.55216,   0.00000,274640135.82653,   0.00000,   0.00000,   0.00000,-383529740.27437,   0.00000
59109818.97618,73703702.85384,36737119.63543,   0.00013,   0.00022,   0.00048,92835563.53856,   0.00000,274640135.82653,   0.00000,   0.00000,   0.00000,-381804572.28797,   0.00000
61507713.41834,76331060.87898,36654512.74555,   0.00013,   0.00023,   0.00048,94579810.53715,   0.00000,274640135.82653,   0.00000,   0.00000,   0.00000,-380060325.28938,   0.00000
63914786.40382,78949240.36081,36571905.85568,   0.00014,   0.00023,   0.00048,96356481.53570,   0.00000,274640135.82653,   0.00000,   0.00000,   0.00000,-378283654.29083,   0.00000
66296618.39518,81569714.47846,36489298.96581,   0.00014,   0.00024,   0.00047,98160432.52961,   0.00000,274640135.82653,   0.00000,   0.00000,   0.00000,-376479703.29692,   0.00000
68671566.47904,84174126.14531,36411281.34759,   0.00015,   0.00025,   0.00047,99990212.93972,   0.00000,274640135.82653,   0.00000,   0.00000,   0.00000,-374649922.88681,   0.00000
71037336.01959,86787716.35548,36333263.72938,   0.00015,   0.00026,   0.00047,101850678.98413,   0.00000,274640135.82653,   0.00000,   0.00000,   0.00000,-372789456.84240,   0.00000
73380159.20183,89378360.20734,36255246.11117,   0.00016,   0.00026,   0.00047,103720149.19180,   0.00000,274640135.82653,   0.00000,   0.00000,   0.00000,-370919986.63473,   0.00000
75716098.47659,91952941.60840,36177228.49295,   0.00017,   0.00027,   0.00047,105604586.26980,   0.00000,274640135.82653,   0.00000,   0.00000,   0.00000,-369035549.55673,   0.00000
78042859.20803,94536701.55278,36103800.14640,   0.00017,   0.00028,   0.00047,107519367.92784,   0.00000,274640135.82653,   0.00000,   0.00000,   0.00000,-367120767.89869,   0.00000
80369619.93947,97120461.49716,36025782.52818,   0.00018,   0.00029,   0.00047,109451798.94395,   0.00000,274640135.82653,   0.00000,   0.00000,   0.00000,-365188336.88258,   0.00000
82657371.86180,99674391.17575,35952354.18163,   0.00018,   0.00029,   0.00047,111382752.14973,   0.00000,274640135.82653,   0.00000,   0.00000,   0.00000,-363257383.67680,   0.00000
84945123.78413,102228320.85434,35883515.10673,   0.00019,   0.00030,   0.00047,113337488.23505,   0.00000,274640135.82653,   0.00000,   0.00000,   0.00000,-361302647.59148,   0.00000
87232875.70646,104782250.53293,35814676.03184,   0.00019,   0.00031,   0.00047,115310496.71031,   0.00000,274640135.82653,   0.00000,   0.00000,   0.00000,-359329639.11622,   0.00000
89481618.81969,107306349.94573,35745836.95695,   0.00020,   0.00031,   0.00046,117273021.28686,   0.00000,274640135.82653,   0.00000,   0.00000,   0.00000,-357367114.53967,   0.00000
91730361.93291,109830449.35853,35676997.88205,   0.00020,   0.00032,   0.00046,119251601.95719,   0.00000,274640135.82653,   0.00000,   0.00000,   0.00000,-355388533.86934,   0.00000
93969926.50281,112363727.31466,35612748.07882,   0.00021,   0.00033,   0.00046,121251583.83634,   0.00000,274640135.82653,   0.00000,   0.00000,   0.00000,-353388551.99019,   0.00000
96179660.80693,114857996.46167,35543909.00392,   0.00021,   0.00034,   0.00046,123231456.07074,   0.00000,274640135.82653,   0.00000,   0.00000,   0.00000,-351408679.75579,   0.00000
98396279.01854,117368328.05950,35484248.47235,   0.00022,   0.00034,   0.00046,125243527.05603,   0.00000,274640135.82653,   0.00000,   0.00000,   0.00000,-349396608.77050,   0.00000
100589950.87185,119855713.29902,35419998.66911,   0.00022,   0.00035,   0.00046,127244563.07253,   0.00000,274640135.82653,   0.00000,   0.00000,   0.00000,-347395572.75400,   0.00000
102774444.18184,122352277.08187,35360338.13754,   0.00023,   0.00036,   0.00046,129263449.40522,   0.00000,274640135.82653,   0.00000,   0.00000,   0.00000,-345376686.42131,   0.00000
104929107.22604,124809832.05560,35300677.60596,   0.00023,   0.00036,   0.00046,131262488.88656,   0.00000,274640135.82653,   0.00000,   0.00000,   0.00000,-343377646.93997,   0.00000
107090654.17773,127283449.48015,35245606.34604,   0.00024,   0.00037,   0.00046,133286815.37592,   0.00000,274640135.82653,   0.00000,   0.00000,   0.00000,-341353320.45061,   0.00000
109229254.77112,129734120.54640,35185945.81447,   0.00024,   0.00038,   0.00046,135297313.99665,   0.00000,274640135.82653,   0.00000,   0.00000,   0.00000,-339342821.82988,   0.00000
111351792.91371,132177907.70516,35135463.82621,   0.00025,   0.00038,   0.00046,137315245.03386,   0.00000,274640135.82653,   0.00000,   0.00000,   0.00000,-337324890.79267,   0.00000
113458268.60548,134614810.95643,35080392.56630,   0.00025,   0.00039,   0.00046,139329338.23081,   0.00000,274640135.82653,   0.00000,   0.00000,   0.00000,-335310797.59572,   0.00000
115548681.84645,137044830.30021,35029910.57804,   0.00026,   0.00040,   0.00046,141346092.26548,   0.00000,274640135.82653,   0.00000,   0.00000,   0.00000,-333294043.56105,   0.00000
117632211.17992,139458787.19318,34979428.58979,   0.00026,   0.00041,   0.00045,143359430.10444,   0.00000,274640135.82653,   0.00000,   0.00000,   0.00000,-331280705.72209,   0.00000
119699678.06259,141865860.17866,34928946.60153,   0.00027,   0.00041,   0.00045,145371012.76781,   0.00000,274640135.82653,   0.00000,   0.00000,   0.00000,-329269123.05872,   0.00000
121751082.49445,144266049.25665,34883053.88493,   0.00027,   0.00042,   0.00045,147383695.62986,   0.00000,274640135.82653,   0.00000,   0.00000,   0.00000,-327256440.19667,   0.00000
123779540.56801,146643291.97635,34837161.16834,   0.00028,   0.00043,   0.00045,149382307.62537,   0.00000,274640135.82653,   0.00000,   0.00000,   0.00000,-325257828.20116,   0.00000
125807998.64158,149020534.69604,34795857.72340,   0.00028,   0.00043,   0.00045,151390396.65979,   0.00000,274640135.82653,   0.00000,   0.00000,   0.00000,-323249739.16674,   0.00000
127804331.81352,151384009.60076,34754554.27846,   0.00029,   0.00044,   0.00045,153385692.05799,   0.00000,274640135.82653,   0.00000,   0.00000,   0.00000,-321254443.76853,   0.00000
129800664.98546,153747484.50547,34713250.83353,   0.00029,   0.00045,   0.00045,155386631.48440,   0.00000,274640135.82653,   0.00000,   0.00000,   0.00000,-319253504.34212,   0.00000
131774051.79911,156088013.05189,34676536.66025,   0.00030,   0.00045,   0.00045,157375046.34843,   0.00000,274640135.82653,   0.00000,   0.00000,   0.00000,-317265089.47810,   0.00000
133731376.16195,158421657.69082,34635233.21531,   0.00030,   0.00046,   0.00045,159356061.81900,   0.00000,274640135.82653,   0.00000,   0.00000,   0.00000,-315284074.00753,   0.00000
135672638.07397,160748418.42225,34603108.31369,   0.00030,   0.00047,   0.00045,161338408.53482,   0.00000,274640135.82653,   0.00000,   0.00000,   0.00000,-313301727.29171,   0.00000
137607016.07851,163059116.70288,34566394.14042,   0.00031,   0.00047,   0.00045,163310730.60790,   0.00000,274640135.82653,   0.00000,   0.00000,   0.00000,-311329405.21863,   0.00000
139509269.18143,165356047.16853,34538858.51046,   0.00031,   0.00048,   0.00045,165274182.70602,   0.00000,274640135.82653,   0.00000,   0.00000,   0.00000,-309365953.12051,   0.00000
141411522.28436,167652977.63418,34506733.60884,   0.00032,   0.00049,   0.00045,167238813.54126,   0.00000,274640135.82653,   0.00000,   0.00000,   0.00000,-307401322.28527,   0.00000
143290829.02898,169926961.74154,34479197.97888,   0.00032,   0.00049,   0.00045,169188959.65164,   0.00000,274640135.82653,   0.00000,   0.00000,   0.00000,-305451176.17489,   0.00000
145154073.32279,172194061.94140,34451662.34893,   0.00032,   0.00050,   0.00045,171133227.61258,   0.00000,274640135.82653,   0.00000,   0.00000,   0.00000,-303506908.21395,   0.00000
147001255.16580,174454278.23377,34428715.99063,   0.00033,   0.00051,   0.00045,173074191.60368,   0.00000,274640135.82653,   0.00000,   0.00000,   0.00000,-301565944.22284,   0.00000
148848437.00880,176714494.52615,34405769.63233,   0.00033,   0.00051,   0.00045,175018468.79846,   0.00000,274640135.82653,   0.00000,   0.00000,   0.00000,-299621667.02807,   0.00000
150656610.04270,178944880.55273,34382823.27403,   0.00034,   0.00052,   0.00045,176934990.73360,   0.00000,274640135.82653,   0.00000,   0.00000,   0.00000,-297705145.09293,   0.00000
152457899.16911,181159204.12851,34364466.18739,   0.00034,   0.00053,   0.00045,178845369.50110,   0.00000,274640135.82653,   0.00000,   0.00000,   0.00000,-295794766.32542,   0.00000
154233947.30139,183375822.34012,34346109.10076,   0.00034,   0.00053,   0.00045,180751186.52725,   0.00000,274640135.82653,   0.00000,   0.00000,   0.00000,-293888949.29927,   0.00000
156003111.52619,185576378.10091,34332341.28578,   0.00035,   0.00054,   0.00045,182650484.47757,   0.00000,274640135.82653,   0.00000,   0.00000,   0.00000,-291989651.34896,   0.00000
157756213.30017,187770049.95422,34318573.47080,   0.00035,   0.00055,   0.00045,184542721.06444,   0.00000,274640135.82653,   0.00000,   0.00000,   0.00000,-290097414.76209,   0.00000
159486368.71585,189940775.44923,34304805.65582,   0.00036,   0.00055,   0.00045,186415918.07087,   0.00000,274640135.82653,   0.00000,   0.00000,   0.00000,-288224217.75566,   0.00000
161200461.68073,192104617.03675,34295627.11250,   0.00036,   0.00056,   0.00045,188284332.57367,   0.00000,274640135.82653,   0.00000,   0.00000,   0.00000,-286355803.25286,   0.00000
162898492.19480,194261574.71678,34286448.56918,   0.00036,   0.00057,   0.00045,190145318.70255,   0.00000,274640135.82653,   0.00000,   0.00000,   0.00000,-284494817.12398,   0.00000
164589638.80137,196402469.94601,34281859.29752,   0.00037,   0.00057,   0.00045,191998972.50827,   0.00000,274640135.82653,   0.00000,   0.00000,   0.00000,-282641163.31826,   0.00000
166248660.50633,198529597.36025,34277270.02586,   0.00037,   0.00058,   0.00045,193835322.47103,   0.00000,274640135.82653,   0.00000,   0.00000,   0.00000,-280804813.35550,   0.00000
167907682.21129,200656724.77449,34277270.02586,   0.00037,   0.00059,   0.00045,195676005.39432,   0.00000,274640135.82653,   0.00000,   0.00000,   0.00000,-278964130.43221,   0.00000
169543757.55796,202760905.83044,34277270.02586,   0.00038,   0.00059,   0.00045,197496882.30699,   0.00000,274640135.82653,   0.00000,   0.00000,   0.00000,-277143253.51954,   0.00000
171147708.00300,204851319.07141,34277270.02586,   0.00038,   0.00060,   0.00045,199300177.77411,   0.00000,274640135.82653,   0.00000,   0.00000,   0.00000,-275339958.05242,   0.00000
172744774.54056,206925669.86156,34281859.29752,   0.00038,   0.00060,   0.00045,201095498.26518,   0.00000,274640135.82653,   0.00000,   0.00000,   0.00000,-273544637.56135,   0.00000
174325778.62730,208993136.74423,34286448.56918,   0.00039,   0.00061,   0.00045,202882721.48207,   0.00000,274640135.82653,   0.00000,   0.00000,   0.00000,-271757414.34446,   0.00000
175890720.26324,211053719.71941,34295627.11250,   0.00039,   0.00062,   0.00045,204664108.78207,   0.00000,274640135.82653,   0.00000,   0.00000,   0.00000,-269976027.04446,   0.00000
177439599.44837,213107418.78710,34304805.65582,   0.00039,   0.00062,   0.00045,206437272.40663,   0.00000,274640135.82653,   0.00000,   0.00000,   0.00000,-268202863.41990,   0.00000
178965532.27520,215138171.49649,34318573.47080,   0.00039,   0.00063,   0.00045,208192388.56891,   0.00000,274640135.82653,   0.00000,   0.00000,   0.00000,-266447747.25762,   0.00000
180468518.74373,217145977.84759,34332341.28578,   0.00040,   0.00064,   0.00045,209927077.70585,   0.00000,274640135.82653,   0.00000,   0.00000,   0.00000,-264713058.12068,   0.00000
181978389.11975,219169846.64949,34350698.37241,   0.00040,   0.00064,   0.00045,211677328.93747,   0.00000,274640135.82653,   0.00000,   0.00000,   0.00000,-262962806.88906,   0.00000
183442366.77918,221147822.73479,34369055.45905,   0.00040,   0.00065,   0.00045,213385279.10518,   0.00000,274640135.82653,   0.00000,   0.00000,   0.00000,-261254856.72135,   0.00000
184913228.34610,223141861.27091,34387412.54569,   0.00041,   0.00065,   0.00045,215106468.39838,   0.00000,274640135.82653,   0.00000,   0.00000,   0.00000,-259533667.42815,   0.00000
186345081.10390,225106069.54123,34410358.90399,   0.00041,   0.00066,   0.00045,216799541.99671,   0.00000,274640135.82653,   0.00000,   0.00000,   0.00000,-257840593.82981,   0.00000
187776933.86171,227070277.81156,34437894.53395,   0.00041,   0.00067,   0.00045,218495842.42529,   0.00000,274640135.82653,   0.00000,   0.00000,   0.00000,-256144293.40124,   0.00000
189169777.81041,229004655.81610,34465430.16391,   0.00041,   0.00067,   0.00045,220161701.92192,   0.00000,274640135.82653,   0.00000,   0.00000,   0.00000,-254478433.90460,   0.00000
190562621.75911,230939033.82064,34492965.79386,   0.00042,   0.00068,   0.00045,221828529.43233,   0.00000,274640135.82653,   0.00000,   0.00000,   0.00000,-252811606.39420,   0.00000
191932519.34952,232850465.46688,34525090.69548,   0.00042,   0.00069,   0.00045,223476621.69861,   0.00000,274640135.82653,   0.00000,   0.00000,   0.00000,-251163514.12792,   0.00000
193293238.39660,234771075.65644,34557215.59710,   0.00042,   0.00069,   0.00045,225128132.24631,   0.00000,274640135.82653,   0.00000,   0.00000,   0.00000,-249512003.58022,   0.00000
194624127.17790,236652677.03689,34593929.77038,   0.00042,   0.00070,   0.00045,226748626.55977,   0.00000,274640135.82653,   0.00000,   0.00000,   0.00000,-247891509.26676,   0.00000
195945837.41587,238543456.96066,34635233.21531,   0.00043,   0.00070,   0.00045,228374588.70188,   0.00000,274640135.82653,   0.00000,   0.00000,   0.00000,-246265547.12465,   0.00000
197237717.38806,240395228.07533,34676536.66025,   0.00043,   0.00071,   0.00045,229967309.34968,   0.00000,274640135.82653,   0.00000,   0.00000,   0.00000,-244672826.47685,   0.00000
198520418.81693,242256177.73331,34717840.10519,   0.00043,   0.00072,   0.00045,231563381.68481,   0.00000,274640135.82653,   0.00000,   0.00000,   0.00000,-243076754.14172,   0.00000
199780173.88750,244094181.03300,34763732.82178,   0.00043,   0.00072,   0.00045,233140430.89971,   0.00000,274640135.82653,   0.00000,   0.00000,   0.00000,-241499704.92682,   0.00000
201023866.50727,245925300.42520,34809625.53838,   0.00044,   0.00073,   0.00045,234708592.98647,   0.00000,274640135.82653,   0.00000,   0.00000,   0.00000,-239931542.84006,   0.00000
202244612.76873,247733473.45909,34860107.52663,   0.00044,   0.00073,   0.00045,236257652.03862,   0.00000,274640135.82653,   0.00000,   0.00000,   0.00000,-238382483.78791,   0.00000
203449296.57939,249534762.58550,34915178.78655,   0.00044,   0.00074,   0.00045,237799813.34353,   0.00000,274640135.82653,   0.00000,   0.00000,   0.00000,-236840322.48300,   0.00000
204647096.48255,251319989.26110,34970250.04647,   0.00044,   0.00074,   0.00045,239330357.82275,   0.00000,274640135.82653,   0.00000,   0.00000,   0.00000,-235309778.00378,   0.00000
205812771.48410,253091448.12173,35025321.30638,   0.00044,   0.00075,   0.00046,240842365.54084,   0.00000,274640135.82653,   0.00000,   0.00000,   0.00000,-233797770.28569,   0.00000
206962384.03484,254856023.07486,35084981.83796,   0.00044,   0.00076,   0.00046,242347433.72567,   0.00000,274640135.82653,   0.00000,   0.00000,   0.00000,-232292702.10086,   0.00000
208105112.67809,256604535.57718,35149231.64119,   0.00045,   0.00076,   0.00046,243842808.51902,   0.00000,274640135.82653,   0.00000,   0.00000,   0.00000,-230797327.30751,   0.00000
209215716.41973,258339280.26453,35213481.44443,   0.00045,   0.00077,   0.00046,245319648.52214,   0.00000,274640135.82653,   0.00000,   0.00000,   0.00000,-229320487.30439,   0.00000
210319436.25387,260057962.50106,35277731.24766,   0.00045,   0.00077,   0.00046,246784764.57379,   0.00000,274640135.82653,   0.00000,   0.00000,   0.00000,-227855371.25274,   0.00000
211407093.63720,261769760.83011,35346570.32256,   0.00045,   0.00078,   0.00046,248242870.36426,   0.00000,274640135.82653,   0.00000,   0.00000,   0.00000,-226397265.46227,   0.00000
212462626.11892,263467791.34417,35419998.66911,   0.00045,   0.00078,   0.00046,249684430.11840,   0.00000,274640135.82653,   0.00000,   0.00000,   0.00000,-224955705.70813,   0.00000
213511274.69315,265149759.40743,35493427.01567,   0.00045,   0.00079,   0.00046,251114209.67998,   0.00000,274640135.82653,   0.00000,   0.00000,   0.00000,-223525926.14655,   0.00000
214536976.90908,266808781.11239,35571444.63388,   0.00046,   0.00080,   0.00046,252524600.47952,   0.00000,274640135.82653,   0.00000,   0.00000,   0.00000,-222115535.34701,   0.00000
215553500.58169,268476981.36067,35649462.25209,   0.00046,   0.00080,   0.00046,253938379.24239,   0.00000,274640135.82653,   0.00000,   0.00000,   0.00000,-220701756.58414,   0.00000
216524131.53770,270099288.89236,35732069.14197,   0.00046,   0.00081,   0.00046,255310896.23720,   0.00000,274640135.82653,   0.00000,   0.00000,   0.00000,-219329239.58933,   0.00000
217501646.40121,271737658.87485,35814676.03184,   0.00046,   0.00081,   0.00047,256696330.90741,   0.00000,274640135.82653,   0.00000,   0.00000,   0.00000,-217943804.91912,   0.00000
218456214.90641,273353082.49904,35901872.19337,   0.00046,   0.00082,   0.00047,258062355.03884,   0.00000,274640135.82653,   0.00000,   0.00000,   0.00000,-216577780.78769,   0.00000
219387837.05332,274945559.76494,35993657.62657,   0.00046,   0.00082,   0.00047,259408948.15939,   0.00000,274640135.82653,   0.00000,   0.00000,   0.00000,-215231187.66714,   0.00000
220303396.74942,276531153.12334,36085443.05976,   0.00046,   0.00083,   0.00047,260746602.14355,   0.00000,274640135.82653,   0.00000,   0.00000,   0.00000,-213893533.68297,   0.00000
221202893.99471,278109862.57426,36181817.76461,   0.00046,   0.00083,   0.00047,262077243.06598,   0.00000,274640135.82653,   0.00000,   0.00000,   0.00000,-212562892.76055,   0.00000
222095507.33251,279672509.57437,36278192.46946,   0.00047,   0.00084,   0.00047,263395977.25590,   0.00000,274640135.82653,   0.00000,   0.00000,   0.00000,-211244158.57063,   0.00000
222955995.76869,281221388.75950,36379156.44598,   0.00047,   0.00084,   0.00047,264698280.79129,   0.00000,274640135.82653,   0.00000,   0.00000,   0.00000,-209941855.03524,   0.00000
223793537.84658,282747321.58633,36480120.42249,   0.00047,   0.00085,   0.00047,265979265.33811,   0.00000,274640135.82653,   0.00000,   0.00000,   0.00000,-208660870.48842,   0.00000
224615017.47365,284266370.50567,36585673.67066,   0.00047,   0.00086,   0.00048,267253277.34316,   0.00000,274640135.82653,   0.00000,   0.00000,   0.00000,-207386858.48337,   0.00000
225429613.19324,285769356.97420,36695816.19049,   0.00047,   0.00086,   0.00048,268517241.64825,   0.00000,274640135.82653,   0.00000,   0.00000,   0.00000,-206122894.17828,   0.00000
226212084.01121,287258575.62775,36805958.71032,   0.00047,   0.00087,   0.00048,269762990.36616,   0.00000,274640135.82653,   0.00000,   0.00000,   0.00000,-204877145.46037,   0.00000
226994554.82918,288747794.28131,36916101.23015,   0.00047,   0.00087,   0.00048,271009289.86610,   0.00000,274640135.82653,   0.00000,   0.00000,   0.00000,-203630845.96043,   0.00000
227738016.83804,290207182.66907,37035422.29330,   0.00047,   0.00088,   0.00048,272228713.48586,   0.00000,274640135.82653,   0.00000,   0.00000,   0.00000,-202411422.34067,   0.00000
228481478.84690,291666571.05684,37154743.35646,   0.00047,   0.00088,   0.00048,273448697.60981,   0.00000,274640135.82653,   0.00000,   0.00000,   0.00000,-201191438.21672,   0.00000
229201994.49746,293103013.08631,37274064.41961,   0.00047,   0.00089,   0.00048,274647415.79771,   0.00000,274640135.82653,   0.00000,   0.00000,   0.00000,-199992720.02882,   0.00000
229890385.24641,294525687.30080,37397974.75442,   0.00047,   0.00089,   0.00049,275829968.52663,   0.00000,274640135.82653,   0.00000,   0.00000,   0.00000,-198810167.29990,   0.00000
230571892.08787,295932299.06448,37526474.36089,   0.00047,   0.00090,   0.00049,277002458.03825,   0.00000,274640135.82653,   0.00000,   0.00000,   0.00000,-197637677.78828,   0.00000
231237336.47851,297332026.92067,37654973.96736,   0.00047,   0.00090,   0.00049,278166254.69849,   0.00000,274640135.82653,   0.00000,   0.00000,   0.00000,-196473881.12804,   0.00000
231886718.41835,298724870.86937,37788062.84549,   0.00047,   0.00091,   0.00049,279323256.67540,   0.00000,274640135.82653,   0.00000,   0.00000,   0.00000,-195316879.15113,   0.00000
232513153.99989,300094768.45977,37925740.99528,   0.00047,   0.00091,   0.00049,280460944.19112,   0.00000,274640135.82653,   0.00000,   0.00000,   0.00000,-194179191.63541,   0.00000
233116643.22314,301441719.69188,38063419.14506,   0.00047,   0.00092,   0.00049,281577466.29920,   0.00000,274640135.82653,   0.00000,   0.00000,   0.00000,-193062669.52733,   0.00000
233704069.99557,302781787.01649,38205686.56651,   0.00047,   0.00092,   0.00050,282687266.06122,   0.00000,274640135.82653,   0.00000,   0.00000,   0.00000,-191952869.76531,   0.00000
234291496.76801,304121854.34111,38347953.98796,   0.00047,   0.00093,   0.00050,283797709.67613,   0.00000,274640135.82653,   0.00000,   0.00000,   0.00000,-190842426.15040,   0.00000
234839914.73133,305432091.39993,38494810.68107,   0.00047,   0.00093,   0.00050,284879716.82010,   0.00000,274640135.82653,   0.00000,   0.00000,   0.00000,-189760419.00643,   0.00000
235388332.69466,306742328.45876,38646256.64584,   0.00047,   0.00094,   0.00050,285964259.01238,   0.00000,274640135.82653,   0.00000,   0.00000,   0.00000,-188675876.81415,   0.00000
235897741.84888,308022735.25180,38797702.61061,   0.00047,   0.00094,   0.00050,287018583.96447,   0.00000,274640135.82653,   0.00000,   0.00000,   0.00000,-187621551.86206,   0.00000
236407151.00310,309303142.04484,38953737.84703,   0.00047,   0.00095,   0.00051,288075478.29319,   0.00000,274640135.82653,   0.00000,   0.00000,   0.00000,-186564657.53334,   0.00000
236884435.25570,310569781.02290,39114362.35512,   0.00047,   0.00095,   0.00051,289116719.32504,   0.00000,274640135.82653,   0.00000,   0.00000,   0.00000,-185523416.50149,   0.00000
237354835.60082,311820357.55015,39274986.86321,   0.00047,   0.00096,   0.00051,290146096.71992,   0.00000,274640135.82653,   0.00000,   0.00000,   0.00000,-184494039.10660,   0.00000
237802289.58763,313047987.71911,39440200.64296,   0.00047,   0.00096,   0.00051,291156369.66752,   0.00000,274640135.82653,   0.00000,   0.00000,   0.00000,-183483766.15901,   0.00000
238233681.12364,314268733.98057,39605414.42270,   0.00047,   0.00097,   0.00051,292158335.79755,   0.00000,274640135.82653,   0.00000,   0.00000,   0.00000,-182481800.02897,   0.00000
238649010.20883,315482596.33455,39775217.47411,   0.00047,   0.00097,   0.00052,293153906.82307,   0.00000,274640135.82653,   0.00000,   0.00000,   0.00000,-181486229.00346,   0.00000
239041392.93573,316673512.33023,39949609.79718,   0.00047,   0.00097,   0.00052,294130476.87003,   0.00000,274640135.82653,   0.00000,   0.00000,   0.00000,-180509658.95650,   0.00000
239433775.66263,317864428.32590,40124002.12024,   0.00047,   0.00098,   0.00052,295107868.64897,   0.00000,274640135.82653,   0.00000,   0.00000,   0.00000,-179532267.17756,   0.00000
239794033.48792,319041576.50660,40302983.71497,   0.00047,   0.00098,   0.00052,296069976.60071,   0.00000,274640135.82653,   0.00000,   0.00000,   0.00000,-178570159.22582,   0.00000
240140523.49822,320186599.78568,40486554.58136,   0.00047,   0.00099,   0.00053,297009486.92638,   0.00000,274640135.82653,   0.00000,   0.00000,   0.00000,-177630648.90015,   0.00000
240461772.51439,321333917.70059,40674714.71940,   0.00047,   0.00099,   0.00053,297946512.88245,   0.00000,274640135.82653,   0.00000,   0.00000,   0.00000,-176693622.94408,   0.00000
240776137.62308,322465173.16469,40862874.85745,   0.00047,   0.00100,   0.00053,298871780.30908,   0.00000,274640135.82653,   0.00000,   0.00000,   0.00000,-175768355.51745,   0.00000
241074440.28096,323589544.72131,41051034.99549,   0.00047,   0.00100,   0.00053,299789047.92848,   0.00000,274640135.82653,   0.00000,   0.00000,   0.00000,-174851087.89805,   0.00000
241349796.58053,324690969.91962,41248373.67686,   0.00046,   0.00101,   0.00054,300689433.98152,   0.00000,274640135.82653,   0.00000,   0.00000,   0.00000,-173950701.84501,   0.00000
241602206.52181,325769448.75963,41445712.35822,   0.00046,   0.00101,   0.00054,301569201.87957,   0.00000,274640135.82653,   0.00000,   0.00000,   0.00000,-173070933.94695,   0.00000
241861500.37058,326863990.05046,41647640.31124,   0.00046,   0.00102,   0.00054,302464570.04578,   0.00000,274640135.82653,   0.00000,   0.00000,   0.00000,-172175565.78075,   0.00000
242074901.50276,327912638.62469,41849568.26427,   0.00046,   0.00102,   0.00054,303317813.36168,   0.00000,274640135.82653,   0.00000,   0.00000,   0.00000,-171322322.46485,   0.00000
242295186.54242,328977349.64972,42056085.48895,   0.00046,   0.00102,   0.00055,304186733.24544,   0.00000,274640135.82653,   0.00000,   0.00000,   0.00000,-170453402.58109,   0.00000
242476462.77298,330012230.40897,42267191.98530,   0.00046,   0.00103,   0.00055,305028286.34731,   0.00000,274640135.82653,   0.00000,   0.00000,   0.00000,-169611849.47922,   0.00000
242650855.09604,331031048.71741,42478298.48164,   0.00046,   0.00103,   0.00055,305858207.64671,   0.00000,274640135.82653,   0.00000,   0.00000,   0.00000,-168781928.17982,   0.00000
242809184.96830,332042983.11836,42698583.52130,   0.00046,   0.00104,   0.00056,306684306.64427,   0.00000,274640135.82653,   0.00000,   0.00000,   0.00000,-167955829.18226,   0.00000
242967514.84056,333054917.51932,42914279.28931,   0.00046,   0.00104,   0.00056,307509628.85292,   0.00000,274640135.82653,   0.00000,   0.00000,   0.00000,-167130506.97361,   0.00000
243086835.90371,334037021.65448,43139153.60063,   0.00045,   0.00105,   0.00056,308309744.69991,   0.00000,274640135.82653,   0.00000,   0.00000,   0.00000,-166330391.12662,   0.00000
243190094.51605,335012241.88215,43364027.91195,   0.00045,   0.00105,   0.00056,309102381.52515,   0.00000,274640135.82653,   0.00000,   0.00000,   0.00000,-165537754.30138,   0.00000
243286469.22090,335971399.65902,43593491.49493,   0.00045,   0.00105,   0.00057,309885413.36230,   0.00000,274640135.82653,   0.00000,   0.00000,   0.00000,-164754722.46423,   0.00000
243366781.47495,336923673.52839,43827544.34957,   0.00045,   0.00106,   0.00057,310662973.35080,   0.00000,274640135.82653,   0.00000,   0.00000,   0.00000,-163977162.47573,   0.00000
243431031.27818,337869063.49028,44061597.20422,   0.00045,   0.00106,   0.00057,311433186.30982,   0.00000,274640135.82653,   0.00000,   0.00000,   0.00000,-163206949.51671,   0.00000
243472334.72312,338791507.09387,44300239.33052,   0.00045,   0.00107,   0.00058,312185261.42689,   0.00000,274640135.82653,   0.00000,   0.00000,   0.00000,-162454874.39964,   0.00000
243506754.26057,339697888.24665,44543470.72848,   0.00045,   0.00107,   0.00058,312927830.02995,   0.00000,274640135.82653,   0.00000,   0.00000,   0.00000,-161712305.79658,   0.00000
243509048.89639,340590501.58445,44786702.12644,   0.00044,   0.00107,   0.00058,313654624.74206,   0.00000,274640135.82653,   0.00000,   0.00000,   0.00000,-160985511.08447,   0.00000
243511343.53222,341483114.92225,45034522.79606,   0.00044,   0.00108,   0.00059,314384803.74851,   0.00000,274640135.82653,   0.00000,   0.00000,   0.00000,-160255332.07802,   0.00000
243490691.80976,342352781.90175,45286932.73734,   0.00044,   0.00108,   0.00059,315097044.40994,   0.00000,274640135.82653,   0.00000,   0.00000,   0.00000,-159543091.41659,   0.00000
243470040.08729,343222448.88125,45543931.95028,   0.00044,   0.00109,   0.00059,315812722.44900,   0.00000,274640135.82653,   0.00000,   0.00000,   0.00000,-158827413.37753,   0.00000
243417263.46320,344078348.04577,45800931.16322,   0.00044,   0.00109,   0.00060,316512937.70371,   0.00000,274640135.82653,   0.00000,   0.00000,   0.00000,-158127198.12282,   0.00000
243357602.93163,344918184.75949,46062519.64782,   0.00043,   0.00109,   0.00060,317203848.62219,   0.00000,274640135.82653,   0.00000,   0.00000,   0.00000,-157436287.20434,   0.00000
243274996.04175,345735075.11490,46328697.40408,   0.00043,   0.00110,   0.00060,317877038.24471,   0.00000,274640135.82653,   0.00000,   0.00000,   0.00000,-156763097.58182,   0.00000
243183210.60856,346561144.01364,46594875.16034,   0.00043,   0.00110,   0.00061,318556268.12565,   0.00000,274640135.82653,   0.00000,   0.00000,   0.00000,-156083867.70088,   0.00000
243061594.90958,347348204.10327,46865642.18826,   0.00043,   0.00111,   0.00061,319205060.40567,   0.00000,274640135.82653,   0.00000,   0.00000,   0.00000,-155435075.42086,   0.00000
242946863.11809,348151326.64371,47140998.48783,   0.00043,   0.00111,   0.00061,319870400.41162,   0.00000,274640135.82653,   0.00000,   0.00000,   0.00000,-154769735.41491,   0.00000
242809184.96830,348931502.82584,47420944.05907,   0.00042,   0.00111,   0.00062,320518264.63515,   0.00000,274640135.82653,   0.00000,   0.00000,   0.00000,-154121871.19138,   0.00000
242648560.46021,349688732.64968,47700889.63031,   0.00042,   0.00112,   0.00062,321146680.91625,   0.00000,274640135.82653,   0.00000,   0.00000,   0.00000,-153493454.91028,   0.00000
242471873.50132,350439078.56604,47985424.47321,   0.00042,   0.00112,   0.00062,321770632.87859,   0.00000,274640135.82653,   0.00000,   0.00000,   0.00000,-152869502.94794,   0.00000
242295186.54242,351189424.48239,48274548.58777,   0.00042,   0.00113,   0.00063,322398446.48706,   0.00000,274640135.82653,   0.00000,   0.00000,   0.00000,-152241689.33947,   0.00000
242095553.22523,351916824.04044,48568261.97398,   0.00042,   0.00113,   0.00063,323009036.93600,   0.00000,274640135.82653,   0.00000,   0.00000,   0.00000,-151631098.89053,   0.00000
241879857.45722,352637339.69100,48861975.36020,   0.00041,   0.00113,   0.00064,323613298.91960,   0.00000,274640135.82653,   0.00000,   0.00000,   0.00000,-151026836.90693,   0.00000
241648099.23841,353350971.43408,49160278.01808,   0.00041,   0.00114,   0.00064,324213388.17559,   0.00000,274640135.82653,   0.00000,   0.00000,   0.00000,-150426747.65094,   0.00000
241409457.11211,354048540.72634,49463169.94761,   0.00041,   0.00114,   0.00064,324804625.44326,   0.00000,274640135.82653,   0.00000,   0.00000,   0.00000,-149835510.38327,   0.00000
241147868.62751,354723163.66031,49770651.14881,   0.00041,   0.00114,   0.00065,325378910.90021,   0.00000,274640135.82653,   0.00000,   0.00000,   0.00000,-149261224.92632,   0.00000
240877101.59959,355406965.13760,50078132.35001,   0.00040,   0.00115,   0.00065,325960039.43993,   0.00000,274640135.82653,   0.00000,   0.00000,   0.00000,-148680096.38660,   0.00000
240592566.75669,356058641.71327,50390202.82286,   0.00040,   0.00115,   0.00066,326519516.43533,   0.00000,274640135.82653,   0.00000,   0.00000,   0.00000,-148120619.39120,   0.00000
240298853.37048,356719496.83226,50706862.56738,   0.00040,   0.00115,   0.00066,327088076.85701,   0.00000,274640135.82653,   0.00000,   0.00000,   0.00000,-147552058.96952,   0.00000
239982193.62596,357357405.59295,51023522.31189,   0.00040,   0.00116,   0.00066,327637839.65578,   0.00000,274640135.82653,   0.00000,   0.00000,   0.00000,-147002296.17075,   0.00000
239642587.52315,357972367.99534,51349360.59973,   0.00039,   0.00116,   0.00067,328173173.76164,   0.00000,274640135.82653,   0.00000,   0.00000,   0.00000,-146466962.06489,   0.00000
239309865.32782,358603392.84854,51675198.88756,   0.00039,   0.00116,   0.00067,328723674.07479,   0.00000,274640135.82653,   0.00000,   0.00000,   0.00000,-145916461.75174,   0.00000
238954196.77420,359211471.34344,52005626.44705,   0.00039,   0.00117,   0.00068,329257735.27774,   0.00000,274640135.82653,   0.00000,   0.00000,   0.00000,-145382400.54879,   0.00000
238591644.31309,359803487.38753,52336054.00655,   0.00038,   0.00117,   0.00068,329781145.96473,   0.00000,274640135.82653,   0.00000,   0.00000,   0.00000,-144858989.86180,   0.00000
238213029.40117,360388619.52414,52675660.10936,   0.00038,   0.00118,   0.00068,330303368.35146,   0.00000,274640135.82653,   0.00000,   0.00000,   0.00000,-144336767.47507,   0.00000
237818352.03844,360966867.75325,53015266.21218,   0.00038,   0.00118,   0.00069,330820129.23485,   0.00000,274640135.82653,   0.00000,   0.00000,   0.00000,-143820006.59168,   0.00000
237400728.31741,361522169.62407,53359461.58665,   0.00038,   0.00118,   0.00069,331320773.55056,   0.00000,274640135.82653,   0.00000,   0.00000,   0.00000,-143319362.27597,   0.00000
236983104.59638,362077471.49489,53703656.96112,   0.00037,   0.00119,   0.00070,331823887.38908,   0.00000,274640135.82653,   0.00000,   0.00000,   0.00000,-142816248.43745,   0.00000
236542534.51706,362609827.00740,54057030.87891,   0.00037,   0.00119,   0.00070,332313252.09703,   0.00000,274640135.82653,   0.00000,   0.00000,   0.00000,-142326883.72950,   0.00000
236108848.34522,363158244.97073,54410404.79671,   0.00037,   0.00119,   0.00071,332818119.42928,   0.00000,274640135.82653,   0.00000,   0.00000,   0.00000,-141822016.39725,   0.00000
235645331.90760,363667654.12495,54768367.98616,   0.00036,   0.00120,   0.00071,333294198.03210,   0.00000,274640135.82653,   0.00000,   0.00000,   0.00000,-141345937.79443,   0.00000
235172636.92666,364186241.82249,55130920.44727,   0.00036,   0.00120,   0.00072,333780473.12285,   0.00000,274640135.82653,   0.00000,   0.00000,   0.00000,-140859662.70368,   0.00000
234693058.03822,364688767.06922,55493472.90838,   0.00036,   0.00120,   0.00072,334256462.83720,   0.00000,274640135.82653,   0.00000,   0.00000,   0.00000,-140383672.98933,   0.00000
234190532.79149,365168345.95765,55860614.64115,   0.00035,   0.00120,   0.00073,334716868.18035,   0.00000,274640135.82653,   0.00000,   0.00000,   0.00000,-139923267.64618,   0.00000
233694891.45225,365663987.29690,56232345.64558,   0.00035,   0.00121,   0.00073,335195283.63002,   0.00000,274640135.82653,   0.00000,   0.00000,   0.00000,-139444852.19651,   0.00000
233176303.75471,366136682.27784,56608665.92167,   0.00035,   0.00121,   0.00074,335658284.08050,   0.00000,274640135.82653,   0.00000,   0.00000,   0.00000,-138981851.74603,   0.00000
232634769.69887,366586430.90048,56989575.46943,   0.00034,   0.00121,   0.00074,336105984.18132,   0.00000,274640135.82653,   0.00000,   0.00000,   0.00000,-138534151.64521,   0.00000
232093235.64304,367036179.52313,57370485.01718,   0.00034,   0.00122,   0.00075,336556578.09635,   0.00000,274640135.82653,   0.00000,   0.00000,   0.00000,-138083557.73018,   0.00000
231535639.13639,367479044.23828,57760573.10824,   0.00034,   0.00122,   0.00075,337007353.31001,   0.00000,274640135.82653,   0.00000,   0.00000,   0.00000,-137632782.51652,   0.00000
230961980.17894,367915025.04595,58150661.19931,   0.00033,   0.00122,   0.00076,337453726.33043,   0.00000,274640135.82653,   0.00000,   0.00000,   0.00000,-137186409.49610,   0.00000
230381437.31399,368334943.40281,58540749.29038,   0.00033,   0.00123,   0.00076,337890161.88510,   0.00000,274640135.82653,   0.00000,   0.00000,   0.00000,-136749973.94143,   0.00000
229794010.54156,368738799.30886,58940015.92477,   0.00033,   0.00123,   0.00077,338321442.25970,   0.00000,274640135.82653,   0.00000,   0.00000,   0.00000,-136318693.56682,   0.00000
229197405.22580,369151833.75822,59339282.55916,   0.00032,   0.00123,   0.00077,338761473.40197,   0.00000,274640135.82653,   0.00000,   0.00000,   0.00000,-135878662.42456,   0.00000
228577853.55175,369541921.84929,59747727.73687,   0.00032,   0.00124,   0.00078,339189240.32736,   0.00000,274640135.82653,   0.00000,   0.00000,   0.00000,-135450895.49917,   0.00000
227951417.97021,369915947.48955,60156172.91458,   0.00032,   0.00124,   0.00078,339607255.25358,   0.00000,274640135.82653,   0.00000,   0.00000,   0.00000,-135032880.57295,   0.00000
227315803.84535,370299151.67313,60564618.09229,   0.00031,   0.00124,   0.00079,340034271.76663,   0.00000,274640135.82653,   0.00000,   0.00000,   0.00000,-134605864.05990,   0.00000
226673305.81300,370666293.40591,60982241.81331,   0.00031,   0.00124,   0.00079,340456511.18084,   0.00000,274640135.82653,   0.00000,   0.00000,   0.00000,-134183624.64569,   0.00000
226023923.87316,371017372.68787,61399865.53434,   0.00030,   0.00125,   0.00080,340869084.93161,   0.00000,274640135.82653,   0.00000,   0.00000,   0.00000,-133771050.89492,   0.00000
225349300.93919,371370746.60566,61822078.52703,   0.00030,   0.00125,   0.00080,341286256.55245,   0.00000,274640135.82653,   0.00000,   0.00000,   0.00000,-133353879.27408,   0.00000
224683856.54855,371714941.98013,62248880.79137,   0.00030,   0.00125,   0.00081,341703462.46906,   0.00000,274640135.82653,   0.00000,   0.00000,   0.00000,-132936673.35747,   0.00000
223979403.34879,372029307.08882,62680272.32738,   0.00029,   0.00126,   0.00081,342099584.68924,   0.00000,274640135.82653,   0.00000,   0.00000,   0.00000,-132540551.13729,   0.00000
223297896.50733,372366618.55580,63116253.13505,   0.00029,   0.00126,   0.00082,342521752.26640,   0.00000,274640135.82653,   0.00000,   0.00000,   0.00000,-132118383.56013,   0.00000
222577380.85677,372674099.75700,63552233.94271,   0.00029,   0.00126,   0.00083,342920558.40823,   0.00000,274640135.82653,   0.00000,   0.00000,   0.00000,-131719577.41830,   0.00000
221866043.74953,372972402.41487,63992804.02204,   0.00028,   0.00126,   0.00083,343319501.16539,   0.00000,274640135.82653,   0.00000,   0.00000,   0.00000,-131320634.66114,   0.00000
221145528.09896,373279883.61607,64437963.37302,   0.00028,   0.00127,   0.00084,343730697.62619,   0.00000,274640135.82653,   0.00000,   0.00000,   0.00000,-130909438.20034,   0.00000
220402066.09010,373564418.45897,64887711.99567,   0.00027,   0.00127,   0.00084,344128350.08666,   0.00000,274640135.82653,   0.00000,   0.00000,   0.00000,-130511785.73987,   0.00000
219651720.17375,373832890.85106,65337460.61831,   0.00027,   0.00127,   0.00085,344516795.24304,   0.00000,274640135.82653,   0.00000,   0.00000,   0.00000,-130123340.58349,   0.00000
218892195.71408,374110541.78647,65796387.78428,   0.00027,   0.00128,   0.00086,344920435.49962,   0.00000,274640135.82653,   0.00000,   0.00000,   0.00000,-129719700.32691,   0.00000
218125787.34692,374372130.27107,66255314.95024,   0.00026,   0.00128,   0.00086,345314980.31617,   0.00000,274640135.82653,   0.00000,   0.00000,   0.00000,-129325155.51036,   0.00000
217352495.07227,374617656.30486,66718831.38786,   0.00026,   0.00128,   0.00087,345703081.58705,   0.00000,274640135.82653,   0.00000,   0.00000,   0.00000,-128937054.23948,   0.00000
216570024.25430,374872360.88197,67186937.09715,   0.00025,   0.00128,   0.00087,346104030.05418,   0.00000,274640135.82653,   0.00000,   0.00000,   0.00000,-128536105.77235,   0.00000
215780669.52884,375111003.00827,67655042.80643,   0.00025,   0.00129,   0.00088,346495992.75438,   0.00000,274640135.82653,   0.00000,   0.00000,   0.00000,-128144143.07215,   0.00000
214975252.35258,375342761.22708,68132327.05903,   0.00025,   0.00129,   0.00089,346890738.83221,   0.00000,274640135.82653,   0.00000,   0.00000,   0.00000,-127749396.99432,   0.00000
214162951.26882,375558456.99508,68609611.31164,   0.00024,   0.00129,   0.00089,347276623.29283,   0.00000,274640135.82653,   0.00000,   0.00000,   0.00000,-127363512.53370,   0.00000
213350650.18506,375774152.76309,69091484.83590,   0.00024,   0.00129,   0.00090,347669316.78672,   0.00000,274640135.82653,   0.00000,   0.00000,   0.00000,-126970819.03981,   0.00000
212522286.65050,375982964.62360,69577947.63182,   0.00023,   0.00130,   0.00090,348062386.67348,   0.00000,274640135.82653,   0.00000,   0.00000,   0.00000,-126577749.15305,   0.00000
211677860.66512,376184892.57662,70064410.42774,   0.00023,   0.00130,   0.00091,348453212.99889,   0.00000,274640135.82653,   0.00000,   0.00000,   0.00000,-126186922.82764,   0.00000
210842613.22307,376377641.98633,70560051.76698,   0.00023,   0.00130,   0.00092,348847321.98896,   0.00000,274640135.82653,   0.00000,   0.00000,   0.00000,-125792813.83757,   0.00000
209991303.33020,376563507.48854,71055693.10623,   0.00022,   0.00130,   0.00092,349239309.77297,   0.00000,274640135.82653,   0.00000,   0.00000,   0.00000,-125400826.05356,   0.00000
209123930.98653,376742489.08327,71555923.71713,   0.00022,   0.00131,   0.00093,349632095.15462,   0.00000,274640135.82653,   0.00000,   0.00000,   0.00000,-125008040.67191,   0.00000
208265737.18618,376912292.13468,72060743.59969,   0.00021,   0.00131,   0.00094,350025469.32527,   0.00000,274640135.82653,   0.00000,   0.00000,   0.00000,-124614666.50126,   0.00000
207382302.39170,377084389.82191,72570152.75391,   0.00021,   0.00131,   0.00094,350426466.81948,   0.00000,274640135.82653,   0.00000,   0.00000,   0.00000,-124213669.00705,   0.00000
206501162.23305,377231246.51502,73079561.90813,   0.00020,   0.00131,   0.00095,350812370.96339,   0.00000,274640135.82653,   0.00000,   0.00000,   0.00000,-123827764.86314,   0.00000
205610843.53108,377387281.75145,73598149.60567,   0.00020,   0.00132,   0.00096,351215211.71872,   0.00000,274640135.82653,   0.00000,   0.00000,   0.00000,-123424924.10781,   0.00000
204713640.92162,377527254.53707,74116737.30321,   0.00020,   0.00132,   0.00096,351609721.30997,   0.00000,274640135.82653,   0.00000,   0.00000,   0.00000,-123030414.51656,   0.00000
203807259.76884,377676405.86601,74639914.27241,   0.00019,   0.00132,   0.00097,352018499.13212,   0.00000,274640135.82653,   0.00000,   0.00000,   0.00000,-122621636.69441,   0.00000
202887110.80108,377793432.29333,75167680.51326,   0.00019,   0.00132,   0.00098,352409108.61781,   0.00000,274640135.82653,   0.00000,   0.00000,   0.00000,-122231027.20872,   0.00000
201973845.74081,377926521.17146,75695446.75412,   0.00018,   0.00133,   0.00098,352817259.86347,   0.00000,274640135.82653,   0.00000,   0.00000,   0.00000,-121822875.96306,   0.00000
201053696.77305,378043547.59878,76232391.53830,   0.00018,   0.00133,   0.00099,353223148.50558,   0.00000,274640135.82653,   0.00000,   0.00000,   0.00000,-121416987.32095,   0.00000
200117485.35449,378153690.11861,76769336.32248,   0.00017,   0.00133,   0.00100,353627839.32978,   0.00000,274640135.82653,   0.00000,   0.00000,   0.00000,-121012296.49675,   0.00000
199181273.93592,378263832.63844,77310870.37832,   0.00017,   0.00133,   0.00101,354040318.23538,   0.00000,274640135.82653,   0.00000,   0.00000,   0.00000,-120599817.59115,   0.00000
198238178.60986,378357912.70746,77856993.70581,   0.00016,   0.00133,   0.00101,354447790.93100,   0.00000,274640135.82653,   0.00000,   0.00000,   0.00000,-120192344.89552,   0.00000
197285904.74049,378461171.31981,78407706.30497,   0.00016,   0.00134,   0.00102,354870169.26910,   0.00000,274640135.82653,   0.00000,   0.00000,   0.00000,-119769966.55743,   0.00000
196326746.96362,378548367.48134,78958418.90413,   0.00016,   0.00134,   0.00103,355284652.47970,   0.00000,274640135.82653,   0.00000,   0.00000,   0.00000,-119355483.34683,   0.00000
195367589.18676,378635563.64287,79518310.04660,   0.00015,   0.00134,   0.00103,355710208.74938,   0.00000,274640135.82653,   0.00000,   0.00000,   0.00000,-118929927.07715,   0.00000
194385485.05159,378699813.44611,80078201.18908,   0.00015,   0.00134,   0.00104,356122273.23523,   0.00000,274640135.82653,   0.00000,   0.00000,   0.00000,-118517862.59130,   0.00000
193419443.36724,378770947.15683,80642681.60322,   0.00014,   0.00135,   0.00105,356548134.20952,   0.00000,274640135.82653,   0.00000,   0.00000,   0.00000,-118092001.61701,   0.00000
192437339.23208,378835196.96007,81211751.28901,   0.00014,   0.00135,   0.00106,356976531.88736,   0.00000,274640135.82653,   0.00000,   0.00000,   0.00000,-117663603.93917,   0.00000
191439172.64611,378892562.85581,81780820.97481,   0.00013,   0.00135,   0.00106,357404477.15989,   0.00000,274640135.82653,   0.00000,   0.00000,   0.00000,-117235658.66664,   0.00000
190457068.51094,378956812.65905,82359069.20392,   0.00013,   0.00135,   0.00107,357849418.07358,   0.00000,274640135.82653,   0.00000,   0.00000,   0.00000,-116790717.75295,   0.00000
189452018.01748,378998116.10398,82937317.43304,   0.00012,   0.00136,   0.00108,358281282.08086,   0.00000,274640135.82653,   0.00000,   0.00000,   0.00000,-116358853.74567,   0.00000
188446967.52402,379039419.54892,83520154.93381,   0.00012,   0.00136,   0.00109,358721564.44160,   0.00000,274640135.82653,   0.00000,   0.00000,   0.00000,-115918571.38493,   0.00000
187441917.03056,379080722.99386,84107581.70625,   0.00011,   0.00136,   0.00109,359170301.22180,   0.00000,274640135.82653,   0.00000,   0.00000,   0.00000,-115469834.60473,   0.00000
186436866.53710,379122026.43879,84699597.75034,   0.00011,   0.00136,   0.00110,359627528.23997,   0.00000,274640135.82653,   0.00000,   0.00000,   0.00000,-115012607.58656,   0.00000
185408869.68534,379140383.52543,85291613.79443,   0.00010,   0.00136,   0.00111,360072031.08165,   0.00000,274640135.82653,   0.00000,   0.00000,   0.00000,-114568104.74488,   0.00000
184403819.19188,379181686.97037,85888219.11019,   0.00010,   0.00137,   0.00112,360543100.84517,   0.00000,274640135.82653,   0.00000,   0.00000,   0.00000,-114097034.98136,   0.00000
183375822.34012,379200044.05701,86494002.96926,   0.00009,   0.00137,   0.00112,361008148.62040,   0.00000,274640135.82653,   0.00000,   0.00000,   0.00000,-113631987.20613,   0.00000
182331763.03755,379211517.23616,87099786.82833,   0.00009,   0.00137,   0.00113,361473457.82469,   0.00000,274640135.82653,   0.00000,   0.00000,   0.00000,-113166678.00184,   0.00000
181296882.27830,379213811.87199,87705570.68740,   0.00009,   0.00137,   0.00114,361936726.81542,   0.00000,274640135.82653,   0.00000,   0.00000,   0.00000,-112703409.01110,   0.00000
180268885.42654,379232168.95863,88320533.08980,   0.00008,   0.00137,   0.00115,362424748.47301,   0.00000,274640135.82653,   0.00000,   0.00000,   0.00000,-112215387.35352,   0.00000
179217942.21648,379227579.68697,88935495.49219,   0.00008,   0.00138,   0.00116,362900549.21374,   0.00000,274640135.82653,   0.00000,   0.00000,   0.00000,-111739586.61279,   0.00000
178166999.00642,379222990.41531,89559636.43790,   0.00007,   0.00138,   0.00116,363388661.45576,   0.00000,274640135.82653,   0.00000,   0.00000,   0.00000,-111251474.37077,   0.00000
177116055.79636,379218401.14365,90183777.38361,   0.00007,   0.00138,   0.00117,363882352.69159,   0.00000,274640135.82653,   0.00000,   0.00000,   0.00000,-110757783.13494,   0.00000
176058228.67882,379197749.42118,90812507.60098,   0.00006,   0.00138,   0.00118,364372451.73017,   0.00000,274640135.82653,   0.00000,   0.00000,   0.00000,-110267684.09636,   0.00000
175007285.46876,379193160.14952,91441237.81835,   0.00006,   0.00138,   0.00119,364880716.07923,   0.00000,274640135.82653,   0.00000,   0.00000,   0.00000,-109759419.74730,   0.00000
173933395.90040,379165624.51956,92079146.57904,   0.00005,   0.00139,   0.00120,365384099.33869,   0.00000,274640135.82653,   0.00000,   0.00000,   0.00000,-109256036.48784,   0.00000
172859506.33205,379138088.88960,92717055.33973,   0.00005,   0.00139,   0.00121,365893199.65217,   0.00000,274640135.82653,   0.00000,   0.00000,   0.00000,-108746936.17436,   0.00000
171801679.21450,379117437.16713,93359553.37208,   0.00004,   0.00139,   0.00121,366416231.13311,   0.00000,274640135.82653,   0.00000,   0.00000,   0.00000,-108223904.69342,   0.00000
170727789.64614,379089901.53718,94006640.67609,   0.00004,   0.00139,   0.00122,366943723.35812,   0.00000,274640135.82653,   0.00000,   0.00000,   0.00000,-107696412.46841,   0.00000
169647016.17030,379046303.45641,94658317.25176,   0.00003,   0.00139,   0.00123,367467994.47367,   0.00000,274640135.82653,   0.00000,   0.00000,   0.00000,-107172141.35286,   0.00000
168573126.60194,379018767.82645,95309993.82743,   0.00003,   0.00140,   0.00124,368010504.48849,   0.00000,274640135.82653,   0.00000,   0.00000,   0.00000,-106629631.33804,   0.00000
167492353.12610,378975169.74569,95966259.67476,   0.00002,   0.00140,   0.00125,368549852.35421,   0.00000,274640135.82653,   0.00000,   0.00000,   0.00000,-106090283.47232,   0.00000
166395517.19944,378924687.75743,96627114.79375,   0.00002,   0.00140,   0.00126,369094047.19826,   0.00000,274640135.82653,   0.00000,   0.00000,   0.00000,-105546088.62827,   0.00000
165314743.72360,378881089.67666,97292559.18439,   0.00001,   0.00140,   0.00126,369652188.66295,   0.00000,274640135.82653,   0.00000,   0.00000,   0.00000,-104987947.16358,   0.00000
164233970.24775,378837491.59590,97962592.84670,   0.00001,   0.00140,   0.00127,370219752.97148,   0.00000,274640135.82653,   0.00000,   0.00000,   0.00000,-104420382.85505,   0.00000
163130250.41361,378770947.15683,98637215.78067,   0.00000,   0.00141,   0.00128,370780002.91532,   0.00000,274640135.82653,   0.00000,   0.00000,   0.00000,-103860132.91121,   0.00000
162033414.48695,378720465.16858,99311838.71464,  -0.00000,   0.00141,   0.00129,371358549.06963,   0.00000,274640135.82653,   0.00000,   0.00000,   0.00000,-103281586.75690,   0.00000
160945757.10362,378660804.63700,99991050.92026,  -0.00001,   0.00141,   0.00130,371938600.58166,   0.00000,274640135.82653,   0.00000,   0.00000,   0.00000,-102701535.24487,   0.00000
159842037.26948,378594260.19794,100674852.39755,  -0.00001,   0.00141,   0.00131,372523946.34509,   0.00000,274640135.82653,   0.00000,   0.00000,   0.00000,-102116189.48144,   0.00000
158738317.43533,378527715.75887,101363243.14650,  -0.00002,   0.00141,   0.00132,373118953.55389,   0.00000,274640135.82653,   0.00000,   0.00000,   0.00000,-101521182.27264,   0.00000
157634597.60119,378461171.31981,102051633.89544,  -0.00002,   0.00141,   0.00133,373719892.50127,   0.00000,274640135.82653,   0.00000,   0.00000,   0.00000,-100920243.32525,   0.00000
156530877.76704,378394626.88074,102744613.91605,  -0.00003,   0.00142,   0.00134,374330513.48379,   0.00000,274640135.82653,   0.00000,   0.00000,   0.00000,-100309622.34274,   0.00000
155420274.02541,378312019.99087,103442183.20831,  -0.00003,   0.00142,   0.00134,374938587.01703,   0.00000,274640135.82653,   0.00000,   0.00000,   0.00000,-99701548.80950,   0.00000
154316554.19127,378245475.55180,104144341.77224,  -0.00004,   0.00142,   0.00135,375568678.16260,   0.00000,274640135.82653,   0.00000,   0.00000,   0.00000,-99071457.66393,   0.00000
153205950.44963,378162868.66193,104851089.60782,  -0.00004,   0.00142,   0.00136,376196318.09140,   0.00000,274640135.82653,   0.00000,   0.00000,   0.00000,-98443817.73513,   0.00000
152095346.70800,378080261.77206,105557837.44341,  -0.00005,   0.00142,   0.00137,376829937.06892,   0.00000,274640135.82653,   0.00000,   0.00000,   0.00000,-97810198.75761,   0.00000
150984742.96637,377997654.88218,106273763.82231,  -0.00005,   0.00143,   0.00138,377477257.02571,   0.00000,274640135.82653,   0.00000,   0.00000,   0.00000,-97162878.80082,   0.00000
149874139.22473,377915047.99231,106989690.20122,  -0.00006,   0.00143,   0.00139,378130572.70937,   0.00000,274640135.82653,   0.00000,   0.00000,   0.00000,-96509563.11716,   0.00000
148763535.48310,377832441.10243,107705616.58012,  -0.00006,   0.00143,   0.00140,378789853.09662,   0.00000,274640135.82653,   0.00000,   0.00000,   0.00000,-95850282.72991,   0.00000
147652931.74147,377749834.21256,108430721.50234,  -0.00006,   0.00143,   0.00141,379462935.09339,   0.00000,274640135.82653,   0.00000,   0.00000,   0.00000,-95177200.73314,   0.00000
146535444.09235,377651164.87188,109155826.42457,  -0.00007,   0.00143,   0.00142,380129900.00160,   0.00000,274640135.82653,   0.00000,   0.00000,   0.00000,-94510235.82493,   0.00000
145408777.89990,377561674.07452,109885520.61845,  -0.00007,   0.00143,   0.00143,380815219.93749,   0.00000,274640135.82653,   0.00000,   0.00000,   0.00000,-93824915.88904,   0.00000
144291290.25078,377463004.73383,110619804.08399,  -0.00008,   0.00144,   0.00144,381502156.71303,   0.00000,274640135.82653,   0.00000,   0.00000,   0.00000,-93137979.11350,   0.00000
143180686.50915,377380397.84396,111358676.82120,  -0.00008,   0.00144,   0.00145,382211137.90391,   0.00000,274640135.82653,   0.00000,   0.00000,   0.00000,-92428997.92261,   0.00000
142063198.86002,377281728.50328,112097549.55840,  -0.00009,   0.00144,   0.00146,382914073.60025,   0.00000,274640135.82653,   0.00000,   0.00000,   0.00000,-91726062.22628,   0.00000
140945711.21090,377183059.16260,112841011.56726,  -0.00009,   0.00144,   0.00147,383627033.42204,   0.00000,274640135.82653,   0.00000,   0.00000,   0.00000,-91013102.40449,   0.00000
139828223.56178,377084389.82191,113589062.84778,  -0.00010,   0.00144,   0.00148,384350041.48048,   0.00000,274640135.82653,   0.00000,   0.00000,   0.00000,-90290094.34605,   0.00000
138710735.91266,376985720.48123,114341703.39996,  -0.00010,   0.00144,   0.00149,385083121.41262,   0.00000,274640135.82653,   0.00000,   0.00000,   0.00000,-89557014.41391,   0.00000
137586364.35604,376870988.68974,115098933.22380,  -0.00011,   0.00145,   0.00150,385814377.51253,   0.00000,274640135.82653,   0.00000,   0.00000,   0.00000,-88825758.31400,   0.00000
136468876.70692,376772319.34906,115856163.04764,  -0.00011,   0.00145,   0.00151,386563566.94580,   0.00000,274640135.82653,   0.00000,   0.00000,   0.00000,-88076568.88073,   0.00000
135351389.05780,376673650.00838,116617982.14314,  -0.00012,   0.00145,   0.00152,387322858.42410,   0.00000,274640135.82653,   0.00000,   0.00000,   0.00000,-87317277.40243,   0.00000
134227017.50119,376558918.21688,117384390.51030,  -0.00012,   0.00145,   0.00153,388080424.67591,   0.00000,274640135.82653,   0.00000,   0.00000,   0.00000,-86559711.15062,   0.00000
133109529.85206,376460248.87620,118150798.87746,  -0.00013,   0.00145,   0.00154,388855825.48242,   0.00000,274640135.82653,   0.00000,   0.00000,   0.00000,-85784310.34411,   0.00000
131985158.29545,376345517.08471,118921796.51628,  -0.00013,   0.00146,   0.00155,389629553.10629,   0.00000,274640135.82653,   0.00000,   0.00000,   0.00000,-85010582.72024,   0.00000
130860786.73884,376230785.29322,119697383.42676,  -0.00014,   0.00146,   0.00156,390413477.67087,   0.00000,274640135.82653,   0.00000,   0.00000,   0.00000,-84226658.15566,   0.00000
129759361.54053,376138999.86003,120477559.60890,  -0.00014,   0.00146,   0.00157,391222455.59110,   0.00000,274640135.82653,   0.00000,   0.00000,   0.00000,-83417680.23543,   0.00000
128634989.98391,376024268.06854,121262325.06270,  -0.00015,   0.00146,   0.00158,392026768.60997,   0.00000,274640135.82653,   0.00000,   0.00000,   0.00000,-82613367.21656,   0.00000
127510618.42730,375909536.27705,122047090.51650,  -0.00015,   0.00146,   0.00159,392837061.31545,   0.00000,274640135.82653,   0.00000,   0.00000,   0.00000,-81803074.51108,   0.00000
126402309.32150,375801688.39304,122836445.24196,  -0.00016,   0.00146,   0.00160,393660549.68731,   0.00000,274640135.82653,   0.00000,   0.00000,   0.00000,-80979586.13922,   0.00000
125277937.76489,375686956.60155,123625799.96742,  -0.00016,   0.00147,   0.00161,394486982.21323,   0.00000,274640135.82653,   0.00000,   0.00000,   0.00000,-80153153.61330,   0.00000
124169628.65908,375579108.71755,124424333.23619,  -0.00017,   0.00147,   0.00162,395330860.45571,   0.00000,274640135.82653,   0.00000,   0.00000,   0.00000,-79309275.37082,   0.00000
123054435.64579,375455198.38274,125222866.50497,  -0.00017,   0.00147,   0.00163,396168993.56793,   0.00000,274640135.82653,   0.00000,   0.00000,   0.00000,-78471142.25860,   0.00000
121946126.53999,375347350.49874,126025989.04541,  -0.00018,   0.00147,   0.00164,397028947.99848,   0.00000,274640135.82653,   0.00000,   0.00000,   0.00000,-77611187.82805,   0.00000
120821754.98338,375232618.70725,126833700.85751,  -0.00018,   0.00147,   0.00165,397896361.02832,   0.00000,274640135.82653,   0.00000,   0.00000,   0.00000,-76743774.79821,   0.00000
119713445.87757,375124770.82325,127641412.66960,  -0.00019,   0.00147,   0.00166,398772384.38070,   0.00000,274640135.82653,   0.00000,   0.00000,   0.00000,-75867751.44583,   0.00000
118614315.31509,375007744.39593,128453713.75336,  -0.00019,   0.00147,   0.00167,399649780.49074,   0.00000,274640135.82653,   0.00000,   0.00000,   0.00000,-74990355.33579,   0.00000
117506006.20928,374899896.51192,129270604.10877,  -0.00020,   0.00148,   0.00168,400546216.54993,   0.00000,274640135.82653,   0.00000,   0.00000,   0.00000,-74093919.27660,   0.00000
116390813.19599,374775986.17711,130087494.46419,  -0.00020,   0.00148,   0.00169,401436978.94175,   0.00000,274640135.82653,   0.00000,   0.00000,   0.00000,-73203156.88478,   0.00000
115282504.09019,374668138.29311,130908974.09127,  -0.00021,   0.00148,   0.00170,402349433.83703,   0.00000,274640135.82653,   0.00000,   0.00000,   0.00000,-72290701.98950,   0.00000
114183373.52770,374551111.86579,131735042.99000,  -0.00021,   0.00148,   0.00171,403263230.82251,   0.00000,274640135.82653,   0.00000,   0.00000,   0.00000,-71376905.00402,   0.00000
113091126.87271,374450147.88928,132565701.16040,  -0.00022,   0.00148,   0.00172,404198617.54048,   0.00000,274640135.82653,   0.00000,   0.00000,   0.00000,-70441518.28605,   0.00000
111975933.85942,374326237.55447,133396359.33079,  -0.00022,   0.00148,   0.00173,405125879.09841,   0.00000,274640135.82653,   0.00000,   0.00000,   0.00000,-69514256.72812,   0.00000
110883687.20442,374225273.57796,134231606.77285,  -0.00023,   0.00149,   0.00175,406077138.07059,   0.00000,274640135.82653,   0.00000,   0.00000,   0.00000,-68562997.75594,   0.00000
109784556.64194,374108247.15064,135071443.48656,  -0.00023,   0.00149,   0.00176,407027279.12303,   0.00000,274640135.82653,   0.00000,   0.00000,   0.00000,-67612856.70350,   0.00000
108685426.07945,373991220.72332,135911280.20028,  -0.00023,   0.00149,   0.00177,407983073.30444,   0.00000,274640135.82653,   0.00000,   0.00000,   0.00000,-66657062.52209,   0.00000
107593179.42446,373890256.74680,136760295.45731,  -0.00024,   0.00149,   0.00178,408964925.28131,   0.00000,274640135.82653,   0.00000,   0.00000,   0.00000,-65675210.54522,   0.00000
106510111.31278,373780114.22697,137604721.44268,  -0.00024,   0.00149,   0.00179,409938768.74544,   0.00000,274640135.82653,   0.00000,   0.00000,   0.00000,-64701367.08109,   0.00000
105410980.75030,373663087.79965,138458325.97138,  -0.00025,   0.00149,   0.00180,410925187.33214,   0.00000,274640135.82653,   0.00000,   0.00000,   0.00000,-63714948.49439,   0.00000
104327912.63862,373552945.27982,139311930.50007,  -0.00025,   0.00150,   0.00181,411919360.04596,   0.00000,274640135.82653,   0.00000,   0.00000,   0.00000,-62720775.78057,   0.00000
103235665.98363,373451981.30331,140170124.30042,  -0.00026,   0.00150,   0.00182,412932697.06683,   0.00000,274640135.82653,   0.00000,   0.00000,   0.00000,-61707438.75970,   0.00000
102152597.87195,373341838.78348,141028318.10078,  -0.00026,   0.00150,   0.00183,413942511.26357,   0.00000,274640135.82653,   0.00000,   0.00000,   0.00000,-60697624.56296,   0.00000
101069529.76028,373231696.26364,141891101.17279,  -0.00027,   0.00150,   0.00184,414962469.00760,   0.00000,274640135.82653,   0.00000,   0.00000,   0.00000,-59677666.81893,   0.00000
99986461.64860,373121553.74381,142758473.51646,  -0.00027,   0.00150,   0.00186,415992581.35186,   0.00000,274640135.82653,   0.00000,   0.00000,   0.00000,-58647554.47467,   0.00000
98919455.98774,373018295.13147,143630435.13179,  -0.00028,   0.00150,   0.00187,417034826.04726,   0.00000,274640135.82653,   0.00000,   0.00000,   0.00000,-57605309.77927,   0.00000
97843271.78355,372924215.06245,144502396.74712,  -0.00028,   0.00151,   0.00188,418091471.66765,   0.00000,274640135.82653,   0.00000,   0.00000,   0.00000,-56548664.15888,   0.00000
96776266.12269,372820956.45011,145374358.36246,  -0.00029,   0.00151,   0.00189,419144370.54955,   0.00000,274640135.82653,   0.00000,   0.00000,   0.00000,-55495765.27698,   0.00000
95693198.01101,372710813.93028,146255498.52111,  -0.00029,   0.00151,   0.00190,420210259.02617,   0.00000,274640135.82653,   0.00000,   0.00000,   0.00000,-54429876.80036,   0.00000
94626192.35014,372607555.31793,147136638.67976,  -0.00030,   0.00151,   0.00191,421283329.46367,   0.00000,274640135.82653,   0.00000,   0.00000,   0.00000,-53356806.36286,   0.00000
93559186.68928,372504296.70559,148022368.11007,  -0.00030,   0.00151,   0.00192,422366473.36500,   0.00000,274640135.82653,   0.00000,   0.00000,   0.00000,-52273662.46153,   0.00000
92499064.93590,372417100.54406,148908097.54038,  -0.00031,   0.00151,   0.00194,423465706.71600,   0.00000,274640135.82653,   0.00000,   0.00000,   0.00000,-51174429.11053,   0.00000
91448121.72584,372320725.83921,149798416.24235,  -0.00031,   0.00152,   0.00195,424565833.91174,   0.00000,274640135.82653,   0.00000,   0.00000,   0.00000,-50074301.91479,   0.00000
90381116.06497,372217467.22686,150693324.21598,  -0.00031,   0.00152,   0.00196,425674280.21068,   0.00000,274640135.82653,   0.00000,   0.00000,   0.00000,-48965855.61585,   0.00000
89330172.85492,372121092.52201,151588232.18961,  -0.00032,   0.00152,   0.00197,426789552.56570,   0.00000,274640135.82653,   0.00000,   0.00000,   0.00000,-47850583.26083,   0.00000
88286113.55235,372040780.26797,152487729.43490,  -0.00032,   0.00152,   0.00198,427925540.64973,   0.00000,274640135.82653,   0.00000,   0.00000,   0.00000,-46714595.17679,   0.00000
87235170.34229,371944405.56312,153387226.68019,  -0.00033,   0.00152,   0.00199,429055831.00933,   0.00000,274640135.82653,   0.00000,   0.00000,   0.00000,-45584304.81720,   0.00000
86184227.13223,371848030.85826,154291313.19714,  -0.00033,   0.00152,   0.00201,430196085.40023,   0.00000,274640135.82653,   0.00000,   0.00000,   0.00000,-44444050.42630,   0.00000
85140167.82966,371767718.60422,155199988.98575,  -0.00034,   0.00153,   0.00202,431356961.87979,   0.00000,274640135.82653,   0.00000,   0.00000,   0.00000,-43283173.94674,   0.00000
84105287.07042,371678227.80686,156108664.77436,  -0.00034,   0.00153,   0.00203,432513636.71475,   0.00000,274640135.82653,   0.00000,   0.00000,   0.00000,-42126499.11178,   0.00000
83061227.76785,371597915.55281,157021929.83463,  -0.00035,   0.00153,   0.00204,433689357.31313,   0.00000,274640135.82653,   0.00000,   0.00000,   0.00000,-40950778.51340,   0.00000
82026347.00860,371508424.75545,157939784.16655,  -0.00035,   0.00153,   0.00205,434865816.74118,   0.00000,274640135.82653,   0.00000,   0.00000,   0.00000,-39774319.08535,   0.00000
80991466.24935,371418933.95809,158857638.49848,  -0.00036,   0.00153,   0.00207,436047160.27247,   0.00000,274640135.82653,   0.00000,   0.00000,   0.00000,-38592975.55406,   0.00000
79963469.39759,371345505.61153,159775492.83041,  -0.00036,   0.00153,   0.00208,437243856.82327,   0.00000,274640135.82653,   0.00000,   0.00000,   0.00000,-37396279.00326,   0.00000
78935472.54583,371272077.26498,160702525.70566,  -0.00036,   0.00154,   0.00209,438455394.11123,   0.00000,274640135.82653,   0.00000,   0.00000,   0.00000,-36184741.71530,   0.00000
77916654.23739,371189470.37510,161629558.58091,  -0.00037,   0.00154,   0.00210,439662517.08134,   0.00000,274640135.82653,   0.00000,   0.00000,   0.00000,-34977618.74519,   0.00000
76888657.38563,371116042.02855,162556591.45615,  -0.00037,   0.00154,   0.00211,440883549.65590,   0.00000,274640135.82653,   0.00000,   0.00000,   0.00000,-33756586.17063,   0.00000
75869839.07719,371033435.13868,163488213.60306,  -0.00038,   0.00154,   0.00213,442105172.34877,   0.00000,274640135.82653,   0.00000,   0.00000,   0.00000,-32534963.47776,   0.00000
74857904.67624,370966890.69961,164419835.74997,  -0.00038,   0.00154,   0.00214,443341835.28059,   0.00000,274640135.82653,   0.00000,   0.00000,   0.00000,-31298300.54594,   0.00000
73845970.27529,370900346.26055,165360636.44019,  -0.00039,   0.00154,   0.00215,444593318.08829,   0.00000,274640135.82653,   0.00000,   0.00000,   0.00000,-30046817.73823,   0.00000
72834035.87434,370833801.82148,166296847.85876,  -0.00039,   0.00155,   0.00216,445844264.01280,   0.00000,274640135.82653,   0.00000,   0.00000,   0.00000,-28795871.81373,   0.00000
71838163.92419,370774141.28991,167237648.54899,  -0.00040,   0.00155,   0.00217,447105966.61308,   0.00000,274640135.82653,   0.00000,   0.00000,   0.00000,-27534169.21345,   0.00000
70819345.61575,370691534.40003,168183038.51087,  -0.00040,   0.00155,   0.00219,448365994.27926,   0.00000,274640135.82653,   0.00000,   0.00000,   0.00000,-26274141.54726,   0.00000
69823473.66561,370631873.86846,169133017.74442,  -0.00041,   0.00155,   0.00220,449647007.76419,   0.00000,274640135.82653,   0.00000,   0.00000,   0.00000,-24993128.06234,   0.00000
68827601.71547,370572213.33688,170078407.70630,  -0.00041,   0.00155,   0.00221,450927268.69492,   0.00000,274640135.82653,   0.00000,   0.00000,   0.00000,-23712867.13161,   0.00000
67831729.76533,370512552.80531,171032976.21151,  -0.00041,   0.00155,   0.00222,452222317.94551,   0.00000,274640135.82653,   0.00000,   0.00000,   0.00000,-22417817.88102,   0.00000
66858804.17348,370475838.63203,171987544.71672,  -0.00042,   0.00156,   0.00224,453532823.25821,   0.00000,274640135.82653,   0.00000,   0.00000,   0.00000,-21107312.56832,   0.00000
65862932.22334,370416178.10045,172942113.22192,  -0.00042,   0.00156,   0.00225,454836562.71669,   0.00000,274640135.82653,   0.00000,   0.00000,   0.00000,-19803573.10984,   0.00000
64883122.72401,370363401.47637,173901270.99879,  -0.00043,   0.00156,   0.00226,456150732.65542,   0.00000,274640135.82653,   0.00000,   0.00000,   0.00000,-18489403.17111,   0.00000
63887250.77387,370303740.94479,174860428.77565,  -0.00043,   0.00156,   0.00227,457468318.09834,   0.00000,274640135.82653,   0.00000,   0.00000,   0.00000,-17171817.72819,   0.00000
62914325.18202,370267026.77152,175824175.82418,  -0.00044,   0.00156,   0.00229,458806283.42863,   0.00000,274640135.82653,   0.00000,   0.00000,   0.00000,-15833852.39789,   0.00000
61950578.13350,370221134.05492,176792512.14436,  -0.00044,   0.00156,   0.00230,460144462.08879,   0.00000,274640135.82653,   0.00000,   0.00000,   0.00000,-14495673.73774,   0.00000
60977652.54165,370184419.88164,177760848.46454,  -0.00044,   0.00157,   0.00231,461496001.76082,   0.00000,274640135.82653,   0.00000,   0.00000,   0.00000,-13144134.06570,   0.00000
59997843.04232,370131643.25756,178729184.78473,  -0.00045,   0.00157,   0.00232,462841699.45517,   0.00000,274640135.82653,   0.00000,   0.00000,   0.00000,-11798436.37136,   0.00000
59040979.90128,370101812.99177,179702110.37657,  -0.00045,   0.00157,   0.00234,464207454.70813,   0.00000,274640135.82653,   0.00000,   0.00000,   0.00000,-10432681.11840,   0.00000
58084116.76025,370071982.72598,180675035.96842,  -0.00046,   0.00157,   0.00235,465577210.17117,   0.00000,274640135.82653,   0.00000,   0.00000,   0.00000,-9062925.65536,   0.00000
57120369.71172,370026090.00939,181652550.83192,  -0.00046,   0.00157,   0.00236,466946425.76054,   0.00000,274640135.82653,   0.00000,   0.00000,   0.00000,-7693710.06598,   0.00000
56163506.57069,369996259.74360,182634654.96708,  -0.00047,   0.00157,   0.00237,468334854.47291,   0.00000,274640135.82653,   0.00000,   0.00000,   0.00000,-6305281.35362,   0.00000
55206643.42965,369966429.47781,183612169.83059,  -0.00047,   0.00158,   0.00239,469721847.90139,   0.00000,274640135.82653,   0.00000,   0.00000,   0.00000,-4918287.92514,   0.00000
54249780.28862,369936599.21202,184598863.23741,  -0.00047,   0.00158,   0.00240,471123516.49603,   0.00000,274640135.82653,   0.00000,   0.00000,   0.00000,-3516619.33050,   0.00000
53308979.59839,369913652.85372,185580967.37257,  -0.00048,   0.00158,   0.00241,472524205.57373,   0.00000,274640135.82653,   0.00000,   0.00000,   0.00000,-2115930.25280,   0.00000
52368178.90817,369890706.49543,186567660.77940,  -0.00048,   0.00158,   0.00243,473934103.40016,   0.00000,274640135.82653,   0.00000,   0.00000,   0.00000,-706032.42637,   0.00000
51906386.30100,369887302.61871,187057819.02582,  -0.00049,   0.00158,   0.00243,474640136.66767,   0.00000,274640135.82653,   0.00000,   0.00000,   0.00000,   0.84114,   0.00000
51408718.57848,369359986.89024,187265461.66066,  -0.00049,   0.00158,   0.00244,474640136.66767,   0.00000,274643436.73351,  -0.00000,   0.00000,   0.00000,  -0.00000,   2.00000
50420311.91016,368309073.67465,187677950.30018,  -0.00049,   0.00158,   0.00245,476066165.75612,   0.00001,274649936.60255,  -0.00000,   0.00001,   0.00001,   0.00000,   2.00000
49434154.14617,367254787.52948,188090305.10305,  -0.00050,   0.00159,   0.00246,476081620.77860,   0.00001,274656479.36492,  -0.00000,   0.00001,   0.00002,  -0.00000,   2.00000
48457175.11588,366214121.25617,188493891.13984,  -0.00050,   0.00159,   0.00248,476095815.73054,   0.00002,274663059.03782,  -0.00001,   0.00002,   0.00003,   0.00000,   2.00000
47491729.02733,365163686.06167,188903470.03013,  -0.00050,   0.00159,   0.00249,476107543.99050,   0.00003,274669664.17011,  -0.00001,   0.00002,   0.00003,   0.00000,   2.00000
46519443.75511,364120401.26499,189304469.73653,  -0.00051,   0.00159,   0.00250,476121306.45410,   0.00003,274676303.94260,  -0.00001,   0.00003,   0.00004,   0.00000,   2.00000
45565480.71807,363080521.33648,189705209.35237,  -0.00051,   0.00159,   0.00252,476137168.02763,   0.00004,274682987.77106,  -0.00001,   0.00003,   0.00005,   0.00000,   2.00000
44613808.17366,362037467.19801,190105825.91724,  -0.00052,   0.00160,   0.00253,476152708.36420,   0.00005,274689713.98660,  -0.00001,   0.00003,   0.00006,   0.00000,   2.00000
43664564.10212,360995169.72429,190503995.26284,  -0.00052,   0.00160,   0.00254,476162779.76027,   0.00005,274696457.35652,  -0.00002,   0.00004,   0.00007,   0.00000,   2.00000
42717751.66340,359953651.22114,190899727.88150,  -0.00053,   0.00160,   0.00256,476172848.69181,   0.00006,274703217.77622,  -0.00002,   0.00004,   0.00007,   0.00000,   2.00000
41789287.52220,358915739.70854,191295221.16428,  -0.00053,   0.00160,   0.00257,476188704.45867,   0.00006,274710021.63436,  -0.00002,   0.00005,   0.00008,   0.00000,   2.00000
40847211.42208,357871962.27453,191688388.61248,  -0.00053,   0.00160,   0.00258,476198551.23294,   0.00007,274716841.22714,  -0.00002,   0.00005,   0.00009,  -0.00000,   2.00000
39923597.92366,356835765.16599,192079047.62218,  -0.00054,   0.00160,   0.00259,476208856.33633,   0.00008,274723678.53924,  -0.00002,   0.00006,   0.00010,   0.00000,   2.00000
38993051.07811,355799343.98783,192465766.15309,  -0.00054,   0.00161,   0.00261,476233687.41332,   0.00008,274730600.07078,  -0.00003,   0.00006,   0.00011,  -0.00000,   2.00000
38074217.03163,354761067.87336,192853898.66453,  -0.00055,   0.00161,   0.00262,476234641.95883,   0.00009,274737495.96905,  -0.00003,   0.00007,   0.00011,  -0.00000,   2.00000
37164579.62755,353733313.17953,193235763.39633,  -0.00055,   0.00161,   0.00263,476254056.23222,   0.00010,274744450.95585,  -0.00003,   0.00007,   0.00012,   0.00000,   2.00000
36257315.77308,352702678.79768,193617506.92044,  -0.00055,   0.00161,   0.00265,476269760.12026,   0.00010,274751447.74630,  -0.00003,   0.00008,   0.00013,   0.00000,   2.00000
35361688.38559,351670207.08027,194000708.45629,  -0.00056,   0.00161,   0.00266,476270719.10984,   0.00011,274758418.48325,  -0.00003,   0.00008,   0.00014,   0.00000,   2.00000
34459226.94550,350637772.05014,194379933.42228,  -0.00056,   0.00161,   0.00267,476295622.42676,   0.00011,274765473.15383,  -0.00004,   0.00009,   0.00015,  -0.00000,   2.00000
33559205.02444,349606400.57835,194756793.31396,  -0.00057,   0.00162,   0.00269,476305796.48360,   0.00012,274772543.77035,  -0.00004,   0.00009,   0.00016,   0.00000,   2.00000
32684490.66472,348592725.00101,195127436.30480,  -0.00057,   0.00162,   0.00270,476325176.38161,   0.00013,274779672.46314,  -0.00004,   0.00010,   0.00016,   0.00000,   2.00000
31805302.20204,347570385.78121,195499626.54778,  -0.00057,   0.00162,   0.00271,476326128.29095,   0.00013,274786774.35769,  -0.00004,   0.00010,   0.00017,  -0.00000,   2.00000
30912502.23293,346538461.55545,195871681.87214,  -0.00058,   0.00162,   0.00273,476341946.89195,   0.00014,274793917.86664,  -0.00004,   0.00011,   0.00018,  -0.00000,   2.00000
30038169.44372,345514576.80122,196241410.46003,  -0.00058,   0.00162,   0.00274,476352116.37278,   0.00015,274801076.81054,  -0.00005,   0.00011,   0.00019,  -0.00000,   2.00000
29173149.44293,344501777.29992,196604992.75063,  -0.00059,   0.00163,   0.00275,476371361.94850,   0.00015,274808292.78997,  -0.00005,   0.00012,   0.00020,   0.00000,   2.00000
28310564.34778,343486370.14988,196968461.90115,  -0.00059,   0.00163,   0.00277,476387220.20133,   0.00016,274815549.97581,  -0.00005,   0.00012,   0.00021,   0.00000,   2.00000
27459468.01313,342469161.68229,197333511.61272,  -0.00059,   0.00163,   0.00278,476388275.18597,   0.00017,274822780.11112,  -0.00005,   0.00013,   0.00022,   0.00000,   2.00000
26601672.02656,341456271.17042,197692409.48316,  -0.00060,   0.00163,   0.00279,476407559.74202,   0.00017,274830067.11971,  -0.00005,   0.00013,   0.00022,   0.00000,   2.00000
25746285.39886,340444660.61849,198049046.21838,  -0.00060,   0.00163,   0.00281,476417742.94441,   0.00018,274837368.87982,  -0.00006,   0.00013,   0.00023,   0.00000,   2.00000
24909388.78516,339437509.73161,198405628.10739,  -0.00061,   0.00164,   0.00282,476433515.06780,   0.00019,274844710.99334,  -0.00006,   0.00014,   0.00024,   0.00000,   2.00000
24065834.32579,338434823.31613,198756088.58783,  -0.00061,   0.00164,   0.00283,476452810.28037,   0.00019,274852109.48148,  -0.00006,   0.00014,   0.00025,  -0.00000,   2.00000
23233701.98012,337430342.51888,199108212.72326,  -0.00061,   0.00164,   0.00285,476453907.69182,   0.00020,274859480.33553,  -0.00006,   0.00015,   0.00026,   0.00000,   2.00000
22387926.23458,336420216.51063,199458024.43897,  -0.00062,   0.00164,   0.00286,476464300.84987,   0.00021,274866866.46509,  -0.00006,   0.00015,   0.00027,   0.00000,   2.00000
21567702.17940,335424913.93948,199804019.28543,  -0.00062,   0.00164,   0.00288,476488927.14948,   0.00021,274874333.25991,  -0.00007,   0.00016,   0.00028,  -0.00000,   2.00000
20742807.90299,334420783.59526,200151609.27087,  -0.00063,   0.00165,   0.00289,476490292.24238,   0.00022,274881773.27461,  -0.00007,   0.00016,   0.00029,  -0.00000,   2.00000
19927333.79495,333428358.61928,200493213.50653,  -0.00063,   0.00165,   0.00290,476509312.20012,   0.00023,274889267.88393,  -0.00007,   0.00017,   0.00030,   0.00000,   2.00000
19114223.28134,332437386.84842,200832650.69872,  -0.00063,   0.00165,   0.00292,476519506.02350,   0.00023,274896776.18087,  -0.00007,   0.00017,   0.00030,   0.00000,   2.00000
18303611.50727,331444115.91029,201171997.73316,  -0.00064,   0.00165,   0.00293,476535528.84951,   0.00024,274904324.94096,  -0.00008,   0.00018,   0.00031,   0.00000,   2.00000
17495223.62538,330456099.90033,201507122.84953,  -0.00064,   0.00165,   0.00294,476539919.19256,   0.00025,274911860.37221,  -0.00008,   0.00018,   0.00032,   0.00000,   2.00000
16689348.94817,329465823.22711,201842164.32944,  -0.00065,   0.00166,   0.00296,476555954.12200,   0.00025,274919436.17447,  -0.00008,   0.00019,   0.00033,   0.00000,   2.00000
15892945.91629,328487517.07800,202171311.17504,  -0.00065,   0.00166,   0.00297,476574868.17974,   0.00026,274927065.40012,  -0.00008,   0.00019,   0.00034,   0.00000,   2.00000
15091781.17188,327500279.96646,202502103.66198,  -0.00065,   0.00166,   0.00298,476576413.83203,   0.00027,274934667.76037,  -0.00008,   0.00020,   0.00035,   0.00000,   2.00000
14316285.47522,326528489.26190,202829237.68545,  -0.00066,   0.00166,   0.00300,476600741.06550,   0.00028,274942348.33460,  -0.00009,   0.00020,   0.00036,   0.00000,   2.00000
13519773.00349,325544343.43865,203155820.55859,  -0.00066,   0.00166,   0.00301,476596871.94792,   0.00028,274949976.79926,  -0.00009,   0.00021,   0.00037,   0.00000,   2.00000
12732964.85910,324568620.12506,203478586.83560,  -0.00067,   0.00167,   0.00302,476621573.15931,   0.00029,274957685.09563,  -0.00009,   0.00021,   0.00038,   0.00000,   2.00000
11964507.81605,323601667.51817,203799477.42422,  -0.00067,   0.00167,   0.00304,476631347.49963,   0.00030,274965403.98503,  -0.00009,   0.00022,   0.00039,   0.00000,   2.00000
11182356.85034,322629174.98052,204118108.26149,  -0.00067,   0.00167,   0.00305,476642028.00605,   0.00030,274973137.60793,  -0.00010,   0.00022,   0.00040,   0.00000,   2.00000
10402556.94858,321658320.21661,204434684.62296,  -0.00068,   0.00167,   0.00307,476652261.25606,   0.00031,274980883.81772,  -0.00010,   0.00023,   0.00041,   0.00000,   2.00000
9641097.96204,320696303.57102,204749442.65533,  -0.00068,   0.00167,   0.00308,476661969.64413,   0.00032,274988640.09389,  -0.00010,   0.00023,   0.00042,   0.00000,   2.00000
8873144.55312,319739483.83616,205058245.46886,  -0.00069,   0.00168,   0.00309,476681165.50912,   0.00033,274996450.15828,  -0.00010,   0.00024,   0.00043,   0.00000,   2.00000
8100556.12577,318769888.92502,205370721.74879,  -0.00069,   0.00168,   0.00311,476688880.89265,   0.00033,275004260.79482,  -0.00011,   0.00024,   0.00044,   0.00000,   2.00000
7353274.05977,317823694.09487,205675765.45828,  -0.00069,   0.00168,   0.00312,476701031.61515,   0.00034,275012092.40681,  -0.00011,   0.00025,   0.00045,   0.00000,   2.00000
6592541.34037,316868292.47112,205980548.49102,  -0.00070,   0.00168,   0.00313,476717757.31656,   0.00035,275019966.03016,  -0.00011,   0.00025,   0.00046,  -0.00000,   2.00000
5842615.41312,315914682.08031,206285352.17328,  -0.00070,   0.00168,   0.00315,476713034.54291,   0.00035,275027782.43149,  -0.00011,   0.00026,   0.00047,   0.00000,   2.00000
5086516.17994,314962752.03856,206586182.43844,  -0.00071,   0.00169,   0.00316,476738170.28935,   0.00036,275035679.72068,  -0.00012,   0.00026,   0.00048,  -0.00000,   2.00000
4332743.77161,314012571.84127,206885056.05188,  -0.00071,   0.00169,   0.00318,476748406.63993,   0.00037,275043588.71674,  -0.00012,   0.00027,   0.00049,   0.00000,   2.00000
3604544.19680,313082362.48056,207178611.18199,  -0.00071,   0.00169,   0.00319,476766282.93968,   0.00038,275051544.58897,  -0.00012,   0.00027,   0.00050,   0.00000,   2.00000
2855342.73728,312135680.57552,207473632.43706,  -0.00072,   0.00169,   0.00320,476768857.17054,   0.00038,275059476.47825,  -0.00012,   0.00028,   0.00051,   0.00000,   2.00000
2108459.57170,311190777.63187,207766728.85653,  -0.00072,   0.00169,   0.00322,476779082.04389,   0.00039,275067419.81576,  -0.00013,   0.00028,   0.00052,   0.00000,   2.00000
1387162.88662,310265989.65799,208054580.46122,  -0.00073,   0.00170,   0.00323,476796824.95445,   0.00040,275075409.22065,  -0.00013,   0.00029,   0.00053,  -0.00000,   2.00000
652139.53883,309335701.14196,208340248.90324,  -0.00073,   0.00170,   0.00324,476807723.41445,   0.00040,275083412.87048,  -0.00013,   0.00029,   0.00054,   0.00000,   2.00000
-87903.84496,308396137.13386,208627686.06520,  -0.00073,   0.00170,   0.00326,476809734.93892,   0.00041,275091389.64114,  -0.00013,   0.00030,   0.00055,   0.00000,   2.00000
-818316.29214,307469506.33210,208909613.70465,  -0.00074,   0.00170,   0.00327,476828112.22173,   0.00042,275099415.24559,  -0.00014,   0.00030,   0.00056,   0.00000,   2.00000
-1546439.61324,306544705.94197,209189698.20296,  -0.00074,   0.00170,   0.00328,476838307.04659,   0.00043,275107451.63148,  -0.00014,   0.00031,   0.00057,   0.00000,   2.00000
-2264935.03077,305632918.01604,209464335.52057,  -0.00075,   0.00171,   0.00330,476856620.17544,   0.00043,275115536.23670,  -0.00014,   0.00031,   0.00058,  -0.00000,   2.00000
-2988513.15172,304711779.95013,209740787.77641,  -0.00075,   0.00171,   0.00331,476858697.47623,   0.00044,275123593.79883,  -0.00014,   0.00032,   0.00059,  -0.00000,   2.00000
-3709812.50037,303792496.08492,210015427.64904,  -0.00075,   0.00171,   0.00333,476868880.94383,   0.00045,275131661.89764,  -0.00015,   0.00032,   0.00060,   0.00000,   2.00000
-4421468.92475,302886331.35701,210284669.52322,  -0.00076,   0.00171,   0.00334,476887114.57273,   0.00046,275139777.66723,  -0.00015,   0.00033,   0.00061,   0.00000,   2.00000
-5138244.41937,301970755.37780,210555738.29866,  -0.00076,   0.00172,   0.00335,476889248.55031,   0.00046,275147866.45767,  -0.00015,   0.00033,   0.00062,  -0.00000,   2.00000
-5861320.29438,301060986.64208,210821048.16691,  -0.00077,   0.00172,   0.00337,476908314.22445,   0.00047,275156006.67037,  -0.00015,   0.00034,   0.00063,   0.00000,   2.00000
-6566140.98897,300160498.39829,211085004.20498,  -0.00077,   0.00172,   0.00338,476917610.25313,   0.00048,275164152.85525,  -0.00016,   0.00034,   0.00064,   0.00000,   2.00000
-7284664.51113,299254506.16064,211346818.25809,  -0.00077,   0.00172,   0.00339,476928682.55246,   0.00049,275172313.20728,  -0.00016,   0.00035,   0.00065,  -0.00000,   2.00000
-7984945.10409,298357824.12684,211607314.31784,  -0.00078,   0.00172,   0.00341,476937937.71711,   0.00049,275180479.21972,  -0.00016,   0.00035,   0.00066,   0.00000,   2.00000
-8699359.12269,297459190.95744,211863856.89297,  -0.00078,   0.00173,   0.00342,476942896.90852,   0.00050,275188631.00182,  -0.00016,   0.00036,   0.00067,   0.00000,   2.00000
-9403629.90816,296570355.95155,212116957.70111,  -0.00079,   0.00173,   0.00344,476967080.01572,   0.00051,275196857.50950,  -0.00017,   0.00036,   0.00068,  -0.00000,   2.00000
-10113063.70335,295671973.89317,212371927.38564,  -0.00079,   0.00173,   0.00345,476969373.32183,   0.00052,275205057.14386,  -0.00017,   0.00037,   0.00069,   0.00000,   2.00000
-10813227.00009,294790556.30971,212619864.92859,  -0.00079,   0.00173,   0.00346,476981241.01075,   0.00052,275213274.28552,  -0.00017,   0.00037,   0.00070,   0.00000,   2.00000
-11518582.98051,293899535.72311,212869693.56250,  -0.00080,   0.00174,   0.00348,476983528.37281,   0.00053,275221464.53467,  -0.00017,   0.00038,   0.00071,   0.00000,   2.00000
-12213749.58333,293018467.05189,213116121.22937,  -0.00080,   0.00174,   0.00349,477007637.15395,   0.00054,275229728.94774,  -0.00018,   0.00038,   0.00072,   0.00000,   2.00000
-12923067.02100,292135402.35925,213358659.07638,  -0.00081,   0.00174,   0.00350,477012659.77541,   0.00055,275237978.87516,  -0.00018,   0.00039,   0.00073,   0.00000,   2.00000
-13614159.40496,291261747.78446,213600052.41672,  -0.00081,   0.00174,   0.00352,477021740.19295,   0.00055,275246233.12441,  -0.00018,   0.00039,   0.00074,  -0.00000,   2.00000
-14319427.72014,290386063.94425,213837585.94122,  -0.00082,   0.00174,   0.00353,477026732.39479,   0.00056,275254472.76207,  -0.00018,   0.00040,   0.00075,  -0.00000,   2.00000
-15021913.27458,289508819.03082,214075291.39449,  -0.00082,   0.00175,   0.00355,477043032.37718,   0.00057,275262750.17474,  -0.00019,   0.00040,   0.00076,   0.00000,   2.00000
-15715126.11421,288648698.61745,214306149.94975,  -0.00082,   0.00175,   0.00356,477054661.23610,   0.00058,275271043.53481,  -0.00019,   0.00041,   0.00077,   0.00000,   2.00000
-16413066.56640,287775337.36754,214540703.67745,  -0.00083,   0.00175,   0.00357,477063278.07785,   0.00058,275279338.83428,  -0.00019,   0.00041,   0.00078,  -0.00000,   2.00000
-17101744.56817,286919146.31411,214768453.45312,  -0.00083,   0.00175,   0.00359,477074843.61540,   0.00059,275287649.67839,  -0.00019,   0.00042,   0.00079,  -0.00000,   2.00000
-17811597.91020,286045646.21273,214997624.02711,  -0.00084,   0.00176,   0.00360,477078446.29514,   0.00060,275295939.16168,  -0.00020,   0.00042,   0.00080,   0.00000,   2.00000
-18495702.95108,285193406.05989,215222306.84183,  -0.00084,   0.00176,   0.00361,477095000.16681,   0.00061,275304267.28228,  -0.00020,   0.00042,   0.00082,  -0.00000,   2.00000
-19194017.76431,284339058.61684,215443209.57740,  -0.00084,   0.00176,   0.00363,477100024.37386,   0.00062,275312580.49231,  -0.00020,   0.00043,   0.00083,  -0.00000,   2.00000
-19889491.99542,283483215.29717,215664341.93533,  -0.00085,   0.00176,   0.00364,477116333.71393,   0.00062,275320931.09366,  -0.00020,   0.00043,   0.00084,   0.00000,   2.00000
-20583239.92664,282632792.04139,215882254.23363,  -0.00085,   0.00177,   0.00365,477120180.29248,   0.00063,275329261.19868,  -0.00021,   0.00044,   0.00085,  -0.00000,   2.00000
-21274710.37770,281784331.98790,216098689.27462,  -0.00086,   0.00177,   0.00367,477130235.50182,   0.00064,275337599.63438,  -0.00021,   0.00044,   0.00086,   0.00000,   2.00000
-21972820.70355,280945608.68287,216307938.18204,  -0.00086,   0.00177,   0.00368,477142795.55425,   0.00065,275345957.94705,  -0.00021,   0.00045,   0.00087,   0.00000,   2.00000
-22675607.71153,280093500.34923,216520888.81591,  -0.00087,   0.00177,   0.00369,477151616.05341,   0.00065,275354318.73534,  -0.00022,   0.00045,   0.00088,   0.00000,   2.00000
-23369096.55177,279258730.45898,216727257.75422,  -0.00087,   0.00177,   0.00371,477162892.49957,   0.00066,275362693.32713,  -0.00022,   0.00046,   0.00089,  -0.00000,   2.00000
-24067871.23941,278413960.08380,216935627.98916,  -0.00087,   0.00178,   0.00372,477165476.19438,   0.00067,275371041.41002,  -0.00022,   0.00046,   0.00090,   0.00000,   2.00000
-24756756.18167,277583147.34738,217139160.74687,  -0.00088,   0.00178,   0.00373,477182940.92818,   0.00068,275379431.98724,  -0.00022,   0.00047,   0.00091,   0.00000,   2.00000
-25459853.20352,276750111.48085,217338999.39326,  -0.00088,   0.00178,   0.00375,477188016.74453,   0.00068,275387807.49401,  -0.00023,   0.00047,   0.00092,   0.00000,   2.00000
-26160620.76750,275919038.01275,217537453.77397,  -0.00089,   0.00178,   0.00376,477198038.76286,   0.00069,275396190.89365,  -0.00023,   0.00048,   0.00093,   0.00000,   2.00000
-26859064.08846,275089929.90119,217734532.39142,  -0.00089,   0.00179,   0.00378,477208057.35075,   0.00070,275404582.12052,  -0.00023,   0.00048,   0.00094,  -0.00000,   2.00000
-27555188.40625,274262790.00118,217930243.70860,  -0.00089,   0.00179,   0.00379,477218072.51269,   0.00071,275412981.10939,  -0.00023,   0.00049,   0.00096,  -0.00000,   2.00000
-28249648.40847,273440990.82857,218122930.32569,  -0.00090,   0.00179,   0.00380,477221767.29879,   0.00072,275421358.53733,  -0.00024,   0.00049,   0.00097,   0.00000,   2.00000
-28950040.29980,272625646.89391,218310259.24333,  -0.00090,   0.00179,   0.00382,477240469.09714,   0.00072,275429784.00042,  -0.00024,   0.00050,   0.00098,  -0.00000,   2.00000
-29656391.65303,271803475.59144,218497976.31597,  -0.00091,   0.00180,   0.00383,477236854.30082,   0.00073,275438153.91361,  -0.00024,   0.00050,   0.00099,   0.00000,   2.00000
-30368612.23286,270987786.04942,218680350.34493,  -0.00091,   0.00180,   0.00384,477255544.42450,   0.00074,275446571.83772,  -0.00025,   0.00051,   0.00100,   0.00000,   2.00000
-31070248.06004,270169507.75818,218865452.67757,  -0.00092,   0.00180,   0.00386,477256814.34020,   0.00075,275454956.84491,  -0.00025,   0.00051,   0.00101,   0.00000,   2.00000
-31777743.69198,269357746.45279,219045225.88976,  -0.00092,   0.00180,   0.00387,477275491.08839,   0.00075,275463389.70712,  -0.00025,   0.00052,   0.00102,  -0.00000,   2.00000
-32483568.61737,268551272.46838,219222080.12041,  -0.00093,   0.00181,   0.00388,477279129.76477,   0.00076,275471800.52866,  -0.00025,   0.00052,   0.00103,   0.00000,   2.00000
-33187035.09874,267746743.27306,219397675.38270,  -0.00093,   0.00181,   0.00389,477289074.01129,   0.00077,275480218.60909,  -0.00026,   0.00053,   0.00104,  -0.00000,   2.00000
-33904698.50498,266939806.30964,219569675.24163,  -0.00093,   0.00181,   0.00391,477294202.69113,   0.00078,275488621.61191,  -0.00026,   0.00053,   0.00105,   0.00000,   2.00000
-34619961.14735,266134809.20648,219740431.87286,  -0.00094,   0.00181,   0.00392,477304143.86695,   0.00078,275497031.88864,  -0.00026,   0.00054,   0.00106,   0.00000,   2.00000
-35332828.69059,265331754.04945,219909953.15176,  -0.00094,   0.00182,   0.00393,477314081.76000,   0.00079,275505449.37768,  -0.00027,   0.00054,   0.00108,  -0.00000,   2.00000
-36059870.08450,264526247.36062,220075889.54243,  -0.00095,   0.00182,   0.00395,477319241.03721,   0.00080,275513851.91248,  -0.00027,   0.00054,   0.00109,   0.00000,   2.00000
-36760957.89103,263742727.16500,220238065.12248,  -0.00095,   0.00182,   0.00396,477334649.52745,   0.00081,275522286.99774,  -0.00027,   0.00055,   0.00110,   0.00000,   2.00000
-37483967.06259,262944329.24832,220399982.91583,  -0.00096,   0.00182,   0.00397,477332712.91537,   0.00082,275530674.14767,  -0.00027,   0.00055,   0.00111,   0.00000,   2.00000
-38212656.97148,262152543.39331,220556671.08983,  -0.00096,   0.00183,   0.00399,477351300.05166,   0.00082,275539108.65666,  -0.00028,   0.00056,   0.00112,   0.00000,   2.00000
-38946608.06645,261350263.48630,220715455.37008,  -0.00097,   0.00183,   0.00400,477354194.73477,   0.00083,275547517.60677,  -0.00028,   0.00056,   0.00113,   0.00000,   2.00000
