# sigma_xx, sigma_yy, sigma_xy, epsilon_xx, epsilon_yy, epsilon_xy, vonMises, epsPlastic, hardening, epsilonP__xx, epsilonP__yy, epsilonP__xy, yieldValue, iteration
   0.00000,   0.00000,   0.00000,   0.00000,   0.00000,   0.00000,1181185.37500,   0.00000,274640576.00000,   0.00000,   0.00000,   0.00000,-473459392.00000,   0.00000
   0.00000,   0.00000,   0.00000,   0.00000,   0.00000,   0.00000,1181185.37500,   0.00000,274640576.00000,   0.00000,   0.00000,   0.00000,-473459392.00000,   0.00000
-22152.60561,-4777578.60944,221526.05608,   0.00001,  -0.00002,   0.00000,4113593.25000,   0.00000,274640576.00000,   0.00000,   0.00000,   0.00000,-470526976.00000,   0.00000
-81226.22056,-9592078.22823,450436.31403,   0.00002,  -0.00004,   0.00001,7817385.00000,   0.00000,274640576.00000,   0.00000,   0.00000,   0.00000,-466823184.00000,   0.00000
-118147.22991,-14354888.43394,686730.77385,   0.00003,  -0.00007,   0.00001,13042298.00000,   0.00000,274640576.00000,   0.00000,   0.00000,   0.00000,-461598272.00000,   0.00000
-206757.65234,-19139851.24525,915641.03179,   0.00004,  -0.00009,   0.00001,18335350.00000,   0.00000,274640576.00000,   0.00000,   0.00000,   0.00000,-456305232.00000,   0.00000
-295368.07477,-23924814.05657,1159319.69348,   0.00005,  -0.00011,   0.00002,23495724.00000,   0.00000,274640576.00000,   0.00000,   0.00000,   0.00000,-451144848.00000,   0.00000
-435667.91029,-28731929.47349,1395614.15330,   0.00005,  -0.00013,   0.00002,28509900.00000,   0.00000,274640576.00000,   0.00000,   0.00000,   0.00000,-446130672.00000,   0.00000
-564891.44300,-33513200.18387,1639292.81499,   0.00006,  -0.00015,   0.00002,33365040.00000,   0.00000,274640576.00000,   0.00000,   0.00000,   0.00000,-441275536.00000,   0.00000
-719959.68226,-38305547.19705,1882971.47667,   0.00007,  -0.00017,   0.00002,38116676.00000,   0.00000,274640576.00000,   0.00000,   0.00000,   0.00000,-436523904.00000,   0.00000
-889796.32525,-43083125.80649,2134034.34023,   0.00008,  -0.00019,   0.00003,42785952.00000,   0.00000,274640576.00000,   0.00000,   0.00000,   0.00000,-431854624.00000,   0.00000
-1085477.67479,-47871780.71874,2385097.20379,   0.00009,  -0.00022,   0.00003,47430108.00000,   0.00000,274640576.00000,   0.00000,   0.00000,   0.00000,-427210464.00000,   0.00000
-1295927.42806,-52645667.22725,2636160.06734,   0.00010,  -0.00024,   0.00003,52053932.00000,   0.00000,274640576.00000,   0.00000,   0.00000,   0.00000,-422586640.00000,   0.00000
-1532221.88788,-57430630.03856,2894607.13277,   0.00011,  -0.00026,   0.00004,56691824.00000,   0.00000,274640576.00000,   0.00000,   0.00000,   0.00000,-417948752.00000,   0.00000
-1794361.05424,-62226669.15268,3153054.19820,   0.00011,  -0.00028,   0.00004,61346436.00000,   0.00000,274640576.00000,   0.00000,   0.00000,   0.00000,-413294144.00000,   0.00000
-2045423.91780,-66996863.56026,3411501.26362,   0.00012,  -0.00030,   0.00004,65996396.00000,   0.00000,274640576.00000,   0.00000,   0.00000,   0.00000,-408644176.00000,   0.00000
-2348176.19444,-71789210.57344,3677332.53092,   0.00013,  -0.00032,   0.00005,70655920.00000,   0.00000,274640576.00000,   0.00000,   0.00000,   0.00000,-403984656.00000,   0.00000
-2639852.16828,-76555712.88008,3943163.79821,   0.00014,  -0.00034,   0.00005,75301456.00000,   0.00000,274640576.00000,   0.00000,   0.00000,   0.00000,-399339120.00000,   0.00000
-2957372.84866,-81333291.48952,4208995.06551,   0.00015,  -0.00036,   0.00005,79948120.00000,   0.00000,274640576.00000,   0.00000,   0.00000,   0.00000,-394692448.00000,   0.00000
-3289661.93278,-86096101.69523,4482210.53467,   0.00015,  -0.00039,   0.00006,84574304.00000,   0.00000,274640576.00000,   0.00000,   0.00000,   0.00000,-390066272.00000,   0.00000
-3647795.72344,-90869988.20374,4755426.00384,   0.00016,  -0.00041,   0.00006,89197496.00000,   0.00000,274640576.00000,   0.00000,   0.00000,   0.00000,-385443072.00000,   0.00000
-4031774.22064,-95654951.01505,5028641.47300,   0.00017,  -0.00043,   0.00007,93816744.00000,   0.00000,274640576.00000,   0.00000,   0.00000,   0.00000,-380823840.00000,   0.00000
-4430521.12159,-100425145.42263,5309241.14403,   0.00018,  -0.00045,   0.00007,98411800.00000,   0.00000,274640576.00000,   0.00000,   0.00000,   0.00000,-376228768.00000,   0.00000
-4818191.71973,-105169495.12366,5589840.81507,   0.00018,  -0.00047,   0.00007,102981360.00000,   0.00000,274640576.00000,   0.00000,   0.00000,   0.00000,-371659216.00000,   0.00000
-5257551.73095,-109935997.43030,5870440.48610,   0.00019,  -0.00049,   0.00008,107542272.00000,   0.00000,274640576.00000,   0.00000,   0.00000,   0.00000,-367098304.00000,   0.00000
-5696911.74217,-114702499.73694,6151040.15714,   0.00020,  -0.00051,   0.00008,112095256.00000,   0.00000,274640576.00000,   0.00000,   0.00000,   0.00000,-362545312.00000,   0.00000
-6151040.15714,-119454233.63984,6439024.03004,   0.00020,  -0.00053,   0.00008,116618832.00000,   0.00000,274640576.00000,   0.00000,   0.00000,   0.00000,-358021744.00000,   0.00000
-6631013.27864,-124217043.84554,6727007.90294,   0.00021,  -0.00055,   0.00009,121132976.00000,   0.00000,274640576.00000,   0.00000,   0.00000,   0.00000,-353507600.00000,   0.00000
-7125754.80388,-128965085.64751,7014991.77585,   0.00022,  -0.00057,   0.00009,125619216.00000,   0.00000,274640576.00000,   0.00000,   0.00000,   0.00000,-349021360.00000,   0.00000
-7646341.03567,-133724203.75228,7310359.85062,   0.00023,  -0.00059,   0.00010,130102496.00000,   0.00000,274640576.00000,   0.00000,   0.00000,   0.00000,-344538080.00000,   0.00000
-8155850.96465,-138457477.15051,7605727.92539,   0.00023,  -0.00061,   0.00010,134567792.00000,   0.00000,274640576.00000,   0.00000,   0.00000,   0.00000,-340072784.00000,   0.00000
-8691205.60018,-143201826.85154,7901096.00016,   0.00024,  -0.00063,   0.00010,139042144.00000,   0.00000,274640576.00000,   0.00000,   0.00000,   0.00000,-335598432.00000,   0.00000
-9267173.34598,-147942484.45164,8196464.07493,   0.00025,  -0.00066,   0.00011,143511568.00000,   0.00000,274640576.00000,   0.00000,   0.00000,   0.00000,-331129008.00000,   0.00000
-9832064.78899,-152657297.34519,8499216.35158,   0.00025,  -0.00068,   0.00011,147983024.00000,   0.00000,274640576.00000,   0.00000,   0.00000,   0.00000,-326657552.00000,   0.00000
-10408032.53479,-157397954.94529,8801968.62822,   0.00026,  -0.00070,   0.00011,152500000.00000,   0.00000,274640576.00000,   0.00000,   0.00000,   0.00000,-322140576.00000,   0.00000
-11013537.08808,-162109075.73791,9104720.90486,   0.00027,  -0.00072,   0.00012,156997296.00000,   0.00000,274640576.00000,   0.00000,   0.00000,   0.00000,-317643280.00000,   0.00000
-11655962.65071,-166857117.53988,9407473.18150,   0.00027,  -0.00074,   0.00012,161532320.00000,   0.00000,274640576.00000,   0.00000,   0.00000,   0.00000,-313108256.00000,   0.00000
-12276235.60773,-171553469.92876,9717609.66001,   0.00028,  -0.00076,   0.00013,166034512.00000,   0.00000,274640576.00000,   0.00000,   0.00000,   0.00000,-308606064.00000,   0.00000
-12922353.27129,-176260898.62045,10020361.93665,   0.00028,  -0.00078,   0.00013,170532960.00000,   0.00000,274640576.00000,   0.00000,   0.00000,   0.00000,-304107616.00000,   0.00000
-13594315.64140,-180979403.61494,10330498.41517,   0.00029,  -0.00080,   0.00013,175021424.00000,   0.00000,274640576.00000,   0.00000,   0.00000,   0.00000,-299619152.00000,   0.00000
-14281046.41525,-185683140.20569,10640634.89368,   0.00030,  -0.00082,   0.00014,179471872.00000,   0.00000,274640576.00000,   0.00000,   0.00000,   0.00000,-295168704.00000,   0.00000
-14967777.18909,-190386876.79644,10958155.57406,   0.00030,  -0.00084,   0.00014,183905584.00000,   0.00000,274640576.00000,   0.00000,   0.00000,   0.00000,-290734992.00000,   0.00000
-15669276.36668,-195075844.98345,11268292.05257,   0.00031,  -0.00086,   0.00015,188300752.00000,   0.00000,274640576.00000,   0.00000,   0.00000,   0.00000,-286339824.00000,   0.00000
-16385543.94800,-199750044.76672,11585812.73295,   0.00031,  -0.00088,   0.00015,192665392.00000,   0.00000,274640576.00000,   0.00000,   0.00000,   0.00000,-281975184.00000,   0.00000
-17127656.23587,-204435320.85280,11903333.41333,   0.00032,  -0.00090,   0.00015,197024640.00000,   0.00000,274640576.00000,   0.00000,   0.00000,   0.00000,-277615936.00000,   0.00000
-17884536.92747,-209105828.53514,12220854.09371,   0.00033,  -0.00092,   0.00016,201363248.00000,   0.00000,274640576.00000,   0.00000,   0.00000,   0.00000,-273277328.00000,   0.00000
-18667262.32562,-213787412.52028,12538374.77409,   0.00033,  -0.00094,   0.00016,205705648.00000,   0.00000,274640576.00000,   0.00000,   0.00000,   0.00000,-268934928.00000,   0.00000
-19449987.72376,-218468996.50543,12863279.65634,   0.00034,  -0.00096,   0.00017,210055072.00000,   0.00000,274640576.00000,   0.00000,   0.00000,   0.00000,-264585504.00000,   0.00000
-20236405.22285,-223109967.38029,13180800.33672,   0.00034,  -0.00098,   0.00017,214366192.00000,   0.00000,274640576.00000,   0.00000,   0.00000,   0.00000,-260274384.00000,   0.00000
-21059743.73127,-227787859.26450,13505705.21897,   0.00035,  -0.00100,   0.00018,218703024.00000,   0.00000,274640576.00000,   0.00000,   0.00000,   0.00000,-255937552.00000,   0.00000
-21860929.63409,-232414061.73562,13830610.10122,   0.00035,  -0.00101,   0.00018,223000480.00000,   0.00000,274640576.00000,   0.00000,   0.00000,   0.00000,-251640096.00000,   0.00000
-22713804.95000,-237062416.81235,14155514.98347,   0.00036,  -0.00103,   0.00018,227302128.00000,   0.00000,274640576.00000,   0.00000,   0.00000,   0.00000,-247338448.00000,   0.00000
-23566680.26591,-241710771.88908,14480419.86572,   0.00036,  -0.00105,   0.00019,231614176.00000,   0.00000,274640576.00000,   0.00000,   0.00000,   0.00000,-243026400.00000,   0.00000
-24408479.27901,-246333282.25927,14805324.74797,   0.00037,  -0.00107,   0.00019,235922736.00000,   0.00000,274640576.00000,   0.00000,   0.00000,   0.00000,-238717840.00000,   0.00000
-25290891.40239,-250952100.52852,15137613.83209,   0.00037,  -0.00109,   0.00020,240231744.00000,   0.00000,274640576.00000,   0.00000,   0.00000,   0.00000,-234408832.00000,   0.00000
-26173303.52577,-255570918.79778,15462518.71434,   0.00038,  -0.00111,   0.00020,244553792.00000,   0.00000,274640576.00000,   0.00000,   0.00000,   0.00000,-230086784.00000,   0.00000
-27096328.75944,-260186044.96610,15794807.79846,   0.00038,  -0.00113,   0.00021,248859728.00000,   0.00000,274640576.00000,   0.00000,   0.00000,   0.00000,-225780848.00000,   0.00000
-27982432.98375,-264764250.12507,16127096.88257,   0.00039,  -0.00115,   0.00021,253136032.00000,   0.00000,274640576.00000,   0.00000,   0.00000,   0.00000,-221504544.00000,   0.00000
-28920226.62116,-269364607.88965,16459385.96669,   0.00039,  -0.00117,   0.00021,257397280.00000,   0.00000,274640576.00000,   0.00000,   0.00000,   0.00000,-217243296.00000,   0.00000
-29858020.25856,-273964965.65423,16791675.05081,   0.00040,  -0.00119,   0.00022,261638304.00000,   0.00000,274640576.00000,   0.00000,   0.00000,   0.00000,-213002272.00000,   0.00000
-30810582.29970,-278550555.01507,17123964.13493,   0.00040,  -0.00121,   0.00022,265832720.00000,   0.00000,274640576.00000,   0.00000,   0.00000,   0.00000,-208807856.00000,   0.00000
-31777912.74458,-283121375.97218,17463637.42092,   0.00041,  -0.00123,   0.00023,269977056.00000,   0.00000,274640576.00000,   0.00000,   0.00000,   0.00000,-204663520.00000,   0.00000
-32760011.59320,-287677428.52554,17795926.50504,   0.00041,  -0.00125,   0.00023,274125504.00000,   0.00000,274640576.00000,   0.00000,   0.00000,   0.00000,-200515072.00000,   0.00000
-33742110.44182,-292233481.07891,18128215.58916,   0.00042,  -0.00126,   0.00024,278415296.00000,   0.00000,274640576.00000,   0.00000,   0.00000,   0.00000,-196225280.00000,   0.00000
-34750053.99698,-296800609.93507,18467888.87515,   0.00042,  -0.00128,   0.00024,282793856.00000,   0.00000,274640576.00000,   0.00000,   0.00000,   0.00000,-191846720.00000,   0.00000
-35772765.95588,-301352970.38750,18800177.95927,   0.00042,  -0.00130,   0.00024,287128480.00000,   0.00000,274640576.00000,   0.00000,   0.00000,   0.00000,-187512096.00000,   0.00000
-36784401.61197,-305879486.13339,19139851.24525,   0.00043,  -0.00132,   0.00025,291408736.00000,   0.00000,274640576.00000,   0.00000,   0.00000,   0.00000,-183231840.00000,   0.00000
-37810805.67181,-310391233.47554,19479524.53124,   0.00043,  -0.00134,   0.00025,295647008.00000,   0.00000,274640576.00000,   0.00000,   0.00000,   0.00000,-178993568.00000,   0.00000
-38863054.43818,-314914057.12049,19819197.81723,   0.00044,  -0.00136,   0.00026,299870144.00000,   0.00000,274640576.00000,   0.00000,   0.00000,   0.00000,-174770432.00000,   0.00000
-39904226.90176,-319411036.05890,20158871.10322,   0.00044,  -0.00138,   0.00026,304053888.00000,   0.00000,274640576.00000,   0.00000,   0.00000,   0.00000,-170586688.00000,   0.00000
-40997088.77841,-323930167.60292,20491160.18734,   0.00045,  -0.00139,   0.00027,308214688.00000,   0.00000,274640576.00000,   0.00000,   0.00000,   0.00000,-166425888.00000,   0.00000
-42053029.64572,-328412378.13759,20830833.47333,   0.00045,  -0.00141,   0.00027,312326880.00000,   0.00000,274640576.00000,   0.00000,   0.00000,   0.00000,-162313696.00000,   0.00000
-43149583.62332,-332890896.57133,21170506.75931,   0.00045,  -0.00143,   0.00028,316385088.00000,   0.00000,274640576.00000,   0.00000,   0.00000,   0.00000,-158255488.00000,   0.00000
-44246137.60091,-337369415.00507,21510180.04530,   0.00046,  -0.00145,   0.00028,320408096.00000,   0.00000,274640576.00000,   0.00000,   0.00000,   0.00000,-154232480.00000,   0.00000
-45357459.98224,-341833165.03507,21857237.53316,   0.00046,  -0.00147,   0.00028,324378656.00000,   0.00000,274640576.00000,   0.00000,   0.00000,   0.00000,-150261920.00000,   0.00000
-46494627.07011,-346307991.36787,22196910.81915,   0.00046,  -0.00149,   0.00029,328325952.00000,   0.00000,274640576.00000,   0.00000,   0.00000,   0.00000,-146314624.00000,   0.00000
-47620717.85518,-350756972.99413,22536584.10514,   0.00047,  -0.00150,   0.00029,332243200.00000,   0.00000,274640576.00000,   0.00000,   0.00000,   0.00000,-142397376.00000,   0.00000
-48761577.04399,-355191186.21665,22876257.39112,   0.00047,  -0.00152,   0.00030,336141568.00000,   0.00000,274640576.00000,   0.00000,   0.00000,   0.00000,-138499008.00000,   0.00000
-49917204.63654,-359610631.03543,23215930.67711,   0.00047,  -0.00154,   0.00030,340022880.00000,   0.00000,274640576.00000,   0.00000,   0.00000,   0.00000,-134617696.00000,   0.00000
-51072832.22909,-364030075.85421,23555603.96310,   0.00048,  -0.00156,   0.00031,343894240.00000,   0.00000,274640576.00000,   0.00000,   0.00000,   0.00000,-130746336.00000,   0.00000
-52243228.22537,-368434752.26926,23902661.45096,   0.00048,  -0.00157,   0.00031,347717024.00000,   0.00000,274640576.00000,   0.00000,   0.00000,   0.00000,-126923552.00000,   0.00000
-53413624.22166,-372839428.68430,24242334.73695,   0.00048,  -0.00159,   0.00032,351528768.00000,   0.00000,274640576.00000,   0.00000,   0.00000,   0.00000,-123111808.00000,   0.00000
-54598788.62168,-377229336.69561,24582008.02294,   0.00049,  -0.00161,   0.00032,355345952.00000,   0.00000,274640576.00000,   0.00000,   0.00000,   0.00000,-119294624.00000,   0.00000
-55798721.42545,-381604476.30317,24921681.30892,   0.00049,  -0.00163,   0.00032,359156416.00000,   0.00000,274640576.00000,   0.00000,   0.00000,   0.00000,-115484160.00000,   0.00000
-57013422.63295,-385964847.50700,25261354.59491,   0.00049,  -0.00164,   0.00033,362947552.00000,   0.00000,274640576.00000,   0.00000,   0.00000,   0.00000,-111693024.00000,   0.00000
-58228123.84045,-390325218.71083,25608412.08277,   0.00050,  -0.00166,   0.00033,366736320.00000,   0.00000,274640576.00000,   0.00000,   0.00000,   0.00000,-107904256.00000,   0.00000
-59457593.45169,-394670821.51092,25948085.36876,   0.00050,  -0.00168,   0.00034,370499904.00000,   0.00000,274640576.00000,   0.00000,   0.00000,   0.00000,-104140672.00000,   0.00000
-60687063.06293,-399016424.31101,26287758.65475,   0.00050,  -0.00170,   0.00034,374281312.00000,   0.00000,274640576.00000,   0.00000,   0.00000,   0.00000,-100359264.00000,   0.00000
-61931301.07791,-403347258.70736,26627431.94073,   0.00050,  -0.00171,   0.00035,378098208.00000,   0.00000,274640576.00000,   0.00000,   0.00000,   0.00000,-96542368.00000,   0.00000
-63190307.49663,-407663324.69997,26967105.22672,   0.00051,  -0.00173,   0.00035,382060160.00000,   0.00000,274640576.00000,   0.00000,   0.00000,   0.00000,-92580416.00000,   0.00000
-64438237.61254,-411953545.98604,27306778.51271,   0.00051,  -0.00175,   0.00035,386088416.00000,   0.00000,274640576.00000,   0.00000,   0.00000,   0.00000,-88552160.00000,   0.00000
-65712012.43500,-416254843.57491,27646451.79870,   0.00051,  -0.00177,   0.00036,389988320.00000,   0.00000,274640576.00000,   0.00000,   0.00000,   0.00000,-84652256.00000,   0.00000
-66974710.95465,-420530296.45724,27986125.08469,   0.00052,  -0.00178,   0.00036,393799776.00000,   0.00000,274640576.00000,   0.00000,   0.00000,   0.00000,-80840800.00000,   0.00000
-68252177.87804,-424790980.93584,28325798.37068,   0.00052,  -0.00180,   0.00037,397594400.00000,   0.00000,274640576.00000,   0.00000,   0.00000,   0.00000,-77046176.00000,   0.00000
-69555489.50797,-429062741.71723,28665471.65666,   0.00052,  -0.00182,   0.00037,401412896.00000,   0.00000,274640576.00000,   0.00000,   0.00000,   0.00000,-73227680.00000,   0.00000
-70847724.83510,-433308657.79209,28997760.74078,   0.00052,  -0.00183,   0.00038,405228416.00000,   0.00000,274640576.00000,   0.00000,   0.00000,   0.00000,-69412160.00000,   0.00000
-72154728.56597,-437539805.46320,29337434.02677,   0.00052,  -0.00185,   0.00038,409037440.00000,   0.00000,274640576.00000,   0.00000,   0.00000,   0.00000,-65603136.00000,   0.00000
-73476500.70058,-441756184.73058,29677107.31276,   0.00053,  -0.00187,   0.00039,412830368.00000,   0.00000,274640576.00000,   0.00000,   0.00000,   0.00000,-61810208.00000,   0.00000
-74798272.83518,-445972563.99795,30009396.39688,   0.00053,  -0.00188,   0.00039,416620512.00000,   0.00000,274640576.00000,   0.00000,   0.00000,   0.00000,-58020064.00000,   0.00000
-76108968.66699,-450163098.55879,30349069.68287,   0.00053,  -0.00190,   0.00039,420388832.00000,   0.00000,274640576.00000,   0.00000,   0.00000,   0.00000,-54251744.00000,   0.00000
-77445509.20533,-454364709.42243,30681358.76699,   0.00053,  -0.00192,   0.00040,424158752.00000,   0.00000,274640576.00000,   0.00000,   0.00000,   0.00000,-50481824.00000,   0.00000
-78785741.84461,-458525707.17578,31021032.05297,   0.00054,  -0.00193,   0.00040,427891456.00000,   0.00000,274640576.00000,   0.00000,   0.00000,   0.00000,-46749120.00000,   0.00000
-80151819.19043,-462697781.23194,31353321.13709,   0.00054,  -0.00195,   0.00041,431625024.00000,   0.00000,274640576.00000,   0.00000,   0.00000,   0.00000,-43015552.00000,   0.00000
-81480975.52691,-466832934.27876,31685610.22121,   0.00054,  -0.00197,   0.00041,435329312.00000,   0.00000,274640576.00000,   0.00000,   0.00000,   0.00000,-39311264.00000,   0.00000
-82861821.27647,-470990239.93118,32017899.30533,   0.00054,  -0.00198,   0.00042,439025344.00000,   0.00000,274640576.00000,   0.00000,   0.00000,   0.00000,-35615232.00000,   0.00000
-84231590.72323,-475121700.87706,32350188.38945,   0.00054,  -0.00200,   0.00042,442684160.00000,   0.00000,274640576.00000,   0.00000,   0.00000,   0.00000,-31956416.00000,   0.00000
-85590283.86718,-479227317.11640,32682477.47357,   0.00055,  -0.00201,   0.00042,446307136.00000,   0.00000,274640576.00000,   0.00000,   0.00000,   0.00000,-28333440.00000,   0.00000
-86989590.12141,-483329241.25480,33014766.55769,   0.00055,  -0.00203,   0.00043,449903200.00000,   0.00000,274640576.00000,   0.00000,   0.00000,   0.00000,-24737376.00000,   0.00000
-88351975.36630,-487394244.38385,33339671.43994,   0.00055,  -0.00205,   0.00043,453471488.00000,   0.00000,274640576.00000,   0.00000,   0.00000,   0.00000,-21169088.00000,   0.00000
-89740205.31773,-491470323.81571,33671960.52406,   0.00055,  -0.00206,   0.00044,457045504.00000,   0.00000,274640576.00000,   0.00000,   0.00000,   0.00000,-17595072.00000,   0.00000
-91143203.67290,-495531634.84383,33996865.40631,   0.00055,  -0.00208,   0.00044,460603008.00000,   0.00000,274640576.00000,   0.00000,   0.00000,   0.00000,-14037568.00000,   0.00000
-92546202.02807,-499592945.87195,34329154.49043,   0.00055,  -0.00209,   0.00045,464166272.00000,   0.00000,274640576.00000,   0.00000,   0.00000,   0.00000,-10474304.00000,   0.00000
-93952892.48417,-503613643.78979,34654059.37268,   0.00055,  -0.00211,   0.00045,467689568.00000,   0.00000,274640576.00000,   0.00000,   0.00000,   0.00000,-6951008.00000,   0.00000
-95359582.94028,-507634341.70763,34978964.25492,   0.00056,  -0.00212,   0.00045,471212992.00000,   0.00000,274640576.00000,   0.00000,   0.00000,   0.00000,-3427584.00000,   0.00000
-96750502.64493,-511554206.32983,35296888.75884,   0.00056,  -0.00214,   0.00046,474639904.00000,   0.00000,274640576.00000,   0.00000,   0.00000,   0.00000,-672.00000,   0.00000
-96773295.03915,-511562548.99103,35297880.68788,   0.00056,  -0.00214,   0.00046,474639904.00000,   0.00000,274640896.00000,   0.00000,  -0.00000,   0.00000,-160.00000,   1.00000
-97845271.26021,-511935330.04456,35343354.53921,   0.00056,  -0.00215,   0.00046,478121248.00000,   0.00001,274656032.00000,   0.00001,  -0.00002,   0.00000,  64.00000,   2.00000
-98910104.59678,-512305224.57810,35381246.57913,   0.00056,  -0.00217,   0.00047,478136000.00000,   0.00003,274671136.00000,   0.00001,  -0.00003,   0.00001,  96.00000,   2.00000
-99958789.28940,-512665780.75848,35427749.68133,   0.00056,  -0.00219,   0.00047,478132128.00000,   0.00004,274686144.00000,   0.00002,  -0.00005,   0.00001, 160.00000,   2.00000
-101017236.80618,-513029113.26309,35468221.32465,   0.00056,  -0.00220,   0.00048,478127136.00000,   0.00006,274701088.00000,   0.00002,  -0.00006,   0.00001,  32.00000,   2.00000
-102059814.05243,-513384991.30483,35510089.07422,   0.00056,  -0.00222,   0.00048,478121504.00000,   0.00007,274715904.00000,   0.00003,  -0.00008,   0.00002, 128.00000,   2.00000
-103112031.01690,-513741904.23565,35553134.26999,   0.00056,  -0.00223,   0.00048,478118112.00000,   0.00008,274730624.00000,   0.00003,  -0.00009,   0.00002, 128.00000,   2.00000
-104156934.46453,-514094607.09842,35595795.77574,   0.00057,  -0.00225,   0.00049,478133856.00000,   0.00010,274745376.00000,   0.00004,  -0.00011,   0.00003,  32.00000,   2.00000
-105211404.83178,-514448352.53269,35639600.58101,   0.00057,  -0.00226,   0.00049,478130304.00000,   0.00011,274760000.00000,   0.00004,  -0.00012,   0.00003,   0.00000,   2.00000
-106275551.32509,-514804786.20313,35677322.53910,   0.00057,  -0.00228,   0.00050,478125408.00000,   0.00012,274774528.00000,   0.00005,  -0.00014,   0.00003, 128.00000,   2.00000
-107323523.16632,-515151942.24546,35723571.14956,   0.00057,  -0.00229,   0.00050,478121248.00000,   0.00014,274788960.00000,   0.00005,  -0.00016,   0.00004,  64.00000,   2.00000
-108364157.70631,-515496596.15589,35762135.88126,   0.00057,  -0.00230,   0.00050,478135200.00000,   0.00015,274803392.00000,   0.00006,  -0.00017,   0.00004,  96.00000,   2.00000
-109414272.66434,-515842067.64842,35801774.73815,   0.00057,  -0.00232,   0.00051,478131904.00000,   0.00016,274817728.00000,   0.00006,  -0.00019,   0.00004,  64.00000,   2.00000
-110448496.69031,-516180219.82781,35842682.79759,   0.00057,  -0.00233,   0.00051,478125952.00000,   0.00017,274831968.00000,   0.00007,  -0.00020,   0.00005,  32.00000,   2.00000
-111492267.29410,-516519221.35577,35884606.55952,   0.00057,  -0.00235,   0.00052,478122816.00000,   0.00019,274846112.00000,   0.00007,  -0.00022,   0.00005,  64.00000,   2.00000
-112528573.34954,-516855693.14500,35918788.97242,   0.00057,  -0.00236,   0.00052,478136672.00000,   0.00020,274860256.00000,   0.00008,  -0.00023,   0.00005,  96.00000,   2.00000
-113540862.89767,-517180062.99573,35963182.56367,   0.00057,  -0.00238,   0.00052,478110816.00000,   0.00021,274874208.00000,   0.00008,  -0.00024,   0.00006,  96.00000,   2.00000
-114596484.90819,-517518050.02990,35999320.51791,   0.00057,  -0.00239,   0.00053,478130272.00000,   0.00023,274888160.00000,   0.00009,  -0.00026,   0.00006,  32.00000,   2.00000
-115611165.34183,-517840993.46692,36036935.31320,   0.00057,  -0.00240,   0.00053,478121280.00000,   0.00024,274902016.00000,   0.00009,  -0.00027,   0.00006,  64.00000,   2.00000
-116643914.14946,-518169354.77370,36066546.30709,   0.00057,  -0.00242,   0.00054,478138080.00000,   0.00025,274915840.00000,   0.00009,  -0.00029,   0.00007,  32.00000,   2.00000
-117678450.82471,-518493887.47365,36106160.27806,   0.00057,  -0.00243,   0.00054,478114912.00000,   0.00026,274929536.00000,   0.00010,  -0.00030,   0.00007,  64.00000,   2.00000
-118705848.93381,-518816085.48226,36138008.24137,   0.00057,  -0.00245,   0.00054,478128576.00000,   0.00028,274943200.00000,   0.00010,  -0.00032,   0.00007,  64.00000,   2.00000
-119718206.62970,-519131332.49374,36171129.63536,   0.00058,  -0.00246,   0.00055,478122176.00000,   0.00029,274956768.00000,   0.00011,  -0.00033,   0.00008,  64.00000,   2.00000
-120740998.88306,-519447595.59914,36205281.47503,   0.00058,  -0.00247,   0.00055,478118688.00000,   0.00030,274970272.00000,   0.00011,  -0.00035,   0.00008,  96.00000,   2.00000
-121749115.10994,-519757234.55302,36240733.35305,   0.00058,  -0.00249,   0.00056,478112000.00000,   0.00031,274983680.00000,   0.00012,  -0.00036,   0.00008, 128.00000,   2.00000
-122767964.56604,-520067824.79689,36277215.97834,   0.00058,  -0.00250,   0.00056,478108448.00000,   0.00033,274996992.00000,   0.00012,  -0.00037,   0.00009,  64.00000,   2.00000
-123780309.74474,-520376433.13178,36306024.16430,   0.00058,  -0.00252,   0.00056,478121472.00000,   0.00034,275010272.00000,   0.00012,  -0.00039,   0.00009,  96.00000,   2.00000
-124778480.59965,-520678692.20141,36336231.83230,   0.00058,  -0.00253,   0.00057,478114400.00000,   0.00035,275023488.00000,   0.00013,  -0.00040,   0.00009,-128.00000,   2.00000
-125787847.97536,-520982131.43193,36367568.10889,   0.00058,  -0.00254,   0.00057,478110496.00000,   0.00036,275036608.00000,   0.00013,  -0.00042,   0.00010,  32.00000,   2.00000
-126783328.48179,-521279312.39966,36400323.55494,   0.00058,  -0.00256,   0.00057,478103104.00000,   0.00037,275049632.00000,   0.00014,  -0.00043,   0.00010,   0.00000,   2.00000
-127790557.32134,-521579655.27813,36427042.10543,   0.00058,  -0.00257,   0.00058,478097280.00000,   0.00039,275062560.00000,   0.00014,  -0.00044,   0.00010,  64.00000,   2.00000
-128791472.80705,-521876328.22746,36453425.99376,   0.00058,  -0.00258,   0.00058,478111520.00000,   0.00040,275075488.00000,   0.00014,  -0.00046,   0.00011,   0.00000,   2.00000
-129803993.54744,-522174515.43116,36481049.68603,   0.00058,  -0.00259,   0.00059,478107200.00000,   0.00041,275088352.00000,   0.00015,  -0.00047,   0.00011,   0.00000,   2.00000
-130802972.94661,-522466522.96249,36510178.08093,   0.00058,  -0.00261,   0.00059,478099520.00000,   0.00042,275101120.00000,   0.00015,  -0.00049,   0.00011,  32.00000,   2.00000
-131788904.63540,-522754493.34594,36533643.76109,   0.00058,  -0.00262,   0.00059,478089856.00000,   0.00043,275113760.00000,   0.00016,  -0.00050,   0.00012,  64.00000,   2.00000
-132786368.76863,-523041861.60853,36565567.41776,   0.00058,  -0.00263,   0.00060,478087136.00000,   0.00044,275126336.00000,   0.00016,  -0.00051,   0.00012, -64.00000,   2.00000
-133770924.04896,-523325318.94263,36591835.57805,   0.00058,  -0.00265,   0.00060,478077184.00000,   0.00046,275138784.00000,   0.00016,  -0.00053,   0.00012,   0.00000,   2.00000
-134749769.08961,-523607326.77183,36610669.42131,   0.00058,  -0.00266,   0.00060,478089056.00000,   0.00047,275151264.00000,   0.00017,  -0.00054,   0.00013,  32.00000,   2.00000
-135740269.48520,-523888928.21408,36638027.97313,   0.00058,  -0.00267,   0.00061,478086144.00000,   0.00048,275163648.00000,   0.00017,  -0.00055,   0.00013,  96.00000,   2.00000
-136717935.68428,-524166427.45566,36659761.71492,   0.00058,  -0.00268,   0.00061,478076288.00000,   0.00049,275175904.00000,   0.00018,  -0.00057,   0.00013,  96.00000,   2.00000
-137707575.79250,-524445202.58407,36682805.18059,   0.00057,  -0.00270,   0.00061,478071584.00000,   0.00050,275188128.00000,   0.00018,  -0.00058,   0.00014, -64.00000,   2.00000
-138684179.66740,-524718460.35243,36707483.31464,   0.00057,  -0.00271,   0.00062,478063168.00000,   0.00051,275200224.00000,   0.00018,  -0.00059,   0.00014, 160.00000,   2.00000
-139647768.62246,-524985808.03291,36733753.10995,   0.00057,  -0.00272,   0.00062,478054816.00000,   0.00052,275212224.00000,   0.00019,  -0.00060,   0.00014, -32.00000,   2.00000
-140630586.17751,-525258759.02968,36752297.13880,   0.00057,  -0.00273,   0.00062,478070112.00000,   0.00053,275224224.00000,   0.00019,  -0.00062,   0.00015,   0.00000,   2.00000
-141593632.78582,-525523722.03966,36774320.82848,   0.00057,  -0.00274,   0.00063,478039744.00000,   0.00054,275236032.00000,   0.00019,  -0.00063,   0.00015,  64.00000,   2.00000
-142550545.01030,-525785335.88821,36796141.18386,   0.00057,  -0.00276,   0.00063,478053056.00000,   0.00056,275247872.00000,   0.00020,  -0.00064,   0.00015,   0.00000,   2.00000
-143519897.01213,-526050003.39540,36812068.84288,   0.00057,  -0.00277,   0.00063,478046688.00000,   0.00057,275259584.00000,   0.00020,  -0.00065,   0.00016,   0.00000,   2.00000
-144476413.97993,-526309109.51870,36829660.50886,   0.00057,  -0.00278,   0.00064,478038080.00000,   0.00058,275271232.00000,   0.00020,  -0.00067,   0.00016,  32.00000,   2.00000
-145451630.44090,-526571469.18364,36846722.72193,   0.00057,  -0.00279,   0.00064,478055392.00000,   0.00059,275282848.00000,   0.00021,  -0.00068,   0.00016, -96.00000,   2.00000
-146407561.92452,-526826112.92372,36867262.54595,   0.00057,  -0.00280,   0.00064,478024736.00000,   0.00060,275294336.00000,   0.00021,  -0.00069,   0.00016, -64.00000,   2.00000
-147357457.53073,-527077558.61238,36887587.06851,   0.00057,  -0.00282,   0.00065,478037824.00000,   0.00061,275305760.00000,   0.00021,  -0.00070,   0.00017,  64.00000,   2.00000
-148295351.52705,-527325514.69955,36902324.14499,   0.00057,  -0.00283,   0.00065,478027104.00000,   0.00062,275317120.00000,   0.00022,  -0.00072,   0.00017,  64.00000,   2.00000
-149239558.24184,-527572477.42965,36920166.94424,   0.00057,  -0.00284,   0.00065,478000448.00000,   0.00063,275328320.00000,   0.00022,  -0.00073,   0.00017,  64.00000,   2.00000
-150178590.76821,-527818259.72767,36930571.89714,   0.00057,  -0.00285,   0.00066,478011392.00000,   0.00064,275339488.00000,   0.00022,  -0.00074,   0.00018,  64.00000,   2.00000
-151136722.92728,-528065632.84860,36947594.34507,   0.00057,  -0.00286,   0.00066,478029984.00000,   0.00065,275350656.00000,   0.00022,  -0.00075,   0.00018,  32.00000,   2.00000
-152077538.27192,-528307808.87000,36960827.21806,   0.00057,  -0.00287,   0.00066,477996736.00000,   0.00066,275361664.00000,   0.00023,  -0.00076,   0.00018,   0.00000,   2.00000
-153007780.31363,-528547143.95531,36968445.78559,   0.00056,  -0.00288,   0.00067,477985088.00000,   0.00067,275372576.00000,   0.00023,  -0.00078,   0.00018,  32.00000,   2.00000
-153933259.74881,-528782119.60938,36983015.25469,   0.00056,  -0.00289,   0.00067,477998464.00000,   0.00068,275383488.00000,   0.00023,  -0.00079,   0.00019, 128.00000,   2.00000
-154867348.00950,-529018536.07098,36993396.50642,   0.00056,  -0.00290,   0.00067,477968864.00000,   0.00069,275394208.00000,   0.00024,  -0.00080,   0.00019, -64.00000,   2.00000
-155797472.39421,-529252949.97121,37003522.19539,   0.00056,  -0.00292,   0.00067,477979872.00000,   0.00070,275404928.00000,   0.00024,  -0.00081,   0.00019,  96.00000,   2.00000
-156717436.06459,-529483115.13417,37015222.38294,   0.00056,  -0.00293,   0.00068,477968928.00000,   0.00071,275415584.00000,   0.00024,  -0.00082,   0.00020,  32.00000,   2.00000
-157652189.62723,-529717036.10570,37020912.83850,   0.00056,  -0.00294,   0.00068,477960736.00000,   0.00072,275426144.00000,   0.00024,  -0.00083,   0.00020,  64.00000,   2.00000
-158582186.72768,-529948715.21765,37026364.24489,   0.00056,  -0.00295,   0.00068,477971648.00000,   0.00073,275436672.00000,   0.00025,  -0.00085,   0.00020,  32.00000,   2.00000
-159494878.64028,-530174081.17194,37035289.90764,   0.00056,  -0.00296,   0.00069,477938848.00000,   0.00074,275447040.00000,   0.00025,  -0.00086,   0.00020, -32.00000,   2.00000
-160420673.16165,-530402605.17337,37038199.86552,   0.00056,  -0.00297,   0.00069,477931488.00000,   0.00075,275457344.00000,   0.00025,  -0.00087,   0.00021,   0.00000,   2.00000
-161339275.67474,-530626367.95774,37048042.21092,   0.00056,  -0.00298,   0.00069,477945440.00000,   0.00076,275467616.00000,   0.00025,  -0.00088,   0.00021,  96.00000,   2.00000
-162245626.17003,-530848512.72416,37044993.92065,   0.00055,  -0.00299,   0.00069,477932704.00000,   0.00077,275477792.00000,   0.00026,  -0.00089,   0.00021,  64.00000,   2.00000
-163132831.60918,-531061570.26994,37052564.57431,   0.00055,  -0.00300,   0.00070,477903392.00000,   0.00078,275487776.00000,   0.00026,  -0.00090,   0.00022, 160.00000,   2.00000
-164037861.51274,-531278564.01050,37052111.94487,   0.00055,  -0.00301,   0.00070,477919776.00000,   0.00079,275497792.00000,   0.00026,  -0.00091,   0.00022,  32.00000,   2.00000
-164930578.70843,-531490065.52206,37053152.28831,   0.00055,  -0.00302,   0.00070,477910816.00000,   0.00079,275507680.00000,   0.00026,  -0.00092,   0.00022,  32.00000,   2.00000
-165841823.95317,-531703750.85331,37053393.30052,   0.00055,  -0.00303,   0.00071,477928704.00000,   0.00080,275517632.00000,   0.00027,  -0.00093,   0.00022,   0.00000,   2.00000
-166712740.95998,-531906806.83157,37050280.80334,   0.00055,  -0.00304,   0.00071,477889888.00000,   0.00081,275527328.00000,   0.00027,  -0.00094,   0.00023,  64.00000,   2.00000
-167597954.15305,-532109090.77039,37055572.74384,   0.00055,  -0.00305,   0.00071,477885728.00000,   0.00082,275536992.00000,   0.00027,  -0.00095,   0.00023, 128.00000,   2.00000
-168480253.58505,-532312498.68132,37046234.48571,   0.00055,  -0.00306,   0.00071,477892704.00000,   0.00083,275546656.00000,   0.00027,  -0.00096,   0.00023,  32.00000,   2.00000
-169347871.32363,-532508425.11715,37047779.97621,   0.00054,  -0.00307,   0.00072,477859936.00000,   0.00084,275556128.00000,   0.00028,  -0.00098,   0.00023,-160.00000,   2.00000
-170237277.74179,-532709880.13571,37041633.34817,   0.00054,  -0.00308,   0.00072,477872608.00000,   0.00085,275565600.00000,   0.00028,  -0.00099,   0.00024,  64.00000,   2.00000
-171118059.40560,-532907803.45086,37037386.41289,   0.00054,  -0.00309,   0.00072,477859520.00000,   0.00086,275574976.00000,   0.00028,  -0.00100,   0.00024,  64.00000,   2.00000
-171990609.74463,-533104252.46924,37027868.66650,   0.00054,  -0.00310,   0.00072,477844544.00000,   0.00087,275584256.00000,   0.00028,  -0.00101,   0.00024,  96.00000,   2.00000
-172878263.73819,-533300698.04503,37027067.53391,   0.00054,  -0.00311,   0.00073,477838432.00000,   0.00087,275593504.00000,   0.00028,  -0.00102,   0.00024,  32.00000,   2.00000
-173732945.02465,-533490392.61443,37021438.84227,   0.00054,  -0.00311,   0.00073,477818272.00000,   0.00088,275602592.00000,   0.00029,  -0.00103,   0.00025, 192.00000,   2.00000
-174603273.96627,-533683604.86695,37010085.14293,   0.00054,  -0.00312,   0.00073,477809024.00000,   0.00089,275611616.00000,   0.00029,  -0.00104,   0.00025,  32.00000,   2.00000
-175468988.63431,-533873025.02948,37006009.01376,   0.00053,  -0.00313,   0.00073,477820128.00000,   0.00090,275620640.00000,   0.00029,  -0.00105,   0.00025,  64.00000,   2.00000
-176344845.61622,-534064064.56089,36998024.48806,   0.00053,  -0.00314,   0.00073,477789344.00000,   0.00091,275629504.00000,   0.00029,  -0.00106,   0.00025,  96.00000,   2.00000
-177192451.40395,-534249749.80954,36983310.68238,   0.00053,  -0.00315,   0.00074,477791808.00000,   0.00091,275638336.00000,   0.00029,  -0.00106,   0.00026,  32.00000,   2.00000
-178054389.99519,-534434806.18045,36977229.42787,   0.00053,  -0.00316,   0.00074,477786816.00000,   0.00092,275647072.00000,   0.00030,  -0.00107,   0.00026,   0.00000,   2.00000
-178902333.20034,-534616371.32528,36967650.17691,   0.00053,  -0.00317,   0.00074,477750560.00000,   0.00093,275655648.00000,   0.00030,  -0.00108,   0.00026, -32.00000,   2.00000
-179770529.51931,-534802440.39473,36950356.33033,   0.00053,  -0.00318,   0.00074,477764288.00000,   0.00094,275664224.00000,   0.00030,  -0.00109,   0.00026, -32.00000,   2.00000
-180604706.88960,-534977988.54064,36942603.67227,   0.00052,  -0.00318,   0.00075,477748224.00000,   0.00095,275672704.00000,   0.00030,  -0.00110,   0.00027,   0.00000,   2.00000
-181454341.34438,-535156390.53622,36928963.70780,   0.00052,  -0.00319,   0.00075,477739872.00000,   0.00095,275681120.00000,   0.00030,  -0.00111,   0.00027, -64.00000,   2.00000
-182294870.60388,-535331104.97554,36917150.40427,   0.00052,  -0.00320,   0.00075,477727264.00000,   0.00096,275689408.00000,   0.00031,  -0.00112,   0.00027,  64.00000,   2.00000
-183131674.17465,-535505509.91852,36898071.56775,   0.00052,  -0.00321,   0.00075,477735232.00000,   0.00097,275697728.00000,   0.00031,  -0.00113,   0.00027, -32.00000,   2.00000
-183978967.29516,-535679533.43111,36882217.78758,   0.00052,  -0.00322,   0.00075,477706080.00000,   0.00098,275705856.00000,   0.00031,  -0.00114,   0.00027,  96.00000,   2.00000
-184798041.63219,-535846630.91943,36866795.51316,   0.00052,  -0.00323,   0.00076,477709824.00000,   0.00098,275713984.00000,   0.00031,  -0.00115,   0.00028, -32.00000,   2.00000
-185627956.50070,-536013488.49554,36854577.65728,   0.00051,  -0.00323,   0.00076,477680448.00000,   0.00099,275721920.00000,   0.00031,  -0.00116,   0.00028,  64.00000,   2.00000
-186454437.67280,-536180140.08982,36835082.76131,   0.00051,  -0.00324,   0.00076,477687936.00000,   0.00100,275729888.00000,   0.00031,  -0.00117,   0.00028,   0.00000,   2.00000
-187291922.55184,-536346424.04420,36818791.52619,   0.00051,  -0.00325,   0.00076,477658592.00000,   0.00101,275737664.00000,   0.00032,  -0.00117,   0.00028, -32.00000,   2.00000
-188102065.98768,-536508061.74395,36795743.77970,   0.00051,  -0.00326,   0.00076,477659808.00000,   0.00101,275745440.00000,   0.00032,  -0.00118,   0.00029, -64.00000,   2.00000
-188927525.90944,-536669067.10199,36781260.27790,   0.00051,  -0.00326,   0.00077,477654112.00000,   0.00102,275753120.00000,   0.00032,  -0.00119,   0.00029,   0.00000,   2.00000
-189745825.06945,-536830481.25471,36754174.29539,   0.00050,  -0.00327,   0.00077,477637280.00000,   0.00103,275760704.00000,   0.00032,  -0.00120,   0.00029,  64.00000,   2.00000
-190555525.32164,-536986597.55855,36736156.21133,   0.00050,  -0.00328,   0.00077,477625472.00000,   0.00104,275768224.00000,   0.00032,  -0.00121,   0.00029, -32.00000,   2.00000
-191362159.25001,-537142718.29564,36710892.36415,   0.00050,  -0.00329,   0.00077,477632320.00000,   0.00104,275775744.00000,   0.00032,  -0.00122,   0.00029, -64.00000,   2.00000
-192180510.23968,-537298665.83319,36688851.81328,   0.00050,  -0.00329,   0.00077,477602368.00000,   0.00105,275783072.00000,   0.00032,  -0.00122,   0.00030, -64.00000,   2.00000
-192991046.75297,-537451449.43404,36668662.88939,   0.00050,  -0.00330,   0.00077,477588512.00000,   0.00106,275790336.00000,   0.00033,  -0.00123,   0.00030,   0.00000,   2.00000
-193798616.70283,-537604241.98461,36641234.92828,   0.00049,  -0.00331,   0.00078,477595200.00000,   0.00106,275797568.00000,   0.00033,  -0.00124,   0.00030,   0.00000,   2.00000
-194594351.92753,-537752681.07510,36617554.75273,   0.00049,  -0.00331,   0.00078,477558912.00000,   0.00107,275804640.00000,   0.00033,  -0.00125,   0.00030,  96.00000,   2.00000
-195386694.50501,-537899174.08217,36593853.26462,   0.00049,  -0.00332,   0.00078,477567040.00000,   0.00108,275811712.00000,   0.00033,  -0.00126,   0.00030,  64.00000,   2.00000
-196172132.74949,-538044566.24659,36564805.76266,   0.00049,  -0.00333,   0.00078,477550976.00000,   0.00108,275818688.00000,   0.00033,  -0.00126,   0.00031,   0.00000,   2.00000
-196969947.27595,-538189877.93085,36538984.83305,   0.00049,  -0.00334,   0.00078,477520736.00000,   0.00109,275825504.00000,   0.00033,  -0.00127,   0.00031,  64.00000,   2.00000
-197764513.21805,-538333495.14194,36513169.90862,   0.00048,  -0.00334,   0.00078,477528544.00000,   0.00109,275832320.00000,   0.00033,  -0.00128,   0.00031,  32.00000,   2.00000
-198552321.90987,-538475871.29964,36481999.14048,   0.00048,  -0.00335,   0.00079,477512448.00000,   0.00110,275839040.00000,   0.00033,  -0.00129,   0.00031,   0.00000,   2.00000
-199332984.13589,-538615335.22836,36452719.79807,   0.00048,  -0.00335,   0.00079,477497824.00000,   0.00111,275845664.00000,   0.00034,  -0.00129,   0.00031,  32.00000,   2.00000
-200110493.50565,-538753047.17212,36423454.53787,   0.00048,  -0.00336,   0.00079,477505376.00000,   0.00111,275852288.00000,   0.00034,  -0.00130,   0.00031,  32.00000,   2.00000
-200901373.67948,-538892607.47428,36390190.03997,   0.00048,  -0.00337,   0.00079,477473120.00000,   0.00112,275858752.00000,   0.00034,  -0.00131,   0.00032,  96.00000,   2.00000
-201685260.97776,-539029183.25568,36358811.51262,   0.00047,  -0.00337,   0.00079,477458272.00000,   0.00112,275865152.00000,   0.00034,  -0.00131,   0.00032, -64.00000,   2.00000
-202442443.27212,-539160230.31551,36328002.77721,   0.00047,  -0.00338,   0.00079,477459008.00000,   0.00113,275871488.00000,   0.00034,  -0.00132,   0.00032, -32.00000,   2.00000
-203236401.92942,-539295041.20814,36299854.33917,   0.00047,  -0.00339,   0.00079,477434752.00000,   0.00114,275877728.00000,   0.00034,  -0.00133,   0.00032,  32.00000,   2.00000
-204004256.62600,-539426234.02167,36265048.55629,   0.00047,  -0.00339,   0.00080,477433728.00000,   0.00114,275883904.00000,   0.00034,  -0.00134,   0.00032,   0.00000,   2.00000
-204762355.89917,-539555411.24057,36226780.09236,   0.00046,  -0.00340,   0.00080,477394496.00000,   0.00115,275889920.00000,   0.00034,  -0.00134,   0.00033, -32.00000,   2.00000
-205517074.01846,-539681171.46594,36195784.20438,   0.00046,  -0.00340,   0.00080,477403040.00000,   0.00115,275895936.00000,   0.00034,  -0.00135,   0.00033, -64.00000,   2.00000
-206289480.14869,-539809867.35448,36158904.46015,   0.00046,  -0.00341,   0.00080,477392640.00000,   0.00116,275901888.00000,   0.00035,  -0.00135,   0.00033,   0.00000,   2.00000
-207055411.79572,-539935750.06697,36123916.06291,   0.00046,  -0.00341,   0.00080,477377376.00000,   0.00116,275907744.00000,   0.00035,  -0.00136,   0.00033,  32.00000,   2.00000
-207815583.73740,-540060893.64591,36083604.01521,   0.00046,  -0.00342,   0.00080,477360064.00000,   0.00117,275913504.00000,   0.00035,  -0.00137,   0.00033, 128.00000,   2.00000
-208569473.44500,-540183297.17190,36045191.14870,   0.00045,  -0.00343,   0.00080,477344352.00000,   0.00117,275919168.00000,   0.00035,  -0.00137,   0.00033,   0.00000,   2.00000
-209317223.18701,-540303158.67337,36008682.29728,   0.00045,  -0.00343,   0.00080,477328448.00000,   0.00118,275924768.00000,   0.00035,  -0.00138,   0.00033,  32.00000,   2.00000
-210082372.18882,-540424032.98818,35973507.77746,   0.00045,  -0.00344,   0.00080,477319488.00000,   0.00119,275930304.00000,   0.00035,  -0.00139,   0.00034,  64.00000,   2.00000
-210821937.84355,-540541578.26126,35931700.24577,   0.00045,  -0.00344,   0.00080,477317504.00000,   0.00119,275935776.00000,   0.00035,  -0.00139,   0.00034, -96.00000,   2.00000
-211575662.44546,-540659111.57898,35893083.03808,   0.00044,  -0.00345,   0.00081,477285952.00000,   0.00120,275941120.00000,   0.00035,  -0.00140,   0.00034, -32.00000,   2.00000
-212327360.39261,-540776900.95705,35847281.85406,   0.00044,  -0.00345,   0.00081,477290432.00000,   0.00120,275946464.00000,   0.00035,  -0.00140,   0.00034,-128.00000,   2.00000
-213069447.85632,-540889562.48006,35812474.55376,   0.00044,  -0.00346,   0.00081,477253568.00000,   0.00121,275951616.00000,   0.00035,  -0.00141,   0.00034, -32.00000,   2.00000
-213810196.27626,-541004350.47148,35763242.30170,   0.00044,  -0.00346,   0.00081,477256416.00000,   0.00121,275956768.00000,   0.00035,  -0.00142,   0.00034,   0.00000,   2.00000
-214544708.14508,-541114856.31842,35723150.94065,   0.00043,  -0.00347,   0.00081,477241696.00000,   0.00121,275961856.00000,   0.00035,  -0.00142,   0.00034,  32.00000,   2.00000
-215271105.99963,-541223894.14443,35679558.73489,   0.00043,  -0.00347,   0.00081,477201248.00000,   0.00122,275966752.00000,   0.00036,  -0.00143,   0.00035,  32.00000,   2.00000
-216018453.73023,-541334713.53623,35635442.60703,   0.00043,  -0.00347,   0.00081,477214080.00000,   0.00122,275971648.00000,   0.00036,  -0.00143,   0.00035,  96.00000,   2.00000
-216737066.41093,-541439929.41188,35593793.06455,   0.00043,  -0.00348,   0.00081,477190432.00000,   0.00123,275976448.00000,   0.00036,  -0.00144,   0.00035,  64.00000,   2.00000
-217474195.19748,-541547798.71742,35546212.22767,   0.00042,  -0.00348,   0.00081,477179136.00000,   0.00123,275981184.00000,   0.00036,  -0.00144,   0.00035,  64.00000,   2.00000
-218209021.31068,-541654228.53054,35498692.39119,   0.00042,  -0.00349,   0.00081,477184736.00000,   0.00124,275985920.00000,   0.00036,  -0.00145,   0.00035,   0.00000,   2.00000
-218935651.62215,-541757510.91698,35454894.13716,   0.00042,  -0.00349,   0.00081,477145536.00000,   0.00124,275990496.00000,   0.00036,  -0.00145,   0.00035,   0.00000,   2.00000
-219657756.77689,-541860357.34029,35405739.12124,   0.00042,  -0.00350,   0.00081,477126912.00000,   0.00125,275994944.00000,   0.00036,  -0.00146,   0.00035,  96.00000,   2.00000
-220377711.06765,-541961831.87881,35356644.38940,   0.00041,  -0.00350,   0.00081,477132288.00000,   0.00125,275999424.00000,   0.00036,  -0.00146,   0.00036,  64.00000,   2.00000
-221112868.22193,-542062961.49210,35310646.06110,   0.00041,  -0.00350,   0.00082,477100192.00000,   0.00125,276003744.00000,   0.00036,  -0.00147,   0.00036,-160.00000,   2.00000
-221822932.44229,-542160210.61396,35265318.30925,   0.00041,  -0.00351,   0.00082,477097792.00000,   0.00126,276008032.00000,   0.00036,  -0.00147,   0.00036, 128.00000,   2.00000
-222548975.07515,-542258863.51844,35215822.67716,   0.00041,  -0.00351,   0.00082,477064128.00000,   0.00126,276012192.00000,   0.00036,  -0.00148,   0.00036,  64.00000,   2.00000
-223249956.09410,-542353415.74923,35166980.89076,   0.00040,  -0.00351,   0.00082,477061632.00000,   0.00127,276016288.00000,   0.00036,  -0.00148,   0.00036,  32.00000,   2.00000
-223969867.36908,-542450345.61438,35112159.68760,   0.00040,  -0.00352,   0.00082,477049984.00000,   0.00127,276020352.00000,   0.00036,  -0.00149,   0.00036, -32.00000,   2.00000
-224685176.71014,-542545297.47999,35059220.80733,   0.00040,  -0.00352,   0.00082,477032352.00000,   0.00127,276024320.00000,   0.00036,  -0.00149,   0.00036,  64.00000,   2.00000
-225395941.61589,-542638225.28136,35008149.81957,   0.00040,  -0.00352,   0.00082,477014880.00000,   0.00128,276028192.00000,   0.00036,  -0.00150,   0.00036,  32.00000,   2.00000
-226102132.94488,-542728827.94725,34958914.22870,   0.00039,  -0.00353,   0.00082,476997376.00000,   0.00128,276031968.00000,   0.00036,  -0.00150,   0.00036,   0.00000,   2.00000
-226827465.89667,-542821841.79759,34903679.46396,   0.00039,  -0.00353,   0.00082,476985376.00000,   0.00128,276035712.00000,   0.00036,  -0.00150,   0.00036, -64.00000,   2.00000
-227528089.74363,-542911184.62709,34849118.04656,   0.00039,  -0.00353,   0.00082,476982336.00000,   0.00129,276039424.00000,   0.00036,  -0.00151,   0.00037,  32.00000,   2.00000
-228221853.28290,-542997498.62228,34798185.28097,   0.00039,  -0.00354,   0.00082,476942304.00000,   0.00129,276042944.00000,   0.00037,  -0.00151,   0.00037, -64.00000,   2.00000
-228937445.21544,-543087114.35220,34739450.10416,   0.00038,  -0.00354,   0.00082,476952480.00000,   0.00129,276046496.00000,   0.00037,  -0.00152,   0.00037,  64.00000,   2.00000
-229646376.65104,-543173831.40528,34684342.23360,   0.00038,  -0.00354,   0.00082,476912320.00000,   0.00130,276049856.00000,   0.00037,  -0.00152,   0.00037,  96.00000,   2.00000
-230330792.47597,-543256869.67064,34629886.11032,   0.00038,  -0.00355,   0.00082,476908704.00000,   0.00130,276053216.00000,   0.00037,  -0.00152,   0.00037,  64.00000,   2.00000
-231034620.03583,-543342112.22789,34569389.71163,   0.00037,  -0.00355,   0.00082,476896704.00000,   0.00130,276056512.00000,   0.00037,  -0.00153,   0.00037, -32.00000,   2.00000
-231733932.17844,-543423829.06465,34517980.07655,   0.00037,  -0.00355,   0.00082,476880000.00000,   0.00131,276059712.00000,   0.00037,  -0.00153,   0.00037,  64.00000,   2.00000
-232430517.61299,-543506942.04849,34453870.71464,   0.00037,  -0.00355,   0.00082,476858560.00000,   0.00131,276062816.00000,   0.00037,  -0.00153,   0.00037, -32.00000,   2.00000
-233145453.11236,-543588848.57170,34398219.51049,   0.00037,  -0.00356,   0.00082,476849472.00000,   0.00131,276065888.00000,   0.00037,  -0.00154,   0.00037,   0.00000,   2.00000
-233834477.37625,-543668223.67195,34337737.92100,   0.00036,  -0.00356,   0.00082,476821664.00000,   0.00131,276068832.00000,   0.00037,  -0.00154,   0.00037, -32.00000,   2.00000
-234519848.93077,-543745749.97768,34279061.40813,   0.00036,  -0.00356,   0.00082,476803008.00000,   0.00132,276071680.00000,   0.00037,  -0.00154,   0.00037,-128.00000,   2.00000
-235226480.60710,-543824477.35280,34219789.96509,   0.00036,  -0.00356,   0.00082,476814592.00000,   0.00132,276074560.00000,   0.00037,  -0.00155,   0.00038,   0.00000,   2.00000
-235905389.14805,-543900204.48184,34157457.72623,   0.00036,  -0.00356,   0.00082,476764224.00000,   0.00132,276077248.00000,   0.00037,  -0.00155,   0.00038,  32.00000,   2.00000
-236605511.43702,-543976858.64749,34094509.52452,   0.00035,  -0.00357,   0.00082,476775616.00000,   0.00132,276079936.00000,   0.00037,  -0.00155,   0.00038,  32.00000,   2.00000
-237277564.08359,-544048920.19341,34035743.67057,   0.00035,  -0.00357,   0.00082,476726464.00000,   0.00133,276082464.00000,   0.00037,  -0.00156,   0.00038,   0.00000,   2.00000
-237970881.68105,-544121921.01184,33976349.96559,   0.00035,  -0.00357,   0.00082,476737792.00000,   0.00133,276084992.00000,   0.00037,  -0.00156,   0.00038, -32.00000,   2.00000
-238661562.12147,-544194983.82536,33911479.19750,   0.00034,  -0.00357,   0.00082,476717248.00000,   0.00133,276087456.00000,   0.00037,  -0.00156,   0.00038, -64.00000,   2.00000
-239349052.57625,-544266392.12899,33848384.72954,   0.00034,  -0.00357,   0.00082,476698240.00000,   0.00133,276089824.00000,   0.00037,  -0.00156,   0.00038,  32.00000,   2.00000
-240033965.16640,-544337647.41350,33779787.28928,   0.00034,  -0.00358,   0.00082,476677568.00000,   0.00134,276092096.00000,   0.00037,  -0.00157,   0.00038, 160.00000,   2.00000
-240715102.57330,-544405291.05763,33720194.31111,   0.00034,  -0.00358,   0.00082,476659840.00000,   0.00134,276094272.00000,   0.00037,  -0.00157,   0.00038, -32.00000,   2.00000
-241395727.68740,-544473711.35684,33653345.15370,   0.00033,  -0.00358,   0.00082,476661280.00000,   0.00134,276096480.00000,   0.00037,  -0.00157,   0.00038, -32.00000,   2.00000
-242093988.26822,-544541625.31652,33589353.48578,   0.00033,  -0.00358,   0.00082,476627776.00000,   0.00134,276098528.00000,   0.00037,  -0.00157,   0.00038,   0.00000,   2.00000
-242769350.94846,-544608453.93844,33518741.29687,   0.00033,  -0.00358,   0.00082,476620928.00000,   0.00134,276100544.00000,   0.00037,  -0.00158,   0.00038, 128.00000,   2.00000
-243441834.77354,-544673532.12328,33449864.51751,   0.00033,  -0.00358,   0.00082,476601376.00000,   0.00135,276102464.00000,   0.00037,  -0.00158,   0.00038,  32.00000,   2.00000
-244132181.92492,-544738055.61490,33383818.22438,   0.00032,  -0.00358,   0.00082,476567744.00000,   0.00135,276104256.00000,   0.00037,  -0.00158,   0.00038,   0.00000,   2.00000
-244821389.11205,-544801340.11663,33317735.96339,   0.00032,  -0.00358,   0.00082,476570528.00000,   0.00135,276106080.00000,   0.00037,  -0.00158,   0.00038, -96.00000,   2.00000
-245486246.58075,-544863044.50634,33246764.70644,   0.00032,  -0.00358,   0.00082,476540864.00000,   0.00135,276107744.00000,   0.00037,  -0.00158,   0.00038, -64.00000,   2.00000
-246170820.26250,-544924859.60078,33176866.41883,   0.00031,  -0.00359,   0.00082,476529376.00000,   0.00135,276109376.00000,   0.00037,  -0.00159,   0.00038, -32.00000,   2.00000
-246854293.69336,-544985430.57271,33106925.37571,   0.00031,  -0.00359,   0.00082,476532000.00000,   0.00135,276111008.00000,   0.00037,  -0.00159,   0.00039, -32.00000,   2.00000
-247533663.16549,-545043707.62356,33040422.32490,   0.00031,  -0.00359,   0.00081,476489728.00000,   0.00135,276112448.00000,   0.00037,  -0.00159,   0.00039,  32.00000,   2.00000
-248212719.95622,-545102701.89421,32966622.71583,   0.00031,  -0.00359,   0.00081,476490496.00000,   0.00136,276113920.00000,   0.00037,  -0.00159,   0.00039, 128.00000,   2.00000
-248887775.99593,-545159194.31521,32896235.36681,   0.00030,  -0.00359,   0.00081,476448416.00000,   0.00136,276115200.00000,   0.00037,  -0.00159,   0.00039,   0.00000,   2.00000
-249561856.09708,-545214547.80628,32825797.85760,   0.00030,  -0.00359,   0.00081,476450560.00000,   0.00136,276116480.00000,   0.00037,  -0.00159,   0.00039, -64.00000,   2.00000
-250234223.43167,-545269883.73190,32749777.62978,   0.00030,  -0.00359,   0.00081,476428896.00000,   0.00136,276117696.00000,   0.00037,  -0.00160,   0.00039, -32.00000,   2.00000
-250904272.48542,-545323470.14462,32675433.98152,   0.00029,  -0.00359,   0.00081,476408736.00000,   0.00136,276118816.00000,   0.00037,  -0.00160,   0.00039, -32.00000,   2.00000
-251593660.65927,-545375458.02109,32602013.25071,   0.00029,  -0.00359,   0.00081,476397120.00000,   0.00136,276119872.00000,   0.00037,  -0.00160,   0.00039,-928.00000,   1.00000
-252260377.51538,-545425832.52783,32529260.01875,   0.00029,  -0.00359,   0.00081,476389728.00000,   0.00136,276120928.00000,   0.00037,  -0.00160,   0.00039,-928.00000,   1.00000
-252945772.99668,-545475309.94577,32459237.37713,   0.00028,  -0.00359,   0.00081,476355808.00000,   0.00136,276121824.00000,   0.00037,  -0.00160,   0.00039,-832.00000,   1.00000
-253608767.35698,-545523641.41874,32382527.21742,   0.00028,  -0.00359,   0.00081,476347872.00000,   0.00136,276122688.00000,   0.00037,  -0.00160,   0.00039,-928.00000,   1.00000
-254290571.76473,-545570897.01335,32308530.39633,   0.00028,  -0.00359,   0.00081,476313984.00000,   0.00136,276123424.00000,   0.00037,  -0.00160,   0.00039,-672.00000,   1.00000
-254950167.68790,-545617230.91861,32227859.05614,   0.00028,  -0.00359,   0.00081,476305728.00000,   0.00137,276124128.00000,   0.00037,  -0.00160,   0.00039,-640.00000,   1.00000
-255628934.35789,-545660829.11073,32155404.71010,   0.00027,  -0.00359,   0.00081,476295808.00000,   0.00137,276124800.00000,   0.00037,  -0.00160,   0.00039,-704.00000,   1.00000
-256306535.62389,-545704293.85100,32077331.32431,   0.00027,  -0.00359,   0.00081,476273920.00000,   0.00137,276125376.00000,   0.00037,  -0.00160,   0.00039,-576.00000,   1.00000
-256983206.44860,-545746215.18569,31999168.60452,   0.00027,  -0.00359,   0.00081,476275776.00000,   0.00137,276125952.00000,   0.00037,  -0.00160,   0.00039,-480.00000,   1.00000
-257657959.56279,-545787398.75075,31917097.37509,   0.00026,  -0.00359,   0.00080,476231808.00000,   0.00137,276126336.00000,   0.00037,  -0.00161,   0.00039,-320.00000,   1.00000
-258331228.98329,-545825432.55689,31842210.39248,   0.00026,  -0.00359,   0.00080,476234912.00000,   0.00137,276126752.00000,   0.00037,  -0.00161,   0.00039,-320.00000,   1.00000
-259002829.88647,-545862658.18890,31763396.11130,   0.00026,  -0.00358,   0.00080,476190912.00000,   0.00137,276127008.00000,   0.00037,  -0.00161,   0.00039,-352.00000,   1.00000
-259673885.13701,-545898818.78885,31684521.40543,   0.00026,  -0.00358,   0.00080,476192096.00000,   0.00137,276127264.00000,   0.00037,  -0.00161,   0.00039,-224.00000,   1.00000
-260344276.29125,-545934813.97355,31600003.98073,   0.00025,  -0.00358,   0.00080,476169952.00000,   0.00137,276127424.00000,   0.00037,  -0.00161,   0.00039,-256.00000,   1.00000
-261013528.33423,-545968182.41846,31522703.99371,   0.00025,  -0.00358,   0.00080,476172416.00000,   0.00137,276127584.00000,   0.00037,  -0.00161,   0.00039,   0.00000,   1.00000
-261681798.60340,-546001411.32687,31441477.77315,   0.00025,  -0.00358,   0.00080,476127808.00000,   0.00137,276127584.00000,   0.00037,  -0.00161,   0.00039, 224.00000,   0.00000
-262371045.75741,-546033921.61711,31359465.85889,   0.00024,  -0.00358,   0.00080,476137888.00000,   0.00137,276127616.00000,   0.00037,  -0.00161,   0.00039, -32.00000,   1.00000
-263017163.42098,-546015461.11244,31270855.43646,   0.00024,  -0.00358,   0.00080,476083296.00000,   0.00137,276127616.00000,   0.00037,  -0.00161,   0.00039,-44320.00000,   0.00000
-263663281.08454,-545997000.60776,31189629.21589,   0.00024,  -0.00358,   0.00079,476040928.00000,   0.00137,276127616.00000,   0.00037,  -0.00161,   0.00039,-86688.00000,   0.00000
-264324167.15184,-545963771.69935,31101018.79346,   0.00023,  -0.00358,   0.00079,475984608.00000,   0.00137,276127616.00000,   0.00037,  -0.00161,   0.00039,-143008.00000,   0.00000
-264985053.21915,-545930542.79094,31012408.37103,   0.00023,  -0.00357,   0.00079,475928768.00000,   0.00137,276127616.00000,   0.00037,  -0.00161,   0.00039,-198848.00000,   0.00000
-265597941.97430,-545834548.16664,30916413.74673,   0.00023,  -0.00357,   0.00079,475817920.00000,   0.00137,276127616.00000,   0.00037,  -0.00161,   0.00039,-309696.00000,   0.00000
-266236675.43600,-545749629.84514,30827803.32430,   0.00023,  -0.00357,   0.00079,475718176.00000,   0.00137,276127616.00000,   0.00037,  -0.00161,   0.00039,-409440.00000,   0.00000
-266853256.29208,-545613022.11056,30731808.70000,   0.00022,  -0.00357,   0.00079,475572800.00000,   0.00137,276127616.00000,   0.00037,  -0.00161,   0.00039,-554816.00000,   0.00000
-267443992.44163,-545465338.07317,30635814.07570,   0.00022,  -0.00357,   0.00079,475418752.00000,   0.00137,276127616.00000,   0.00037,  -0.00161,   0.00039,-708864.00000,   0.00000
-268049496.99491,-545302885.63205,30539819.45139,   0.00022,  -0.00356,   0.00079,475252352.00000,   0.00137,276127616.00000,   0.00037,  -0.00161,   0.00039,-875264.00000,   0.00000
-268655001.54819,-545140433.19092,30436440.62522,   0.00021,  -0.00356,   0.00079,475085280.00000,   0.00137,276127616.00000,   0.00037,  -0.00161,   0.00039,-1042336.00000,   0.00000
-269238353.49587,-544926291.33671,30340446.00092,   0.00021,  -0.00356,   0.00078,474876096.00000,   0.00137,276127616.00000,   0.00037,  -0.00161,   0.00039,-1251520.00000,   0.00000
-269821705.44355,-544712149.48250,30237067.17475,   0.00021,  -0.00356,   0.00078,474666368.00000,   0.00137,276127616.00000,   0.00037,  -0.00161,   0.00039,-1461248.00000,   0.00000
-270393981.08842,-544472162.92175,30133688.34858,   0.00020,  -0.00356,   0.00078,474435616.00000,   0.00137,276127616.00000,   0.00037,  -0.00161,   0.00039,-1692000.00000,   0.00000
-270955180.43049,-544206331.65445,30022925.32054,   0.00020,  -0.00355,   0.00078,474182400.00000,   0.00137,276127616.00000,   0.00037,  -0.00161,   0.00039,-1945216.00000,   0.00000
-271531148.17629,-543925731.98342,29919546.49437,   0.00020,  -0.00355,   0.00078,473919008.00000,   0.00137,276127616.00000,   0.00037,  -0.00161,   0.00039,-2208608.00000,   0.00000
-272081271.21555,-543634056.00958,29808783.46633,   0.00019,  -0.00355,   0.00078,473645920.00000,   0.00137,276127616.00000,   0.00037,  -0.00161,   0.00039,-2481696.00000,   0.00000
-272609241.64921,-543290690.62266,29698020.43829,   0.00019,  -0.00355,   0.00078,473329760.00000,   0.00137,276127616.00000,   0.00037,  -0.00161,   0.00039,-2797856.00000,   0.00000
-273163056.78941,-542958401.53854,29587257.41025,   0.00019,  -0.00354,   0.00077,473024544.00000,   0.00137,276127616.00000,   0.00037,  -0.00161,   0.00039,-3103072.00000,   0.00000
-273679950.92026,-542589191.44508,29469110.18034,   0.00019,  -0.00354,   0.00077,472687456.00000,   0.00137,276127616.00000,   0.00037,  -0.00161,   0.00039,-3440160.00000,   0.00000
-274222689.75766,-542231057.65441,29358347.15230,   0.00018,  -0.00354,   0.00077,472362560.00000,   0.00137,276127616.00000,   0.00037,  -0.00161,   0.00039,-3765056.00000,   0.00000
-274717431.28290,-541810158.14786,29240199.92240,   0.00018,  -0.00354,   0.00077,471983616.00000,   0.00137,276127616.00000,   0.00037,  -0.00161,   0.00039,-4144000.00000,   0.00000
-275238017.51469,-541400334.94412,29122052.69249,   0.00018,  -0.00353,   0.00077,471615552.00000,   0.00137,276127616.00000,   0.00037,  -0.00161,   0.00039,-4512064.00000,   0.00000
-275721682.73713,-540953590.73102,29003905.46258,   0.00017,  -0.00353,   0.00077,471216960.00000,   0.00137,276127616.00000,   0.00037,  -0.00161,   0.00039,-4910656.00000,   0.00000
-276220116.36330,-540492078.11419,28878374.03080,   0.00017,  -0.00353,   0.00076,470805824.00000,   0.00137,276127616.00000,   0.00037,  -0.00161,   0.00039,-5321792.00000,   0.00000
-276718549.98948,-540030565.49736,28752842.59902,   0.00017,  -0.00352,   0.00076,470396000.00000,   0.00137,276127616.00000,   0.00037,  -0.00161,   0.00039,-5731616.00000,   0.00000
-277194831.01005,-539517363.46744,28634695.36911,   0.00016,  -0.00352,   0.00076,469944384.00000,   0.00137,276127616.00000,   0.00037,  -0.00161,   0.00039,-6183232.00000,   0.00000
-277645267.32408,-538993085.13472,28501779.73546,   0.00016,  -0.00352,   0.00076,469481504.00000,   0.00137,276127616.00000,   0.00037,  -0.00161,   0.00039,-6646112.00000,   0.00000
-278110472.04185,-538454038.39826,28376248.30369,   0.00016,  -0.00351,   0.00076,469008960.00000,   0.00137,276127616.00000,   0.00037,  -0.00161,   0.00039,-7118656.00000,   0.00000
-278575676.75961,-537914991.66180,28250716.87191,   0.00015,  -0.00351,   0.00076,468537632.00000,   0.00137,276127616.00000,   0.00037,  -0.00161,   0.00039,-7589984.00000,   0.00000
-279018728.87177,-537324255.51226,28117801.23826,   0.00015,  -0.00351,   0.00075,468021824.00000,   0.00137,276127616.00000,   0.00037,  -0.00161,   0.00039,-8105792.00000,   0.00000
-279461780.98393,-536733519.36271,27984885.60461,   0.00015,  -0.00350,   0.00075,467507328.00000,   0.00137,276127616.00000,   0.00037,  -0.00161,   0.00039,-8620288.00000,   0.00000
-279919601.49983,-536128014.80943,27851969.97096,   0.00014,  -0.00350,   0.00075,466981888.00000,   0.00137,276127616.00000,   0.00037,  -0.00161,   0.00039,-9145728.00000,   0.00000
-280351577.30918,-535511433.95334,27719054.33732,   0.00014,  -0.00350,   0.00075,466447712.00000,   0.00137,276127616.00000,   0.00037,  -0.00161,   0.00039,-9679904.00000,   0.00000
-280761400.51293,-534843163.68417,27578754.50180,   0.00014,  -0.00349,   0.00075,465869152.00000,   0.00137,276127616.00000,   0.00037,  -0.00161,   0.00039,-10258464.00000,   0.00000
-281171223.71668,-534174893.41500,27445838.86815,   0.00013,  -0.00349,   0.00075,465293120.00000,   0.00137,276127616.00000,   0.00037,  -0.00161,   0.00039,-10834496.00000,   0.00000
-281595815.32416,-533491854.74208,27305539.03264,   0.00013,  -0.00348,   0.00074,464704928.00000,   0.00137,276127616.00000,   0.00037,  -0.00161,   0.00039,-11422688.00000,   0.00000
-281994562.22510,-532797739.76637,27165239.19712,   0.00013,  -0.00348,   0.00074,464107840.00000,   0.00137,276127616.00000,   0.00037,  -0.00161,   0.00039,-12019776.00000,   0.00000
-282408077.52979,-532088856.38692,27024939.36160,   0.00012,  -0.00348,   0.00074,463500032.00000,   0.00137,276127616.00000,   0.00037,  -0.00161,   0.00039,-12627584.00000,   0.00000
-282773595.52232,-531317207.29157,26877255.32422,   0.00012,  -0.00347,   0.00074,462837632.00000,   0.00137,276127616.00000,   0.00037,  -0.00161,   0.00039,-13289984.00000,   0.00000
-283176034.52419,-530582479.20558,26736955.48870,   0.00012,  -0.00347,   0.00074,462210208.00000,   0.00137,276127616.00000,   0.00037,  -0.00161,   0.00039,-13917408.00000,   0.00000
-283556320.92046,-529796061.70649,26589271.45131,   0.00012,  -0.00346,   0.00074,461538592.00000,   0.00137,276127616.00000,   0.00037,  -0.00161,   0.00039,-14589024.00000,   0.00000
-283910762.61019,-528998567.90461,26441587.41393,   0.00011,  -0.00346,   0.00073,460857888.00000,   0.00137,276127616.00000,   0.00037,  -0.00161,   0.00039,-15269728.00000,   0.00000
-284279972.70366,-528186305.69898,26293903.37654,   0.00011,  -0.00346,   0.00073,460166656.00000,   0.00137,276127616.00000,   0.00037,  -0.00161,   0.00039,-15960960.00000,   0.00000
-284638106.49432,-527348198.78682,26146219.33915,   0.00011,  -0.00345,   0.00073,459454624.00000,   0.00137,276127616.00000,   0.00037,  -0.00161,   0.00039,-16672992.00000,   0.00000
-284996240.28498,-526510091.87465,25991151.09990,   0.00010,  -0.00345,   0.00073,458742752.00000,   0.00137,276127616.00000,   0.00037,  -0.00161,   0.00039,-17384864.00000,   0.00000
-285343297.77284,-525646140.25594,25843467.06251,   0.00010,  -0.00344,   0.00073,458011360.00000,   0.00137,276127616.00000,   0.00037,  -0.00161,   0.00039,-18116256.00000,   0.00000
-285679278.95789,-524756343.93069,25688398.82326,   0.00010,  -0.00344,   0.00072,457258080.00000,   0.00137,276127616.00000,   0.00037,  -0.00161,   0.00039,-18869536.00000,   0.00000
-286015260.14294,-523866547.60544,25533330.58400,   0.00009,  -0.00343,   0.00072,456506208.00000,   0.00137,276127616.00000,   0.00037,  -0.00161,   0.00039,-19621408.00000,   0.00000
-286340165.02519,-522950906.57364,25378262.34475,   0.00009,  -0.00343,   0.00072,455733664.00000,   0.00137,276127616.00000,   0.00037,  -0.00161,   0.00039,-20393952.00000,   0.00000
-286653993.60464,-522009420.83531,25215809.90362,   0.00009,  -0.00342,   0.00072,454939360.00000,   0.00137,276127616.00000,   0.00037,  -0.00161,   0.00039,-21188256.00000,   0.00000
-286956745.88128,-521042090.39043,25060741.66437,   0.00008,  -0.00342,   0.00072,454125600.00000,   0.00137,276127616.00000,   0.00037,  -0.00161,   0.00039,-22002016.00000,   0.00000
-287285342.86447,-520085836.24835,24898289.22324,   0.00008,  -0.00341,   0.00071,453323008.00000,   0.00137,276127616.00000,   0.00037,  -0.00161,   0.00039,-22804608.00000,   0.00000
-287577018.83830,-519092661.09693,24743220.98399,   0.00008,  -0.00341,   0.00071,452490368.00000,   0.00137,276127616.00000,   0.00037,  -0.00161,   0.00039,-23637248.00000,   0.00000
-287894539.51868,-518110562.24831,24580768.54286,   0.00007,  -0.00340,   0.00071,451668960.00000,   0.00137,276127616.00000,   0.00037,  -0.00161,   0.00039,-24458656.00000,   0.00000
-288164062.88691,-517065697.68380,24410931.89987,   0.00007,  -0.00340,   0.00071,450793088.00000,   0.00137,276127616.00000,   0.00037,  -0.00161,   0.00039,-25334528.00000,   0.00000
-288470507.26449,-516057754.12864,24248479.45874,   0.00007,  -0.00339,   0.00070,449953088.00000,   0.00137,276127616.00000,   0.00037,  -0.00161,   0.00039,-26174528.00000,   0.00000
-288728954.32992,-514987044.85759,24086027.01762,   0.00006,  -0.00339,   0.00070,449059616.00000,   0.00137,276127616.00000,   0.00037,  -0.00161,   0.00039,-27068000.00000,   0.00000
-289013246.10188,-513927411.88935,23916190.37462,   0.00006,  -0.00338,   0.00070,448177760.00000,   0.00137,276127616.00000,   0.00037,  -0.00161,   0.00039,-27949856.00000,   0.00000
-289286461.57105,-512841934.21456,23746353.73163,   0.00006,  -0.00338,   0.00070,447275616.00000,   0.00137,276127616.00000,   0.00037,  -0.00161,   0.00039,-28852000.00000,   0.00000
-289548600.73741,-511730611.83323,23576517.08863,   0.00005,  -0.00337,   0.00070,446353248.00000,   0.00137,276127616.00000,   0.00037,  -0.00161,   0.00039,-29774368.00000,   0.00000
-289810739.90377,-510619289.45189,23406680.44564,   0.00005,  -0.00336,   0.00069,445432672.00000,   0.00137,276127616.00000,   0.00037,  -0.00161,   0.00039,-30694944.00000,   0.00000
-290061802.76733,-509482122.36402,23236843.80265,   0.00005,  -0.00336,   0.00069,444491776.00000,   0.00137,276127616.00000,   0.00037,  -0.00161,   0.00039,-31635840.00000,   0.00000
-290312865.63088,-508344955.27615,23067007.15965,   0.00004,  -0.00335,   0.00069,443552928.00000,   0.00137,276127616.00000,   0.00037,  -0.00161,   0.00039,-32574688.00000,   0.00000
-290552852.19164,-507181943.48173,22889786.31479,   0.00004,  -0.00335,   0.00069,442592608.00000,   0.00137,276127616.00000,   0.00037,  -0.00161,   0.00039,-33535008.00000,   0.00000
-290781762.44958,-505993086.98077,22719949.67179,   0.00004,  -0.00334,   0.00068,441613376.00000,   0.00137,276127616.00000,   0.00037,  -0.00161,   0.00039,-34514240.00000,   0.00000
-291010672.70753,-504804230.47981,22542728.82693,   0.00003,  -0.00334,   0.00068,440634976.00000,   0.00137,276127616.00000,   0.00037,  -0.00161,   0.00039,-35492640.00000,   0.00000
-291254351.36922,-503600605.57511,22365507.98207,   0.00003,  -0.00333,   0.00068,439647680.00000,   0.00137,276127616.00000,   0.00037,  -0.00161,   0.00039,-36479936.00000,   0.00000
-291461109.02156,-502360059.66107,22188287.13720,   0.00003,  -0.00332,   0.00068,438629120.00000,   0.00137,276127616.00000,   0.00037,  -0.00161,   0.00039,-37498496.00000,   0.00000
-291693711.38044,-501130590.04983,22011066.29234,   0.00002,  -0.00332,   0.00068,437623904.00000,   0.00137,276127616.00000,   0.00037,  -0.00161,   0.00039,-38503712.00000,   0.00000
-291889392.72998,-499864199.42924,21826461.24561,   0.00002,  -0.00331,   0.00067,436586272.00000,   0.00137,276127616.00000,   0.00037,  -0.00161,   0.00039,-39541344.00000,   0.00000
-292110918.78606,-498608885.11146,21649240.40074,   0.00002,  -0.00331,   0.00067,435563232.00000,   0.00137,276127616.00000,   0.00037,  -0.00161,   0.00039,-40564384.00000,   0.00000
-292321368.53934,-497327726.08714,21464635.35401,   0.00001,  -0.00330,   0.00067,434519360.00000,   0.00137,276127616.00000,   0.00037,  -0.00161,   0.00039,-41608256.00000,   0.00000
-292494897.28326,-496009646.05346,21287414.50915,   0.00001,  -0.00329,   0.00067,433445184.00000,   0.00137,276127616.00000,   0.00037,  -0.00161,   0.00039,-42682432.00000,   0.00000
-292694270.73374,-494702642.32260,21102809.46241,   0.00001,  -0.00329,   0.00066,432383776.00000,   0.00137,276127616.00000,   0.00037,  -0.00161,   0.00039,-43743840.00000,   0.00000
-292882567.88140,-493369793.88518,20918204.41568,   0.00000,  -0.00328,   0.00066,431302784.00000,   0.00137,276127616.00000,   0.00037,  -0.00161,   0.00039,-44824832.00000,   0.00000
-293070865.02907,-492036945.44777,20726215.16708,  -0.00000,  -0.00327,   0.00066,430223136.00000,   0.00137,276127616.00000,   0.00037,  -0.00161,   0.00039,-45904480.00000,   0.00000
-293248085.87393,-490678252.30382,20541610.12035,  -0.00001,  -0.00327,   0.00066,429125024.00000,   0.00137,276127616.00000,   0.00037,  -0.00161,   0.00039,-47002592.00000,   0.00000
-293440075.12254,-489304790.75613,20357005.07361,  -0.00001,  -0.00326,   0.00065,428019360.00000,   0.00137,276127616.00000,   0.00037,  -0.00161,   0.00039,-48108256.00000,   0.00000
-293606219.66460,-487920252.90563,20165015.82501,  -0.00001,  -0.00325,   0.00065,426903520.00000,   0.00137,276127616.00000,   0.00037,  -0.00161,   0.00039,-49224096.00000,   0.00000
-293761287.90385,-486509870.34860,19973026.57641,  -0.00002,  -0.00325,   0.00065,425768384.00000,   0.00137,276127616.00000,   0.00037,  -0.00161,   0.00039,-50359232.00000,   0.00000
-293942200.84965,-485110564.09436,19788421.52968,  -0.00002,  -0.00324,   0.00065,424648960.00000,   0.00137,276127616.00000,   0.00037,  -0.00161,   0.00039,-51478656.00000,   0.00000
-294086192.78610,-483674336.83078,19596432.28108,  -0.00002,  -0.00323,   0.00064,423497504.00000,   0.00137,276127616.00000,   0.00037,  -0.00161,   0.00039,-52630112.00000,   0.00000
-294256029.42909,-482249185.87000,19404443.03247,  -0.00003,  -0.00323,   0.00064,422360832.00000,   0.00137,276127616.00000,   0.00037,  -0.00161,   0.00039,-53766784.00000,   0.00000
-294388945.06274,-480787113.89988,19205069.58200,  -0.00003,  -0.00322,   0.00064,421192032.00000,   0.00137,276127616.00000,   0.00037,  -0.00161,   0.00039,-54935584.00000,   0.00000
-294536629.10013,-479310273.52602,19013080.33340,  -0.00003,  -0.00321,   0.00064,420017280.00000,   0.00137,276127616.00000,   0.00037,  -0.00161,   0.00039,-56110336.00000,   0.00000
-294684313.13751,-477833433.15215,18821091.08480,  -0.00004,  -0.00321,   0.00063,418845568.00000,   0.00137,276127616.00000,   0.00037,  -0.00161,   0.00039,-57282048.00000,   0.00000
-294831997.17490,-476356592.77829,18621717.63433,  -0.00004,  -0.00320,   0.00063,417675680.00000,   0.00137,276127616.00000,   0.00037,  -0.00161,   0.00039,-58451936.00000,   0.00000
-294968604.90948,-474853907.69789,18422344.18386,  -0.00004,  -0.00319,   0.00063,416486880.00000,   0.00137,276127616.00000,   0.00037,  -0.00161,   0.00039,-59640736.00000,   0.00000
-295094136.34126,-473325377.91094,18230354.93525,  -0.00005,  -0.00318,   0.00063,415280032.00000,   0.00137,276127616.00000,   0.00037,  -0.00161,   0.00039,-60847584.00000,   0.00000
-295219667.77304,-471796848.12399,18030981.48478,  -0.00005,  -0.00318,   0.00062,414075008.00000,   0.00137,276127616.00000,   0.00037,  -0.00161,   0.00039,-62052608.00000,   0.00000
-295359967.60856,-470253549.93331,17831608.03431,  -0.00005,  -0.00317,   0.00062,412863328.00000,   0.00137,276127616.00000,   0.00037,  -0.00161,   0.00039,-63264288.00000,   0.00000
-295474422.73753,-468699175.43982,17632234.58384,  -0.00006,  -0.00316,   0.00062,411642048.00000,   0.00137,276127616.00000,   0.00037,  -0.00161,   0.00039,-64485568.00000,   0.00000
-295603646.27024,-467130032.54259,17425476.93150,  -0.00006,  -0.00316,   0.00062,410413184.00000,   0.00137,276127616.00000,   0.00037,  -0.00161,   0.00039,-65714432.00000,   0.00000
-295707025.09641,-465549813.34256,17226103.48103,  -0.00007,  -0.00315,   0.00061,409175456.00000,   0.00137,276127616.00000,   0.00037,  -0.00161,   0.00039,-66952160.00000,   0.00000
-295825172.32632,-463954825.73879,17019345.82869,  -0.00007,  -0.00314,   0.00061,407930304.00000,   0.00137,276127616.00000,   0.00037,  -0.00161,   0.00039,-68197312.00000,   0.00000
-295943319.55623,-462359838.13501,16819972.37821,  -0.00007,  -0.00313,   0.00061,406688736.00000,   0.00137,276127616.00000,   0.00037,  -0.00161,   0.00039,-69438880.00000,   0.00000
-296061466.78614,-460764850.53124,16613214.72587,  -0.00008,  -0.00313,   0.00061,405448864.00000,   0.00137,276127616.00000,   0.00037,  -0.00161,   0.00039,-70678752.00000,   0.00000
-296168537.71325,-459144018.22093,16406457.07353,  -0.00008,  -0.00312,   0.00060,404189952.00000,   0.00137,276127616.00000,   0.00037,  -0.00161,   0.00039,-71937664.00000,   0.00000
-296264532.33755,-457497341.20407,16199699.42119,  -0.00008,  -0.00311,   0.00060,402912160.00000,   0.00137,276127616.00000,   0.00037,  -0.00161,   0.00039,-73215456.00000,   0.00000
-296360526.96185,-455850664.18722,15992941.76885,  -0.00009,  -0.00310,   0.00060,401637088.00000,   0.00137,276127616.00000,   0.00037,  -0.00161,   0.00039,-74490528.00000,   0.00000
-296445445.28335,-454178142.46382,15786184.11651,  -0.00009,  -0.00309,   0.00059,400343200.00000,   0.00137,276127616.00000,   0.00037,  -0.00161,   0.00039,-75784416.00000,   0.00000
-296556208.31139,-452516697.04322,15579426.46417,  -0.00009,  -0.00309,   0.00059,399065312.00000,   0.00137,276127616.00000,   0.00037,  -0.00161,   0.00039,-77062304.00000,   0.00000
-296641126.63288,-450844175.31982,15372668.81183,  -0.00010,  -0.00308,   0.00059,397777728.00000,   0.00137,276127616.00000,   0.00037,  -0.00161,   0.00039,-78349888.00000,   0.00000
-296740813.35812,-449156885.19269,15158526.95762,  -0.00010,  -0.00307,   0.00059,396483840.00000,   0.00137,276127616.00000,   0.00037,  -0.00161,   0.00039,-79643776.00000,   0.00000
-296803579.07401,-447432674.05620,14951769.30528,  -0.00011,  -0.00306,   0.00058,395159648.00000,   0.00137,276127616.00000,   0.00037,  -0.00161,   0.00039,-80967968.00000,   0.00000
-296903265.79924,-445745383.92907,14737627.45107,  -0.00011,  -0.00306,   0.00058,393873344.00000,   0.00137,276127616.00000,   0.00037,  -0.00161,   0.00039,-82254272.00000,   0.00000
-296980799.91887,-444006404.38884,14523485.59686,  -0.00011,  -0.00305,   0.00058,392547552.00000,   0.00137,276127616.00000,   0.00037,  -0.00161,   0.00039,-83580064.00000,   0.00000
-297069410.34130,-442293269.55516,14309343.74265,  -0.00012,  -0.00304,   0.00058,391247872.00000,   0.00137,276127616.00000,   0.00037,  -0.00161,   0.00039,-84879744.00000,   0.00000
-297135868.15813,-440528445.30840,14095201.88844,  -0.00012,  -0.00303,   0.00057,389909536.00000,   0.00137,276127616.00000,   0.00037,  -0.00161,   0.00039,-86218080.00000,   0.00000
-297239246.98430,-438800542.07098,13881060.03423,  -0.00012,  -0.00302,   0.00057,388611008.00000,   0.00137,276127616.00000,   0.00037,  -0.00161,   0.00039,-87516608.00000,   0.00000
-297305704.80112,-437035717.82421,13666918.18002,  -0.00013,  -0.00302,   0.00057,387282528.00000,   0.00137,276127616.00000,   0.00037,  -0.00161,   0.00039,-88845088.00000,   0.00000
-297361086.31514,-435245048.87091,13452776.32581,  -0.00013,  -0.00301,   0.00056,385937856.00000,   0.00137,276127616.00000,   0.00037,  -0.00161,   0.00039,-90189760.00000,   0.00000
-297453388.83851,-433491300.92694,13231250.26973,  -0.00014,  -0.00300,   0.00056,384632928.00000,   0.00137,276127616.00000,   0.00037,  -0.00161,   0.00039,-91494688.00000,   0.00000
-297523538.75626,-431685863.56990,13017108.41552,  -0.00014,  -0.00299,   0.00056,383291424.00000,   0.00137,276127616.00000,   0.00037,  -0.00161,   0.00039,-92836192.00000,   0.00000
-297604764.97683,-429906270.91939,12795582.35944,  -0.00014,  -0.00298,   0.00056,381976224.00000,   0.00137,276127616.00000,   0.00037,  -0.00161,   0.00039,-94151392.00000,   0.00000
-297674914.89459,-428100833.56235,12581440.50523,  -0.00015,  -0.00297,   0.00055,380645984.00000,   0.00137,276127616.00000,   0.00037,  -0.00161,   0.00039,-95481632.00000,   0.00000
-297733988.50954,-426269551.49876,12359914.44915,  -0.00015,  -0.00297,   0.00055,379299488.00000,   0.00137,276127616.00000,   0.00037,  -0.00161,   0.00039,-96828128.00000,   0.00000
-297804138.42730,-424464114.14171,12138388.39307,  -0.00016,  -0.00296,   0.00055,377979776.00000,   0.00137,276127616.00000,   0.00037,  -0.00161,   0.00039,-98147840.00000,   0.00000
-297863212.04225,-422632832.07812,11916862.33699,  -0.00016,  -0.00295,   0.00054,376644128.00000,   0.00137,276127616.00000,   0.00037,  -0.00161,   0.00039,-99483488.00000,   0.00000
-297937054.06095,-420786781.61080,11695336.28091,  -0.00016,  -0.00294,   0.00054,375306720.00000,   0.00137,276127616.00000,   0.00037,  -0.00161,   0.00039,-100820896.00000,   0.00000
-297985051.37310,-418929654.84066,11473810.22483,  -0.00017,  -0.00293,   0.00054,373960800.00000,   0.00137,276127616.00000,   0.00037,  -0.00161,   0.00039,-102166816.00000,   0.00000
-298058893.39179,-417083604.37334,11252284.16875,  -0.00017,  -0.00292,   0.00054,372634368.00000,   0.00137,276127616.00000,   0.00037,  -0.00161,   0.00039,-103493248.00000,   0.00000
-298121659.10768,-415211709.19947,11023373.91081,  -0.00017,  -0.00291,   0.00053,371291936.00000,   0.00137,276127616.00000,   0.00037,  -0.00161,   0.00039,-104835680.00000,   0.00000
-298184424.82357,-413339814.02560,10801847.85473,  -0.00018,  -0.00291,   0.00053,369956224.00000,   0.00137,276127616.00000,   0.00037,  -0.00161,   0.00039,-106171392.00000,   0.00000
-298247190.53946,-411467918.85173,10572937.59678,  -0.00018,  -0.00290,   0.00053,368625856.00000,   0.00137,276127616.00000,   0.00037,  -0.00161,   0.00039,-107501760.00000,   0.00000
-298298879.95254,-409570178.97131,10351411.54070,  -0.00019,  -0.00289,   0.00052,367281920.00000,   0.00137,276127616.00000,   0.00037,  -0.00161,   0.00039,-108845696.00000,   0.00000
-298350569.36563,-407672439.09090,10122501.28275,  -0.00019,  -0.00288,   0.00052,365943616.00000,   0.00137,276127616.00000,   0.00037,  -0.00161,   0.00039,-110184000.00000,   0.00000
-298428103.48526,-405785775.51329,9893591.02480,  -0.00019,  -0.00287,   0.00052,364626624.00000,   0.00137,276127616.00000,   0.00037,  -0.00161,   0.00039,-111500992.00000,   0.00000
-298494561.30208,-403873267.22914,9664680.76685,  -0.00020,  -0.00286,   0.00052,363295200.00000,   0.00137,276127616.00000,   0.00037,  -0.00161,   0.00039,-112832416.00000,   0.00000
-298546250.71516,-401975527.34873,9435770.50890,  -0.00020,  -0.00285,   0.00051,361976192.00000,   0.00137,276127616.00000,   0.00037,  -0.00161,   0.00039,-114151424.00000,   0.00000
-298601632.22918,-400037174.35803,9206860.25096,  -0.00021,  -0.00284,   0.00051,360635808.00000,   0.00137,276127616.00000,   0.00037,  -0.00161,   0.00039,-115491808.00000,   0.00000
-298668090.04601,-398124666.07388,8977949.99301,  -0.00021,  -0.00284,   0.00051,359320960.00000,   0.00137,276127616.00000,   0.00037,  -0.00161,   0.00039,-116806656.00000,   0.00000
-298749316.26657,-396197389.38599,8749039.73506,  -0.00021,  -0.00283,   0.00050,358003136.00000,   0.00137,276127616.00000,   0.00037,  -0.00161,   0.00039,-118124480.00000,   0.00000
-298804697.78059,-394259036.39530,8512745.27524,  -0.00022,  -0.00282,   0.00050,356670048.00000,   0.00137,276127616.00000,   0.00037,  -0.00161,   0.00039,-119457568.00000,   0.00000
-298849002.99181,-392294838.69806,8283835.01729,  -0.00022,  -0.00281,   0.00050,355313728.00000,   0.00137,276127616.00000,   0.00037,  -0.00161,   0.00039,-120813888.00000,   0.00000
-298919152.90956,-390341717.30363,8054924.75934,  -0.00023,  -0.00280,   0.00049,353967168.00000,   0.00137,276127616.00000,   0.00037,  -0.00161,   0.00039,-122160448.00000,   0.00000
-298989302.82732,-388388595.90919,7818630.29953,  -0.00023,  -0.00279,   0.00049,352614912.00000,   0.00137,276127616.00000,   0.00037,  -0.00161,   0.00039,-123512704.00000,   0.00000
-299059452.74508,-386435474.51476,7582335.83971,  -0.00023,  -0.00278,   0.00049,351261728.00000,   0.00137,276127616.00000,   0.00037,  -0.00161,   0.00039,-124865888.00000,   0.00000
-299129602.66284,-384482353.12033,7346041.37989,  -0.00024,  -0.00277,   0.00048,349914176.00000,   0.00137,276127616.00000,   0.00037,  -0.00161,   0.00039,-126213440.00000,   0.00000
-299188676.27779,-382503387.01935,7117131.12194,  -0.00024,  -0.00276,   0.00048,348558208.00000,   0.00137,276127616.00000,   0.00037,  -0.00161,   0.00039,-127569408.00000,   0.00000
-299247749.89275,-380524420.91838,6880836.66212,  -0.00025,  -0.00275,   0.00048,347217856.00000,   0.00137,276127616.00000,   0.00037,  -0.00161,   0.00039,-128909760.00000,   0.00000
-299321591.91144,-378530686.41366,6644542.20230,  -0.00025,  -0.00275,   0.00048,345889504.00000,   0.00137,276127616.00000,   0.00037,  -0.00161,   0.00039,-130238112.00000,   0.00000
-299406510.23294,-376562796.61549,6400863.54062,  -0.00026,  -0.00274,   0.00047,344597280.00000,   0.00137,276127616.00000,   0.00037,  -0.00161,   0.00039,-131530336.00000,   0.00000
-299454507.54509,-374557985.80798,6164569.08080,  -0.00026,  -0.00273,   0.00047,343282048.00000,   0.00137,276127616.00000,   0.00037,  -0.00161,   0.00039,-132845568.00000,   0.00000
-299528349.56378,-372564251.30326,5928274.62098,  -0.00026,  -0.00272,   0.00047,341993152.00000,   0.00137,276127616.00000,   0.00037,  -0.00161,   0.00039,-134134464.00000,   0.00000
-299591115.27967,-370544672.09200,5691980.16116,  -0.00027,  -0.00271,   0.00046,340692480.00000,   0.00137,276127616.00000,   0.00037,  -0.00161,   0.00039,-135435136.00000,   0.00000
-299690802.00491,-368562013.89009,5448301.49948,  -0.00027,  -0.00270,   0.00046,339435680.00000,   0.00137,276127616.00000,   0.00037,  -0.00161,   0.00039,-136691936.00000,   0.00000
-299753567.72080,-366542434.67884,5212007.03966,  -0.00028,  -0.00269,   0.00046,338149984.00000,   0.00137,276127616.00000,   0.00037,  -0.00161,   0.00039,-137977632.00000,   0.00000
-299842178.14323,-364533931.77039,4968328.37797,  -0.00028,  -0.00268,   0.00045,336887456.00000,   0.00137,276127616.00000,   0.00037,  -0.00161,   0.00039,-139240160.00000,   0.00000
-299930788.56566,-362525428.86193,4724649.71628,  -0.00029,  -0.00267,   0.00045,335632896.00000,   0.00137,276127616.00000,   0.00037,  -0.00161,   0.00039,-140494720.00000,   0.00000
-300019398.98809,-360516925.95348,4480971.05460,  -0.00029,  -0.00266,   0.00045,334386592.00000,   0.00137,276127616.00000,   0.00037,  -0.00161,   0.00039,-141741024.00000,   0.00000
-300096933.10772,-358482578.33849,4237292.39291,  -0.00029,  -0.00265,   0.00044,333128960.00000,   0.00137,276127616.00000,   0.00037,  -0.00161,   0.00039,-142998656.00000,   0.00000
-300174467.22735,-356448230.72349,3993613.73122,  -0.00030,  -0.00264,   0.00044,331880352.00000,   0.00137,276127616.00000,   0.00037,  -0.00161,   0.00039,-144247264.00000,   0.00000
-300252001.34698,-354413883.10850,3749935.06953,  -0.00030,  -0.00263,   0.00044,330641504.00000,   0.00137,276127616.00000,   0.00037,  -0.00161,   0.00039,-145486112.00000,   0.00000
-300355380.17315,-352390611.79630,3506256.40785,  -0.00031,  -0.00262,   0.00044,329428704.00000,   0.00137,276127616.00000,   0.00037,  -0.00161,   0.00039,-146698912.00000,   0.00000
-300458758.99932,-350367340.48411,3262577.74616,  -0.00031,  -0.00261,   0.00043,328225696.00000,   0.00137,276127616.00000,   0.00037,  -0.00161,   0.00039,-147901920.00000,   0.00000
-300551061.52268,-348318224.46538,3011514.88260,  -0.00032,  -0.00261,   0.00043,327012352.00000,   0.00137,276127616.00000,   0.00037,  -0.00161,   0.00039,-149115264.00000,   0.00000
-300654440.34885,-346294953.15319,2767836.22092,  -0.00032,  -0.00260,   0.00043,325828672.00000,   0.00137,276127616.00000,   0.00037,  -0.00161,   0.00039,-150298944.00000,   0.00000
-300746742.87222,-344245837.13445,2516773.35736,  -0.00032,  -0.00259,   0.00042,324634624.00000,   0.00137,276127616.00000,   0.00037,  -0.00161,   0.00039,-151492992.00000,   0.00000
-300864890.10213,-342207797.41853,2273094.69567,  -0.00033,  -0.00258,   0.00042,323467136.00000,   0.00137,276127616.00000,   0.00037,  -0.00161,   0.00039,-152660480.00000,   0.00000
-300957192.62549,-340158681.39979,2022031.83212,  -0.00033,  -0.00257,   0.00042,322292032.00000,   0.00137,276127616.00000,   0.00037,  -0.00161,   0.00039,-153835584.00000,   0.00000
-301075339.85540,-338120641.68386,1770968.96856,  -0.00034,  -0.00256,   0.00041,321143296.00000,   0.00137,276127616.00000,   0.00037,  -0.00161,   0.00039,-154984320.00000,   0.00000
-301182410.78251,-336056757.26139,1519906.10500,  -0.00034,  -0.00255,   0.00041,319984736.00000,   0.00137,276127616.00000,   0.00037,  -0.00161,   0.00039,-156142880.00000,   0.00000
-301326402.71896,-334029793.84826,1268843.24145,  -0.00035,  -0.00254,   0.00041,318872544.00000,   0.00137,276127616.00000,   0.00037,  -0.00161,   0.00039,-157255072.00000,   0.00000
-301433473.64606,-331965909.42579,1017780.37789,  -0.00035,  -0.00253,   0.00040,317733632.00000,   0.00137,276127616.00000,   0.00037,  -0.00161,   0.00039,-158393984.00000,   0.00000
-301577465.58252,-329938946.01267,766717.51433,  -0.00036,  -0.00252,   0.00040,316641568.00000,   0.00137,276127616.00000,   0.00037,  -0.00161,   0.00039,-159486048.00000,   0.00000
-301684536.50962,-327875061.59019,515654.65078,  -0.00036,  -0.00251,   0.00040,315522944.00000,   0.00137,276127616.00000,   0.00037,  -0.00161,   0.00039,-160604672.00000,   0.00000
-301817452.14327,-325822253.47052,264591.78722,  -0.00037,  -0.00250,   0.00039,314432544.00000,   0.00137,276127616.00000,   0.00037,  -0.00161,   0.00039,-161695072.00000,   0.00000
-301950367.77692,-323769445.35086,6144.72179,  -0.00037,  -0.00249,   0.00039,313353152.00000,   0.00137,276127616.00000,   0.00037,  -0.00161,   0.00039,-162774464.00000,   0.00000
-302109128.11711,-321727713.53399,-244918.14176,  -0.00037,  -0.00248,   0.00039,312302784.00000,   0.00137,276127616.00000,   0.00037,  -0.00161,   0.00039,-163824832.00000,   0.00000
-302230967.44795,-319649060.70778,-503365.20719,  -0.00038,  -0.00247,   0.00038,311227264.00000,   0.00137,276127616.00000,   0.00037,  -0.00161,   0.00039,-164900352.00000,   0.00000
-302389727.78814,-317607328.89092,-761812.27261,  -0.00038,  -0.00246,   0.00038,310200608.00000,   0.00137,276127616.00000,   0.00037,  -0.00161,   0.00039,-165927008.00000,   0.00000
-302548488.12833,-315565597.07405,-1012875.13617,  -0.00039,  -0.00245,   0.00038,309186080.00000,   0.00137,276127616.00000,   0.00037,  -0.00161,   0.00039,-166941536.00000,   0.00000
-302696172.16572,-313498020.55065,-1271322.20160,  -0.00039,  -0.00244,   0.00037,308165184.00000,   0.00137,276127616.00000,   0.00037,  -0.00161,   0.00039,-167962432.00000,   0.00000
-302854932.50591,-311456288.73378,-1529769.26702,  -0.00040,  -0.00243,   0.00037,307175840.00000,   0.00137,276127616.00000,   0.00037,  -0.00161,   0.00039,-168951776.00000,   0.00000
-303028461.24984,-309399788.51318,-1788216.33245,  -0.00040,  -0.00242,   0.00037,306198624.00000,   0.00137,276127616.00000,   0.00037,  -0.00161,   0.00039,-169928992.00000,   0.00000
-303201989.99376,-307343288.29257,-2054047.59974,  -0.00041,  -0.00241,   0.00036,305234720.00000,   0.00137,276127616.00000,   0.00037,  -0.00161,   0.00039,-170892896.00000,   0.00000
-303360750.33396,-305301556.47571,-2312494.66517,  -0.00041,  -0.00240,   0.00036,304283904.00000,   0.00137,276127616.00000,   0.00037,  -0.00161,   0.00039,-171843712.00000,   0.00000
-303560123.78443,-303256132.55791,-2570941.73060,  -0.00042,  -0.00239,   0.00036,303364416.00000,   0.00137,276127616.00000,   0.00037,  -0.00161,   0.00039,-172763200.00000,   0.00000
-303733652.52836,-301199632.33731,-2836772.99789,  -0.00042,  -0.00238,   0.00035,302440096.00000,   0.00137,276127616.00000,   0.00037,  -0.00161,   0.00039,-173687520.00000,   0.00000
-303907181.27228,-299143132.11671,-3095220.06332,  -0.00043,  -0.00238,   0.00035,301528608.00000,   0.00137,276127616.00000,   0.00037,  -0.00161,   0.00039,-174599008.00000,   0.00000
-304117631.02556,-297123552.90545,-3361051.33061,  -0.00043,  -0.00237,   0.00035,300667552.00000,   0.00137,276127616.00000,   0.00037,  -0.00161,   0.00039,-175460064.00000,   0.00000
-304317004.47603,-295078128.98765,-3626882.59791,  -0.00044,  -0.00236,   0.00034,299801632.00000,   0.00137,276127616.00000,   0.00037,  -0.00161,   0.00039,-176325984.00000,   0.00000
-304516377.92650,-293032705.06985,-3892713.86520,  -0.00044,  -0.00235,   0.00034,298949184.00000,   0.00137,276127616.00000,   0.00037,  -0.00161,   0.00039,-177178432.00000,   0.00000
-304741596.08352,-290998357.45486,-4158545.13250,  -0.00045,  -0.00234,   0.00034,298129280.00000,   0.00137,276127616.00000,   0.00037,  -0.00161,   0.00039,-177998336.00000,   0.00000
-304940969.53399,-288952933.53706,-4424376.39979,  -0.00045,  -0.00233,   0.00033,297303936.00000,   0.00137,276127616.00000,   0.00037,  -0.00161,   0.00039,-178823680.00000,   0.00000
-305166187.69100,-286918585.92206,-4690207.66709,  -0.00046,  -0.00232,   0.00033,296511360.00000,   0.00137,276127616.00000,   0.00037,  -0.00161,   0.00039,-179616256.00000,   0.00000
-305391405.84802,-284884238.30707,-4956038.93438,  -0.00046,  -0.00231,   0.00033,295732672.00000,   0.00137,276127616.00000,   0.00037,  -0.00161,   0.00039,-180394944.00000,   0.00000
-305616624.00503,-282849890.69207,-5221870.20168,  -0.00047,  -0.00230,   0.00032,294968128.00000,   0.00137,276127616.00000,   0.00037,  -0.00161,   0.00039,-181159488.00000,   0.00000
-305852918.46485,-280841387.78362,-5495085.67084,  -0.00047,  -0.00229,   0.00032,294235680.00000,   0.00137,276127616.00000,   0.00037,  -0.00161,   0.00039,-181891936.00000,   0.00000
-306103981.32840,-278818116.47143,-5768301.14001,  -0.00048,  -0.00228,   0.00031,293519488.00000,   0.00137,276127616.00000,   0.00037,  -0.00161,   0.00039,-182608128.00000,   0.00000
-306355044.19196,-276794845.15924,-6034132.40730,  -0.00048,  -0.00227,   0.00031,292817536.00000,   0.00137,276127616.00000,   0.00037,  -0.00161,   0.00039,-183310080.00000,   0.00000
-306606107.05552,-274771573.84705,-6307347.87647,  -0.00049,  -0.00226,   0.00031,292131008.00000,   0.00137,276127616.00000,   0.00037,  -0.00161,   0.00039,-183996608.00000,   0.00000
-306868246.22188,-272774147.24140,-6580563.34563,  -0.00049,  -0.00225,   0.00030,291476704.00000,   0.00137,276127616.00000,   0.00037,  -0.00161,   0.00039,-184650912.00000,   0.00000
-307145153.79198,-270761952.23201,-6853778.81480,  -0.00050,  -0.00224,   0.00030,290840192.00000,   0.00137,276127616.00000,   0.00037,  -0.00161,   0.00039,-185287424.00000,   0.00000
-307396216.65553,-268738680.91982,-7126994.28396,  -0.00050,  -0.00223,   0.00030,290199552.00000,   0.00137,276127616.00000,   0.00037,  -0.00161,   0.00039,-185928064.00000,   0.00000
-307684200.52844,-266752330.61697,-7400209.75312,  -0.00051,  -0.00222,   0.00029,289610976.00000,   0.00137,276127616.00000,   0.00037,  -0.00161,   0.00039,-186516640.00000,   0.00000
-307986952.80508,-264751211.91039,-7680809.42416,  -0.00051,  -0.00221,   0.00029,289042016.00000,   0.00137,276127616.00000,   0.00037,  -0.00161,   0.00039,-187085600.00000,   0.00000
-308274936.67798,-262764861.60755,-7954024.89332,  -0.00052,  -0.00220,   0.00029,288485024.00000,   0.00137,276127616.00000,   0.00037,  -0.00161,   0.00039,-187642592.00000,   0.00000
-308577688.95462,-260763742.90096,-8234624.56436,  -0.00052,  -0.00219,   0.00028,287947872.00000,   0.00137,276127616.00000,   0.00037,  -0.00161,   0.00039,-188179744.00000,   0.00000
-308891517.53407,-258788468.90092,-8507840.03352,  -0.00053,  -0.00218,   0.00028,287442432.00000,   0.00137,276127616.00000,   0.00037,  -0.00161,   0.00039,-188685184.00000,   0.00000
-309205346.11351,-256813194.90088,-8788439.70455,  -0.00053,  -0.00217,   0.00028,286953472.00000,   0.00137,276127616.00000,   0.00037,  -0.00161,   0.00039,-189174144.00000,   0.00000
-309519174.69296,-254837920.90084,-9069039.37559,  -0.00054,  -0.00216,   0.00027,286480032.00000,   0.00137,276127616.00000,   0.00037,  -0.00161,   0.00039,-189647584.00000,   0.00000
-309858847.97895,-252873723.20360,-9349639.04662,  -0.00054,  -0.00215,   0.00027,286042432.00000,   0.00137,276127616.00000,   0.00037,  -0.00161,   0.00039,-190085184.00000,   0.00000
-310172676.55839,-250898449.20356,-9630238.71766,  -0.00055,  -0.00214,   0.00026,285600064.00000,   0.00137,276127616.00000,   0.00037,  -0.00161,   0.00039,-190527552.00000,   0.00000
-310512349.84438,-248934251.50633,-9910838.38869,  -0.00056,  -0.00213,   0.00026,285193344.00000,   0.00137,276127616.00000,   0.00037,  -0.00161,   0.00039,-190934272.00000,   0.00000
-310888944.13972,-247006974.81844,-10198822.26159,  -0.00056,  -0.00212,   0.00026,284839360.00000,   0.00137,276127616.00000,   0.00037,  -0.00161,   0.00039,-191288256.00000,   0.00000
-311228617.42571,-245042777.12120,-10479421.93263,  -0.00057,  -0.00211,   0.00025,284463904.00000,   0.00137,276127616.00000,   0.00037,  -0.00161,   0.00039,-191663712.00000,   0.00000
-311605211.72104,-243115500.43331,-10767405.80553,  -0.00057,  -0.00211,   0.00025,284141984.00000,   0.00137,276127616.00000,   0.00037,  -0.00161,   0.00039,-191985632.00000,   0.00000
-311981806.01638,-241188223.74542,-11055389.67843,  -0.00058,  -0.00210,   0.00025,283837312.00000,   0.00137,276127616.00000,   0.00037,  -0.00161,   0.00039,-192290304.00000,   0.00000
-312347324.00891,-239235102.35099,-11335989.34947,  -0.00058,  -0.00209,   0.00024,283535168.00000,   0.00137,276127616.00000,   0.00037,  -0.00161,   0.00039,-192592448.00000,   0.00000
-312749763.01078,-237318901.96590,-11623973.22237,  -0.00059,  -0.00208,   0.00024,283290688.00000,   0.00137,276127616.00000,   0.00037,  -0.00161,   0.00039,-192836928.00000,   0.00000
-313137433.60892,-235417469.98455,-11911957.09527,  -0.00059,  -0.00207,   0.00023,283062560.00000,   0.00137,276127616.00000,   0.00037,  -0.00161,   0.00039,-193065056.00000,   0.00000
-313539872.61080,-233501269.59947,-12207325.17005,  -0.00060,  -0.00206,   0.00023,282864704.00000,   0.00137,276127616.00000,   0.00037,  -0.00161,   0.00039,-193262912.00000,   0.00000
-313942311.61268,-231585069.21438,-12495309.04295,  -0.00060,  -0.00205,   0.00023,282688832.00000,   0.00137,276127616.00000,   0.00037,  -0.00161,   0.00039,-193438784.00000,   0.00000
-314381671.62390,-229705789.83864,-12790677.11772,  -0.00061,  -0.00204,   0.00022,282568128.00000,   0.00137,276127616.00000,   0.00037,  -0.00161,   0.00039,-193559488.00000,   0.00000
-314795186.92858,-227815434.16010,-13078660.99062,  -0.00062,  -0.00203,   0.00022,282439808.00000,   0.00137,276127616.00000,   0.00037,  -0.00161,   0.00039,-193687808.00000,   0.00000
-315234546.93981,-225936154.78436,-13374029.06540,  -0.00062,  -0.00202,   0.00022,282342880.00000,   0.00137,276127616.00000,   0.00037,  -0.00161,   0.00039,-193784736.00000,   0.00000
-315699751.65757,-224067951.71142,-13669397.14017,  -0.00063,  -0.00201,   0.00021,282275904.00000,   0.00137,276127616.00000,   0.00037,  -0.00161,   0.00039,-193851712.00000,   0.00000
-316139111.66880,-222188672.33568,-13964765.21494,  -0.00063,  -0.00200,   0.00021,282199808.00000,   0.00137,276127616.00000,   0.00037,  -0.00161,   0.00039,-193927808.00000,   0.00000
-316615392.68937,-220346313.96929,-14260133.28971,  -0.00064,  -0.00199,   0.00020,282174944.00000,   0.00137,276127616.00000,   0.00037,  -0.00161,   0.00039,-193952672.00000,   0.00000
-317091673.70994,-218503955.60290,-14555501.36449,  -0.00064,  -0.00198,   0.00020,282168736.00000,   0.00137,276127616.00000,   0.00037,  -0.00161,   0.00039,-193958880.00000,   0.00000
-317567954.73051,-216661597.23650,-14858253.64113,  -0.00065,  -0.00197,   0.00020,282182656.00000,   0.00137,276127616.00000,   0.00037,  -0.00161,   0.00039,-193944960.00000,   0.00000
-318044235.75108,-214819238.87011,-15153621.71590,  -0.00066,  -0.00196,   0.00019,282213568.00000,   0.00137,276127616.00000,   0.00037,  -0.00161,   0.00039,-193914048.00000,   0.00000
-318546361.47819,-212987956.80652,-15456373.99254,  -0.00066,  -0.00195,   0.00019,282284224.00000,   0.00137,276127616.00000,   0.00037,  -0.00161,   0.00039,-193843392.00000,   0.00000
-319059563.50811,-211182519.44948,-15759126.26918,  -0.00067,  -0.00195,   0.00018,282384416.00000,   0.00137,276127616.00000,   0.00037,  -0.00161,   0.00039,-193743200.00000,   0.00000
-319561689.23522,-209351237.38589,-16061878.54583,  -0.00067,  -0.00194,   0.00018,282487808.00000,   0.00137,276127616.00000,   0.00037,  -0.00161,   0.00039,-193639808.00000,   0.00000
-320074891.26514,-207545800.02884,-16364630.82247,  -0.00068,  -0.00193,   0.00018,282620128.00000,   0.00137,276127616.00000,   0.00037,  -0.00161,   0.00039,-193507488.00000,   0.00000
-320625014.30440,-205777283.68114,-16667383.09911,  -0.00069,  -0.00192,   0.00017,282803072.00000,   0.00137,276127616.00000,   0.00037,  -0.00161,   0.00039,-193324544.00000,   0.00000
-321164061.04086,-203982922.62690,-16977519.57762,  -0.00069,  -0.00191,   0.00017,282990688.00000,   0.00137,276127616.00000,   0.00037,  -0.00161,   0.00039,-193136928.00000,   0.00000
-321714184.08013,-202214406.27920,-17280271.85426,  -0.00070,  -0.00190,   0.00016,283206080.00000,   0.00137,276127616.00000,   0.00037,  -0.00161,   0.00039,-192921536.00000,   0.00000
-322290151.82593,-200456966.23430,-17590408.33277,  -0.00070,  -0.00189,   0.00016,283460768.00000,   0.00137,276127616.00000,   0.00037,  -0.00161,   0.00039,-192666848.00000,   0.00000
-322866119.57174,-198699526.18941,-17900544.81128,  -0.00071,  -0.00188,   0.00016,283732064.00000,   0.00137,276127616.00000,   0.00037,  -0.00161,   0.00039,-192395552.00000,   0.00000
-323453163.62035,-196967930.85105,-18210681.28980,  -0.00072,  -0.00187,   0.00015,284031968.00000,   0.00137,276127616.00000,   0.00037,  -0.00161,   0.00039,-192095648.00000,   0.00000
-324029131.36616,-195210490.80616,-18520817.76831,  -0.00072,  -0.00186,   0.00015,284336288.00000,   0.00137,276127616.00000,   0.00037,  -0.00161,   0.00039,-191791328.00000,   0.00000
-324627251.71757,-193504740.17435,-18830954.24682,  -0.00073,  -0.00185,   0.00014,284680704.00000,   0.00137,276127616.00000,   0.00037,  -0.00161,   0.00039,-191446912.00000,   0.00000
-325240140.47272,-191784221.13880,-19148474.92720,  -0.00073,  -0.00184,   0.00014,285052896.00000,   0.00137,276127616.00000,   0.00037,  -0.00161,   0.00039,-191074720.00000,   0.00000
-325853029.22788,-190063702.10325,-19458611.40571,  -0.00074,  -0.00184,   0.00014,285440160.00000,   0.00137,276127616.00000,   0.00037,  -0.00161,   0.00039,-190687456.00000,   0.00000
-326502838.99237,-188380104.07704,-19776132.08609,  -0.00075,  -0.00183,   0.00013,285878464.00000,   0.00137,276127616.00000,   0.00037,  -0.00161,   0.00039,-190249152.00000,   0.00000
-327137880.35314,-186711274.45458,-20093652.76647,  -0.00075,  -0.00182,   0.00013,286322080.00000,   0.00137,276127616.00000,   0.00037,  -0.00161,   0.00039,-189805536.00000,   0.00000
-327787690.11763,-185027676.42838,-20411173.44685,  -0.00076,  -0.00181,   0.00012,286792480.00000,   0.00137,276127616.00000,   0.00037,  -0.00161,   0.00039,-189335136.00000,   0.00000
-328448576.18494,-183369923.10872,-20728694.12723,  -0.00076,  -0.00180,   0.00012,287289792.00000,   0.00137,276127616.00000,   0.00037,  -0.00161,   0.00039,-188837824.00000,   0.00000
-329135306.95878,-181723246.09186,-21053599.00948,  -0.00077,  -0.00179,   0.00012,287826432.00000,   0.00137,276127616.00000,   0.00037,  -0.00161,   0.00039,-188301184.00000,   0.00000
-329796193.02609,-180065492.77220,-21378503.89173,  -0.00078,  -0.00178,   0.00011,288356672.00000,   0.00137,276127616.00000,   0.00037,  -0.00161,   0.00039,-187770944.00000,   0.00000
-330494000.10274,-178444660.46189,-21696024.57211,  -0.00078,  -0.00177,   0.00011,288933248.00000,   0.00137,276127616.00000,   0.00037,  -0.00161,   0.00039,-187194368.00000,   0.00000
-331191807.17939,-176823828.15157,-22020929.45436,  -0.00079,  -0.00177,   0.00010,289526656.00000,   0.00137,276127616.00000,   0.00037,  -0.00161,   0.00039,-186600960.00000,   0.00000
-331915458.96258,-175214072.14406,-22345834.33661,  -0.00080,  -0.00176,   0.00010,290157056.00000,   0.00137,276127616.00000,   0.00037,  -0.00161,   0.00039,-185970560.00000,   0.00000
-332650187.04858,-173630160.84310,-22678123.42073,  -0.00080,  -0.00175,   0.00009,290813952.00000,   0.00137,276127616.00000,   0.00037,  -0.00161,   0.00039,-185313664.00000,   0.00000
-333384915.13457,-172046249.54213,-23003028.30298,  -0.00081,  -0.00174,   0.00009,291483392.00000,   0.00137,276127616.00000,   0.00037,  -0.00161,   0.00039,-184644224.00000,   0.00000
-334119643.22057,-170462338.24116,-23335317.38710,  -0.00082,  -0.00173,   0.00009,292168576.00000,   0.00137,276127616.00000,   0.00037,  -0.00161,   0.00039,-183959040.00000,   0.00000
-334891292.31591,-168915347.94954,-23667606.47122,  -0.00082,  -0.00172,   0.00008,292899328.00000,   0.00137,276127616.00000,   0.00037,  -0.00161,   0.00039,-183228288.00000,   0.00000
-335637096.70471,-167357281.35512,-23999895.55533,  -0.00083,  -0.00171,   0.00008,293621120.00000,   0.00137,276127616.00000,   0.00037,  -0.00161,   0.00039,-182506496.00000,   0.00000
-336419822.10286,-165836135.77004,-24332184.63945,  -0.00084,  -0.00171,   0.00007,294387488.00000,   0.00137,276127616.00000,   0.00037,  -0.00161,   0.00039,-181740128.00000,   0.00000
-337217315.90474,-164300221.78122,-24664473.72357,  -0.00084,  -0.00170,   0.00007,295179360.00000,   0.00137,276127616.00000,   0.00037,  -0.00161,   0.00039,-180948256.00000,   0.00000
-338036962.31224,-162815997.20549,-25004147.00956,  -0.00085,  -0.00169,   0.00006,296003744.00000,   0.00137,276127616.00000,   0.00037,  -0.00161,   0.00039,-180123872.00000,   0.00000
-338819687.71039,-161294851.62041,-25336436.09368,  -0.00085,  -0.00168,   0.00006,296807008.00000,   0.00137,276127616.00000,   0.00037,  -0.00161,   0.00039,-179320608.00000,   0.00000
-339665178.82442,-159821703.34749,-25676109.37967,  -0.00086,  -0.00167,   0.00006,297677312.00000,   0.00137,276127616.00000,   0.00037,  -0.00161,   0.00039,-178450304.00000,   0.00000
-340484825.23191,-158337478.77175,-26015782.66566,  -0.00087,  -0.00166,   0.00005,298536928.00000,   0.00137,276127616.00000,   0.00037,  -0.00161,   0.00039,-177590688.00000,   0.00000
-341341392.64875,-156890175.20537,-26362840.15351,  -0.00087,  -0.00165,   0.00005,299440704.00000,   0.00137,276127616.00000,   0.00037,  -0.00161,   0.00039,-176686912.00000,   0.00000
-342197960.06559,-155442871.63898,-26702513.43950,  -0.00088,  -0.00165,   0.00004,300353664.00000,   0.00137,276127616.00000,   0.00037,  -0.00161,   0.00039,-175773952.00000,   0.00000
-343054527.48243,-153995568.07260,-27049570.92736,  -0.00089,  -0.00164,   0.00004,301279520.00000,   0.00137,276127616.00000,   0.00037,  -0.00161,   0.00039,-174848096.00000,   0.00000
-343948015.90862,-152585185.51556,-27396628.41522,  -0.00090,  -0.00163,   0.00003,302246816.00000,   0.00137,276127616.00000,   0.00037,  -0.00161,   0.00039,-173880800.00000,   0.00000
-344841504.33481,-151174802.95852,-27743685.90308,  -0.00090,  -0.00162,   0.00003,303224704.00000,   0.00137,276127616.00000,   0.00037,  -0.00161,   0.00039,-172902912.00000,   0.00000
-345746069.06380,-149790265.10803,-28090743.39093,  -0.00091,  -0.00161,   0.00002,304221120.00000,   0.00137,276127616.00000,   0.00037,  -0.00161,   0.00039,-171906496.00000,   0.00000
-346650633.79279,-148405727.25753,-28445185.08066,  -0.00092,  -0.00161,   0.00002,305229984.00000,   0.00137,276127616.00000,   0.00037,  -0.00161,   0.00039,-170897632.00000,   0.00000
-347581043.22832,-147032265.70984,-28792242.56852,  -0.00092,  -0.00160,   0.00002,306269184.00000,   0.00137,276127616.00000,   0.00037,  -0.00161,   0.00039,-169858432.00000,   0.00000
-348522528.96666,-145684648.86869,-29146684.25824,  -0.00093,  -0.00159,   0.00001,307328320.00000,   0.00137,276127616.00000,   0.00037,  -0.00161,   0.00039,-168799296.00000,   0.00000
-349464014.70500,-144337032.02754,-29501125.94797,  -0.00094,  -0.00158,   0.00001,308397376.00000,   0.00137,276127616.00000,   0.00037,  -0.00161,   0.00039,-167730240.00000,   0.00000
-350442421.45268,-143026336.19574,-29855567.63770,  -0.00094,  -0.00157,   0.00000,309505856.00000,   0.00137,276127616.00000,   0.00037,  -0.00161,   0.00039,-166621760.00000,   0.00000
-351420828.20036,-141715640.36394,-30217393.52929,  -0.00095,  -0.00157,  -0.00000,310626144.00000,   0.00137,276127616.00000,   0.00037,  -0.00161,   0.00039,-165501472.00000,   0.00000
-352410311.25085,-140430789.23868,-30579219.42089,  -0.00096,  -0.00156,  -0.00001,311763104.00000,   0.00137,276127616.00000,   0.00037,  -0.00161,   0.00039,-164364512.00000,   0.00000
-353399794.30134,-139145938.11342,-30941045.31249,  -0.00096,  -0.00155,  -0.00001,312909472.00000,   0.00137,276127616.00000,   0.00037,  -0.00161,   0.00039,-163218144.00000,   0.00000
-354415122.05837,-137872163.29096,-31302871.20408,  -0.00097,  -0.00154,  -0.00002,314087328.00000,   0.00137,276127616.00000,   0.00037,  -0.00161,   0.00039,-162040288.00000,   0.00000
-355441526.11820,-136624233.17505,-31664697.09568,  -0.00098,  -0.00154,  -0.00002,315281472.00000,   0.00137,276127616.00000,   0.00037,  -0.00161,   0.00039,-160846144.00000,   0.00000
-356479006.48084,-135402147.76567,-32033907.18914,  -0.00099,  -0.00153,  -0.00003,316493728.00000,   0.00137,276127616.00000,   0.00037,  -0.00161,   0.00039,-159633888.00000,   0.00000
-357505410.54068,-134154217.64976,-32395733.08074,  -0.00099,  -0.00152,  -0.00003,317706656.00000,   0.00137,276127616.00000,   0.00037,  -0.00161,   0.00039,-158420960.00000,   0.00000
-358579811.91266,-132969053.24974,-32764943.17421,  -0.00100,  -0.00151,  -0.00004,318966080.00000,   0.00137,276127616.00000,   0.00037,  -0.00161,   0.00039,-157161536.00000,   0.00000
-359654213.28465,-131783888.84971,-33134153.26767,  -0.00101,  -0.00150,  -0.00004,320234912.00000,   0.00137,276127616.00000,   0.00037,  -0.00161,   0.00039,-155892704.00000,   0.00000
-360754459.36317,-130609800.75249,-33510747.56301,  -0.00101,  -0.00150,  -0.00005,321537440.00000,   0.00137,276127616.00000,   0.00037,  -0.00161,   0.00039,-154590176.00000,   0.00000
-361828860.73516,-129424636.35247,-33887341.85834,  -0.00102,  -0.00149,  -0.00005,322827840.00000,   0.00137,276127616.00000,   0.00037,  -0.00161,   0.00039,-153299776.00000,   0.00000
-362951259.41929,-128302237.66833,-34256551.95181,  -0.00103,  -0.00148,  -0.00006,324159648.00000,   0.00137,276127616.00000,   0.00037,  -0.00161,   0.00039,-151967968.00000,   0.00000
-364062581.80062,-127153994.27765,-34633146.24714,  -0.00104,  -0.00148,  -0.00006,325497472.00000,   0.00137,276127616.00000,   0.00037,  -0.00161,   0.00039,-150630144.00000,   0.00000
-365210825.19130,-126042671.89632,-35017124.74435,  -0.00104,  -0.00147,  -0.00007,326875040.00000,   0.00137,276127616.00000,   0.00037,  -0.00161,   0.00039,-149252576.00000,   0.00000
-366370144.88478,-124957194.22153,-35393719.03968,  -0.00105,  -0.00146,  -0.00007,328265248.00000,   0.00137,276127616.00000,   0.00037,  -0.00161,   0.00039,-147862368.00000,   0.00000
-367529464.57827,-123871716.54675,-35777697.53689,  -0.00106,  -0.00145,  -0.00008,329666784.00000,   0.00137,276127616.00000,   0.00037,  -0.00161,   0.00039,-146460832.00000,   0.00000
-368699860.57455,-122812083.57850,-36161676.03409,  -0.00107,  -0.00145,  -0.00008,331082304.00000,   0.00137,276127616.00000,   0.00037,  -0.00161,   0.00039,-145045312.00000,   0.00000
-369870256.57084,-121752450.61025,-36553038.73316,  -0.00107,  -0.00144,  -0.00009,332508352.00000,   0.00137,276127616.00000,   0.00037,  -0.00161,   0.00039,-143619264.00000,   0.00000
-371077573.57647,-120729738.65135,-36937017.23037,  -0.00108,  -0.00143,  -0.00009,333966752.00000,   0.00137,276127616.00000,   0.00037,  -0.00161,   0.00039,-142160864.00000,   0.00000
-372284890.58210,-119707026.69245,-37328379.92944,  -0.00109,  -0.00143,  -0.00010,335434560.00000,   0.00137,276127616.00000,   0.00037,  -0.00161,   0.00039,-140693056.00000,   0.00000
-373518052.29428,-118695391.03636,-37719742.62851,  -0.00110,  -0.00142,  -0.00010,336930720.00000,   0.00137,276127616.00000,   0.00037,  -0.00161,   0.00039,-139196896.00000,   0.00000
-374773366.61206,-117735444.79335,-38111105.32759,  -0.00110,  -0.00141,  -0.00011,338442656.00000,   0.00137,276127616.00000,   0.00037,  -0.00161,   0.00039,-137684960.00000,   0.00000
-375991759.92050,-116738577.54099,-38502468.02666,  -0.00111,  -0.00140,  -0.00011,339932928.00000,   0.00137,276127616.00000,   0.00037,  -0.00161,   0.00039,-136194688.00000,   0.00000
-377272918.94482,-115789707.60079,-38901214.92760,  -0.00112,  -0.00140,  -0.00012,341479040.00000,   0.00137,276127616.00000,   0.00037,  -0.00161,   0.00039,-134648576.00000,   0.00000
-378539309.56541,-114855606.06432,-39299961.82855,  -0.00113,  -0.00139,  -0.00012,343012128.00000,   0.00137,276127616.00000,   0.00037,  -0.00161,   0.00039,-133115488.00000,   0.00000
-379831544.89254,-113932580.83065,-39698708.72949,  -0.00113,  -0.00138,  -0.00013,344571136.00000,   0.00137,276127616.00000,   0.00037,  -0.00161,   0.00039,-131556480.00000,   0.00000
-381134856.52247,-113035400.30353,-40104839.83230,  -0.00114,  -0.00138,  -0.00013,346140736.00000,   0.00137,276127616.00000,   0.00037,  -0.00161,   0.00039,-129986880.00000,   0.00000
-382449244.45521,-112164064.48295,-40510970.93511,  -0.00115,  -0.00137,  -0.00014,347718368.00000,   0.00137,276127616.00000,   0.00037,  -0.00161,   0.00039,-128409248.00000,   0.00000
-383778400.79168,-111277960.25864,-40909717.83606,  -0.00116,  -0.00136,  -0.00014,349314048.00000,   0.00137,276127616.00000,   0.00037,  -0.00161,   0.00039,-126813568.00000,   0.00000
-385129709.73377,-110443545.44740,-41323233.14074,  -0.00116,  -0.00136,  -0.00015,350927264.00000,   0.00137,276127616.00000,   0.00037,  -0.00161,   0.00039,-125200352.00000,   0.00000
-386481018.67585,-109609130.63617,-41729364.24355,  -0.00117,  -0.00135,  -0.00015,352542048.00000,   0.00137,276127616.00000,   0.00037,  -0.00161,   0.00039,-123585568.00000,   0.00000
-387858172.32448,-108785792.12774,-42142879.54823,  -0.00118,  -0.00135,  -0.00016,354186528.00000,   0.00137,276127616.00000,   0.00037,  -0.00161,   0.00039,-121941088.00000,   0.00000
-389231633.87217,-108003066.72960,-42556394.85291,  -0.00119,  -0.00134,  -0.00016,355824736.00000,   0.00137,276127616.00000,   0.00037,  -0.00161,   0.00039,-120302880.00000,   0.00000
-390619863.82360,-107205572.92771,-42969910.15759,  -0.00120,  -0.00133,  -0.00017,357489568.00000,   0.00137,276127616.00000,   0.00037,  -0.00161,   0.00039,-118638048.00000,   0.00000
-392045014.78438,-106445000.13517,-43390809.66414,  -0.00120,  -0.00133,  -0.00017,359195136.00000,   0.00137,276127616.00000,   0.00037,  -0.00161,   0.00039,-116932480.00000,   0.00000
-393455397.34142,-105699195.74637,-43811709.17070,  -0.00121,  -0.00132,  -0.00018,360894784.00000,   0.00137,276127616.00000,   0.00037,  -0.00161,   0.00039,-115232832.00000,   0.00000
-394891624.60500,-104964467.66038,-44232608.67725,  -0.00122,  -0.00131,  -0.00019,362624864.00000,   0.00137,276127616.00000,   0.00037,  -0.00161,   0.00039,-113502752.00000,   0.00000
-396338928.17138,-104255584.28092,-44653508.18380,  -0.00123,  -0.00131,  -0.00019,364356576.00000,   0.00137,276127616.00000,   0.00037,  -0.00161,   0.00039,-111771040.00000,   0.00000
-397823152.74711,-103583621.91082,-45081791.89222,  -0.00124,  -0.00130,  -0.00020,366103424.00000,   0.00137,276127616.00000,   0.00037,  -0.00161,   0.00039,-110024192.00000,   0.00000
-399281532.61630,-102900583.23790,-45502691.39877,  -0.00124,  -0.00130,  -0.00020,367810528.00000,   0.00137,276127616.00000,   0.00037,  -0.00161,   0.00039,-108317088.00000,   0.00000
-400776833.49484,-102254465.57434,-45938359.30906,  -0.00125,  -0.00129,  -0.00021,369541920.00000,   0.00137,276127616.00000,   0.00037,  -0.00161,   0.00039,-106585696.00000,   0.00000
-402272134.37337,-101608347.91077,-46366643.01748,  -0.00126,  -0.00128,  -0.00021,371273888.00000,   0.00137,276127616.00000,   0.00037,  -0.00161,   0.00039,-104853728.00000,   0.00000
-403804356.26125,-100999151.25656,-46802310.92777,  -0.00127,  -0.00128,  -0.00022,373040896.00000,   0.00137,276127616.00000,   0.00037,  -0.00161,   0.00039,-103086720.00000,   0.00000
-405310733.44259,-100378878.29953,-47237978.83806,  -0.00128,  -0.00127,  -0.00022,374794272.00000,   0.00137,276127616.00000,   0.00037,  -0.00161,   0.00039,-101333344.00000,   0.00000
-406854031.63328,-99795526.35186,-47673646.74834,  -0.00128,  -0.00127,  -0.00023,376578208.00000,   0.00137,276127616.00000,   0.00037,  -0.00161,   0.00039,-99549408.00000,   0.00000
-408434250.83331,-99249095.41353,-48116698.86050,  -0.00129,  -0.00126,  -0.00024,378393280.00000,   0.00137,276127616.00000,   0.00037,  -0.00161,   0.00039,-97734336.00000,   0.00000
-409988625.32680,-98691588.17240,-48552366.77079,  -0.00130,  -0.00126,  -0.00024,380185920.00000,   0.00137,276127616.00000,   0.00037,  -0.00161,   0.00039,-95941696.00000,   0.00000
-411579920.82964,-98171001.94061,-49002803.08482,  -0.00131,  -0.00125,  -0.00025,382009696.00000,   0.00137,276127616.00000,   0.00037,  -0.00161,   0.00039,-94117920.00000,   0.00000
-413171216.33247,-97650415.70882,-49445855.19698,  -0.00132,  -0.00125,  -0.00025,383832000.00000,   0.00137,276127616.00000,   0.00037,  -0.00161,   0.00039,-92295616.00000,   0.00000
-414773588.13812,-97155674.18358,-49896291.51101,  -0.00133,  -0.00124,  -0.00026,385662464.00000,   0.00137,276127616.00000,   0.00037,  -0.00161,   0.00039,-90465152.00000,   0.00000
-416412880.95310,-96697853.66768,-50346727.82504,  -0.00133,  -0.00123,  -0.00027,387520608.00000,   0.00137,276127616.00000,   0.00037,  -0.00161,   0.00039,-88607008.00000,   0.00000
-418052173.76809,-96240033.15179,-50797164.13906,  -0.00134,  -0.00123,  -0.00027,389383072.00000,   0.00137,276127616.00000,   0.00037,  -0.00161,   0.00039,-86744544.00000,   0.00000
-419702542.88588,-95808057.34243,-51254984.65496,  -0.00135,  -0.00122,  -0.00028,391255808.00000,   0.00137,276127616.00000,   0.00037,  -0.00161,   0.00039,-84871808.00000,   0.00000
-421352912.00367,-95376081.53308,-51705420.96899,  -0.00136,  -0.00122,  -0.00028,393129632.00000,   0.00137,276127616.00000,   0.00037,  -0.00161,   0.00039,-82997984.00000,   0.00000
-423051278.43361,-95006871.43961,-52170625.68676,  -0.00137,  -0.00121,  -0.00029,395039520.00000,   0.00137,276127616.00000,   0.00037,  -0.00161,   0.00039,-81088096.00000,   0.00000
-424712723.85421,-94600740.33680,-52628446.20265,  -0.00138,  -0.00121,  -0.00029,396924352.00000,   0.00137,276127616.00000,   0.00037,  -0.00161,   0.00039,-79203264.00000,   0.00000
-426448011.29350,-94268451.25268,-53093650.92042,  -0.00138,  -0.00120,  -0.00030,398861568.00000,   0.00137,276127616.00000,   0.00037,  -0.00161,   0.00039,-77266048.00000,   0.00000
-428157454.02624,-93925085.86576,-53558855.63819,  -0.00139,  -0.00120,  -0.00031,400777920.00000,   0.00137,276127616.00000,   0.00037,  -0.00161,   0.00039,-75349696.00000,   0.00000
-429866896.75899,-93581720.47883,-54024060.35595,  -0.00140,  -0.00119,  -0.00031,402694592.00000,   0.00137,276127616.00000,   0.00037,  -0.00161,   0.00039,-73433024.00000,   0.00000
-431613260.50108,-93275276.10126,-54496649.27559,  -0.00141,  -0.00119,  -0.00032,404638176.00000,   0.00137,276127616.00000,   0.00037,  -0.00161,   0.00039,-71489440.00000,   0.00000
-433370700.54597,-92994676.43022,-54969238.19522,  -0.00142,  -0.00118,  -0.00033,406584640.00000,   0.00137,276127616.00000,   0.00037,  -0.00161,   0.00039,-69542976.00000,   0.00000
-435165061.60022,-92750997.76854,-55441827.11486,  -0.00143,  -0.00118,  -0.00033,408555168.00000,   0.00137,276127616.00000,   0.00037,  -0.00161,   0.00039,-67572448.00000,   0.00000
-436933577.94792,-92496242.80405,-55921800.23636,  -0.00144,  -0.00118,  -0.00034,410508000.00000,   0.00137,276127616.00000,   0.00037,  -0.00161,   0.00039,-65619616.00000,   0.00000
-438739015.30496,-92278408.84890,-56401773.35787,  -0.00144,  -0.00117,  -0.00034,412485280.00000,   0.00137,276127616.00000,   0.00037,  -0.00161,   0.00039,-63642336.00000,   0.00000
-440544452.66201,-92060574.89376,-56881746.47938,  -0.00145,  -0.00117,  -0.00035,414463264.00000,   0.00137,276127616.00000,   0.00037,  -0.00161,   0.00039,-61664352.00000,   0.00000
-442386811.02840,-91879661.94796,-57361719.60088,  -0.00146,  -0.00116,  -0.00036,416465856.00000,   0.00137,276127616.00000,   0.00037,  -0.00161,   0.00039,-59661760.00000,   0.00000
-444214400.99106,-91713517.40590,-57849076.92426,  -0.00147,  -0.00116,  -0.00036,418453920.00000,   0.00137,276127616.00000,   0.00037,  -0.00161,   0.00039,-57673696.00000,   0.00000
-446078911.96306,-91584293.87319,-58336434.24763,  -0.00148,  -0.00115,  -0.00037,420466528.00000,   0.00137,276127616.00000,   0.00037,  -0.00161,   0.00039,-55661088.00000,   0.00000
-447943422.93506,-91455070.34047,-58831175.77287,  -0.00149,  -0.00115,  -0.00038,422483040.00000,   0.00137,276127616.00000,   0.00037,  -0.00161,   0.00039,-53644576.00000,   0.00000
-449833778.61360,-91336923.11056,-59325917.29812,  -0.00150,  -0.00114,  -0.00038,424521664.00000,   0.00137,276127616.00000,   0.00037,  -0.00161,   0.00039,-51605952.00000,   0.00000
-451720442.19121,-91259388.99094,-59820658.82336,  -0.00151,  -0.00114,  -0.00039,426544672.00000,   0.00137,276127616.00000,   0.00037,  -0.00161,   0.00039,-49582944.00000,   0.00000
-453632950.47536,-91192931.17411,-60315400.34860,  -0.00151,  -0.00114,  -0.00039,428589376.00000,   0.00137,276127616.00000,   0.00037,  -0.00161,   0.00039,-47538240.00000,   0.00000
-455545458.75951,-91126473.35729,-60817526.07572,  -0.00152,  -0.00113,  -0.00040,430637824.00000,   0.00137,276127616.00000,   0.00037,  -0.00161,   0.00039,-45489792.00000,   0.00000
-457480119.64927,-91111704.95355,-61319651.80283,  -0.00153,  -0.00113,  -0.00041,432691232.00000,   0.00137,276127616.00000,   0.00037,  -0.00161,   0.00039,-43436384.00000,   0.00000
-459440625.24558,-91108012.85261,-61821777.52994,  -0.00154,  -0.00113,  -0.00041,434766048.00000,   0.00137,276127616.00000,   0.00037,  -0.00161,   0.00039,-41361568.00000,   0.00000
-461386362.43814,-91119089.15542,-62331287.45893,  -0.00155,  -0.00112,  -0.00042,436825760.00000,   0.00137,276127616.00000,   0.00037,  -0.00161,   0.00039,-39301856.00000,   0.00000
-463357944.33725,-91141241.76103,-62840797.38791,  -0.00156,  -0.00112,  -0.00043,438906912.00000,   0.00137,276127616.00000,   0.00037,  -0.00161,   0.00039,-37220704.00000,   0.00000
-465340602.53915,-91189239.07318,-63350307.31689,  -0.00157,  -0.00111,  -0.00043,440990784.00000,   0.00137,276127616.00000,   0.00037,  -0.00161,   0.00039,-35136832.00000,   0.00000
-467360181.75041,-91274157.39467,-63867201.44774,  -0.00158,  -0.00111,  -0.00044,443101568.00000,   0.00137,276127616.00000,   0.00037,  -0.00161,   0.00039,-33026048.00000,   0.00000
-469353916.25513,-91347999.41337,-64384095.57860,  -0.00159,  -0.00111,  -0.00045,445192352.00000,   0.00137,276127616.00000,   0.00037,  -0.00161,   0.00039,-30935264.00000,   0.00000
-471384571.76919,-91458762.44141,-64900989.70945,  -0.00159,  -0.00110,  -0.00045,447307360.00000,   0.00137,276127616.00000,   0.00037,  -0.00161,   0.00039,-28820256.00000,   0.00000
-473426303.58605,-91595370.17599,-65425268.04217,  -0.00160,  -0.00110,  -0.00046,449428960.00000,   0.00137,276127616.00000,   0.00037,  -0.00161,   0.00039,-26698656.00000,   0.00000
-475493880.10946,-91743054.21338,-65949546.37489,  -0.00161,  -0.00110,  -0.00047,451573088.00000,   0.00137,276127616.00000,   0.00037,  -0.00161,   0.00039,-24554528.00000,   0.00000
-477557764.53193,-91931351.36104,-66481208.90948,  -0.00162,  -0.00109,  -0.00047,453705728.00000,   0.00137,276127616.00000,   0.00037,  -0.00161,   0.00039,-22421888.00000,   0.00000
-479636417.35814,-92104880.10497,-67005487.24220,  -0.00163,  -0.00109,  -0.00048,455855744.00000,   0.00137,276127616.00000,   0.00037,  -0.00161,   0.00039,-20271872.00000,   0.00000
-481737222.78996,-92330098.26199,-67537149.77679,  -0.00164,  -0.00109,  -0.00049,458015456.00000,   0.00137,276127616.00000,   0.00037,  -0.00161,   0.00039,-18112160.00000,   0.00000
-483838028.22178,-92555316.41900,-68076196.51325,  -0.00165,  -0.00108,  -0.00050,460180224.00000,   0.00137,276127616.00000,   0.00037,  -0.00161,   0.00039,-15947392.00000,   0.00000
-485949909.95640,-92806379.28256,-68607859.04784,  -0.00166,  -0.00108,  -0.00050,462345696.00000,   0.00137,276127616.00000,   0.00037,  -0.00161,   0.00039,-13781920.00000,   0.00000
-488087636.39757,-93068518.44892,-69146905.78430,  -0.00167,  -0.00108,  -0.00051,464536672.00000,   0.00137,276127616.00000,   0.00037,  -0.00161,   0.00039,-11590944.00000,   0.00000
-490221670.73780,-93371270.72556,-69693336.72263,  -0.00168,  -0.00108,  -0.00052,466714880.00000,   0.00137,276127616.00000,   0.00037,  -0.00161,   0.00039,-9412736.00000,   0.00000
-492381549.78457,-93685099.30500,-70239767.66096,  -0.00169,  -0.00107,  -0.00052,468913664.00000,   0.00137,276127616.00000,   0.00037,  -0.00161,   0.00039,-7213952.00000,   0.00000
-494567273.53789,-94010004.18725,-70786198.59929,  -0.00169,  -0.00107,  -0.00053,471132160.00000,   0.00137,276127616.00000,   0.00037,  -0.00161,   0.00039,-4995456.00000,   0.00000
-496749305.19027,-94375522.17978,-71332629.53762,  -0.00170,  -0.00107,  -0.00054,473330912.00000,   0.00137,276127616.00000,   0.00037,  -0.00161,   0.00039,-2796704.00000,   0.00000
-498957181.54919,-94752116.47512,-71886444.67781,  -0.00171,  -0.00106,  -0.00055,475549408.00000,   0.00137,276127616.00000,   0.00037,  -0.00161,   0.00039,-578208.00000,   0.00000
-499532521.92628,-94848493.28956,-72032470.15423,  -0.00172,  -0.00106,  -0.00055,476127936.00000,   0.00137,276127616.00000,   0.00037,  -0.00161,   0.00039, 320.00000,   0.00000
-499508954.74327,-94957076.51119,-72172137.48024,  -0.00172,  -0.00106,  -0.00055,476127936.00000,   0.00138,276134560.00000,   0.00037,  -0.00160,   0.00039,  64.00000,   2.00000
-499497234.02738,-95164246.15048,-72362976.49261,  -0.00173,  -0.00106,  -0.00056,478352800.00000,   0.00138,276144128.00000,   0.00036,  -0.00160,   0.00038,   0.00000,   2.00000
-499488610.41283,-95370742.36408,-72546357.11977,  -0.00174,  -0.00106,  -0.00057,478359872.00000,   0.00139,276153632.00000,   0.00035,  -0.00160,   0.00038,   0.00000,   2.00000
-499486724.10979,-95610096.70091,-72738824.49453,  -0.00175,  -0.00105,  -0.00057,478399776.00000,   0.00140,276163296.00000,   0.00034,  -0.00159,   0.00037,  96.00000,   2.00000
-499483066.68836,-95839676.28925,-72927336.87581,  -0.00176,  -0.00105,  -0.00058,478386112.00000,   0.00141,276172864.00000,   0.00033,  -0.00159,   0.00037, 128.00000,   2.00000
-499498284.10507,-96127884.07083,-73117703.60605,  -0.00177,  -0.00105,  -0.00059,478424864.00000,   0.00142,276182528.00000,   0.00032,  -0.00159,   0.00036,  64.00000,   2.00000
-499513191.67524,-96414795.01083,-73307383.97814,  -0.00178,  -0.00105,  -0.00060,478435232.00000,   0.00143,276192192.00000,   0.00031,  -0.00158,   0.00036, 128.00000,   2.00000
-499524197.98311,-96700024.51883,-73503146.25916,  -0.00179,  -0.00105,  -0.00060,478449344.00000,   0.00144,276201888.00000,   0.00030,  -0.00158,   0.00035, 192.00000,   2.00000
-499552442.17383,-97034998.53607,-73697414.50088,  -0.00180,  -0.00104,  -0.00061,478464096.00000,   0.00145,276211584.00000,   0.00029,  -0.00158,   0.00035,  64.00000,   2.00000
-499585107.65124,-97377391.04328,-73887397.64611,  -0.00181,  -0.00104,  -0.00062,478495392.00000,   0.00146,276221376.00000,   0.00028,  -0.00157,   0.00034, 160.00000,   2.00000
-499608812.26084,-97708927.85178,-74086952.87953,  -0.00182,  -0.00104,  -0.00063,478488704.00000,   0.00146,276231072.00000,   0.00027,  -0.00157,   0.00034,  64.00000,   2.00000
-499654680.60510,-98098889.13493,-74281423.78894,  -0.00183,  -0.00104,  -0.00063,478524384.00000,   0.00147,276240896.00000,   0.00026,  -0.00157,   0.00033, 224.00000,   2.00000
-499699672.78373,-98487039.04813,-74475048.60080,  -0.00184,  -0.00104,  -0.00064,478535072.00000,   0.00148,276250720.00000,   0.00025,  -0.00156,   0.00033,  64.00000,   2.00000
-499749393.74818,-98898532.48294,-74674247.92125,  -0.00184,  -0.00104,  -0.00065,478551520.00000,   0.00149,276260544.00000,   0.00024,  -0.00156,   0.00032, 128.00000,   2.00000
-499807165.58407,-99333604.46210,-74872187.97663,  -0.00185,  -0.00103,  -0.00066,478564448.00000,   0.00150,276270400.00000,   0.00023,  -0.00156,   0.00032, 128.00000,   2.00000
-499868906.55848,-99775442.18284,-75065636.78199,  -0.00186,  -0.00103,  -0.00066,478596064.00000,   0.00151,276280320.00000,   0.00022,  -0.00155,   0.00031,  32.00000,   2.00000
-499930299.14052,-100231462.52089,-75268162.38164,  -0.00187,  -0.00103,  -0.00067,478591808.00000,   0.00152,276290208.00000,   0.00021,  -0.00155,   0.00031,  64.00000,   2.00000
-500004353.38548,-100719548.15604,-75465715.28907,  -0.00188,  -0.00103,  -0.00068,478625760.00000,   0.00153,276300160.00000,   0.00020,  -0.00155,   0.00030,  64.00000,   2.00000
-500073779.09533,-101204812.28993,-75669028.33014,  -0.00189,  -0.00103,  -0.00069,478640192.00000,   0.00154,276310144.00000,   0.00019,  -0.00154,   0.00030,  32.00000,   2.00000
-500154617.06089,-101713537.78612,-75864180.03507,  -0.00190,  -0.00103,  -0.00070,478649920.00000,   0.00155,276320128.00000,   0.00018,  -0.00154,   0.00029,  96.00000,   2.00000
-500235633.70553,-102244315.89624,-76071321.22814,  -0.00191,  -0.00103,  -0.00070,478670368.00000,   0.00156,276330112.00000,   0.00016,  -0.00154,   0.00029, -32.00000,   2.00000
-500332797.71195,-102806976.35237,-76266561.29555,  -0.00192,  -0.00102,  -0.00071,478700896.00000,   0.00157,276340224.00000,   0.00015,  -0.00153,   0.00028,  32.00000,   2.00000
-500420188.93059,-103357595.96402,-76471044.74237,  -0.00193,  -0.00102,  -0.00072,478694816.00000,   0.00158,276350240.00000,   0.00014,  -0.00153,   0.00027,  32.00000,   2.00000
-500516151.81519,-103938981.48037,-76676980.60897,  -0.00194,  -0.00102,  -0.00073,478732640.00000,   0.00159,276360384.00000,   0.00013,  -0.00153,   0.00027,  32.00000,   2.00000
-500622793.88593,-104543107.02666,-76874454.93476,  -0.00195,  -0.00102,  -0.00074,478742752.00000,   0.00159,276370496.00000,   0.00012,  -0.00152,   0.00026,  32.00000,   2.00000
-500733098.78428,-105169009.25375,-77076951.85752,  -0.00196,  -0.00102,  -0.00074,478759840.00000,   0.00160,276380640.00000,   0.00011,  -0.00152,   0.00026, 160.00000,   2.00000
-500838171.11045,-105791035.73933,-77284819.46880,  -0.00197,  -0.00102,  -0.00075,478774784.00000,   0.00161,276390816.00000,   0.00010,  -0.00152,   0.00025,  64.00000,   2.00000
-500953715.14965,-106435480.96038,-77484082.73722,  -0.00198,  -0.00102,  -0.00076,478784864.00000,   0.00162,276400992.00000,   0.00009,  -0.00151,   0.00025,  32.00000,   2.00000
-501065478.80240,-107084008.59976,-77691703.88888,  -0.00199,  -0.00102,  -0.00077,478824128.00000,   0.00163,276411264.00000,   0.00008,  -0.00151,   0.00024, 256.00000,   2.00000
-501191045.34906,-107771649.74972,-77893833.16290,  -0.00200,  -0.00102,  -0.00078,478816416.00000,   0.00164,276421472.00000,   0.00007,  -0.00151,   0.00024, 192.00000,   2.00000
-501315942.63077,-108463464.85200,-78097381.96961,  -0.00201,  -0.00102,  -0.00078,478852000.00000,   0.00165,276431776.00000,   0.00006,  -0.00150,   0.00023,  32.00000,   2.00000
-501442713.74334,-109168381.61509,-78302621.14115,  -0.00202,  -0.00102,  -0.00079,478845248.00000,   0.00166,276441984.00000,   0.00005,  -0.00150,   0.00023,  96.00000,   2.00000
-501568762.25944,-109877295.99272,-78509174.59223,  -0.00203,  -0.00102,  -0.00080,478880992.00000,   0.00167,276452320.00000,   0.00004,  -0.00150,   0.00022,  96.00000,   2.00000
-501709576.89203,-110633030.96148,-78713023.60308,  -0.00204,  -0.00102,  -0.00081,478897792.00000,   0.00168,276462656.00000,   0.00003,  -0.00149,   0.00021, 192.00000,   2.00000
-501840238.20833,-111359256.12608,-78915685.73167,  -0.00205,  -0.00102,  -0.00082,478906560.00000,   0.00169,276472992.00000,   0.00002,  -0.00149,   0.00021,  96.00000,   2.00000
-501981744.50507,-112131748.21085,-79122260.90141,  -0.00206,  -0.00102,  -0.00083,478927040.00000,   0.00170,276483392.00000,   0.00001,  -0.00149,   0.00020, 160.00000,   2.00000
-502134174.07079,-112933732.49922,-79322657.84825,  -0.00207,  -0.00102,  -0.00083,478962144.00000,   0.00171,276493856.00000,  -0.00000,  -0.00148,   0.00020,  64.00000,   2.00000
-502280028.93135,-113723275.76066,-79525120.51099,  -0.00208,  -0.00102,  -0.00084,478952608.00000,   0.00172,276504256.00000,  -0.00001,  -0.00148,   0.00019,  64.00000,   2.00000
-502432944.64009,-114541754.09214,-79728029.34458,  -0.00209,  -0.00102,  -0.00085,478991296.00000,   0.00173,276514752.00000,  -0.00002,  -0.00148,   0.00018, 128.00000,   2.00000
-502579323.08878,-115347904.40567,-79933023.52315,  -0.00210,  -0.00102,  -0.00086,478981824.00000,   0.00174,276525184.00000,  -0.00004,  -0.00147,   0.00018,   0.00000,   2.00000
-502732769.57568,-116182960.15992,-80138429.04886,  -0.00211,  -0.00102,  -0.00087,479020608.00000,   0.00175,276535712.00000,  -0.00005,  -0.00147,   0.00017,  96.00000,   2.00000
-502892305.65576,-117039231.97213,-80341439.04624,  -0.00212,  -0.00102,  -0.00088,479034912.00000,   0.00176,276546272.00000,  -0.00006,  -0.00147,   0.00017,  64.00000,   2.00000
-503057836.21335,-117916692.20766,-80542049.79305,  -0.00213,  -0.00102,  -0.00089,479049184.00000,   0.00177,276556832.00000,  -0.00007,  -0.00146,   0.00016,  64.00000,   2.00000
-503225624.11291,-118814758.12760,-80746953.65190,  -0.00214,  -0.00102,  -0.00089,479067296.00000,   0.00178,276567424.00000,  -0.00008,  -0.00146,   0.00015, 128.00000,   2.00000
-503391382.45296,-119708601.51620,-80950083.94366,  -0.00215,  -0.00102,  -0.00090,479078592.00000,   0.00179,276578016.00000,  -0.00009,  -0.00146,   0.00015,  64.00000,   2.00000
-503563065.01932,-120623556.33360,-81150896.81080,  -0.00216,  -0.00102,  -0.00091,479092864.00000,   0.00180,276588608.00000,  -0.00010,  -0.00145,   0.00014, 192.00000,   2.00000
-503728854.31675,-121533647.53272,-81356682.37944,  -0.00217,  -0.00102,  -0.00092,479108032.00000,   0.00181,276599232.00000,  -0.00011,  -0.00145,   0.00014,  64.00000,   2.00000
-503912936.26692,-122497850.99041,-81555612.93963,  -0.00218,  -0.00102,  -0.00093,479146528.00000,   0.00182,276609984.00000,  -0.00012,  -0.00145,   0.00013,  32.00000,   2.00000
-504090162.36049,-123449555.13244,-81756934.93219,  -0.00219,  -0.00102,  -0.00094,479137376.00000,   0.00183,276620608.00000,  -0.00013,  -0.00144,   0.00012, 160.00000,   2.00000
-504261230.90700,-124395970.32898,-81963351.39796,  -0.00220,  -0.00102,  -0.00095,479152832.00000,   0.00184,276631296.00000,  -0.00014,  -0.00144,   0.00012,  64.00000,   2.00000
-504449945.79999,-125395761.00246,-82162956.61969,  -0.00221,  -0.00102,  -0.00096,479192000.00000,   0.00185,276642048.00000,  -0.00016,  -0.00144,   0.00011,  64.00000,   2.00000
-504632215.85606,-126389657.36612,-82367723.78233,  -0.00222,  -0.00102,  -0.00097,479207872.00000,   0.00186,276652864.00000,  -0.00017,  -0.00143,   0.00011, 128.00000,   2.00000
-504814851.73705,-127395617.92980,-82574441.67973,  -0.00223,  -0.00103,  -0.00097,479202816.00000,   0.00187,276663584.00000,  -0.00018,  -0.00143,   0.00010,  96.00000,   2.00000
-505006522.10358,-128428616.96100,-82775009.58189,  -0.00224,  -0.00103,  -0.00098,479239488.00000,   0.00188,276674400.00000,  -0.00019,  -0.00143,   0.00009,  64.00000,   2.00000
-505191465.59216,-129454928.38534,-82980892.67917,  -0.00225,  -0.00103,  -0.00099,479256064.00000,   0.00189,276685248.00000,  -0.00020,  -0.00142,   0.00009, 128.00000,   2.00000
-505380303.70636,-130500035.41285,-83184692.05112,  -0.00226,  -0.00103,  -0.00100,479272704.00000,   0.00190,276696096.00000,  -0.00021,  -0.00142,   0.00008, -64.00000,   2.00000
-505568901.28128,-131556289.88741,-83390613.40253,  -0.00227,  -0.00103,  -0.00101,479268576.00000,   0.00191,276706848.00000,  -0.00022,  -0.00142,   0.00007,  96.00000,   2.00000
-505754184.60238,-132612481.61196,-83597732.39513,  -0.00228,  -0.00103,  -0.00102,479306880.00000,   0.00192,276717728.00000,  -0.00023,  -0.00141,   0.00007,  32.00000,   2.00000
-505943177.16099,-133686839.58027,-83802888.78582,  -0.00229,  -0.00103,  -0.00103,479324128.00000,   0.00193,276728640.00000,  -0.00024,  -0.00141,   0.00006,  96.00000,   2.00000
-506131415.74544,-134778391.13481,-84012637.16364,  -0.00230,  -0.00103,  -0.00104,479345696.00000,   0.00194,276739552.00000,  -0.00026,  -0.00141,   0.00005,  64.00000,   2.00000
-506322891.49676,-135887677.05024,-84220402.37818,  -0.00231,  -0.00104,  -0.00105,479363328.00000,   0.00195,276750496.00000,  -0.00027,  -0.00141,   0.00005,  64.00000,   2.00000
-506510213.29011,-136989543.91086,-84426917.15390,  -0.00232,  -0.00104,  -0.00106,479377472.00000,   0.00196,276761440.00000,  -0.00028,  -0.00140,   0.00004,  64.00000,   2.00000
-506700764.17992,-138115362.98848,-84633912.86289,  -0.00233,  -0.00104,  -0.00107,479420384.00000,   0.00197,276772512.00000,  -0.00029,  -0.00140,   0.00003,  64.00000,   2.00000
-506889751.90491,-139251557.38146,-84843013.74270,  -0.00234,  -0.00104,  -0.00108,479417664.00000,   0.00198,276783488.00000,  -0.00030,  -0.00140,   0.00003, 160.00000,   2.00000
-507081370.78710,-140405165.53831,-85050070.05840,  -0.00235,  -0.00104,  -0.00109,479435712.00000,   0.00199,276794496.00000,  -0.00031,  -0.00139,   0.00002,  32.00000,   2.00000
-507264701.44128,-141550480.59728,-85262446.44901,  -0.00236,  -0.00105,  -0.00110,479453824.00000,   0.00200,276805536.00000,  -0.00032,  -0.00139,   0.00001,  64.00000,   2.00000
-507450688.78207,-142713288.38404,-85472715.88909,  -0.00237,  -0.00105,  -0.00110,479471872.00000,   0.00201,276816576.00000,  -0.00034,  -0.00139,   0.00001, 128.00000,   2.00000
-507632420.45034,-143868676.08737,-85681634.21310,  -0.00238,  -0.00105,  -0.00111,479485920.00000,   0.00202,276827616.00000,  -0.00035,  -0.00138,  -0.00000,  32.00000,   2.00000
-507817041.60054,-145047619.65923,-85890793.22229,  -0.00239,  -0.00105,  -0.00112,479528928.00000,   0.00203,276838784.00000,  -0.00036,  -0.00138,  -0.00001, 128.00000,   2.00000
-507999886.40312,-146237296.30582,-86101785.47998,  -0.00240,  -0.00105,  -0.00113,479526240.00000,   0.00204,276849888.00000,  -0.00037,  -0.00138,  -0.00001,  64.00000,   2.00000
-508185352.56585,-147444497.43932,-86310406.45322,  -0.00241,  -0.00106,  -0.00114,479544064.00000,   0.00205,276860992.00000,  -0.00038,  -0.00138,  -0.00002,  96.00000,   2.00000
-508362649.20505,-148643535.77316,-86523951.47045,  -0.00242,  -0.00106,  -0.00115,479561920.00000,   0.00206,276872128.00000,  -0.00039,  -0.00137,  -0.00003,  96.00000,   2.00000
-508549004.41329,-149884891.94351,-86734005.44212,  -0.00243,  -0.00106,  -0.00116,479584352.00000,   0.00208,276883296.00000,  -0.00040,  -0.00137,  -0.00003,  32.00000,   2.00000
-508725015.54000,-151099727.68007,-86945470.96576,  -0.00244,  -0.00106,  -0.00117,479618656.00000,   0.00209,276894560.00000,  -0.00042,  -0.00137,  -0.00004,  96.00000,   2.00000
-508905815.43040,-152350291.31095,-87157366.72713,  -0.00245,  -0.00107,  -0.00118,479620192.00000,   0.00210,276905760.00000,  -0.00043,  -0.00136,  -0.00005,   0.00000,   2.00000
-509082731.95093,-153593419.66447,-87367186.49278,  -0.00246,  -0.00107,  -0.00119,479633792.00000,   0.00211,276916992.00000,  -0.00044,  -0.00136,  -0.00006,  64.00000,   2.00000
-509262115.34208,-154853830.21323,-87573927.68546,  -0.00247,  -0.00107,  -0.00120,479651872.00000,   0.00212,276928224.00000,  -0.00045,  -0.00136,  -0.00006,  32.00000,   2.00000
-509439764.23775,-156130463.74141,-87784025.12682,  -0.00248,  -0.00107,  -0.00121,479674272.00000,   0.00213,276939488.00000,  -0.00046,  -0.00136,  -0.00007,  96.00000,   2.00000
-509609407.01349,-157398497.69671,-87998301.02332,  -0.00249,  -0.00108,  -0.00122,479692096.00000,   0.00214,276950784.00000,  -0.00047,  -0.00135,  -0.00008,  96.00000,   2.00000
-509785348.11051,-158684346.98820,-88202653.08479,  -0.00250,  -0.00108,  -0.00123,479706560.00000,   0.00215,276962080.00000,  -0.00049,  -0.00135,  -0.00008,   0.00000,   2.00000
-509957451.74401,-159967552.11959,-88406905.47049,  -0.00251,  -0.00108,  -0.00124,479745312.00000,   0.00216,276973472.00000,  -0.00050,  -0.00135,  -0.00009, 160.00000,   2.00000
-510129202.83611,-161284847.08978,-88617519.35252,  -0.00252,  -0.00109,  -0.00125,479752032.00000,   0.00217,276984864.00000,  -0.00051,  -0.00135,  -0.00010,  96.00000,   2.00000
-510297096.77458,-162588927.09467,-88823501.73353,  -0.00253,  -0.00109,  -0.00126,479740896.00000,   0.00218,276996128.00000,  -0.00052,  -0.00134,  -0.00011,  96.00000,   2.00000
-510466485.95633,-163914287.35921,-89028288.69861,  -0.00254,  -0.00109,  -0.00127,479784896.00000,   0.00219,277007552.00000,  -0.00053,  -0.00134,  -0.00011, -64.00000,   2.00000
-510627582.14181,-165230275.52450,-89237299.13946,  -0.00255,  -0.00109,  -0.00128,479803008.00000,   0.00220,277018976.00000,  -0.00054,  -0.00134,  -0.00012,  64.00000,   2.00000
-510794305.37117,-166563261.98660,-89436499.13427,  -0.00256,  -0.00110,  -0.00129,479818304.00000,   0.00221,277030400.00000,  -0.00056,  -0.00134,  -0.00013, -32.00000,   2.00000
-510958167.07660,-167911040.23379,-89639031.75976,  -0.00257,  -0.00110,  -0.00130,479841536.00000,   0.00222,277041856.00000,  -0.00057,  -0.00133,  -0.00014,  32.00000,   2.00000
-511113073.59614,-169248930.65857,-89845954.59162,  -0.00258,  -0.00110,  -0.00131,479860128.00000,   0.00224,277053344.00000,  -0.00058,  -0.00133,  -0.00014,   0.00000,   2.00000
-511275182.48676,-170622185.97529,-90046633.79478,  -0.00259,  -0.00111,  -0.00132,479859456.00000,   0.00225,277064800.00000,  -0.00059,  -0.00133,  -0.00015, -32.00000,   2.00000
-511422333.49626,-171965419.87958,-90255098.82409,  -0.00260,  -0.00111,  -0.00133,479898208.00000,   0.00226,277076320.00000,  -0.00060,  -0.00133,  -0.00016,  32.00000,   2.00000
-511576059.96407,-173343738.14080,-90457359.43142,  -0.00261,  -0.00112,  -0.00134,479898048.00000,   0.00227,277087808.00000,  -0.00062,  -0.00132,  -0.00017,  64.00000,   2.00000
-511724614.18714,-174717044.96207,-90659941.23699,  -0.00262,  -0.00112,  -0.00135,479937888.00000,   0.00228,277099360.00000,  -0.00063,  -0.00132,  -0.00017,  96.00000,   2.00000
-511869511.56963,-176099655.47292,-90863974.35436,  -0.00263,  -0.00112,  -0.00136,479937024.00000,   0.00229,277110880.00000,  -0.00064,  -0.00132,  -0.00018, -32.00000,   2.00000
-512009679.26003,-177472700.80139,-91066306.17883,  -0.00264,  -0.00113,  -0.00137,479951712.00000,   0.00230,277122400.00000,  -0.00065,  -0.00132,  -0.00019,  64.00000,   2.00000
-512154781.31697,-178888421.02088,-91266622.52436,  -0.00265,  -0.00113,  -0.00138,480003104.00000,   0.00231,277134080.00000,  -0.00066,  -0.00132,  -0.00020,  64.00000,   2.00000
-512290719.40786,-180288760.95656,-91469560.79233,  -0.00265,  -0.00113,  -0.00139,479997376.00000,   0.00232,277145664.00000,  -0.00068,  -0.00131,  -0.00021,  32.00000,   2.00000
-512421400.26540,-181678942.47891,-91670679.14037,  -0.00266,  -0.00114,  -0.00141,480012640.00000,   0.00233,277157248.00000,  -0.00069,  -0.00131,  -0.00021, -32.00000,   2.00000
-512547714.32117,-183081843.11016,-91875247.15502,  -0.00267,  -0.00114,  -0.00142,480037888.00000,   0.00234,277168864.00000,  -0.00070,  -0.00131,  -0.00022,  32.00000,   2.00000
-512673848.83594,-184498399.16598,-92076701.11543,  -0.00268,  -0.00115,  -0.00143,480059360.00000,   0.00236,277180512.00000,  -0.00071,  -0.00131,  -0.00023,  64.00000,   2.00000
-512795632.24821,-185923449.45842,-92279377.22306,  -0.00269,  -0.00115,  -0.00144,480060032.00000,   0.00237,277192128.00000,  -0.00072,  -0.00130,  -0.00024, 128.00000,   2.00000
-512911435.15787,-187341422.57550,-92482021.61639,  -0.00270,  -0.00115,  -0.00145,480101280.00000,   0.00238,277203808.00000,  -0.00074,  -0.00130,  -0.00025,  64.00000,   2.00000
-513022808.61400,-188767837.52664,-92685751.75728,  -0.00271,  -0.00116,  -0.00146,480102208.00000,   0.00239,277215456.00000,  -0.00075,  -0.00130,  -0.00025,   0.00000,   2.00000
-513132812.80003,-190188264.76892,-92882900.53226,  -0.00272,  -0.00116,  -0.00147,480139296.00000,   0.00240,277227168.00000,  -0.00076,  -0.00130,  -0.00026,  64.00000,   2.00000
-513238548.43290,-191639706.02136,-93086183.97205,  -0.00273,  -0.00117,  -0.00148,480150944.00000,   0.00241,277238880.00000,  -0.00077,  -0.00130,  -0.00027,  96.00000,   2.00000
-513338948.68905,-193080274.98680,-93287204.59925,  -0.00274,  -0.00117,  -0.00149,480167200.00000,   0.00242,277250624.00000,  -0.00078,  -0.00129,  -0.00028,  64.00000,   2.00000
-513434002.64367,-194510090.51354,-93485923.96096,  -0.00275,  -0.00118,  -0.00150,480183424.00000,   0.00243,277262336.00000,  -0.00080,  -0.00129,  -0.00029,  96.00000,   2.00000
-513528210.30044,-195953012.88292,-93680973.42173,  -0.00276,  -0.00118,  -0.00151,480205728.00000,   0.00244,277274080.00000,  -0.00081,  -0.00129,  -0.00029,   0.00000,   2.00000
-513617229.34107,-197407692.27604,-93878781.68001,  -0.00277,  -0.00119,  -0.00152,480232192.00000,   0.00246,277285856.00000,  -0.00082,  -0.00129,  -0.00030, 128.00000,   2.00000
-513701414.36042,-198871057.74289,-94077318.64324,  -0.00278,  -0.00119,  -0.00153,480233440.00000,   0.00247,277297600.00000,  -0.00083,  -0.00129,  -0.00031, -64.00000,   2.00000
-513779854.19950,-200326796.29988,-94275376.73466,  -0.00279,  -0.00120,  -0.00154,480274304.00000,   0.00248,277309472.00000,  -0.00085,  -0.00129,  -0.00032,  32.00000,   2.00000
-513854017.10456,-201769339.77246,-94469173.35032,  -0.00280,  -0.00120,  -0.00156,480264288.00000,   0.00249,277321216.00000,  -0.00086,  -0.00128,  -0.00033,  64.00000,   2.00000
-513926773.45090,-203247233.70392,-94664107.33834,  -0.00281,  -0.00121,  -0.00157,480296896.00000,   0.00250,277333024.00000,  -0.00087,  -0.00128,  -0.00034,  64.00000,   2.00000
-513990112.97895,-204713229.45476,-94863045.98529,  -0.00282,  -0.00121,  -0.00158,480316064.00000,   0.00251,277344864.00000,  -0.00088,  -0.00128,  -0.00034, 128.00000,   2.00000
-514056870.55324,-206193577.06941,-95051632.77897,  -0.00283,  -0.00122,  -0.00159,480333152.00000,   0.00252,277356736.00000,  -0.00089,  -0.00128,  -0.00035,  64.00000,   2.00000
-514114241.47711,-207661790.52221,-95244210.39216,  -0.00284,  -0.00122,  -0.00160,480351872.00000,   0.00253,277368608.00000,  -0.00091,  -0.00128,  -0.00036, -32.00000,   2.00000
-514167036.91882,-209138766.73193,-95437445.80669,  -0.00285,  -0.00123,  -0.00161,480352288.00000,   0.00254,277380448.00000,  -0.00092,  -0.00128,  -0.00037, 160.00000,   2.00000
-514217674.99372,-210630126.48491,-95628390.71734,  -0.00286,  -0.00123,  -0.00162,480399200.00000,   0.00256,277392416.00000,  -0.00093,  -0.00128,  -0.00038,  32.00000,   2.00000
-514259802.32173,-212106321.65267,-95821436.22437,  -0.00287,  -0.00124,  -0.00163,480392960.00000,   0.00257,277404288.00000,  -0.00094,  -0.00127,  -0.00039,  96.00000,   2.00000
-514301006.97505,-213594154.31990,-96010433.43205,  -0.00288,  -0.00124,  -0.00164,480415296.00000,   0.00258,277416192.00000,  -0.00096,  -0.00127,  -0.00040, 128.00000,   2.00000
-514337291.40704,-215069986.17330,-96196879.71390,  -0.00289,  -0.00125,  -0.00166,480431136.00000,   0.00259,277428096.00000,  -0.00097,  -0.00127,  -0.00040,  32.00000,   2.00000
-514364034.58649,-216551860.62427,-96390254.07148,  -0.00290,  -0.00125,  -0.00167,480438016.00000,   0.00260,277439968.00000,  -0.00098,  -0.00127,  -0.00041, -32.00000,   2.00000
-514394189.90478,-218048163.62000,-96575053.85234,  -0.00291,  -0.00126,  -0.00168,480483424.00000,   0.00261,277451968.00000,  -0.00099,  -0.00127,  -0.00042, 992.00000,   1.00000
-514413630.79323,-219528060.32771,-96761602.22709,  -0.00292,  -0.00126,  -0.00169,480481216.00000,   0.00262,277463872.00000,  -0.00101,  -0.00127,  -0.00043, -96.00000,   2.00000
-514432686.44563,-221019019.46060,-96944326.61835,  -0.00293,  -0.00127,  -0.00170,480506016.00000,   0.00264,277475808.00000,  -0.00102,  -0.00127,  -0.00044,-128.00000,   2.00000
-514445372.41654,-222518861.39610,-97129360.20212,  -0.00294,  -0.00128,  -0.00171,480537408.00000,   0.00265,277487808.00000,  -0.00103,  -0.00127,  -0.00045, -32.00000,   2.00000
-514449253.89062,-224003480.84971,-97316691.45720,  -0.00295,  -0.00128,  -0.00172,480535744.00000,   0.00266,277499712.00000,  -0.00104,  -0.00127,  -0.00046,-224.00000,   2.00000
-514455110.04365,-225501933.06569,-97495344.72417,  -0.00296,  -0.00129,  -0.00173,480584672.00000,   0.00267,277511744.00000,  -0.00105,  -0.00126,  -0.00047,-160.00000,   2.00000
-514450542.54528,-227006676.34808,-97681059.44189,  -0.00296,  -0.00129,  -0.00175,480595936.00000,   0.00268,277523712.00000,  -0.00107,  -0.00126,  -0.00048, -64.00000,   2.00000
-514445566.87364,-228501507.54437,-97858136.42017,  -0.00297,  -0.00130,  -0.00176,480611616.00000,   0.00269,277535712.00000,  -0.00108,  -0.00126,  -0.00048,-160.00000,   2.00000
-514430873.17039,-229983213.13572,-98039323.48752,  -0.00298,  -0.00130,  -0.00177,480636224.00000,   0.00270,277547712.00000,  -0.00109,  -0.00126,  -0.00049,-224.00000,   2.00000
-514408370.07308,-231494486.02942,-98225761.85560,  -0.00299,  -0.00131,  -0.00178,480655040.00000,   0.00271,277559712.00000,  -0.00110,  -0.00126,  -0.00050,-224.00000,   2.00000
-514389327.81025,-232999038.62251,-98398839.33355,  -0.00300,  -0.00132,  -0.00179,480691328.00000,   0.00273,277571776.00000,  -0.00112,  -0.00126,  -0.00051,-224.00000,   2.00000
-514356785.71675,-234488088.91613,-98580633.92982,  -0.00301,  -0.00132,  -0.00180,480693312.00000,   0.00274,277583808.00000,  -0.00113,  -0.00126,  -0.00052,-256.00000,   2.00000
-514318264.21510,-235986157.69065,-98762929.94835,  -0.00302,  -0.00133,  -0.00181,480697952.00000,   0.00275,277595776.00000,  -0.00114,  -0.00126,  -0.00053,-192.00000,   2.00000
-514281242.69326,-237498289.81375,-98936217.98656,  -0.00303,  -0.00134,  -0.00183,480745312.00000,   0.00276,277607840.00000,  -0.00115,  -0.00126,  -0.00054,-224.00000,   2.00000
-514230860.28428,-238994962.88862,-99118000.22412,  -0.00304,  -0.00134,  -0.00184,480745440.00000,   0.00277,277619872.00000,  -0.00117,  -0.00126,  -0.00055,-224.00000,   2.00000
-514178160.88608,-240502888.57385,-99295245.53056,  -0.00305,  -0.00135,  -0.00185,480770176.00000,   0.00278,277631936.00000,  -0.00118,  -0.00126,  -0.00056, -96.00000,   2.00000
-514127942.03845,-242023698.85962,-99461562.96105,  -0.00306,  -0.00136,  -0.00186,480789600.00000,   0.00279,277644032.00000,  -0.00119,  -0.00126,  -0.00057,-192.00000,   2.00000
-514063496.95284,-243529175.04129,-99637682.30104,  -0.00307,  -0.00136,  -0.00187,480814336.00000,   0.00281,277656160.00000,  -0.00120,  -0.00126,  -0.00058,-192.00000,   2.00000
-513995581.35770,-245022616.12342,-99809324.36902,  -0.00308,  -0.00137,  -0.00188,480803008.00000,   0.00282,277668192.00000,  -0.00122,  -0.00126,  -0.00059,-192.00000,   2.00000
-513922841.57567,-246546744.97750,-99980407.56624,  -0.00309,  -0.00137,  -0.00190,480839424.00000,   0.00283,277680320.00000,  -0.00123,  -0.00126,  -0.00060,-128.00000,   2.00000
-513843540.42696,-248036600.72360,-100150346.27438,  -0.00309,  -0.00138,  -0.00191,480845120.00000,   0.00284,277692416.00000,  -0.00124,  -0.00125,  -0.00061,-160.00000,   2.00000
-513760271.96658,-249556339.79810,-100318030.65024,  -0.00310,  -0.00139,  -0.00192,480855328.00000,   0.00285,277704512.00000,  -0.00125,  -0.00125,  -0.00061,-192.00000,   2.00000
-513672749.04785,-251063637.71753,-100482565.56331,  -0.00311,  -0.00140,  -0.00193,480869472.00000,   0.00286,277716608.00000,  -0.00126,  -0.00125,  -0.00062,-160.00000,   2.00000
-513576207.46644,-252556437.45992,-100650223.78139,  -0.00312,  -0.00140,  -0.00194,480888320.00000,   0.00288,277728704.00000,  -0.00128,  -0.00125,  -0.00063, -64.00000,   2.00000
-513484012.67897,-254082405.15146,-100804349.82609,  -0.00313,  -0.00141,  -0.00195,480915488.00000,   0.00289,277740896.00000,  -0.00129,  -0.00125,  -0.00064, -96.00000,   2.00000
-513377099.46636,-255569759.48553,-100968585.14672,  -0.00314,  -0.00142,  -0.00197,480904512.00000,   0.00290,277752960.00000,  -0.00130,  -0.00125,  -0.00065,   0.00000,   2.00000
-513269506.21409,-257087915.76013,-101125528.85043,  -0.00315,  -0.00142,  -0.00198,480936896.00000,   0.00291,277765120.00000,  -0.00131,  -0.00125,  -0.00066,   0.00000,   2.00000
-513151245.73289,-258569305.26206,-101287784.03163,  -0.00316,  -0.00143,  -0.00199,480947136.00000,   0.00292,277777280.00000,  -0.00133,  -0.00125,  -0.00067, -32.00000,   2.00000
-513032106.13308,-260081201.96975,-101441234.67965,  -0.00317,  -0.00144,  -0.00200,480954304.00000,   0.00293,277789376.00000,  -0.00134,  -0.00125,  -0.00068,-896.00000,   1.00000
-512905877.22736,-261578789.26335,-101598434.03795,  -0.00318,  -0.00144,  -0.00201,480972896.00000,   0.00294,277801536.00000,  -0.00135,  -0.00125,  -0.00069,   0.00000,   2.00000
-512774726.83248,-263063056.42604,-101752571.78182,  -0.00318,  -0.00145,  -0.00203,480988864.00000,   0.00296,277813664.00000,  -0.00136,  -0.00125,  -0.00070, 160.00000,   2.00000
-512642339.27425,-264577292.20355,-101899521.15557,  -0.00319,  -0.00146,  -0.00204,481022496.00000,   0.00297,277825888.00000,  -0.00138,  -0.00125,  -0.00071, 128.00000,   2.00000
-512500348.99832,-266055550.83443,-102050934.49669,  -0.00320,  -0.00147,  -0.00205,481007808.00000,   0.00298,277838016.00000,  -0.00139,  -0.00126,  -0.00072,   0.00000,   2.00000
-512346671.11011,-267538759.59352,-102208656.36580,  -0.00321,  -0.00147,  -0.00206,481016608.00000,   0.00299,277850080.00000,  -0.00140,  -0.00126,  -0.00073,   0.00000,   2.00000
-512194461.13908,-269031592.43316,-102356546.14618,  -0.00322,  -0.00148,  -0.00207,481062240.00000,   0.00300,277862304.00000,  -0.00141,  -0.00126,  -0.00074,  64.00000,   2.00000
-512040098.95389,-270533501.33610,-102498411.91680,  -0.00323,  -0.00149,  -0.00209,481062080.00000,   0.00301,277874432.00000,  -0.00143,  -0.00126,  -0.00075,   0.00000,   2.00000
-511875606.73859,-271998805.72030,-102646339.00173,  -0.00324,  -0.00150,  -0.00210,481073376.00000,   0.00303,277886592.00000,  -0.00144,  -0.00126,  -0.00076,  96.00000,   2.00000
-511700196.57147,-273489931.53572,-102798435.55232,  -0.00324,  -0.00150,  -0.00211,481092640.00000,   0.00304,277898720.00000,  -0.00145,  -0.00126,  -0.00077, 128.00000,   2.00000
-511525546.71604,-274969986.75276,-102941902.07073,  -0.00325,  -0.00151,  -0.00212,481104224.00000,   0.00305,277910880.00000,  -0.00146,  -0.00126,  -0.00078,   0.00000,   2.00000
-511346946.97313,-276436790.68157,-103083079.46298,  -0.00326,  -0.00152,  -0.00213,481120672.00000,   0.00306,277923008.00000,  -0.00147,  -0.00126,  -0.00079, -64.00000,   2.00000
-511156132.89998,-277908027.63325,-103230843.99339,  -0.00327,  -0.00153,  -0.00215,481131072.00000,   0.00307,277935136.00000,  -0.00149,  -0.00126,  -0.00080, -32.00000,   2.00000
-510961983.67216,-279386547.02644,-103373895.34718,  -0.00328,  -0.00153,  -0.00216,481157824.00000,   0.00308,277947296.00000,  -0.00150,  -0.00126,  -0.00081,  64.00000,   2.00000
-510763824.14027,-280851407.85857,-103514697.27578,  -0.00329,  -0.00154,  -0.00217,481174784.00000,   0.00310,277959456.00000,  -0.00151,  -0.00126,  -0.00082,   0.00000,   2.00000
-510558035.86870,-282322588.76728,-103655870.82263,  -0.00330,  -0.00155,  -0.00218,481181376.00000,   0.00311,277971584.00000,  -0.00152,  -0.00126,  -0.00083,  32.00000,   2.00000
-510348186.03612,-283779893.85907,-103794799.90569,  -0.00330,  -0.00156,  -0.00219,481198752.00000,   0.00312,277983712.00000,  -0.00154,  -0.00126,  -0.00084, -32.00000,   2.00000
-510129894.72818,-285241367.11865,-103935195.35826,  -0.00331,  -0.00157,  -0.00221,481231040.00000,   0.00313,277995904.00000,  -0.00155,  -0.00126,  -0.00085, -32.00000,   2.00000
-509908319.30482,-286690792.80770,-104072235.25173,  -0.00332,  -0.00157,  -0.00222,481223424.00000,   0.00314,278008000.00000,  -0.00156,  -0.00126,  -0.00086,  64.00000,   2.00000
-509678029.69943,-288143940.38316,-104210638.15638,  -0.00333,  -0.00158,  -0.00223,481256320.00000,   0.00315,278020160.00000,  -0.00157,  -0.00127,  -0.00088, -64.00000,   2.00000
-509439574.26617,-289582592.36892,-104351846.75409,  -0.00334,  -0.00159,  -0.00224,481253696.00000,   0.00316,278032224.00000,  -0.00158,  -0.00127,  -0.00089,  96.00000,   2.00000
-509197427.43293,-291027205.98966,-104488162.97844,  -0.00334,  -0.00160,  -0.00225,481282080.00000,   0.00318,278044352.00000,  -0.00160,  -0.00127,  -0.00090,  32.00000,   2.00000
-508951536.63745,-292457483.77884,-104622178.54132,  -0.00335,  -0.00161,  -0.00227,481300384.00000,   0.00319,278056512.00000,  -0.00161,  -0.00127,  -0.00091,  96.00000,   2.00000
-508697287.68914,-293893250.42340,-104756266.77191,  -0.00336,  -0.00162,  -0.00228,481308832.00000,   0.00320,278068608.00000,  -0.00162,  -0.00127,  -0.00092,   0.00000,   2.00000
-508439377.45918,-295314621.43140,-104887996.95508,  -0.00337,  -0.00162,  -0.00229,481327040.00000,   0.00321,278080704.00000,  -0.00163,  -0.00127,  -0.00093,  64.00000,   2.00000
-508173339.72713,-296741603.36903,-105019777.67566,  -0.00338,  -0.00163,  -0.00230,481335520.00000,   0.00322,278092768.00000,  -0.00164,  -0.00127,  -0.00094,  96.00000,   2.00000
-507898414.97803,-298151397.81683,-105155192.74546,  -0.00339,  -0.00164,  -0.00232,481358816.00000,   0.00323,278104864.00000,  -0.00166,  -0.00128,  -0.00095, -96.00000,   2.00000
-507615511.99975,-299566924.81012,-105290560.19190,  -0.00339,  -0.00165,  -0.00233,481367424.00000,   0.00325,278116928.00000,  -0.00167,  -0.00128,  -0.00096,  96.00000,   2.00000
-507334083.39396,-300970753.24016,-105417231.70929,  -0.00340,  -0.00166,  -0.00234,481381120.00000,   0.00326,278128992.00000,  -0.00168,  -0.00128,  -0.00097,   0.00000,   2.00000
-507043974.10337,-302377315.70514,-105544775.27974,  -0.00341,  -0.00167,  -0.00235,481415104.00000,   0.00327,278141088.00000,  -0.00169,  -0.00128,  -0.00098,  32.00000,   2.00000
-506745598.48515,-303789552.10256,-105672080.57726,  -0.00342,  -0.00168,  -0.00236,481424096.00000,   0.00328,278153184.00000,  -0.00170,  -0.00128,  -0.00099,  96.00000,   2.00000
-506444402.16724,-305168167.10770,-105799537.07771,  -0.00342,  -0.00168,  -0.00238,481431264.00000,   0.00329,278165248.00000,  -0.00172,  -0.00128,  -0.00100,   0.00000,   2.00000
-506134501.38345,-306572257.15201,-105923868.86481,  -0.00343,  -0.00169,  -0.00239,481451168.00000,   0.00330,278177280.00000,  -0.00173,  -0.00129,  -0.00101,  32.00000,   2.00000
-505821686.50299,-307962521.22633,-106045549.25184,  -0.00344,  -0.00170,  -0.00240,481469152.00000,   0.00332,278189376.00000,  -0.00174,  -0.00129,  -0.00102,  96.00000,   2.00000
-505505885.28784,-309339098.74287,-106164527.62021,  -0.00345,  -0.00171,  -0.00241,481487008.00000,   0.00333,278201440.00000,  -0.00175,  -0.00129,  -0.00103,  96.00000,   2.00000
-505181916.10283,-310722119.36732,-106283091.47428,  -0.00345,  -0.00172,  -0.00243,481495552.00000,   0.00334,278213504.00000,  -0.00176,  -0.00129,  -0.00104,  96.00000,   2.00000
-504845375.99841,-312089702.42620,-106410167.61353,  -0.00346,  -0.00173,  -0.00244,481497536.00000,   0.00335,278225472.00000,  -0.00177,  -0.00129,  -0.00106,  96.00000,   2.00000
-504510636.99857,-313466213.01847,-106525475.10346,  -0.00347,  -0.00174,  -0.00245,481521312.00000,   0.00336,278237504.00000,  -0.00179,  -0.00130,  -0.00107,  32.00000,   2.00000
-504168407.14475,-314826972.65152,-106644152.03362,  -0.00348,  -0.00175,  -0.00246,481543200.00000,   0.00337,278249568.00000,  -0.00180,  -0.00130,  -0.00108,   0.00000,   2.00000
-503823091.51534,-316197717.55789,-106756170.20660,  -0.00348,  -0.00176,  -0.00248,481546272.00000,   0.00338,278261568.00000,  -0.00181,  -0.00130,  -0.00109, -32.00000,   2.00000
-503470561.12172,-317553112.01699,-106871567.30025,  -0.00349,  -0.00177,  -0.00249,481567712.00000,   0.00340,278273600.00000,  -0.00182,  -0.00130,  -0.00110,  64.00000,   2.00000
-503115959.56933,-318900125.18275,-106983289.71850,  -0.00350,  -0.00177,  -0.00250,481558848.00000,   0.00341,278285568.00000,  -0.00183,  -0.00130,  -0.00111,   0.00000,   2.00000
-502753278.57307,-320250970.51139,-107095380.05247,  -0.00351,  -0.00178,  -0.00251,481591520.00000,   0.00342,278297568.00000,  -0.00184,  -0.00131,  -0.00112,  32.00000,   2.00000
-502382630.99718,-321609651.11504,-107206905.15656,  -0.00351,  -0.00179,  -0.00252,481598880.00000,   0.00343,278309568.00000,  -0.00186,  -0.00131,  -0.00113,  32.00000,   2.00000
-502015140.36398,-322959508.04885,-107309636.43685,  -0.00352,  -0.00180,  -0.00254,481609600.00000,   0.00344,278321568.00000,  -0.00187,  -0.00131,  -0.00114,  64.00000,   2.00000
-501634492.42355,-324314433.45153,-107417901.49682,  -0.00353,  -0.00181,  -0.00255,481621664.00000,   0.00345,278333536.00000,  -0.00188,  -0.00131,  -0.00115,  96.00000,   2.00000
-501253208.35169,-325639348.85786,-107526574.70210,  -0.00354,  -0.00182,  -0.00256,481624896.00000,   0.00346,278345472.00000,  -0.00189,  -0.00132,  -0.00116,   0.00000,   2.00000
-500862721.76023,-326991148.05281,-107631638.85247,  -0.00354,  -0.00183,  -0.00257,481643584.00000,   0.00348,278357440.00000,  -0.00190,  -0.00132,  -0.00117, -32.00000,   2.00000
-500475800.55388,-328334768.31342,-107728095.34581,  -0.00355,  -0.00184,  -0.00259,481653344.00000,   0.00349,278369376.00000,  -0.00191,  -0.00132,  -0.00119,  96.00000,   2.00000
-500076769.38368,-329665345.21486,-107833268.40313,  -0.00356,  -0.00185,  -0.00260,481652928.00000,   0.00350,278381280.00000,  -0.00192,  -0.00132,  -0.00120,  32.00000,   2.00000
-499675025.58386,-331003214.29112,-107932838.29810,  -0.00356,  -0.00186,  -0.00261,481679360.00000,   0.00351,278393248.00000,  -0.00194,  -0.00133,  -0.00121,  32.00000,   2.00000
-499266304.09943,-332331259.50283,-108035152.69990,  -0.00357,  -0.00187,  -0.00262,481673792.00000,   0.00352,278405120.00000,  -0.00195,  -0.00133,  -0.00122,  96.00000,   2.00000
-498849285.24497,-333667766.47459,-108137093.83024,  -0.00358,  -0.00188,  -0.00264,481680160.00000,   0.00353,278416992.00000,  -0.00196,  -0.00133,  -0.00123,  32.00000,   2.00000
-498441410.42632,-334994934.62839,-108225500.54531,  -0.00358,  -0.00189,  -0.00265,481709088.00000,   0.00355,278428928.00000,  -0.00197,  -0.00134,  -0.00124, -32.00000,   2.00000
-498015976.54686,-336310714.31498,-108328137.23633,  -0.00359,  -0.00190,  -0.00266,481688320.00000,   0.00356,278440704.00000,  -0.00198,  -0.00134,  -0.00125,   0.00000,   2.00000
-497587568.68270,-337633310.91283,-108425331.58141,  -0.00360,  -0.00191,  -0.00267,481714592.00000,   0.00357,278452576.00000,  -0.00199,  -0.00134,  -0.00126,  32.00000,   2.00000
-497156059.77605,-338962399.98764,-108517130.37572,  -0.00360,  -0.00192,  -0.00269,481740992.00000,   0.00358,278464480.00000,  -0.00200,  -0.00134,  -0.00127, -32.00000,   2.00000
-496724302.50148,-340266998.87920,-108609359.41816,  -0.00361,  -0.00193,  -0.00270,481717664.00000,   0.00359,278476256.00000,  -0.00201,  -0.00135,  -0.00129, -32.00000,   2.00000
-496276876.23140,-341593887.51060,-108704236.40507,  -0.00362,  -0.00194,  -0.00271,481741920.00000,   0.00360,278488064.00000,  -0.00202,  -0.00135,  -0.00130,   0.00000,   2.00000
-495829639.20265,-342891267.67890,-108800461.76653,  -0.00362,  -0.00195,  -0.00272,481743488.00000,   0.00361,278499840.00000,  -0.00204,  -0.00135,  -0.00131, -32.00000,   2.00000
-495376786.50706,-344216876.27491,-108887349.86085,  -0.00363,  -0.00196,  -0.00273,481757984.00000,   0.00362,278511616.00000,  -0.00205,  -0.00136,  -0.00132, -32.00000,   2.00000
-494919038.79715,-345509432.64527,-108981783.45610,  -0.00364,  -0.00197,  -0.00275,481764832.00000,   0.00364,278523392.00000,  -0.00206,  -0.00136,  -0.00133,  96.00000,   2.00000
-494451882.41523,-346808754.92568,-109076213.32907,  -0.00364,  -0.00198,  -0.00276,481772224.00000,   0.00365,278535136.00000,  -0.00207,  -0.00136,  -0.00134, -96.00000,   2.00000
-493988427.58290,-348098897.26629,-109162940.39031,  -0.00365,  -0.00199,  -0.00277,481781536.00000,   0.00366,278546848.00000,  -0.00208,  -0.00137,  -0.00135, -32.00000,   2.00000
-493515456.94561,-349395336.52612,-109249791.47776,  -0.00365,  -0.00200,  -0.00278,481789376.00000,   0.00367,278558560.00000,  -0.00209,  -0.00137,  -0.00136, -64.00000,   2.00000
-493027924.17789,-350694480.44259,-109342810.01713,  -0.00366,  -0.00201,  -0.00280,481802528.00000,   0.00368,278570272.00000,  -0.00210,  -0.00137,  -0.00138, 128.00000,   2.00000
-492545487.84789,-351966207.59301,-109431485.19735,  -0.00367,  -0.00202,  -0.00281,481799776.00000,   0.00369,278581888.00000,  -0.00211,  -0.00138,  -0.00139,  32.00000,   2.00000
-492059551.28736,-353241697.88408,-109515201.00654,  -0.00367,  -0.00203,  -0.00282,481827616.00000,   0.00370,278593600.00000,  -0.00212,  -0.00138,  -0.00140, -32.00000,   2.00000
-491557636.52847,-354524405.71859,-109604210.76002,  -0.00368,  -0.00204,  -0.00283,481817056.00000,   0.00371,278605216.00000,  -0.00213,  -0.00138,  -0.00141, -64.00000,   2.00000
-491057277.87467,-355770800.71164,-109695942.73215,  -0.00368,  -0.00205,  -0.00285,481843968.00000,   0.00373,278616864.00000,  -0.00214,  -0.00139,  -0.00142, -32.00000,   2.00000
-490543746.00394,-357044479.12929,-109783433.77294,  -0.00369,  -0.00206,  -0.00286,481841920.00000,   0.00374,278628448.00000,  -0.00215,  -0.00139,  -0.00143,  32.00000,   2.00000
-490035868.83568,-358290488.67970,-109866820.84690,  -0.00370,  -0.00207,  -0.00287,481839616.00000,   0.00375,278640000.00000,  -0.00216,  -0.00139,  -0.00144,  64.00000,   2.00000
-489512731.57350,-359537551.22267,-109956254.32949,  -0.00370,  -0.00208,  -0.00288,481854464.00000,   0.00376,278651520.00000,  -0.00218,  -0.00140,  -0.00145,  64.00000,   2.00000
-488985786.57445,-360786633.13732,-110040556.82998,  -0.00371,  -0.00209,  -0.00289,481883840.00000,   0.00377,278663136.00000,  -0.00219,  -0.00140,  -0.00146,   0.00000,   2.00000
-488450992.62417,-362023279.68738,-110128358.86535,  -0.00371,  -0.00210,  -0.00291,481880832.00000,   0.00378,278674656.00000,  -0.00220,  -0.00141,  -0.00148,   0.00000,   2.00000
-487919908.92784,-363248757.57869,-110208529.19394,  -0.00372,  -0.00211,  -0.00292,481892256.00000,   0.00379,278686176.00000,  -0.00221,  -0.00141,  -0.00149,  64.00000,   2.00000
-487378526.29234,-364478165.13607,-110288603.88491,  -0.00372,  -0.00212,  -0.00293,481903040.00000,   0.00380,278697664.00000,  -0.00222,  -0.00141,  -0.00150,  32.00000,   2.00000
-486824276.74304,-365691634.56509,-110378094.03614,  -0.00373,  -0.00213,  -0.00294,481905600.00000,   0.00381,278709120.00000,  -0.00223,  -0.00142,  -0.00151,  32.00000,   2.00000
-486274048.46213,-366894030.57538,-110459871.92247,  -0.00373,  -0.00214,  -0.00296,481917344.00000,   0.00383,278720576.00000,  -0.00224,  -0.00142,  -0.00152, 192.00000,   2.00000
-485713339.28163,-368100166.71727,-110541331.09259,  -0.00374,  -0.00215,  -0.00297,481928800.00000,   0.00384,278732032.00000,  -0.00225,  -0.00143,  -0.00153,  32.00000,   2.00000
-485144903.35545,-369294143.65689,-110626080.65713,  -0.00374,  -0.00217,  -0.00298,481926592.00000,   0.00385,278743392.00000,  -0.00226,  -0.00143,  -0.00154,   0.00000,   2.00000
-484578080.79667,-370493064.85260,-110699398.01377,  -0.00375,  -0.00218,  -0.00299,481952064.00000,   0.00386,278754816.00000,  -0.00227,  -0.00144,  -0.00155,  32.00000,   2.00000
-483998405.61651,-371676247.78446,-110781918.65549,  -0.00376,  -0.00219,  -0.00300,481955264.00000,   0.00387,278766176.00000,  -0.00228,  -0.00144,  -0.00156, -64.00000,   2.00000
-483423215.18878,-372848776.28854,-110856608.96442,  -0.00376,  -0.00220,  -0.00302,481967232.00000,   0.00388,278777536.00000,  -0.00229,  -0.00144,  -0.00158,  32.00000,   2.00000
-482825642.45621,-374024309.17358,-110941765.78107,  -0.00377,  -0.00221,  -0.00303,481965504.00000,   0.00389,278788864.00000,  -0.00230,  -0.00145,  -0.00159,   0.00000,   2.00000
-482239597.46520,-375186537.94214,-111013912.89474,  -0.00377,  -0.00222,  -0.00304,481996512.00000,   0.00390,278800224.00000,  -0.00231,  -0.00145,  -0.00160,   0.00000,   2.00000
-481639008.04791,-376340358.49776,-111094205.68870,  -0.00377,  -0.00223,  -0.00305,481975904.00000,   0.00391,278811456.00000,  -0.00232,  -0.00146,  -0.00161,  32.00000,   2.00000
-481035214.40997,-377495647.06490,-111168713.02066,  -0.00378,  -0.00224,  -0.00307,482007040.00000,   0.00392,278822752.00000,  -0.00233,  -0.00146,  -0.00162,   0.00000,   2.00000
-480429032.85658,-378643820.29902,-111240266.19711,  -0.00378,  -0.00225,  -0.00308,482000288.00000,   0.00394,278833984.00000,  -0.00234,  -0.00147,  -0.00163,  64.00000,   2.00000
-479814765.93412,-379789789.01044,-111311968.15349,  -0.00379,  -0.00226,  -0.00309,482036736.00000,   0.00395,278845280.00000,  -0.00235,  -0.00147,  -0.00164,  96.00000,   2.00000
-479200957.06829,-380913864.98314,-111384433.00507,  -0.00379,  -0.00227,  -0.00310,482015776.00000,   0.00396,278856480.00000,  -0.00236,  -0.00148,  -0.00165,   0.00000,   2.00000
-478573897.25958,-382057817.15293,-111452187.62771,  -0.00380,  -0.00229,  -0.00311,482042592.00000,   0.00397,278867712.00000,  -0.00237,  -0.00148,  -0.00166, -32.00000,   2.00000
-477942476.94059,-383176662.29061,-111526685.19154,  -0.00380,  -0.00230,  -0.00313,482026560.00000,   0.00398,278878816.00000,  -0.00238,  -0.00149,  -0.00168,  64.00000,   2.00000
-477308168.07128,-384297497.53210,-111595151.29869,  -0.00381,  -0.00231,  -0.00314,482057856.00000,   0.00399,278889984.00000,  -0.00238,  -0.00149,  -0.00169,  32.00000,   2.00000
-476671572.35251,-385412557.99446,-111660526.58585,  -0.00381,  -0.00232,  -0.00315,482050912.00000,   0.00400,278901120.00000,  -0.00239,  -0.00150,  -0.00170,  96.00000,   2.00000
-476032128.81989,-386529702.07197,-111719852.88788,  -0.00382,  -0.00233,  -0.00316,482082144.00000,   0.00401,278912288.00000,  -0.00240,  -0.00150,  -0.00171,  64.00000,   2.00000
-475372692.56739,-387636678.66813,-111792964.18557,  -0.00382,  -0.00234,  -0.00317,482066976.00000,   0.00402,278923360.00000,  -0.00241,  -0.00151,  -0.00172,   0.00000,   2.00000
-474728152.55065,-388750508.70627,-111842990.84894,  -0.00382,  -0.00235,  -0.00318,482106400.00000,   0.00403,278934496.00000,  -0.00242,  -0.00151,  -0.00173,   0.00000,   2.00000
-474066802.01041,-389840199.34103,-111910812.19524,  -0.00383,  -0.00236,  -0.00320,482076352.00000,   0.00404,278945536.00000,  -0.00243,  -0.00152,  -0.00174, 128.00000,   2.00000
-473407641.31341,-390936234.70212,-111966455.52073,  -0.00383,  -0.00238,  -0.00321,482102400.00000,   0.00405,278956576.00000,  -0.00244,  -0.00152,  -0.00175, 128.00000,   2.00000
-472733119.11008,-392034060.11233,-112026896.43756,  -0.00384,  -0.00239,  -0.00322,482120032.00000,   0.00407,278967648.00000,  -0.00245,  -0.00153,  -0.00176, 256.00000,   2.00000
-472059120.72858,-393112836.86830,-112088048.32498,  -0.00384,  -0.00240,  -0.00323,482098080.00000,   0.00408,278978592.00000,  -0.00246,  -0.00153,  -0.00178, -32.00000,   2.00000
-471379682.27223,-394201718.97062,-112142057.45738,  -0.00384,  -0.00241,  -0.00324,482105248.00000,   0.00409,278989536.00000,  -0.00247,  -0.00154,  -0.00179,  96.00000,   2.00000
-470692722.67612,-395289125.76799,-112195770.70929,  -0.00385,  -0.00242,  -0.00326,482141216.00000,   0.00410,279000544.00000,  -0.00248,  -0.00154,  -0.00180,  64.00000,   2.00000
-470003220.29034,-396372311.78092,-112246292.84150,  -0.00385,  -0.00243,  -0.00327,482133664.00000,   0.00411,279011488.00000,  -0.00249,  -0.00155,  -0.00181,  96.00000,   2.00000
-469314565.43923,-397444189.89873,-112294666.96498,  -0.00385,  -0.00245,  -0.00328,482149376.00000,   0.00412,279022432.00000,  -0.00249,  -0.00155,  -0.00182,  64.00000,   2.00000
-468610131.08052,-398511520.82002,-112350787.52012,  -0.00386,  -0.00246,  -0.00329,482128704.00000,   0.00413,279033280.00000,  -0.00250,  -0.00156,  -0.00183,  64.00000,   2.00000
-467908233.90822,-399585672.44072,-112394717.72858,  -0.00386,  -0.00247,  -0.00330,482154112.00000,   0.00414,279044160.00000,  -0.00251,  -0.00156,  -0.00184, 128.00000,   2.00000
-467207301.65074,-400648743.78125,-112436578.63711,  -0.00386,  -0.00248,  -0.00331,482169600.00000,   0.00415,279055072.00000,  -0.00252,  -0.00157,  -0.00185,  64.00000,   2.00000
-466490398.67762,-401707637.10523,-112486262.74994,  -0.00387,  -0.00249,  -0.00333,482148928.00000,   0.00416,279065856.00000,  -0.00253,  -0.00157,  -0.00186,   0.00000,   2.00000
-465771219.48176,-402769283.42684,-112529711.88679,  -0.00387,  -0.00250,  -0.00334,482179616.00000,   0.00417,279076704.00000,  -0.00254,  -0.00158,  -0.00187, -32.00000,   2.00000
-465049446.28658,-403827642.40575,-112570132.17820,  -0.00387,  -0.00252,  -0.00335,482172000.00000,   0.00418,279087488.00000,  -0.00255,  -0.00159,  -0.00189,  64.00000,   2.00000
-464320098.21997,-404878697.32105,-112613443.84880,  -0.00388,  -0.00253,  -0.00336,482169728.00000,   0.00419,279098208.00000,  -0.00255,  -0.00159,  -0.00190, -32.00000,   2.00000
-463579798.73350,-405936061.45045,-112655432.04952,  -0.00388,  -0.00254,  -0.00337,482182688.00000,   0.00420,279108928.00000,  -0.00256,  -0.00160,  -0.00191,  96.00000,   2.00000
-462845422.05165,-406987007.95194,-112689397.06808,  -0.00388,  -0.00255,  -0.00338,482193312.00000,   0.00421,279119648.00000,  -0.00257,  -0.00160,  -0.00192,  96.00000,   2.00000
-462103238.33388,-408031086.18465,-112726210.88352,  -0.00389,  -0.00256,  -0.00339,482191136.00000,   0.00422,279130336.00000,  -0.00258,  -0.00161,  -0.00193, 128.00000,   2.00000
-461349602.33260,-409081646.70388,-112761531.59083,  -0.00389,  -0.00258,  -0.00341,482204064.00000,   0.00423,279141024.00000,  -0.00259,  -0.00161,  -0.00194,  96.00000,   2.00000
-460601605.21403,-410126216.91396,-112788737.48937,  -0.00389,  -0.00259,  -0.00342,482214080.00000,   0.00424,279151680.00000,  -0.00260,  -0.00162,  -0.00195, 160.00000,   2.00000
-459840492.01661,-411160003.03389,-112824595.15677,  -0.00389,  -0.00260,  -0.00343,482216064.00000,   0.00425,279162336.00000,  -0.00260,  -0.00163,  -0.00196, 192.00000,   2.00000
-459071244.04417,-412198825.92369,-112856164.31930,  -0.00390,  -0.00261,  -0.00344,482184448.00000,   0.00426,279172832.00000,  -0.00261,  -0.00163,  -0.00197,  64.00000,   2.00000
-458303769.75691,-413232672.64880,-112882361.38250,  -0.00390,  -0.00262,  -0.00345,482235936.00000,   0.00427,279183488.00000,  -0.00262,  -0.00164,  -0.00198, 160.00000,   2.00000
-457523233.02998,-414266722.80713,-112910393.22213,  -0.00390,  -0.00264,  -0.00346,482208480.00000,   0.00428,279194016.00000,  -0.00263,  -0.00164,  -0.00199, 160.00000,   2.00000
-456740287.94705,-415302109.32957,-112932274.47121,  -0.00390,  -0.00265,  -0.00347,482236544.00000,   0.00430,279204576.00000,  -0.00264,  -0.00165,  -0.00201, 128.00000,   2.00000
-455944770.86670,-416337012.54935,-112956398.14003,  -0.00391,  -0.00266,  -0.00349,482209056.00000,   0.00431,279215040.00000,  -0.00264,  -0.00165,  -0.00202, 160.00000,   2.00000
-455150978.86924,-417359574.59382,-112979103.74084,  -0.00391,  -0.00267,  -0.00350,482222144.00000,   0.00432,279225536.00000,  -0.00265,  -0.00166,  -0.00203,  32.00000,   2.00000
-454359468.45716,-418369986.96299,-113000667.92423,  -0.00391,  -0.00268,  -0.00351,482236096.00000,   0.00433,279236000.00000,  -0.00266,  -0.00167,  -0.00204, -64.00000,   2.00000
-453547716.06145,-419388259.57016,-113026536.09052,  -0.00391,  -0.00270,  -0.00352,482232288.00000,   0.00434,279246432.00000,  -0.00267,  -0.00167,  -0.00205,  32.00000,   2.00000
-452742973.38922,-420398916.59195,-113045472.42491,  -0.00392,  -0.00271,  -0.00353,482244096.00000,   0.00435,279256832.00000,  -0.00268,  -0.00168,  -0.00206,   0.00000,   2.00000
-451935357.08710,-421406143.86113,-113062370.47457,  -0.00392,  -0.00272,  -0.00354,482239488.00000,   0.00436,279267200.00000,  -0.00268,  -0.00169,  -0.00207, -32.00000,   2.00000
-451114998.40117,-422401471.77754,-113088977.22526,  -0.00392,  -0.00273,  -0.00355,482246656.00000,   0.00437,279277504.00000,  -0.00269,  -0.00169,  -0.00208,  64.00000,   2.00000
-450291921.21671,-423410212.73187,-113102974.60152,  -0.00392,  -0.00275,  -0.00356,482255104.00000,   0.00438,279287808.00000,  -0.00270,  -0.00170,  -0.00209,  64.00000,   2.00000
-449454745.19636,-424406693.28587,-113126339.68515,  -0.00392,  -0.00276,  -0.00357,482263424.00000,   0.00439,279298048.00000,  -0.00271,  -0.00170,  -0.00210,   0.00000,   2.00000
-448618187.53292,-425407313.21481,-113137684.71407,  -0.00392,  -0.00277,  -0.00358,482294432.00000,   0.00440,279308352.00000,  -0.00271,  -0.00171,  -0.00211,-928.00000,   1.00000
-447777091.43926,-426389636.75185,-113157298.74322,  -0.00393,  -0.00278,  -0.00360,482279136.00000,   0.00441,279318592.00000,  -0.00272,  -0.00172,  -0.00212,   0.00000,   2.00000
-446926077.11595,-427379406.94118,-113169468.13487,  -0.00393,  -0.00280,  -0.00361,482292064.00000,   0.00442,279328800.00000,  -0.00273,  -0.00172,  -0.00213,   0.00000,   2.00000
-446064841.10057,-428360819.87615,-113184782.91232,  -0.00393,  -0.00281,  -0.00362,482291936.00000,   0.00443,279338944.00000,  -0.00273,  -0.00173,  -0.00215,  32.00000,   2.00000
-445194695.37247,-429350158.15854,-113192892.45055,  -0.00393,  -0.00282,  -0.00363,482301728.00000,   0.00444,279349120.00000,  -0.00274,  -0.00174,  -0.00216,  64.00000,   2.00000
-444320455.16867,-430322940.81472,-113205426.75871,  -0.00393,  -0.00283,  -0.00364,482322112.00000,   0.00445,279359328.00000,  -0.00275,  -0.00174,  -0.00217,  96.00000,   2.00000
-443445994.89010,-431296348.47103,-113209377.58234,  -0.00393,  -0.00285,  -0.00365,482308800.00000,   0.00446,279369440.00000,  -0.00276,  -0.00175,  -0.00218, -32.00000,   2.00000
-442551828.86537,-432265335.10044,-113221355.85713,  -0.00393,  -0.00286,  -0.00366,482288704.00000,   0.00447,279379456.00000,  -0.00276,  -0.00175,  -0.00219,  96.00000,   2.00000
-441665938.02415,-433230038.39000,-113222751.09591,  -0.00393,  -0.00287,  -0.00367,482336032.00000,   0.00448,279389600.00000,  -0.00277,  -0.00176,  -0.00220, 128.00000,   2.00000
-440760263.24295,-434190079.92482,-113232110.15245,  -0.00393,  -0.00288,  -0.00368,482316032.00000,   0.00449,279399648.00000,  -0.00278,  -0.00177,  -0.00221,  96.00000,   2.00000
-439854818.51234,-435150939.45535,-113232931.99299,  -0.00394,  -0.00290,  -0.00369,482302528.00000,   0.00449,279409632.00000,  -0.00278,  -0.00177,  -0.00222,  96.00000,   2.00000
-438946621.81797,-436095350.45158,-113238371.58448,  -0.00394,  -0.00291,  -0.00370,482321888.00000,   0.00450,279419648.00000,  -0.00279,  -0.00178,  -0.00223, 128.00000,   2.00000
-438019324.96025,-437050826.92897,-113241168.27150,  -0.00394,  -0.00292,  -0.00371,482314304.00000,   0.00451,279429600.00000,  -0.00280,  -0.00179,  -0.00224, 128.00000,   2.00000
-437098567.22466,-437998914.88731,-113236715.27942,  -0.00394,  -0.00293,  -0.00372,482323648.00000,   0.00452,279439552.00000,  -0.00280,  -0.00179,  -0.00225,   0.00000,   2.00000
-436164170.40886,-438934263.80205,-113241444.72827,  -0.00394,  -0.00295,  -0.00373,482327232.00000,   0.00453,279449472.00000,  -0.00281,  -0.00180,  -0.00226, 192.00000,   2.00000
-435225880.13790,-439881350.11932,-113232870.37200,  -0.00394,  -0.00296,  -0.00374,482332224.00000,   0.00454,279459392.00000,  -0.00282,  -0.00181,  -0.00227,  32.00000,   2.00000
-434289536.60328,-440816507.42666,-113222956.97157,  -0.00394,  -0.00297,  -0.00375,482347552.00000,   0.00455,279469312.00000,  -0.00282,  -0.00181,  -0.00228, -32.00000,   2.00000
-433332687.19079,-441747464.08313,-113220818.41105,  -0.00394,  -0.00299,  -0.00376,482329920.00000,   0.00456,279479136.00000,  -0.00283,  -0.00182,  -0.00229,  96.00000,   2.00000
-432382106.25105,-442671138.53276,-113211279.78886,  -0.00394,  -0.00300,  -0.00377,482340480.00000,   0.00457,279488992.00000,  -0.00284,  -0.00183,  -0.00230,   0.00000,   2.00000
-431407048.84310,-443601310.75163,-113204773.49992,  -0.00394,  -0.00301,  -0.00378,482340128.00000,   0.00458,279498784.00000,  -0.00284,  -0.00183,  -0.00231,  96.00000,   2.00000
-430442035.58067,-444514032.13254,-113195548.02711,  -0.00394,  -0.00302,  -0.00379,482333824.00000,   0.00459,279508512.00000,  -0.00285,  -0.00184,  -0.00232,  64.00000,   2.00000
-429460024.09455,-445439729.35952,-113180019.95294,  -0.00394,  -0.00304,  -0.00380,482367360.00000,   0.00460,279518336.00000,  -0.00285,  -0.00185,  -0.00233,  64.00000,   2.00000
-428476380.96004,-446352004.02594,-113166293.57772,  -0.00394,  -0.00305,  -0.00381,482344608.00000,   0.00461,279528032.00000,  -0.00286,  -0.00186,  -0.00234,  64.00000,   2.00000
-427483005.17291,-447256781.27789,-113155594.30655,  -0.00394,  -0.00306,  -0.00382,482344096.00000,   0.00462,279537728.00000,  -0.00287,  -0.00186,  -0.00235,  64.00000,   2.00000
-426492400.00341,-448165179.18963,-113132766.85907,  -0.00394,  -0.00308,  -0.00383,482371904.00000,   0.00463,279547456.00000,  -0.00287,  -0.00187,  -0.00236,  64.00000,   2.00000
-425479912.81065,-449069749.53724,-113117353.24074,  -0.00394,  -0.00309,  -0.00384,482355264.00000,   0.00464,279557088.00000,  -0.00288,  -0.00188,  -0.00237,  64.00000,   2.00000
-424470298.71977,-449977940.82165,-113089773.52191,  -0.00394,  -0.00310,  -0.00385,482383104.00000,   0.00465,279566784.00000,  -0.00288,  -0.00188,  -0.00238,   0.00000,   2.00000
-423442211.04875,-450872500.96148,-113074282.79688,  -0.00394,  -0.00312,  -0.00386,482349184.00000,   0.00466,279576352.00000,  -0.00289,  -0.00189,  -0.00239,  96.00000,   2.00000
-422416839.62924,-451770543.38997,-113046486.71500,  -0.00394,  -0.00313,  -0.00387,482377088.00000,   0.00467,279585952.00000,  -0.00290,  -0.00190,  -0.00240, -32.00000,   2.00000
-421385832.98167,-452666196.89878,-113015664.69760,  -0.00394,  -0.00314,  -0.00388,482371264.00000,   0.00468,279595520.00000,  -0.00290,  -0.00190,  -0.00241, -64.00000,   2.00000
-420340997.60341,-453564229.02901,-112982867.15961,  -0.00393,  -0.00316,  -0.00389,482388320.00000,   0.00469,279605120.00000,  -0.00291,  -0.00191,  -0.00242, -32.00000,   2.00000
-419285958.74230,-454454950.54969,-112952840.73141,  -0.00393,  -0.00317,  -0.00390,482387872.00000,   0.00470,279614656.00000,  -0.00291,  -0.00192,  -0.00243,   0.00000,   2.00000
-418241122.39417,-455330142.29883,-112920088.89354,  -0.00393,  -0.00318,  -0.00391,482380448.00000,   0.00470,279624160.00000,  -0.00292,  -0.00193,  -0.00244,  96.00000,   2.00000
-417170551.22147,-456225570.94749,-112878821.44794,  -0.00393,  -0.00320,  -0.00392,482394016.00000,   0.00471,279633664.00000,  -0.00292,  -0.00193,  -0.00245,  32.00000,   2.00000
-416093232.86507,-457104353.66948,-112845068.18576,  -0.00393,  -0.00321,  -0.00393,482375872.00000,   0.00472,279643104.00000,  -0.00293,  -0.00194,  -0.00246,   0.00000,   2.00000
-415022533.74597,-457977240.46048,-112803689.88554,  -0.00393,  -0.00322,  -0.00394,482385824.00000,   0.00473,279652512.00000,  -0.00293,  -0.00195,  -0.00247,   0.00000,   2.00000
-413937964.22595,-458852398.22629,-112760107.07221,  -0.00393,  -0.00324,  -0.00395,482402976.00000,   0.00474,279661984.00000,  -0.00294,  -0.00195,  -0.00248,  32.00000,   2.00000
-412834181.96655,-459728619.07539,-112717418.73374,  -0.00393,  -0.00325,  -0.00396,482381600.00000,   0.00475,279671328.00000,  -0.00294,  -0.00196,  -0.00249, -32.00000,   2.00000
-411729447.17993,-460603264.21583,-112668114.85442,  -0.00392,  -0.00326,  -0.00396,482414496.00000,   0.00476,279680768.00000,  -0.00295,  -0.00197,  -0.00250, -64.00000,   2.00000
-410621912.63875,-461466461.55928,-112620296.49148,  -0.00392,  -0.00328,  -0.00397,482390976.00000,   0.00477,279690080.00000,  -0.00295,  -0.00198,  -0.00251,   0.00000,   2.00000
-409504587.72032,-462336387.07136,-112564165.24819,  -0.00392,  -0.00329,  -0.00398,482403264.00000,   0.00478,279699424.00000,  -0.00296,  -0.00198,  -0.00252,  32.00000,   2.00000
-408376596.77924,-463198967.28776,-112510505.86359,  -0.00392,  -0.00330,  -0.00399,482402880.00000,   0.00479,279708736.00000,  -0.00296,  -0.00199,  -0.00253,   0.00000,   2.00000
-407238699.97122,-464067942.82793,-112448450.56620,  -0.00392,  -0.00332,  -0.00400,482415360.00000,   0.00480,279718048.00000,  -0.00297,  -0.00200,  -0.00254,  32.00000,   2.00000
