# sigma_xx, sigma_yy, sigma_xy, epsilon_xx, epsilon_yy, epsilon_xy, vonMises, epsPlastic, hardening, epsilonP__xx, epsilonP__yy, epsilonP__xy, yieldValue, iteration
   0.00000,   0.00000,   0.00000,   0.00000,   0.00000,   0.00000,   0.00000,   0.00000,274640135.82653,   0.00000,   0.00000,   0.00000,-474640135.82653,   0.00000
   0.00000,   0.00000,   0.00000,   0.00000,   0.00000,   0.00000,   0.00000,   0.00000,274640135.82653,   0.00000,   0.00000,   0.00000,-474640135.82653,   0.00000
4821801.33976,2660741.50731,-852248.94801,   0.00002,   0.00000,  -0.00001,4436071.61487,   0.00000,274640135.82653,   0.00000,   0.00000,   0.00000,-470204064.21166,   0.00000
9651212.04512,5339238.20104,-1699424.98561,   0.00003,   0.00001,  -0.00002,8876225.22893,   0.00000,274640135.82653,   0.00000,   0.00000,   0.00000,-465763910.59760,   0.00000
14455258.19846,7992370.34275,-2546601.02321,   0.00005,   0.00001,  -0.00003,13294969.97634,   0.00000,274640135.82653,   0.00000,   0.00000,   0.00000,-461345165.85019,   0.00000
19249158.53099,10655648.30527,-3398849.97121,   0.00007,   0.00001,  -0.00004,17709241.22763,   0.00000,274640135.82653,   0.00000,   0.00000,   0.00000,-456930894.59890,   0.00000
24025303.67710,13311316.90218,-4246026.00881,   0.00008,   0.00001,  -0.00006,22106201.71202,   0.00000,274640135.82653,   0.00000,   0.00000,   0.00000,-452533934.11451,   0.00000
28783693.63679,15959376.13348,-5093202.04641,   0.00010,   0.00002,  -0.00007,26488771.84663,   0.00000,274640135.82653,   0.00000,   0.00000,   0.00000,-448151363.97990,   0.00000
33542083.59649,18607435.36478,-5935305.17361,   0.00012,   0.00002,  -0.00008,30868420.96445,   0.00000,274640135.82653,   0.00000,   0.00000,   0.00000,-443771714.86208,   0.00000
38282718.36977,21247885.23048,-6782481.21121,   0.00013,   0.00002,  -0.00009,35236607.39141,   0.00000,274640135.82653,   0.00000,   0.00000,   0.00000,-439403528.43512,   0.00000
43013207.32224,23898480.91698,-7629657.24881,   0.00015,   0.00002,  -0.00010,39597450.53813,   0.00000,274640135.82653,   0.00000,   0.00000,   0.00000,-435042685.28840,   0.00000
47718331.72268,26523712.05146,-8471760.37600,   0.00017,   0.00003,  -0.00011,43933943.19660,   0.00000,274640135.82653,   0.00000,   0.00000,   0.00000,-430706192.62993,   0.00000
52405700.93671,29141333.82033,-9318936.41360,   0.00018,   0.00003,  -0.00012,48258994.29177,   0.00000,274640135.82653,   0.00000,   0.00000,   0.00000,-426381141.53476,   0.00000
57082924.32993,31769101.41002,-10161039.54080,   0.00020,   0.00003,  -0.00013,52573786.39862,   0.00000,274640135.82653,   0.00000,   0.00000,   0.00000,-422066349.42791,   0.00000
61760147.72315,34396868.99970,-11003142.66800,   0.00021,   0.00004,  -0.00014,56888594.45310,   0.00000,274640135.82653,   0.00000,   0.00000,   0.00000,-417751541.37343,   0.00000
66419615.92995,37017027.22377,-11845245.79519,   0.00023,   0.00004,  -0.00015,61189039.03104,   0.00000,274640135.82653,   0.00000,   0.00000,   0.00000,-413451096.79549,   0.00000
71061328.95034,39629576.08224,-12687348.92239,   0.00025,   0.00004,  -0.00016,65475124.27280,   0.00000,274640135.82653,   0.00000,   0.00000,   0.00000,-409165011.55373,   0.00000
75685286.78431,42234515.57510,-13529452.04958,   0.00026,   0.00004,  -0.00018,69746854.66940,   0.00000,274640135.82653,   0.00000,   0.00000,   0.00000,-404893281.15713,   0.00000
80291489.43186,44831845.70236,-14366482.26637,   0.00028,   0.00005,  -0.00019,74001279.96849,   0.00000,274640135.82653,   0.00000,   0.00000,   0.00000,-400638855.85804,   0.00000
84879936.89299,47421566.46400,-15208585.39357,   0.00029,   0.00005,  -0.00020,78244311.56990,   0.00000,274640135.82653,   0.00000,   0.00000,   0.00000,-396395824.25663,   0.00000
89475993.71974,50029042.41207,-16045615.61036,   0.00031,   0.00005,  -0.00021,82491488.00381,   0.00000,274640135.82653,   0.00000,   0.00000,   0.00000,-392148647.82272,   0.00000
94028930.80804,52603544.44250,-16882645.82715,   0.00033,   0.00006,  -0.00022,86702876.92199,   0.00000,274640135.82653,   0.00000,   0.00000,   0.00000,-387937258.90453,   0.00000
98589477.26195,55195801.65935,-17719676.04394,   0.00034,   0.00006,  -0.00023,90921378.52155,   0.00000,274640135.82653,   0.00000,   0.00000,   0.00000,-383718757.30498,   0.00000
103132268.52944,57780449.51059,-18556706.26073,   0.00036,   0.00006,  -0.00024,95125550.53579,   0.00000,274640135.82653,   0.00000,   0.00000,   0.00000,-379514585.29074,   0.00000
107657304.61051,60357487.99623,-19393736.47752,   0.00037,   0.00006,  -0.00025,99315397.42738,   0.00000,274640135.82653,   0.00000,   0.00000,   0.00000,-375324738.39914,   0.00000
112156976.13957,62909161.92984,-20230766.69431,   0.00039,   0.00007,  -0.00026,103483816.80765,   0.00000,274640135.82653,   0.00000,   0.00000,   0.00000,-371156319.01888,   0.00000
116646501.84781,65470981.68426,-21062724.00070,   0.00040,   0.00007,  -0.00027,107642045.11718,   0.00000,274640135.82653,   0.00000,   0.00000,   0.00000,-366998090.70935,   0.00000
121125881.73524,68042947.25949,-21899754.21749,   0.00042,   0.00007,  -0.00028,111796053.68521,   0.00000,274640135.82653,   0.00000,   0.00000,   0.00000,-362844082.14132,   0.00000
125579897.07065,70589548.28269,-22731711.52388,   0.00043,   0.00008,  -0.00030,115925660.63577,   0.00000,274640135.82653,   0.00000,   0.00000,   0.00000,-358714475.19076,   0.00000
130033912.40606,73136149.30590,-23563668.83026,   0.00045,   0.00008,  -0.00031,120055297.86139,   0.00000,274640135.82653,   0.00000,   0.00000,   0.00000,-354584837.96514,   0.00000
134460026.73424,75685286.78431,-24395626.13665,   0.00046,   0.00008,  -0.00032,124163422.40928,   0.00000,274640135.82653,   0.00000,   0.00000,   0.00000,-350476713.41725,   0.00000
138878531.69681,78216669.07630,-25227583.44304,   0.00048,   0.00009,  -0.00033,128264455.83734,   0.00000,274640135.82653,   0.00000,   0.00000,   0.00000,-346375679.98919,   0.00000
143269135.65216,80750587.82349,-26059540.74942,   0.00049,   0.00009,  -0.00034,132344001.51005,   0.00000,274640135.82653,   0.00000,   0.00000,   0.00000,-342296134.31647,   0.00000
147659739.60751,83284506.57069,-26886425.14540,   0.00051,   0.00009,  -0.00035,136420595.04859,   0.00000,274640135.82653,   0.00000,   0.00000,   0.00000,-338219540.77794,   0.00000
152007223.82442,85785451.40025,-27718382.45179,   0.00052,   0.00009,  -0.00036,140464435.47071,   0.00000,274640135.82653,   0.00000,   0.00000,   0.00000,-334175700.35582,   0.00000
156362317.40693,88304151.41623,-28545266.84777,   0.00054,   0.00010,  -0.00037,144512464.81997,   0.00000,274640135.82653,   0.00000,   0.00000,   0.00000,-330127671.00656,   0.00000
160699655.80303,90815242.06660,-29372151.24375,   0.00055,   0.00010,  -0.00038,148546219.17475,   0.00000,274640135.82653,   0.00000,   0.00000,   0.00000,-326093916.65178,   0.00000
165026848.37832,93336478.53778,-30199035.63973,   0.00057,   0.00010,  -0.00039,152572865.47877,   0.00000,274640135.82653,   0.00000,   0.00000,   0.00000,-322067270.34776,   0.00000
169310921.21516,95824741.09134,-31025920.03571,   0.00058,   0.00011,  -0.00040,156563779.33851,   0.00000,274640135.82653,   0.00000,   0.00000,   0.00000,-318076356.48802,   0.00000
173594994.05201,98313003.64489,-31852804.43169,   0.00060,   0.00011,  -0.00041,160554747.08996,   0.00000,274640135.82653,   0.00000,   0.00000,   0.00000,-314085388.73657,   0.00000
177861311.70244,100793656.83283,-32674615.91727,   0.00061,   0.00011,  -0.00042,164528438.32815,   0.00000,274640135.82653,   0.00000,   0.00000,   0.00000,-310111697.49838,   0.00000
182117483.53206,103284455.84158,-33501500.31325,   0.00063,   0.00011,  -0.00044,168498080.13865,   0.00000,274640135.82653,   0.00000,   0.00000,   0.00000,-306142055.68787,   0.00000
186355900.17527,105767645.48473,-34323311.79883,   0.00064,   0.00012,  -0.00045,172450458.90432,   0.00000,274640135.82653,   0.00000,   0.00000,   0.00000,-302189676.92221,   0.00000
190568952.26645,108225470.57585,-35150196.19481,   0.00066,   0.00012,  -0.00046,176384444.86608,   0.00000,274640135.82653,   0.00000,   0.00000,   0.00000,-298255690.96045,   0.00000
194771858.53682,110693441.48778,-35972007.68039,   0.00067,   0.00012,  -0.00047,180308356.84892,   0.00000,274640135.82653,   0.00000,   0.00000,   0.00000,-294331778.97761,   0.00000
198957009.62077,113153803.03411,-36793819.16596,   0.00068,   0.00013,  -0.00048,184218044.51761,   0.00000,274640135.82653,   0.00000,   0.00000,   0.00000,-290422091.30892,   0.00000
203124405.51831,115606555.21483,-37610557.74113,   0.00070,   0.00013,  -0.00049,188110470.42781,   0.00000,274640135.82653,   0.00000,   0.00000,   0.00000,-286529665.39872,   0.00000
207274046.22943,118051698.02994,-38432369.22671,   0.00071,   0.00013,  -0.00050,191991722.59836,   0.00000,274640135.82653,   0.00000,   0.00000,   0.00000,-282648413.22817,   0.00000
211405931.75414,120489231.47944,-39249107.80188,   0.00073,   0.00014,  -0.00051,195855717.36822,   0.00000,274640135.82653,   0.00000,   0.00000,   0.00000,-278784418.45831,   0.00000
215520062.09242,122919155.56333,-40070919.28746,   0.00074,   0.00014,  -0.00052,199708556.76959,   0.00000,274640135.82653,   0.00000,   0.00000,   0.00000,-274931579.05694,   0.00000
219624046.60990,125359225.46804,-40887657.86263,   0.00075,   0.00014,  -0.00053,203551365.94618,   0.00000,274640135.82653,   0.00000,   0.00000,   0.00000,-271088769.88035,   0.00000
223702666.57535,127773930.82072,-41704396.43780,   0.00077,   0.00015,  -0.00054,207372759.62290,   0.00000,274640135.82653,   0.00000,   0.00000,   0.00000,-267267376.20363,   0.00000
227745776.16797,130173417.44219,-42521135.01297,   0.00078,   0.00015,  -0.00055,211165697.84768,   0.00000,274640135.82653,   0.00000,   0.00000,   0.00000,-263474437.97885,   0.00000
231796495.12620,132590659.25007,-43337873.58815,   0.00080,   0.00015,  -0.00056,214965955.05788,   0.00000,274640135.82653,   0.00000,   0.00000,   0.00000,-259674180.76865,   0.00000
235829458.89801,135000291.69235,-44154612.16332,   0.00081,   0.00015,  -0.00057,218752042.33594,   0.00000,274640135.82653,   0.00000,   0.00000,   0.00000,-255888093.49059,   0.00000
239837058.11780,137384559.58260,-44966277.82808,   0.00082,   0.00016,  -0.00058,222513643.36225,   0.00000,274640135.82653,   0.00000,   0.00000,   0.00000,-252126492.46428,   0.00000
243834511.51677,139778973.29366,-45777943.49285,   0.00084,   0.00016,  -0.00060,226268320.89266,   0.00000,274640135.82653,   0.00000,   0.00000,   0.00000,-248371814.93387,   0.00000
247796454.54292,142158168.27351,-46594682.06802,   0.00085,   0.00016,  -0.00061,229997675.63932,   0.00000,274640135.82653,   0.00000,   0.00000,   0.00000,-244642460.18721,   0.00000
251758397.56906,144537363.25336,-47406347.73279,   0.00086,   0.00017,  -0.00062,233724047.92263,   0.00000,274640135.82653,   0.00000,   0.00000,   0.00000,-240916087.90390,   0.00000
255702585.40879,146908948.86760,-48218013.39756,   0.00088,   0.00017,  -0.00063,237436273.22928,   0.00000,274640135.82653,   0.00000,   0.00000,   0.00000,-237203862.59725,   0.00000
259618872.24129,149283070.93704,-49024606.15192,   0.00089,   0.00017,  -0.00064,241124299.05734,   0.00000,274640135.82653,   0.00000,   0.00000,   0.00000,-233515836.76919,   0.00000
263527549.70818,151639437.82007,-49836271.81669,   0.00090,   0.00018,  -0.00065,244808253.60983,   0.00000,274640135.82653,   0.00000,   0.00000,   0.00000,-229831882.21670,   0.00000
267400716.80224,153980585.97188,-50647937.48145,   0.00092,   0.00018,  -0.00066,248463852.20684,   0.00000,274640135.82653,   0.00000,   0.00000,   0.00000,-226176283.61969,   0.00000
271281493.26191,156339489.31011,-51454530.23581,   0.00093,   0.00018,  -0.00067,252123740.32143,   0.00000,274640135.82653,   0.00000,   0.00000,   0.00000,-222516395.50509,   0.00000
275119149.98313,158665418.73071,-52261122.99018,   0.00094,   0.00019,  -0.00068,255748004.06671,   0.00000,274640135.82653,   0.00000,   0.00000,   0.00000,-218892131.75982,   0.00000
278964416.06997,161009103.33772,-53067715.74454,   0.00096,   0.00019,  -0.00069,259379670.86753,   0.00000,274640135.82653,   0.00000,   0.00000,   0.00000,-215260464.95900,   0.00000
282774171.78397,163337569.21352,-53874308.49890,   0.00097,   0.00019,  -0.00070,262983024.61914,   0.00000,274640135.82653,   0.00000,   0.00000,   0.00000,-211657111.20738,   0.00000
286558562.94594,165640670.53730,-54680901.25326,   0.00098,   0.00019,  -0.00071,266564986.64439,   0.00000,274640135.82653,   0.00000,   0.00000,   0.00000,-208075149.18214,   0.00000
290332808.28711,167953917.68188,-55487494.00762,   0.00099,   0.00020,  -0.00072,270140169.95424,   0.00000,274640135.82653,   0.00000,   0.00000,   0.00000,-204499965.87229,   0.00000
294089298.44186,170259555.46086,-56289013.85158,   0.00101,   0.00020,  -0.00073,273698150.71790,   0.00000,274640135.82653,   0.00000,   0.00000,   0.00000,-200941985.10863,   0.00000
297828033.41019,172557583.87423,-57095606.60594,   0.00102,   0.00020,  -0.00074,277245191.59639,   0.00000,274640135.82653,   0.00000,   0.00000,   0.00000,-197394944.23014,   0.00000
301549013.19210,174848002.92200,-57897126.44990,   0.00103,   0.00021,  -0.00075,280775035.38718,   0.00000,274640135.82653,   0.00000,   0.00000,   0.00000,-193865100.43935,   0.00000
305259847.15321,177148567.79057,-58698646.29386,   0.00104,   0.00021,  -0.00076,284298149.58470,   0.00000,274640135.82653,   0.00000,   0.00000,   0.00000,-190341986.24183,   0.00000
308927561.37587,179416158.74151,-59500166.13782,   0.00106,   0.00021,  -0.00077,287785699.98359,   0.00000,274640135.82653,   0.00000,   0.00000,   0.00000,-186854435.84294,   0.00000
312595275.59854,181683749.69245,-60301685.98177,   0.00107,   0.00022,  -0.00078,291273392.91237,   0.00000,274640135.82653,   0.00000,   0.00000,   0.00000,-183366742.91416,   0.00000
316235088.81398,183953877.09860,-61098132.91533,   0.00108,   0.00022,  -0.00079,294737061.07658,   0.00000,274640135.82653,   0.00000,   0.00000,   0.00000,-179903074.74995,   0.00000
319867292.66381,186206249.31833,-61899652.75928,   0.00109,   0.00022,  -0.00080,298196687.42275,   0.00000,274640135.82653,   0.00000,   0.00000,   0.00000,-176443448.40378,   0.00000
323471595.50642,188461157.99326,-62696099.69284,   0.00110,   0.00023,  -0.00082,301632313.34630,   0.00000,274640135.82653,   0.00000,   0.00000,   0.00000,-173007822.48023,   0.00000
327058143.16260,190708457.30258,-63492546.62639,   0.00112,   0.00023,  -0.00083,305053931.61903,   0.00000,274640135.82653,   0.00000,   0.00000,   0.00000,-169586204.20750,   0.00000
330644690.81879,192955756.61190,-64288993.55994,   0.00113,   0.00023,  -0.00084,308475709.20338,   0.00000,274640135.82653,   0.00000,   0.00000,   0.00000,-166164426.62315,   0.00000
334195728.10215,195187837.19001,-65085440.49349,   0.00114,   0.00024,  -0.00085,311869329.67981,   0.00000,274640135.82653,   0.00000,   0.00000,   0.00000,-162770806.14672,   0.00000
337729010.19909,197412308.40252,-65881887.42705,   0.00115,   0.00024,  -0.00086,315248964.46113,   0.00000,274640135.82653,   0.00000,   0.00000,   0.00000,-159391171.36540,   0.00000
341226781.92319,199621560.88380,-66678334.36060,   0.00116,   0.00024,  -0.00087,318600474.36843,   0.00000,274640135.82653,   0.00000,   0.00000,   0.00000,-156039661.45810,   0.00000
344724553.64730,201830813.36509,-67469708.38375,   0.00117,   0.00025,  -0.00088,321948975.31993,   0.00000,274640135.82653,   0.00000,   0.00000,   0.00000,-152691160.50660,   0.00000
348204570.18498,204032456.48077,-68266155.31730,   0.00119,   0.00025,  -0.00089,325286698.26482,   0.00000,274640135.82653,   0.00000,   0.00000,   0.00000,-149353437.56171,   0.00000
351649076.34984,206218880.86524,-69057529.34045,   0.00120,   0.00025,  -0.00090,328593134.15935,   0.00000,274640135.82653,   0.00000,   0.00000,   0.00000,-146047001.66718,   0.00000
355101191.88030,208423060.43612,-69848903.36359,   0.00121,   0.00026,  -0.00091,331907154.67349,   0.00000,274640135.82653,   0.00000,   0.00000,   0.00000,-142732981.15304,   0.00000
358510187.67232,210594266.08937,-70640277.38674,   0.00122,   0.00026,  -0.00092,335185703.87768,   0.00000,274640135.82653,   0.00000,   0.00000,   0.00000,-139454431.94885,   0.00000
361909037.64353,212775617.56343,-71426578.49948,   0.00123,   0.00026,  -0.00093,338454523.26658,   0.00000,274640135.82653,   0.00000,   0.00000,   0.00000,-136185612.55995,   0.00000
365290132.42833,214949359.67188,-72217952.52263,   0.00124,   0.00027,  -0.00094,341712636.60072,   0.00000,274640135.82653,   0.00000,   0.00000,   0.00000,-132927499.22581,   0.00000
368645862.66110,217097737.22831,-73009326.54578,   0.00125,   0.00027,  -0.00095,344949419.81760,   0.00000,274640135.82653,   0.00000,   0.00000,   0.00000,-129690716.00893,   0.00000
371991447.07306,219256260.60555,-73795627.65852,   0.00127,   0.00027,  -0.00096,348176499.54053,   0.00000,274640135.82653,   0.00000,   0.00000,   0.00000,-126463636.28600,   0.00000
375319276.29860,221407174.61719,-74581928.77127,   0.00128,   0.00028,  -0.00097,351389680.96169,   0.00000,274640135.82653,   0.00000,   0.00000,   0.00000,-123250454.86484,   0.00000
378629350.33773,223550479.26321,-75368229.88401,   0.00129,   0.00028,  -0.00098,354588972.20925,   0.00000,274640135.82653,   0.00000,   0.00000,   0.00000,-120051163.61728,   0.00000
381903914.00402,225678565.17802,-76154530.99675,   0.00130,   0.00028,  -0.00099,357760289.49299,   0.00000,274640135.82653,   0.00000,   0.00000,   0.00000,-116879846.33354,   0.00000
385168331.84951,227816796.91364,-76940832.10949,   0.00131,   0.00029,  -0.00100,360925194.62944,   0.00000,274640135.82653,   0.00000,   0.00000,   0.00000,-113714941.19709,   0.00000
388425140.32938,229937273.46284,-77722060.31183,   0.00132,   0.00029,  -0.00101,364079630.89552,   0.00000,274640135.82653,   0.00000,   0.00000,   0.00000,-110560504.93101,   0.00000
391646438.43643,232042531.28083,-78508361.42457,   0.00133,   0.00029,  -0.00102,367209377.00712,   0.00000,274640135.82653,   0.00000,   0.00000,   0.00000,-107430758.81941,   0.00000
394857590.72266,234157934.91963,-79289589.62691,   0.00134,   0.00030,  -0.00103,370329494.47186,   0.00000,274640135.82653,   0.00000,   0.00000,   0.00000,-104310641.35467,   0.00000
398043378.45687,236247974.00641,-80070817.82925,   0.00135,   0.00030,  -0.00104,373428309.36061,   0.00000,274640135.82653,   0.00000,   0.00000,   0.00000,-101211826.46592,   0.00000
401201265.18386,238340549.54838,-80857118.94199,   0.00136,   0.00030,  -0.00105,376509978.31601,   0.00000,274640135.82653,   0.00000,   0.00000,   0.00000,-98130157.51052,   0.00000
404359151.91084,240433125.09036,-81633274.23393,   0.00137,   0.00031,  -0.00106,379585367.48459,   0.00000,274640135.82653,   0.00000,   0.00000,   0.00000,-95054768.34194,   0.00000
407491674.08580,242500336.08031,-82414502.43627,   0.00138,   0.00031,  -0.00107,382642731.75905,   0.00000,274640135.82653,   0.00000,   0.00000,   0.00000,-91997404.06748,   0.00000
410596295.25353,244570083.52547,-83195730.63860,   0.00139,   0.00031,  -0.00108,385679740.19340,   0.00000,274640135.82653,   0.00000,   0.00000,   0.00000,-88960395.63313,   0.00000
413683161.23485,246632221.60502,-83971885.93054,   0.00140,   0.00032,  -0.00109,388699686.65712,   0.00000,274640135.82653,   0.00000,   0.00000,   0.00000,-85940449.16941,   0.00000
416752272.02975,248686750.31896,-84753114.13287,   0.00141,   0.00032,  -0.00110,391709150.86669,   0.00000,274640135.82653,   0.00000,   0.00000,   0.00000,-82930984.95984,   0.00000
419803627.63823,250733669.66729,-85529269.42481,   0.00142,   0.00032,  -0.00111,394701561.39886,   0.00000,274640135.82653,   0.00000,   0.00000,   0.00000,-79938574.42767,   0.00000
422844837.42590,252790734.83644,-86305424.71674,   0.00143,   0.00033,  -0.00112,397687734.27000,   0.00000,274640135.82653,   0.00000,   0.00000,   0.00000,-76952401.55653,   0.00000
425860682.66155,254822435.45356,-87081580.00867,   0.00144,   0.00033,  -0.00113,400652646.38854,   0.00000,274640135.82653,   0.00000,   0.00000,   0.00000,-73987489.43799,   0.00000
428858772.71079,256846526.70507,-87857735.30061,   0.00145,   0.00033,  -0.00114,403603820.53463,   0.00000,274640135.82653,   0.00000,   0.00000,   0.00000,-71036315.29190,   0.00000
431828961.75279,258873154.41178,-88628817.68214,   0.00146,   0.00034,  -0.00115,406531473.27051,   0.00000,274640135.82653,   0.00000,   0.00000,   0.00000,-68108662.55602,   0.00000
434799150.79480,260899782.11850,-89404972.97407,   0.00147,   0.00034,  -0.00116,409462747.64766,   0.00000,274640135.82653,   0.00000,   0.00000,   0.00000,-65177388.17887,   0.00000
437726220.09836,262893435.90758,-90176055.35560,   0.00148,   0.00034,  -0.00117,412355447.75701,   0.00000,274640135.82653,   0.00000,   0.00000,   0.00000,-62284688.06952,   0.00000
440643143.58112,264897235.51747,-90947137.73713,   0.00149,   0.00035,  -0.00118,415242002.17850,   0.00000,274640135.82653,   0.00000,   0.00000,   0.00000,-59398133.64803,   0.00000
443542311.87746,266893425.76176,-91718220.11866,   0.00150,   0.00035,  -0.00119,418114878.66182,   0.00000,274640135.82653,   0.00000,   0.00000,   0.00000,-56525257.16471,   0.00000
446423724.98738,268882006.64044,-92489302.50018,   0.00151,   0.00035,  -0.00120,420974087.05406,   0.00000,274640135.82653,   0.00000,   0.00000,   0.00000,-53666048.77246,   0.00000
449287382.91089,270862978.15351,-93260384.88171,   0.00152,   0.00036,  -0.00121,423819637.29860,   0.00000,274640135.82653,   0.00000,   0.00000,   0.00000,-50820498.52793,   0.00000
452115530.46156,272828730.93537,-94026394.35284,   0.00153,   0.00036,  -0.00122,426634212.64747,   0.00000,274640135.82653,   0.00000,   0.00000,   0.00000,-48005923.17906,   0.00000
454943678.01223,274794483.71723,-94797476.73436,   0.00153,   0.00036,  -0.00123,429452477.12702,   0.00000,274640135.82653,   0.00000,   0.00000,   0.00000,-45187658.69951,   0.00000
457743924.55568,276762772.95429,-95563486.20549,   0.00154,   0.00037,  -0.00124,432247376.84017,   0.00000,274640135.82653,   0.00000,   0.00000,   0.00000,-42392758.98636,   0.00000
460536561.73352,278713307.00493,-96329495.67661,   0.00155,   0.00037,  -0.00125,435035032.25540,   0.00000,274640135.82653,   0.00000,   0.00000,   0.00000,-39605103.57113,   0.00000
463301297.90413,280666377.51077,-97095505.14774,   0.00156,   0.00037,  -0.00126,437802720.96637,   0.00000,274640135.82653,   0.00000,   0.00000,   0.00000,-36837414.86016,   0.00000
466040669.52272,282594083.46459,-97861514.61886,   0.00157,   0.00038,  -0.00127,440549218.50784,   0.00000,274640135.82653,   0.00000,   0.00000,   0.00000,-34090917.31869,   0.00000
468769895.32049,284531935.23923,-98627524.08998,   0.00158,   0.00038,  -0.00128,443289743.79823,   0.00000,274640135.82653,   0.00000,   0.00000,   0.00000,-31350392.02830,   0.00000
471481365.93186,286462177.64825,-99393533.56111,   0.00159,   0.00038,  -0.00129,446016706.39094,   0.00000,274640135.82653,   0.00000,   0.00000,   0.00000,-28623429.43559,   0.00000
474157326.17038,288377201.32606,-100154470.12183,   0.00160,   0.00039,  -0.00130,448712793.61367,   0.00000,274640135.82653,   0.00000,   0.00000,   0.00000,-25927342.21286,   0.00000
476833286.40891,290292225.00387,-100915406.68254,   0.00160,   0.00039,  -0.00131,451409261.28667,   0.00000,274640135.82653,   0.00000,   0.00000,   0.00000,-23230874.53986,   0.00000
479473736.27461,292192029.95046,-101681416.15367,   0.00161,   0.00039,  -0.00132,454081680.98563,   0.00000,274640135.82653,   0.00000,   0.00000,   0.00000,-20558454.84089,   0.00000
482114186.14030,294091834.89706,-102442352.71439,   0.00162,   0.00040,  -0.00133,456751088.76490,   0.00000,274640135.82653,   0.00000,   0.00000,   0.00000,-17889047.06163,   0.00000
484719125.63316,295976421.11244,-103203289.27511,   0.00163,   0.00040,  -0.00134,459393074.94895,   0.00000,274640135.82653,   0.00000,   0.00000,   0.00000,-15247060.87758,   0.00000
487313919.30521,297871153.14863,-103959152.92542,   0.00164,   0.00041,  -0.00135,462025797.08150,   0.00000,274640135.82653,   0.00000,   0.00000,   0.00000,-12614338.74503,   0.00000
489883348.42524,299740520.63279,-104720089.48614,   0.00164,   0.00041,  -0.00136,464640803.51728,   0.00000,274640135.82653,   0.00000,   0.00000,   0.00000,-9999332.30925,   0.00000
492442631.72446,301620033.93777,-105475953.13645,   0.00165,   0.00041,  -0.00137,467246570.01344,   0.00000,274640135.82653,   0.00000,   0.00000,   0.00000,-7393565.81309,   0.00000
494984159.83726,303491937.87714,-106236889.69717,   0.00166,   0.00042,  -0.00138,469842317.33243,   0.00000,274640135.82653,   0.00000,   0.00000,   0.00000,-4797818.49410,   0.00000
497500323.39804,305338477.26448,-106992753.34749,   0.00167,   0.00042,  -0.00139,472413499.06732,   0.00000,274640135.82653,   0.00000,   0.00000,   0.00000,-2226636.75921,   0.00000
499671763.03170,306952115.89133,-107652375.17300,   0.00167,   0.00042,  -0.00140,474640146.79418,   0.00000,274640135.82653,   0.00000,   0.00000,   0.00000,  -8.50044,   0.00000
499671763.03170,306952115.89133,-107652375.17300,   0.00168,   0.00042,  -0.00140,474965053.40989,   0.00000,274640135.82653,   0.00000,   0.00000,   0.00000,  -8.50044,   0.00000
499532255.35449,307342602.49659,-107752727.77247,   0.00168,   0.00043,  -0.00141,474653934.02405,   0.00001,274653940.34762,   0.00001,   0.00000,  -0.00001,  -6.32357,   1.00000
499386207.87726,307731169.10823,-107859420.75426,   0.00169,   0.00043,  -0.00142,474667588.32733,   0.00003,274667595.89558,   0.00002,   0.00000,  -0.00002,  -7.56825,   1.00000
499244114.81285,308119181.13464,-107961173.17725,   0.00170,   0.00043,  -0.00143,474681232.88935,   0.00004,274681233.65378,   0.00003,   0.00000,  -0.00003,  -0.76443,   1.00000
499091525.52478,308516594.17876,-108071437.73665,   0.00171,   0.00044,  -0.00144,474694774.62821,   0.00005,274694783.47410,   0.00004,   0.00001,  -0.00003,  -8.84590,   1.00000
498939745.93721,308900525.57769,-108182280.98350,   0.00171,   0.00044,  -0.00145,474708197.50962,   0.00006,274708199.30737,   0.00004,   0.00001,  -0.00004,  -1.79775,   1.00000
498784493.10236,309295541.42433,-108293880.74582,   0.00172,   0.00044,  -0.00146,474721577.85081,   0.00007,274721583.77772,   0.00005,   0.00001,  -0.00005,  -5.92690,   1.00000
498626496.06048,309675171.25724,-108410226.33325,   0.00173,   0.00045,  -0.00147,474734852.55109,   0.00009,274734853.32518,   0.00006,   0.00001,  -0.00006,  -0.77409,   1.00000
498465000.80724,310065915.87154,-108527296.27346,   0.00174,   0.00045,  -0.00148,474748085.11367,   0.00010,274748092.05540,   0.00007,   0.00001,  -0.00007,  -6.94173,   1.00000
498300387.92621,310454534.99133,-108647092.58362,   0.00174,   0.00046,  -0.00149,474761257.75497,   0.00011,274761258.09726,   0.00008,   0.00001,  -0.00008,  -0.34228,   1.00000
498136579.38620,310829889.15783,-108767468.46448,   0.00175,   0.00046,  -0.00150,474774283.79062,   0.00012,274774290.76784,   0.00009,   0.00002,  -0.00008,  -6.97722,   1.00000
497962102.77416,311214790.27796,-108896262.34165,   0.00176,   0.00046,  -0.00151,474787234.41319,   0.00013,274787237.66225,   0.00010,   0.00002,  -0.00009,  -3.24906,   1.00000
497791215.90252,311612391.35559,-109017993.04650,   0.00176,   0.00047,  -0.00152,474800204.62983,   0.00015,274800210.33565,   0.00011,   0.00002,  -0.00010,  -5.70583,   1.00000
497613964.30955,311995164.87298,-109148036.87055,   0.00177,   0.00047,  -0.00153,474812985.71144,   0.00016,274812994.35361,   0.00011,   0.00002,  -0.00011,  -8.64217,   1.00000
497437160.59936,312375521.75347,-109277187.87368,   0.00178,   0.00047,  -0.00154,474825772.38694,   0.00017,274825781.15769,   0.00012,   0.00002,  -0.00012,  -8.77074,   1.00000
497253552.36654,312754335.54991,-109412606.24474,   0.00178,   0.00048,  -0.00155,474838415.24457,   0.00018,274838422.03025,   0.00013,   0.00002,  -0.00012,  -6.78568,   1.00000
497066309.13556,313144283.04525,-109548637.79817,   0.00179,   0.00048,  -0.00156,474851025.91410,   0.00019,274851034.14460,   0.00014,   0.00002,  -0.00013,  -8.23050,   1.00000
496883548.50523,313520756.91848,-109681666.28007,   0.00180,   0.00048,  -0.00157,474863583.90605,   0.00020,274863587.86015,   0.00015,   0.00003,  -0.00014,  -3.95410,   1.00000
496689861.44260,313906785.60073,-109823036.97818,   0.00180,   0.00049,  -0.00158,474876056.47523,   0.00022,274876057.88430,   0.00015,   0.00003,  -0.00015,  -1.40908,   1.00000
496496520.78526,314292907.78274,-109962916.37023,   0.00181,   0.00049,  -0.00159,474888429.78401,   0.00023,274888438.13797,   0.00016,   0.00003,  -0.00015,  -8.35396,   1.00000
496299942.72951,314677098.34318,-110105452.61301,   0.00182,   0.00050,  -0.00160,474900742.86564,   0.00024,274900747.72294,   0.00017,   0.00003,  -0.00016,  -4.85730,   1.00000
496100099.95998,315059371.39886,-110250632.73091,   0.00182,   0.00050,  -0.00160,474912978.44441,   0.00025,274912986.93478,   0.00018,   0.00003,  -0.00017,  -8.49037,   1.00000
495897000.09941,315439761.02399,-110398453.06618,   0.00183,   0.00050,  -0.00161,474925153.74195,   0.00026,274925155.88051,   0.00019,   0.00003,  -0.00018,  -2.13856,   1.00000
495690615.05810,315818280.48440,-110548901.07828,   0.00183,   0.00051,  -0.00162,474937251.68042,   0.00027,274937254.85264,   0.00019,   0.00004,  -0.00019,  -3.17222,   1.00000
495484539.20520,316197046.21828,-110697856.30579,   0.00184,   0.00051,  -0.00163,474949259.45530,   0.00028,274949264.67562,   0.00020,   0.00004,  -0.00019,  -5.22032,   1.00000
495274638.52544,316586954.06845,-110847350.67340,   0.00185,   0.00051,  -0.00164,474961243.96487,   0.00029,274961247.63196,   0.00021,   0.00004,  -0.00020,  -3.66709,   1.00000
495058320.76391,316959928.69402,-111005693.30180,   0.00185,   0.00052,  -0.00165,474973135.18012,   0.00030,274973137.27317,   0.00022,   0.00004,  -0.00021,  -2.09305,   1.00000
494841747.80915,317346165.83614,-111160413.35510,   0.00186,   0.00052,  -0.00166,474984973.94618,   0.00031,274984981.41747,   0.00022,   0.00004,  -0.00022,  -7.47129,   1.00000
494618005.45614,317731100.34483,-111321368.82470,   0.00186,   0.00052,  -0.00167,474996675.56186,   0.00033,274996682.38369,   0.00023,   0.00004,  -0.00022,  -6.82184,   1.00000
494398330.07292,318115798.25611,-111477195.72736,   0.00187,   0.00053,  -0.00168,475008364.08750,   0.00034,275008368.84047,   0.00024,   0.00004,  -0.00023,  -4.75296,   1.00000
494171632.57004,318496570.33005,-111639747.42148,   0.00188,   0.00053,  -0.00169,475019996.66749,   0.00035,275020005.75232,   0.00025,   0.00005,  -0.00024,  -9.08483,   1.00000
493941542.42014,318875573.84990,-111804897.17963,   0.00188,   0.00054,  -0.00170,475031568.67623,   0.00036,275031573.93668,   0.00025,   0.00005,  -0.00025,  -5.26045,   1.00000
493707780.44230,319255523.77200,-111972170.87334,   0.00189,   0.00054,  -0.00171,475042973.89083,   0.00037,275042980.36075,   0.00026,   0.00005,  -0.00025,  -6.46992,   1.00000
493474470.60310,319633172.51073,-112138402.10644,   0.00189,   0.00054,  -0.00172,475054387.61822,   0.00038,275054392.17279,   0.00027,   0.00005,  -0.00026,  -4.55458,   1.00000
493237706.80143,320009109.18384,-112307233.42454,   0.00190,   0.00055,  -0.00173,475065732.54697,   0.00039,275065735.67872,   0.00028,   0.00005,  -0.00027,  -3.13175,   1.00000
492992954.77618,320396760.70605,-112480134.43151,   0.00190,   0.00055,  -0.00174,475076976.80889,   0.00040,275076981.11197,   0.00028,   0.00005,  -0.00028,  -4.30308,   1.00000
492748643.33686,320782067.53086,-112651963.57140,   0.00191,   0.00056,  -0.00175,475088230.19155,   0.00041,275088232.38095,   0.00029,   0.00006,  -0.00028,  -2.18940,   1.00000
492505060.40691,321155013.69093,-112824469.58151,   0.00191,   0.00056,  -0.00176,475099348.28039,   0.00042,275099352.39616,   0.00030,   0.00006,  -0.00029,  -4.11576,   1.00000
492253696.63843,321536932.32371,-113001468.88130,   0.00192,   0.00056,  -0.00177,475110464.06937,   0.00043,275110468.27740,   0.00030,   0.00006,  -0.00030,  -4.20803,   1.00000
491998441.33420,321919953.16755,-113180617.44006,   0.00192,   0.00057,  -0.00178,475121420.08355,   0.00044,275121423.50894,   0.00031,   0.00006,  -0.00030,  -3.42539,   1.00000
491743612.28036,322300674.73027,-113358677.76038,   0.00193,   0.00057,  -0.00179,475132377.96283,   0.00045,275132385.04110,   0.00032,   0.00006,  -0.00031,  -7.07827,   1.00000
491485198.71808,322679742.94311,-113539320.66209,   0.00193,   0.00057,  -0.00180,475143274.69861,   0.00046,275143279.34641,   0.00033,   0.00006,  -0.00032,  -4.64781,   1.00000
491223174.90422,323057171.25710,-113722538.24060,   0.00194,   0.00058,  -0.00180,475154102.61807,   0.00047,275154106.65858,   0.00033,   0.00007,  -0.00033,  -4.04051,   1.00000
490956878.60950,323445690.98651,-113906108.44941,   0.00194,   0.00058,  -0.00181,475164907.63898,   0.00048,275164911.39156,   0.00034,   0.00007,  -0.00033,  -3.75258,   1.00000
490691237.37456,323822046.58456,-114090405.61004,   0.00195,   0.00059,  -0.00182,475175577.57048,   0.00049,275175585.25235,   0.00035,   0.00007,  -0.00034,  -7.68187,   1.00000
490421272.66145,324209506.00385,-114275055.83772,   0.00195,   0.00059,  -0.00183,475186231.99639,   0.00050,275186236.81804,   0.00035,   0.00007,  -0.00035,  -4.82165,   1.00000
490144589.14849,324580414.40372,-114468570.74643,   0.00196,   0.00059,  -0.00184,475196791.74913,   0.00051,275196797.51891,   0.00036,   0.00007,  -0.00035,  -5.76978,   1.00000
489867215.17802,324964670.38946,-114658341.40991,   0.00196,   0.00060,  -0.00185,475207315.97618,   0.00052,275207316.59827,   0.00037,   0.00007,  -0.00036,  -0.62209,   1.00000
489589767.04079,325349554.85030,-114846627.90592,   0.00197,   0.00060,  -0.00186,475217743.66120,   0.00053,275217749.55911,   0.00037,   0.00008,  -0.00037,  -5.89791,   1.00000
489304865.30942,325730594.38176,-115041541.35868,   0.00197,   0.00061,  -0.00187,475228129.88625,   0.00054,275228136.53842,   0.00038,   0.00008,  -0.00037,  -6.65217,   1.00000
489016180.87184,326110057.36420,-115239010.62013,   0.00198,   0.00061,  -0.00188,475238454.44003,   0.00055,275238457.79884,   0.00038,   0.00008,  -0.00038,  -3.35882,   1.00000
488731591.68725,326489533.96556,-115431294.72305,   0.00198,   0.00061,  -0.00189,475248762.54684,   0.00056,275248766.43107,   0.00039,   0.00008,  -0.00039,  -3.88422,   1.00000
488438239.33194,326880746.93694,-115627582.25791,   0.00198,   0.00062,  -0.00190,475258974.86610,   0.00057,275258981.21412,   0.00040,   0.00008,  -0.00039,  -6.34802,   1.00000
488145977.95363,327257083.75775,-115825013.98561,   0.00199,   0.00062,  -0.00191,475269152.23171,   0.00058,275269158.66923,   0.00040,   0.00008,  -0.00040,  -6.43751,   1.00000
487844864.48490,327645174.76866,-116026433.77733,   0.00199,   0.00062,  -0.00192,475279240.52559,   0.00058,275279242.84597,   0.00041,   0.00008,  -0.00041,  -2.32038,   1.00000
487544841.25508,328018432.90830,-116228993.19638,   0.00200,   0.00063,  -0.00193,475289287.00253,   0.00059,275289289.88999,   0.00042,   0.00009,  -0.00041,  -2.88746,   1.00000
487240175.22329,328402734.28917,-116431806.12518,   0.00200,   0.00063,  -0.00194,475299310.82853,   0.00060,275299317.18853,   0.00042,   0.00009,  -0.00042,  -6.36000,   1.00000
486935274.83399,328787807.02706,-116633161.00300,   0.00200,   0.00064,  -0.00194,475309252.47378,   0.00061,275309259.24785,   0.00043,   0.00009,  -0.00043,  -6.77407,   1.00000
486626394.94577,329171355.58242,-116837091.12936,   0.00201,   0.00064,  -0.00195,475319131.84524,   0.00062,275319136.50193,   0.00043,   0.00009,  -0.00043,  -4.65669,   1.00000
486313504.43856,329553389.59223,-117043589.75943,   0.00201,   0.00064,  -0.00196,475328942.00770,   0.00063,275328949.18070,   0.00044,   0.00009,  -0.00044,  -7.17300,   1.00000
485996585.46895,329933926.87235,-117252654.12483,   0.00202,   0.00065,  -0.00197,475338689.77448,   0.00064,275338697.43857,   0.00045,   0.00009,  -0.00045,  -7.66410,   1.00000
485674861.65870,330325435.06883,-117461933.61746,   0.00202,   0.00065,  -0.00198,475348421.54851,   0.00065,275348427.06488,   0.00045,   0.00010,  -0.00045,  -5.51637,   1.00000
485354242.43608,330702209.85659,-117672383.76312,   0.00202,   0.00066,  -0.00199,475358119.12635,   0.00066,275358119.64841,   0.00046,   0.00010,  -0.00046,  -0.52206,   1.00000
485028032.43577,331093061.54002,-117882782.75249,   0.00203,   0.00066,  -0.00200,475367692.28144,   0.00067,275367700.68911,   0.00046,   0.00010,  -0.00047,  -8.40767,   1.00000
484702930.23318,331469231.67249,-118094374.86953,   0.00203,   0.00066,  -0.00201,475377237.96566,   0.00067,275377244.59831,   0.00047,   0.00010,  -0.00047,  -6.63265,   1.00000
484369161.46357,331853999.55517,-118310157.02455,   0.00203,   0.00067,  -0.00202,475386787.64805,   0.00068,275386791.33063,   0.00048,   0.00010,  -0.00048,  -3.68258,   1.00000
484038700.84828,332242036.25142,-118520522.23027,   0.00204,   0.00067,  -0.00203,475396227.94703,   0.00069,275396232.98974,   0.00048,   0.00010,  -0.00049,  -5.04271,   1.00000
483700266.20314,332626214.71817,-118737456.76596,   0.00204,   0.00068,  -0.00204,475405625.28765,   0.00070,275405631.83811,   0.00049,   0.00011,  -0.00049,  -6.55046,   1.00000
483357587.84706,333008931.73216,-118956955.11892,   0.00204,   0.00068,  -0.00205,475414959.67484,   0.00071,275414967.40761,   0.00049,   0.00011,  -0.00050,  -7.73277,   1.00000
483018993.91305,333391817.85019,-119171278.08709,   0.00205,   0.00068,  -0.00206,475424287.15424,   0.00072,275424291.33401,   0.00050,   0.00011,  -0.00050,  -4.17977,   1.00000
482672346.57497,333770862.49790,-119392159.86378,   0.00205,   0.00069,  -0.00206,475433571.48121,   0.00073,275433572.95402,   0.00050,   0.00011,  -0.00051,  -1.47281,   1.00000
482319712.01077,334164003.99549,-119612989.71064,   0.00205,   0.00069,  -0.00207,475442743.04224,   0.00073,275442744.71341,   0.00051,   0.00011,  -0.00052,  -1.67117,   1.00000
481968166.04445,334542567.19998,-119835039.96703,   0.00206,   0.00070,  -0.00208,475451874.72921,   0.00074,275451879.61216,   0.00051,   0.00011,  -0.00052,  -4.88295,   1.00000
481619896.91978,334933640.57292,-120049495.03325,   0.00206,   0.00070,  -0.00209,475461046.79771,   0.00075,275461049.47359,   0.00052,   0.00012,  -0.00053,  -2.67588,   1.00000
481258738.93421,335321634.16977,-120274291.02862,   0.00206,   0.00070,  -0.00210,475470104.83546,   0.00076,275470105.36112,   0.00053,   0.00012,  -0.00054,  -0.52567,   1.00000
480902457.16591,335697566.71441,-120496371.34120,   0.00207,   0.00071,  -0.00211,475479096.73066,   0.00077,275479103.20808,   0.00053,   0.00012,  -0.00054,  -6.47743,   1.00000
480540905.50043,336084374.88912,-120718589.89086,   0.00207,   0.00071,  -0.00212,475488078.61579,   0.00078,275488085.30101,   0.00054,   0.00012,  -0.00055,  -6.68522,   1.00000
480171074.43524,336467300.82304,-120947342.62693,   0.00207,   0.00072,  -0.00213,475497023.08685,   0.00078,275497026.35338,   0.00054,   0.00012,  -0.00055,  -3.26653,   1.00000
479803470.26888,336865960.87915,-121168308.41565,   0.00207,   0.00072,  -0.00214,475505904.83058,   0.00079,275505909.78405,   0.00055,   0.00012,  -0.00056,  -4.95347,   1.00000
479433161.37810,337247660.08433,-121394496.12283,   0.00208,   0.00073,  -0.00215,475514773.36304,   0.00080,275514777.44451,   0.00055,   0.00013,  -0.00057,  -4.08147,   1.00000
479053432.90895,337628810.90323,-121627080.34620,   0.00208,   0.00073,  -0.00215,475523505.87773,   0.00081,275523511.16764,   0.00056,   0.00013,  -0.00057,  -5.28991,   1.00000
478676916.55565,338022392.42401,-121852003.43116,   0.00208,   0.00073,  -0.00216,475532274.31116,   0.00082,275532281.06487,   0.00056,   0.00013,  -0.00058,  -6.75371,   1.00000
478296603.26701,338402408.52423,-122082041.36381,   0.00208,   0.00074,  -0.00217,475540936.96327,   0.00083,275540941.87493,   0.00057,   0.00013,  -0.00058,  -4.91166,   1.00000
477915688.98293,338792344.10141,-122308344.65287,   0.00209,   0.00074,  -0.00218,475549655.82951,   0.00083,275549660.43984,   0.00057,   0.00013,  -0.00059,  -4.61034,   1.00000
477530077.70426,339180872.17141,-122537253.95768,   0.00209,   0.00075,  -0.00219,475558310.55492,   0.00084,275558317.47668,   0.00058,   0.00013,  -0.00060,  -6.92176,   1.00000
477144419.95581,339558446.05927,-122767395.27924,   0.00209,   0.00075,  -0.00220,475566838.65684,   0.00085,275566843.85992,   0.00058,   0.00013,  -0.00060,  -5.20309,   1.00000
476749328.06951,339944236.14624,-123001516.79703,   0.00209,   0.00075,  -0.00221,475575376.51046,   0.00086,275575378.28739,   0.00059,   0.00014,  -0.00061,  -1.77693,   1.00000
476358281.25767,340330325.27440,-123230501.65825,   0.00210,   0.00076,  -0.00222,475583897.15527,   0.00087,275583901.73981,   0.00059,   0.00014,  -0.00061,  -4.58454,   1.00000
475956507.42542,340727961.03368,-123463378.67811,   0.00210,   0.00076,  -0.00223,475592333.51563,   0.00087,275592340.22602,   0.00060,   0.00014,  -0.00062,  -6.71039,   1.00000
475555805.97712,341111268.76068,-123697592.24535,   0.00210,   0.00077,  -0.00224,475600736.87138,   0.00088,275600741.67850,   0.00060,   0.00014,  -0.00063,  -4.80712,   1.00000
475155320.43969,341492351.75362,-123930580.04289,   0.00210,   0.00077,  -0.00224,475609149.44150,   0.00089,275609153.98759,   0.00061,   0.00014,  -0.00063,  -4.54609,   1.00000
474752895.88786,341886677.58391,-124159719.81201,   0.00211,   0.00078,  -0.00225,475617525.20931,   0.00090,275617531.69350,   0.00061,   0.00014,  -0.00064,  -6.48419,   1.00000
474342575.78520,342265042.28048,-124397968.35081,   0.00211,   0.00078,  -0.00226,475625819.52904,   0.00090,275625822.47292,   0.00062,   0.00015,  -0.00064,  -2.94388,   1.00000
473930246.57119,342656646.30315,-124632350.45708,   0.00211,   0.00078,  -0.00227,475634077.14377,   0.00091,275634079.14107,   0.00062,   0.00015,  -0.00065,  -1.99730,   1.00000
473518097.10334,343045980.19905,-124865502.85167,   0.00211,   0.00079,  -0.00228,475642338.80037,   0.00092,275642346.97311,   0.00063,   0.00015,  -0.00066,  -8.17274,   1.00000
473104782.30531,343436574.65787,-125097426.53910,   0.00211,   0.00079,  -0.00229,475650531.73922,   0.00093,275650532.23372,   0.00063,   0.00015,  -0.00066,  -0.49450,   1.00000
472682534.46678,343823179.83636,-125335854.45949,   0.00212,   0.00080,  -0.00230,475658674.43842,   0.00093,275658679.49600,   0.00063,   0.00015,  -0.00067,  -5.05758,   1.00000
472264321.94518,344210169.44951,-125569187.55698,   0.00212,   0.00080,  -0.00231,475666806.54030,   0.00094,275666815.87312,   0.00064,   0.00015,  -0.00067,  -9.33282,   1.00000
471840995.92134,344595826.21944,-125805172.99670,   0.00212,   0.00080,  -0.00231,475674884.45825,   0.00095,275674892.11514,   0.00064,   0.00016,  -0.00068,  -7.65688,   1.00000
471412519.11929,344980153.85633,-126043805.28490,   0.00212,   0.00081,  -0.00232,475682907.94778,   0.00096,275682908.43515,   0.00065,   0.00016,  -0.00068,  -0.48737,   1.00000
470984202.44892,345362246.17860,-126281205.84461,   0.00212,   0.00081,  -0.00233,475690936.23727,   0.00096,275690936.27552,   0.00065,   0.00016,  -0.00069,  -0.03825,   1.00000
470549763.95657,345754858.67484,-126518580.92312,   0.00212,   0.00082,  -0.00234,475698948.36646,   0.00097,275698953.48176,   0.00066,   0.00016,  -0.00070,  -5.11529,   1.00000
470120270.11759,346136047.01365,-126753568.04612,   0.00213,   0.00082,  -0.00235,475706906.12545,   0.00098,275706910.63893,   0.00066,   0.00016,  -0.00070,  -4.51348,   1.00000
469679152.34394,346528654.59149,-126992413.11387,   0.00213,   0.00083,  -0.00236,475714776.74500,   0.00099,275714786.32220,   0.00067,   0.00016,  -0.00071,  -9.57720,   1.00000
469243645.15371,346918081.63251,-127226145.93150,   0.00213,   0.00083,  -0.00237,475722739.95627,   0.00099,275722744.72146,   0.00067,   0.00017,  -0.00071,  -4.76519,   1.00000
468797312.40277,347307081.96516,-127466432.19603,   0.00213,   0.00083,  -0.00238,475730571.54849,   0.00100,275730572.75602,   0.00067,   0.00017,  -0.00072,  -1.20753,   1.00000
468355910.49969,347684768.21275,-127704378.99451,   0.00213,   0.00084,  -0.00238,475738337.75208,   0.00101,275738340.48819,   0.00068,   0.00017,  -0.00072,  -2.73610,   1.00000
467909856.99337,348069293.58802,-127942206.22246,   0.00213,   0.00084,  -0.00239,475746191.18084,   0.00101,275746192.18262,   0.00068,   0.00017,  -0.00073,  -1.00178,   1.00000
467461342.26624,348466949.37705,-128176157.50709,   0.00214,   0.00085,  -0.00240,475754007.32955,   0.00102,275754011.71512,   0.00069,   0.00017,  -0.00073,  -4.38556,   1.00000
467008277.05821,348851516.89319,-128415525.42663,   0.00214,   0.00085,  -0.00241,475761712.77008,   0.00103,275761722.56329,   0.00069,   0.00017,  -0.00074,  -9.79321,   1.00000
466555357.58045,349233857.73879,-128653673.72090,   0.00214,   0.00086,  -0.00242,475769445.20143,   0.00104,275769445.27037,   0.00070,   0.00018,  -0.00075,  -0.06894,   1.00000
466100804.27543,349617646.27110,-128890705.75843,   0.00214,   0.00086,  -0.00243,475777084.68066,   0.00104,275777086.26078,   0.00070,   0.00018,  -0.00075,  -1.58012,   1.00000
465645448.72883,350010874.72465,-129123760.63859,   0.00214,   0.00086,  -0.00244,475784785.60229,   0.00105,275784789.16450,   0.00070,   0.00018,  -0.00076,  -3.56221,   1.00000
465181536.47352,350388342.22381,-129366075.66836,   0.00214,   0.00087,  -0.00244,475792401.62663,   0.00106,275792406.34281,   0.00071,   0.00018,  -0.00076,  -4.71618,   1.00000
464718883.19979,350781716.83640,-129600720.29582,   0.00214,   0.00087,  -0.00245,475799963.93193,   0.00106,275799969.08345,   0.00071,   0.00018,  -0.00077,  -5.15152,   1.00000
464252425.73086,351170030.72802,-129837933.52473,   0.00214,   0.00088,  -0.00246,475807559.43444,   0.00107,275807567.07975,   0.00072,   0.00018,  -0.00077,  -7.64531,   1.00000
463787032.12494,351544492.20408,-130076733.14192,   0.00215,   0.00088,  -0.00247,475815125.84375,   0.00108,275815126.77177,   0.00072,   0.00019,  -0.00078,  -0.92802,   1.00000
463318913.56595,351932081.16514,-130311655.90292,   0.00215,   0.00089,  -0.00248,475822654.90328,   0.00109,275822655.37077,   0.00072,   0.00019,  -0.00078,  -0.46749,   1.00000
462845040.88905,352318351.80270,-130549287.68254,   0.00215,   0.00089,  -0.00249,475830117.25797,   0.00109,275830125.79393,   0.00073,   0.00019,  -0.00079,  -8.53596,   1.00000
462371285.53407,352702382.89440,-130785709.63701,   0.00215,   0.00089,  -0.00250,475837606.68086,   0.00110,275837608.40834,   0.00073,   0.00019,  -0.00079,  -1.72748,   1.00000
461901554.32539,353087003.94963,-131017166.27024,   0.00215,   0.00090,  -0.00250,475845075.50500,   0.00111,275845079.81411,   0.00074,   0.00019,  -0.00080,  -4.30911,   1.00000
461422084.23262,353467500.60942,-131255111.40545,   0.00215,   0.00090,  -0.00251,475852514.73027,   0.00111,275852516.53004,   0.00074,   0.00019,  -0.00081,  -1.79977,   1.00000
460940670.70356,353849557.22181,-131492023.89237,   0.00215,   0.00091,  -0.00252,475859869.98556,   0.00112,275859871.90182,   0.00074,   0.00020,  -0.00081,  -1.91626,   1.00000
460464413.16190,354239923.28873,-131720937.47248,   0.00215,   0.00091,  -0.00253,475867352.05345,   0.00113,275867360.78690,   0.00075,   0.00020,  -0.00082,  -8.73345,   1.00000
459977166.53416,354618451.62140,-131959399.26143,   0.00215,   0.00092,  -0.00254,475874666.84614,   0.00113,275874670.51055,   0.00075,   0.00020,  -0.00082,  -3.66441,   1.00000
459492997.65555,355009085.92375,-132190037.90222,   0.00215,   0.00092,  -0.00255,475882018.21314,   0.00114,275882020.23835,   0.00076,   0.00020,  -0.00083,  -2.02521,   1.00000
459009871.22458,355386025.05267,-132422378.44012,   0.00216,   0.00093,  -0.00256,475889329.59787,   0.00115,275889330.89312,   0.00076,   0.00020,  -0.00083,  -1.29525,   1.00000
458519790.39907,355773126.96326,-132654572.34884,   0.00216,   0.00093,  -0.00256,475896630.73736,   0.00115,275896635.33262,   0.00076,   0.00020,  -0.00084,  -4.59526,   1.00000
458030751.89055,356146574.25939,-132888481.28707,   0.00216,   0.00093,  -0.00257,475903891.78825,   0.00116,275903900.63990,   0.00077,   0.00021,  -0.00084,  -8.85165,   1.00000
457534707.08974,356530166.03076,-133122228.06693,   0.00216,   0.00094,  -0.00258,475911152.64783,   0.00117,275911160.10189,   0.00077,   0.00021,  -0.00085,  -7.45406,   1.00000
457042695.68098,356914433.95592,-133351068.62539,   0.00216,   0.00094,  -0.00259,475918403.01605,   0.00117,275918408.09369,   0.00077,   0.00021,  -0.00085,  -5.07764,   1.00000
456550783.91200,357296466.38790,-133578731.98906,   0.00216,   0.00095,  -0.00260,475925660.46072,   0.00118,275925668.41582,   0.00078,   0.00021,  -0.00086,  -7.95511,   1.00000
456052726.38977,357677228.63687,-133809171.34550,   0.00216,   0.00095,  -0.00261,475932870.11302,   0.00119,275932871.34153,   0.00078,   0.00021,  -0.00086,  -1.22850,   1.00000
455554758.18039,358055755.44345,-134038425.54922,   0.00216,   0.00096,  -0.00261,475940077.31224,   0.00119,275940086.78501,   0.00079,   0.00021,  -0.00087,  -9.47277,   1.00000
455054531.05577,358435981.21431,-134266765.68575,   0.00216,   0.00096,  -0.00262,475947218.31480,   0.00120,275947220.82912,   0.00079,   0.00022,  -0.00087,  -2.51432,   1.00000
454554397.01371,358813989.96736,-134493936.35271,   0.00216,   0.00097,  -0.00263,475954366.65508,   0.00121,275954367.28636,   0.00079,   0.00022,  -0.00088,  -0.63128,   1.00000
454047972.53284,359190732.58393,-134723889.91708,   0.00216,   0.00097,  -0.00264,475961447.38435,   0.00121,275961456.76498,   0.00080,   0.00022,  -0.00089,  -9.38063,   1.00000
453548073.53464,359564330.52314,-134948723.42580,   0.00216,   0.00097,  -0.00265,475968620.00950,   0.00122,275968628.02008,   0.00080,   0.00022,  -0.00089,  -8.01057,   1.00000
453040916.35778,359947926.47342,-135173360.50866,   0.00216,   0.00098,  -0.00265,475975792.86117,   0.00123,275975794.70791,   0.00080,   0.00022,  -0.00090,  -1.84674,   1.00000
452532277.05692,360321999.60496,-135400118.17738,   0.00216,   0.00098,  -0.00266,475982821.36023,   0.00123,275982827.66602,   0.00081,   0.00023,  -0.00090,  -6.30578,   1.00000
452023743.83617,360693889.10199,-135625721.32717,   0.00216,   0.00099,  -0.00267,475989866.85960,   0.00124,275989873.02096,   0.00081,   0.00023,  -0.00091,  -6.16136,   1.00000
451514380.12832,361074786.09504,-135847150.39479,   0.00217,   0.00099,  -0.00268,475996978.14559,   0.00125,275996983.52086,   0.00081,   0.00023,  -0.00091,  -5.37528,   1.00000
451003460.39722,361446262.06138,-136070762.71249,   0.00217,   0.00100,  -0.00269,476003953.87703,   0.00125,276003959.87532,   0.00082,   0.00023,  -0.00092,  -5.99829,   1.00000
450498301.47563,361825778.28997,-136286236.99234,   0.00217,   0.00100,  -0.00270,476011060.89925,   0.00126,276011070.51485,   0.00082,   0.00023,  -0.00092,  -9.61560,   1.00000
449980968.84995,362193848.27256,-136511554.95905,   0.00217,   0.00100,  -0.00270,476017994.62674,   0.00127,276018002.32679,   0.00082,   0.00023,  -0.00093,  -7.70005,   1.00000
449469456.92928,362569931.85456,-136728710.14399,   0.00217,   0.00101,  -0.00271,476025060.64354,   0.00127,276025068.63378,   0.00083,   0.00024,  -0.00093,  -7.99024,   1.00000
448951389.19697,362944760.33852,-136948695.47458,   0.00217,   0.00101,  -0.00272,476032068.39446,   0.00128,276032078.38724,   0.00083,   0.00024,  -0.00094,  -9.99278,   1.00000
448438344.27453,363309380.77924,-137166985.76570,   0.00217,   0.00102,  -0.00273,476039014.73930,   0.00129,276039022.31464,   0.00083,   0.00024,  -0.00094,  -7.57534,   1.00000
447924495.79022,363682942.12644,-137381078.70868,   0.00217,   0.00102,  -0.00274,476046027.40140,   0.00129,276046031.81265,   0.00084,   0.00024,  -0.00095,  -4.41125,   1.00000
447404005.66086,364055264.63392,-137598019.53334,   0.00217,   0.00103,  -0.00274,476052981.55606,   0.00130,276052984.85013,   0.00084,   0.00024,  -0.00095,  -3.29407,   1.00000
446887600.79622,364428505.25797,-137810217.34027,   0.00217,   0.00103,  -0.00275,476059923.56382,   0.00131,276059925.19424,   0.00084,   0.00024,  -0.00096,  -1.63041,   1.00000
446371324.59410,364799577.47476,-138021311.03084,   0.00217,   0.00104,  -0.00276,476066872.85810,   0.00131,276066877.68010,   0.00085,   0.00025,  -0.00096,  -4.82200,   1.00000
445855196.82185,365168497.83084,-138231308.57231,   0.00217,   0.00104,  -0.00277,476073838.68095,   0.00132,276073842.20213,   0.00085,   0.00025,  -0.00097,  -3.52118,   1.00000
445332322.59196,365536203.32999,-138444175.89912,   0.00217,   0.00105,  -0.00278,476080745.87282,   0.00133,276080750.37284,   0.00085,   0.00025,  -0.00097,  -4.50003,   1.00000
444813550.48032,365904888.90334,-138652337.09297,   0.00217,   0.00105,  -0.00278,476087640.44774,   0.00133,276087645.52155,   0.00086,   0.00025,  -0.00098,  -5.07381,   1.00000
444290965.21772,366268296.91936,-138863013.01505,   0.00217,   0.00105,  -0.00279,476094571.57818,   0.00134,276094577.93587,   0.00086,   0.00025,  -0.00099,  -6.35770,   1.00000
443765516.68262,366633650.70927,-139072965.97937,   0.00217,   0.00106,  -0.00280,476101423.84544,   0.00134,276101428.92391,   0.00086,   0.00026,  -0.00099,  -5.07847,   1.00000
443251192.30083,366999099.26504,-139274274.75845,   0.00217,   0.00106,  -0.00281,476108328.89519,   0.00135,276108334.80877,   0.00087,   0.00026,  -0.00100,  -5.91358,   1.00000
442726034.26617,367360205.14259,-139482081.53667,   0.00217,   0.00107,  -0.00282,476115204.73398,   0.00136,276115209.70018,   0.00087,   0.00026,  -0.00100,  -4.96620,   1.00000
442205004.43499,367722369.56082,-139685227.13873,   0.00217,   0.00107,  -0.00282,476122067.33429,   0.00136,276122071.14932,   0.00087,   0.00026,  -0.00101,  -3.81503,   1.00000
441684142.74912,368082429.51375,-139887311.81384,   0.00217,   0.00108,  -0.00283,476128936.89786,   0.00137,276128944.43508,   0.00088,   0.00026,  -0.00101,  -7.53722,   1.00000
441160287.73001,368444508.99883,-140088734.24804,   0.00217,   0.00108,  -0.00284,476135726.93991,   0.00138,276135736.02468,   0.00088,   0.00026,  -0.00102,  -9.08477,   1.00000
440642852.76323,368814418.04655,-140281942.69636,   0.00217,   0.00109,  -0.00285,476142658.96062,   0.00138,276142661.91533,   0.00088,   0.00027,  -0.00102,  -2.95471,   1.00000
440115358.41666,369169084.71866,-140484852.76748,   0.00217,   0.00109,  -0.00285,476149492.65986,   0.00139,276149502.50797,   0.00089,   0.00027,  -0.00103,  -9.84811,   1.00000
439595988.12062,369528110.77182,-140679588.92967,   0.00217,   0.00109,  -0.00286,476156300.65506,   0.00140,276156303.46906,   0.00089,   0.00027,  -0.00103,  -2.81400,   1.00000
439072838.70628,369881844.94686,-140876857.69835,   0.00217,   0.00110,  -0.00287,476163136.29788,   0.00140,276163141.71316,   0.00089,   0.00027,  -0.00104,  -5.41528,   1.00000
438552947.94686,370247528.17254,-141066309.35878,   0.00217,   0.00110,  -0.00288,476170018.19621,   0.00141,276170020.82258,   0.00090,   0.00027,  -0.00104,  -2.62637,   1.00000
438034171.34004,370600357.92397,-141257987.78753,   0.00217,   0.00111,  -0.00289,476176854.97589,   0.00141,276176856.18096,   0.00090,   0.00028,  -0.00105,  -1.20507,   1.00000
437508266.18356,370952057.65672,-141452620.71128,   0.00217,   0.00111,  -0.00289,476183632.85014,   0.00142,276183635.45607,   0.00090,   0.00028,  -0.00105,  -2.60593,   1.00000
436986526.14942,371304969.82373,-141642693.12900,   0.00217,   0.00112,  -0.00290,476190396.05725,   0.00143,276190400.33260,   0.00091,   0.00028,  -0.00106,  -4.27536,   1.00000
436471496.69353,371665655.51299,-141824537.63436,   0.00217,   0.00112,  -0.00291,476197291.47493,   0.00143,276197299.29772,   0.00091,   0.00028,  -0.00106,  -7.82280,   1.00000
435950182.81876,372014502.06936,-142012639.54954,   0.00217,   0.00113,  -0.00292,476204085.27934,   0.00144,276204086.49559,   0.00091,   0.00028,  -0.00107,  -1.21625,   1.00000
435433047.87416,372364609.33122,-142196218.21267,   0.00217,   0.00113,  -0.00292,476210854.68915,   0.00145,276210858.90633,   0.00091,   0.00029,  -0.00107,  -4.21718,   1.00000
434911298.50480,372720093.07826,-142379063.65418,   0.00217,   0.00114,  -0.00293,476217722.25845,   0.00145,276217724.13706,   0.00092,   0.00029,  -0.00108,  -1.87861,   1.00000
434394639.26836,373066179.24288,-142560698.38876,   0.00217,   0.00114,  -0.00294,476224512.74562,   0.00146,276224518.61448,   0.00092,   0.00029,  -0.00108,  -5.86885,   1.00000
433874638.61164,373414478.89587,-142741811.53716,   0.00217,   0.00114,  -0.00295,476231222.49479,   0.00147,276231230.84032,   0.00092,   0.00029,  -0.00109,  -8.34552,   1.00000
433362459.39565,373759912.28587,-142918011.44974,   0.00217,   0.00115,  -0.00295,476238020.76685,   0.00147,276238020.87226,   0.00093,   0.00029,  -0.00109,  -0.10540,   1.00000
432845693.84635,374110652.86666,-143093458.88347,   0.00217,   0.00115,  -0.00296,476244899.26925,   0.00148,276244903.99785,   0.00093,   0.00029,  -0.00110,  -4.72860,   1.00000
432330357.87703,374456344.06878,-143268224.50719,   0.00217,   0.00116,  -0.00297,476251613.30455,   0.00148,276251622.37500,   0.00093,   0.00030,  -0.00111,  -9.07046,   1.00000
431818995.19962,374795869.86604,-143441609.74317,   0.00217,   0.00116,  -0.00298,476258437.16460,   0.00149,276258444.44678,   0.00094,   0.00030,  -0.00111,  -7.28218,   1.00000
431303300.03863,375148225.77264,-143611178.82896,   0.00217,   0.00117,  -0.00298,476265233.03631,   0.00150,276265240.35323,   0.00094,   0.00030,  -0.00112,  -7.31693,   1.00000
430796475.86969,375487188.62305,-143779222.81379,   0.00217,   0.00117,  -0.00299,476272054.17447,   0.00150,276272057.00131,   0.00094,   0.00030,  -0.00112,  -2.82684,   1.00000
430286145.90936,375828462.53321,-143946820.45732,   0.00217,   0.00118,  -0.00300,476278785.27651,   0.00151,276278790.98561,   0.00094,   0.00030,  -0.00113,  -5.70910,   1.00000
429772152.00679,376164454.85280,-144117007.46044,   0.00217,   0.00118,  -0.00301,476285552.98556,   0.00152,276285561.82387,   0.00095,   0.00031,  -0.00113,  -8.83831,   1.00000
429270211.45545,376501040.30542,-144278850.81723,   0.00217,   0.00118,  -0.00301,476292375.53039,   0.00152,276292382.87114,   0.00095,   0.00031,  -0.00114,  -7.34075,   1.00000
428764703.37610,376839985.93498,-144440284.83215,   0.00217,   0.00119,  -0.00302,476299116.85639,   0.00153,276299120.99620,   0.00095,   0.00031,  -0.00114,  -4.13981,   1.00000
428254686.38767,377184103.80200,-144600935.63957,   0.00217,   0.00119,  -0.00303,476305948.16074,   0.00153,276305952.66874,   0.00096,   0.00031,  -0.00115,  -4.50800,   1.00000
427749786.84841,377519244.54292,-144760620.83694,   0.00217,   0.00120,  -0.00304,476312707.99759,   0.00154,276312710.91984,   0.00096,   0.00031,  -0.00115,  -2.92225,   1.00000
427257055.67143,377855049.39856,-144912023.15975,   0.00217,   0.00120,  -0.00304,476319511.95511,   0.00155,276319518.53002,   0.00096,   0.00032,  -0.00116,  -6.57492,   1.00000
426752782.98098,378186459.66477,-145070008.62503,   0.00217,   0.00121,  -0.00305,476326289.54900,   0.00155,276326296.35280,   0.00096,   0.00032,  -0.00116,  -6.80380,   1.00000
426260753.64769,378518577.09835,-145219731.86648,   0.00217,   0.00121,  -0.00306,476333119.71285,   0.00156,276333123.18463,   0.00097,   0.00032,  -0.00117,  -3.47178,   1.00000
425761077.78138,378849713.48946,-145372571.85022,   0.00217,   0.00122,  -0.00306,476339891.64378,   0.00157,276339893.55698,   0.00097,   0.00032,  -0.00117,  -1.91320,   1.00000
425265674.86328,379182437.43268,-145521116.19095,   0.00217,   0.00122,  -0.00307,476346644.46763,   0.00157,276346646.71111,   0.00097,   0.00032,  -0.00118,  -2.24347,   1.00000
424774727.99922,379509051.74563,-145668363.92296,   0.00217,   0.00123,  -0.00308,476353495.23139,   0.00158,276353501.97115,   0.00098,   0.00033,  -0.00118,  -6.73976,   1.00000
424284788.24337,379831265.97507,-145815275.81222,   0.00217,   0.00123,  -0.00309,476360187.12218,   0.00159,276360189.42988,   0.00098,   0.00033,  -0.00119,  -2.30770,   1.00000
423798528.00463,380157738.69001,-145957458.76531,   0.00217,   0.00123,  -0.00309,476367030.62458,   0.00159,276367036.25449,   0.00098,   0.00033,  -0.00119,  -5.62991,   1.00000
423316580.48656,380485884.28573,-146095408.59280,   0.00217,   0.00124,  -0.00310,476373862.87660,   0.00160,276373865.09919,   0.00098,   0.00033,  -0.00120,  -2.22259,   1.00000
422826846.83045,380813077.23687,-146236513.27635,   0.00217,   0.00124,  -0.00311,476380628.23859,   0.00160,276380637.39993,   0.00099,   0.00033,  -0.00121,  -9.16134,   1.00000
422346504.43889,381127397.60286,-146376382.95339,   0.00217,   0.00125,  -0.00311,476387421.48736,   0.00161,276387426.31691,   0.00099,   0.00034,  -0.00121,  -4.82955,   1.00000
421869645.53465,381453726.22557,-146508571.98821,   0.00217,   0.00125,  -0.00312,476394248.28846,   0.00162,276394254.81175,   0.00099,   0.00034,  -0.00122,  -6.52329,   1.00000
421394007.54680,381768072.80679,-146643502.86355,   0.00217,   0.00126,  -0.00313,476401032.38109,   0.00162,276401033.91157,   0.00100,   0.00034,  -0.00122,  -1.53048,   1.00000
420921858.86823,382094426.31625,-146770766.28749,   0.00217,   0.00126,  -0.00314,476407849.65894,   0.00163,276407852.46239,   0.00100,   0.00034,  -0.00123,  -2.80345,   1.00000
420447011.29826,382405347.65546,-146904235.19428,   0.00217,   0.00127,  -0.00314,476414647.81530,   0.00164,276414648.45406,   0.00100,   0.00034,  -0.00123,  -0.63876,   1.00000
419983979.63743,382727460.83115,-147026120.91858,   0.00217,   0.00127,  -0.00315,476421547.58895,   0.00164,276421548.95279,   0.00100,   0.00035,  -0.00124,  -1.36384,   1.00000
419517758.79386,383042013.54242,-147151305.58186,   0.00217,   0.00127,  -0.00316,476428302.30811,   0.00165,276428307.01327,   0.00101,   0.00035,  -0.00124,  -4.70516,   1.00000
419051946.61107,383354904.44602,-147275791.51747,   0.00217,   0.00128,  -0.00316,476435068.05401,   0.00166,276435073.16000,   0.00101,   0.00035,  -0.00125,  -5.10598,   1.00000
418594927.80996,383665329.22623,-147395669.47442,   0.00217,   0.00128,  -0.00317,476441903.89521,   0.00166,276441912.25169,   0.00101,   0.00035,  -0.00125,  -8.35648,   1.00000
418138343.60024,383974123.96904,-147514873.38364,   0.00217,   0.00129,  -0.00318,476448750.33203,   0.00167,276448759.10176,   0.00102,   0.00036,  -0.00126,  -8.76973,   1.00000
417686105.00977,384284829.51591,-147629992.01092,   0.00217,   0.00129,  -0.00318,476455582.90662,   0.00167,276455586.29576,   0.00102,   0.00036,  -0.00126,  -3.38914,   1.00000
417234294.96120,384593912.37047,-147744453.04804,   0.00217,   0.00130,  -0.00319,476462416.84872,   0.00168,276462421.09584,   0.00102,   0.00036,  -0.00127,  -4.24712,   1.00000
416782926.42339,384901386.62286,-147858263.06450,   0.00217,   0.00130,  -0.00320,476469261.07620,   0.00169,276469263.41249,   0.00102,   0.00036,  -0.00127,  -2.33628,   1.00000
416344400.77387,385210011.71368,-147964115.63796,   0.00217,   0.00131,  -0.00321,476476148.64833,   0.00169,276476150.32002,   0.00103,   0.00036,  -0.00128,  -1.67169,   1.00000
415898588.86244,385507787.85796,-148076807.44185,   0.00217,   0.00131,  -0.00321,476482915.17935,   0.00170,276482921.03770,   0.00103,   0.00037,  -0.00129,  -5.85835,   1.00000
415464879.66858,385816839.36343,-148178007.27534,   0.00217,   0.00131,  -0.00322,476489788.51015,   0.00171,276489794.81885,   0.00103,   0.00037,  -0.00129,  -6.30870,   1.00000
415028522.44283,386110732.48348,-148285584.04822,   0.00217,   0.00132,  -0.00323,476496640.79365,   0.00171,276496644.00118,   0.00103,   0.00037,  -0.00130,  -3.20753,   1.00000
414599620.25427,386420267.72808,-148382178.31962,   0.00217,   0.00132,  -0.00323,476503499.14354,   0.00172,276503504.13823,   0.00104,   0.00037,  -0.00130,  -4.99469,   1.00000
414176687.49919,386713894.72936,-148481287.39172,   0.00217,   0.00133,  -0.00324,476510401.80897,   0.00173,276510403.58183,   0.00104,   0.00037,  -0.00131,  -1.77287,   1.00000
413749471.37429,387010396.66703,-148580315.21458,   0.00217,   0.00133,  -0.00325,476517214.12907,   0.00173,276517217.86125,   0.00104,   0.00038,  -0.00131,  -3.73218,   1.00000
413331382.54736,387304632.15580,-148674888.81198,   0.00217,   0.00134,  -0.00325,476524100.65144,   0.00174,276524102.78933,   0.00104,   0.00038,  -0.00132,  -2.13789,   1.00000
412917644.20409,387600987.35944,-148765517.72294,   0.00217,   0.00134,  -0.00326,476530961.73864,   0.00175,276530966.44672,   0.00105,   0.00038,  -0.00132,  -4.70808,   1.00000
412504377.77275,387895877.92871,-148855610.85797,   0.00217,   0.00134,  -0.00327,476537831.32284,   0.00175,276537836.26931,   0.00105,   0.00038,  -0.00133,  -4.94647,   1.00000
412100314.14401,388188542.01674,-148941295.18673,   0.00217,   0.00135,  -0.00327,476544773.54618,   0.00176,276544776.09068,   0.00105,   0.00039,  -0.00133,  -2.54450,   1.00000
411691855.41685,388484140.40494,-149026951.90069,   0.00217,   0.00135,  -0.00328,476551625.51169,   0.00176,276551630.32689,   0.00106,   0.00039,  -0.00134,  -4.81520,   1.00000
411289537.14137,388764014.47728,-149115225.45223,   0.00217,   0.00136,  -0.00328,476558519.10114,   0.00177,276558522.38228,   0.00106,   0.00039,  -0.00135,  -3.28114,   1.00000
410894677.88686,389059631.64670,-149192599.31587,   0.00217,   0.00136,  -0.00329,476565416.64333,   0.00178,276565424.45328,   0.00106,   0.00039,  -0.00135,  -7.80994,   1.00000
410509868.56942,389343197.70730,-149269255.73853,   0.00217,   0.00137,  -0.00330,476572329.24375,   0.00178,276572335.96545,   0.00106,   0.00039,  -0.00136,  -6.72170,   1.00000
410116719.31391,389626167.42058,-149349313.60294,   0.00217,   0.00137,  -0.00330,476579186.15827,   0.00179,276579189.18819,   0.00107,   0.00040,  -0.00136,  -3.02992,   1.00000
409732147.45121,389916859.95653,-149421393.89467,   0.00217,   0.00137,  -0.00331,476586169.37150,   0.00180,276586171.20010,   0.00107,   0.00040,  -0.00137,  -1.82861,   1.00000
409361543.73506,390199215.41905,-149489425.35491,   0.00217,   0.00138,  -0.00332,476593131.39560,   0.00180,276593134.21403,   0.00107,   0.00040,  -0.00137,  -2.81842,   1.00000
408983292.66700,390471176.97230,-149564532.63222,   0.00217,   0.00138,  -0.00332,476599973.08190,   0.00181,276599978.79750,   0.00107,   0.00040,  -0.00138,  -5.71560,   1.00000
408617547.87464,390754559.63321,-149628320.36169,   0.00217,   0.00139,  -0.00333,476606923.04021,   0.00182,276606923.84138,   0.00108,   0.00041,  -0.00138,  -0.80118,   1.00000
408248434.23773,391032963.48796,-149695066.28037,   0.00218,   0.00139,  -0.00334,476613896.27086,   0.00182,276613901.45569,   0.00108,   0.00041,  -0.00139,  -5.18483,   1.00000
407888255.93352,391307597.42807,-149758312.63784,   0.00218,   0.00140,  -0.00334,476620759.40662,   0.00183,276620768.03689,   0.00108,   0.00041,  -0.00139,  -8.63027,   1.00000
407532947.84987,391586334.10720,-149817024.74238,   0.00218,   0.00140,  -0.00335,476627790.07761,   0.00184,276627790.19388,   0.00108,   0.00041,  -0.00140,  -0.11628,   1.00000
407182709.76339,391857691.19755,-149875648.23722,   0.00218,   0.00140,  -0.00336,476634726.53708,   0.00184,276634728.70690,   0.00109,   0.00042,  -0.00141,  -2.16983,   1.00000
406836801.42361,392131482.00941,-149930530.04638,   0.00218,   0.00141,  -0.00336,476641642.97430,   0.00185,276641643.55949,   0.00109,   0.00042,  -0.00141,  -0.58519,   1.00000
406500391.09397,392403294.62067,-149981211.20488,   0.00218,   0.00141,  -0.00337,476648625.30200,   0.00186,276648625.46632,   0.00109,   0.00042,  -0.00142,  -0.16431,   1.00000
406156160.35725,392664905.79614,-150039062.70082,   0.00218,   0.00142,  -0.00337,476655478.72993,   0.00186,276655488.05393,   0.00109,   0.00042,  -0.00142,  -9.32401,   1.00000
405829794.77733,392933569.65032,-150085205.21686,   0.00218,   0.00142,  -0.00338,476662531.59841,   0.00187,276662540.70355,   0.00110,   0.00042,  -0.00143,  -9.10514,   1.00000
405498681.35534,393205462.75832,-150131493.89650,   0.00218,   0.00143,  -0.00339,476669504.21910,   0.00187,276669506.23641,   0.00110,   0.00043,  -0.00143,  -2.01732,   1.00000
405181678.44694,393469421.63045,-150173955.98018,   0.00218,   0.00143,  -0.00339,476676440.36361,   0.00188,276676449.79413,   0.00110,   0.00043,  -0.00144,  -9.43052,   1.00000
404861334.32585,393728541.67004,-150219481.61200,   0.00218,   0.00143,  -0.00340,476683416.72681,   0.00189,276683424.60202,   0.00110,   0.00043,  -0.00144,  -7.87521,   1.00000
404554411.65079,393989488.46696,-150257515.44056,   0.00218,   0.00144,  -0.00340,476690430.09519,   0.00189,276690437.48992,   0.00111,   0.00043,  -0.00145,  -7.39472,   1.00000
404251781.37205,394253010.57202,-150291909.83670,   0.00218,   0.00144,  -0.00341,476697421.57854,   0.00190,276697425.51409,   0.00111,   0.00044,  -0.00146,  -3.93555,   1.00000
403950340.93835,394505778.38797,-150329743.71602,   0.00218,   0.00145,  -0.00342,476704351.75370,   0.00191,276704355.83320,   0.00111,   0.00044,  -0.00146,  -4.07950,   1.00000
403648639.36217,394767073.44141,-150363592.92751,   0.00218,   0.00145,  -0.00342,476711342.96031,   0.00191,276711349.91398,   0.00111,   0.00044,  -0.00147,  -6.95367,   1.00000
403361120.37514,395020640.07246,-150393725.62836,   0.00218,   0.00145,  -0.00343,476718312.72540,   0.00192,276718320.51240,   0.00112,   0.00044,  -0.00147,  -7.78700,   1.00000
403083255.94566,395272420.01338,-150419810.76509,   0.00218,   0.00146,  -0.00343,476725352.39306,   0.00193,276725356.02576,   0.00112,   0.00045,  -0.00148,  -3.63270,   1.00000
402796635.72758,395523872.86511,-150449477.60674,   0.00218,   0.00146,  -0.00344,476732329.88343,   0.00193,276732331.71738,   0.00112,   0.00045,  -0.00148,  -1.83395,   1.00000
402532712.02379,395776537.70044,-150467941.06165,   0.00219,   0.00147,  -0.00345,476739397.18616,   0.00194,276739406.47856,   0.00113,   0.00045,  -0.00149,  -9.29240,   1.00000
402259997.88317,396028894.78852,-150490013.22188,   0.00219,   0.00147,  -0.00345,476746411.90432,   0.00195,276746421.14022,   0.00113,   0.00045,  -0.00149,  -9.23589,   1.00000
402001496.58775,396273680.01927,-150508456.41586,   0.00219,   0.00147,  -0.00346,476753402.36518,   0.00195,276753411.15249,   0.00113,   0.00046,  -0.00150,  -8.78731,   1.00000
401742709.16977,396527003.15697,-150522979.52214,   0.00219,   0.00148,  -0.00346,476760462.06573,   0.00196,276760464.18350,   0.00113,   0.00046,  -0.00151,  -2.11776,   1.00000
401494341.28233,396769053.21202,-150537264.87830,   0.00219,   0.00148,  -0.00347,476767513.95102,   0.00197,276767520.10527,   0.00114,   0.00046,  -0.00151,  -6.15425,   1.00000
401250188.90319,397013870.62205,-150548028.60935,   0.00219,   0.00149,  -0.00348,476774541.82386,   0.00197,276774549.78464,   0.00114,   0.00046,  -0.00152,  -7.96078,   1.00000
401007178.36891,397248228.10116,-150562381.97871,   0.00219,   0.00149,  -0.00348,476781515.34148,   0.00198,276781519.90145,   0.00114,   0.00046,  -0.00152,  -4.55997,   1.00000
400776958.93544,397494156.40134,-150565687.90001,   0.00219,   0.00149,  -0.00349,476788585.33739,   0.00199,276788586.76427,   0.00114,   0.00047,  -0.00153,  -1.42688,   1.00000
400557180.18670,397728929.52996,-150568831.04875,   0.00219,   0.00150,  -0.00349,476795654.49272,   0.00199,276795655.51838,   0.00115,   0.00047,  -0.00153,  -1.02566,   1.00000
400328458.13379,397963514.60912,-150575635.64624,   0.00219,   0.00150,  -0.00350,476802662.85504,   0.00200,276802663.70391,   0.00115,   0.00047,  -0.00154,  -0.84887,   1.00000
400113252.96382,398200209.74026,-150575174.10330,   0.00220,   0.00151,  -0.00350,476809700.14581,   0.00201,276809706.99174,   0.00115,   0.00047,  -0.00154,  -6.84593,   1.00000
399907794.09113,398435280.51072,-150570834.83627,   0.00220,   0.00151,  -0.00351,476816811.07448,   0.00201,276816812.92693,   0.00115,   0.00048,  -0.00155,  -1.85245,   1.00000
399707187.87726,398663779.67733,-150566805.92710,   0.00220,   0.00151,  -0.00351,476823820.84506,   0.00202,276823830.43426,   0.00116,   0.00048,  -0.00156,  -9.58920,   1.00000
399506951.49665,398891426.64617,-150562694.27745,   0.00220,   0.00152,  -0.00352,476830841.52837,   0.00203,276830848.69103,   0.00116,   0.00048,  -0.00156,  -7.16265,   1.00000
399319502.25289,399130648.98447,-150547609.30826,   0.00220,   0.00152,  -0.00353,476837955.44945,   0.00203,276837962.78386,   0.00116,   0.00048,  -0.00157,  -7.33441,   1.00000
399143235.19213,399349476.49697,-150536238.10801,   0.00220,   0.00153,  -0.00353,476845007.84626,   0.00204,276845015.84049,   0.00116,   0.00049,  -0.00157,  -7.99424,   1.00000
398957171.60684,399577608.96316,-150524811.22181,   0.00220,   0.00153,  -0.00354,476852067.24095,   0.00205,276852069.34587,   0.00117,   0.00049,  -0.00158,  -2.10492,   1.00000
398785342.58124,399798566.75531,-150509978.88450,   0.00220,   0.00153,  -0.00354,476859094.76665,   0.00205,276859095.26956,   0.00117,   0.00049,  -0.00158,  -0.50290,   1.00000
398622524.06578,400027342.88693,-150487573.60270,   0.00220,   0.00154,  -0.00355,476866241.26617,   0.00206,276866244.42664,   0.00117,   0.00049,  -0.00159,  -3.16047,   1.00000
398460740.01027,400245943.48860,-150468925.01312,   0.00221,   0.00154,  -0.00355,476873331.15183,   0.00207,276873332.00453,   0.00117,   0.00050,  -0.00160,  -0.85270,   1.00000
398313175.89023,400457458.69009,-150446915.97582,   0.00221,   0.00155,  -0.00356,476880387.21299,   0.00207,276880391.40802,   0.00118,   0.00050,  -0.00160,  -4.19503,   1.00000
398168912.85298,400681325.52483,-150417764.55023,   0.00221,   0.00155,  -0.00356,476887483.24842,   0.00208,276887484.43745,   0.00118,   0.00050,  -0.00161,  -1.18903,   1.00000
398025644.43006,400895079.52183,-150392398.32947,   0.00221,   0.00155,  -0.00357,476894512.92621,   0.00209,276894515.56959,   0.00118,   0.00050,  -0.00161,  -2.64338,   1.00000
397892105.94409,401107344.30186,-150363287.33030,   0.00221,   0.00156,  -0.00357,476901602.24298,   0.00209,276901607.64489,   0.00118,   0.00051,  -0.00162,  -5.40191,   1.00000
397772034.64419,401321912.48375,-150327091.67197,   0.00221,   0.00156,  -0.00358,476908732.12837,   0.00210,276908732.53923,   0.00118,   0.00051,  -0.00162,  -0.41085,   1.00000
397652914.56248,401526441.27603,-150294713.53066,   0.00221,   0.00156,  -0.00358,476915785.65015,   0.00211,276915795.14552,   0.00119,   0.00051,  -0.00163,  -9.49536,   1.00000
397537028.77479,401743330.92747,-150255225.06860,   0.00222,   0.00157,  -0.00359,476922887.96622,   0.00211,276922891.05907,   0.00119,   0.00051,  -0.00163,  -3.09284,   1.00000
397431576.58867,401949459.55144,-150215831.61364,   0.00222,   0.00157,  -0.00359,476929981.11578,   0.00212,276929985.51135,   0.00119,   0.00052,  -0.00164,  -4.39557,   1.00000
397335811.02427,402154136.68365,-150172757.43334,   0.00222,   0.00158,  -0.00360,476937131.64685,   0.00213,276937140.13106,   0.00119,   0.00052,  -0.00165,  -8.48421,   1.00000
397244702.42227,402352663.90363,-150130177.38998,   0.00222,   0.00158,  -0.00360,476944195.89836,   0.00213,276944204.13297,   0.00120,   0.00052,  -0.00165,  -8.23461,   1.00000
397153763.83303,402550525.88358,-150087666.30182,   0.00222,   0.00158,  -0.00361,476951259.83275,   0.00214,276951267.16444,   0.00120,   0.00053,  -0.00166,  -7.33169,   1.00000
397075474.19742,402759983.02833,-150034339.74532,   0.00222,   0.00159,  -0.00361,476958419.77871,   0.00215,276958424.18886,   0.00120,   0.00053,  -0.00166,  -4.41015,   1.00000
396998824.61619,402950307.14413,-149988694.35322,   0.00223,   0.00159,  -0.00362,476965453.42465,   0.00215,276965456.17725,   0.00120,   0.00053,  -0.00167,  -2.75261,   1.00000
396934785.97246,403152233.17890,-149932244.08605,   0.00223,   0.00159,  -0.00362,476972573.10142,   0.00216,276972582.05671,   0.00121,   0.00053,  -0.00167,  -8.95529,   1.00000
396881133.54849,403343540.94183,-149875980.73909,   0.00223,   0.00160,  -0.00363,476979698.99702,   0.00217,276979705.30376,   0.00121,   0.00054,  -0.00168,  -6.30674,   1.00000
396818043.70019,403534980.43955,-149823551.10772,   0.00223,   0.00160,  -0.00363,476986758.87424,   0.00217,276986766.37562,   0.00121,   0.00054,  -0.00169,  -7.50137,   1.00000
396777819.88353,403728050.51260,-149760418.76915,   0.00223,   0.00160,  -0.00364,476993910.34241,   0.00218,276993919.81771,   0.00121,   0.00054,  -0.00169,  -9.47530,   1.00000
396742128.35579,403915115.85606,-149697845.35491,   0.00224,   0.00161,  -0.00364,477000974.00446,   0.00219,277000981.94047,   0.00122,   0.00054,  -0.00170,  -7.93601,   1.00000
396701994.36422,404106939.62596,-149634986.64208,   0.00224,   0.00161,  -0.00365,477008123.39257,   0.00219,277008132.01638,   0.00122,   0.00055,  -0.00170,  -8.62381,   1.00000
396680405.47288,404286648.53968,-149569392.32245,   0.00224,   0.00161,  -0.00365,477015152.76006,   0.00220,277015161.80636,   0.00122,   0.00055,  -0.00171,  -9.04630,   1.00000
396663871.83025,404470352.77299,-149499819.00079,   0.00224,   0.00162,  -0.00366,477022331.72043,   0.00221,277022339.95534,   0.00122,   0.00055,  -0.00171,  -8.23492,   1.00000
396655522.04602,404651917.80964,-149427443.36073,   0.00224,   0.00162,  -0.00366,477029393.78919,   0.00221,277029399.01693,   0.00123,   0.00055,  -0.00172,  -5.22774,   1.00000
396643443.11965,404829111.31791,-149358615.70775,   0.00225,   0.00163,  -0.00367,477036482.89252,   0.00222,277036483.62907,   0.00123,   0.00056,  -0.00173,  -0.73655,   1.00000
396644575.63762,405008735.33942,-149282858.44407,   0.00225,   0.00163,  -0.00367,477043596.12246,   0.00223,277043599.34249,   0.00123,   0.00056,  -0.00173,  -3.22003,   1.00000
396658884.98385,405190781.84105,-149200193.85898,   0.00225,   0.00163,  -0.00368,477050742.09926,   0.00223,277050745.93185,   0.00123,   0.00056,  -0.00174,  -3.83259,   1.00000
396673902.21429,405363148.00538,-149121523.24663,   0.00225,   0.00164,  -0.00368,477057827.53432,   0.00224,277057828.18253,   0.00124,   0.00056,  -0.00174,  -0.64820,   1.00000
396698357.00463,405534157.20584,-149039340.39127,   0.00225,   0.00164,  -0.00369,477064964.32960,   0.00225,277064968.70019,   0.00124,   0.00057,  -0.00175,  -4.37059,   1.00000
396727197.56577,405699333.93927,-148957762.84525,   0.00226,   0.00164,  -0.00369,477072011.72854,   0.00225,277072017.41893,   0.00124,   0.00057,  -0.00175,  -5.69039,   1.00000
396768318.87650,405876038.81375,-148865499.58093,   0.00226,   0.00165,  -0.00370,477079149.67150,   0.00226,277079158.92075,   0.00124,   0.00057,  -0.00176,  -9.24925,   1.00000
396806402.21734,406039321.99779,-148780650.28792,   0.00226,   0.00165,  -0.00370,477086255.33406,   0.00227,277086263.16923,   0.00125,   0.00057,  -0.00177,  -7.83518,   1.00000
396862056.49176,406199791.56339,-148689321.16388,   0.00226,   0.00165,  -0.00370,477093303.88003,   0.00227,277093308.63800,   0.00125,   0.00058,  -0.00177,  -4.75797,   1.00000
396912995.97101,406365010.09659,-148597817.85180,   0.00227,   0.00166,  -0.00371,477100438.68898,   0.00228,277100440.94577,   0.00125,   0.00058,  -0.00178,  -2.25679,   1.00000
396981454.56081,406527397.87651,-148499842.58232,   0.00227,   0.00166,  -0.00371,477107506.23161,   0.00229,277107514.46049,   0.00125,   0.00058,  -0.00178,  -8.22889,   1.00000
397055513.56694,406684647.52454,-148401827.49667,   0.00227,   0.00166,  -0.00372,477114670.72023,   0.00229,277114672.77604,   0.00126,   0.00059,  -0.00179,  -2.05581,   1.00000
397133826.69727,406836143.66095,-148304439.93308,   0.00227,   0.00166,  -0.00372,477121735.23839,   0.00230,277121739.14267,   0.00126,   0.00059,  -0.00179,  -3.90428,   1.00000
397225058.16224,406990092.46023,-148200202.89151,   0.00228,   0.00167,  -0.00373,477128828.99178,   0.00231,277128835.91764,   0.00126,   0.00059,  -0.00180,  -6.92587,   1.00000
397315975.26779,407143540.57600,-148096221.90709,   0.00228,   0.00167,  -0.00373,477135920.64242,   0.00231,277135929.86819,   0.00126,   0.00059,  -0.00180,  -9.22578,   1.00000
397410259.86150,407300280.62026,-147989088.09309,   0.00228,   0.00167,  -0.00374,477142990.57771,   0.00232,277142993.84110,   0.00127,   0.00060,  -0.00181,  -3.26339,   1.00000
397524072.34087,407445775.07184,-147878646.14911,   0.00228,   0.00168,  -0.00374,477150108.36256,   0.00233,277150113.42106,   0.00127,   0.00060,  -0.00182,  -5.05850,   1.00000
397628006.40913,407591658.55810,-147772151.97451,   0.00229,   0.00168,  -0.00374,477157164.55182,   0.00233,277157169.82465,   0.00127,   0.00060,  -0.00182,  -5.27283,   1.00000
397755110.18687,407730107.55163,-147658936.99922,   0.00229,   0.00168,  -0.00375,477164247.88049,   0.00234,277164254.74230,   0.00127,   0.00060,  -0.00183,  -6.86181,   1.00000
397884576.13283,407880852.81668,-147538797.02193,   0.00229,   0.00169,  -0.00375,477171369.28281,   0.00235,277171371.66907,   0.00128,   0.00061,  -0.00183,  -2.38626,   1.00000
398011704.99121,408009364.35725,-147429935.65380,   0.00229,   0.00169,  -0.00376,477178387.74787,   0.00235,277178388.45533,   0.00128,   0.00061,  -0.00184,  -0.70746,   1.00000
398154314.95569,408153065.37887,-147307035.96549,   0.00230,   0.00169,  -0.00376,477185464.66529,   0.00236,277185470.73080,   0.00128,   0.00061,  -0.00184,  -6.06551,   1.00000
398306809.53967,408286419.06560,-147184547.52755,   0.00230,   0.00170,  -0.00376,477192546.73073,   0.00237,277192548.00978,   0.00128,   0.00061,  -0.00185,  -1.27905,   1.00000
398458780.38807,408419300.59467,-147062352.09747,   0.00230,   0.00170,  -0.00377,477199617.11846,   0.00237,277199622.22602,   0.00129,   0.00062,  -0.00186,  -5.10756,   1.00000
398623349.92716,408554578.55260,-146933355.33695,   0.00231,   0.00170,  -0.00377,477206723.30181,   0.00238,277206726.64725,   0.00129,   0.00062,  -0.00186,  -3.34544,   1.00000
398788271.05667,408680427.70665,-146808439.99034,   0.00231,   0.00170,  -0.00378,477213757.24115,   0.00239,277213765.95827,   0.00129,   0.00062,  -0.00187,  -8.71712,   1.00000
398965730.01047,408808670.97823,-146676723.82770,   0.00231,   0.00171,  -0.00378,477220826.53297,   0.00239,277220835.53494,   0.00129,   0.00062,  -0.00187,  -9.00196,   1.00000
399143518.93127,408927519.20885,-146549091.56617,   0.00232,   0.00171,  -0.00378,477227832.78314,   0.00240,277227839.97935,   0.00130,   0.00063,  -0.00188,  -7.19621,   1.00000
399333783.14995,409048757.35586,-146414658.27948,   0.00232,   0.00171,  -0.00379,477234874.00735,   0.00241,277234874.76261,   0.00130,   0.00063,  -0.00188,  -0.75525,   1.00000
399532792.00007,409168579.14066,-146276878.60401,   0.00232,   0.00172,  -0.00379,477241960.49697,   0.00241,277241966.52918,   0.00130,   0.00063,  -0.00189,  -6.03222,   1.00000
399735730.21687,409282793.31327,-146139739.72874,   0.00232,   0.00172,  -0.00380,477248963.59028,   0.00242,277248966.55359,   0.00130,   0.00064,  -0.00189,  -2.96330,   1.00000
399946390.19068,409404501.55340,-145995501.71977,   0.00233,   0.00172,  -0.00380,477256082.16331,   0.00243,277256085.35600,   0.00131,   0.00064,  -0.00190,  -3.19268,   1.00000
400161908.32567,409511678.46912,-145855662.30432,   0.00233,   0.00172,  -0.00380,477263046.56686,   0.00243,277263050.69616,   0.00131,   0.00064,  -0.00191,  -4.12930,   1.00000
400385067.81029,409626335.33138,-145708732.76048,   0.00233,   0.00173,  -0.00381,477270126.32463,   0.00244,277270134.79416,   0.00131,   0.00064,  -0.00191,  -8.46953,   1.00000
400608439.81725,409731638.49492,-145565901.04093,   0.00234,   0.00173,  -0.00381,477277152.01223,   0.00245,277277153.72833,   0.00131,   0.00065,  -0.00192,  -1.71610,   1.00000
400845020.32377,409830361.98025,-145420029.00575,   0.00234,   0.00173,  -0.00381,477284140.37138,   0.00245,277284141.48623,   0.00132,   0.00065,  -0.00192,  -1.11485,   1.00000
401092744.08947,409940270.64086,-145263618.12200,   0.00234,   0.00173,  -0.00382,477291214.08201,   0.00246,277291221.61089,   0.00132,   0.00065,  -0.00193,  -7.52888,   1.00000
401341617.23940,410031946.41992,-145115056.02202,   0.00235,   0.00174,  -0.00382,477298171.76485,   0.00247,277298174.91458,   0.00132,   0.00065,  -0.00193,  -3.14972,   1.00000
401592240.34487,410135811.68381,-144959607.23923,   0.00235,   0.00174,  -0.00382,477305159.47750,   0.00247,277305160.51666,   0.00132,   0.00066,  -0.00194,  -1.03916,   1.00000
401852298.54366,410229307.04523,-144804596.59297,   0.00235,   0.00174,  -0.00383,477312138.77388,   0.00248,277312141.35173,   0.00133,   0.00066,  -0.00194,  -2.57785,   1.00000
402124360.51243,410325052.63671,-144642802.44082,   0.00236,   0.00175,  -0.00383,477319150.71457,   0.00249,277319152.95381,   0.00133,   0.00066,  -0.00195,  -2.23923,   1.00000
402405755.95766,410410415.07049,-144481450.82693,   0.00236,   0.00175,  -0.00383,477326153.48000,   0.00249,277326159.85869,   0.00133,   0.00066,  -0.00196,  -6.37869,   1.00000
402676883.12951,410496391.43654,-144324098.03428,   0.00237,   0.00175,  -0.00384,477333099.59605,   0.00250,277333103.36912,   0.00133,   0.00067,  -0.00196,  -3.77307,   1.00000
402969166.19126,410583521.56444,-144156309.40816,   0.00237,   0.00175,  -0.00384,477340132.78896,   0.00251,277340138.03967,   0.00134,   0.00067,  -0.00197,  -5.25071,   1.00000
403265094.92802,410665051.68876,-143989114.76273,   0.00237,   0.00176,  -0.00384,477347081.19293,   0.00251,277347081.96981,   0.00134,   0.00067,  -0.00197,  -0.77688,   1.00000
403569157.98614,410745036.38907,-143818633.59669,   0.00238,   0.00176,  -0.00385,477354082.23062,   0.00252,277354082.93356,   0.00134,   0.00068,  -0.00198,  -0.70294,   1.00000
403875734.87487,410828262.39888,-143645013.17567,   0.00238,   0.00176,  -0.00385,477361051.46252,   0.00253,277361054.85867,   0.00134,   0.00068,  -0.00198,  -3.39615,   1.00000
404182282.32220,410902164.70674,-143475473.37801,   0.00238,   0.00176,  -0.00385,477367956.55416,   0.00253,277367962.18642,   0.00135,   0.00068,  -0.00199,  -5.63226,   1.00000
404510794.74054,410968261.78185,-143299211.45524,   0.00239,   0.00176,  -0.00386,477374893.64040,   0.00254,277374899.69230,   0.00135,   0.00068,  -0.00199,  -6.05189,   1.00000
404836965.72500,411042732.84566,-143119608.20915,   0.00239,   0.00177,  -0.00386,477381892.25810,   0.00255,277381895.45177,   0.00135,   0.00069,  -0.00200,  -3.19367,   1.00000
405163033.69048,411107874.24448,-142944077.75268,   0.00240,   0.00177,  -0.00386,477388817.13530,   0.00255,277388826.81738,   0.00135,   0.00069,  -0.00200,  -9.68207,   1.00000
405501785.43677,411166287.27164,-142765452.17175,   0.00240,   0.00177,  -0.00387,477395719.69437,   0.00256,277395728.47415,   0.00136,   0.00069,  -0.00201,  -8.77977,   1.00000
405842904.29874,411227935.92664,-142583664.54082,   0.00240,   0.00177,  -0.00387,477402600.11079,   0.00257,277402601.58214,   0.00136,   0.00069,  -0.00202,  -1.47135,   1.00000
406191818.91607,411287939.24984,-142398602.96324,   0.00241,   0.00178,  -0.00387,477409523.32587,   0.00257,277409532.05764,   0.00136,   0.00070,  -0.00202,  -8.73176,   1.00000
406553280.06806,411341150.80919,-142210435.23496,   0.00241,   0.00178,  -0.00388,477416423.53801,   0.00258,277416433.19377,   0.00136,   0.00070,  -0.00203,  -9.65576,   1.00000
406913360.74316,411393876.29603,-142022638.23711,   0.00242,   0.00178,  -0.00388,477423322.77328,   0.00259,277423331.42522,   0.00137,   0.00070,  -0.00203,  -8.65194,   1.00000
407284724.56812,411448599.29427,-141828040.38865,   0.00242,   0.00178,  -0.00388,477430252.92884,   0.00259,277430261.70683,   0.00137,   0.00070,  -0.00204,  -8.77799,   1.00000
407655854.22582,411493996.56991,-141637498.62569,   0.00242,   0.00178,  -0.00389,477437127.86920,   0.00260,277437128.02435,   0.00137,   0.00071,  -0.00204,  -0.15515,   1.00000
408038169.13544,411541354.38285,-141440144.30113,   0.00243,   0.00179,  -0.00389,477444024.29243,   0.00260,277444026.68614,   0.00137,   0.00071,  -0.00205,  -2.39371,   1.00000
408420210.60081,411579381.18502,-141246831.33762,   0.00243,   0.00179,  -0.00389,477450856.09942,   0.00261,277450861.63397,   0.00138,   0.00071,  -0.00205,  -5.53454,   1.00000
408813360.49556,411619353.13506,-141046703.20136,   0.00244,   0.00179,  -0.00389,477457728.02078,   0.00262,277457729.07193,   0.00138,   0.00071,  -0.00206,  -1.05116,   1.00000
409215137.13500,411648747.86595,-140846974.99737,   0.00244,   0.00179,  -0.00390,477464587.55423,   0.00262,277464593.41894,   0.00138,   0.00072,  -0.00206,  -5.86471,   1.00000
409618953.33687,411681289.13688,-140644054.45991,   0.00245,   0.00180,  -0.00390,477471425.48883,   0.00263,277471430.12349,   0.00138,   0.00072,  -0.00207,  -4.63466,   1.00000
410021173.77886,411713313.61198,-140441508.93645,   0.00245,   0.00180,  -0.00390,477478263.10925,   0.00264,277478264.22274,   0.00139,   0.00072,  -0.00207,  -1.11350,   1.00000
410435567.90443,411738370.17508,-140235777.66247,   0.00245,   0.00180,  -0.00390,477485066.88105,   0.00264,277485070.61414,   0.00139,   0.00073,  -0.00208,  -3.73309,   1.00000
410860785.30450,411765249.60292,-140023216.86642,   0.00246,   0.00180,  -0.00391,477491901.13916,   0.00265,277491910.14127,   0.00139,   0.00073,  -0.00209,  -9.00211,   1.00000
411285584.66551,411782770.98598,-139814668.36098,   0.00246,   0.00180,  -0.00391,477498679.97834,   0.00266,277498686.59311,   0.00139,   0.00073,  -0.00209,  -6.61476,   1.00000
411717496.03128,411798466.10371,-139602867.64301,   0.00247,   0.00180,  -0.00391,477505520.23233,   0.00266,277505521.16653,   0.00140,   0.00073,  -0.00210,  -0.93420,   1.00000
412152576.64752,411808420.14188,-139391466.94618,   0.00247,   0.00181,  -0.00391,477512264.82945,   0.00267,277512268.30410,   0.00140,   0.00074,  -0.00210,  -3.47465,   1.00000
412594670.77142,411816521.91860,-139176812.29367,   0.00248,   0.00181,  -0.00392,477519070.86058,   0.00268,277519073.73831,   0.00140,   0.00074,  -0.00211,  -2.87772,   1.00000
413038566.12849,411827681.19330,-138958930.25241,   0.00248,   0.00181,  -0.00392,477525846.48907,   0.00268,277525852.40595,   0.00140,   0.00074,  -0.00211,  -5.91688,   1.00000
413494328.95263,411831720.54711,-138737805.01320,   0.00249,   0.00181,  -0.00392,477532596.59984,   0.00269,277532604.62886,   0.00141,   0.00074,  -0.00212,  -8.02902,   1.00000
413948211.12253,411835194.12222,-138517052.65125,   0.00249,   0.00181,  -0.00392,477539347.43705,   0.00270,277539354.76046,   0.00141,   0.00075,  -0.00212,  -7.32340,   1.00000
414413878.94292,411831506.95098,-138293034.84332,   0.00250,   0.00181,  -0.00393,477546072.51039,   0.00270,277546078.87083,   0.00141,   0.00075,  -0.00213,  -6.36044,   1.00000
414877610.05513,411827248.19301,-138069386.20724,   0.00250,   0.00182,  -0.00393,477552798.56401,   0.00271,277552801.03388,   0.00142,   0.00075,  -0.00213,  -2.46986,   1.00000
415351647.97189,411824598.60859,-137838870.99040,   0.00251,   0.00182,  -0.00393,477559555.29376,   0.00271,277559557.66998,   0.00142,   0.00075,  -0.00214,  -2.37621,   1.00000
415825085.62331,411812526.51842,-137612306.60630,   0.00251,   0.00182,  -0.00393,477566247.25724,   0.00272,277566252.39939,   0.00142,   0.00076,  -0.00214,  -5.14215,   1.00000
416310140.55041,411793206.63277,-137382430.77393,   0.00252,   0.00182,  -0.00394,477572913.05001,   0.00273,277572921.98722,   0.00142,   0.00076,  -0.00215,  -8.93721,   1.00000
416801702.49878,411771875.04252,-137149305.02256,   0.00252,   0.00182,  -0.00394,477579640.82191,   0.00273,277579650.66438,   0.00143,   0.00076,  -0.00215,  -9.84246,   1.00000
417286235.92479,411754934.01265,-136916520.14609,   0.00253,   0.00182,  -0.00394,477586287.81110,   0.00274,277586292.90396,   0.00143,   0.00076,  -0.00216,  -5.09286,   1.00000
417787175.54638,411725668.65033,-136680428.76453,   0.00253,   0.00183,  -0.00394,477592990.83318,   0.00275,277592995.35723,   0.00143,   0.00077,  -0.00216,  -4.52405,   1.00000
418289551.02223,411699327.74515,-136441051.46287,   0.00254,   0.00183,  -0.00394,477599664.54594,   0.00275,277599672.46914,   0.00143,   0.00077,  -0.00217,  -7.92320,   1.00000
418791228.40359,411663536.85589,-136205578.65823,   0.00254,   0.00183,  -0.00395,477606282.67278,   0.00276,277606288.47918,   0.00144,   0.00077,  -0.00217,  -5.80639,   1.00000
419302772.97285,411629184.59907,-135963193.94594,   0.00255,   0.00183,  -0.00395,477612932.00815,   0.00277,277612940.28583,   0.00144,   0.00077,  -0.00218,  -8.27768,   1.00000
419815689.73961,411597719.96942,-135717512.72711,   0.00255,   0.00183,  -0.00395,477619561.48577,   0.00277,277619567.05202,   0.00144,   0.00078,  -0.00218,  -5.56624,   1.00000
420336242.97482,411555257.65790,-135472109.72328,   0.00256,   0.00183,  -0.00395,477626186.49130,   0.00278,277626194.05233,   0.00144,   0.00078,  -0.00219,  -7.56104,   1.00000
420859626.05301,411506820.79875,-135226903.92489,   0.00256,   0.00183,  -0.00395,477632733.72025,   0.00278,277632736.98252,   0.00145,   0.00078,  -0.00219,  -3.26227,   1.00000
421389028.71739,411456210.57719,-134978442.99972,   0.00257,   0.00184,  -0.00396,477639334.68146,   0.00279,277639339.94255,   0.00145,   0.00078,  -0.00220,  -5.26109,   1.00000
421916081.39178,411404951.52705,-134730340.13733,   0.00257,   0.00184,  -0.00396,477645938.45763,   0.00280,277645941.90607,   0.00145,   0.00079,  -0.00220,  -3.44845,   1.00000
422457798.56392,411349606.22591,-134475107.01997,   0.00258,   0.00184,  -0.00396,477652493.18668,   0.00280,277652498.06395,   0.00146,   0.00079,  -0.00221,  -4.87728,   1.00000
422997087.40930,411293579.27841,-134220230.59722,   0.00258,   0.00184,  -0.00396,477659051.11512,   0.00281,277659053.42034,   0.00146,   0.00079,  -0.00221,  -2.30523,   1.00000
423543734.82250,411226434.20979,-133965585.11375,   0.00259,   0.00184,  -0.00396,477665604.45771,   0.00282,277665610.13208,   0.00146,   0.00079,  -0.00222,  -5.67437,   1.00000
424091503.64714,411162082.36287,-133707587.24325,   0.00259,   0.00184,  -0.00396,477672138.96766,   0.00282,277672143.02045,   0.00146,   0.00080,  -0.00222,  -4.05279,   1.00000
424646535.00244,411086569.72865,-133449804.08580,   0.00260,   0.00184,  -0.00397,477678668.88856,   0.00283,277678677.65453,   0.00147,   0.00080,  -0.00223,  -8.76596,   1.00000
425202623.30277,411013824.75695,-133188654.33705,   0.00260,   0.00184,  -0.00397,477685180.25670,   0.00283,277685188.78137,   0.00147,   0.00080,  -0.00223,  -8.52467,   1.00000
425761380.47557,410934945.38847,-132927580.45990,   0.00261,   0.00184,  -0.00397,477691613.65091,   0.00284,277691617.81645,   0.00147,   0.00080,  -0.00224,  -4.16554,   1.00000
426325645.89626,410853730.01175,-132663251.32620,   0.00261,   0.00185,  -0.00397,477698102.10487,   0.00285,277698107.85382,   0.00147,   0.00081,  -0.00224,  -5.74895,   1.00000
426890892.65047,410775232.40052,-132395541.44701,   0.00262,   0.00185,  -0.00397,477704572.22911,   0.00285,277704574.76961,   0.00148,   0.00081,  -0.00225,  -2.54050,   1.00000
427463177.79046,410685452.70333,-132128012.51257,   0.00262,   0.00185,  -0.00397,477711037.98797,   0.00286,277711044.33863,   0.00148,   0.00081,  -0.00225,  -6.35066,   1.00000
428038045.95484,410589463.33547,-131860499.85622,   0.00263,   0.00185,  -0.00397,477717425.76358,   0.00286,277717432.78620,   0.00148,   0.00081,  -0.00226,  -7.02262,   1.00000
428618182.69048,410491075.61077,-131589732.56317,   0.00264,   0.00185,  -0.00398,477723878.40485,   0.00287,277723882.68702,   0.00149,   0.00082,  -0.00226,  -4.28217,   1.00000
429199159.95425,410395343.47278,-131315552.99831,   0.00264,   0.00185,  -0.00398,477730304.20906,   0.00288,277730310.17138,   0.00149,   0.00082,  -0.00227,  -5.96232,   1.00000
429790556.84704,410291627.44131,-131037769.20162,   0.00265,   0.00185,  -0.00398,477736712.16231,   0.00288,277736718.60820,   0.00149,   0.00082,  -0.00227,  -6.44589,   1.00000
430380852.05954,410178219.87745,-130763702.69412,   0.00265,   0.00185,  -0.00398,477743064.77545,   0.00289,277743069.37332,   0.00149,   0.00082,  -0.00228,  -4.59787,   1.00000
430968337.29930,410064062.99991,-130489956.54242,   0.00266,   0.00185,  -0.00398,477749413.78989,   0.00290,277749420.66428,   0.00150,   0.00083,  -0.00228,  -6.87439,   1.00000
431564388.79794,409950794.17539,-130209188.87251,   0.00266,   0.00185,  -0.00398,477755805.82402,   0.00290,277755811.64421,   0.00150,   0.00083,  -0.00229,  -5.82020,   1.00000
432162888.94373,409831160.68683,-129928337.53447,   0.00267,   0.00185,  -0.00398,477762119.83783,   0.00291,277762123.16864,   0.00150,   0.00083,  -0.00229,  -3.33081,   1.00000
432758504.93305,409710749.63240,-129647808.65481,   0.00268,   0.00185,  -0.00398,477768430.68300,   0.00291,277768435.41287,   0.00150,   0.00083,  -0.00230,  -4.72987,   1.00000
433364280.21521,409582177.83578,-129363586.59053,   0.00268,   0.00185,  -0.00399,477774723.78419,   0.00292,277774730.29644,   0.00151,   0.00084,  -0.00230,  -6.51225,   1.00000
433978333.88060,409454364.30620,-129072323.29686,   0.00269,   0.00186,  -0.00399,477781060.55931,   0.00293,277781065.71615,   0.00151,   0.00084,  -0.00231,  -5.15683,   1.00000
434583535.49431,409318549.57457,-128788282.00164,   0.00269,   0.00186,  -0.00399,477787281.82513,   0.00293,277787282.99447,   0.00151,   0.00084,  -0.00231,  -1.16934,   1.00000
435200967.83122,409178339.21682,-128497416.73995,   0.00270,   0.00186,  -0.00399,477793621.52425,   0.00294,277793624.78793,   0.00152,   0.00084,  -0.00232,  -3.26368,   1.00000
435813149.16794,409033444.43262,-128209937.93399,   0.00271,   0.00186,  -0.00399,477799822.80660,   0.00294,277799826.95745,   0.00152,   0.00084,  -0.00232,  -4.15085,   1.00000
436433404.45870,408889222.39793,-127915390.95560,   0.00271,   0.00186,  -0.00399,477806068.47650,   0.00295,277806070.44793,   0.00152,   0.00085,  -0.00233,  -1.97143,   1.00000
437052401.19296,408735157.19667,-127624446.76208,   0.00272,   0.00186,  -0.00399,477812250.20536,   0.00296,277812258.26576,   0.00152,   0.00085,  -0.00233,  -8.06040,   1.00000
437679339.70185,408581718.34352,-127326426.94352,   0.00272,   0.00186,  -0.00399,477818485.68485,   0.00296,277818487.77837,   0.00153,   0.00085,  -0.00234,  -2.09352,   1.00000
438308524.51920,408421667.63035,-127028157.32734,   0.00273,   0.00186,  -0.00399,477824634.14663,   0.00297,277824640.53971,   0.00153,   0.00085,  -0.00234,  -6.39308,   1.00000
438934547.09819,408260775.24363,-126730192.87687,   0.00274,   0.00186,  -0.00399,477830790.25857,   0.00297,277830794.99484,   0.00153,   0.00086,  -0.00234,  -4.73627,   1.00000
439566646.57916,408088120.52954,-126432233.00372,   0.00274,   0.00186,  -0.00399,477836952.19095,   0.00298,277836956.43279,   0.00154,   0.00086,  -0.00235,  -4.24183,   1.00000
440199071.55721,407917863.50528,-126130722.70250,   0.00275,   0.00186,  -0.00399,477843090.15438,   0.00298,277843098.53139,   0.00154,   0.00086,  -0.00235,  -8.37701,   1.00000
440833725.19998,407740926.35370,-125828896.71836,   0.00275,   0.00186,  -0.00400,477849158.79862,   0.00299,277849164.84218,   0.00154,   0.00086,  -0.00236,  -6.04355,   1.00000
441472386.66035,407561218.01863,-125523816.15272,   0.00276,   0.00186,  -0.00400,477855287.98178,   0.00300,277855295.32146,   0.00154,   0.00087,  -0.00236,  -7.33967,   1.00000
442111295.41093,407383857.60570,-125215174.72716,   0.00277,   0.00186,  -0.00400,477861402.39397,   0.00300,277861406.84826,   0.00155,   0.00087,  -0.00237,  -4.45428,   1.00000
442752369.76925,407199722.38106,-124906173.11386,   0.00277,   0.00186,  -0.00400,477867438.76912,   0.00301,277867443.36647,   0.00155,   0.00087,  -0.00237,  -4.59735,   1.00000
443399213.33721,407003653.27628,-124597121.30392,   0.00278,   0.00186,  -0.00400,477873481.57424,   0.00301,277873488.29486,   0.00155,   0.00087,  -0.00238,  -6.72061,   1.00000
444046215.37127,406809883.63941,-124284475.57487,   0.00278,   0.00186,  -0.00400,477879510.14174,   0.00302,277879514.92809,   0.00156,   0.00087,  -0.00238,  -4.78634,   1.00000
444691796.97470,406606089.84513,-123975295.85312,   0.00279,   0.00186,  -0.00400,477885483.96792,   0.00302,277885488.24793,   0.00156,   0.00088,  -0.00239,  -4.28001,   1.00000
445344554.98245,406402598.14764,-123658969.57143,   0.00280,   0.00186,  -0.00400,477891496.55994,   0.00303,277891505.88393,   0.00156,   0.00088,  -0.00239,  -9.32398,   1.00000
445993860.82152,406198200.23422,-123342936.87975,   0.00280,   0.00186,  -0.00400,477897518.73927,   0.00304,277897526.25044,   0.00156,   0.00088,  -0.00239,  -7.51116,   1.00000
446647239.06638,405977725.99863,-123029583.12595,   0.00281,   0.00186,  -0.00400,477903415.66611,   0.00304,277903417.68439,   0.00157,   0.00088,  -0.00240,  -2.01828,   1.00000
447302061.27992,405763510.67789,-122709834.70652,   0.00282,   0.00186,  -0.00400,477909422.90943,   0.00305,277909430.12795,   0.00157,   0.00089,  -0.00240,  -7.21852,   1.00000
447962420.30237,405545444.89599,-122385673.48078,   0.00282,   0.00186,  -0.00400,477915346.12404,   0.00305,277915349.38277,   0.00157,   0.00089,  -0.00241,  -3.25873,   1.00000
448617733.66950,405314120.76095,-122068828.54743,   0.00283,   0.00186,  -0.00400,477921229.78560,   0.00306,277921236.93447,   0.00158,   0.00089,  -0.00241,  -7.14887,   1.00000
449276552.86227,405088101.24164,-121744396.10676,   0.00283,   0.00186,  -0.00400,477927085.37829,   0.00306,277927087.34085,   0.00158,   0.00089,  -0.00242,  -1.96255,   1.00000
449940625.52106,404849865.96572,-121419818.10245,   0.00284,   0.00186,  -0.00400,477932940.08271,   0.00307,277932948.63341,   0.00158,   0.00089,  -0.00242,  -8.55071,   1.00000
450594353.62934,404612747.64386,-121099015.80228,   0.00285,   0.00186,  -0.00400,477938743.42704,   0.00308,277938750.98417,   0.00158,   0.00090,  -0.00242,  -7.55712,   1.00000
451261446.28941,404373666.06925,-120767528.17462,   0.00285,   0.00186,  -0.00400,477944658.83610,   0.00308,277944661.92288,   0.00159,   0.00090,  -0.00243,  -3.08678,   1.00000
451923755.41548,404129485.91422,-120438933.52462,   0.00286,   0.00186,  -0.00400,477950433.90637,   0.00309,277950439.31539,   0.00159,   0.00090,  -0.00243,  -5.40902,   1.00000
452591142.96197,403873004.85472,-120110160.33965,   0.00287,   0.00186,  -0.00400,477956225.72550,   0.00309,277956228.47486,   0.00159,   0.00090,  -0.00244,  -2.74936,   1.00000
453258321.73865,403618604.01936,-119777680.06133,   0.00287,   0.00186,  -0.00400,477961997.00205,   0.00310,277962001.92333,   0.00160,   0.00090,  -0.00244,  -4.92129,   1.00000
453927383.13106,403356962.43814,-119444524.21307,   0.00288,   0.00186,  -0.00400,477967698.66776,   0.00310,277967705.32351,   0.00160,   0.00091,  -0.00245,  -6.65575,   1.00000
454592725.46753,403094345.95518,-119111620.47903,   0.00289,   0.00186,  -0.00400,477973403.90459,   0.00311,277973412.96833,   0.00160,   0.00091,  -0.00245,  -9.06374,   1.00000
455262949.04713,402819327.74591,-118778500.86244,   0.00289,   0.00186,  -0.00400,477979126.42641,   0.00311,277979133.36630,   0.00161,   0.00091,  -0.00245,  -6.93989,   1.00000
455929922.38855,402551455.56663,-118441134.39659,   0.00290,   0.00186,  -0.00400,477984750.34838,   0.00312,277984756.52509,   0.00161,   0.00091,  -0.00246,  -6.17671,   1.00000
456599554.34773,402280468.87347,-118100545.28047,   0.00291,   0.00185,  -0.00400,477990441.58206,   0.00313,277990446.90830,   0.00161,   0.00091,  -0.00246,  -5.32624,   1.00000
457273881.39368,401996978.35806,-117759723.55444,   0.00291,   0.00185,  -0.00400,477996142.33421,   0.00313,277996150.75723,   0.00161,   0.00092,  -0.00247,  -8.42302,   1.00000
457943656.36358,401708222.31774,-117421585.95159,   0.00292,   0.00185,  -0.00400,478001718.30651,   0.00314,278001723.43743,   0.00162,   0.00092,  -0.00247,  -5.13092,   1.00000
458619357.80980,401419275.31233,-117076209.19997,   0.00293,   0.00185,  -0.00400,478007338.83052,   0.00314,278007344.74939,   0.00162,   0.00092,  -0.00247,  -5.91886,   1.00000
459287106.07615,401122060.92776,-116737485.38461,   0.00293,   0.00185,  -0.00400,478012849.72863,   0.00315,278012854.51945,   0.00162,   0.00092,  -0.00248,  -4.79081,   1.00000
459960690.43319,400824621.68102,-116391511.51667,   0.00294,   0.00185,  -0.00400,478018405.73130,   0.00315,278018413.31821,   0.00163,   0.00092,  -0.00248,  -7.58692,   1.00000
460638720.24239,400514548.09754,-116045250.97320,   0.00294,   0.00185,  -0.00400,478023980.32997,   0.00316,278023986.93312,   0.00163,   0.00093,  -0.00249,  -6.60315,   1.00000
461313560.56629,400211453.93103,-115694602.11455,   0.00295,   0.00185,  -0.00400,478029456.31303,   0.00316,278029465.19872,   0.00163,   0.00093,  -0.00249,  -8.88569,   1.00000
461983242.52923,399894957.43371,-115351132.81809,   0.00296,   0.00185,  -0.00399,478034910.62857,   0.00317,278034914.46008,   0.00163,   0.00093,  -0.00249,  -3.83150,   1.00000
462661931.13319,399581027.38058,-114996350.20031,   0.00296,   0.00185,  -0.00399,478040387.27759,   0.00317,278040394.97628,   0.00164,   0.00093,  -0.00250,  -7.69869,   1.00000
463338836.87690,399256541.81663,-114644683.03046,   0.00297,   0.00185,  -0.00399,478045826.55062,   0.00318,278045828.21514,   0.00164,   0.00093,  -0.00250,  -1.66452,   1.00000
464011740.46361,398931019.52272,-114293240.07644,   0.00298,   0.00185,  -0.00399,478051264.10601,   0.00318,278051267.23871,   0.00164,   0.00094,  -0.00251,  -3.13269,   1.00000
464686308.07177,398597779.19563,-113940813.48256,   0.00298,   0.00185,  -0.00399,478056639.94996,   0.00319,278056640.94340,   0.00165,   0.00094,  -0.00251,  -0.99344,   1.00000
465360286.57317,398266341.10636,-113584532.58037,   0.00299,   0.00184,  -0.00399,478061998.35640,   0.00319,278062002.24642,   0.00165,   0.00094,  -0.00251,  -3.89002,   1.00000
466032486.27672,397924277.34433,-113231305.21452,   0.00300,   0.00184,  -0.00399,478067311.04142,   0.00320,278067317.15519,   0.00165,   0.00094,  -0.00252,  -6.11377,   1.00000
466709884.55662,397581766.10677,-112870797.46434,   0.00300,   0.00184,  -0.00399,478072680.33494,   0.00320,278072683.25345,   0.00166,   0.00094,  -0.00252,  -2.91851,   1.00000
467388830.09329,397231373.33748,-112509227.96148,   0.00301,   0.00184,  -0.00399,478077979.75692,   0.00321,278077985.36875,   0.00166,   0.00094,  -0.00252,  -5.61183,   1.00000
468057952.49522,396882167.05495,-112151276.99693,   0.00302,   0.00184,  -0.00399,478083228.86583,   0.00321,278083230.51411,   0.00166,   0.00095,  -0.00253,  -1.64828,   1.00000
468734365.44314,396522785.44834,-111788819.40720,   0.00302,   0.00184,  -0.00399,478088473.96647,   0.00322,278088475.57291,   0.00166,   0.00095,  -0.00253,  -1.60644,   1.00000
469406647.72414,396162333.91978,-111426570.33225,   0.00303,   0.00184,  -0.00398,478093719.21470,   0.00322,278093727.28254,   0.00167,   0.00095,  -0.00254,  -8.06784,   1.00000
470080475.82201,395793895.60844,-111063179.04930,   0.00304,   0.00184,  -0.00398,478098910.26491,   0.00323,278098916.10619,   0.00167,   0.00095,  -0.00254,  -5.84128,   1.00000
470753549.91333,395427135.14705,-110695870.97570,   0.00305,   0.00184,  -0.00398,478104093.18189,   0.00323,278104093.99610,   0.00167,   0.00095,  -0.00254,  -0.81421,   1.00000
471424745.95342,395049559.71307,-110331502.45205,   0.00305,   0.00183,  -0.00398,478109222.56318,   0.00324,278109227.38706,   0.00168,   0.00096,  -0.00255,  -4.82388,   1.00000
472095166.92548,394673639.24961,-109963199.09096,   0.00306,   0.00183,  -0.00398,478114344.07812,   0.00324,278114350.19256,   0.00168,   0.00096,  -0.00255,  -6.11444,   1.00000
472772510.49089,394287295.44520,-109590304.50297,   0.00307,   0.00183,  -0.00398,478119470.45296,   0.00325,278119474.97111,   0.00168,   0.00096,  -0.00255,  -4.51815,   1.00000
473440209.15284,393902134.55873,-109220969.12047,   0.00307,   0.00183,  -0.00398,478124538.76393,   0.00325,278124543.47081,   0.00168,   0.00096,  -0.00256,  -4.70688,   1.00000
474114734.27239,393506478.96354,-108847011.15373,   0.00308,   0.00183,  -0.00398,478129612.18011,   0.00326,278129614.60468,   0.00169,   0.00096,  -0.00256,  -2.42457,   1.00000
474781975.85063,393102178.25500,-108479261.49305,   0.00309,   0.00183,  -0.00397,478134571.81069,   0.00326,278134578.88491,   0.00169,   0.00096,  -0.00256,  -7.07422,   1.00000
475453635.76168,392697161.42632,-108104182.55011,   0.00309,   0.00183,  -0.00397,478139592.64250,   0.00327,278139597.30352,   0.00169,   0.00097,  -0.00257,  -4.66102,   1.00000
476119121.64276,392295984.17940,-107728457.44783,   0.00310,   0.00182,  -0.00397,478144538.20780,   0.00327,278144542.61706,   0.00170,   0.00097,  -0.00257,  -4.40926,   1.00000
476787884.32715,391881512.96397,-107352225.91721,   0.00311,   0.00182,  -0.00397,478149506.53453,   0.00328,278149508.97468,   0.00170,   0.00097,  -0.00257,  -2.44015,   1.00000
477450528.86824,391470862.88108,-106975318.41518,   0.00311,   0.00182,  -0.00397,478154399.46991,   0.00328,278154402.52472,   0.00170,   0.00097,  -0.00258,  -3.05481,   1.00000
478119673.42422,391049473.15155,-106593696.32202,   0.00312,   0.00182,  -0.00397,478159298.20325,   0.00329,278159300.77332,   0.00171,   0.00097,  -0.00258,  -2.57007,   1.00000
478786797.54432,390616995.94458,-106214846.66998,   0.00313,   0.00182,  -0.00397,478164151.13244,   0.00329,278164157.24260,   0.00171,   0.00097,  -0.00258,  -6.11015,   1.00000
479447871.34369,390188296.94950,-105835266.99210,   0.00313,   0.00182,  -0.00396,478168935.87367,   0.00330,278168941.48085,   0.00171,   0.00097,  -0.00259,  -5.60718,   1.00000
480109653.11035,389756167.91287,-105452559.04306,   0.00314,   0.00181,  -0.00396,478173794.22945,   0.00330,278173797.93489,   0.00171,   0.00098,  -0.00259,  -3.70544,   1.00000
480767768.59566,389317775.71104,-105071664.25107,   0.00315,   0.00181,  -0.00396,478178526.68986,   0.00331,278178532.63776,   0.00172,   0.00098,  -0.00259,  -5.94790,   1.00000
481429774.59748,388878486.86511,-104683428.56763,   0.00315,   0.00181,  -0.00396,478183316.09146,   0.00331,278183323.35864,   0.00172,   0.00098,  -0.00260,  -7.26718,   1.00000
482089733.16966,388427997.65441,-104297902.04093,   0.00316,   0.00181,  -0.00396,478188067.13989,   0.00331,278188073.31455,   0.00172,   0.00098,  -0.00260,  -6.17467,   1.00000
482746090.84708,387971129.11714,-103914094.41356,   0.00317,   0.00181,  -0.00395,478192697.94415,   0.00332,278192702.49960,   0.00173,   0.00098,  -0.00260,  -4.55544,   1.00000
483402881.52179,387510797.56233,-103527167.85126,   0.00317,   0.00180,  -0.00395,478197397.92102,   0.00332,278197404.75292,   0.00173,   0.00098,  -0.00261,  -6.83190,   1.00000
484057056.19621,387056643.44276,-103135171.13643,   0.00318,   0.00180,  -0.00395,478202018.03887,   0.00333,278202019.57760,   0.00173,   0.00098,  -0.00261,  -1.53873,   1.00000
484705944.59385,386588701.98717,-102750063.35379,   0.00319,   0.00180,  -0.00395,478206609.97143,   0.00333,278206610.65621,   0.00173,   0.00099,  -0.00261,  -0.68478,   1.00000
485363947.06920,386112052.67277,-102355809.07040,   0.00319,   0.00180,  -0.00395,478211191.19997,   0.00334,278211194.35129,   0.00174,   0.00099,  -0.00261,  -3.15132,   1.00000
486012865.92290,385636556.96926,-101964935.64003,   0.00320,   0.00180,  -0.00394,478215721.15171,   0.00334,278215723.40018,   0.00174,   0.00099,  -0.00262,  -2.24847,   1.00000
486660614.10549,385162344.30512,-101569935.68963,   0.00321,   0.00179,  -0.00394,478220239.31479,   0.00334,278220246.05465,   0.00174,   0.00099,  -0.00262,  -6.73986,   1.00000
487313150.60605,384664148.12902,-101176716.63947,   0.00321,   0.00179,  -0.00394,478224737.57566,   0.00335,278224745.72783,   0.00175,   0.00099,  -0.00262,  -8.15217,   1.00000
487957581.01419,384179794.54174,-100780147.11950,   0.00322,   0.00179,  -0.00394,478229219.45916,   0.00335,278229223.58675,   0.00175,   0.00099,  -0.00263,  -4.12758,   1.00000
488603113.80789,383686375.84010,-100381834.16337,   0.00323,   0.00179,  -0.00394,478233643.48083,   0.00336,278233647.45090,   0.00175,   0.00099,  -0.00263,  -3.97006,   1.00000
489242109.15051,383183781.88864,-99989238.39436,   0.00323,   0.00179,  -0.00393,478237967.76198,   0.00336,278237968.96310,   0.00175,   0.00100,  -0.00263,  -1.20113,   1.00000
489884257.08286,382680065.27684,-99589265.67945,   0.00324,   0.00178,  -0.00393,478242348.32882,   0.00337,278242349.44744,   0.00176,   0.00100,  -0.00263,  -1.11862,   1.00000
490525095.56897,382177517.99880,-99185117.27661,   0.00325,   0.00178,  -0.00393,478246718.30920,   0.00337,278246724.73321,   0.00176,   0.00100,  -0.00264,  -6.42401,   1.00000
491163765.50675,381663388.33726,-98783454.59772,   0.00325,   0.00178,  -0.00393,478251055.70070,   0.00337,278251062.61352,   0.00176,   0.00100,  -0.00264,  -6.91282,   1.00000
491799171.75325,381142302.11635,-98383096.56782,   0.00326,   0.00178,  -0.00392,478255279.49999,   0.00338,278255283.78855,   0.00177,   0.00100,  -0.00264,  -4.28857,   1.00000
492430094.43449,380620011.05693,-97982842.16998,   0.00327,   0.00177,  -0.00392,478259505.72094,   0.00338,278259515.56140,   0.00177,   0.00100,  -0.00265,  -9.84046,   1.00000
493062031.38612,380088377.84669,-97580676.57861,   0.00327,   0.00177,  -0.00392,478263692.33511,   0.00339,278263695.58874,   0.00177,   0.00100,  -0.00265,  -3.25363,   1.00000
493692599.91037,379557825.24754,-97174273.88675,   0.00328,   0.00177,  -0.00392,478267869.36441,   0.00339,278267871.45883,   0.00177,   0.00100,  -0.00265,  -2.09442,   1.00000
494318651.12272,379026061.82483,-96767981.71272,   0.00329,   0.00177,  -0.00391,478272056.07570,   0.00339,278272058.13707,   0.00178,   0.00101,  -0.00265,  -2.06137,   1.00000
494948744.42742,378487074.37645,-96355370.62991,   0.00329,   0.00176,  -0.00391,478276170.41138,   0.00340,278276179.22546,   0.00178,   0.00101,  -0.00266,  -8.81407,   1.00000
495573465.63097,377934028.47351,-95949472.08569,   0.00330,   0.00176,  -0.00391,478280270.37061,   0.00340,278280279.51863,   0.00178,   0.00101,  -0.00266,  -9.14802,   1.00000
496195885.58451,377386544.32860,-95538052.44425,   0.00331,   0.00176,  -0.00390,478284296.76814,   0.00341,278284297.05837,   0.00178,   0.00101,  -0.00266,  -0.29023,   1.00000
496816059.50921,376827183.70026,-95128943.80780,   0.00331,   0.00176,  -0.00390,478288275.71850,   0.00341,278288279.57418,   0.00179,   0.00101,  -0.00266,  -3.85568,   1.00000
497431687.34972,376266586.01811,-94719915.42317,   0.00332,   0.00175,  -0.00390,478292265.97377,   0.00341,278292273.56410,   0.00179,   0.00101,  -0.00267,  -7.59033,   1.00000
498048939.06060,375709156.94039,-94302217.14204,   0.00333,   0.00175,  -0.00390,478296240.60038,   0.00342,278296250.11786,   0.00179,   0.00101,  -0.00267,  -9.51748,   1.00000
498663905.58174,375139774.22457,-93886798.57578,   0.00333,   0.00175,  -0.00389,478300186.93478,   0.00342,278300192.21729,   0.00180,   0.00101,  -0.00267,  -5.28251,   1.00000
499276553.60760,374558403.13744,-93473630.55842,   0.00334,   0.00175,  -0.00389,478304092.11007,   0.00343,278304100.27303,   0.00180,   0.00101,  -0.00267,  -8.16296,   1.00000
499883931.65132,373980217.06876,-93059192.36606,   0.00335,   0.00174,  -0.00389,478307941.04353,   0.00343,278307941.22512,   0.00180,   0.00102,  -0.00268,  -0.18159,   1.00000
500492055.06767,373392123.03723,-92642558.58617,   0.00335,   0.00174,  -0.00388,478311733.82147,   0.00343,278311734.45273,   0.00180,   0.00102,  -0.00268,  -0.63126,   1.00000
501098601.00327,372804871.94410,-92221572.54386,   0.00336,   0.00174,  -0.00388,478315519.31929,   0.00344,278315525.86568,   0.00181,   0.00102,  -0.00268,  -6.54639,   1.00000
501696925.86494,372218598.22508,-91803678.94408,   0.00337,   0.00173,  -0.00388,478319255.52992,   0.00344,278319264.58171,   0.00181,   0.00102,  -0.00268,  -9.05179,   1.00000
502299547.44441,371620043.78152,-91380514.65787,   0.00337,   0.00173,  -0.00387,478323016.24292,   0.00344,278323021.24934,   0.00181,   0.00102,  -0.00269,  -5.00643,   1.00000
502896227.13800,371011540.42327,-90962500.87446,   0.00338,   0.00173,  -0.00387,478326670.99940,   0.00345,278326680.45736,   0.00181,   0.00102,  -0.00269,  -9.45796,   1.00000
503494296.10793,370405894.20462,-90535663.14259,   0.00339,   0.00173,  -0.00387,478330321.63973,   0.00345,278330324.77058,   0.00182,   0.00102,  -0.00269,  -3.13085,   1.00000
504084719.72567,369796869.35440,-90113314.05583,   0.00339,   0.00172,  -0.00386,478333990.12787,   0.00345,278333995.48433,   0.00182,   0.00102,  -0.00269,  -5.35646,   1.00000
504675297.40705,369181896.67880,-89687149.94368,   0.00340,   0.00172,  -0.00386,478337537.45618,   0.00346,278337541.97710,   0.00182,   0.00102,  -0.00269,  -4.52092,   1.00000
505263468.15792,368554587.65159,-89263049.17298,   0.00341,   0.00172,  -0.00386,478341053.03081,   0.00346,278341056.88233,   0.00182,   0.00102,  -0.00270,  -3.85152,   1.00000
505849938.64796,367927961.24798,-88834513.54739,   0.00341,   0.00171,  -0.00385,478344562.91013,   0.00346,278344571.50686,   0.00183,   0.00103,  -0.00270,  -8.59673,   1.00000
506431752.99104,367300009.92756,-88406013.06834,   0.00342,   0.00171,  -0.00385,478348094.24627,   0.00347,278348099.23143,   0.00183,   0.00103,  -0.00270,  -4.98516,   1.00000
507010786.13410,366663827.63785,-87978004.33065,   0.00342,   0.00171,  -0.00385,478351515.09613,   0.00347,278351517.56637,   0.00183,   0.00103,  -0.00270,  -2.47024,   1.00000
507590281.24021,366017145.62373,-87547509.00984,   0.00343,   0.00170,  -0.00384,478354886.68525,   0.00347,278354892.12694,   0.00183,   0.00103,  -0.00270,  -5.44170,   1.00000
508167999.10000,365371055.87209,-87112539.72664,   0.00344,   0.00170,  -0.00384,478358264.39990,   0.00348,278358267.18679,   0.00184,   0.00103,  -0.00271,  -2.78689,   1.00000
508737862.58012,364725760.28420,-86680486.85108,   0.00344,   0.00170,  -0.00384,478361588.88941,   0.00348,278361590.67951,   0.00184,   0.00103,  -0.00271,  -1.79009,   1.00000
509305239.17945,364067891.75989,-86250374.81920,   0.00345,   0.00169,  -0.00383,478364874.59382,   0.00348,278364884.21212,   0.00184,   0.00103,  -0.00271,  -9.61831,   1.00000
509875876.14449,363401259.94467,-85813184.56189,   0.00346,   0.00169,  -0.00383,478368118.63997,   0.00349,278368122.29637,   0.00184,   0.00103,  -0.00271,  -3.65640,   1.00000
510441759.26964,362733211.95201,-85375981.67896,   0.00346,   0.00169,  -0.00382,478371370.95351,   0.00349,278371374.57497,   0.00185,   0.00103,  -0.00271,  -3.62147,   1.00000
510999913.34108,362065901.08247,-84941634.56394,   0.00347,   0.00168,  -0.00382,478374568.65048,   0.00349,278374575.62360,   0.00185,   0.00103,  -0.00272,  -6.97313,   1.00000
511561220.44097,361389631.69826,-84500124.75318,   0.00347,   0.00168,  -0.00382,478377717.25039,   0.00350,278377722.35567,   0.00185,   0.00103,  -0.00272,  -5.10528,   1.00000
512114862.06005,360714043.88761,-84061433.23942,   0.00348,   0.00168,  -0.00381,478380815.09056,   0.00350,278380818.06450,   0.00185,   0.00103,  -0.00272,  -2.97394,   1.00000
512671621.88780,360025397.11596,-83617214.83330,   0.00349,   0.00167,  -0.00381,478383935.81596,   0.00350,278383938.28361,   0.00186,   0.00104,  -0.00272,  -2.46765,   1.00000
513220737.98179,359337396.72104,-83175788.67938,   0.00349,   0.00167,  -0.00380,478387000.36112,   0.00351,278387007.72265,   0.00186,   0.00104,  -0.00272,  -7.36153,   1.00000
513767203.80145,358640414.75014,-82734418.94068,   0.00350,   0.00167,  -0.00380,478389962.23802,   0.00351,278389971.39940,   0.00186,   0.00104,  -0.00272,  -9.16138,   1.00000
514313800.14149,357932295.15738,-82290260.16513,   0.00351,   0.00166,  -0.00380,478392887.45861,   0.00351,278392895.27366,   0.00186,   0.00104,  -0.00273,  -7.81505,   1.00000
514853554.38725,357234208.08039,-81844255.53478,   0.00351,   0.00166,  -0.00379,478395868.08545,   0.00351,278395876.42778,   0.00186,   0.00104,  -0.00273,  -8.34233,   1.00000
515392729.02925,356515401.63242,-81399980.02338,   0.00352,   0.00166,  -0.00379,478398705.25794,   0.00352,278398710.57683,   0.00187,   0.00104,  -0.00273,  -5.31889,   1.00000
515927847.11454,355808433.40323,-80949310.10062,   0.00352,   0.00165,  -0.00378,478401586.63562,   0.00352,278401589.89741,   0.00187,   0.00104,  -0.00273,  -3.26179,   1.00000
516460215.00720,355088374.92205,-80500341.14431,   0.00353,   0.00165,  -0.00378,478404435.60268,   0.00352,278404442.55986,   0.00187,   0.00104,  -0.00273,  -6.95718,   1.00000
516989946.88126,354358927.74578,-80051206.32997,   0.00354,   0.00164,  -0.00378,478407189.03659,   0.00352,278407191.30585,   0.00187,   0.00104,  -0.00273,  -2.26926,   1.00000
517517593.74709,353629672.35514,-79597412.68192,   0.00354,   0.00164,  -0.00377,478409941.58770,   0.00353,278409943.83047,   0.00187,   0.00104,  -0.00274,  -2.24276,   1.00000
518042399.64776,352887186.99963,-79145251.73279,   0.00355,   0.00164,  -0.00377,478412669.18700,   0.00353,278412670.61651,   0.00188,   0.00104,  -0.00274,  -1.42952,   1.00000
518562559.35544,352146811.13621,-78691110.74265,   0.00355,   0.00163,  -0.00376,478415327.55207,   0.00353,278415335.86024,   0.00188,   0.00104,  -0.00274,  -8.30818,   1.00000
519080099.55478,351396750.39436,-78236644.52705,   0.00356,   0.00163,  -0.00376,478417896.19969,   0.00353,278417898.40825,   0.00188,   0.00104,  -0.00274,  -2.20856,   1.00000
519592806.51940,350645102.50580,-77782067.66213,   0.00356,   0.00163,  -0.00375,478420473.79280,   0.00354,278420477.06169,   0.00188,   0.00104,  -0.00274,  -3.26889,   1.00000
520103354.42571,349893541.94234,-77322785.35107,   0.00357,   0.00162,  -0.00375,478423060.19367,   0.00354,278423060.30536,   0.00189,   0.00104,  -0.00274,  -0.11169,   1.00000
520613596.40958,349130175.79899,-76860428.98198,   0.00358,   0.00162,  -0.00374,478425601.96128,   0.00354,278425607.67802,   0.00189,   0.00104,  -0.00274,  -5.71674,   1.00000
521116637.13805,348367103.65372,-76400600.57706,   0.00358,   0.00161,  -0.00374,478428103.44942,   0.00354,278428105.50897,   0.00189,   0.00104,  -0.00274,  -2.05955,   1.00000
521617041.59457,347593983.43181,-75940258.93803,   0.00359,   0.00161,  -0.00373,478430495.33743,   0.00355,278430502.13856,   0.00189,   0.00104,  -0.00275,  -6.80113,   1.00000
522117054.92633,346808864.91818,-75476746.79777,   0.00359,   0.00161,  -0.00373,478432861.09848,   0.00355,278432863.93247,   0.00189,   0.00105,  -0.00275,  -2.83398,   1.00000
522610291.55087,346034074.88973,-75011517.73678,   0.00360,   0.00160,  -0.00372,478435275.07339,   0.00355,278435282.79699,   0.00189,   0.00105,  -0.00275,  -7.72361,   1.00000
523102717.60675,345237005.28596,-74547232.77255,   0.00360,   0.00160,  -0.00372,478437558.14633,   0.00355,278437561.23436,   0.00190,   0.00105,  -0.00275,  -3.08803,   1.00000
523592764.25309,344439791.94983,-74078144.47857,   0.00361,   0.00159,  -0.00371,478439844.43086,   0.00356,278439845.94434,   0.00190,   0.00105,  -0.00275,  -1.51348,   1.00000
524075740.23887,343642673.09998,-73611455.27533,   0.00362,   0.00159,  -0.00371,478442074.90870,   0.00356,278442081.76590,   0.00190,   0.00105,  -0.00275,  -6.85721,   1.00000
524556360.82390,342845403.58840,-73139960.46773,   0.00362,   0.00159,  -0.00370,478444323.47206,   0.00356,278444323.88406,   0.00190,   0.00105,  -0.00275,  -0.41201,   1.00000
525034283.53753,342037543.24477,-72667682.08195,   0.00363,   0.00158,  -0.00370,478446464.58692,   0.00356,278446466.92187,   0.00190,   0.00105,  -0.00275,  -2.33496,   1.00000
525508994.51291,341215763.65023,-72196723.78310,   0.00363,   0.00158,  -0.00369,478448585.10046,   0.00356,278448588.09916,   0.00191,   0.00105,  -0.00275,  -2.99870,   1.00000
525979234.76368,340395433.43784,-71723407.49466,   0.00364,   0.00157,  -0.00369,478450643.70233,   0.00357,278450650.19264,   0.00191,   0.00105,  -0.00276,  -6.49031,   1.00000
526448694.01136,339562553.47435,-71246690.34986,   0.00364,   0.00157,  -0.00368,478452677.90450,   0.00357,278452680.48308,   0.00191,   0.00105,  -0.00276,  -2.57859,   1.00000
526911204.07833,338729560.90340,-70772243.00998,   0.00365,   0.00156,  -0.00368,478454661.13577,   0.00357,278454662.47765,   0.00191,   0.00105,  -0.00276,  -1.34188,   1.00000
527371177.43316,337896221.36727,-70292909.03527,   0.00365,   0.00156,  -0.00367,478456650.35693,   0.00357,278456652.10607,   0.00191,   0.00105,  -0.00276,  -1.74914,   1.00000
527828370.26024,337051791.93322,-69812543.21433,   0.00366,   0.00155,  -0.00367,478458539.93604,   0.00357,278458544.53486,   0.00191,   0.00105,  -0.00276,  -4.59882,   1.00000
528280529.99180,336205537.51334,-69331963.85077,   0.00366,   0.00155,  -0.00366,478460453.86588,   0.00358,278460455.20059,   0.00192,   0.00105,  -0.00276,  -1.33471,   1.00000
528729875.76658,335348026.06510,-68850269.23182,   0.00367,   0.00155,  -0.00366,478462264.62890,   0.00358,278462269.28896,   0.00192,   0.00105,  -0.00276,  -4.66006,   1.00000
529176548.00951,334490029.55388,-68363634.98375,   0.00367,   0.00154,  -0.00365,478464083.72612,   0.00358,278464091.92132,   0.00192,   0.00105,  -0.00276,  -8.19521,   1.00000
529617978.40910,333619234.42009,-67880517.32835,   0.00368,   0.00154,  -0.00365,478465825.35801,   0.00358,278465828.53281,   0.00192,   0.00105,  -0.00276,  -3.17480,   1.00000
530056666.36670,332747889.00807,-67392433.41254,   0.00368,   0.00153,  -0.00364,478467564.89309,   0.00358,278467574.14160,   0.00192,   0.00105,  -0.00276,  -9.24850,   1.00000
530490938.08744,331877507.28270,-66901737.12405,   0.00369,   0.00153,  -0.00364,478469259.57181,   0.00358,278469262.18266,   0.00192,   0.00105,  -0.00276,  -2.61085,   1.00000
530921586.57738,330992608.68126,-66412113.33437,   0.00369,   0.00152,  -0.00363,478470922.35750,   0.00359,278470931.52876,   0.00192,   0.00105,  -0.00277,  -9.17125,   1.00000
531349288.52880,330095929.21235,-65921123.93718,   0.00370,   0.00152,  -0.00362,478472502.35809,   0.00359,278472506.17470,   0.00193,   0.00105,  -0.00277,  -3.81661,   1.00000
531771079.17349,329212680.13361,-65426129.23661,   0.00370,   0.00151,  -0.00362,478474056.11433,   0.00359,278474061.34383,   0.00193,   0.00105,  -0.00277,  -5.22950,   1.00000
532192892.39843,328303335.80948,-64928672.52290,   0.00371,   0.00151,  -0.00361,478475548.69742,   0.00359,278475551.80363,   0.00193,   0.00105,  -0.00277,  -3.10621,   1.00000
532608034.96006,327404698.54543,-64429661.68040,   0.00371,   0.00150,  -0.00361,478477090.69236,   0.00359,278477099.15308,   0.00193,   0.00105,  -0.00277,  -8.46072,   1.00000
533017791.61667,326481296.91779,-63937388.56145,   0.00372,   0.00150,  -0.00360,478478455.62569,   0.00359,278478458.41147,   0.00193,   0.00105,  -0.00277,  -2.78578,   1.00000
533426891.10939,325569753.28018,-63431802.03882,   0.00372,   0.00149,  -0.00360,478479917.66397,   0.00359,278479922.80964,   0.00193,   0.00105,  -0.00277,  -5.14567,   1.00000
533829209.57234,324645997.23145,-62931596.75485,   0.00373,   0.00149,  -0.00359,478481232.68158,   0.00360,278481236.59371,   0.00193,   0.00105,  -0.00277,  -3.91212,   1.00000
534229795.63888,323708476.20881,-62427502.82837,   0.00373,   0.00149,  -0.00358,478482516.24729,   0.00360,278482524.83659,   0.00193,   0.00105,  -0.00277,  -8.58930,   1.00000
534625067.84335,322768843.11369,-61923081.50345,   0.00374,   0.00148,  -0.00358,478483833.24071,   0.00360,278483833.38874,   0.00193,   0.00105,  -0.00277,  -0.14803,   1.00000
535015837.65154,321829538.56741,-61415733.71967,   0.00374,   0.00148,  -0.00357,478485083.69626,   0.00360,278485086.38458,   0.00194,   0.00105,  -0.00277,  -2.68833,   1.00000
535403372.15631,320877520.27205,-60906592.64722,   0.00375,   0.00147,  -0.00357,478486244.95712,   0.00360,278486247.75736,   0.00194,   0.00105,  -0.00277,  -2.80024,   1.00000
535785536.98122,319923325.38153,-60397100.04793,   0.00375,   0.00147,  -0.00356,478487423.20114,   0.00360,278487429.82019,   0.00194,   0.00105,  -0.00277,  -6.61905,   1.00000
536163214.19724,318969296.67212,-59884598.06968,   0.00376,   0.00146,  -0.00355,478488554.09693,   0.00360,278488556.65627,   0.00194,   0.00105,  -0.00277,  -2.55934,   1.00000
536539944.46036,317988014.29370,-59369183.58359,   0.00376,   0.00146,  -0.00355,478489621.18934,   0.00360,278489624.32817,   0.00194,   0.00105,  -0.00277,  -3.13883,   1.00000
536910925.34453,317019841.52096,-58849574.86182,   0.00377,   0.00145,  -0.00354,478490671.37506,   0.00360,278490673.09169,   0.00194,   0.00105,  -0.00277,  -1.71663,   1.00000
537276376.84777,316037361.73968,-58332763.78860,   0.00377,   0.00145,  -0.00353,478491634.68515,   0.00361,278491640.34163,   0.00194,   0.00105,  -0.00277,  -5.65648,   1.00000
537638425.63053,315053689.56496,-57810751.13437,   0.00378,   0.00144,  -0.00353,478492615.63407,   0.00361,278492620.50631,   0.00194,   0.00105,  -0.00277,  -4.87224,   1.00000
537994895.77844,314055549.20816,-57291461.15921,   0.00378,   0.00144,  -0.00352,478493519.25860,   0.00361,278493519.62023,   0.00194,   0.00105,  -0.00278,  -0.36163,   1.00000
538346755.99189,313057156.40445,-56768966.69284,   0.00378,   0.00143,  -0.00351,478494362.56948,   0.00361,278494364.73119,   0.00194,   0.00105,  -0.00278,  -2.16171,   1.00000
538696084.74306,312044146.54797,-56242266.80026,   0.00379,   0.00142,  -0.00351,478495181.61050,   0.00361,278495188.59251,   0.00194,   0.00106,  -0.00278,  -6.98201,   1.00000
539037784.58273,311043074.05361,-55716116.03418,   0.00379,   0.00142,  -0.00350,478495991.97352,   0.00361,278496001.60889,   0.00195,   0.00106,  -0.00278,  -9.63538,   1.00000
539377807.89769,310013908.73073,-55186734.90107,   0.00380,   0.00141,  -0.00350,478496758.48136,   0.00361,278496759.28768,   0.00195,   0.00106,  -0.00278,  -0.80631,   1.00000
539713080.98410,308984209.24938,-54654028.12353,   0.00380,   0.00141,  -0.00349,478497460.98781,   0.00361,278497463.89610,   0.00195,   0.00106,  -0.00278,  -2.90829,   1.00000
540043621.03934,307953917.94352,-54117966.20915,   0.00380,   0.00140,  -0.00348,478498110.80340,   0.00361,278498115.45700,   0.00195,   0.00106,  -0.00278,  -4.65360,   1.00000
540368478.37222,306921169.75799,-53581455.77386,   0.00381,   0.00140,  -0.00347,478498786.40401,   0.00361,278498789.46071,   0.00195,   0.00106,  -0.00278,  -3.05669,   1.00000
540689415.36133,305874209.01930,-53042499.18761,   0.00381,   0.00139,  -0.00347,478499371.51307,   0.00361,278499376.62725,   0.00195,   0.00106,  -0.00278,  -5.11418,   1.00000
541005377.24049,304811173.59948,-52504016.62705,   0.00382,   0.00139,  -0.00346,478499948.88175,   0.00361,278499952.81411,   0.00195,   0.00106,  -0.00278,  -3.93236,   1.00000
541315586.39359,303748023.78957,-51963922.01637,   0.00382,   0.00138,  -0.00345,478500401.24239,   0.00361,278500408.93121,   0.00195,   0.00106,  -0.00278,  -7.68882,   1.00000
541621845.80976,302683211.96895,-51418464.56524,   0.00382,   0.00138,  -0.00345,478500873.77005,   0.00361,278500880.65445,   0.00195,   0.00106,  -0.00278,  -6.88440,   1.00000
541924772.76776,301603040.12116,-50868542.31608,   0.00383,   0.00137,  -0.00344,478501327.01810,   0.00362,278501334.92148,   0.00195,   0.00106,  -0.00278,  -7.90338,   1.00000
542220930.02112,300520904.57002,-50319932.06558,   0.00383,   0.00137,  -0.00343,478501738.09409,   0.00362,278501744.82414,   0.00195,   0.00106,  -0.00278,  -6.73005,   1.00000
542510368.58449,299436773.85798,-49772611.28372,   0.00384,   0.00136,  -0.00343,478502106.06507,   0.00362,278502110.21744,   0.00195,   0.00106,  -0.00278,  -4.15237,   1.00000
542797247.39068,298338520.98183,-49217633.27772,   0.00384,   0.00136,  -0.00342,478502375.30587,   0.00362,278502383.93807,   0.00195,   0.00106,  -0.00278,  -8.63221,   1.00000
543078127.35906,297237560.17117,-48662123.52056,   0.00384,   0.00135,  -0.00341,478502673.79649,   0.00362,278502681.58956,   0.00195,   0.00106,  -0.00278,  -7.79307,   1.00000
543354503.00651,296121390.49809,-48103753.74406,   0.00385,   0.00134,  -0.00341,478502890.54205,   0.00362,278502895.49591,   0.00195,   0.00106,  -0.00278,  -4.95387,   1.00000
543624060.53894,295002944.87128,-47546548.35080,   0.00385,   0.00134,  -0.00340,478503062.37048,   0.00362,278503065.49423,   0.00195,   0.00106,  -0.00278,  -3.12375,   1.00000
543889235.26071,293882535.99200,-46983889.04902,   0.00385,   0.00133,  -0.00339,478503244.42674,   0.00362,278503252.98337,   0.00195,   0.00106,  -0.00278,  -8.55663,   1.00000
544149709.51343,292746596.35795,-46418237.81480,   0.00386,   0.00133,  -0.00338,478503353.25783,   0.00362,278503357.66881,   0.00195,   0.00106,  -0.00278,  -4.41099,   1.00000
544404966.89783,291608976.10873,-45848757.73248,   0.00386,   0.00132,  -0.00338,478503410.33420,   0.00362,278503412.13320,   0.00195,   0.00106,  -0.00278,  -1.79900,   1.00000
544654001.46065,290468497.51266,-45278701.76112,   0.00386,   0.00132,  -0.00337,478503482.10368,   0.00362,278503491.48258,   0.00195,   0.00106,  -0.00278,  -9.37890,   1.00000
544896508.05587,289311414.77350,-44710442.39215,   0.00387,   0.00131,  -0.00336,478503490.62013,   0.00362,278503495.45554,   0.00195,   0.00106,  -0.00278,  -4.83542,   1.00000
545114643.20328,288129426.64918,-44132130.60600,   0.00387,   0.00130,  -0.00335,478485011.24598,   0.00362,278503495.45554,   0.00195,   0.00106,  -0.00278,-18484.20957,   0.00000
545340387.71629,286965193.71128,-43553818.81986,   0.00387,   0.00130,  -0.00335,478479107.46248,   0.00362,278503495.45554,   0.00195,   0.00106,  -0.00278,-24387.99306,   0.00000
545540767.67728,285775596.22136,-42970434.12331,   0.00388,   0.00129,  -0.00334,478455386.71207,   0.00362,278503495.45554,   0.00195,   0.00106,  -0.00278,-48108.74348,   0.00000
545715783.08624,284560634.17941,-42387049.42676,   0.00388,   0.00129,  -0.00333,478415328.97118,   0.00362,278503495.45554,   0.00195,   0.00106,  -0.00278,-88166.48436,   0.00000
545873043.30879,283338062.77186,-41798591.81980,   0.00388,   0.00128,  -0.00332,478364498.52636,   0.00362,278503495.45554,   0.00195,   0.00106,  -0.00278,-138996.92919,   0.00000
546030303.53134,282115491.36430,-41205061.30244,   0.00389,   0.00128,  -0.00332,478318101.99126,   0.00362,278503495.45554,   0.00195,   0.00106,  -0.00278,-185393.46429,   0.00000
546169808.56747,280885310.59114,-40611530.78508,   0.00389,   0.00127,  -0.00331,478262303.00919,   0.00362,278503495.45554,   0.00195,   0.00106,  -0.00278,-241192.44635,   0.00000
546301704.23800,279637374.63156,-40012927.35731,   0.00389,   0.00126,  -0.00330,478204289.06631,   0.00362,278503495.45554,   0.00195,   0.00106,  -0.00278,-299206.38923,   0.00000
546390480.17008,278356464.75435,-39409251.01914,   0.00390,   0.00126,  -0.00329,478113818.09474,   0.00362,278503495.45554,   0.00195,   0.00106,  -0.00278,-389677.36081,   0.00000
546486865.46777,277093310.06356,-38805574.68097,   0.00390,   0.00125,  -0.00328,478035940.10389,   0.00362,278503495.45554,   0.00195,   0.00106,  -0.00278,-467555.35166,   0.00000
546575641.39986,275812400.18635,-38196825.43240,   0.00390,   0.00125,  -0.00328,477956132.66248,   0.00362,278503495.45554,   0.00195,   0.00106,  -0.00278,-547362.79307,   0.00000
546621297.59350,274498516.39151,-37583003.27342,   0.00390,   0.00124,  -0.00327,477844106.03425,   0.00362,278503495.45554,   0.00195,   0.00106,  -0.00278,-659389.42129,   0.00000
546674563.15275,273202387.78308,-36969181.11444,   0.00391,   0.00123,  -0.00326,477744688.87873,   0.00362,278503495.45554,   0.00195,   0.00106,  -0.00278,-758806.57681,   0.00000
546694854.79437,271863139.43622,-36350286.04505,   0.00391,   0.00123,  -0.00325,477621901.91761,   0.00362,278503495.45554,   0.00195,   0.00106,  -0.00278,-881593.53793,   0.00000
546705000.61518,270534036.91016,-35726318.06526,   0.00391,   0.00122,  -0.00324,477495362.71744,   0.00362,278503495.45554,   0.00195,   0.00106,  -0.00278,-1008132.73811,   0.00000
546707537.07038,269187179.19769,-35102350.08547,   0.00392,   0.00121,  -0.00324,477368551.25621,   0.00362,278503495.45554,   0.00195,   0.00106,  -0.00278,-1134944.19934,   0.00000
546692318.33917,267832712.11961,-34473309.19528,   0.00392,   0.00121,  -0.00323,477231593.08378,   0.00362,278503495.45554,   0.00195,   0.00106,  -0.00278,-1271902.37177,   0.00000
546651735.05593,266452880.48950,-33844268.30508,   0.00392,   0.00120,  -0.00322,477079271.21380,   0.00362,278503495.45554,   0.00195,   0.00106,  -0.00278,-1424224.24174,   0.00000
546618761.13830,265090804.04582,-33210154.50449,   0.00392,   0.00120,  -0.00321,476938508.20413,   0.00362,278503495.45554,   0.00195,   0.00106,  -0.00278,-1564987.25142,   0.00000
546535058.11662,263677998.49808,-32570967.79348,   0.00393,   0.00119,  -0.00320,476759887.40484,   0.00362,278503495.45554,   0.00195,   0.00106,  -0.00278,-1743608.05070,   0.00000
546458964.46055,262282948.13676,-31926708.17207,   0.00393,   0.00118,  -0.00320,476592929.62889,   0.00362,278503495.45554,   0.00195,   0.00106,  -0.00278,-1910565.82666,   0.00000
546375261.43887,260870142.58903,-31282448.55066,   0.00393,   0.00118,  -0.00319,476426216.75356,   0.00362,278503495.45554,   0.00195,   0.00106,  -0.00278,-2077278.70198,   0.00000
546256048.04435,259442118.31008,-30633116.01885,   0.00393,   0.00117,  -0.00318,476234416.98917,   0.00362,278503495.45554,   0.00195,   0.00106,  -0.00278,-2269078.46638,   0.00000
546129225.28423,257996338.84471,-29983783.48704,   0.00393,   0.00117,  -0.00317,476043047.13334,   0.00362,278503495.45554,   0.00195,   0.00106,  -0.00278,-2460448.32221,   0.00000
545984647.33770,256542950.01374,-29329378.04482,   0.00394,   0.00116,  -0.00316,475842038.37985,   0.00362,278503495.45554,   0.00195,   0.00106,  -0.00278,-2661457.07570,   0.00000
545840069.39116,255089561.18277,-28669899.69220,   0.00394,   0.00115,  -0.00315,475646771.50747,   0.00362,278503495.45554,   0.00195,   0.00106,  -0.00278,-2856723.94807,   0.00000
545652371.70618,253603198.43416,-28010421.33957,   0.00394,   0.00115,  -0.00314,475421557.58611,   0.00362,278503495.45554,   0.00195,   0.00106,  -0.00278,-3081937.86943,   0.00000
545464674.02121,252116835.68556,-27345870.07654,   0.00394,   0.00114,  -0.00314,475202242.92338,   0.00362,278503495.45554,   0.00195,   0.00106,  -0.00278,-3301252.53217,   0.00000
545259221.14981,250622863.57135,-26676245.90311,   0.00394,   0.00113,  -0.00313,474973553.88148,   0.00362,278503495.45554,   0.00195,   0.00106,  -0.00278,-3529941.57406,   0.00000
545053768.27842,249128891.45714,-26006621.72968,   0.00395,   0.00113,  -0.00312,474751731.87551,   0.00362,278503495.45554,   0.00195,   0.00106,  -0.00278,-3751763.58003,   0.00000
544805195.66858,247601945.42529,-25331924.64584,   0.00395,   0.00112,  -0.00311,474499438.88198,   0.00362,278503495.45554,   0.00195,   0.00106,  -0.00278,-4004056.57357,   0.00000
544556623.05875,246074999.39345,-24657227.56200,   0.00395,   0.00111,  -0.00310,474254137.53376,   0.00362,278503495.45554,   0.00195,   0.00106,  -0.00278,-4249357.92179,   0.00000
544300441.08331,244530298.17519,-23977457.56776,   0.00395,   0.00111,  -0.00309,474009328.12381,   0.00362,278503495.45554,   0.00195,   0.00106,  -0.00278,-4494167.33174,   0.00000
544008748.73503,242970378.22572,-23292614.66312,   0.00395,   0.00110,  -0.00308,473740171.03333,   0.00362,278503495.45554,   0.00195,   0.00106,  -0.00278,-4763324.42222,   0.00000
543717056.38676,241410458.27624,-22607771.75847,   0.00396,   0.00109,  -0.00307,473478190.67803,   0.00362,278503495.45554,   0.00195,   0.00106,  -0.00278,-5025304.77752,   0.00000
543399999.48646,239825173.77475,-21912783.03301,   0.00396,   0.00109,  -0.00306,473200997.77229,   0.00362,278503495.45554,   0.00195,   0.00106,  -0.00278,-5302497.68326,   0.00000
543072796.76535,238250035.09406,-21222867.21796,   0.00396,   0.00108,  -0.00306,472922043.46989,   0.00362,278503495.45554,   0.00195,   0.00106,  -0.00278,-5581451.98565,   0.00000
542737984.67863,236657141.22695,-20527878.49250,   0.00396,   0.00107,  -0.00305,472644140.98095,   0.00362,278503495.45554,   0.00195,   0.00106,  -0.00278,-5859354.47459,   0.00000
542360052.85347,235031273.44222,-19827816.85664,   0.00396,   0.00107,  -0.00304,472336722.58745,   0.00362,278503495.45554,   0.00195,   0.00106,  -0.00278,-6166772.86809,   0.00000
541982121.02832,233405405.65748,-19122682.31038,   0.00396,   0.00106,  -0.00303,472036203.08510,   0.00362,278503495.45554,   0.00195,   0.00106,  -0.00278,-6467292.37044,   0.00000
541604189.20316,231779537.87274,-18417547.76411,   0.00397,   0.00105,  -0.00302,471743257.98298,   0.00362,278503495.45554,   0.00195,   0.00106,  -0.00278,-6760237.47257,   0.00000
541190747.00517,230138451.35679,-17707340.30744,   0.00397,   0.00105,  -0.00301,471426538.00440,   0.00362,278503495.45554,   0.00195,   0.00106,  -0.00278,-7076957.45115,   0.00000
540769695.44157,228479609.65443,-16997132.85077,   0.00397,   0.00104,  -0.00300,471112146.07969,   0.00362,278503495.45554,   0.00195,   0.00106,  -0.00278,-7391349.37585,   0.00000
540338498.05716,226830913.77287,-16281852.48369,   0.00397,   0.00103,  -0.00299,470794835.17307,   0.00362,278503495.45554,   0.00195,   0.00106,  -0.00278,-7708660.28247,   0.00000
539892081.94154,225146707.51848,-15561499.20621,   0.00397,   0.00103,  -0.00298,470474288.51934,   0.00362,278503495.45554,   0.00195,   0.00106,  -0.00278,-8029206.93620,   0.00000
539417764.81869,223465037.71929,-14841145.92873,   0.00397,   0.00102,  -0.00297,470136060.90221,   0.00362,278503495.45554,   0.00195,   0.00106,  -0.00278,-8367434.55333,   0.00000
538935838.33024,221765612.73368,-14115719.74084,   0.00397,   0.00101,  -0.00296,469800116.05769,   0.00362,278503495.45554,   0.00195,   0.00106,  -0.00278,-8703379.39785,   0.00000
538436156.65537,220058578.38247,-13390293.55296,   0.00397,   0.00101,  -0.00295,469456789.72033,   0.00362,278503495.45554,   0.00195,   0.00106,  -0.00278,-9046705.73521,   0.00000
537936474.98049,218351544.03126,-12654721.54426,   0.00397,   0.00100,  -0.00294,469120681.62109,   0.00362,278503495.45554,   0.00195,   0.00106,  -0.00278,-9382813.83445,   0.00000
537411428.75360,216619145.12802,-11924222.44597,   0.00398,   0.00099,  -0.00294,468772711.18866,   0.00362,278503495.45554,   0.00195,   0.00106,  -0.00278,-9730784.26688,   0.00000
536868627.34029,214879136.85918,-11183577.52687,   0.00398,   0.00099,  -0.00293,468416819.13530,   0.00362,278503495.45554,   0.00195,   0.00106,  -0.00278,-10086676.32024,   0.00000
536308070.74056,213131519.22473,-10442932.60777,   0.00398,   0.00098,  -0.00292,468053845.04716,   0.00362,278503495.45554,   0.00195,   0.00106,  -0.00278,-10449650.40838,   0.00000
535722149.58880,211358537.03825,-9702287.68868,   0.00398,   0.00097,  -0.00291,467678956.23184,   0.00362,278503495.45554,   0.00195,   0.00106,  -0.00278,-10824539.22371,   0.00000
535143837.80266,209603310.03819,-8956569.85917,   0.00398,   0.00097,  -0.00290,467317039.49040,   0.00362,278503495.45554,   0.00195,   0.00106,  -0.00278,-11186455.96515,   0.00000
534540161.46449,207822718.48611,-8205779.11926,   0.00398,   0.00096,  -0.00289,466943124.45387,   0.00362,278503495.45554,   0.00195,   0.00106,  -0.00278,-11560371.00167,   0.00000
533911120.57429,206016762.38200,-7454988.37935,   0.00398,   0.00095,  -0.00288,466557693.27062,   0.00362,278503495.45554,   0.00195,   0.00106,  -0.00278,-11945802.18492,   0.00000
533289689.04970,204228561.46431,-6699124.72904,   0.00398,   0.00095,  -0.00287,466185420.77434,   0.00362,278503495.45554,   0.00195,   0.00106,  -0.00278,-12318074.68121,   0.00000
532642892.97309,202414995.99460,-5938188.16832,   0.00398,   0.00094,  -0.00286,465801630.76862,   0.00362,278503495.45554,   0.00195,   0.00106,  -0.00278,-12701864.68692,   0.00000
531978341.71006,200593821.15928,-5177251.60760,   0.00398,   0.00093,  -0.00285,465411302.61404,   0.00362,278503495.45554,   0.00195,   0.00106,  -0.00278,-13092192.84150,   0.00000
531306181.08143,198754891.13754,-4411242.13648,   0.00398,   0.00092,  -0.00284,465025203.39918,   0.00362,278503495.45554,   0.00195,   0.00106,  -0.00278,-13478292.05637,   0.00000
530606119.44557,196918497.57101,-3645232.66535,   0.00398,   0.00092,  -0.00283,464621837.62610,   0.00362,278503495.45554,   0.00195,   0.00106,  -0.00278,-13881657.82944,   0.00000
529898448.44410,195064348.81806,-2874150.28382,   0.00398,   0.00091,  -0.00282,464222955.35377,   0.00362,278503495.45554,   0.00195,   0.00106,  -0.00278,-14280540.10177,   0.00000
529173022.25621,193202590.69950,-2103067.90230,   0.00398,   0.00090,  -0.00281,463817850.44605,   0.00362,278503495.45554,   0.00195,   0.00106,  -0.00278,-14685645.00949,   0.00000
528439986.70272,191323077.39452,-1326912.61036,   0.00398,   0.00090,  -0.00280,463417583.94241,   0.00362,278503495.45554,   0.00195,   0.00106,  -0.00278,-15085911.51313,   0.00000
527696805.32842,189453709.91035,-545684.40802,   0.00398,   0.00089,  -0.00279,463015553.07541,   0.00362,278503495.45554,   0.00195,   0.00106,  -0.00278,-15487942.38014,   0.00000
526928259.40209,187558977.87416,235543.79431,   0.00398,   0.00088,  -0.00278,462603287.31418,   0.00362,278503495.45554,   0.00195,   0.00106,  -0.00278,-15900208.14136,   0.00000
526141958.28935,185656636.47237,1021844.90706,   0.00398,   0.00087,  -0.00277,462185171.93528,   0.00362,278503495.45554,   0.00195,   0.00106,  -0.00278,-16318323.52027,   0.00000
525355657.17661,183754295.07057,1813218.93020,   0.00398,   0.00087,  -0.00276,461776690.97432,   0.00362,278503495.45554,   0.00195,   0.00106,  -0.00278,-16726804.48123,   0.00000
524543991.51184,181826589.11675,2604592.95335,   0.00398,   0.00086,  -0.00275,461358444.63506,   0.00362,278503495.45554,   0.00195,   0.00106,  -0.00278,-17145050.82049,   0.00000
523732325.84707,179898883.16293,3395966.97650,   0.00398,   0.00085,  -0.00274,460949991.40835,   0.00362,278503495.45554,   0.00195,   0.00106,  -0.00278,-17553504.04719,   0.00000
522885149.80947,177955958.47789,4197486.82046,   0.00398,   0.00085,  -0.00273,460520935.16765,   0.00362,278503495.45554,   0.00195,   0.00106,  -0.00278,-17982560.28790,   0.00000
522037973.77187,176013033.79286,4993933.75401,   0.00398,   0.00084,  -0.00272,460101689.55261,   0.00362,278503495.45554,   0.00195,   0.00106,  -0.00278,-18401805.90294,   0.00000
521173042.54786,174062499.74221,5800526.50837,   0.00398,   0.00083,  -0.00270,459677441.07612,   0.00362,278503495.45554,   0.00195,   0.00106,  -0.00278,-18826054.37943,   0.00000
520300501.95823,172094210.50515,6607119.26273,   0.00398,   0.00082,  -0.00269,459259499.18570,   0.00362,278503495.45554,   0.00195,   0.00106,  -0.00278,-19243996.26985,   0.00000
519410206.18219,170118311.90249,7413712.01710,   0.00398,   0.00082,  -0.00268,458836467.87037,   0.00362,278503495.45554,   0.00195,   0.00106,  -0.00278,-19667027.58517,   0.00000
518502155.21973,168134803.93421,8225377.68186,   0.00398,   0.00081,  -0.00267,458408670.91297,   0.00362,278503495.45554,   0.00195,   0.00106,  -0.00278,-20094824.54258,   0.00000
517568739.70525,166125931.41391,9042116.25703,   0.00398,   0.00080,  -0.00266,457972614.95987,   0.00362,278503495.45554,   0.00195,   0.00106,  -0.00278,-20530880.49568,   0.00000
516642933.55638,164134814.08003,9858854.83221,   0.00398,   0.00080,  -0.00265,457550715.43775,   0.00362,278503495.45554,   0.00195,   0.00106,  -0.00278,-20952780.01780,   0.00000
515691762.85548,162118332.19413,10675593.40738,   0.00398,   0.00079,  -0.00264,457120513.94989,   0.00362,278503495.45554,   0.00195,   0.00106,  -0.00278,-21382981.50565,   0.00000
514722836.96816,160094240.94262,11502477.80336,   0.00398,   0.00078,  -0.00263,456686461.35631,   0.00362,278503495.45554,   0.00195,   0.00106,  -0.00278,-21817034.09924,   0.00000
513753911.08085,158070149.69110,12329362.19934,   0.00398,   0.00077,  -0.00262,456263230.23231,   0.00362,278503495.45554,   0.00195,   0.00106,  -0.00278,-22240265.22323,   0.00000
512767230.00711,156038449.07398,13156246.59532,   0.00398,   0.00077,  -0.00261,455835591.99095,   0.00362,278503495.45554,   0.00195,   0.00106,  -0.00278,-22667903.46459,   0.00000
511772939.56777,153988993.27045,13988203.90171,   0.00398,   0.00076,  -0.00260,455416031.25096,   0.00362,278503495.45554,   0.00195,   0.00106,  -0.00278,-23087464.20459,   0.00000
510743138.75560,151924318.73570,14820161.20809,   0.00398,   0.00075,  -0.00259,454977098.91769,   0.00362,278503495.45554,   0.00195,   0.00106,  -0.00278,-23526396.53786,   0.00000
509713337.94343,149859644.20095,15657191.42488,   0.00398,   0.00074,  -0.00258,454549868.87990,   0.00362,278503495.45554,   0.00195,   0.00106,  -0.00278,-23953626.57565,   0.00000
508683537.13126,147794969.66620,16499294.55208,   0.00398,   0.00074,  -0.00257,454134458.31509,   0.00362,278503495.45554,   0.00195,   0.00106,  -0.00278,-24369037.14046,   0.00000
507635981.13267,145722685.76584,17341397.67928,   0.00398,   0.00073,  -0.00255,453715201.58103,   0.00362,278503495.45554,   0.00195,   0.00106,  -0.00278,-24788293.87451,   0.00000
506563060.58205,143625037.31346,18188573.71688,   0.00398,   0.00072,  -0.00254,453289774.70642,   0.00362,278503495.45554,   0.00195,   0.00106,  -0.00278,-25213720.74913,   0.00000
505479994.21063,141537534.68188,19035749.75448,   0.00398,   0.00071,  -0.00253,452863760.26965,   0.00362,278503495.45554,   0.00195,   0.00106,  -0.00278,-25639735.18590,   0.00000
504389318.47360,139432276.86389,19887998.70248,   0.00398,   0.00071,  -0.00252,452447113.81362,   0.00362,278503495.45554,   0.00195,   0.00106,  -0.00278,-26056381.64192,   0.00000
503280887.55015,137319409.68030,20740247.65049,   0.00397,   0.00070,  -0.00251,452027113.43929,   0.00362,278503495.45554,   0.00195,   0.00106,  -0.00278,-26476382.01625,   0.00000
502172456.62670,135206542.49670,21597569.50890,   0.00397,   0.00069,  -0.00250,451619694.82842,   0.00362,278503495.45554,   0.00195,   0.00106,  -0.00278,-26883800.62713,   0.00000
501020905.96482,133060701.39547,22454891.36731,   0.00397,   0.00068,  -0.00249,451191280.66391,   0.00362,278503495.45554,   0.00195,   0.00106,  -0.00278,-27312214.79164,   0.00000
499894719.85495,130940224.84627,23317286.13612,   0.00397,   0.00068,  -0.00248,450793560.18320,   0.00362,278503495.45554,   0.00195,   0.00106,  -0.00278,-27709935.27235,   0.00000
498725414.00665,128786774.37944,24184753.81534,   0.00397,   0.00067,  -0.00247,450376000.03944,   0.00362,278503495.45554,   0.00195,   0.00106,  -0.00278,-28127495.41611,   0.00000
497556108.15834,126633323.91260,25047148.58416,   0.00397,   0.00066,  -0.00245,449969970.81840,   0.00362,278503495.45554,   0.00195,   0.00106,  -0.00278,-28533524.63714,   0.00000
496386802.31004,124479873.44577,25919689.17378,   0.00397,   0.00065,  -0.00244,449578047.65085,   0.00362,278503495.45554,   0.00195,   0.00106,  -0.00278,-28925447.80469,   0.00000
495181986.08890,122311204.24772,26792229.76340,   0.00397,   0.00065,  -0.00243,449168560.47396,   0.00362,278503495.45554,   0.00195,   0.00106,  -0.00278,-29334934.98159,   0.00000
493977169.86776,120142535.04967,27664770.35303,   0.00397,   0.00064,  -0.00242,448771681.58230,   0.00362,278503495.45554,   0.00195,   0.00106,  -0.00278,-29731813.87324,   0.00000
492764744.28102,117956110.66520,28542383.85306,   0.00396,   0.00063,  -0.00241,448386136.68279,   0.00362,278503495.45554,   0.00195,   0.00106,  -0.00278,-30117358.77275,   0.00000
491542172.87346,115779832.10155,29425070.26349,   0.00396,   0.00062,  -0.00240,448001686.68046,   0.00362,278503495.45554,   0.00195,   0.00106,  -0.00278,-30501808.77508,   0.00000
490294236.91388,113578188.98587,30307756.67393,   0.00396,   0.00062,  -0.00239,447612994.23632,   0.00362,278503495.45554,   0.00195,   0.00106,  -0.00278,-30890501.21922,   0.00000
489046300.95430,111376545.87019,31190443.08436,   0.00396,   0.00061,  -0.00237,447237367.50810,   0.00362,278503495.45554,   0.00195,   0.00106,  -0.00278,-31266127.94745,   0.00000
487780609.80831,109167293.38890,32078202.40520,   0.00396,   0.00060,  -0.00236,446861013.64866,   0.00362,278503495.45554,   0.00195,   0.00106,  -0.00278,-31642481.80688,   0.00000
486497163.47589,106950431.54201,32971034.63644,   0.00396,   0.00059,  -0.00235,446484121.41351,   0.00362,278503495.45554,   0.00195,   0.00106,  -0.00278,-32019374.04203,   0.00000
485213717.14348,104733569.69511,33863866.86769,   0.00396,   0.00059,  -0.00234,446120602.19351,   0.00362,278503495.45554,   0.00195,   0.00106,  -0.00278,-32382893.26203,   0.00000
483930270.81107,102516707.84822,34761772.00933,   0.00395,   0.00058,  -0.00233,445771675.39375,   0.00362,278503495.45554,   0.00195,   0.00106,  -0.00278,-32731820.06179,   0.00000
482603704.74022,100266872.08369,35659677.15098,   0.00395,   0.00057,  -0.00232,445404821.77415,   0.00362,278503495.45554,   0.00195,   0.00106,  -0.00278,-33098673.68139,   0.00000
481302503.22139,98042400.87119,36557582.29263,   0.00395,   0.00056,  -0.00230,445068230.14440,   0.00362,278503495.45554,   0.00195,   0.00106,  -0.00278,-33435265.31114,   0.00000
479958181.96412,95784955.74106,37460560.34468,   0.00395,   0.00056,  -0.00229,444715326.59403,   0.00362,278503495.45554,   0.00195,   0.00106,  -0.00278,-33788168.86151,   0.00000
478613860.70685,93527510.61092,38368611.30714,   0.00395,   0.00055,  -0.00228,444377667.04337,   0.00362,278503495.45554,   0.00195,   0.00106,  -0.00278,-34125828.41217,   0.00000
477269539.44958,91270065.48079,39276662.26960,   0.00395,   0.00054,  -0.00227,444054033.44509,   0.00362,278503495.45554,   0.00195,   0.00106,  -0.00278,-34449462.01046,   0.00000
475907463.00589,89005010.98505,40184713.23206,   0.00394,   0.00053,  -0.00226,443729748.70418,   0.00362,278503495.45554,   0.00195,   0.00106,  -0.00278,-34773746.75137,   0.00000
474527631.37579,86732347.12370,41097837.10492,   0.00394,   0.00053,  -0.00225,443406331.00637,   0.00362,278503495.45554,   0.00195,   0.00106,  -0.00278,-35097164.44917,   0.00000
473147799.74568,84459683.26236,42010960.97778,   0.00394,   0.00052,  -0.00223,443097198.95863,   0.00362,278503495.45554,   0.00195,   0.00106,  -0.00278,-35406296.49691,   0.00000
471750212.92916,82179410.03540,42929157.76105,   0.00394,   0.00051,  -0.00222,442789230.23048,   0.00362,278503495.45554,   0.00195,   0.00106,  -0.00278,-35714265.22506,   0.00000
470345016.74703,79881381.62203,43852427.45472,   0.00394,   0.00050,  -0.00221,442496063.61282,   0.00362,278503495.45554,   0.00195,   0.00106,  -0.00278,-36007431.84273,   0.00000
468929674.74410,77593499.02947,44775697.14840,   0.00394,   0.00049,  -0.00220,442204122.38068,   0.00362,278503495.45554,   0.00195,   0.00106,  -0.00278,-36299373.07486,   0.00000
467506723.37555,75287861.25049,45698966.84207,   0.00393,   0.00049,  -0.00219,441925789.97061,   0.00362,278503495.45554,   0.00195,   0.00106,  -0.00278,-36577705.48494,   0.00000
466073626.18620,72992369.29232,46627309.44615,   0.00393,   0.00048,  -0.00217,441650326.29879,   0.00362,278503495.45554,   0.00195,   0.00106,  -0.00278,-36853169.15676,   0.00000
464632919.63124,70679122.14774,47555652.05022,   0.00393,   0.00047,  -0.00216,441388787.30424,   0.00362,278503495.45554,   0.00195,   0.00106,  -0.00278,-37114708.15130,   0.00000
463174457.88986,68358265.63754,48489067.56470,   0.00393,   0.00046,  -0.00215,441129456.41100,   0.00362,278503495.45554,   0.00195,   0.00106,  -0.00278,-37374039.04455,   0.00000
461715996.14848,66037409.12735,49422483.07919,   0.00392,   0.00046,  -0.00214,440885266.10273,   0.00362,278503495.45554,   0.00195,   0.00106,  -0.00278,-37618229.35282,   0.00000
460239779.22069,63708943.25155,50355898.59367,   0.00392,   0.00045,  -0.00213,440641853.91357,   0.00362,278503495.45554,   0.00195,   0.00106,  -0.00278,-37861641.54198,   0.00000
458745807.10647,61372868.01014,51294387.01855,   0.00392,   0.00044,  -0.00211,440401113.77543,   0.00362,278503495.45554,   0.00195,   0.00106,  -0.00278,-38102381.68012,   0.00000
457269590.17868,59044402.13434,52237948.35385,   0.00392,   0.00043,  -0.00210,440191912.35633,   0.00362,278503495.45554,   0.00195,   0.00106,  -0.00278,-38311583.09922,   0.00000
455757862.87805,56700717.52733,53181509.68914,   0.00392,   0.00043,  -0.00209,439969569.42250,   0.00362,278503495.45554,   0.00195,   0.00106,  -0.00278,-38533926.03304,   0.00000
454246135.57742,54357032.92032,54125071.02443,   0.00391,   0.00042,  -0.00208,439762818.47106,   0.00362,278503495.45554,   0.00195,   0.00106,  -0.00278,-38740676.98448,   0.00000
452734408.27680,52013348.31330,55073705.27013,   0.00391,   0.00041,  -0.00206,439573588.15780,   0.00362,278503495.45554,   0.00195,   0.00106,  -0.00278,-38929907.29774,   0.00000
451204925.78975,49662054.34068,56022339.51582,   0.00391,   0.00040,  -0.00205,439385876.79783,   0.00362,278503495.45554,   0.00195,   0.00106,  -0.00278,-39117618.65772,   0.00000
449675443.30270,47310760.36806,56976046.67192,   0.00391,   0.00039,  -0.00204,439215931.97159,   0.00362,278503495.45554,   0.00195,   0.00106,  -0.00278,-39287563.48395,   0.00000
448138351.45005,44941711.20902,57929753.82802,   0.00390,   0.00039,  -0.00203,439061731.66189,   0.00362,278503495.45554,   0.00195,   0.00106,  -0.00278,-39441763.79365,   0.00000
446573358.59017,42575198.50518,58883460.98412,   0.00390,   0.00038,  -0.00201,438895487.18752,   0.00362,278503495.45554,   0.00195,   0.00106,  -0.00278,-39608008.26803,   0.00000
445026120.91671,40216295.16696,59842241.05063,   0.00390,   0.00037,  -0.00200,438761413.87003,   0.00362,278503495.45554,   0.00195,   0.00106,  -0.00278,-39742081.58552,   0.00000
443461128.05683,37849782.46312,60806094.02754,   0.00390,   0.00036,  -0.00199,438631524.30577,   0.00362,278503495.45554,   0.00195,   0.00106,  -0.00278,-39871971.14978,   0.00000
441870770.64493,35457905.20726,61769947.00445,   0.00389,   0.00036,  -0.00198,438504057.16646,   0.00362,278503495.45554,   0.00195,   0.00106,  -0.00278,-39999438.28909,   0.00000
440305777.78505,33091392.50342,62733799.98136,   0.00389,   0.00035,  -0.00196,438406747.06807,   0.00362,278503495.45554,   0.00195,   0.00106,  -0.00278,-40096748.38747,   0.00000
438697665.18673,30691905.88196,63697652.95827,   0.00389,   0.00034,  -0.00195,438298231.86227,   0.00362,278503495.45554,   0.00195,   0.00106,  -0.00278,-40205263.59328,   0.00000
437114917.14044,28317783.81251,64666578.84559,   0.00389,   0.00033,  -0.00194,438221999.90497,   0.00362,278503495.45554,   0.00195,   0.00106,  -0.00278,-40281495.55057,   0.00000
435514413.90773,25936052.37746,65640577.64331,   0.00388,   0.00032,  -0.00193,438150676.34788,   0.00362,278503495.45554,   0.00195,   0.00106,  -0.00278,-40352819.10766,   0.00000
433888546.12299,23528956.39039,66614576.44103,   0.00388,   0.00032,  -0.00191,438082689.62466,   0.00362,278503495.45554,   0.00195,   0.00106,  -0.00278,-40420805.83088,   0.00000
432270287.70386,21139615.58973,67588575.23875,   0.00388,   0.00031,  -0.00190,438030939.28894,   0.00362,278503495.45554,   0.00195,   0.00106,  -0.00278,-40472556.16661,   0.00000
430652029.28473,18750274.78907,68562574.03647,   0.00388,   0.00030,  -0.00189,437995866.32716,   0.00362,278503495.45554,   0.00195,   0.00106,  -0.00278,-40507629.12838,   0.00000
429008406.31358,16335569.43639,69541645.74459,   0.00387,   0.00029,  -0.00188,437966994.62973,   0.00362,278503495.45554,   0.00195,   0.00106,  -0.00278,-40536500.82582,   0.00000
427372392.70803,13938619.27013,70525790.36312,   0.00387,   0.00029,  -0.00186,437956764.31202,   0.00362,278503495.45554,   0.00195,   0.00106,  -0.00278,-40546731.14352,   0.00000
425736379.10249,11541669.10386,71509934.98165,   0.00387,   0.00028,  -0.00185,437963444.37312,   0.00362,278503495.45554,   0.00195,   0.00106,  -0.00278,-40540051.08243,   0.00000
424082610.31053,9137109.57199,72494079.60018,   0.00386,   0.00027,  -0.00184,437973552.38915,   0.00362,278503495.45554,   0.00195,   0.00106,  -0.00278,-40529943.06640,   0.00000
422421232.15296,6714794.85370,73478224.21871,   0.00386,   0.00026,  -0.00182,438001669.21006,   0.00362,278503495.45554,   0.00195,   0.00106,  -0.00278,-40501826.24548,   0.00000
420749708.17458,4302625.95622,74467441.74765,   0.00386,   0.00026,  -0.00181,438035044.88221,   0.00362,278503495.45554,   0.00195,   0.00106,  -0.00278,-40468450.57333,   0.00000
419078184.19620,1890457.05875,75461732.18699,   0.00386,   0.00025,  -0.00180,438088196.66772,   0.00362,278503495.45554,   0.00195,   0.00106,  -0.00278,-40415298.78782,   0.00000
417406660.21782,-521711.83873,76450949.71592,   0.00385,   0.00024,  -0.00179,438155909.82096,   0.00362,278503495.45554,   0.00195,   0.00106,  -0.00278,-40347585.63458,   0.00000
415717381.05302,-2941490.10182,77445240.15526,   0.00385,   0.00023,  -0.00177,438230210.62364,   0.00362,278503495.45554,   0.00195,   0.00106,  -0.00278,-40273284.83190,   0.00000
414028101.88823,-5361268.36491,78444603.50501,   0.00385,   0.00022,  -0.00176,438324532.25168,   0.00362,278503495.45554,   0.00195,   0.00106,  -0.00278,-40178963.20386,   0.00000
412338822.72343,-7781046.62799,79438893.94435,   0.00384,   0.00022,  -0.00175,438433450.62964,   0.00362,278503495.45554,   0.00195,   0.00106,  -0.00278,-40070044.82590,   0.00000
410649543.55863,-10200824.89108,80438257.29409,   0.00384,   0.00021,  -0.00173,438562433.69485,   0.00362,278503495.45554,   0.00195,   0.00106,  -0.00278,-39941061.76070,   0.00000
408942509.20742,-12628212.51977,81442693.55424,   0.00384,   0.00020,  -0.00172,438698526.89866,   0.00362,278503495.45554,   0.00195,   0.00106,  -0.00278,-39804968.55688,   0.00000
407235474.85621,-15055600.14847,82447129.81439,   0.00384,   0.00019,  -0.00171,438852099.45583,   0.00362,278503495.45554,   0.00195,   0.00106,  -0.00278,-39651395.99972,   0.00000
405518294.68419,-17472841.95635,83451566.07454,   0.00383,   0.00019,  -0.00170,439008469.44439,   0.00362,278503495.45554,   0.00195,   0.00106,  -0.00278,-39495026.01116,   0.00000
403793505.14656,-19907838.95065,84456002.33469,   0.00383,   0.00018,  -0.00168,439184041.04780,   0.00362,278503495.45554,   0.00195,   0.00106,  -0.00278,-39319454.40775,   0.00000
402076324.97453,-22325080.75853,85465511.50524,   0.00383,   0.00017,  -0.00167,439378228.56010,   0.00362,278503495.45554,   0.00195,   0.00106,  -0.00278,-39125266.89545,   0.00000
400351535.43690,-24760077.75283,86475020.67579,   0.00382,   0.00016,  -0.00166,439591783.50549,   0.00362,278503495.45554,   0.00195,   0.00106,  -0.00278,-38911711.95006,   0.00000
398616600.07846,-27184928.92633,87489602.75675,   0.00382,   0.00016,  -0.00164,439811175.31554,   0.00362,278503495.45554,   0.00195,   0.00106,  -0.00278,-38692320.14001,   0.00000
396881664.72003,-29609780.09982,88504184.83771,   0.00382,   0.00015,  -0.00163,440048117.69609,   0.00362,278503495.45554,   0.00195,   0.00106,  -0.00278,-38455377.75946,   0.00000
395139119.99598,-32052386.45972,89518766.91867,   0.00381,   0.00014,  -0.00162,440304735.72328,   0.00362,278503495.45554,   0.00195,   0.00106,  -0.00278,-38198759.73227,   0.00000
393404184.63754,-34477237.63322,90533348.99963,   0.00381,   0.00013,  -0.00160,440576762.67372,   0.00362,278503495.45554,   0.00195,   0.00106,  -0.00278,-37926732.78182,   0.00000
391651494.09268,-36909698.17231,91553003.99099,   0.00381,   0.00012,  -0.00159,440856909.55141,   0.00362,278503495.45554,   0.00195,   0.00106,  -0.00278,-37646585.90413,   0.00000
389906412.91344,-39324403.52499,92572658.98235,   0.00380,   0.00012,  -0.00158,441152295.96501,   0.00362,278503495.45554,   0.00195,   0.00106,  -0.00278,-37351199.49053,   0.00000
388153722.36858,-41756864.06409,93597386.88412,   0.00380,   0.00011,  -0.00156,441470772.07962,   0.00362,278503495.45554,   0.00195,   0.00106,  -0.00278,-37032723.37592,   0.00000
386401031.82372,-44189324.60319,94617041.87549,   0.00380,   0.00010,  -0.00155,441803585.61853,   0.00362,278503495.45554,   0.00195,   0.00106,  -0.00278,-36699909.83701,   0.00000
384638195.45806,-46611639.32148,95641769.77725,   0.00379,   0.00009,  -0.00154,442142338.55151,   0.00362,278503495.45554,   0.00195,   0.00106,  -0.00278,-36361156.90403,   0.00000
382893114.27881,-49026344.67416,96671570.58943,   0.00379,   0.00009,  -0.00152,442514120.57573,   0.00362,278503495.45554,   0.00195,   0.00106,  -0.00278,-35989374.87982,   0.00000
381122668.54754,-51466414.57887,97696298.49120,   0.00379,   0.00008,  -0.00151,442890503.16293,   0.00362,278503495.45554,   0.00195,   0.00106,  -0.00278,-35612992.29262,   0.00000
379359832.18187,-53888729.29716,98726099.30337,   0.00378,   0.00007,  -0.00150,443285037.83904,   0.00362,278503495.45554,   0.00195,   0.00106,  -0.00278,-35218457.61651,   0.00000
377579240.62979,-56318653.38105,99755900.11554,   0.00378,   0.00006,  -0.00148,443684963.54251,   0.00362,278503495.45554,   0.00195,   0.00106,  -0.00278,-34818531.91304,   0.00000
375824013.62973,-58723212.91292,100790773.83812,   0.00378,   0.00006,  -0.00147,444114893.69127,   0.00362,278503495.45554,   0.00195,   0.00106,  -0.00278,-34388601.76428,   0.00000
374043422.07765,-61153136.99682,101825647.56070,   0.00377,   0.00005,  -0.00146,444553150.81624,   0.00362,278503495.45554,   0.00195,   0.00106,  -0.00278,-33950344.63930,   0.00000
372270439.89117,-63565305.89430,102860521.28327,   0.00377,   0.00004,  -0.00144,445005812.80843,   0.00362,278503495.45554,   0.00195,   0.00106,  -0.00278,-33497682.64712,   0.00000
370489848.33909,-65995229.97819,103895395.00585,   0.00377,   0.00003,  -0.00143,445478866.11846,   0.00362,278503495.45554,   0.00195,   0.00106,  -0.00278,-33024629.33709,   0.00000
368716866.15262,-68407398.87567,104935341.63883,   0.00376,   0.00003,  -0.00142,445969661.65425,   0.00362,278503495.45554,   0.00195,   0.00106,  -0.00278,-32533833.80129,   0.00000
366926128.77972,-70827177.13876,105975288.27182,   0.00376,   0.00002,  -0.00140,446466012.25124,   0.00362,278503495.45554,   0.00195,   0.00106,  -0.00278,-32037483.20431,   0.00000
365160755.95886,-73221590.84982,107015234.90480,   0.00376,   0.00001,  -0.00139,446987932.75819,   0.00362,278503495.45554,   0.00195,   0.00106,  -0.00278,-31515562.69735,   0.00000
363370018.58596,-75641369.11291,108055181.53778,   0.00375,   0.00000,  -0.00138,447518669.55508,   0.00362,278503495.45554,   0.00195,   0.00106,  -0.00278,-30984825.90046,   0.00000
361586890.57868,-78043392.18958,109100201.08117,   0.00375,  -0.00000,  -0.00136,448066824.97448,   0.00362,278503495.45554,   0.00195,   0.00106,  -0.00278,-30436670.48107,   0.00000
359813908.39220,-80455561.08706,110145220.62456,   0.00375,  -0.00001,  -0.00135,448646948.88991,   0.00362,278503495.45554,   0.00195,   0.00106,  -0.00278,-29856546.56564,   0.00000
358030780.38492,-82857584.16373,111190240.16794,   0.00374,  -0.00002,  -0.00133,449229109.69932,   0.00362,278503495.45554,   0.00195,   0.00106,  -0.00278,-29274385.75622,   0.00000
356237506.55683,-85249461.41958,112235259.71133,   0.00374,  -0.00003,  -0.00132,449813236.67605,   0.00362,278503495.45554,   0.00195,   0.00106,  -0.00278,-28690258.77949,   0.00000
354454378.54954,-87651484.49625,113285352.16512,   0.00374,  -0.00003,  -0.00131,450432963.62381,   0.00362,278503495.45554,   0.00195,   0.00106,  -0.00278,-28070531.83173,   0.00000
352678859.90786,-90035752.38651,114335444.61892,   0.00373,  -0.00004,  -0.00129,451065741.46675,   0.00362,278503495.45554,   0.00195,   0.00106,  -0.00278,-27437753.98879,   0.00000
350877976.71416,-92445384.82878,115385537.07271,   0.00373,  -0.00005,  -0.00128,451707892.11738,   0.00362,278503495.45554,   0.00195,   0.00106,  -0.00278,-26795603.33817,   0.00000
349102458.07248,-94829652.71904,116435629.52650,   0.00373,  -0.00006,  -0.00127,452373984.22007,   0.00362,278503495.45554,   0.00195,   0.00106,  -0.00278,-26129511.23548,   0.00000
347316793.61000,-97203774.78848,117490794.89070,   0.00372,  -0.00006,  -0.00125,453045574.96473,   0.00362,278503495.45554,   0.00195,   0.00106,  -0.00278,-25457920.49081,   0.00000
345541274.96832,-99588042.67873,118545960.25489,   0.00372,  -0.00007,  -0.00124,453748569.43949,   0.00362,278503495.45554,   0.00195,   0.00106,  -0.00278,-24754926.01605,   0.00000
343755610.50583,-101962164.74817,119601125.61909,   0.00372,  -0.00008,  -0.00123,454453030.28359,   0.00362,278503495.45554,   0.00195,   0.00106,  -0.00278,-24050465.17196,   0.00000
341969946.04334,-104336286.81762,120656290.98329,   0.00371,  -0.00009,  -0.00121,455173813.81039,   0.00362,278503495.45554,   0.00195,   0.00106,  -0.00278,-23329681.64516,   0.00000
340202036.76727,-106702799.52145,121716529.25789,   0.00371,  -0.00009,  -0.00120,455925611.75706,   0.00362,278503495.45554,   0.00195,   0.00106,  -0.00278,-22577883.69849,   0.00000
338416372.30479,-109076921.59090,122771694.62209,   0.00371,  -0.00010,  -0.00118,456678770.00774,   0.00362,278503495.45554,   0.00195,   0.00106,  -0.00278,-21824725.44781,   0.00000
336638317.20791,-111433288.47392,123831932.89669,   0.00370,  -0.00011,  -0.00117,457447802.39966,   0.00362,278503495.45554,   0.00195,   0.00106,  -0.00278,-21055693.05588,   0.00000
334860262.11103,-113789655.35695,124892171.17129,   0.00370,  -0.00011,  -0.00116,458232776.96527,   0.00362,278503495.45554,   0.00195,   0.00106,  -0.00278,-20270718.49027,   0.00000
333082207.01415,-116146022.23998,125952409.44589,   0.00369,  -0.00012,  -0.00114,459033611.91842,   0.00362,278503495.45554,   0.00195,   0.00106,  -0.00278,-19469883.53713,   0.00000
331311761.28288,-118484633.93659,127017720.63090,   0.00369,  -0.00013,  -0.00113,459849919.49629,   0.00362,278503495.45554,   0.00195,   0.00106,  -0.00278,-18653575.95926,   0.00000
329541315.55160,-120823245.63319,128083031.81590,   0.00369,  -0.00014,  -0.00111,460681859.60971,   0.00362,278503495.45554,   0.00195,   0.00106,  -0.00278,-17821635.84584,   0.00000
327770869.82033,-123161857.32980,129143270.09051,   0.00368,  -0.00014,  -0.00110,461525089.17543,   0.00362,278503495.45554,   0.00195,   0.00106,  -0.00278,-16978406.28012,   0.00000
326018179.27547,-125492859.66081,130208581.27551,   0.00368,  -0.00015,  -0.00109,462398192.66080,   0.00362,278503495.45554,   0.00195,   0.00106,  -0.00278,-16105302.79474,   0.00000
324255342.90981,-127813716.17100,131278965.37092,   0.00368,  -0.00016,  -0.00107,463276002.03246,   0.00362,278503495.45554,   0.00195,   0.00106,  -0.00278,-15227493.42308,   0.00000
322492506.54414,-130134572.68119,132344276.55593,   0.00367,  -0.00016,  -0.00106,464164702.37125,   0.00362,278503495.45554,   0.00195,   0.00106,  -0.00278,-14338793.08430,   0.00000
320729670.17848,-132455429.19138,133414660.65134,   0.00367,  -0.00017,  -0.00105,465072857.95143,   0.00362,278503495.45554,   0.00195,   0.00106,  -0.00278,-13430637.50412,   0.00000
318966833.81281,-134776285.70158,134479971.83635,   0.00367,  -0.00018,  -0.00103,465991675.73969,   0.00362,278503495.45554,   0.00195,   0.00106,  -0.00278,-12511819.71586,   0.00000
317211606.81275,-137079387.02535,135550355.93176,   0.00366,  -0.00019,  -0.00102,466924867.02132,   0.00362,278503495.45554,   0.00195,   0.00106,  -0.00278,-11578628.43423,   0.00000
315474134.99911,-139374878.98352,136620740.02717,   0.00366,  -0.00019,  -0.00100,467882609.15507,   0.00362,278503495.45554,   0.00195,   0.00106,  -0.00278,-10620886.30047,   0.00000
313726517.36466,-141660225.12088,137691124.12258,   0.00366,  -0.00020,  -0.00099,468840114.68916,   0.00362,278503495.45554,   0.00195,   0.00106,  -0.00278,-9663380.76638,   0.00000
311989045.55102,-143955717.07905,138766581.12840,   0.00365,  -0.00021,  -0.00098,469831365.39707,   0.00362,278503495.45554,   0.00195,   0.00106,  -0.00278,-8672130.05847,   0.00000
310241427.91657,-146241063.21641,139836965.22381,   0.00365,  -0.00021,  -0.00096,470817755.57819,   0.00362,278503495.45554,   0.00195,   0.00106,  -0.00278,-7685739.87735,   0.00000
308519174.83414,-148501044.80174,140912422.22963,   0.00365,  -0.00022,  -0.00095,471827292.09707,   0.00362,278503495.45554,   0.00195,   0.00106,  -0.00278,-6676203.35848,   0.00000
306779166.56530,-150768635.75269,141987879.23544,   0.00364,  -0.00023,  -0.00093,472841398.92247,   0.00362,278503495.45554,   0.00195,   0.00106,  -0.00278,-5662096.53308,   0.00000
305056913.48287,-153028617.33802,143058263.33085,   0.00364,  -0.00023,  -0.00092,473874367.30582,   0.00362,278503495.45554,   0.00195,   0.00106,  -0.00278,-4629128.14973,   0.00000
303334660.40044,-155288598.92336,144138793.24707,   0.00364,  -0.00024,  -0.00091,474930368.29674,   0.00362,278503495.45554,   0.00195,   0.00106,  -0.00278,-3573127.15881,   0.00000
301620016.68362,-157530825.32228,145214250.25289,   0.00363,  -0.00025,  -0.00089,475990105.97108,   0.00362,278503495.45554,   0.00195,   0.00106,  -0.00278,-2513389.48446,   0.00000
299905372.96680,-159773051.72119,146289707.25871,   0.00363,  -0.00026,  -0.00088,477063405.43649,   0.00362,278503495.45554,   0.00195,   0.00106,  -0.00278,-1440090.01905,   0.00000
298216093.80201,-161989913.56809,147365164.26452,   0.00363,  -0.00026,  -0.00086,478153787.89261,   0.00362,278503495.45554,   0.00195,   0.00106,  -0.00278,-349707.56293,   0.00000
297671071.21004,-162702635.41912,147708625.24703,   0.00362,  -0.00026,  -0.00086,478503496.22408,   0.00362,278503495.45554,   0.00195,   0.00106,  -0.00278,  -7.64146,   0.00000
297671071.21004,-162702635.41912,147708625.24703,   0.00362,  -0.00027,  -0.00085,479258537.44506,   0.00362,278503495.45554,   0.00195,   0.00106,  -0.00278,  -7.64146,   0.00000
295333544.53000,-164497215.63724,148446832.38045,   0.00362,  -0.00028,  -0.00084,478510363.90855,   0.00362,278510368.18219,   0.00196,   0.00105,  -0.00277,  -4.27364,   1.00000
292972619.15534,-166312103.66327,149176870.20227,   0.00362,  -0.00028,  -0.00082,478517272.22446,   0.00363,278517278.33697,   0.00196,   0.00105,  -0.00277,  -6.11251,   1.00000
290629550.77747,-168090586.38944,149903809.15279,   0.00361,  -0.00029,  -0.00081,478524323.96452,   0.00364,278524326.92381,   0.00196,   0.00105,  -0.00277,  -2.95929,   1.00000
288294829.50600,-169845420.56634,150626897.71841,   0.00361,  -0.00030,  -0.00079,478531419.15722,   0.00364,278531427.26074,   0.00197,   0.00104,  -0.00276,  -8.10353,   1.00000
285946809.60485,-171607794.14239,151342567.48415,   0.00361,  -0.00030,  -0.00078,478538642.50449,   0.00365,278538649.91551,   0.00197,   0.00104,  -0.00276,  -7.41103,   1.00000
283618332.77604,-173331003.53635,152056254.23954,   0.00360,  -0.00031,  -0.00077,478545879.80155,   0.00366,278545886.86674,   0.00197,   0.00104,  -0.00275,  -7.06520,   1.00000
281289658.13419,-175050797.72358,152759749.97140,   0.00360,  -0.00032,  -0.00075,478553295.08704,   0.00367,278553299.77303,   0.00198,   0.00103,  -0.00275,  -4.68598,   1.00000
278967250.42073,-176745202.10324,153463037.76041,   0.00360,  -0.00032,  -0.00074,478560788.41206,   0.00367,278560791.23344,   0.00198,   0.00103,  -0.00274,  -2.82138,   1.00000
276645816.19393,-178433470.27249,154157240.01064,   0.00359,  -0.00033,  -0.00072,478568331.47842,   0.00368,278568336.29900,   0.00199,   0.00103,  -0.00274,  -4.82059,   1.00000
274330938.43547,-180096399.89732,154851276.22748,   0.00359,  -0.00034,  -0.00071,478575954.97411,   0.00369,278575958.48886,   0.00199,   0.00102,  -0.00273,  -3.51476,   1.00000
272017288.56046,-181753269.56555,155536281.87010,   0.00359,  -0.00034,  -0.00070,478583631.96175,   0.00369,278583632.78029,   0.00199,   0.00102,  -0.00273,  -0.81854,   1.00000
269710464.76246,-183384850.06174,156221159.07480,   0.00358,  -0.00035,  -0.00068,478591373.51515,   0.00370,278591382.88885,   0.00200,   0.00102,  -0.00272,  -9.37370,   1.00000
267418356.56221,-184999562.88112,156894369.12456,   0.00358,  -0.00036,  -0.00067,478599231.03993,   0.00371,278599235.61292,   0.00200,   0.00101,  -0.00272,  -4.57299,   1.00000
265133415.70831,-186589099.58092,157567532.00549,   0.00358,  -0.00036,  -0.00065,478607153.03921,   0.00372,278607161.96719,   0.00201,   0.00101,  -0.00271,  -8.92798,   1.00000
262847573.21548,-188170765.60385,158235222.82545,   0.00357,  -0.00037,  -0.00064,478615158.65060,   0.00372,278615168.44197,   0.00201,   0.00100,  -0.00270,  -9.79137,   1.00000
260574392.28623,-189733663.92317,158894775.14987,   0.00357,  -0.00037,  -0.00063,478623296.57451,   0.00373,278623305.76770,   0.00201,   0.00100,  -0.00270,  -9.19319,   1.00000
258297992.40271,-191284424.53508,159553621.76433,   0.00357,  -0.00038,  -0.00061,478631425.46082,   0.00374,278631431.64245,   0.00202,   0.00100,  -0.00269,  -6.18163,   1.00000
256037263.85951,-192818566.06938,160201010.88932,   0.00356,  -0.00039,  -0.00060,478639644.88257,   0.00375,278639654.37386,   0.00202,   0.00099,  -0.00269,  -9.49129,   1.00000
253784400.15922,-194327727.48754,160848498.86527,   0.00356,  -0.00039,  -0.00058,478647941.55099,   0.00376,278647946.67199,   0.00203,   0.00099,  -0.00268,  -5.12100,   1.00000
251544981.51493,-195818303.72414,161487990.85326,   0.00356,  -0.00040,  -0.00057,478656359.98991,   0.00376,278656365.44902,   0.00203,   0.00099,  -0.00268,  -5.45911,   1.00000
249316337.47884,-197286162.43439,162124309.69026,   0.00355,  -0.00041,  -0.00055,478664814.72213,   0.00377,278664819.32850,   0.00204,   0.00098,  -0.00267,  -4.60637,   1.00000
247087719.63798,-198746409.35960,162755333.30384,   0.00355,  -0.00041,  -0.00054,478673342.75126,   0.00378,278673348.12512,   0.00204,   0.00098,  -0.00266,  -5.37386,   1.00000
244867476.08002,-200181868.43350,163386561.08066,   0.00355,  -0.00042,  -0.00053,478681935.31500,   0.00379,278681943.41226,   0.00204,   0.00097,  -0.00266,  -8.09726,   1.00000
242664000.69060,-201601150.60851,164006631.02587,   0.00354,  -0.00042,  -0.00051,478690618.21776,   0.00380,278690627.92340,   0.00205,   0.00097,  -0.00265,  -9.70564,   1.00000
240446923.40886,-203023757.78575,164624062.60225,   0.00354,  -0.00043,  -0.00050,478699334.76424,   0.00381,278699337.14634,   0.00205,   0.00097,  -0.00265,  -2.38210,   1.00000
238269217.42784,-204402308.05573,165233377.00329,   0.00354,  -0.00044,  -0.00048,478708165.92241,   0.00381,278708172.88034,   0.00206,   0.00096,  -0.00264,  -6.95793,   1.00000
236088832.07111,-205769441.53823,165842381.42968,   0.00354,  -0.00044,  -0.00047,478716986.60393,   0.00382,278716990.00289,   0.00206,   0.00096,  -0.00263,  -3.39896,   1.00000
233923296.65473,-207118445.71152,166443705.70848,   0.00353,  -0.00045,  -0.00046,478725924.09490,   0.00383,278725924.88907,   0.00207,   0.00095,  -0.00263,  -0.79417,   1.00000
231769356.81094,-208445366.40452,167042245.61800,   0.00353,  -0.00045,  -0.00044,478734884.35373,   0.00384,278734886.92001,   0.00207,   0.00095,  -0.00262,  -2.56629,   1.00000
229630608.89030,-209754318.94962,167633209.30874,   0.00353,  -0.00046,  -0.00043,478743962.28523,   0.00385,278743964.17693,   0.00207,   0.00095,  -0.00262,  -1.89170,   1.00000
227486807.14941,-211049788.24509,168227206.01100,   0.00352,  -0.00047,  -0.00041,478753048.60603,   0.00386,278753054.59507,   0.00208,   0.00094,  -0.00261,  -5.98903,   1.00000
225360980.44268,-212329745.03524,168810481.20069,   0.00352,  -0.00047,  -0.00040,478762224.22068,   0.00387,278762224.39855,   0.00208,   0.00094,  -0.00260,  -0.17786,   1.00000
223261540.40354,-213577223.23144,169388690.57229,   0.00352,  -0.00048,  -0.00039,478771460.13706,   0.00388,278771462.75530,   0.00209,   0.00093,  -0.00260,  -2.61824,   1.00000
221163416.35005,-214817786.51099,169961998.55516,   0.00351,  -0.00048,  -0.00037,478780760.42091,   0.00388,278780766.51602,   0.00209,   0.00093,  -0.00259,  -6.09511,   1.00000
219077404.49759,-216036811.00064,170532843.59638,   0.00351,  -0.00049,  -0.00036,478790088.59195,   0.00389,278790091.26991,   0.00210,   0.00092,  -0.00258,  -2.67796,   1.00000
217007466.46584,-217238313.49944,171096386.59028,   0.00351,  -0.00050,  -0.00034,478799521.61482,   0.00390,278799524.63512,   0.00210,   0.00092,  -0.00258,  -3.02031,   1.00000
214949797.82325,-218418481.47478,171657584.72883,   0.00351,  -0.00050,  -0.00033,478808976.78790,   0.00391,278808976.80684,   0.00210,   0.00092,  -0.00257,  -0.01894,   1.00000
212893770.06112,-219591973.15688,172214004.37929,   0.00350,  -0.00051,  -0.00031,478818488.53124,   0.00392,278818491.63667,   0.00211,   0.00091,  -0.00256,  -3.10542,   1.00000
210864879.20791,-220733616.47819,172765751.30891,   0.00350,  -0.00051,  -0.00030,478828057.42637,   0.00393,278828067.10335,   0.00211,   0.00091,  -0.00255,  -9.67698,   1.00000
208850835.48426,-221856762.20257,173312242.55359,   0.00350,  -0.00052,  -0.00029,478837618.42422,   0.00394,278837622.78420,   0.00212,   0.00090,  -0.00255,  -4.35998,   1.00000
206836254.88593,-222970957.91255,173857167.89117,   0.00350,  -0.00052,  -0.00027,478847268.73195,   0.00395,278847274.07782,   0.00212,   0.00090,  -0.00254,  -5.34586,   1.00000
204849125.89140,-224053669.35400,174397629.05733,   0.00349,  -0.00053,  -0.00026,478856981.27086,   0.00396,278856981.97776,   0.00213,   0.00089,  -0.00253,  -0.70690,   1.00000
202878950.49287,-225119507.82407,174931153.28830,   0.00349,  -0.00053,  -0.00024,478866783.15704,   0.00397,278866790.42188,   0.00213,   0.00089,  -0.00253,  -7.26483,   1.00000
200908811.98066,-226177915.90675,175462045.99201,   0.00349,  -0.00054,  -0.00023,478876524.28115,   0.00398,278876532.81524,   0.00213,   0.00089,  -0.00252,  -8.53409,   1.00000
