# sigma_xx, sigma_yy, sigma_xy, epsilon_xx, epsilon_yy, epsilon_xy, vonMises, epsPlastic, hardening, epsilonP__xx, epsilonP__yy, epsilonP__xy, yieldValue, iteration
   0.00000,   0.00000,   0.00000,   0.00000,   0.00000,   0.00000,   0.00000,   0.00000,274640135.82653,   0.00000,   0.00000,   0.00000,-474640135.82653,   0.00000
   0.00000,   0.00000,   0.00000,   0.00000,   0.00000,   0.00000,   0.00000,   0.00000,274640135.82653,   0.00000,   0.00000,   0.00000,-474640135.82653,   0.00000
121276.12058,-32537.49577,-70990.89985,   0.00000,  -0.00000,  -0.00000,186632.60943,   0.00000,274640135.82653,   0.00000,   0.00000,   0.00000,-474453503.21710,   0.00000
251426.10365,-44369.31241,-147897.70803,   0.00000,  -0.00000,  -0.00000,376776.48672,   0.00000,274640135.82653,   0.00000,   0.00000,   0.00000,-474263359.33981,   0.00000
402281.76584,-47327.26657,-224804.51620,   0.00000,  -0.00000,  -0.00000,578550.42751,   0.00000,274640135.82653,   0.00000,   0.00000,   0.00000,-474061585.39902,   0.00000
532431.74891,-59159.08321,-301711.32438,   0.00000,  -0.00000,  -0.00000,769136.33920,   0.00000,274640135.82653,   0.00000,   0.00000,   0.00000,-473870999.48733,   0.00000
703993.09022,-53243.17489,-378618.13255,   0.00000,  -0.00000,  -0.00000,982842.30926,   0.00000,274640135.82653,   0.00000,   0.00000,   0.00000,-473657293.51727,   0.00000
872596.47737,-14789.77080,-455524.94073,   0.00000,  -0.00000,  -0.00001,1181971.98208,   0.00000,274640135.82653,   0.00000,   0.00000,   0.00000,-473458163.84445,   0.00000
1053031.68117,11831.81664,-532431.74891,   0.00000,  -0.00000,  -0.00001,1395351.97616,   0.00000,274640135.82653,   0.00000,   0.00000,   0.00000,-473244783.85037,   0.00000
1263046.42657,68032.94569,-609338.55708,   0.00001,  -0.00000,  -0.00001,1621069.52962,   0.00000,274640135.82653,   0.00000,   0.00000,   0.00000,-473019066.29691,   0.00000
1473061.17197,124234.07474,-692161.27358,   0.00001,  -0.00000,  -0.00001,1854616.02923,   0.00000,274640135.82653,   0.00000,   0.00000,   0.00000,-472785519.79730,   0.00000
1691949.77985,201140.88292,-774983.99007,   0.00001,  -0.00000,  -0.00001,2089170.16884,   0.00000,274640135.82653,   0.00000,   0.00000,   0.00000,-472550965.65769,   0.00000
1910838.38774,278047.69109,-851890.79825,   0.00001,  -0.00000,  -0.00001,2318288.90720,   0.00000,274640135.82653,   0.00000,   0.00000,   0.00000,-472321846.91933,   0.00000
2150432.67474,363828.36175,-934713.51474,   0.00001,  -0.00000,  -0.00001,2568153.31167,   0.00000,274640135.82653,   0.00000,   0.00000,   0.00000,-472071982.51486,   0.00000
2398900.82423,470314.71153,-1023452.13956,   0.00001,  -0.00000,  -0.00001,2826666.86915,   0.00000,274640135.82653,   0.00000,   0.00000,   0.00000,-471813468.95738,   0.00000
2668074.65285,585674.92380,-1106274.85606,   0.00001,  -0.00000,  -0.00001,3093629.78102,   0.00000,274640135.82653,   0.00000,   0.00000,   0.00000,-471546506.04551,   0.00000
2937248.48146,701035.13606,-1189097.57255,   0.00001,  -0.00000,  -0.00002,3361788.75395,   0.00000,274640135.82653,   0.00000,   0.00000,   0.00000,-471278347.07258,   0.00000
3215296.17256,837101.02745,-1277836.19737,   0.00001,  -0.00000,  -0.00002,3639496.65747,   0.00000,274640135.82653,   0.00000,   0.00000,   0.00000,-471000639.16906,   0.00000
3514049.54277,982040.78131,-1366574.82219,   0.00001,  -0.00000,  -0.00002,3932504.10815,   0.00000,274640135.82653,   0.00000,   0.00000,   0.00000,-470707631.71838,   0.00000
3812802.91299,1126980.53518,-1455313.44701,   0.00002,  -0.00000,  -0.00002,4226630.83315,   0.00000,274640135.82653,   0.00000,   0.00000,   0.00000,-470413504.99338,   0.00000
4120430.14569,1292625.96818,-1544052.07183,   0.00002,  -0.00000,  -0.00002,4524924.51587,   0.00000,274640135.82653,   0.00000,   0.00000,   0.00000,-470115211.31066,   0.00000
4428057.37839,1458271.40117,-1632790.69664,   0.00002,  -0.00000,  -0.00002,4824412.35440,   0.00000,274640135.82653,   0.00000,   0.00000,   0.00000,-469815723.47213,   0.00000
4765264.15270,1653496.37577,-1721529.32146,   0.00002,  -0.00000,  -0.00002,5143290.32017,   0.00000,274640135.82653,   0.00000,   0.00000,   0.00000,-469496845.50636,   0.00000
5123176.60613,1857595.21285,-1816183.85460,   0.00002,  -0.00000,  -0.00002,5484193.79266,   0.00000,274640135.82653,   0.00000,   0.00000,   0.00000,-469155942.03387,   0.00000
5460383.38044,2052820.18745,-1910838.38774,   0.00002,  -0.00000,  -0.00002,5811590.33148,   0.00000,274640135.82653,   0.00000,   0.00000,   0.00000,-468828545.49505,   0.00000
5818295.83387,2256919.02453,-2005492.92088,   0.00002,  -0.00000,  -0.00003,6154740.68527,   0.00000,274640135.82653,   0.00000,   0.00000,   0.00000,-468485395.14126,   0.00000
6205787.82891,2490597.40321,-2100147.45401,   0.00002,  -0.00000,  -0.00003,6518482.71736,   0.00000,274640135.82653,   0.00000,   0.00000,   0.00000,-468121653.10917,   0.00000
6572574.14482,2715401.91942,-2194801.98715,   0.00002,  -0.00000,  -0.00003,6868509.68647,   0.00000,274640135.82653,   0.00000,   0.00000,   0.00000,-467771626.14005,   0.00000
6968940.00234,2969785.97723,-2295372.42861,   0.00003,  -0.00000,  -0.00003,7245391.42971,   0.00000,274640135.82653,   0.00000,   0.00000,   0.00000,-467394744.39682,   0.00000
7377137.67650,3212338.21839,-2390026.96175,   0.00003,   0.00000,  -0.00003,7627588.24665,   0.00000,274640135.82653,   0.00000,   0.00000,   0.00000,-467012547.57988,   0.00000
7773503.53402,3466722.27620,-2490597.40321,   0.00003,   0.00000,  -0.00003,8006632.80929,   0.00000,274640135.82653,   0.00000,   0.00000,   0.00000,-466633503.01724,   0.00000
8199448.93314,3750685.87562,-2591167.84467,   0.00003,   0.00000,  -0.00003,8407586.00557,   0.00000,274640135.82653,   0.00000,   0.00000,   0.00000,-466232549.82095,   0.00000
8637226.14891,4022817.65839,-2691738.28613,   0.00003,   0.00000,  -0.00003,8819020.16053,   0.00000,274640135.82653,   0.00000,   0.00000,   0.00000,-465821115.66600,   0.00000
9063171.54803,4306781.25781,-2798224.63591,   0.00003,   0.00000,  -0.00004,9227487.70204,   0.00000,274640135.82653,   0.00000,   0.00000,   0.00000,-465412648.12449,   0.00000
9518696.48876,4620324.39883,-2898795.07737,   0.00003,   0.00000,  -0.00004,9653111.07702,   0.00000,274640135.82653,   0.00000,   0.00000,   0.00000,-464987024.74951,   0.00000
9965347.56701,4913161.86073,-3005281.42715,   0.00004,   0.00000,  -0.00004,10078744.73211,   0.00000,274640135.82653,   0.00000,   0.00000,   0.00000,-464561391.09442,   0.00000
10441578.18686,5235578.86423,-3111767.77693,   0.00004,   0.00000,  -0.00004,10527080.84439,   0.00000,274640135.82653,   0.00000,   0.00000,   0.00000,-464113054.98214,   0.00000
10917808.80672,5557995.86774,-3218254.12672,   0.00004,   0.00000,  -0.00004,10976347.74621,   0.00000,274640135.82653,   0.00000,   0.00000,   0.00000,-463663788.08032,   0.00000
11394039.42657,5880412.87124,-3330656.38482,   0.00004,   0.00000,  -0.00004,11431603.11384,   0.00000,274640135.82653,   0.00000,   0.00000,   0.00000,-463208532.71269,   0.00000
11879143.90891,6223535.55387,-3437142.73460,   0.00004,   0.00001,  -0.00004,11889408.34803,   0.00000,274640135.82653,   0.00000,   0.00000,   0.00000,-462750727.47850,   0.00000
12384954.07037,6575532.09898,-3549544.99270,   0.00004,   0.00001,  -0.00005,12368704.68729,   0.00000,274640135.82653,   0.00000,   0.00000,   0.00000,-462271431.13924,   0.00000
12890764.23183,6927528.64409,-3661947.25080,   0.00005,   0.00001,  -0.00005,12848769.98541,   0.00000,274640135.82653,   0.00000,   0.00000,   0.00000,-461791365.84112,   0.00000
13405448.25577,7300230.86832,-3774349.50891,   0.00005,   0.00001,  -0.00005,13336929.52499,   0.00000,274640135.82653,   0.00000,   0.00000,   0.00000,-461303206.30154,   0.00000
13931964.09635,7661101.27591,-3886751.76701,   0.00005,   0.00001,  -0.00005,13833959.17018,   0.00000,274640135.82653,   0.00000,   0.00000,   0.00000,-460806176.65635,   0.00000
14467353.79942,8042677.36263,-4005069.93343,   0.00005,   0.00001,  -0.00005,14344144.51029,   0.00000,274640135.82653,   0.00000,   0.00000,   0.00000,-460295991.31624,   0.00000
15011617.36497,8444959.12847,-4117472.19153,   0.00005,   0.00001,  -0.00005,14857800.21532,   0.00000,274640135.82653,   0.00000,   0.00000,   0.00000,-459782335.61121,   0.00000
15547007.06803,8826535.21518,-4235790.35796,   0.00005,   0.00001,  -0.00006,15369343.09498,   0.00000,274640135.82653,   0.00000,   0.00000,   0.00000,-459270792.73155,   0.00000
16111976.31270,9237690.84350,-4360024.43270,   0.00006,   0.00001,  -0.00006,15909830.16653,   0.00000,274640135.82653,   0.00000,   0.00000,   0.00000,-458730305.66000,   0.00000
16676945.55737,9648846.47183,-4478342.59912,   0.00006,   0.00001,  -0.00006,16446097.45088,   0.00000,274640135.82653,   0.00000,   0.00000,   0.00000,-458194038.37565,   0.00000
17241914.80205,10060002.10015,-4596660.76555,   0.00006,   0.00001,  -0.00006,16982974.99726,   0.00000,274640135.82653,   0.00000,   0.00000,   0.00000,-457657160.82927,   0.00000
17836463.58832,10500737.27007,-4720894.84029,   0.00006,   0.00001,  -0.00006,17549058.17598,   0.00000,274640135.82653,   0.00000,   0.00000,   0.00000,-457091077.65055,   0.00000
18422138.51212,10920766.76088,-4845128.91504,   0.00006,   0.00001,  -0.00006,18107464.72281,   0.00000,274640135.82653,   0.00000,   0.00000,   0.00000,-456532671.10372,   0.00000
19016687.29840,11361501.93080,-4969362.98978,   0.00006,   0.00001,  -0.00006,18674680.66777,   0.00000,274640135.82653,   0.00000,   0.00000,   0.00000,-455965455.15876,   0.00000
19611236.08467,11802237.10073,-5093597.06453,   0.00007,   0.00002,  -0.00007,19242430.10662,   0.00000,274640135.82653,   0.00000,   0.00000,   0.00000,-455397705.71991,   0.00000
20235364.41256,12272551.81226,-5223747.04759,   0.00007,   0.00002,  -0.00007,19839570.11511,   0.00000,274640135.82653,   0.00000,   0.00000,   0.00000,-454800565.71142,   0.00000
20850618.87796,12722160.84467,-5353897.03066,   0.00007,   0.00002,  -0.00007,20428641.59262,   0.00000,274640135.82653,   0.00000,   0.00000,   0.00000,-454211494.23390,   0.00000
21474747.20584,13192475.55621,-5484047.01372,   0.00007,   0.00002,  -0.00007,21026778.55054,   0.00000,274640135.82653,   0.00000,   0.00000,   0.00000,-453613357.27599,   0.00000
22119581.21285,13671664.13022,-5614196.99679,   0.00007,   0.00002,  -0.00007,21641081.57728,   0.00000,274640135.82653,   0.00000,   0.00000,   0.00000,-452999054.24925,   0.00000
22743709.54073,14141978.84175,-5744346.97985,   0.00008,   0.00002,  -0.00007,22240130.32338,   0.00000,274640135.82653,   0.00000,   0.00000,   0.00000,-452400005.50315,   0.00000
23397417.41022,14641873.09489,-5880412.87124,   0.00008,   0.00002,  -0.00008,22868741.53370,   0.00000,274640135.82653,   0.00000,   0.00000,   0.00000,-451771394.29283,   0.00000
24042251.41723,15121061.66891,-6016478.76263,   0.00008,   0.00002,  -0.00008,23488849.33257,   0.00000,274640135.82653,   0.00000,   0.00000,   0.00000,-451151286.49396,   0.00000
24716664.96584,15629829.78453,-6152544.65402,   0.00008,   0.00002,  -0.00008,24133985.51895,   0.00000,274640135.82653,   0.00000,   0.00000,   0.00000,-450506150.30758,   0.00000
25391078.51446,16138597.90015,-6288610.54540,   0.00008,   0.00002,  -0.00008,24779521.21590,   0.00000,274640135.82653,   0.00000,   0.00000,   0.00000,-449860614.61063,   0.00000
26044786.38395,16638492.15329,-6424676.43679,   0.00009,   0.00002,  -0.00008,25409717.57004,   0.00000,274640135.82653,   0.00000,   0.00000,   0.00000,-449230418.25649,   0.00000
26748779.47416,17176839.81051,-6566658.23650,   0.00009,   0.00003,  -0.00009,26085331.70699,   0.00000,274640135.82653,   0.00000,   0.00000,   0.00000,-448554804.11954,   0.00000
27423193.02278,17685607.92613,-6708640.03621,   0.00009,   0.00003,  -0.00009,26736378.90224,   0.00000,274640135.82653,   0.00000,   0.00000,   0.00000,-447903756.92429,   0.00000
28127186.11300,18223955.58336,-6850621.83591,   0.00009,   0.00003,  -0.00009,27412690.92861,   0.00000,274640135.82653,   0.00000,   0.00000,   0.00000,-447227444.89792,   0.00000
28810473.52409,18753429.37810,-6992603.63562,   0.00009,   0.00003,  -0.00009,28073632.36834,   0.00000,274640135.82653,   0.00000,   0.00000,   0.00000,-446566503.45819,   0.00000
29514466.61431,19291777.03533,-7134585.43533,   0.00010,   0.00003,  -0.00009,28750596.85416,   0.00000,274640135.82653,   0.00000,   0.00000,   0.00000,-445889538.97237,   0.00000
30239165.38365,19838998.55504,-7282483.14336,   0.00010,   0.00003,  -0.00009,29447952.57085,   0.00000,274640135.82653,   0.00000,   0.00000,   0.00000,-445192183.25568,   0.00000
30943158.47387,20377346.21227,-7430380.85139,   0.00010,   0.00003,  -0.00010,30129844.35175,   0.00000,274640135.82653,   0.00000,   0.00000,   0.00000,-444510291.47478,   0.00000
31676731.10570,20945273.41110,-7578278.55942,   0.00010,   0.00003,  -0.00010,30837199.86967,   0.00000,274640135.82653,   0.00000,   0.00000,   0.00000,-443802935.95686,   0.00000
32410303.73752,21513200.60993,-7726176.26745,   0.00011,   0.00003,  -0.00010,31544850.95629,   0.00000,274640135.82653,   0.00000,   0.00000,   0.00000,-443095284.87024,   0.00000
33135002.50687,22060422.12964,-7879989.88380,   0.00011,   0.00004,  -0.00010,32247499.04731,   0.00000,274640135.82653,   0.00000,   0.00000,   0.00000,-442392636.77922,   0.00000
33868575.13869,22628349.32847,-8033803.50015,   0.00011,   0.00004,  -0.00010,32959954.82093,   0.00000,274640135.82653,   0.00000,   0.00000,   0.00000,-441680181.00560,   0.00000
34631727.31212,23225856.06891,-8187617.11650,   0.00011,   0.00004,  -0.00011,33698021.23159,   0.00000,274640135.82653,   0.00000,   0.00000,   0.00000,-440942114.59494,   0.00000
35386005.62307,23802657.13022,-8341430.73285,   0.00011,   0.00004,  -0.00011,34426636.80021,   0.00000,274640135.82653,   0.00000,   0.00000,   0.00000,-440213499.02632,   0.00000
36140283.93402,24379458.19154,-8495244.34920,   0.00012,   0.00004,  -0.00011,35155441.86897,   0.00000,274640135.82653,   0.00000,   0.00000,   0.00000,-439484693.95756,   0.00000
36903436.10745,24976964.93197,-8654973.87387,   0.00012,   0.00004,  -0.00011,35898499.44631,   0.00000,274640135.82653,   0.00000,   0.00000,   0.00000,-438741636.38022,   0.00000
37657714.41840,25553765.99329,-8808787.49022,   0.00012,   0.00004,  -0.00011,36627669.87827,   0.00000,274640135.82653,   0.00000,   0.00000,   0.00000,-438012465.94826,   0.00000
38441572.27095,26160146.59621,-8968517.01489,   0.00012,   0.00004,  -0.00012,37386808.83601,   0.00000,274640135.82653,   0.00000,   0.00000,   0.00000,-437253326.99052,   0.00000
39225430.12351,26766527.19913,-9128246.53956,   0.00013,   0.00005,  -0.00012,38146132.95000,   0.00000,274640135.82653,   0.00000,   0.00000,   0.00000,-436494002.87653,   0.00000
39988582.29694,27364033.93957,-9293891.97256,   0.00013,   0.00005,  -0.00012,38894182.44916,   0.00000,274640135.82653,   0.00000,   0.00000,   0.00000,-435745953.37736,   0.00000
40793145.82862,27979288.40497,-9453621.49723,   0.00013,   0.00005,  -0.00012,39669522.46243,   0.00000,274640135.82653,   0.00000,   0.00000,   0.00000,-434970613.36410,   0.00000
41577003.68117,28585669.00789,-9619266.93022,   0.00013,   0.00005,  -0.00013,40433552.04515,   0.00000,274640135.82653,   0.00000,   0.00000,   0.00000,-434206583.78138,   0.00000
42369735.39621,29212755.28993,-9784912.36321,   0.00014,   0.00005,  -0.00013,41207722.17938,   0.00000,274640135.82653,   0.00000,   0.00000,   0.00000,-433432413.64715,   0.00000
43174298.92789,29828009.75533,-9950557.79621,   0.00014,   0.00005,  -0.00013,41987708.26855,   0.00000,274640135.82653,   0.00000,   0.00000,   0.00000,-432652427.55798,   0.00000
43987736.32205,30463969.89986,-10122119.13752,   0.00014,   0.00005,  -0.00013,42782066.58195,   0.00000,274640135.82653,   0.00000,   0.00000,   0.00000,-431858069.24458,   0.00000
44792299.85373,31079224.36526,-10287764.57051,   0.00014,   0.00005,  -0.00013,43562285.01717,   0.00000,274640135.82653,   0.00000,   0.00000,   0.00000,-431077850.80936,   0.00000
45605737.24789,31715184.50979,-10459325.91183,   0.00015,   0.00006,  -0.00014,44356897.12413,   0.00000,274640135.82653,   0.00000,   0.00000,   0.00000,-430283238.70239,   0.00000
46419174.64205,32351144.65431,-10630887.25314,   0.00015,   0.00006,  -0.00014,45151635.54825,   0.00000,274640135.82653,   0.00000,   0.00000,   0.00000,-429488500.27828,   0.00000
47232612.03621,32987104.79884,-10802448.59445,   0.00015,   0.00006,  -0.00014,45946493.73477,   0.00000,274640135.82653,   0.00000,   0.00000,   0.00000,-428693642.09176,   0.00000
48066755.10950,33631938.80584,-10974009.93577,   0.00015,   0.00006,  -0.00014,46757125.34330,   0.00000,274640135.82653,   0.00000,   0.00000,   0.00000,-427883010.48323,   0.00000
48900898.18278,34276772.81285,-11151487.18540,   0.00016,   0.00006,  -0.00014,47572019.29212,   0.00000,274640135.82653,   0.00000,   0.00000,   0.00000,-427068116.53441,   0.00000
49735041.25607,34921606.81986,-11328964.43504,   0.00016,   0.00006,  -0.00015,48386999.29961,   0.00000,274640135.82653,   0.00000,   0.00000,   0.00000,-426253136.52692,   0.00000
50569184.32935,35566440.82687,-11506441.68467,   0.00016,   0.00006,  -0.00015,49202061.08937,   0.00000,274640135.82653,   0.00000,   0.00000,   0.00000,-425438074.73716,   0.00000
51403327.40264,36211274.83387,-11683918.93431,   0.00016,   0.00006,  -0.00015,50017200.66332,   0.00000,274640135.82653,   0.00000,   0.00000,   0.00000,-424622935.16321,   0.00000
52237470.47592,36856108.84088,-11861396.18394,   0.00017,   0.00007,  -0.00015,50832414.27945,   0.00000,274640135.82653,   0.00000,   0.00000,   0.00000,-423807721.54708,   0.00000
53101193.09081,37530522.38949,-12044789.34190,   0.00017,   0.00007,  -0.00016,51677772.33168,   0.00000,274640135.82653,   0.00000,   0.00000,   0.00000,-422962363.49485,   0.00000
53935336.16410,38175356.39650,-12222266.59153,   0.00017,   0.00007,  -0.00016,52493133.30911,   0.00000,274640135.82653,   0.00000,   0.00000,   0.00000,-422147002.51742,   0.00000
54790184.91650,38829064.26599,-12405659.74949,   0.00017,   0.00007,  -0.00016,53328324.22971,   0.00000,274640135.82653,   0.00000,   0.00000,   0.00000,-421311811.59682,   0.00000
55653907.53140,39503477.81460,-12589052.90745,   0.00018,   0.00007,  -0.00016,54173905.53411,   0.00000,274640135.82653,   0.00000,   0.00000,   0.00000,-420466230.29242,   0.00000
56508756.28380,40157185.68409,-12778361.97372,   0.00018,   0.00007,  -0.00017,55013326.42313,   0.00000,274640135.82653,   0.00000,   0.00000,   0.00000,-419626809.40340,   0.00000
57372478.89869,40831599.23271,-12961755.13168,   0.00018,   0.00007,  -0.00017,55859037.35103,   0.00000,274640135.82653,   0.00000,   0.00000,   0.00000,-418781098.47550,   0.00000
58236201.51359,41506012.78132,-13151064.19796,   0.00018,   0.00008,  -0.00017,56708934.11088,   0.00000,274640135.82653,   0.00000,   0.00000,   0.00000,-417931201.71565,   0.00000
59091050.26599,42159720.65081,-13334457.35591,   0.00019,   0.00008,  -0.00017,57544377.25482,   0.00000,274640135.82653,   0.00000,   0.00000,   0.00000,-417095758.57171,   0.00000
59975478.56001,42843008.06190,-13523766.42219,   0.00019,   0.00008,  -0.00018,58410001.12616,   0.00000,274640135.82653,   0.00000,   0.00000,   0.00000,-416230134.70037,   0.00000
60839201.17490,43517421.61052,-13718991.39679,   0.00019,   0.00008,  -0.00018,59264166.15534,   0.00000,274640135.82653,   0.00000,   0.00000,   0.00000,-415375969.67119,   0.00000
61714755.60643,44180003.34249,-13908300.46307,   0.00019,   0.00008,  -0.00018,60119448.69378,   0.00000,274640135.82653,   0.00000,   0.00000,   0.00000,-414520687.13275,   0.00000
62599183.90045,44863290.75358,-14097609.52935,   0.00020,   0.00008,  -0.00018,60985203.75719,   0.00000,274640135.82653,   0.00000,   0.00000,   0.00000,-413654932.06934,   0.00000
63462906.51534,45537704.30220,-14292834.50394,   0.00020,   0.00008,  -0.00019,61839496.27792,   0.00000,274640135.82653,   0.00000,   0.00000,   0.00000,-412800639.54861,   0.00000
64338460.94687,46200286.03417,-14488059.47854,   0.00020,   0.00008,  -0.00019,62698965.62359,   0.00000,274640135.82653,   0.00000,   0.00000,   0.00000,-411941170.20293,   0.00000
65222889.24089,46883573.44526,-14683284.45314,   0.00021,   0.00009,  -0.00019,63568932.26164,   0.00000,274640135.82653,   0.00000,   0.00000,   0.00000,-411071203.56489,   0.00000
66107317.53490,47566860.85636,-14878509.42774,   0.00021,   0.00009,  -0.00019,64438934.17021,   0.00000,274640135.82653,   0.00000,   0.00000,   0.00000,-410201201.65632,   0.00000
67012451.50804,48259022.12993,-15073734.40234,   0.00021,   0.00009,  -0.00020,65324565.82515,   0.00000,274640135.82653,   0.00000,   0.00000,   0.00000,-409315570.00138,   0.00000
67888005.93957,48921603.86190,-15274875.28526,   0.00021,   0.00009,  -0.00020,66188216.37016,   0.00000,274640135.82653,   0.00000,   0.00000,   0.00000,-408451919.45637,   0.00000
68772434.23359,49604891.27300,-15470100.25986,   0.00022,   0.00009,  -0.00020,67058301.73836,   0.00000,274640135.82653,   0.00000,   0.00000,   0.00000,-407581834.08817,   0.00000
69677568.20673,50297052.54658,-15671241.14278,   0.00022,   0.00009,  -0.00020,67948098.52770,   0.00000,274640135.82653,   0.00000,   0.00000,   0.00000,-406692037.29883,   0.00000
70553122.63826,50959634.27855,-15872382.02570,   0.00022,   0.00009,  -0.00021,68811798.74459,   0.00000,274640135.82653,   0.00000,   0.00000,   0.00000,-405828337.08194,   0.00000
71458256.61140,51651795.55212,-16073522.90862,   0.00022,   0.00010,  -0.00021,69701632.52591,   0.00000,274640135.82653,   0.00000,   0.00000,   0.00000,-404938503.30062,   0.00000
72342684.90541,52335082.96322,-16274663.79154,   0.00023,   0.00010,  -0.00021,70575906.62802,   0.00000,274640135.82653,   0.00000,   0.00000,   0.00000,-404064229.19851,   0.00000
73238945.01607,53006538.55767,-16481720.58278,   0.00023,   0.00010,  -0.00021,71459321.11433,   0.00000,274640135.82653,   0.00000,   0.00000,   0.00000,-403180814.71220,   0.00000
74144078.98921,53698699.83125,-16682861.46570,   0.00023,   0.00010,  -0.00022,72349207.11984,   0.00000,274640135.82653,   0.00000,   0.00000,   0.00000,-402290928.70669,   0.00000
75028507.28322,54381987.24234,-16889918.25694,   0.00024,   0.00010,  -0.00022,73227632.29727,   0.00000,274640135.82653,   0.00000,   0.00000,   0.00000,-401412503.52926,   0.00000
75924767.39388,55053442.83680,-17096975.04818,   0.00024,   0.00010,  -0.00022,74111076.75494,   0.00000,274640135.82653,   0.00000,   0.00000,   0.00000,-400529059.07159,   0.00000
76829901.36702,55745604.11037,-17304031.83942,   0.00024,   0.00010,  -0.00022,75005102.55943,   0.00000,274640135.82653,   0.00000,   0.00000,   0.00000,-399635033.26710,   0.00000
77726161.47768,56417059.70483,-17511088.63066,   0.00024,   0.00011,  -0.00023,75888562.94707,   0.00000,274640135.82653,   0.00000,   0.00000,   0.00000,-398751572.87946,   0.00000
78622421.58833,57088515.29928,-17718145.42190,   0.00025,   0.00011,  -0.00023,76772029.21216,   0.00000,274640135.82653,   0.00000,   0.00000,   0.00000,-397868106.61437,   0.00000
79527555.56147,57780676.57286,-17931118.12146,   0.00025,   0.00011,  -0.00023,77670185.42227,   0.00000,274640135.82653,   0.00000,   0.00000,   0.00000,-396969950.40426,   0.00000
80423815.67213,58452132.16731,-18138174.91270,   0.00025,   0.00011,  -0.00024,78553666.66550,   0.00000,274640135.82653,   0.00000,   0.00000,   0.00000,-396086469.16103,   0.00000
81320075.78279,59123587.76176,-18351147.61227,   0.00025,   0.00011,  -0.00024,79441252.34326,   0.00000,274640135.82653,   0.00000,   0.00000,   0.00000,-395198883.48327,   0.00000
82225209.75592,59815749.03534,-18558204.40351,   0.00026,   0.00011,  -0.00024,80335342.73888,   0.00000,274640135.82653,   0.00000,   0.00000,   0.00000,-394304793.08765,   0.00000
83121469.86658,60487204.62979,-18771177.10307,   0.00026,   0.00011,  -0.00024,81222943.73675,   0.00000,274640135.82653,   0.00000,   0.00000,   0.00000,-393417192.08978,   0.00000
84038435.65636,61167534.08672,-18984149.80263,   0.00026,   0.00011,  -0.00025,82126097.23711,   0.00000,274640135.82653,   0.00000,   0.00000,   0.00000,-392514038.58942,   0.00000
84934695.76702,61838989.68118,-19197122.50219,   0.00027,   0.00012,  -0.00025,83013709.42084,   0.00000,274640135.82653,   0.00000,   0.00000,   0.00000,-391626426.40569,   0.00000
85830955.87768,62510445.27563,-19416011.11008,   0.00027,   0.00012,  -0.00025,83905434.55204,   0.00000,274640135.82653,   0.00000,   0.00000,   0.00000,-390734701.27449,   0.00000
86727215.98833,63181900.87008,-19628983.80964,   0.00027,   0.00012,  -0.00026,84793061.29353,   0.00000,274640135.82653,   0.00000,   0.00000,   0.00000,-389847074.53300,   0.00000
87623476.09899,63853356.46453,-19841956.50920,   0.00027,   0.00012,  -0.00026,85680694.18361,   0.00000,274640135.82653,   0.00000,   0.00000,   0.00000,-388959441.64292,   0.00000
88531568.02629,64512980.24235,-20060845.11708,   0.00028,   0.00012,  -0.00026,86577366.43300,   0.00000,274640135.82653,   0.00000,   0.00000,   0.00000,-388062769.39353,   0.00000
89427828.13695,65184435.83680,-20273817.81665,   0.00028,   0.00012,  -0.00026,87465008.21485,   0.00000,274640135.82653,   0.00000,   0.00000,   0.00000,-387175127.61168,   0.00000
90315214.38512,65835185.75213,-20492706.42453,   0.00028,   0.00012,  -0.00027,88346158.75614,   0.00000,274640135.82653,   0.00000,   0.00000,   0.00000,-386293977.07039,   0.00000
91211474.49578,66506641.34658,-20711595.03241,   0.00029,   0.00012,  -0.00027,89237929.76237,   0.00000,274640135.82653,   0.00000,   0.00000,   0.00000,-385402206.06416,   0.00000
92098860.74396,67157391.26191,-20930483.64030,   0.00029,   0.00013,  -0.00027,90119096.54414,   0.00000,274640135.82653,   0.00000,   0.00000,   0.00000,-384521039.28239,   0.00000
93015826.53374,67837720.71884,-21149372.24818,   0.00029,   0.00013,  -0.00027,91026405.59052,   0.00000,274640135.82653,   0.00000,   0.00000,   0.00000,-383613730.23601,   0.00000
93903212.78191,68488470.63417,-21368260.85606,   0.00029,   0.00013,  -0.00028,91907585.46248,   0.00000,274640135.82653,   0.00000,   0.00000,   0.00000,-382732550.36405,   0.00000
94790599.03009,69139220.54950,-21587149.46394,   0.00030,   0.00013,  -0.00028,92788773.11534,   0.00000,274640135.82653,   0.00000,   0.00000,   0.00000,-381851362.71119,   0.00000
95677985.27826,69789970.46483,-21806038.07183,   0.00030,   0.00013,  -0.00028,93669968.32953,   0.00000,274640135.82653,   0.00000,   0.00000,   0.00000,-380970167.49700,   0.00000
96565371.52644,70440720.38016,-22030842.58803,   0.00030,   0.00013,  -0.00029,94555305.54670,   0.00000,274640135.82653,   0.00000,   0.00000,   0.00000,-380084830.27983,   0.00000
97443883.91213,71070764.61636,-22249731.19592,   0.00030,   0.00013,  -0.00029,95425910.38645,   0.00000,274640135.82653,   0.00000,   0.00000,   0.00000,-379214225.44008,   0.00000
98331270.16031,71721514.53169,-22468619.80380,   0.00031,   0.00013,  -0.00029,96307130.28639,   0.00000,274640135.82653,   0.00000,   0.00000,   0.00000,-378333005.54014,   0.00000
99218656.40848,72372264.44702,-22693424.32000,   0.00031,   0.00014,  -0.00030,97192500.34403,   0.00000,274640135.82653,   0.00000,   0.00000,   0.00000,-377447635.48250,   0.00000
100097168.79418,73002308.68322,-22912312.92789,   0.00031,   0.00014,  -0.00030,98063133.28758,   0.00000,274640135.82653,   0.00000,   0.00000,   0.00000,-376577002.53895,   0.00000
100975681.17987,73632352.91943,-23137117.44409,   0.00032,   0.00014,  -0.00030,98937926.01495,   0.00000,274640135.82653,   0.00000,   0.00000,   0.00000,-375702209.81158,   0.00000
101863067.42804,74283102.83476,-23361921.96030,   0.00032,   0.00014,  -0.00030,99823330.70392,   0.00000,274640135.82653,   0.00000,   0.00000,   0.00000,-374816805.12261,   0.00000
102741579.81374,74913147.07096,-23580810.56818,   0.00032,   0.00014,  -0.00031,100693994.99953,   0.00000,274640135.82653,   0.00000,   0.00000,   0.00000,-373946140.82700,   0.00000
103620092.19943,75543191.30716,-23805615.08438,   0.00032,   0.00014,  -0.00031,101568827.60296,   0.00000,274640135.82653,   0.00000,   0.00000,   0.00000,-373071308.22357,   0.00000
104489730.72264,76152529.86424,-24030419.60059,   0.00033,   0.00014,  -0.00031,102433087.86907,   0.00000,274640135.82653,   0.00000,   0.00000,   0.00000,-372207047.95746,   0.00000
105347537.42921,76773700.23797,-24255224.11679,   0.00033,   0.00014,  -0.00032,103292459.17344,   0.00000,274640135.82653,   0.00000,   0.00000,   0.00000,-371347676.65309,   0.00000
106226049.81491,77403744.47417,-24480028.63300,   0.00033,   0.00015,  -0.00032,104167339.92545,   0.00000,274640135.82653,   0.00000,   0.00000,   0.00000,-370472795.90108,   0.00000
107095688.33812,78013083.03125,-24704833.14920,   0.00034,   0.00015,  -0.00032,105031657.61253,   0.00000,274640135.82653,   0.00000,   0.00000,   0.00000,-369608478.21400,   0.00000
107944621.18221,78613547.72585,-24929637.66541,   0.00034,   0.00015,  -0.00032,105880508.12847,   0.00000,274640135.82653,   0.00000,   0.00000,   0.00000,-368759627.69806,   0.00000
108823133.56790,79243591.96206,-25154442.18161,   0.00034,   0.00015,  -0.00033,106755436.20117,   0.00000,274640135.82653,   0.00000,   0.00000,   0.00000,-367884699.62536,   0.00000
109663192.54951,79823350.97753,-25379246.69781,   0.00034,   0.00015,  -0.00033,107593764.42007,   0.00000,274640135.82653,   0.00000,   0.00000,   0.00000,-367046371.40646,   0.00000
110512125.39359,80423815.67213,-25604051.21402,   0.00035,   0.00015,  -0.00033,108442683.01640,   0.00000,274640135.82653,   0.00000,   0.00000,   0.00000,-366197452.81013,   0.00000
111361058.23768,81024280.36673,-25828855.73022,   0.00035,   0.00015,  -0.00034,109291623.92963,   0.00000,274640135.82653,   0.00000,   0.00000,   0.00000,-365348511.89690,   0.00000
112230696.76089,81633618.92381,-26053660.24643,   0.00035,   0.00015,  -0.00034,110156065.37912,   0.00000,274640135.82653,   0.00000,   0.00000,   0.00000,-364484070.44741,   0.00000
113070755.74250,82213377.93928,-26278464.76263,   0.00035,   0.00015,  -0.00034,110994502.88853,   0.00000,274640135.82653,   0.00000,   0.00000,   0.00000,-363645632.93800,   0.00000
113910814.72410,82793136.95476,-26503269.27884,   0.00036,   0.00015,  -0.00034,111832970.99352,   0.00000,274640135.82653,   0.00000,   0.00000,   0.00000,-362807164.83301,   0.00000
114730168.02659,83364022.10775,-26728073.79504,   0.00036,   0.00016,  -0.00035,112655994.78046,   0.00000,274640135.82653,   0.00000,   0.00000,   0.00000,-361984141.04607,   0.00000
115570227.00819,83943781.12322,-26952878.31124,   0.00036,   0.00016,  -0.00035,113494523.51296,   0.00000,274640135.82653,   0.00000,   0.00000,   0.00000,-361145612.31357,   0.00000
116410285.98980,84523540.13870,-27177682.82745,   0.00036,   0.00016,  -0.00035,114333080.83401,   0.00000,274640135.82653,   0.00000,   0.00000,   0.00000,-360307054.99252,   0.00000
117241471.10892,85082593.47505,-27402487.34365,   0.00037,   0.00016,  -0.00036,115161151.31981,   0.00000,274640135.82653,   0.00000,   0.00000,   0.00000,-359478984.50672,   0.00000
118060824.41140,85653478.62804,-27627291.85986,   0.00037,   0.00016,  -0.00036,115984301.21263,   0.00000,274640135.82653,   0.00000,   0.00000,   0.00000,-358655834.61390,   0.00000
118871303.85140,86203658.10191,-27852096.37606,   0.00037,   0.00016,  -0.00036,116796978.26474,   0.00000,274640135.82653,   0.00000,   0.00000,   0.00000,-357843157.56179,   0.00000
119702488.97053,86762711.43826,-28076900.89227,   0.00038,   0.00016,  -0.00036,117625161.18590,   0.00000,274640135.82653,   0.00000,   0.00000,   0.00000,-357014974.64063,   0.00000
120512968.41053,87312890.91213,-28301705.40847,   0.00038,   0.00016,  -0.00037,118437917.90347,   0.00000,274640135.82653,   0.00000,   0.00000,   0.00000,-356202217.92306,   0.00000
121323447.85053,87863070.38600,-28526509.92468,   0.00038,   0.00016,  -0.00037,119250714.05857,   0.00000,274640135.82653,   0.00000,   0.00000,   0.00000,-355389421.76796,   0.00000
122125053.42805,88392544.18074,-28751314.44088,   0.00038,   0.00016,  -0.00037,120053074.12586,   0.00000,274640135.82653,   0.00000,   0.00000,   0.00000,-354587061.70067,   0.00000
122914827.18892,88933849.79213,-28976118.95708,   0.00039,   0.00016,  -0.00038,120850494.46623,   0.00000,274640135.82653,   0.00000,   0.00000,   0.00000,-353789641.36030,   0.00000
123716432.76644,89463323.58687,-29200923.47329,   0.00039,   0.00017,  -0.00038,121652951.22250,   0.00000,274640135.82653,   0.00000,   0.00000,   0.00000,-352987184.60403,   0.00000
124497332.66484,89983923.51914,-29425727.98949,   0.00039,   0.00017,  -0.00038,122440002.75581,   0.00000,274640135.82653,   0.00000,   0.00000,   0.00000,-352200133.07072,   0.00000
125290064.37987,90492691.63476,-29644616.59738,   0.00039,   0.00017,  -0.00039,123227846.65166,   0.00000,274640135.82653,   0.00000,   0.00000,   0.00000,-351412289.17487,   0.00000
126070964.27827,91013291.56702,-29869421.11358,   0.00040,   0.00017,  -0.00039,124015002.31385,   0.00000,274640135.82653,   0.00000,   0.00000,   0.00000,-350625133.51268,   0.00000
126842990.31418,91513185.82016,-30094225.62979,   0.00040,   0.00017,  -0.00039,124791780.48638,   0.00000,274640135.82653,   0.00000,   0.00000,   0.00000,-349848355.34015,   0.00000
127623890.21257,92033785.75242,-30313114.23767,   0.00040,   0.00017,  -0.00039,125574758.56460,   0.00000,274640135.82653,   0.00000,   0.00000,   0.00000,-349065377.26193,   0.00000
128395916.24849,92533680.00556,-30532002.84555,   0.00040,   0.00017,  -0.00040,126347363.28782,   0.00000,274640135.82653,   0.00000,   0.00000,   0.00000,-348292772.53871,   0.00000
129138362.74279,93003994.71709,-30756807.36176,   0.00041,   0.00017,  -0.00040,127098464.80657,   0.00000,274640135.82653,   0.00000,   0.00000,   0.00000,-347541671.01996,   0.00000
129910388.77871,93503888.97023,-30975695.96964,   0.00041,   0.00017,  -0.00040,127871189.16769,   0.00000,274640135.82653,   0.00000,   0.00000,   0.00000,-346768946.65884,   0.00000
130661709.13549,93994909.36089,-31194584.57752,   0.00041,   0.00017,  -0.00041,128628519.51932,   0.00000,274640135.82653,   0.00000,   0.00000,   0.00000,-346011616.30721,   0.00000
131404155.62980,94465224.07242,-31413473.18541,   0.00041,   0.00017,  -0.00041,129375525.36291,   0.00000,274640135.82653,   0.00000,   0.00000,   0.00000,-345264610.46362,   0.00000
132146602.12411,94935538.78396,-31632361.79329,   0.00042,   0.00017,  -0.00041,130122600.05045,   0.00000,274640135.82653,   0.00000,   0.00000,   0.00000,-344517535.77608,   0.00000
132889048.61841,95405853.49549,-31851250.40117,   0.00042,   0.00017,  -0.00041,130869742.40298,   0.00000,274640135.82653,   0.00000,   0.00000,   0.00000,-343770393.42355,   0.00000
133622621.25024,95855462.52790,-32070139.00906,   0.00042,   0.00018,  -0.00042,131606602.76092,   0.00000,274640135.82653,   0.00000,   0.00000,   0.00000,-343033533.06561,   0.00000
134335488.20294,96296197.69782,-32289027.61694,   0.00042,   0.00018,  -0.00042,132328108.37195,   0.00000,274640135.82653,   0.00000,   0.00000,   0.00000,-342312027.45458,   0.00000
135077934.69725,96766512.40936,-32502000.31650,   0.00043,   0.00018,  -0.00042,133071130.58644,   0.00000,274640135.82653,   0.00000,   0.00000,   0.00000,-341569005.24009,   0.00000
135790801.64995,97207247.57928,-32720888.92438,   0.00043,   0.00018,  -0.00043,133792789.17679,   0.00000,274640135.82653,   0.00000,   0.00000,   0.00000,-340847346.64974,   0.00000
136494794.74017,97627277.07009,-32933861.62395,   0.00043,   0.00018,  -0.00043,134499876.57598,   0.00000,274640135.82653,   0.00000,   0.00000,   0.00000,-340140259.25055,   0.00000
137207661.69287,98068012.24001,-33152750.23183,   0.00043,   0.00018,  -0.00043,135221704.43170,   0.00000,274640135.82653,   0.00000,   0.00000,   0.00000,-339418431.39483,   0.00000
137890949.10396,98479167.86834,-33365722.93139,   0.00044,   0.00018,  -0.00043,135913534.36910,   0.00000,274640135.82653,   0.00000,   0.00000,   0.00000,-338726601.45743,   0.00000
138594942.19418,98899197.35914,-33578695.63095,   0.00044,   0.00018,  -0.00044,136620888.22679,   0.00000,274640135.82653,   0.00000,   0.00000,   0.00000,-338019247.59974,   0.00000
139278229.60528,99310352.98746,-33785752.42219,   0.00044,   0.00018,  -0.00044,137308530.35084,   0.00000,274640135.82653,   0.00000,   0.00000,   0.00000,-337331605.47569,   0.00000
139961517.01637,99721508.61578,-33998725.12176,   0.00044,   0.00018,  -0.00044,138000622.57403,   0.00000,274640135.82653,   0.00000,   0.00000,   0.00000,-336639513.25250,   0.00000
140635930.56498,100111958.56498,-34211697.82132,   0.00044,   0.00018,  -0.00044,138682556.81079,   0.00000,274640135.82653,   0.00000,   0.00000,   0.00000,-335957579.01574,   0.00000
141289638.43447,100493534.65169,-34418754.61256,   0.00045,   0.00018,  -0.00045,139344785.57533,   0.00000,274640135.82653,   0.00000,   0.00000,   0.00000,-335295350.25120,   0.00000
141943346.30396,100875110.73841,-34625811.40380,   0.00045,   0.00018,  -0.00045,140007111.23216,   0.00000,274640135.82653,   0.00000,   0.00000,   0.00000,-334633024.59437,   0.00000
142617759.85258,101265560.68761,-34832868.19504,   0.00045,   0.00018,  -0.00045,140684959.79080,   0.00000,274640135.82653,   0.00000,   0.00000,   0.00000,-333955176.03573,   0.00000
143262593.85958,101626431.09520,-35039924.98628,   0.00045,   0.00018,  -0.00046,141337274.63859,   0.00000,274640135.82653,   0.00000,   0.00000,   0.00000,-333302861.18793,   0.00000
143895596.04995,101999133.31943,-35246981.77752,   0.00046,   0.00018,  -0.00046,141984466.92573,   0.00000,274640135.82653,   0.00000,   0.00000,   0.00000,-332655668.90080,   0.00000
144540430.05696,102360003.72702,-35448122.66044,   0.00046,   0.00018,  -0.00046,142632589.28155,   0.00000,274640135.82653,   0.00000,   0.00000,   0.00000,-332007546.54498,   0.00000
145164558.38484,102712000.27213,-35655179.45168,   0.00046,   0.00018,  -0.00046,143269806.01591,   0.00000,274640135.82653,   0.00000,   0.00000,   0.00000,-331370329.81062,   0.00000
145779812.85024,103043291.13812,-35856320.33460,   0.00046,   0.00018,  -0.00047,143892560.99414,   0.00000,274640135.82653,   0.00000,   0.00000,   0.00000,-330747574.83239,   0.00000
146395067.31564,103374582.00410,-36057461.21752,   0.00046,   0.00018,  -0.00047,144515440.61455,   0.00000,274640135.82653,   0.00000,   0.00000,   0.00000,-330124695.21198,   0.00000
147019195.64353,103726578.54921,-36258602.10044,   0.00047,   0.00019,  -0.00047,145148570.50233,   0.00000,274640135.82653,   0.00000,   0.00000,   0.00000,-329491565.32420,   0.00000
147604870.56732,104028289.87359,-36453827.07504,   0.00047,   0.00019,  -0.00047,145741707.04482,   0.00000,274640135.82653,   0.00000,   0.00000,   0.00000,-328898428.78170,   0.00000
148199419.35360,104350706.87710,-36654967.95796,   0.00047,   0.00019,  -0.00048,146349526.07428,   0.00000,274640135.82653,   0.00000,   0.00000,   0.00000,-328290609.75224,   0.00000
148785094.27739,104652418.20148,-36850192.93256,   0.00047,   0.00019,  -0.00048,146942924.85039,   0.00000,274640135.82653,   0.00000,   0.00000,   0.00000,-327697210.97614,   0.00000
149370769.20119,104954129.52585,-37045417.90716,   0.00047,   0.00019,  -0.00048,147536456.17919,   0.00000,274640135.82653,   0.00000,   0.00000,   0.00000,-327103679.64734,   0.00000
149935738.44586,105246966.98775,-37240642.88176,   0.00048,   0.00019,  -0.00048,148114700.33616,   0.00000,274640135.82653,   0.00000,   0.00000,   0.00000,-326525435.49037,   0.00000
150500707.69053,105539804.44965,-37429951.94803,   0.00048,   0.00019,  -0.00049,148688607.45842,   0.00000,274640135.82653,   0.00000,   0.00000,   0.00000,-325951528.36810,   0.00000
151056803.07272,105811936.23242,-37619261.01431,   0.00048,   0.00019,  -0.00049,149252595.24507,   0.00000,274640135.82653,   0.00000,   0.00000,   0.00000,-325387540.58146,   0.00000
151612898.45491,106084068.01520,-37808570.08059,   0.00048,   0.00019,  -0.00049,149816725.86029,   0.00000,274640135.82653,   0.00000,   0.00000,   0.00000,-324823409.96624,   0.00000
152148288.15798,106347325.93549,-37997879.14687,   0.00048,   0.00019,  -0.00049,150365581.80232,   0.00000,274640135.82653,   0.00000,   0.00000,   0.00000,-324274554.02421,   0.00000
152683677.86104,106610583.85578,-38187188.21314,   0.00049,   0.00019,  -0.00050,150914578.69971,   0.00000,274640135.82653,   0.00000,   0.00000,   0.00000,-323725557.12682,   0.00000
153210193.70163,106853136.09695,-38370581.37110,   0.00049,   0.00019,  -0.00050,151449235.76259,   0.00000,274640135.82653,   0.00000,   0.00000,   0.00000,-323190900.06394,   0.00000
153745583.40469,107116394.01724,-38553974.52906,   0.00049,   0.00019,  -0.00050,151994015.17586,   0.00000,274640135.82653,   0.00000,   0.00000,   0.00000,-322646120.65067,   0.00000
154242519.70367,107329366.71680,-38737367.68701,   0.00049,   0.00019,  -0.00050,152503596.18621,   0.00000,274640135.82653,   0.00000,   0.00000,   0.00000,-322136539.64032,   0.00000
154748329.86513,107563045.09549,-38914844.93665,   0.00049,   0.00019,  -0.00051,153018783.65697,   0.00000,274640135.82653,   0.00000,   0.00000,   0.00000,-321621352.16956,   0.00000
155245266.16411,107776017.79505,-39092322.18628,   0.00050,   0.00019,  -0.00051,153524183.99449,   0.00000,274640135.82653,   0.00000,   0.00000,   0.00000,-321115951.83204,   0.00000
155730370.64645,108000822.31126,-39269799.43592,   0.00050,   0.00019,  -0.00051,154024249.11729,   0.00000,274640135.82653,   0.00000,   0.00000,   0.00000,-320615886.70924,   0.00000
156197727.40382,108184215.46921,-39447276.68555,   0.00050,   0.00019,  -0.00051,154504656.36760,   0.00000,274640135.82653,   0.00000,   0.00000,   0.00000,-320135479.45893,   0.00000
156673958.02367,108388314.30629,-39618838.02687,   0.00050,   0.00019,  -0.00052,154990601.56951,   0.00000,274640135.82653,   0.00000,   0.00000,   0.00000,-319649534.25702,   0.00000
157141314.78104,108571707.46425,-39790399.36818,   0.00050,   0.00019,  -0.00052,155466830.09408,   0.00000,274640135.82653,   0.00000,   0.00000,   0.00000,-319173305.73245,   0.00000
157587965.85929,108746226.75972,-39961960.70949,   0.00050,   0.00019,  -0.00052,155927826.44368,   0.00000,274640135.82653,   0.00000,   0.00000,   0.00000,-318712309.38285,   0.00000
158034616.93754,108920746.05520,-40133522.05081,   0.00051,   0.00019,  -0.00052,156389000.47331,   0.00000,274640135.82653,   0.00000,   0.00000,   0.00000,-318251135.35322,   0.00000
158481268.01579,109095265.35067,-40299167.48380,   0.00051,   0.00019,  -0.00052,156845790.33623,   0.00000,274640135.82653,   0.00000,   0.00000,   0.00000,-317794345.49030,   0.00000
158898339.55243,109240205.10454,-40464812.91679,   0.00051,   0.00019,  -0.00053,157277527.87190,   0.00000,274640135.82653,   0.00000,   0.00000,   0.00000,-317362607.95463,   0.00000
159315411.08907,109385144.85841,-40624542.44147,   0.00051,   0.00019,  -0.00053,157704886.26468,   0.00000,274640135.82653,   0.00000,   0.00000,   0.00000,-316935249.56185,   0.00000
159732482.62572,109530084.61228,-40784271.96614,   0.00051,   0.00019,  -0.00053,158132424.32546,   0.00000,274640135.82653,   0.00000,   0.00000,   0.00000,-316507711.50107,   0.00000
160149554.16236,109675024.36615,-40944001.49081,   0.00051,   0.00019,  -0.00053,158560140.60088,   0.00000,274640135.82653,   0.00000,   0.00000,   0.00000,-316079995.22565,   0.00000
160537046.15740,109790384.57841,-41103731.01548,   0.00052,   0.00019,  -0.00053,158962881.85703,   0.00000,274640135.82653,   0.00000,   0.00000,   0.00000,-315677253.96949,   0.00000
160924538.15243,109905744.79067,-41257544.63183,   0.00052,   0.00019,  -0.00054,159361235.76319,   0.00000,274640135.82653,   0.00000,   0.00000,   0.00000,-315278900.06334,   0.00000
161291324.46834,110012231.14045,-41411358.24818,   0.00052,   0.00019,  -0.00054,159744375.97853,   0.00000,274640135.82653,   0.00000,   0.00000,   0.00000,-314895759.84800,   0.00000
161669942.60090,110106885.67359,-41565171.86453,   0.00052,   0.00019,  -0.00054,160133423.31595,   0.00000,274640135.82653,   0.00000,   0.00000,   0.00000,-314506712.51058,   0.00000
162007149.37521,110183792.48177,-41713069.57256,   0.00052,   0.00019,  -0.00054,160487267.30343,   0.00000,274640135.82653,   0.00000,   0.00000,   0.00000,-314152868.52310,   0.00000
162365061.82864,110269573.15242,-41855051.37227,   0.00052,   0.00019,  -0.00054,160852112.13798,   0.00000,274640135.82653,   0.00000,   0.00000,   0.00000,-313788023.68855,   0.00000
162702268.60294,110346479.96060,-42002949.08030,   0.00053,   0.00018,  -0.00055,161206372.14647,   0.00000,274640135.82653,   0.00000,   0.00000,   0.00000,-313433763.68006,   0.00000
163039475.37725,110423386.76878,-42144930.88001,   0.00053,   0.00018,  -0.00055,161556211.34842,   0.00000,274640135.82653,   0.00000,   0.00000,   0.00000,-313083924.47811,   0.00000
163367808.28908,110479587.89783,-42286912.67971,   0.00053,   0.00018,  -0.00055,161896636.60387,   0.00000,274640135.82653,   0.00000,   0.00000,   0.00000,-312743499.22266,   0.00000
163675435.52178,110526915.16440,-42422978.57110,   0.00053,   0.00018,  -0.00055,162217241.76277,   0.00000,274640135.82653,   0.00000,   0.00000,   0.00000,-312422894.06376,   0.00000
163974188.89199,110553536.75184,-42559044.46249,   0.00053,   0.00018,  -0.00055,162528487.93299,   0.00000,274640135.82653,   0.00000,   0.00000,   0.00000,-312111647.89354,   0.00000
164281816.12470,110600864.01841,-42689194.44555,   0.00053,   0.00018,  -0.00055,162844887.52237,   0.00000,274640135.82653,   0.00000,   0.00000,   0.00000,-311795248.30416,   0.00000
164559863.81579,110618611.74337,-42825260.33694,   0.00053,   0.00018,  -0.00056,163141199.97077,   0.00000,274640135.82653,   0.00000,   0.00000,   0.00000,-311498935.85576,   0.00000
164837911.50689,110636359.46834,-42949494.41169,   0.00053,   0.00018,  -0.00056,163428430.46891,   0.00000,274640135.82653,   0.00000,   0.00000,   0.00000,-311211705.35762,   0.00000
165086379.65637,110624527.65169,-43079644.39475,   0.00054,   0.00018,  -0.00056,163695642.51540,   0.00000,274640135.82653,   0.00000,   0.00000,   0.00000,-310944493.31113,   0.00000
165343721.66835,110633401.51418,-43203878.46950,   0.00054,   0.00018,  -0.00056,163967932.30072,   0.00000,274640135.82653,   0.00000,   0.00000,   0.00000,-310672203.52581,   0.00000
165592189.81783,110621569.69753,-43322196.63592,   0.00054,   0.00018,  -0.00056,164226292.68115,   0.00000,274640135.82653,   0.00000,   0.00000,   0.00000,-310413843.14538,   0.00000
165831784.10484,110589032.20177,-43440514.80234,   0.00054,   0.00018,  -0.00056,164475448.40841,   0.00000,274640135.82653,   0.00000,   0.00000,   0.00000,-310164687.41811,   0.00000
166059546.57521,110568326.52264,-43558832.96877,   0.00054,   0.00018,  -0.00057,164718904.37850,   0.00000,274640135.82653,   0.00000,   0.00000,   0.00000,-309921231.44803,   0.00000
166257729.50397,110518041.30191,-43671235.22687,   0.00054,   0.00018,  -0.00057,164933082.84169,   0.00000,274640135.82653,   0.00000,   0.00000,   0.00000,-309707052.98484,   0.00000
166476618.11185,110476629.94367,-43783637.48497,   0.00054,   0.00018,  -0.00057,165162935.13527,   0.00000,274640135.82653,   0.00000,   0.00000,   0.00000,-309477200.69126,   0.00000
166674801.04061,110426344.72294,-43890123.83475,   0.00054,   0.00018,  -0.00057,165372932.44406,   0.00000,274640135.82653,   0.00000,   0.00000,   0.00000,-309267203.38247,   0.00000
166843404.42776,110346479.96060,-43996610.18453,   0.00054,   0.00018,  -0.00057,165558418.63428,   0.00000,274640135.82653,   0.00000,   0.00000,   0.00000,-309081717.19225,   0.00000
167041587.35652,110296194.73987,-44103096.53431,   0.00054,   0.00018,  -0.00057,165768936.78761,   0.00000,274640135.82653,   0.00000,   0.00000,   0.00000,-308871199.03892,   0.00000
167210190.74367,110216329.97753,-44203666.97577,   0.00055,   0.00018,  -0.00057,165950252.32267,   0.00000,274640135.82653,   0.00000,   0.00000,   0.00000,-308689883.50386,   0.00000
167349214.58922,110106885.67359,-44298321.50891,   0.00055,   0.00017,  -0.00058,166102404.93005,   0.00000,274640135.82653,   0.00000,   0.00000,   0.00000,-308537730.89648,   0.00000
167497112.29725,110018147.04878,-44392976.04205,   0.00055,   0.00017,  -0.00058,166264134.26416,   0.00000,274640135.82653,   0.00000,   0.00000,   0.00000,-308376001.56237,   0.00000
167636136.14280,109908702.74483,-44487630.57519,   0.00055,   0.00017,  -0.00058,166416870.07606,   0.00000,274640135.82653,   0.00000,   0.00000,   0.00000,-308223265.75047,   0.00000
167754454.30922,109790384.57841,-44576369.20001,   0.00055,   0.00017,  -0.00058,166549744.84002,   0.00000,274640135.82653,   0.00000,   0.00000,   0.00000,-308090390.98651,   0.00000
167863898.61316,109651360.73286,-44665107.82482,   0.00055,   0.00017,  -0.00058,166673693.30021,   0.00000,274640135.82653,   0.00000,   0.00000,   0.00000,-307966442.52632,   0.00000
167982216.77959,109533042.56644,-44747930.54132,   0.00055,   0.00017,  -0.00058,166802401.45248,   0.00000,274640135.82653,   0.00000,   0.00000,   0.00000,-307837734.37405,   0.00000
168070955.40440,109385144.85841,-44824837.34950,   0.00055,   0.00017,  -0.00058,166902032.02199,   0.00000,274640135.82653,   0.00000,   0.00000,   0.00000,-307738103.80454,   0.00000
168159694.02922,109237247.15038,-44907660.06599,   0.00055,   0.00017,  -0.00058,167006738.19161,   0.00000,274640135.82653,   0.00000,   0.00000,   0.00000,-307633397.63492,   0.00000
168218853.11243,109059769.90075,-44978650.96585,   0.00055,   0.00017,  -0.00058,167077657.59664,   0.00000,274640135.82653,   0.00000,   0.00000,   0.00000,-307562478.22989,   0.00000
168278012.19565,108882292.65111,-45049641.86570,   0.00055,   0.00017,  -0.00059,167148909.56129,   0.00000,274640135.82653,   0.00000,   0.00000,   0.00000,-307491226.26523,   0.00000
168337171.27886,108704815.40148,-45120632.76555,   0.00055,   0.00017,  -0.00059,167220493.66048,   0.00000,274640135.82653,   0.00000,   0.00000,   0.00000,-307419642.16605,   0.00000
168375624.68294,108518464.28936,-45185707.75709,   0.00055,   0.00017,  -0.00059,167272198.59040,   0.00000,274640135.82653,   0.00000,   0.00000,   0.00000,-307367937.23613,   0.00000
168414078.08703,108332113.17724,-45250782.74862,   0.00056,   0.00016,  -0.00059,167324222.67405,   0.00000,274640135.82653,   0.00000,   0.00000,   0.00000,-307315913.15248,   0.00000
168422951.94951,108116182.52352,-45309941.83183,   0.00056,   0.00016,  -0.00059,167347320.08352,   0.00000,274640135.82653,   0.00000,   0.00000,   0.00000,-307292815.74301,   0.00000
168431825.81200,107900251.86980,-45363185.00672,   0.00056,   0.00016,  -0.00059,167365956.91414,   0.00000,274640135.82653,   0.00000,   0.00000,   0.00000,-307274178.91239,   0.00000
168419993.99535,107675447.35359,-45416428.18161,   0.00056,   0.00016,  -0.00059,167369513.32241,   0.00000,274640135.82653,   0.00000,   0.00000,   0.00000,-307270622.50412,   0.00000
168399288.31623,107429937.15826,-45469671.35650,   0.00056,   0.00016,  -0.00059,167364451.96558,   0.00000,274640135.82653,   0.00000,   0.00000,   0.00000,-307275683.86095,   0.00000
168378582.63711,107184426.96294,-45516998.62307,   0.00056,   0.00016,  -0.00059,167354946.36378,   0.00000,274640135.82653,   0.00000,   0.00000,   0.00000,-307285189.46275,   0.00000
168337171.27886,106930042.90513,-45558409.98132,   0.00056,   0.00016,  -0.00059,167325558.48573,   0.00000,274640135.82653,   0.00000,   0.00000,   0.00000,-307314577.34080,   0.00000
168295759.92061,106675658.84731,-45599821.33957,   0.00056,   0.00016,  -0.00059,167296530.28567,   0.00000,274640135.82653,   0.00000,   0.00000,   0.00000,-307343605.54086,   0.00000
168254348.56236,106421274.78950,-45635316.78950,   0.00056,   0.00016,  -0.00059,167263019.49480,   0.00000,274640135.82653,   0.00000,   0.00000,   0.00000,-307377116.33173,   0.00000
168183357.66251,106137311.19009,-45670812.23942,   0.00056,   0.00015,  -0.00059,167205593.57839,   0.00000,274640135.82653,   0.00000,   0.00000,   0.00000,-307434542.24814,   0.00000
168091661.08353,105844473.72819,-45700391.78103,   0.00056,   0.00015,  -0.00059,167128283.56072,   0.00000,274640135.82653,   0.00000,   0.00000,   0.00000,-307511852.26581,   0.00000
167991090.64207,105530930.58717,-45729971.32263,   0.00056,   0.00015,  -0.00059,167042565.08867,   0.00000,274640135.82653,   0.00000,   0.00000,   0.00000,-307597570.73786,   0.00000
167899394.06309,105238093.12527,-45753634.95592,   0.00056,   0.00015,  -0.00059,166961181.23189,   0.00000,274640135.82653,   0.00000,   0.00000,   0.00000,-307678954.59464,   0.00000
167778117.94251,104915676.12177,-45771382.68088,   0.00056,   0.00015,  -0.00060,166851130.32761,   0.00000,274640135.82653,   0.00000,   0.00000,   0.00000,-307789005.49892,   0.00000
167656841.82192,104593259.11826,-45789130.40585,   0.00056,   0.00015,  -0.00060,166741489.59699,   0.00000,274640135.82653,   0.00000,   0.00000,   0.00000,-307898646.22954,   0.00000
167505986.15973,104241262.57315,-45800962.22249,   0.00056,   0.00015,  -0.00060,166603256.74444,   0.00000,274640135.82653,   0.00000,   0.00000,   0.00000,-308036879.08208,   0.00000
167364004.36002,103909971.70717,-45812794.03913,   0.00056,   0.00015,  -0.00060,166474140.66687,   0.00000,274640135.82653,   0.00000,   0.00000,   0.00000,-308165995.15966,   0.00000
167213148.69783,103557975.16206,-45818709.94745,   0.00056,   0.00015,  -0.00060,166331893.39762,   0.00000,274640135.82653,   0.00000,   0.00000,   0.00000,-308308242.42891,   0.00000
167041587.35652,103197104.75447,-45818709.94745,   0.00056,   0.00014,  -0.00060,166169758.65438,   0.00000,274640135.82653,   0.00000,   0.00000,   0.00000,-308470377.17215,   0.00000
166849320.33608,102827360.48439,-45818709.94745,   0.00056,   0.00014,  -0.00060,165992617.59419,   0.00000,274640135.82653,   0.00000,   0.00000,   0.00000,-308647518.23234,   0.00000
166648179.45316,102436910.53520,-45812794.03913,   0.00056,   0.00014,  -0.00060,165802436.64846,   0.00000,274640135.82653,   0.00000,   0.00000,   0.00000,-308837699.17807,   0.00000
166447038.57024,102046460.58600,-45806878.13081,   0.00056,   0.00014,  -0.00060,165612728.55095,   0.00000,274640135.82653,   0.00000,   0.00000,   0.00000,-309027407.27558,   0.00000
166225192.00820,101647136.77432,-45795046.31417,   0.00056,   0.00014,  -0.00060,165403140.37507,   0.00000,274640135.82653,   0.00000,   0.00000,   0.00000,-309236995.45146,   0.00000
166003345.44616,101247812.96264,-45777298.58920,   0.00056,   0.00014,  -0.00060,165189097.26887,   0.00000,274640135.82653,   0.00000,   0.00000,   0.00000,-309451038.55766,   0.00000
165751919.34251,100818909.60936,-45753634.95592,   0.00056,   0.00014,  -0.00059,164946684.90701,   0.00000,274640135.82653,   0.00000,   0.00000,   0.00000,-309693450.91952,   0.00000
165500493.23886,100390006.25607,-45729971.32263,   0.00056,   0.00013,  -0.00059,164704771.93535,   0.00000,274640135.82653,   0.00000,   0.00000,   0.00000,-309935363.89118,   0.00000
165228361.45608,99952229.04031,-45706307.68935,   0.00056,   0.00013,  -0.00059,164447913.27091,   0.00000,274640135.82653,   0.00000,   0.00000,   0.00000,-310192222.55562,   0.00000
164956229.67331,99514451.82454,-45676728.14774,   0.00056,   0.00013,  -0.00059,164186618.03521,   0.00000,274640135.82653,   0.00000,   0.00000,   0.00000,-310453517.79132,   0.00000
164684097.89054,99076674.60877,-45641232.69782,   0.00056,   0.00013,  -0.00059,163920874.61986,   0.00000,274640135.82653,   0.00000,   0.00000,   0.00000,-310719261.20667,   0.00000
164382386.56616,98609317.85140,-45599821.33957,   0.00056,   0.00013,  -0.00059,163626900.88378,   0.00000,274640135.82653,   0.00000,   0.00000,   0.00000,-311013234.94275,   0.00000
164059969.56265,98133087.23155,-45558409.98132,   0.00056,   0.00013,  -0.00059,163318006.59534,   0.00000,274640135.82653,   0.00000,   0.00000,   0.00000,-311322129.23119,   0.00000
163737552.55915,97656856.61169,-45511082.71475,   0.00055,   0.00013,  -0.00059,163004690.17401,   0.00000,274640135.82653,   0.00000,   0.00000,   0.00000,-311635445.65252,   0.00000
163406261.69316,97159920.31271,-45457839.53986,   0.00055,   0.00012,  -0.00059,162678709.84827,   0.00000,274640135.82653,   0.00000,   0.00000,   0.00000,-311961425.97826,   0.00000
163054265.14805,96654110.15125,-45404596.36497,   0.00055,   0.00012,  -0.00059,162337850.17995,   0.00000,274640135.82653,   0.00000,   0.00000,   0.00000,-312302285.64658,   0.00000
162681562.92382,96139426.12731,-45345437.28176,   0.00055,   0.00012,  -0.00059,161977140.72442,   0.00000,274640135.82653,   0.00000,   0.00000,   0.00000,-312662995.10211,   0.00000
162308860.69959,95624742.10337,-45286278.19855,   0.00055,   0.00012,  -0.00059,161617002.81119,   0.00000,274640135.82653,   0.00000,   0.00000,   0.00000,-313023133.01534,   0.00000
161936158.47535,95110058.07943,-45215287.29869,   0.00055,   0.00012,  -0.00059,161247486.02191,   0.00000,274640135.82653,   0.00000,   0.00000,   0.00000,-313392649.80462,   0.00000
161533876.70951,94565794.51388,-45144296.39884,   0.00055,   0.00012,  -0.00059,160854984.12216,   0.00000,274640135.82653,   0.00000,   0.00000,   0.00000,-313785151.70436,   0.00000
161131594.94367,94021530.94833,-45073305.49898,   0.00055,   0.00011,  -0.00059,160463106.46383,   0.00000,274640135.82653,   0.00000,   0.00000,   0.00000,-314177029.36269,   0.00000
160708607.49871,93468393.52031,-44990482.78249,   0.00055,   0.00011,  -0.00058,160046406.91579,   0.00000,274640135.82653,   0.00000,   0.00000,   0.00000,-314593728.91074,   0.00000
160285620.05375,92915256.09228,-44907660.06599,   0.00055,   0.00011,  -0.00058,159630320.34458,   0.00000,274640135.82653,   0.00000,   0.00000,   0.00000,-315009815.48195,   0.00000
159833053.06718,92332539.12264,-44824837.34950,   0.00055,   0.00011,  -0.00058,159191422.94238,   0.00000,274640135.82653,   0.00000,   0.00000,   0.00000,-315448712.88415,   0.00000
159389359.94309,91770527.83213,-44730182.81636,   0.00055,   0.00011,  -0.00058,158751125.70690,   0.00000,274640135.82653,   0.00000,   0.00000,   0.00000,-315889010.11963,   0.00000
158916087.27740,91178937.00001,-44635528.28322,   0.00055,   0.00010,  -0.00058,158288068.38553,   0.00000,274640135.82653,   0.00000,   0.00000,   0.00000,-316352067.44100,   0.00000
158422108.93258,90578472.30541,-44534957.84176,   0.00054,   0.00010,  -0.00058,157805193.34678,   0.00000,274640135.82653,   0.00000,   0.00000,   0.00000,-316834942.47975,   0.00000
157939962.40440,89966175.79417,-44428471.49198,   0.00054,   0.00010,  -0.00058,157325641.03182,   0.00000,274640135.82653,   0.00000,   0.00000,   0.00000,-317314494.79471,   0.00000
157425278.38046,89356837.23709,-44321985.14220,   0.00054,   0.00010,  -0.00058,156823635.83902,   0.00000,274640135.82653,   0.00000,   0.00000,   0.00000,-317816499.98751,   0.00000
156922426.17316,88735666.86337,-44209582.88409,   0.00054,   0.00010,  -0.00057,156325020.17854,   0.00000,274640135.82653,   0.00000,   0.00000,   0.00000,-318315115.64799,   0.00000
156378162.60761,88096748.76468,-44091264.71767,   0.00054,   0.00010,  -0.00057,155791135.99023,   0.00000,274640135.82653,   0.00000,   0.00000,   0.00000,-318848999.83630,   0.00000
155825025.17958,87437124.98687,-43972946.55125,   0.00054,   0.00009,  -0.00057,155250304.92941,   0.00000,274640135.82653,   0.00000,   0.00000,   0.00000,-319389830.89712,   0.00000
155280761.61404,86798206.88819,-43842796.56818,   0.00054,   0.00009,  -0.00057,154707867.95398,   0.00000,274640135.82653,   0.00000,   0.00000,   0.00000,-319932267.87255,   0.00000
154706918.50688,86129709.24790,-43712646.58512,   0.00054,   0.00009,  -0.00057,154143056.78107,   0.00000,274640135.82653,   0.00000,   0.00000,   0.00000,-320497079.04546,   0.00000
154133075.39973,85461211.60760,-43576580.69373,   0.00053,   0.00009,  -0.00057,153574019.30021,   0.00000,274640135.82653,   0.00000,   0.00000,   0.00000,-321066116.52631,   0.00000
153538526.61345,84783840.10483,-43440514.80234,   0.00053,   0.00009,  -0.00056,152990286.57435,   0.00000,274640135.82653,   0.00000,   0.00000,   0.00000,-321649849.25218,   0.00000
152943977.82718,84106468.60206,-43298533.00263,   0.00053,   0.00008,  -0.00056,152402327.49487,   0.00000,274640135.82653,   0.00000,   0.00000,   0.00000,-322237808.33166,   0.00000
152319849.49929,83399517.55768,-43150635.29460,   0.00053,   0.00008,  -0.00056,151787173.68943,   0.00000,274640135.82653,   0.00000,   0.00000,   0.00000,-322852962.13710,   0.00000
151704595.03389,82713272.19242,-42996821.67825,   0.00053,   0.00008,  -0.00056,151175282.74354,   0.00000,274640135.82653,   0.00000,   0.00000,   0.00000,-323464853.08299,   0.00000
151059761.02688,81997447.28556,-42837092.15358,   0.00053,   0.00008,  -0.00056,150536265.94147,   0.00000,274640135.82653,   0.00000,   0.00000,   0.00000,-324103869.88506,   0.00000
150394221.34075,81272748.51622,-42677362.62891,   0.00053,   0.00008,  -0.00055,149882626.00325,   0.00000,274640135.82653,   0.00000,   0.00000,   0.00000,-324757509.82328,   0.00000
149740513.47126,80536217.93023,-42511717.19592,   0.00052,   0.00007,  -0.00055,149233064.17840,   0.00000,274640135.82653,   0.00000,   0.00000,   0.00000,-325407071.64813,   0.00000
149054268.10601,79802645.29841,-42340155.85460,   0.00052,   0.00007,  -0.00055,148555641.23499,   0.00000,274640135.82653,   0.00000,   0.00000,   0.00000,-326084494.59154,   0.00000
148359148.87827,79048366.98746,-42162678.60497,   0.00052,   0.00007,  -0.00055,147866856.78079,   0.00000,274640135.82653,   0.00000,   0.00000,   0.00000,-326773279.04574,   0.00000
147664029.65053,78294088.67651,-41985201.35533,   0.00052,   0.00007,  -0.00055,147179077.11721,   0.00000,274640135.82653,   0.00000,   0.00000,   0.00000,-327461058.70932,   0.00000
146948204.74367,77530936.50308,-41801808.19738,   0.00052,   0.00007,  -0.00054,146471712.51447,   0.00000,274640135.82653,   0.00000,   0.00000,   0.00000,-328168423.31206,   0.00000
146211674.15769,76758910.46716,-41612499.13110,   0.00052,   0.00006,  -0.00054,145744761.28487,   0.00000,274640135.82653,   0.00000,   0.00000,   0.00000,-328895374.54166,   0.00000
145466269.70922,75966178.75213,-41417274.15650,   0.00051,   0.00006,  -0.00054,145006727.72614,   0.00000,274640135.82653,   0.00000,   0.00000,   0.00000,-329633408.10038,   0.00000
144729739.12323,75194152.71622,-41216133.27358,   0.00051,   0.00006,  -0.00054,144271746.39982,   0.00000,274640135.82653,   0.00000,   0.00000,   0.00000,-330368389.42670,   0.00000
143963628.99564,74392547.13870,-41014992.39066,   0.00051,   0.00006,  -0.00053,143515313.78038,   0.00000,274640135.82653,   0.00000,   0.00000,   0.00000,-331124822.04615,   0.00000
143176813.18893,73582067.69870,-40807935.59942,   0.00051,   0.00006,  -0.00053,142739403.75545,   0.00000,274640135.82653,   0.00000,   0.00000,   0.00000,-331900732.07108,   0.00000
142389997.38221,72771588.25870,-40594962.89986,   0.00051,   0.00005,  -0.00053,141959579.41987,   0.00000,274640135.82653,   0.00000,   0.00000,   0.00000,-332680556.40666,   0.00000
141573602.03389,71931529.27709,-40376074.29198,   0.00050,   0.00005,  -0.00052,141153484.27552,   0.00000,274640135.82653,   0.00000,   0.00000,   0.00000,-333486651.55100,   0.00000
140766080.54805,71112175.97461,-40151269.77577,   0.00050,   0.00005,  -0.00052,140350354.85290,   0.00000,274640135.82653,   0.00000,   0.00000,   0.00000,-334289780.97363,   0.00000
139949685.19973,70272116.99300,-39926465.25957,   0.00050,   0.00005,  -0.00052,139541721.52823,   0.00000,274640135.82653,   0.00000,   0.00000,   0.00000,-335098414.29830,   0.00000
139091878.49316,69414310.28643,-39695744.83504,   0.00050,   0.00004,  -0.00052,138698185.99130,   0.00000,274640135.82653,   0.00000,   0.00000,   0.00000,-335941949.83523,   0.00000
138254777.46571,68565377.44235,-39459108.50220,   0.00050,   0.00004,  -0.00051,137866483.26234,   0.00000,274640135.82653,   0.00000,   0.00000,   0.00000,-336773652.56419,   0.00000
137376265.08002,67698696.87329,-39216556.26103,   0.00049,   0.00004,  -0.00051,136999899.61078,   0.00000,274640135.82653,   0.00000,   0.00000,   0.00000,-337640236.21575,   0.00000
136518458.37345,66840890.16673,-38968088.11154,   0.00049,   0.00004,  -0.00051,136145196.26590,   0.00000,274640135.82653,   0.00000,   0.00000,   0.00000,-338494939.56063,   0.00000
135610366.44615,65944630.05607,-38719619.96205,   0.00049,   0.00004,  -0.00050,135254268.63448,   0.00000,274640135.82653,   0.00000,   0.00000,   0.00000,-339385867.19205,   0.00000
134702274.51885,65048369.94541,-38459319.99592,   0.00049,   0.00003,  -0.00050,134354708.48229,   0.00000,274640135.82653,   0.00000,   0.00000,   0.00000,-340285427.34424,   0.00000
133803056.45403,64172815.51388,-38199020.02979,   0.00048,   0.00003,  -0.00050,133463046.21171,   0.00000,274640135.82653,   0.00000,   0.00000,   0.00000,-341177089.61482,   0.00000
132874258.84761,63267681.54074,-37932804.15533,   0.00048,   0.00003,  -0.00049,132545896.92394,   0.00000,274640135.82653,   0.00000,   0.00000,   0.00000,-342094238.90259,   0.00000
131936587.37871,62341841.88848,-37666588.28088,   0.00048,   0.00003,  -0.00049,131624139.45657,   0.00000,274640135.82653,   0.00000,   0.00000,   0.00000,-343015996.36996,   0.00000
130987084.09316,61427834.05286,-37388540.58979,   0.00048,   0.00002,  -0.00049,130684547.79818,   0.00000,274640135.82653,   0.00000,   0.00000,   0.00000,-343955588.02835,   0.00000
130016875.12849,60504952.35475,-37104576.99037,   0.00047,   0.00002,  -0.00048,129725946.30053,   0.00000,274640135.82653,   0.00000,   0.00000,   0.00000,-344914189.52600,   0.00000
129037792.30133,59561364.97753,-36820613.39095,   0.00047,   0.00002,  -0.00048,128763013.74344,   0.00000,274640135.82653,   0.00000,   0.00000,   0.00000,-345877122.08309,   0.00000
128038003.79506,58608903.73782,-36530733.88322,   0.00047,   0.00002,  -0.00047,127781260.47314,   0.00000,274640135.82653,   0.00000,   0.00000,   0.00000,-346858875.35339,   0.00000
127038215.28878,57656442.49811,-36234938.46716,   0.00047,   0.00001,  -0.00047,126796349.50420,   0.00000,274640135.82653,   0.00000,   0.00000,   0.00000,-347843786.32233,   0.00000
126038426.78250,56703981.25840,-35933227.14278,   0.00046,   0.00001,  -0.00047,125808331.85815,   0.00000,274640135.82653,   0.00000,   0.00000,   0.00000,-348831803.96838,   0.00000
124997226.91797,55733772.29373,-35625599.91008,   0.00046,   0.00001,  -0.00046,124785989.74139,   0.00000,274640135.82653,   0.00000,   0.00000,   0.00000,-349854146.08514,   0.00000
123976732.73257,54772437.19154,-35317972.67738,   0.00046,   0.00001,  -0.00046,123781339.10351,   0.00000,274640135.82653,   0.00000,   0.00000,   0.00000,-350858796.72302,   0.00000
122905953.32644,53772648.68526,-35004429.53636,   0.00045,   0.00000,  -0.00046,122736802.63742,   0.00000,274640135.82653,   0.00000,   0.00000,   0.00000,-351903333.18911,   0.00000
121835173.92031,52772860.17899,-34679054.57869,   0.00045,   0.00000,  -0.00045,121684445.41888,   0.00000,274640135.82653,   0.00000,   0.00000,   0.00000,-352955690.40765,   0.00000
120773268.37666,51793777.35183,-34353679.62103,   0.00045,   0.00000,  -0.00045,120639959.65231,   0.00000,274640135.82653,   0.00000,   0.00000,   0.00000,-354000176.17422,   0.00000
119681783.29140,50785114.98307,-34022388.75504,   0.00045,  -0.00000,  -0.00044,119571622.21706,   0.00000,274640135.82653,   0.00000,   0.00000,   0.00000,-355068513.60947,   0.00000
118590298.20615,49776452.61431,-33685181.98073,   0.00044,  -0.00000,  -0.00044,118500734.84809,   0.00000,274640135.82653,   0.00000,   0.00000,   0.00000,-356139400.97844,   0.00000
117478107.44177,48758916.38307,-33347975.20643,   0.00044,  -0.00001,  -0.00043,117416756.84698,   0.00000,274640135.82653,   0.00000,   0.00000,   0.00000,-357223378.97955,   0.00000
116336337.13578,47711800.61023,-32998936.61548,   0.00044,  -0.00001,  -0.00043,116304482.23414,   0.00000,274640135.82653,   0.00000,   0.00000,   0.00000,-358335653.59239,   0.00000
115203440.69228,46685390.51650,-32649898.02453,   0.00043,  -0.00001,  -0.00042,115200209.81097,   0.00000,274640135.82653,   0.00000,   0.00000,   0.00000,-359439926.01556,   0.00000
114061670.38629,45638274.74366,-32294943.52526,   0.00043,  -0.00001,  -0.00042,114088689.42177,   0.00000,274640135.82653,   0.00000,   0.00000,   0.00000,-360551446.40475,   0.00000
112887362.58454,44594116.92497,-31934073.11767,   0.00043,  -0.00002,  -0.00042,112948814.63220,   0.00000,274640135.82653,   0.00000,   0.00000,   0.00000,-361691321.19433,   0.00000
111724886.59943,43538127.28964,-31567286.80176,   0.00042,  -0.00002,  -0.00041,111817741.29105,   0.00000,274640135.82653,   0.00000,   0.00000,   0.00000,-362822394.53548,   0.00000
110520999.25607,42464389.92935,-31194584.57752,   0.00042,  -0.00002,  -0.00041,110653581.96522,   0.00000,274640135.82653,   0.00000,   0.00000,   0.00000,-363986553.86131,   0.00000
109337817.59184,41399526.43154,-30815966.44497,   0.00042,  -0.00002,  -0.00040,109503500.57854,   0.00000,274640135.82653,   0.00000,   0.00000,   0.00000,-365136635.24799,   0.00000
108113224.56936,40316915.20877,-30431432.40409,   0.00041,  -0.00003,  -0.00040,108320577.47871,   0.00000,274640135.82653,   0.00000,   0.00000,   0.00000,-366319558.34782,   0.00000
106909337.22600,39243177.84847,-30046898.36322,   0.00041,  -0.00003,  -0.00039,107156985.60092,   0.00000,274640135.82653,   0.00000,   0.00000,   0.00000,-367483150.22561,   0.00000
105664038.52439,38151692.76322,-29656448.41402,   0.00041,  -0.00003,  -0.00039,105960811.44310,   0.00000,274640135.82653,   0.00000,   0.00000,   0.00000,-368679324.38343,   0.00000
104409865.96031,37039501.99884,-29254166.64818,   0.00040,  -0.00004,  -0.00038,104754351.59493,   0.00000,274640135.82653,   0.00000,   0.00000,   0.00000,-369885784.23160,   0.00000
103164567.25870,35948016.91358,-28851884.88234,   0.00040,  -0.00004,  -0.00038,103556361.62394,   0.00000,274640135.82653,   0.00000,   0.00000,   0.00000,-371083774.20259,   0.00000
101889689.01549,34826952.28672,-28443687.20818,   0.00040,  -0.00004,  -0.00037,102337910.96849,   0.00000,274640135.82653,   0.00000,   0.00000,   0.00000,-372302224.85804,   0.00000
100594105.09315,33697013.79738,-28029573.62570,   0.00039,  -0.00004,  -0.00036,101103475.52883,   0.00000,274640135.82653,   0.00000,   0.00000,   0.00000,-373536660.29770,   0.00000
99307395.03330,32587780.98716,-27615460.04322,   0.00039,  -0.00005,  -0.00036,99877702.40855,   0.00000,274640135.82653,   0.00000,   0.00000,   0.00000,-374762433.41798,   0.00000
98011811.11096,31457842.49781,-27189514.64409,   0.00038,  -0.00005,  -0.00035,98643195.27853,   0.00000,274640135.82653,   0.00000,   0.00000,   0.00000,-375996940.54800,   0.00000
96695521.50950,30319030.14599,-26763569.24497,   0.00038,  -0.00005,  -0.00035,97398249.23247,   0.00000,274640135.82653,   0.00000,   0.00000,   0.00000,-377241886.59406,   0.00000
95358526.22892,29171343.93168,-26325792.02920,   0.00038,  -0.00005,  -0.00034,96133352.40063,   0.00000,274640135.82653,   0.00000,   0.00000,   0.00000,-378506783.42590,   0.00000
94021530.94833,28023657.71738,-25888014.81343,   0.00037,  -0.00006,  -0.00034,94874203.05495,   0.00000,274640135.82653,   0.00000,   0.00000,   0.00000,-379765932.77158,   0.00000
92654956.12614,26846391.96146,-25444321.68935,   0.00037,  -0.00006,  -0.00033,93597323.17457,   0.00000,274640135.82653,   0.00000,   0.00000,   0.00000,-381042812.65196,   0.00000
91297255.16644,25689831.88468,-24994712.65694,   0.00037,  -0.00006,  -0.00032,92325251.73992,   0.00000,274640135.82653,   0.00000,   0.00000,   0.00000,-382314884.08661,   0.00000
89918848.52760,24524397.94541,-24539187.71621,   0.00036,  -0.00006,  -0.00032,91039304.65653,   0.00000,274640135.82653,   0.00000,   0.00000,   0.00000,-383600831.17000,   0.00000
88510862.34717,23329384.46453,-24077746.86716,   0.00036,  -0.00007,  -0.00031,89737075.27296,   0.00000,274640135.82653,   0.00000,   0.00000,   0.00000,-384903060.55357,   0.00000
87132455.70833,22163950.52526,-23616306.01811,   0.00035,  -0.00007,  -0.00031,88460702.19600,   0.00000,274640135.82653,   0.00000,   0.00000,   0.00000,-386179433.63053,   0.00000
85703763.84877,20960063.18190,-23143033.35241,   0.00035,  -0.00007,  -0.00030,87148741.00921,   0.00000,274640135.82653,   0.00000,   0.00000,   0.00000,-387491394.81732,   0.00000
84275071.98921,19756175.83854,-22669760.68672,   0.00034,  -0.00007,  -0.00029,85845181.87006,   0.00000,274640135.82653,   0.00000,   0.00000,   0.00000,-388794953.95646,   0.00000
82855253.99213,18572994.17431,-22190572.11270,   0.00034,  -0.00008,  -0.00029,84547877.25934,   0.00000,274640135.82653,   0.00000,   0.00000,   0.00000,-390092258.56719,   0.00000
81405856.45344,17360232.96847,-21699551.72205,   0.00034,  -0.00008,  -0.00028,83232674.80636,   0.00000,274640135.82653,   0.00000,   0.00000,   0.00000,-391407461.02017,   0.00000
79935753.23563,16138597.90015,-21208531.33139,   0.00033,  -0.00008,  -0.00028,81911741.59984,   0.00000,274640135.82653,   0.00000,   0.00000,   0.00000,-392728394.22669,   0.00000
78465650.01782,14916962.83183,-20711595.03241,   0.00033,  -0.00009,  -0.00027,80596621.10979,   0.00000,274640135.82653,   0.00000,   0.00000,   0.00000,-394043514.71674,   0.00000
76995546.80001,13695327.76351,-20214658.73343,   0.00032,  -0.00009,  -0.00026,79292460.31593,   0.00000,274640135.82653,   0.00000,   0.00000,   0.00000,-395347675.51060,   0.00000
75484032.22395,12455944.97022,-19705890.61781,   0.00032,  -0.00009,  -0.00026,77959804.44755,   0.00000,274640135.82653,   0.00000,   0.00000,   0.00000,-396680331.37898,   0.00000
73993223.32702,11225436.03942,-19191206.59387,   0.00031,  -0.00009,  -0.00025,76650561.30502,   0.00000,274640135.82653,   0.00000,   0.00000,   0.00000,-397989574.52151,   0.00000
72481708.75096,9986053.24613,-18676522.56993,   0.00031,  -0.00010,  -0.00024,75338905.26050,   0.00000,274640135.82653,   0.00000,   0.00000,   0.00000,-399301230.56603,   0.00000
70949488.49578,8737796.59037,-18150006.72935,   0.00031,  -0.00010,  -0.00024,74016924.01894,   0.00000,274640135.82653,   0.00000,   0.00000,   0.00000,-400623211.80758,   0.00000
69417268.24059,7489539.93460,-17623490.88876,   0.00030,  -0.00010,  -0.00023,72709760.20521,   0.00000,274640135.82653,   0.00000,   0.00000,   0.00000,-401930375.62132,   0.00000
67855468.44381,6211703.73723,-17091059.13986,   0.00030,  -0.00010,  -0.00022,71398632.35168,   0.00000,274640135.82653,   0.00000,   0.00000,   0.00000,-403241503.47485,   0.00000
66302542.50950,4954573.21898,-16552711.48263,   0.00029,  -0.00011,  -0.00022,70100291.79554,   0.00000,274640135.82653,   0.00000,   0.00000,   0.00000,-404539844.03099,   0.00000
64728910.89607,3688568.83825,-16008447.91708,   0.00029,  -0.00011,  -0.00021,68800375.11774,   0.00000,274640135.82653,   0.00000,   0.00000,   0.00000,-405839760.70878,   0.00000
63146405.42016,2401858.77839,-15458268.44321,   0.00028,  -0.00011,  -0.00020,67516241.63624,   0.00000,274640135.82653,   0.00000,   0.00000,   0.00000,-407123894.19029,   0.00000
61552068.12760,1126980.53518,-14908088.96935,   0.00028,  -0.00011,  -0.00019,66236791.46354,   0.00000,274640135.82653,   0.00000,   0.00000,   0.00000,-408403344.36298,   0.00000
59957730.83505,-147897.70803,-14346077.67883,   0.00027,  -0.00012,  -0.00019,64971138.25300,   0.00000,274640135.82653,   0.00000,   0.00000,   0.00000,-409668997.57353,   0.00000
58333814.00088,-1452355.49285,-13784066.38832,   0.00027,  -0.00012,  -0.00018,63715508.99226,   0.00000,274640135.82653,   0.00000,   0.00000,   0.00000,-410924626.83426,   0.00000
56718771.02921,-2736107.59854,-13216139.18949,   0.00026,  -0.00012,  -0.00017,62479540.15096,   0.00000,274640135.82653,   0.00000,   0.00000,   0.00000,-412160595.67557,   0.00000
55074148.51592,-4049439.24584,-12636380.17402,   0.00026,  -0.00013,  -0.00016,61250416.51367,   0.00000,274640135.82653,   0.00000,   0.00000,   0.00000,-413389719.31286,   0.00000
53417694.18599,-5350939.07650,-12056621.15854,   0.00025,  -0.00013,  -0.00016,60033355.47532,   0.00000,274640135.82653,   0.00000,   0.00000,   0.00000,-414606780.35120,   0.00000
51752365.99358,-6673144.58628,-11470946.23475,   0.00025,  -0.00013,  -0.00015,58846725.38147,   0.00000,274640135.82653,   0.00000,   0.00000,   0.00000,-415793410.44506,   0.00000
50095911.66366,-7974644.41694,-10885271.31095,   0.00024,  -0.00013,  -0.00014,57690205.37135,   0.00000,274640135.82653,   0.00000,   0.00000,   0.00000,-416949930.45518,   0.00000
48409877.79212,-9305723.78920,-10287764.57051,   0.00024,  -0.00014,  -0.00013,56551887.80285,   0.00000,274640135.82653,   0.00000,   0.00000,   0.00000,-418088248.02368,   0.00000
46723843.92059,-10636803.16146,-9690257.83007,   0.00023,  -0.00014,  -0.00013,55452274.91620,   0.00000,274640135.82653,   0.00000,   0.00000,   0.00000,-419187860.91033,   0.00000
45025978.23242,-11956050.71708,-9080919.27299,   0.00023,  -0.00014,  -0.00012,54369182.70856,   0.00000,274640135.82653,   0.00000,   0.00000,   0.00000,-420270953.11797,   0.00000
43319238.68176,-13296003.95183,-8471580.71591,   0.00022,  -0.00014,  -0.00011,53334941.35401,   0.00000,274640135.82653,   0.00000,   0.00000,   0.00000,-421305194.47252,   0.00000
41600667.31446,-14624125.36993,-7856326.25051,   0.00022,  -0.00015,  -0.00010,52326088.37460,   0.00000,274640135.82653,   0.00000,   0.00000,   0.00000,-422314047.45193,   0.00000
39852516.40555,-15981826.32964,-7235155.87679,   0.00021,  -0.00015,  -0.00009,51357572.70707,   0.00000,274640135.82653,   0.00000,   0.00000,   0.00000,-423282563.11945,   0.00000
38133945.03825,-17309947.74774,-6608069.59475,   0.00021,  -0.00015,  -0.00009,50447283.40104,   0.00000,274640135.82653,   0.00000,   0.00000,   0.00000,-424192852.42549,   0.00000
36365088.45022,-18676522.56993,-5975067.40438,   0.00020,  -0.00016,  -0.00008,49573277.47846,   0.00000,274640135.82653,   0.00000,   0.00000,   0.00000,-425066858.34807,   0.00000
34596231.86219,-20043097.39212,-5342065.21402,   0.00020,  -0.00016,  -0.00007,48761189.88498,   0.00000,274640135.82653,   0.00000,   0.00000,   0.00000,-425878945.94155,   0.00000
32836249.13665,-21388966.53519,-4697231.20701,   0.00019,  -0.00016,  -0.00006,48002422.06148,   0.00000,274640135.82653,   0.00000,   0.00000,   0.00000,-426637713.76505,   0.00000
31046686.86949,-22764415.21986,-4052397.20000,   0.00019,  -0.00016,  -0.00005,47308992.86787,   0.00000,274640135.82653,   0.00000,   0.00000,   0.00000,-427331142.95866,   0.00000
29265998.46482,-24119158.22540,-3401647.28467,   0.00018,  -0.00017,  -0.00004,46677803.29011,   0.00000,274640135.82653,   0.00000,   0.00000,   0.00000,-427962332.53642,   0.00000
27455730.51854,-25503480.77256,-2744981.46102,   0.00017,  -0.00017,  -0.00004,46120127.22081,   0.00000,274640135.82653,   0.00000,   0.00000,   0.00000,-428520008.60572,   0.00000
25654336.43475,-26867097.64059,-2082399.72905,   0.00017,  -0.00017,  -0.00003,45631706.53534,   0.00000,274640135.82653,   0.00000,   0.00000,   0.00000,-429008429.29119,   0.00000
23823362.80935,-28260294.05022,-1413902.08876,   0.00016,  -0.00018,  -0.00002,45226645.14374,   0.00000,274640135.82653,   0.00000,   0.00000,   0.00000,-429413490.68279,   0.00000
22001263.04643,-29632784.78073,-745404.44847,   0.00016,  -0.00018,  -0.00001,44897473.04285,   0.00000,274640135.82653,   0.00000,   0.00000,   0.00000,-429742662.78368,   0.00000
20158457.60438,-31014149.37373,-65074.99153,   0.00015,  -0.00018,  -0.00000,44648079.39781,   0.00000,274640135.82653,   0.00000,   0.00000,   0.00000,-429992056.42872,   0.00000
18306778.29986,-32416219.64584,615254.46540,   0.00015,  -0.00018,   0.00001,44503051.45038,   0.00000,274640135.82653,   0.00000,   0.00000,   0.00000,-430137084.37615,   0.00000
16443267.17869,-33806458.10132,1301499.83066,   0.00014,  -0.00019,   0.00002,44432285.25767,   0.00000,274640135.82653,   0.00000,   0.00000,   0.00000,-430207850.56886,   0.00000
14579756.05752,-35196696.55679,1993661.10423,   0.00013,  -0.00019,   0.00003,44457395.77204,   0.00000,274640135.82653,   0.00000,   0.00000,   0.00000,-430182740.05449,   0.00000
12707371.07387,-36607640.69139,2691738.28613,   0.00013,  -0.00019,   0.00003,44592823.14461,   0.00000,274640135.82653,   0.00000,   0.00000,   0.00000,-430047312.68192,   0.00000
10823154.27358,-38006753.00935,3389815.46803,   0.00012,  -0.00019,   0.00004,44804904.20393,   0.00000,274640135.82653,   0.00000,   0.00000,   0.00000,-429835231.62260,   0.00000
8918231.79416,-39414739.18979,4099724.46657,   0.00012,  -0.00020,   0.00005,45110858.18336,   0.00000,274640135.82653,   0.00000,   0.00000,   0.00000,-429529277.64316,   0.00000
7013309.31475,-40822725.37022,4809633.46511,   0.00011,  -0.00020,   0.00006,45512432.76837,   0.00000,274640135.82653,   0.00000,   0.00000,   0.00000,-429127703.05816,   0.00000
5108386.83533,-42230711.55066,5525458.37197,   0.00011,  -0.00020,   0.00007,46009254.45742,   0.00000,274640135.82653,   0.00000,   0.00000,   0.00000,-428630881.36911,   0.00000
3182758.67679,-43647571.59358,6247199.18715,   0.00010,  -0.00020,   0.00008,46596594.71543,   0.00000,274640135.82653,   0.00000,   0.00000,   0.00000,-428043541.11110,   0.00000
1257130.51825,-45064431.63650,6974855.91066,   0.00009,  -0.00021,   0.00009,47275586.64979,   0.00000,274640135.82653,   0.00000,   0.00000,   0.00000,-427364549.17674,   0.00000
-689203.31942,-46490165.54190,7702512.63416,   0.00009,  -0.00021,   0.00010,48039103.02614,   0.00000,274640135.82653,   0.00000,   0.00000,   0.00000,-426601032.80039,   0.00000
-2635537.15708,-47915899.44731,8442001.17431,   0.00008,  -0.00021,   0.00011,48891691.46208,   0.00000,274640135.82653,   0.00000,   0.00000,   0.00000,-425748444.36445,   0.00000
-4602576.67387,-49350507.21519,9181489.71445,   0.00008,  -0.00022,   0.00012,49823850.12434,   0.00000,274640135.82653,   0.00000,   0.00000,   0.00000,-424816285.70219,   0.00000
-6569616.19066,-50785114.98307,9926894.16292,   0.00007,  -0.00022,   0.00013,50835801.65852,   0.00000,274640135.82653,   0.00000,   0.00000,   0.00000,-423804334.16801,   0.00000
-8548487.52409,-52207890.93431,10672298.61139,   0.00006,  -0.00022,   0.00014,51905066.06681,   0.00000,274640135.82653,   0.00000,   0.00000,   0.00000,-422735069.75972,   0.00000
-10536232.72000,-53651372.56468,11429534.87650,   0.00006,  -0.00022,   0.00015,53066952.36580,   0.00000,274640135.82653,   0.00000,   0.00000,   0.00000,-421573183.46073,   0.00000
-12523977.91591,-55094854.19504,12186771.14161,   0.00005,  -0.00023,   0.00016,54293999.82471,   0.00000,274640135.82653,   0.00000,   0.00000,   0.00000,-420346136.00182,   0.00000
-14523554.92847,-56526504.00877,12955839.22336,   0.00004,  -0.00023,   0.00017,55576747.18146,   0.00000,274640135.82653,   0.00000,   0.00000,   0.00000,-419063388.64507,   0.00000
-16532005.80351,-57978859.50161,13724907.30511,   0.00004,  -0.00023,   0.00018,56933889.42304,   0.00000,274640135.82653,   0.00000,   0.00000,   0.00000,-417706246.40349,   0.00000
-18552288.49519,-59419383.17782,14493975.38686,   0.00003,  -0.00023,   0.00019,58332760.38613,   0.00000,274640135.82653,   0.00000,   0.00000,   0.00000,-416307375.44040,   0.00000
-20572571.18686,-60859906.85402,15274875.28526,   0.00003,  -0.00024,   0.00020,59791969.58020,   0.00000,274640135.82653,   0.00000,   0.00000,   0.00000,-414848166.24633,   0.00000
-22592853.87854,-62300430.53023,16055775.18365,   0.00002,  -0.00024,   0.00021,61299265.22670,   0.00000,274640135.82653,   0.00000,   0.00000,   0.00000,-413340870.59983,   0.00000
-24633842.24935,-63749828.06891,16842590.99037,   0.00001,  -0.00024,   0.00022,62860815.84354,   0.00000,274640135.82653,   0.00000,   0.00000,   0.00000,-411779319.98299,   0.00000
-26695536.29927,-65208099.47008,17635322.70540,   0.00001,  -0.00024,   0.00023,64474774.36306,   0.00000,274640135.82653,   0.00000,   0.00000,   0.00000,-410165361.46347,   0.00000
-28736524.67008,-66657497.00877,18433970.32876,  -0.00000,  -0.00025,   0.00024,66128199.25414,   0.00000,274640135.82653,   0.00000,   0.00000,   0.00000,-408511936.57239,   0.00000
-30798218.72000,-68115768.40994,19232617.95212,  -0.00001,  -0.00025,   0.00025,67824218.59858,   0.00000,274640135.82653,   0.00000,   0.00000,   0.00000,-406815917.22795,   0.00000
-32880618.44906,-69582913.67359,20043097.39212,  -0.00001,  -0.00025,   0.00026,69571294.14517,   0.00000,274640135.82653,   0.00000,   0.00000,   0.00000,-405068841.68136,   0.00000
-34954144.31563,-71029353.25811,20853576.83212,  -0.00002,  -0.00026,   0.00027,71335867.30918,   0.00000,274640135.82653,   0.00000,   0.00000,   0.00000,-403304268.51735,   0.00000
-37036544.04468,-72496498.52176,21664056.27212,  -0.00003,  -0.00026,   0.00028,73146579.78735,   0.00000,274640135.82653,   0.00000,   0.00000,   0.00000,-401493556.03917,   0.00000
-39130775.59037,-73951811.96877,22486367.52876,  -0.00003,  -0.00026,   0.00029,74988042.42699,   0.00000,274640135.82653,   0.00000,   0.00000,   0.00000,-399652093.39953,   0.00000
-41233880.99855,-75427831.09490,23308678.78540,  -0.00004,  -0.00026,   0.00030,76871919.15583,   0.00000,274640135.82653,   0.00000,   0.00000,   0.00000,-397768216.67069,   0.00000
-43348818.22336,-76892018.40439,24136905.95037,  -0.00005,  -0.00027,   0.00031,78778773.11557,   0.00000,274640135.82653,   0.00000,   0.00000,   0.00000,-395861362.71096,   0.00000
-45443049.76906,-78347331.85140,24971049.02365,  -0.00005,  -0.00027,   0.00032,80707455.34320,   0.00000,274640135.82653,   0.00000,   0.00000,   0.00000,-393932680.48333,   0.00000
-47578692.67300,-79820393.02337,25805192.09694,  -0.00006,  -0.00027,   0.00034,82674064.90345,   0.00000,274640135.82653,   0.00000,   0.00000,   0.00000,-391966070.92308,   0.00000
-49693629.89782,-81284580.33286,26651166.98687,  -0.00007,  -0.00027,   0.00035,84665034.73179,   0.00000,274640135.82653,   0.00000,   0.00000,   0.00000,-389975101.09474,   0.00000
-51829272.80176,-82757641.50483,27497141.87679,  -0.00007,  -0.00028,   0.00036,86683970.85272,   0.00000,274640135.82653,   0.00000,   0.00000,   0.00000,-387956164.97381,   0.00000
-53976747.52234,-84218870.86016,28343116.76672,  -0.00008,  -0.00028,   0.00037,88715520.38494,   0.00000,274640135.82653,   0.00000,   0.00000,   0.00000,-385924615.44159,   0.00000
-56112390.42629,-85691932.03213,29200923.47329,  -0.00009,  -0.00028,   0.00038,90782213.14366,   0.00000,274640135.82653,   0.00000,   0.00000,   0.00000,-383857922.68287,   0.00000
-58259865.14687,-87153161.38746,30058730.17986,  -0.00010,  -0.00028,   0.00039,92859764.03847,   0.00000,274640135.82653,   0.00000,   0.00000,   0.00000,-381780371.78806,   0.00000
-60436919.40906,-88643970.28439,30922452.79475,  -0.00010,  -0.00029,   0.00040,94982106.03999,   0.00000,274640135.82653,   0.00000,   0.00000,   0.00000,-379658029.78654,   0.00000
-62605099.80877,-90114073.50220,31786175.40964,  -0.00011,  -0.00029,   0.00041,97105236.93892,   0.00000,274640135.82653,   0.00000,   0.00000,   0.00000,-377534898.88761,   0.00000
-64773280.20848,-91584176.72001,32655813.93285,  -0.00012,  -0.00029,   0.00042,99248366.55558,   0.00000,274640135.82653,   0.00000,   0.00000,   0.00000,-375391769.27095,   0.00000
-66941460.60819,-93054279.93782,33531368.36438,  -0.00012,  -0.00029,   0.00044,101410683.56632,   0.00000,274640135.82653,   0.00000,   0.00000,   0.00000,-373229452.26021,   0.00000
-69130346.68702,-94533257.01812,34412838.70424,  -0.00013,  -0.00030,   0.00045,103600941.53750,   0.00000,274640135.82653,   0.00000,   0.00000,   0.00000,-371039194.28903,   0.00000
-71310358.90337,-95991528.41928,35294309.04409,  -0.00014,  -0.00030,   0.00046,105789485.41625,   0.00000,274640135.82653,   0.00000,   0.00000,   0.00000,-368850650.41028,   0.00000
-73519950.66132,-97479379.36206,36181695.29227,  -0.00014,  -0.00030,   0.00047,108018880.79187,   0.00000,274640135.82653,   0.00000,   0.00000,   0.00000,-366621255.03466,   0.00000
-75720668.55680,-98946524.62571,37074997.44876,  -0.00015,  -0.00030,   0.00048,110251547.35260,   0.00000,274640135.82653,   0.00000,   0.00000,   0.00000,-364388588.47393,   0.00000
-77921386.45227,-100413669.88936,37968299.60526,  -0.00016,  -0.00030,   0.00049,112494668.83145,   0.00000,274640135.82653,   0.00000,   0.00000,   0.00000,-362145466.99508,   0.00000
-80122104.34775,-101880815.15301,38867517.67008,  -0.00017,  -0.00031,   0.00051,114753643.02771,   0.00000,274640135.82653,   0.00000,   0.00000,   0.00000,-359886492.79882,   0.00000
-82343527.92235,-103356834.27914,39772651.64322,  -0.00017,  -0.00031,   0.00052,117038100.07716,   0.00000,274640135.82653,   0.00000,   0.00000,   0.00000,-357602035.74937,   0.00000
-84564951.49695,-104832853.40527,40683701.52468,  -0.00018,  -0.00031,   0.00053,119337603.96671,   0.00000,274640135.82653,   0.00000,   0.00000,   0.00000,-355302531.85982,   0.00000
-86786375.07155,-106308872.53140,41594751.40614,  -0.00019,  -0.00031,   0.00054,121645631.34625,   0.00000,274640135.82653,   0.00000,   0.00000,   0.00000,-352994504.48028,   0.00000
-89019630.46279,-107773059.84089,42505801.28760,  -0.00019,  -0.00032,   0.00055,123959019.45249,   0.00000,274640135.82653,   0.00000,   0.00000,   0.00000,-350681116.37404,   0.00000
-91252885.85403,-109237247.15038,43428682.98570,  -0.00020,  -0.00032,   0.00056,126292528.73419,   0.00000,274640135.82653,   0.00000,   0.00000,   0.00000,-348347607.09234,   0.00000
-93495015.10775,-110722140.13899,44351564.68380,  -0.00021,  -0.00032,   0.00058,128646515.19417,   0.00000,274640135.82653,   0.00000,   0.00000,   0.00000,-345993620.63236,   0.00000
-95748976.17812,-112195201.31097,45274446.38190,  -0.00022,  -0.00032,   0.00059,131005268.84178,   0.00000,274640135.82653,   0.00000,   0.00000,   0.00000,-343634866.98475,   0.00000
-98002937.24848,-113668262.48294,46203243.98833,  -0.00022,  -0.00033,   0.00060,133377079.27187,   0.00000,274640135.82653,   0.00000,   0.00000,   0.00000,-341263056.55466,   0.00000
-100248024.45637,-115120617.97578,47137957.50307,  -0.00023,  -0.00033,   0.00061,135748921.45776,   0.00000,274640135.82653,   0.00000,   0.00000,   0.00000,-338891214.36876,   0.00000
-102522691.20585,-116602553.01024,48078586.92614,  -0.00024,  -0.00033,   0.00063,138156800.79879,   0.00000,274640135.82653,   0.00000,   0.00000,   0.00000,-336483335.02774,   0.00000
-104767778.41374,-118054908.50308,49019216.34920,  -0.00025,  -0.00033,   0.00064,140547319.55888,   0.00000,274640135.82653,   0.00000,   0.00000,   0.00000,-334092816.26765,   0.00000
-107033571.30075,-119516137.85841,49965761.68059,  -0.00025,  -0.00034,   0.00065,142960783.26551,   0.00000,274640135.82653,   0.00000,   0.00000,   0.00000,-331679352.56101,   0.00000
-109320069.86688,-120986241.07622,50912307.01198,  -0.00026,  -0.00034,   0.00066,145390896.87431,   0.00000,274640135.82653,   0.00000,   0.00000,   0.00000,-329249238.95222,   0.00000
-111585862.75388,-122447470.43155,51864768.25169,  -0.00027,  -0.00034,   0.00067,147821661.83913,   0.00000,274640135.82653,   0.00000,   0.00000,   0.00000,-326818473.98740,   0.00000
-113872361.32002,-123917573.64936,52817229.49139,  -0.00028,  -0.00034,   0.00069,150268666.74288,   0.00000,274640135.82653,   0.00000,   0.00000,   0.00000,-324371469.08365,   0.00000
-116149986.02367,-125366971.18805,53775606.63942,  -0.00028,  -0.00034,   0.00070,152714676.35809,   0.00000,274640135.82653,   0.00000,   0.00000,   0.00000,-321925459.46844,   0.00000
-118436484.58980,-126837074.40586,54739899.69577,  -0.00029,  -0.00035,   0.00071,155184010.04502,   0.00000,274640135.82653,   0.00000,   0.00000,   0.00000,-319456125.78151,   0.00000
-120734814.97257,-128295345.80703,55704192.75212,  -0.00030,  -0.00035,   0.00072,157657057.35821,   0.00000,274640135.82653,   0.00000,   0.00000,   0.00000,-316983078.46832,   0.00000
-123012439.67622,-129744743.34571,56674401.71680,  -0.00031,  -0.00035,   0.00074,160129649.83628,   0.00000,274640135.82653,   0.00000,   0.00000,   0.00000,-314510485.99025,   0.00000
-125301896.19651,-131182309.06776,57644610.68147,  -0.00031,  -0.00035,   0.00075,162605887.81166,   0.00000,274640135.82653,   0.00000,   0.00000,   0.00000,-312034248.01487,   0.00000
-127620932.25841,-132649454.33141,58620735.55446,  -0.00032,  -0.00035,   0.00076,165116034.86767,   0.00000,274640135.82653,   0.00000,   0.00000,   0.00000,-309524100.95886,   0.00000
-129910388.77871,-134087020.05345,59602776.33578,  -0.00033,  -0.00036,   0.00077,167613287.04767,   0.00000,274640135.82653,   0.00000,   0.00000,   0.00000,-307026848.77886,   0.00000
-132229424.84060,-135554165.31710,60584817.11709,  -0.00034,  -0.00036,   0.00079,170137777.72499,   0.00000,274640135.82653,   0.00000,   0.00000,   0.00000,-304502358.10154,   0.00000
-134539587.04002,-137000604.90163,61566857.89840,  -0.00035,  -0.00036,   0.00080,172654265.48759,   0.00000,274640135.82653,   0.00000,   0.00000,   0.00000,-301985870.33894,   0.00000
-136840875.37695,-138426338.80703,62560730.49636,  -0.00035,  -0.00036,   0.00081,175175426.56601,   0.00000,274640135.82653,   0.00000,   0.00000,   0.00000,-299464709.26052,   0.00000
-139151037.57637,-139872778.39155,63548687.18599,  -0.00036,  -0.00037,   0.00083,177705571.32760,   0.00000,274640135.82653,   0.00000,   0.00000,   0.00000,-296934564.49893,   0.00000
-141452325.91331,-141298512.29695,64542559.78395,  -0.00037,  -0.00037,   0.00084,180233883.99942,   0.00000,274640135.82653,   0.00000,   0.00000,   0.00000,-294406251.82711,   0.00000
-143783193.79185,-142753825.74396,65542348.29023,  -0.00038,  -0.00037,   0.00085,182795128.07578,   0.00000,274640135.82653,   0.00000,   0.00000,   0.00000,-291845007.75074,   0.00000
-146105187.80790,-144188433.51185,66542136.79651,  -0.00038,  -0.00037,   0.00087,185348104.96291,   0.00000,274640135.82653,   0.00000,   0.00000,   0.00000,-289292030.86362,   0.00000
-148418307.96148,-145602335.60061,67547841.21110,  -0.00039,  -0.00037,   0.00088,187899213.78830,   0.00000,274640135.82653,   0.00000,   0.00000,   0.00000,-286740922.03823,   0.00000
-150740301.97754,-147036943.36849,68553545.62570,  -0.00040,  -0.00038,   0.00089,190464889.05773,   0.00000,274640135.82653,   0.00000,   0.00000,   0.00000,-284175246.76880,   0.00000
-153074127.81024,-148459719.31973,69565165.94862,  -0.00041,  -0.00038,   0.00090,193040337.12133,   0.00000,274640135.82653,   0.00000,   0.00000,   0.00000,-281599798.70520,   0.00000
-155396121.82630,-149894327.08761,70576786.27154,  -0.00041,  -0.00038,   0.00092,195618289.37955,   0.00000,274640135.82653,   0.00000,   0.00000,   0.00000,-279021846.44698,   0.00000
-157729947.65900,-151317103.03885,71588406.59446,  -0.00042,  -0.00038,   0.00093,198199553.97163,   0.00000,274640135.82653,   0.00000,   0.00000,   0.00000,-276440581.85490,   0.00000
-160054899.62922,-152719173.31097,72611858.73403,  -0.00043,  -0.00038,   0.00094,200785235.81875,   0.00000,274640135.82653,   0.00000,   0.00000,   0.00000,-273854900.00778,   0.00000
-162388725.46192,-154141949.26221,73629394.96527,  -0.00044,  -0.00038,   0.00096,203378433.97826,   0.00000,274640135.82653,   0.00000,   0.00000,   0.00000,-271261701.84827,   0.00000
-164713677.43214,-155544019.53433,74652847.10483,  -0.00045,  -0.00039,   0.00097,205969543.44905,   0.00000,274640135.82653,   0.00000,   0.00000,   0.00000,-268670592.37748,   0.00000
-167038629.40236,-156946089.80645,75682215.15271,  -0.00045,  -0.00039,   0.00098,208569681.78066,   0.00000,274640135.82653,   0.00000,   0.00000,   0.00000,-266070454.04586,   0.00000
-169384287.05170,-158357033.94104,76705667.29227,  -0.00046,  -0.00039,   0.00100,211177820.30590,   0.00000,274640135.82653,   0.00000,   0.00000,   0.00000,-263462315.52063,   0.00000
-171709239.02192,-159759104.21316,77740951.24848,  -0.00047,  -0.00039,   0.00101,213789350.61473,   0.00000,274640135.82653,   0.00000,   0.00000,   0.00000,-260850785.21180,   0.00000
-174046022.80878,-161149342.66864,78776235.20468,  -0.00048,  -0.00039,   0.00102,216404279.59593,   0.00000,274640135.82653,   0.00000,   0.00000,   0.00000,-258235856.23060,   0.00000
-176391680.45813,-162560286.80324,79811519.16089,  -0.00049,  -0.00040,   0.00104,219032475.64624,   0.00000,274640135.82653,   0.00000,   0.00000,   0.00000,-255607660.18029,   0.00000
-178728464.24499,-163950525.25871,80846803.11709,  -0.00049,  -0.00040,   0.00105,221652046.67472,   0.00000,274640135.82653,   0.00000,   0.00000,   0.00000,-252988089.15181,   0.00000
-181056374.16937,-165320058.03506,81888002.98162,  -0.00050,  -0.00040,   0.00106,224269518.72185,   0.00000,274640135.82653,   0.00000,   0.00000,   0.00000,-250370617.10468,   0.00000
-183393157.95623,-166710296.49054,82935118.75446,  -0.00051,  -0.00040,   0.00108,226906472.74230,   0.00000,274640135.82653,   0.00000,   0.00000,   0.00000,-247733663.08423,   0.00000
-185721067.88061,-168079829.26689,83982234.52731,  -0.00052,  -0.00040,   0.00109,229534803.08891,   0.00000,274640135.82653,   0.00000,   0.00000,   0.00000,-245105332.73762,   0.00000
-188069683.48412,-169458235.90572,85029350.30016,  -0.00053,  -0.00040,   0.00111,232177333.10754,   0.00000,274640135.82653,   0.00000,   0.00000,   0.00000,-242462802.71899,   0.00000
-190397593.40850,-170827768.68207,86076466.07301,  -0.00053,  -0.00041,   0.00112,234809812.65502,   0.00000,274640135.82653,   0.00000,   0.00000,   0.00000,-239830323.17151,   0.00000
-192746209.01200,-172206175.32090,87129497.75417,  -0.00054,  -0.00041,   0.00113,237462899.38067,   0.00000,274640135.82653,   0.00000,   0.00000,   0.00000,-237177236.44586,   0.00000
-195065245.07390,-173555002.41813,88188445.34366,  -0.00055,  -0.00041,   0.00115,240101739.46892,   0.00000,274640135.82653,   0.00000,   0.00000,   0.00000,-234538396.35761,   0.00000
-197413860.67740,-174933409.05696,89241477.02483,  -0.00056,  -0.00041,   0.00116,242758674.43445,   0.00000,274640135.82653,   0.00000,   0.00000,   0.00000,-231881461.39208,   0.00000
-199744728.55594,-176270404.33754,90300424.61432,  -0.00057,  -0.00041,   0.00117,245402991.05948,   0.00000,274640135.82653,   0.00000,   0.00000,   0.00000,-229237144.76705,   0.00000
-202084470.29696,-177628105.29725,91365288.11213,  -0.00057,  -0.00041,   0.00119,248066206.83456,   0.00000,274640135.82653,   0.00000,   0.00000,   0.00000,-226573928.99197,   0.00000
-204424212.03799,-178985806.25696,92424235.70162,  -0.00058,  -0.00042,   0.00120,250724675.55833,   0.00000,274640135.82653,   0.00000,   0.00000,   0.00000,-223915460.26820,   0.00000
-206755079.91653,-180322801.53754,93489099.19943,  -0.00059,  -0.00042,   0.00122,253381048.20671,   0.00000,274640135.82653,   0.00000,   0.00000,   0.00000,-221259087.61981,   0.00000
-209085947.79507,-181659796.81813,94559878.60556,  -0.00060,  -0.00042,   0.00123,256045731.22215,   0.00000,274640135.82653,   0.00000,   0.00000,   0.00000,-218594404.60438,   0.00000
-211407941.81113,-182976086.41959,95630658.01169,  -0.00061,  -0.00042,   0.00124,258701829.30716,   0.00000,274640135.82653,   0.00000,   0.00000,   0.00000,-215938306.51936,   0.00000
-213738809.68967,-184313081.70017,96695521.50950,  -0.00061,  -0.00042,   0.00126,261363355.88702,   0.00000,274640135.82653,   0.00000,   0.00000,   0.00000,-213276779.93951,   0.00000
-216060803.70573,-185629371.30163,97772216.82396,  -0.00062,  -0.00042,   0.00127,264029396.81217,   0.00000,274640135.82653,   0.00000,   0.00000,   0.00000,-210610739.01436,   0.00000
-218382797.72178,-186945660.90309,98842996.23009,  -0.00063,  -0.00042,   0.00128,266690501.76665,   0.00000,274640135.82653,   0.00000,   0.00000,   0.00000,-207949634.05988,   0.00000
-220704791.73784,-188261950.50455,99919691.54454,  -0.00064,  -0.00043,   0.00130,269359772.05333,   0.00000,274640135.82653,   0.00000,   0.00000,   0.00000,-205280363.77320,   0.00000
-223017911.89142,-189557534.42689,100996386.85899,  -0.00065,  -0.00043,   0.00131,272020464.02238,   0.00000,274640135.82653,   0.00000,   0.00000,   0.00000,-202619671.80414,   0.00000
-225339905.90748,-190873824.02835,102078998.08177,  -0.00065,  -0.00043,   0.00133,274699410.07396,   0.00000,274640135.82653,   0.00000,   0.00000,   0.00000,-199940725.75257,   0.00000
-227653026.06106,-192169407.95068,103161609.30454,  -0.00066,  -0.00043,   0.00134,277369766.36513,   0.00000,274640135.82653,   0.00000,   0.00000,   0.00000,-197270369.46140,   0.00000
-229957272.35215,-193444286.19390,104238304.61899,  -0.00067,  -0.00043,   0.00136,280024982.83720,   0.00000,274640135.82653,   0.00000,   0.00000,   0.00000,-194615152.98933,   0.00000
-232270392.50573,-194739870.11623,105326831.75009,  -0.00068,  -0.00043,   0.00137,282704917.96001,   0.00000,274640135.82653,   0.00000,   0.00000,   0.00000,-191935217.86652,   0.00000
-234595344.47595,-196023622.22193,106409442.97286,  -0.00069,  -0.00043,   0.00138,285382051.99277,   0.00000,274640135.82653,   0.00000,   0.00000,   0.00000,-189258083.83376,   0.00000
-236899590.76704,-197298500.46514,107497970.10396,  -0.00069,  -0.00044,   0.00140,288054892.51470,   0.00000,274640135.82653,   0.00000,   0.00000,   0.00000,-186585243.31183,   0.00000
-239203837.05814,-198573378.70835,108586497.23505,  -0.00070,  -0.00044,   0.00141,290729135.82179,   0.00000,274640135.82653,   0.00000,   0.00000,   0.00000,-183911000.00474,   0.00000
-241499209.48675,-199827551.27244,109675024.36615,  -0.00071,  -0.00044,   0.00143,293394880.10775,   0.00000,274640135.82653,   0.00000,   0.00000,   0.00000,-181245255.71878,   0.00000
-243773876.23624,-201072849.97404,110763551.49724,  -0.00072,  -0.00044,   0.00144,296049622.03781,   0.00000,274640135.82653,   0.00000,   0.00000,   0.00000,-178590513.78872,   0.00000
-246069248.66485,-202327022.53813,111857994.53666,  -0.00073,  -0.00044,   0.00145,298724745.53067,   0.00000,274640135.82653,   0.00000,   0.00000,   0.00000,-175915390.29586,   0.00000
-248364621.09347,-203581195.10222,112946521.66775,  -0.00073,  -0.00044,   0.00147,301394545.23492,   0.00000,274640135.82653,   0.00000,   0.00000,   0.00000,-173245590.59161,   0.00000
-250651119.65960,-204814661.98718,114040964.70717,  -0.00074,  -0.00044,   0.00148,304062543.06601,   0.00000,274640135.82653,   0.00000,   0.00000,   0.00000,-170577592.76052,   0.00000
-252937618.22573,-206048128.87215,115135407.74659,  -0.00075,  -0.00044,   0.00150,306731859.31616,   0.00000,274640135.82653,   0.00000,   0.00000,   0.00000,-167908276.51037,   0.00000
-255203411.11274,-207272721.89463,116235766.69432,  -0.00076,  -0.00045,   0.00151,309396698.43763,   0.00000,274640135.82653,   0.00000,   0.00000,   0.00000,-165243437.38890,   0.00000
-257489909.67887,-208506188.77959,117330209.73374,  -0.00076,  -0.00045,   0.00153,312068548.52415,   0.00000,274640135.82653,   0.00000,   0.00000,   0.00000,-162571587.30238,   0.00000
-259746828.70340,-209710076.12295,118430568.68148,  -0.00077,  -0.00045,   0.00154,314726234.40625,   0.00000,274640135.82653,   0.00000,   0.00000,   0.00000,-159913901.42028,   0.00000
-262024453.40705,-210922837.32879,119525011.72089,  -0.00078,  -0.00045,   0.00155,317390928.68037,   0.00000,274640135.82653,   0.00000,   0.00000,   0.00000,-157249207.14616,   0.00000
-264281372.43157,-212126724.67215,120625370.66863,  -0.00079,  -0.00045,   0.00157,320051073.04228,   0.00000,274640135.82653,   0.00000,   0.00000,   0.00000,-154589062.78425,   0.00000
-266538291.45610,-213330612.01551,121725729.61637,  -0.00080,  -0.00045,   0.00158,322712400.97843,   0.00000,274640135.82653,   0.00000,   0.00000,   0.00000,-151927734.84810,   0.00000
-268786336.61814,-214513793.67974,122826088.56411,  -0.00080,  -0.00045,   0.00160,325365378.87444,   0.00000,274640135.82653,   0.00000,   0.00000,   0.00000,-149274756.95209,   0.00000
-271034381.78019,-215696975.34397,123932363.42016,  -0.00081,  -0.00045,   0.00161,328026244.41349,   0.00000,274640135.82653,   0.00000,   0.00000,   0.00000,-146613891.41304,   0.00000
-273282426.94223,-216880157.00821,125032722.36790,  -0.00082,  -0.00045,   0.00163,330681563.90206,   0.00000,274640135.82653,   0.00000,   0.00000,   0.00000,-143958571.92447,   0.00000
-275500892.56267,-218033759.13083,126133081.31564,  -0.00083,  -0.00045,   0.00164,333316110.14282,   0.00000,274640135.82653,   0.00000,   0.00000,   0.00000,-141324025.68370,   0.00000
-277740063.86223,-219196235.11594,127239356.17170,  -0.00084,  -0.00046,   0.00165,335971006.93468,   0.00000,274640135.82653,   0.00000,   0.00000,   0.00000,-138669128.89185,   0.00000
-279958529.48267,-220349837.23857,128345631.02776,  -0.00084,  -0.00046,   0.00167,338614553.15424,   0.00000,274640135.82653,   0.00000,   0.00000,   0.00000,-136025582.67229,   0.00000
-282197700.78223,-221512313.22368,129445989.97549,  -0.00085,  -0.00046,   0.00168,341264962.61998,   0.00000,274640135.82653,   0.00000,   0.00000,   0.00000,-133375173.20655,   0.00000
-284407292.54019,-222645209.66719,130552264.83155,  -0.00086,  -0.00046,   0.00170,343901377.89378,   0.00000,274640135.82653,   0.00000,   0.00000,   0.00000,-130738757.93275,   0.00000
-286616884.29814,-223778106.11069,131658539.68761,  -0.00087,  -0.00046,   0.00171,346538899.41780,   0.00000,274640135.82653,   0.00000,   0.00000,   0.00000,-128101236.40873,   0.00000
-288805770.37698,-224902128.69171,132764814.54367,  -0.00088,  -0.00046,   0.00173,349164998.10164,   0.00000,274640135.82653,   0.00000,   0.00000,   0.00000,-125475137.72489,   0.00000
-291015362.13493,-226035025.13522,133871089.39973,  -0.00088,  -0.00046,   0.00174,351804654.06630,   0.00000,274640135.82653,   0.00000,   0.00000,   0.00000,-122835481.76023,   0.00000
-293195374.35128,-227138342.03711,134977364.25579,  -0.00089,  -0.00046,   0.00175,354423629.75058,   0.00000,274640135.82653,   0.00000,   0.00000,   0.00000,-120216506.07595,   0.00000
-295396092.24676,-228250532.80149,136083639.11184,  -0.00090,  -0.00046,   0.00177,357056174.98902,   0.00000,274640135.82653,   0.00000,   0.00000,   0.00000,-117583960.83751,   0.00000
-297576104.46311,-229353849.70339,137189913.96790,  -0.00091,  -0.00046,   0.00178,359677242.35266,   0.00000,274640135.82653,   0.00000,   0.00000,   0.00000,-114962893.47387,   0.00000
-299726537.13785,-230427587.06368,138296188.82396,  -0.00091,  -0.00046,   0.00180,362277676.29639,   0.00000,274640135.82653,   0.00000,   0.00000,   0.00000,-112362459.53014,   0.00000
-301897675.49172,-231510198.28646,139402463.68002,  -0.00092,  -0.00046,   0.00181,364891666.52968,   0.00000,274640135.82653,   0.00000,   0.00000,   0.00000,-109748469.29685,   0.00000
-304048108.16647,-232583935.64675,140508738.53608,  -0.00093,  -0.00047,   0.00183,367494150.14696,   0.00000,274640135.82653,   0.00000,   0.00000,   0.00000,-107145985.67957,   0.00000
-306219246.52034,-233666546.86952,141615013.39214,  -0.00094,  -0.00047,   0.00184,370110151.44168,   0.00000,274640135.82653,   0.00000,   0.00000,   0.00000,-104529984.38485,   0.00000
-308360805.33260,-234719578.55069,142721288.24820,  -0.00095,  -0.00047,   0.00186,372705576.70746,   0.00000,274640135.82653,   0.00000,   0.00000,   0.00000,-101934559.11907,   0.00000
-310490532.32822,-235784442.04850,143827563.10425,  -0.00095,  -0.00047,   0.00187,375298468.65762,   0.00000,274640135.82653,   0.00000,   0.00000,   0.00000,-99341667.16890,   0.00000
-312623217.27800,-236816768.05055,144927922.05199,  -0.00096,  -0.00047,   0.00188,377880067.54622,   0.00000,274640135.82653,   0.00000,   0.00000,   0.00000,-96760068.28030,   0.00000
-314744070.41114,-237860925.86923,146034196.90805,  -0.00097,  -0.00047,   0.00190,380465890.60550,   0.00000,274640135.82653,   0.00000,   0.00000,   0.00000,-94174245.22103,   0.00000
-316856049.68180,-238884378.00879,147140471.76411,  -0.00098,  -0.00047,   0.00191,383043727.55984,   0.00000,274640135.82653,   0.00000,   0.00000,   0.00000,-91596408.26669,   0.00000
-318968028.95246,-239907830.14836,148246746.62017,  -0.00098,  -0.00047,   0.00193,385622530.97818,   0.00000,274640135.82653,   0.00000,   0.00000,   0.00000,-89017604.84835,   0.00000
-321059302.54399,-240922408.42544,149353021.47623,  -0.00099,  -0.00047,   0.00194,388189743.92363,   0.00000,274640135.82653,   0.00000,   0.00000,   0.00000,-86450391.90290,   0.00000
-323141702.27304,-241916281.02339,150453380.42396,  -0.00100,  -0.00047,   0.00196,390742200.12387,   0.00000,274640135.82653,   0.00000,   0.00000,   0.00000,-83897935.70266,   0.00000
-325224102.00209,-242910153.62135,151559655.28002,  -0.00101,  -0.00047,   0.00197,393302440.88045,   0.00000,274640135.82653,   0.00000,   0.00000,   0.00000,-81337694.94608,   0.00000
-327306501.73114,-243904026.21931,152660014.22776,  -0.00101,  -0.00047,   0.00198,395856775.02544,   0.00000,274640135.82653,   0.00000,   0.00000,   0.00000,-78783360.80109,   0.00000
-329368195.78107,-244889024.95478,153760373.17550,  -0.00102,  -0.00047,   0.00200,398399477.53058,   0.00000,274640135.82653,   0.00000,   0.00000,   0.00000,-76240658.29594,   0.00000
-331421015.96852,-245853318.01113,154866648.03156,  -0.00103,  -0.00047,   0.00201,400941171.97638,   0.00000,274640135.82653,   0.00000,   0.00000,   0.00000,-73698963.85015,   0.00000
-333473836.15596,-246817611.06748,155967006.97929,  -0.00104,  -0.00047,   0.00203,403476937.05879,   0.00000,274640135.82653,   0.00000,   0.00000,   0.00000,-71163198.76774,   0.00000
-335526656.34341,-247781904.12383,157067365.92703,  -0.00104,  -0.00047,   0.00204,406013605.25592,   0.00000,274640135.82653,   0.00000,   0.00000,   0.00000,-68626530.57061,   0.00000
-337558770.85173,-248737323.31770,158161808.96645,  -0.00105,  -0.00047,   0.00206,408531746.76239,   0.00000,274640135.82653,   0.00000,   0.00000,   0.00000,-66108389.06414,   0.00000
-339582011.49757,-249672036.83245,159262167.91418,  -0.00106,  -0.00047,   0.00207,411048963.52225,   0.00000,274640135.82653,   0.00000,   0.00000,   0.00000,-63591172.30428,   0.00000
-341584546.46428,-250597876.48471,160362526.86192,  -0.00107,  -0.00047,   0.00208,413554538.31694,   0.00000,274640135.82653,   0.00000,   0.00000,   0.00000,-61085597.50959,   0.00000
-343578207.56852,-251503010.45785,161456969.90134,  -0.00107,  -0.00047,   0.00210,416045496.12191,   0.00000,274640135.82653,   0.00000,   0.00000,   0.00000,-58594639.70462,   0.00000
-345580742.53523,-252428850.11011,162551412.94075,  -0.00108,  -0.00047,   0.00211,418545947.37956,   0.00000,274640135.82653,   0.00000,   0.00000,   0.00000,-56094188.44697,   0.00000
-347574403.63947,-253333984.08325,163645855.98017,  -0.00109,  -0.00047,   0.00213,421038672.39949,   0.00000,274640135.82653,   0.00000,   0.00000,   0.00000,-53601463.42704,   0.00000
-349547359.06458,-254230244.19391,164740299.01959,  -0.00109,  -0.00048,   0.00214,423519729.41385,   0.00000,274640135.82653,   0.00000,   0.00000,   0.00000,-51120406.41268,   0.00000
-351490734.94808,-255096924.76296,165834742.05900,  -0.00110,  -0.00048,   0.00216,425980583.16226,   0.00000,274640135.82653,   0.00000,   0.00000,   0.00000,-48659552.66427,   0.00000
-353463690.37319,-255993184.87361,166923269.19010,  -0.00111,  -0.00048,   0.00217,428456448.97642,   0.00000,274640135.82653,   0.00000,   0.00000,   0.00000,-46183686.85011,   0.00000
-355407066.25669,-256859865.44267,168011796.32119,  -0.00112,  -0.00048,   0.00218,430912117.62211,   0.00000,274640135.82653,   0.00000,   0.00000,   0.00000,-43728018.20442,   0.00000
-357329736.46107,-257717672.14923,169100323.45229,  -0.00112,  -0.00048,   0.00220,433356099.99389,   0.00000,274640135.82653,   0.00000,   0.00000,   0.00000,-41284035.83264,   0.00000
-359264238.48210,-258563647.03916,170188850.58338,  -0.00113,  -0.00048,   0.00221,435805020.00128,   0.00000,274640135.82653,   0.00000,   0.00000,   0.00000,-38835115.82525,   0.00000
-361178034.82399,-259400748.06661,171277377.71448,  -0.00114,  -0.00048,   0.00223,438242271.88681,   0.00000,274640135.82653,   0.00000,   0.00000,   0.00000,-36397863.93972,   0.00000
-363071125.48677,-260228975.23157,172359988.93725,  -0.00114,  -0.00048,   0.00224,440660903.81387,   0.00000,274640135.82653,   0.00000,   0.00000,   0.00000,-33979232.01266,   0.00000
-364964216.14954,-261057202.39653,173442600.16003,  -0.00115,  -0.00048,   0.00225,443080366.75159,   0.00000,274640135.82653,   0.00000,   0.00000,   0.00000,-31559769.07494,   0.00000
-366848432.94983,-261864723.88237,174525211.38280,  -0.00116,  -0.00048,   0.00227,445492301.83616,   0.00000,274640135.82653,   0.00000,   0.00000,   0.00000,-29147833.99037,   0.00000
-368711944.07100,-262663371.50573,175601906.69725,  -0.00117,  -0.00048,   0.00228,447885600.34275,   0.00000,274640135.82653,   0.00000,   0.00000,   0.00000,-26754535.48378,   0.00000
-370575455.19217,-263462019.12909,176684517.92003,  -0.00117,  -0.00048,   0.00230,450286689.19672,   0.00000,274640135.82653,   0.00000,   0.00000,   0.00000,-24353446.62981,   0.00000
-372418260.63421,-264251792.88997,177761213.23448,  -0.00118,  -0.00048,   0.00231,452669111.61863,   0.00000,274640135.82653,   0.00000,   0.00000,   0.00000,-21971024.20790,   0.00000
-374252192.21378,-265020860.97172,178831992.64061,  -0.00119,  -0.00048,   0.00232,455037104.75234,   0.00000,274640135.82653,   0.00000,   0.00000,   0.00000,-19603031.07419,   0.00000
-376086123.79334,-265789929.05347,179908687.95506,  -0.00119,  -0.00048,   0.00234,457412901.80783,   0.00000,274640135.82653,   0.00000,   0.00000,   0.00000,-17227234.01870,   0.00000
-377899349.69378,-266550123.27274,180979467.36119,  -0.00120,  -0.00048,   0.00235,459770019.99821,   0.00000,274640135.82653,   0.00000,   0.00000,   0.00000,-14870115.82832,   0.00000
-379691869.91509,-267301443.62953,182044330.85900,  -0.00121,  -0.00048,   0.00237,462108437.57397,   0.00000,274640135.82653,   0.00000,   0.00000,   0.00000,-12531698.25256,   0.00000
-381475516.27392,-268032058.30719,183115110.26514,  -0.00121,  -0.00048,   0.00238,464446462.79026,   0.00000,274640135.82653,   0.00000,   0.00000,   0.00000,-10193673.03627,   0.00000
-383259162.63276,-268762672.98486,184179973.76295,  -0.00122,  -0.00048,   0.00239,466778310.70302,   0.00000,274640135.82653,   0.00000,   0.00000,   0.00000,-7861825.12351,   0.00000
-385022103.31247,-269484413.80004,185244837.26076,  -0.00123,  -0.00048,   0.00241,469098457.36730,   0.00000,274640135.82653,   0.00000,   0.00000,   0.00000,-5541678.45923,   0.00000
-386776170.12969,-270185448.93610,186303784.85025,  -0.00123,  -0.00048,   0.00242,471404274.67440,   0.00000,274640135.82653,   0.00000,   0.00000,   0.00000,-3235861.15213,   0.00000
-388518405.13028,-270898315.88880,187362732.43974,  -0.00124,  -0.00047,   0.00244,473706499.38186,   0.00000,274640135.82653,   0.00000,   0.00000,   0.00000,-933636.44467,   0.00000
-389222525.48652,-271172475.95890,187795108.23311,  -0.00124,  -0.00047,   0.00244,474640135.42629,   0.00000,274640135.82653,   0.00000,   0.00000,   0.00000,  -0.40024,   0.00000
-389211178.77422,-270903440.30023,187841548.87320,  -0.00125,  -0.00047,   0.00245,474640135.42629,   0.00001,274645879.33040,  -0.00000,  -0.00000,   0.00001,   0.00000,   2.00000
-389188931.95383,-270468534.39372,187918413.25779,  -0.00125,  -0.00047,   0.00246,476921961.75601,   0.00001,274655541.36513,  -0.00001,  -0.00000,   0.00002,  -0.00000,   2.00000
-389166432.25917,-270035569.12979,187994784.19088,  -0.00126,  -0.00047,   0.00248,476932180.65413,   0.00002,274665206.45629,  -0.00001,  -0.00000,   0.00003,   0.00000,   2.00000
-389129805.86759,-269585084.75439,188079435.30123,  -0.00127,  -0.00047,   0.00249,476921882.49061,   0.00003,274674787.60831,  -0.00002,  -0.00001,   0.00005,   0.00000,   2.00000
-389098307.86175,-269139999.58407,188160667.64500,  -0.00127,  -0.00047,   0.00250,476925014.29048,   0.00004,274684342.15461,  -0.00003,  -0.00001,   0.00006,   0.00000,   2.00000
-389055453.72431,-268694091.20662,188246725.64650,  -0.00128,  -0.00047,   0.00252,476922651.36757,   0.00005,274693846.92077,  -0.00003,  -0.00001,   0.00007,   0.00000,   2.00000
-389014983.61893,-268236787.25226,188332783.98355,  -0.00128,  -0.00047,   0.00253,476917712.50102,   0.00006,274703291.20989,  -0.00004,  -0.00001,   0.00008,   0.00000,   2.00000
-388963177.05795,-267778654.46546,188423644.52807,  -0.00129,  -0.00047,   0.00254,476915264.45663,   0.00007,274712685.90262,  -0.00004,  -0.00001,   0.00010,   0.00000,   2.00000
-388916566.73378,-267325882.34755,188511069.28333,  -0.00130,  -0.00047,   0.00256,476918209.47231,   0.00007,274722054.06767,  -0.00005,  -0.00001,   0.00011,   0.00000,   2.00000
-388858652.54753,-266872219.51888,188603300.23948,  -0.00130,  -0.00047,   0.00257,476915673.92668,   0.00008,274731372.57949,  -0.00005,  -0.00002,   0.00012,   0.00000,   2.00000
-388786645.97309,-266400830.57306,188703710.98970,  -0.00131,  -0.00047,   0.00259,476905178.23532,   0.00009,274740607.95125,  -0.00006,  -0.00002,   0.00013,  -0.00000,   2.00000
-388719913.30884,-265934793.69908,188800647.22888,  -0.00132,  -0.00047,   0.00260,476907981.18964,   0.00010,274749816.99020,  -0.00007,  -0.00002,   0.00014,  -0.00000,   2.00000
-388641939.33065,-265467833.84087,188902348.53092,  -0.00132,  -0.00047,   0.00261,476905317.09265,   0.00011,274758976.61710,  -0.00007,  -0.00002,   0.00016,   0.00000,   2.00000
-388569276.08995,-265006179.12326,189000582.00304,  -0.00133,  -0.00047,   0.00263,476908025.47522,   0.00012,274768109.82389,  -0.00008,  -0.00002,   0.00017,   0.00000,   2.00000
-388485397.64574,-264543538.83379,189103584.74397,  -0.00133,  -0.00047,   0.00264,476905276.90648,   0.00012,274777193.56902,  -0.00008,  -0.00002,   0.00018,   0.00000,   2.00000
-388403958.55704,-264069264.96900,189206490.84377,  -0.00134,  -0.00047,   0.00265,476900057.47897,   0.00013,274786217.58544,  -0.00009,  -0.00002,   0.00019,  -0.00000,   2.00000
-388311312.38366,-263593995.41114,189314143.87626,  -0.00134,  -0.00047,   0.00267,476897229.76591,   0.00014,274795192.33263,  -0.00009,  -0.00003,   0.00020,   0.00000,   2.00000
-388212855.54507,-263121051.28357,189423676.40382,  -0.00135,  -0.00047,   0.00268,476887275.20898,   0.00015,274804087.71748,  -0.00010,  -0.00003,   0.00022,  -0.00000,   2.00000
-388111487.95554,-262633055.19651,189535922.91215,  -0.00136,  -0.00047,   0.00269,476889012.54421,   0.00016,274812953.85527,  -0.00010,  -0.00003,   0.00023,  -0.00000,   2.00000
-388004315.84914,-262147360.54015,189650032.99415,  -0.00136,  -0.00047,   0.00270,476878973.47560,   0.00017,274821740.78462,  -0.00011,  -0.00003,   0.00024,   0.00000,   2.00000
-387897195.46655,-261663571.53582,189763484.77178,  -0.00137,  -0.00047,   0.00272,476888415.08172,   0.00017,274830531.68828,  -0.00011,  -0.00003,   0.00025,  -0.00000,   2.00000
-387784291.97931,-261182008.91647,189878810.90562,  -0.00137,  -0.00047,   0.00273,476878286.76484,   0.00018,274839243.29707,  -0.00012,  -0.00003,   0.00026,  -0.00000,   2.00000
-387660265.83993,-260699304.90141,189998847.57099,  -0.00138,  -0.00046,   0.00274,476875176.28190,   0.00019,274847905.83902,  -0.00012,  -0.00003,   0.00027,   0.00000,   2.00000
-387538702.46320,-260204749.76682,190118697.91643,  -0.00138,  -0.00046,   0.00276,476869677.49236,   0.00020,274856509.38046,  -0.00013,  -0.00004,   0.00028,   0.00000,   2.00000
-387406013.80216,-259709038.20631,190243237.50094,  -0.00139,  -0.00046,   0.00277,476866493.73359,   0.00021,274865064.05583,  -0.00013,  -0.00004,   0.00030,  -0.00000,   2.00000
-387278822.30379,-259218502.79938,190364253.48701,  -0.00140,  -0.00046,   0.00278,476868610.12974,   0.00021,274873592.58234,  -0.00014,  -0.00004,   0.00031,   0.00000,   2.00000
-387134654.19681,-258726971.33225,190492514.08437,  -0.00140,  -0.00046,   0.00279,476845772.51614,   0.00022,274881988.88070,  -0.00014,  -0.00004,   0.00032,  -0.00000,   2.00000
-386998817.77558,-258223253.78172,190617996.31280,  -0.00141,  -0.00046,   0.00281,476859653.10454,   0.00023,274890409.85532,  -0.00015,  -0.00004,   0.00033,  -0.00000,   2.00000
-386843716.96716,-257732302.21977,190750233.31751,  -0.00141,  -0.00046,   0.00282,476851492.96693,   0.00024,274898761.55168,  -0.00015,  -0.00004,   0.00034,  -0.00000,   2.00000
-386696459.77798,-257232587.71584,190879417.89049,  -0.00142,  -0.00046,   0.00283,476838642.77960,   0.00024,274907024.27023,  -0.00016,  -0.00004,   0.00035,   0.00000,   2.00000
-386534980.83488,-256714407.53326,191016555.19270,  -0.00142,  -0.00046,   0.00285,476827565.45921,   0.00025,274915206.03296,  -0.00016,  -0.00004,   0.00036,   0.00000,   2.00000
-386365566.66135,-256212075.43860,191155045.17287,  -0.00143,  -0.00046,   0.00286,476831613.05911,   0.00026,274923371.58210,  -0.00017,  -0.00005,   0.00037,  -0.00000,   2.00000
-386198606.91313,-255697617.25501,191293263.30486,  -0.00143,  -0.00046,   0.00287,476825776.05542,   0.00027,274931478.88311,  -0.00017,  -0.00005,   0.00038,   0.00000,   2.00000
-386029122.07914,-255202233.57418,191430054.27180,  -0.00144,  -0.00046,   0.00288,476822559.74899,   0.00027,274939539.27913,  -0.00018,  -0.00005,   0.00039,   0.00000,   2.00000
-385856691.74199,-254691378.98756,191569381.61037,  -0.00144,  -0.00046,   0.00290,476823782.54556,   0.00028,274947571.94142,  -0.00018,  -0.00005,   0.00041,   0.00000,   2.00000
-385664049.81149,-254161895.78647,191719194.10109,  -0.00145,  -0.00045,   0.00291,476793031.18864,   0.00029,274955440.76293,  -0.00019,  -0.00005,   0.00042,   0.00000,   2.00000
-385474895.39807,-253651434.09533,191864965.77171,  -0.00145,  -0.00045,   0.00292,476809149.37832,   0.00029,274963346.21425,  -0.00019,  -0.00005,   0.00043,   0.00000,   2.00000
-385293536.96855,-253131922.47810,192007655.84708,  -0.00146,  -0.00045,   0.00293,476795956.08130,   0.00030,274971163.11165,  -0.00020,  -0.00005,   0.00044,   0.00000,   2.00000
-385089744.29462,-252607627.27430,192160364.81673,  -0.00146,  -0.00045,   0.00294,476779703.58496,   0.00031,274978878.83948,  -0.00020,  -0.00005,   0.00045,   0.00000,   2.00000
-384886247.36637,-252085052.22360,192312282.77130,  -0.00147,  -0.00045,   0.00296,476788175.98109,   0.00032,274986599.29830,  -0.00021,  -0.00005,   0.00046,   0.00000,   2.00000
-384677074.08826,-251564116.63422,192466032.59199,  -0.00147,  -0.00045,   0.00297,476777065.31503,   0.00032,274994240.89110,  -0.00021,  -0.00006,   0.00047,   0.00000,   2.00000
-384462229.09499,-251044770.48275,192621617.94030,  -0.00147,  -0.00045,   0.00298,476765874.27212,   0.00033,275001803.59532,  -0.00022,  -0.00006,   0.00048,   0.00000,   2.00000
-384244385.34396,-250509744.42937,192779628.67667,  -0.00148,  -0.00045,   0.00299,476766806.02409,   0.00034,275009339.53938,  -0.00022,  -0.00006,   0.00049,  -0.00000,   2.00000
-384026228.29870,-249979474.53007,192936708.93782,  -0.00148,  -0.00045,   0.00301,476748332.80911,   0.00034,275016765.93469,  -0.00022,  -0.00006,   0.00050,  -0.00000,   2.00000
-383796978.71693,-249447495.57986,193098385.06445,  -0.00149,  -0.00045,   0.00302,476744163.48320,   0.00035,275024144.34926,  -0.00023,  -0.00006,   0.00051,   0.00000,   2.00000
-383568064.75386,-248917158.13652,193259249.85584,  -0.00149,  -0.00045,   0.00303,476752322.95552,   0.00036,275031527.63564,  -0.00023,  -0.00006,   0.00052,   0.00000,   2.00000
-383318631.43990,-248367439.81475,193430539.67669,  -0.00150,  -0.00044,   0.00304,476721241.49078,   0.00036,275038748.19210,  -0.00024,  -0.00006,   0.00053,   0.00000,   2.00000
-383078348.96710,-247839964.90387,193595051.93632,  -0.00150,  -0.00044,   0.00305,476729351.55319,   0.00037,275045974.08056,  -0.00024,  -0.00006,   0.00054,  -0.00000,   2.00000
-382828935.66851,-247296373.58527,193764595.59123,  -0.00151,  -0.00044,   0.00306,476710500.24834,   0.00038,275053090.07844,  -0.00025,  -0.00006,   0.00055,  -0.00000,   2.00000
-382573798.18303,-246754093.81509,193935970.26903,  -0.00151,  -0.00044,   0.00308,476698853.31383,   0.00038,275060127.43148,  -0.00025,  -0.00006,   0.00056,   0.00000,   2.00000
-382319021.67883,-246213379.77855,194106509.95443,  -0.00151,  -0.00044,   0.00309,476706705.48898,   0.00039,275067169.83847,  -0.00025,  -0.00007,   0.00056,   0.00000,   2.00000
-382058508.76420,-245673901.00068,194278894.77250,  -0.00152,  -0.00044,   0.00310,476694981.87649,   0.00040,275074133.53653,  -0.00026,  -0.00007,   0.00057,   0.00000,   2.00000
-381783365.97505,-245114944.74239,194459000.36828,  -0.00152,  -0.00044,   0.00311,476683245.80069,   0.00040,275081018.86885,  -0.00026,  -0.00007,   0.00058,   0.00000,   2.00000
-381511377.71968,-244577843.20835,194635059.33287,  -0.00153,  -0.00044,   0.00312,476671333.77535,   0.00041,275087825.31277,  -0.00027,  -0.00007,   0.00059,  -0.00000,   2.00000
-381224711.82025,-244021140.54873,194818826.84435,  -0.00153,  -0.00044,   0.00313,476659493.66290,   0.00042,275094553.57057,  -0.00027,  -0.00007,   0.00060,   0.00000,   2.00000
-380943824.21403,-243469075.55080,194999022.35319,  -0.00153,  -0.00043,   0.00314,476659803.04544,   0.00042,275101255.93845,  -0.00027,  -0.00007,   0.00061,   0.00000,   2.00000
-380640194.36444,-242911343.52983,195189155.93679,  -0.00154,  -0.00043,   0.00316,476642802.20067,   0.00043,275107858.44131,  -0.00028,  -0.00007,   0.00062,   0.00000,   2.00000
-380347759.67257,-242361320.95106,195373022.65898,  -0.00154,  -0.00043,   0.00317,476635689.71210,   0.00043,275114403.77532,  -0.00028,  -0.00007,   0.00063,   0.00000,   2.00000
-380040514.42441,-241791507.35811,195564555.18507,  -0.00154,  -0.00043,   0.00318,476623734.94888,   0.00044,275120871.49361,  -0.00029,  -0.00007,   0.00064,   0.00000,   2.00000
-379742674.85975,-241243884.61298,195749397.39447,  -0.00155,  -0.00043,   0.00319,476630871.54924,   0.00045,275127343.64295,  -0.00029,  -0.00007,   0.00064,  -0.00000,   2.00000
-379423735.36066,-240675830.01833,195944623.08989,  -0.00155,  -0.00043,   0.00320,476599333.70749,   0.00045,275133654.48786,  -0.00029,  -0.00007,   0.00065,   0.00000,   2.00000
-379105189.47244,-240109170.87177,196138952.46043,  -0.00155,  -0.00043,   0.00321,476606557.58570,   0.00046,275139970.87288,  -0.00030,  -0.00007,   0.00066,  -0.00000,   2.00000
-378774515.32728,-239542722.61083,196337863.01430,  -0.00156,  -0.00043,   0.00322,476574668.99018,   0.00046,275146125.01756,  -0.00030,  -0.00007,   0.00067,   0.00000,   2.00000
-378444240.78249,-238977615.96497,196535876.10681,  -0.00156,  -0.00042,   0.00323,476581741.74492,   0.00047,275152284.71204,  -0.00030,  -0.00008,   0.00068,   0.00000,   2.00000
-378108072.82053,-238413209.48026,196735743.90674,  -0.00156,  -0.00042,   0.00324,476569263.54782,   0.00047,275158366.02843,  -0.00031,  -0.00008,   0.00069,   0.00000,   2.00000
-377773959.48163,-237835469.07584,196935159.31022,  -0.00157,  -0.00042,   0.00325,476561940.48524,   0.00048,275164391.41904,  -0.00031,  -0.00008,   0.00069,   0.00000,   2.00000
-377422165.64785,-237254603.38936,197141834.89410,  -0.00157,  -0.00042,   0.00327,476537176.00745,   0.00048,275170286.24153,  -0.00031,  -0.00008,   0.00070,   0.00000,   2.00000
-377074535.19796,-236692788.01313,197344520.05607,  -0.00157,  -0.00042,   0.00328,476550962.86916,   0.00049,275176216.53014,  -0.00032,  -0.00008,   0.00071,  -0.00000,   2.00000
-376705390.46331,-236109912.05581,197557548.72504,  -0.00158,  -0.00042,   0.00329,476519203.51618,   0.00050,275181986.54475,  -0.00032,  -0.00008,   0.00072,  -0.00000,   2.00000
-376347422.08551,-235534396.22945,197764403.68686,  -0.00158,  -0.00042,   0.00330,476511187.86390,   0.00050,275187698.89488,  -0.00033,  -0.00008,   0.00073,  -0.00000,   2.00000
-375978033.61452,-234956262.40225,197975756.45117,  -0.00158,  -0.00042,   0.00331,476505714.69139,   0.00051,275193364.75428,  -0.00033,  -0.00008,   0.00073,  -0.00000,   2.00000
-375597215.62919,-234375475.23098,198191589.77472,  -0.00158,  -0.00041,   0.00332,476500226.88219,   0.00051,275198984.26019,  -0.00033,  -0.00008,   0.00074,   0.00000,   2.00000
-375211860.54632,-233780233.27510,198409728.86006,  -0.00159,  -0.00041,   0.00333,476473069.64130,   0.00052,275204464.41259,  -0.00033,  -0.00008,   0.00075,  -0.00000,   2.00000
-374824296.63059,-233203166.62765,198626691.51916,  -0.00159,  -0.00041,   0.00334,476466865.43001,   0.00052,275209895.85455,  -0.00034,  -0.00008,   0.00076,   0.00000,   2.00000
-374421319.44013,-232605428.74748,198851164.80231,  -0.00159,  -0.00041,   0.00335,476454398.79116,   0.00053,275215251.88406,  -0.00034,  -0.00008,   0.00076,   0.00000,   2.00000
-374033417.66285,-232032769.31255,199066492.21009,  -0.00159,  -0.00041,   0.00336,476452712.43721,   0.00053,275220579.11052,  -0.00034,  -0.00008,   0.00077,   0.00000,   2.00000
-373618101.57165,-231435370.19753,199294730.12222,  -0.00160,  -0.00041,   0.00337,476428119.16269,   0.00054,275225779.09264,  -0.00035,  -0.00008,   0.00078,   0.00000,   2.00000
-373208522.36023,-230842065.29028,199519443.17504,  -0.00160,  -0.00041,   0.00338,476426932.85260,   0.00054,275230953.11528,  -0.00035,  -0.00008,   0.00078,   0.00000,   2.00000
-372792720.46935,-230248838.90000,199746049.76902,  -0.00160,  -0.00040,   0.00339,476413646.97806,   0.00054,275236049.14429,  -0.00035,  -0.00008,   0.00079,   0.00000,   2.00000
-372358693.60808,-229651617.47618,199979946.36014,  -0.00160,  -0.00040,   0.00340,476388263.68211,   0.00055,275241015.36499,  -0.00036,  -0.00008,   0.00080,   0.00000,   2.00000
-371930382.97566,-229058393.99735,200210336.74772,  -0.00160,  -0.00040,   0.00341,476386839.20374,   0.00055,275245955.54275,  -0.00036,  -0.00009,   0.00080,  -0.00000,   2.00000
-371486319.73115,-228444107.02075,200448171.20554,  -0.00161,  -0.00040,   0.00342,476374178.88261,   0.00056,275250821.37480,  -0.00036,  -0.00009,   0.00081,   0.00000,   2.00000
-371045365.39373,-227850712.82224,200682362.09012,  -0.00161,  -0.00040,   0.00343,476359837.74955,   0.00056,275255605.83925,  -0.00036,  -0.00009,   0.00082,  -0.00000,   2.00000
-370598042.98497,-227257136.38636,200918473.52883,  -0.00161,  -0.00040,   0.00344,476346221.54915,   0.00057,275260312.37537,  -0.00037,  -0.00009,   0.00082,   0.00000,   2.00000
-370134816.31888,-226642307.43569,201162006.83777,  -0.00161,  -0.00040,   0.00345,476333449.65862,   0.00057,275264944.97636,  -0.00037,  -0.00009,   0.00083,   0.00000,   2.00000
-369677244.38278,-226031360.80358,201402049.12380,  -0.00161,  -0.00039,   0.00345,476331717.49173,   0.00058,275269551.56943,  -0.00037,  -0.00009,   0.00084,   0.00000,   2.00000
-369210606.16611,-225436992.56456,201643925.36343,  -0.00162,  -0.00039,   0.00346,476305091.60270,   0.00058,275274024.69837,  -0.00038,  -0.00009,   0.00084,  -0.00000,   2.00000
-368727903.41951,-224821182.62492,201893200.33306,  -0.00162,  -0.00039,   0.00347,476292213.49054,   0.00058,275278424.32158,  -0.00038,  -0.00009,   0.00085,   0.00000,   2.00000
-368250820.35828,-224209158.48449,202139004.19185,  -0.00162,  -0.00039,   0.00348,476290248.67297,   0.00059,275282797.86473,  -0.00038,  -0.00009,   0.00085,   0.00000,   2.00000
-367754950.69296,-223592451.69279,202392123.92439,  -0.00162,  -0.00039,   0.00349,476264443.85910,   0.00059,275287042.37067,  -0.00038,  -0.00009,   0.00086,   0.00000,   2.00000
-367252447.87633,-222975216.95290,202647164.74514,  -0.00162,  -0.00039,   0.00350,476250449.91099,   0.00060,275291209.40995,  -0.00039,  -0.00009,   0.00087,   0.00000,   2.00000
-366755523.63293,-222361671.74448,202898754.88294,  -0.00162,  -0.00039,   0.00351,476248254.82448,   0.00060,275295350.30218,  -0.00039,  -0.00009,   0.00087,  -0.00000,   2.00000
-366239624.46196,-221743221.28255,203157672.15099,  -0.00162,  -0.00038,   0.00352,476222311.86901,   0.00060,275299362.38408,  -0.00039,  -0.00009,   0.00088,  -0.00000,   2.00000
-365729272.99881,-221128396.33174,203413152.41183,  -0.00163,  -0.00038,   0.00353,476219964.77704,   0.00061,275303348.27880,  -0.00039,  -0.00009,   0.00088,  -0.00000,   2.00000
-365199815.10869,-220508517.56656,203675966.66958,  -0.00163,  -0.00038,   0.00354,476193933.22813,   0.00061,275307205.52710,  -0.00039,  -0.00009,   0.00089,  -0.00000,   2.00000
-364671517.33419,-219873971.85974,203938267.67302,  -0.00163,  -0.00038,   0.00354,476185046.16940,   0.00061,275311008.89863,  -0.00040,  -0.00009,   0.00089,   0.00000,   2.00000
-364140700.09715,-219256853.72840,204199616.71690,  -0.00163,  -0.00038,   0.00355,476177092.84607,   0.00062,275314762.61352,  -0.00040,  -0.00009,   0.00090,  -0.00000,   2.00000
-363590569.95974,-218634457.37301,204468309.17795,  -0.00163,  -0.00038,   0.00356,476150933.90449,   0.00062,275318387.94604,  -0.00040,  -0.00009,   0.00090,   0.00000,   2.00000
-363041479.54116,-217997249.01189,204736491.31689,  -0.00163,  -0.00038,   0.00357,476141882.13671,   0.00062,275321959.57820,  -0.00040,  -0.00009,   0.00091,  -0.00000,   2.00000
-362484439.77312,-217374471.58993,205006161.26524,  -0.00163,  -0.00037,   0.00358,476141351.53151,   0.00063,275325514.66496,  -0.00040,  -0.00009,   0.00091,   0.00000,   2.00000
-361908768.49166,-216730764.22569,205283648.00387,  -0.00163,  -0.00037,   0.00359,476101169.77622,   0.00063,275328881.20875,  -0.00041,  -0.00009,   0.00092,   0.00000,   2.00000
-361342947.86074,-216108758.43998,205554859.80979,  -0.00163,  -0.00037,   0.00359,476104512.22724,   0.00063,275332248.83675,  -0.00041,  -0.00009,   0.00092,  -0.00000,   2.00000
-360765476.94883,-215467262.68411,205830940.54118,  -0.00163,  -0.00037,   0.00360,476083582.38371,   0.00064,275335512.14885,  -0.00041,  -0.00009,   0.00093,   0.00000,   2.00000
-360167391.49607,-214835539.32144,206113871.94777,  -0.00163,  -0.00037,   0.00361,476071132.35297,   0.00064,275338708.37800,  -0.00041,  -0.00009,   0.00093,   0.00000,   2.00000
-359575436.06409,-214191574.08307,206393917.75234,  -0.00163,  -0.00037,   0.00362,476054107.91313,   0.00064,275341817.88706,  -0.00041,  -0.00009,   0.00094,   0.00000,   2.00000
-358980725.10693,-213564693.81396,206673108.80784,  -0.00163,  -0.00037,   0.00363,476045471.13719,   0.00064,275344877.44423,  -0.00042,  -0.00009,   0.00094,   0.00000,   2.00000
-358361415.84850,-212913446.83667,206962507.56167,  -0.00163,  -0.00036,   0.00363,476012803.04081,   0.00065,275347782.74426,  -0.00042,  -0.00009,   0.00094,   0.00000,   2.00000
-357741988.26542,-212262542.46247,207250887.11737,  -0.00163,  -0.00036,   0.00364,476017181.56927,   0.00065,275350695.54882,  -0.00042,  -0.00009,   0.00095,   0.00000,   2.00000
-357125050.25567,-211631441.92473,207536096.49843,  -0.00163,  -0.00036,   0.00365,476000632.05827,   0.00065,275353524.70306,  -0.00042,  -0.00009,   0.00095,   0.00000,   2.00000
-356483192.58790,-210975695.98669,207831498.92527,  -0.00163,  -0.00036,   0.00366,475967926.82300,   0.00066,275356200.19887,  -0.00042,  -0.00009,   0.00096,   0.00000,   2.00000
-355851159.19181,-210341500.54182,208120744.95773,  -0.00163,  -0.00036,   0.00366,475970445.23253,   0.00066,275358876.00809,  -0.00042,  -0.00009,   0.00096,   0.00000,   2.00000
-355193985.11480,-209682473.73135,208420173.25231,  -0.00163,  -0.00036,   0.00367,475937719.55932,   0.00066,275361398.57380,  -0.00042,  -0.00009,   0.00096,   0.00000,   2.00000
-354541892.40998,-209026459.59145,208716278.61288,  -0.00163,  -0.00035,   0.00368,475934009.26012,   0.00066,275363894.93703,  -0.00043,  -0.00010,   0.00097,   0.00000,   2.00000
-353873904.03175,-208382463.18319,209016933.68718,  -0.00163,  -0.00035,   0.00369,475913341.85601,   0.00066,275366291.23504,  -0.00043,  -0.00010,   0.00097,   0.00000,   2.00000
-353200875.27199,-207720087.10750,209319369.38582,  -0.00163,  -0.00035,   0.00369,475911284.16957,   0.00067,275368669.03819,  -0.00043,  -0.00010,   0.00097,   0.00000,   2.00000
-352512327.69291,-207053844.02611,209626872.45558,  -0.00163,  -0.00035,   0.00370,475876764.15822,   0.00067,275370886.73222,  -0.00043,  -0.00010,   0.00098,   0.00000,   2.00000
-351833556.36407,-206409046.54957,209928298.30702,  -0.00163,  -0.00035,   0.00371,475878748.65055,   0.00067,275373104.26472,  -0.00043,  -0.00010,   0.00098,  -0.00000,   2.00000
-351134253.19857,-205741628.41384,210237620.44471,  -0.00163,  -0.00035,   0.00371,475838136.19998,   0.00067,275375135.59032,  -0.00043,  -0.00010,   0.00098,   0.00000,   2.00000
-350426373.70141,-205087978.91417,210548450.62776,  -0.00163,  -0.00035,   0.00372,475836396.78896,   0.00067,275377151.24439,  -0.00043,  -0.00010,   0.00098,   0.00000,   2.00000
-349705432.37389,-204413607.77957,210864089.10879,  -0.00163,  -0.00034,   0.00373,475814958.15905,   0.00068,275379065.18131,  -0.00043,  -0.00010,   0.00099,   0.00000,   2.00000
-348994220.69271,-203760609.61434,211173702.53525,  -0.00163,  -0.00034,   0.00374,475816594.94382,   0.00068,275380978.66283,  -0.00044,  -0.00010,   0.00099,   0.00000,   2.00000
-348256675.54392,-203081836.93049,211493428.94617,  -0.00163,  -0.00034,   0.00374,475783827.11099,   0.00068,275382741.19011,  -0.00044,  -0.00010,   0.00099,   0.00000,   2.00000
-347520959.87143,-202422183.83847,211810244.95440,  -0.00162,  -0.00034,   0.00375,475766122.03289,   0.00068,275384419.21882,  -0.00044,  -0.00010,   0.00099,   0.00000,   2.00000
-346771506.30196,-201757454.41731,212131320.07481,  -0.00162,  -0.00034,   0.00375,475758284.03641,   0.00068,275386056.26374,  -0.00044,  -0.00010,   0.00100,   0.00000,   2.00000
-346008519.93717,-201071641.79329,212457183.19705,  -0.00162,  -0.00034,   0.00376,475736739.35104,   0.00068,275387592.43810,  -0.00044,  -0.00010,   0.00100,   0.90064,   1.00000
-345247197.67085,-200404802.67494,212780190.16147,  -0.00162,  -0.00034,   0.00377,475718817.06753,   0.00069,275389043.96865,  -0.00044,  -0.00010,   0.00100,   0.80091,   1.00000
-344471928.41880,-199732734.16886,213107430.63375,  -0.00162,  -0.00033,   0.00377,475710896.48988,   0.00069,275390455.01242,  -0.00044,  -0.00010,   0.00100,   0.75376,   1.00000
-343693167.29314,-199060813.67583,213434582.47524,  -0.00162,  -0.00033,   0.00378,475687071.58511,   0.00069,275391755.95662,  -0.00044,  -0.00010,   0.00100,   0.63810,   1.00000
-342892203.17832,-198381167.14750,213769070.26351,  -0.00162,  -0.00033,   0.00379,475660002.62937,   0.00069,275392932.96856,  -0.00044,  -0.00010,   0.00101,   0.52011,   1.00000
-342095685.73218,-197703929.57462,214100361.82813,  -0.00161,  -0.00033,   0.00379,475655109.63473,   0.00069,275394083.82947,  -0.00044,  -0.00010,   0.00101,   0.49516,   1.00000
-341284928.23023,-197021256.14199,214435848.55498,  -0.00161,  -0.00033,   0.00380,475647091.60323,   0.00069,275395194.91281,  -0.00044,  -0.00010,   0.00101,   0.45953,   1.00000
-340456860.08952,-196333301.51149,214776533.43543,  -0.00161,  -0.00033,   0.00380,475612034.20722,   0.00069,275396147.57025,  -0.00044,  -0.00010,   0.00101,   0.33635,   1.00000
-339633101.90405,-195647650.28804,215114039.35937,  -0.00161,  -0.00033,   0.00381,475606961.61786,   0.00069,275397074.15165,  -0.00044,  -0.00010,   0.00101,   0.31679,   1.00000
-338786549.83905,-194953861.59485,215458854.64149,  -0.00161,  -0.00032,   0.00381,475579849.76050,   0.00069,275397877.84523,  -0.00044,  -0.00010,   0.00101,   0.23726,   1.00000
-337930620.99558,-194257062.60354,215805726.55341,  -0.00160,  -0.00032,   0.00382,475563700.42982,   0.00069,275398607.31197,  -0.00045,  -0.00010,   0.00101,   0.19456,   1.00000
-337089341.32996,-193583981.19577,216144711.80636,  -0.00160,  -0.00032,   0.00383,475555959.46891,   0.00069,275399299.81034,  -0.00045,  -0.00010,   0.00102,   0.17456,   1.00000
-336214430.35219,-192880995.24459,216495726.93308,  -0.00160,  -0.00032,   0.00383,475531285.42765,   0.00070,275399880.92783,  -0.00045,  -0.00010,   0.00102,   0.12234,   1.00000
-335335191.68291,-192193709.73365,216846146.71780,  -0.00160,  -0.00032,   0.00384,475520581.33084,   0.00070,275400412.58983,  -0.00045,  -0.00010,   0.00102,   0.10193,   1.00000
-334451456.85444,-191505833.03235,217196606.34560,  -0.00159,  -0.00032,   0.00384,475496189.15855,   0.00070,275400834.65118,  -0.00045,  -0.00010,   0.00102,   0.06393,   1.00000
-333547381.32637,-190793104.85784,217553803.14489,  -0.00159,  -0.00032,   0.00385,475482448.17882,   0.00070,275401194.46102,  -0.00045,  -0.00010,   0.00102,   0.04623,   1.00000
-332643959.69987,-190098568.08280,217908411.78298,  -0.00159,  -0.00031,   0.00385,475463466.72535,   0.00070,275401469.12211,  -0.00045,  -0.00010,   0.00102,   0.02681,   1.00000
-331716699.93633,-189395204.04145,218270277.90511,  -0.00159,  -0.00031,   0.00386,475436282.52686,   0.00070,275401622.74075,  -0.00045,  -0.00010,   0.00102,   0.00834,   1.00000
-330788045.18310,-188691147.33088,218631009.22569,  -0.00158,  -0.00031,   0.00386,475438745.43445,   0.00070,275401786.62297,  -0.00045,  -0.00010,   0.00102,   0.00945,   1.00000
-329854387.63206,-187986162.83916,218991823.94849,  -0.00158,  -0.00031,   0.00387,475414163.91434,   0.00070,275401841.28836,  -0.00045,  -0.00010,   0.00102,   0.00105,   1.00000
-328896010.48403,-187288085.65726,219352694.35608,  -0.00158,  -0.00031,   0.00387,475392387.52994,   0.00070,275401841.28836,  -0.00045,  -0.00010,   0.00102,-9453.75841,   0.00000
-327928759.47352,-186569302.79624,219707648.85535,  -0.00157,  -0.00031,   0.00388,475371737.60178,   0.00070,275401841.28836,  -0.00045,  -0.00010,   0.00102,-30103.68657,   0.00000
-326928970.96724,-185853477.88938,220056687.44630,  -0.00157,  -0.00031,   0.00388,475329378.53001,   0.00070,275401841.28836,  -0.00045,  -0.00010,   0.00102,-72462.75834,   0.00000
-325899602.91935,-185108073.44091,220393894.22060,  -0.00157,  -0.00030,   0.00388,475257096.98394,   0.00070,275401841.28836,  -0.00045,  -0.00010,   0.00102,-144744.30441,   0.00000
-324858403.05483,-184374500.80909,220731100.99491,  -0.00157,  -0.00030,   0.00389,475182059.34814,   0.00070,275401841.28836,  -0.00045,  -0.00010,   0.00102,-219781.94022,   0.00000
-323796497.51118,-183632054.31478,221062391.86090,  -0.00156,  -0.00030,   0.00389,475090760.21350,   0.00070,275401841.28836,  -0.00045,  -0.00010,   0.00102,-311081.07485,   0.00000
-322713886.28841,-182880733.95799,221381850.91024,  -0.00156,  -0.00030,   0.00390,474974983.14211,   0.00070,275401841.28836,  -0.00045,  -0.00010,   0.00102,-426858.14624,   0.00000
-321610569.38651,-182120539.73872,221695394.05126,  -0.00155,  -0.00030,   0.00390,474843028.88862,   0.00070,275401841.28836,  -0.00045,  -0.00010,   0.00102,-558812.39973,   0.00000
-320495420.66797,-181372177.33610,222008937.19228,  -0.00155,  -0.00030,   0.00391,474708472.31508,   0.00070,275401841.28836,  -0.00045,  -0.00010,   0.00102,-693368.97328,   0.00000
-319329986.72870,-180585361.52938,222310648.51666,  -0.00155,  -0.00030,   0.00391,474533945.52336,   0.00070,275401841.28836,  -0.00045,  -0.00010,   0.00102,-867895.76499,   0.00000
-318173426.65191,-179819251.40179,222606443.93272,  -0.00154,  -0.00030,   0.00391,474359011.55849,   0.00070,275401841.28836,  -0.00045,  -0.00010,   0.00102,-1042829.72987,   0.00000
-316975455.21687,-179035393.54923,222896323.44046,  -0.00154,  -0.00029,   0.00392,474157778.58524,   0.00070,275401841.28836,  -0.00045,  -0.00010,   0.00102,-1244062.70311,   0.00000
-315768609.91935,-178230830.01756,223180287.03987,  -0.00154,  -0.00029,   0.00392,473945844.91198,   0.00070,275401841.28836,  -0.00045,  -0.00010,   0.00102,-1455996.37637,   0.00000
-314538100.98855,-177449930.11916,223458334.73097,  -0.00153,  -0.00029,   0.00392,473718073.02948,   0.00070,275401841.28836,  -0.00045,  -0.00010,   0.00102,-1683768.25888,   0.00000
-313278012.51614,-176639450.67916,223730466.51374,  -0.00153,  -0.00029,   0.00393,473469447.33632,   0.00070,275401841.28836,  -0.00045,  -0.00010,   0.00102,-1932393.95204,   0.00000
-311997218.36461,-175820097.37668,223990766.47987,  -0.00152,  -0.00029,   0.00393,473196766.68317,   0.00070,275401841.28836,  -0.00045,  -0.00010,   0.00102,-2205074.60519,   0.00000
-310704592.39643,-175012575.89084,224251066.44601,  -0.00152,  -0.00029,   0.00393,472921935.21371,   0.00070,275401841.28836,  -0.00045,  -0.00010,   0.00102,-2479906.07465,   0.00000
-309391260.74913,-174196180.54252,224499534.59549,  -0.00151,  -0.00029,   0.00394,472623114.89028,   0.00070,275401841.28836,  -0.00045,  -0.00010,   0.00102,-2778726.39808,   0.00000
-308048349.56023,-173350205.65259,224742086.83666,  -0.00151,  -0.00029,   0.00394,472303770.37079,   0.00070,275401841.28836,  -0.00045,  -0.00010,   0.00102,-3098070.91757,   0.00000
-306702480.41716,-172536768.25843,224984639.07783,  -0.00151,  -0.00028,   0.00394,471987453.82693,   0.00070,275401841.28836,  -0.00045,  -0.00010,   0.00102,-3414387.46143,   0.00000
-305306326.05337,-171684877.46018,225215359.50236,  -0.00150,  -0.00028,   0.00395,471632319.89311,   0.00070,275401841.28836,  -0.00045,  -0.00010,   0.00102,-3769521.39524,   0.00000
-303910171.68957,-170832986.66193,225440164.01856,  -0.00150,  -0.00028,   0.00395,471271919.53234,   0.00070,275401841.28836,  -0.00045,  -0.00010,   0.00102,-4129921.75602,   0.00000
-302481479.83001,-169984053.81785,225659052.62644,  -0.00149,  -0.00028,   0.00395,470891303.95768,   0.00070,275401841.28836,  -0.00045,  -0.00010,   0.00102,-4510537.33067,   0.00000
-301032082.29132,-169126247.11128,225872025.32601,  -0.00149,  -0.00028,   0.00396,470495580.39070,   0.00070,275401841.28836,  -0.00045,  -0.00010,   0.00102,-4906260.89765,   0.00000
-299582684.75264,-168268440.40471,226079082.11725,  -0.00148,  -0.00028,   0.00396,470094667.08013,   0.00070,275401841.28836,  -0.00045,  -0.00010,   0.00102,-5307174.20823,   0.00000
-298091875.85570,-167392885.97317,226274307.09184,  -0.00148,  -0.00028,   0.00396,469660378.88099,   0.00070,275401841.28836,  -0.00045,  -0.00010,   0.00102,-5741462.40736,   0.00000
-296580361.27964,-166508457.67916,226469532.06644,  -0.00147,  -0.00028,   0.00396,469219762.48240,   0.00070,275401841.28836,  -0.00045,  -0.00010,   0.00102,-6182078.80596,   0.00000
-295057014.88694,-165635861.20179,226652925.22440,  -0.00147,  -0.00028,   0.00397,468760603.42562,   0.00070,275401841.28836,  -0.00045,  -0.00010,   0.00102,-6641237.86273,   0.00000
-293492257.13599,-164745516.99945,226836318.38236,  -0.00146,  -0.00027,   0.00397,468285599.54880,   0.00070,275401841.28836,  -0.00045,  -0.00010,   0.00102,-7116241.73956,   0.00000
-291927499.38504,-163855172.79712,227007879.72367,  -0.00146,  -0.00027,   0.00397,467797054.35533,   0.00070,275401841.28836,  -0.00045,  -0.00010,   0.00102,-7604786.93303,   0.00000
-290342035.95497,-162955954.73230,227173525.15666,  -0.00145,  -0.00027,   0.00397,467293921.37449,   0.00070,275401841.28836,  -0.00045,  -0.00010,   0.00102,-8107919.91387,   0.00000
-288724035.02913,-162059694.62164,227339170.58966,  -0.00144,  -0.00027,   0.00397,466780119.03978,   0.00070,275401841.28836,  -0.00045,  -0.00010,   0.00102,-8621722.24858,   0.00000
-287076454.56169,-161133854.96938,227492984.20601,  -0.00144,  -0.00027,   0.00398,466238616.77836,   0.00070,275401841.28836,  -0.00045,  -0.00010,   0.00102,-9163224.51000,   0.00000
-285437747.95672,-160228720.99624,227640881.91403,  -0.00143,  -0.00027,   0.00398,465697046.44473,   0.00070,275401841.28836,  -0.00045,  -0.00010,   0.00102,-9704794.84363,   0.00000
-283757629.99351,-159305839.29814,227782863.71374,  -0.00143,  -0.00027,   0.00398,465131803.48752,   0.00070,275401841.28836,  -0.00045,  -0.00010,   0.00102,-10270037.80084,   0.00000
-282065680.21366,-158394789.41668,227918929.60513,  -0.00142,  -0.00027,   0.00398,464557142.52035,   0.00070,275401841.28836,  -0.00045,  -0.00010,   0.00102,-10844698.76800,   0.00000
-280344150.89219,-157454159.99361,228043163.67987,  -0.00142,  -0.00027,   0.00398,463955122.99606,   0.00070,275401841.28836,  -0.00045,  -0.00010,   0.00102,-11446718.29230,   0.00000
-278610789.75409,-156525362.38719,228167397.75462,  -0.00141,  -0.00027,   0.00399,463352555.40565,   0.00070,275401841.28836,  -0.00045,  -0.00010,   0.00102,-12049285.88271,   0.00000
-276856722.93687,-155587690.91828,228285715.92104,  -0.00140,  -0.00027,   0.00399,462736189.03693,   0.00070,275401841.28836,  -0.00045,  -0.00010,   0.00102,-12665652.25142,   0.00000
-275081950.44052,-154641145.58689,228392202.27082,  -0.00140,  -0.00026,   0.00399,462097359.43255,   0.00070,275401841.28836,  -0.00045,  -0.00010,   0.00102,-13304481.85580,   0.00000
-273274640.44840,-153697558.20967,228498688.62060,  -0.00139,  -0.00026,   0.00399,461449104.08222,   0.00070,275401841.28836,  -0.00045,  -0.00010,   0.00102,-13952737.20614,   0.00000
-271467330.45628,-152753970.83244,228593343.15374,  -0.00138,  -0.00026,   0.00399,460787721.22776,   0.00070,275401841.28836,  -0.00045,  -0.00010,   0.00102,-14614120.06059,   0.00000
-269618609.10592,-151792635.73025,228687997.68688,  -0.00138,  -0.00026,   0.00399,460112682.04445,   0.00070,275401841.28836,  -0.00045,  -0.00010,   0.00102,-15289159.24390,   0.00000
-267749182.07643,-150822426.76558,228770820.40338,  -0.00137,  -0.00026,   0.00399,459415620.45374,   0.00070,275401841.28836,  -0.00045,  -0.00010,   0.00102,-15986220.83462,   0.00000
-265879755.04694,-149852217.80091,228847727.21155,  -0.00136,  -0.00026,   0.00399,458714406.91481,   0.00070,275401841.28836,  -0.00045,  -0.00010,   0.00102,-16687434.37355,   0.00000
-263977790.52168,-148884966.79040,228918718.11141,  -0.00136,  -0.00026,   0.00400,457995656.26212,   0.00070,275401841.28836,  -0.00045,  -0.00010,   0.00102,-17406185.02623,   0.00000
-262055120.31730,-147908841.91740,228983793.10294,  -0.00135,  -0.00026,   0.00400,457264009.89870,   0.00070,275401841.28836,  -0.00045,  -0.00010,   0.00102,-18137831.38966,   0.00000
-260120618.29628,-146944548.86105,229042952.18615,  -0.00134,  -0.00026,   0.00400,456523987.79939,   0.00070,275401841.28836,  -0.00045,  -0.00010,   0.00102,-18877853.48897,   0.00000
-258156536.73365,-145950676.26310,229096195.36104,  -0.00134,  -0.00026,   0.00400,455766910.19497,   0.00070,275401841.28836,  -0.00045,  -0.00010,   0.00102,-19634931.09339,   0.00000
-256180623.35438,-144968635.48178,229143522.62761,  -0.00133,  -0.00026,   0.00400,455001674.21418,   0.00070,275401841.28836,  -0.00045,  -0.00010,   0.00102,-20400167.07418,   0.00000
-254184004.29599,-143977720.83799,229184933.98586,  -0.00132,  -0.00026,   0.00400,454224020.08694,   0.00070,275401841.28836,  -0.00045,  -0.00010,   0.00102,-21177821.20141,   0.00000
-252145973.87934,-142969058.46923,229220429.43579,  -0.00132,  -0.00026,   0.00400,453425503.42144,   0.00070,275401841.28836,  -0.00045,  -0.00010,   0.00102,-21976337.86692,   0.00000
-250116817.32518,-141981101.77959,229250008.97739,  -0.00131,  -0.00026,   0.00400,452627765.52306,   0.00070,275401841.28836,  -0.00045,  -0.00010,   0.00102,-22774075.76530,   0.00000
-248066955.09190,-140984271.22748,229273672.61068,  -0.00130,  -0.00026,   0.00400,451817984.28131,   0.00070,275401841.28836,  -0.00045,  -0.00010,   0.00102,-23583857.00705,   0.00000
-245975681.50037,-139969692.95040,229291420.33564,  -0.00129,  -0.00025,   0.00400,450987889.57125,   0.00070,275401841.28836,  -0.00045,  -0.00010,   0.00102,-24413951.71710,   0.00000
-243872576.09219,-138966946.48996,229297336.24396,  -0.00129,  -0.00025,   0.00400,450141337.33767,   0.00070,275401841.28836,  -0.00045,  -0.00010,   0.00102,-25260503.95069,   0.00000
-241760596.82153,-137943494.35040,229303252.15228,  -0.00128,  -0.00025,   0.00400,449296379.49815,   0.00070,275401841.28836,  -0.00045,  -0.00010,   0.00102,-26105461.79021,   0.00000
-239616080.05511,-136923000.16499,229303252.15228,  -0.00127,  -0.00025,   0.00400,448435910.21358,   0.00070,275401841.28836,  -0.00045,  -0.00010,   0.00102,-26965931.07478,   0.00000
-237459731.47204,-135914337.79624,229291420.33564,  -0.00126,  -0.00025,   0.00400,447559287.08013,   0.00070,275401841.28836,  -0.00045,  -0.00010,   0.00102,-27842554.20822,   0.00000
-235273803.34737,-134876095.88587,229279588.51900,  -0.00125,  -0.00025,   0.00400,446676505.82671,   0.00070,275401841.28836,  -0.00045,  -0.00010,   0.00102,-28725335.46164,   0.00000
-233076043.40606,-133849685.79215,229255924.88571,  -0.00125,  -0.00025,   0.00400,445777817.42311,   0.00070,275401841.28836,  -0.00045,  -0.00010,   0.00102,-29624023.86524,   0.00000
-230866451.64810,-132835107.51507,229232261.25243,  -0.00124,  -0.00025,   0.00400,444881560.81763,   0.00070,275401841.28836,  -0.00045,  -0.00010,   0.00102,-30520280.47072,   0.00000
-228627280.34854,-131790949.69638,229196765.80250,  -0.00123,  -0.00025,   0.00400,443961432.67269,   0.00070,275401841.28836,  -0.00045,  -0.00010,   0.00102,-31440408.61566,   0.00000
-226376277.23233,-130758623.69434,229161270.35258,  -0.00122,  -0.00025,   0.00400,443044071.85389,   0.00070,275401841.28836,  -0.00045,  -0.00010,   0.00102,-32357769.43446,   0.00000
-224104568.43700,-129717423.82981,229113943.08601,  -0.00121,  -0.00025,   0.00400,442107223.53575,   0.00070,275401841.28836,  -0.00045,  -0.00010,   0.00102,-33294617.75260,   0.00000
-221821027.82503,-128688055.78193,229066615.81944,  -0.00121,  -0.00025,   0.00400,441173447.44765,   0.00070,275401841.28836,  -0.00045,  -0.00010,   0.00102,-34228393.84071,   0.00000
-219507907.67146,-127629108.19244,229007456.73622,  -0.00120,  -0.00025,   0.00400,440216489.93806,   0.00070,275401841.28836,  -0.00045,  -0.00010,   0.00102,-35185351.35030,   0.00000
-217171123.88459,-126593824.23623,228948297.65301,  -0.00119,  -0.00025,   0.00400,439259307.57636,   0.00070,275401841.28836,  -0.00045,  -0.00010,   0.00102,-36142533.71200,   0.00000
-214825466.23525,-125537834.60091,228877306.75316,  -0.00118,  -0.00025,   0.00399,438286971.80148,   0.00070,275401841.28836,  -0.00045,  -0.00010,   0.00102,-37114869.48687,   0.00000
-212467976.76927,-124493676.78222,228806315.85331,  -0.00117,  -0.00025,   0.00399,437318405.29274,   0.00070,275401841.28836,  -0.00045,  -0.00010,   0.00102,-38083435.99562,   0.00000
-210069075.94503,-123431771.23857,228723493.13681,  -0.00116,  -0.00025,   0.00399,436323881.57338,   0.00070,275401841.28836,  -0.00045,  -0.00010,   0.00102,-39077959.71498,   0.00000
-207670175.12080,-122369865.69492,228640670.42031,  -0.00115,  -0.00025,   0.00399,435337090.92756,   0.00070,275401841.28836,  -0.00045,  -0.00010,   0.00102,-40064750.36079,   0.00000
-205238736.80080,-121310918.10543,228546015.88717,  -0.00114,  -0.00025,   0.00399,434328703.26144,   0.00070,275401841.28836,  -0.00045,  -0.00010,   0.00102,-41073138.02691,   0.00000
-202807298.48080,-120251970.51594,228451361.35404,  -0.00113,  -0.00025,   0.00399,433328320.06026,   0.00070,275401841.28836,  -0.00045,  -0.00010,   0.00102,-42073521.22809,   0.00000
-200334448.80255,-119175275.20149,228350790.91258,  -0.00113,  -0.00025,   0.00399,432312358.90174,   0.00070,275401841.28836,  -0.00045,  -0.00010,   0.00102,-43089482.38662,   0.00000
-197849767.30766,-118110411.70368,228238388.65447,  -0.00112,  -0.00025,   0.00399,431282701.33532,   0.00070,275401841.28836,  -0.00045,  -0.00010,   0.00102,-44119139.95303,   0.00000
-195365085.81277,-117045548.20587,228125986.39637,  -0.00111,  -0.00025,   0.00398,430261502.51696,   0.00070,275401841.28836,  -0.00045,  -0.00010,   0.00102,-45140338.77140,   0.00000
-192838992.95963,-115962936.98309,228007668.22995,  -0.00110,  -0.00025,   0.00398,429225575.06041,   0.00070,275401841.28836,  -0.00045,  -0.00010,   0.00102,-46176266.22794,   0.00000
-190301068.28985,-114892157.57696,227877518.24688,  -0.00109,  -0.00025,   0.00398,428176475.42456,   0.00070,275401841.28836,  -0.00045,  -0.00010,   0.00102,-47225365.86380,   0.00000
-187763143.62006,-113821378.17083,227747368.26382,  -0.00108,  -0.00025,   0.00398,427136319.81787,   0.00070,275401841.28836,  -0.00045,  -0.00010,   0.00102,-48265521.47048,   0.00000
-185183807.59204,-112732851.03974,227611302.37243,  -0.00107,  -0.00025,   0.00398,426082333.12895,   0.00070,275401841.28836,  -0.00045,  -0.00010,   0.00102,-49319508.15941,   0.00000
-182592639.74736,-111656155.72528,227469320.57272,  -0.00106,  -0.00025,   0.00398,425025237.35513,   0.00070,275401841.28836,  -0.00045,  -0.00010,   0.00102,-50376603.93323,   0.00000
-179980766.22357,-110570586.54835,227321422.86469,  -0.00105,  -0.00025,   0.00397,423961601.81199,   0.00070,275401841.28836,  -0.00045,  -0.00010,   0.00102,-51440239.47636,   0.00000
-177368892.69977,-109485017.37141,227167609.24834,  -0.00104,  -0.00025,   0.00397,422898125.91545,   0.00070,275401841.28836,  -0.00045,  -0.00010,   0.00102,-52503715.37291,   0.00000
-174724481.68021,-108402406.14864,227007879.72367,  -0.00103,  -0.00025,   0.00397,421825679.99107,   0.00070,275401841.28836,  -0.00045,  -0.00010,   0.00102,-53576161.29728,   0.00000
-172059364.98152,-107310921.06338,226842234.29068,  -0.00102,  -0.00025,   0.00397,420747439.32379,   0.00070,275401841.28836,  -0.00045,  -0.00010,   0.00102,-54654401.96456,   0.00000
-169382416.46619,-106231267.79477,226670672.94936,  -0.00101,  -0.00025,   0.00397,419667199.51387,   0.00070,275401841.28836,  -0.00045,  -0.00010,   0.00102,-55734641.77448,   0.00000
-166696594.08838,-105130908.84703,226499111.60805,  -0.00100,  -0.00025,   0.00396,418593885.18606,   0.00070,275401841.28836,  -0.00045,  -0.00010,   0.00102,-56807956.10230,   0.00000
-163978234.21481,-104033507.85346,226315718.45009,  -0.00099,  -0.00025,   0.00396,417503310.63150,   0.00070,275401841.28836,  -0.00045,  -0.00010,   0.00102,-57898530.65685,   0.00000
-161248042.52459,-102947938.67652,226126409.38382,  -0.00098,  -0.00025,   0.00396,416411472.90232,   0.00070,275401841.28836,  -0.00045,  -0.00010,   0.00102,-58990368.38604,   0.00000
-158497145.15524,-101853495.63711,225937100.31754,  -0.00097,  -0.00025,   0.00396,415324826.14574,   0.00070,275401841.28836,  -0.00045,  -0.00010,   0.00102,-60077015.14262,   0.00000
-155746247.78590,-100759052.59769,225741875.34294,  -0.00096,  -0.00025,   0.00395,414239808.39275,   0.00070,275401841.28836,  -0.00045,  -0.00010,   0.00102,-61162032.89561,   0.00000
-152962812.92079,-99667567.51243,225534818.55170,  -0.00095,  -0.00025,   0.00395,413138811.78637,   0.00070,275401841.28836,  -0.00045,  -0.00010,   0.00102,-62263029.50198,   0.00000
-150158672.37656,-98567208.56470,225327761.76046,  -0.00094,  -0.00025,   0.00395,412043930.88131,   0.00070,275401841.28836,  -0.00045,  -0.00010,   0.00102,-63357910.40705,   0.00000
-147354531.83232,-97466849.61696,225114789.06090,  -0.00093,  -0.00025,   0.00395,410951295.88930,   0.00070,275401841.28836,  -0.00045,  -0.00010,   0.00102,-64450545.39906,   0.00000
-144517853.79232,-96369448.62338,224895900.45301,  -0.00092,  -0.00025,   0.00394,409853477.38945,   0.00070,275401841.28836,  -0.00045,  -0.00010,   0.00102,-65548363.89890,   0.00000
-141681175.75232,-95272047.62981,224677011.84513,  -0.00091,  -0.00025,   0.00394,408768078.31897,   0.00070,275401841.28836,  -0.00045,  -0.00010,   0.00102,-66633762.96939,   0.00000
-138803086.35407,-94156898.91127,224446291.42060,  -0.00089,  -0.00026,   0.00394,407665259.03120,   0.00070,275401841.28836,  -0.00045,  -0.00010,   0.00102,-67736582.25715,   0.00000
-135933870.81831,-93062455.87185,224209655.08776,  -0.00088,  -0.00026,   0.00393,406568821.20711,   0.00070,275401841.28836,  -0.00045,  -0.00010,   0.00102,-68833020.08124,   0.00000
-133023243.92429,-91950265.10747,223973018.75491,  -0.00087,  -0.00026,   0.00393,405475340.21657,   0.00070,275401841.28836,  -0.00045,  -0.00010,   0.00102,-69926501.07179,   0.00000
-130121490.89276,-90858780.02221,223730466.51374,  -0.00086,  -0.00026,   0.00393,404388681.00067,   0.00070,275401841.28836,  -0.00045,  -0.00010,   0.00102,-71013160.28769,   0.00000
-127169452.64049,-89728841.53287,223481998.36425,  -0.00085,  -0.00026,   0.00392,403292918.11604,   0.00070,275401841.28836,  -0.00045,  -0.00010,   0.00102,-72108923.17231,   0.00000
-124235162.11319,-88640314.40178,223227614.30644,  -0.00084,  -0.00026,   0.00392,402207583.69268,   0.00070,275401841.28836,  -0.00045,  -0.00010,   0.00102,-73194257.59567,   0.00000
-121271292.04429,-87522207.72907,222967314.34031,  -0.00083,  -0.00026,   0.00392,401118687.79500,   0.00070,275401841.28836,  -0.00045,  -0.00010,   0.00102,-74283153.49336,   0.00000
-118295590.15874,-86415932.87302,222701098.46586,  -0.00082,  -0.00026,   0.00391,400032841.27767,   0.00070,275401841.28836,  -0.00045,  -0.00010,   0.00102,-75369000.01068,   0.00000
-115308056.45655,-85321489.83360,222434882.59141,  -0.00080,  -0.00026,   0.00391,398960249.05356,   0.00070,275401841.28836,  -0.00045,  -0.00010,   0.00102,-76441592.23479,   0.00000
-112299817.07524,-84218172.93170,222156834.90031,  -0.00079,  -0.00026,   0.00391,397878426.19476,   0.00070,275401841.28836,  -0.00045,  -0.00010,   0.00102,-77523415.09360,   0.00000
-109270872.01480,-83105982.16732,221878787.20922,  -0.00078,  -0.00026,   0.00390,396807577.09764,   0.00070,275401841.28836,  -0.00045,  -0.00010,   0.00102,-78594264.19072,   0.00000
-106221221.27524,-81984917.54046,221594823.60980,  -0.00077,  -0.00026,   0.00390,395738214.02285,   0.00070,275401841.28836,  -0.00045,  -0.00010,   0.00102,-79663627.26550,   0.00000
-103159738.71903,-80875684.73024,221310860.01038,  -0.00076,  -0.00026,   0.00390,394683650.33692,   0.00070,275401841.28836,  -0.00045,  -0.00010,   0.00102,-80718190.95143,   0.00000
-100098256.16283,-79766451.92002,221015064.59433,  -0.00075,  -0.00027,   0.00389,393625254.94963,   0.00070,275401841.28836,  -0.00045,  -0.00010,   0.00102,-81776586.33873,   0.00000
-97004236.11085,-78660177.06396,220719269.17827,  -0.00073,  -0.00027,   0.00389,392578479.09751,   0.00070,275401841.28836,  -0.00045,  -0.00010,   0.00102,-82823362.19084,   0.00000
-93910216.05888,-77553902.20791,220417557.85389,  -0.00072,  -0.00027,   0.00388,391538417.20342,   0.00070,275401841.28836,  -0.00045,  -0.00010,   0.00102,-83863424.08493,   0.00000
-90783658.51115,-76450585.30601,220109930.62119,  -0.00071,  -0.00027,   0.00388,390501018.55321,   0.00070,275401841.28836,  -0.00045,  -0.00010,   0.00102,-84900822.73515,   0.00000
-87657100.96341,-75347268.40411,219796387.48017,  -0.00070,  -0.00027,   0.00388,389470937.22054,   0.00070,275401841.28836,  -0.00045,  -0.00010,   0.00102,-85930904.06781,   0.00000
-84509837.73655,-74235077.63973,219476928.43082,  -0.00069,  -0.00027,   0.00387,388445017.21740,   0.00070,275401841.28836,  -0.00045,  -0.00010,   0.00102,-86956824.07096,   0.00000
-81341868.83056,-73114013.01287,219157469.38148,  -0.00067,  -0.00027,   0.00387,387433758.49893,   0.00070,275401841.28836,  -0.00045,  -0.00010,   0.00102,-87968082.78943,   0.00000
-78162068.10793,-72004780.20265,218832094.42381,  -0.00066,  -0.00027,   0.00386,386430344.79500,   0.00070,275401841.28836,  -0.00045,  -0.00010,   0.00102,-88971496.49335,   0.00000
-74970435.56866,-70907379.20907,218500803.55783,  -0.00065,  -0.00027,   0.00386,385435168.34556,   0.00070,275401841.28836,  -0.00045,  -0.00010,   0.00102,-89966672.94280,   0.00000
-71758097.35027,-69801104.35301,218169512.69184,  -0.00064,  -0.00028,   0.00386,384456022.28018,   0.00070,275401841.28836,  -0.00045,  -0.00010,   0.00102,-90945819.00817,   0.00000
-68545759.13187,-68694829.49696,217826390.00922,  -0.00062,  -0.00028,   0.00385,383475905.38601,   0.00070,275401841.28836,  -0.00045,  -0.00010,   0.00102,-91925935.90235,   0.00000
-65312715.23435,-67579680.77841,217483267.32659,  -0.00061,  -0.00028,   0.00385,382512570.09441,   0.00070,275401841.28836,  -0.00045,  -0.00010,   0.00102,-92889271.19394,   0.00000
-62047133.84107,-66467490.01404,217140144.64396,  -0.00060,  -0.00028,   0.00384,381566749.13529,   0.00070,275401841.28836,  -0.00045,  -0.00010,   0.00102,-93835092.15306,   0.00000
-58790426.31026,-65376004.92878,216785190.14469,  -0.00059,  -0.00028,   0.00384,380623579.20152,   0.00070,275401841.28836,  -0.00045,  -0.00010,   0.00102,-94778262.08684,   0.00000
-55504139.23786,-64254940.30192,216430235.64542,  -0.00057,  -0.00028,   0.00383,379696105.29619,   0.00070,275401841.28836,  -0.00045,  -0.00010,   0.00102,-95705735.99216,   0.00000
-52214894.21129,-63166413.17082,216069365.23783,  -0.00056,  -0.00028,   0.00383,378782358.52766,   0.00070,275401841.28836,  -0.00045,  -0.00010,   0.00102,-96619482.76070,   0.00000
-48916775.32223,-62057180.36060,215702578.92192,  -0.00055,  -0.00028,   0.00382,377877116.34088,   0.00070,275401841.28836,  -0.00045,  -0.00010,   0.00102,-97524724.94747,   0.00000
-45586118.93742,-60950905.50455,215335792.60600,  -0.00054,  -0.00029,   0.00382,376992178.46753,   0.00070,275401841.28836,  -0.00045,  -0.00010,   0.00102,-98409662.82082,   0.00000
-42255462.55260,-59844630.64849,214963090.38177,  -0.00052,  -0.00029,   0.00381,376119039.75083,   0.00070,275401841.28836,  -0.00045,  -0.00010,   0.00102,-99282801.53752,   0.00000
-38912974.35114,-58750187.60907,214584472.24922,  -0.00051,  -0.00029,   0.00381,375258773.06843,   0.00070,275401841.28836,  -0.00045,  -0.00010,   0.00102,-100143068.21993,   0.00000
-35549780.47055,-57646870.70717,214199938.20834,  -0.00050,  -0.00029,   0.00380,374409475.81592,   0.00070,275401841.28836,  -0.00045,  -0.00010,   0.00102,-100992365.47244,   0.00000
-32174754.77333,-56555385.62192,213815404.16746,  -0.00048,  -0.00029,   0.00380,373584196.67052,   0.00070,275401841.28836,  -0.00045,  -0.00010,   0.00102,-101817644.61783,   0.00000
-28790855.21362,-55443194.85754,213424954.21827,  -0.00047,  -0.00029,   0.00379,372769684.19310,   0.00070,275401841.28836,  -0.00045,  -0.00010,   0.00102,-102632157.09525,   0.00000
-25383292.02062,-54354667.72644,213034504.26907,  -0.00046,  -0.00030,   0.00379,371981371.90104,   0.00070,275401841.28836,  -0.00045,  -0.00010,   0.00102,-103420469.38732,   0.00000
-21966854.96515,-53245434.91622,212632222.50323,  -0.00044,  -0.00030,   0.00378,371194518.34598,   0.00070,275401841.28836,  -0.00045,  -0.00010,   0.00102,-104207322.94237,   0.00000
-18547459.95551,-52168739.60177,212235856.64571,  -0.00043,  -0.00030,   0.00378,370445899.68329,   0.00070,275401841.28836,  -0.00045,  -0.00010,   0.00102,-104955941.60507,   0.00000
-15119191.08340,-51071338.60819,211827658.97155,  -0.00042,  -0.00030,   0.00377,369699317.76384,   0.00070,275401841.28836,  -0.00045,  -0.00010,   0.00102,-105702523.52451,   0.00000
-11658384.71551,-49976895.56878,211419461.29739,  -0.00040,  -0.00030,   0.00377,368979029.20800,   0.00070,275401841.28836,  -0.00045,  -0.00010,   0.00102,-106422812.08036,   0.00000
-8197578.34763,-48882452.52936,211005347.71491,  -0.00039,  -0.00030,   0.00376,368274010.77796,   0.00070,275401841.28836,  -0.00045,  -0.00010,   0.00102,-107127830.51040,   0.00000
-4724940.16310,-47799841.30659,210591234.13243,  -0.00037,  -0.00031,   0.00376,367596656.91999,   0.00070,275401841.28836,  -0.00045,  -0.00010,   0.00102,-107805184.36836,   0.00000
-1231596.29945,-46708356.22133,210171204.64162,  -0.00036,  -0.00031,   0.00375,366935235.85669,   0.00070,275401841.28836,  -0.00045,  -0.00010,   0.00102,-108466605.43167,   0.00000
2282453.24332,-45607997.27359,209745259.24250,  -0.00035,  -0.00031,   0.00375,366290347.20222,   0.00070,275401841.28836,  -0.00045,  -0.00010,   0.00102,-109111494.08613,   0.00000
5787628.92361,-44528344.00498,209319313.84338,  -0.00033,  -0.00031,   0.00374,365674321.00662,   0.00070,275401841.28836,  -0.00045,  -0.00010,   0.00102,-109727520.28174,   0.00000
9313510.28303,-43439816.87389,208887452.53593,  -0.00032,  -0.00031,   0.00373,365075663.15194,   0.00070,275401841.28836,  -0.00045,  -0.00010,   0.00102,-110326178.13642,   0.00000
12851223.45909,-42363121.55943,208449675.32016,  -0.00031,  -0.00032,   0.00373,364496923.68727,   0.00070,275401841.28836,  -0.00045,  -0.00010,   0.00102,-110904917.60108,   0.00000
16388936.63515,-41286426.24498,208011898.10440,  -0.00029,  -0.00032,   0.00372,363945952.19444,   0.00070,275401841.28836,  -0.00045,  -0.00010,   0.00102,-111455889.09392,   0.00000
19968061.16945,-40191983.20556,207568204.98031,  -0.00028,  -0.00032,   0.00372,363414851.25993,   0.00070,275401841.28836,  -0.00045,  -0.00010,   0.00102,-111986990.02843,   0.00000
23538311.84128,-39118245.84527,207124511.85622,  -0.00026,  -0.00032,   0.00371,362914255.69516,   0.00070,275401841.28836,  -0.00045,  -0.00010,   0.00102,-112487585.59319,   0.00000
27129268.19223,-38035634.62250,206674902.82381,  -0.00025,  -0.00032,   0.00371,362433624.26521,   0.00070,275401841.28836,  -0.00045,  -0.00010,   0.00102,-112968217.02315,   0.00000
30720224.54318,-36953023.39972,206225293.79140,  -0.00023,  -0.00033,   0.00370,361982152.47275,   0.00070,275401841.28836,  -0.00045,  -0.00010,   0.00102,-113419688.81560,   0.00000
34323012.71077,-35882243.99359,205769768.85067,  -0.00022,  -0.00033,   0.00369,361553294.37141,   0.00070,275401841.28836,  -0.00045,  -0.00010,   0.00102,-113848546.91694,   0.00000
37937632.69500,-34823296.40410,205308328.00162,  -0.00021,  -0.00033,   0.00369,361147570.96736,   0.00070,275401841.28836,  -0.00045,  -0.00010,   0.00102,-114254270.32100,   0.00000
41581832.22084,-33734769.27301,204846887.15257,  -0.00019,  -0.00033,   0.00368,360772197.47780,   0.00070,275401841.28836,  -0.00045,  -0.00010,   0.00102,-114629643.81056,   0.00000
45217157.88420,-32666947.82104,204379530.39520,  -0.00018,  -0.00033,   0.00368,360418929.46677,   0.00070,275401841.28836,  -0.00045,  -0.00010,   0.00102,-114982911.82158,   0.00000
48864315.36420,-31610958.18571,203912173.63783,  -0.00016,  -0.00034,   0.00367,360100188.13699,   0.00070,275401841.28836,  -0.00045,  -0.00010,   0.00102,-115301653.15137,   0.00000
52541052.38581,-30525389.00877,203438900.97213,  -0.00015,  -0.00034,   0.00366,359803219.70377,   0.00070,275401841.28836,  -0.00045,  -0.00010,   0.00102,-115598621.58458,   0.00000
56200041.68245,-29481231.19009,202965628.30644,  -0.00013,  -0.00034,   0.00366,359540780.60883,   0.00070,275401841.28836,  -0.00045,  -0.00010,   0.00102,-115861060.67952,   0.00000
59888610.52070,-28407493.82980,202486439.73243,  -0.00012,  -0.00034,   0.00365,359300976.25274,   0.00070,275401841.28836,  -0.00045,  -0.00010,   0.00102,-116100865.03562,   0.00000
63589011.17559,-27345588.28615,202007251.15841,  -0.00010,  -0.00035,   0.00365,359097495.14842,   0.00070,275401841.28836,  -0.00045,  -0.00010,   0.00102,-116304346.13994,   0.00000
67280537.96800,-26304388.42162,201522146.67607,  -0.00009,  -0.00035,   0.00364,358917667.22499,   0.00070,275401841.28836,  -0.00045,  -0.00010,   0.00102,-116484174.06337,   0.00000
71001644.30202,-25233609.01549,201037042.19374,  -0.00007,  -0.00035,   0.00363,358771895.84934,   0.00070,275401841.28836,  -0.00045,  -0.00010,   0.00102,-116629945.43901,   0.00000
74734582.45267,-24174661.42600,200546021.80308,  -0.00006,  -0.00035,   0.00363,358653699.10287,   0.00070,275401841.28836,  -0.00045,  -0.00010,   0.00102,-116748142.18549,   0.00000
78458646.74085,-23136419.51563,200049085.50410,  -0.00004,  -0.00036,   0.00362,358559918.50055,   0.00070,275401841.28836,  -0.00045,  -0.00010,   0.00102,-116841922.78781,   0.00000
82203416.70815,-22089303.74279,199558065.11345,  -0.00003,  -0.00036,   0.00361,358512788.27144,   0.00070,275401841.28836,  -0.00045,  -0.00010,   0.00102,-116889053.01691,   0.00000
85948186.67545,-21042187.96994,199055212.90615,  -0.00001,  -0.00036,   0.00361,358479198.45145,   0.00070,275401841.28836,  -0.00045,  -0.00010,   0.00102,-116922642.83690,   0.00000
89734368.00100,-19977324.47213,198558276.60717,   0.00000,  -0.00036,   0.00360,358497099.71921,   0.00070,275401841.28836,  -0.00045,  -0.00010,   0.00102,-116904741.56914,   0.00000
93490969.78494,-18942040.51593,198049508.49155,   0.00002,  -0.00037,   0.00359,358526282.87060,   0.00070,275401841.28836,  -0.00045,  -0.00010,   0.00102,-116875558.41776,   0.00000
97280109.06465,-17909714.51388,197546656.28425,   0.00003,  -0.00037,   0.00359,358609091.77277,   0.00070,275401841.28836,  -0.00045,  -0.00010,   0.00102,-116792749.51559,   0.00000
101078122.20684,-16856682.83271,197037888.16863,   0.00005,  -0.00037,   0.00358,358715157.90974,   0.00070,275401841.28836,  -0.00045,  -0.00010,   0.00102,-116686683.37862,   0.00000
104867261.48655,-15824356.83067,196523204.14469,   0.00006,  -0.00037,   0.00357,358846929.85770,   0.00070,275401841.28836,  -0.00045,  -0.00010,   0.00102,-116554911.43066,   0.00000
108668232.58290,-14803862.64527,196008520.12075,   0.00008,  -0.00038,   0.00357,359019036.52975,   0.00070,275401841.28836,  -0.00045,  -0.00010,   0.00102,-116382804.75861,   0.00000
112498783.22086,-13753788.91826,195493836.09680,   0.00009,  -0.00038,   0.00356,359229658.17050,   0.00070,275401841.28836,  -0.00045,  -0.00010,   0.00102,-116172183.11786,   0.00000
116341165.67545,-12715547.00790,194973236.16454,   0.00011,  -0.00038,   0.00355,359471809.72777,   0.00070,275401841.28836,  -0.00045,  -0.00010,   0.00102,-115930031.56059,   0.00000
120153968.58845,-11706884.63914,194452636.23228,   0.00012,  -0.00039,   0.00355,359744547.11330,   0.00070,275401841.28836,  -0.00045,  -0.00010,   0.00102,-115657294.17505,   0.00000
124008182.85969,-10680474.54541,193926120.39169,   0.00014,  -0.00039,   0.00354,360053591.43280,   0.00070,275401841.28836,  -0.00045,  -0.00010,   0.00102,-115348249.85556,   0.00000
127862397.13093,-9654064.45169,193399604.55111,   0.00015,  -0.00039,   0.00353,360397844.75623,   0.00070,275401841.28836,  -0.00045,  -0.00010,   0.00102,-115003996.53213,   0.00000
131737317.08130,-8618780.49549,192873088.71053,   0.00017,  -0.00039,   0.00353,360783181.63990,   0.00070,275401841.28836,  -0.00045,  -0.00010,   0.00102,-114618659.64845,   0.00000
135603363.16918,-7604202.21841,192340656.96162,   0.00019,  -0.00040,   0.00352,361195288.38357,   0.00070,275401841.28836,  -0.00045,  -0.00010,   0.00102,-114206552.90479,   0.00000
139469409.25706,-6589623.94133,191802309.30439,   0.00020,  -0.00040,   0.00351,361633195.08035,   0.00070,275401841.28836,  -0.00045,  -0.00010,   0.00102,-113768646.20801,   0.00000
143367992.84071,-5578003.61841,191269877.55549,   0.00022,  -0.00040,   0.00351,362129397.94864,   0.00070,275401841.28836,  -0.00045,  -0.00010,   0.00102,-113272443.33971,   0.00000
147245870.74524,-4575257.15797,190731529.89826,   0.00023,  -0.00041,   0.00350,362645166.30680,   0.00070,275401841.28836,  -0.00045,  -0.00010,   0.00102,-112756674.98155,   0.00000
151144454.32889,-3563636.83505,190193182.24104,   0.00025,  -0.00041,   0.00349,363202848.61169,   0.00070,275401841.28836,  -0.00045,  -0.00010,   0.00102,-112198992.67667,   0.00000
155054869.72918,-2563848.32877,189648918.67549,   0.00026,  -0.00041,   0.00348,363794255.28443,   0.00070,275401841.28836,  -0.00045,  -0.00010,   0.00102,-111607586.00392,   0.00000
158985990.80860,-1555185.96001,189104655.10994,   0.00028,  -0.00041,   0.00348,364428221.20447,   0.00070,275401841.28836,  -0.00045,  -0.00010,   0.00102,-110973620.08388,   0.00000
162896406.20889,-555397.45373,188560391.54439,   0.00030,  -0.00042,   0.00347,365090514.32413,   0.00070,275401841.28836,  -0.00045,  -0.00010,   0.00102,-110311326.96422,   0.00000
166818653.42583,432559.23590,188010212.07053,   0.00031,  -0.00042,   0.00346,365786837.94999,   0.00070,275401841.28836,  -0.00045,  -0.00010,   0.00102,-109615003.33837,   0.00000
170770480.18437,1450095.46714,187460032.59666,   0.00033,  -0.00042,   0.00346,366525330.15256,   0.00070,275401841.28836,  -0.00045,  -0.00010,   0.00102,-108876511.13579,   0.00000
174704559.21794,2426220.34014,186903937.21447,   0.00034,  -0.00043,   0.00345,367291359.87713,   0.00070,275401841.28836,  -0.00045,  -0.00010,   0.00102,-108110481.41122,   0.00000
178668217.79313,3431924.75473,186353757.74060,   0.00036,  -0.00043,   0.00344,368108819.98329,   0.00070,275401841.28836,  -0.00045,  -0.00010,   0.00102,-107293021.30506,   0.00000
182623002.50583,4416923.49021,185797662.35841,   0.00038,  -0.00043,   0.00343,368953049.10149,   0.00070,275401841.28836,  -0.00045,  -0.00010,   0.00102,-106448792.18686,   0.00000
186598492.89765,5410796.08817,185241566.97622,   0.00039,  -0.00044,   0.00343,369840428.12809,   0.00070,275401841.28836,  -0.00045,  -0.00010,   0.00102,-105561413.16026,   0.00000
190565109.42700,6383963.00700,184679555.68571,   0.00041,  -0.00044,   0.00342,370754460.75591,   0.00070,275401841.28836,  -0.00045,  -0.00010,   0.00102,-104647380.53245,   0.00000
194531725.95634,7357129.92583,184117544.39520,   0.00042,  -0.00044,   0.00341,371703288.98746,   0.00070,275401841.28836,  -0.00045,  -0.00010,   0.00102,-103698552.30090,   0.00000
198519048.16481,8339170.70714,183555533.10469,   0.00044,  -0.00045,   0.00341,372695279.31155,   0.00070,275401841.28836,  -0.00045,  -0.00010,   0.00102,-102706561.97681,   0.00000
202527076.05240,9330085.35094,182993521.81417,   0.00046,  -0.00045,   0.00340,373730597.08754,   0.00070,275401841.28836,  -0.00045,  -0.00010,   0.00102,-101671244.20081,   0.00000
206505524.39839,10291420.45313,182425594.61534,   0.00047,  -0.00045,   0.00339,374783274.00886,   0.00070,275401841.28836,  -0.00045,  -0.00010,   0.00102,-100618567.27949,   0.00000
210525384.10262,11270503.28028,181857667.41651,   0.00049,  -0.00046,   0.00338,375888105.90142,   0.00070,275401841.28836,  -0.00045,  -0.00010,   0.00102,-99513735.38693,   0.00000
214515664.26525,12220006.56583,181289740.21768,   0.00051,  -0.00046,   0.00338,377018335.99232,   0.00070,275401841.28836,  -0.00045,  -0.00010,   0.00102,-98383505.29604,   0.00000
218535523.96948,13199089.39298,180715897.11052,   0.00052,  -0.00046,   0.00337,378182796.65578,   0.00070,275401841.28836,  -0.00045,  -0.00010,   0.00102,-97219044.63257,   0.00000
222567215.49036,14166340.40349,180147969.91169,   0.00054,  -0.00047,   0.00336,379399210.41586,   0.00070,275401841.28836,  -0.00045,  -0.00010,   0.00102,-96002630.87250,   0.00000
226569327.46963,15104011.87240,179574126.80454,   0.00055,  -0.00047,   0.00335,380631431.39459,   0.00070,275401841.28836,  -0.00045,  -0.00010,   0.00102,-94770409.89376,   0.00000
230601018.99051,16071262.88291,178994367.78906,   0.00057,  -0.00047,   0.00335,381897914.30887,   0.00070,275401841.28836,  -0.00045,  -0.00010,   0.00102,-93503926.97948,   0.00000
234644542.32803,17026682.07678,178420524.68191,   0.00059,  -0.00048,   0.00334,383215868.67836,   0.00070,275401841.28836,  -0.00045,  -0.00010,   0.00102,-92185972.61000,   0.00000
238688065.66555,17982101.27065,177840765.66644,   0.00060,  -0.00048,   0.00333,384558512.43582,   0.00070,275401841.28836,  -0.00045,  -0.00010,   0.00102,-90843328.85254,   0.00000
242722715.14058,18916814.78539,177266922.55928,   0.00062,  -0.00048,   0.00332,385942103.40573,   0.00070,275401841.28836,  -0.00045,  -0.00010,   0.00102,-89459737.88263,   0.00000
246778070.29474,19860402.16262,176687163.54381,   0.00064,  -0.00049,   0.00332,387360040.67916,   0.00070,275401841.28836,  -0.00045,  -0.00010,   0.00102,-88041800.60920,   0.00000
250833425.44890,20803989.53985,176101488.62001,   0.00065,  -0.00049,   0.00331,388802109.33903,   0.00070,275401841.28836,  -0.00045,  -0.00010,   0.00102,-86599731.94933,   0.00000
254888780.60307,21747576.91707,175521729.60454,   0.00067,  -0.00050,   0.00330,390284084.87629,   0.00070,275401841.28836,  -0.00045,  -0.00010,   0.00102,-85117756.41206,   0.00000
258964841.43635,22700038.15678,174936054.68074,   0.00069,  -0.00050,   0.00329,391800253.61451,   0.00070,275401841.28836,  -0.00045,  -0.00010,   0.00102,-83601587.67384,   0.00000
263011322.72803,23622919.85488,174356295.66527,   0.00070,  -0.00050,   0.00329,393344958.45534,   0.00070,275401841.28836,  -0.00045,  -0.00010,   0.00102,-82056882.83302,   0.00000
267099215.37796,24563549.27795,173770620.74147,   0.00072,  -0.00051,   0.00328,394934348.93441,   0.00070,275401841.28836,  -0.00045,  -0.00010,   0.00102,-80467492.35395,   0.00000
271157528.48628,25474599.15941,173184945.81768,   0.00074,  -0.00051,   0.00327,396543575.76878,   0.00070,275401841.28836,  -0.00045,  -0.00010,   0.00102,-78858265.51957,   0.00000
275245421.13621,26415228.58247,172593354.98556,   0.00075,  -0.00051,   0.00326,398186556.77639,   0.00070,275401841.28836,  -0.00045,  -0.00010,   0.00102,-77215284.51197,   0.00000
279324439.92365,27335152.32642,172007680.06176,   0.00077,  -0.00052,   0.00326,399867356.98011,   0.00070,275401841.28836,  -0.00045,  -0.00010,   0.00102,-75534484.30825,   0.00000
283424164.39022,28263949.93284,171416089.22965,   0.00079,  -0.00052,   0.00325,401581683.31534,   0.00070,275401841.28836,  -0.00045,  -0.00010,   0.00102,-73820157.97302,   0.00000
287494309.31519,29163167.99766,170824498.39753,   0.00080,  -0.00053,   0.00324,403314085.01768,   0.00070,275401841.28836,  -0.00045,  -0.00010,   0.00102,-72087756.27067,   0.00000
291594033.78176,30091965.60408,170238823.47373,   0.00082,  -0.00053,   0.00323,405094730.09320,   0.00070,275401841.28836,  -0.00045,  -0.00010,   0.00102,-70307111.19516,   0.00000
295684884.38585,31000057.53138,169647232.64162,   0.00084,  -0.00053,   0.00322,406896616.62759,   0.00070,275401841.28836,  -0.00045,  -0.00010,   0.00102,-68505224.66077,   0.00000
299796440.66906,31917023.32116,169049725.90118,   0.00086,  -0.00054,   0.00322,408731478.73497,   0.00070,275401841.28836,  -0.00045,  -0.00010,   0.00102,-66670362.55338,   0.00000
303887291.27315,32825115.24846,168458135.06906,   0.00087,  -0.00054,   0.00321,410590146.54843,   0.00070,275401841.28836,  -0.00045,  -0.00010,   0.00102,-64811694.73993,   0.00000
307989973.69388,33721375.35912,167866544.23695,   0.00089,  -0.00054,   0.00320,412488350.82273,   0.00070,275401841.28836,  -0.00045,  -0.00010,   0.00102,-62913490.46563,   0.00000
312113361.79373,34626509.33226,167269037.49651,   0.00091,  -0.00055,   0.00319,414419041.83914,   0.00070,275401841.28836,  -0.00045,  -0.00010,   0.00102,-60982799.44921,   0.00000
316216044.21446,35522769.44291,166677446.66439,   0.00092,  -0.00055,   0.00319,416372066.56359,   0.00070,275401841.28836,  -0.00045,  -0.00010,   0.00102,-59029774.72476,   0.00000
320339432.31432,36427903.41605,166079939.92395,   0.00094,  -0.00056,   0.00318,418357131.50068,   0.00070,275401841.28836,  -0.00045,  -0.00010,   0.00102,-57044709.78767,   0.00000
324433240.87256,37303457.84759,165482433.18351,   0.00096,  -0.00056,   0.00317,420356159.82429,   0.00070,275401841.28836,  -0.00045,  -0.00010,   0.00102,-55045681.46406,   0.00000
328556628.97242,38208591.82072,164890842.35140,   0.00097,  -0.00056,   0.00316,422401039.86414,   0.00070,275401841.28836,  -0.00045,  -0.00010,   0.00102,-53000801.42422,   0.00000
332671143.20979,39093020.11474,164293335.61096,   0.00099,  -0.00057,   0.00315,424464526.70587,   0.00070,275401841.28836,  -0.00045,  -0.00010,   0.00102,-50937314.58249,   0.00000
336806363.12629,39986322.27124,163695828.87052,   0.00101,  -0.00057,   0.00315,426566240.57816,   0.00070,275401841.28836,  -0.00045,  -0.00010,   0.00102,-48835600.71019,   0.00000
340912003.50118,40850044.88613,163098322.13008,   0.00102,  -0.00058,   0.00314,428680111.15293,   0.00070,275401841.28836,  -0.00045,  -0.00010,   0.00102,-46721730.13542,   0.00000
345047223.41768,41743347.04262,162500815.38965,   0.00104,  -0.00058,   0.00313,430832000.23240,   0.00070,275401841.28836,  -0.00045,  -0.00010,   0.00102,-44569841.05595,   0.00000
