# sigma_xx, sigma_yy, sigma_xy, epsilon_xx, epsilon_yy, epsilon_xy, vonMises, epsPlastic, hardening, epsilonP__xx, epsilonP__yy, epsilonP__xy, yieldValue, iteration
   0.00000,   0.00000,   0.00000,   0.00000,   0.00000,   0.00000,   0.00000,   0.00000,274640135.82653,   0.00000,   0.00000,   0.00000,-474640135.82653,   0.00000
   0.00000,   0.00000,   0.00000,   0.00000,   0.00000,   0.00000,   0.00000,   0.00000,274640135.82653,   0.00000,   0.00000,   0.00000,-474640135.82653,   0.00000
-1015198.97900,725142.12786,-371272.76946,  -0.00001,   0.00001,  -0.00000,1645039.21790,   0.00000,274640135.82653,   0.00000,   0.00000,   0.00000,-472995096.60863,   0.00000
-2010093.97842,1458985.96125,-748346.67595,  -0.00001,   0.00001,  -0.00001,3283578.07501,   0.00000,274640135.82653,   0.00000,   0.00000,   0.00000,-471356557.75152,   0.00000
-3004988.97784,2192829.79464,-1125420.58243,  -0.00002,   0.00002,  -0.00001,4922154.51713,   0.00000,274640135.82653,   0.00000,   0.00000,   0.00000,-469717981.30940,   0.00000
-3979579.99768,2935375.33357,-1508295.62594,  -0.00002,   0.00002,  -0.00002,6554381.23362,   0.00000,274640135.82653,   0.00000,   0.00000,   0.00000,-468085754.59291,   0.00000
-4933867.03794,3686622.57803,-1891170.66945,  -0.00003,   0.00003,  -0.00002,8176375.42576,   0.00000,274640135.82653,   0.00000,   0.00000,   0.00000,-466463760.40077,   0.00000
-5876551.80415,4426267.54844,-2279846.84998,  -0.00004,   0.00003,  -0.00003,9784170.94305,   0.00000,274640135.82653,   0.00000,   0.00000,   0.00000,-464855964.88348,   0.00000
-6790230.88525,5194918.20397,-2668523.03051,  -0.00004,   0.00004,  -0.00003,11390002.20145,   0.00000,274640135.82653,   0.00000,   0.00000,   0.00000,-463250133.62508,   0.00000
-7712611.67189,5943264.87992,-3063000.34807,  -0.00005,   0.00004,  -0.00004,12991950.72778,   0.00000,274640135.82653,   0.00000,   0.00000,   0.00000,-461648185.09875,   0.00000
-8594384.49936,6709014.96693,-3457477.66562,  -0.00005,   0.00005,  -0.00004,14573833.96406,   0.00000,274640135.82653,   0.00000,   0.00000,   0.00000,-460066301.86247,   0.00000
-9476157.32684,7474765.05395,-3857756.12020,  -0.00006,   0.00005,  -0.00005,16160091.79355,   0.00000,274640135.82653,   0.00000,   0.00000,   0.00000,-458480044.03298,   0.00000
-10346327.88026,8228912.86692,-4263835.71180,  -0.00006,   0.00006,  -0.00006,17732496.24639,   0.00000,274640135.82653,   0.00000,   0.00000,   0.00000,-456907639.58014,   0.00000
-11187492.74858,9012066.36501,-4664114.16638,  -0.00007,   0.00006,  -0.00006,19299265.37840,   0.00000,274640135.82653,   0.00000,   0.00000,   0.00000,-455340870.44813,   0.00000
-12037359.32243,9774915.88351,-5075994.89500,  -0.00007,   0.00007,  -0.00007,20866440.69662,   0.00000,274640135.82653,   0.00000,   0.00000,   0.00000,-453773695.12991,   0.00000
-12846617.93712,10555168.81309,-5482074.48660,  -0.00008,   0.00007,  -0.00007,22409926.91038,   0.00000,274640135.82653,   0.00000,   0.00000,   0.00000,-452230208.91615,   0.00000
-13655876.55180,11335421.74266,-5893955.21522,  -0.00008,   0.00008,  -0.00008,23958004.81467,   0.00000,274640135.82653,   0.00000,   0.00000,   0.00000,-450682131.01186,   0.00000
-14444831.18691,12124376.37777,-6311637.08087,  -0.00009,   0.00008,  -0.00008,25500951.12958,   0.00000,274640135.82653,   0.00000,   0.00000,   0.00000,-449139184.69694,   0.00000
-15213481.84244,12922032.71841,-6729318.94651,  -0.00009,   0.00009,  -0.00009,27034593.94788,   0.00000,274640135.82653,   0.00000,   0.00000,   0.00000,-447605541.87865,   0.00000
-15970530.22392,13708086.78501,-7152801.94918,  -0.00010,   0.00009,  -0.00009,28554905.36534,   0.00000,274640135.82653,   0.00000,   0.00000,   0.00000,-446085230.46119,   0.00000
-16707274.62583,14502842.55714,-7570483.81483,  -0.00010,   0.00010,  -0.00010,30061688.52026,   0.00000,274640135.82653,   0.00000,   0.00000,   0.00000,-444578447.30627,   0.00000
-17444019.02773,15297598.32927,-7999767.95452,  -0.00011,   0.00010,  -0.00010,31577694.22862,   0.00000,274640135.82653,   0.00000,   0.00000,   0.00000,-443062441.59791,   0.00000
-18140155.47047,16109757.51247,-8423250.95719,  -0.00011,   0.00011,  -0.00011,33070780.20753,   0.00000,274640135.82653,   0.00000,   0.00000,   0.00000,-441569355.61900,   0.00000
-18844993.61875,16901612.71609,-8858336.23390,  -0.00012,   0.00011,  -0.00012,34564713.84484,   0.00000,274640135.82653,   0.00000,   0.00000,   0.00000,-440075421.98169,   0.00000
-19529527.78745,17702169.62525,-9287620.37359,  -0.00012,   0.00012,  -0.00012,36045304.20524,   0.00000,274640135.82653,   0.00000,   0.00000,   0.00000,-438594831.62129,   0.00000
-20193757.97656,18511428.23994,-9722705.65031,  -0.00013,   0.00012,  -0.00013,37521582.50745,   0.00000,274640135.82653,   0.00000,   0.00000,   0.00000,-437118553.31908,   0.00000
-20837684.18610,19329388.56016,-10157790.92702,  -0.00013,   0.00013,  -0.00013,38989180.39953,   0.00000,274640135.82653,   0.00000,   0.00000,   0.00000,-435650955.42699,   0.00000
-21461306.41606,20156050.58591,-10598677.34076,  -0.00014,   0.00013,  -0.00014,40452751.57747,   0.00000,274640135.82653,   0.00000,   0.00000,   0.00000,-434187384.24906,   0.00000
-22073326.37197,20971110.33763,-11039563.75450,  -0.00014,   0.00014,  -0.00014,41899132.12049,   0.00000,274640135.82653,   0.00000,   0.00000,   0.00000,-432741003.70604,   0.00000
-22665042.34830,21794871.79487,-11480450.16823,  -0.00015,   0.00014,  -0.00015,43337102.82896,   0.00000,274640135.82653,   0.00000,   0.00000,   0.00000,-431303032.99757,   0.00000
-23256758.32463,22618633.25212,-11927137.71899,  -0.00015,   0.00015,  -0.00016,44780412.09776,   0.00000,274640135.82653,   0.00000,   0.00000,   0.00000,-429859723.72877,   0.00000
-23807866.34180,23459798.12043,-12373825.26975,  -0.00015,   0.00015,  -0.00016,46206482.45730,   0.00000,274640135.82653,   0.00000,   0.00000,   0.00000,-428433653.36923,   0.00000
-24367676.06451,24280659.00917,-12820512.82051,  -0.00016,   0.00016,  -0.00017,47624509.64593,   0.00000,274640135.82653,   0.00000,   0.00000,   0.00000,-427015626.18060,   0.00000
-24907181.80763,25110221.60343,-13267200.37127,  -0.00016,   0.00016,  -0.00017,49034392.07692,   0.00000,274640135.82653,   0.00000,   0.00000,   0.00000,-425605743.74961,   0.00000
-25406079.59160,25957187.60877,-13719689.05906,  -0.00017,   0.00017,  -0.00018,50432176.70065,   0.00000,274640135.82653,   0.00000,   0.00000,   0.00000,-424207959.12588,   0.00000
-25913679.08110,26783849.63453,-14172177.74684,  -0.00017,   0.00017,  -0.00018,51821938.54935,   0.00000,274640135.82653,   0.00000,   0.00000,   0.00000,-422818197.27718,   0.00000
-26392272.88549,27639517.34540,-14630467.57164,  -0.00017,   0.00018,  -0.00019,53217632.56146,   0.00000,274640135.82653,   0.00000,   0.00000,   0.00000,-421422503.26507,   0.00000
-26859264.41583,28483582.78223,-15088757.39645,  -0.00018,   0.00018,  -0.00020,54596652.40503,   0.00000,274640135.82653,   0.00000,   0.00000,   0.00000,-420043483.42150,   0.00000
-27314653.67212,29316045.94501,-15547047.22126,  -0.00018,   0.00019,  -0.00020,55959007.57699,   0.00000,274640135.82653,   0.00000,   0.00000,   0.00000,-418681128.24954,   0.00000
-27741037.24330,30177514.79290,-16005337.04606,  -0.00019,   0.00019,  -0.00021,57322905.98063,   0.00000,274640135.82653,   0.00000,   0.00000,   0.00000,-417317229.84590,   0.00000
-28155818.54043,31027381.36675,-16469428.00789,  -0.00019,   0.00020,  -0.00021,58675173.69746,   0.00000,274640135.82653,   0.00000,   0.00000,   0.00000,-415964962.12906,   0.00000
-28570599.83757,31877247.94060,-16927717.83270,  -0.00019,   0.00020,  -0.00022,60023604.51729,   0.00000,274640135.82653,   0.00000,   0.00000,   0.00000,-414616531.30924,   0.00000
-28953474.88108,32724213.94593,-17391808.79452,  -0.00020,   0.00021,  -0.00023,61352120.02849,   0.00000,274640135.82653,   0.00000,   0.00000,   0.00000,-413288015.79804,   0.00000
-29307344.23947,33600185.63638,-17861700.89338,  -0.00020,   0.00021,  -0.00023,62687687.66304,   0.00000,274640135.82653,   0.00000,   0.00000,   0.00000,-411952448.16349,   0.00000
-29649611.32382,34464555.05279,-18325791.85520,  -0.00020,   0.00021,  -0.00024,64002106.29163,   0.00000,274640135.82653,   0.00000,   0.00000,   0.00000,-410638029.53490,   0.00000
-30000580.11370,35308620.48962,-18795683.95405,  -0.00021,   0.00022,  -0.00024,65313442.65650,   0.00000,274640135.82653,   0.00000,   0.00000,   0.00000,-409326693.17003,   0.00000
-30302239.23889,36190393.31709,-19265576.05291,  -0.00021,   0.00022,  -0.00025,66619122.55300,   0.00000,274640135.82653,   0.00000,   0.00000,   0.00000,-408021013.27353,   0.00000
-30612600.06961,37051862.16498,-19735468.15176,  -0.00021,   0.00023,  -0.00026,67916799.98876,   0.00000,274640135.82653,   0.00000,   0.00000,   0.00000,-406723335.83777,   0.00000
-30891054.64671,37910430.44437,-20205360.25061,  -0.00021,   0.00023,  -0.00026,69190468.42428,   0.00000,274640135.82653,   0.00000,   0.00000,   0.00000,-405449667.40225,   0.00000
-31160807.51827,38789302.70333,-20675252.34946,  -0.00022,   0.00024,  -0.00027,70474889.88178,   0.00000,274640135.82653,   0.00000,   0.00000,   0.00000,-404165245.94475,   0.00000
-31398654.13621,39665274.39378,-21150945.58533,  -0.00022,   0.00024,  -0.00027,71740736.01287,   0.00000,274640135.82653,   0.00000,   0.00000,   0.00000,-402899399.81365,   0.00000
-31645202.45968,40520942.10465,-21626638.82121,  -0.00022,   0.00025,  -0.00028,72998585.77144,   0.00000,274640135.82653,   0.00000,   0.00000,   0.00000,-401641550.05509,   0.00000
-31862745.09804,41405615.50064,-22102332.05708,  -0.00023,   0.00025,  -0.00029,74259648.12452,   0.00000,274640135.82653,   0.00000,   0.00000,   0.00000,-400380487.70200,   0.00000
-32048381.48277,42287388.32811,-22578025.29296,  -0.00023,   0.00025,  -0.00029,75497456.90231,   0.00000,274640135.82653,   0.00000,   0.00000,   0.00000,-399142678.92422,   0.00000
-32234017.86750,43169161.15559,-23053718.52883,  -0.00023,   0.00026,  -0.00030,76736860.17028,   0.00000,274640135.82653,   0.00000,   0.00000,   0.00000,-397903275.65625,   0.00000
-32408051.97819,44039331.70901,-23529411.76471,  -0.00023,   0.00026,  -0.00031,77960715.59117,   0.00000,274640135.82653,   0.00000,   0.00000,   0.00000,-396679420.23536,   0.00000
-32541478.12971,44926905.67351,-24010906.13760,  -0.00024,   0.00027,  -0.00031,79176596.36105,   0.00000,274640135.82653,   0.00000,   0.00000,   0.00000,-395463539.46548,   0.00000
-32674904.28124,45814479.63801,-24486599.37348,  -0.00024,   0.00027,  -0.00032,80388931.43828,   0.00000,274640135.82653,   0.00000,   0.00000,   0.00000,-394251204.38825,   0.00000
-32796728.15872,46690451.32846,-24968093.74637,  -0.00024,   0.00028,  -0.00032,81591266.56072,   0.00000,274640135.82653,   0.00000,   0.00000,   0.00000,-393048869.26581,   0.00000
-32877944.07704,47583826.42998,-25449588.11927,  -0.00024,   0.00028,  -0.00033,82780932.19522,   0.00000,274640135.82653,   0.00000,   0.00000,   0.00000,-391859203.63131,   0.00000
-32959159.99536,48477201.53150,-25931082.49217,  -0.00024,   0.00028,  -0.00034,83972473.19793,   0.00000,274640135.82653,   0.00000,   0.00000,   0.00000,-390667662.62860,   0.00000
-33028773.63963,49358974.35897,-26406775.72804,  -0.00025,   0.00029,  -0.00034,85143573.11124,   0.00000,274640135.82653,   0.00000,   0.00000,   0.00000,-389496562.71529,   0.00000
-33057779.32475,50258150.59752,-26888270.10094,  -0.00025,   0.00029,  -0.00035,86307928.57063,   0.00000,274640135.82653,   0.00000,   0.00000,   0.00000,-388332207.25590,   0.00000
-33095486.71540,51137022.85648,-27369764.47384,  -0.00025,   0.00030,  -0.00036,87464410.07761,   0.00000,274640135.82653,   0.00000,   0.00000,   0.00000,-387175725.74892,   0.00000
-33112890.12646,52024596.82098,-27857059.98376,  -0.00025,   0.00030,  -0.00036,88621409.93087,   0.00000,274640135.82653,   0.00000,   0.00000,   0.00000,-386018725.89566,   0.00000
-33089685.57837,52929574.19654,-28338554.35665,  -0.00025,   0.00031,  -0.00037,89761411.93931,   0.00000,274640135.82653,   0.00000,   0.00000,   0.00000,-384878723.88722,   0.00000
-33075182.73582,53814247.59253,-28820048.72955,  -0.00026,   0.00031,  -0.00037,90893578.74015,   0.00000,274640135.82653,   0.00000,   0.00000,   0.00000,-383746557.08638,   0.00000
-33040375.91368,54707622.69405,-29301543.10245,  -0.00026,   0.00031,  -0.00038,92021150.42239,   0.00000,274640135.82653,   0.00000,   0.00000,   0.00000,-382618985.40414,   0.00000
-32985265.11196,55609699.50110,-29783037.47535,  -0.00026,   0.00032,  -0.00039,93144270.02088,   0.00000,274640135.82653,   0.00000,   0.00000,   0.00000,-381495865.80565,   0.00000
-32898248.05662,56508875.73964,-30264531.84824,  -0.00026,   0.00032,  -0.00039,94246572.55315,   0.00000,274640135.82653,   0.00000,   0.00000,   0.00000,-380393563.27338,   0.00000
-32811231.00128,57408051.97819,-30751827.35816,  -0.00026,   0.00033,  -0.00040,95356776.49825,   0.00000,274640135.82653,   0.00000,   0.00000,   0.00000,-379283359.32828,   0.00000
-32692307.69231,58304327.64822,-31233321.73106,  -0.00026,   0.00033,  -0.00041,96440892.69130,   0.00000,274640135.82653,   0.00000,   0.00000,   0.00000,-378199243.13523,   0.00000
-32573384.38334,59200603.31825,-31714816.10396,  -0.00026,   0.00033,  -0.00041,97527378.16923,   0.00000,274640135.82653,   0.00000,   0.00000,   0.00000,-377112757.65730,   0.00000
-32434157.09479,60105580.69382,-32196310.47685,  -0.00026,   0.00034,  -0.00042,98610022.04874,   0.00000,274640135.82653,   0.00000,   0.00000,   0.00000,-376030113.77779,   0.00000
-32263023.55262,61007657.50087,-32677804.84975,  -0.00027,   0.00034,  -0.00042,99672690.55632,   0.00000,274640135.82653,   0.00000,   0.00000,   0.00000,-374967445.27021,   0.00000
-32100591.71598,61889430.32834,-33159299.22265,  -0.00027,   0.00034,  -0.00043,100727624.23585,   0.00000,274640135.82653,   0.00000,   0.00000,   0.00000,-373912511.59068,   0.00000
-31888850.21464,62808910.54647,-33640793.59554,  -0.00027,   0.00035,  -0.00044,101783451.17857,   0.00000,274640135.82653,   0.00000,   0.00000,   0.00000,-372856684.64795,   0.00000
-31694512.12438,63687782.80543,-34122287.96844,  -0.00027,   0.00035,  -0.00044,102821304.16591,   0.00000,274640135.82653,   0.00000,   0.00000,   0.00000,-371818831.66062,   0.00000
-31450864.36942,64604362.45504,-34603782.34134,  -0.00027,   0.00036,  -0.00045,103860525.78353,   0.00000,274640135.82653,   0.00000,   0.00000,   0.00000,-370779610.04300,   0.00000
-31215918.31999,65500638.12507,-35085276.71424,  -0.00027,   0.00036,  -0.00046,104892133.39100,   0.00000,274640135.82653,   0.00000,   0.00000,   0.00000,-369748002.43553,   0.00000
-30949066.01694,66394013.22659,-35560969.95011,  -0.00027,   0.00036,  -0.00046,105898961.89062,   0.00000,274640135.82653,   0.00000,   0.00000,   0.00000,-368741173.93591,   0.00000
-30653208.02877,67316394.01323,-36042464.32301,  -0.00027,   0.00037,  -0.00047,106919395.80010,   0.00000,274640135.82653,   0.00000,   0.00000,   0.00000,-367720740.02643,   0.00000
-30374753.45168,68198166.84070,-36518157.55888,  -0.00027,   0.00037,  -0.00047,107915919.14917,   0.00000,274640135.82653,   0.00000,   0.00000,   0.00000,-366724216.67736,   0.00000
-30055690.91542,69097343.07924,-36999651.93178,  -0.00027,   0.00037,  -0.00048,108910414.98818,   0.00000,274640135.82653,   0.00000,   0.00000,   0.00000,-365729720.83834,   0.00000
-29736628.37916,69996519.31779,-37475345.16765,  -0.00027,   0.00038,  -0.00049,109901977.93060,   0.00000,274640135.82653,   0.00000,   0.00000,   0.00000,-364738157.89593,   0.00000
-29376957.88375,70913098.96740,-37951038.40353,  -0.00027,   0.00038,  -0.00049,110886105.21230,   0.00000,274640135.82653,   0.00000,   0.00000,   0.00000,-363754030.61423,   0.00000
-29014386.81982,71797772.36338,-38426731.63940,  -0.00027,   0.00038,  -0.00050,111847057.23660,   0.00000,274640135.82653,   0.00000,   0.00000,   0.00000,-362793078.58993,   0.00000
-28622810.07077,72711451.44448,-38902424.87528,  -0.00027,   0.00039,  -0.00051,112816765.04716,   0.00000,274640135.82653,   0.00000,   0.00000,   0.00000,-361823370.77937,   0.00000
-28219631.04769,73613528.25154,-39372316.97413,  -0.00027,   0.00039,  -0.00051,113768113.97407,   0.00000,274640135.82653,   0.00000,   0.00000,   0.00000,-360872021.85246,   0.00000
-27825153.73013,74495301.07901,-39848010.21000,  -0.00027,   0.00039,  -0.00052,114718019.59912,   0.00000,274640135.82653,   0.00000,   0.00000,   0.00000,-359922116.22741,   0.00000
-27390068.45342,75394477.31755,-40317902.30885,  -0.00027,   0.00040,  -0.00052,115655534.64649,   0.00000,274640135.82653,   0.00000,   0.00000,   0.00000,-358984601.18004,   0.00000
-26934679.19712,76302355.26163,-40787794.40770,  -0.00027,   0.00040,  -0.00053,116591759.31779,   0.00000,274640135.82653,   0.00000,   0.00000,   0.00000,-358048376.50874,   0.00000
-26467687.66678,77198630.93166,-41257686.50656,  -0.00027,   0.00040,  -0.00054,117516068.89090,   0.00000,274640135.82653,   0.00000,   0.00000,   0.00000,-357124066.93563,   0.00000
-25980392.15686,78103608.30723,-41727578.60541,  -0.00027,   0.00041,  -0.00054,118439390.52837,   0.00000,274640135.82653,   0.00000,   0.00000,   0.00000,-356200745.29816,   0.00000
-25481494.37290,78996983.40875,-42191669.56724,  -0.00027,   0.00041,  -0.00055,119344887.08770,   0.00000,274640135.82653,   0.00000,   0.00000,   0.00000,-355295248.73883,   0.00000
-24970994.31489,79878756.23622,-42661561.66609,  -0.00027,   0.00041,  -0.00055,120244936.50105,   0.00000,274640135.82653,   0.00000,   0.00000,   0.00000,-354395199.32547,   0.00000
-24440190.27729,80769230.76923,-43125652.62792,  -0.00027,   0.00042,  -0.00056,121138237.77877,   0.00000,274640135.82653,   0.00000,   0.00000,   0.00000,-353501898.04776,   0.00000
-23889082.26012,81668407.00777,-43589743.58974,  -0.00027,   0.00042,  -0.00057,122031133.26581,   0.00000,274640135.82653,   0.00000,   0.00000,   0.00000,-352609002.56071,   0.00000
-23326371.96891,82555980.97227,-44048033.41455,  -0.00027,   0.00042,  -0.00057,122906586.01967,   0.00000,274640135.82653,   0.00000,   0.00000,   0.00000,-351733549.80686,   0.00000
-22743357.69811,83452256.64230,-44512124.37638,  -0.00027,   0.00042,  -0.00058,123788172.42007,   0.00000,274640135.82653,   0.00000,   0.00000,   0.00000,-350851963.40646,   0.00000
-22148741.15327,84336930.03829,-44970414.20118,  -0.00027,   0.00043,  -0.00058,124652540.27221,   0.00000,274640135.82653,   0.00000,   0.00000,   0.00000,-349987595.55432,   0.00000
-21513516.64926,85239006.84534,-45428704.02599,  -0.00026,   0.00043,  -0.00059,125513393.42068,   0.00000,274640135.82653,   0.00000,   0.00000,   0.00000,-349126742.40585,   0.00000
-20886993.85079,86120779.67282,-45881192.71377,  -0.00026,   0.00043,  -0.00060,126361034.07912,   0.00000,274640135.82653,   0.00000,   0.00000,   0.00000,-348279101.74741,   0.00000
-20240167.07275,87011254.20582,-46333681.40155,  -0.00026,   0.00044,  -0.00060,127209178.68063,   0.00000,274640135.82653,   0.00000,   0.00000,   0.00000,-347430957.14590,   0.00000
-19581738.02065,87890126.46479,-46786170.08934,  -0.00026,   0.00044,  -0.00061,128046856.11067,   0.00000,274640135.82653,   0.00000,   0.00000,   0.00000,-346593279.71586,   0.00000
-18911706.69451,88757396.44970,-47238658.77712,  -0.00026,   0.00044,  -0.00061,128874181.17078,   0.00000,274640135.82653,   0.00000,   0.00000,   0.00000,-345765954.65575,   0.00000
-18192365.70368,89662373.82527,-47685346.32788,  -0.00026,   0.00044,  -0.00062,129704089.78748,   0.00000,274640135.82653,   0.00000,   0.00000,   0.00000,-344936046.03905,   0.00000
-17490428.12391,90526743.24168,-48132033.87864,  -0.00026,   0.00045,  -0.00063,130516036.82976,   0.00000,274640135.82653,   0.00000,   0.00000,   0.00000,-344124098.99677,   0.00000
-16768186.56457,91399814.36362,-48578721.42940,  -0.00025,   0.00045,  -0.00063,131329295.33325,   0.00000,274640135.82653,   0.00000,   0.00000,   0.00000,-343310840.49328,   0.00000
-16005337.04606,92290288.89662,-49019607.84314,  -0.00025,   0.00045,  -0.00064,132134670.99037,   0.00000,274640135.82653,   0.00000,   0.00000,   0.00000,-342505464.83616,   0.00000
-15251189.23309,93160459.45005,-49460494.25687,  -0.00025,   0.00045,  -0.00064,132933439.17347,   0.00000,274640135.82653,   0.00000,   0.00000,   0.00000,-341706696.65306,   0.00000
-14465135.16649,94027729.43497,-49901380.67061,  -0.00025,   0.00046,  -0.00065,133719935.80710,   0.00000,274640135.82653,   0.00000,   0.00000,   0.00000,-340920200.01943,   0.00000
-13679081.09990,94894999.41989,-50336465.94733,  -0.00025,   0.00046,  -0.00065,134504773.07470,   0.00000,274640135.82653,   0.00000,   0.00000,   0.00000,-340135362.75183,   0.00000
-12872723.05372,95770971.11034,-50771551.22404,  -0.00025,   0.00046,  -0.00066,135291796.99823,   0.00000,274640135.82653,   0.00000,   0.00000,   0.00000,-339348338.82830,   0.00000
-12034458.75392,96644042.23228,-51206636.50075,  -0.00024,   0.00046,  -0.00067,136067324.15136,   0.00000,274640135.82653,   0.00000,   0.00000,   0.00000,-338572811.67517,   0.00000
-11204896.15965,97496809.37464,-51635920.64045,  -0.00024,   0.00047,  -0.00067,136829909.23874,   0.00000,274640135.82653,   0.00000,   0.00000,   0.00000,-337810226.58779,   0.00000
-10334725.60622,98366979.92807,-52065204.78014,  -0.00024,   0.00047,  -0.00068,137592956.52825,   0.00000,274640135.82653,   0.00000,   0.00000,   0.00000,-337047179.29827,   0.00000
-9473256.75832,99216846.50191,-52488687.78281,  -0.00024,   0.00047,  -0.00068,138343120.25012,   0.00000,274640135.82653,   0.00000,   0.00000,   0.00000,-336297015.57641,   0.00000
-8571179.95127,100084116.48683,-52912170.78547,  -0.00023,   0.00047,  -0.00069,139094313.05080,   0.00000,274640135.82653,   0.00000,   0.00000,   0.00000,-335545822.77573,   0.00000
-7677804.84975,100931082.49217,-53335653.78814,  -0.00023,   0.00047,  -0.00069,139839326.19269,   0.00000,274640135.82653,   0.00000,   0.00000,   0.00000,-334800809.63384,   0.00000
-6764125.76865,101786750.20304,-53753335.65379,  -0.00023,   0.00048,  -0.00070,140581142.31999,   0.00000,274640135.82653,   0.00000,   0.00000,   0.00000,-334058993.50654,   0.00000
-5818540.43393,102639517.34540,-54171017.51943,  -0.00023,   0.00048,  -0.00070,141313253.20982,   0.00000,274640135.82653,   0.00000,   0.00000,   0.00000,-333326882.61671,   0.00000
-4872955.09920,103492284.48776,-54582898.24806,  -0.00022,   0.00048,  -0.00071,142044324.90878,   0.00000,274640135.82653,   0.00000,   0.00000,   0.00000,-332595810.91775,   0.00000
-3895463.51085,104342151.06161,-54994778.97668,  -0.00022,   0.00048,  -0.00071,142766233.08862,   0.00000,274640135.82653,   0.00000,   0.00000,   0.00000,-331873902.73791,   0.00000
-2926673.62803,105171713.65588,-55400858.56828,  -0.00022,   0.00048,  -0.00072,143475515.13383,   0.00000,274640135.82653,   0.00000,   0.00000,   0.00000,-331164620.69270,   0.00000
-1917275.78605,106018679.66121,-55806938.15988,  -0.00022,   0.00049,  -0.00073,144187886.00736,   0.00000,274640135.82653,   0.00000,   0.00000,   0.00000,-330452249.81917,   0.00000
-916579.64961,106845341.68697,-56213017.75148,  -0.00021,   0.00049,  -0.00073,144894477.18423,   0.00000,274640135.82653,   0.00000,   0.00000,   0.00000,-329745658.64230,   0.00000
124724.44599,107689407.12380,-56613296.20606,  -0.00021,   0.00049,  -0.00074,145598037.01686,   0.00000,274640135.82653,   0.00000,   0.00000,   0.00000,-329042098.80967,   0.00000
1157326.83606,108513168.58104,-57007773.52361,  -0.00021,   0.00049,  -0.00074,146289168.03782,   0.00000,274640135.82653,   0.00000,   0.00000,   0.00000,-328350967.78871,   0.00000
2210233.20571,109345631.74382,-57402250.84116,  -0.00020,   0.00049,  -0.00075,146985469.25120,   0.00000,274640135.82653,   0.00000,   0.00000,   0.00000,-327654666.57533,   0.00000
3295045.82898,110175194.33809,-57790927.02170,  -0.00020,   0.00049,  -0.00075,147667776.43742,   0.00000,274640135.82653,   0.00000,   0.00000,   0.00000,-326972359.38911,   0.00000
4371156.74672,110984452.95278,-58179603.20223,  -0.00020,   0.00050,  -0.00076,148344612.48907,   0.00000,274640135.82653,   0.00000,   0.00000,   0.00000,-326295523.33746,   0.00000
5467571.64404,111802413.27300,-58568279.38276,  -0.00019,   0.00050,  -0.00076,149027233.41179,   0.00000,274640135.82653,   0.00000,   0.00000,   0.00000,-325612902.41473,   0.00000
6584290.52094,112629075.29876,-58951154.42627,  -0.00019,   0.00050,  -0.00077,149709033.64866,   0.00000,274640135.82653,   0.00000,   0.00000,   0.00000,-324931102.17787,   0.00000
7724213.94593,113432532.77642,-59328228.33275,  -0.00019,   0.00050,  -0.00077,150366026.25884,   0.00000,274640135.82653,   0.00000,   0.00000,   0.00000,-324274109.56769,   0.00000
8872839.07646,114256294.23367,-59705302.23924,  -0.00018,   0.00050,  -0.00078,151041781.23790,   0.00000,274640135.82653,   0.00000,   0.00000,   0.00000,-323598354.58863,   0.00000
10024364.77550,115048149.43729,-60076575.00870,  -0.00018,   0.00050,  -0.00078,151693324.03148,   0.00000,274640135.82653,   0.00000,   0.00000,   0.00000,-322946811.79505,   0.00000
11196194.45411,115848706.34644,-60447847.77816,  -0.00017,   0.00051,  -0.00079,152351697.69951,   0.00000,274640135.82653,   0.00000,   0.00000,   0.00000,-322288438.12702,   0.00000
12388328.11231,116657964.96113,-60813319.41060,  -0.00017,   0.00051,  -0.00079,153010240.73129,   0.00000,274640135.82653,   0.00000,   0.00000,   0.00000,-321629895.09524,   0.00000
13592064.04455,117455621.30178,-61178791.04304,  -0.00017,   0.00051,  -0.00080,153664037.02141,   0.00000,274640135.82653,   0.00000,   0.00000,   0.00000,-320976098.80512,   0.00000
14807402.25084,118241675.36837,-61538461.53846,  -0.00016,   0.00051,  -0.00080,154306343.52128,   0.00000,274640135.82653,   0.00000,   0.00000,   0.00000,-320333792.30525,   0.00000
16043044.43671,119036431.14050,-61892330.89686,  -0.00016,   0.00051,  -0.00080,154949431.52729,   0.00000,274640135.82653,   0.00000,   0.00000,   0.00000,-319690704.29924,   0.00000
17290288.89662,119819584.63859,-62246200.25525,  -0.00015,   0.00051,  -0.00081,155588367.36038,   0.00000,274640135.82653,   0.00000,   0.00000,   0.00000,-319051768.46615,   0.00000
18549135.63058,120591135.86263,-62594268.47662,  -0.00015,   0.00051,  -0.00081,156216383.53479,   0.00000,274640135.82653,   0.00000,   0.00000,   0.00000,-318423752.29174,   0.00000
19807982.36454,121362687.08667,-62942336.69799,  -0.00015,   0.00051,  -0.00082,156851908.70287,   0.00000,274640135.82653,   0.00000,   0.00000,   0.00000,-317788227.12365,   0.00000
21098735.35213,122131337.74220,-63284603.78234,  -0.00014,   0.00051,  -0.00082,157477702.37909,   0.00000,274640135.82653,   0.00000,   0.00000,   0.00000,-317162433.44744,   0.00000
22409792.31929,122908690.10326,-63626870.86669,  -0.00014,   0.00052,  -0.00083,158112373.84880,   0.00000,274640135.82653,   0.00000,   0.00000,   0.00000,-316527761.97773,   0.00000
23712147.58093,123665738.48474,-63957535.67699,  -0.00013,   0.00052,  -0.00083,158728698.36877,   0.00000,274640135.82653,   0.00000,   0.00000,   0.00000,-315911437.45776,   0.00000
25055110.80172,124440190.27729,-64288200.48730,  -0.00013,   0.00052,  -0.00084,159355498.63006,   0.00000,274640135.82653,   0.00000,   0.00000,   0.00000,-315284637.19647,   0.00000
26389372.31697,125194338.09027,-64618865.29760,  -0.00012,   0.00052,  -0.00084,159978168.88048,   0.00000,274640135.82653,   0.00000,   0.00000,   0.00000,-314661966.94605,   0.00000
27735236.10628,125936883.62919,-64943728.97088,  -0.00012,   0.00052,  -0.00084,160591147.25317,   0.00000,274640135.82653,   0.00000,   0.00000,   0.00000,-314048988.57336,   0.00000
29101403.87516,126688130.87365,-65262791.50714,  -0.00011,   0.00052,  -0.00085,161206909.32752,   0.00000,274640135.82653,   0.00000,   0.00000,   0.00000,-313433226.49900,   0.00000
30479173.91809,127427775.84407,-65581854.04339,  -0.00011,   0.00052,  -0.00085,161820466.86577,   0.00000,274640135.82653,   0.00000,   0.00000,   0.00000,-312819668.96076,   0.00000
31877247.94060,128176122.52001,-65889314.30560,  -0.00010,   0.00052,  -0.00086,162430232.72127,   0.00000,274640135.82653,   0.00000,   0.00000,   0.00000,-312209903.10526,   0.00000
33286924.23715,128912866.92192,-66202575.70484,  -0.00010,   0.00052,  -0.00086,163045321.42517,   0.00000,274640135.82653,   0.00000,   0.00000,   0.00000,-311594814.40136,   0.00000
34708202.80775,129638009.04977,-66504234.83003,  -0.00009,   0.00052,  -0.00086,163644768.24458,   0.00000,274640135.82653,   0.00000,   0.00000,   0.00000,-310995367.58195,   0.00000
36129481.37835,130363151.17763,-66805893.95522,  -0.00009,   0.00052,  -0.00087,164252914.64142,   0.00000,274640135.82653,   0.00000,   0.00000,   0.00000,-310387221.18511,   0.00000
37582666.20258,131085392.73698,-67101751.94338,  -0.00008,   0.00052,  -0.00087,164855190.30424,   0.00000,274640135.82653,   0.00000,   0.00000,   0.00000,-309784945.52229,   0.00000
39035851.02680,131807634.29632,-67391808.79452,  -0.00008,   0.00052,  -0.00088,165459344.32780,   0.00000,274640135.82653,   0.00000,   0.00000,   0.00000,-309180791.49873,   0.00000
40512240.39912,132506671.30758,-67681865.64567,  -0.00007,   0.00052,  -0.00088,166053070.59041,   0.00000,274640135.82653,   0.00000,   0.00000,   0.00000,-308587065.23612,   0.00000
41997331.47697,133226012.29841,-67966121.35979,  -0.00007,   0.00052,  -0.00088,166661303.73410,   0.00000,274640135.82653,   0.00000,   0.00000,   0.00000,-307978832.09243,   0.00000
43494024.82887,133933751.01520,-68244575.93688,  -0.00006,   0.00052,  -0.00089,167262154.71275,   0.00000,274640135.82653,   0.00000,   0.00000,   0.00000,-307377981.11378,   0.00000
45002320.45481,134629887.45794,-68523030.51398,  -0.00006,   0.00052,  -0.00089,167862965.65216,   0.00000,274640135.82653,   0.00000,   0.00000,   0.00000,-306777170.17437,   0.00000
46501914.37522,135305719.92110,-68795683.95405,  -0.00005,   0.00052,  -0.00089,168453641.31950,   0.00000,274640135.82653,   0.00000,   0.00000,   0.00000,-306186494.50703,   0.00000
48042116.25479,135998955.79534,-69062536.25711,  -0.00005,   0.00053,  -0.00090,169053201.71355,   0.00000,274640135.82653,   0.00000,   0.00000,   0.00000,-305586934.11298,   0.00000
49573616.42882,136671887.68999,-69323587.42313,  -0.00004,   0.00053,  -0.00090,169642883.47369,   0.00000,274640135.82653,   0.00000,   0.00000,   0.00000,-304997252.35284,   0.00000
51125420.58243,137353521.29017,-69584638.58916,  -0.00004,   0.00053,  -0.00090,170245727.34391,   0.00000,274640135.82653,   0.00000,   0.00000,   0.00000,-304394408.48262,   0.00000
52688827.01009,138023552.61631,-69834087.48115,  -0.00003,   0.00053,  -0.00091,170835341.20428,   0.00000,274640135.82653,   0.00000,   0.00000,   0.00000,-303804794.62225,   0.00000
54272537.41733,138702285.64799,-70083536.37313,  -0.00002,   0.00053,  -0.00091,171438658.37577,   0.00000,274640135.82653,   0.00000,   0.00000,   0.00000,-303201477.45076,   0.00000
55867850.09862,139369416.40562,-70332985.26511,  -0.00002,   0.00053,  -0.00091,172043505.22095,   0.00000,274640135.82653,   0.00000,   0.00000,   0.00000,-302596630.60558,   0.00000
57474765.05395,140024944.88920,-70570831.88305,  -0.00001,   0.00053,  -0.00092,172635917.28846,   0.00000,274640135.82653,   0.00000,   0.00000,   0.00000,-302004218.53807,   0.00000
59072978.30375,140660169.39320,-70808678.50099,  -0.00001,   0.00052,  -0.00092,173226128.91190,   0.00000,274640135.82653,   0.00000,   0.00000,   0.00000,-301414006.91463,   0.00000
60700197.23866,141324399.58232,-71040723.98190,   0.00000,   0.00052,  -0.00092,173836228.45785,   0.00000,274640135.82653,   0.00000,   0.00000,   0.00000,-300803907.36868,   0.00000
62330316.74208,141956723.51781,-71266968.32579,   0.00001,   0.00052,  -0.00093,174429110.29870,   0.00000,274640135.82653,   0.00000,   0.00000,   0.00000,-300211025.52783,   0.00000
63980740.22508,142597749.15884,-71487411.53266,   0.00001,   0.00052,  -0.00093,175029979.32418,   0.00000,274640135.82653,   0.00000,   0.00000,   0.00000,-299610156.50235,   0.00000
65622462.00255,143218470.82028,-71702053.60251,   0.00002,   0.00052,  -0.00093,175621874.25363,   0.00000,274640135.82653,   0.00000,   0.00000,   0.00000,-299018261.57290,   0.00000
67304791.73918,143856595.89279,-71916695.67235,   0.00003,   0.00052,  -0.00093,176234078.13285,   0.00000,274640135.82653,   0.00000,   0.00000,   0.00000,-298406057.69368,   0.00000
68978419.77027,144474416.98573,-72125536.60517,   0.00003,   0.00052,  -0.00094,176837613.83884,   0.00000,274640135.82653,   0.00000,   0.00000,   0.00000,-297802521.98768,   0.00000
70663650.07541,145080635.80462,-72328576.40097,   0.00004,   0.00052,  -0.00094,177437549.40489,   0.00000,274640135.82653,   0.00000,   0.00000,   0.00000,-297202586.42164,   0.00000
72348880.38055,145686854.62351,-72525815.05975,   0.00005,   0.00052,  -0.00094,178041345.85674,   0.00000,274640135.82653,   0.00000,   0.00000,   0.00000,-296598789.96979,   0.00000
74066016.93932,146290172.87388,-72717252.58151,   0.00005,   0.00052,  -0.00095,178647293.82669,   0.00000,274640135.82653,   0.00000,   0.00000,   0.00000,-295992841.99984,   0.00000
75783153.49809,146893491.12426,-72908690.10326,   0.00006,   0.00052,  -0.00095,179264506.75125,   0.00000,274640135.82653,   0.00000,   0.00000,   0.00000,-295375629.07528,   0.00000
77503190.62536,147464903.12101,-73088525.35097,   0.00007,   0.00052,  -0.00095,179859498.84952,   0.00000,274640135.82653,   0.00000,   0.00000,   0.00000,-294780636.97701,   0.00000
79231929.45817,148056619.09734,-73268360.59868,   0.00007,   0.00052,  -0.00095,180478274.31167,   0.00000,274640135.82653,   0.00000,   0.00000,   0.00000,-294161861.51486,   0.00000
80992574.54461,148645434.50516,-73442394.70936,   0.00008,   0.00052,  -0.00095,181100640.30162,   0.00000,274640135.82653,   0.00000,   0.00000,   0.00000,-293539495.52491,   0.00000
82744517.92551,149213945.93340,-73610627.68303,   0.00009,   0.00052,  -0.00096,181715146.33455,   0.00000,274640135.82653,   0.00000,   0.00000,   0.00000,-292924989.49198,   0.00000
84508063.58046,149770855.08760,-73773059.51967,   0.00009,   0.00052,  -0.00096,182327918.41137,   0.00000,274640135.82653,   0.00000,   0.00000,   0.00000,-292312217.41516,   0.00000
86291913.21499,150336465.94733,-73929690.21928,   0.00010,   0.00052,  -0.00096,182951696.61694,   0.00000,274640135.82653,   0.00000,   0.00000,   0.00000,-291688439.20959,   0.00000
88067061.14398,150881772.82747,-74086320.91890,   0.00011,   0.00051,  -0.00096,183574919.74364,   0.00000,274640135.82653,   0.00000,   0.00000,   0.00000,-291065216.08289,   0.00000
89862513.05256,151435781.41316,-74231349.34447,   0.00011,   0.00051,  -0.00097,184202461.81030,   0.00000,274640135.82653,   0.00000,   0.00000,   0.00000,-290437674.01623,   0.00000
91669567.23518,151978187.72479,-74376377.77004,   0.00012,   0.00051,  -0.00097,184836254.86861,   0.00000,274640135.82653,   0.00000,   0.00000,   0.00000,-289803880.95791,   0.00000
93476621.41780,152520594.03643,-74515605.05859,   0.00013,   0.00051,  -0.00097,185475137.74491,   0.00000,274640135.82653,   0.00000,   0.00000,   0.00000,-289164998.08161,   0.00000
95295277.87446,153051398.07402,-74649031.21012,   0.00014,   0.00051,  -0.00097,186113617.20968,   0.00000,274640135.82653,   0.00000,   0.00000,   0.00000,-288526518.61685,   0.00000
97125536.60517,153570599.83757,-74770855.08760,   0.00014,   0.00051,  -0.00097,186745051.85119,   0.00000,274640135.82653,   0.00000,   0.00000,   0.00000,-287895083.97534,   0.00000
98955795.33589,154089801.60111,-74892678.96508,   0.00015,   0.00051,  -0.00097,187388840.66331,   0.00000,274640135.82653,   0.00000,   0.00000,   0.00000,-287251295.16322,   0.00000
100817960.32022,154606102.79615,-75014502.84256,   0.00016,   0.00051,  -0.00098,188047236.40119,   0.00000,274640135.82653,   0.00000,   0.00000,   0.00000,-286592899.42534,   0.00000
102651119.61945,155093398.30607,-75124724.44599,   0.00016,   0.00051,  -0.00098,188684594.61442,   0.00000,274640135.82653,   0.00000,   0.00000,   0.00000,-285955541.21211,   0.00000
104524886.87783,155598097.22706,-75229144.91240,   0.00017,   0.00050,  -0.00098,189342597.05411,   0.00000,274640135.82653,   0.00000,   0.00000,   0.00000,-285297538.77242,   0.00000
106398654.13621,156102796.14805,-75327764.24179,   0.00018,   0.00050,  -0.00098,190006435.01520,   0.00000,274640135.82653,   0.00000,   0.00000,   0.00000,-284633700.81133,   0.00000
108275321.96310,156575588.81541,-75426383.57118,   0.00019,   0.00050,  -0.00098,190666216.42135,   0.00000,274640135.82653,   0.00000,   0.00000,   0.00000,-283973919.40517,   0.00000
110151989.79000,157048381.48277,-75513400.62652,   0.00019,   0.00050,  -0.00098,191325074.91171,   0.00000,274640135.82653,   0.00000,   0.00000,   0.00000,-283315060.91482,   0.00000
112048961.59647,157529875.85567,-75594616.54484,   0.00020,   0.00050,  -0.00098,191997944.58167,   0.00000,274640135.82653,   0.00000,   0.00000,   0.00000,-282642191.24486,   0.00000
113957535.67699,157999767.95452,-75675832.46316,   0.00021,   0.00050,  -0.00098,192679727.20190,   0.00000,274640135.82653,   0.00000,   0.00000,   0.00000,-281960408.62463,   0.00000
115857408.05198,158449356.07379,-75751247.24446,   0.00022,   0.00050,  -0.00098,193355527.76112,   0.00000,274640135.82653,   0.00000,   0.00000,   0.00000,-281284608.06541,   0.00000
117777584.40654,158907645.89860,-75815059.75171,   0.00023,   0.00049,  -0.00099,194039198.33754,   0.00000,274640135.82653,   0.00000,   0.00000,   0.00000,-280600937.48899,   0.00000
119709363.03515,159354333.44936,-75878872.25896,   0.00023,   0.00049,  -0.00099,194732481.10968,   0.00000,274640135.82653,   0.00000,   0.00000,   0.00000,-279907654.71685,   0.00000
121641141.66377,159801021.00012,-75931082.49217,   0.00024,   0.00049,  -0.00099,195425543.08419,   0.00000,274640135.82653,   0.00000,   0.00000,   0.00000,-279214592.74234,   0.00000
123584522.56642,160236106.27683,-75983292.72537,   0.00025,   0.00049,  -0.00099,196128589.45288,   0.00000,274640135.82653,   0.00000,   0.00000,   0.00000,-278511546.37365,   0.00000
125519201.76355,160650887.57396,-76029701.82156,   0.00026,   0.00049,  -0.00099,196826200.48153,   0.00000,274640135.82653,   0.00000,   0.00000,   0.00000,-277813935.34500,   0.00000
127474184.94025,161074370.57663,-76070309.78072,   0.00027,   0.00048,  -0.00099,197539547.10190,   0.00000,274640135.82653,   0.00000,   0.00000,   0.00000,-277100588.72463,   0.00000
129420466.41142,161477549.59972,-76099315.46583,   0.00027,   0.00048,  -0.00099,198240948.87236,   0.00000,274640135.82653,   0.00000,   0.00000,   0.00000,-276399186.95417,   0.00000
131387051.86217,161889430.32834,-76128321.15095,   0.00028,   0.00048,  -0.00099,198965157.53861,   0.00000,274640135.82653,   0.00000,   0.00000,   0.00000,-275674978.28792,   0.00000
133365239.58696,162289708.78292,-76151525.69904,   0.00029,   0.00048,  -0.00099,199693754.06225,   0.00000,274640135.82653,   0.00000,   0.00000,   0.00000,-274946381.76428,   0.00000
135343427.31175,162689987.23750,-76168929.11011,   0.00030,   0.00048,  -0.00099,200429469.10857,   0.00000,274640135.82653,   0.00000,   0.00000,   0.00000,-274210666.71796,   0.00000
137312913.33101,163069961.71250,-76180531.38415,   0.00031,   0.00047,  -0.00099,201160277.25861,   0.00000,274640135.82653,   0.00000,   0.00000,   0.00000,-273479858.56792,   0.00000
139314305.60390,163447035.61898,-76180531.38415,   0.00032,   0.00047,  -0.00099,201899279.38002,   0.00000,274640135.82653,   0.00000,   0.00000,   0.00000,-272740856.44651,   0.00000
141295393.89720,163815407.81993,-76180531.38415,   0.00032,   0.00047,  -0.00099,202642378.80400,   0.00000,274640135.82653,   0.00000,   0.00000,   0.00000,-271997757.02253,   0.00000
143288084.46456,164172177.74684,-76174730.24713,   0.00033,   0.00047,  -0.00099,203390832.65627,   0.00000,274640135.82653,   0.00000,   0.00000,   0.00000,-271249303.17026,   0.00000
145301079.01149,164537649.37928,-76163127.97308,   0.00034,   0.00047,  -0.00099,204156826.53360,   0.00000,274640135.82653,   0.00000,   0.00000,   0.00000,-270483309.29293,   0.00000
147305371.85288,164882817.03214,-76139923.42499,   0.00035,   0.00046,  -0.00099,204912066.68127,   0.00000,274640135.82653,   0.00000,   0.00000,   0.00000,-269728069.14526,   0.00000
149329968.67386,165236686.39053,-76116718.87690,   0.00036,   0.00046,  -0.00099,205691705.10437,   0.00000,274640135.82653,   0.00000,   0.00000,   0.00000,-268948430.72216,   0.00000
151345863.78930,165570251.76935,-76087713.19179,   0.00037,   0.00046,  -0.00099,206467252.32229,   0.00000,274640135.82653,   0.00000,   0.00000,   0.00000,-268172883.50424,   0.00000
153373361.17879,165892214.87412,-76052906.36965,   0.00037,   0.00046,  -0.00099,207249371.50277,   0.00000,274640135.82653,   0.00000,   0.00000,   0.00000,-267390764.32376,   0.00000
155400858.56828,166214177.97888,-76006497.27347,   0.00038,   0.00045,  -0.00099,208032970.28154,   0.00000,274640135.82653,   0.00000,   0.00000,   0.00000,-266607165.54499,   0.00000
157439958.23181,166524538.80961,-75960088.17728,   0.00039,   0.00045,  -0.00099,208829957.20617,   0.00000,274640135.82653,   0.00000,   0.00000,   0.00000,-265810178.62036,   0.00000
159479057.89535,166834899.64033,-75902076.80705,   0.00040,   0.00045,  -0.00099,209628616.40853,   0.00000,274640135.82653,   0.00000,   0.00000,   0.00000,-265011519.41800,   0.00000
161509455.85335,167124956.49147,-75844065.43683,   0.00041,   0.00045,  -0.00099,210429944.19955,   0.00000,274640135.82653,   0.00000,   0.00000,   0.00000,-264210191.62698,   0.00000
163560157.79093,167423715.04815,-75780252.92957,   0.00042,   0.00044,  -0.00099,211250364.56326,   0.00000,274640135.82653,   0.00000,   0.00000,   0.00000,-263389771.26327,   0.00000
165622462.00255,167710871.33078,-75704838.14828,   0.00043,   0.00044,  -0.00098,212072432.02522,   0.00000,274640135.82653,   0.00000,   0.00000,   0.00000,-262567703.80131,   0.00000
167684766.21418,167998027.61341,-75623622.22996,   0.00044,   0.00044,  -0.00098,212902806.07601,   0.00000,274640135.82653,   0.00000,   0.00000,   0.00000,-261737329.75052,   0.00000
169738368.72027,168264879.91646,-75542406.31164,   0.00044,   0.00043,  -0.00098,213736152.42454,   0.00000,274640135.82653,   0.00000,   0.00000,   0.00000,-260903983.40199,   0.00000
171803573.50041,168520129.94547,-75449588.11927,   0.00045,   0.00043,  -0.00098,214571812.16335,   0.00000,274640135.82653,   0.00000,   0.00000,   0.00000,-260068323.66317,   0.00000
173868778.28054,168775379.97448,-75350968.78988,   0.00046,   0.00043,  -0.00098,215415917.05123,   0.00000,274640135.82653,   0.00000,   0.00000,   0.00000,-259224218.77530,   0.00000
175933983.06068,169030630.00348,-75252349.46049,   0.00047,   0.00043,  -0.00098,216274447.35145,   0.00000,274640135.82653,   0.00000,   0.00000,   0.00000,-258365688.47508,   0.00000
178010790.11486,169274277.75844,-75142127.85706,   0.00048,   0.00042,  -0.00098,217135885.36840,   0.00000,274640135.82653,   0.00000,   0.00000,   0.00000,-257504250.45813,   0.00000
180078895.46351,169497621.53382,-75026105.11660,   0.00049,   0.00042,  -0.00098,217994626.48052,   0.00000,274640135.82653,   0.00000,   0.00000,   0.00000,-256645509.34601,   0.00000
182167304.79174,169729667.01473,-74904281.23912,   0.00050,   0.00042,  -0.00097,218874038.79993,   0.00000,274640135.82653,   0.00000,   0.00000,   0.00000,-255766097.02660,   0.00000
184255714.11997,169961712.49565,-74776656.22462,   0.00051,   0.00041,  -0.00097,219762098.96108,   0.00000,274640135.82653,   0.00000,   0.00000,   0.00000,-254878036.86545,   0.00000
186326720.03713,170153150.01740,-74643230.07309,   0.00052,   0.00041,  -0.00097,220636574.71314,   0.00000,274640135.82653,   0.00000,   0.00000,   0.00000,-254003561.11339,   0.00000
188426731.63940,170373593.22427,-74498201.64752,   0.00053,   0.00041,  -0.00097,221537358.65919,   0.00000,274640135.82653,   0.00000,   0.00000,   0.00000,-253102777.16734,   0.00000
190518041.53614,170573732.45156,-74353173.22195,   0.00053,   0.00040,  -0.00097,222441749.70891,   0.00000,274640135.82653,   0.00000,   0.00000,   0.00000,-252198386.11762,   0.00000
192600649.72735,170753567.69927,-74202343.65936,   0.00054,   0.00040,  -0.00096,223343919.74913,   0.00000,274640135.82653,   0.00000,   0.00000,   0.00000,-251296216.07740,   0.00000
194703561.89813,170942104.65251,-74039911.82272,   0.00055,   0.00040,  -0.00096,224261831.64504,   0.00000,274640135.82653,   0.00000,   0.00000,   0.00000,-250378304.18149,   0.00000
196797772.36338,171110337.62617,-73877479.98608,   0.00056,   0.00039,  -0.00096,225183533.42071,   0.00000,274640135.82653,   0.00000,   0.00000,   0.00000,-249456602.40582,   0.00000
198891982.82863,171278570.59984,-73703445.87539,   0.00057,   0.00039,  -0.00096,226108444.90928,   0.00000,274640135.82653,   0.00000,   0.00000,   0.00000,-248531690.91725,   0.00000
200997795.56793,171435201.29945,-73529411.76471,   0.00058,   0.00039,  -0.00096,227050143.59654,   0.00000,274640135.82653,   0.00000,   0.00000,   0.00000,-247589992.22999,   0.00000
203103608.30723,171591831.99907,-73343775.37997,   0.00059,   0.00038,  -0.00095,227995264.07827,   0.00000,274640135.82653,   0.00000,   0.00000,   0.00000,-246644871.74826,   0.00000
205200719.34099,171728158.71911,-73152337.85822,   0.00060,   0.00038,  -0.00095,228938742.06263,   0.00000,274640135.82653,   0.00000,   0.00000,   0.00000,-245701393.76390,   0.00000
207318134.35433,171873187.14468,-72955099.19944,   0.00061,   0.00038,  -0.00095,229904572.12649,   0.00000,274640135.82653,   0.00000,   0.00000,   0.00000,-244735563.70004,   0.00000
209415245.38810,172009513.86472,-72752059.40364,   0.00062,   0.00037,  -0.00095,230866172.81074,   0.00000,274640135.82653,   0.00000,   0.00000,   0.00000,-243773963.01579,   0.00000
211515256.99037,172113934.33113,-72543218.47082,   0.00063,   0.00037,  -0.00094,231829124.39399,   0.00000,274640135.82653,   0.00000,   0.00000,   0.00000,-242811011.43254,   0.00000
213644274.27776,172247360.48265,-72328576.40097,   0.00064,   0.00037,  -0.00094,232825333.00934,   0.00000,274640135.82653,   0.00000,   0.00000,   0.00000,-241814802.81719,   0.00000
215744285.88003,172351780.94907,-72108133.19411,   0.00065,   0.00036,  -0.00094,233806693.66682,   0.00000,274640135.82653,   0.00000,   0.00000,   0.00000,-240833442.15971,   0.00000
217855899.75635,172444599.14143,-71881888.85021,   0.00065,   0.00036,  -0.00093,234800505.45440,   0.00000,274640135.82653,   0.00000,   0.00000,   0.00000,-239839630.37213,   0.00000
219967513.63267,172537417.33380,-71644042.23228,   0.00066,   0.00036,  -0.00093,235798318.68904,   0.00000,274640135.82653,   0.00000,   0.00000,   0.00000,-238841817.13749,   0.00000
222079127.50899,172630235.52616,-71406195.61434,   0.00067,   0.00035,  -0.00093,236810682.44906,   0.00000,274640135.82653,   0.00000,   0.00000,   0.00000,-237829453.37746,   0.00000
224182039.67978,172702749.73895,-71156746.72236,   0.00068,   0.00035,  -0.00093,237816777.79317,   0.00000,274640135.82653,   0.00000,   0.00000,   0.00000,-236823358.03336,   0.00000
226296554.12461,172763661.67769,-70901496.69335,   0.00069,   0.00034,  -0.00092,238836049.60185,   0.00000,274640135.82653,   0.00000,   0.00000,   0.00000,-235804086.22468,   0.00000
228411068.56944,172824573.61643,-70640445.52732,   0.00070,   0.00034,  -0.00092,239864798.56128,   0.00000,274640135.82653,   0.00000,   0.00000,   0.00000,-234775337.26525,   0.00000
230505279.03469,172876783.84963,-70379394.36129,   0.00071,   0.00034,  -0.00091,240893819.36688,   0.00000,274640135.82653,   0.00000,   0.00000,   0.00000,-233746316.45965,   0.00000
232631395.75357,172926093.51433,-70100939.78420,   0.00072,   0.00033,  -0.00091,241940461.45242,   0.00000,274640135.82653,   0.00000,   0.00000,   0.00000,-232699674.37410,   0.00000
234737208.49286,172966701.47349,-69822485.20710,   0.00073,   0.00033,  -0.00091,242987354.66074,   0.00000,274640135.82653,   0.00000,   0.00000,   0.00000,-231652781.16579,   0.00000
236834319.52663,172987005.45307,-69538229.49298,   0.00074,   0.00033,  -0.00090,244033676.61224,   0.00000,274640135.82653,   0.00000,   0.00000,   0.00000,-230606459.21428,   0.00000
238951734.53997,173016011.13818,-69248172.64184,   0.00075,   0.00032,  -0.00090,245103904.14654,   0.00000,274640135.82653,   0.00000,   0.00000,   0.00000,-229536231.67999,   0.00000
241069149.55331,173045016.82330,-68946513.51665,   0.00076,   0.00032,  -0.00090,246178721.36317,   0.00000,274640135.82653,   0.00000,   0.00000,   0.00000,-228461414.46336,   0.00000
243177862.86112,173053718.52883,-68644854.39146,   0.00077,   0.00031,  -0.00089,247258118.47869,   0.00000,274640135.82653,   0.00000,   0.00000,   0.00000,-227382017.34784,   0.00000
245286576.16893,173062420.23437,-68331592.99223,   0.00078,   0.00031,  -0.00089,248342177.29943,   0.00000,274640135.82653,   0.00000,   0.00000,   0.00000,-226297958.52710,   0.00000
247386587.77120,173050817.96032,-68018331.59299,   0.00079,   0.00030,  -0.00088,249430828.76356,   0.00000,274640135.82653,   0.00000,   0.00000,   0.00000,-225209307.06296,   0.00000
249486599.37348,173039215.68627,-67693467.91971,   0.00080,   0.00030,  -0.00088,250524219.88589,   0.00000,274640135.82653,   0.00000,   0.00000,   0.00000,-224115915.94064,   0.00000
251577909.27022,173007309.43265,-67362803.10941,   0.00081,   0.00030,  -0.00088,251617563.14422,   0.00000,274640135.82653,   0.00000,   0.00000,   0.00000,-223022572.68230,   0.00000
253689523.14654,172984104.88456,-67026337.16208,   0.00082,   0.00029,  -0.00087,252735453.06710,   0.00000,274640135.82653,   0.00000,   0.00000,   0.00000,-221904682.75943,   0.00000
255772131.33774,172931894.65135,-66684070.07774,   0.00083,   0.00029,  -0.00087,253838451.95696,   0.00000,274640135.82653,   0.00000,   0.00000,   0.00000,-220801683.86957,   0.00000
257883745.21406,172908690.10326,-66330200.71934,   0.00084,   0.00028,  -0.00086,254970953.55623,   0.00000,274640135.82653,   0.00000,   0.00000,   0.00000,-219669182.27030,   0.00000
259957651.69973,172836175.89047,-65976331.36095,   0.00085,   0.00028,  -0.00086,256083710.64943,   0.00000,274640135.82653,   0.00000,   0.00000,   0.00000,-218556425.17710,   0.00000
262060563.87052,172792667.36280,-65616660.86553,   0.00086,   0.00028,  -0.00085,257230518.67561,   0.00000,274640135.82653,   0.00000,   0.00000,   0.00000,-217409617.15092,   0.00000
264154774.33577,172728854.85555,-65245388.09607,   0.00087,   0.00027,  -0.00085,258373242.48433,   0.00000,274640135.82653,   0.00000,   0.00000,   0.00000,-216266893.34220,   0.00000
266240283.09549,172644738.36872,-64874115.32660,   0.00087,   0.00027,  -0.00084,259520832.55331,   0.00000,274640135.82653,   0.00000,   0.00000,   0.00000,-215119303.27322,   0.00000
268325791.85520,172560621.88189,-64491240.28310,   0.00088,   0.00026,  -0.00084,260673729.99452,   0.00000,274640135.82653,   0.00000,   0.00000,   0.00000,-213966405.83201,   0.00000
270390996.63534,172467803.68952,-64102564.10256,   0.00089,   0.00026,  -0.00083,261820757.80463,   0.00000,274640135.82653,   0.00000,   0.00000,   0.00000,-212819378.02190,   0.00000
272476505.39506,172383687.20269,-63708086.78501,   0.00090,   0.00025,  -0.00083,262992847.61227,   0.00000,274640135.82653,   0.00000,   0.00000,   0.00000,-211647288.21425,   0.00000
274553312.44924,172279266.73628,-63307808.33043,   0.00091,   0.00025,  -0.00082,264165591.17735,   0.00000,274640135.82653,   0.00000,   0.00000,   0.00000,-210474544.64918,   0.00000
276621417.79789,172154542.29029,-62901728.73883,   0.00092,   0.00024,  -0.00082,265339111.48191,   0.00000,274640135.82653,   0.00000,   0.00000,   0.00000,-209301024.34462,   0.00000
278698224.85207,172050121.82388,-62489848.01021,   0.00093,   0.00024,  -0.00081,266531095.24111,   0.00000,274640135.82653,   0.00000,   0.00000,   0.00000,-208109040.58542,   0.00000
280766330.20072,171925397.37789,-62072166.14456,   0.00094,   0.00023,  -0.00081,267723874.50033,   0.00000,274640135.82653,   0.00000,   0.00000,   0.00000,-206916261.32620,   0.00000
282825733.84383,171780368.95231,-61642882.00487,   0.00095,   0.00023,  -0.00080,268913585.89404,   0.00000,274640135.82653,   0.00000,   0.00000,   0.00000,-205726549.93249,   0.00000
284893839.19248,171655644.50632,-61213597.86518,   0.00096,   0.00023,  -0.00080,270125596.73057,   0.00000,274640135.82653,   0.00000,   0.00000,   0.00000,-204514539.09596,   0.00000
286932938.85602,171501914.37522,-60772711.45144,   0.00097,   0.00022,  -0.00079,271318700.23145,   0.00000,274640135.82653,   0.00000,   0.00000,   0.00000,-203321435.59508,   0.00000
288983640.79360,171336581.97007,-60326023.90068,   0.00098,   0.00022,  -0.00078,272528874.04395,   0.00000,274640135.82653,   0.00000,   0.00000,   0.00000,-202111261.78258,   0.00000
291034342.73118,171171249.56491,-59879336.34992,   0.00099,   0.00021,  -0.00078,273752585.33958,   0.00000,274640135.82653,   0.00000,   0.00000,   0.00000,-200887550.48695,   0.00000
293064740.68918,170997215.45423,-59421046.52512,   0.00100,   0.00021,  -0.00077,274966029.96201,   0.00000,274640135.82653,   0.00000,   0.00000,   0.00000,-199674105.86452,   0.00000
295115442.62675,170831883.04908,-58956955.56329,   0.00101,   0.00020,  -0.00077,276205173.35844,   0.00000,274640135.82653,   0.00000,   0.00000,   0.00000,-198434962.46809,   0.00000
297137138.87922,170637544.95881,-58487063.46444,   0.00102,   0.00020,  -0.00076,277429466.59384,   0.00000,274640135.82653,   0.00000,   0.00000,   0.00000,-197210669.23269,   0.00000
299179139.11127,170451908.57408,-58011370.22856,   0.00103,   0.00019,  -0.00075,278679587.29736,   0.00000,274640135.82653,   0.00000,   0.00000,   0.00000,-195960548.52917,   0.00000
301200835.36373,170257570.48381,-57529875.85567,   0.00104,   0.00019,  -0.00075,279923062.50476,   0.00000,274640135.82653,   0.00000,   0.00000,   0.00000,-194717073.32177,   0.00000
303213829.91066,170042928.41397,-57036779.20872,   0.00105,   0.00018,  -0.00074,281164434.32017,   0.00000,274640135.82653,   0.00000,   0.00000,   0.00000,-193475701.50636,   0.00000
305226824.45759,169828286.34412,-56543682.56178,   0.00106,   0.00018,  -0.00074,282418973.83161,   0.00000,274640135.82653,   0.00000,   0.00000,   0.00000,-192221161.99492,   0.00000
307239819.00453,169613644.27428,-56044784.77782,   0.00107,   0.00017,  -0.00073,283683067.94869,   0.00000,274640135.82653,   0.00000,   0.00000,   0.00000,-190957067.87784,   0.00000
309244111.84592,169378698.22485,-55534284.71981,   0.00108,   0.00017,  -0.00072,284945379.61437,   0.00000,274640135.82653,   0.00000,   0.00000,   0.00000,-189694756.21216,   0.00000
311228100.70774,169135050.46989,-55017983.52477,   0.00109,   0.00016,  -0.00072,286200892.69627,   0.00000,274640135.82653,   0.00000,   0.00000,   0.00000,-188439243.13026,   0.00000
313232393.54914,168900104.42047,-54501682.32974,   0.00110,   0.00016,  -0.00071,287485814.94355,   0.00000,274640135.82653,   0.00000,   0.00000,   0.00000,-187154320.88298,   0.00000
315216382.41095,168656456.66551,-53973778.86066,   0.00111,   0.00015,  -0.00070,288760448.10250,   0.00000,274640135.82653,   0.00000,   0.00000,   0.00000,-185879687.72403,   0.00000
317191669.56724,168392504.93097,-53440074.25455,   0.00111,   0.00015,  -0.00069,290036921.42055,   0.00000,274640135.82653,   0.00000,   0.00000,   0.00000,-184603214.40598,   0.00000
319166956.72352,168128553.19643,-52906369.64845,   0.00112,   0.00014,  -0.00069,291326157.16784,   0.00000,274640135.82653,   0.00000,   0.00000,   0.00000,-183313978.65869,   0.00000
321142243.87980,167864601.46189,-52361062.76830,   0.00113,   0.00014,  -0.00068,292621757.78525,   0.00000,274640135.82653,   0.00000,   0.00000,   0.00000,-182018378.04128,   0.00000
323108829.33055,167580345.74777,-51809954.75113,   0.00114,   0.00013,  -0.00067,293919398.42901,   0.00000,274640135.82653,   0.00000,   0.00000,   0.00000,-180720737.39752,   0.00000
325055110.80172,167287388.32811,-51253045.59694,   0.00115,   0.00013,  -0.00067,295209923.36322,   0.00000,274640135.82653,   0.00000,   0.00000,   0.00000,-179430212.46331,   0.00000
327001392.27289,166994430.90846,-50690335.30572,   0.00116,   0.00012,  -0.00066,296509981.91322,   0.00000,274640135.82653,   0.00000,   0.00000,   0.00000,-178130153.91331,   0.00000
328967977.72363,166710175.19434,-50121823.87748,   0.00117,   0.00012,  -0.00065,297836356.69220,   0.00000,274640135.82653,   0.00000,   0.00000,   0.00000,-176803779.13433,   0.00000
330893955.21522,166408516.06915,-49541710.17519,   0.00118,   0.00011,  -0.00064,299135713.17371,   0.00000,274640135.82653,   0.00000,   0.00000,   0.00000,-175504422.65282,   0.00000
332831534.98086,166095254.66992,-48961596.47291,   0.00119,   0.00011,  -0.00064,300457051.04770,   0.00000,274640135.82653,   0.00000,   0.00000,   0.00000,-174183084.77883,   0.00000
334748810.76691,165773291.56515,-48375681.63360,   0.00120,   0.00010,  -0.00063,301771035.75128,   0.00000,274640135.82653,   0.00000,   0.00000,   0.00000,-172869100.07525,   0.00000
336666086.55296,165451328.46038,-47783965.65727,   0.00121,   0.00010,  -0.00062,303094484.90240,   0.00000,274640135.82653,   0.00000,   0.00000,   0.00000,-171545650.92413,   0.00000
338574660.63348,165109061.37603,-47180647.40689,   0.00122,   0.00009,  -0.00061,304417639.13717,   0.00000,274640135.82653,   0.00000,   0.00000,   0.00000,-170222496.68936,   0.00000
340491936.41954,164787098.27126,-46577329.15651,   0.00123,   0.00009,  -0.00061,305760054.79806,   0.00000,274640135.82653,   0.00000,   0.00000,   0.00000,-168880081.02847,   0.00000
342380206.52048,164436129.48138,-45962408.63209,   0.00124,   0.00008,  -0.00060,307085329.42221,   0.00000,274640135.82653,   0.00000,   0.00000,   0.00000,-167554806.40432,   0.00000
344268476.62142,164085160.69150,-45347488.10767,   0.00125,   0.00008,  -0.00059,308422696.44105,   0.00000,274640135.82653,   0.00000,   0.00000,   0.00000,-166217439.38548,   0.00000
346148045.01682,163713887.92203,-44726766.44622,   0.00126,   0.00007,  -0.00058,309762675.01332,   0.00000,274640135.82653,   0.00000,   0.00000,   0.00000,-164877460.81321,   0.00000
348016011.13818,163354217.42662,-44094442.51073,   0.00126,   0.00006,  -0.00057,311099374.45964,   0.00000,274640135.82653,   0.00000,   0.00000,   0.00000,-163540761.36689,   0.00000
349875275.55401,162974242.95162,-43462118.57524,   0.00127,   0.00006,  -0.00057,312441228.71652,   0.00000,274640135.82653,   0.00000,   0.00000,   0.00000,-162198907.11001,   0.00000
351734539.96983,162594268.47662,-42818192.36570,   0.00128,   0.00005,  -0.00056,313790145.34762,   0.00000,274640135.82653,   0.00000,   0.00000,   0.00000,-160849990.47891,   0.00000
353593804.38566,162214294.00162,-42168465.01914,   0.00129,   0.00005,  -0.00055,315148575.53670,   0.00000,274640135.82653,   0.00000,   0.00000,   0.00000,-159491560.28983,   0.00000
355432764.82191,161825617.82109,-41518737.67258,   0.00130,   0.00004,  -0.00054,316501612.73639,   0.00000,274640135.82653,   0.00000,   0.00000,   0.00000,-158138523.09014,   0.00000
357263023.55262,161416637.66098,-40857408.05198,   0.00131,   0.00004,  -0.00053,317855291.39445,   0.00000,274640135.82653,   0.00000,   0.00000,   0.00000,-156784844.43208,   0.00000
359081680.00928,161019259.77492,-40196078.43137,   0.00132,   0.00003,  -0.00052,319209903.96087,   0.00000,274640135.82653,   0.00000,   0.00000,   0.00000,-155430231.86566,   0.00000
360911938.73999,160610279.61480,-39523146.53672,   0.00133,   0.00003,  -0.00051,320582531.31159,   0.00000,274640135.82653,   0.00000,   0.00000,   0.00000,-154057604.51494,   0.00000
362721893.49112,160192597.74916,-38850214.64207,   0.00134,   0.00002,  -0.00051,321949523.28863,   0.00000,274640135.82653,   0.00000,   0.00000,   0.00000,-152690612.53790,   0.00000
364511544.26268,159766214.17798,-38165680.47337,   0.00135,   0.00002,  -0.00050,323306568.35347,   0.00000,274640135.82653,   0.00000,   0.00000,   0.00000,-151333567.47306,   0.00000
366301195.03423,159339830.60680,-37481146.30468,   0.00136,   0.00001,  -0.00049,324675046.34391,   0.00000,274640135.82653,   0.00000,   0.00000,   0.00000,-149965089.48262,   0.00000
368082144.10024,158893143.05604,-36785009.86193,   0.00136,   0.00001,  -0.00048,326044748.13803,   0.00000,274640135.82653,   0.00000,   0.00000,   0.00000,-148595387.68850,   0.00000
369851490.89222,158458057.77932,-36088873.41919,   0.00137,  -0.00000,  -0.00047,327414649.68877,   0.00000,274640135.82653,   0.00000,   0.00000,   0.00000,-147225486.13776,   0.00000
371612135.97865,158002668.52303,-35381134.70240,   0.00138,  -0.00001,  -0.00046,328785930.05987,   0.00000,274640135.82653,   0.00000,   0.00000,   0.00000,-145854205.76666,   0.00000
373372781.06509,157547279.26674,-34673395.98561,   0.00139,  -0.00001,  -0.00045,330168511.82857,   0.00000,274640135.82653,   0.00000,   0.00000,   0.00000,-144471623.99795,   0.00000
375113122.17195,157083188.30491,-33954054.99478,   0.00140,  -0.00002,  -0.00044,331541325.96044,   0.00000,274640135.82653,   0.00000,   0.00000,   0.00000,-143098809.86609,   0.00000
376853463.27880,156619097.34308,-33234714.00394,   0.00141,  -0.00002,  -0.00043,332925312.69524,   0.00000,274640135.82653,   0.00000,   0.00000,   0.00000,-141714823.13129,   0.00000
378573500.40608,156146304.67572,-32503770.73906,   0.00142,  -0.00003,  -0.00042,334299560.08617,   0.00000,274640135.82653,   0.00000,   0.00000,   0.00000,-140340575.74036,   0.00000
380293537.53336,155673512.00835,-31772827.47418,   0.00143,  -0.00003,  -0.00041,335684858.38039,   0.00000,274640135.82653,   0.00000,   0.00000,   0.00000,-138955277.44614,   0.00000
382004872.95510,155180415.36141,-31036083.07228,   0.00144,  -0.00004,  -0.00040,337073767.55739,   0.00000,274640135.82653,   0.00000,   0.00000,   0.00000,-137566368.26914,   0.00000
383704606.10280,154698920.98851,-30293537.53336,   0.00144,  -0.00004,  -0.00039,338460319.10099,   0.00000,274640135.82653,   0.00000,   0.00000,   0.00000,-136179816.72554,   0.00000
385395637.54496,154197122.63604,-29539389.72039,   0.00145,  -0.00005,  -0.00038,339849052.25285,   0.00000,274640135.82653,   0.00000,   0.00000,   0.00000,-134791083.57368,   0.00000
387075066.71308,153706926.55761,-28785241.90741,   0.00146,  -0.00006,  -0.00037,341236835.85770,   0.00000,274640135.82653,   0.00000,   0.00000,   0.00000,-133403299.96883,   0.00000
388745794.17566,153196426.49959,-28025292.95742,   0.00147,  -0.00006,  -0.00036,342628402.54874,   0.00000,274640135.82653,   0.00000,   0.00000,   0.00000,-132011733.27779,   0.00000
390396217.65866,152677224.73605,-27259542.87040,   0.00148,  -0.00007,  -0.00035,344011887.42284,   0.00000,274640135.82653,   0.00000,   0.00000,   0.00000,-130628248.40369,   0.00000
392046641.14166,152158022.97250,-26493792.78339,   0.00149,  -0.00007,  -0.00034,345406071.34847,   0.00000,274640135.82653,   0.00000,   0.00000,   0.00000,-129234064.47806,   0.00000
393676760.64509,151630119.50342,-25716440.42232,   0.00150,  -0.00008,  -0.00033,346790767.86195,   0.00000,274640135.82653,   0.00000,   0.00000,   0.00000,-127849367.96458,   0.00000
395306880.14851,151102216.03434,-24933286.92424,   0.00150,  -0.00008,  -0.00032,348184821.56710,   0.00000,274640135.82653,   0.00000,   0.00000,   0.00000,-126455314.25943,   0.00000
396916695.67235,150565610.85973,-24144332.28913,   0.00151,  -0.00009,  -0.00031,349570748.31535,   0.00000,274640135.82653,   0.00000,   0.00000,   0.00000,-125069387.51118,   0.00000
398526511.19619,150029005.68511,-23355377.65402,   0.00152,  -0.00009,  -0.00030,350967188.57357,   0.00000,274640135.82653,   0.00000,   0.00000,   0.00000,-123672947.25296,   0.00000
400116022.74046,149483698.80497,-22554820.74487,   0.00153,  -0.00010,  -0.00029,352354288.53383,   0.00000,274640135.82653,   0.00000,   0.00000,   0.00000,-122285847.29270,   0.00000
401705534.28472,148938391.92482,-21754263.83571,   0.00154,  -0.00011,  -0.00028,353751817.72757,   0.00000,274640135.82653,   0.00000,   0.00000,   0.00000,-120888318.09896,   0.00000
403286344.12345,148372781.06509,-20947905.78953,   0.00155,  -0.00011,  -0.00027,355153608.09821,   0.00000,274640135.82653,   0.00000,   0.00000,   0.00000,-119486527.72832,   0.00000
404835247.70855,147810070.77387,-20135746.60633,   0.00155,  -0.00012,  -0.00026,356534729.11912,   0.00000,274640135.82653,   0.00000,   0.00000,   0.00000,-118105406.70741,   0.00000
406404455.27323,147256062.18819,-19317786.28611,   0.00156,  -0.00012,  -0.00025,357942649.00794,   0.00000,274640135.82653,   0.00000,   0.00000,   0.00000,-116697486.81859,   0.00000
407924353.17322,146664346.21186,-18494024.82887,   0.00157,  -0.00013,  -0.00024,359319964.18597,   0.00000,274640135.82653,   0.00000,   0.00000,   0.00000,-115320171.64055,   0.00000
409473256.75833,146101635.92064,-17664462.23460,   0.00158,  -0.00013,  -0.00023,360729016.04795,   0.00000,274640135.82653,   0.00000,   0.00000,   0.00000,-113911119.77857,   0.00000
410981552.38427,145521522.21835,-16834899.64033,   0.00159,  -0.00014,  -0.00022,362113145.66031,   0.00000,274640135.82653,   0.00000,   0.00000,   0.00000,-112526990.16621,   0.00000
412481146.30468,144921104.53649,-15993734.77202,   0.00159,  -0.00014,  -0.00021,363501028.78784,   0.00000,274640135.82653,   0.00000,   0.00000,   0.00000,-111139107.03869,   0.00000
413989441.93062,144340990.83420,-15152569.90370,   0.00160,  -0.00015,  -0.00020,364903733.25840,   0.00000,274640135.82653,   0.00000,   0.00000,   0.00000,-109736402.56813,   0.00000
415477433.57698,143752175.42638,-14305603.89836,   0.00161,  -0.00016,  -0.00019,366298173.27276,   0.00000,274640135.82653,   0.00000,   0.00000,   0.00000,-108341962.55377,   0.00000
416936419.53823,143134354.33345,-13452836.75600,   0.00162,  -0.00016,  -0.00017,367679796.24866,   0.00000,274640135.82653,   0.00000,   0.00000,   0.00000,-106960339.57787,   0.00000
418404107.20501,142536837.22010,-12594268.47662,   0.00163,  -0.00017,  -0.00016,369075325.05603,   0.00000,274640135.82653,   0.00000,   0.00000,   0.00000,-105564810.77050,   0.00000
419851490.89222,141930618.40121,-11729899.06022,   0.00163,  -0.00017,  -0.00015,370462636.03912,   0.00000,274640135.82653,   0.00000,   0.00000,   0.00000,-104177499.78741,   0.00000
421290172.87388,141304095.60274,-10859728.50679,   0.00164,  -0.00018,  -0.00014,371854852.65043,   0.00000,274640135.82653,   0.00000,   0.00000,   0.00000,-102785283.17610,   0.00000
422717252.58151,140689175.07832,-9989557.95336,   0.00165,  -0.00018,  -0.00013,373243823.60800,   0.00000,274640135.82653,   0.00000,   0.00000,   0.00000,-101396312.21853,   0.00000
424124028.30955,140065552.84836,-9113586.26291,   0.00166,  -0.00019,  -0.00012,374624553.84892,   0.00000,274640135.82653,   0.00000,   0.00000,   0.00000,-100015581.97761,   0.00000
425522102.33206,139421626.63882,-8231813.43543,   0.00166,  -0.00020,  -0.00011,376010311.19786,   0.00000,274640135.82653,   0.00000,   0.00000,   0.00000,-98629824.62867,   0.00000
426928878.06010,138798004.40886,-7344239.47094,   0.00167,  -0.00020,  -0.00010,377409711.33571,   0.00000,274640135.82653,   0.00000,   0.00000,   0.00000,-97230424.49082,   0.00000
428295045.82898,138156978.76784,-6456665.50644,   0.00168,  -0.00021,  -0.00008,378783728.66232,   0.00000,274640135.82653,   0.00000,   0.00000,   0.00000,-95856407.16421,   0.00000
429661213.59787,137515953.12681,-5557489.26790,   0.00169,  -0.00021,  -0.00007,380166781.27648,   0.00000,274640135.82653,   0.00000,   0.00000,   0.00000,-94473354.55005,   0.00000
431027381.36675,136874927.48579,-4658313.02935,   0.00169,  -0.00022,  -0.00006,381559441.41640,   0.00000,274640135.82653,   0.00000,   0.00000,   0.00000,-93080694.41013,   0.00000
432352941.17647,136216498.43369,-3753335.65379,   0.00170,  -0.00022,  -0.00005,382926440.76964,   0.00000,274640135.82653,   0.00000,   0.00000,   0.00000,-91713695.05689,   0.00000
433678500.98619,135558069.38160,-2848358.27822,   0.00171,  -0.00023,  -0.00004,384302942.35245,   0.00000,274640135.82653,   0.00000,   0.00000,   0.00000,-90337193.47408,   0.00000
435012762.50145,134919944.30908,-1931778.62861,   0.00172,  -0.00023,  -0.00003,385692614.04269,   0.00000,274640135.82653,   0.00000,   0.00000,   0.00000,-88947521.78384,   0.00000
436318018.33159,134252813.55146,-1015198.97900,   0.00172,  -0.00024,  -0.00001,387070279.65213,   0.00000,274640135.82653,   0.00000,   0.00000,   0.00000,-87569856.17440,   0.00000
437602970.18216,133576981.08829,-92818.19237,   0.00173,  -0.00025,  -0.00000,388439842.91310,   0.00000,274640135.82653,   0.00000,   0.00000,   0.00000,-86200292.91343,   0.00000
438876319.75867,132912750.89918,835363.73129,   0.00174,  -0.00025,   0.00001,389805153.80195,   0.00000,274640135.82653,   0.00000,   0.00000,   0.00000,-84834982.02458,   0.00000
440140967.62966,132228216.73048,1763545.65495,   0.00174,  -0.00026,   0.00002,391175980.48171,   0.00000,274640135.82653,   0.00000,   0.00000,   0.00000,-83464155.34482,   0.00000
441394013.22659,131555284.83583,2703329.85265,   0.00175,  -0.00026,   0.00004,392542579.50258,   0.00000,274640135.82653,   0.00000,   0.00000,   0.00000,-82097556.32395,   0.00000
442647058.82353,130882352.94118,3643114.05035,   0.00176,  -0.00027,   0.00005,393918439.85167,   0.00000,274640135.82653,   0.00000,   0.00000,   0.00000,-80721695.97486,   0.00000
443879800.44089,130200719.34099,4582898.24806,   0.00177,  -0.00027,   0.00006,395286028.22143,   0.00000,274640135.82653,   0.00000,   0.00000,   0.00000,-79354107.60510,   0.00000
445092238.07866,129510384.03527,5534284.71981,   0.00177,  -0.00028,   0.00007,396645759.09523,   0.00000,274640135.82653,   0.00000,   0.00000,   0.00000,-77994376.73130,   0.00000
446284371.73686,128811347.02402,6485671.19155,   0.00178,  -0.00028,   0.00008,397997241.56322,   0.00000,274640135.82653,   0.00000,   0.00000,   0.00000,-76642894.26331,   0.00000
447476505.39506,128112310.01276,7442858.80032,   0.00179,  -0.00029,   0.00010,399358143.16994,   0.00000,274640135.82653,   0.00000,   0.00000,   0.00000,-75281992.65659,   0.00000
448657036.77921,127424875.27555,8400046.40910,   0.00179,  -0.00030,   0.00011,400714176.03627,   0.00000,274640135.82653,   0.00000,   0.00000,   0.00000,-73925959.79026,   0.00000
449808562.47825,126708434.85323,9363035.15489,   0.00180,  -0.00030,   0.00012,402058740.34578,   0.00000,274640135.82653,   0.00000,   0.00000,   0.00000,-72581395.48075,   0.00000
450968789.88282,126012298.41049,10331825.03771,   0.00181,  -0.00031,   0.00013,403416131.18511,   0.00000,274640135.82653,   0.00000,   0.00000,   0.00000,-71224004.64141,   0.00000
452108713.30781,125307460.26221,11306416.05755,   0.00181,  -0.00031,   0.00015,404765560.23381,   0.00000,274640135.82653,   0.00000,   0.00000,   0.00000,-69874575.59272,   0.00000
453228332.75322,124593920.40840,12281007.07739,   0.00182,  -0.00032,   0.00016,406106563.84700,   0.00000,274640135.82653,   0.00000,   0.00000,   0.00000,-68533571.97953,   0.00000
454347952.19863,123880380.55459,13261399.23425,   0.00183,  -0.00032,   0.00017,407457000.50413,   0.00000,274640135.82653,   0.00000,   0.00000,   0.00000,-67183135.32240,   0.00000
455426963.68488,123149437.28971,14247592.52814,   0.00183,  -0.00033,   0.00019,408782228.73578,   0.00000,274640135.82653,   0.00000,   0.00000,   0.00000,-65857907.09075,   0.00000
456505975.17113,122418494.02483,15233785.82202,   0.00184,  -0.00033,   0.00020,410116353.90933,   0.00000,274640135.82653,   0.00000,   0.00000,   0.00000,-64523781.91720,   0.00000
457593688.36292,121707854.73953,16225780.25293,   0.00184,  -0.00034,   0.00021,411463081.23127,   0.00000,274640135.82653,   0.00000,   0.00000,   0.00000,-63177054.59526,   0.00000
458640793.59555,120979812.04316,17217774.68384,   0.00185,  -0.00034,   0.00022,412783927.45191,   0.00000,274640135.82653,   0.00000,   0.00000,   0.00000,-61856208.37462,   0.00000
459687898.82817,120251769.34679,18215570.25177,   0.00186,  -0.00035,   0.00024,414114223.58751,   0.00000,274640135.82653,   0.00000,   0.00000,   0.00000,-60525912.23902,   0.00000
460714700.08122,119515024.94489,19219166.95672,   0.00186,  -0.00035,   0.00025,415436729.62480,   0.00000,274640135.82653,   0.00000,   0.00000,   0.00000,-59203406.20173,   0.00000
461750203.03980,118798584.52257,20222763.66168,   0.00187,  -0.00036,   0.00026,416770876.71534,   0.00000,274640135.82653,   0.00000,   0.00000,   0.00000,-57869259.11119,   0.00000
462736396.33368,118044436.70960,21232161.50365,   0.00188,  -0.00037,   0.00028,418077048.31297,   0.00000,274640135.82653,   0.00000,   0.00000,   0.00000,-56563087.51356,   0.00000
463731291.33310,117310592.87620,22247360.48265,   0.00188,  -0.00037,   0.00029,419395670.20444,   0.00000,274640135.82653,   0.00000,   0.00000,   0.00000,-55244465.62209,   0.00000
464705882.35294,116568047.33728,23262559.46165,   0.00189,  -0.00038,   0.00030,420705656.58135,   0.00000,274640135.82653,   0.00000,   0.00000,   0.00000,-53934479.24518,   0.00000
465680473.37278,115825501.79835,24283559.57768,   0.00189,  -0.00038,   0.00032,422025176.30910,   0.00000,274640135.82653,   0.00000,   0.00000,   0.00000,-52614959.51743,   0.00000
466623158.13900,115085856.82794,25304559.69370,   0.00190,  -0.00039,   0.00033,423321582.73247,   0.00000,274640135.82653,   0.00000,   0.00000,   0.00000,-51318553.09406,   0.00000
467557141.19968,114325907.87794,26331360.94675,   0.00190,  -0.00039,   0.00034,424624799.74018,   0.00000,274640135.82653,   0.00000,   0.00000,   0.00000,-50015336.08635,   0.00000
468479521.98631,113577561.20200,27363963.33681,   0.00191,  -0.00040,   0.00036,425923141.91334,   0.00000,274640135.82653,   0.00000,   0.00000,   0.00000,-48716993.91319,   0.00000
469381598.79336,112820512.82051,28396565.72688,   0.00192,  -0.00040,   0.00037,427212798.90678,   0.00000,274640135.82653,   0.00000,   0.00000,   0.00000,-47427336.91975,   0.00000
470283675.60042,112063464.43903,29434969.25397,   0.00192,  -0.00041,   0.00038,428512065.04177,   0.00000,274640135.82653,   0.00000,   0.00000,   0.00000,-46128070.78476,   0.00000
471174150.13343,111318018.33159,30473372.78107,   0.00193,  -0.00041,   0.00040,429805174.03036,   0.00000,274640135.82653,   0.00000,   0.00000,   0.00000,-44834961.79617,   0.00000
472044320.68686,110563870.51862,31517577.44518,   0.00193,  -0.00042,   0.00041,431090751.54698,   0.00000,274640135.82653,   0.00000,   0.00000,   0.00000,-43549384.27955,   0.00000
472894187.26070,109801021.00012,32561782.10929,   0.00194,  -0.00042,   0.00042,432367576.18233,   0.00000,274640135.82653,   0.00000,   0.00000,   0.00000,-42272559.64420,   0.00000
473723749.85497,109029469.77608,33611787.91043,   0.00194,  -0.00043,   0.00044,433636972.64981,   0.00000,274640135.82653,   0.00000,   0.00000,   0.00000,-41003163.17672,   0.00000
474562014.15477,108278222.53162,34661793.71157,   0.00195,  -0.00043,   0.00045,434917080.84352,   0.00000,274640135.82653,   0.00000,   0.00000,   0.00000,-39723054.98301,   0.00000
475379974.47500,107518273.58162,35717600.64973,   0.00195,  -0.00044,   0.00046,436189759.30610,   0.00000,274640135.82653,   0.00000,   0.00000,   0.00000,-38450376.52043,   0.00000
476177630.81564,106749622.92609,36773407.58789,   0.00196,  -0.00044,   0.00048,437453638.76133,   0.00000,274640135.82653,   0.00000,   0.00000,   0.00000,-37186497.06520,   0.00000
476954983.17670,105972270.56503,37835015.66307,   0.00196,  -0.00045,   0.00049,438710201.39943,   0.00000,274640135.82653,   0.00000,   0.00000,   0.00000,-35929934.42710,   0.00000
477720733.26372,105206520.47801,38896623.73825,   0.00197,  -0.00045,   0.00051,439960244.62324,   0.00000,274640135.82653,   0.00000,   0.00000,   0.00000,-34679891.20329,   0.00000
478486483.35074,104440770.39100,39964032.95046,   0.00197,  -0.00046,   0.00052,441219972.48015,   0.00000,274640135.82653,   0.00000,   0.00000,   0.00000,-33420163.34638,   0.00000
479231929.45817,103666318.59845,41031442.16266,   0.00198,  -0.00046,   0.00053,442470875.51617,   0.00000,274640135.82653,   0.00000,   0.00000,   0.00000,-32169260.31036,   0.00000
479965773.29157,102903469.07994,42104652.51189,   0.00198,  -0.00047,   0.00055,443716722.31071,   0.00000,274640135.82653,   0.00000,   0.00000,   0.00000,-30923413.51582,   0.00000
480679313.14538,102131917.85590,43177862.86112,   0.00199,  -0.00047,   0.00056,444953721.33448,   0.00000,274640135.82653,   0.00000,   0.00000,   0.00000,-29686414.49205,   0.00000
481372549.01961,101351664.92633,44256874.34737,   0.00199,  -0.00048,   0.00058,446183588.24704,   0.00000,274640135.82653,   0.00000,   0.00000,   0.00000,-28456547.57949,   0.00000
482065784.89384,100571411.99675,45335885.83362,   0.00200,  -0.00048,   0.00059,447421524.79200,   0.00000,274640135.82653,   0.00000,   0.00000,   0.00000,-27218611.03453,   0.00000
482747418.49403,99802761.34122,46414897.31987,   0.00200,  -0.00049,   0.00060,448652609.39570,   0.00000,274640135.82653,   0.00000,   0.00000,   0.00000,-25987526.43083,   0.00000
483388444.13505,99016707.27463,47499709.94315,   0.00201,  -0.00049,   0.00062,449859790.93936,   0.00000,274640135.82653,   0.00000,   0.00000,   0.00000,-24780344.88717,   0.00000
484049773.75566,98239354.91356,48590323.70345,   0.00201,  -0.00050,   0.00063,451093643.80330,   0.00000,274640135.82653,   0.00000,   0.00000,   0.00000,-23546492.02323,   0.00000
484679197.12264,97464903.12101,49675136.32672,   0.00202,  -0.00050,   0.00065,452301865.99078,   0.00000,274640135.82653,   0.00000,   0.00000,   0.00000,-22338269.83575,   0.00000
485288316.51004,96681749.62293,50771551.22404,   0.00202,  -0.00051,   0.00066,453505059.04634,   0.00000,274640135.82653,   0.00000,   0.00000,   0.00000,-21135076.78019,   0.00000
485906137.60297,95918900.10442,51862164.98434,   0.00202,  -0.00051,   0.00067,454716043.43282,   0.00000,274640135.82653,   0.00000,   0.00000,   0.00000,-19924092.39370,   0.00000
486494953.01079,95127044.90080,52958579.88166,   0.00203,  -0.00052,   0.00069,455918304.39971,   0.00000,274640135.82653,   0.00000,   0.00000,   0.00000,-18721831.42682,   0.00000
487072166.14456,94346791.97123,54054994.77898,   0.00203,  -0.00052,   0.00070,457113490.54198,   0.00000,274640135.82653,   0.00000,   0.00000,   0.00000,-17526645.28455,   0.00000
487637777.00429,93578141.31570,55157210.81332,   0.00204,  -0.00053,   0.00072,458303596.97533,   0.00000,274640135.82653,   0.00000,   0.00000,   0.00000,-16336538.85120,   0.00000
488183083.88444,92800788.95464,56259426.84766,   0.00204,  -0.00053,   0.00073,459484824.35269,   0.00000,274640135.82653,   0.00000,   0.00000,   0.00000,-15155311.47384,   0.00000
488728390.76459,92023436.59357,57367444.01903,   0.00204,  -0.00053,   0.00075,460675979.01634,   0.00000,274640135.82653,   0.00000,   0.00000,   0.00000,-13964156.81019,   0.00000
489253393.66516,91237382.52698,58469660.05337,   0.00205,  -0.00054,   0.00076,461856089.70010,   0.00000,274640135.82653,   0.00000,   0.00000,   0.00000,-12784046.12643,   0.00000
489766794.29168,90462930.73442,59583478.36176,   0.00205,  -0.00054,   0.00077,463033354.86857,   0.00000,274640135.82653,   0.00000,   0.00000,   0.00000,-11606780.95796,   0.00000
490259890.93862,89679777.23634,60691495.53312,   0.00206,  -0.00055,   0.00079,464199524.11777,   0.00000,274640135.82653,   0.00000,   0.00000,   0.00000,-10440611.70876,   0.00000
490741385.31152,88908226.01230,61805313.84151,   0.00206,  -0.00055,   0.00080,465360639.04074,   0.00000,274640135.82653,   0.00000,   0.00000,   0.00000,-9279496.78579,   0.00000
491202575.70484,88127973.08272,62919132.14990,   0.00206,  -0.00056,   0.00082,466512887.51796,   0.00000,274640135.82653,   0.00000,   0.00000,   0.00000,-8127248.30857,   0.00000
491663766.09816,87347720.15315,64038751.59531,   0.00207,  -0.00056,   0.00083,467675164.16509,   0.00000,274640135.82653,   0.00000,   0.00000,   0.00000,-6964971.66143,   0.00000
492093050.23785,86570367.79209,65152569.90370,   0.00207,  -0.00057,   0.00085,468811150.05959,   0.00000,274640135.82653,   0.00000,   0.00000,   0.00000,-5828985.76694,   0.00000
492522334.37754,85793015.43102,66272189.34911,   0.00207,  -0.00057,   0.00086,469957151.62922,   0.00000,274640135.82653,   0.00000,   0.00000,   0.00000,-4682984.19731,   0.00000
492931314.53765,85006961.36443,67397609.93155,   0.00208,  -0.00057,   0.00088,471096788.98870,   0.00000,274640135.82653,   0.00000,   0.00000,   0.00000,-3543346.83783,   0.00000
493328692.42372,84232509.57188,68517229.37696,   0.00208,  -0.00058,   0.00089,472226463.46334,   0.00000,274640135.82653,   0.00000,   0.00000,   0.00000,-2413672.36319,   0.00000
493734772.01532,83478361.75890,69642649.95939,   0.00208,  -0.00058,   0.00091,473367497.98420,   0.00000,274640135.82653,   0.00000,   0.00000,   0.00000,-1272637.84233,   0.00000
494091541.94222,82686506.55529,70768070.54183,   0.00209,  -0.00059,   0.00092,474481997.64383,   0.00000,274640135.82653,   0.00000,   0.00000,   0.00000,-158138.18270,   0.00000
494143022.82868,82577824.68388,70927416.14277,   0.00209,  -0.00059,   0.00092,474640140.85826,   0.00000,274640135.82653,   0.00000,   0.00000,   0.00000,  -3.53775,   0.00000
493494810.13225,81841923.60869,71744324.26207,   0.00209,  -0.00059,   0.00093,474645560.10435,   0.00000,274645560.20102,   0.00000,  -0.00000,   0.00000,  -0.09667,   1.00000
492741606.69370,80999625.03831,72688840.43643,   0.00209,  -0.00060,   0.00095,474651817.03270,   0.00001,274651821.69787,   0.00001,  -0.00000,   0.00000,  -4.66517,   1.00000
491976443.52627,80150894.05488,73637919.17019,   0.00210,  -0.00060,   0.00096,474658049.98875,   0.00002,274658056.44394,   0.00001,  -0.00001,   0.00001,  -6.45519,   1.00000
491201881.19084,79295903.25216,74586220.73969,   0.00210,  -0.00060,   0.00098,474664243.94776,   0.00002,274664249.81423,   0.00002,  -0.00001,   0.00001,  -5.86647,   1.00000
490422702.53325,78454622.82313,75538909.34463,   0.00210,  -0.00061,   0.00099,474670419.68730,   0.00003,274670423.97484,   0.00002,  -0.00001,   0.00001,  -4.28754,   1.00000
489641071.77777,77614786.67344,76482796.58298,   0.00210,  -0.00061,   0.00101,474676628.31544,   0.00003,274676632.84062,   0.00003,  -0.00001,   0.00001,  -4.52517,   1.00000
488854824.05438,76788606.21476,77431107.32443,   0.00211,  -0.00062,   0.00102,474682817.90012,   0.00004,274682822.41294,   0.00003,  -0.00001,   0.00002,  -4.51282,   1.00000
488054631.79162,75948370.22000,78381554.79069,   0.00211,  -0.00062,   0.00104,474688876.09007,   0.00004,274688879.23128,   0.00004,  -0.00001,   0.00002,  -3.14121,   1.00000
487249269.44759,75109373.58043,79328529.85091,   0.00211,  -0.00062,   0.00105,474694984.29628,   0.00005,274694986.75926,   0.00004,  -0.00002,   0.00002,  -2.46297,   1.00000
486443633.37204,74291656.16388,80277101.03975,   0.00212,  -0.00063,   0.00107,474701163.17976,   0.00006,274701167.39670,   0.00005,  -0.00002,   0.00002,  -4.21694,   1.00000
485634396.92329,73480098.64366,81222520.37294,   0.00212,  -0.00063,   0.00108,474707196.52040,   0.00006,274707204.24957,   0.00005,  -0.00002,   0.00003,  -7.72917,   1.00000
484812564.98669,72661808.56682,82172642.12747,   0.00212,  -0.00064,   0.00110,474713211.47399,   0.00007,274713217.05647,   0.00006,  -0.00002,   0.00003,  -5.58248,   1.00000
483985644.24414,71844724.22805,83119269.83911,   0.00212,  -0.00064,   0.00111,474719277.20340,   0.00007,274719280.80369,   0.00006,  -0.00002,   0.00003,  -3.60028,   1.00000
483156750.11657,71041268.57432,84065203.29163,   0.00213,  -0.00064,   0.00113,474725303.50584,   0.00008,274725309.08952,   0.00007,  -0.00002,   0.00003,  -5.58368,   1.00000
482318063.92311,70231174.40732,85010651.49159,   0.00213,  -0.00065,   0.00114,474731293.65890,   0.00008,274731296.56557,   0.00007,  -0.00003,   0.00004,  -2.90667,   1.00000
481477368.44016,69434641.28446,85955477.18657,   0.00213,  -0.00065,   0.00116,474737242.63138,   0.00009,274737248.36131,   0.00007,  -0.00003,   0.00004,  -5.72993,   1.00000
480623726.46803,68631236.38701,86905058.22506,   0.00213,  -0.00065,   0.00117,474743172.57112,   0.00009,274743177.74344,   0.00008,  -0.00003,   0.00004,  -5.17232,   1.00000
479776056.43348,67849393.15678,87845800.98399,   0.00213,  -0.00066,   0.00119,474749138.44050,   0.00010,274749144.60274,   0.00008,  -0.00003,   0.00004,  -6.16224,   1.00000
478915368.92580,67060623.52583,88791322.28154,   0.00214,  -0.00066,   0.00120,474755085.59915,   0.00010,274755089.33392,   0.00009,  -0.00003,   0.00005,  -3.73477,   1.00000
478039565.66168,66257108.83350,89739614.56623,   0.00214,  -0.00067,   0.00122,474760894.08006,   0.00011,274760902.40830,   0.00009,  -0.00003,   0.00005,  -8.32823,   1.00000
477166739.29092,65474993.04724,90684251.25953,   0.00214,  -0.00067,   0.00123,474766767.09951,   0.00012,274766771.33682,   0.00010,  -0.00004,   0.00005,  -4.23731,   1.00000
476296996.70165,64714258.11769,91625226.32740,   0.00214,  -0.00067,   0.00125,474772686.43441,   0.00012,274772695.72280,   0.00010,  -0.00004,   0.00005,  -9.28839,   1.00000
475411924.02573,63938595.29873,92569136.27544,   0.00214,  -0.00068,   0.00126,474778480.80604,   0.00013,274778488.15423,   0.00010,  -0.00004,   0.00006,  -7.34819,   1.00000
474530005.08185,63184297.43033,93509400.30377,   0.00215,  -0.00068,   0.00128,474784330.00631,   0.00013,274784335.82708,   0.00011,  -0.00004,   0.00006,  -5.82077,   1.00000
473632526.08020,62414958.01795,94452707.60067,   0.00215,  -0.00068,   0.00129,474790042.47516,   0.00014,274790051.77251,   0.00011,  -0.00004,   0.00006,  -9.29735,   1.00000
472726868.64758,61646595.18160,95397568.31030,   0.00215,  -0.00069,   0.00131,474795831.12576,   0.00014,274795839.59867,   0.00012,  -0.00004,   0.00007,  -8.47291,   1.00000
471822295.14619,60891609.51555,96337045.04653,   0.00215,  -0.00069,   0.00132,474801564.96638,   0.00015,274801570.81059,   0.00012,  -0.00005,   0.00007,  -5.84421,   1.00000
470921065.18565,60157965.23903,97272889.36241,   0.00215,  -0.00069,   0.00134,474807352.89405,   0.00015,274807356.72698,   0.00013,  -0.00005,   0.00007,  -3.83292,   1.00000
470000527.65034,59408947.49227,98216989.53563,   0.00215,  -0.00070,   0.00135,474813030.00817,   0.00016,274813032.13835,   0.00013,  -0.00005,   0.00007,  -2.13018,   1.00000
469078551.67136,58661126.19476,99152558.44270,   0.00215,  -0.00070,   0.00137,474818732.55685,   0.00016,274818738.19314,   0.00013,  -0.00005,   0.00008,  -5.63629,   1.00000
468150899.41176,57926326.81923,100092906.31042,   0.00216,  -0.00070,   0.00138,474824421.90748,   0.00017,274824428.98341,   0.00014,  -0.00005,   0.00008,  -7.07593,   1.00000
467224380.50898,57204727.12044,101028089.32201,   0.00216,  -0.00071,   0.00140,474830057.86498,   0.00017,274830061.38689,   0.00014,  -0.00005,   0.00008,  -3.52190,   1.00000
466283838.19546,56475809.79468,101968194.40454,   0.00216,  -0.00071,   0.00141,474835672.11021,   0.00018,274835675.96023,   0.00015,  -0.00006,   0.00008,  -3.85002,   1.00000
465350310.14998,55768298.43652,102899720.29038,   0.00216,  -0.00071,   0.00143,474841317.28477,   0.00018,274841322.87546,   0.00015,  -0.00006,   0.00009,  -5.59069,   1.00000
464396704.34650,55045132.86516,103839704.94430,   0.00216,  -0.00071,   0.00144,474846859.87790,   0.00019,274846861.17656,   0.00015,  -0.00006,   0.00009,  -1.29866,   1.00000
463450195.00067,54343350.27671,104771148.05938,   0.00216,  -0.00072,   0.00146,474852426.63354,   0.00019,274852431.32836,   0.00016,  -0.00006,   0.00009,  -4.69481,   1.00000
462492976.78720,53634244.89506,105702651.41939,   0.00216,  -0.00072,   0.00147,474857953.26073,   0.00020,274857961.77733,   0.00016,  -0.00006,   0.00010,  -8.51660,   1.00000
461535887.95065,52946331.23089,106635426.69257,   0.00216,  -0.00072,   0.00149,474863559.91648,   0.00020,274863569.24169,   0.00017,  -0.00006,   0.00010,  -9.32521,   1.00000
460565400.24163,52242757.33766,107567026.90636,   0.00216,  -0.00073,   0.00150,474869016.65981,   0.00021,274869022.92460,   0.00017,  -0.00007,   0.00010,  -6.26479,   1.00000
459598660.85390,51560446.11751,108495030.22786,   0.00216,  -0.00073,   0.00152,474874521.77005,   0.00021,274874530.40467,   0.00017,  -0.00007,   0.00010,  -8.63462,   1.00000
458617382.69910,50870632.82988,109428003.72302,   0.00216,  -0.00073,   0.00153,474880019.06799,   0.00022,274880022.39186,   0.00018,  -0.00007,   0.00011,  -3.32387,   1.00000
457637202.31233,50193716.59063,110356220.51408,   0.00217,  -0.00073,   0.00155,474885451.77727,   0.00022,274885453.21923,   0.00018,  -0.00007,   0.00011,  -1.44196,   1.00000
456654446.24846,49529582.16478,111284554.18508,   0.00217,  -0.00074,   0.00156,474890845.21819,   0.00023,274890846.51976,   0.00018,  -0.00007,   0.00011,  -1.30157,   1.00000
455667141.16564,48866387.13701,112209366.29817,   0.00217,  -0.00074,   0.00158,474896289.79303,   0.00023,274896291.59310,   0.00019,  -0.00007,   0.00012,  -1.80008,   1.00000
454668761.86643,48195662.39633,113134394.18166,   0.00217,  -0.00074,   0.00159,474901691.07138,   0.00024,274901697.62743,   0.00019,  -0.00007,   0.00012,  -6.55605,   1.00000
453676230.11820,47557932.20115,114059547.94863,   0.00217,  -0.00074,   0.00160,474907061.15093,   0.00024,274907067.34110,   0.00020,  -0.00008,   0.00012,  -6.19016,   1.00000
452663996.68541,46892320.80683,114985013.90932,   0.00217,  -0.00075,   0.00162,474912390.41192,   0.00025,274912396.96929,   0.00020,  -0.00008,   0.00013,  -6.55737,   1.00000
451668127.79198,46268235.50457,115902133.03180,   0.00217,  -0.00075,   0.00163,474917754.24509,   0.00025,274917755.19262,   0.00020,  -0.00008,   0.00013,  -0.94753,   1.00000
450648664.75538,45616179.91653,116824313.31295,   0.00217,  -0.00075,   0.00165,474923093.65674,   0.00026,274923099.11985,   0.00021,  -0.00008,   0.00013,  -5.46311,   1.00000
449638841.49618,44997063.93158,117742041.51451,   0.00217,  -0.00075,   0.00166,474928374.46038,   0.00026,274928380.14267,   0.00021,  -0.00008,   0.00013,  -5.68230,   1.00000
448617669.45310,44370237.93715,118660130.79849,   0.00217,  -0.00076,   0.00168,474933614.88426,   0.00027,274933622.20677,   0.00021,  -0.00008,   0.00014,  -7.32250,   1.00000
447581180.38338,43735669.45894,119583240.16274,   0.00217,  -0.00076,   0.00169,474938852.10474,   0.00027,274938852.25635,   0.00022,  -0.00009,   0.00014,  -0.15160,   1.00000
446561354.57594,43142560.47454,120498107.30173,   0.00217,  -0.00076,   0.00171,474944107.52162,   0.00028,274944109.03133,   0.00022,  -0.00009,   0.00014,  -1.50971,   1.00000
445525358.05342,42521406.66420,121408791.24543,   0.00217,  -0.00076,   0.00172,474949295.75625,   0.00028,274949299.52115,   0.00022,  -0.00009,   0.00015,  -3.76490,   1.00000
444498372.67446,41941659.78250,122320530.40608,   0.00217,  -0.00077,   0.00174,474954569.50265,   0.00029,274954569.59389,   0.00023,  -0.00009,   0.00015,  -0.09124,   1.00000
443447878.59073,41325155.28897,123232110.78259,   0.00217,  -0.00077,   0.00175,474959678.73574,   0.00029,274959683.01558,   0.00023,  -0.00009,   0.00015,  -4.27985,   1.00000
442406394.16462,40750054.93676,124144718.60445,   0.00217,  -0.00077,   0.00177,474964875.73360,   0.00030,274964876.46203,   0.00023,  -0.00009,   0.00015,  -0.72842,   1.00000
441357221.53771,40167079.08618,125053245.89965,   0.00217,  -0.00077,   0.00178,474970003.00351,   0.00030,274970003.64919,   0.00024,  -0.00009,   0.00016,  -0.64568,   1.00000
440312466.80032,39605196.45375,125958247.58412,   0.00217,  -0.00077,   0.00180,474975176.88891,   0.00031,274975182.57236,   0.00024,  -0.00010,   0.00016,  -5.68345,   1.00000
439248463.14168,39026676.78017,126867818.06084,   0.00217,  -0.00078,   0.00181,474980226.80336,   0.00031,274980233.00725,   0.00024,  -0.00010,   0.00016,  -6.20390,   1.00000
438192949.97829,38469225.57152,127769373.76614,   0.00217,  -0.00078,   0.00183,474985302.83363,   0.00031,274985306.43257,   0.00025,  -0.00010,   0.00017,  -3.59894,   1.00000
437125585.52371,37903813.34246,128671502.71017,   0.00217,  -0.00078,   0.00184,474990333.38955,   0.00032,274990341.50169,   0.00025,  -0.00010,   0.00017,  -8.11214,   1.00000
436062767.26278,37359467.83858,129570133.36822,   0.00217,  -0.00078,   0.00186,474995423.43487,   0.00032,274995427.81873,   0.00025,  -0.00010,   0.00017,  -4.38385,   1.00000
434996792.95375,36827395.66376,130469383.45443,   0.00216,  -0.00078,   0.00187,475000471.58060,   0.00033,275000475.35970,   0.00026,  -0.00010,   0.00018,  -3.77910,   1.00000
433918822.58145,36287291.36349,131369241.21589,   0.00216,  -0.00078,   0.00189,475005479.94183,   0.00033,275005484.89542,   0.00026,  -0.00010,   0.00018,  -4.95359,   1.00000
432849622.38115,35768185.47648,132261195.76001,   0.00216,  -0.00079,   0.00190,475010510.22334,   0.00034,275010515.48438,   0.00026,  -0.00011,   0.00018,  -5.26104,   1.00000
431760419.06081,35232199.95434,133157982.78960,   0.00216,  -0.00079,   0.00192,475015413.54598,   0.00034,275015418.25568,   0.00027,  -0.00011,   0.00018,  -4.70970,   1.00000
430675855.28471,34717234.13674,134051287.35681,   0.00216,  -0.00079,   0.00193,475020364.92388,   0.00035,275020372.05293,   0.00027,  -0.00011,   0.00019,  -7.12905,   1.00000
429596021.02635,34223265.43234,134941112.63758,   0.00216,  -0.00079,   0.00194,475025374.22949,   0.00035,275025376.49226,   0.00027,  -0.00011,   0.00019,  -2.26277,   1.00000
428508202.82695,33721105.95110,135827300.72697,   0.00216,  -0.00079,   0.00196,475030303.49277,   0.00036,275030312.02529,   0.00028,  -0.00011,   0.00019,  -8.53252,   1.00000
427416997.06699,33231075.22335,136714272.62991,   0.00216,  -0.00079,   0.00197,475035203.30936,   0.00036,275035208.40470,   0.00028,  -0.00011,   0.00020,  -5.09534,   1.00000
426322324.44786,32753142.79367,137602037.81099,   0.00216,  -0.00080,   0.00199,475040060.56956,   0.00037,275040065.86019,   0.00028,  -0.00011,   0.00020,  -5.29064,   1.00000
425227866.31686,32275815.31459,138482015.06636,   0.00216,  -0.00080,   0.00200,475044940.98692,   0.00037,275044943.03574,   0.00028,  -0.00011,   0.00020,  -2.04881,   1.00000
424125627.24810,31810619.22417,139367086.32439,   0.00216,  -0.00080,   0.00202,475049806.44567,   0.00037,275049813.14136,   0.00029,  -0.00012,   0.00021,  -6.69569,   1.00000
423019495.61817,31337042.19452,140244458.92256,   0.00215,  -0.00080,   0.00203,475054574.63191,   0.00038,275054581.24831,   0.00029,  -0.00012,   0.00021,  -6.61640,   1.00000
421913982.20531,30884474.98262,141122628.81400,   0.00215,  -0.00080,   0.00205,475059424.11153,   0.00038,275059431.62852,   0.00029,  -0.00012,   0.00021,  -7.51698,   1.00000
420809166.89857,30443828.15015,141997491.90921,   0.00215,  -0.00080,   0.00206,475064209.11572,   0.00039,275064210.06477,   0.00030,  -0.00012,   0.00021,  -0.94905,   1.00000
419700417.46650,30003801.47820,142868852.04496,   0.00215,  -0.00080,   0.00208,475069034.11257,   0.00039,275069039.74729,   0.00030,  -0.00012,   0.00022,  -5.63471,   1.00000
418588000.62606,29575742.95002,143741145.15094,   0.00215,  -0.00080,   0.00209,475073823.90382,   0.00040,275073830.15474,   0.00030,  -0.00012,   0.00022,  -6.25092,   1.00000
417467274.59018,29139262.30453,144610156.78854,   0.00215,  -0.00081,   0.00210,475078547.06646,   0.00040,275078549.70347,   0.00031,  -0.00012,   0.00022,  -2.63701,   1.00000
416351605.23882,28723666.74545,145475762.75995,   0.00215,  -0.00081,   0.00212,475083314.91455,   0.00040,275083318.53561,   0.00031,  -0.00012,   0.00023,  -3.62105,   1.00000
415236542.94711,28319878.97382,146338267.26828,   0.00214,  -0.00081,   0.00213,475088011.74438,   0.00041,275088013.84578,   0.00031,  -0.00013,   0.00023,  -2.10139,   1.00000
414117641.50330,27927970.91973,147201801.82910,   0.00214,  -0.00081,   0.00215,475092663.06680,   0.00041,275092669.65903,   0.00031,  -0.00013,   0.00023,  -6.59224,   1.00000
412994912.18133,27536615.32591,148061848.73123,   0.00214,  -0.00081,   0.00216,475097372.95853,   0.00042,275097376.42003,   0.00032,  -0.00013,   0.00024,  -3.46150,   1.00000
411859293.87180,27136843.99988,148922826.01762,   0.00214,  -0.00081,   0.00218,475102040.79795,   0.00042,275102046.18751,   0.00032,  -0.00013,   0.00024,  -5.38956,   1.00000
410742269.46794,26778063.10726,149776500.15213,   0.00214,  -0.00081,   0.00219,475106718.71936,   0.00043,275106727.48166,   0.00032,  -0.00013,   0.00024,  -8.76230,   1.00000
409607775.94629,26390421.39537,150627040.85033,   0.00214,  -0.00081,   0.00220,475111333.21468,   0.00043,275111338.36212,   0.00032,  -0.00013,   0.00025,  -5.14744,   1.00000
408478250.94303,26034872.24917,151478822.97617,   0.00213,  -0.00081,   0.00222,475115899.98376,   0.00043,275115907.33578,   0.00033,  -0.00013,   0.00025,  -7.35202,   1.00000
407344994.64916,25679827.69956,152327131.68805,   0.00213,  -0.00081,   0.00223,475120525.85051,   0.00044,275120526.97093,   0.00033,  -0.00013,   0.00025,  -1.12042,   1.00000
406217050.96885,25345559.95008,153172079.84362,   0.00213,  -0.00081,   0.00225,475125193.41727,   0.00044,275125194.80817,   0.00033,  -0.00014,   0.00025,  -1.39091,   1.00000
405080024.41917,25013892.13661,154018760.71795,   0.00213,  -0.00081,   0.00226,475129696.93024,   0.00045,275129699.31738,   0.00033,  -0.00014,   0.00026,  -2.38714,   1.00000
403953342.11405,24691576.50675,154853553.61433,   0.00213,  -0.00081,   0.00227,475134297.75642,   0.00045,275134305.11985,   0.00034,  -0.00014,   0.00026,  -7.36342,   1.00000
402812921.94588,24371954.27235,155694092.35758,   0.00213,  -0.00081,   0.00229,475138774.79407,   0.00046,275138783.68871,   0.00034,  -0.00014,   0.00026,  -8.89464,   1.00000
401668853.03613,24052789.32133,156531167.11027,   0.00212,  -0.00081,   0.00230,475143311.75467,   0.00046,275143312.72538,   0.00034,  -0.00014,   0.00027,  -0.97072,   1.00000
400530197.54833,23754352.19640,157364904.31849,   0.00212,  -0.00081,   0.00232,475147884.71803,   0.00046,275147889.56160,   0.00035,  -0.00014,   0.00027,  -4.84356,   1.00000
399396345.02442,23467289.70018,158192237.16154,   0.00212,  -0.00081,   0.00233,475152350.37341,   0.00047,275152351.48792,   0.00035,  -0.00014,   0.00027,  -1.11451,   1.00000
398244536.96231,23171757.09894,159024498.45220,   0.00212,  -0.00082,   0.00234,475156804.84954,   0.00047,275156814.51794,   0.00035,  -0.00014,   0.00028,  -9.66839,   1.00000
397102771.43706,22896766.12466,159849662.19172,   0.00211,  -0.00082,   0.00236,475161285.46562,   0.00048,275161286.83283,   0.00035,  -0.00015,   0.00028,  -1.36721,   1.00000
395971109.73890,22642287.91383,160667769.84823,   0.00211,  -0.00082,   0.00237,475165758.32184,   0.00048,275165767.75882,   0.00035,  -0.00015,   0.00028,  -9.43697,   1.00000
394835032.36695,22399404.69959,161487211.46360,   0.00211,  -0.00082,   0.00238,475170206.17292,   0.00048,275170208.62834,   0.00036,  -0.00015,   0.00029,  -2.45542,   1.00000
393685382.77657,22147833.79770,162307812.41452,   0.00211,  -0.00082,   0.00240,475174606.47630,   0.00049,275174613.04543,   0.00036,  -0.00015,   0.00029,  -6.56913,   1.00000
392536857.37714,21896471.08334,163121264.37853,   0.00211,  -0.00082,   0.00241,475179027.92114,   0.00049,275179028.24407,   0.00036,  -0.00015,   0.00029,  -0.32293,   1.00000
391407622.20718,21685844.87976,163927934.33219,   0.00210,  -0.00082,   0.00243,475183438.86686,   0.00050,275183447.45136,   0.00036,  -0.00015,   0.00029,  -8.58449,   1.00000
390264759.77295,21466481.78604,164735833.97715,   0.00210,  -0.00082,   0.00244,475187822.01562,   0.00050,275187829.70887,   0.00037,  -0.00015,   0.00030,  -7.69325,   1.00000
389108172.92103,21238391.55615,165544945.94422,   0.00210,  -0.00081,   0.00245,475192166.55860,   0.00050,275192175.63521,   0.00037,  -0.00015,   0.00030,  -9.07661,   1.00000
387961875.64747,21030735.31123,166347174.13736,   0.00210,  -0.00081,   0.00247,475196519.65950,   0.00051,275196527.90368,   0.00037,  -0.00015,   0.00030,  -8.24418,   1.00000
386825941.99385,20843484.45356,167142569.45864,   0.00209,  -0.00081,   0.00248,475200878.90399,   0.00051,275200885.68893,   0.00037,  -0.00015,   0.00031,  -6.78494,   1.00000
385685266.46829,20667725.73410,167939410.91472,   0.00209,  -0.00081,   0.00249,475205197.32620,   0.00052,275205203.59892,   0.00038,  -0.00016,   0.00031,  -6.27272,   1.00000
384530693.87615,20483179.42967,168737510.21431,   0.00209,  -0.00081,   0.00251,475209475.95089,   0.00052,275209485.37317,   0.00038,  -0.00016,   0.00031,  -9.42228,   1.00000
383386517.10179,20319003.76961,169528832.60251,   0.00209,  -0.00081,   0.00252,475213769.34401,   0.00052,275213772.03397,   0.00038,  -0.00016,   0.00032,  -2.68996,   1.00000
382252789.01896,20175171.47971,170313420.49862,   0.00208,  -0.00081,   0.00253,475218055.52375,   0.00053,275218062.92185,   0.00038,  -0.00016,   0.00032,  -7.39811,   1.00000
381105088.20441,20022509.19241,171099323.85106,   0.00208,  -0.00081,   0.00255,475222310.99211,   0.00053,275222317.36910,   0.00039,  -0.00016,   0.00032,  -6.37699,   1.00000
379967888.09134,19890172.30072,171878544.82474,   0.00208,  -0.00081,   0.00256,475226567.73909,   0.00054,275226575.36162,   0.00039,  -0.00016,   0.00033,  -7.62252,   1.00000
378836554.77019,19778316.63499,172654578.90542,   0.00207,  -0.00081,   0.00257,475230868.69113,   0.00054,275230878.43928,   0.00039,  -0.00016,   0.00033,  -9.74816,   1.00000
377695842.61131,19657408.18026,173428517.54010,   0.00207,  -0.00081,   0.00259,475235093.36381,   0.00054,275235102.79095,   0.00039,  -0.00016,   0.00033,  -9.42714,   1.00000
376550038.05861,19547907.65271,174203988.21096,   0.00207,  -0.00081,   0.00260,475239281.84733,   0.00055,275239287.76948,   0.00039,  -0.00016,   0.00033,  -5.92215,   1.00000
375405747.40582,19438409.04785,174972685.68683,   0.00207,  -0.00081,   0.00261,475243473.03675,   0.00055,275243478.42735,   0.00040,  -0.00017,   0.00034,  -5.39059,   1.00000
374281153.24220,19369441.03062,175735030.60311,   0.00206,  -0.00081,   0.00263,475247665.04927,   0.00056,275247667.34305,   0.00040,  -0.00017,   0.00034,  -2.29378,   1.00000
373153458.93121,19300608.77309,176494036.99875,   0.00206,  -0.00081,   0.00264,475251895.07937,   0.00056,275251904.07739,   0.00040,  -0.00017,   0.00034,  -8.99803,   1.00000
372011507.96325,19222858.37653,177254438.33186,   0.00206,  -0.00081,   0.00265,475256103.10049,   0.00056,275256104.65951,   0.00040,  -0.00017,   0.00035,  -1.55902,   1.00000
370873716.95788,19156095.01564,178009788.67961,   0.00205,  -0.00080,   0.00266,475260173.31861,   0.00057,275260178.40477,   0.00040,  -0.00017,   0.00035,  -5.08617,   1.00000
369737155.88850,19109916.98519,178765286.62753,   0.00205,  -0.00080,   0.00268,475264337.10663,   0.00057,275264340.81816,   0.00041,  -0.00017,   0.00035,  -3.71153,   1.00000
368616058.97060,19083737.18853,179511081.78232,   0.00205,  -0.00080,   0.00269,475268451.94186,   0.00057,275268459.00750,   0.00041,  -0.00017,   0.00036,  -7.06564,   1.00000
367491969.87133,19057637.16784,180253575.07745,   0.00205,  -0.00080,   0.00270,475272623.67512,   0.00058,275272624.36699,   0.00041,  -0.00017,   0.00036,  -0.69187,   1.00000
366367206.91165,19042657.29490,180994472.28400,   0.00204,  -0.00080,   0.00271,475276703.53582,   0.00058,275276705.61157,   0.00041,  -0.00017,   0.00036,  -2.07575,   1.00000
365248493.87770,19048010.27363,181732247.87104,   0.00204,  -0.00080,   0.00273,475280823.99807,   0.00059,275280830.86297,   0.00041,  -0.00017,   0.00037,  -6.86490,   1.00000
364131591.28595,19053217.06397,182463530.80924,   0.00204,  -0.00080,   0.00274,475284949.08889,   0.00059,275284957.80972,   0.00042,  -0.00017,   0.00037,  -8.72083,   1.00000
363009157.51176,19069701.15844,183196476.86619,   0.00203,  -0.00080,   0.00275,475289041.73849,   0.00059,275289045.64156,   0.00042,  -0.00018,   0.00037,  -3.90307,   1.00000
361893319.18870,19085842.84856,183919829.79857,   0.00203,  -0.00080,   0.00277,475293084.56160,   0.00060,275293088.74590,   0.00042,  -0.00018,   0.00037,  -4.18430,   1.00000
360780874.05405,19133526.18474,184645062.06075,   0.00203,  -0.00079,   0.00278,475297083.34582,   0.00060,275297089.56280,   0.00042,  -0.00018,   0.00038,  -6.21697,   1.00000
359656494.31134,19160928.43774,185366827.46385,   0.00202,  -0.00079,   0.00279,475301130.75953,   0.00060,275301140.39978,   0.00042,  -0.00018,   0.00038,  -9.64025,   1.00000
358552048.90769,19228696.10512,186082587.22332,   0.00202,  -0.00079,   0.00280,475305179.80205,   0.00061,275305185.08884,   0.00043,  -0.00018,   0.00038,  -5.28679,   1.00000
357449535.64106,19296244.82799,186792017.35145,   0.00202,  -0.00079,   0.00281,475309220.48679,   0.00061,275309229.33241,   0.00043,  -0.00018,   0.00039,  -8.84562,   1.00000
356341249.64050,19375020.11353,187503166.18526,   0.00201,  -0.00079,   0.00283,475313234.30889,   0.00062,275313234.74604,   0.00043,  -0.00018,   0.00039,  -0.43715,   1.00000
355255943.59768,19482829.77728,188203408.67150,   0.00201,  -0.00079,   0.00284,475317308.90831,   0.00062,275317317.97328,   0.00043,  -0.00018,   0.00039,  -9.06497,   1.00000
354148508.55818,19572395.04509,188907002.64651,   0.00201,  -0.00078,   0.00285,475321235.79146,   0.00062,275321236.19831,   0.00043,  -0.00018,   0.00040,  -0.40685,   1.00000
353064177.26179,19690976.25579,189599753.79657,   0.00200,  -0.00078,   0.00286,475325224.87174,   0.00063,275325231.16802,   0.00044,  -0.00018,   0.00040,  -6.29627,   1.00000
351964941.98078,19800472.31229,190294096.18883,   0.00200,  -0.00078,   0.00288,475329187.12373,   0.00063,275329190.26698,   0.00044,  -0.00018,   0.00040,  -3.14325,   1.00000
350876727.41335,19929977.68229,190982436.36018,   0.00200,  -0.00078,   0.00289,475333135.28339,   0.00063,275333144.02241,   0.00044,  -0.00018,   0.00040,  -8.73901,   1.00000
349794781.94736,20079632.46205,191667735.11705,   0.00199,  -0.00078,   0.00290,475337135.63476,   0.00064,275337140.38601,   0.00044,  -0.00019,   0.00041,  -4.75125,   1.00000
348723901.33954,20249250.82456,192347077.04096,   0.00199,  -0.00077,   0.00291,475341127.94528,   0.00064,275341130.72110,   0.00044,  -0.00019,   0.00041,  -2.77582,   1.00000
347642751.07219,20409588.45518,193025138.78832,   0.00199,  -0.00077,   0.00292,475345033.43140,   0.00064,275345036.62643,   0.00044,  -0.00019,   0.00041,  -3.19503,   1.00000
346572670.09820,20589886.01643,193697304.51203,   0.00198,  -0.00077,   0.00293,475348929.33204,   0.00065,275348935.85403,   0.00045,  -0.00019,   0.00042,  -6.52200,   1.00000
345499953.37093,20769997.13284,194366298.81669,   0.00198,  -0.00077,   0.00295,475352870.89319,   0.00065,275352879.92197,   0.00045,  -0.00019,   0.00042,  -9.02878,   1.00000
344447288.00822,20990320.29393,195029590.08597,   0.00198,  -0.00077,   0.00296,475356804.82128,   0.00066,275356814.16880,   0.00045,  -0.00019,   0.00042,  -9.34752,   1.00000
343384215.26579,21201343.73500,195691717.75287,   0.00197,  -0.00076,   0.00297,475360657.48025,   0.00066,275360663.13983,   0.00045,  -0.00019,   0.00043,  -5.65958,   1.00000
342331194.70304,21421054.65755,196345888.43101,   0.00197,  -0.00076,   0.00298,475364635.75662,   0.00066,275364636.49803,   0.00045,  -0.00019,   0.00043,  -0.74141,   1.00000
341276649.20598,21651756.08232,196999085.30412,   0.00197,  -0.00076,   0.00299,475368520.09940,   0.00067,275368521.84512,   0.00045,  -0.00019,   0.00043,  -1.74572,   1.00000
340233247.53901,21902350.26283,197646526.49370,   0.00196,  -0.00076,   0.00300,475372397.41532,   0.00067,275372398.72384,   0.00046,  -0.00019,   0.00044,  -1.30851,   1.00000
339192113.25296,22152540.75634,198288118.90367,   0.00196,  -0.00075,   0.00302,475376263.53970,   0.00067,275376268.80234,   0.00046,  -0.00019,   0.00044,  -5.26264,   1.00000
338153404.58658,22434126.06009,198931645.56872,   0.00195,  -0.00075,   0.00303,475380098.20086,   0.00068,275380099.42477,   0.00046,  -0.00019,   0.00044,  -1.22391,   1.00000
337120966.26203,22703874.07718,199564430.87601,   0.00195,  -0.00075,   0.00304,475383998.50790,   0.00068,275384003.97428,   0.00046,  -0.00020,   0.00044,  -5.46638,   1.00000
336095669.39719,23004895.63994,200196480.05339,   0.00195,  -0.00075,   0.00305,475387810.41245,   0.00068,275387817.92226,   0.00046,  -0.00020,   0.00045,  -7.50981,   1.00000
335072678.91269,23305472.67962,200822783.89750,   0.00194,  -0.00074,   0.00306,475391617.13633,   0.00069,275391623.78549,   0.00046,  -0.00020,   0.00045,  -6.64916,   1.00000
334056085.17549,23625985.85937,201446106.25167,   0.00194,  -0.00074,   0.00307,475395469.13899,   0.00069,275395471.30970,   0.00047,  -0.00020,   0.00045,  -2.17071,   1.00000
333041841.68266,23946033.83061,202063728.13833,   0.00194,  -0.00074,   0.00308,475399306.19127,   0.00069,275399310.11305,   0.00047,  -0.00020,   0.00046,  -3.92178,   1.00000
332038812.78498,24285900.40613,202675782.01049,   0.00193,  -0.00074,   0.00309,475403128.36225,   0.00070,275403138.13663,   0.00047,  -0.00020,   0.00046,  -9.77437,   1.00000
331042220.49045,24645648.73581,203284864.20838,   0.00193,  -0.00073,   0.00311,475407001.96210,   0.00070,275407007.58729,   0.00047,  -0.00020,   0.00046,  -5.62519,   1.00000
330039606.44556,24996017.92158,203890576.09492,   0.00193,  -0.00073,   0.00312,475410735.97268,   0.00071,275410736.47743,   0.00047,  -0.00020,   0.00047,  -0.50475,   1.00000
329056668.47748,25375055.30383,204488526.52214,   0.00192,  -0.00073,   0.00313,475414583.05152,   0.00071,275414584.61147,   0.00047,  -0.00020,   0.00047,  -1.55995,   1.00000
328071655.91213,25765077.69527,205085781.73147,   0.00192,  -0.00072,   0.00314,475418334.25164,   0.00071,275418343.39747,   0.00048,  -0.00020,   0.00047,  -9.14583,   1.00000
327084283.67665,26154640.70948,205679999.00871,   0.00191,  -0.00072,   0.00315,475422136.54215,   0.00072,275422144.74499,   0.00048,  -0.00020,   0.00047,  -8.20284,   1.00000
326126305.92035,26572685.89104,206261492.69967,   0.00191,  -0.00072,   0.00316,475425949.30523,   0.00072,275425957.72819,   0.00048,  -0.00020,   0.00048,  -8.42295,   1.00000
325161366.40504,27001761.08693,206844825.23512,   0.00191,  -0.00071,   0.00317,475429726.61947,   0.00072,275429734.65342,   0.00048,  -0.00020,   0.00048,  -8.03395,   1.00000
324198896.34814,27430290.33868,207422705.90274,   0.00190,  -0.00071,   0.00318,475433499.17644,   0.00073,275433499.66074,   0.00048,  -0.00020,   0.00048,  -0.48431,   1.00000
323247646.20903,27878562.58230,207995194.03100,   0.00190,  -0.00071,   0.00319,475437248.76885,   0.00073,275437251.89695,   0.00048,  -0.00020,   0.00049,  -3.12810,   1.00000
322302839.21584,28346578.24035,208564709.94097,   0.00190,  -0.00070,   0.00320,475441038.10451,   0.00073,275441045.59071,   0.00049,  -0.00021,   0.00049,  -7.48620,   1.00000
321365311.36381,28814009.51624,209126466.31068,   0.00189,  -0.00070,   0.00321,475444764.49669,   0.00074,275444771.72371,   0.00049,  -0.00021,   0.00049,  -7.22702,   1.00000
320434244.03154,29301159.62075,209685269.28735,   0.00189,  -0.00070,   0.00322,475448529.53730,   0.00074,275448539.05580,   0.00049,  -0.00021,   0.00050,  -9.51850,   1.00000
319505718.72279,29787724.04040,210238762.44877,   0.00189,  -0.00069,   0.00323,475452286.07023,   0.00074,275452292.61690,   0.00049,  -0.00021,   0.00050,  -6.54667,   1.00000
318588432.70642,30293993.27603,210786968.23300,   0.00188,  -0.00069,   0.00324,475456031.16934,   0.00075,275456032.14815,   0.00049,  -0.00021,   0.00050,  -0.97882,   1.00000
317663824.53728,30811269.91953,211336968.53100,   0.00188,  -0.00069,   0.00325,475459731.98142,   0.00075,275459737.33639,   0.00049,  -0.00021,   0.00051,  -5.35498,   1.00000
316760314.41464,31336632.54779,211874649.70891,   0.00187,  -0.00068,   0.00326,475463438.46481,   0.00075,275463448.26532,   0.00049,  -0.00021,   0.00051,  -9.80051,   1.00000
315863283.19670,31881633.57026,212409385.32269,   0.00187,  -0.00068,   0.00327,475467197.28832,   0.00076,275467200.25764,   0.00050,  -0.00021,   0.00051,  -2.96932,   1.00000
314977457.00593,32446297.75640,212938880.32551,   0.00187,  -0.00068,   0.00328,475470933.46103,   0.00076,275470937.77569,   0.00050,  -0.00021,   0.00051,  -4.31466,   1.00000
314094222.75786,33010329.82226,213463221.43911,   0.00186,  -0.00067,   0.00329,475474657.03003,   0.00076,275474659.56179,   0.00050,  -0.00021,   0.00052,  -2.53176,   1.00000
313222196.71516,33594020.71358,213982370.64409,   0.00186,  -0.00067,   0.00330,475478363.98491,   0.00077,275478366.31244,   0.00050,  -0.00021,   0.00052,  -2.32753,   1.00000
312356610.68537,34197269.83420,214498540.07124,   0.00186,  -0.00067,   0.00331,475482106.16272,   0.00077,275482114.62907,   0.00050,  -0.00021,   0.00052,  -8.46634,   1.00000
311498375.61088,34799960.48277,215007429.14930,   0.00185,  -0.00066,   0.00332,475485780.92755,   0.00077,275485789.63687,   0.00050,  -0.00021,   0.00053,  -8.70931,   1.00000
310646589.65131,35422184.92393,215513353.29998,   0.00185,  -0.00066,   0.00333,475489505.93464,   0.00078,275489506.01979,   0.00050,  -0.00021,   0.00053,  -0.08515,   1.00000
309797418.75365,36043749.56490,216014236.31134,   0.00184,  -0.00065,   0.00334,475493199.57201,   0.00078,275493205.30341,   0.00051,  -0.00021,   0.00053,  -5.73140,   1.00000
308959426.61174,36684944.31669,216509998.14754,   0.00184,  -0.00065,   0.00335,475496888.49029,   0.00078,275496888.83615,   0.00051,  -0.00021,   0.00054,  -0.34585,   1.00000
308146769.92142,37354266.39609,216995903.82846,   0.00184,  -0.00065,   0.00336,475500623.90416,   0.00079,275500630.80076,   0.00051,  -0.00022,   0.00054,  -6.89660,   1.00000
307317833.83131,38014246.70604,217483713.11215,   0.00183,  -0.00064,   0.00337,475504336.88675,   0.00079,275504337.97372,   0.00051,  -0.00022,   0.00054,  -1.08697,   1.00000
306504751.33217,38694000.29338,217964322.44116,   0.00183,  -0.00064,   0.00338,475507971.41755,   0.00079,275507971.53611,   0.00051,  -0.00022,   0.00055,  -0.11856,   1.00000
305703890.29478,39381370.00831,218437382.88806,   0.00183,  -0.00063,   0.00339,475511717.58156,   0.00080,275511717.94189,   0.00051,  -0.00022,   0.00055,  -0.36033,   1.00000
304914183.06323,40088322.81456,218905387.78587,   0.00182,  -0.00063,   0.00340,475515447.55441,   0.00080,275515447.88804,   0.00051,  -0.00022,   0.00055,  -0.33363,   1.00000
304121233.16287,40806411.73343,219373053.65529,   0.00182,  -0.00063,   0.00341,475519086.31713,   0.00081,275519088.14215,   0.00051,  -0.00022,   0.00055,  -1.82502,   1.00000
303345322.58857,41532233.03647,219831155.33680,   0.00182,  -0.00062,   0.00342,475522778.69648,   0.00081,275522782.18828,   0.00052,  -0.00022,   0.00056,  -3.49180,   1.00000
302580513.88755,42277626.97681,220284231.50690,   0.00181,  -0.00062,   0.00342,475526452.45287,   0.00081,275526459.58515,   0.00052,  -0.00022,   0.00056,  -7.13229,   1.00000
301822076.32083,43042337.50065,220734277.91380,   0.00181,  -0.00061,   0.00343,475530172.79282,   0.00082,275530179.30668,   0.00052,  -0.00022,   0.00056,  -6.51386,   1.00000
301071001.44548,43806578.14725,221177555.21221,   0.00180,  -0.00061,   0.00344,475533812.29583,   0.00082,275533819.75193,   0.00052,  -0.00022,   0.00057,  -7.45610,   1.00000
300340805.79280,44598468.49538,221613097.79727,   0.00180,  -0.00060,   0.00345,475537567.80855,   0.00082,275537575.24854,   0.00052,  -0.00022,   0.00057,  -7.43998,   1.00000
299598750.47635,45381268.80834,222048614.70072,   0.00180,  -0.00060,   0.00346,475541229.84990,   0.00083,275541237.16086,   0.00052,  -0.00022,   0.00057,  -7.31095,   1.00000
298882302.54984,46191947.83952,222474437.88357,   0.00179,  -0.00059,   0.00347,475544948.06274,   0.00083,275544954.72769,   0.00052,  -0.00022,   0.00058,  -6.66495,   1.00000
298176868.00938,47022145.41547,222895273.88740,   0.00179,  -0.00059,   0.00348,475548651.65650,   0.00083,275548655.43323,   0.00053,  -0.00022,   0.00058,  -3.77674,   1.00000
297474112.13879,47851594.63495,223311446.60196,   0.00179,  -0.00058,   0.00349,475552329.84794,   0.00084,275552334.39203,   0.00053,  -0.00022,   0.00058,  -4.54409,   1.00000
296782335.00872,48700564.69046,223722647.84408,   0.00178,  -0.00058,   0.00349,475555992.01820,   0.00084,275555996.42431,   0.00053,  -0.00022,   0.00059,  -4.40611,   1.00000
296088560.49363,49548431.46713,224131106.51113,   0.00178,  -0.00057,   0.00350,475559688.87820,   0.00084,275559696.38599,   0.00053,  -0.00022,   0.00059,  -7.50779,   1.00000
295425142.94812,50424430.00871,224528056.21430,   0.00178,  -0.00057,   0.00351,475563389.95588,   0.00085,275563390.83339,   0.00053,  -0.00022,   0.00059,  -0.87750,   1.00000
294753216.94477,51311295.88119,224926568.39553,   0.00177,  -0.00057,   0.00352,475567053.07272,   0.00085,275567057.29075,   0.00053,  -0.00022,   0.00060,  -4.21803,   1.00000
294098736.08281,52205617.80224,225315825.28131,   0.00177,  -0.00056,   0.00353,475570762.61073,   0.00085,275570772.57793,   0.00053,  -0.00022,   0.00060,  -9.96719,   1.00000
293469976.15138,53127612.31914,225695467.77318,   0.00177,  -0.00056,   0.00354,475574540.41697,   0.00086,275574542.13739,   0.00053,  -0.00022,   0.00060,  -1.72043,   1.00000
292829056.83853,54040636.43111,226075249.76307,   0.00176,  -0.00055,   0.00354,475578210.16532,   0.00086,275578217.10176,   0.00054,  -0.00023,   0.00060,  -6.93644,   1.00000
292198987.85957,54973140.79246,226450078.81675,   0.00176,  -0.00055,   0.00355,475581868.03543,   0.00086,275581875.29946,   0.00054,  -0.00023,   0.00061,  -7.26403,   1.00000
291586484.95320,55913029.27765,226815768.02507,   0.00176,  -0.00054,   0.00356,475585575.11201,   0.00087,275585580.57013,   0.00054,  -0.00023,   0.00061,  -5.45812,   1.00000
290984807.62490,56872377.79243,227176523.07559,   0.00175,  -0.00054,   0.00357,475589261.46761,   0.00087,275589268.90162,   0.00054,  -0.00023,   0.00061,  -7.43401,   1.00000
290404227.27937,57858771.55831,227529444.32104,   0.00175,  -0.00053,   0.00358,475593066.51944,   0.00087,275593072.54436,   0.00054,  -0.00023,   0.00062,  -6.02492,   1.00000
289815977.17270,58836785.93819,227880822.78711,   0.00175,  -0.00052,   0.00358,475596715.27052,   0.00088,275596719.76332,   0.00054,  -0.00023,   0.00062,  -4.49279,   1.00000
289248827.65735,59841776.45173,228224344.17286,   0.00174,  -0.00052,   0.00359,475600475.86797,   0.00088,275600482.54125,   0.00054,  -0.00023,   0.00062,  -6.67327,   1.00000
288688967.20600,60846524.87803,228561744.40001,   0.00174,  -0.00051,   0.00360,475604154.69234,   0.00088,275604158.69213,   0.00054,  -0.00023,   0.00063,  -3.99979,   1.00000
288135182.68190,61870121.38565,228895911.76365,   0.00174,  -0.00051,   0.00361,475607876.25705,   0.00089,275607880.25886,   0.00055,  -0.00023,   0.00063,  -4.00181,   1.00000
287599114.39106,62900938.58891,229221082.09283,   0.00173,  -0.00050,   0.00361,475611646.06091,   0.00089,275611646.66786,   0.00055,  -0.00023,   0.00063,  -0.60695,   1.00000
287081709.86568,63971337.57837,229540680.80247,   0.00173,  -0.00050,   0.00362,475615403.05836,   0.00089,275615406.12057,   0.00055,  -0.00023,   0.00064,  -3.06222,   1.00000
286558924.52389,65020717.59402,229856554.40488,   0.00173,  -0.00049,   0.00363,475619123.71547,   0.00090,275619130.82253,   0.00055,  -0.00023,   0.00064,  -7.10706,   1.00000
286061899.08403,66097451.11795,230162862.06996,   0.00172,  -0.00049,   0.00363,475622907.34271,   0.00090,275622908.95356,   0.00055,  -0.00023,   0.00064,  -1.61084,   1.00000
285560286.10764,67185600.68314,230468808.46299,   0.00172,  -0.00048,   0.00364,475626594.72605,   0.00090,275626601.77470,   0.00055,  -0.00023,   0.00065,  -7.04865,   1.00000
285071844.05967,68280171.99110,230767478.70411,   0.00172,  -0.00048,   0.00365,475630393.58609,   0.00091,275630400.86469,   0.00055,  -0.00023,   0.00065,  -7.27860,   1.00000
284613730.14089,69402700.50846,231054921.33564,   0.00171,  -0.00047,   0.00366,475634185.87110,   0.00091,275634191.06608,   0.00055,  -0.00023,   0.00065,  -5.19497,   1.00000
284158216.00074,70524394.21382,231338109.91271,   0.00171,  -0.00046,   0.00366,475637949.65243,   0.00091,275637954.82190,   0.00055,  -0.00023,   0.00066,  -5.16948,   1.00000
283708580.80346,71664662.03492,231617921.05837,   0.00171,  -0.00046,   0.00367,475641763.42349,   0.00092,275641766.11896,   0.00056,  -0.00023,   0.00066,  -2.69547,   1.00000
283273952.10179,72825007.64763,231891100.37624,   0.00170,  -0.00045,   0.00368,475645491.14984,   0.00092,275645499.71189,   0.00056,  -0.00023,   0.00066,  -8.56205,   1.00000
282852560.66809,73991544.50887,232157035.09325,   0.00170,  -0.00045,   0.00368,475649333.78808,   0.00093,275649338.84761,   0.00056,  -0.00023,   0.00067,  -5.05952,   1.00000
282433734.99925,75157228.84666,232418752.34626,   0.00170,  -0.00044,   0.00369,475653146.93036,   0.00093,275653151.19307,   0.00056,  -0.00023,   0.00067,  -4.26271,   1.00000
282025264.59977,76342199.16886,232675434.99832,   0.00169,  -0.00044,   0.00370,475656942.00837,   0.00093,275656949.04878,   0.00056,  -0.00023,   0.00067,  -7.04041,   1.00000
281642432.28768,77554198.77232,232922473.73871,   0.00169,  -0.00043,   0.00370,475660799.89154,   0.00094,275660801.40885,   0.00056,  -0.00023,   0.00068,  -1.51731,   1.00000
281262106.90046,78765324.92449,233165307.95825,   0.00169,  -0.00042,   0.00371,475664619.72211,   0.00094,275664626.96436,   0.00056,  -0.00023,   0.00068,  -7.24225,   1.00000
280899677.27878,79983320.06952,233399399.17563,   0.00169,  -0.00042,   0.00372,475668487.49532,   0.00094,275668493.57483,   0.00056,  -0.00023,   0.00068,  -6.07951,   1.00000
280555181.71684,81240625.44122,233627495.73705,   0.00168,  -0.00041,   0.00372,475672356.84859,   0.00095,275672360.19967,   0.00056,  -0.00023,   0.00069,  -3.35108,   1.00000
280205463.82177,82476965.72592,233852357.47138,   0.00168,  -0.00041,   0.00373,475676182.58628,   0.00095,275676185.74743,   0.00057,  -0.00023,   0.00069,  -3.16115,   1.00000
279865907.69543,83732530.65806,234072118.38617,   0.00168,  -0.00040,   0.00374,475679989.17519,   0.00095,275679998.10349,   0.00057,  -0.00023,   0.00069,  -8.92830,   1.00000
279551891.18977,85014933.47316,234282182.84528,   0.00167,  -0.00039,   0.00374,475683862.39779,   0.00096,275683865.74876,   0.00057,  -0.00023,   0.00070,  -3.35097,   1.00000
279251193.77665,86303038.99607,234485037.01598,   0.00167,  -0.00039,   0.00375,475687833.40821,   0.00096,275687837.96619,   0.00057,  -0.00024,   0.00070,  -4.55798,   1.00000
278965097.65351,87611312.75766,234681240.51424,   0.00167,  -0.00038,   0.00375,475691731.44051,   0.00096,275691733.86544,   0.00057,  -0.00024,   0.00070,  -2.42493,   1.00000
278676852.87149,88917620.14318,234874798.09607,   0.00167,  -0.00037,   0.00376,475695660.36908,   0.00097,275695666.43804,   0.00057,  -0.00024,   0.00071,  -6.06896,   1.00000
278418614.03609,90251676.74052,235057125.05936,   0.00166,  -0.00037,   0.00377,475699589.20230,   0.00097,275699590.90397,   0.00057,  -0.00024,   0.00071,  -1.70167,   1.00000
278158200.11354,91583705.16703,235236806.62249,   0.00166,  -0.00036,   0.00377,475703548.78156,   0.00098,275703552.05883,   0.00057,  -0.00024,   0.00071,  -3.27727,   1.00000
277907672.62674,92934808.00523,235411248.02970,   0.00166,  -0.00036,   0.00378,475707498.30304,   0.00098,275707502.34581,   0.00058,  -0.00024,   0.00072,  -4.04278,   1.00000
277687030.34291,94313598.79792,235574399.62654,   0.00166,  -0.00035,   0.00378,475711437.58159,   0.00098,275711445.52643,   0.00058,  -0.00024,   0.00072,  -7.94484,   1.00000
277472231.51904,95677754.05609,235731526.50564,   0.00165,  -0.00034,   0.00379,475715471.39728,   0.00099,275715475.50506,   0.00058,  -0.00024,   0.00072,  -4.10778,   1.00000
277259101.49368,97073444.34073,235886709.36772,   0.00165,  -0.00034,   0.00379,475719440.39470,   0.00099,275719445.93342,   0.00058,  -0.00024,   0.00073,  -5.53872,   1.00000
277071944.95963,98463057.96942,236029915.28166,   0.00165,  -0.00033,   0.00380,475723499.74932,   0.00099,275723505.36175,   0.00058,  -0.00024,   0.00073,  -5.61243,   1.00000
276886306.96927,99884183.55135,236171085.26567,   0.00165,  -0.00032,   0.00380,475727504.93253,   0.00100,275727506.74100,   0.00058,  -0.00024,   0.00073,  -1.80848,   1.00000
276726684.18264,101299144.81395,236300335.84909,   0.00164,  -0.00032,   0.00381,475731588.38891,   0.00100,275731596.23673,   0.00058,  -0.00024,   0.00074,  -7.84782,   1.00000
276561094.21789,102725703.36239,236428768.91959,   0.00164,  -0.00031,   0.00381,475735603.41706,   0.00101,275735609.83943,   0.00058,  -0.00024,   0.00074,  -6.42237,   1.00000
276420640.37100,104178492.82628,236547245.26316,   0.00164,  -0.00030,   0.00382,475739677.57116,   0.00101,275739682.54786,   0.00058,  -0.00024,   0.00074,  -4.97670,   1.00000
276297973.71751,105637569.78130,236657090.79858,   0.00164,  -0.00030,   0.00382,475743792.21007,   0.00101,275743794.80146,   0.00059,  -0.00024,   0.00075,  -2.59139,   1.00000
276184745.84897,107115487.98331,236761467.50514,   0.00163,  -0.00029,   0.00383,475747890.44826,   0.00102,275747899.97700,   0.00059,  -0.00024,   0.00075,  -9.52873,   1.00000
276084747.55378,108598202.39014,236858615.65738,   0.00163,  -0.00028,   0.00383,475752100.92643,   0.00102,275752109.52326,   0.00059,  -0.00024,   0.00076,  -8.59683,   1.00000
275998628.09314,110101125.30496,236948845.59791,   0.00163,  -0.00028,   0.00384,475756247.73362,   0.00102,275756247.95471,   0.00059,  -0.00024,   0.00076,  -0.22109,   1.00000
275914587.38819,111603005.42082,237034961.81057,   0.00163,  -0.00027,   0.00384,475760351.98639,   0.00103,275760359.48430,   0.00059,  -0.00024,   0.00076,  -7.49792,   1.00000
275843755.36666,113109527.64701,237113853.19795,   0.00163,  -0.00026,   0.00385,475764567.70188,   0.00103,275764575.29283,   0.00059,  -0.00024,   0.00077,  -7.59095,   1.00000
275802314.55493,114643414.53961,237181241.25803,   0.00162,  -0.00026,   0.00385,475768781.81187,   0.00104,275768787.65534,   0.00059,  -0.00024,   0.00077,  -5.84348,   1.00000
275758382.66589,116174676.72724,237245921.32573,   0.00162,  -0.00025,   0.00386,475773035.93124,   0.00104,275773037.85249,   0.00059,  -0.00024,   0.00077,  -1.92124,   1.00000
275728082.96007,117726162.39312,237303559.03785,   0.00162,  -0.00024,   0.00386,475777209.80500,   0.00104,275777219.12144,   0.00059,  -0.00024,   0.00078,  -9.31643,   1.00000
275717955.50311,119301719.38110,237352335.58372,   0.00162,  -0.00023,   0.00387,475781524.12582,   0.00105,275781528.63940,   0.00060,  -0.00024,   0.00078,  -4.51359,   1.00000
275722906.72262,120865103.79909,237392709.32327,   0.00162,  -0.00023,   0.00387,475785783.92660,   0.00105,275785789.34909,   0.00060,  -0.00024,   0.00079,  -5.42249,   1.00000
275732304.11034,122445401.12361,237428724.65452,   0.00161,  -0.00022,   0.00388,475790106.11824,   0.00106,275790112.19428,   0.00060,  -0.00024,   0.00079,  -6.07604,   1.00000
275766254.87169,124051167.96582,237454420.08080,   0.00161,  -0.00021,   0.00388,475794491.81865,   0.00106,275794499.52782,   0.00060,  -0.00024,   0.00079,  -7.70917,   1.00000
275802057.60393,125655741.45825,237475977.70401,   0.00161,  -0.00021,   0.00388,475798852.72611,   0.00106,275798860.70622,   0.00060,  -0.00024,   0.00080,  -7.98011,   1.00000
275866820.02868,127287398.87148,237485781.39068,   0.00161,  -0.00020,   0.00389,475803219.23672,   0.00107,275803222.41252,   0.00060,  -0.00024,   0.00080,  -3.17580,   1.00000
275928839.93393,128916075.52923,237492789.05245,   0.00161,  -0.00019,   0.00389,475807619.34132,   0.00107,275807623.40453,   0.00060,  -0.00024,   0.00080,  -4.06321,   1.00000
276008321.65025,130550400.88261,237491130.31314,   0.00161,  -0.00018,   0.00390,475812058.15392,   0.00108,275812064.72517,   0.00060,  -0.00024,   0.00081,  -6.57125,   1.00000
276096405.87655,132203035.18213,237483511.21952,   0.00160,  -0.00018,   0.00390,475816497.49984,   0.00108,275816506.76578,   0.00060,  -0.00024,   0.00081,  -9.26594,   1.00000
276201886.66411,133861221.30006,237467206.12167,   0.00160,  -0.00017,   0.00390,475820984.02677,   0.00108,275820989.46738,   0.00061,  -0.00024,   0.00082,  -5.44060,   1.00000
276331511.29610,135544392.43357,237440335.66483,   0.00160,  -0.00016,   0.00391,475825533.83396,   0.00109,275825540.34670,   0.00061,  -0.00024,   0.00082,  -6.51274,   1.00000
276462762.12458,137226237.07672,237409274.96256,   0.00160,  -0.00015,   0.00391,475830059.95875,   0.00109,275830066.17323,   0.00061,  -0.00024,   0.00082,  -6.21448,   1.00000
276595642.77747,138906779.77246,237374034.88428,   0.00160,  -0.00015,   0.00391,475834561.94843,   0.00110,275834566.84000,   0.00061,  -0.00024,   0.00083,  -4.89157,   1.00000
276768175.67848,140618799.71995,237323604.23647,   0.00160,  -0.00014,   0.00392,475839196.18065,   0.00110,275839203.35294,   0.00061,  -0.00024,   0.00083,  -7.17228,   1.00000
276922049.06437,142320778.43396,237274850.49057,   0.00159,  -0.00013,   0.00392,475843805.95911,   0.00111,275843813.96028,   0.00061,  -0.00024,   0.00084,  -8.00116,   1.00000
277119954.92746,144056018.04563,237209455.29713,   0.00159,  -0.00012,   0.00392,475848490.14514,   0.00111,275848496.85741,   0.00061,  -0.00024,   0.00084,  -6.71227,   1.00000
277319307.27823,145789815.75760,237139821.08051,   0.00159,  -0.00012,   0.00393,475853151.80220,   0.00111,275853155.65536,   0.00061,  -0.00024,   0.00085,  -3.85317,   1.00000
277520103.88841,147522192.58913,237065951.89852,   0.00159,  -0.00011,   0.00393,475857781.06911,   0.00112,275857790.34414,   0.00062,  -0.00024,   0.00085,  -9.27503,   1.00000
277740016.83615,149276839.01152,236982585.40590,   0.00159,  -0.00010,   0.00393,475862561.24442,   0.00112,275862562.43279,   0.00062,  -0.00024,   0.00085,  -1.18837,   1.00000
277981467.93994,151038622.63011,236889053.41034,   0.00159,  -0.00009,   0.00394,475867308.06669,   0.00113,275867312.40107,   0.00062,  -0.00024,   0.00086,  -4.33437,   1.00000
278230717.42956,152818114.53008,236789082.11345,   0.00159,  -0.00009,   0.00394,475872065.61465,   0.00113,275872070.55914,   0.00062,  -0.00024,   0.00086,  -4.94450,   1.00000
278492356.51143,154600281.25365,236681651.12831,   0.00159,  -0.00008,   0.00394,475876932.51282,   0.00114,275876936.42988,   0.00062,  -0.00024,   0.00087,  -3.91706,   1.00000
278775410.34759,156389497.89470,236564019.17116,   0.00159,  -0.00007,   0.00395,475881774.72542,   0.00114,275881780.84827,   0.00062,  -0.00024,   0.00087,  -6.12284,   1.00000
279061519.16173,158193974.95477,236441207.85470,   0.00158,  -0.00006,   0.00395,475886697.15711,   0.00115,275886699.77172,   0.00062,  -0.00024,   0.00088,  -2.61461,   1.00000
279364408.02751,160003124.45199,236309527.73500,   0.00158,  -0.00006,   0.00395,475891660.83983,   0.00115,275891662.45702,   0.00062,  -0.00024,   0.00088,  -1.61719,   1.00000
279679245.20263,161831971.93702,236169795.25949,   0.00158,  -0.00005,   0.00395,475896564.55564,   0.00115,275896572.50916,   0.00063,  -0.00024,   0.00088,  -7.95352,   1.00000
279999955.89720,163644006.75265,236024901.76265,   0.00158,  -0.00004,   0.00396,475901548.99004,   0.00116,275901556.90737,   0.00063,  -0.00024,   0.00089,  -7.91733,   1.00000
280349820.36069,165498543.88647,235866371.37789,   0.00158,  -0.00003,   0.00396,475906648.61631,   0.00116,275906654.64955,   0.00063,  -0.00024,   0.00089,  -6.03324,   1.00000
280698950.77192,167334710.05269,235704438.58966,   0.00158,  -0.00002,   0.00396,475911625.96217,   0.00117,275911632.20348,   0.00063,  -0.00024,   0.00090,  -6.24131,   1.00000
281066275.10576,169191757.32980,235532549.95481,   0.00158,  -0.00002,   0.00396,475916747.97546,   0.00117,275916754.04521,   0.00063,  -0.00024,   0.00090,  -6.06976,   1.00000
281434490.06033,171046947.56303,235356247.37821,   0.00158,  -0.00001,   0.00397,475921852.34786,   0.00118,275921855.01431,   0.00063,  -0.00024,   0.00091,  -2.66645,   1.00000
281840811.45736,172931302.47453,235163934.59038,   0.00158,  -0.00000,   0.00397,475927103.82870,   0.00118,275927104.03427,   0.00063,  -0.00024,   0.00091,  -0.20557,   1.00000
282232315.03082,174807613.98966,234971696.08774,   0.00158,   0.00001,   0.00397,475932261.84212,   0.00119,275932266.94023,   0.00063,  -0.00024,   0.00092,  -5.09811,   1.00000
282660234.35774,176696596.21745,234764479.55593,   0.00158,   0.00002,   0.00397,475937471.19603,   0.00119,275937478.51342,   0.00064,  -0.00024,   0.00092,  -7.31739,   1.00000
283090278.42779,178599715.99155,234551623.08965,   0.00158,   0.00002,   0.00397,475942761.94453,   0.00120,275942771.72745,   0.00064,  -0.00024,   0.00093,  -9.78292,   1.00000
283536472.09684,180506703.68895,234329703.21353,   0.00158,   0.00003,   0.00398,475948102.79735,   0.00120,275948112.03313,   0.00064,  -0.00024,   0.00093,  -9.23578,   1.00000
283983253.10011,182411589.27253,234103272.83314,   0.00158,   0.00004,   0.00398,475953428.88883,   0.00121,275953433.20876,   0.00064,  -0.00024,   0.00093,  -4.31993,   1.00000
284441558.85487,184317553.50268,233869225.81510,   0.00158,   0.00005,   0.00398,475958856.45763,   0.00121,275958864.92855,   0.00064,  -0.00024,   0.00094,  -8.47092,   1.00000
284926283.93397,186248486.51699,233621940.52614,   0.00158,   0.00006,   0.00398,475964316.03670,   0.00122,275964320.24039,   0.00064,  -0.00024,   0.00094,  -4.20369,   1.00000
285411424.39879,188177173.97723,233370084.79666,   0.00158,   0.00006,   0.00398,475969751.30067,   0.00122,275969757.47304,   0.00064,  -0.00024,   0.00095,  -6.17238,   1.00000
285918189.19895,190127858.30599,233106317.33468,   0.00157,   0.00007,   0.00398,475975278.76951,   0.00123,275975283.51974,   0.00064,  -0.00024,   0.00095,  -4.75022,   1.00000
286440684.85941,192081892.74446,232833359.23376,   0.00157,   0.00008,   0.00399,475980850.53123,   0.00123,275980858.85633,   0.00065,  -0.00023,   0.00096,  -8.32509,   1.00000
286963426.32238,194033532.84213,232555778.95646,   0.00157,   0.00009,   0.00399,475986411.03102,   0.00124,275986417.05388,   0.00065,  -0.00023,   0.00096,  -6.02285,   1.00000
287497253.83425,195985542.47822,232270506.36374,   0.00157,   0.00010,   0.00399,475992082.86317,   0.00124,275992087.25378,   0.00065,  -0.00023,   0.00097,  -4.39061,   1.00000
288056834.48184,197961899.95694,231971631.02530,   0.00157,   0.00011,   0.00399,475997781.79973,   0.00125,275997786.72906,   0.00065,  -0.00023,   0.00097,  -4.92933,   1.00000
288616472.00372,199935695.65894,231668070.02984,   0.00157,   0.00011,   0.00399,476003465.55026,   0.00125,276003470.18601,   0.00065,  -0.00023,   0.00098,  -4.63575,   1.00000
289192461.04180,201927691.13589,231353809.66999,   0.00158,   0.00012,   0.00399,476009308.48594,   0.00126,276009309.62241,   0.00065,  -0.00023,   0.00098,  -1.13647,   1.00000
289782826.25684,203907264.90486,231031690.50117,   0.00158,   0.00013,   0.00399,476015085.47884,   0.00126,276015094.95112,   0.00065,  -0.00023,   0.00099,  -9.47227,   1.00000
290373987.23419,205899290.14974,230703407.22689,   0.00158,   0.00014,   0.00399,476020964.47034,   0.00127,276020970.40193,   0.00066,  -0.00023,   0.00100,  -5.93159,   1.00000
290984901.89267,207896994.20030,230364242.47721,   0.00158,   0.00015,   0.00400,476026826.45220,   0.00128,276026835.86774,   0.00066,  -0.00023,   0.00100,  -9.41555,   1.00000
291611666.08350,209912191.11316,230014225.48542,   0.00158,   0.00016,   0.00400,476032855.76644,   0.00128,276032859.88529,   0.00066,  -0.00023,   0.00101,  -4.11885,   1.00000
292237382.80270,211909576.97181,229660942.59408,   0.00158,   0.00016,   0.00400,476038761.25194,   0.00129,276038763.18781,   0.00066,  -0.00023,   0.00101,  -1.93586,   1.00000
292878747.67809,213924162.66433,229296755.02597,   0.00158,   0.00017,   0.00400,476044822.41721,   0.00129,276044825.97590,   0.00066,  -0.00023,   0.00102,  -3.55869,   1.00000
293540150.43089,215958819.81972,228919992.93308,   0.00158,   0.00018,   0.00400,476050981.31356,   0.00130,276050988.21771,   0.00066,  -0.00023,   0.00102,  -6.90415,   1.00000
294200434.75837,217975704.31111,228539959.24289,   0.00158,   0.00019,   0.00400,476057029.58687,   0.00130,276057030.02149,   0.00066,  -0.00023,   0.00103,  -0.43462,   1.00000
294891134.64025,220014322.90756,228144289.26573,   0.00158,   0.00020,   0.00400,476063294.56099,   0.00131,276063300.57759,   0.00067,  -0.00023,   0.00103,  -6.01660,   1.00000
295565983.45943,222044590.69159,227748349.76514,   0.00158,   0.00021,   0.00400,476069485.97485,   0.00131,276069491.58557,   0.00067,  -0.00023,   0.00104,  -5.61072,   1.00000
296270495.39449,224081702.85425,227338328.82702,   0.00158,   0.00021,   0.00400,476075798.73742,   0.00132,276075804.40107,   0.00067,  -0.00023,   0.00104,  -5.66365,   1.00000
296979232.03075,226133080.82568,226920108.97106,   0.00158,   0.00022,   0.00400,476082149.83051,   0.00133,276082153.40008,   0.00067,  -0.00023,   0.00105,  -3.56957,   1.00000
297697272.48918,228168402.25598,226495687.68325,   0.00158,   0.00023,   0.00400,476088504.83187,   0.00133,276088509.55895,   0.00067,  -0.00023,   0.00106,  -4.72708,   1.00000
298434444.25267,230222708.28167,226058390.15952,   0.00158,   0.00024,   0.00400,476094963.43598,   0.00134,276094970.30686,   0.00067,  -0.00023,   0.00106,  -6.87087,   1.00000
299170616.75550,232273441.58278,225616147.49534,   0.00158,   0.00025,   0.00400,476101416.56190,   0.00134,276101420.08127,   0.00068,  -0.00022,   0.00107,  -3.51937,   1.00000
299925601.16091,234342768.05103,225160901.93697,   0.00158,   0.00026,   0.00400,476107969.75828,   0.00135,276107976.52898,   0.00068,  -0.00022,   0.00107,  -6.77070,   1.00000
300694416.58637,236413085.26192,224696029.53077,   0.00159,   0.00027,   0.00400,476114588.48027,   0.00136,276114590.53747,   0.00068,  -0.00022,   0.00108,  -2.05719,   1.00000
301457271.34409,238462309.08116,224229626.77689,   0.00159,   0.00027,   0.00400,476121138.84812,   0.00136,276121144.01432,   0.00068,  -0.00022,   0.00108,  -5.16619,   1.00000
302243212.81906,240546870.58659,223746607.10825,   0.00159,   0.00028,   0.00400,476127850.71017,   0.00137,276127857.31463,   0.00068,  -0.00022,   0.00109,  -6.60445,   1.00000
303038043.66542,242614869.13546,223257429.39994,   0.00159,   0.00029,   0.00400,476134576.22193,   0.00138,276134577.87302,   0.00068,  -0.00022,   0.00110,  -1.65109,   1.00000
303846346.48665,244683438.00356,222758590.63450,   0.00159,   0.00030,   0.00400,476141352.46558,   0.00138,276141356.97278,   0.00068,  -0.00022,   0.00110,  -4.50719,   1.00000
304653016.29923,246761378.10229,222252934.36719,   0.00159,   0.00031,   0.00400,476148233.66533,   0.00139,276148237.93888,   0.00069,  -0.00022,   0.00111,  -4.27355,   1.00000
305477564.77222,248843191.66985,221735751.04840,   0.00159,   0.00032,   0.00400,476155115.79436,   0.00139,276155120.19931,   0.00069,  -0.00022,   0.00111,  -4.40494,   1.00000
306315230.46802,250925142.21454,221208838.08227,   0.00159,   0.00033,   0.00400,476162057.26782,   0.00140,276162062.41579,   0.00069,  -0.00022,   0.00112,  -5.14797,   1.00000
307146472.33124,252999075.65531,220678687.80190,   0.00160,   0.00034,   0.00400,476169049.71583,   0.00141,276169054.57488,   0.00069,  -0.00022,   0.00113,  -4.85905,   1.00000
307999627.05634,255093405.51601,220133241.48558,   0.00160,   0.00034,   0.00400,476176095.64319,   0.00141,276176103.54259,   0.00069,  -0.00022,   0.00113,  -7.89940,   1.00000
308861282.90772,257170718.63225,219581729.02883,   0.00160,   0.00035,   0.00399,476183157.71145,   0.00142,276183159.25900,   0.00070,  -0.00021,   0.00114,  -1.54755,   1.00000
309720505.24902,259256393.46275,219023262.91246,   0.00160,   0.00036,   0.00399,476190315.77844,   0.00143,276190319.77939,   0.00070,  -0.00021,   0.00115,  -4.00095,   1.00000
310596966.91323,261345310.52335,218453086.20332,   0.00160,   0.00037,   0.00399,476197479.03361,   0.00143,276197485.01918,   0.00070,  -0.00021,   0.00115,  -5.98558,   1.00000
311481236.05291,263429766.33130,217875044.64455,   0.00160,   0.00038,   0.00399,476204765.00032,   0.00144,276204768.79834,   0.00070,  -0.00021,   0.00116,  -3.79803,   1.00000
312381883.53541,265529842.99044,217283379.74137,   0.00161,   0.00039,   0.00399,476212166.50453,   0.00145,276212170.74236,   0.00070,  -0.00021,   0.00117,  -4.23784,   1.00000
313280740.53485,267612324.99649,216688388.14155,   0.00161,   0.00040,   0.00399,476219449.61865,   0.00145,276219454.82297,   0.00070,  -0.00021,   0.00117,  -5.20432,   1.00000
314191021.78152,269706214.19237,216081699.14384,   0.00161,   0.00041,   0.00399,476226911.50210,   0.00146,276226914.29534,   0.00071,  -0.00021,   0.00118,  -2.79323,   1.00000
315113236.23128,271798788.77249,215465155.42795,   0.00161,   0.00042,   0.00399,476234434.81470,   0.00147,276234437.18260,   0.00071,  -0.00021,   0.00119,  -2.36790,   1.00000
316051907.41079,273893819.99585,214836716.20097,   0.00161,   0.00042,   0.00398,476241968.39029,   0.00148,276241968.44079,   0.00071,  -0.00021,   0.00119,  -0.05050,   1.00000
316983119.88214,275979534.23265,214205105.96729,   0.00162,   0.00043,   0.00398,476249546.02412,   0.00148,276249550.47175,   0.00071,  -0.00020,   0.00120,  -4.44763,   1.00000
317925946.99019,278063559.15237,213563639.12097,   0.00162,   0.00044,   0.00398,476257193.32614,   0.00149,276257196.48444,   0.00071,  -0.00020,   0.00121,  -3.15831,   1.00000
318865871.43775,280142088.03536,212916970.98603,   0.00162,   0.00045,   0.00398,476264833.92161,   0.00150,276264838.11411,   0.00072,  -0.00020,   0.00121,  -4.19251,   1.00000
319835141.99951,282238156.75682,212251767.65929,   0.00162,   0.00046,   0.00398,476272666.51238,   0.00150,276272671.99398,   0.00072,  -0.00020,   0.00122,  -5.48160,   1.00000
320801192.50007,284328383.18696,211581315.86806,   0.00162,   0.00047,   0.00398,476280494.96128,   0.00151,276280502.61070,   0.00072,  -0.00020,   0.00123,  -7.64942,   1.00000
321760528.36649,286397016.55764,210909677.59146,   0.00163,   0.00048,   0.00397,476288263.17979,   0.00152,276288270.12844,   0.00072,  -0.00020,   0.00123,  -6.94865,   1.00000
322748584.86236,288482395.64867,210219438.98715,   0.00163,   0.00049,   0.00397,476296225.32701,   0.00153,276296231.71266,   0.00072,  -0.00020,   0.00124,  -6.38565,   1.00000
323733178.49376,290561696.97182,209523958.14955,   0.00163,   0.00050,   0.00397,476304184.33135,   0.00153,276304190.43968,   0.00072,  -0.00019,   0.00125,  -6.10833,   1.00000
324728439.85078,292638192.23642,208818573.97093,   0.00163,   0.00050,   0.00397,476312206.54461,   0.00154,276312215.35836,   0.00073,  -0.00019,   0.00125,  -8.81375,   1.00000
325723345.85336,294723906.49761,208103820.83080,   0.00164,   0.00051,   0.00397,476320294.44574,   0.00155,276320298.80810,   0.00073,  -0.00019,   0.00126,  -4.36236,   1.00000
326734834.09688,296790081.66046,207380887.70481,   0.00164,   0.00052,   0.00396,476328504.34035,   0.00156,276328509.29558,   0.00073,  -0.00019,   0.00127,  -4.95523,   1.00000
327747177.76106,298853997.66653,206650464.88115,   0.00164,   0.00053,   0.00396,476336660.42052,   0.00156,276336665.07783,   0.00073,  -0.00019,   0.00128,  -4.65731,   1.00000
328758724.27250,300926646.81720,205910625.16193,   0.00164,   0.00054,   0.00396,476344876.85545,   0.00157,276344880.80048,   0.00074,  -0.00019,   0.00128,  -3.94503,   1.00000
329786543.71621,302979316.82515,205162748.78082,   0.00165,   0.00055,   0.00396,476353219.35383,   0.00158,276353222.30875,   0.00074,  -0.00019,   0.00129,  -2.95492,   1.00000
330817886.17555,305044562.97120,204403097.83664,   0.00165,   0.00056,   0.00395,476361565.32209,   0.00159,276361573.23422,   0.00074,  -0.00018,   0.00130,  -7.91212,   1.00000
331858879.05720,307105806.10104,203633543.53800,   0.00165,   0.00057,   0.00395,476369985.77466,   0.00159,276369992.18326,   0.00074,  -0.00018,   0.00130,  -6.40860,   1.00000
332890859.61291,309155787.88730,202861154.42538,   0.00166,   0.00058,   0.00395,476378456.20717,   0.00160,276378460.53244,   0.00074,  -0.00018,   0.00131,  -4.32527,   1.00000
333950730.15232,311208519.39123,202071818.38508,   0.00166,   0.00059,   0.00395,476387006.31627,   0.00161,276387016.01011,   0.00075,  -0.00018,   0.00132,  -9.69384,   1.00000
335001345.79994,313249721.26784,201279715.04217,   0.00166,   0.00060,   0.00394,476395615.45877,   0.00162,276395620.48773,   0.00075,  -0.00018,   0.00133,  -5.02896,   1.00000
336047351.81504,315283652.30140,200482426.62462,   0.00166,   0.00060,   0.00394,476404216.81576,   0.00163,276404223.75014,   0.00075,  -0.00017,   0.00133,  -6.93438,   1.00000
337107043.96853,317317167.52054,199672815.43352,   0.00167,   0.00061,   0.00394,476412836.96242,   0.00163,276412845.99223,   0.00075,  -0.00017,   0.00134,  -9.02980,   1.00000
338184551.94717,319343907.53202,198851234.92775,   0.00167,   0.00062,   0.00393,476421648.40047,   0.00164,276421655.57278,   0.00075,  -0.00017,   0.00135,  -7.17231,   1.00000
339243484.51435,321360576.36776,198029154.53263,   0.00167,   0.00063,   0.00393,476430391.82134,   0.00165,276430394.64445,   0.00076,  -0.00017,   0.00136,  -2.82311,   1.00000
340329211.93974,323378761.66668,197190070.10739,   0.00168,   0.00064,   0.00393,476439217.66307,   0.00166,276439223.63940,   0.00076,  -0.00017,   0.00136,  -5.97633,   1.00000
341407419.68036,325398984.76635,196344046.65665,   0.00168,   0.00065,   0.00392,476448162.67524,   0.00167,276448165.97122,   0.00076,  -0.00017,   0.00137,  -3.29598,   1.00000
342491537.87044,327399297.61333,195492637.72534,   0.00168,   0.00066,   0.00392,476457111.25735,   0.00168,276457111.71306,   0.00076,  -0.00016,   0.00138,  -0.45571,   1.00000
343570332.12884,329391639.69323,194636130.83162,   0.00169,   0.00067,   0.00392,476466054.03152,   0.00168,276466056.73923,   0.00077,  -0.00016,   0.00139,  -2.70771,   1.00000
344672604.79510,331394175.62388,193760858.96269,   0.00169,   0.00068,   0.00391,476475205.86631,   0.00169,276475206.93595,   0.00077,  -0.00016,   0.00140,  -1.06964,   1.00000
345753811.59960,333372377.64482,192889554.76815,   0.00169,   0.00069,   0.00391,476484219.23025,   0.00170,276484220.59401,   0.00077,  -0.00016,   0.00140,  -1.36376,   1.00000
346858006.84327,335360163.96083,191999507.65979,   0.00170,   0.00070,   0.00391,476493432.54848,   0.00171,276493440.10374,   0.00077,  -0.00015,   0.00141,  -7.55526,   1.00000
347954417.60940,337325663.63705,191108860.96855,   0.00170,   0.00070,   0.00390,476502587.05344,   0.00172,276502592.28720,   0.00078,  -0.00015,   0.00142,  -5.23376,   1.00000
349058201.63850,339284564.47973,190208585.23247,   0.00171,   0.00071,   0.00390,476511806.35187,   0.00173,276511813.69619,   0.00078,  -0.00015,   0.00143,  -7.34432,   1.00000
350170953.58204,341250224.84756,189294240.44211,   0.00171,   0.00072,   0.00390,476521168.93143,   0.00174,276521172.01661,   0.00078,  -0.00015,   0.00144,  -3.08517,   1.00000
351275799.00330,343193538.34092,188379380.08675,   0.00171,   0.00073,   0.00389,476530460.57570,   0.00174,276530462.43233,   0.00078,  -0.00015,   0.00144,  -1.85663,   1.00000
352389200.51382,345143121.33875,187450481.33903,   0.00172,   0.00074,   0.00389,476539886.17693,   0.00175,276539890.25985,   0.00079,  -0.00014,   0.00145,  -4.08292,   1.00000
353503051.57884,347067443.68835,186519416.75258,   0.00172,   0.00075,   0.00388,476549363.62730,   0.00176,276549363.83023,   0.00079,  -0.00014,   0.00146,  -0.20293,   1.00000
354629555.79327,349001973.49446,185571482.79318,   0.00172,   0.00076,   0.00388,476558926.25363,   0.00177,276558930.86465,   0.00079,  -0.00014,   0.00147,  -4.61101,   1.00000
355747959.94204,350914053.72039,184623161.41665,   0.00173,   0.00077,   0.00388,476568421.70859,   0.00178,276568429.10440,   0.00079,  -0.00014,   0.00148,  -7.39581,   1.00000
356855218.97472,352812429.50422,183672950.77361,   0.00173,   0.00078,   0.00387,476577967.88363,   0.00179,276577969.97020,   0.00080,  -0.00013,   0.00148,  -2.08657,   1.00000
357987329.41466,354721643.70678,182701294.72596,   0.00174,   0.00079,   0.00387,476587670.74164,   0.00180,276587675.62730,   0.00080,  -0.00013,   0.00149,  -4.88566,   1.00000
359111215.41870,356608349.76583,181729349.05725,   0.00174,   0.00079,   0.00386,476597305.04447,   0.00181,276597311.81513,   0.00080,  -0.00013,   0.00150,  -6.77067,   1.00000
360236326.43014,358482178.15113,180751123.13800,   0.00175,   0.00080,   0.00386,476607055.68735,   0.00182,276607059.33440,   0.00081,  -0.00012,   0.00151,  -3.64705,   1.00000
361360050.71006,360363579.49608,179760586.69830,   0.00175,   0.00081,   0.00385,476616827.13265,   0.00183,276616833.41110,   0.00081,  -0.00012,   0.00152,  -6.27845,   1.00000
362483588.59050,362219005.35023,178768415.00380,   0.00175,   0.00082,   0.00385,476626639.54948,   0.00183,276626648.61940,   0.00081,  -0.00012,   0.00153,  -9.06992,   1.00000
363612459.38752,364065581.52936,177767069.02606,   0.00176,   0.00083,   0.00384,476636527.43811,   0.00184,276636532.23200,   0.00081,  -0.00012,   0.00153,  -4.79389,   1.00000
364738487.53399,365906734.96919,176757953.59041,   0.00176,   0.00084,   0.00384,476646364.05374,   0.00185,276646373.67331,   0.00082,  -0.00011,   0.00154,  -9.61957,   1.00000
365877432.63103,367734964.11168,175738385.35573,   0.00177,   0.00085,   0.00383,476656391.17017,   0.00186,276656393.98660,   0.00082,  -0.00011,   0.00155,  -2.81643,   1.00000
366996345.29430,369552216.18861,174718777.13660,   0.00177,   0.00086,   0.00383,476666338.71607,   0.00187,276666343.01252,   0.00082,  -0.00011,   0.00156,  -4.29645,   1.00000
368136808.28065,371365174.59509,173682429.99717,   0.00178,   0.00087,   0.00383,476676380.68217,   0.00188,276676390.08438,   0.00083,  -0.00010,   0.00157,  -9.40221,   1.00000
369264906.94238,373163155.48857,172644851.76464,   0.00178,   0.00088,   0.00382,476686467.97454,   0.00189,276686475.14610,   0.00083,  -0.00010,   0.00158,  -7.17156,   1.00000
370385130.62956,374950685.38589,171602837.24147,   0.00179,   0.00089,   0.00381,476696553.50600,   0.00190,276696558.27160,   0.00083,  -0.00010,   0.00158,  -4.76560,   1.00000
371521294.77343,376716760.06464,170552030.43569,   0.00179,   0.00089,   0.00381,476706698.69309,   0.00191,276706707.84385,   0.00083,  -0.00010,   0.00159,  -9.15076,   1.00000
372649786.61611,378484083.24800,169492352.53857,   0.00179,   0.00090,   0.00380,476716922.90533,   0.00192,276716925.81116,   0.00084,  -0.00009,   0.00160,  -2.90583,   1.00000
373786534.17758,380245472.27820,168420541.91796,   0.00180,   0.00091,   0.00380,476727167.17300,   0.00193,276727173.21037,   0.00084,  -0.00009,   0.00161,  -6.03738,   1.00000
374910189.90634,381979773.85819,167352367.35508,   0.00180,   0.00092,   0.00379,476737383.84236,   0.00194,276737384.98581,   0.00084,  -0.00009,   0.00162,  -1.14345,   1.00000
376037491.17937,383703476.43679,166275547.88370,   0.00181,   0.00093,   0.00379,476747662.22618,   0.00195,276747663.39913,   0.00085,  -0.00008,   0.00163,  -1.17295,   1.00000
377156344.88192,385416266.34724,165194547.24804,   0.00181,   0.00094,   0.00378,476757938.47363,   0.00196,276757938.77270,   0.00085,  -0.00008,   0.00163,  -0.29907,   1.00000
378278586.04114,387129488.66967,164100500.91469,   0.00182,   0.00095,   0.00378,476768347.59397,   0.00197,276768351.75557,   0.00085,  -0.00008,   0.00164,  -4.16161,   1.00000
379399518.86621,388815648.79272,163006009.47036,   0.00182,   0.00096,   0.00377,476778786.18156,   0.00198,276778795.62845,   0.00086,  -0.00007,   0.00165,  -9.44689,   1.00000
380527901.77194,390483853.89595,161904099.82411,   0.00183,   0.00097,   0.00377,476789193.67065,   0.00199,276789197.57063,   0.00086,  -0.00007,   0.00166,  -3.89998,   1.00000
381647267.77603,392151954.95339,160793708.44198,   0.00183,   0.00098,   0.00376,476799665.09768,   0.00200,276799667.16389,   0.00086,  -0.00006,   0.00167,  -2.06621,   1.00000
382769258.89284,393808404.12308,159675035.29241,   0.00184,   0.00098,   0.00375,476810197.46464,   0.00201,276810202.10434,   0.00087,  -0.00006,   0.00168,  -4.63969,   1.00000
383882427.65065,395442402.85113,158556944.11503,   0.00184,   0.00099,   0.00375,476820654.13573,   0.00202,276820661.34911,   0.00087,  -0.00006,   0.00169,  -7.21339,   1.00000
384997653.88429,397075442.23691,157426232.47164,   0.00185,   0.00100,   0.00374,476831251.76357,   0.00203,276831256.86168,   0.00087,  -0.00005,   0.00169,  -5.09812,   1.00000
386099729.00126,398681581.94042,156299871.15832,   0.00186,   0.00101,   0.00374,476841800.74810,   0.00204,276841810.10112,   0.00088,  -0.00005,   0.00170,  -9.35302,   1.00000
387219662.80682,400279595.11848,155157525.45838,   0.00186,   0.00102,   0.00373,476852456.00848,   0.00205,276852462.39088,   0.00088,  -0.00005,   0.00171,  -6.38241,   1.00000
388318740.09928,401866410.12635,154015758.84194,   0.00187,   0.00103,   0.00372,476863040.44938,   0.00206,276863040.76369,   0.00088,  -0.00004,   0.00172,  -0.31431,   1.00000
389426693.67934,403435722.62490,152865635.05701,   0.00187,   0.00104,   0.00372,476873777.44021,   0.00207,276873784.28208,   0.00089,  -0.00004,   0.00173,  -6.84187,   1.00000
390529958.97947,404987151.16801,151712579.88854,   0.00188,   0.00105,   0.00371,476884416.42408,   0.00208,276884417.67308,   0.00089,  -0.00003,   0.00174,  -1.24899,   1.00000
391618578.93736,406532665.98360,150555422.64617,   0.00188,   0.00106,   0.00370,476895146.54799,   0.00209,276895149.07214,   0.00089,  -0.00003,   0.00175,  -2.52414,   1.00000
392713656.44510,408059484.11713,149391149.76535,   0.00189,   0.00106,   0.00370,476905832.80802,   0.00210,276905839.31841,   0.00090,  -0.00003,   0.00175,  -6.51039,   1.00000
393805807.02896,409569009.34061,148223175.84833,   0.00189,   0.00107,   0.00369,476916619.94550,   0.00211,276916623.01438,   0.00090,  -0.00002,   0.00176,  -3.06888,   1.00000
394903177.24878,411069810.07110,147043807.01338,   0.00190,   0.00108,   0.00368,476927434.34185,   0.00212,276927437.28247,   0.00090,  -0.00002,   0.00177,  -2.94062,   1.00000
395975367.25394,412555133.65971,145869226.07856,   0.00191,   0.00109,   0.00368,476938206.23614,   0.00213,276938207.11126,   0.00091,  -0.00001,   0.00178,  -0.87512,   1.00000
397064610.19030,414020457.42130,144683536.37196,   0.00191,   0.00110,   0.00367,476949000.82023,   0.00214,276949004.17288,   0.00091,  -0.00001,   0.00179,  -3.35265,   1.00000
398138336.90872,415479063.79414,143494358.90997,   0.00192,   0.00111,   0.00366,476959890.77202,   0.00215,276959895.44301,   0.00092,  -0.00001,   0.00180,  -4.67100,   1.00000
399217920.83829,416918583.59433,142298278.49171,   0.00192,   0.00112,   0.00366,476970736.78423,   0.00216,276970745.86881,   0.00092,  -0.00000,   0.00181,  -9.08458,   1.00000
400283085.58218,418341476.31542,141103194.93683,   0.00193,   0.00113,   0.00365,476981611.07799,   0.00217,276981617.65095,   0.00092,   0.00000,   0.00181,  -6.57296,   1.00000
401349996.71858,419741052.92089,139905346.01209,   0.00193,   0.00113,   0.00364,476992472.36091,   0.00218,276992477.38743,   0.00093,   0.00001,   0.00182,  -5.02652,   1.00000
402405018.45760,421137825.95307,138700331.39772,   0.00194,   0.00114,   0.00363,477003394.63364,   0.00219,277003399.98922,   0.00093,   0.00001,   0.00183,  -5.35558,   1.00000
403465614.46172,422515372.21146,137488543.40265,   0.00195,   0.00115,   0.00363,477014272.57482,   0.00220,277014282.03343,   0.00093,   0.00002,   0.00184,  -9.45861,   1.00000
404522097.90471,423874607.36505,136274129.83461,   0.00195,   0.00116,   0.00362,477025240.87180,   0.00221,277025250.49776,   0.00094,   0.00002,   0.00185,  -9.62596,   1.00000
405567878.00591,425221320.96068,135056991.10818,   0.00196,   0.00117,   0.00361,477036203.22409,   0.00222,277036209.64088,   0.00094,   0.00003,   0.00186,  -6.41679,   1.00000
406602932.45240,426555485.58414,133837176.37468,   0.00197,   0.00118,   0.00360,477047151.76645,   0.00223,277047159.33282,   0.00095,   0.00003,   0.00186,  -7.56637,   1.00000
407653576.94205,427868446.46791,132606830.56208,   0.00197,   0.00119,   0.00360,477058128.68915,   0.00224,277058135.86614,   0.00095,   0.00003,   0.00187,  -7.17699,   1.00000
408677208.17519,429175541.49617,131377967.77082,   0.00198,   0.00120,   0.00359,477069130.24366,   0.00225,277069133.03982,   0.00095,   0.00004,   0.00188,  -2.79616,   1.00000
409712277.03199,430457069.55118,130143003.76704,   0.00198,   0.00120,   0.00358,477080178.62359,   0.00226,277080182.88454,   0.00096,   0.00004,   0.00189,  -4.26095,   1.00000
410728175.37525,431719078.51594,128913523.15843,   0.00199,   0.00121,   0.00357,477091078.06325,   0.00227,277091084.77426,   0.00096,   0.00005,   0.00190,  -6.71102,   1.00000
411751231.59149,432973147.85018,127670004.73485,   0.00200,   0.00122,   0.00357,477102176.61423,   0.00228,277102180.02978,   0.00097,   0.00005,   0.00191,  -3.41554,   1.00000
412765214.74152,434205690.11699,126428237.20958,   0.00200,   0.00123,   0.00356,477113190.34294,   0.00229,277113193.81711,   0.00097,   0.00006,   0.00191,  -3.47417,   1.00000
413768029.01983,435425537.17080,125184233.85618,   0.00201,   0.00124,   0.00355,477124188.42252,   0.00230,277124196.65386,   0.00098,   0.00006,   0.00192,  -8.23134,   1.00000
414769572.22170,436630383.54928,123934330.77548,   0.00202,   0.00125,   0.00354,477135250.75174,   0.00231,277135254.49236,   0.00098,   0.00007,   0.00193,  -3.74062,   1.00000
415762162.26476,437813959.03891,122686268.32355,   0.00202,   0.00125,   0.00353,477146226.35640,   0.00232,277146230.71398,   0.00098,   0.00007,   0.00194,  -4.35759,   1.00000
416753296.02441,438982445.35658,121432466.95386,   0.00203,   0.00126,   0.00352,477157257.27557,   0.00233,277157261.38514,   0.00099,   0.00008,   0.00195,  -4.10957,   1.00000
417742775.50107,440135688.35393,120173043.62627,   0.00204,   0.00127,   0.00352,477168343.29122,   0.00234,277168346.11207,   0.00099,   0.00008,   0.00195,  -2.82086,   1.00000
418720731.16156,441276092.23735,118911731.46013,   0.00204,   0.00128,   0.00351,477179412.73229,   0.00235,277179418.92485,   0.00100,   0.00009,   0.00196,  -6.19255,   1.00000
419689785.42393,442395473.35608,117652411.54554,   0.00205,   0.00129,   0.00350,477190401.59798,   0.00236,277190409.93081,   0.00100,   0.00009,   0.00197,  -8.33283,   1.00000
420656955.16649,443499476.51192,116387722.94997,   0.00206,   0.00130,   0.00349,477201452.58506,   0.00238,277201454.14734,   0.00101,   0.00010,   0.00198,  -1.56228,   1.00000
421622033.53171,444587942.58841,115117782.63085,   0.00206,   0.00131,   0.00348,477212549.13312,   0.00239,277212551.27437,   0.00101,   0.00010,   0.00199,  -2.14125,   1.00000
422578200.97050,445655569.96302,113849953.68662,   0.00207,   0.00131,   0.00347,477223563.78369,   0.00240,277223566.55525,   0.00102,   0.00011,   0.00199,  -2.77156,   1.00000
423519255.39152,446706776.32385,112585177.32616,   0.00208,   0.00132,   0.00346,477234584.74287,   0.00241,277234590.40057,   0.00102,   0.00012,   0.00200,  -5.65770,   1.00000
424461525.28917,447746090.60156,111310741.01976,   0.00208,   0.00133,   0.00346,477245641.92866,   0.00242,277245645.28780,   0.00102,   0.00012,   0.00201,  -3.35915,   1.00000
425404280.84222,448761835.28257,110035078.72957,   0.00209,   0.00134,   0.00345,477256678.12019,   0.00243,277256683.12390,   0.00103,   0.00013,   0.00202,  -5.00371,   1.00000
426335206.29245,449764852.23397,108758021.97110,   0.00210,   0.00135,   0.00344,477267704.12255,   0.00244,277267708.09846,   0.00103,   0.00013,   0.00202,  -3.97592,   1.00000
427254303.47455,450755143.81294,107479628.81410,   0.00210,   0.00135,   0.00343,477278719.75820,   0.00245,277278720.16792,   0.00104,   0.00014,   0.00203,  -0.40972,   1.00000
428167358.33409,451725997.84000,106201406.16389,   0.00211,   0.00136,   0.00342,477289799.48760,   0.00246,277289802.85974,   0.00104,   0.00014,   0.00204,  -3.37214,   1.00000
429084114.30734,452676912.16096,104917432.68772,   0.00212,   0.00137,   0.00341,477300843.36598,   0.00247,277300848.71691,   0.00105,   0.00015,   0.00205,  -5.35092,   1.00000
429979864.85149,453618396.15558,103635598.38781,   0.00212,   0.00138,   0.00340,477311814.84952,   0.00248,277311817.63767,   0.00105,   0.00015,   0.00205,  -2.78816,   1.00000
430884970.30098,454533150.71752,102349640.18589,   0.00213,   0.00139,   0.00339,477322832.18309,   0.00249,277322832.96408,   0.00106,   0.00016,   0.00206,  -0.78099,   1.00000
431765928.74519,455435255.69307,101070736.66336,   0.00214,   0.00140,   0.00338,477333787.43267,   0.00250,277333789.87294,   0.00106,   0.00017,   0.00207,  -2.44027,   1.00000
432655882.56632,456321350.83912,99779623.63839,   0.00215,   0.00140,   0.00337,477344834.52740,   0.00251,277344842.25148,   0.00107,   0.00017,   0.00208,  -7.72409,   1.00000
433524884.57820,457198274.78380,98490795.17225,   0.00215,   0.00141,   0.00336,477355809.54861,   0.00252,277355818.21836,   0.00107,   0.00018,   0.00208,  -8.66975,   1.00000
434394151.51354,458051864.39740,97201338.60951,   0.00216,   0.00142,   0.00335,477366776.22709,   0.00253,277366776.92965,   0.00108,   0.00018,   0.00209,  -0.70257,   1.00000
435260549.03766,458878914.41595,95916255.43044,   0.00217,   0.00143,   0.00334,477377732.59865,   0.00254,277377735.49626,   0.00108,   0.00019,   0.00210,  -2.89761,   1.00000
436114249.99041,459703892.62481,94622245.42168,   0.00218,   0.00144,   0.00333,477388727.95163,   0.00255,277388730.94058,   0.00109,   0.00019,   0.00210,  -2.98894,   1.00000
436959481.45893,460509298.97143,93330813.62033,   0.00218,   0.00144,   0.00332,477399644.64120,   0.00256,277399646.78865,   0.00109,   0.00020,   0.00211,  -2.14745,   1.00000
437801918.86348,461288388.04820,92043982.67799,   0.00219,   0.00145,   0.00331,477410556.97731,   0.00257,277410561.88576,   0.00110,   0.00021,   0.00212,  -4.90845,   1.00000
438631370.64175,462065245.02567,90748443.93663,   0.00220,   0.00146,   0.00330,477421510.25161,   0.00258,277421514.46788,   0.00110,   0.00021,   0.00212,  -4.21627,   1.00000
439464769.81449,462812061.28747,89455728.25388,   0.00220,   0.00147,   0.00329,477432376.31363,   0.00259,277432384.37499,   0.00111,   0.00022,   0.00213,  -8.06136,   1.00000
440279168.56409,463550391.89959,88164605.46139,   0.00221,   0.00147,   0.00328,477443320.13039,   0.00260,277443322.84790,   0.00111,   0.00022,   0.00214,  -2.71752,   1.00000
441096505.01948,464268727.86460,86868231.66581,   0.00222,   0.00148,   0.00327,477454222.07866,   0.00261,277454229.83936,   0.00112,   0.00023,   0.00214,  -7.76071,   1.00000
441893279.82121,464978833.16953,85574374.15712,   0.00223,   0.00149,   0.00326,477465061.49379,   0.00262,277465063.04271,   0.00112,   0.00024,   0.00215,  -1.54892,   1.00000
442695618.32433,465658993.21809,84282799.94592,   0.00223,   0.00150,   0.00325,477475950.82648,   0.00264,277475956.19149,   0.00113,   0.00024,   0.00216,  -5.36501,   1.00000
443488418.67731,466329974.13066,82985904.87304,   0.00224,   0.00151,   0.00324,477486817.29170,   0.00265,277486823.15273,   0.00113,   0.00025,   0.00216,  -5.86104,   1.00000
444270384.70540,466979399.81091,81696924.53556,   0.00225,   0.00151,   0.00323,477497622.40901,   0.00266,277497627.40609,   0.00114,   0.00026,   0.00217,  -4.99708,   1.00000
445042826.12816,467619722.11958,80402649.90944,   0.00226,   0.00152,   0.00322,477508405.42901,   0.00267,277508406.63738,   0.00114,   0.00026,   0.00217,  -1.20838,   1.00000
445811024.21175,468243781.45167,79105717.52041,   0.00227,   0.00153,   0.00321,477519226.85940,   0.00268,277519235.61317,   0.00115,   0.00027,   0.00218,  -8.75378,   1.00000
446568632.01477,468846677.70170,77816803.37949,   0.00227,   0.00154,   0.00320,477529994.31466,   0.00269,277530002.34771,   0.00116,   0.00027,   0.00219,  -8.03305,   1.00000
447324503.67073,469436128.18712,76520169.83742,   0.00228,   0.00154,   0.00319,477540800.51972,   0.00270,277540806.03084,   0.00116,   0.00028,   0.00219,  -5.51112,   1.00000
448069907.48568,470004680.46440,75231615.08467,   0.00229,   0.00155,   0.00318,477551542.43693,   0.00271,277551547.96072,   0.00117,   0.00029,   0.00220,  -5.52379,   1.00000
448805558.97761,470564175.19135,73937952.39705,   0.00230,   0.00156,   0.00317,477562265.54779,   0.00272,277562267.57785,   0.00117,   0.00029,   0.00220,  -2.03006,   1.00000
449541172.45011,471101154.64614,72644660.14182,   0.00230,   0.00157,   0.00315,477572966.33696,   0.00273,277572974.17126,   0.00118,   0.00030,   0.00221,  -7.83429,   1.00000
450262076.58459,471623978.52831,71356964.00904,   0.00231,   0.00157,   0.00314,477583680.34477,   0.00274,277583683.13849,   0.00118,   0.00031,   0.00222,  -2.79372,   1.00000
450980775.94033,472133189.57158,70061924.17546,   0.00232,   0.00158,   0.00313,477594426.72638,   0.00275,277594431.22768,   0.00119,   0.00031,   0.00222,  -4.50130,   1.00000
451689385.68826,472622169.43728,68775111.08837,   0.00233,   0.00159,   0.00312,477605115.68335,   0.00276,277605118.93047,   0.00119,   0.00032,   0.00223,  -3.24712,   1.00000
452388015.46676,473102142.96196,67483377.59906,   0.00234,   0.00160,   0.00311,477615780.10159,   0.00277,277615787.40476,   0.00120,   0.00033,   0.00223,  -7.30317,   1.00000
453076809.06353,473562202.24000,66199876.49626,   0.00234,   0.00160,   0.00310,477626395.58755,   0.00278,277626396.29412,   0.00121,   0.00033,   0.00224,  -0.70657,   1.00000
453763120.87652,474008598.81190,64909288.04978,   0.00235,   0.00161,   0.00309,477637045.80090,   0.00279,277637046.44884,   0.00121,   0.00034,   0.00224,  -0.64794,   1.00000
454449307.13106,474432838.17162,63619422.57450,   0.00236,   0.00162,   0.00307,477647682.80219,   0.00280,277647686.59313,   0.00122,   0.00034,   0.00225,  -3.79094,   1.00000
455113598.27091,474848413.29092,62337747.66185,   0.00237,   0.00162,   0.00306,477658264.11839,   0.00281,277658271.50171,   0.00122,   0.00035,   0.00225,  -7.38332,   1.00000
455780010.06717,475244258.41568,61051402.70946,   0.00238,   0.00163,   0.00305,477668830.01428,   0.00282,277668837.62580,   0.00123,   0.00036,   0.00226,  -7.61151,   1.00000
456432100.79382,475626889.44205,59771218.31343,   0.00238,   0.00164,   0.00304,477679406.99734,   0.00283,277679407.83429,   0.00123,   0.00036,   0.00226,  -0.83695,   1.00000
457086184.68097,475989804.31237,58486430.60719,   0.00239,   0.00165,   0.00303,477689960.25755,   0.00284,277689960.87321,   0.00124,   0.00037,   0.00227,  -0.61566,   1.00000
457725996.09637,476339711.71685,57207931.91811,   0.00240,   0.00165,   0.00301,477700514.81875,   0.00285,277700518.59829,   0.00125,   0.00038,   0.00227,  -3.77955,   1.00000
458360509.15506,476674912.04430,55926814.63755,   0.00241,   0.00166,   0.00300,477710998.95833,   0.00286,277711002.68494,   0.00125,   0.00038,   0.00228,  -3.72661,   1.00000
458982786.97809,476999305.97270,54646568.37683,   0.00242,   0.00167,   0.00299,477721475.44854,   0.00287,277721483.72454,   0.00126,   0.00039,   0.00228,  -8.27599,   1.00000
459598145.62683,477305991.28273,53370923.34792,   0.00242,   0.00167,   0.00298,477732019.71913,   0.00288,277732028.26955,   0.00126,   0.00040,   0.00228,  -8.55042,   1.00000
460208201.47350,477598080.92267,52092644.20939,   0.00243,   0.00168,   0.00297,477742496.01438,   0.00289,277742502.07553,   0.00127,   0.00040,   0.00229,  -6.06115,   1.00000
460816416.66263,477866805.23125,50821002.11065,   0.00244,   0.00169,   0.00295,477752977.32784,   0.00290,277752979.74164,   0.00128,   0.00041,   0.00229,  -2.41380,   1.00000
461407186.02058,478132005.74100,49546583.02341,   0.00245,   0.00169,   0.00294,477763387.64905,   0.00291,277763391.43920,   0.00128,   0.00042,   0.00230,  -3.79015,   1.00000
461996261.54470,478374059.95041,48278867.21715,   0.00246,   0.00170,   0.00293,477773802.81570,   0.00292,277773808.02559,   0.00129,   0.00042,   0.00230,  -5.20988,   1.00000
462574881.35333,478607534.41026,47006691.87972,   0.00247,   0.00171,   0.00292,477784215.57551,   0.00293,277784217.85636,   0.00129,   0.00043,   0.00230,  -2.28085,   1.00000
463151849.99876,478818064.05328,45741333.20015,   0.00247,   0.00171,   0.00290,477794632.79812,   0.00294,277794633.57690,   0.00130,   0.00044,   0.00231,  -0.77878,   1.00000
463718255.91720,479020053.99109,44471590.74947,   0.00248,   0.00172,   0.00289,477805039.90830,   0.00295,277805044.34392,   0.00131,   0.00045,   0.00231,  -4.43563,   1.00000
464277775.88816,479206130.15295,43204684.58117,   0.00249,   0.00173,   0.00288,477815389.42327,   0.00296,277815398.65044,   0.00131,   0.00045,   0.00232,  -9.22716,   1.00000
464823738.88385,479380617.59476,41944656.52858,   0.00250,   0.00173,   0.00286,477825759.42550,   0.00297,277825762.71318,   0.00132,   0.00046,   0.00232,  -3.28768,   1.00000
465371162.88430,479535611.47798,40680365.09403,   0.00251,   0.00174,   0.00285,477836115.28897,   0.00298,277836122.51446,   0.00133,   0.00047,   0.00232,  -7.22549,   1.00000
465905100.31516,479679248.09707,39423066.51498,   0.00252,   0.00175,   0.00284,477846491.95240,   0.00299,277846493.11627,   0.00133,   0.00047,   0.00233,  -1.16386,   1.00000
466433743.26245,479808779.60710,38162912.13002,   0.00252,   0.00175,   0.00283,477856798.95370,   0.00300,277856804.95999,   0.00134,   0.00048,   0.00233,  -6.00629,   1.00000
466949068.43206,479927194.04055,36909814.27540,   0.00253,   0.00176,   0.00281,477867127.01994,   0.00301,277867128.77513,   0.00134,   0.00049,   0.00233,  -1.75519,   1.00000
467465706.65839,480026172.71303,35652547.14063,   0.00254,   0.00177,   0.00280,477877444.22830,   0.00302,277877452.47230,   0.00135,   0.00049,   0.00234,  -8.24400,   1.00000
467975731.00518,480109849.53090,34398037.03519,   0.00255,   0.00177,   0.00279,477887716.39898,   0.00303,277887726.18688,   0.00136,   0.00050,   0.00234,  -9.78790,   1.00000
468472589.78126,480182786.12233,33150697.69855,   0.00256,   0.00178,   0.00277,477898010.41139,   0.00304,277898013.74928,   0.00136,   0.00051,   0.00234,  -3.33790,   1.00000
468964157.75393,480241813.98988,31900371.51655,   0.00257,   0.00178,   0.00276,477908238.52999,   0.00305,277908248.37536,   0.00137,   0.00051,   0.00234,  -9.84537,   1.00000
469449153.02774,480284853.98549,30656193.02150,   0.00258,   0.00179,   0.00274,477918546.24246,   0.00306,277918554.18224,   0.00138,   0.00052,   0.00235,  -7.93979,   1.00000
469922426.49432,480319568.78574,29410056.66549,   0.00258,   0.00180,   0.00273,477928752.14150,   0.00307,277928753.31480,   0.00138,   0.00053,   0.00235,  -1.17330,   1.00000
470395569.12163,480332957.54986,28169212.29168,   0.00259,   0.00180,   0.00272,477939075.81063,   0.00308,277939080.82404,   0.00139,   0.00053,   0.00235,  -5.01342,   1.00000
470856997.07133,480338115.66207,26926312.74036,   0.00260,   0.00181,   0.00270,477949299.90811,   0.00309,277949304.12722,   0.00140,   0.00054,   0.00235,  -4.21911,   1.00000
471311211.16940,480327583.54902,25691735.71161,   0.00261,   0.00181,   0.00269,477959481.52858,   0.00310,277959488.17672,   0.00140,   0.00055,   0.00236,  -6.64813,   1.00000
471760831.77465,480303453.78881,24452234.84370,   0.00262,   0.00182,   0.00268,477969736.09328,   0.00311,277969739.17205,   0.00141,   0.00056,   0.00236,  -3.07877,   1.00000
472203345.94526,480263867.50585,23221068.03983,   0.00263,   0.00183,   0.00266,477979948.51608,   0.00312,277979952.55383,   0.00142,   0.00056,   0.00236,  -4.03775,   1.00000
472634908.04387,480216307.52920,21985925.14310,   0.00264,   0.00183,   0.00265,477990178.43632,   0.00312,277990179.28201,   0.00142,   0.00057,   0.00236,  -0.84569,   1.00000
473060288.97305,480154260.73680,20753354.04561,   0.00265,   0.00184,   0.00263,478000358.66473,   0.00313,278000367.08693,   0.00143,   0.00058,   0.00236,  -8.42220,   1.00000
473479376.09360,480077169.75028,19527630.64198,   0.00265,   0.00184,   0.00262,478010622.02293,   0.00314,278010631.95452,   0.00144,   0.00058,   0.00236,  -9.93159,   1.00000
473886951.99402,479992139.99663,18299368.98860,   0.00266,   0.00185,   0.00260,478020801.05450,   0.00315,278020801.37688,   0.00144,   0.00059,   0.00237,  -0.32239,   1.00000
474293959.28110,479886568.03626,17078709.31053,   0.00267,   0.00186,   0.00259,478030987.03700,   0.00316,278030993.04435,   0.00145,   0.00060,   0.00237,  -6.00735,   1.00000
474689898.69996,479773176.45738,15854177.43057,   0.00268,   0.00186,   0.00258,478041195.99703,   0.00317,278041203.64562,   0.00146,   0.00060,   0.00237,  -7.64859,   1.00000
475079299.59961,479645121.42808,14637864.73894,   0.00269,   0.00187,   0.00256,478051374.14899,   0.00318,278051382.61358,   0.00146,   0.00061,   0.00237,  -8.46459,   1.00000
475469295.15160,479497917.71629,13417718.72157,   0.00270,   0.00187,   0.00255,478061577.92701,   0.00319,278061582.17914,   0.00147,   0.00062,   0.00237,  -4.25213,   1.00000
475841164.08816,479347689.87356,12205744.42105,   0.00271,   0.00188,   0.00253,478071750.96015,   0.00320,278071752.48111,   0.00148,   0.00062,   0.00237,  -1.52095,   1.00000
476207492.45782,479183651.07877,10995323.17299,   0.00272,   0.00188,   0.00252,478081994.87345,   0.00321,278082003.30657,   0.00148,   0.00063,   0.00237,  -8.43312,   1.00000
476574045.41134,479000424.68324,9781893.08037,   0.00272,   0.00189,   0.00250,478092160.31861,   0.00322,278092167.02852,   0.00149,   0.00064,   0.00237,  -6.70990,   1.00000
476928677.03431,478808849.74171,8576241.37330,   0.00273,   0.00189,   0.00249,478102355.20997,   0.00323,278102359.36580,   0.00150,   0.00065,   0.00238,  -4.15583,   1.00000
477272099.50360,478609643.42177,7366861.77069,   0.00274,   0.00190,   0.00247,478112570.78156,   0.00324,278112578.66127,   0.00150,   0.00065,   0.00238,  -7.87971,   1.00000
477621061.08531,478385005.90616,6165573.28984,   0.00275,   0.00190,   0.00246,478122767.31178,   0.00325,278122772.32970,   0.00151,   0.00066,   0.00238,  -5.01792,   1.00000
477952859.42919,478158528.13569,4960772.24603,   0.00276,   0.00191,   0.00244,478132937.44141,   0.00326,278132939.87198,   0.00152,   0.00067,   0.00238,  -2.43056,   1.00000
478278858.29886,477918432.85127,3763700.46549,   0.00277,   0.00192,   0.00243,478143188.44272,   0.00327,278143194.76410,   0.00152,   0.00067,   0.00238,  -6.32138,   1.00000
478599173.60024,477664888.40462,2568874.02192,   0.00278,   0.00192,   0.00241,478153417.93022,   0.00328,278153426.16628,   0.00153,   0.00068,   0.00238,  -8.23606,   1.00000
478913876.62848,477398002.79970,1370484.91228,   0.00279,   0.00193,   0.00240,478163633.89079,   0.00329,278163634.93586,   0.00154,   0.00069,   0.00238,  -1.04507,   1.00000
479217110.27971,477123556.89511,180044.69643,   0.00279,   0.00193,   0.00238,478173872.55652,   0.00330,278173878.08739,   0.00154,   0.00069,   0.00238,  -5.53087,   1.00000
479514746.61633,476835802.00071,-1008242.55103,   0.00280,   0.00194,   0.00236,478184091.30516,   0.00331,278184100.88981,   0.00155,   0.00070,   0.00238,  -9.58465,   1.00000
479806723.26025,476534712.84256,-2200183.37826,   0.00281,   0.00194,   0.00235,478194298.96395,   0.00332,278194304.69772,   0.00156,   0.00071,   0.00238,  -5.73377,   1.00000
480093127.64079,476220691.69099,-3384014.20291,   0.00282,   0.00195,   0.00233,478204591.92457,   0.00333,278204601.06254,   0.00157,   0.00071,   0.00238,  -9.13797,   1.00000
480368285.82764,475899225.59193,-4565905.42300,   0.00283,   0.00195,   0.00232,478214815.95689,   0.00334,278214824.48747,   0.00157,   0.00072,   0.00238,  -8.53058,   1.00000
480643574.90716,475558926.11732,-5745567.93438,   0.00284,   0.00195,   0.00230,478225083.65206,   0.00335,278225087.51793,   0.00158,   0.00073,   0.00238,  -3.86587,   1.00000
480907334.42587,475211339.88701,-6928720.84595,   0.00285,   0.00196,   0.00229,478235386.21214,   0.00336,278235391.57379,   0.00159,   0.00073,   0.00238,  -5.36164,   1.00000
481165783.42008,474850929.13515,-8104058.91659,   0.00286,   0.00196,   0.00227,478245673.29196,   0.00337,278245680.74038,   0.00159,   0.00074,   0.00237,  -7.44841,   1.00000
481418721.32422,474477531.49444,-9277421.58096,   0.00287,   0.00197,   0.00225,478255954.77626,   0.00338,278255956.83274,   0.00160,   0.00075,   0.00237,  -2.05648,   1.00000
481660456.77028,474097285.92278,-10448476.56353,   0.00288,   0.00197,   0.00224,478266273.98541,   0.00339,278266275.92553,   0.00161,   0.00076,   0.00237,  -1.94013,   1.00000
481896726.29223,473704112.18473,-11617598.94006,   0.00288,   0.00198,   0.00222,478276578.59684,   0.00340,278276583.96999,   0.00162,   0.00076,   0.00237,  -5.37315,   1.00000
482133072.32618,473292384.90447,-12784363.44198,   0.00289,   0.00198,   0.00220,478286931.91694,   0.00341,278286938.16678,   0.00162,   0.00077,   0.00237,  -6.24984,   1.00000
482352705.39260,472879692.30084,-13949247.22715,   0.00290,   0.00199,   0.00219,478297273.01980,   0.00342,278297282.12752,   0.00163,   0.00078,   0.00237,  -9.10772,   1.00000
482566928.90955,472454175.11313,-15112280.34090,   0.00291,   0.00199,   0.00217,478307611.45469,   0.00343,278307617.98713,   0.00164,   0.00078,   0.00237,  -6.53244,   1.00000
482781226.63495,472010220.25507,-16272907.78592,   0.00292,   0.00200,   0.00216,478318001.20928,   0.00344,278318003.20925,   0.00164,   0.00079,   0.00237,  -1.99998,   1.00000
482984401.00717,471559825.61649,-17431103.77086,   0.00293,   0.00200,   0.00214,478328434.20948,   0.00345,278328437.41206,   0.00165,   0.00080,   0.00237,  -3.20258,   1.00000
483182140.73684,471096726.92947,-18587488.67249,   0.00294,   0.00200,   0.00212,478338861.52418,   0.00346,278338866.57748,   0.00166,   0.00080,   0.00236,  -5.05330,   1.00000
483368982.31633,470626554.44517,-19742820.61838,   0.00295,   0.00201,   0.00211,478349229.16125,   0.00347,278349234.98178,   0.00167,   0.00081,   0.00236,  -5.82052,   1.00000
483551032.54299,470145229.31936,-20889229.31261,   0.00296,   0.00201,   0.00209,478359703.93254,   0.00348,278359708.92404,   0.00167,   0.00082,   0.00236,  -4.99150,   1.00000
483726958.36169,469650580.24647,-22039666.30173,   0.00297,   0.00202,   0.00207,478370182.77516,   0.00349,278370183.46830,   0.00168,   0.00082,   0.00236,  -0.69314,   1.00000
483897458.07558,469143316.51628,-23188402.83082,   0.00297,   0.00202,   0.00205,478380652.93870,   0.00350,278380656.85999,   0.00169,   0.00083,   0.00236,  -3.92129,   1.00000
484063412.10216,468624318.80029,-24329765.23085,   0.00298,   0.00202,   0.00204,478391121.13737,   0.00351,278391126.51349,   0.00170,   0.00084,   0.00235,  -5.37612,   1.00000
484217526.23305,468098484.18737,-25474351.65787,   0.00299,   0.00203,   0.00202,478401652.73574,   0.00352,278401655.12430,   0.00170,   0.00084,   0.00235,  -2.38856,   1.00000
484371616.71497,467554572.86410,-26616334.02559,   0.00300,   0.00203,   0.00200,478412233.36724,   0.00353,278412242.75602,   0.00171,   0.00085,   0.00235,  -9.38879,   1.00000
484510378.89446,467011299.23039,-27751035.77206,   0.00301,   0.00204,   0.00199,478422824.79672,   0.00354,278422826.48875,   0.00172,   0.00086,   0.00235,  -1.69204,   1.00000
484642786.35913,466454579.37245,-28889875.32431,   0.00302,   0.00204,   0.00197,478433415.03201,   0.00355,278433417.45593,   0.00172,   0.00086,   0.00234,  -2.42392,   1.00000
484776257.90537,465880940.47115,-30020371.47627,   0.00303,   0.00204,   0.00195,478444061.60250,   0.00356,278444066.13922,   0.00173,   0.00087,   0.00234,  -4.53672,   1.00000
484898991.37268,465300399.69454,-31150487.82041,   0.00304,   0.00205,   0.00193,478454656.12459,   0.00357,278454661.95405,   0.00174,   0.00088,   0.00234,  -5.82945,   1.00000
485010924.52446,464714253.53553,-32278026.63494,   0.00305,   0.00205,   0.00192,478465314.95034,   0.00358,278465318.59892,   0.00175,   0.00088,   0.00234,  -3.64858,   1.00000
485121661.20028,464109158.60120,-33408550.42009,   0.00306,   0.00205,   0.00190,478476044.31974,   0.00359,278476044.85841,   0.00175,   0.00089,   0.00233,  -0.53867,   1.00000
485222858.98282,463498266.04152,-34533176.74704,   0.00307,   0.00206,   0.00188,478486711.00610,   0.00360,278486715.91160,   0.00176,   0.00089,   0.00233,  -4.90550,   1.00000
485324014.00144,462869637.41609,-35655101.69633,   0.00307,   0.00206,   0.00186,478497448.52918,   0.00361,278497453.76502,   0.00177,   0.00090,   0.00233,  -5.23585,   1.00000
485409048.41597,462241031.46786,-36775702.17022,   0.00308,   0.00206,   0.00185,478508195.37734,   0.00362,278508197.69173,   0.00178,   0.00091,   0.00232,  -2.31439,   1.00000
