# sigma_xx, sigma_yy, sigma_xy, epsilon_xx, epsilon_yy, epsilon_xy, vonMises, epsPlastic, hardening, epsilonP__xx, epsilonP__yy, epsilonP__xy, yieldValue, iteration
   0.00000,   0.00000,   0.00000,   0.00000,   0.00000,   0.00000,   0.00000,   0.00000,274640135.82653,   0.00000,   0.00000,   0.00000,-474640135.82653,   0.00000
   0.00000,   0.00000,   0.00000,   0.00000,   0.00000,   0.00000,   0.00000,   0.00000,274640135.82653,   0.00000,   0.00000,   0.00000,-474640135.82653,   0.00000
-6544331.17084,-4329935.12512,-721655.85419,  -0.00002,  -0.00001,  -0.00001,5899359.35250,   0.00000,274640135.82653,   0.00000,   0.00000,   0.00000,-468740776.47403,   0.00000
-13039233.85851,-8610441.76707,-1433426.01174,  -0.00004,  -0.00001,  -0.00002,11749548.65552,   0.00000,274640135.82653,   0.00000,   0.00000,   0.00000,-462890587.17101,   0.00000
-19548965.09113,-12925548.34724,-2145196.16929,  -0.00006,  -0.00002,  -0.00003,17616933.40515,   0.00000,274640135.82653,   0.00000,   0.00000,   0.00000,-457023202.42138,   0.00000
-26058696.32376,-17240654.92740,-2856966.32685,  -0.00008,  -0.00003,  -0.00004,23484327.00807,   0.00000,274640135.82653,   0.00000,   0.00000,   0.00000,-451155808.81846,   0.00000
-32548656.16311,-21575532.90083,-3568736.48440,  -0.00011,  -0.00003,  -0.00005,29340614.79144,   0.00000,274640135.82653,   0.00000,   0.00000,   0.00000,-445299521.03509,   0.00000
-39023787.45752,-25875810.93605,-4280506.64195,  -0.00013,  -0.00004,  -0.00006,35179676.57901,   0.00000,274640135.82653,   0.00000,   0.00000,   0.00000,-439460459.24751,   0.00000
-45513747.29688,-30210688.90948,-4982391.10287,  -0.00015,  -0.00005,  -0.00006,41032400.85597,   0.00000,274640135.82653,   0.00000,   0.00000,   0.00000,-433607734.97056,   0.00000
-51969107.19802,-34530738.33797,-5684275.56379,  -0.00017,  -0.00006,  -0.00007,46856817.18670,   0.00000,274640135.82653,   0.00000,   0.00000,   0.00000,-427783318.63983,   0.00000
-58439295.64411,-38885387.70466,-6386160.02471,  -0.00019,  -0.00006,  -0.00008,52698568.32588,   0.00000,274640135.82653,   0.00000,   0.00000,   0.00000,-421941567.50065,   0.00000
-64860055.60704,-43190608.58820,-7078158.78900,  -0.00021,  -0.00007,  -0.00009,58491120.73095,   0.00000,274640135.82653,   0.00000,   0.00000,   0.00000,-416149015.09558,   0.00000
-71295644.11492,-47530429.40995,-7770157.55329,  -0.00023,  -0.00008,  -0.00010,64301042.41008,   0.00000,274640135.82653,   0.00000,   0.00000,   0.00000,-410339093.41645,   0.00000
-77731232.62280,-51870250.23170,-8472042.01421,  -0.00025,  -0.00008,  -0.00011,70114587.53261,   0.00000,274640135.82653,   0.00000,   0.00000,   0.00000,-404525548.29392,   0.00000
-84132221.19246,-56195242.50850,-9154155.08187,  -0.00027,  -0.00009,  -0.00012,75892694.09150,   0.00000,274640135.82653,   0.00000,   0.00000,   0.00000,-398747441.73503,   0.00000
-90533209.76213,-60520234.78530,-9846153.84615,  -0.00029,  -0.00010,  -0.00013,81674414.68610,   0.00000,274640135.82653,   0.00000,   0.00000,   0.00000,-392965721.14043,   0.00000
-96899598.39357,-64830398.51715,-10528266.91381,  -0.00031,  -0.00011,  -0.00014,87424289.37856,   0.00000,274640135.82653,   0.00000,   0.00000,   0.00000,-387215846.44797,   0.00000
-103280815.56997,-69175162.18721,-11210379.98146,  -0.00034,  -0.00011,  -0.00015,93191633.84409,   0.00000,274640135.82653,   0.00000,   0.00000,   0.00000,-381448501.98244,   0.00000
-109627432.80816,-73505097.31233,-11892493.04912,  -0.00036,  -0.00012,  -0.00015,98930745.52993,   0.00000,274640135.82653,   0.00000,   0.00000,   0.00000,-375709390.29660,   0.00000
-115974050.04634,-77835032.43744,-12574606.11677,  -0.00038,  -0.00013,  -0.00016,104669913.38683,   0.00000,274640135.82653,   0.00000,   0.00000,   0.00000,-369970222.43970,   0.00000
-122320667.28452,-82164967.56256,-13246833.48780,  -0.00040,  -0.00014,  -0.00017,110405569.02704,   0.00000,274640135.82653,   0.00000,   0.00000,   0.00000,-364234566.79949,   0.00000
-128647513.12944,-86514674.08094,-13919060.85882,  -0.00042,  -0.00014,  -0.00018,116130506.59314,   0.00000,274640135.82653,   0.00000,   0.00000,   0.00000,-358509629.23339,   0.00000
-134959530.42941,-90829780.66111,-14591288.22984,  -0.00044,  -0.00015,  -0.00019,121837992.58959,   0.00000,274640135.82653,   0.00000,   0.00000,   0.00000,-352802143.23694,   0.00000
-141251776.33611,-95164658.63454,-15263515.60086,  -0.00046,  -0.00016,  -0.00020,127534796.11495,   0.00000,274640135.82653,   0.00000,   0.00000,   0.00000,-347105339.71158,   0.00000
-147544022.24282,-99499536.60797,-15925857.27525,  -0.00048,  -0.00017,  -0.00021,133228124.77930,   0.00000,274640135.82653,   0.00000,   0.00000,   0.00000,-341412011.04723,   0.00000
-153801668.21131,-103819586.03645,-16598084.64628,  -0.00050,  -0.00017,  -0.00022,138896808.11927,   0.00000,274640135.82653,   0.00000,   0.00000,   0.00000,-335743327.70725,   0.00000
-160059314.17980,-108139635.46494,-17250540.62403,  -0.00052,  -0.00018,  -0.00022,144558473.91796,   0.00000,274640135.82653,   0.00000,   0.00000,   0.00000,-330081661.90857,   0.00000
-166331788.69323,-112494284.83163,-17912882.29842,  -0.00054,  -0.00019,  -0.00023,150241360.79180,   0.00000,274640135.82653,   0.00000,   0.00000,   0.00000,-324398775.03473,   0.00000
-172554834.72351,-116799505.71517,-18575223.97281,  -0.00056,  -0.00019,  -0.00024,155878455.70898,   0.00000,274640135.82653,   0.00000,   0.00000,   0.00000,-318761680.11755,   0.00000
-178758109.36052,-121124497.99197,-19227679.95057,  -0.00058,  -0.00020,  -0.00025,161501487.44365,   0.00000,274640135.82653,   0.00000,   0.00000,   0.00000,-313138648.38288,   0.00000
-184961383.99753,-125449490.26877,-19880135.92833,  -0.00060,  -0.00021,  -0.00026,167124612.94096,   0.00000,274640135.82653,   0.00000,   0.00000,   0.00000,-307515522.88557,   0.00000
-191130058.69632,-129759654.00062,-20532591.90609,  -0.00062,  -0.00022,  -0.00027,172719596.01971,   0.00000,274640135.82653,   0.00000,   0.00000,   0.00000,-301920539.80682,   0.00000
-197298733.39512,-134069817.73247,-21175162.18721,  -0.00064,  -0.00023,  -0.00028,178311142.33824,   0.00000,274640135.82653,   0.00000,   0.00000,   0.00000,-296328993.48829,   0.00000
-203467408.09391,-138379981.46432,-21817732.46833,  -0.00066,  -0.00023,  -0.00028,183902772.18158,   0.00000,274640135.82653,   0.00000,   0.00000,   0.00000,-290737363.64495,   0.00000
-209616311.39944,-142709916.58943,-22460302.74946,  -0.00068,  -0.00024,  -0.00029,189484003.49598,   0.00000,274640135.82653,   0.00000,   0.00000,   0.00000,-285156132.33055,   0.00000
-215715786.22181,-146990423.23139,-23102873.03058,  -0.00069,  -0.00025,  -0.00030,195019379.70213,   0.00000,274640135.82653,   0.00000,   0.00000,   0.00000,-279620756.12440,   0.00000
-221830089.58913,-151305529.81155,-23745443.31171,  -0.00071,  -0.00026,  -0.00031,200572607.79941,   0.00000,274640135.82653,   0.00000,   0.00000,   0.00000,-274067528.02712,   0.00000
-227909793.01823,-155605807.84677,-24378127.89620,  -0.00073,  -0.00026,  -0.00032,206094233.51864,   0.00000,274640135.82653,   0.00000,   0.00000,   0.00000,-268545902.30789,   0.00000
-233989496.44733,-159906085.88199,-25010812.48069,  -0.00075,  -0.00027,  -0.00033,211615969.28922,   0.00000,274640135.82653,   0.00000,   0.00000,   0.00000,-263024166.53731,   0.00000
-240069199.87643,-164206363.91721,-25643497.06518,  -0.00077,  -0.00028,  -0.00033,217137806.71544,   0.00000,274640135.82653,   0.00000,   0.00000,   0.00000,-257502329.11109,   0.00000
-246079703.42910,-168476984.86253,-26266295.95304,  -0.00079,  -0.00029,  -0.00034,222599872.65900,   0.00000,274640135.82653,   0.00000,   0.00000,   0.00000,-252040263.16753,   0.00000
-252124806.91999,-172762434.35280,-26898980.53753,  -0.00081,  -0.00029,  -0.00035,228093724.25737,   0.00000,274640135.82653,   0.00000,   0.00000,   0.00000,-246546411.56916,   0.00000
-258115539.07939,-177052826.69138,-27521779.42539,  -0.00083,  -0.00030,  -0.00036,233545700.39908,   0.00000,274640135.82653,   0.00000,   0.00000,   0.00000,-241094435.42745,   0.00000
-264126042.63207,-181323447.63670,-28144578.31325,  -0.00085,  -0.00031,  -0.00037,239008088.28143,   0.00000,274640135.82653,   0.00000,   0.00000,   0.00000,-235632047.54510,   0.00000
-270082174.85326,-185599011.43034,-28757491.50448,  -0.00087,  -0.00032,  -0.00037,244428659.35188,   0.00000,274640135.82653,   0.00000,   0.00000,   0.00000,-230211476.47465,   0.00000
-276038307.07445,-189874575.22397,-29380290.39234,  -0.00089,  -0.00033,  -0.00038,249852855.45361,   0.00000,274640135.82653,   0.00000,   0.00000,   0.00000,-224787280.37292,   0.00000
-281979610.75070,-194115539.07939,-29993203.58357,  -0.00090,  -0.00033,  -0.00039,255255746.31053,   0.00000,274640135.82653,   0.00000,   0.00000,   0.00000,-219384389.51600,   0.00000
-287901143.03367,-198376274.32808,-30606116.77479,  -0.00092,  -0.00034,  -0.00040,260648539.98952,   0.00000,274640135.82653,   0.00000,   0.00000,   0.00000,-213991595.83701,   0.00000
-293802903.92339,-202656780.97003,-31219029.96602,  -0.00094,  -0.00035,  -0.00041,266031295.10313,   0.00000,274640135.82653,   0.00000,   0.00000,   0.00000,-208608840.72340,   0.00000
-299689836.26815,-206902687.67377,-31822057.46061,  -0.00096,  -0.00036,  -0.00041,271392736.74833,   0.00000,274640135.82653,   0.00000,   0.00000,   0.00000,-203247399.07820,   0.00000
-305542168.67470,-211133765.83256,-32425084.95521,  -0.00098,  -0.00036,  -0.00042,276726170.83174,   0.00000,274640135.82653,   0.00000,   0.00000,   0.00000,-197913964.99479,   0.00000
-311394501.08125,-215364843.99135,-33028112.44980,  -0.00100,  -0.00037,  -0.00043,282059730.94705,   0.00000,274640135.82653,   0.00000,   0.00000,   0.00000,-192580404.87948,   0.00000
-317227062.09453,-219615693.54340,-33631139.94439,  -0.00102,  -0.00038,  -0.00044,287383335.01602,   0.00000,274640135.82653,   0.00000,   0.00000,   0.00000,-187256800.81051,   0.00000
-323010194.62465,-223817114.61230,-34224281.74235,  -0.00103,  -0.00039,  -0.00044,292657446.95108,   0.00000,274640135.82653,   0.00000,   0.00000,   0.00000,-181982688.87545,   0.00000
-328808155.69972,-228053135.61940,-34827309.23695,  -0.00105,  -0.00040,  -0.00045,297953233.58205,   0.00000,274640135.82653,   0.00000,   0.00000,   0.00000,-176686902.24448,   0.00000
-334571516.83658,-232274328.08156,-35420451.03491,  -0.00107,  -0.00040,  -0.00046,303217601.97946,   0.00000,274640135.82653,   0.00000,   0.00000,   0.00000,-171422533.84707,   0.00000
-340334877.97343,-236495520.54371,-36003707.13624,  -0.00109,  -0.00041,  -0.00047,308478665.48528,   0.00000,274640135.82653,   0.00000,   0.00000,   0.00000,-166161470.34125,   0.00000
-346048810.62712,-240667284.52271,-36596848.93420,  -0.00111,  -0.00042,  -0.00048,313697117.71990,   0.00000,274640135.82653,   0.00000,   0.00000,   0.00000,-160943018.10662,   0.00000
-351777571.82576,-244873648.43991,-37180105.03553,  -0.00112,  -0.00043,  -0.00048,318930379.42309,   0.00000,274640135.82653,   0.00000,   0.00000,   0.00000,-155709756.40344,   0.00000
-357471733.08619,-249065183.81217,-37763361.13686,  -0.00114,  -0.00044,  -0.00049,324135707.94858,   0.00000,274640135.82653,   0.00000,   0.00000,   0.00000,-150504427.87795,   0.00000
-363146122.95335,-253276490.57770,-38346617.23818,  -0.00116,  -0.00044,  -0.00050,329331293.48381,   0.00000,274640135.82653,   0.00000,   0.00000,   0.00000,-145308842.34272,   0.00000
-368771084.33735,-257438368.86006,-38929873.33951,  -0.00118,  -0.00045,  -0.00051,334480799.27673,   0.00000,274640135.82653,   0.00000,   0.00000,   0.00000,-140159336.54980,   0.00000
-374396045.72135,-261600247.14242,-39503243.74421,  -0.00119,  -0.00046,  -0.00051,339627014.62906,   0.00000,274640135.82653,   0.00000,   0.00000,   0.00000,-135013121.19747,   0.00000
-380021007.10534,-265762125.42478,-40076614.14890,  -0.00121,  -0.00047,  -0.00052,344773385.86700,   0.00000,274640135.82653,   0.00000,   0.00000,   0.00000,-129866749.95953,   0.00000
-385626197.09608,-269943775.10040,-40649984.55360,  -0.00123,  -0.00048,  -0.00053,349910099.75869,   0.00000,274640135.82653,   0.00000,   0.00000,   0.00000,-124730036.06784,   0.00000
-391181958.60365,-274075996.29286,-41223354.95829,  -0.00125,  -0.00048,  -0.00054,355000685.10761,   0.00000,274640135.82653,   0.00000,   0.00000,   0.00000,-119639450.71892,   0.00000
-396703120.17300,-278193388.94038,-41786839.66636,  -0.00126,  -0.00049,  -0.00054,360059941.82758,   0.00000,274640135.82653,   0.00000,   0.00000,   0.00000,-114580193.99895,   0.00000
-402239110.28730,-282345381.52610,-42360210.07105,  -0.00128,  -0.00050,  -0.00055,365141100.73620,   0.00000,274640135.82653,   0.00000,   0.00000,   0.00000,-109499035.09033,   0.00000
-407740500.46339,-286482545.56688,-42923694.77912,  -0.00130,  -0.00051,  -0.00056,370190976.18611,   0.00000,274640135.82653,   0.00000,   0.00000,   0.00000,-104449159.64042,   0.00000
-413227062.09453,-290585109.66945,-43477293.79055,  -0.00131,  -0.00052,  -0.00057,375219275.72795,   0.00000,274640135.82653,   0.00000,   0.00000,   0.00000,-99420860.09858,   0.00000
-418693852.33241,-294707445.16528,-44040778.49861,  -0.00133,  -0.00052,  -0.00057,380241495.89675,   0.00000,274640135.82653,   0.00000,   0.00000,   0.00000,-94398639.92978,   0.00000
-424126042.63207,-298814952.11616,-44594377.51004,  -0.00135,  -0.00053,  -0.00058,385232459.74752,   0.00000,274640135.82653,   0.00000,   0.00000,   0.00000,-89407676.07901,   0.00000
-429543404.38678,-302887859.12882,-45147976.52147,  -0.00136,  -0.00054,  -0.00059,390205239.14237,   0.00000,274640135.82653,   0.00000,   0.00000,   0.00000,-84434896.68416,   0.00000
-434940994.74822,-306980537.53475,-45701575.53290,  -0.00138,  -0.00055,  -0.00059,395168572.88069,   0.00000,274640135.82653,   0.00000,   0.00000,   0.00000,-79471562.94584,   0.00000
-440303985.17145,-311058387.39574,-46255174.54433,  -0.00140,  -0.00056,  -0.00060,400104106.01759,   0.00000,274640135.82653,   0.00000,   0.00000,   0.00000,-74536029.80894,   0.00000
-445666975.59469,-315136237.25672,-46798887.85913,  -0.00141,  -0.00056,  -0.00061,405036412.09662,   0.00000,274640135.82653,   0.00000,   0.00000,   0.00000,-69603723.72991,   0.00000
-450995366.07970,-319199258.57275,-47342601.17393,  -0.00143,  -0.00057,  -0.00062,409940929.99372,   0.00000,274640135.82653,   0.00000,   0.00000,   0.00000,-64699205.83281,   0.00000
-456289156.62651,-323247451.34384,-47886314.48872,  -0.00145,  -0.00058,  -0.00062,414817670.36351,   0.00000,274640135.82653,   0.00000,   0.00000,   0.00000,-59822465.46302,   0.00000
-461582947.17331,-327295644.11492,-48430027.80352,  -0.00146,  -0.00059,  -0.00063,419694615.82131,   0.00000,274640135.82653,   0.00000,   0.00000,   0.00000,-54945520.00522,   0.00000
-466842137.78190,-331329008.34106,-48963855.42169,  -0.00148,  -0.00060,  -0.00064,424540372.90605,   0.00000,274640135.82653,   0.00000,   0.00000,   0.00000,-50099762.92047,   0.00000
-472066728.45227,-335347544.02224,-49497683.03985,  -0.00149,  -0.00061,  -0.00064,429358376.26770,   0.00000,274640135.82653,   0.00000,   0.00000,   0.00000,-45281759.55883,   0.00000
-477291319.12264,-339366079.70343,-50031510.65802,  -0.00151,  -0.00061,  -0.00065,434176590.44696,   0.00000,274640135.82653,   0.00000,   0.00000,   0.00000,-40463545.37957,   0.00000
-482481309.85480,-343369786.83967,-50565338.27618,  -0.00153,  -0.00062,  -0.00066,438967061.01883,   0.00000,274640135.82653,   0.00000,   0.00000,   0.00000,-35673074.80770,   0.00000
-487651529.19370,-347393265.36917,-51099165.89435,  -0.00154,  -0.00063,  -0.00066,443748365.54655,   0.00000,274640135.82653,   0.00000,   0.00000,   0.00000,-30891770.27998,   0.00000
-492806919.98764,-351382143.96046,-51623107.81588,  -0.00156,  -0.00064,  -0.00067,448507920.95554,   0.00000,274640135.82653,   0.00000,   0.00000,   0.00000,-26132214.87099,   0.00000
-497927710.84337,-355356194.00680,-52147049.73741,  -0.00157,  -0.00065,  -0.00068,453239757.76387,   0.00000,274640135.82653,   0.00000,   0.00000,   0.00000,-21400378.06266,   0.00000
-503013901.76089,-359315415.50819,-52670991.65894,  -0.00159,  -0.00065,  -0.00068,457943887.56259,   0.00000,274640135.82653,   0.00000,   0.00000,   0.00000,-16696248.26394,   0.00000
-508100092.67841,-363274637.00958,-53194933.58048,  -0.00160,  -0.00066,  -0.00069,462648238.10089,   0.00000,274640135.82653,   0.00000,   0.00000,   0.00000,-11991897.72564,   0.00000
-513131912.26444,-367238801.35928,-53708989.80538,  -0.00162,  -0.00067,  -0.00070,467312224.28535,   0.00000,274640135.82653,   0.00000,   0.00000,   0.00000,-7327911.54118,   0.00000
-518183503.24374,-371183194.31572,-54223046.03027,  -0.00163,  -0.00068,  -0.00070,471985714.78707,   0.00000,274640135.82653,   0.00000,   0.00000,   0.00000,-2654421.03946,   0.00000
-521047464.87452,-373433449.88276,-54518534.13504,  -0.00164,  -0.00068,  -0.00071,474640138.92153,   0.00000,274640135.82653,   0.00000,   0.00000,   0.00000,  -1.30900,   0.00000
-521007975.04527,-373652728.21383,-54473628.10160,  -0.00165,  -0.00069,  -0.00071,474649079.36415,   0.00001,274649083.17407,  -0.00001,  -0.00000,  -0.00000,  -3.80992,   1.00000
-520915626.32668,-374163942.00663,-54368531.94049,  -0.00166,  -0.00069,  -0.00072,474670109.49301,   0.00003,274670115.29353,  -0.00002,  -0.00001,  -0.00001,  -5.80052,   1.00000
-520814113.61008,-374695357.09133,-54265709.60676,  -0.00168,  -0.00070,  -0.00072,474691081.65342,   0.00005,274691088.64248,  -0.00004,  -0.00001,  -0.00002,  -6.98906,   1.00000
-520718572.18781,-375208184.48022,-54160761.61871,  -0.00169,  -0.00071,  -0.00073,474711815.02454,   0.00007,274711817.85116,  -0.00006,  -0.00002,  -0.00003,  -2.82662,   1.00000
-520623493.51127,-375715029.78289,-54056861.02101,  -0.00171,  -0.00072,  -0.00074,474732521.42729,   0.00008,274732530.71316,  -0.00007,  -0.00002,  -0.00004,  -9.28588,   1.00000
-520524933.97796,-376221737.77326,-53957673.02053,  -0.00172,  -0.00073,  -0.00074,474753092.75850,   0.00010,274753100.91309,  -0.00009,  -0.00003,  -0.00004,  -8.15459,   1.00000
-520417083.03778,-376748726.73419,-53860646.52181,  -0.00174,  -0.00074,  -0.00075,474773606.82689,   0.00012,274773614.11655,  -0.00010,  -0.00004,  -0.00005,  -7.28965,   1.00000
-520315268.39624,-377257559.69518,-53761372.44231,  -0.00175,  -0.00074,  -0.00076,474793883.64505,   0.00014,274793884.64099,  -0.00012,  -0.00004,  -0.00006,  -0.99594,   1.00000
-520213965.53999,-377760547.00051,-53663065.33652,  -0.00177,  -0.00075,  -0.00076,474814134.55921,   0.00016,274814139.70449,  -0.00014,  -0.00005,  -0.00007,  -5.14528,   1.00000
-520103262.90295,-378283875.01195,-53566878.30649,  -0.00178,  -0.00076,  -0.00077,474834337.25203,   0.00018,274834338.85950,  -0.00015,  -0.00005,  -0.00007,  -1.60747,   1.00000
-519994980.94686,-378786881.80375,-53477734.73527,  -0.00179,  -0.00077,  -0.00078,474854302.90492,   0.00020,274854311.85363,  -0.00017,  -0.00006,  -0.00008,  -8.94870,   1.00000
-519887298.53241,-379284183.53849,-53389442.16006,  -0.00181,  -0.00078,  -0.00078,474874260.30938,   0.00021,274874270.16771,  -0.00018,  -0.00006,  -0.00009,  -9.85833,   1.00000
-519779737.40934,-379784270.53243,-53296269.11927,  -0.00182,  -0.00078,  -0.00079,474894068.25283,   0.00023,274894073.13861,  -0.00020,  -0.00007,  -0.00010,  -4.88578,   1.00000
-519662629.70269,-380304744.53253,-53205114.63925,  -0.00184,  -0.00079,  -0.00080,474913820.03750,   0.00025,274913821.92112,  -0.00021,  -0.00008,  -0.00010,  -1.88363,   1.00000
-519548019.46405,-380805303.21231,-53120904.47801,  -0.00185,  -0.00080,  -0.00080,474933336.24411,   0.00027,274933345.72768,  -0.00023,  -0.00008,  -0.00011,  -9.48357,   1.00000
-519434056.54519,-381300276.54427,-53037477.73172,  -0.00186,  -0.00081,  -0.00081,474952853.15172,   0.00029,274952855.62302,  -0.00024,  -0.00009,  -0.00012,  -2.47129,   1.00000
-519320134.38264,-381798240.97850,-52949066.06289,  -0.00188,  -0.00082,  -0.00081,474972205.25865,   0.00030,274972211.80451,  -0.00026,  -0.00009,  -0.00013,  -6.54586,   1.00000
-519192955.23612,-382314165.52036,-52871935.09299,  -0.00189,  -0.00082,  -0.00082,474991525.25138,   0.00032,274991530.67714,  -0.00027,  -0.00010,  -0.00013,  -5.42576,   1.00000
-519071969.23731,-382813075.18351,-52792206.15079,  -0.00190,  -0.00083,  -0.00083,475010604.18149,   0.00034,275010610.80783,  -0.00029,  -0.00010,  -0.00014,  -6.62634,   1.00000
-518951646.58466,-383306489.68336,-52713196.00601,  -0.00192,  -0.00084,  -0.00083,475029668.18720,   0.00036,275029677.86569,  -0.00030,  -0.00011,  -0.00015,  -9.67849,   1.00000
-518831313.63736,-383803114.30061,-52629109.03646,  -0.00193,  -0.00085,  -0.00084,475048584.82132,   0.00037,275048592.63222,  -0.00032,  -0.00011,  -0.00016,  -7.81090,   1.00000
-518703815.47815,-384298018.23731,-52558706.65883,  -0.00194,  -0.00086,  -0.00085,475067384.28277,   0.00039,275067385.52530,  -0.00033,  -0.00012,  -0.00016,  -1.24253,   1.00000
-518580574.05918,-384789996.01560,-52479554.76134,  -0.00196,  -0.00087,  -0.00085,475086146.71771,   0.00041,275086151.04710,  -0.00035,  -0.00013,  -0.00017,  -4.32939,   1.00000
-518453712.24475,-385282858.56656,-52404659.46680,  -0.00197,  -0.00087,  -0.00086,475104777.45332,   0.00042,275104780.26575,  -0.00036,  -0.00013,  -0.00018,  -2.81242,   1.00000
-518316930.31017,-385796214.95956,-52331479.32288,  -0.00198,  -0.00088,  -0.00086,475123353.50361,   0.00044,275123359.90360,  -0.00038,  -0.00014,  -0.00018,  -6.39999,   1.00000
-518182855.83471,-386290749.36666,-52264954.35783,  -0.00200,  -0.00089,  -0.00087,475141713.38665,   0.00046,275141717.71268,  -0.00039,  -0.00014,  -0.00019,  -4.32603,   1.00000
-518048677.84975,-386788765.97161,-52193154.61658,  -0.00201,  -0.00090,  -0.00088,475159919.87065,   0.00047,275159925.73710,  -0.00041,  -0.00015,  -0.00020,  -5.86646,   1.00000
-517915228.35434,-387281467.33477,-52121964.10950,  -0.00202,  -0.00091,  -0.00088,475178120.85376,   0.00049,275178122.08200,  -0.00042,  -0.00015,  -0.00020,  -1.22825,   1.00000
-517778093.21718,-387775272.85473,-52054899.92684,  -0.00203,  -0.00091,  -0.00089,475196183.16740,   0.00051,275196183.91490,  -0.00043,  -0.00016,  -0.00021,  -0.74750,   1.00000
-517637270.93614,-388270220.80272,-51991910.89523,  -0.00205,  -0.00092,  -0.00089,475214107.04852,   0.00052,275214111.70474,  -0.00045,  -0.00016,  -0.00022,  -4.65622,   1.00000
-517503668.01772,-388740631.62021,-51931927.11527,  -0.00206,  -0.00093,  -0.00090,475231940.71422,   0.00054,275231941.93776,  -0.00046,  -0.00017,  -0.00022,  -1.22354,   1.00000
-517358905.07911,-389240742.31208,-51867578.86881,  -0.00207,  -0.00094,  -0.00090,475249581.90270,   0.00056,275249588.33444,  -0.00048,  -0.00018,  -0.00023,  -6.43173,   1.00000
-517214911.70521,-389735620.71867,-51803747.47618,  -0.00208,  -0.00095,  -0.00091,475267218.56924,   0.00057,275267224.03757,  -0.00049,  -0.00018,  -0.00024,  -5.46833,   1.00000
-517071688.11666,-390225319.70507,-51740429.42173,  -0.00209,  -0.00095,  -0.00092,475284843.11537,   0.00059,275284849.13506,  -0.00050,  -0.00019,  -0.00024,  -6.01969,   1.00000
-516920158.07933,-390722925.44723,-51684603.26080,  -0.00211,  -0.00096,  -0.00092,475302211.81274,   0.00061,275302219.48569,  -0.00052,  -0.00019,  -0.00025,  -7.67296,   1.00000
-516776006.18688,-391196291.53389,-51631700.68843,  -0.00212,  -0.00097,  -0.00093,475319491.97804,   0.00062,275319492.90289,  -0.00053,  -0.00020,  -0.00026,  -0.92485,   1.00000
-516624951.04472,-391692890.59394,-51570805.06629,  -0.00213,  -0.00098,  -0.00093,475336705.88509,   0.00064,275336707.10186,  -0.00054,  -0.00020,  -0.00026,  -1.21677,   1.00000
-516470067.73890,-392190953.46773,-51513856.41715,  -0.00214,  -0.00099,  -0.00094,475353782.73133,   0.00065,275353789.66217,  -0.00056,  -0.00021,  -0.00027,  -6.93083,   1.00000
-516318002.56608,-392671572.61276,-51463309.09369,  -0.00215,  -0.00099,  -0.00095,475370653.51652,   0.00067,275370653.84073,  -0.00057,  -0.00021,  -0.00028,  -0.32421,   1.00000
-516160080.97751,-393166234.79738,-51410631.77597,  -0.00216,  -0.00100,  -0.00095,475387590.25413,   0.00068,275387596.05267,  -0.00058,  -0.00022,  -0.00028,  -5.79854,   1.00000
-515998316.38193,-393662514.46373,-51361805.35710,  -0.00218,  -0.00101,  -0.00096,475404404.97070,   0.00070,275404407.63251,  -0.00060,  -0.00023,  -0.00029,  -2.66181,   1.00000
-515842841.17624,-394144108.43772,-51309895.56583,  -0.00219,  -0.00102,  -0.00096,475420986.52508,   0.00071,275420987.22875,  -0.00061,  -0.00023,  -0.00029,  -0.70367,   1.00000
-515676708.16715,-394646357.80684,-51259309.89222,  -0.00220,  -0.00103,  -0.00097,475437515.28902,   0.00073,275437524.35217,  -0.00062,  -0.00024,  -0.00030,  -9.06314,   1.00000
-515513417.46778,-395131565.34850,-51215034.32400,  -0.00221,  -0.00103,  -0.00097,475453839.13087,   0.00075,275453844.33998,  -0.00063,  -0.00024,  -0.00031,  -5.20911,   1.00000
-515350956.75740,-395611958.29200,-51171056.30033,  -0.00222,  -0.00104,  -0.00098,475470146.24750,   0.00076,275470156.03677,  -0.00065,  -0.00025,  -0.00031,  -9.78927,   1.00000
-515177753.27844,-396113016.81607,-51128309.10143,  -0.00223,  -0.00105,  -0.00098,475486421.98407,   0.00078,275486426.40599,  -0.00066,  -0.00025,  -0.00032,  -4.42192,   1.00000
-515010825.99596,-396599786.50443,-51082387.74251,  -0.00224,  -0.00106,  -0.00099,475502459.42936,   0.00079,275502466.15371,  -0.00067,  -0.00026,  -0.00033,  -6.72435,   1.00000
-514841314.05231,-397079283.21177,-51046171.72225,  -0.00225,  -0.00107,  -0.00099,475518507.31794,   0.00080,275518512.19572,  -0.00068,  -0.00026,  -0.00033,  -4.87778,   1.00000
-514666336.13770,-397570268.10311,-51007636.38262,  -0.00226,  -0.00107,  -0.00100,475534288.24755,   0.00082,275534295.86988,  -0.00070,  -0.00027,  -0.00034,  -7.62234,   1.00000
-514485329.32537,-398074941.20079,-50966817.46688,  -0.00227,  -0.00108,  -0.00101,475550149.96453,   0.00083,275550159.92176,  -0.00071,  -0.00027,  -0.00034,  -9.95723,   1.00000
-514310591.36313,-398565657.62317,-50922785.65452,  -0.00228,  -0.00109,  -0.00101,475565788.35333,   0.00085,275565794.19681,  -0.00072,  -0.00028,  -0.00035,  -5.84348,   1.00000
-514133282.84519,-399049121.72691,-50888434.61518,  -0.00229,  -0.00110,  -0.00102,475581430.92744,   0.00086,275581435.25133,  -0.00073,  -0.00029,  -0.00035,  -4.32388,   1.00000
-513950286.02953,-399544295.43818,-50851702.53089,  -0.00230,  -0.00111,  -0.00102,475596806.71340,   0.00088,275596815.65584,  -0.00074,  -0.00029,  -0.00036,  -8.94244,   1.00000
-513768157.05176,-400034735.45609,-50815178.47913,  -0.00231,  -0.00111,  -0.00103,475612181.37409,   0.00089,275612189.07747,  -0.00076,  -0.00030,  -0.00037,  -7.70338,   1.00000
-513581863.86336,-400527469.81601,-50782268.45259,  -0.00232,  -0.00112,  -0.00103,475627434.92945,   0.00091,275627436.18551,  -0.00077,  -0.00030,  -0.00037,  -1.25606,   1.00000
-513398394.76865,-401004326.35822,-50755462.00625,  -0.00233,  -0.00113,  -0.00104,475642465.33698,   0.00092,275642469.14165,  -0.00078,  -0.00031,  -0.00038,  -3.80467,   1.00000
-513208770.80383,-401494855.29908,-50726249.51497,  -0.00234,  -0.00114,  -0.00104,475657584.04452,   0.00093,275657584.18268,  -0.00079,  -0.00031,  -0.00038,  -0.13816,   1.00000
-513013177.10239,-401997349.02821,-50694559.37058,  -0.00235,  -0.00115,  -0.00105,475672435.97252,   0.00095,275672440.81361,  -0.00080,  -0.00032,  -0.00039,  -4.84109,   1.00000
-512818459.88912,-402495132.55849,-50663021.12531,  -0.00236,  -0.00115,  -0.00105,475687287.69376,   0.00096,275687291.25762,  -0.00081,  -0.00032,  -0.00039,  -3.56386,   1.00000
-512626548.49991,-402977341.30693,-50637562.20573,  -0.00237,  -0.00116,  -0.00106,475701923.84970,   0.00097,275701928.27208,  -0.00082,  -0.00033,  -0.00040,  -4.42238,   1.00000
-512423176.01927,-403480156.64055,-50613052.86750,  -0.00238,  -0.00117,  -0.00106,475716520.79737,   0.00099,275716529.65503,  -0.00084,  -0.00033,  -0.00041,  -8.85765,   1.00000
-512220703.06840,-403978303.95953,-50588631.41102,  -0.00239,  -0.00118,  -0.00107,475731118.09876,   0.00100,275731125.41068,  -0.00085,  -0.00034,  -0.00041,  -7.31192,   1.00000
-512024409.69360,-404463664.11180,-50560811.51030,  -0.00240,  -0.00119,  -0.00107,475745488.50326,   0.00101,275745494.37959,  -0.00086,  -0.00034,  -0.00042,  -5.87633,   1.00000
-511815023.85201,-404956400.90864,-50549278.95166,  -0.00241,  -0.00119,  -0.00108,475759628.48378,   0.00103,275759635.55352,  -0.00087,  -0.00035,  -0.00042,  -7.06974,   1.00000
-511608023.46912,-405457778.19091,-50522385.77250,  -0.00242,  -0.00120,  -0.00108,475773960.47440,   0.00104,275773964.96830,  -0.00088,  -0.00035,  -0.00043,  -4.49390,   1.00000
-511398432.71425,-405951269.94558,-50504892.24187,  -0.00243,  -0.00121,  -0.00109,475787956.72608,   0.00105,275787964.19878,  -0.00089,  -0.00036,  -0.00043,  -7.47270,   1.00000
-511184344.85747,-406447555.67343,-50490794.82448,  -0.00243,  -0.00122,  -0.00109,475801832.23738,   0.00107,275801840.90025,  -0.00090,  -0.00037,  -0.00044,  -8.66287,   1.00000
-510967233.96243,-406959561.45238,-50464716.93997,  -0.00244,  -0.00123,  -0.00110,475815784.05759,   0.00108,275815788.31166,  -0.00091,  -0.00037,  -0.00044,  -4.25407,   1.00000
-510749488.52283,-407454085.80967,-50454068.72282,  -0.00245,  -0.00123,  -0.00110,475829533.86435,   0.00109,275829538.05473,  -0.00092,  -0.00038,  -0.00045,  -4.19038,   1.00000
-510530517.94440,-407954055.64529,-50437332.03969,  -0.00246,  -0.00124,  -0.00111,475843145.72531,   0.00110,275843152.24651,  -0.00093,  -0.00038,  -0.00045,  -6.52120,   1.00000
-510312430.51042,-408449590.87605,-50420609.57640,  -0.00247,  -0.00125,  -0.00111,475856759.08774,   0.00112,275856762.13472,  -0.00094,  -0.00039,  -0.00046,  -3.04698,   1.00000
-510084139.50806,-408955415.83083,-50410612.89254,  -0.00248,  -0.00126,  -0.00112,475870129.14284,   0.00113,275870133.57888,  -0.00095,  -0.00039,  -0.00046,  -4.43604,   1.00000
-509856731.20416,-409456788.01904,-50400572.60064,  -0.00248,  -0.00126,  -0.00112,475883495.46473,   0.00114,275883501.26197,  -0.00096,  -0.00040,  -0.00047,  -5.79724,   1.00000
-509627952.89054,-409963710.75594,-50384420.62659,  -0.00249,  -0.00127,  -0.00113,475896729.71965,   0.00115,275896734.42973,  -0.00097,  -0.00040,  -0.00047,  -4.71009,   1.00000
-509391061.16735,-410471032.86628,-50381040.93924,  -0.00250,  -0.00128,  -0.00113,475909860.02358,   0.00117,275909860.99328,  -0.00098,  -0.00041,  -0.00048,  -0.96971,   1.00000
-509165839.87712,-410959279.16104,-50370729.08171,  -0.00251,  -0.00129,  -0.00114,475922878.35497,   0.00118,275922880.55147,  -0.00099,  -0.00041,  -0.00048,  -2.19650,   1.00000
-508928323.12814,-411467951.21005,-50361134.93476,  -0.00252,  -0.00130,  -0.00114,475935867.80202,   0.00119,275935870.14252,  -0.00100,  -0.00042,  -0.00049,  -2.34049,   1.00000
-508680204.74617,-411987152.29473,-50358173.39593,  -0.00252,  -0.00130,  -0.00115,475948623.54857,   0.00120,275948623.83713,  -0.00101,  -0.00042,  -0.00049,  -0.28856,   1.00000
-508446219.41617,-412477314.17729,-50354362.01439,  -0.00253,  -0.00131,  -0.00115,475961392.42880,   0.00121,275961400.83000,  -0.00102,  -0.00043,  -0.00050,  -8.40120,   1.00000
-508193993.29488,-412995351.74798,-50354539.79885,  -0.00254,  -0.00132,  -0.00116,475974030.17861,   0.00123,275974032.91634,  -0.00103,  -0.00043,  -0.00050,  -2.73773,   1.00000
-507947657.69081,-413502096.07472,-50351102.97061,  -0.00255,  -0.00133,  -0.00116,475986434.65066,   0.00124,275986442.46385,  -0.00104,  -0.00044,  -0.00051,  -7.81319,   1.00000
-507694611.92526,-414021509.66164,-50344957.93641,  -0.00255,  -0.00133,  -0.00117,475998932.91153,   0.00125,275998939.86509,  -0.00105,  -0.00044,  -0.00051,  -6.95355,   1.00000
-507444087.30916,-414527195.92956,-50344672.38639,  -0.00256,  -0.00134,  -0.00117,476011219.84679,   0.00126,276011228.58914,  -0.00106,  -0.00045,  -0.00052,  -8.74235,   1.00000
-507188474.38674,-415036243.02299,-50347596.49320,  -0.00257,  -0.00135,  -0.00118,476023396.56500,   0.00127,276023399.48757,  -0.00107,  -0.00045,  -0.00052,  -2.92257,   1.00000
-506920101.28075,-415565422.12246,-50351080.06167,  -0.00257,  -0.00136,  -0.00118,476035541.80895,   0.00128,276035543.67684,  -0.00108,  -0.00046,  -0.00053,  -1.86789,   1.00000
-506660212.58579,-416073430.58528,-50357028.66885,  -0.00258,  -0.00137,  -0.00118,476047590.97585,   0.00129,276047595.32952,  -0.00109,  -0.00046,  -0.00053,  -4.35367,   1.00000
-506398439.49591,-416587491.26341,-50356706.62741,  -0.00259,  -0.00137,  -0.00119,476059508.48481,   0.00131,276059516.29601,  -0.00109,  -0.00047,  -0.00053,  -7.81120,   1.00000
-506128085.73077,-417102350.09442,-50369010.25195,  -0.00259,  -0.00138,  -0.00119,476071325.74223,   0.00132,276071334.23670,  -0.00110,  -0.00047,  -0.00054,  -8.49447,   1.00000
-505855771.95789,-417623293.21518,-50374993.42722,  -0.00260,  -0.00139,  -0.00120,476083021.72040,   0.00133,276083022.22835,  -0.00111,  -0.00048,  -0.00054,  -0.50796,   1.00000
-505578089.49768,-418147662.17148,-50384120.97279,  -0.00261,  -0.00140,  -0.00120,476094585.90665,   0.00134,276094594.26015,  -0.00112,  -0.00048,  -0.00055,  -8.35350,   1.00000
-505301234.69772,-418667765.31343,-50393052.08414,  -0.00261,  -0.00140,  -0.00121,476106160.27692,   0.00135,276106165.18436,  -0.00113,  -0.00048,  -0.00055,  -4.90744,   1.00000
-505022259.23880,-419194009.92129,-50395675.37786,  -0.00262,  -0.00141,  -0.00121,476117597.47052,   0.00136,276117606.86423,  -0.00114,  -0.00049,  -0.00056,  -9.39371,   1.00000
-504742267.13296,-419704755.47609,-50413549.69608,  -0.00262,  -0.00142,  -0.00122,476128854.58997,   0.00137,276128855.40802,  -0.00115,  -0.00049,  -0.00056,  -0.81805,   1.00000
-504452263.65508,-420238145.22565,-50422395.63360,  -0.00263,  -0.00143,  -0.00122,476140058.51265,   0.00138,276140067.02025,  -0.00115,  -0.00050,  -0.00056,  -8.50760,   1.00000
-504153376.83586,-420772389.50007,-50443787.10341,  -0.00264,  -0.00144,  -0.00122,476151170.39323,   0.00139,276151177.70870,  -0.00116,  -0.00050,  -0.00057,  -7.31546,   1.00000
-503866422.68881,-421288819.08398,-50458137.28442,  -0.00264,  -0.00144,  -0.00123,476162180.00005,   0.00140,276162182.86088,  -0.00117,  -0.00051,  -0.00057,  -2.86083,   1.00000
-503565952.72190,-421825130.42317,-50472893.02498,  -0.00265,  -0.00145,  -0.00123,476173156.01007,   0.00141,276173165.71924,  -0.00118,  -0.00051,  -0.00058,  -9.70917,   1.00000
-503267647.00380,-422348940.24380,-50493403.38981,  -0.00265,  -0.00146,  -0.00124,476183941.17443,   0.00142,276183942.85632,  -0.00119,  -0.00052,  -0.00058,  -1.68189,   1.00000
-502958994.35817,-422895213.75294,-50504832.52985,  -0.00266,  -0.00147,  -0.00124,476194681.53211,   0.00143,276194684.93117,  -0.00119,  -0.00052,  -0.00059,  -3.39906,   1.00000
-502655671.26075,-423418506.19542,-50528161.71581,  -0.00266,  -0.00147,  -0.00125,476205341.38396,   0.00144,276205348.78555,  -0.00120,  -0.00053,  -0.00059,  -7.40159,   1.00000
-502343196.78506,-423956214.12150,-50548388.37418,  -0.00267,  -0.00148,  -0.00125,476215767.95762,   0.00145,276215772.74161,  -0.00121,  -0.00053,  -0.00059,  -4.78400,   1.00000
-502023511.03305,-424505625.19087,-50565637.69883,  -0.00267,  -0.00149,  -0.00125,476226288.84251,   0.00146,276226289.64413,  -0.00122,  -0.00054,  -0.00060,  -0.80162,   1.00000
-501705793.49773,-425042852.39959,-50588637.91349,  -0.00268,  -0.00150,  -0.00126,476236599.73727,   0.00147,276236601.82111,  -0.00123,  -0.00054,  -0.00060,  -2.08384,   1.00000
-501388792.39291,-425575932.04659,-50611347.53961,  -0.00268,  -0.00150,  -0.00126,476246908.58161,   0.00148,276246914.86944,  -0.00123,  -0.00055,  -0.00061,  -6.28783,   1.00000
-501058950.73573,-426120853.67252,-50640380.01846,  -0.00269,  -0.00151,  -0.00127,476257000.45717,   0.00149,276257003.30387,  -0.00124,  -0.00055,  -0.00061,  -2.84670,   1.00000
-500729799.47871,-426661596.24798,-50669082.78486,  -0.00269,  -0.00152,  -0.00127,476267091.15277,   0.00150,276267093.11964,  -0.00125,  -0.00055,  -0.00061,  -1.96687,   1.00000
-500397762.33944,-427208921.23084,-50691328.93254,  -0.00270,  -0.00153,  -0.00128,476277048.76996,   0.00151,276277058.15653,  -0.00125,  -0.00056,  -0.00062,  -9.38658,   1.00000
-500056187.17217,-427757378.85159,-50726021.77624,  -0.00270,  -0.00153,  -0.00128,476286919.24469,   0.00152,276286925.92405,  -0.00126,  -0.00056,  -0.00062,  -6.67936,   1.00000
-499718586.23589,-428304399.14021,-50750918.52097,  -0.00271,  -0.00154,  -0.00128,476296779.46388,   0.00153,276296781.82360,  -0.00127,  -0.00057,  -0.00062,  -2.35972,   1.00000
-499367613.03722,-428863375.39954,-50782110.66271,  -0.00271,  -0.00155,  -0.00129,476306409.68530,   0.00154,276306415.28444,  -0.00128,  -0.00057,  -0.00063,  -5.59914,   1.00000
-499025353.07051,-429402782.20008,-50815712.90416,  -0.00272,  -0.00156,  -0.00129,476315953.33910,   0.00154,276315957.55403,  -0.00128,  -0.00058,  -0.00063,  -4.21493,   1.00000
-498668524.70019,-429961558.65122,-50849504.78207,  -0.00272,  -0.00156,  -0.00130,476325476.66884,   0.00155,276325483.51529,  -0.00129,  -0.00058,  -0.00064,  -6.84645,   1.00000
-498312326.62028,-430516137.10858,-50882936.36793,  -0.00272,  -0.00157,  -0.00130,476335009.08785,   0.00156,276335011.82330,  -0.00130,  -0.00058,  -0.00064,  -2.73545,   1.00000
-497953761.36036,-431070367.24503,-50915949.52892,  -0.00273,  -0.00158,  -0.00130,476344204.26655,   0.00157,276344212.16916,  -0.00130,  -0.00059,  -0.00064,  -7.90260,   1.00000
-497584346.84665,-431632877.58991,-50955266.33712,  -0.00273,  -0.00159,  -0.00131,476353521.31867,   0.00158,276353522.51630,  -0.00131,  -0.00059,  -0.00065,  -1.19763,   1.00000
-497219664.56945,-432187041.07956,-50990842.27688,  -0.00274,  -0.00159,  -0.00131,476362609.47217,   0.00159,276362616.96513,  -0.00132,  -0.00060,  -0.00065,  -7.49296,   1.00000
-496848205.06971,-432745314.87125,-51029353.91104,  -0.00274,  -0.00160,  -0.00132,476371596.92790,   0.00160,276371603.09601,  -0.00132,  -0.00060,  -0.00065,  -6.16811,   1.00000
-496461698.18711,-433322629.17444,-51067981.44179,  -0.00274,  -0.00161,  -0.00132,476380569.04564,   0.00160,276380575.46481,  -0.00133,  -0.00061,  -0.00066,  -6.41917,   1.00000
-496083917.20870,-433880790.17775,-51109022.35074,  -0.00275,  -0.00162,  -0.00132,476389449.40286,   0.00161,276389457.04443,  -0.00133,  -0.00061,  -0.00066,  -7.64157,   1.00000
-495699178.57221,-434443095.75008,-51152967.42290,  -0.00275,  -0.00162,  -0.00133,476398227.96784,   0.00162,276398231.23368,  -0.00134,  -0.00061,  -0.00066,  -3.26584,   1.00000
-495307390.94015,-435009525.07119,-51199797.91194,  -0.00275,  -0.00163,  -0.00133,476406888.53557,   0.00163,276406898.50735,  -0.00135,  -0.00062,  -0.00067,  -9.97178,   1.00000
-494903548.95594,-435597617.16882,-51237240.29753,  -0.00276,  -0.00164,  -0.00134,476415537.71751,   0.00164,276415539.99171,  -0.00135,  -0.00062,  -0.00067,  -2.27420,   1.00000
-494505119.23819,-436163926.79433,-51286555.56829,  -0.00276,  -0.00165,  -0.00134,476424098.58106,   0.00165,276424104.58028,  -0.00136,  -0.00063,  -0.00067,  -5.99922,   1.00000
-494095041.75549,-436745516.57901,-51332595.27260,  -0.00276,  -0.00165,  -0.00134,476432438.33817,   0.00165,276432439.21413,  -0.00137,  -0.00063,  -0.00068,  -0.87596,   1.00000
-493685367.78305,-437322918.19774,-51378206.54269,  -0.00276,  -0.00166,  -0.00135,476440774.65756,   0.00166,276440778.28984,  -0.00137,  -0.00063,  -0.00068,  -3.63227,   1.00000
-493276121.98510,-437896167.47805,-51423394.16713,  -0.00277,  -0.00167,  -0.00135,476449114.90097,   0.00167,276449121.74864,  -0.00138,  -0.00064,  -0.00068,  -6.84767,   1.00000
-492859880.16517,-438467534.11481,-51477620.03339,  -0.00277,  -0.00168,  -0.00136,476457154.13027,   0.00168,276457154.93650,  -0.00138,  -0.00064,  -0.00069,  -0.80623,   1.00000
-492435683.54248,-439049183.99595,-51528515.77739,  -0.00277,  -0.00168,  -0.00136,476465284.33697,   0.00168,276465288.30391,  -0.00139,  -0.00065,  -0.00069,  -3.96695,   1.00000
-492007176.83267,-439637878.31290,-51572827.41535,  -0.00277,  -0.00169,  -0.00136,476473298.67237,   0.00169,276473303.34724,  -0.00139,  -0.00065,  -0.00069,  -4.67487,   1.00000
-491567677.69574,-440227844.98396,-51629442.23043,  -0.00278,  -0.00170,  -0.00137,476481222.87632,   0.00170,276481227.93415,  -0.00140,  -0.00065,  -0.00070,  -5.05783,   1.00000
-491132054.87764,-440810711.34977,-51682337.39241,  -0.00278,  -0.00171,  -0.00137,476488929.65815,   0.00171,276488939.29778,  -0.00140,  -0.00066,  -0.00070,  -9.63963,   1.00000
-490685071.13511,-441400675.18330,-51741305.38675,  -0.00278,  -0.00171,  -0.00137,476496759.10242,   0.00171,276496765.73104,  -0.00141,  -0.00066,  -0.00070,  -6.62862,   1.00000
-490225244.76184,-442006104.47849,-51796945.71215,  -0.00278,  -0.00172,  -0.00138,476504361.99387,   0.00172,276504366.38415,  -0.00141,  -0.00067,  -0.00071,  -4.39028,   1.00000
-489774043.17239,-442593302.83064,-51855022.40925,  -0.00279,  -0.00173,  -0.00138,476511871.53603,   0.00173,276511876.98508,  -0.00142,  -0.00067,  -0.00071,  -5.44905,   1.00000
-489314689.56823,-443190275.36856,-51909693.67666,  -0.00279,  -0.00174,  -0.00139,476519488.04818,   0.00173,276519489.76105,  -0.00143,  -0.00067,  -0.00071,  -1.71286,   1.00000
-488847204.46591,-443786040.05269,-51973417.43096,  -0.00279,  -0.00174,  -0.00139,476526790.38790,   0.00174,276526795.39633,  -0.00143,  -0.00068,  -0.00071,  -5.00844,   1.00000
-488379908.02913,-444377650.42194,-52036633.90237,  -0.00279,  -0.00175,  -0.00139,476534100.06154,   0.00175,276534107.49413,  -0.00143,  -0.00068,  -0.00072,  -7.43258,   1.00000
-487899141.75528,-444990199.66036,-52090267.15369,  -0.00279,  -0.00176,  -0.00140,476541395.48620,   0.00175,276541400.71535,  -0.00144,  -0.00068,  -0.00072,  -5.22915,   1.00000
-487415097.91779,-445590324.67876,-52159105.36267,  -0.00279,  -0.00177,  -0.00140,476548507.71744,   0.00176,276548509.75708,  -0.00144,  -0.00069,  -0.00072,  -2.03964,   1.00000
-486934474.30508,-446189224.44110,-52217987.21586,  -0.00279,  -0.00177,  -0.00140,476555605.77641,   0.00177,276555611.90126,  -0.00145,  -0.00069,  -0.00073,  -6.12485,   1.00000
-486433274.04903,-446797943.16222,-52292401.34338,  -0.00280,  -0.00178,  -0.00141,476562515.83612,   0.00177,276562519.44276,  -0.00145,  -0.00070,  -0.00073,  -3.60664,   1.00000
-485926936.69375,-447418804.54654,-52353847.01369,  -0.00280,  -0.00179,  -0.00141,476569513.55006,   0.00178,276569517.94468,  -0.00146,  -0.00070,  -0.00073,  -4.39462,   1.00000
-485420302.79020,-448030451.72075,-52421069.63022,  -0.00280,  -0.00179,  -0.00142,476576315.10603,   0.00179,276576319.20999,  -0.00146,  -0.00070,  -0.00073,  -4.10396,   1.00000
-484913693.76963,-448637851.51192,-52487763.01495,  -0.00280,  -0.00180,  -0.00142,476583120.00318,   0.00179,276583128.16382,  -0.00147,  -0.00071,  -0.00074,  -8.16064,   1.00000
-484389182.79437,-449258056.31718,-52560528.99393,  -0.00280,  -0.00181,  -0.00142,476589725.48219,   0.00180,276589730.61375,  -0.00147,  -0.00071,  -0.00074,  -5.13157,   1.00000
-483867911.56306,-449876975.50601,-52623319.23487,  -0.00280,  -0.00182,  -0.00143,476596325.53589,   0.00181,276596327.31107,  -0.00148,  -0.00071,  -0.00074,  -1.77518,   1.00000
-483343296.88254,-450488582.46876,-52695013.64735,  -0.00280,  -0.00182,  -0.00143,476602939.88548,   0.00181,276602946.13425,  -0.00148,  -0.00072,  -0.00074,  -6.24877,   1.00000
-482800313.10869,-451113004.72061,-52772758.21382,  -0.00280,  -0.00183,  -0.00143,476609355.20390,   0.00182,276609359.94302,  -0.00149,  -0.00072,  -0.00075,  -4.73912,   1.00000
-482269042.48476,-451723209.56241,-52843556.73025,  -0.00280,  -0.00184,  -0.00144,476615664.99270,   0.00182,276615670.17242,  -0.00149,  -0.00072,  -0.00075,  -5.17972,   1.00000
-481719807.28549,-452350644.32929,-52914060.04006,  -0.00280,  -0.00185,  -0.00144,476621974.09928,   0.00183,276621981.04438,  -0.00149,  -0.00073,  -0.00075,  -6.94511,   1.00000
-481157739.59484,-452979223.20317,-52996728.71175,  -0.00280,  -0.00185,  -0.00144,476628206.95836,   0.00184,276628208.81171,  -0.00150,  -0.00073,  -0.00075,  -1.85335,   1.00000
-480589302.51125,-453615040.80313,-53072680.58803,  -0.00280,  -0.00186,  -0.00145,476634320.14206,   0.00184,276634325.96587,  -0.00150,  -0.00073,  -0.00076,  -5.82381,   1.00000
-480029189.05810,-454233812.72550,-53151144.46119,  -0.00280,  -0.00187,  -0.00145,476640349.40208,   0.00185,276640353.67128,  -0.00151,  -0.00074,  -0.00076,  -4.26921,   1.00000
-479450684.36312,-454869473.46518,-53229240.15912,  -0.00280,  -0.00188,  -0.00145,476646380.77062,   0.00185,276646384.19549,  -0.00151,  -0.00074,  -0.00076,  -3.42486,   1.00000
-478862218.76168,-455509273.76225,-53310048.68383,  -0.00280,  -0.00188,  -0.00146,476652310.82255,   0.00186,276652319.10811,  -0.00151,  -0.00074,  -0.00076,  -8.28556,   1.00000
-478275553.80651,-456143890.58462,-53387264.80630,  -0.00280,  -0.00189,  -0.00146,476658035.21212,   0.00186,276658045.12898,  -0.00152,  -0.00075,  -0.00077,  -9.91686,   1.00000
-477676643.58507,-456783385.03458,-53470190.84657,  -0.00280,  -0.00190,  -0.00146,476663892.47467,   0.00187,276663895.12524,  -0.00152,  -0.00075,  -0.00077,  -2.65057,   1.00000
-477076050.83905,-457414706.19386,-53558945.61831,  -0.00280,  -0.00190,  -0.00147,476669541.78672,   0.00187,276669550.78524,  -0.00152,  -0.00075,  -0.00077,  -8.99852,   1.00000
-476459793.76569,-458065596.16801,-53637828.13307,  -0.00280,  -0.00191,  -0.00147,476675188.99889,   0.00188,276675197.86893,  -0.00153,  -0.00076,  -0.00077,  -8.87004,   1.00000
-475851669.06970,-458699817.77886,-53719268.91141,  -0.00280,  -0.00192,  -0.00147,476680752.13068,   0.00189,276680755.72907,  -0.00153,  -0.00076,  -0.00078,  -3.59839,   1.00000
-475210939.03491,-459355724.37843,-53812955.68457,  -0.00280,  -0.00193,  -0.00148,476686223.38313,   0.00189,276686229.86388,  -0.00153,  -0.00076,  -0.00078,  -6.48076,   1.00000
-474581537.71413,-459998206.13551,-53899758.99147,  -0.00280,  -0.00193,  -0.00148,476691600.12683,   0.00190,276691600.95069,  -0.00154,  -0.00077,  -0.00078,  -0.82385,   1.00000
-473951583.47167,-460636216.15284,-53985942.92169,  -0.00280,  -0.00194,  -0.00148,476696978.33771,   0.00190,276696983.46106,  -0.00154,  -0.00077,  -0.00078,  -5.12335,   1.00000
-473291768.25713,-461298813.70643,-54074914.75182,  -0.00280,  -0.00195,  -0.00149,476702267.04846,   0.00191,276702270.02454,  -0.00154,  -0.00077,  -0.00079,  -2.97608,   1.00000
-472639874.67240,-461944965.30126,-54166448.85266,  -0.00280,  -0.00195,  -0.00149,476707461.80012,   0.00191,276707467.88023,  -0.00155,  -0.00077,  -0.00079,  -6.08011,   1.00000
-471976813.28232,-462595197.82297,-54260645.84763,  -0.00280,  -0.00196,  -0.00149,476712570.71764,   0.00192,276712573.99349,  -0.00155,  -0.00078,  -0.00079,  -3.27585,   1.00000
-471305728.94160,-463252688.51247,-54348091.69112,  -0.00279,  -0.00197,  -0.00150,476717571.22543,   0.00192,276717574.46793,  -0.00155,  -0.00078,  -0.00079,  -3.24250,   1.00000
-470630578.31082,-463902323.79638,-54444301.89292,  -0.00279,  -0.00198,  -0.00150,476722596.86599,   0.00192,276722602.00686,  -0.00156,  -0.00078,  -0.00079,  -5.14087,   1.00000
-469938607.25232,-464570650.87160,-54530498.87802,  -0.00279,  -0.00198,  -0.00150,476727621.93968,   0.00193,276727626.33467,  -0.00156,  -0.00079,  -0.00080,  -4.39499,   1.00000
-469240245.13418,-465228164.48098,-54632008.83582,  -0.00279,  -0.00199,  -0.00151,476732465.75397,   0.00193,276732473.29068,  -0.00156,  -0.00079,  -0.00080,  -7.53671,   1.00000
-468533362.68284,-465892861.85275,-54726739.49992,  -0.00279,  -0.00200,  -0.00151,476737212.21163,   0.00194,276737216.19429,  -0.00157,  -0.00079,  -0.00080,  -3.98267,   1.00000
-467825537.56161,-466552816.82521,-54820799.75483,  -0.00279,  -0.00201,  -0.00151,476741966.27472,   0.00194,276741972.77606,  -0.00157,  -0.00079,  -0.00080,  -6.50134,   1.00000
-467102380.70373,-467213352.54331,-54926887.79926,  -0.00279,  -0.00201,  -0.00152,476746652.42059,   0.00195,276746654.96791,  -0.00157,  -0.00080,  -0.00080,  -2.54732,   1.00000
-466370318.41813,-467881000.02736,-55026176.67351,  -0.00278,  -0.00202,  -0.00152,476751228.08588,   0.00195,276751234.31176,  -0.00157,  -0.00080,  -0.00081,  -6.22588,   1.00000
-465637212.01637,-468543830.06689,-55124774.04043,  -0.00278,  -0.00203,  -0.00152,476755821.47189,   0.00196,276755828.02233,  -0.00158,  -0.00080,  -0.00081,  -6.55045,   1.00000
-464880283.75046,-469219008.38395,-55229282.13762,  -0.00278,  -0.00203,  -0.00153,476760223.91386,   0.00196,276760231.93410,  -0.00158,  -0.00081,  -0.00081,  -8.02023,   1.00000
-464145526.20953,-469873235.17291,-55323735.01445,  -0.00278,  -0.00204,  -0.00153,476764631.24787,   0.00196,276764634.73917,  -0.00158,  -0.00081,  -0.00081,  -3.49130,   1.00000
-463374687.32772,-470547269.13074,-55430147.42055,  -0.00277,  -0.00205,  -0.00153,476768962.25036,   0.00197,276768966.68316,  -0.00158,  -0.00081,  -0.00081,  -4.43280,   1.00000
-462602606.48016,-471216330.99138,-55535832.09599,  -0.00277,  -0.00206,  -0.00154,476773305.79885,   0.00197,276773314.16736,  -0.00159,  -0.00081,  -0.00081,  -8.36850,   1.00000
-461820846.93568,-471892374.80387,-55634707.35545,  -0.00277,  -0.00206,  -0.00154,476777551.75301,   0.00198,276777560.94655,  -0.00159,  -0.00082,  -0.00082,  -9.19354,   1.00000
-461022644.37508,-472568568.08950,-55745550.65207,  -0.00277,  -0.00207,  -0.00154,476781730.47643,   0.00198,276781737.08011,  -0.00159,  -0.00082,  -0.00082,  -6.60369,   1.00000
-460222940.13115,-473241226.77762,-55852968.78423,  -0.00276,  -0.00208,  -0.00155,476785703.36380,   0.00198,276785709.16837,  -0.00159,  -0.00082,  -0.00082,  -5.80457,   1.00000
-459409987.56975,-473915811.61420,-55965616.60904,  -0.00276,  -0.00208,  -0.00155,476789814.04942,   0.00199,276789817.03515,  -0.00160,  -0.00082,  -0.00082,  -2.98572,   1.00000
-458586756.36840,-474597214.61659,-56071421.05542,  -0.00276,  -0.00209,  -0.00155,476793817.89547,   0.00199,276793826.02916,  -0.00160,  -0.00083,  -0.00082,  -8.13369,   1.00000
-457770537.60345,-475263302.95170,-56179923.78461,  -0.00276,  -0.00210,  -0.00156,476797741.23233,   0.00200,276797746.81161,  -0.00160,  -0.00083,  -0.00083,  -5.57928,   1.00000
-456919675.78677,-475951429.91652,-56290818.28911,  -0.00275,  -0.00211,  -0.00156,476801582.82449,   0.00200,276801588.90881,  -0.00160,  -0.00083,  -0.00083,  -6.08432,   1.00000
-456067152.80038,-476634256.38689,-56400937.00451,  -0.00275,  -0.00211,  -0.00156,476805443.62706,   0.00200,276805448.79660,  -0.00160,  -0.00083,  -0.00083,  -5.16954,   1.00000
-455221461.58238,-477301890.16582,-56513765.85170,  -0.00275,  -0.00212,  -0.00156,476809214.02168,   0.00201,276809220.67551,  -0.00161,  -0.00084,  -0.00083,  -6.65384,   1.00000
-454340436.20639,-477991123.30047,-56628918.99501,  -0.00274,  -0.00213,  -0.00157,476812912.85238,   0.00201,276812916.44550,  -0.00161,  -0.00084,  -0.00083,  -3.59312,   1.00000
-453466034.86096,-478665185.76156,-56746780.41054,  -0.00274,  -0.00213,  -0.00157,476816518.46416,   0.00201,276816524.64340,  -0.00161,  -0.00084,  -0.00083,  -6.17924,   1.00000
-452568604.01577,-479352062.84755,-56863620.48202,  -0.00274,  -0.00214,  -0.00157,476820156.43737,   0.00202,276820158.17478,  -0.00161,  -0.00084,  -0.00083,  -1.73741,   1.00000
-451680994.95267,-480027410.30666,-56973818.16979,  -0.00273,  -0.00215,  -0.00158,476823683.79289,   0.00202,276823688.89177,  -0.00161,  -0.00085,  -0.00084,  -5.09888,   1.00000
-450766842.34794,-480711777.79324,-57092339.07300,  -0.00273,  -0.00216,  -0.00158,476827258.92782,   0.00202,276827261.29727,  -0.00162,  -0.00085,  -0.00084,  -2.36944,   1.00000
-449849241.62255,-481393112.56413,-57207518.88382,  -0.00273,  -0.00216,  -0.00158,476830623.02436,   0.00203,276830631.99533,  -0.00162,  -0.00085,  -0.00084,  -8.97097,   1.00000
-448904740.11080,-482083084.56913,-57330961.04789,  -0.00272,  -0.00217,  -0.00159,476834039.90837,   0.00203,276834046.22144,  -0.00162,  -0.00085,  -0.00084,  -6.31306,   1.00000
-447969749.31487,-482761709.75315,-57447781.54282,  -0.00272,  -0.00218,  -0.00159,476837357.40884,   0.00203,276837357.84781,  -0.00162,  -0.00085,  -0.00084,  -0.43897,   1.00000
-447019191.25835,-483443099.93797,-57567061.41320,  -0.00271,  -0.00218,  -0.00159,476840585.89476,   0.00204,276840591.18147,  -0.00162,  -0.00086,  -0.00084,  -5.28671,   1.00000
-446041317.40708,-484132620.77263,-57694525.19175,  -0.00271,  -0.00219,  -0.00160,476843867.60507,   0.00204,276843870.40714,  -0.00163,  -0.00086,  -0.00085,  -2.80207,   1.00000
-445072724.83290,-484810931.17145,-57815385.04942,  -0.00271,  -0.00220,  -0.00160,476847044.08593,   0.00204,276847047.14054,  -0.00163,  -0.00086,  -0.00085,  -3.05460,   1.00000
-444088088.93180,-485491798.62231,-57938672.75745,  -0.00270,  -0.00221,  -0.00160,476850145.87506,   0.00204,276850147.05787,  -0.00163,  -0.00086,  -0.00085,  -1.18282,   1.00000
-443087190.90717,-486175105.64556,-58064370.35344,  -0.00270,  -0.00221,  -0.00160,476853167.71478,   0.00205,276853170.87538,  -0.00163,  -0.00086,  -0.00085,  -3.16060,   1.00000
-442075690.96341,-486861272.45648,-58185520.38234,  -0.00269,  -0.00222,  -0.00161,476856315.97022,   0.00205,276856325.65124,  -0.00163,  -0.00087,  -0.00085,  -9.68102,   1.00000
-441055815.08360,-487540979.83308,-58312734.43258,  -0.00269,  -0.00223,  -0.00161,476859287.19040,   0.00205,276859296.16195,  -0.00163,  -0.00087,  -0.00085,  -8.97155,   1.00000
-440022437.52073,-488226580.97113,-58432979.53275,  -0.00268,  -0.00223,  -0.00161,476862169.77061,   0.00206,276862176.46724,  -0.00163,  -0.00087,  -0.00085,  -6.69662,   1.00000
-438983220.96210,-488902450.67588,-58561678.09090,  -0.00268,  -0.00224,  -0.00162,476865088.31288,   0.00206,276865095.13015,  -0.00164,  -0.00087,  -0.00085,  -6.81727,   1.00000
-437926945.98847,-489580377.85771,-58692731.22441,  -0.00267,  -0.00225,  -0.00162,476867934.34946,   0.00206,276867940.18469,  -0.00164,  -0.00087,  -0.00086,  -5.83523,   1.00000
-436848589.74228,-490272262.91384,-58813042.26021,  -0.00267,  -0.00226,  -0.00162,476870797.30102,   0.00206,276870807.04054,  -0.00164,  -0.00088,  -0.00086,  -9.73952,   1.00000
-435772263.66221,-490945845.93821,-58945509.94150,  -0.00267,  -0.00226,  -0.00162,476873595.64984,   0.00207,276873603.07697,  -0.00164,  -0.00088,  -0.00086,  -7.42712,   1.00000
-434681602.13126,-491624974.16581,-59070959.14996,  -0.00266,  -0.00227,  -0.00163,476876308.57644,   0.00207,276876311.27849,  -0.00164,  -0.00088,  -0.00086,  -2.70205,   1.00000
-433569866.85940,-492301966.99586,-59208050.18921,  -0.00265,  -0.00228,  -0.00163,476878954.76009,   0.00207,276878964.15193,  -0.00164,  -0.00088,  -0.00086,  -9.39183,   1.00000
-432458467.03514,-492976350.18503,-59334844.39934,  -0.00265,  -0.00228,  -0.00163,476881622.78098,   0.00207,276881625.86094,  -0.00164,  -0.00088,  -0.00086,  -3.07996,   1.00000
-431328936.93363,-493652220.40344,-59463927.17777,  -0.00264,  -0.00229,  -0.00164,476884215.51799,   0.00208,276884217.24604,  -0.00164,  -0.00089,  -0.00086,  -1.72805,   1.00000
-430181041.32097,-494329434.23288,-59595277.56092,  -0.00264,  -0.00230,  -0.00164,476886735.40976,   0.00208,276886739.08088,  -0.00165,  -0.00089,  -0.00086,  -3.67112,   1.00000
-429014541.24444,-495007843.58111,-59728874.11567,  -0.00263,  -0.00230,  -0.00164,476889184.28606,   0.00208,276889192.15330,  -0.00165,  -0.00089,  -0.00087,  -7.86724,   1.00000
-427844837.20008,-495679536.52805,-59861467.10510,  -0.00263,  -0.00231,  -0.00164,476891667.75495,   0.00208,276891671.60826,  -0.00165,  -0.00089,  -0.00087,  -3.85331,   1.00000
-426671972.42623,-496344512.92524,-59993055.90158,  -0.00262,  -0.00232,  -0.00165,476894176.41817,   0.00209,276894177.48076,  -0.00165,  -0.00089,  -0.00087,  -1.06259,   1.00000
-425464220.01648,-497018155.44356,-60130082.77932,  -0.00262,  -0.00233,  -0.00165,476896517.16076,   0.00209,276896521.93003,  -0.00165,  -0.00089,  -0.00087,  -4.76927,   1.00000
-424253078.47147,-497684849.61485,-60266068.80168,  -0.00261,  -0.00233,  -0.00165,476898890.45519,   0.00209,276898893.95170,  -0.00165,  -0.00090,  -0.00087,  -3.49651,   1.00000
-423038593.81627,-498344594.90757,-60401013.15290,  -0.00261,  -0.00234,  -0.00166,476901287.09796,   0.00209,276901293.58375,  -0.00165,  -0.00090,  -0.00087,  -6.48579,   1.00000
-421804552.33656,-499004970.30385,-60538126.04821,  -0.00260,  -0.00235,  -0.00166,476903624.18768,   0.00209,276903627.55507,  -0.00165,  -0.00090,  -0.00087,  -3.36739,   1.00000
-420561405.85855,-499662632.14719,-60672013.46990,  -0.00259,  -0.00235,  -0.00166,476905758.70568,   0.00210,276905765.88650,  -0.00165,  -0.00090,  -0.00087,  -7.18082,   1.00000
-419287516.07870,-500323795.01474,-60813402.86241,  -0.00259,  -0.00236,  -0.00166,476907967.69787,   0.00210,276907970.88835,  -0.00165,  -0.00090,  -0.00087,  -3.19047,   1.00000
-418013168.38160,-500981598.90681,-60944387.61026,  -0.00258,  -0.00237,  -0.00167,476910181.34162,   0.00210,276910188.79470,  -0.00166,  -0.00090,  -0.00087,  -7.45308,   1.00000
-416715240.31585,-501635501.57627,-61086777.74661,  -0.00257,  -0.00238,  -0.00167,476912353.17325,   0.00210,276912360.36541,  -0.00166,  -0.00091,  -0.00088,  -7.19216,   1.00000
-415399842.00684,-502293275.95849,-61221931.63146,  -0.00257,  -0.00238,  -0.00167,476914448.38276,   0.00210,276914453.33645,  -0.00166,  -0.00091,  -0.00088,  -4.95370,   1.00000
-414084700.11460,-502932801.19165,-61369268.84760,  -0.00256,  -0.00239,  -0.00168,476916475.60228,   0.00211,276916477.71247,  -0.00166,  -0.00091,  -0.00088,  -2.11019,   1.00000
-412761718.86489,-503575498.58963,-61502157.64307,  -0.00256,  -0.00240,  -0.00168,476918627.38653,   0.00211,276918631.84452,  -0.00166,  -0.00091,  -0.00088,  -4.45799,   1.00000
-411400318.71336,-504224969.15512,-61640252.19775,  -0.00255,  -0.00240,  -0.00168,476920633.66591,   0.00211,276920634.08309,  -0.00166,  -0.00091,  -0.00088,  -0.41718,   1.00000
-410041994.77757,-504860168.83801,-61781232.06220,  -0.00254,  -0.00241,  -0.00168,476922550.05567,   0.00211,276922551.43367,  -0.00166,  -0.00091,  -0.00088,  -1.37799,   1.00000
-408654999.35187,-505501043.27407,-61920137.74018,  -0.00254,  -0.00242,  -0.00169,476924517.20184,   0.00211,276924526.76877,  -0.00166,  -0.00091,  -0.00088,  -9.56693,   1.00000
-407263939.92763,-506133954.42448,-62057852.53121,  -0.00253,  -0.00242,  -0.00169,476926534.55121,   0.00212,276926534.68364,  -0.00166,  -0.00092,  -0.00088,  -0.13243,   1.00000
-405857856.76897,-506759621.86313,-62201611.93755,  -0.00252,  -0.00243,  -0.00169,476928361.29594,   0.00212,276928367.33665,  -0.00166,  -0.00092,  -0.00088,  -6.04071,   1.00000
-404440743.09148,-507383392.84859,-62340055.97349,  -0.00251,  -0.00244,  -0.00169,476930344.29706,   0.00212,276930351.00671,  -0.00166,  -0.00092,  -0.00088,  -6.70965,   1.00000
-403008153.67906,-507999831.81536,-62484539.14097,  -0.00251,  -0.00245,  -0.00170,476932154.14987,   0.00212,276932159.96158,  -0.00166,  -0.00092,  -0.00088,  -5.81171,   1.00000
-401546246.37139,-508620789.69078,-62626771.83456,  -0.00250,  -0.00245,  -0.00170,476934025.21219,   0.00212,276934031.98006,  -0.00167,  -0.00092,  -0.00089,  -6.76788,   1.00000
-400068194.33717,-509234134.33079,-62775011.03080,  -0.00249,  -0.00246,  -0.00170,476935728.48028,   0.00212,276935730.61922,  -0.00167,  -0.00092,  -0.00089,  -2.13894,   1.00000
-398582147.84337,-509848940.57241,-62908529.32618,  -0.00249,  -0.00247,  -0.00170,476937557.92470,   0.00213,276937566.51283,  -0.00167,  -0.00092,  -0.00089,  -8.58813,   1.00000
-397095164.49362,-510445304.25202,-63054227.62397,  -0.00248,  -0.00247,  -0.00171,476939328.53558,   0.00213,276939335.49337,  -0.00167,  -0.00093,  -0.00089,  -6.95779,   1.00000
-395581527.02688,-511049483.74078,-63188270.33551,  -0.00247,  -0.00248,  -0.00171,476941145.96681,   0.00213,276941154.05041,  -0.00167,  -0.00093,  -0.00089,  -8.08359,   1.00000
-394047692.16909,-511641576.23710,-63337570.47024,  -0.00246,  -0.00249,  -0.00171,476942813.55672,   0.00213,276942818.00819,  -0.00167,  -0.00093,  -0.00089,  -4.45146,   1.00000
-392493093.84082,-512235413.19735,-63479353.49407,  -0.00246,  -0.00249,  -0.00172,476944409.86934,   0.00213,276944413.44097,  -0.00167,  -0.00093,  -0.00089,  -3.57162,   1.00000
-390924455.79628,-512821423.56731,-63624808.14123,  -0.00245,  -0.00250,  -0.00172,476946176.53727,   0.00213,276946185.04403,  -0.00167,  -0.00093,  -0.00089,  -8.50676,   1.00000
-389360441.91776,-513397308.90818,-63763897.48621,  -0.00244,  -0.00251,  -0.00172,476947849.68230,   0.00214,276947855.44908,  -0.00167,  -0.00093,  -0.00089,  -5.76678,   1.00000
-387752492.05152,-513976429.54954,-63907735.00501,  -0.00243,  -0.00252,  -0.00172,476949388.92034,   0.00214,276949389.78276,  -0.00167,  -0.00093,  -0.00089,  -0.86241,   1.00000
-386133620.08413,-514551382.62003,-64045886.53498,  -0.00242,  -0.00252,  -0.00173,476951084.04452,   0.00214,276951085.32067,  -0.00167,  -0.00093,  -0.00089,  -1.27615,   1.00000
-384515895.52483,-515111828.28580,-64186925.77867,  -0.00242,  -0.00253,  -0.00173,476952689.39928,   0.00214,276952697.94915,  -0.00167,  -0.00094,  -0.00089,  -8.54987,   1.00000
-382873296.56750,-515668832.45605,-64329584.77421,  -0.00241,  -0.00254,  -0.00173,476954260.49377,   0.00214,276954263.82527,  -0.00167,  -0.00094,  -0.00089,  -3.33151,   1.00000
-381205526.87789,-516222098.57442,-64473821.32461,  -0.00240,  -0.00254,  -0.00173,476955776.37172,   0.00214,276955784.21341,  -0.00167,  -0.00094,  -0.00090,  -7.84170,   1.00000
-379532762.78536,-516765693.15449,-64616602.79105,  -0.00239,  -0.00255,  -0.00174,476957340.31681,   0.00215,276957345.38552,  -0.00167,  -0.00094,  -0.00090,  -5.06871,   1.00000
-377834488.56990,-517305202.30191,-64760912.60684,  -0.00238,  -0.00256,  -0.00174,476958859.79843,   0.00215,276958862.58708,  -0.00167,  -0.00094,  -0.00090,  -2.78865,   1.00000
-376131171.12530,-517834834.62794,-64903734.13556,  -0.00237,  -0.00256,  -0.00174,476960412.57359,   0.00215,276960421.57160,  -0.00167,  -0.00094,  -0.00090,  -8.99801,   1.00000
-374402007.10773,-518360025.67933,-65048033.42555,  -0.00237,  -0.00257,  -0.00174,476961932.53488,   0.00215,276961938.13544,  -0.00167,  -0.00094,  -0.00090,  -5.60056,   1.00000
-372646709.16664,-518880471.11015,-65193767.01479,  -0.00236,  -0.00258,  -0.00175,476963410.45716,   0.00215,276963413.56571,  -0.00167,  -0.00094,  -0.00090,  -3.10856,   1.00000
-370889154.86884,-519395058.54887,-65328719.86972,  -0.00235,  -0.00258,  -0.00175,476964907.15305,   0.00215,276964914.20650,  -0.00167,  -0.00094,  -0.00090,  -7.05345,   1.00000
-369102193.83402,-519900115.63358,-65474291.64222,  -0.00234,  -0.00259,  -0.00175,476966387.78024,   0.00215,276966393.70898,  -0.00167,  -0.00095,  -0.00090,  -5.92873,   1.00000
-367312930.39627,-520399146.83405,-65609055.61336,  -0.00233,  -0.00260,  -0.00175,476967891.78937,   0.00216,276967899.26500,  -0.00168,  -0.00095,  -0.00090,  -7.47562,   1.00000
-365493949.25224,-520888230.97277,-65754377.33609,  -0.00232,  -0.00261,  -0.00176,476969384.62050,   0.00216,276969385.50803,  -0.00168,  -0.00095,  -0.00090,  -0.88753,   1.00000
-363672616.60495,-521371106.88145,-65888861.90024,  -0.00231,  -0.00261,  -0.00176,476970895.19677,   0.00216,276970898.71651,  -0.00168,  -0.00095,  -0.00090,  -3.51974,   1.00000
-361824131.66911,-521848076.31290,-66024621.66941,  -0.00231,  -0.00262,  -0.00176,476972370.20003,   0.00216,276972375.76168,  -0.00168,  -0.00095,  -0.00090,  -5.56165,   1.00000
-359949974.30452,-522310215.74974,-66175318.44103,  -0.00230,  -0.00263,  -0.00176,476973704.78106,   0.00216,276973709.32977,  -0.00168,  -0.00095,  -0.00090,  -4.54871,   1.00000
-358068699.45540,-522769919.39701,-66310627.73565,  -0.00229,  -0.00263,  -0.00177,476975193.33319,   0.00216,276975199.03230,  -0.00168,  -0.00095,  -0.00090,  -5.69911,   1.00000
-356159667.47379,-523222972.67841,-66447104.15164,  -0.00228,  -0.00264,  -0.00177,476976646.03217,   0.00216,276976655.75768,  -0.00168,  -0.00095,  -0.00090,  -9.72551,   1.00000
-354249559.62558,-523660822.72177,-66586404.47626,  -0.00227,  -0.00265,  -0.00177,476978028.51854,   0.00216,276978032.46794,  -0.00168,  -0.00096,  -0.00091,  -3.94940,   1.00000
-352307089.01055,-524095557.73879,-66722280.09965,  -0.00226,  -0.00265,  -0.00177,476979503.00133,   0.00217,276979506.54406,  -0.00168,  -0.00096,  -0.00091,  -3.54273,   1.00000
-350363315.12697,-524514982.10495,-66860967.12715,  -0.00225,  -0.00266,  -0.00178,476980898.83223,   0.00217,276980901.02666,  -0.00168,  -0.00096,  -0.00091,  -2.19444,   1.00000
-348387084.25673,-524930736.25751,-66996140.19008,  -0.00224,  -0.00267,  -0.00178,476982387.62492,   0.00217,276982395.52630,  -0.00168,  -0.00096,  -0.00091,  -7.90138,   1.00000
-346386043.65760,-525334929.17893,-67136882.34263,  -0.00223,  -0.00267,  -0.00178,476983725.35635,   0.00217,276983732.19748,  -0.00168,  -0.00096,  -0.00091,  -6.84113,   1.00000
-344375697.33373,-525730917.55291,-67271230.82804,  -0.00222,  -0.00268,  -0.00178,476985243.72803,   0.00217,276985250.76372,  -0.00168,  -0.00096,  -0.00091,  -7.03569,   1.00000
-342366343.34537,-526115980.07155,-67399170.66530,  -0.00221,  -0.00269,  -0.00179,476986664.26723,   0.00217,276986671.10662,  -0.00168,  -0.00096,  -0.00091,  -6.83939,   1.00000
-340325145.03868,-526488113.19642,-67537232.59804,  -0.00220,  -0.00270,  -0.00179,476988079.05336,   0.00217,276988085.11288,  -0.00168,  -0.00096,  -0.00091,  -6.05951,   1.00000
-338251210.51710,-526855055.11830,-67671536.08161,  -0.00219,  -0.00270,  -0.00179,476989602.34590,   0.00218,276989606.43670,  -0.00168,  -0.00096,  -0.00091,  -4.09080,   1.00000
-336177779.29092,-527210791.95662,-67799396.28108,  -0.00218,  -0.00271,  -0.00179,476991026.74427,   0.00218,276991030.54819,  -0.00168,  -0.00097,  -0.00091,  -3.80392,   1.00000
-334071995.77202,-527552730.74907,-67937247.84883,  -0.00217,  -0.00272,  -0.00180,476992450.02348,   0.00218,276992452.15904,  -0.00168,  -0.00097,  -0.00091,  -2.13556,   1.00000
-331963362.55478,-527886791.40510,-68063997.84570,  -0.00216,  -0.00272,  -0.00180,476993907.40740,   0.00218,276993909.08214,  -0.00168,  -0.00097,  -0.00091,  -1.67474,   1.00000
-329824763.02780,-528211216.10611,-68191480.85209,  -0.00215,  -0.00273,  -0.00180,476995343.92719,   0.00218,276995345.90126,  -0.00168,  -0.00097,  -0.00091,  -1.97407,   1.00000
-327678061.63411,-528518216.92273,-68326196.19374,  -0.00214,  -0.00274,  -0.00180,476996855.43495,   0.00218,276996858.95105,  -0.00168,  -0.00097,  -0.00091,  -3.51609,   1.00000
-325503740.21870,-528819772.13652,-68452384.77258,  -0.00213,  -0.00274,  -0.00180,476998332.81680,   0.00218,276998334.15713,  -0.00168,  -0.00097,  -0.00091,  -1.34034,   1.00000
-323323983.41324,-529108343.21591,-68576585.76897,  -0.00212,  -0.00275,  -0.00181,476999857.72779,   0.00219,276999866.96669,  -0.00168,  -0.00097,  -0.00092,  -9.23891,   1.00000
-321113725.53776,-529386310.36204,-68701373.66728,  -0.00211,  -0.00276,  -0.00181,477001379.65183,   0.00219,277001384.02166,  -0.00168,  -0.00097,  -0.00092,  -4.36983,   1.00000
-318874901.42960,-529650136.75739,-68831404.11857,  -0.00210,  -0.00276,  -0.00181,477002747.95537,   0.00219,277002752.30585,  -0.00168,  -0.00098,  -0.00092,  -4.35047,   1.00000
-316628452.82857,-529903648.02637,-68954649.13513,  -0.00209,  -0.00277,  -0.00181,477004310.27561,   0.00219,277004315.46981,  -0.00168,  -0.00098,  -0.00092,  -5.19420,   1.00000
-314376707.29812,-530143737.50301,-69075829.72341,  -0.00208,  -0.00278,  -0.00182,477005937.77256,   0.00219,277005938.83461,  -0.00168,  -0.00098,  -0.00092,  -1.06204,   1.00000
-312095707.86357,-530369160.34969,-69202184.26934,  -0.00207,  -0.00278,  -0.00182,477007406.13904,   0.00219,277007415.28763,  -0.00168,  -0.00098,  -0.00092,  -9.14858,   1.00000
-309781724.31132,-530585613.21653,-69324164.71383,  -0.00206,  -0.00279,  -0.00182,477009017.68464,   0.00219,277009018.20416,  -0.00168,  -0.00098,  -0.00092,  -0.51951,   1.00000
-307492548.68532,-530788448.91565,-69437141.38601,  -0.00205,  -0.00280,  -0.00182,477010588.81440,   0.00220,277010597.26156,  -0.00168,  -0.00098,  -0.00092,  -8.44717,   1.00000
-305143203.64105,-530975659.38185,-69562064.99187,  -0.00204,  -0.00280,  -0.00183,477012111.46355,   0.00220,277012118.45295,  -0.00168,  -0.00098,  -0.00092,  -6.98939,   1.00000
-302787352.43193,-531151690.17659,-69680028.71860,  -0.00202,  -0.00281,  -0.00183,477013840.43709,   0.00220,277013840.86192,  -0.00168,  -0.00098,  -0.00092,  -0.42483,   1.00000
-300429883.09079,-531315493.17416,-69791436.24885,  -0.00201,  -0.00282,  -0.00183,477015461.13647,   0.00220,277015469.25205,  -0.00168,  -0.00099,  -0.00092,  -8.11558,   1.00000
-298040582.12131,-531466174.42709,-69903052.70055,  -0.00200,  -0.00282,  -0.00183,477017091.38972,   0.00220,277017093.26976,  -0.00168,  -0.00099,  -0.00092,  -1.88004,   1.00000
-295616876.95768,-531598485.61805,-70023960.63823,  -0.00199,  -0.00283,  -0.00183,477018730.16703,   0.00220,277018735.90738,  -0.00168,  -0.00099,  -0.00092,  -5.74035,   1.00000
-293190389.02315,-531721044.32175,-70133454.89109,  -0.00198,  -0.00284,  -0.00184,477020416.58461,   0.00220,277020424.35023,  -0.00168,  -0.00099,  -0.00092,  -7.76562,   1.00000
-290758937.56492,-531829103.81168,-70240699.03653,  -0.00197,  -0.00284,  -0.00184,477022177.31259,   0.00221,277022179.58797,  -0.00168,  -0.00099,  -0.00093,  -2.27538,   1.00000
-288295258.42891,-531922947.53750,-70347981.61270,  -0.00196,  -0.00285,  -0.00184,477023930.29692,   0.00221,277023935.69441,  -0.00168,  -0.00099,  -0.00093,  -5.39749,   1.00000
-285826833.99711,-531999266.75978,-70457799.79066,  -0.00195,  -0.00286,  -0.00184,477025615.04918,   0.00221,277025620.38903,  -0.00168,  -0.00099,  -0.00093,  -5.33985,   1.00000
-283325928.05678,-532063646.94188,-70562742.67465,  -0.00194,  -0.00286,  -0.00185,477027442.93443,   0.00221,277027448.27443,  -0.00168,  -0.00100,  -0.00093,  -5.34000,   1.00000
-280792211.55044,-532110064.93812,-70672411.90052,  -0.00192,  -0.00287,  -0.00185,477029134.08420,   0.00221,277029141.24842,  -0.00168,  -0.00100,  -0.00093,  -7.16421,   1.00000
-278282044.72223,-532144448.52042,-70772664.11037,  -0.00191,  -0.00288,  -0.00185,477031105.10729,   0.00221,277031109.70753,  -0.00168,  -0.00100,  -0.00093,  -4.60024,   1.00000
-275710610.50061,-532160099.89237,-70879790.39982,  -0.00190,  -0.00288,  -0.00185,477032871.71436,   0.00222,277032880.77428,  -0.00168,  -0.00100,  -0.00093,  -9.05992,   1.00000
-273163518.50788,-532163828.17467,-70977495.31887,  -0.00189,  -0.00289,  -0.00185,477034923.94114,   0.00222,277034928.34449,  -0.00168,  -0.00100,  -0.00093,  -4.40335,   1.00000
-270556520.66464,-532152806.42447,-71072815.80991,  -0.00188,  -0.00290,  -0.00186,477036753.23073,   0.00222,277036760.14497,  -0.00168,  -0.00100,  -0.00093,  -6.91424,   1.00000
-267971475.18424,-532122353.36819,-71172719.12834,  -0.00187,  -0.00290,  -0.00186,477038747.16872,   0.00222,277038749.08735,  -0.00168,  -0.00100,  -0.00093,  -1.91864,   1.00000
-265355564.81671,-532080277.40213,-71263167.19247,  -0.00185,  -0.00291,  -0.00186,477040723.45719,   0.00222,277040728.32489,  -0.00168,  -0.00101,  -0.00093,  -4.86771,   1.00000
-262704490.26503,-532016416.05762,-71362364.27845,  -0.00184,  -0.00292,  -0.00186,477042740.09085,   0.00223,277042743.53544,  -0.00168,  -0.00101,  -0.00093,  -3.44458,   1.00000
-260051271.04752,-531941634.09779,-71449938.76090,  -0.00183,  -0.00292,  -0.00186,477044807.99673,   0.00223,277044812.68089,  -0.00168,  -0.00101,  -0.00094,  -4.68415,   1.00000
-257363086.22467,-531846577.03061,-71541919.12826,  -0.00182,  -0.00293,  -0.00187,477046750.08358,   0.00223,277046755.56899,  -0.00168,  -0.00101,  -0.00094,  -5.48541,   1.00000
-254670690.65118,-531733454.37170,-71635621.30905,  -0.00181,  -0.00294,  -0.00187,477048936.51347,   0.00223,277048941.25138,  -0.00168,  -0.00101,  -0.00094,  -4.73791,   1.00000
-251974361.93260,-531606462.37250,-71722554.20081,  -0.00179,  -0.00294,  -0.00187,477051029.86499,   0.00223,277051038.53891,  -0.00168,  -0.00101,  -0.00094,  -8.67391,   1.00000
-249246931.16504,-531464182.87059,-71804022.33555,  -0.00178,  -0.00295,  -0.00187,477053295.38277,   0.00224,277053300.35768,  -0.00168,  -0.00102,  -0.00094,  -4.97492,   1.00000
-246513449.74541,-531302925.55187,-71887822.19512,  -0.00177,  -0.00296,  -0.00187,477055488.91886,   0.00224,277055496.90659,  -0.00168,  -0.00102,  -0.00094,  -7.98774,   1.00000
-243746521.21352,-531122980.37043,-71970951.07572,  -0.00176,  -0.00296,  -0.00188,477057712.94011,   0.00224,277057716.86366,  -0.00168,  -0.00102,  -0.00094,  -3.92355,   1.00000
-240977914.87010,-530931595.96516,-72042362.13176,  -0.00174,  -0.00297,  -0.00188,477059987.77878,   0.00224,277059995.00340,  -0.00168,  -0.00102,  -0.00094,  -7.22462,   1.00000
-238204141.90778,-530719097.99962,-72120317.78479,  -0.00173,  -0.00297,  -0.00188,477062372.84303,   0.00224,277062376.11898,  -0.00168,  -0.00102,  -0.00094,  -3.27596,   1.00000
-235396959.83563,-530487258.93621,-72197493.01142,  -0.00172,  -0.00298,  -0.00188,477064782.39312,   0.00225,277064784.48879,  -0.00168,  -0.00103,  -0.00094,  -2.09567,   1.00000
-232558050.10199,-530240513.49107,-72264696.93910,  -0.00171,  -0.00299,  -0.00188,477067194.62048,   0.00225,277067199.83933,  -0.00168,  -0.00103,  -0.00095,  -5.21885,   1.00000
-229710778.50767,-529969179.75929,-72343248.90021,  -0.00169,  -0.00299,  -0.00189,477069572.88646,   0.00225,277069575.66853,  -0.00168,  -0.00103,  -0.00095,  -2.78207,   1.00000
-226865985.57453,-529689166.45564,-72405126.69562,  -0.00168,  -0.00300,  -0.00189,477072154.70041,   0.00225,277072158.91940,  -0.00168,  -0.00103,  -0.00095,  -4.21898,   1.00000
-223983817.81928,-529385634.19444,-72470944.13980,  -0.00167,  -0.00301,  -0.00189,477074625.32013,   0.00226,277074628.99315,  -0.00168,  -0.00103,  -0.00095,  -3.67303,   1.00000
-221098900.50616,-529065301.62163,-72534067.78512,  -0.00166,  -0.00301,  -0.00189,477077177.89566,   0.00226,277077184.56230,  -0.00168,  -0.00104,  -0.00095,  -6.66664,   1.00000
-218211453.43014,-528728278.67630,-72594509.97003,  -0.00164,  -0.00302,  -0.00189,477079818.84994,   0.00226,277079825.62771,  -0.00168,  -0.00104,  -0.00095,  -6.77777,   1.00000
-215288912.33591,-528365276.57206,-72663000.49715,  -0.00163,  -0.00303,  -0.00190,477082519.56693,   0.00226,277082526.87575,  -0.00168,  -0.00104,  -0.00095,  -7.30882,   1.00000
-212367314.14751,-527995195.73043,-72710538.47759,  -0.00162,  -0.00303,  -0.00190,477085263.29125,   0.00227,277085269.36467,  -0.00168,  -0.00104,  -0.00095,  -6.07342,   1.00000
-209410709.98264,-527598609.09805,-72766046.78613,  -0.00160,  -0.00304,  -0.00190,477088074.84069,   0.00227,277088075.24634,  -0.00168,  -0.00105,  -0.00095,  -0.40565,   1.00000
-206447077.96584,-527181655.94097,-72823679.42718,  -0.00159,  -0.00304,  -0.00190,477090816.08330,   0.00227,277090822.26582,  -0.00168,  -0.00105,  -0.00096,  -6.18252,   1.00000
-203449903.02934,-526742489.14863,-72880056.61156,  -0.00158,  -0.00305,  -0.00190,477093609.82258,   0.00227,277093612.88303,  -0.00168,  -0.00105,  -0.00096,  -3.06045,   1.00000
-200489611.57727,-526299925.55149,-72918195.64633,  -0.00157,  -0.00306,  -0.00191,477096654.89069,   0.00228,277096663.67964,  -0.00168,  -0.00105,  -0.00096,  -8.78894,   1.00000
-197457201.77367,-525821015.19948,-72970484.34919,  -0.00155,  -0.00306,  -0.00191,477099586.06259,   0.00228,277099590.71342,  -0.00168,  -0.00106,  -0.00096,  -4.65084,   1.00000
-194456690.25075,-525335489.02568,-73009430.53640,  -0.00154,  -0.00307,  -0.00191,477102620.81410,   0.00228,277102629.70206,  -0.00168,  -0.00106,  -0.00096,  -8.88796,   1.00000
-191416883.60569,-524823429.41651,-73051869.54726,  -0.00153,  -0.00308,  -0.00191,477105561.72058,   0.00228,277105568.24859,  -0.00168,  -0.00106,  -0.00096,  -6.52801,   1.00000
-188348566.42318,-524286807.63427,-73097113.42575,  -0.00151,  -0.00308,  -0.00191,477108723.97603,   0.00229,277108730.29940,  -0.00168,  -0.00106,  -0.00096,  -6.32338,   1.00000
-185306502.02482,-523740397.61138,-73133936.63787,  -0.00150,  -0.00309,  -0.00192,477111853.54883,   0.00229,277111854.19246,  -0.00168,  -0.00107,  -0.00096,  -0.64363,   1.00000
-182205535.73961,-523167624.37839,-73165723.55536,  -0.00149,  -0.00309,  -0.00192,477115135.45531,   0.00229,277115140.42754,  -0.00168,  -0.00107,  -0.00097,  -4.97223,   1.00000
-179129643.76595,-522580365.11612,-73198232.21820,  -0.00147,  -0.00310,  -0.00192,477118409.03270,   0.00230,277118411.69659,  -0.00168,  -0.00107,  -0.00097,  -2.66389,   1.00000
-176021975.18923,-521973885.02927,-73220062.24073,  -0.00146,  -0.00311,  -0.00192,477121714.77059,   0.00230,277121715.27212,  -0.00168,  -0.00107,  -0.00097,  -0.50153,   1.00000
-172912793.24864,-521345330.41724,-73248174.40862,  -0.00145,  -0.00311,  -0.00192,477125136.04914,   0.00230,277125138.21499,  -0.00168,  -0.00108,  -0.00097,  -2.16585,   1.00000
-169763347.59946,-520688104.22755,-73279443.72374,  -0.00143,  -0.00312,  -0.00192,477128463.89705,   0.00231,277128470.69245,  -0.00167,  -0.00108,  -0.00097,  -6.79541,   1.00000
-166622583.07089,-520022477.98163,-73293913.55994,  -0.00142,  -0.00312,  -0.00193,477132023.19059,   0.00231,277132026.86996,  -0.00167,  -0.00108,  -0.00097,  -3.67937,   1.00000
-163473174.07942,-519330571.79323,-73319457.27074,  -0.00140,  -0.00313,  -0.00193,477135549.83736,   0.00231,277135554.07502,  -0.00167,  -0.00109,  -0.00097,  -4.23766,   1.00000
-160292183.61257,-518618288.76029,-73334117.15126,  -0.00139,  -0.00314,  -0.00193,477139113.68929,   0.00232,277139121.14001,  -0.00167,  -0.00109,  -0.00098,  -7.45072,   1.00000
-157111698.42288,-517888642.29036,-73345899.59334,  -0.00138,  -0.00314,  -0.00193,477142777.76362,   0.00232,277142787.31808,  -0.00167,  -0.00109,  -0.00098,  -9.55447,   1.00000
-153931961.31374,-517141801.06751,-73354826.04727,  -0.00136,  -0.00315,  -0.00193,477146550.78170,   0.00232,277146552.45805,  -0.00167,  -0.00109,  -0.00098,  -1.67635,   1.00000
-150711290.08590,-516364625.16903,-73366659.21811,  -0.00135,  -0.00315,  -0.00193,477150228.25714,   0.00233,277150235.08569,  -0.00167,  -0.00110,  -0.00098,  -6.82855,   1.00000
-147500423.73390,-515574809.15972,-73370837.98252,  -0.00134,  -0.00316,  -0.00194,477154163.37171,   0.00233,277154169.15564,  -0.00167,  -0.00110,  -0.00098,  -5.78393,   1.00000
-144281919.10568,-514763082.15240,-73376903.31968,  -0.00132,  -0.00316,  -0.00194,477158052.82161,   0.00233,277158053.14678,  -0.00167,  -0.00110,  -0.00098,  -0.32517,   1.00000
-141064858.80427,-513934298.09748,-73380106.60442,  -0.00131,  -0.00317,  -0.00194,477162035.46642,   0.00234,277162037.83726,  -0.00167,  -0.00111,  -0.00099,  -2.37084,   1.00000
-137816775.03013,-513083931.55157,-73372218.43116,  -0.00129,  -0.00318,  -0.00194,477166070.50631,   0.00234,277166071.47415,  -0.00167,  -0.00111,  -0.00099,  -0.96784,   1.00000
-134526431.47919,-512196998.16633,-73376120.44998,  -0.00128,  -0.00318,  -0.00194,477170049.85260,   0.00235,277170054.36634,  -0.00167,  -0.00111,  -0.00099,  -4.51374,   1.00000
-131282301.69167,-511312400.42244,-73362463.11310,  -0.00127,  -0.00319,  -0.00194,477174284.44367,   0.00235,277174293.78746,  -0.00167,  -0.00112,  -0.00099,  -9.34379,   1.00000
-127996700.74768,-510395714.59516,-73351444.86761,  -0.00125,  -0.00319,  -0.00195,477178453.75494,   0.00235,277178459.63992,  -0.00166,  -0.00112,  -0.00099,  -5.88497,   1.00000
-124713435.62967,-509461945.98922,-73337541.33127,  -0.00124,  -0.00320,  -0.00195,477182722.58782,   0.00236,277182729.53962,  -0.00166,  -0.00112,  -0.00099,  -6.95180,   1.00000
-121398868.19462,-508500864.77851,-73321483.17142,  -0.00122,  -0.00320,  -0.00195,477187075.37265,   0.00236,277187080.54356,  -0.00166,  -0.00113,  -0.00100,  -5.17091,   1.00000
-118076463.94226,-507517048.80753,-73307177.28869,  -0.00121,  -0.00321,  -0.00195,477191381.29257,   0.00237,277191386.36702,  -0.00166,  -0.00113,  -0.00100,  -5.07445,   1.00000
-114756908.99918,-506516185.78173,-73289967.02975,  -0.00119,  -0.00322,  -0.00195,477195788.52418,   0.00237,277195798.02633,  -0.00166,  -0.00113,  -0.00100,  -9.50215,   1.00000
-111452082.68605,-505508984.65039,-73256133.54316,  -0.00118,  -0.00322,  -0.00195,477200434.24814,   0.00237,277200441.66386,  -0.00166,  -0.00114,  -0.00100,  -7.41572,   1.00000
-108093634.21605,-504457448.49141,-73238419.15979,  -0.00117,  -0.00323,  -0.00195,477204893.42083,   0.00238,277204894.14886,  -0.00166,  -0.00114,  -0.00100,  -0.72804,   1.00000
-104750529.82313,-503399620.47256,-73204060.62636,  -0.00115,  -0.00323,  -0.00196,477209574.41091,   0.00238,277209580.61388,  -0.00166,  -0.00115,  -0.00100,  -6.20297,   1.00000
-101410683.82615,-502320564.57387,-73175979.98995,  -0.00114,  -0.00324,  -0.00196,477214392.67586,   0.00239,277214398.40233,  -0.00166,  -0.00115,  -0.00101,  -5.72647,   1.00000
-98029343.21513,-501211493.78464,-73140992.76371,  -0.00112,  -0.00324,  -0.00196,477219126.34849,   0.00239,277219131.76064,  -0.00165,  -0.00115,  -0.00101,  -5.41215,   1.00000
-94652079.83421,-500085644.24288,-73103117.18951,  -0.00111,  -0.00325,  -0.00196,477223971.21310,   0.00240,277223974.00222,  -0.00165,  -0.00116,  -0.00101,  -2.78911,   1.00000
-91266938.56998,-498936611.39253,-73066918.47258,  -0.00109,  -0.00325,  -0.00196,477228774.20243,   0.00240,277228774.35081,  -0.00165,  -0.00116,  -0.00101,  -0.14838,   1.00000
-87898571.17241,-497777761.57247,-73023327.27948,  -0.00108,  -0.00326,  -0.00196,477233824.98260,   0.00241,277233834.02759,  -0.00165,  -0.00117,  -0.00101,  -9.04499,   1.00000
-84488424.28695,-496587839.21129,-72972672.14205,  -0.00106,  -0.00326,  -0.00196,477238812.83343,   0.00241,277238814.74470,  -0.00165,  -0.00117,  -0.00102,  -1.91127,   1.00000
-81117182.35978,-495389677.71520,-72927959.44998,  -0.00105,  -0.00327,  -0.00197,477243938.71792,   0.00242,277243941.39673,  -0.00165,  -0.00117,  -0.00102,  -2.67881,   1.00000
-77682513.49412,-494154163.00086,-72871931.90062,  -0.00104,  -0.00328,  -0.00197,477249125.35818,   0.00242,277249131.39538,  -0.00165,  -0.00118,  -0.00102,  -6.03720,   1.00000
-74274480.10722,-492908106.64863,-72817231.37863,  -0.00102,  -0.00328,  -0.00197,477254286.71739,   0.00243,277254292.16592,  -0.00164,  -0.00118,  -0.00102,  -5.44854,   1.00000
-70850496.00885,-491635628.25543,-72764663.25548,  -0.00101,  -0.00329,  -0.00197,477259724.14749,   0.00243,277259729.35536,  -0.00164,  -0.00119,  -0.00102,  -5.20787,   1.00000
-67453523.26895,-490357602.97153,-72704351.47244,  -0.00099,  -0.00329,  -0.00197,477265101.15481,   0.00244,277265110.34721,  -0.00164,  -0.00119,  -0.00103,  -9.19239,   1.00000
-63979887.93453,-489033278.86207,-72636915.84760,  -0.00098,  -0.00330,  -0.00197,477270409.88145,   0.00244,277270414.38714,  -0.00164,  -0.00120,  -0.00103,  -4.50569,   1.00000
-60560514.27899,-487709980.68168,-72571229.60226,  -0.00096,  -0.00330,  -0.00197,477276004.00097,   0.00245,277276011.21430,  -0.00164,  -0.00120,  -0.00103,  -7.21333,   1.00000
-57098904.26622,-486349137.10057,-72507285.28920,  -0.00095,  -0.00331,  -0.00198,477281556.80650,   0.00245,277281565.46712,  -0.00164,  -0.00120,  -0.00103,  -8.66062,   1.00000
-53678400.98409,-484991112.33910,-72431294.06129,  -0.00093,  -0.00331,  -0.00198,477287208.56152,   0.00246,277287210.98221,  -0.00163,  -0.00121,  -0.00103,  -2.42069,   1.00000
-50229958.30170,-483599020.14487,-72361804.23790,  -0.00092,  -0.00332,  -0.00198,477292986.03389,   0.00246,277292989.77934,  -0.00163,  -0.00121,  -0.00104,  -3.74546,   1.00000
-46739326.88064,-482172859.34829,-72284753.28166,  -0.00090,  -0.00332,  -0.00198,477298703.91012,   0.00247,277298706.64480,  -0.00163,  -0.00122,  -0.00104,  -2.73468,   1.00000
-43290304.61690,-480745828.95082,-72204904.25610,  -0.00089,  -0.00333,  -0.00198,477304529.35704,   0.00247,277304538.00998,  -0.00163,  -0.00122,  -0.00104,  -8.65293,   1.00000
-39813994.16329,-479288689.35402,-72122315.44295,  -0.00087,  -0.00333,  -0.00198,477310475.42246,   0.00248,277310482.70088,  -0.00163,  -0.00123,  -0.00104,  -7.27842,   1.00000
-36329968.77740,-477811747.58931,-72032088.28386,  -0.00086,  -0.00334,  -0.00198,477316364.81680,   0.00248,277316368.50793,  -0.00162,  -0.00123,  -0.00105,  -3.69114,   1.00000
-32869003.52822,-476324356.00080,-71944062.21404,  -0.00084,  -0.00334,  -0.00198,477322533.34420,   0.00249,277322540.97197,  -0.00162,  -0.00124,  -0.00105,  -7.62777,   1.00000
-29384810.86493,-474808148.15982,-71852633.62062,  -0.00083,  -0.00334,  -0.00198,477328503.14262,   0.00250,277328506.45405,  -0.00162,  -0.00124,  -0.00105,  -3.31143,   1.00000
-25889907.41657,-473266401.31885,-71763324.55843,  -0.00081,  -0.00335,  -0.00199,477334761.84419,   0.00250,277334763.41123,  -0.00162,  -0.00125,  -0.00105,  -1.56704,   1.00000
-22421788.47794,-471720474.36485,-71666500.31038,  -0.00080,  -0.00335,  -0.00199,477340955.33155,   0.00251,277340957.12348,  -0.00161,  -0.00125,  -0.00105,  -1.79194,   1.00000
-18927556.61415,-470144020.98080,-71566831.39116,  -0.00078,  -0.00336,  -0.00199,477347262.85542,   0.00251,277347271.53500,  -0.00161,  -0.00126,  -0.00106,  -8.67958,   1.00000
-15441992.70627,-468553046.05952,-71464506.96812,  -0.00077,  -0.00336,  -0.00199,477353691.36442,   0.00252,277353700.72011,  -0.00161,  -0.00126,  -0.00106,  -9.35569,   1.00000
-11914211.40554,-466925553.27401,-71354227.04512,  -0.00075,  -0.00337,  -0.00199,477360082.25754,   0.00253,277360083.00298,  -0.00161,  -0.00127,  -0.00106,  -0.74545,   1.00000
-8446769.55955,-465306051.62123,-71246664.59505,  -0.00074,  -0.00337,  -0.00199,477366733.49363,   0.00253,277366742.02037,  -0.00160,  -0.00127,  -0.00106,  -8.52674,   1.00000
-4920441.17620,-463639555.91637,-71135174.31485,  -0.00072,  -0.00338,  -0.00199,477373204.59392,   0.00254,277373210.12253,  -0.00160,  -0.00128,  -0.00107,  -5.52861,   1.00000
-1455099.37969,-461982053.20571,-71026535.00619,  -0.00071,  -0.00338,  -0.00199,477379944.09514,   0.00254,277379951.98450,  -0.00160,  -0.00128,  -0.00107,  -7.88937,   1.00000
2052405.85898,-460287402.55574,-70909822.57863,  -0.00069,  -0.00339,  -0.00199,477386646.96191,   0.00255,277386651.28397,  -0.00160,  -0.00129,  -0.00107,  -4.32206,   1.00000
5584376.54405,-458561708.84929,-70790127.57788,  -0.00067,  -0.00339,  -0.00199,477393479.03227,   0.00256,277393481.25451,  -0.00159,  -0.00129,  -0.00107,  -2.22224,   1.00000
9089823.05646,-456832609.59814,-70663062.75811,  -0.00066,  -0.00339,  -0.00199,477400241.91257,   0.00256,277400243.65094,  -0.00159,  -0.00130,  -0.00108,  -1.73837,   1.00000
12584717.89780,-455086000.67441,-70542664.02009,  -0.00064,  -0.00340,  -0.00200,477407136.95260,   0.00257,277407145.97824,  -0.00159,  -0.00130,  -0.00108,  -9.02564,   1.00000
16103944.76690,-453312349.08597,-70410067.49420,  -0.00063,  -0.00340,  -0.00200,477414152.19528,   0.00258,277414157.02185,  -0.00159,  -0.00131,  -0.00108,  -4.82656,   1.00000
19595796.64293,-451527898.34840,-70288586.27307,  -0.00061,  -0.00341,  -0.00200,477421138.18770,   0.00258,277421146.38047,  -0.00158,  -0.00131,  -0.00108,  -8.19277,   1.00000
23093597.94087,-449727947.46333,-70150992.15511,  -0.00060,  -0.00341,  -0.00200,477428384.67980,   0.00259,277428389.47570,  -0.00158,  -0.00132,  -0.00109,  -4.79590,   1.00000
26616760.21228,-447891608.85404,-70018675.94431,  -0.00058,  -0.00342,  -0.00200,477435455.01251,   0.00260,277435462.80177,  -0.00158,  -0.00133,  -0.00109,  -7.78925,   1.00000
30110523.60593,-446054243.13393,-69880037.68805,  -0.00057,  -0.00342,  -0.00200,477442789.52442,   0.00260,277442795.10692,  -0.00157,  -0.00133,  -0.00109,  -5.58250,   1.00000
33645987.09022,-444177545.98224,-69732961.78937,  -0.00055,  -0.00342,  -0.00200,477450096.51242,   0.00261,277450100.14120,  -0.00157,  -0.00134,  -0.00109,  -3.62878,   1.00000
37154018.32094,-442290610.59513,-69597089.38103,  -0.00054,  -0.00343,  -0.00200,477457373.27867,   0.00262,277457381.17185,  -0.00157,  -0.00134,  -0.00110,  -7.89318,   1.00000
40632383.34361,-440407493.78136,-69445815.56952,  -0.00052,  -0.00343,  -0.00200,477464889.98672,   0.00262,277464895.01953,  -0.00156,  -0.00135,  -0.00110,  -5.03281,   1.00000
44151622.19259,-438480785.57798,-69295247.54329,  -0.00051,  -0.00343,  -0.00200,477472404.48336,   0.00263,277472409.46345,  -0.00156,  -0.00135,  -0.00110,  -4.98009,   1.00000
47677871.28968,-436529017.27583,-69146005.01617,  -0.00049,  -0.00344,  -0.00200,477479891.37082,   0.00264,277479900.81232,  -0.00156,  -0.00136,  -0.00110,  -9.44149,   1.00000
51191925.69418,-434565086.67743,-68994371.22503,  -0.00047,  -0.00344,  -0.00200,477487508.97162,   0.00265,277487509.52246,  -0.00155,  -0.00137,  -0.00111,  -0.55084,   1.00000
54694377.21652,-432592898.39417,-68831151.92543,  -0.00046,  -0.00345,  -0.00200,477495206.50188,   0.00265,277495211.10300,  -0.00155,  -0.00137,  -0.00111,  -4.60112,   1.00000
58184276.51252,-430609034.54830,-68665639.90579,  -0.00044,  -0.00345,  -0.00200,477503022.09920,   0.00266,277503028.81148,  -0.00155,  -0.00138,  -0.00111,  -6.71228,   1.00000
61680262.86787,-428596602.47988,-68510716.65294,  -0.00043,  -0.00345,  -0.00201,477510846.45156,   0.00267,277510847.54632,  -0.00154,  -0.00138,  -0.00111,  -1.09476,   1.00000
65164240.43750,-426576414.42186,-68344264.02493,  -0.00041,  -0.00346,  -0.00201,477518752.38831,   0.00268,277518758.38875,  -0.00154,  -0.00139,  -0.00112,  -6.00044,   1.00000
68656002.59743,-424534754.30254,-68169896.32416,  -0.00040,  -0.00346,  -0.00201,477526614.74730,   0.00268,277526623.35676,  -0.00154,  -0.00139,  -0.00112,  -8.60946,   1.00000
72133730.63914,-422478457.67087,-68002558.20928,  -0.00038,  -0.00346,  -0.00201,477534620.03017,   0.00269,277534627.82085,  -0.00153,  -0.00140,  -0.00112,  -7.79067,   1.00000
75652334.46190,-420380400.47962,-67826340.44765,  -0.00037,  -0.00347,  -0.00201,477542618.88424,   0.00270,277542623.70786,  -0.00153,  -0.00141,  -0.00113,  -4.82362,   1.00000
79123358.40725,-418288134.42349,-67658093.50051,  -0.00035,  -0.00347,  -0.00201,477550713.61164,   0.00271,277550723.53997,  -0.00153,  -0.00141,  -0.00113,  -9.92833,   1.00000
82614657.18919,-416168402.84033,-67477437.99893,  -0.00033,  -0.00347,  -0.00201,477558943.95926,   0.00271,277558953.10084,  -0.00152,  -0.00142,  -0.00113,  -9.14158,   1.00000
86112546.20025,-414023352.48709,-67298049.30985,  -0.00032,  -0.00348,  -0.00201,477567162.19763,   0.00272,277567164.16591,  -0.00152,  -0.00143,  -0.00113,  -1.96828,   1.00000
89564630.79846,-411891928.15834,-67108253.09581,  -0.00030,  -0.00348,  -0.00201,477575423.30730,   0.00273,277575427.92317,  -0.00151,  -0.00143,  -0.00114,  -4.61588,   1.00000
93034265.42068,-409726337.24950,-66924614.37719,  -0.00029,  -0.00348,  -0.00201,477583863.64740,   0.00274,277583870.79978,  -0.00151,  -0.00144,  -0.00114,  -7.15237,   1.00000
96511466.81265,-407538805.51050,-66732959.53631,  -0.00027,  -0.00349,  -0.00201,477592266.26022,   0.00275,277592272.46813,  -0.00151,  -0.00144,  -0.00114,  -6.20791,   1.00000
99995163.44816,-405325793.64947,-66542541.69395,  -0.00026,  -0.00349,  -0.00201,477600649.35216,   0.00275,277600657.47975,  -0.00150,  -0.00145,  -0.00114,  -8.12759,   1.00000
103443015.56968,-403118698.04694,-66346746.23629,  -0.00024,  -0.00349,  -0.00201,477609283.98863,   0.00276,277609290.88973,  -0.00150,  -0.00146,  -0.00115,  -6.90110,   1.00000
106886306.89288,-400891623.05196,-66156613.95843,  -0.00022,  -0.00350,  -0.00201,477617727.68406,   0.00277,277617729.80876,  -0.00149,  -0.00146,  -0.00115,  -2.12470,   1.00000
110326775.32132,-398653203.06158,-65950783.70191,  -0.00021,  -0.00350,  -0.00201,477626437.33575,   0.00278,277626437.55557,  -0.00149,  -0.00147,  -0.00115,  -0.21982,   1.00000
113773594.58489,-396389377.27219,-65746213.55684,  -0.00019,  -0.00350,  -0.00201,477635119.45595,   0.00279,277635129.27790,  -0.00148,  -0.00148,  -0.00116,  -9.82194,   1.00000
117225541.39585,-394096845.53128,-65552158.86661,  -0.00018,  -0.00350,  -0.00201,477643825.34403,   0.00279,277643828.96252,  -0.00148,  -0.00148,  -0.00116,  -3.61849,   1.00000
120664505.35902,-391801670.51018,-65337516.34003,  -0.00016,  -0.00351,  -0.00201,477652593.17155,   0.00280,277652598.04525,  -0.00147,  -0.00149,  -0.00116,  -4.87370,   1.00000
124086673.40275,-389494615.66219,-65130268.37147,  -0.00015,  -0.00351,  -0.00201,477661496.13112,   0.00281,277661504.54990,  -0.00147,  -0.00150,  -0.00116,  -8.41878,   1.00000
127515041.52011,-387162060.49244,-64924227.58472,  -0.00013,  -0.00351,  -0.00201,477670387.50560,   0.00282,277670396.88774,  -0.00147,  -0.00150,  -0.00117,  -9.38214,   1.00000
130950850.55757,-384806931.64929,-64710046.36518,  -0.00011,  -0.00351,  -0.00201,477679249.29682,   0.00283,277679253.52624,  -0.00146,  -0.00151,  -0.00117,  -4.22942,   1.00000
134348567.80350,-382460860.59566,-64490934.46976,  -0.00010,  -0.00352,  -0.00201,477688348.51469,   0.00284,277688351.65031,  -0.00146,  -0.00151,  -0.00117,  -3.13562,   1.00000
137774559.92345,-380071643.68881,-64276052.18182,  -0.00008,  -0.00352,  -0.00201,477697309.80952,   0.00285,277697310.60469,  -0.00145,  -0.00152,  -0.00118,  -0.79516,   1.00000
141194451.54104,-377672888.41903,-64045664.51468,  -0.00007,  -0.00352,  -0.00201,477706543.35520,   0.00285,277706543.40049,  -0.00145,  -0.00153,  -0.00118,  -0.04529,   1.00000
144610071.06850,-375249763.99700,-63830090.42127,  -0.00005,  -0.00352,  -0.00201,477715599.91678,   0.00286,277715606.60606,  -0.00144,  -0.00153,  -0.00118,  -6.68928,   1.00000
147957147.05913,-372862500.07595,-63601806.26680,  -0.00004,  -0.00353,  -0.00201,477724818.66294,   0.00287,277724827.39840,  -0.00144,  -0.00154,  -0.00118,  -8.73546,   1.00000
151341139.14925,-370427184.49665,-63373349.74869,  -0.00002,  -0.00353,  -0.00201,477734084.88592,   0.00288,277734094.53963,  -0.00143,  -0.00155,  -0.00119,  -9.65371,   1.00000
154732359.73414,-367968949.58751,-63136705.27093,  -0.00000,  -0.00353,  -0.00201,477743326.00823,   0.00289,277743329.70047,  -0.00143,  -0.00155,  -0.00119,  -3.69224,   1.00000
158105165.84929,-365500643.44686,-62907684.08574,   0.00001,  -0.00353,  -0.00201,477752691.07519,   0.00290,277752700.59983,  -0.00142,  -0.00156,  -0.00119,  -9.52464,   1.00000
161485113.68578,-363009320.19466,-62670439.02722,   0.00003,  -0.00353,  -0.00201,477762034.50518,   0.00291,277762040.78995,  -0.00142,  -0.00157,  -0.00120,  -6.28477,   1.00000
164847793.77848,-360511109.44616,-62431509.05811,   0.00004,  -0.00354,  -0.00201,477771489.46163,   0.00292,277771494.31393,  -0.00141,  -0.00157,  -0.00120,  -4.85230,   1.00000
168193083.17693,-358006292.07547,-62190936.07782,   0.00006,  -0.00354,  -0.00201,477781056.60000,   0.00293,277781060.28374,  -0.00141,  -0.00158,  -0.00120,  -3.68374,   1.00000
171513917.97467,-355498659.60131,-61952990.06210,   0.00007,  -0.00354,  -0.00201,477790548.16229,   0.00293,277790553.19951,  -0.00140,  -0.00159,  -0.00120,  -5.03722,   1.00000
174871822.39022,-352944803.18407,-61705291.47406,   0.00009,  -0.00354,  -0.00201,477800081.92169,   0.00294,277800082.67569,  -0.00139,  -0.00159,  -0.00121,  -0.75401,   1.00000
178211884.99567,-350384679.86002,-61455991.28904,   0.00010,  -0.00354,  -0.00201,477809722.27628,   0.00295,277809725.13747,  -0.00139,  -0.00160,  -0.00121,  -2.86119,   1.00000
181504439.80732,-347841804.14762,-61206679.16113,   0.00012,  -0.00355,  -0.00201,477819408.25757,   0.00296,277819411.14640,  -0.00138,  -0.00161,  -0.00121,  -2.88882,   1.00000
184831938.03754,-345249798.80497,-60956935.48035,   0.00014,  -0.00355,  -0.00201,477829155.93676,   0.00297,277829159.56646,  -0.00138,  -0.00162,  -0.00122,  -3.62970,   1.00000
188136867.49403,-342657661.38206,-60700452.45232,   0.00015,  -0.00355,  -0.00201,477838809.25820,   0.00298,277838812.49960,  -0.00137,  -0.00162,  -0.00122,  -3.24140,   1.00000
191423688.86464,-340060004.60898,-60442484.48702,   0.00017,  -0.00355,  -0.00201,477848571.93851,   0.00299,277848576.03800,  -0.00137,  -0.00163,  -0.00122,  -4.09949,   1.00000
194744750.95628,-337412827.96368,-60183998.06157,   0.00018,  -0.00355,  -0.00201,477858402.16401,   0.00300,277858407.68896,  -0.00136,  -0.00164,  -0.00122,  -5.52496,   1.00000
198018282.51660,-334783901.71385,-59925645.77376,   0.00020,  -0.00355,  -0.00201,477868269.87504,   0.00301,277868278.28054,  -0.00136,  -0.00164,  -0.00123,  -8.40550,   1.00000
201274956.94164,-332152552.54221,-59656489.71794,   0.00021,  -0.00355,  -0.00200,477878234.97158,   0.00302,277878237.29253,  -0.00135,  -0.00165,  -0.00123,  -2.32095,   1.00000
204558667.74059,-329471372.52194,-59400272.82599,   0.00023,  -0.00355,  -0.00200,477888099.99461,   0.00303,277888102.45915,  -0.00134,  -0.00166,  -0.00123,  -2.46454,   1.00000
207803147.71054,-326811791.38534,-59121401.40081,   0.00024,  -0.00356,  -0.00200,477898142.34467,   0.00304,277898147.80676,  -0.00134,  -0.00166,  -0.00124,  -5.46210,   1.00000
211046336.84354,-324125742.22949,-58857095.15358,   0.00026,  -0.00356,  -0.00200,477908021.06145,   0.00305,277908024.82291,  -0.00133,  -0.00167,  -0.00124,  -3.76147,   1.00000
214274978.23778,-321433425.19563,-58587386.65175,   0.00028,  -0.00356,  -0.00200,477918192.73232,   0.00306,277918198.14107,  -0.00133,  -0.00168,  -0.00124,  -5.40875,   1.00000
217533820.18856,-318695294.50983,-58311644.31074,   0.00029,  -0.00356,  -0.00200,477928239.53606,   0.00307,277928241.94250,  -0.00132,  -0.00168,  -0.00124,  -2.40643,   1.00000
220745469.12090,-315976858.89390,-58036286.44642,   0.00031,  -0.00356,  -0.00200,477938310.95155,   0.00308,277938316.30211,  -0.00131,  -0.00169,  -0.00125,  -5.35056,   1.00000
223937913.23451,-313254612.52475,-57759671.83056,   0.00032,  -0.00356,  -0.00200,477948495.72068,   0.00308,277948498.36323,  -0.00131,  -0.00170,  -0.00125,  -2.64255,   1.00000
227136733.62074,-310508448.06685,-57474664.15010,   0.00034,  -0.00356,  -0.00200,477958656.99225,   0.00309,277958660.90615,  -0.00130,  -0.00170,  -0.00125,  -3.91390,   1.00000
230316060.06992,-307758766.97512,-57188456.94834,   0.00035,  -0.00356,  -0.00200,477968923.32270,   0.00310,277968931.09108,  -0.00129,  -0.00171,  -0.00125,  -7.76838,   1.00000
233523825.08248,-304959895.53282,-56905473.30479,   0.00037,  -0.00356,  -0.00200,477979094.46152,   0.00311,277979098.86337,  -0.00129,  -0.00172,  -0.00126,  -4.40185,   1.00000
236687660.00054,-302180821.34879,-56619104.34238,   0.00038,  -0.00356,  -0.00200,477989474.38123,   0.00312,277989479.40294,  -0.00128,  -0.00173,  -0.00126,  -5.02171,   1.00000
239857476.66075,-299377662.38081,-56324301.59335,   0.00040,  -0.00356,  -0.00200,477999838.24250,   0.00313,277999843.71823,  -0.00128,  -0.00173,  -0.00126,  -5.47573,   1.00000
243004711.93808,-296572230.19313,-56032278.50019,   0.00041,  -0.00356,  -0.00199,478010121.03774,   0.00314,278010126.78722,  -0.00127,  -0.00174,  -0.00127,  -5.74948,   1.00000
246156126.94380,-293740394.75348,-55741233.67498,   0.00043,  -0.00356,  -0.00199,478020409.22558,   0.00315,278020414.82196,  -0.00126,  -0.00175,  -0.00127,  -5.59638,   1.00000
249263274.44525,-290929784.55988,-55447028.79995,   0.00045,  -0.00356,  -0.00199,478030908.28157,   0.00316,278030910.07158,  -0.00126,  -0.00175,  -0.00127,  -1.79001,   1.00000
252400448.99254,-288070949.40489,-55146392.69849,   0.00046,  -0.00356,  -0.00199,478041284.19744,   0.00317,278041291.24934,  -0.00125,  -0.00176,  -0.00127,  -7.05190,   1.00000
255515375.28177,-285207805.26147,-54854167.83406,   0.00048,  -0.00356,  -0.00199,478051794.02281,   0.00318,278051798.38293,  -0.00124,  -0.00177,  -0.00128,  -4.36012,   1.00000
258637637.47852,-282322212.46022,-54543939.43102,   0.00049,  -0.00356,  -0.00199,478062269.15882,   0.00319,278062275.20491,  -0.00124,  -0.00177,  -0.00128,  -6.04608,   1.00000
261711758.45169,-279456875.93843,-54244026.79897,   0.00051,  -0.00356,  -0.00199,478072780.82370,   0.00320,278072785.89482,  -0.00123,  -0.00178,  -0.00128,  -5.07111,   1.00000
264791477.97795,-276567071.63781,-53935591.36111,   0.00052,  -0.00356,  -0.00199,478083276.87704,   0.00321,278083285.46386,  -0.00122,  -0.00179,  -0.00129,  -8.58681,   1.00000
267850533.11716,-273675665.14967,-53626217.55998,   0.00054,  -0.00356,  -0.00199,478093886.41476,   0.00322,278093889.66344,  -0.00122,  -0.00179,  -0.00129,  -3.24868,   1.00000
270913063.36011,-270757856.95093,-53317799.84107,   0.00055,  -0.00356,  -0.00198,478104495.68572,   0.00323,278104503.28382,  -0.00121,  -0.00180,  -0.00129,  -7.59810,   1.00000
273980722.14751,-267815413.88690,-53000816.37478,   0.00057,  -0.00356,  -0.00198,478115103.43434,   0.00324,278115109.33445,  -0.00120,  -0.00181,  -0.00129,  -5.90011,   1.00000
277000629.59061,-264894205.69179,-52694304.70459,   0.00058,  -0.00356,  -0.00198,478125736.59981,   0.00325,278125743.06983,  -0.00119,  -0.00182,  -0.00130,  -6.47003,   1.00000
280025740.43568,-261948350.15484,-52379210.87305,   0.00060,  -0.00356,  -0.00198,478136360.63204,   0.00326,278136369.32000,  -0.00119,  -0.00182,  -0.00130,  -8.68796,   1.00000
283031610.65684,-259003443.36421,-52053779.82351,   0.00061,  -0.00356,  -0.00198,478147075.72911,   0.00327,278147080.73569,  -0.00118,  -0.00183,  -0.00130,  -5.00657,   1.00000
286040493.08573,-256032069.02115,-51729300.55206,   0.00063,  -0.00356,  -0.00198,478157803.37391,   0.00329,278157804.80062,  -0.00117,  -0.00184,  -0.00130,  -1.42671,   1.00000
289050255.20187,-253032476.80512,-51415242.88072,   0.00064,  -0.00356,  -0.00198,478168555.99959,   0.00330,278168561.13744,  -0.00117,  -0.00184,  -0.00131,  -5.13785,   1.00000
292018385.13516,-250060092.77762,-51083241.90204,   0.00066,  -0.00356,  -0.00197,478179280.75800,   0.00331,278179285.49211,  -0.00116,  -0.00185,  -0.00131,  -4.73411,   1.00000
294987423.39550,-247059551.15361,-50761695.43904,   0.00067,  -0.00356,  -0.00197,478190036.87795,   0.00332,278190041.90631,  -0.00115,  -0.00186,  -0.00131,  -5.02837,   1.00000
297960936.80454,-244034098.94641,-50431502.10913,   0.00069,  -0.00355,  -0.00197,478200793.87146,   0.00333,278200796.61003,  -0.00114,  -0.00186,  -0.00131,  -2.73857,   1.00000
300912606.03562,-241008736.48747,-50100593.66527,   0.00070,  -0.00355,  -0.00197,478211650.80440,   0.00334,278211654.37147,  -0.00114,  -0.00187,  -0.00132,  -3.56707,   1.00000
303843473.24316,-237981001.67674,-49772478.39807,   0.00072,  -0.00355,  -0.00197,478222423.48571,   0.00335,278222426.33068,  -0.00113,  -0.00188,  -0.00132,  -2.84498,   1.00000
306754481.97343,-234955256.84731,-49434161.58393,   0.00073,  -0.00355,  -0.00197,478233282.01478,   0.00336,278233282.25548,  -0.00112,  -0.00188,  -0.00132,  -0.24070,   1.00000
309667728.41562,-231903015.35800,-49096751.50884,   0.00075,  -0.00355,  -0.00196,478244146.39285,   0.00337,278244156.00054,  -0.00112,  -0.00189,  -0.00133,  -9.60769,   1.00000
312582956.22865,-228824258.44534,-48760216.92109,   0.00076,  -0.00355,  -0.00196,478255042.00368,   0.00338,278255049.12618,  -0.00111,  -0.00190,  -0.00133,  -7.12250,   1.00000
315455501.49292,-225771914.64164,-48415445.50992,   0.00078,  -0.00355,  -0.00196,478265919.24490,   0.00339,278265920.76157,  -0.00110,  -0.00190,  -0.00133,  -1.51667,   1.00000
318330011.70100,-222693053.05428,-48071571.12080,   0.00079,  -0.00354,  -0.00196,478276805.06455,   0.00340,278276812.12333,  -0.00109,  -0.00191,  -0.00133,  -7.05878,   1.00000
321206213.90319,-219587660.59848,-47728562.79283,   0.00080,  -0.00354,  -0.00196,478287717.52643,   0.00341,278287724.82747,  -0.00108,  -0.00192,  -0.00134,  -7.30103,   1.00000
324038192.30650,-216507583.81418,-47386935.18085,   0.00082,  -0.00354,  -0.00195,478298625.21193,   0.00342,278298629.71371,  -0.00108,  -0.00192,  -0.00134,  -4.50179,   1.00000
326895292.87206,-213378484.85538,-47034681.81173,   0.00083,  -0.00354,  -0.00195,478309644.97894,   0.00343,278309649.26664,  -0.00107,  -0.00193,  -0.00134,  -4.28770,   1.00000
329708243.83868,-210274990.28266,-46683878.34493,   0.00085,  -0.00354,  -0.00195,478320654.84864,   0.00344,278320659.42870,  -0.00106,  -0.00194,  -0.00134,  -4.58007,   1.00000
332503300.76462,-207170190.25959,-46326301.23913,   0.00086,  -0.00354,  -0.00195,478331562.19551,   0.00345,278331565.87129,  -0.00105,  -0.00194,  -0.00135,  -3.67578,   1.00000
335318708.51572,-204013833.84150,-45977258.62640,   0.00088,  -0.00353,  -0.00195,478342618.73141,   0.00346,278342623.58323,  -0.00105,  -0.00195,  -0.00135,  -4.85182,   1.00000
338116001.17446,-200856032.14943,-45621372.48689,   0.00089,  -0.00353,  -0.00194,478353575.49194,   0.00347,278353579.84498,  -0.00104,  -0.00196,  -0.00135,  -4.35304,   1.00000
340869817.63208,-197724204.52719,-45267005.24489,   0.00091,  -0.00353,  -0.00194,478364518.39428,   0.00348,278364522.32522,  -0.00103,  -0.00196,  -0.00135,  -3.93094,   1.00000
343646904.29249,-194543497.66738,-44901979.48706,   0.00092,  -0.00353,  -0.00194,478375586.04475,   0.00349,278375588.71108,  -0.00102,  -0.00197,  -0.00136,  -2.66632,   1.00000
346380590.96840,-191389040.88003,-44538539.91067,   0.00093,  -0.00352,  -0.00194,478386634.91534,   0.00350,278386639.82314,  -0.00101,  -0.00198,  -0.00136,  -4.90780,   1.00000
349114876.16958,-188208225.42755,-44175965.14704,   0.00095,  -0.00352,  -0.00193,478397713.08582,   0.00352,278397718.37588,  -0.00101,  -0.00198,  -0.00136,  -5.29006,   1.00000
351831594.06600,-185025651.10805,-43806539.45460,   0.00096,  -0.00352,  -0.00193,478408685.77021,   0.00353,278408695.21666,  -0.00100,  -0.00199,  -0.00136,  -9.44645,   1.00000
354548598.43572,-181816646.60464,-43437960.44266,   0.00098,  -0.00352,  -0.00193,478419698.67837,   0.00354,278419701.74508,  -0.00099,  -0.00200,  -0.00136,  -3.06671,   1.00000
357242204.95718,-178610872.66072,-43069123.96769,   0.00099,  -0.00351,  -0.00193,478430796.59650,   0.00355,278430806.14315,  -0.00098,  -0.00200,  -0.00137,  -9.54665,   1.00000
359935684.01890,-175378830.87075,-42701125.16644,   0.00101,  -0.00351,  -0.00192,478441938.66245,   0.00356,278441941.84670,  -0.00097,  -0.00201,  -0.00137,  -3.18425,   1.00000
362588424.67399,-172174692.27469,-42325191.70180,   0.00102,  -0.00351,  -0.00192,478453034.65005,   0.00357,278453042.05090,  -0.00097,  -0.00202,  -0.00137,  -7.40085,   1.00000
365264079.95071,-168914285.84223,-41951126.04621,   0.00103,  -0.00350,  -0.00192,478464101.26796,   0.00358,278464110.75794,  -0.00096,  -0.00202,  -0.00137,  -9.48998,   1.00000
367899179.64578,-165681825.83464,-41569142.80058,   0.00105,  -0.00350,  -0.00192,478475143.03488,   0.00359,278475143.23436,  -0.00095,  -0.00203,  -0.00138,  -0.19948,   1.00000
370508812.75050,-162452422.16643,-41196674.53436,   0.00106,  -0.00350,  -0.00191,478486281.76460,   0.00360,278486285.52855,  -0.00094,  -0.00204,  -0.00138,  -3.76394,   1.00000
373119687.02949,-159197852.69726,-40815410.06560,   0.00108,  -0.00349,  -0.00191,478497443.27743,   0.00361,278497447.77689,  -0.00093,  -0.00204,  -0.00138,  -4.49945,   1.00000
375713459.47961,-155940961.36349,-40427226.89136,   0.00109,  -0.00349,  -0.00191,478508502.69972,   0.00362,278508510.48776,  -0.00092,  -0.00205,  -0.00138,  -7.78803,   1.00000
378306179.06180,-152657910.94075,-40039898.25641,   0.00110,  -0.00349,  -0.00191,478519606.95235,   0.00363,278519609.74172,  -0.00092,  -0.00205,  -0.00139,  -2.78936,   1.00000
380874783.98326,-149379550.29012,-39652535.02223,   0.00112,  -0.00348,  -0.00190,478530799.08038,   0.00364,278530804.77708,  -0.00091,  -0.00206,  -0.00139,  -5.69670,   1.00000
383447136.37770,-146066938.88800,-39268717.54843,   0.00113,  -0.00348,  -0.00190,478541850.83661,   0.00365,278541858.20248,  -0.00090,  -0.00207,  -0.00139,  -7.36587,   1.00000
385974492.96141,-142791141.06042,-38874396.42291,   0.00114,  -0.00348,  -0.00190,478553041.51585,   0.00366,278553049.76565,  -0.00089,  -0.00207,  -0.00139,  -8.24980,   1.00000
388505702.55534,-139480755.36701,-38483592.81834,   0.00116,  -0.00347,  -0.00189,478564093.55613,   0.00368,278564101.17002,  -0.00088,  -0.00208,  -0.00139,  -7.61389,   1.00000
391012618.39100,-136175644.23712,-38092829.51541,   0.00117,  -0.00347,  -0.00189,478575239.66466,   0.00369,278575247.20563,  -0.00087,  -0.00209,  -0.00140,  -7.54097,   1.00000
393519306.67396,-132845459.97076,-37693245.55783,   0.00118,  -0.00346,  -0.00189,478586414.91847,   0.00370,278586421.54254,  -0.00087,  -0.00209,  -0.00140,  -6.62406,   1.00000
395985058.86658,-129543144.92167,-37295594.22957,   0.00120,  -0.00346,  -0.00189,478597562.83975,   0.00371,278597564.04281,  -0.00086,  -0.00210,  -0.00140,  -1.20306,   1.00000
398470654.94842,-126183489.85652,-36899525.81439,   0.00121,  -0.00346,  -0.00188,478608690.71735,   0.00372,278608698.02903,  -0.00085,  -0.00210,  -0.00140,  -7.31168,   1.00000
400933185.83087,-122830535.87404,-36493910.21919,   0.00122,  -0.00345,  -0.00188,478619906.14489,   0.00373,278619914.37579,  -0.00084,  -0.00211,  -0.00140,  -8.23090,   1.00000
403355130.36847,-119505684.19138,-36090279.74379,   0.00124,  -0.00345,  -0.00188,478631095.36611,   0.00374,278631096.62082,  -0.00083,  -0.00212,  -0.00141,  -1.25472,   1.00000
405782320.69314,-116145784.79537,-35680282.38277,   0.00125,  -0.00344,  -0.00187,478642130.25869,   0.00375,278642135.36123,  -0.00082,  -0.00212,  -0.00141,  -5.10254,   1.00000
408198245.41059,-112769967.58065,-35278435.20962,   0.00126,  -0.00344,  -0.00187,478653402.80664,   0.00376,278653408.18185,  -0.00081,  -0.00213,  -0.00141,  -5.37521,   1.00000
410583892.04553,-109413164.97092,-34861580.54915,   0.00128,  -0.00343,  -0.00187,478664439.44181,   0.00377,278664446.31613,  -0.00080,  -0.00213,  -0.00141,  -6.87432,   1.00000
412957920.35862,-106041010.01973,-34452981.09985,   0.00129,  -0.00343,  -0.00186,478675713.27925,   0.00378,278675717.94779,  -0.00080,  -0.00214,  -0.00141,  -4.66854,   1.00000
415336528.62450,-102633261.85157,-34037884.35994,   0.00130,  -0.00342,  -0.00186,478686843.20972,   0.00379,278686852.89668,  -0.00079,  -0.00215,  -0.00142,  -9.68696,   1.00000
417675249.91625,-99253878.61209,-33624827.75131,   0.00132,  -0.00342,  -0.00186,478697944.94078,   0.00380,278697950.31311,  -0.00078,  -0.00215,  -0.00142,  -5.37233,   1.00000
419988947.36885,-95881746.61189,-33212124.48516,   0.00133,  -0.00341,  -0.00185,478709133.72863,   0.00382,278709138.94975,  -0.00077,  -0.00216,  -0.00142,  -5.22112,   1.00000
422321281.52873,-92452470.56998,-32791142.71372,   0.00134,  -0.00341,  -0.00185,478720322.44264,   0.00383,278720326.21225,  -0.00076,  -0.00216,  -0.00142,  -3.76961,   1.00000
424614038.01940,-89051771.98750,-32372248.57388,   0.00135,  -0.00340,  -0.00184,478731468.89132,   0.00384,278731474.03290,  -0.00075,  -0.00217,  -0.00142,  -5.14158,   1.00000
426903884.18577,-85626601.84407,-31944561.08686,   0.00137,  -0.00340,  -0.00184,478742660.66669,   0.00385,278742663.62906,  -0.00074,  -0.00217,  -0.00143,  -2.96237,   1.00000
429175184.53804,-82197238.06204,-31519470.57612,   0.00138,  -0.00339,  -0.00184,478753768.50556,   0.00386,278753774.52166,  -0.00073,  -0.00218,  -0.00143,  -6.01610,   1.00000
431420860.66841,-78776002.99249,-31094863.65623,   0.00139,  -0.00339,  -0.00183,478764973.98597,   0.00387,278764976.64851,  -0.00072,  -0.00219,  -0.00143,  -2.66254,   1.00000
433648210.48631,-75350503.77674,-30672829.98676,   0.00140,  -0.00338,  -0.00183,478776093.28119,   0.00388,278776099.78243,  -0.00072,  -0.00219,  -0.00143,  -6.50123,   1.00000
435871832.36019,-71900793.44066,-30242003.03035,   0.00142,  -0.00337,  -0.00183,478787265.04516,   0.00389,278787268.55275,  -0.00071,  -0.00220,  -0.00143,  -3.50759,   1.00000
438078530.82644,-68447118.58332,-29804006.73927,   0.00143,  -0.00337,  -0.00182,478798346.71273,   0.00390,278798350.25172,  -0.00070,  -0.00220,  -0.00143,  -3.53898,   1.00000
440257706.58175,-65001855.73133,-29376347.61224,   0.00144,  -0.00336,  -0.00182,478809530.79285,   0.00391,278809532.41292,  -0.00069,  -0.00221,  -0.00144,  -1.62007,   1.00000
442432399.43576,-61532698.41972,-28939924.37320,   0.00145,  -0.00336,  -0.00181,478820757.81974,   0.00392,278820763.26539,  -0.00068,  -0.00221,  -0.00144,  -5.44565,   1.00000
444590021.78669,-58059508.93204,-28496318.10166,   0.00147,  -0.00335,  -0.00181,478831904.56234,   0.00393,278831908.80372,  -0.00067,  -0.00222,  -0.00144,  -4.24139,   1.00000
446707990.52544,-54614945.76096,-28064683.04233,   0.00148,  -0.00334,  -0.00181,478843015.06453,   0.00394,278843017.38582,  -0.00066,  -0.00222,  -0.00144,  -2.32129,   1.00000
448840446.85496,-51113121.66694,-27624609.18430,   0.00149,  -0.00334,  -0.00180,478854144.18839,   0.00396,278854148.89074,  -0.00065,  -0.00223,  -0.00144,  -4.70235,   1.00000
450947835.94246,-47621376.52546,-27175506.23570,   0.00150,  -0.00333,  -0.00180,478865354.09196,   0.00397,278865361.98224,  -0.00064,  -0.00224,  -0.00144,  -7.89027,   1.00000
453004639.42348,-44177622.88495,-26739908.48087,   0.00151,  -0.00332,  -0.00179,478876395.26838,   0.00398,278876398.50049,  -0.00063,  -0.00224,  -0.00145,  -3.23211,   1.00000
455087583.48249,-40657897.93984,-26284636.26684,   0.00153,  -0.00332,  -0.00179,478887590.29523,   0.00399,278887592.34081,  -0.00062,  -0.00225,  -0.00145,  -2.04558,   1.00000
457131273.12813,-37167158.93158,-25841412.90471,   0.00154,  -0.00331,  -0.00178,478898742.03058,   0.00400,278898746.82036,  -0.00061,  -0.00225,  -0.00145,  -4.78977,   1.00000
459157873.36905,-33671982.13074,-25390929.00367,   0.00155,  -0.00330,  -0.00178,478909812.58655,   0.00401,278909819.68207,  -0.00060,  -0.00226,  -0.00145,  -7.09552,   1.00000
461176456.49851,-30153495.14661,-24941539.74016,   0.00156,  -0.00330,  -0.00178,478920954.39088,   0.00402,278920958.81321,  -0.00060,  -0.00226,  -0.00145,  -4.42233,   1.00000
463169575.94124,-26646102.05355,-24483283.98523,   0.00157,  -0.00329,  -0.00177,478932174.95274,   0.00403,278932178.54910,  -0.00059,  -0.00227,  -0.00145,  -3.59636,   1.00000
465162113.96931,-23100071.96697,-24027755.24929,   0.00158,  -0.00328,  -0.00177,478943298.28617,   0.00404,278943307.20262,  -0.00058,  -0.00227,  -0.00145,  -8.91646,   1.00000
467117516.92320,-19583385.63018,-23574528.08013,   0.00160,  -0.00328,  -0.00176,478954383.21447,   0.00405,278954385.45315,  -0.00057,  -0.00228,  -0.00146,  -2.23868,   1.00000
469047405.20920,-16078213.65200,-23112508.32271,   0.00161,  -0.00327,  -0.00176,478965537.17830,   0.00406,278965543.52815,  -0.00056,  -0.00228,  -0.00146,  -6.34986,   1.00000
470976345.46168,-12534111.20907,-22653161.02270,   0.00162,  -0.00326,  -0.00175,478976605.82961,   0.00407,278976614.47612,  -0.00055,  -0.00229,  -0.00146,  -8.64651,   1.00000
472878064.60204,-9001787.82042,-22194852.66225,   0.00163,  -0.00325,  -0.00175,478987764.58518,   0.00408,278987773.42728,  -0.00054,  -0.00229,  -0.00146,  -8.84210,   1.00000
474762118.34789,-5464819.98618,-21729241.88819,   0.00164,  -0.00325,  -0.00174,478998854.53704,   0.00410,278998856.73853,  -0.00053,  -0.00230,  -0.00146,  -2.20149,   1.00000
476636145.48485,-1905763.60830,-21264872.20919,   0.00165,  -0.00324,  -0.00174,479010007.52414,   0.00411,279010013.41766,  -0.00052,  -0.00230,  -0.00146,  -5.89352,   1.00000
478473862.78437,1623763.09812,-20802869.23353,   0.00166,  -0.00323,  -0.00173,479021110.05428,   0.00412,279021116.33181,  -0.00051,  -0.00231,  -0.00146,  -6.27753,   1.00000
480293903.05038,5158099.81935,-20333542.15628,   0.00167,  -0.00322,  -0.00173,479032143.19753,   0.00413,279032145.22100,  -0.00050,  -0.00231,  -0.00147,  -2.02347,   1.00000
482112978.22445,8730733.89162,-19854550.40212,   0.00169,  -0.00322,  -0.00172,479043378.91592,   0.00414,279043384.45750,  -0.00049,  -0.00231,  -0.00147,  -5.54159,   1.00000
483903062.26481,12291552.17880,-19389025.21621,   0.00170,  -0.00321,  -0.00172,479054421.83684,   0.00415,279054423.87044,  -0.00048,  -0.00232,  -0.00147,  -2.03360,   1.00000
485683021.63790,15873558.15324,-18915010.47348,   0.00171,  -0.00320,  -0.00171,479065530.51893,   0.00416,279065534.81861,  -0.00047,  -0.00232,  -0.00147,  -4.29968,   1.00000
487427189.30085,19425937.74898,-18443404.49999,   0.00172,  -0.00319,  -0.00171,479076590.11820,   0.00417,279076590.42716,  -0.00046,  -0.00233,  -0.00147,  -0.30896,   1.00000
489160842.50911,22999181.77428,-17963374.74743,   0.00173,  -0.00318,  -0.00170,479087718.03265,   0.00418,279087718.78908,  -0.00045,  -0.00233,  -0.00147,  -0.75643,   1.00000
490874843.18333,26577200.57655,-17485832.70782,   0.00174,  -0.00317,  -0.00170,479098782.22756,   0.00419,279098784.91529,  -0.00044,  -0.00234,  -0.00147,  -2.68773,   1.00000
492561922.47675,30141191.63128,-16999888.94733,   0.00175,  -0.00317,  -0.00169,479109929.22707,   0.00420,279109931.24784,  -0.00043,  -0.00234,  -0.00147,  -2.02077,   1.00000
494229356.66715,33709964.44449,-16516456.79818,   0.00176,  -0.00316,  -0.00169,479121012.57334,   0.00421,279121015.92993,  -0.00042,  -0.00235,  -0.00147,  -3.35659,   1.00000
495892306.59048,37318025.87649,-16035521.09905,   0.00177,  -0.00315,  -0.00168,479132034.69650,   0.00422,279132037.29089,  -0.00041,  -0.00235,  -0.00148,  -2.59439,   1.00000
497511837.22161,40876967.61052,-15556055.58795,   0.00178,  -0.00314,  -0.00168,479143143.53548,   0.00424,279143146.41862,  -0.00040,  -0.00236,  -0.00148,  -2.88314,   1.00000
499134082.90984,44490029.60425,-15068321.61293,   0.00179,  -0.00313,  -0.00167,479154326.16222,   0.00425,279154332.98045,  -0.00039,  -0.00236,  -0.00148,  -6.81822,   1.00000
500715676.57937,48058478.40906,-14574173.39069,   0.00180,  -0.00312,  -0.00167,479165307.77742,   0.00426,279165313.96701,  -0.00038,  -0.00236,  -0.00148,  -6.18960,   1.00000
502283659.29167,51646310.42627,-14081646.84170,   0.00181,  -0.00311,  -0.00166,479176372.86867,   0.00427,279176380.15230,  -0.00037,  -0.00237,  -0.00148,  -7.28363,   1.00000
503837513.64939,55253108.28646,-13590769.73503,   0.00182,  -0.00310,  -0.00166,479187525.40236,   0.00428,279187532.90397,  -0.00036,  -0.00237,  -0.00148,  -7.50162,   1.00000
505370791.34822,58864392.76396,-13102386.56520,   0.00183,  -0.00309,  -0.00165,479198629.30851,   0.00429,279198630.01979,  -0.00035,  -0.00238,  -0.00148,  -0.71128,   1.00000
506870358.61875,62445794.21711,-12606679.46168,   0.00184,  -0.00308,  -0.00165,479209662.52132,   0.00430,279209664.03143,  -0.00034,  -0.00238,  -0.00148,  -1.51011,   1.00000
508355178.17095,66045555.86529,-12112707.95420,   0.00185,  -0.00307,  -0.00164,479220779.37567,   0.00431,279220786.47828,  -0.00033,  -0.00238,  -0.00148,  -7.10261,   1.00000
509820029.04903,69649820.10384,-11611415.21738,   0.00186,  -0.00306,  -0.00163,479231844.76984,   0.00432,279231851.27821,  -0.00032,  -0.00239,  -0.00148,  -6.50836,   1.00000
511256083.36136,73237444.02490,-11111976.28197,   0.00187,  -0.00306,  -0.00163,479242991.85737,   0.00433,279242999.69166,  -0.00031,  -0.00239,  -0.00148,  -7.83429,   1.00000
512684402.46068,76863830.47926,-10615027.56940,   0.00188,  -0.00305,  -0.00162,479254102.11411,   0.00434,279254103.21912,  -0.00030,  -0.00240,  -0.00148,  -1.10501,   1.00000
514079228.61019,80460177.12307,-10110796.21589,   0.00189,  -0.00304,  -0.00162,479265137.68708,   0.00435,279265143.78088,  -0.00029,  -0.00240,  -0.00148,  -6.09379,   1.00000
515457845.80377,84073573.38056,-9608479.50243,   0.00190,  -0.00303,  -0.00161,479276269.13182,   0.00437,279276277.14087,  -0.00028,  -0.00240,  -0.00149,  -8.00905,   1.00000
516803279.53273,87656918.41674,-9098917.94930,   0.00191,  -0.00302,  -0.00160,479287338.75844,   0.00438,279287346.66120,  -0.00027,  -0.00241,  -0.00149,  -7.90276,   1.00000
518127624.77632,91244621.08847,-8591918.90289,   0.00192,  -0.00301,  -0.00160,479298363.07570,   0.00439,279298366.00455,  -0.00026,  -0.00241,  -0.00149,  -2.92885,   1.00000
519447068.63046,94882843.94941,-8086890.15872,   0.00193,  -0.00299,  -0.00159,479309492.30031,   0.00440,279309493.15689,  -0.00025,  -0.00241,  -0.00149,  -0.85658,   1.00000
520720967.52532,98456625.20388,-7584504.30227,   0.00193,  -0.00298,  -0.00159,479320537.89519,   0.00441,279320545.89229,  -0.00024,  -0.00242,  -0.00149,  -7.99710,   1.00000
521989698.14591,102080374.78899,-7074312.41877,   0.00194,  -0.00297,  -0.00158,479331703.05477,   0.00442,279331706.59115,  -0.00023,  -0.00242,  -0.00149,  -3.53638,   1.00000
523221478.91154,105662523.66326,-6557349.94202,   0.00195,  -0.00296,  -0.00157,479342653.55738,   0.00443,279342660.26925,  -0.00022,  -0.00242,  -0.00149,  -6.71186,   1.00000
524439200.87001,109271118.97158,-6042183.45625,   0.00196,  -0.00295,  -0.00157,479353855.18592,   0.00444,279353855.22924,  -0.00021,  -0.00243,  -0.00149,  -0.04331,   1.00000
525631038.97732,112872440.75054,-5530005.98186,   0.00197,  -0.00294,  -0.00156,479364852.29127,   0.00445,279364862.23463,  -0.00020,  -0.00243,  -0.00149,  -9.94336,   1.00000
526804255.23409,116488307.36994,-5020075.98378,   0.00198,  -0.00293,  -0.00155,479375965.78031,   0.00446,279375969.02689,  -0.00019,  -0.00243,  -0.00149,  -3.24659,   1.00000
527948191.08848,120084371.31345,-4502649.48804,   0.00199,  -0.00292,  -0.00155,479387154.24138,   0.00447,279387155.71272,  -0.00018,  -0.00244,  -0.00149,  -1.47134,   1.00000
529066686.67869,123673694.30536,-3978306.14419,   0.00200,  -0.00291,  -0.00154,479398154.66915,   0.00448,279398155.37300,  -0.00017,  -0.00244,  -0.00149,  -0.70385,   1.00000
530165580.56871,127276663.69553,-3466219.94797,   0.00200,  -0.00290,  -0.00154,479409250.72678,   0.00449,279409258.04547,  -0.00016,  -0.00244,  -0.00149,  -7.31869,   1.00000
531245082.33811,130892823.80429,-2936891.26823,   0.00201,  -0.00289,  -0.00153,479420458.32804,   0.00451,279420461.56355,  -0.00015,  -0.00245,  -0.00149,  -3.23551,   1.00000
532291612.85573,134478358.32455,-2420161.07873,   0.00202,  -0.00288,  -0.00152,479431600.19589,   0.00452,279431603.83806,  -0.00014,  -0.00245,  -0.00149,  -3.64217,   1.00000
533315390.12236,138067099.60172,-1896265.30394,   0.00203,  -0.00286,  -0.00152,479442705.34961,   0.00453,279442706.11437,  -0.00013,  -0.00245,  -0.00149,  -0.76476,   1.00000
534316037.69985,141658940.44048,-1375073.48453,   0.00204,  -0.00285,  -0.00151,479453764.47613,   0.00454,279453770.44585,  -0.00012,  -0.00246,  -0.00149,  -5.96971,   1.00000
535287100.03692,145229343.24886,-846690.91115,   0.00204,  -0.00284,  -0.00150,479464908.28317,   0.00455,279464914.05325,  -0.00011,  -0.00246,  -0.00149,  -5.77009,   1.00000
536243547.89612,148835935.57369,-321060.65211,   0.00205,  -0.00283,  -0.00150,479476044.73181,   0.00456,279476047.65046,  -0.00010,  -0.00246,  -0.00149,  -2.91865,   1.00000
537167691.11386,152411895.18898,201822.14176,   0.00206,  -0.00282,  -0.00149,479487111.95533,   0.00457,279487119.13791,  -0.00009,  -0.00246,  -0.00149,  -7.18257,   1.00000
538070357.30942,155998775.94409,731758.45631,   0.00207,  -0.00281,  -0.00148,479498296.98382,   0.00458,279498298.10384,  -0.00008,  -0.00247,  -0.00149,  -1.12002,   1.00000
538941054.58006,159554998.42897,1258905.40843,   0.00208,  -0.00279,  -0.00147,479509408.92457,   0.00459,279509414.23825,  -0.00007,  -0.00247,  -0.00149,  -5.31368,   1.00000
539789858.83121,163121459.40801,1792976.40405,   0.00208,  -0.00278,  -0.00147,479520632.46891,   0.00460,279520638.87049,  -0.00006,  -0.00247,  -0.00149,  -6.40158,   1.00000
540614671.06112,166690085.26726,2314349.37014,   0.00209,  -0.00277,  -0.00146,479531823.88246,   0.00461,279531830.59339,  -0.00004,  -0.00247,  -0.00149,  -6.71093,   1.00000
541414832.52104,170260653.49735,2852582.17568,   0.00210,  -0.00276,  -0.00145,479542990.23147,   0.00463,279542992.61359,  -0.00003,  -0.00248,  -0.00149,  -2.38211,   1.00000
542183602.94283,173800541.89850,3378136.14444,   0.00210,  -0.00274,  -0.00145,479554083.57741,   0.00464,279554091.06321,  -0.00002,  -0.00248,  -0.00149,  -7.48580,   1.00000
542936199.14162,177381737.97825,3910360.26364,   0.00211,  -0.00273,  -0.00144,479565327.60789,   0.00465,279565335.11484,  -0.00001,  -0.00248,  -0.00149,  -7.50695,   1.00000
543650272.36395,180899412.80088,4449640.90733,   0.00212,  -0.00272,  -0.00143,479576478.84987,   0.00466,279576483.64696,  -0.00000,  -0.00248,  -0.00149,  -4.79709,   1.00000
544346192.19577,184451176.84139,4985887.36577,   0.00213,  -0.00271,  -0.00142,479587630.21480,   0.00467,279587639.06255,   0.00001,  -0.00248,  -0.00149,  -8.84776,   1.00000
545012210.94068,187978224.60482,5518900.19038,   0.00213,  -0.00269,  -0.00142,479598863.61144,   0.00468,279598871.97570,   0.00002,  -0.00249,  -0.00149,  -8.36426,   1.00000
545659071.45952,191538558.86579,6048829.64251,   0.00214,  -0.00268,  -0.00141,479610106.89849,   0.00469,279610115.66817,   0.00003,  -0.00249,  -0.00149,  -8.76969,   1.00000
546268598.26638,195035692.42585,6585850.38630,   0.00215,  -0.00267,  -0.00140,479621255.50740,   0.00470,279621261.31725,   0.00004,  -0.00249,  -0.00149,  -5.80985,   1.00000
546859075.36298,198571129.42888,7129061.38614,   0.00215,  -0.00265,  -0.00139,479632555.25975,   0.00471,279632561.97757,   0.00005,  -0.00249,  -0.00149,  -6.71782,   1.00000
547419069.58483,202075500.67555,7659491.79442,   0.00216,  -0.00264,  -0.00139,479643791.36641,   0.00472,279643798.37371,   0.00006,  -0.00249,  -0.00149,  -7.00730,   1.00000
547952401.40504,205580189.93156,8206528.67886,   0.00217,  -0.00263,  -0.00138,479655012.77732,   0.00473,279655016.62641,   0.00007,  -0.00250,  -0.00149,  -3.84909,   1.00000
548461311.77474,209090170.08173,8739992.60067,   0.00217,  -0.00262,  -0.00137,479666345.69065,   0.00475,279666349.70084,   0.00008,  -0.00250,  -0.00149,  -4.01018,   1.00000
548939016.15114,212568686.58865,9280344.73351,   0.00218,  -0.00260,  -0.00136,479677619.53796,   0.00476,279677623.06963,   0.00010,  -0.00250,  -0.00148,  -3.53166,   1.00000
549390781.27286,216047348.22413,9817530.45048,   0.00218,  -0.00259,  -0.00136,479688875.73294,   0.00477,279688876.33147,   0.00011,  -0.00250,  -0.00148,  -0.59853,   1.00000
549815656.64832,219525725.30879,10361362.13026,   0.00219,  -0.00257,  -0.00135,479700107.39180,   0.00478,279700113.76654,   0.00012,  -0.00250,  -0.00148,  -6.37474,   1.00000
550214740.73764,223007579.73824,10901206.43097,   0.00220,  -0.00256,  -0.00134,479711468.26238,   0.00479,279711470.92994,   0.00013,  -0.00250,  -0.00148,  -2.66756,   1.00000
550583568.09546,226457996.85709,11438048.28891,   0.00220,  -0.00255,  -0.00133,479722758.17383,   0.00480,279722766.70683,   0.00014,  -0.00250,  -0.00148,  -8.53300,   1.00000
550925640.15239,229910847.70134,11980613.05409,   0.00221,  -0.00253,  -0.00132,479734179.71590,   0.00481,279734185.83758,   0.00015,  -0.00251,  -0.00148,  -6.12168,   1.00000
551237307.42032,233329179.51082,12521005.70294,   0.00221,  -0.00252,  -0.00132,479745404.56215,   0.00482,279745407.30096,   0.00016,  -0.00251,  -0.00148,  -2.73881,   1.00000
551525718.66407,236779899.78179,13056866.92102,   0.00222,  -0.00251,  -0.00131,479756792.77903,   0.00483,279756797.10666,   0.00017,  -0.00251,  -0.00148,  -4.32764,   1.00000
551783777.96581,240201284.15204,13598558.11119,   0.00223,  -0.00249,  -0.00130,479768261.60238,   0.00485,279768265.34061,   0.00018,  -0.00251,  -0.00148,  -3.73823,   1.00000
552011908.22245,243588751.50408,14138162.52704,   0.00223,  -0.00248,  -0.00129,479779530.67877,   0.00486,279779537.36249,   0.00019,  -0.00251,  -0.00148,  -6.68372,   1.00000
552214659.96802,247006473.82984,14682763.80945,   0.00224,  -0.00246,  -0.00128,479790978.96986,   0.00487,279790985.53520,   0.00021,  -0.00251,  -0.00148,  -6.56535,   1.00000
552387866.24206,250392466.47766,15224251.84821,   0.00224,  -0.00245,  -0.00128,479802371.07850,   0.00488,279802373.82520,   0.00022,  -0.00251,  -0.00147,  -2.74671,   1.00000
552534003.47594,253778134.86830,15761132.21672,   0.00225,  -0.00243,  -0.00127,479813878.23530,   0.00489,279813886.40015,   0.00023,  -0.00251,  -0.00147,  -8.16485,   1.00000
552649911.79716,257131647.39388,16304705.53450,   0.00225,  -0.00242,  -0.00126,479825340.21883,   0.00490,279825343.15419,   0.00024,  -0.00251,  -0.00147,  -2.93536,   1.00000
552739526.94853,260511821.44805,16844218.05281,   0.00226,  -0.00240,  -0.00125,479836842.95728,   0.00491,279836844.32847,   0.00025,  -0.00251,  -0.00147,  -1.37119,   1.00000
552797782.38221,263830720.04984,17390871.47879,   0.00226,  -0.00239,  -0.00124,479848233.62521,   0.00492,279848238.45414,   0.00026,  -0.00251,  -0.00147,  -4.82893,   1.00000
552830838.64040,267177092.02130,17922317.50564,   0.00227,  -0.00237,  -0.00123,479859799.52428,   0.00494,279859807.32708,   0.00027,  -0.00251,  -0.00147,  -7.80280,   1.00000
552832620.22665,270490484.84684,18470199.55238,   0.00227,  -0.00236,  -0.00123,479871326.20068,   0.00495,279871327.30066,   0.00028,  -0.00251,  -0.00147,  -1.09998,   1.00000
552807667.34133,273801109.98050,19004537.60105,   0.00228,  -0.00234,  -0.00122,479882828.74304,   0.00496,279882838.50752,   0.00030,  -0.00251,  -0.00146,  -9.76448,   1.00000
552753160.74583,277107578.80216,19544924.52354,   0.00228,  -0.00233,  -0.00121,479894352.03852,   0.00497,279894352.41507,   0.00031,  -0.00251,  -0.00146,  -0.37654,   1.00000
552670639.37236,280382126.44694,20080711.56760,   0.00229,  -0.00231,  -0.00120,479905936.92340,   0.00498,279905939.31081,   0.00032,  -0.00251,  -0.00146,  -2.38740,   1.00000
552558433.71705,283652070.23417,20622444.59202,   0.00229,  -0.00230,  -0.00119,479917525.86630,   0.00499,279917530.72862,   0.00033,  -0.00251,  -0.00146,  -4.86232,   1.00000
552418122.64419,286917195.96699,21158786.25036,   0.00229,  -0.00228,  -0.00118,479929248.45610,   0.00500,279929252.27290,   0.00034,  -0.00251,  -0.00146,  -3.81681,   1.00000
552249471.01609,290150910.83603,21693412.90566,   0.00230,  -0.00227,  -0.00117,479940782.55862,   0.00501,279940787.75953,   0.00035,  -0.00251,  -0.00146,  -5.20091,   1.00000
552051210.16425,293378505.49139,22232319.81319,   0.00230,  -0.00225,  -0.00117,479952451.04937,   0.00503,279952460.22445,   0.00036,  -0.00251,  -0.00145,  -9.17508,   1.00000
551825900.57794,296573018.73908,22766360.10990,   0.00231,  -0.00224,  -0.00116,479964194.80813,   0.00504,279964204.59129,   0.00037,  -0.00251,  -0.00145,  -9.78316,   1.00000
551568599.07198,299789792.54497,23306977.05989,   0.00231,  -0.00222,  -0.00115,479975883.60800,   0.00505,279975891.39055,   0.00039,  -0.00251,  -0.00145,  -7.78255,   1.00000
551284273.19792,302972794.98098,23842600.48913,   0.00231,  -0.00221,  -0.00114,479987641.59962,   0.00506,279987651.18989,   0.00040,  -0.00251,  -0.00145,  -9.59027,   1.00000
550972859.53949,306123773.15650,24374931.57012,   0.00232,  -0.00219,  -0.00113,479999351.70663,   0.00507,279999355.87450,   0.00041,  -0.00251,  -0.00145,  -4.16788,   1.00000
550632759.02321,309269177.14511,24903142.11353,   0.00232,  -0.00217,  -0.00112,480011060.71700,   0.00508,280011067.60694,   0.00042,  -0.00251,  -0.00144,  -6.88994,   1.00000
550262712.13529,312405615.34546,25435143.92305,   0.00233,  -0.00216,  -0.00111,480022915.41001,   0.00510,280022920.46394,   0.00043,  -0.00251,  -0.00144,  -5.05393,   1.00000
549861802.97833,315534672.07507,25972608.73583,   0.00233,  -0.00214,  -0.00110,480034787.46895,   0.00511,280034790.01871,   0.00044,  -0.00251,  -0.00144,  -2.54976,   1.00000
549436066.35277,318632403.42789,26496969.91464,   0.00233,  -0.00213,  -0.00109,480046595.04622,   0.00512,280046600.01083,   0.00045,  -0.00250,  -0.00144,  -4.96461,   1.00000
548980320.66182,321719749.11819,27024874.74778,   0.00234,  -0.00211,  -0.00108,480058548.48954,   0.00513,280058553.31197,   0.00046,  -0.00250,  -0.00143,  -4.82243,   1.00000
548496470.13508,324773871.93934,27559131.27270,   0.00234,  -0.00209,  -0.00107,480070453.62509,   0.00514,280070461.58171,   0.00048,  -0.00250,  -0.00143,  -7.95662,   1.00000
547985606.34343,327821970.43076,28079245.20467,   0.00234,  -0.00208,  -0.00106,480082367.77795,   0.00515,280082376.27246,   0.00049,  -0.00250,  -0.00143,  -8.49451,   1.00000
547443648.39144,330861597.21299,28604664.58376,   0.00234,  -0.00206,  -0.00106,480094308.74716,   0.00517,280094313.50408,   0.00050,  -0.00250,  -0.00143,  -4.75692,   1.00000
546875036.67221,333864470.04060,29134366.02939,   0.00235,  -0.00204,  -0.00105,480106321.18889,   0.00518,280106330.84065,   0.00051,  -0.00250,  -0.00142,  -9.65177,   1.00000
546279463.51469,336860681.89964,29649812.12408,   0.00235,  -0.00203,  -0.00104,480118352.86462,   0.00519,280118357.58568,   0.00052,  -0.00249,  -0.00142,  -4.72105,   1.00000
545652626.77566,339847567.61985,30170419.65910,   0.00235,  -0.00201,  -0.00103,480130402.09555,   0.00520,280130410.70094,   0.00053,  -0.00249,  -0.00142,  -8.60539,   1.00000
544998364.58032,342801037.28379,30697310.97794,   0.00236,  -0.00199,  -0.00102,480142414.87895,   0.00521,280142423.43533,   0.00054,  -0.00249,  -0.00142,  -8.55638,   1.00000
544316442.90103,345741855.83474,31217336.50940,   0.00236,  -0.00198,  -0.00101,480154568.91998,   0.00523,280154578.19220,   0.00056,  -0.00249,  -0.00141,  -9.27222,   1.00000
543609728.77228,348650560.71200,31733934.38854,   0.00236,  -0.00196,  -0.00100,480166681.19627,   0.00524,280166685.35233,   0.00057,  -0.00249,  -0.00141,  -4.15606,   1.00000
542875753.18374,351545943.40073,32243571.12331,   0.00236,  -0.00194,  -0.00099,480178933.88852,   0.00525,280178935.16096,   0.00058,  -0.00248,  -0.00141,  -1.27244,   1.00000
542108660.78798,354435419.72753,32760393.78310,   0.00237,  -0.00192,  -0.00098,480191093.56268,   0.00526,280191098.26840,   0.00059,  -0.00248,  -0.00140,  -4.70572,   1.00000
541319108.83739,357287969.09811,33271460.83977,   0.00237,  -0.00191,  -0.00097,480203327.50147,   0.00527,280203335.16507,   0.00060,  -0.00248,  -0.00140,  -7.66360,   1.00000
540498260.38269,360129570.20146,33787330.29338,   0.00237,  -0.00189,  -0.00096,480215599.15210,   0.00529,280215607.48119,   0.00061,  -0.00247,  -0.00140,  -8.32909,   1.00000
539650481.28449,362956057.73442,34295872.86503,   0.00237,  -0.00187,  -0.00095,480228020.05081,   0.00530,280228026.27190,   0.00062,  -0.00247,  -0.00140,  -6.22110,   1.00000
538778996.40208,365750375.57521,34800941.90548,   0.00237,  -0.00186,  -0.00094,480240398.74199,   0.00531,280240401.60425,   0.00064,  -0.00247,  -0.00139,  -2.86226,   1.00000
537884150.73190,368512901.35408,35302586.74793,   0.00238,  -0.00184,  -0.00093,480252732.41042,   0.00532,280252733.70987,   0.00065,  -0.00247,  -0.00139,  -1.29945,   1.00000
536958159.45843,371263740.66568,35808892.93698,   0.00238,  -0.00182,  -0.00092,480265099.41977,   0.00533,280265106.31068,   0.00066,  -0.00246,  -0.00139,  -6.89091,   1.00000
536006048.11870,373998290.65266,36307629.93683,   0.00238,  -0.00180,  -0.00091,480277618.91426,   0.00535,280277628.10728,   0.00067,  -0.00246,  -0.00138,  -9.19302,   1.00000
535022696.54532,376720239.50228,36810875.53220,   0.00238,  -0.00178,  -0.00090,480290191.40506,   0.00536,280290193.70087,   0.00068,  -0.00246,  -0.00138,  -2.29581,   1.00000
534016551.65003,379410214.65522,37310608.06272,   0.00238,  -0.00177,  -0.00089,480302715.32853,   0.00537,280302720.07880,   0.00069,  -0.00245,  -0.00137,  -4.75026,   1.00000
532991063.62594,382062430.72719,37804288.51090,   0.00238,  -0.00175,  -0.00088,480315319.60050,   0.00538,280315321.91105,   0.00070,  -0.00245,  -0.00137,  -2.31055,   1.00000
531937301.95565,384703512.47185,38292780.72878,   0.00238,  -0.00173,  -0.00087,480327959.22237,   0.00540,280327961.26726,   0.00071,  -0.00244,  -0.00137,  -2.04489,   1.00000
530852558.80365,387331284.10089,38785641.80188,   0.00239,  -0.00171,  -0.00086,480340647.44920,   0.00541,280340649.80700,   0.00073,  -0.00244,  -0.00136,  -2.35781,   1.00000
529745942.41155,389927495.05834,39275026.46215,   0.00239,  -0.00169,  -0.00085,480353296.72328,   0.00542,280353301.99768,   0.00074,  -0.00244,  -0.00136,  -5.27440,   1.00000
528612081.10549,392503365.90295,39765968.04548,   0.00239,  -0.00168,  -0.00084,480366110.47069,   0.00543,280366119.27040,   0.00075,  -0.00243,  -0.00135,  -8.79971,   1.00000
527450085.55534,395067018.24153,40251485.91627,   0.00239,  -0.00166,  -0.00083,480378970.64548,   0.00545,280378980.44618,   0.00076,  -0.00243,  -0.00135,  -9.80071,   1.00000
526270855.44189,397592276.80631,40730764.99965,   0.00239,  -0.00164,  -0.00082,480391912.80036,   0.00546,280391919.54253,   0.00077,  -0.00242,  -0.00135,  -6.74217,   1.00000
525066681.41917,400093413.72685,41209391.52783,   0.00239,  -0.00162,  -0.00081,480404704.90119,   0.00547,280404713.52213,   0.00078,  -0.00242,  -0.00134,  -8.62094,   1.00000
523836259.89550,402573092.01997,41689333.11826,   0.00239,  -0.00160,  -0.00080,480417672.68602,   0.00549,280417676.38795,   0.00079,  -0.00241,  -0.00134,  -3.70193,   1.00000
522582693.95882,405032833.87983,42160910.53332,   0.00239,  -0.00158,  -0.00079,480430792.31694,   0.00550,280430798.69589,   0.00080,  -0.00241,  -0.00133,  -6.37895,   1.00000
521304311.06105,407468866.14177,42631907.85037,   0.00239,  -0.00157,  -0.00078,480443777.94256,   0.00551,280443780.03300,   0.00081,  -0.00240,  -0.00133,  -2.09044,   1.00000
520000424.59148,409882387.30123,43104005.39904,   0.00239,  -0.00155,  -0.00076,480456931.89940,   0.00552,280456933.66290,   0.00083,  -0.00240,  -0.00132,  -1.76350,   1.00000
518676724.39615,412265092.23979,43572648.37524,   0.00239,  -0.00153,  -0.00075,480470051.24491,   0.00554,280470058.51374,   0.00084,  -0.00239,  -0.00132,  -7.26884,   1.00000
517331118.60780,414627029.88703,44032728.25722,   0.00239,  -0.00151,  -0.00074,480483338.41016,   0.00555,280483346.40277,   0.00085,  -0.00239,  -0.00132,  -7.99262,   1.00000
515963354.33988,416956186.49707,44498937.22480,   0.00239,  -0.00149,  -0.00073,480496616.14257,   0.00556,280496617.82370,   0.00086,  -0.00238,  -0.00131,  -1.68113,   1.00000
514568825.79524,419271920.24942,44959412.92183,   0.00239,  -0.00147,  -0.00072,480509944.04809,   0.00558,280509946.52144,   0.00087,  -0.00238,  -0.00131,  -2.47335,   1.00000
513155380.55878,421557346.51816,45416488.85807,   0.00239,  -0.00145,  -0.00071,480523248.96988,   0.00559,280523249.97755,   0.00088,  -0.00237,  -0.00130,  -1.00767,   1.00000
511718326.51061,423818857.00971,45874299.37676,   0.00239,  -0.00143,  -0.00070,480536728.06677,   0.00560,280536731.93327,   0.00089,  -0.00236,  -0.00130,  -3.86650,   1.00000
510254934.22118,426066404.22563,46326266.11392,   0.00239,  -0.00141,  -0.00069,480550270.46188,   0.00562,280550275.69251,   0.00090,  -0.00236,  -0.00129,  -5.23063,   1.00000
508787642.76775,428259947.43352,46774272.79988,   0.00239,  -0.00139,  -0.00068,480563811.21580,   0.00563,280563817.28252,   0.00091,  -0.00235,  -0.00129,  -6.06672,   1.00000
507279950.29020,430463560.99539,47217022.82138,   0.00239,  -0.00137,  -0.00067,480577395.66080,   0.00564,280577402.99938,   0.00092,  -0.00234,  -0.00128,  -7.33858,   1.00000
505757975.59806,432626591.43439,47662826.19475,   0.00239,  -0.00136,  -0.00066,480591077.13945,   0.00566,280591085.60638,   0.00093,  -0.00234,  -0.00128,  -8.46693,   1.00000
504225438.55328,434751948.49748,48102186.43732,   0.00239,  -0.00134,  -0.00064,480604846.76470,   0.00567,280604852.95449,   0.00094,  -0.00233,  -0.00127,  -6.18979,   1.00000
502667592.79086,436863195.31590,48535638.73443,   0.00239,  -0.00132,  -0.00063,480618678.55659,   0.00568,280618688.13399,   0.00095,  -0.00232,  -0.00126,  -9.57740,   1.00000
501081381.34305,438957347.28266,48972602.40665,   0.00239,  -0.00130,  -0.00062,480632600.74037,   0.00570,280632605.36389,   0.00096,  -0.00232,  -0.00126,  -4.62352,   1.00000
499486622.30512,441007732.13768,49408945.98629,   0.00239,  -0.00128,  -0.00061,480646413.65720,   0.00571,280646417.22125,   0.00098,  -0.00231,  -0.00125,  -3.56404,   1.00000
497866295.54729,443049782.01856,49833379.67762,   0.00239,  -0.00126,  -0.00060,480660484.19060,   0.00573,280660493.83150,   0.00099,  -0.00230,  -0.00125,  -9.64091,   1.00000
496229652.94994,445062928.07065,50254577.83789,   0.00239,  -0.00124,  -0.00059,480674550.86914,   0.00574,280674555.01761,   0.00100,  -0.00230,  -0.00124,  -4.14847,   1.00000
494573679.94721,447044682.73251,50681998.73532,   0.00238,  -0.00122,  -0.00058,480688604.40363,   0.00575,280688614.31981,   0.00101,  -0.00229,  -0.00124,  -9.91618,   1.00000
492901682.25394,449003334.16173,51100122.72616,   0.00238,  -0.00120,  -0.00057,480702851.39476,   0.00577,280702852.47225,   0.00102,  -0.00228,  -0.00123,  -1.07748,   1.00000
491210844.22120,450930861.72330,51524459.86514,   0.00238,  -0.00118,  -0.00056,480717085.35864,   0.00578,280717090.73471,   0.00103,  -0.00227,  -0.00122,  -5.37607,   1.00000
489508084.17983,452838079.60149,51930009.80325,   0.00238,  -0.00116,  -0.00054,480731492.39432,   0.00580,280731496.71776,   0.00104,  -0.00226,  -0.00122,  -4.32344,   1.00000
487777955.90378,454723018.00018,52345099.79811,   0.00238,  -0.00114,  -0.00053,480745797.23692,   0.00581,280745803.75570,   0.00105,  -0.00226,  -0.00121,  -6.51878,   1.00000
486033350.52776,456584487.72106,52750761.29791,   0.00238,  -0.00112,  -0.00052,480760285.73417,   0.00582,280760293.96089,   0.00106,  -0.00225,  -0.00121,  -8.22672,   1.00000
484280125.42394,458406760.85307,53159424.70819,   0.00238,  -0.00110,  -0.00051,480774882.81028,   0.00584,280774888.14622,   0.00107,  -0.00224,  -0.00120,  -5.33594,   1.00000
482507155.11877,460217291.85751,53552511.74228,   0.00237,  -0.00108,  -0.00050,480789547.28297,   0.00585,280789553.73215,   0.00108,  -0.00223,  -0.00119,  -6.44918,   1.00000
480716576.85963,461997497.50714,53951951.54679,   0.00237,  -0.00106,  -0.00049,480804220.73675,   0.00587,280804225.05694,   0.00109,  -0.00222,  -0.00119,  -4.32018,   1.00000
478910086.27330,463751001.15646,54351233.13512,   0.00237,  -0.00104,  -0.00047,480819092.24226,   0.00588,280819096.62761,   0.00110,  -0.00221,  -0.00118,  -4.38535,   1.00000
477093026.70868,465480841.67145,54738083.52191,   0.00237,  -0.00102,  -0.00046,480833942.05508,   0.00590,280833948.73031,   0.00111,  -0.00220,  -0.00117,  -6.67523,   1.00000
475258947.31106,467180949.19465,55131323.32371,   0.00237,  -0.00100,  -0.00045,480848800.15018,   0.00591,280848809.30724,   0.00112,  -0.00219,  -0.00117,  -9.15706,   1.00000
473402740.80828,468866167.94684,55518291.11053,   0.00237,  -0.00098,  -0.00044,480863755.56402,   0.00593,280863761.76350,   0.00113,  -0.00219,  -0.00116,  -6.19948,   1.00000
471555067.82061,470508042.73935,55895645.27228,   0.00236,  -0.00095,  -0.00043,480878901.33258,   0.00594,280878905.15974,   0.00113,  -0.00218,  -0.00115,  -3.82716,   1.00000
469671434.06527,472140426.47227,56279444.76551,   0.00236,  -0.00093,  -0.00042,480894057.78640,   0.00596,280894059.32204,   0.00114,  -0.00217,  -0.00115,  -1.53564,   1.00000
467786223.49658,473738407.45302,56656950.19426,   0.00236,  -0.00091,  -0.00040,480909304.39899,   0.00597,280909308.46756,   0.00115,  -0.00216,  -0.00114,  -4.06857,   1.00000
465879859.86827,475321548.43467,57028160.74026,   0.00236,  -0.00089,  -0.00039,480924646.08538,   0.00599,280924654.20242,   0.00116,  -0.00215,  -0.00113,  -8.11704,   1.00000
463960916.81848,476879207.65928,57396520.85588,   0.00235,  -0.00087,  -0.00038,480939994.65068,   0.00600,280939999.79969,   0.00117,  -0.00214,  -0.00113,  -5.14901,   1.00000
462041611.62501,478403265.09844,57758725.92659,   0.00235,  -0.00085,  -0.00037,480955435.12796,   0.00602,280955440.92336,   0.00118,  -0.00213,  -0.00112,  -5.79540,   1.00000
460110776.73633,479900775.46877,58120620.22590,   0.00235,  -0.00083,  -0.00036,480971082.38798,   0.00603,280971091.17591,   0.00119,  -0.00212,  -0.00111,  -8.78793,   1.00000
458155523.83244,481382068.41149,58483116.92083,   0.00235,  -0.00081,  -0.00034,480986643.24908,   0.00605,280986648.29792,   0.00120,  -0.00211,  -0.00111,  -5.04884,   1.00000
456189457.89037,482836639.32609,58845185.50399,   0.00234,  -0.00079,  -0.00033,481002416.41102,   0.00607,281002417.59753,   0.00121,  -0.00210,  -0.00110,  -1.18651,   1.00000
454228110.82038,484262182.03848,59191854.92629,   0.00234,  -0.00077,  -0.00032,481018262.22283,   0.00608,281018268.87726,   0.00122,  -0.00208,  -0.00109,  -6.65443,   1.00000
452252052.64055,485660250.34286,59545189.39456,   0.00234,  -0.00075,  -0.00031,481034137.57996,   0.00610,281034138.02048,   0.00123,  -0.00207,  -0.00108,  -0.44051,   1.00000
450256522.14054,487043870.56270,59892179.61044,   0.00233,  -0.00072,  -0.00030,481050109.47804,   0.00611,281050113.03358,   0.00123,  -0.00206,  -0.00108,  -3.55554,   1.00000
448255394.66870,488404697.55542,60229465.54278,   0.00233,  -0.00070,  -0.00028,481066287.05590,   0.00613,281066287.92465,   0.00124,  -0.00205,  -0.00107,  -0.86876,   1.00000
446248091.95064,489729453.96743,60577195.66729,   0.00233,  -0.00068,  -0.00027,481082376.68051,   0.00615,281082380.94907,   0.00125,  -0.00204,  -0.00106,  -4.26856,   1.00000
444239408.47544,491035719.17009,60905949.96459,   0.00232,  -0.00066,  -0.00026,481098655.51915,   0.00616,281098659.12957,   0.00126,  -0.00203,  -0.00105,  -3.61042,   1.00000
442194477.22530,492331913.15272,61241046.84430,   0.00232,  -0.00064,  -0.00025,481114968.47950,   0.00618,281114971.32570,   0.00127,  -0.00202,  -0.00104,  -2.84621,   1.00000
440175958.60425,493580880.42642,61570738.15059,   0.00232,  -0.00062,  -0.00024,481131364.86254,   0.00619,281131369.31033,   0.00128,  -0.00201,  -0.00104,  -4.44779,   1.00000
438135969.96922,494812191.10520,61903364.99255,   0.00231,  -0.00060,  -0.00022,481147891.12801,   0.00621,281147894.30987,   0.00129,  -0.00199,  -0.00103,  -3.18187,   1.00000
436081372.36985,496033366.41797,62220405.66375,   0.00231,  -0.00057,  -0.00021,481164513.86403,   0.00623,281164516.53608,   0.00129,  -0.00198,  -0.00102,  -2.67204,   1.00000
434013336.20863,497228465.42810,62544308.03355,   0.00231,  -0.00055,  -0.00020,481181160.37805,   0.00624,281181163.71895,   0.00130,  -0.00197,  -0.00101,  -3.34090,   1.00000
431950719.45802,498394001.27509,62862459.47240,   0.00230,  -0.00053,  -0.00019,481197904.77071,   0.00626,281197910.10513,   0.00131,  -0.00196,  -0.00100,  -5.33442,   1.00000
429886395.92625,499538166.42802,63170952.63477,   0.00230,  -0.00051,  -0.00017,481214857.31192,   0.00628,281214861.32964,   0.00132,  -0.00194,  -0.00100,  -4.01772,   1.00000
427809161.87037,500657085.64499,63486395.48660,   0.00230,  -0.00049,  -0.00016,481231831.27071,   0.00630,281231838.48427,   0.00133,  -0.00193,  -0.00099,  -7.21356,   1.00000
425725695.91081,501759029.75867,63790357.89751,   0.00229,  -0.00047,  -0.00015,481248801.82879,   0.00631,281248809.58434,   0.00133,  -0.00192,  -0.00098,  -7.75555,   1.00000
423638381.78286,502835966.97937,64093907.52373,   0.00229,  -0.00044,  -0.00014,481265996.92821,   0.00633,281266003.69135,   0.00134,  -0.00191,  -0.00097,  -6.76314,   1.00000
421541787.49404,503892302.86223,64395272.03311,   0.00228,  -0.00042,  -0.00012,481283204.16891,   0.00635,281283208.92737,   0.00135,  -0.00189,  -0.00096,  -4.75846,   1.00000
419449391.21701,504916936.45529,64700324.79403,   0.00228,  -0.00040,  -0.00011,481300528.76113,   0.00636,281300529.76259,   0.00136,  -0.00188,  -0.00095,  -1.00147,   1.00000
417344109.51818,505932612.20642,64989881.78821,   0.00227,  -0.00038,  -0.00010,481317953.67571,   0.00638,281317954.59637,   0.00136,  -0.00187,  -0.00094,  -0.92066,   1.00000
415243709.37573,506917103.99185,65283245.81197,   0.00227,  -0.00036,  -0.00009,481335492.60289,   0.00640,281335494.93418,   0.00137,  -0.00185,  -0.00094,  -2.33129,   1.00000
413134431.22709,507882066.32245,65574553.69537,   0.00227,  -0.00034,  -0.00007,481353040.12105,   0.00642,281353047.41395,   0.00138,  -0.00184,  -0.00093,  -7.29290,   1.00000
411027092.43816,508827319.22677,65856296.42037,   0.00226,  -0.00031,  -0.00006,481370806.41582,   0.00643,281370808.61278,   0.00138,  -0.00183,  -0.00092,  -2.19696,   1.00000
408911091.54502,509753438.51652,66136100.17600,   0.00226,  -0.00029,  -0.00005,481388580.19775,   0.00645,281388582.33916,   0.00139,  -0.00181,  -0.00091,  -2.14141,   1.00000
406783148.07277,510656305.18088,66423114.82681,   0.00225,  -0.00027,  -0.00004,481406380.01815,   0.00647,281406386.72852,   0.00140,  -0.00180,  -0.00090,  -6.71037,   1.00000
404661512.11854,511544257.74854,66691426.09733,   0.00225,  -0.00025,  -0.00002,481424379.43479,   0.00649,281424383.90502,   0.00140,  -0.00178,  -0.00089,  -4.47023,   1.00000
402546603.75815,512402845.90982,66963799.66050,   0.00224,  -0.00022,  -0.00001,481442489.51626,   0.00651,281442496.06789,   0.00141,  -0.00177,  -0.00088,  -6.55163,   1.00000
400423327.46569,513243314.58585,67234355.00410,   0.00224,  -0.00020,   0.00000,481460611.88661,   0.00652,281460621.50497,   0.00142,  -0.00176,  -0.00087,  -9.61836,   1.00000
398291654.24888,514065815.20091,67503112.64367,   0.00223,  -0.00018,   0.00001,481478754.38390,   0.00654,281478760.75278,   0.00142,  -0.00174,  -0.00086,  -6.36888,   1.00000
396161264.85428,514865610.99699,67771543.14581,   0.00223,  -0.00016,   0.00003,481497123.20719,   0.00656,281497128.77297,   0.00143,  -0.00173,  -0.00085,  -5.56577,   1.00000
394045133.59201,515646185.18356,68025875.32613,   0.00222,  -0.00014,   0.00004,481515570.68977,   0.00658,281515575.58164,   0.00144,  -0.00171,  -0.00084,  -4.89187,   1.00000
391892244.47708,516416577.13563,68286435.31017,   0.00222,  -0.00011,   0.00005,481534082.55805,   0.00660,281534086.55817,   0.00144,  -0.00170,  -0.00084,  -4.00012,   1.00000
389770520.36851,517157735.88098,68538867.08263,   0.00221,  -0.00009,   0.00007,481552771.15376,   0.00662,281552776.69262,   0.00145,  -0.00168,  -0.00083,  -5.53886,   1.00000
387640783.80576,517882086.99685,68789707.33035,   0.00221,  -0.00007,   0.00008,481571476.19343,   0.00664,281571480.88308,   0.00145,  -0.00167,  -0.00082,  -4.68965,   1.00000
385502985.66118,518589744.28059,69038970.08945,   0.00220,  -0.00005,   0.00009,481590197.41508,   0.00665,281590199.69435,   0.00146,  -0.00165,  -0.00081,  -2.27927,   1.00000
383371822.19608,519280425.06193,69278952.31161,   0.00220,  -0.00002,   0.00010,481609126.59529,   0.00667,281609130.04577,   0.00147,  -0.00164,  -0.00080,  -3.45048,   1.00000
381250007.02997,519944772.22197,69523383.82375,   0.00219,   0.00000,   0.00012,481628164.30458,   0.00669,281628173.71232,   0.00147,  -0.00162,  -0.00079,  -9.40774,   1.00000
379120304.71086,520593193.27513,69766324.63829,   0.00219,   0.00002,   0.00013,481647224.03871,   0.00671,281647231.87308,   0.00148,  -0.00161,  -0.00078,  -7.83437,   1.00000
377006575.99492,521225184.78767,69995601.41409,   0.00218,   0.00005,   0.00014,481666359.64451,   0.00673,281666365.23836,   0.00148,  -0.00159,  -0.00077,  -5.59384,   1.00000
374876717.83163,521841901.87860,70227993.08305,   0.00218,   0.00007,   0.00016,481685642.05573,   0.00675,281685648.85249,   0.00149,  -0.00158,  -0.00076,  -6.79676,   1.00000
372735915.98634,522438454.73916,70468060.21912,   0.00217,   0.00009,   0.00017,481704960.13210,   0.00677,281704966.69641,   0.00149,  -0.00156,  -0.00075,  -6.56431,   1.00000
370611676.01977,523019396.94378,70694529.72436,   0.00217,   0.00011,   0.00018,481724359.24321,   0.00679,281724359.47987,   0.00150,  -0.00154,  -0.00074,  -0.23666,   1.00000
368496340.35233,523585118.24670,70911940.60756,   0.00216,   0.00014,   0.00019,481743955.77715,   0.00681,281743963.30450,   0.00150,  -0.00153,  -0.00073,  -7.52736,   1.00000
366396480.11639,524122176.36691,71138847.23412,   0.00215,   0.00016,   0.00021,481763554.64780,   0.00683,281763558.57001,   0.00151,  -0.00151,  -0.00072,  -3.92221,   1.00000
364262309.40311,524653898.14460,71362823.63498,   0.00215,   0.00018,   0.00022,481783208.61773,   0.00685,281783210.45296,   0.00151,  -0.00149,  -0.00071,  -1.83524,   1.00000
362160048.95891,525166539.21046,71574701.45478,   0.00214,   0.00021,   0.00023,481803143.49452,   0.00687,281803150.57073,   0.00152,  -0.00148,  -0.00070,  -7.07622,   1.00000
360054288.53900,525660703.11740,71790229.99983,   0.00214,   0.00023,   0.00025,481822982.42575,   0.00689,281822984.41142,   0.00152,  -0.00146,  -0.00069,  -1.98567,   1.00000
357936445.43193,526145156.19972,71999834.32150,   0.00213,   0.00025,   0.00026,481842947.23124,   0.00691,281842953.08576,   0.00153,  -0.00144,  -0.00068,  -5.85452,   1.00000
355833327.94379,526611527.18344,72205339.59337,   0.00212,   0.00027,   0.00027,481863008.31685,   0.00693,281863011.76083,   0.00153,  -0.00143,  -0.00067,  -3.44399,   1.00000
353742087.91229,527055478.09028,72415837.42777,   0.00212,   0.00030,   0.00029,481883177.76339,   0.00695,281883179.02145,   0.00154,  -0.00141,  -0.00065,  -1.25806,   1.00000
351642086.31206,527494992.99348,72611422.49079,   0.00211,   0.00032,   0.00030,481903455.75862,   0.00697,281903461.82576,   0.00154,  -0.00139,  -0.00064,  -6.06714,   1.00000
349554351.87827,527912554.06736,72812124.40160,   0.00211,   0.00034,   0.00031,481923848.08512,   0.00699,281923852.43709,   0.00154,  -0.00138,  -0.00063,  -4.35197,   1.00000
347485462.78014,528309463.24067,73013776.23442,   0.00210,   0.00037,   0.00033,481944200.11853,   0.00701,281944207.95893,   0.00155,  -0.00136,  -0.00062,  -7.84039,   1.00000
345401632.42465,528701620.25768,73204732.31606,   0.00209,   0.00039,   0.00034,481964818.98843,   0.00703,281964821.20769,   0.00155,  -0.00134,  -0.00061,  -2.21926,   1.00000
343313144.36912,529077004.50296,73399699.85854,   0.00209,   0.00041,   0.00035,481985320.91663,   0.00705,281985325.36609,   0.00156,  -0.00133,  -0.00060,  -4.44946,   1.00000
341260853.64914,529437136.26529,73583072.67313,   0.00208,   0.00044,   0.00037,482006108.01808,   0.00707,282006110.80087,   0.00156,  -0.00131,  -0.00059,  -2.78279,   1.00000
339200458.24243,529785023.85584,73765694.45558,   0.00207,   0.00046,   0.00038,482026900.23221,   0.00710,282026908.15369,   0.00156,  -0.00129,  -0.00058,  -7.92148,   1.00000
337131901.18343,530120697.46550,73947563.05029,   0.00207,   0.00048,   0.00039,482047715.81956,   0.00712,282047717.96214,   0.00157,  -0.00127,  -0.00057,  -2.14258,   1.00000
335076485.32514,530436383.67338,74134804.69415,   0.00206,   0.00051,   0.00041,482068622.51510,   0.00714,282068632.29315,   0.00157,  -0.00125,  -0.00056,  -9.77804,   1.00000
333039955.37379,530742434.59440,74309446.62117,   0.00205,   0.00053,   0.00042,482089606.39461,   0.00716,282089609.04098,   0.00157,  -0.00124,  -0.00055,  -2.64637,   1.00000
330989650.36656,531035543.61428,74487445.68766,   0.00205,   0.00055,   0.00043,482110741.44184,   0.00718,282110742.52488,   0.00158,  -0.00122,  -0.00054,  -1.08303,   1.00000
328955680.50095,531314484.31579,74661938.14346,   0.00204,   0.00058,   0.00045,482131951.07926,   0.00720,282131958.20951,   0.00158,  -0.00120,  -0.00052,  -7.13025,   1.00000
326938089.71130,531579674.64940,74833001.09318,   0.00203,   0.00060,   0.00046,482153249.29222,   0.00722,282153254.70583,   0.00158,  -0.00118,  -0.00051,  -5.41362,   1.00000
324911950.28559,531833710.05209,75003466.20913,   0.00203,   0.00062,   0.00047,482174556.00193,   0.00725,282174562.10295,   0.00159,  -0.00116,  -0.00050,  -6.10102,   1.00000
322900245.80671,532078022.05134,75165562.01983,   0.00202,   0.00065,   0.00049,482196071.45294,   0.00727,282196074.99576,   0.00159,  -0.00115,  -0.00049,  -3.54282,   1.00000
320905177.48767,532309370.10858,75324420.66031,   0.00201,   0.00067,   0.00050,482217658.94063,   0.00729,282217666.44779,   0.00159,  -0.00113,  -0.00048,  -7.50716,   1.00000
318903197.07111,532526515.82407,75487866.39990,   0.00201,   0.00069,   0.00051,482239136.38079,   0.00731,282239141.44587,   0.00159,  -0.00111,  -0.00047,  -5.06508,   1.00000
316911762.87747,532733123.51313,75646950.20794,   0.00200,   0.00072,   0.00053,482260962.80923,   0.00733,282260968.19080,   0.00160,  -0.00109,  -0.00046,  -5.38157,   1.00000
314915810.93888,532930799.29669,75801677.40682,   0.00199,   0.00074,   0.00054,482282648.32620,   0.00735,282282657.11049,   0.00160,  -0.00107,  -0.00045,  -8.78428,   1.00000
312934025.67077,533111405.38886,75962259.19097,   0.00199,   0.00076,   0.00055,482304438.31987,   0.00738,282304443.81231,   0.00160,  -0.00105,  -0.00043,  -5.49243,   1.00000
310970396.88283,533288838.62680,76105694.60529,   0.00198,   0.00079,   0.00057,482326405.65750,   0.00740,282326412.07910,   0.00160,  -0.00103,  -0.00042,  -6.42160,   1.00000
309021081.66920,533449819.82737,76255159.84188,   0.00197,   0.00081,   0.00058,482348470.56676,   0.00742,282348475.73378,   0.00161,  -0.00101,  -0.00041,  -5.16702,   1.00000
307062542.67921,533600926.60012,76404290.35216,   0.00196,   0.00083,   0.00059,482370545.78401,   0.00744,282370547.71431,   0.00161,  -0.00099,  -0.00040,  -1.93030,   1.00000
305121020.50709,533741110.43148,76550474.02548,   0.00196,   0.00086,   0.00061,482392685.51570,   0.00747,282392693.19527,   0.00161,  -0.00098,  -0.00039,  -7.67957,   1.00000
303199061.20963,533875827.32486,76684850.97112,   0.00195,   0.00088,   0.00062,482414882.83238,   0.00749,282414889.12719,   0.00161,  -0.00096,  -0.00038,  -6.29481,   1.00000
301264227.90377,533999202.96575,76822876.38572,   0.00194,   0.00091,   0.00063,482437238.62108,   0.00751,282437242.03673,   0.00161,  -0.00094,  -0.00036,  -3.41565,   1.00000
299347147.68644,534109043.74971,76963266.12773,   0.00194,   0.00093,   0.00065,482459531.61107,   0.00753,282459537.53543,   0.00162,  -0.00092,  -0.00035,  -5.92436,   1.00000
297446607.54118,534212313.71584,77095757.07596,   0.00193,   0.00095,   0.00066,482482027.97538,   0.00756,282482031.88159,   0.00162,  -0.00090,  -0.00034,  -3.90621,   1.00000
295533750.23827,534301243.74137,77237029.94548,   0.00192,   0.00098,   0.00067,482504551.95574,   0.00758,282504554.57835,   0.00162,  -0.00088,  -0.00033,  -2.62261,   1.00000
293640343.57687,534389083.41932,77361475.50587,   0.00191,   0.00100,   0.00069,482527246.35200,   0.00760,282527254.15993,   0.00162,  -0.00086,  -0.00032,  -7.80794,   1.00000
291764284.86851,534464394.76954,77488551.44224,   0.00191,   0.00102,   0.00070,482549885.59468,   0.00763,282549891.97485,   0.00162,  -0.00084,  -0.00031,  -6.38017,   1.00000
289905286.04919,534530771.45592,77613097.02584,   0.00190,   0.00105,   0.00071,482572588.11637,   0.00765,282572596.40987,   0.00162,  -0.00082,  -0.00029,  -8.29350,   1.00000
288033628.70608,534586522.69786,77741344.27023,   0.00189,   0.00107,   0.00073,482595457.24403,   0.00767,282595457.58481,   0.00162,  -0.00080,  -0.00028,  -0.34078,   1.00000
286181612.46176,534638841.79953,77858152.93329,   0.00188,   0.00110,   0.00074,482618354.99246,   0.00770,282618362.79361,   0.00162,  -0.00078,  -0.00027,  -7.80115,   1.00000
284344345.15880,534677653.13503,77981500.25446,   0.00188,   0.00112,   0.00076,482641352.74534,   0.00772,282641354.70251,   0.00162,  -0.00076,  -0.00026,  -1.95716,   1.00000
282526556.12067,534713615.36116,78093525.47031,   0.00187,   0.00114,   0.00077,482664381.60313,   0.00774,282664388.14195,   0.00163,  -0.00074,  -0.00025,  -6.53882,   1.00000
280695605.98260,534736054.54075,78214568.49013,   0.00186,   0.00117,   0.00078,482687441.87722,   0.00777,282687447.05790,   0.00163,  -0.00072,  -0.00023,  -5.18067,   1.00000
278884825.76585,534759216.55107,78319134.42412,   0.00185,   0.00119,   0.00080,482710674.46771,   0.00779,282710677.30489,   0.00163,  -0.00070,  -0.00022,  -2.83718,   1.00000
277088002.52648,534766412.58013,78435652.01727,   0.00185,   0.00122,   0.00081,482733854.84134,   0.00781,282733860.36173,   0.00163,  -0.00068,  -0.00021,  -5.52039,   1.00000
275309079.15927,534769662.14104,78544682.53342,   0.00184,   0.00124,   0.00082,482757225.56004,   0.00784,282757235.26212,   0.00163,  -0.00066,  -0.00020,  -9.70208,   1.00000
273521231.20033,534770166.33365,78644971.89734,   0.00183,   0.00126,   0.00084,482780587.04476,   0.00786,282780589.57650,   0.00163,  -0.00064,  -0.00019,  -2.53174,   1.00000
271776441.04629,534759583.12716,78749795.77467,   0.00182,   0.00129,   0.00085,482804080.69949,   0.00789,282804082.88860,   0.00163,  -0.00062,  -0.00017,  -2.18911,   1.00000
270020053.13867,534741292.46978,78854831.33829,   0.00181,   0.00131,   0.00086,482827567.60287,   0.00791,282827576.89325,   0.00163,  -0.00059,  -0.00016,  -9.29038,   1.00000
268252065.32726,534715229.54626,78960056.02002,   0.00181,   0.00134,   0.00088,482851068.04622,   0.00793,282851072.31585,   0.00163,  -0.00057,  -0.00015,  -4.26963,   1.00000
266529649.03348,534684193.82629,79060956.62318,   0.00180,   0.00136,   0.00089,482874678.36265,   0.00796,282874681.60382,   0.00163,  -0.00055,  -0.00014,  -3.24118,   1.00000
264799071.84711,534654105.14995,79147976.70089,   0.00179,   0.00138,   0.00090,482898391.43382,   0.00798,282898400.15161,   0.00163,  -0.00053,  -0.00012,  -8.71779,   1.00000
263083158.15415,534612752.57970,79242057.32519,   0.00178,   0.00141,   0.00092,482922191.38744,   0.00801,282922196.72525,   0.00163,  -0.00051,  -0.00011,  -5.33781,   1.00000
261382204.12904,534562357.62854,79339506.27357,   0.00177,   0.00143,   0.00093,482945913.44640,   0.00803,282945915.69654,   0.00163,  -0.00049,  -0.00010,  -2.25014,   1.00000
259699785.44328,534509729.33875,79429799.13069,   0.00177,   0.00146,   0.00095,482969819.20227,   0.00806,282969820.86663,   0.00163,  -0.00047,  -0.00009,  -1.66436,   1.00000
258033952.75215,534451769.01079,79518296.16885,   0.00176,   0.00148,   0.00096,482993778.36078,   0.00808,282993778.58543,   0.00163,  -0.00045,  -0.00007,  -0.22466,   1.00000
256355471.68078,534386570.37712,79607181.89024,   0.00175,   0.00150,   0.00097,483017725.73759,   0.00811,283017734.47172,   0.00163,  -0.00043,  -0.00006,  -8.73414,   1.00000
254725038.68378,534321797.81025,79686910.06001,   0.00174,   0.00153,   0.00099,483041922.85511,   0.00813,283041928.05597,   0.00163,  -0.00041,  -0.00005,  -5.20086,   1.00000
253079296.97006,534246627.94684,79772406.76985,   0.00173,   0.00155,   0.00100,483065978.58221,   0.00816,283065985.45190,   0.00162,  -0.00038,  -0.00004,  -6.86970,   1.00000
251452385.91797,534170082.93833,79850947.49888,   0.00173,   0.00158,   0.00101,483090218.79846,   0.00818,283090225.81298,   0.00162,  -0.00036,  -0.00002,  -7.01452,   1.00000
249809783.83730,534083117.73936,79935257.03928,   0.00172,   0.00160,   0.00103,483114326.54727,   0.00820,283114329.98860,   0.00162,  -0.00034,  -0.00001,  -3.44133,   1.00000
248217787.75166,534002875.18998,80001696.81350,   0.00171,   0.00163,   0.00104,483138637.46747,   0.00823,283138645.12914,   0.00162,  -0.00032,   0.00000,  -7.66167,   1.00000
246639826.47682,533913138.80620,80075604.10447,   0.00170,   0.00165,   0.00105,483163023.21642,   0.00825,283163029.85199,   0.00162,  -0.00030,   0.00001,  -6.63556,   1.00000
245048167.02865,533816571.66269,80150071.45893,   0.00169,   0.00167,   0.00107,483187402.35541,   0.00828,283187409.75266,   0.00162,  -0.00028,   0.00003,  -7.39726,   1.00000
243472598.89063,533716005.48391,80223050.88452,   0.00169,   0.00170,   0.00108,483211828.98934,   0.00831,283211836.05696,   0.00162,  -0.00025,   0.00004,  -7.06762,   1.00000
241913003.74491,533611610.21085,80294578.10099,   0.00168,   0.00172,   0.00110,483236300.67564,   0.00833,283236307.84170,   0.00162,  -0.00023,   0.00005,  -7.16606,   1.00000
240372443.75387,533506997.16012,80359405.60899,   0.00167,   0.00175,   0.00111,483260953.60306,   0.00836,283260957.82224,   0.00162,  -0.00021,   0.00006,  -4.21918,   1.00000
238844405.43177,533395402.66470,80428196.23057,   0.00166,   0.00177,   0.00112,483285507.77683,   0.00838,283285517.47069,   0.00161,  -0.00019,   0.00008,  -9.69386,   1.00000
237335360.00428,533283949.41826,80490352.97827,   0.00165,   0.00180,   0.00114,483310248.66385,   0.00841,283310253.66690,   0.00161,  -0.00017,   0.00009,  -5.00304,   1.00000
235811760.02384,533165872.42744,80553195.44903,   0.00164,   0.00182,   0.00115,483334979.92204,   0.00843,283334982.96871,   0.00161,  -0.00015,   0.00010,  -3.04667,   1.00000
234330443.75110,533044589.62306,80618127.44271,   0.00164,   0.00184,   0.00116,483359662.76326,   0.00846,283359668.60736,   0.00161,  -0.00012,   0.00012,  -5.84409,   1.00000
232839689.71836,532925610.85418,80669569.23021,   0.00163,   0.00187,   0.00118,483384455.82947,   0.00848,283384457.10879,   0.00161,  -0.00010,   0.00013,  -1.27932,   1.00000
231392755.56299,532802073.46810,80726868.83044,   0.00162,   0.00189,   0.00119,483409349.23001,   0.00851,283409356.62964,   0.00161,  -0.00008,   0.00014,  -7.39963,   1.00000
229934356.35108,532675685.60838,80779629.77812,   0.00161,   0.00192,   0.00120,483434379.32773,   0.00853,283434381.42310,   0.00160,  -0.00006,   0.00015,  -2.09537,   1.00000
228487249.23913,532543064.91221,80836591.38580,   0.00160,   0.00194,   0.00122,483459308.07919,   0.00856,283459310.45804,   0.00160,  -0.00003,   0.00017,  -2.37885,   1.00000
227055196.06587,532407939.72063,80892428.69549,   0.00159,   0.00197,   0.00123,483484273.02090,   0.00859,283484277.49250,   0.00160,  -0.00001,   0.00018,  -4.47160,   1.00000
225644014.76605,532279327.16235,80933025.56394,   0.00159,   0.00199,   0.00125,483509382.58431,   0.00861,283509392.40365,   0.00160,   0.00001,   0.00019,  -9.81934,   1.00000
224241636.33861,532139490.75659,80986869.99004,   0.00158,   0.00202,   0.00126,483534423.03025,   0.00864,283534432.16989,   0.00159,   0.00003,   0.00021,  -9.13963,   1.00000
222858234.37752,532001181.64651,81034380.69671,   0.00157,   0.00204,   0.00127,483559632.76451,   0.00866,283559642.06424,   0.00159,   0.00005,   0.00022,  -9.29973,   1.00000
221460475.85522,531861795.82159,81073880.06285,   0.00156,   0.00207,   0.00129,483584809.43270,   0.00869,283584817.73188,   0.00159,   0.00008,   0.00023,  -8.29918,   1.00000
220106443.54004,531719472.65365,81119586.45916,   0.00155,   0.00209,   0.00130,483610094.93399,   0.00872,283610096.47047,   0.00159,   0.00010,   0.00024,  -1.53649,   1.00000
218768493.61620,531580616.18967,81155533.38248,   0.00154,   0.00211,   0.00131,483635375.53005,   0.00874,283635384.52092,   0.00159,   0.00012,   0.00026,  -8.99087,   1.00000
217442989.93113,531434758.45086,81199559.86896,   0.00154,   0.00214,   0.00133,483660727.26424,   0.00877,283660728.18795,   0.00158,   0.00014,   0.00027,  -0.92371,   1.00000
216102338.43832,531287910.79413,81235612.05309,   0.00153,   0.00216,   0.00134,483686033.41920,   0.00879,283686036.03081,   0.00158,   0.00017,   0.00028,  -2.61161,   1.00000
214806887.08704,531144171.45422,81269165.49048,   0.00152,   0.00219,   0.00135,483711417.40077,   0.00882,283711418.98802,   0.00158,   0.00019,   0.00030,  -1.58725,   1.00000
213497374.64634,530992670.94921,81307285.58966,   0.00151,   0.00221,   0.00137,483736941.37250,   0.00885,283736947.40361,   0.00157,   0.00021,   0.00031,  -6.03111,   1.00000
212229680.32452,530846158.52569,81339368.75104,   0.00150,   0.00224,   0.00138,483762389.43636,   0.00887,283762390.25307,   0.00157,   0.00024,   0.00032,  -0.81671,   1.00000
210949426.79402,530697216.12974,81367183.25969,   0.00149,   0.00226,   0.00139,483787947.20794,   0.00890,283787954.09054,   0.00157,   0.00026,   0.00034,  -6.88259,   1.00000
209712440.89981,530546824.94538,81401550.49324,   0.00149,   0.00229,   0.00141,483813609.69381,   0.00893,283813612.57235,   0.00157,   0.00028,   0.00035,  -2.87854,   1.00000
208459188.57127,530395508.53547,81428051.76398,   0.00148,   0.00231,   0.00142,483839223.59134,   0.00895,283839232.65818,   0.00156,   0.00030,   0.00036,  -9.06684,   1.00000
207245409.05856,530244445.53765,81457596.76972,   0.00147,   0.00234,   0.00143,483864779.45537,   0.00898,283864786.65955,   0.00156,   0.00033,   0.00038,  -7.20418,   1.00000
206024064.29754,530094996.54739,81477625.31797,   0.00146,   0.00236,   0.00145,483890592.03929,   0.00901,283890595.37552,   0.00156,   0.00035,   0.00039,  -3.33622,   1.00000
204841893.54448,529946049.22933,81500818.47005,   0.00145,   0.00239,   0.00146,483916330.03854,   0.00903,283916335.78235,   0.00155,   0.00037,   0.00040,  -5.74380,   1.00000
203641100.53344,529790882.66714,81525121.60061,   0.00144,   0.00241,   0.00148,483942057.62753,   0.00906,283942059.99797,   0.00155,   0.00040,   0.00042,  -2.37044,   1.00000
202484745.35732,529640472.50882,81547303.88695,   0.00143,   0.00243,   0.00149,483967844.31261,   0.00909,283967849.51415,   0.00155,   0.00042,   0.00043,  -5.20153,   1.00000
201316667.82777,529493089.21175,81556484.31074,   0.00143,   0.00246,   0.00150,483993727.55204,   0.00911,283993733.31782,   0.00154,   0.00044,   0.00044,  -5.76578,   1.00000
200191296.06995,529345428.39391,81572623.51419,   0.00142,   0.00248,   0.00152,484019698.90262,   0.00914,284019703.81545,   0.00154,   0.00047,   0.00046,  -4.91283,   1.00000
199040836.86593,529187481.41353,81595210.72295,   0.00141,   0.00251,   0.00153,484045515.73620,   0.00917,284045521.62023,   0.00154,   0.00049,   0.00047,  -5.88403,   1.00000
197941906.51305,529044177.92504,81601672.16939,   0.00140,   0.00253,   0.00154,484071509.22649,   0.00920,284071512.32839,   0.00153,   0.00051,   0.00048,  -3.10190,   1.00000
196821823.07671,528889295.08678,81618275.15469,   0.00139,   0.00256,   0.00156,484097500.25132,   0.00922,284097508.52307,   0.00153,   0.00054,   0.00050,  -8.27175,   1.00000
195747208.36821,528745248.48979,81624130.93593,   0.00138,   0.00258,   0.00157,484123535.17236,   0.00925,284123540.49072,   0.00152,   0.00056,   0.00051,  -5.31837,   1.00000
194682890.04683,528595646.49972,81638616.23902,   0.00138,   0.00261,   0.00158,484149613.27359,   0.00928,284149615.70000,   0.00152,   0.00058,   0.00052,  -2.42641,   1.00000
193631759.30067,528451086.86695,81643934.48898,   0.00137,   0.00263,   0.00160,484175682.87023,   0.00930,284175686.01744,   0.00152,   0.00061,   0.00053,  -3.14720,   1.00000
192566588.12584,528304319.37015,81645294.95415,   0.00136,   0.00266,   0.00161,484201865.98027,   0.00933,284201871.95502,   0.00151,   0.00063,   0.00055,  -5.97475,   1.00000
191538737.49051,528159376.81829,81650267.75276,   0.00135,   0.00268,   0.00162,484227977.01422,   0.00936,284227978.71934,   0.00151,   0.00065,   0.00056,  -1.70512,   1.00000
190528550.29352,528018522.28918,81649814.02525,   0.00134,   0.00271,   0.00164,484254231.95734,   0.00939,284254237.90206,   0.00150,   0.00068,   0.00057,  -5.94472,   1.00000
189529563.38869,527877597.86050,81649256.09524,   0.00133,   0.00273,   0.00165,484280503.57084,   0.00941,284280513.49617,   0.00150,   0.00070,   0.00059,  -9.92533,   1.00000
188535193.94703,527732425.24657,81653841.17487,   0.00133,   0.00276,   0.00166,484306665.45393,   0.00944,284306669.95971,   0.00150,   0.00072,   0.00060,  -4.50578,   1.00000
187590308.73976,527598010.24974,81651594.06433,   0.00132,   0.00278,   0.00168,484333004.40819,   0.00947,284333013.93372,   0.00149,   0.00075,   0.00061,  -9.52552,   1.00000
186623949.80092,527457184.29732,81650725.51751,   0.00131,   0.00281,   0.00169,484359329.17032,   0.00950,284359335.70055,   0.00149,   0.00077,   0.00063,  -6.53024,   1.00000
185676386.60256,527325973.36739,81635700.87460,   0.00130,   0.00283,   0.00170,484385780.55614,   0.00952,284385783.16689,   0.00148,   0.00079,   0.00064,  -2.61076,   1.00000
184763390.58267,527191938.85936,81633453.79456,   0.00129,   0.00286,   0.00172,484412162.44193,   0.00955,284412168.82420,   0.00148,   0.00082,   0.00066,  -6.38226,   1.00000
183829875.20339,527056636.75269,81623716.28102,   0.00128,   0.00288,   0.00173,484438498.45110,   0.00958,284438507.81290,   0.00148,   0.00084,   0.00067,  -9.36180,   1.00000
182944330.84506,526927405.64979,81616276.58576,   0.00128,   0.00291,   0.00174,484465052.60319,   0.00961,284465054.14224,   0.00147,   0.00087,   0.00068,  -1.53905,   1.00000
182070105.94275,526803634.90610,81600024.38320,   0.00127,   0.00293,   0.00176,484491580.47166,   0.00963,284491588.11364,   0.00147,   0.00089,   0.00070,  -7.64199,   1.00000
181198788.05818,526675726.27626,81589141.41545,   0.00126,   0.00296,   0.00177,484517989.48253,   0.00966,284517997.95753,   0.00146,   0.00091,   0.00071,  -8.47501,   1.00000
180344199.47035,526552512.01276,81573139.71422,   0.00125,   0.00298,   0.00178,484544547.28128,   0.00969,284544553.72233,   0.00146,   0.00094,   0.00072,  -6.44105,   1.00000
179499233.54510,526429600.57182,81557299.99202,   0.00124,   0.00301,   0.00180,484571118.54645,   0.00972,284571119.65650,   0.00145,   0.00096,   0.00074,  -1.11005,   1.00000
178663783.76036,526307009.85463,81541622.20854,   0.00123,   0.00303,   0.00181,484597691.80905,   0.00975,284597695.48545,   0.00145,   0.00099,   0.00075,  -3.67640,   1.00000
177844885.09245,526189225.42004,81520911.88535,   0.00123,   0.00306,   0.00182,484624410.23316,   0.00977,284624415.73648,   0.00144,   0.00101,   0.00076,  -5.50332,   1.00000
177060396.81038,526074464.56827,81504310.99894,   0.00122,   0.00308,   0.00184,484651040.51824,   0.00980,284651043.50192,   0.00144,   0.00103,   0.00078,  -2.98368,   1.00000
176293316.65453,525969786.18203,81473857.09236,   0.00121,   0.00311,   0.00185,484677789.43938,   0.00983,284677789.99077,   0.00143,   0.00106,   0.00079,  -0.55139,   1.00000
175494041.13455,525848561.36721,81459125.21273,   0.00120,   0.00313,   0.00186,484704390.47717,   0.00986,284704399.18422,   0.00143,   0.00108,   0.00080,  -8.70705,   1.00000
174744778.04785,525744756.78552,81429224.48942,   0.00119,   0.00316,   0.00188,484731154.05448,   0.00989,284731160.53017,   0.00142,   0.00111,   0.00082,  -6.47568,   1.00000
174004048.60788,525641346.35673,81399697.11587,   0.00119,   0.00318,   0.00189,484757922.70117,   0.00991,284757928.05445,   0.00142,   0.00113,   0.00083,  -5.35328,   1.00000
173302911.35710,525540551.86034,81378124.07072,   0.00118,   0.00321,   0.00190,484784756.66291,   0.00994,284784758.07670,   0.00141,   0.00116,   0.00084,  -1.41379,   1.00000
172586074.72455,525442566.73573,81344074.28916,   0.00117,   0.00323,   0.00191,484811663.74834,   0.00997,284811671.50361,   0.00141,   0.00118,   0.00086,  -7.75527,   1.00000
171902414.42617,525347887.62996,81314366.86859,   0.00116,   0.00326,   0.00193,484838479.91187,   0.01000,284838487.43654,   0.00140,   0.00120,   0.00087,  -7.52467,   1.00000
171195343.32910,525251349.40824,81277442.99582,   0.00115,   0.00328,   0.00194,484865248.03964,   0.01003,284865251.53880,   0.00140,   0.00123,   0.00088,  -3.49916,   1.00000
170535184.14555,525162205.32542,81243450.94939,   0.00115,   0.00331,   0.00195,484892207.10263,   0.01006,284892210.64483,   0.00139,   0.00125,   0.00090,  -3.54220,   1.00000
169882627.23520,525073528.74171,81209911.98750,   0.00114,   0.00333,   0.00197,484919164.89490,   0.01008,284919173.03898,   0.00139,   0.00128,   0.00091,  -8.14409,   1.00000
169271340.72720,524998088.31337,81166724.64432,   0.00113,   0.00336,   0.00198,484946142.16913,   0.01011,284946146.14078,   0.00138,   0.00130,   0.00092,  -3.97165,   1.00000
168633356.68951,524910284.38761,81134209.94280,   0.00112,   0.00339,   0.00199,484973104.92052,   0.01014,284973113.25614,   0.00138,   0.00133,   0.00094,  -8.33562,   1.00000
168036499.60523,524835810.85471,81092049.58782,   0.00111,   0.00341,   0.00201,485000085.10377,   0.01017,285000090.39200,   0.00137,   0.00135,   0.00095,  -5.28823,   1.00000
167454319.90423,524766431.52721,81045323.25353,   0.00111,   0.00344,   0.00202,485027199.52209,   0.01020,285027203.12599,   0.00137,   0.00137,   0.00097,  -3.60390,   1.00000
166871102.05407,524692803.19966,81004361.91135,   0.00110,   0.00346,   0.00203,485054178.48575,   0.01023,285054181.95666,   0.00136,   0.00140,   0.00098,  -3.47091,   1.00000
166302478.05797,524624313.81673,80958831.41155,   0.00109,   0.00349,   0.00204,485081290.68155,   0.01026,285081295.97702,   0.00136,   0.00142,   0.00099,  -5.29547,   1.00000
165773098.98577,524564081.15575,80912730.15512,   0.00108,   0.00351,   0.00206,485108433.17734,   0.01028,285108440.76742,   0.00135,   0.00145,   0.00101,  -7.59009,   1.00000
165217267.02159,524496428.51505,80868452.82329,   0.00108,   0.00354,   0.00207,485135550.49222,   0.01031,285135554.16926,   0.00135,   0.00147,   0.00102,  -3.67704,   1.00000
164700563.33899,524437117.41742,80823603.97763,   0.00107,   0.00356,   0.00208,485162696.31387,   0.01034,285162697.74842,   0.00134,   0.00150,   0.00103,  -1.43454,   1.00000
164199034.68429,524388051.11554,80765391.63857,   0.00106,   0.00359,   0.00210,485189947.14488,   0.01037,285189950.67517,   0.00134,   0.00152,   0.00105,  -3.53029,   1.00000
163734928.77164,524342177.60652,80715686.23036,   0.00105,   0.00361,   0.00211,485217253.42937,   0.01040,285217255.12250,   0.00133,   0.00155,   0.00106,  -1.69313,   1.00000
163236726.24465,524289064.85243,80664057.17854,   0.00104,   0.00364,   0.00212,485244363.31403,   0.01043,285244369.10754,   0.00132,   0.00157,   0.00107,  -5.79351,   1.00000
162785120.10373,524249093.64074,80606888.60954,   0.00104,   0.00367,   0.00214,485271642.80605,   0.01046,285271644.98764,   0.00132,   0.00160,   0.00109,  -2.18160,   1.00000
162338845.71426,524209433.69540,80550508.16545,   0.00103,   0.00369,   0.00215,485298907.81001,   0.01049,285298917.52546,   0.00131,   0.00162,   0.00110,  -9.71545,   1.00000
161938687.69033,524182921.03241,80488681.23952,   0.00102,   0.00372,   0.00216,485326346.23962,   0.01051,285326350.03149,   0.00131,   0.00165,   0.00111,  -3.79188,   1.00000
161502431.32730,524143818.55608,80433932.57268,   0.00101,   0.00374,   0.00217,485353612.65835,   0.01054,285353614.27183,   0.00130,   0.00167,   0.00113,  -1.61347,   1.00000
161113364.08845,524122976.45886,80364847.33405,   0.00101,   0.00377,   0.00219,485381005.67259,   0.01057,285381014.55844,   0.00130,   0.00170,   0.00114,  -8.88585,   1.00000
160727828.57838,524097274.02430,80305602.34638,   0.00100,   0.00379,   0.00220,485408425.97353,   0.01060,285408432.86024,   0.00129,   0.00172,   0.00116,  -6.88672,   1.00000
160348011.41707,524076884.77581,80238295.05508,   0.00099,   0.00382,   0.00221,485435816.14701,   0.01063,285435822.54384,   0.00128,   0.00175,   0.00117,  -6.39683,   1.00000
160004402.90484,524059823.32680,80179687.77567,   0.00098,   0.00385,   0.00223,485463258.39536,   0.01066,285463259.03052,   0.00128,   0.00177,   0.00118,  -0.63516,   1.00000
159674273.81878,524052795.06203,80107955.02099,   0.00098,   0.00387,   0.00224,485490792.50856,   0.01069,285490799.77778,   0.00127,   0.00180,   0.00120,  -7.26922,   1.00000
159339866.70584,524041093.79662,80042264.93858,   0.00097,   0.00390,   0.00225,485518192.86711,   0.01072,285518199.82046,   0.00127,   0.00182,   0.00121,  -6.95335,   1.00000
159017769.21569,524034341.38817,79972442.89127,   0.00096,   0.00392,   0.00226,485545718.53379,   0.01075,285545726.93991,   0.00126,   0.00185,   0.00122,  -8.40611,   1.00000
158732376.39744,524035952.92892,79902486.71591,   0.00096,   0.00395,   0.00228,485573266.66833,   0.01078,285573275.55124,   0.00125,   0.00187,   0.00124,  -8.88291,   1.00000
158427056.77219,524039177.60131,79820672.23717,   0.00095,   0.00397,   0.00229,485600892.28403,   0.01081,285600897.96980,   0.00125,   0.00190,   0.00125,  -5.68577,   1.00000
158181674.33871,524049157.90337,79751720.45408,   0.00094,   0.00400,   0.00230,485628458.29815,   0.01084,285628458.99560,   0.00124,   0.00192,   0.00126,  -0.69745,   1.00000
