# sigma_xx, sigma_yy, sigma_xy, epsilon_xx, epsilon_yy, epsilon_xy, vonMises, epsPlastic, hardening, epsilonP__xx, epsilonP__yy, epsilonP__xy, yieldValue, iteration
   0.00000,   0.00000,   0.00000,   0.00000,   0.00000,   0.00000,1181185.37500,   0.00000,274640576.00000,   0.00000,   0.00000,   0.00000,-473459392.00000,   0.00000
   0.00000,   0.00000,   0.00000,   0.00000,   0.00000,   0.00000,1181185.37500,   0.00000,274640576.00000,   0.00000,   0.00000,   0.00000,-473459392.00000,   0.00000
1383730.14111,-1355081.48394,63027.04576,   0.00001,  -0.00001,   0.00000,3749898.50000,   0.00000,274640576.00000,   0.00000,   0.00000,   0.00000,-470890688.00000,   0.00000
2796108.93938,-2681514.31072,126054.09153,   0.00002,  -0.00002,   0.00000,7074751.00000,   0.00000,274640576.00000,   0.00000,   0.00000,   0.00000,-467565824.00000,   0.00000
4188433.67764,-4016541.73465,183351.40586,   0.00003,  -0.00003,   0.00000,8391130.00000,   0.00000,274640576.00000,   0.00000,   0.00000,   0.00000,-466249440.00000,   0.00000
5580758.41590,-5351569.15857,246378.45163,   0.00004,  -0.00004,   0.00000,9267644.00000,   0.00000,274640576.00000,   0.00000,   0.00000,   0.00000,-465372928.00000,   0.00000
6981677.75131,-6666542.52249,309405.49739,   0.00004,  -0.00004,   0.00000,10438978.00000,   0.00000,274640576.00000,   0.00000,   0.00000,   0.00000,-464201600.00000,   0.00000
8391191.68387,-7961461.82638,366702.81172,   0.00005,  -0.00005,   0.00000,11983656.00000,   0.00000,274640576.00000,   0.00000,   0.00000,   0.00000,-462656928.00000,   0.00000
9800705.61643,-9256381.13028,424000.12605,   0.00006,  -0.00006,   0.00001,13840617.00000,   0.00000,274640576.00000,   0.00000,   0.00000,   0.00000,-460799952.00000,   0.00000
11210219.54898,-10551300.43417,487027.17182,   0.00007,  -0.00007,   0.00001,15917199.00000,   0.00000,274640576.00000,   0.00000,   0.00000,   0.00000,-458723376.00000,   0.00000
12628328.07869,-11826165.67805,544324.48615,   0.00008,  -0.00008,   0.00001,18121166.00000,   0.00000,274640576.00000,   0.00000,   0.00000,   0.00000,-456519408.00000,   0.00000
14034977.14553,-13089571.45906,601621.80048,   0.00009,  -0.00009,   0.00001,20389684.00000,   0.00000,274640576.00000,   0.00000,   0.00000,   0.00000,-454250896.00000,   0.00000
15453085.67524,-14364436.70294,658919.11481,   0.00010,  -0.00010,   0.00001,22723638.00000,   0.00000,274640576.00000,   0.00000,   0.00000,   0.00000,-451916944.00000,   0.00000
16868329.33923,-15607788.42394,716216.42915,   0.00011,  -0.00010,   0.00001,25051734.00000,   0.00000,274640576.00000,   0.00000,   0.00000,   0.00000,-449588848.00000,   0.00000
18274978.40607,-16871194.20495,773513.74348,   0.00012,  -0.00011,   0.00001,27400486.00000,   0.00000,274640576.00000,   0.00000,   0.00000,   0.00000,-447240096.00000,   0.00000
19718870.72723,-18085897.26878,825081.32638,   0.00012,  -0.00012,   0.00001,29751018.00000,   0.00000,274640576.00000,   0.00000,   0.00000,   0.00000,-444889552.00000,   0.00000
21114060.33121,-19337843.58693,882378.64071,   0.00013,  -0.00013,   0.00001,32093668.00000,   0.00000,274640576.00000,   0.00000,   0.00000,   0.00000,-442546912.00000,   0.00000
22546493.18950,-20541087.18789,933946.22361,   0.00014,  -0.00014,   0.00001,34440888.00000,   0.00000,274640576.00000,   0.00000,   0.00000,   0.00000,-440199680.00000,   0.00000
23970331.45064,-21764384.84887,991243.53794,   0.00015,  -0.00015,   0.00001,36807084.00000,   0.00000,274640576.00000,   0.00000,   0.00000,   0.00000,-437833488.00000,   0.00000
25402764.30893,-22967628.44984,1042811.12084,   0.00016,  -0.00015,   0.00001,39177436.00000,   0.00000,274640576.00000,   0.00000,   0.00000,   0.00000,-435463136.00000,   0.00000
26823737.70435,-24159412.58793,1094378.70373,   0.00017,  -0.00016,   0.00001,41539384.00000,   0.00000,274640576.00000,   0.00000,   0.00000,   0.00000,-433101184.00000,   0.00000
28244711.09978,-25351196.72603,1145946.28663,   0.00018,  -0.00017,   0.00001,43912088.00000,   0.00000,274640576.00000,   0.00000,   0.00000,   0.00000,-430728480.00000,   0.00000
29685738.55522,-26534386.26698,1197513.86953,   0.00019,  -0.00018,   0.00002,46305460.00000,   0.00000,274640576.00000,   0.00000,   0.00000,   0.00000,-428335120.00000,   0.00000
31115306.54779,-27706116.34506,1249081.45243,   0.00020,  -0.00019,   0.00002,48682748.00000,   0.00000,274640576.00000,   0.00000,   0.00000,   0.00000,-425957824.00000,   0.00000
32553469.13752,-28857792.36313,1294919.30389,   0.00020,  -0.00019,   0.00002,51051788.00000,   0.00000,274640576.00000,   0.00000,   0.00000,   0.00000,-423588784.00000,   0.00000
33962983.07008,-30038117.03836,1346486.88679,   0.00021,  -0.00020,   0.00002,53413584.00000,   0.00000,274640576.00000,   0.00000,   0.00000,   0.00000,-421226992.00000,   0.00000
35409740.25695,-31169738.99641,1392324.73826,   0.00022,  -0.00021,   0.00002,55762560.00000,   0.00000,274640576.00000,   0.00000,   0.00000,   0.00000,-418878016.00000,   0.00000
36827848.78666,-32330009.61162,1438162.58972,   0.00023,  -0.00022,   0.00002,58097240.00000,   0.00000,274640576.00000,   0.00000,   0.00000,   0.00000,-416543328.00000,   0.00000
38283200.57068,-33441577.50966,1484000.44119,   0.00024,  -0.00023,   0.00002,60412760.00000,   0.00000,274640576.00000,   0.00000,   0.00000,   0.00000,-414227808.00000,   0.00000
39709903.69754,-34581794.06486,1529838.29265,   0.00025,  -0.00023,   0.00002,62710288.00000,   0.00000,274640576.00000,   0.00000,   0.00000,   0.00000,-411930288.00000,   0.00000
41125147.36153,-35710551.15719,1575676.14412,   0.00026,  -0.00024,   0.00002,64972384.00000,   0.00000,274640576.00000,   0.00000,   0.00000,   0.00000,-409668192.00000,   0.00000
42569039.68269,-36810659.59236,1615784.26415,   0.00027,  -0.00025,   0.00002,67220976.00000,   0.00000,274640576.00000,   0.00000,   0.00000,   0.00000,-407419600.00000,   0.00000
44012932.00384,-37910768.02753,1661622.11562,   0.00027,  -0.00026,   0.00002,69455672.00000,   0.00000,274640576.00000,   0.00000,   0.00000,   0.00000,-405184896.00000,   0.00000
45436770.26499,-39019471.05984,1701730.23565,   0.00028,  -0.00027,   0.00002,71666688.00000,   0.00000,274640576.00000,   0.00000,   0.00000,   0.00000,-402973888.00000,   0.00000
46869203.12328,-40108120.03214,1741838.35568,   0.00029,  -0.00027,   0.00002,73858064.00000,   0.00000,274640576.00000,   0.00000,   0.00000,   0.00000,-400782512.00000,   0.00000
48310230.57872,-41176714.94443,1781946.47571,   0.00030,  -0.00028,   0.00002,76031864.00000,   0.00000,274640576.00000,   0.00000,   0.00000,   0.00000,-398608704.00000,   0.00000
49751258.03416,-42245309.85671,1822054.59575,   0.00031,  -0.00029,   0.00002,78199712.00000,   0.00000,274640576.00000,   0.00000,   0.00000,   0.00000,-396440864.00000,   0.00000
51192285.48960,-43313904.76900,1862162.71578,   0.00032,  -0.00030,   0.00002,80363952.00000,   0.00000,274640576.00000,   0.00000,   0.00000,   0.00000,-394276624.00000,   0.00000
52621853.48217,-44371040.21842,1902270.83581,   0.00033,  -0.00030,   0.00002,82506744.00000,   0.00000,274640576.00000,   0.00000,   0.00000,   0.00000,-392133824.00000,   0.00000
54071475.53476,-45419581.07069,1936649.22441,   0.00033,  -0.00031,   0.00003,84659832.00000,   0.00000,274640576.00000,   0.00000,   0.00000,   0.00000,-389980736.00000,   0.00000
55501043.52734,-46476716.52010,1971027.61301,   0.00034,  -0.00032,   0.00003,86804216.00000,   0.00000,274640576.00000,   0.00000,   0.00000,   0.00000,-387836352.00000,   0.00000
56939206.11706,-47513797.90951,2005406.00161,   0.00035,  -0.00033,   0.00003,88941776.00000,   0.00000,274640576.00000,   0.00000,   0.00000,   0.00000,-385698800.00000,   0.00000
58365909.24392,-48539419.83604,2039784.39021,   0.00036,  -0.00033,   0.00003,91062848.00000,   0.00000,274640576.00000,   0.00000,   0.00000,   0.00000,-383577728.00000,   0.00000
59812666.43079,-49556447.16543,2074162.77881,   0.00037,  -0.00034,   0.00003,93197920.00000,   0.00000,274640576.00000,   0.00000,   0.00000,   0.00000,-381442656.00000,   0.00000
61239369.55765,-50582069.09197,2102811.43597,   0.00038,  -0.00035,   0.00003,95326408.00000,   0.00000,274640576.00000,   0.00000,   0.00000,   0.00000,-379314176.00000,   0.00000
62674667.28166,-51587636.95849,2137189.82457,   0.00039,  -0.00036,   0.00003,97449240.00000,   0.00000,274640576.00000,   0.00000,   0.00000,   0.00000,-377191328.00000,   0.00000
64109965.00567,-52593204.82501,2165838.48174,   0.00039,  -0.00036,   0.00003,99575240.00000,   0.00000,274640576.00000,   0.00000,   0.00000,   0.00000,-375065344.00000,   0.00000
65533803.26681,-53587313.22866,2194487.13890,   0.00040,  -0.00037,   0.00003,101684256.00000,   0.00000,274640576.00000,   0.00000,   0.00000,   0.00000,-372956320.00000,   0.00000
66977695.58796,-54572827.03516,2223135.79607,   0.00041,  -0.00038,   0.00003,103805976.00000,   0.00000,274640576.00000,   0.00000,   0.00000,   0.00000,-370834592.00000,   0.00000
68401533.84910,-55566935.43882,2246054.72180,   0.00042,  -0.00039,   0.00003,105918544.00000,   0.00000,274640576.00000,   0.00000,   0.00000,   0.00000,-368722032.00000,   0.00000
69833966.70740,-56540989.78246,2274703.37897,   0.00043,  -0.00039,   0.00003,108023096.00000,   0.00000,274640576.00000,   0.00000,   0.00000,   0.00000,-366617472.00000,   0.00000
71254940.10282,-57503584.66323,2297622.30470,   0.00044,  -0.00040,   0.00003,110107912.00000,   0.00000,274640576.00000,   0.00000,   0.00000,   0.00000,-364532672.00000,   0.00000
72695967.55826,-58457584.94685,2320541.23043,   0.00044,  -0.00041,   0.00003,112203528.00000,   0.00000,274640576.00000,   0.00000,   0.00000,   0.00000,-362437056.00000,   0.00000
74116940.95369,-59420179.82762,2343460.15616,   0.00045,  -0.00041,   0.00003,114287936.00000,   0.00000,274640576.00000,   0.00000,   0.00000,   0.00000,-360352640.00000,   0.00000
75537914.34911,-60382774.70839,2366379.08190,   0.00046,  -0.00042,   0.00003,116371512.00000,   0.00000,274640576.00000,   0.00000,   0.00000,   0.00000,-358269056.00000,   0.00000
76967482.34168,-61325315.52915,2383568.27620,   0.00047,  -0.00043,   0.00003,118444704.00000,   0.00000,274640576.00000,   0.00000,   0.00000,   0.00000,-356195872.00000,   0.00000
78385590.87139,-62256396.88704,2406487.20193,   0.00048,  -0.00044,   0.00003,120497232.00000,   0.00000,274640576.00000,   0.00000,   0.00000,   0.00000,-354143344.00000,   0.00000
79803699.40110,-63187478.24493,2423676.39623,   0.00049,  -0.00044,   0.00003,122548360.00000,   0.00000,274640576.00000,   0.00000,   0.00000,   0.00000,-352092224.00000,   0.00000
81221807.93081,-64118559.60282,2440865.59053,   0.00049,  -0.00045,   0.00003,124598320.00000,   0.00000,274640576.00000,   0.00000,   0.00000,   0.00000,-350042256.00000,   0.00000
82648511.05767,-65029586.90069,2458054.78483,   0.00050,  -0.00046,   0.00003,126638496.00000,   0.00000,274640576.00000,   0.00000,   0.00000,   0.00000,-348002080.00000,   0.00000
84075214.18452,-65940614.19856,2469514.24769,   0.00051,  -0.00046,   0.00003,128677392.00000,   0.00000,274640576.00000,   0.00000,   0.00000,   0.00000,-345963184.00000,   0.00000
85490457.84851,-66840182.03357,2486703.44199,   0.00052,  -0.00047,   0.00003,130696472.00000,   0.00000,274640576.00000,   0.00000,   0.00000,   0.00000,-343944096.00000,   0.00000
86905701.51251,-67739749.86857,2498162.90486,   0.00053,  -0.00048,   0.00003,132714808.00000,   0.00000,274640576.00000,   0.00000,   0.00000,   0.00000,-341925760.00000,   0.00000
88300891.11648,-68647912.30073,2509622.36773,   0.00054,  -0.00048,   0.00003,134721952.00000,   0.00000,274640576.00000,   0.00000,   0.00000,   0.00000,-339918624.00000,   0.00000
89724729.37762,-69527426.07572,2521081.83059,   0.00054,  -0.00049,   0.00003,136731584.00000,   0.00000,274640576.00000,   0.00000,   0.00000,   0.00000,-337908992.00000,   0.00000
91128513.57875,-70415534.44786,2526811.56203,   0.00055,  -0.00050,   0.00003,138730128.00000,   0.00000,274640576.00000,   0.00000,   0.00000,   0.00000,-335910448.00000,   0.00000
92532297.77987,-71303642.82000,2538271.02489,   0.00056,  -0.00050,   0.00003,140729328.00000,   0.00000,274640576.00000,   0.00000,   0.00000,   0.00000,-333911248.00000,   0.00000
93924622.51813,-72180291.72928,2544000.75632,   0.00057,  -0.00051,   0.00003,142708992.00000,   0.00000,274640576.00000,   0.00000,   0.00000,   0.00000,-331931584.00000,   0.00000
95325541.85354,-73036886.57853,2549730.48776,   0.00058,  -0.00052,   0.00003,144680592.00000,   0.00000,274640576.00000,   0.00000,   0.00000,   0.00000,-329959984.00000,   0.00000
96726461.18895,-73893481.42779,2555460.21919,   0.00058,  -0.00052,   0.00003,146652416.00000,   0.00000,274640576.00000,   0.00000,   0.00000,   0.00000,-327988160.00000,   0.00000
98127380.52436,-74750076.27705,2555460.21919,   0.00059,  -0.00053,   0.00003,148624416.00000,   0.00000,274640576.00000,   0.00000,   0.00000,   0.00000,-326016160.00000,   0.00000
99508245.79975,-75615265.72346,2561189.95062,   0.00060,  -0.00054,   0.00003,150585680.00000,   0.00000,274640576.00000,   0.00000,   0.00000,   0.00000,-324054896.00000,   0.00000
100917759.73231,-76451806.51270,2561189.95062,   0.00061,  -0.00054,   0.00003,152549040.00000,   0.00000,274640576.00000,   0.00000,   0.00000,   0.00000,-322091536.00000,   0.00000
102287165.54483,-77305536.49624,2561189.95062,   0.00062,  -0.00055,   0.00003,154489840.00000,   0.00000,274640576.00000,   0.00000,   0.00000,   0.00000,-320150736.00000,   0.00000
103685220.01452,-78130617.82262,2561189.95062,   0.00062,  -0.00056,   0.00003,156432560.00000,   0.00000,274640576.00000,   0.00000,   0.00000,   0.00000,-318208016.00000,   0.00000
105063220.42420,-78964293.74614,2555460.21919,   0.00063,  -0.00056,   0.00003,158363008.00000,   0.00000,274640576.00000,   0.00000,   0.00000,   0.00000,-316277568.00000,   0.00000
106449815.43103,-79777915.60965,2555460.21919,   0.00064,  -0.00057,   0.00003,160284112.00000,   0.00000,274640576.00000,   0.00000,   0.00000,   0.00000,-314356464.00000,   0.00000
107807761.78069,-80620186.13033,2549730.48776,   0.00065,  -0.00058,   0.00003,162201744.00000,   0.00000,274640576.00000,   0.00000,   0.00000,   0.00000,-312438832.00000,   0.00000
109202951.38466,-81413753.93382,2544000.75632,   0.00066,  -0.00058,   0.00003,164111760.00000,   0.00000,274640576.00000,   0.00000,   0.00000,   0.00000,-310528816.00000,   0.00000
110569492.33147,-82235970.39448,2538271.02489,   0.00066,  -0.00059,   0.00003,166018608.00000,   0.00000,274640576.00000,   0.00000,   0.00000,   0.00000,-308621968.00000,   0.00000
111924573.81541,-83046727.39227,2526811.56203,   0.00067,  -0.00060,   0.00003,167904752.00000,   0.00000,274640576.00000,   0.00000,   0.00000,   0.00000,-306735824.00000,   0.00000
113279655.29936,-83857484.39006,2521081.83059,   0.00068,  -0.00060,   0.00003,169790896.00000,   0.00000,274640576.00000,   0.00000,   0.00000,   0.00000,-304849680.00000,   0.00000
114643331.38045,-84648187.32784,2509622.36773,   0.00069,  -0.00061,   0.00003,171668000.00000,   0.00000,274640576.00000,   0.00000,   0.00000,   0.00000,-302972576.00000,   0.00000
116007007.46154,-85438890.26562,2498162.90486,   0.00069,  -0.00061,   0.00003,173545904.00000,   0.00000,274640576.00000,   0.00000,   0.00000,   0.00000,-301094672.00000,   0.00000
117350629.48262,-86238187.80054,2486703.44199,   0.00070,  -0.00062,   0.00003,175414112.00000,   0.00000,274640576.00000,   0.00000,   0.00000,   0.00000,-299226464.00000,   0.00000
118702846.10085,-87017431.27545,2469514.24769,   0.00071,  -0.00063,   0.00003,177275248.00000,   0.00000,274640576.00000,   0.00000,   0.00000,   0.00000,-297365328.00000,   0.00000
120055062.71907,-87796674.75036,2452325.05339,   0.00072,  -0.00063,   0.00003,179139216.00000,   0.00000,274640576.00000,   0.00000,   0.00000,   0.00000,-295501360.00000,   0.00000
121395819.87443,-88564458.76241,2440865.59053,   0.00073,  -0.00064,   0.00003,180987232.00000,   0.00000,274640576.00000,   0.00000,   0.00000,   0.00000,-293653344.00000,   0.00000
122736577.02979,-89332242.77445,2423676.39623,   0.00073,  -0.00065,   0.00003,182839104.00000,   0.00000,274640576.00000,   0.00000,   0.00000,   0.00000,-291801472.00000,   0.00000
124077334.18515,-90100026.78649,2400757.47050,   0.00074,  -0.00065,   0.00003,184695872.00000,   0.00000,274640576.00000,   0.00000,   0.00000,   0.00000,-289944704.00000,   0.00000
125398037.28050,-90876405.39569,2383568.27620,   0.00075,  -0.00066,   0.00003,186547424.00000,   0.00000,274640576.00000,   0.00000,   0.00000,   0.00000,-288093152.00000,   0.00000
126727334.97299,-91632729.94487,2360649.35046,   0.00076,  -0.00066,   0.00003,188396304.00000,   0.00000,274640576.00000,   0.00000,   0.00000,   0.00000,-286244272.00000,   0.00000
128036578.60547,-92397649.09119,2337730.42473,   0.00076,  -0.00067,   0.00003,190240304.00000,   0.00000,274640576.00000,   0.00000,   0.00000,   0.00000,-284400272.00000,   0.00000
129354416.83510,-93142514.17750,2314811.49900,   0.00077,  -0.00068,   0.00003,192082720.00000,   0.00000,274640576.00000,   0.00000,   0.00000,   0.00000,-282557856.00000,   0.00000
130663660.46757,-93907433.32383,2291892.57327,   0.00078,  -0.00068,   0.00003,193941072.00000,   0.00000,274640576.00000,   0.00000,   0.00000,   0.00000,-280699504.00000,   0.00000
131981498.69720,-94652298.41014,2263243.91610,   0.00079,  -0.00069,   0.00003,195797712.00000,   0.00000,274640576.00000,   0.00000,   0.00000,   0.00000,-278842864.00000,   0.00000
133287877.46396,-95385704.03359,2234595.25893,   0.00079,  -0.00069,   0.00003,197641120.00000,   0.00000,274640576.00000,   0.00000,   0.00000,   0.00000,-276999456.00000,   0.00000
134574202.17071,-96127704.25418,2211676.33320,   0.00080,  -0.00070,   0.00003,199479696.00000,   0.00000,274640576.00000,   0.00000,   0.00000,   0.00000,-275160880.00000,   0.00000
135880580.93747,-96861109.87763,2177297.94460,   0.00081,  -0.00071,   0.00003,201336144.00000,   0.00000,274640576.00000,   0.00000,   0.00000,   0.00000,-273304432.00000,   0.00000
137146851.58420,-97611704.69537,2148649.28744,   0.00081,  -0.00071,   0.00003,203174784.00000,   0.00000,274640576.00000,   0.00000,   0.00000,   0.00000,-271465792.00000,   0.00000
138441770.88809,-98333650.85595,2120000.63027,   0.00082,  -0.00072,   0.00003,205021376.00000,   0.00000,274640576.00000,   0.00000,   0.00000,   0.00000,-269619200.00000,   0.00000
139716636.13197,-99064191.61368,2085622.24167,   0.00083,  -0.00072,   0.00003,206860176.00000,   0.00000,274640576.00000,   0.00000,   0.00000,   0.00000,-267780400.00000,   0.00000
140991501.37585,-99794732.37141,2051243.85307,   0.00084,  -0.00073,   0.00003,208702048.00000,   0.00000,274640576.00000,   0.00000,   0.00000,   0.00000,-265938528.00000,   0.00000
142254907.15686,-100513813.66627,2016865.46447,   0.00084,  -0.00073,   0.00003,210525408.00000,   0.00000,274640576.00000,   0.00000,   0.00000,   0.00000,-264115168.00000,   0.00000
143518312.93788,-101232894.96113,1976757.34444,   0.00085,  -0.00074,   0.00003,212349840.00000,   0.00000,274640576.00000,   0.00000,   0.00000,   0.00000,-262290736.00000,   0.00000
144781718.71889,-101951976.25599,1942378.95584,   0.00086,  -0.00075,   0.00003,214174352.00000,   0.00000,274640576.00000,   0.00000,   0.00000,   0.00000,-260466224.00000,   0.00000
146033665.03704,-102659598.08799,1902270.83581,   0.00086,  -0.00075,   0.00002,215977248.00000,   0.00000,274640576.00000,   0.00000,   0.00000,   0.00000,-258663328.00000,   0.00000
147285611.35518,-103367219.91998,1862162.71578,   0.00087,  -0.00076,   0.00002,217778032.00000,   0.00000,274640576.00000,   0.00000,   0.00000,   0.00000,-256862544.00000,   0.00000
148517503.61331,-104083436.34913,1822054.59575,   0.00088,  -0.00076,   0.00002,219564000.00000,   0.00000,274640576.00000,   0.00000,   0.00000,   0.00000,-255076576.00000,   0.00000
149749395.87144,-104799652.77828,1781946.47571,   0.00089,  -0.00077,   0.00002,221345968.00000,   0.00000,274640576.00000,   0.00000,   0.00000,   0.00000,-253294608.00000,   0.00000
150989882.72672,-105495815.14740,1736108.62425,   0.00089,  -0.00077,   0.00002,223114960.00000,   0.00000,274640576.00000,   0.00000,   0.00000,   0.00000,-251525616.00000,   0.00000
152210315.52199,-106200572.11368,1696000.50422,   0.00090,  -0.00078,   0.00002,224866928.00000,   0.00000,274640576.00000,   0.00000,   0.00000,   0.00000,-249773648.00000,   0.00000
153430748.31725,-106905329.07996,1650162.65275,   0.00091,  -0.00079,   0.00002,226613136.00000,   0.00000,274640576.00000,   0.00000,   0.00000,   0.00000,-248027440.00000,   0.00000
154639721.64965,-107598626.58338,1604324.80129,   0.00091,  -0.00079,   0.00002,228333120.00000,   0.00000,274640576.00000,   0.00000,   0.00000,   0.00000,-246307456.00000,   0.00000
155848694.98204,-108291924.08679,1552757.21839,   0.00092,  -0.00080,   0.00002,230046912.00000,   0.00000,274640576.00000,   0.00000,   0.00000,   0.00000,-244593664.00000,   0.00000
157037614.25443,-108993816.18735,1506919.36692,   0.00093,  -0.00080,   0.00002,231742592.00000,   0.00000,274640576.00000,   0.00000,   0.00000,   0.00000,-242897984.00000,   0.00000
158226533.52681,-109695708.28791,1455351.78402,   0.00093,  -0.00081,   0.00002,233432128.00000,   0.00000,274640576.00000,   0.00000,   0.00000,   0.00000,-241208448.00000,   0.00000
159424047.39634,-110377546.32846,1403784.20113,   0.00094,  -0.00081,   0.00002,235107488.00000,   0.00000,274640576.00000,   0.00000,   0.00000,   0.00000,-239533088.00000,   0.00000
160601507.20585,-111067978.96616,1352216.61823,   0.00095,  -0.00082,   0.00002,236765440.00000,   0.00000,274640576.00000,   0.00000,   0.00000,   0.00000,-237875136.00000,   0.00000
161778967.01537,-111758411.60385,1300649.03533,   0.00095,  -0.00082,   0.00002,238418160.00000,   0.00000,274640576.00000,   0.00000,   0.00000,   0.00000,-236222416.00000,   0.00000
162944967.36202,-112437384.77868,1249081.45243,   0.00096,  -0.00083,   0.00002,240046256.00000,   0.00000,274640576.00000,   0.00000,   0.00000,   0.00000,-234594320.00000,   0.00000
164102373.11152,-113136412.01353,1191784.13810,   0.00097,  -0.00083,   0.00002,241678256.00000,   0.00000,274640576.00000,   0.00000,   0.00000,   0.00000,-232962320.00000,   0.00000
165268373.45817,-113815385.18836,1140216.55520,   0.00097,  -0.00084,   0.00001,243298528.00000,   0.00000,274640576.00000,   0.00000,   0.00000,   0.00000,-231342048.00000,   0.00000
166394265.68478,-114511547.55749,1082919.24087,   0.00098,  -0.00085,   0.00001,244892608.00000,   0.00000,274640576.00000,   0.00000,   0.00000,   0.00000,-229747968.00000,   0.00000
167548806.56856,-115179061.26945,1025621.92654,   0.00099,  -0.00085,   0.00001,246487008.00000,   0.00000,274640576.00000,   0.00000,   0.00000,   0.00000,-228153568.00000,   0.00000
168674698.79518,-115875223.63858,962594.88077,   0.00099,  -0.00086,   0.00001,248076304.00000,   0.00000,274640576.00000,   0.00000,   0.00000,   0.00000,-226564272.00000,   0.00000
169809185.61895,-116551331.94769,905297.56644,   0.00100,  -0.00086,   0.00001,249655808.00000,   0.00000,274640576.00000,   0.00000,   0.00000,   0.00000,-224984768.00000,   0.00000
170923618.38270,-117236034.85396,842270.52068,   0.00101,  -0.00087,   0.00001,251222576.00000,   0.00000,274640576.00000,   0.00000,   0.00000,   0.00000,-223418000.00000,   0.00000
172026591.68358,-117909278.29735,779243.47491,   0.00101,  -0.00087,   0.00001,252768976.00000,   0.00000,274640576.00000,   0.00000,   0.00000,   0.00000,-221871600.00000,   0.00000
173141024.44733,-118593981.20362,721946.16058,   0.00102,  -0.00088,   0.00001,254334560.00000,   0.00000,274640576.00000,   0.00000,   0.00000,   0.00000,-220306016.00000,   0.00000
174223943.68820,-119275819.24416,653189.38338,   0.00103,  -0.00088,   0.00001,255868976.00000,   0.00000,274640576.00000,   0.00000,   0.00000,   0.00000,-218771600.00000,   0.00000
175326916.98908,-119949062.68756,590162.33762,   0.00103,  -0.00089,   0.00001,257414800.00000,   0.00000,274640576.00000,   0.00000,   0.00000,   0.00000,-217225776.00000,   0.00000
176389782.16994,-120639495.32526,527135.29185,   0.00104,  -0.00089,   0.00001,258938208.00000,   0.00000,274640576.00000,   0.00000,   0.00000,   0.00000,-215702368.00000,   0.00000
177481296.00795,-121301279.30579,458378.51465,   0.00104,  -0.00090,   0.00001,260464960.00000,   0.00000,274640576.00000,   0.00000,   0.00000,   0.00000,-214175616.00000,   0.00000
178524107.12879,-122000306.54063,389621.73746,   0.00105,  -0.00090,   0.00001,261977904.00000,   0.00000,274640576.00000,   0.00000,   0.00000,   0.00000,-212662672.00000,   0.00000
179595566.90679,-122670685.11831,320864.96026,   0.00106,  -0.00091,   0.00000,263494512.00000,   0.00000,274640576.00000,   0.00000,   0.00000,   0.00000,-211146064.00000,   0.00000
180646972.62478,-123349658.29314,252108.18306,   0.00106,  -0.00091,   0.00000,265000352.00000,   0.00000,274640576.00000,   0.00000,   0.00000,   0.00000,-209640224.00000,   0.00000
181686918.87989,-124017172.00511,183351.40586,   0.00107,  -0.00092,   0.00000,266487200.00000,   0.00000,274640576.00000,   0.00000,   0.00000,   0.00000,-208153376.00000,   0.00000
182718270.53786,-124704739.77708,114594.62866,   0.00107,  -0.00092,   0.00000,267983024.00000,   0.00000,274640576.00000,   0.00000,   0.00000,   0.00000,-206657552.00000,   0.00000
183738162.73297,-125380848.08620,40108.12003,   0.00108,  -0.00093,   0.00000,269459936.00000,   0.00000,274640576.00000,   0.00000,   0.00000,   0.00000,-205180640.00000,   0.00000
184758054.92807,-126056956.39531,-28648.65717,   0.00109,  -0.00093,  -0.00000,270937376.00000,   0.00000,274640576.00000,   0.00000,   0.00000,   0.00000,-203703200.00000,   0.00000
185757893.06316,-126741659.30157,-103135.16580,   0.00109,  -0.00094,  -0.00000,272404192.00000,   0.00000,274640576.00000,   0.00000,   0.00000,   0.00000,-202236384.00000,   0.00000
186757731.19824,-127426362.20784,-177621.67443,   0.00110,  -0.00094,  -0.00000,273871552.00000,   0.00000,274640576.00000,   0.00000,   0.00000,   0.00000,-200769024.00000,   0.00000
187757569.33333,-128111065.11410,-252108.18306,   0.00110,  -0.00095,  -0.00000,275339584.00000,   0.00000,274640576.00000,   0.00000,   0.00000,   0.00000,-199300992.00000,   0.00000
188745948.00555,-128784308.55750,-326594.69169,   0.00111,  -0.00095,  -0.00000,276788064.00000,   0.00000,274640576.00000,   0.00000,   0.00000,   0.00000,-197852512.00000,   0.00000
189714272.61776,-129466146.59804,-406810.93175,   0.00112,  -0.00096,  -0.00001,278225824.00000,   0.00000,274640576.00000,   0.00000,   0.00000,   0.00000,-196414752.00000,   0.00000
190682597.22996,-130147984.63859,-481297.44039,   0.00112,  -0.00096,  -0.00001,279663712.00000,   0.00000,274640576.00000,   0.00000,   0.00000,   0.00000,-194976864.00000,   0.00000
191630867.78215,-130838417.27629,-561513.68045,   0.00113,  -0.00097,  -0.00001,281090752.00000,   0.00000,274640576.00000,   0.00000,   0.00000,   0.00000,-193549824.00000,   0.00000
192579138.33434,-131528849.91398,-636000.18908,   0.00113,  -0.00097,  -0.00001,282518048.00000,   0.00000,274640576.00000,   0.00000,   0.00000,   0.00000,-192122528.00000,   0.00000
193507354.82651,-132227877.14883,-716216.42915,   0.00114,  -0.00098,  -0.00001,283933920.00000,   0.00000,274640576.00000,   0.00000,   0.00000,   0.00000,-190706656.00000,   0.00000
194444165.91583,-132906850.32366,-796432.66921,   0.00114,  -0.00098,  -0.00001,285341856.00000,   0.00000,274640576.00000,   0.00000,   0.00000,   0.00000,-189298720.00000,   0.00000
195360922.94514,-133594418.09564,-876648.90927,   0.00115,  -0.00099,  -0.00001,286738400.00000,   0.00000,274640576.00000,   0.00000,   0.00000,   0.00000,-187902176.00000,   0.00000
196257625.91443,-134290580.46477,-962594.88077,   0.00115,  -0.00099,  -0.00001,288123360.00000,   0.00000,274640576.00000,   0.00000,   0.00000,   0.00000,-186517216.00000,   0.00000
197174382.94374,-134978148.23675,-1042811.12084,   0.00116,  -0.00100,  -0.00001,289520032.00000,   0.00000,274640576.00000,   0.00000,   0.00000,   0.00000,-185120544.00000,   0.00000
198051031.85301,-135682905.20303,-1123027.36090,   0.00117,  -0.00100,  -0.00001,290893600.00000,   0.00000,274640576.00000,   0.00000,   0.00000,   0.00000,-183746976.00000,   0.00000
198927680.76228,-136387662.16930,-1208973.33240,   0.00117,  -0.00101,  -0.00002,292267456.00000,   0.00000,274640576.00000,   0.00000,   0.00000,   0.00000,-182373120.00000,   0.00000
199804329.67156,-137092419.13558,-1294919.30389,   0.00118,  -0.00101,  -0.00002,293641024.00000,   0.00000,274640576.00000,   0.00000,   0.00000,   0.00000,-180999552.00000,   0.00000
200669519.11797,-137785716.63900,-1375135.54396,   0.00118,  -0.00102,  -0.00002,294994816.00000,   0.00000,274640576.00000,   0.00000,   0.00000,   0.00000,-179645760.00000,   0.00000
201514654.50436,-138487608.73956,-1461081.51546,   0.00119,  -0.00102,  -0.00002,296337280.00000,   0.00000,274640576.00000,   0.00000,   0.00000,   0.00000,-178303296.00000,   0.00000
202359789.89075,-139189500.84012,-1547027.48695,   0.00119,  -0.00103,  -0.00002,297679488.00000,   0.00000,274640576.00000,   0.00000,   0.00000,   0.00000,-176961088.00000,   0.00000
203184871.21712,-139899987.53783,-1632973.45845,   0.00120,  -0.00103,  -0.00002,299010144.00000,   0.00000,274640576.00000,   0.00000,   0.00000,   0.00000,-175630432.00000,   0.00000
204009952.54350,-140610474.23555,-1718919.42995,   0.00120,  -0.00104,  -0.00002,300340800.00000,   0.00000,274640576.00000,   0.00000,   0.00000,   0.00000,-174299776.00000,   0.00000
204814979.80986,-141329555.53041,-1804865.40145,   0.00121,  -0.00104,  -0.00002,301660000.00000,   0.00000,274640576.00000,   0.00000,   0.00000,   0.00000,-172980576.00000,   0.00000
205620007.07622,-142048636.82527,-1896541.10438,   0.00121,  -0.00105,  -0.00002,302979328.00000,   0.00000,274640576.00000,   0.00000,   0.00000,   0.00000,-171661248.00000,   0.00000
206413574.87971,-142756258.65727,-1982487.07587,   0.00122,  -0.00105,  -0.00003,304278624.00000,   0.00000,274640576.00000,   0.00000,   0.00000,   0.00000,-170361952.00000,   0.00000
207178494.02604,-143492529.14643,-2074162.77881,   0.00122,  -0.00106,  -0.00003,305574944.00000,   0.00000,274640576.00000,   0.00000,   0.00000,   0.00000,-169065632.00000,   0.00000
207952007.76952,-144208745.57557,-2160108.75030,   0.00123,  -0.00106,  -0.00003,306862752.00000,   0.00000,274640576.00000,   0.00000,   0.00000,   0.00000,-167777824.00000,   0.00000
208705467.45298,-144933556.60187,-2251784.45323,   0.00123,  -0.00107,  -0.00003,308139264.00000,   0.00000,274640576.00000,   0.00000,   0.00000,   0.00000,-166501312.00000,   0.00000
209450332.53929,-145678421.68818,-2343460.15616,   0.00124,  -0.00107,  -0.00003,309424128.00000,   0.00000,274640576.00000,   0.00000,   0.00000,   0.00000,-165216448.00000,   0.00000
210183738.16273,-146411827.31162,-2429406.12766,   0.00124,  -0.00108,  -0.00003,310689408.00000,   0.00000,274640576.00000,   0.00000,   0.00000,   0.00000,-163951168.00000,   0.00000
210917143.78618,-147145232.93507,-2521081.83059,   0.00125,  -0.00108,  -0.00003,311954624.00000,   0.00000,274640576.00000,   0.00000,   0.00000,   0.00000,-162685952.00000,   0.00000
211639089.94676,-147867179.09565,-2612757.53352,   0.00125,  -0.00109,  -0.00003,313200352.00000,   0.00000,274640576.00000,   0.00000,   0.00000,   0.00000,-161440224.00000,   0.00000
212332387.45017,-148617773.91339,-2704433.23645,   0.00126,  -0.00109,  -0.00004,314443072.00000,   0.00000,274640576.00000,   0.00000,   0.00000,   0.00000,-160197504.00000,   0.00000
213025684.95358,-149368368.73114,-2796108.93938,   0.00126,  -0.00110,  -0.00004,315686112.00000,   0.00000,274640576.00000,   0.00000,   0.00000,   0.00000,-158954464.00000,   0.00000
213698928.39698,-150127558.14603,-2887784.64231,   0.00127,  -0.00110,  -0.00004,316918112.00000,   0.00000,274640576.00000,   0.00000,   0.00000,   0.00000,-157722464.00000,   0.00000
214380766.43753,-150866693.50091,-2979460.34524,   0.00127,  -0.00110,  -0.00004,318141472.00000,   0.00000,274640576.00000,   0.00000,   0.00000,   0.00000,-156499104.00000,   0.00000
215033955.82091,-151634477.51295,-3071136.04818,   0.00127,  -0.00111,  -0.00004,319362464.00000,   0.00000,274640576.00000,   0.00000,   0.00000,   0.00000,-155278112.00000,   0.00000
215675685.74142,-152390802.06213,-3168541.48254,   0.00128,  -0.00111,  -0.00004,320564160.00000,   0.00000,274640576.00000,   0.00000,   0.00000,   0.00000,-154076416.00000,   0.00000
216317415.66193,-153147126.61131,-3260217.18547,   0.00128,  -0.00112,  -0.00004,321765792.00000,   0.00000,274640576.00000,   0.00000,   0.00000,   0.00000,-152874784.00000,   0.00000
216930496.92528,-153932099.81765,-3351892.88840,   0.00129,  -0.00112,  -0.00004,322965184.00000,   0.00000,274640576.00000,   0.00000,   0.00000,   0.00000,-151675392.00000,   0.00000
217552172.78578,-154697018.96398,-3443568.59133,   0.00129,  -0.00113,  -0.00004,324156192.00000,   0.00000,274640576.00000,   0.00000,   0.00000,   0.00000,-150484384.00000,   0.00000
218153794.58626,-155470532.70746,-3540974.02569,   0.00130,  -0.00113,  -0.00005,325336704.00000,   0.00000,274640576.00000,   0.00000,   0.00000,   0.00000,-149303872.00000,   0.00000
218735362.32673,-156252641.04808,-3632649.72863,   0.00130,  -0.00114,  -0.00005,326506080.00000,   0.00000,274640576.00000,   0.00000,   0.00000,   0.00000,-148134496.00000,   0.00000
219316930.06720,-157034749.38871,-3724325.43156,   0.00130,  -0.00114,  -0.00005,327675584.00000,   0.00000,274640576.00000,   0.00000,   0.00000,   0.00000,-146964992.00000,   0.00000
219878443.74765,-157825452.32649,-3821730.86592,   0.00131,  -0.00115,  -0.00005,328834656.00000,   0.00000,274640576.00000,   0.00000,   0.00000,   0.00000,-145805920.00000,   0.00000
220439957.42810,-158616155.26426,-3913406.56885,   0.00131,  -0.00115,  -0.00005,329993888.00000,   0.00000,274640576.00000,   0.00000,   0.00000,   0.00000,-144646688.00000,   0.00000
220981417.04853,-159415452.79919,-4010812.00321,   0.00132,  -0.00116,  -0.00005,331142624.00000,   0.00000,274640576.00000,   0.00000,   0.00000,   0.00000,-143497952.00000,   0.00000
221502822.60895,-160223344.93126,-4102487.70614,   0.00132,  -0.00116,  -0.00005,332280160.00000,   0.00000,274640576.00000,   0.00000,   0.00000,   0.00000,-142360416.00000,   0.00000
222024228.16937,-161031237.06334,-4199893.14051,   0.00132,  -0.00117,  -0.00005,333418496.00000,   0.00000,274640576.00000,   0.00000,   0.00000,   0.00000,-141222080.00000,   0.00000
222525579.66977,-161847723.79257,-4291568.84344,   0.00133,  -0.00117,  -0.00006,334545760.00000,   0.00000,274640576.00000,   0.00000,   0.00000,   0.00000,-140094816.00000,   0.00000
223006877.11015,-162672805.11894,-4383244.54637,   0.00133,  -0.00118,  -0.00006,335662432.00000,   0.00000,274640576.00000,   0.00000,   0.00000,   0.00000,-138978144.00000,   0.00000
223496769.14769,-163477832.38530,-4480649.98073,   0.00134,  -0.00118,  -0.00006,336770944.00000,   0.00000,274640576.00000,   0.00000,   0.00000,   0.00000,-137869632.00000,   0.00000
223958012.52806,-164311508.30883,-4572325.68366,   0.00134,  -0.00118,  -0.00006,337877024.00000,   0.00000,274640576.00000,   0.00000,   0.00000,   0.00000,-136763552.00000,   0.00000
224399201.84841,-165153778.82950,-4669731.11803,   0.00134,  -0.00119,  -0.00006,338972608.00000,   0.00000,274640576.00000,   0.00000,   0.00000,   0.00000,-135667968.00000,   0.00000
224840391.16877,-165996049.35018,-4761406.82096,   0.00135,  -0.00119,  -0.00006,340068416.00000,   0.00000,274640576.00000,   0.00000,   0.00000,   0.00000,-134572160.00000,   0.00000
225270121.02625,-166826860.40799,-4858812.25532,   0.00135,  -0.00120,  -0.00006,341144960.00000,   0.00000,274640576.00000,   0.00000,   0.00000,   0.00000,-133495616.00000,   0.00000
225691256.28659,-167677725.52581,-4950487.95825,   0.00135,  -0.00120,  -0.00006,342230080.00000,   0.00000,274640576.00000,   0.00000,   0.00000,   0.00000,-132410496.00000,   0.00000
226092337.48691,-168537185.24078,-5042163.66118,   0.00136,  -0.00121,  -0.00007,343304640.00000,   0.00000,274640576.00000,   0.00000,   0.00000,   0.00000,-131335936.00000,   0.00000
226481959.22437,-169385185.49289,-5139569.09555,   0.00136,  -0.00121,  -0.00007,344359840.00000,   0.00000,274640576.00000,   0.00000,   0.00000,   0.00000,-130280736.00000,   0.00000
226842932.30466,-170261834.40217,-5231244.79848,   0.00136,  -0.00122,  -0.00007,345412768.00000,   0.00000,274640576.00000,   0.00000,   0.00000,   0.00000,-129227808.00000,   0.00000
227203905.38494,-171138483.31144,-5322920.50141,   0.00137,  -0.00122,  -0.00007,346466048.00000,   0.00000,274640576.00000,   0.00000,   0.00000,   0.00000,-128174528.00000,   0.00000
227553419.00237,-172003672.75785,-5414596.20434,   0.00137,  -0.00123,  -0.00007,347499520.00000,   0.00000,274640576.00000,   0.00000,   0.00000,   0.00000,-127141056.00000,   0.00000
227894338.02264,-172888916.26427,-5506271.90727,   0.00137,  -0.00123,  -0.00007,348542176.00000,   0.00000,274640576.00000,   0.00000,   0.00000,   0.00000,-126098400.00000,   0.00000
228215202.98290,-173782754.36785,-5597947.61020,   0.00138,  -0.00124,  -0.00007,349574144.00000,   0.00000,274640576.00000,   0.00000,   0.00000,   0.00000,-125066432.00000,   0.00000
228516013.88314,-174685187.06857,-5695353.04456,   0.00138,  -0.00124,  -0.00007,350595616.00000,   0.00000,274640576.00000,   0.00000,   0.00000,   0.00000,-124044960.00000,   0.00000
228825419.38053,-175567565.70928,-5787028.74750,   0.00138,  -0.00125,  -0.00008,351608160.00000,   0.00000,274640576.00000,   0.00000,   0.00000,   0.00000,-123032416.00000,   0.00000
229086122.16074,-176487187.60430,-5872974.71899,   0.00139,  -0.00125,  -0.00008,352607584.00000,   0.00000,274640576.00000,   0.00000,   0.00000,   0.00000,-122032992.00000,   0.00000
229366879.00096,-177398214.90217,-5964650.42192,   0.00139,  -0.00125,  -0.00008,353618560.00000,   0.00000,274640576.00000,   0.00000,   0.00000,   0.00000,-121022016.00000,   0.00000
229607527.72116,-178326431.39434,-6056326.12485,   0.00139,  -0.00126,  -0.00008,354608032.00000,   0.00000,274640576.00000,   0.00000,   0.00000,   0.00000,-120032544.00000,   0.00000
229856771.03850,-179234593.82650,-6148001.82778,   0.00140,  -0.00126,  -0.00008,355588800.00000,   0.00000,274640576.00000,   0.00000,   0.00000,   0.00000,-119051776.00000,   0.00000
230077365.69868,-180171404.91582,-6233947.79928,   0.00140,  -0.00127,  -0.00008,356567872.00000,   0.00000,274640576.00000,   0.00000,   0.00000,   0.00000,-118072704.00000,   0.00000
230297960.35885,-181108216.00515,-6325623.50221,   0.00140,  -0.00127,  -0.00008,357547328.00000,   0.00000,274640576.00000,   0.00000,   0.00000,   0.00000,-117093248.00000,   0.00000
230478446.89900,-182062216.28877,-6411569.47371,   0.00140,  -0.00128,  -0.00008,358505280.00000,   0.00000,274640576.00000,   0.00000,   0.00000,   0.00000,-116135296.00000,   0.00000
230658933.43914,-183016216.57239,-6503245.17664,   0.00141,  -0.00128,  -0.00008,359464064.00000,   0.00000,274640576.00000,   0.00000,   0.00000,   0.00000,-115176512.00000,   0.00000
230839419.97929,-183970216.85601,-6589191.14814,   0.00141,  -0.00129,  -0.00009,360422880.00000,   0.00000,274640576.00000,   0.00000,   0.00000,   0.00000,-114217696.00000,   0.00000
230999852.45942,-184932811.73678,-6675137.11964,   0.00141,  -0.00129,  -0.00009,361371360.00000,   0.00000,274640576.00000,   0.00000,   0.00000,   0.00000,-113269216.00000,   0.00000
231140230.87953,-185904001.21470,-6761083.09113,   0.00141,  -0.00130,  -0.00009,362309888.00000,   0.00000,274640576.00000,   0.00000,   0.00000,   0.00000,-112330688.00000,   0.00000
231260555.23962,-186883785.28977,-6847029.06263,   0.00142,  -0.00130,  -0.00009,363237920.00000,   0.00000,274640576.00000,   0.00000,   0.00000,   0.00000,-111402656.00000,   0.00000
231372285.00257,-187883623.42486,-6932975.03413,   0.00142,  -0.00131,  -0.00009,364176032.00000,   0.00000,274640576.00000,   0.00000,   0.00000,   0.00000,-110464544.00000,   0.00000
231452501.24264,-188880596.69423,-7018921.00563,   0.00142,  -0.00131,  -0.00009,365083904.00000,   0.00000,274640576.00000,   0.00000,   0.00000,   0.00000,-109556672.00000,   0.00000
231552771.54272,-189868975.36645,-7104866.97712,   0.00142,  -0.00132,  -0.00009,366003552.00000,   0.00000,274640576.00000,   0.00000,   0.00000,   0.00000,-108637024.00000,   0.00000
231604339.12561,-190894597.29299,-7185083.21719,   0.00143,  -0.00132,  -0.00009,366911200.00000,   0.00000,274640576.00000,   0.00000,   0.00000,   0.00000,-107729376.00000,   0.00000
231664501.30566,-191900165.15951,-7271029.18868,   0.00143,  -0.00132,  -0.00009,367811008.00000,   0.00000,274640576.00000,   0.00000,   0.00000,   0.00000,-106829568.00000,   0.00000
231696014.82855,-192934381.68319,-7351245.42875,   0.00143,  -0.00133,  -0.00010,368709664.00000,   0.00000,274640576.00000,   0.00000,   0.00000,   0.00000,-105930912.00000,   0.00000
231716068.88856,-193957138.74401,-7431461.66881,   0.00143,  -0.00133,  -0.00010,369589408.00000,   0.00000,274640576.00000,   0.00000,   0.00000,   0.00000,-105051168.00000,   0.00000
231727528.35143,-194999949.86485,-7511677.90888,   0.00143,  -0.00134,  -0.00010,370479520.00000,   0.00000,274640576.00000,   0.00000,   0.00000,   0.00000,-104161056.00000,   0.00000
231727528.35143,-196031301.52282,-7591894.14894,   0.00144,  -0.00134,  -0.00010,371350560.00000,   0.00000,274640576.00000,   0.00000,   0.00000,   0.00000,-103290016.00000,   0.00000
231698879.69426,-197091301.83795,-7672110.38901,   0.00144,  -0.00135,  -0.00010,372221280.00000,   0.00000,274640576.00000,   0.00000,   0.00000,   0.00000,-102419296.00000,   0.00000
231670231.03710,-198151302.15309,-7752326.62907,   0.00144,  -0.00135,  -0.00010,373092992.00000,   0.00000,274640576.00000,   0.00000,   0.00000,   0.00000,-101547584.00000,   0.00000
231601474.25990,-199228491.66252,-7826813.13770,   0.00144,  -0.00136,  -0.00010,373944384.00000,   0.00000,274640576.00000,   0.00000,   0.00000,   0.00000,-100696192.00000,   0.00000
231532717.48270,-200305681.17196,-7901299.64633,   0.00144,  -0.00136,  -0.00010,374796800.00000,   0.00000,274640576.00000,   0.00000,   0.00000,   0.00000,-99843776.00000,   0.00000
231463960.70550,-201382870.68139,-7981515.88640,   0.00145,  -0.00137,  -0.00010,375650720.00000,   0.00000,274640576.00000,   0.00000,   0.00000,   0.00000,-98989856.00000,   0.00000
231355095.80827,-202477249.38513,-8056002.39503,   0.00145,  -0.00137,  -0.00010,376484448.00000,   0.00000,274640576.00000,   0.00000,   0.00000,   0.00000,-98156128.00000,   0.00000
231246230.91104,-203571628.08886,-8124759.17223,   0.00145,  -0.00138,  -0.00011,377318848.00000,   0.00000,274640576.00000,   0.00000,   0.00000,   0.00000,-97321728.00000,   0.00000
231108717.35665,-204694655.44976,-8199245.68086,   0.00145,  -0.00138,  -0.00011,378154016.00000,   0.00000,274640576.00000,   0.00000,   0.00000,   0.00000,-96486560.00000,   0.00000
230979798.39940,-205797628.75065,-8268002.45805,   0.00145,  -0.00139,  -0.00011,378980288.00000,   0.00000,274640576.00000,   0.00000,   0.00000,   0.00000,-95660288.00000,   0.00000
230802176.72497,-206937845.30585,-8342488.96669,   0.00145,  -0.00139,  -0.00011,379797216.00000,   0.00000,274640576.00000,   0.00000,   0.00000,   0.00000,-94843360.00000,   0.00000
230633149.64769,-208058007.80103,-8411245.74388,   0.00146,  -0.00140,  -0.00011,380605280.00000,   0.00000,274640576.00000,   0.00000,   0.00000,   0.00000,-94035296.00000,   0.00000
230435473.91325,-209206818.95338,-8480002.52108,   0.00146,  -0.00140,  -0.00011,381413824.00000,   0.00000,274640576.00000,   0.00000,   0.00000,   0.00000,-93226752.00000,   0.00000
230237798.17880,-210355630.10573,-8548759.29828,   0.00146,  -0.00141,  -0.00011,382223520.00000,   0.00000,274640576.00000,   0.00000,   0.00000,   0.00000,-92417056.00000,   0.00000
230000014.32433,-211521630.45238,-8611786.34404,   0.00146,  -0.00141,  -0.00011,383014048.00000,   0.00000,274640576.00000,   0.00000,   0.00000,   0.00000,-91626528.00000,   0.00000
229762230.46985,-212687630.79903,-8674813.38981,   0.00146,  -0.00142,  -0.00011,383805600.00000,   0.00000,274640576.00000,   0.00000,   0.00000,   0.00000,-90834976.00000,   0.00000
229524446.61538,-213853631.14567,-8743570.16701,   0.00146,  -0.00142,  -0.00011,384599136.00000,   0.00000,274640576.00000,   0.00000,   0.00000,   0.00000,-90041440.00000,   0.00000
229246554.64087,-215036820.68662,-8806597.21277,   0.00146,  -0.00143,  -0.00011,385373184.00000,   0.00000,274640576.00000,   0.00000,   0.00000,   0.00000,-89267392.00000,   0.00000
228960068.06921,-216240064.28759,-8863894.52710,   0.00146,  -0.00143,  -0.00012,386158112.00000,   0.00000,274640576.00000,   0.00000,   0.00000,   0.00000,-88482464.00000,   0.00000
228662122.03469,-217431848.42568,-8926921.57287,   0.00146,  -0.00144,  -0.00012,386925152.00000,   0.00000,274640576.00000,   0.00000,   0.00000,   0.00000,-87715424.00000,   0.00000
228335527.34299,-218652281.22095,-8984218.88720,   0.00147,  -0.00144,  -0.00012,387692768.00000,   0.00000,274640576.00000,   0.00000,   0.00000,   0.00000,-86947808.00000,   0.00000
227997473.18844,-219861254.55335,-9041516.20153,   0.00147,  -0.00144,  -0.00012,388442208.00000,   0.00000,274640576.00000,   0.00000,   0.00000,   0.00000,-86198368.00000,   0.00000
227650824.43673,-221090281.94576,-9098813.51586,   0.00147,  -0.00145,  -0.00012,389203104.00000,   0.00000,274640576.00000,   0.00000,   0.00000,   0.00000,-85437472.00000,   0.00000
227284121.62501,-222327903.93532,-9156110.83020,   0.00147,  -0.00145,  -0.00012,389955424.00000,   0.00000,274640576.00000,   0.00000,   0.00000,   0.00000,-84685152.00000,   0.00000
226897364.75327,-223574120.52204,-9207678.41309,   0.00147,  -0.00146,  -0.00012,390699008.00000,   0.00000,274640576.00000,   0.00000,   0.00000,   0.00000,-83941568.00000,   0.00000
226490553.82152,-224828931.70590,-9259245.99599,   0.00147,  -0.00146,  -0.00012,391434464.00000,   0.00000,274640576.00000,   0.00000,   0.00000,   0.00000,-83206112.00000,   0.00000
226075148.29261,-226103796.94978,-9310813.57889,   0.00147,  -0.00147,  -0.00012,392181312.00000,   0.00000,274640576.00000,   0.00000,   0.00000,   0.00000,-82459264.00000,   0.00000
225648283.30084,-227367202.73079,-9362381.16179,   0.00147,  -0.00147,  -0.00012,392910176.00000,   0.00000,274640576.00000,   0.00000,   0.00000,   0.00000,-81730400.00000,   0.00000
225192769.65190,-228659257.16897,-9408219.01325,   0.00147,  -0.00148,  -0.00012,393640032.00000,   0.00000,274640576.00000,   0.00000,   0.00000,   0.00000,-81000544.00000,   0.00000
224725796.54010,-229939852.14428,-9459786.59615,   0.00147,  -0.00148,  -0.00012,394352224.00000,   0.00000,274640576.00000,   0.00000,   0.00000,   0.00000,-80288352.00000,   0.00000
224250228.83115,-231240501.17961,-9499894.71618,   0.00147,  -0.00149,  -0.00012,395075360.00000,   0.00000,274640576.00000,   0.00000,   0.00000,   0.00000,-79565216.00000,   0.00000
223754607.06218,-232549744.81209,-9545732.56765,   0.00147,  -0.00149,  -0.00012,395790688.00000,   0.00000,274640576.00000,   0.00000,   0.00000,   0.00000,-78849888.00000,   0.00000
223238931.23320,-233867583.04171,-9591570.41912,   0.00147,  -0.00150,  -0.00012,396497536.00000,   0.00000,274640576.00000,   0.00000,   0.00000,   0.00000,-78143040.00000,   0.00000
222703201.34420,-235194015.86849,-9631678.53915,   0.00147,  -0.00150,  -0.00013,397195872.00000,   0.00000,274640576.00000,   0.00000,   0.00000,   0.00000,-77444704.00000,   0.00000
222138822.79803,-236549097.35243,-9671786.65918,   0.00147,  -0.00151,  -0.00013,397896256.00000,   0.00000,274640576.00000,   0.00000,   0.00000,   0.00000,-76744320.00000,   0.00000
221583038.84901,-237884124.77636,-9706165.04778,   0.00147,  -0.00151,  -0.00013,398587552.00000,   0.00000,274640576.00000,   0.00000,   0.00000,   0.00000,-76053024.00000,   0.00000
220998606.24283,-239247800.85745,-9740543.43638,   0.00147,  -0.00152,  -0.00013,399280640.00000,   0.00000,274640576.00000,   0.00000,   0.00000,   0.00000,-75359936.00000,   0.00000
220394119.57663,-240620071.53570,-9780651.55641,   0.00147,  -0.00152,  -0.00013,399966176.00000,   0.00000,274640576.00000,   0.00000,   0.00000,   0.00000,-74674400.00000,   0.00000
219769578.85042,-242000936.81109,-9809300.21358,   0.00147,  -0.00153,  -0.00013,400642400.00000,   0.00000,274640576.00000,   0.00000,   0.00000,   0.00000,-73998176.00000,   0.00000
219145038.12420,-243381802.08648,-9843678.60217,   0.00147,  -0.00153,  -0.00013,401320448.00000,   0.00000,274640576.00000,   0.00000,   0.00000,   0.00000,-73320128.00000,   0.00000
218500443.33797,-244771261.95902,-9872327.25934,   0.00147,  -0.00154,  -0.00013,401990208.00000,   0.00000,274640576.00000,   0.00000,   0.00000,   0.00000,-72650368.00000,   0.00000
217835794.49172,-246169316.42872,-9900975.91651,   0.00147,  -0.00154,  -0.00013,402651584.00000,   0.00000,274640576.00000,   0.00000,   0.00000,   0.00000,-71988992.00000,   0.00000
217142496.98831,-247596019.55557,-9923894.84224,   0.00147,  -0.00155,  -0.00013,403314976.00000,   0.00000,274640576.00000,   0.00000,   0.00000,   0.00000,-71325600.00000,   0.00000
216437740.02203,-249011263.21956,-9952543.49940,   0.00147,  -0.00156,  -0.00013,403960800.00000,   0.00000,274640576.00000,   0.00000,   0.00000,   0.00000,-70679776.00000,   0.00000
215724388.45860,-250446560.94357,-9975462.42514,   0.00147,  -0.00156,  -0.00013,404617952.00000,   0.00000,274640576.00000,   0.00000,   0.00000,   0.00000,-70022624.00000,   0.00000
214990982.83516,-251890453.26473,-9992651.61944,   0.00147,  -0.00157,  -0.00013,405267200.00000,   0.00000,274640576.00000,   0.00000,   0.00000,   0.00000,-69373376.00000,   0.00000
214237523.15170,-253342940.18304,-10015570.54517,   0.00147,  -0.00157,  -0.00013,405909600.00000,   0.00000,274640576.00000,   0.00000,   0.00000,   0.00000,-68730976.00000,   0.00000
213464009.40822,-254804021.69849,-10032759.73947,   0.00147,  -0.00158,  -0.00013,406544736.00000,   0.00000,274640576.00000,   0.00000,   0.00000,   0.00000,-68095840.00000,   0.00000
212661847.00758,-256293751.87112,-10044219.20234,   0.00147,  -0.00158,  -0.00013,407182976.00000,   0.00000,274640576.00000,   0.00000,   0.00000,   0.00000,-67457600.00000,   0.00000
211868279.20408,-257763427.98372,-10061408.39663,   0.00147,  -0.00159,  -0.00013,407814336.00000,   0.00000,274640576.00000,   0.00000,   0.00000,   0.00000,-66826240.00000,   0.00000
211046062.74342,-259261752.75349,-10072867.85950,   0.00147,  -0.00159,  -0.00013,408449568.00000,   0.00000,274640576.00000,   0.00000,   0.00000,   0.00000,-66191008.00000,   0.00000
210203792.22275,-260768672.12042,-10078597.59093,   0.00146,  -0.00160,  -0.00013,409078880.00000,   0.00000,274640576.00000,   0.00000,   0.00000,   0.00000,-65561696.00000,   0.00000
209341467.64206,-262284186.08449,-10090057.05380,   0.00146,  -0.00160,  -0.00013,409703488.00000,   0.00000,274640576.00000,   0.00000,   0.00000,   0.00000,-64937088.00000,   0.00000
208479143.06137,-263799700.04856,-10095786.78523,   0.00146,  -0.00161,  -0.00013,410332224.00000,   0.00000,274640576.00000,   0.00000,   0.00000,   0.00000,-64308352.00000,   0.00000
207576710.36064,-265332403.20693,-10095786.78523,   0.00146,  -0.00161,  -0.00013,410947136.00000,   0.00000,274640576.00000,   0.00000,   0.00000,   0.00000,-63693440.00000,   0.00000
206665683.06277,-266885160.42532,-10101516.51667,   0.00146,  -0.00162,  -0.00013,411578688.00000,   0.00000,274640576.00000,   0.00000,   0.00000,   0.00000,-63061888.00000,   0.00000
205743196.30203,-268426458.18084,-10101516.51667,   0.00146,  -0.00162,  -0.00013,412195488.00000,   0.00000,274640576.00000,   0.00000,   0.00000,   0.00000,-62445088.00000,   0.00000
204812114.94414,-269987809.99638,-10095786.78523,   0.00146,  -0.00163,  -0.00013,412828832.00000,   0.00000,274640576.00000,   0.00000,   0.00000,   0.00000,-61811744.00000,   0.00000
203840925.46622,-271566351.00621,-10095786.78523,   0.00146,  -0.00163,  -0.00013,413451264.00000,   0.00000,274640576.00000,   0.00000,   0.00000,   0.00000,-61189312.00000,   0.00000
202869735.98830,-273144892.01605,-10090057.05380,   0.00146,  -0.00164,  -0.00013,414079648.00000,   0.00000,274640576.00000,   0.00000,   0.00000,   0.00000,-60560928.00000,   0.00000
201869897.85321,-274752081.68305,-10078597.59093,   0.00145,  -0.00164,  -0.00013,414716480.00000,   0.00000,274640576.00000,   0.00000,   0.00000,   0.00000,-59924096.00000,   0.00000
200858600.25526,-276347811.88719,-10067138.12807,   0.00145,  -0.00165,  -0.00013,415340512.00000,   0.00000,274640576.00000,   0.00000,   0.00000,   0.00000,-59300064.00000,   0.00000
199818654.00014,-277972190.74849,-10055678.66520,   0.00145,  -0.00165,  -0.00013,415973568.00000,   0.00000,274640576.00000,   0.00000,   0.00000,   0.00000,-58667008.00000,   0.00000
198787302.34217,-279576515.54977,-10044219.20234,   0.00145,  -0.00166,  -0.00013,416601504.00000,   0.00000,274640576.00000,   0.00000,   0.00000,   0.00000,-58039072.00000,   0.00000
197707247.96702,-281218083.60538,-10027030.00804,   0.00145,  -0.00167,  -0.00013,417229664.00000,   0.00000,274640576.00000,   0.00000,   0.00000,   0.00000,-57410912.00000,   0.00000
196618598.99472,-282879705.72099,-10009840.81374,   0.00145,  -0.00167,  -0.00013,417874880.00000,   0.00000,274640576.00000,   0.00000,   0.00000,   0.00000,-56765696.00000,   0.00000
195518490.55955,-284529868.37374,-9986921.88800,   0.00144,  -0.00168,  -0.00013,418504864.00000,   0.00000,274640576.00000,   0.00000,   0.00000,   0.00000,-56135712.00000,   0.00000
194398328.06437,-286188625.62365,-9964002.96227,   0.00144,  -0.00168,  -0.00013,419130944.00000,   0.00000,274640576.00000,   0.00000,   0.00000,   0.00000,-55509632.00000,   0.00000
193269570.97203,-287867436.93356,-9935354.30511,   0.00144,  -0.00169,  -0.00013,419771936.00000,   0.00000,274640576.00000,   0.00000,   0.00000,   0.00000,-54868640.00000,   0.00000
192100705.75967,-289563437.43778,-9912435.37937,   0.00144,  -0.00169,  -0.00013,420399936.00000,   0.00000,274640576.00000,   0.00000,   0.00000,   0.00000,-54240640.00000,   0.00000
190931840.54730,-291259437.94200,-9878056.99077,   0.00144,  -0.00170,  -0.00013,421029600.00000,   0.00000,274640576.00000,   0.00000,   0.00000,   0.00000,-53610976.00000,   0.00000
189742921.27492,-292964033.04336,-9849408.33361,   0.00143,  -0.00170,  -0.00013,421652992.00000,   0.00000,274640576.00000,   0.00000,   0.00000,   0.00000,-52987584.00000,   0.00000
188533947.94253,-294677222.74188,-9815029.94501,   0.00143,  -0.00171,  -0.00013,422268864.00000,   0.00000,274640576.00000,   0.00000,   0.00000,   0.00000,-52371712.00000,   0.00000
187324974.61013,-296390412.44039,-9774921.82498,   0.00143,  -0.00171,  -0.00013,422884896.00000,   0.00000,274640576.00000,   0.00000,   0.00000,   0.00000,-51755680.00000,   0.00000
186067298.56055,-298140845.39322,-9734813.70494,   0.00143,  -0.00172,  -0.00013,423496672.00000,   0.00000,274640576.00000,   0.00000,   0.00000,   0.00000,-51143904.00000,   0.00000
184809622.51097,-299891278.34606,-9694705.58491,   0.00143,  -0.00172,  -0.00013,424107840.00000,   0.00000,274640576.00000,   0.00000,   0.00000,   0.00000,-50532736.00000,   0.00000
183531892.40137,-301650305.89604,-9654597.46488,   0.00142,  -0.00173,  -0.00013,424710496.00000,   0.00000,274640576.00000,   0.00000,   0.00000,   0.00000,-49930080.00000,   0.00000
182234108.23176,-303417928.04317,-9603029.88198,   0.00142,  -0.00174,  -0.00012,425303520.00000,   0.00000,274640576.00000,   0.00000,   0.00000,   0.00000,-49337056.00000,   0.00000
180916270.00213,-305194144.78745,-9557192.03052,   0.00142,  -0.00174,  -0.00012,425888064.00000,   0.00000,274640576.00000,   0.00000,   0.00000,   0.00000,-48752512.00000,   0.00000
179598431.77251,-306970361.53173,-9505624.44762,   0.00142,  -0.00175,  -0.00012,426471040.00000,   0.00000,274640576.00000,   0.00000,   0.00000,   0.00000,-48169536.00000,   0.00000
178251944.88571,-308775226.93318,-9454056.86472,   0.00141,  -0.00175,  -0.00012,427056704.00000,   0.00000,274640576.00000,   0.00000,   0.00000,   0.00000,-47583872.00000,   0.00000
176885403.93890,-310588686.93177,-9396759.55039,   0.00141,  -0.00176,  -0.00012,427632704.00000,   0.00000,274640576.00000,   0.00000,   0.00000,   0.00000,-47007872.00000,   0.00000
175498808.93208,-312410741.52752,-9339462.23606,   0.00141,  -0.00176,  -0.00012,428200896.00000,   0.00000,274640576.00000,   0.00000,   0.00000,   0.00000,-46439680.00000,   0.00000
174092159.86524,-314241390.72041,-9276435.19029,   0.00140,  -0.00177,  -0.00012,428762848.00000,   0.00000,274640576.00000,   0.00000,   0.00000,   0.00000,-45877728.00000,   0.00000
172665456.73838,-316080634.51046,-9213408.14453,   0.00140,  -0.00177,  -0.00012,429323264.00000,   0.00000,274640576.00000,   0.00000,   0.00000,   0.00000,-45317312.00000,   0.00000
171238753.61152,-317919878.30050,-9150381.09876,   0.00140,  -0.00178,  -0.00012,429895264.00000,   0.00000,274640576.00000,   0.00000,   0.00000,   0.00000,-44745312.00000,   0.00000
169783401.82750,-319787770.74772,-9081624.32156,   0.00140,  -0.00179,  -0.00012,430490016.00000,   0.00000,274640576.00000,   0.00000,   0.00000,   0.00000,-44150560.00000,   0.00000
168307995.98346,-321664257.79208,-9007137.81293,   0.00139,  -0.00179,  -0.00012,431110240.00000,   0.00000,274640576.00000,   0.00000,   0.00000,   0.00000,-43530336.00000,   0.00000
166812536.07940,-323549339.43359,-8938381.03573,   0.00139,  -0.00180,  -0.00012,431791712.00000,   0.00000,274640576.00000,   0.00000,   0.00000,   0.00000,-42848864.00000,   0.00000
165297022.11533,-325443015.67225,-8858164.79567,   0.00139,  -0.00180,  -0.00012,432507936.00000,   0.00000,274640576.00000,   0.00000,   0.00000,   0.00000,-42132640.00000,   0.00000
163781508.15126,-327336691.91091,-8783678.28704,   0.00138,  -0.00181,  -0.00011,433148928.00000,   0.00000,274640576.00000,   0.00000,   0.00000,   0.00000,-41491648.00000,   0.00000
162245940.12717,-329238962.74672,-8703462.04698,   0.00138,  -0.00181,  -0.00011,433763776.00000,   0.00000,274640576.00000,   0.00000,   0.00000,   0.00000,-40876800.00000,   0.00000
160681723.44592,-331169882.23969,-8617516.07548,   0.00138,  -0.00182,  -0.00011,434412256.00000,   0.00000,274640576.00000,   0.00000,   0.00000,   0.00000,-40228320.00000,   0.00000
159097452.70465,-333109396.32982,-8531570.10398,   0.00137,  -0.00183,  -0.00011,435071648.00000,   0.00000,274640576.00000,   0.00000,   0.00000,   0.00000,-39568928.00000,   0.00000
157493127.90336,-335057505.01710,-8439894.40105,   0.00137,  -0.00183,  -0.00011,435732384.00000,   0.00000,274640576.00000,   0.00000,   0.00000,   0.00000,-38908192.00000,   0.00000
155888803.10208,-337005613.70437,-8353948.42955,   0.00137,  -0.00184,  -0.00011,436398592.00000,   0.00000,274640576.00000,   0.00000,   0.00000,   0.00000,-38241984.00000,   0.00000
154244370.18076,-338970911.58595,-8256542.99519,   0.00136,  -0.00184,  -0.00011,437055072.00000,   0.00000,274640576.00000,   0.00000,   0.00000,   0.00000,-37585504.00000,   0.00000
152599937.25944,-340936209.46752,-8159137.56082,   0.00136,  -0.00185,  -0.00011,437715488.00000,   0.00000,274640576.00000,   0.00000,   0.00000,   0.00000,-36925088.00000,   0.00000
150926855.68096,-342930156.00626,-8061732.12646,   0.00136,  -0.00185,  -0.00010,438385856.00000,   0.00000,274640576.00000,   0.00000,   0.00000,   0.00000,-36254720.00000,   0.00000
149242314.63961,-344912643.08214,-7958596.96066,   0.00135,  -0.00186,  -0.00010,439039968.00000,   0.00000,274640576.00000,   0.00000,   0.00000,   0.00000,-35600608.00000,   0.00000
147549179.00111,-346915184.21803,-7855461.79487,   0.00135,  -0.00187,  -0.00010,439710592.00000,   0.00000,274640576.00000,   0.00000,   0.00000,   0.00000,-34929984.00000,   0.00000
145835989.30259,-348926319.95107,-7746596.89764,   0.00134,  -0.00187,  -0.00010,440378272.00000,   0.00000,274640576.00000,   0.00000,   0.00000,   0.00000,-34262304.00000,   0.00000
144082691.48404,-350954644.87841,-7637732.00041,   0.00134,  -0.00188,  -0.00010,441037984.00000,   0.00000,274640576.00000,   0.00000,   0.00000,   0.00000,-33602592.00000,   0.00000
142320799.06835,-353003023.86576,-7523137.37174,   0.00134,  -0.00188,  -0.00010,441715808.00000,   0.00000,274640576.00000,   0.00000,   0.00000,   0.00000,-32924768.00000,   0.00000
140567501.24980,-355031348.79310,-7408542.74308,   0.00133,  -0.00189,  -0.00010,442387232.00000,   0.00000,274640576.00000,   0.00000,   0.00000,   0.00000,-32253344.00000,   0.00000
138765500.71407,-357096916.97476,-7288218.38298,   0.00133,  -0.00190,  -0.00009,443066720.00000,   0.00000,274640576.00000,   0.00000,   0.00000,   0.00000,-31573856.00000,   0.00000
136972094.77549,-359142431.09640,-7167894.02289,   0.00132,  -0.00190,  -0.00009,443742464.00000,   0.00000,274640576.00000,   0.00000,   0.00000,   0.00000,-30898112.00000,   0.00000
135129986.11973,-361225188.47235,-7047569.66279,   0.00132,  -0.00191,  -0.00009,444429440.00000,   0.00000,274640576.00000,   0.00000,   0.00000,   0.00000,-30211136.00000,   0.00000
133287877.46396,-363307945.84831,-6915785.83983,   0.00131,  -0.00191,  -0.00009,445126944.00000,   0.00000,274640576.00000,   0.00000,   0.00000,   0.00000,-29513632.00000,   0.00000
131445768.80820,-365390703.22426,-6789731.74830,   0.00131,  -0.00192,  -0.00009,445836032.00000,   0.00000,274640576.00000,   0.00000,   0.00000,   0.00000,-28804544.00000,   0.00000
129554957.43526,-367510703.85453,-6657947.92534,   0.00131,  -0.00192,  -0.00009,446558016.00000,   0.00000,274640576.00000,   0.00000,   0.00000,   0.00000,-28082560.00000,   0.00000
127672740.65946,-369610650.42479,-6520434.37094,   0.00130,  -0.00193,  -0.00008,447277376.00000,   0.00000,274640576.00000,   0.00000,   0.00000,   0.00000,-27363200.00000,   0.00000
125741821.16649,-371747840.24936,-6382920.81654,   0.00130,  -0.00194,  -0.00008,448009408.00000,   0.00000,274640576.00000,   0.00000,   0.00000,   0.00000,-26631168.00000,   0.00000
123810901.67351,-373885030.07393,-6245407.26215,   0.00129,  -0.00194,  -0.00008,448750976.00000,   0.00000,274640576.00000,   0.00000,   0.00000,   0.00000,-25889600.00000,   0.00000
121859928.12052,-376030814.49565,-6102163.97632,   0.00129,  -0.00195,  -0.00008,449495744.00000,   0.00000,274640576.00000,   0.00000,   0.00000,   0.00000,-25144832.00000,   0.00000
119908954.56753,-378176598.91737,-5953190.95906,   0.00128,  -0.00195,  -0.00008,450248192.00000,   0.00000,274640576.00000,   0.00000,   0.00000,   0.00000,-24392384.00000,   0.00000
117917872.89450,-380339572.53339,-5804217.94179,   0.00128,  -0.00196,  -0.00008,450997632.00000,   0.00000,274640576.00000,   0.00000,   0.00000,   0.00000,-23642944.00000,   0.00000
115926791.22148,-382502546.14941,-5649515.19310,   0.00127,  -0.00197,  -0.00007,451753920.00000,   0.00000,274640576.00000,   0.00000,   0.00000,   0.00000,-22886656.00000,   0.00000
113915655.48844,-384674114.36257,-5494812.44440,   0.00127,  -0.00197,  -0.00007,452511456.00000,   0.00000,274640576.00000,   0.00000,   0.00000,   0.00000,-22129120.00000,   0.00000
111875871.09823,-386874331.23291,-5340109.69571,   0.00126,  -0.00198,  -0.00007,453284640.00000,   0.00000,274640576.00000,   0.00000,   0.00000,   0.00000,-21355936.00000,   0.00000
109836086.70803,-389074548.10324,-5179677.21558,   0.00126,  -0.00198,  -0.00007,454064032.00000,   0.00000,274640576.00000,   0.00000,   0.00000,   0.00000,-20576544.00000,   0.00000
107756194.19779,-391291954.16788,-5013515.00402,   0.00125,  -0.00199,  -0.00007,454840128.00000,   0.00000,274640576.00000,   0.00000,   0.00000,   0.00000,-19800448.00000,   0.00000
105676301.68755,-393509360.23251,-4847352.79246,   0.00125,  -0.00200,  -0.00006,455623552.00000,   0.00000,274640576.00000,   0.00000,   0.00000,   0.00000,-19017024.00000,   0.00000
103576355.11729,-395735360.89430,-4681190.58089,   0.00124,  -0.00200,  -0.00006,456409568.00000,   0.00000,274640576.00000,   0.00000,   0.00000,   0.00000,-18231008.00000,   0.00000
101456354.48702,-397969956.15323,-4509298.63790,   0.00124,  -0.00201,  -0.00006,457198752.00000,   0.00000,274640576.00000,   0.00000,   0.00000,   0.00000,-17441824.00000,   0.00000
99336353.85675,-400204551.41216,-4331676.96347,   0.00123,  -0.00201,  -0.00006,457996480.00000,   0.00000,274640576.00000,   0.00000,   0.00000,   0.00000,-16644096.00000,   0.00000
97167650.50930,-402476389.92541,-4154055.28904,   0.00123,  -0.00202,  -0.00005,458808288.00000,   0.00000,274640576.00000,   0.00000,   0.00000,   0.00000,-15832288.00000,   0.00000
95007541.75900,-404728174.37865,-3976433.61462,   0.00122,  -0.00203,  -0.00005,459616096.00000,   0.00000,274640576.00000,   0.00000,   0.00000,   0.00000,-15024480.00000,   0.00000
92818784.35153,-407008607.48905,-3793082.20875,   0.00122,  -0.00203,  -0.00005,460444160.00000,   0.00000,274640576.00000,   0.00000,   0.00000,   0.00000,-14196416.00000,   0.00000
90609972.88405,-409297635.19659,-3604001.07146,   0.00121,  -0.00204,  -0.00005,461279008.00000,   0.00000,274640576.00000,   0.00000,   0.00000,   0.00000,-13361568.00000,   0.00000
88401161.41656,-411586662.90414,-3414919.93417,   0.00120,  -0.00205,  -0.00004,462125344.00000,   0.00000,274640576.00000,   0.00000,   0.00000,   0.00000,-12515232.00000,   0.00000
86172295.88906,-413884285.20884,-3220109.06544,   0.00120,  -0.00205,  -0.00004,462979296.00000,   0.00000,274640576.00000,   0.00000,   0.00000,   0.00000,-11661280.00000,   0.00000
83923376.30154,-416190502.11069,-3025298.19671,   0.00119,  -0.00206,  -0.00004,463841024.00000,   0.00000,274640576.00000,   0.00000,   0.00000,   0.00000,-10799552.00000,   0.00000
81654402.65401,-418505313.60969,-2824757.59655,   0.00119,  -0.00206,  -0.00004,464710496.00000,   0.00000,274640576.00000,   0.00000,   0.00000,   0.00000,-9930080.00000,   0.00000
79365374.94646,-420828719.70584,-2624216.99639,   0.00118,  -0.00207,  -0.00003,465587520.00000,   0.00000,274640576.00000,   0.00000,   0.00000,   0.00000,-9053056.00000,   0.00000
77067752.64176,-423172179.86200,-2423676.39623,   0.00118,  -0.00208,  -0.00003,466490048.00000,   0.00000,274640576.00000,   0.00000,   0.00000,   0.00000,-8150528.00000,   0.00000
74730022.21703,-425532829.21246,-2217406.06463,   0.00117,  -0.00208,  -0.00003,467394944.00000,   0.00000,274640576.00000,   0.00000,   0.00000,   0.00000,-7245632.00000,   0.00000
72420940.44947,-427864829.90576,-2005406.00161,   0.00116,  -0.00209,  -0.00003,468298144.00000,   0.00000,274640576.00000,   0.00000,   0.00000,   0.00000,-6342432.00000,   0.00000
70063155.96472,-430234073.85337,-1793405.93858,   0.00116,  -0.00209,  -0.00002,469216960.00000,   0.00000,274640576.00000,   0.00000,   0.00000,   0.00000,-5423616.00000,   0.00000
67685317.41996,-432611912.39814,-1575676.14412,   0.00115,  -0.00210,  -0.00002,470139392.00000,   0.00000,274640576.00000,   0.00000,   0.00000,   0.00000,-4501184.00000,   0.00000
65307478.87520,-434989750.94290,-1357946.34966,   0.00115,  -0.00211,  -0.00002,471068704.00000,   0.00000,274640576.00000,   0.00000,   0.00000,   0.00000,-3571872.00000,   0.00000
62909586.27042,-437376184.08481,-1134486.82377,   0.00114,  -0.00211,  -0.00001,472000768.00000,   0.00000,274640576.00000,   0.00000,   0.00000,   0.00000,-2639808.00000,   0.00000
60491639.60562,-439771211.82387,-911027.29787,   0.00113,  -0.00212,  -0.00001,472935744.00000,   0.00000,274640576.00000,   0.00000,   0.00000,   0.00000,-1704832.00000,   0.00000
58073692.94083,-442166239.56294,-681838.04055,   0.00113,  -0.00213,  -0.00001,473877248.00000,   0.00000,274640576.00000,   0.00000,   0.00000,   0.00000,-763328.00000,   0.00000
56103264.03999,-444109206.04007,-498755.21585,   0.00112,  -0.00213,  -0.00001,474640896.00000,   0.00000,274640576.00000,   0.00000,   0.00000,   0.00000, 320.00000,   0.00000
55569017.74016,-444425513.15215,-452495.77227,   0.00112,  -0.00213,  -0.00001,474640896.00000,   0.00000,274641472.00000,   0.00000,  -0.00000,  -0.00000,-992.00000,   1.00000
52929510.93153,-445990516.63029,-217406.91491,   0.00111,  -0.00214,  -0.00000,475590816.00000,   0.00000,274645856.00000,   0.00000,  -0.00001,  -0.00000,  96.00000,   2.00000
50273070.66441,-447553198.41652,23165.63790,   0.00111,  -0.00214,   0.00000,475604224.00000,   0.00001,274650272.00000,   0.00001,  -0.00001,  -0.00000,  32.00000,   2.00000
47608416.03258,-449108547.44003,257679.34062,   0.00110,  -0.00215,   0.00000,475635808.00000,   0.00001,274654816.00000,   0.00001,  -0.00001,   0.00000,  32.00000,   2.00000
44908203.74606,-450671050.92839,503229.81616,   0.00109,  -0.00216,   0.00001,475647840.00000,   0.00002,274659392.00000,   0.00001,  -0.00002,   0.00000, -32.00000,   2.00000
42222842.92613,-452210825.14455,748292.66763,   0.00109,  -0.00216,   0.00001,475651648.00000,   0.00002,274663936.00000,   0.00001,  -0.00002,   0.00000, -64.00000,   2.00000
39530318.22277,-453740088.69108,992732.55221,   0.00108,  -0.00217,   0.00001,475686112.00000,   0.00003,274668608.00000,   0.00002,  -0.00003,   0.00000,  64.00000,   2.00000
36802727.93926,-455274096.02083,1242228.45862,   0.00107,  -0.00217,   0.00002,475700640.00000,   0.00003,274673344.00000,   0.00002,  -0.00003,   0.00000, 160.00000,   2.00000
34079304.54098,-456790266.49056,1490963.54632,   0.00107,  -0.00218,   0.00002,475720896.00000,   0.00003,274678144.00000,   0.00002,  -0.00004,   0.00000, -64.00000,   2.00000
31340477.80012,-458300170.42601,1744597.36682,   0.00106,  -0.00219,   0.00002,475738112.00000,   0.00004,274682976.00000,   0.00002,  -0.00004,   0.00000, -32.00000,   2.00000
28586134.49743,-459803807.15279,2003059.06062,   0.00105,  -0.00219,   0.00003,475755232.00000,   0.00004,274687840.00000,   0.00003,  -0.00005,   0.00000,  32.00000,   2.00000
25816202.63286,-461301904.55118,2260582.15491,   0.00105,  -0.00220,   0.00003,475771680.00000,   0.00005,274692800.00000,   0.00003,  -0.00005,   0.00000,  32.00000,   2.00000
23050267.50547,-462784277.95590,2517136.75067,   0.00104,  -0.00221,   0.00003,475789856.00000,   0.00005,274697792.00000,   0.00003,  -0.00006,   0.00000, -64.00000,   2.00000
20268524.40584,-464262618.37309,2778471.92924,   0.00103,  -0.00221,   0.00004,475805024.00000,   0.00006,274702816.00000,   0.00003,  -0.00006,   0.00000,  64.00000,   2.00000
17460503.84764,-465742403.56178,3044503.94721,   0.00102,  -0.00222,   0.00004,475835712.00000,   0.00006,274707936.00000,   0.00004,  -0.00007,   0.00000, -32.00000,   2.00000
14667032.30725,-467202809.82363,3309849.26765,   0.00102,  -0.00223,   0.00004,475836736.00000,   0.00007,274713056.00000,   0.00004,  -0.00007,   0.00000, 160.00000,   2.00000
11838200.35685,-468669490.88353,3574546.00804,   0.00101,  -0.00223,   0.00005,475850048.00000,   0.00007,274718208.00000,   0.00004,  -0.00008,   0.00000,   0.00000,   2.00000
9003231.29018,-470127383.04856,3850022.89418,   0.00100,  -0.00224,   0.00005,475882560.00000,   0.00008,274723488.00000,   0.00004,  -0.00008,   0.00000,  32.00000,   2.00000
6181674.61944,-471567767.89104,4119615.30183,   0.00099,  -0.00224,   0.00005,475881888.00000,   0.00008,274728736.00000,   0.00005,  -0.00009,   0.00000, -64.00000,   2.00000
3313027.23693,-473023925.04706,4394645.44052,   0.00099,  -0.00225,   0.00006,475906880.00000,   0.00009,274734048.00000,   0.00005,  -0.00009,   0.00000,  64.00000,   2.00000
457742.22233,-474465399.74934,4675337.43912,   0.00098,  -0.00226,   0.00006,475903392.00000,   0.00009,274739328.00000,   0.00005,  -0.00010,   0.00000,  96.00000,   2.00000
-2422603.90967,-475910166.27966,4955538.67407,   0.00097,  -0.00226,   0.00007,475931392.00000,   0.00009,274744736.00000,   0.00006,  -0.00010,   0.00000,  64.00000,   2.00000
-5284985.32835,-477332038.31791,5241132.31104,   0.00096,  -0.00227,   0.00007,475935232.00000,   0.00010,274750080.00000,   0.00006,  -0.00011,   0.00000,   0.00000,   2.00000
-8162172.25370,-478738934.65604,5525898.38084,   0.00096,  -0.00228,   0.00007,475980448.00000,   0.00010,274755616.00000,   0.00006,  -0.00011,   0.00000, 160.00000,   2.00000
-11042209.13363,-480110736.61745,5809050.57869,   0.00095,  -0.00228,   0.00008,476026400.00000,   0.00011,274761248.00000,   0.00006,  -0.00012,   0.00000,   0.00000,   2.00000
-13950587.47018,-481474286.69018,6094322.12394,   0.00094,  -0.00229,   0.00008,476030720.00000,   0.00012,274766944.00000,   0.00007,  -0.00012,   0.00000, -32.00000,   2.00000
-16882292.11521,-482894130.67794,6383241.75724,   0.00093,  -0.00229,   0.00009,475997984.00000,   0.00012,274772512.00000,   0.00007,  -0.00013,   0.00000, -32.00000,   2.00000
-19798223.88220,-484296537.78410,6672412.77101,   0.00093,  -0.00230,   0.00009,476022528.00000,   0.00013,274778080.00000,   0.00007,  -0.00014,   0.00000,  32.00000,   2.00000
-22712562.30028,-485637755.07580,6966423.65140,   0.00092,  -0.00231,   0.00009,476076096.00000,   0.00013,274783840.00000,   0.00007,  -0.00014,   0.00000,  32.00000,   2.00000
-25653812.25423,-486972534.79561,7259374.11191,   0.00091,  -0.00231,   0.00010,476114528.00000,   0.00014,274789728.00000,   0.00008,  -0.00015,   0.00000, 128.00000,   2.00000
-28591025.44034,-488298895.46356,7557422.41535,   0.00090,  -0.00232,   0.00010,476124992.00000,   0.00014,274795648.00000,   0.00008,  -0.00015,   0.00000,  64.00000,   2.00000
-31542348.95407,-489622258.59221,7854762.20052,   0.00089,  -0.00233,   0.00011,476138400.00000,   0.00015,274801600.00000,   0.00008,  -0.00016,   0.00000,  96.00000,   2.00000
-34477876.21512,-490926474.54220,8151552.61057,   0.00089,  -0.00233,   0.00011,476139168.00000,   0.00015,274807552.00000,   0.00008,  -0.00017,   0.00000,   0.00000,   2.00000
-37434980.29771,-492226146.71638,8458513.09288,   0.00088,  -0.00234,   0.00011,476174368.00000,   0.00016,274813600.00000,   0.00009,  -0.00017,   0.00000, -64.00000,   2.00000
-40404353.78531,-493517360.06703,8758675.66137,   0.00087,  -0.00234,   0.00012,476193216.00000,   0.00016,274819680.00000,   0.00009,  -0.00018,   0.00001,  96.00000,   2.00000
-43377107.94930,-494795020.33623,9063697.94519,   0.00086,  -0.00235,   0.00012,476196992.00000,   0.00017,274825760.00000,   0.00009,  -0.00018,   0.00001,  32.00000,   2.00000
-46350317.78808,-496057889.09839,9372844.33586,   0.00085,  -0.00236,   0.00013,476233600.00000,   0.00017,274831968.00000,   0.00010,  -0.00019,   0.00001,  96.00000,   2.00000
-49335201.21816,-497310892.89324,9680660.41441,   0.00084,  -0.00236,   0.00013,476253824.00000,   0.00018,274838240.00000,   0.00010,  -0.00020,   0.00001,  64.00000,   2.00000
-52303248.45598,-498541589.84807,9993181.42326,   0.00084,  -0.00237,   0.00014,476257952.00000,   0.00019,274844480.00000,   0.00010,  -0.00020,   0.00001,  96.00000,   2.00000
-55311070.22755,-499774210.33181,10303941.37813,   0.00083,  -0.00238,   0.00014,476294816.00000,   0.00019,274850848.00000,   0.00010,  -0.00021,   0.00001,   0.00000,   2.00000
-58310091.32714,-500988370.67598,10613309.48596,   0.00082,  -0.00238,   0.00015,476315168.00000,   0.00020,274857280.00000,   0.00011,  -0.00022,   0.00001,   0.00000,   2.00000
-61292129.67950,-502180616.16648,10927401.54136,   0.00081,  -0.00239,   0.00015,476319168.00000,   0.00020,274863680.00000,   0.00011,  -0.00022,   0.00001,   0.00000,   2.00000
-64293146.73808,-503365584.47349,11245403.68755,   0.00080,  -0.00240,   0.00015,476356800.00000,   0.00021,274870240.00000,   0.00011,  -0.00023,   0.00001, -64.00000,   2.00000
-67296965.89683,-504536926.68110,11562420.80577,   0.00079,  -0.00240,   0.00016,476361216.00000,   0.00022,274876736.00000,   0.00011,  -0.00024,   0.00001,  64.00000,   2.00000
-70319036.00731,-505700555.60327,11877605.68364,   0.00078,  -0.00241,   0.00016,476399104.00000,   0.00022,274883392.00000,   0.00012,  -0.00024,   0.00001, -96.00000,   2.00000
-73323532.42227,-506841994.15856,12197541.36392,   0.00077,  -0.00241,   0.00017,476403872.00000,   0.00023,274890016.00000,   0.00012,  -0.00025,   0.00001,  64.00000,   2.00000
-76345450.51895,-507974470.04213,12521267.69232,   0.00077,  -0.00242,   0.00017,476443040.00000,   0.00023,274896800.00000,   0.00012,  -0.00026,   0.00001, -32.00000,   2.00000
-79349407.60547,-509084760.79911,12843977.66746,   0.00076,  -0.00243,   0.00018,476447712.00000,   0.00024,274903520.00000,   0.00013,  -0.00027,   0.00001,  96.00000,   2.00000
-82369962.93977,-510185641.50574,13164654.46487,   0.00075,  -0.00243,   0.00018,476487168.00000,   0.00025,274910400.00000,   0.00013,  -0.00027,   0.00001, -32.00000,   2.00000
-85392042.37260,-511270767.75543,13489906.71206,   0.00074,  -0.00244,   0.00019,476494176.00000,   0.00025,274917280.00000,   0.00013,  -0.00028,   0.00001, -64.00000,   2.00000
-88402884.64305,-512335943.02844,13813517.79258,   0.00073,  -0.00245,   0.00019,476516256.00000,   0.00026,274924192.00000,   0.00013,  -0.00029,   0.00001,  96.00000,   2.00000
-91422144.46814,-513387569.11935,14141081.56851,   0.00072,  -0.00245,   0.00020,476540448.00000,   0.00027,274931168.00000,   0.00014,  -0.00029,   0.00001,   0.00000,   2.00000
-94449691.44761,-514426140.77943,14466832.09851,   0.00071,  -0.00246,   0.00020,476564128.00000,   0.00027,274938208.00000,   0.00014,  -0.00030,   0.00001,  32.00000,   2.00000
-97465517.85959,-515444117.18950,14796463.38809,   0.00070,  -0.00246,   0.00021,476586848.00000,   0.00028,274945312.00000,   0.00014,  -0.00031,   0.00002, -32.00000,   2.00000
-100489498.95047,-516449068.94047,15124173.27902,   0.00069,  -0.00247,   0.00021,476610400.00000,   0.00028,274952448.00000,   0.00014,  -0.00032,   0.00002, -32.00000,   2.00000
-103501770.06140,-517434085.84982,15455689.52869,   0.00068,  -0.00248,   0.00022,476632448.00000,   0.00029,274959680.00000,   0.00015,  -0.00032,   0.00002,  32.00000,   2.00000
-106522202.54123,-518406555.53992,15785216.15783,   0.00067,  -0.00248,   0.00022,476655712.00000,   0.00030,274966944.00000,   0.00015,  -0.00033,   0.00002,  64.00000,   2.00000
-109550720.44392,-519366547.30632,16112731.33760,   0.00067,  -0.00249,   0.00023,476678816.00000,   0.00030,274974272.00000,   0.00015,  -0.00034,   0.00002, 160.00000,   2.00000
-112561070.32511,-520304826.51097,16444592.87694,   0.00066,  -0.00250,   0.00023,476683456.00000,   0.00031,274981568.00000,   0.00015,  -0.00035,   0.00002,   0.00000,   2.00000
-115585484.55724,-521232434.30593,16779438.91100,   0.00065,  -0.00250,   0.00024,476723616.00000,   0.00032,274989024.00000,   0.00016,  -0.00036,   0.00002,  96.00000,   2.00000
-118597749.97920,-522141860.17454,17106540.90748,   0.00064,  -0.00251,   0.00024,476743872.00000,   0.00032,274996512.00000,   0.00016,  -0.00036,   0.00002,  32.00000,   2.00000
-121610832.27828,-523034996.15167,17443496.00832,   0.00063,  -0.00251,   0.00025,476751808.00000,   0.00033,275004000.00000,   0.00016,  -0.00037,   0.00002, -64.00000,   2.00000
-124630522.80475,-523915410.31603,17772490.51955,   0.00062,  -0.00252,   0.00025,476775200.00000,   0.00034,275011520.00000,   0.00016,  -0.00038,   0.00002,  32.00000,   2.00000
-127636184.27654,-524774262.60900,18110610.82371,   0.00061,  -0.00253,   0.00026,476798976.00000,   0.00035,275019104.00000,   0.00017,  -0.00039,   0.00002,  64.00000,   2.00000
-130652693.17576,-525620685.02439,18439891.22236,   0.00060,  -0.00253,   0.00026,476841152.00000,   0.00035,275026848.00000,   0.00017,  -0.00040,   0.00002, -32.00000,   2.00000
-133648209.10191,-526443069.43108,18773218.52685,   0.00059,  -0.00254,   0.00027,476849088.00000,   0.00036,275034528.00000,   0.00017,  -0.00040,   0.00003,  64.00000,   2.00000
-136641937.49948,-527246748.70867,19110484.64817,   0.00058,  -0.00255,   0.00028,476860416.00000,   0.00037,275042240.00000,   0.00017,  -0.00041,   0.00003, -32.00000,   2.00000
-139625046.08180,-528030659.20320,19438976.15283,   0.00057,  -0.00255,   0.00028,476902208.00000,   0.00037,275050048.00000,   0.00018,  -0.00042,   0.00003,  64.00000,   2.00000
-142610884.34099,-528795983.25659,19776419.67576,   0.00056,  -0.00256,   0.00029,476932512.00000,   0.00038,275057952.00000,   0.00018,  -0.00043,   0.00003,  64.00000,   2.00000
-145594801.45972,-529543430.51717,20106611.84492,   0.00055,  -0.00256,   0.00029,476943712.00000,   0.00039,275065856.00000,   0.00018,  -0.00044,   0.00003, -64.00000,   2.00000
-148567802.67709,-530270200.67363,20439580.13248,   0.00054,  -0.00257,   0.00030,476986720.00000,   0.00040,275073856.00000,   0.00018,  -0.00045,   0.00003,   0.00000,   2.00000
-151540183.03625,-530979173.23515,20776846.80594,   0.00053,  -0.00258,   0.00030,476997664.00000,   0.00040,275081856.00000,   0.00018,  -0.00046,   0.00003, -32.00000,   2.00000
-154498946.29007,-531669498.55390,21112208.32844,   0.00052,  -0.00258,   0.00031,477019712.00000,   0.00041,275089920.00000,   0.00019,  -0.00046,   0.00003, -64.00000,   2.00000
-157463884.42175,-532347264.25101,21445625.52845,   0.00051,  -0.00259,   0.00031,477043520.00000,   0.00042,275098016.00000,   0.00019,  -0.00047,   0.00003,  64.00000,   2.00000
-160414676.87146,-533006893.17302,21782959.14618,   0.00050,  -0.00259,   0.00032,477064384.00000,   0.00043,275106176.00000,   0.00019,  -0.00048,   0.00004,  96.00000,   2.00000
-163368448.01134,-533652324.14957,22118140.85174,   0.00049,  -0.00260,   0.00032,477089600.00000,   0.00043,275114400.00000,   0.00019,  -0.00049,   0.00004,   0.00000,   2.00000
-166304004.51110,-534275632.80069,22456631.72059,   0.00048,  -0.00261,   0.00033,477114624.00000,   0.00044,275122656.00000,   0.00019,  -0.00050,   0.00004, -32.00000,   2.00000
-169236685.42231,-534880730.26635,22787496.60886,   0.00047,  -0.00261,   0.00034,477125600.00000,   0.00045,275130880.00000,   0.00020,  -0.00051,   0.00004,   0.00000,   2.00000
-172175595.62488,-535468204.25408,23125922.04740,   0.00046,  -0.00262,   0.00034,477172416.00000,   0.00046,275139296.00000,   0.00020,  -0.00052,   0.00004, -32.00000,   2.00000
-175095380.91913,-536036614.45128,23457070.26053,   0.00045,  -0.00262,   0.00035,477175872.00000,   0.00046,275147648.00000,   0.00020,  -0.00053,   0.00004,  64.00000,   2.00000
-177999589.98799,-536585571.82684,23797104.36920,   0.00044,  -0.00263,   0.00035,477198080.00000,   0.00047,275156064.00000,   0.00020,  -0.00054,   0.00004,  32.00000,   2.00000
-180907024.92493,-537121522.06936,24128713.13837,   0.00043,  -0.00264,   0.00036,477222688.00000,   0.00048,275164512.00000,   0.00020,  -0.00055,   0.00005,   0.00000,   2.00000
-183793932.35038,-537637377.28611,24464364.40874,   0.00042,  -0.00264,   0.00037,477228320.00000,   0.00049,275172928.00000,   0.00021,  -0.00055,   0.00005,  64.00000,   2.00000
-186685779.21594,-538138434.59107,24796040.03277,   0.00041,  -0.00265,   0.00037,477273440.00000,   0.00049,275181504.00000,   0.00021,  -0.00056,   0.00005, -32.00000,   2.00000
-189574603.88095,-538621513.30896,25131328.47526,   0.00040,  -0.00265,   0.00038,477285856.00000,   0.00050,275190048.00000,   0.00021,  -0.00057,   0.00005, 128.00000,   2.00000
-192445377.07476,-539085471.71931,25458134.01678,   0.00039,  -0.00266,   0.00038,477309536.00000,   0.00051,275198656.00000,   0.00021,  -0.00058,   0.00005, -64.00000,   2.00000
-195299983.00333,-539527164.82036,25792344.91759,   0.00038,  -0.00267,   0.00039,477353440.00000,   0.00052,275207360.00000,   0.00021,  -0.00059,   0.00005,-960.00000,   1.00000
-198148552.47371,-539952431.28522,26119948.54186,   0.00037,  -0.00267,   0.00040,477346656.00000,   0.00053,275216000.00000,   0.00021,  -0.00060,   0.00006,-928.00000,   1.00000
-200999299.07486,-540360507.42005,26449052.94518,   0.00035,  -0.00268,   0.00040,477395008.00000,   0.00053,275224768.00000,   0.00022,  -0.00061,   0.00006,-704.00000,   1.00000
-203812124.24291,-540744377.11197,26781332.40201,   0.00034,  -0.00268,   0.00041,477416064.00000,   0.00054,275233536.00000,   0.00022,  -0.00062,   0.00006,-704.00000,   1.00000
-206639761.07608,-541114377.60545,27105650.78480,   0.00033,  -0.00269,   0.00041,477432832.00000,   0.00055,275242336.00000,   0.00022,  -0.00063,   0.00006,-640.00000,   1.00000
-209447699.70038,-541463565.87729,27432910.17706,   0.00032,  -0.00270,   0.00042,477458400.00000,   0.00056,275251200.00000,   0.00022,  -0.00064,   0.00006,-544.00000,   1.00000
-212235844.84466,-541791867.26332,27763100.70181,   0.00031,  -0.00270,   0.00043,477483968.00000,   0.00057,275260096.00000,   0.00022,  -0.00065,   0.00006,-736.00000,   1.00000
-215022770.52770,-542103654.94024,28090265.96758,   0.00030,  -0.00271,   0.00043,477513216.00000,   0.00057,275269024.00000,   0.00022,  -0.00066,   0.00007,-416.00000,   1.00000
-217787872.83947,-542395478.62556,28415910.87944,   0.00029,  -0.00271,   0.00044,477519648.00000,   0.00058,275277952.00000,   0.00022,  -0.00067,   0.00007,-736.00000,   1.00000
-220533832.35931,-542668804.72589,28738951.54007,   0.00028,  -0.00272,   0.00044,477542720.00000,   0.00059,275286912.00000,   0.00022,  -0.00068,   0.00007,-768.00000,   1.00000
-223278139.93342,-542924838.77656,29064648.68827,   0.00027,  -0.00273,   0.00045,477572352.00000,   0.00060,275295936.00000,   0.00023,  -0.00069,   0.00007,-832.00000,   1.00000
-226020991.71971,-543164710.50902,29387333.44786,   0.00026,  -0.00273,   0.00046,477600928.00000,   0.00061,275305024.00000,   0.00023,  -0.00070,   0.00007,-960.00000,   1.00000
-228745020.33016,-543387927.83882,29707486.37363,   0.00025,  -0.00274,   0.00046,477623328.00000,   0.00062,275314144.00000,   0.00023,  -0.00071,   0.00008,-128.00000,   2.00000
-231447406.85163,-543591057.73304,30031810.97541,   0.00024,  -0.00274,   0.00047,477630176.00000,   0.00062,275323232.00000,   0.00023,  -0.00072,   0.00008,   0.00000,   2.00000
-234150452.47088,-543780264.15493,30346194.38448,   0.00022,  -0.00275,   0.00048,477674752.00000,   0.00063,275332416.00000,   0.00023,  -0.00073,   0.00008,  64.00000,   2.00000
-236831883.09701,-543949410.00440,30670370.48762,   0.00021,  -0.00275,   0.00048,477681504.00000,   0.00064,275341600.00000,   0.00023,  -0.00074,   0.00008, -64.00000,   2.00000
-239510804.38378,-544104283.67871,30986935.55905,   0.00020,  -0.00276,   0.00049,477690848.00000,   0.00065,275350784.00000,   0.00023,  -0.00075,   0.00009,   0.00000,   2.00000
-242171637.48596,-544241660.76865,31304992.91394,   0.00019,  -0.00277,   0.00049,477731040.00000,   0.00066,275360064.00000,   0.00023,  -0.00076,   0.00009, 128.00000,   2.00000
-244811726.46406,-544361659.14688,31621261.37058,   0.00018,  -0.00277,   0.00050,477735296.00000,   0.00067,275369280.00000,   0.00023,  -0.00077,   0.00009,   0.00000,   2.00000
-247448404.50776,-544464284.81543,31939391.65220,   0.00017,  -0.00278,   0.00051,477764448.00000,   0.00068,275378592.00000,   0.00023,  -0.00078,   0.00009,   0.00000,   2.00000
-250063506.55492,-544549477.60564,32248273.56772,   0.00016,  -0.00278,   0.00051,477784992.00000,   0.00068,275387936.00000,   0.00023,  -0.00079,   0.00009,   0.00000,   2.00000
-252670075.24129,-544613658.13626,32558235.79084,   0.00015,  -0.00279,   0.00052,477815200.00000,   0.00069,275397344.00000,   0.00023,  -0.00080,   0.00010,   0.00000,   2.00000
-255246692.03537,-544653735.17651,32870767.46902,   0.00014,  -0.00279,   0.00053,477822592.00000,   0.00070,275406720.00000,   0.00023,  -0.00081,   0.00010,  64.00000,   2.00000
-257794292.82824,-544673496.64903,33173455.16555,   0.00012,  -0.00280,   0.00053,477846368.00000,   0.00071,275416128.00000,   0.00024,  -0.00082,   0.00010,  96.00000,   2.00000
-260333204.70775,-544675472.19917,33478037.83568,   0.00011,  -0.00281,   0.00054,477880576.00000,   0.00072,275425600.00000,   0.00024,  -0.00083,   0.00010,  96.00000,   2.00000
-262857016.21930,-544666911.20316,33781079.16522,   0.00010,  -0.00281,   0.00055,477905984.00000,   0.00073,275435104.00000,   0.00024,  -0.00085,   0.00011,  32.00000,   2.00000
-265371349.29764,-544649598.56452,34084715.53182,   0.00009,  -0.00282,   0.00055,477912352.00000,   0.00074,275444544.00000,   0.00024,  -0.00086,   0.00011,  64.00000,   2.00000
-267889427.18908,-544619923.58921,34391784.93991,   0.00008,  -0.00282,   0.00056,477943008.00000,   0.00075,275454048.00000,   0.00024,  -0.00087,   0.00011, -32.00000,   2.00000
-270388975.72105,-544575106.41744,34696101.14118,   0.00007,  -0.00283,   0.00057,477965024.00000,   0.00075,275463584.00000,   0.00024,  -0.00088,   0.00012,  64.00000,   2.00000
-272883217.97608,-544513879.40057,34997971.26391,   0.00006,  -0.00283,   0.00057,477976864.00000,   0.00076,275473120.00000,   0.00024,  -0.00089,   0.00012,  32.00000,   2.00000
-275355818.27381,-544437205.11721,35295122.55773,   0.00004,  -0.00284,   0.00058,478015840.00000,   0.00077,275482752.00000,   0.00024,  -0.00090,   0.00012,  32.00000,   2.00000
-277807226.47754,-544344988.92462,35590541.14915,   0.00003,  -0.00284,   0.00059,478020000.00000,   0.00078,275492320.00000,   0.00024,  -0.00091,   0.00012,   0.00000,   2.00000
-280253615.26503,-544236397.78109,35889269.73919,   0.00002,  -0.00285,   0.00059,478032960.00000,   0.00079,275501920.00000,   0.00024,  -0.00092,   0.00013,   0.00000,   2.00000
-282679047.23956,-544113815.79375,36183390.11807,   0.00001,  -0.00285,   0.00060,478071808.00000,   0.00080,275511584.00000,   0.00024,  -0.00093,   0.00013, -96.00000,   2.00000
-285083657.42541,-543976505.81391,36475926.31894,  -0.00000,  -0.00286,   0.00061,478076480.00000,   0.00081,275521216.00000,   0.00023,  -0.00094,   0.00013,  64.00000,   2.00000
-287466028.35835,-543823003.60481,36771197.96146,  -0.00001,  -0.00287,   0.00061,478099840.00000,   0.00082,275530880.00000,   0.00023,  -0.00095,   0.00014, -32.00000,   2.00000
-289843654.12923,-543655700.04051,37059250.34671,  -0.00002,  -0.00287,   0.00062,478111264.00000,   0.00082,275540544.00000,   0.00023,  -0.00096,   0.00014,  32.00000,   2.00000
-292198347.50724,-543472320.43087,37350613.10414,  -0.00004,  -0.00288,   0.00063,478134912.00000,   0.00083,275550208.00000,   0.00023,  -0.00097,   0.00014,  64.00000,   2.00000
-294545628.34091,-543273710.62571,37638475.24618,  -0.00005,  -0.00288,   0.00063,478165696.00000,   0.00084,275559936.00000,   0.00023,  -0.00098,   0.00014,  96.00000,   2.00000
-296868606.68611,-543059651.58693,37922620.93662,  -0.00006,  -0.00289,   0.00064,478189344.00000,   0.00085,275569728.00000,   0.00023,  -0.00099,   0.00015, -32.00000,   2.00000
-299167030.33546,-542827944.39482,38209465.22245,  -0.00007,  -0.00289,   0.00065,478197408.00000,   0.00086,275579456.00000,   0.00023,  -0.00101,   0.00015, -32.00000,   2.00000
-301441964.94479,-542582345.00174,38486036.21440,  -0.00008,  -0.00290,   0.00065,478219680.00000,   0.00087,275589216.00000,   0.00023,  -0.00102,   0.00015, -32.00000,   2.00000
-303708250.41628,-542319732.59701,38762904.62877,  -0.00009,  -0.00290,   0.00066,478252288.00000,   0.00088,275599040.00000,   0.00023,  -0.00103,   0.00016,   0.00000,   2.00000
-305937488.38883,-542044507.90046,39036459.55487,  -0.00011,  -0.00291,   0.00067,478265472.00000,   0.00089,275608864.00000,   0.00023,  -0.00104,   0.00016,   0.00000,   2.00000
-308177730.82378,-541753866.02726,39306389.43543,  -0.00012,  -0.00291,   0.00067,478286016.00000,   0.00090,275618720.00000,   0.00023,  -0.00105,   0.00016, -32.00000,   2.00000
-310385226.96142,-541452467.75268,39575672.21489,  -0.00013,  -0.00292,   0.00068,478279680.00000,   0.00091,275628480.00000,   0.00023,  -0.00106,   0.00017,  32.00000,   2.00000
-312587492.94222,-541138242.56023,39845277.65902,  -0.00014,  -0.00292,   0.00069,478325504.00000,   0.00092,275638400.00000,   0.00023,  -0.00107,   0.00017, -32.00000,   2.00000
-314774720.35064,-540815229.72363,40108546.59555,  -0.00015,  -0.00293,   0.00070,478325120.00000,   0.00092,275648256.00000,   0.00022,  -0.00108,   0.00017,  32.00000,   2.00000
-316943995.18825,-540480951.55561,40375111.68070,  -0.00017,  -0.00293,   0.00070,478344640.00000,   0.00093,275658112.00000,   0.00022,  -0.00109,   0.00018,   0.00000,   2.00000
-319097812.89879,-540136749.07544,40641161.77461,  -0.00018,  -0.00294,   0.00071,478345408.00000,   0.00094,275667936.00000,   0.00022,  -0.00110,   0.00018, 128.00000,   2.00000
-321247190.18106,-539782408.56675,40902382.79266,  -0.00019,  -0.00294,   0.00072,478389504.00000,   0.00095,275677856.00000,   0.00022,  -0.00111,   0.00018,  32.00000,   2.00000
-323381793.40832,-539417025.86239,41164635.69134,  -0.00020,  -0.00295,   0.00072,478374144.00000,   0.00096,275687712.00000,   0.00022,  -0.00112,   0.00019,  32.00000,   2.00000
-325495010.70897,-539041139.08842,41428165.35014,  -0.00021,  -0.00295,   0.00073,478411712.00000,   0.00097,275697600.00000,   0.00022,  -0.00113,   0.00019,  32.00000,   2.00000
-327605663.25405,-538654187.22183,41684069.97229,  -0.00023,  -0.00296,   0.00074,478422144.00000,   0.00098,275707520.00000,   0.00021,  -0.00115,   0.00019,  32.00000,   2.00000
-329680900.31315,-538257066.99732,41943339.82113,  -0.00024,  -0.00296,   0.00074,478434400.00000,   0.00099,275717408.00000,   0.00021,  -0.00116,   0.00020, -32.00000,   2.00000
-331752828.09335,-537848295.26282,42194362.18320,  -0.00025,  -0.00297,   0.00075,478445376.00000,   0.00100,275727264.00000,   0.00021,  -0.00117,   0.00020,   0.00000,   2.00000
-333803628.57405,-537427057.42905,42447070.90833,  -0.00026,  -0.00297,   0.00076,478466464.00000,   0.00101,275737184.00000,   0.00021,  -0.00118,   0.00021,  64.00000,   2.00000
-335835477.30165,-536995079.63476,42695444.06514,  -0.00027,  -0.00298,   0.00076,478484800.00000,   0.00102,275747104.00000,   0.00021,  -0.00119,   0.00021,  64.00000,   2.00000
-337864771.41585,-536550542.21030,42937935.59625,  -0.00029,  -0.00298,   0.00077,478509984.00000,   0.00102,275757120.00000,   0.00021,  -0.00120,   0.00021,  64.00000,   2.00000
-339868771.51620,-536097672.50227,43178074.87797,  -0.00030,  -0.00299,   0.00078,478495584.00000,   0.00103,275767040.00000,   0.00020,  -0.00121,   0.00022,  32.00000,   2.00000
-341876152.00356,-535633864.37703,43414140.81675,  -0.00031,  -0.00299,   0.00079,478496032.00000,   0.00104,275776960.00000,   0.00020,  -0.00122,   0.00022, 128.00000,   2.00000
-343860652.16063,-535165726.58951,43651226.24090,  -0.00032,  -0.00300,   0.00079,478521920.00000,   0.00105,275786976.00000,   0.00020,  -0.00123,   0.00023,  64.00000,   2.00000
-345816551.95387,-534698189.01854,43885290.46201,  -0.00033,  -0.00300,   0.00080,478523008.00000,   0.00106,275796864.00000,   0.00020,  -0.00124,   0.00023, -64.00000,   2.00000
-347751756.28343,-534222483.59036,44127554.35664,  -0.00035,  -0.00301,   0.00081,478556736.00000,   0.00107,275806720.00000,   0.00019,  -0.00125,   0.00023,-128.00000,   2.00000
-349645158.32792,-533737967.08981,44363107.22204,  -0.00036,  -0.00301,   0.00081,478612160.00000,   0.00108,275816608.00000,   0.00019,  -0.00126,   0.00024, -64.00000,   2.00000
-351535036.65363,-533224720.16331,44601691.34365,  -0.00037,  -0.00301,   0.00082,478648320.00000,   0.00109,275826560.00000,   0.00019,  -0.00127,   0.00024, 192.00000,   2.00000
-353413042.73801,-532693453.08930,44832615.95023,  -0.00038,  -0.00302,   0.00083,478652160.00000,   0.00110,275836512.00000,   0.00019,  -0.00128,   0.00025,  32.00000,   2.00000
-355275387.73626,-532153020.01707,45065913.05990,  -0.00039,  -0.00302,   0.00083,478663456.00000,   0.00111,275846496.00000,   0.00018,  -0.00130,   0.00025, -32.00000,   2.00000
-357122074.73817,-531609598.53706,45296536.49182,  -0.00041,  -0.00303,   0.00084,478672736.00000,   0.00112,275856480.00000,   0.00018,  -0.00131,   0.00025,  32.00000,   2.00000
-358954107.28929,-531060849.38026,45526361.10371,  -0.00042,  -0.00303,   0.00085,478669760.00000,   0.00113,275866400.00000,   0.00018,  -0.00132,   0.00026,  32.00000,   2.00000
-360767926.58093,-530508330.82532,45747850.67003,  -0.00043,  -0.00304,   0.00086,478685344.00000,   0.00114,275876320.00000,   0.00018,  -0.00133,   0.00026,   0.00000,   2.00000
-362572300.38830,-529944545.03284,45970717.54186,  -0.00044,  -0.00304,   0.00086,478716960.00000,   0.00114,275886304.00000,   0.00017,  -0.00134,   0.00027, -32.00000,   2.00000
-364357196.30012,-529371836.95798,46192331.69026,  -0.00045,  -0.00305,   0.00087,478722272.00000,   0.00115,275896256.00000,   0.00017,  -0.00135,   0.00027,  32.00000,   2.00000
-366106489.24529,-528794184.32496,46411974.77602,  -0.00047,  -0.00305,   0.00088,478734752.00000,   0.00116,275906176.00000,   0.00017,  -0.00136,   0.00027, -32.00000,   2.00000
-367845606.19914,-528205223.62206,46627312.91462,  -0.00048,  -0.00305,   0.00088,478768160.00000,   0.00117,275916160.00000,   0.00016,  -0.00137,   0.00028,  32.00000,   2.00000
-369566235.45828,-527606286.38074,46841580.97908,  -0.00049,  -0.00306,   0.00089,478773920.00000,   0.00118,275926112.00000,   0.00016,  -0.00138,   0.00028,  96.00000,   2.00000
-371269573.98681,-526997443.11157,47054902.03942,  -0.00050,  -0.00306,   0.00090,478778560.00000,   0.00119,275936032.00000,   0.00016,  -0.00139,   0.00029, 160.00000,   2.00000
-372950437.87035,-526383322.90214,47263638.75245,  -0.00052,  -0.00307,   0.00091,478813920.00000,   0.00120,275946016.00000,   0.00015,  -0.00140,   0.00029,  64.00000,   2.00000
-374628549.88920,-525757308.02103,47470469.09745,  -0.00053,  -0.00307,   0.00091,478826272.00000,   0.00121,275956000.00000,   0.00015,  -0.00141,   0.00030,   0.00000,   2.00000
-376280713.60297,-525126761.29629,47678040.62654,  -0.00054,  -0.00308,   0.00092,478815712.00000,   0.00122,275965920.00000,   0.00015,  -0.00142,   0.00030,  64.00000,   2.00000
-377916066.21992,-524490551.93891,47883216.10027,  -0.00055,  -0.00308,   0.00093,478831520.00000,   0.00123,275975840.00000,   0.00014,  -0.00143,   0.00030,  64.00000,   2.00000
-379546995.72686,-523845864.22093,48084803.76972,  -0.00056,  -0.00308,   0.00093,478857440.00000,   0.00124,275985824.00000,   0.00014,  -0.00144,   0.00031,  32.00000,   2.00000
-381164983.25170,-523193819.32248,48286037.54262,  -0.00058,  -0.00309,   0.00094,478856160.00000,   0.00125,275995776.00000,   0.00014,  -0.00145,   0.00031,   0.00000,   2.00000
-382755249.46813,-522540783.33961,48486412.67079,  -0.00059,  -0.00309,   0.00095,478859392.00000,   0.00126,276005696.00000,   0.00013,  -0.00146,   0.00032, -32.00000,   2.00000
-384341204.66610,-521879886.14464,48683372.89086,  -0.00060,  -0.00310,   0.00096,478884448.00000,   0.00126,276015648.00000,   0.00013,  -0.00147,   0.00032, 160.00000,   2.00000
-385915610.24927,-521213972.99105,48874729.55906,  -0.00061,  -0.00310,   0.00096,478881184.00000,   0.00127,276025568.00000,   0.00013,  -0.00148,   0.00033,  32.00000,   2.00000
-387464785.28777,-520543673.24700,49072989.76329,  -0.00063,  -0.00310,   0.00097,478870112.00000,   0.00128,276035424.00000,   0.00012,  -0.00149,   0.00033, 192.00000,   2.00000
-389004951.06487,-519867825.93762,49266115.93791,  -0.00064,  -0.00311,   0.00098,478911744.00000,   0.00129,276045376.00000,   0.00012,  -0.00150,   0.00034,  32.00000,   2.00000
-390536076.10422,-519183402.71225,49461463.16118,  -0.00065,  -0.00311,   0.00098,478894816.00000,   0.00130,276055232.00000,   0.00011,  -0.00151,   0.00034,  64.00000,   2.00000
-392047999.25947,-518499704.90224,49647845.90641,  -0.00066,  -0.00312,   0.00099,478924320.00000,   0.00131,276065120.00000,   0.00011,  -0.00152,   0.00034,  64.00000,   2.00000
-393545663.37007,-517807995.61535,49840236.78054,  -0.00068,  -0.00312,   0.00100,478926208.00000,   0.00132,276075008.00000,   0.00011,  -0.00153,   0.00035,  64.00000,   2.00000
-395031752.32364,-517112211.55143,50027636.69450,  -0.00069,  -0.00312,   0.00100,478925088.00000,   0.00133,276084832.00000,   0.00010,  -0.00154,   0.00035,  96.00000,   2.00000
-396495088.50475,-516413858.85169,50216987.99319,  -0.00070,  -0.00313,   0.00101,478959808.00000,   0.00134,276094720.00000,   0.00010,  -0.00155,   0.00036,   0.00000,   2.00000
-397949577.61208,-515708926.56673,50402765.83631,  -0.00071,  -0.00313,   0.00102,478944800.00000,   0.00135,276104512.00000,   0.00009,  -0.00156,   0.00036,  96.00000,   2.00000
-399380292.79306,-515003520.40317,50584151.94852,  -0.00072,  -0.00314,   0.00103,478979872.00000,   0.00136,276114368.00000,   0.00009,  -0.00157,   0.00037,  96.00000,   2.00000
-400794215.90353,-514291825.87283,50764582.26288,  -0.00074,  -0.00314,   0.00103,478984704.00000,   0.00137,276124192.00000,   0.00008,  -0.00158,   0.00037, 128.00000,   2.00000
-402190828.12068,-513573142.59457,50943811.38744,  -0.00075,  -0.00314,   0.00104,478990368.00000,   0.00137,276133984.00000,   0.00008,  -0.00159,   0.00038, -32.00000,   2.00000
-403556799.34765,-512854849.38471,51121513.36040,  -0.00076,  -0.00315,   0.00105,478999456.00000,   0.00138,276143776.00000,   0.00007,  -0.00160,   0.00038,  32.00000,   2.00000
-404914247.59318,-512128516.07142,51295010.75885,  -0.00077,  -0.00315,   0.00105,479031392.00000,   0.00139,276153600.00000,   0.00007,  -0.00161,   0.00039,  32.00000,   2.00000
-406258898.81445,-511395859.38165,51468083.00256,  -0.00079,  -0.00315,   0.00106,479034816.00000,   0.00140,276163392.00000,   0.00007,  -0.00162,   0.00039,   0.00000,   2.00000
-407589105.96280,-510662218.65470,51633466.02973,  -0.00080,  -0.00316,   0.00107,479051264.00000,   0.00141,276173184.00000,   0.00006,  -0.00163,   0.00040,  96.00000,   2.00000
-408907028.24765,-509920900.42906,51804159.18917,  -0.00081,  -0.00316,   0.00107,479055040.00000,   0.00142,276182976.00000,   0.00006,  -0.00164,   0.00040,  64.00000,   2.00000
-410211683.79225,-509179186.50741,51967189.19627,  -0.00082,  -0.00316,   0.00108,479070304.00000,   0.00143,276192736.00000,   0.00005,  -0.00165,   0.00041, 128.00000,   2.00000
-411496431.74737,-508436402.10918,52131539.83502,  -0.00084,  -0.00317,   0.00109,479059488.00000,   0.00144,276202432.00000,   0.00005,  -0.00166,   0.00041, 128.00000,   2.00000
-412770922.43998,-507688712.32450,52295562.20509,  -0.00085,  -0.00317,   0.00110,479105152.00000,   0.00145,276212256.00000,   0.00004,  -0.00167,   0.00042,  64.00000,   2.00000
-414043475.20378,-506936331.92122,52450365.73792,  -0.00086,  -0.00317,   0.00110,479086656.00000,   0.00146,276221952.00000,   0.00004,  -0.00168,   0.00042, 160.00000,   2.00000
-415291050.14834,-506184657.13693,52609961.77520,  -0.00087,  -0.00318,   0.00111,479092352.00000,   0.00147,276231648.00000,   0.00003,  -0.00168,   0.00043, 160.00000,   2.00000
-416535030.12172,-505427179.64904,52765752.40116,  -0.00088,  -0.00318,   0.00112,479120032.00000,   0.00147,276241408.00000,   0.00003,  -0.00169,   0.00043,  64.00000,   2.00000
-417762411.04699,-504671132.57244,52917486.90975,  -0.00090,  -0.00318,   0.00112,479106080.00000,   0.00148,276251040.00000,   0.00002,  -0.00170,   0.00043,  64.00000,   2.00000
-418975566.36127,-503911998.02917,53072567.70166,  -0.00091,  -0.00319,   0.00113,479123136.00000,   0.00149,276260736.00000,   0.00002,  -0.00171,   0.00044, 128.00000,   2.00000
-420187250.08033,-503149247.46489,53218481.75703,  -0.00092,  -0.00319,   0.00114,479148704.00000,   0.00150,276270464.00000,   0.00001,  -0.00172,   0.00044,  64.00000,   2.00000
-421386343.41957,-502382366.73517,53368024.08866,  -0.00093,  -0.00319,   0.00114,479120960.00000,   0.00151,276280032.00000,   0.00000,  -0.00173,   0.00045,  64.00000,   2.00000
-422570549.56081,-501620431.75549,53508149.77420,  -0.00095,  -0.00320,   0.00115,479149056.00000,   0.00152,276289696.00000,  -0.00000,  -0.00174,   0.00045,  32.00000,   2.00000
-423745947.92536,-500851733.92925,53653866.65898,  -0.00096,  -0.00320,   0.00116,479150560.00000,   0.00153,276299296.00000,  -0.00001,  -0.00175,   0.00046,  64.00000,   2.00000
-424911447.10541,-500084265.52577,53792290.32370,  -0.00097,  -0.00320,   0.00116,479163232.00000,   0.00154,276308928.00000,  -0.00001,  -0.00176,   0.00046,   0.00000,   2.00000
-426059469.30857,-499314681.53611,53938076.75432,  -0.00098,  -0.00321,   0.00117,479151936.00000,   0.00155,276318464.00000,  -0.00002,  -0.00177,   0.00047, 192.00000,   2.00000
-427208718.10832,-498543834.89646,54069548.88052,  -0.00099,  -0.00321,   0.00118,479174880.00000,   0.00156,276328064.00000,  -0.00002,  -0.00177,   0.00047,  32.00000,   2.00000
-428340856.14908,-497770886.12698,54208517.10925,  -0.00101,  -0.00321,   0.00118,479163424.00000,   0.00156,276337568.00000,  -0.00003,  -0.00178,   0.00048, 160.00000,   2.00000
-429470885.96819,-496992655.57918,54344127.43205,  -0.00102,  -0.00322,   0.00119,479190112.00000,   0.00157,276347136.00000,  -0.00003,  -0.00179,   0.00048,  32.00000,   2.00000
-430587487.64162,-496216465.56278,54476413.08021,  -0.00103,  -0.00322,   0.00120,479174400.00000,   0.00158,276356608.00000,  -0.00004,  -0.00180,   0.00049,  64.00000,   2.00000
-431693308.05766,-495439965.17045,54607142.97358,  -0.00104,  -0.00322,   0.00120,479188320.00000,   0.00159,276366112.00000,  -0.00004,  -0.00181,   0.00049, 128.00000,   2.00000
-432788132.67879,-494663010.27947,54736308.03030,  -0.00105,  -0.00322,   0.00121,479202304.00000,   0.00160,276375616.00000,  -0.00005,  -0.00182,   0.00050,  32.00000,   2.00000
-433876711.23108,-493881438.21643,54865966.66382,  -0.00107,  -0.00323,   0.00122,479201056.00000,   0.00161,276385088.00000,  -0.00006,  -0.00183,   0.00050,  64.00000,   2.00000
-434960742.95503,-493097361.23359,54990696.07082,  -0.00108,  -0.00323,   0.00122,479197856.00000,   0.00162,276394496.00000,  -0.00006,  -0.00183,   0.00051,  96.00000,   2.00000
-436020196.32465,-492322231.34342,55113610.09597,  -0.00109,  -0.00323,   0.00123,479213888.00000,   0.00163,276403936.00000,  -0.00007,  -0.00184,   0.00051,  32.00000,   2.00000
-437077890.96683,-491537997.68504,55239079.19397,  -0.00110,  -0.00324,   0.00124,479197888.00000,   0.00163,276413280.00000,  -0.00007,  -0.00185,   0.00052, -32.00000,   2.00000
-438128041.05364,-490753894.71935,55359256.72716,  -0.00112,  -0.00324,   0.00124,479239456.00000,   0.00164,276422720.00000,  -0.00008,  -0.00186,   0.00052, 128.00000,   2.00000
-439169222.96638,-489967240.83982,55478284.35789,  -0.00113,  -0.00324,   0.00125,479209216.00000,   0.00165,276432032.00000,  -0.00008,  -0.00187,   0.00053, 160.00000,   2.00000
-440185453.22655,-489190187.06126,55595517.81991,  -0.00114,  -0.00324,   0.00126,479225216.00000,   0.00166,276441376.00000,  -0.00009,  -0.00188,   0.00053, -32.00000,   2.00000
-441202861.28070,-488403994.93389,55711476.89458,  -0.00115,  -0.00325,   0.00126,479237568.00000,   0.00167,276450720.00000,  -0.00010,  -0.00188,   0.00054, -32.00000,   2.00000
-442204684.15243,-487618182.63787,55829713.30824,  -0.00116,  -0.00325,   0.00127,479224256.00000,   0.00168,276459968.00000,  -0.00010,  -0.00189,   0.00054,  64.00000,   2.00000
-443204146.28213,-486830183.22117,55939155.78451,  -0.00118,  -0.00325,   0.00128,479250048.00000,   0.00169,276469280.00000,  -0.00011,  -0.00190,   0.00055, 160.00000,   2.00000
-444182828.89459,-486047409.58211,56048836.58076,  -0.00119,  -0.00325,   0.00128,479251904.00000,   0.00170,276478560.00000,  -0.00011,  -0.00191,   0.00055,  64.00000,   2.00000
-445153811.42894,-485260416.31186,56159008.53781,  -0.00120,  -0.00326,   0.00129,479252096.00000,   0.00170,276487808.00000,  -0.00012,  -0.00192,   0.00056,  96.00000,   2.00000
-446105985.21712,-484481006.82502,56264020.24542,  -0.00121,  -0.00326,   0.00130,479252064.00000,   0.00171,276497024.00000,  -0.00013,  -0.00192,   0.00057,  96.00000,   2.00000
-447058102.64204,-483692468.00627,56367685.45445,  -0.00122,  -0.00326,   0.00130,479265952.00000,   0.00172,276506240.00000,  -0.00013,  -0.00193,   0.00057, 160.00000,   2.00000
-447989527.98447,-482909594.17965,56471647.40525,  -0.00124,  -0.00326,   0.00131,479268000.00000,   0.00173,276515456.00000,  -0.00014,  -0.00194,   0.00058,  64.00000,   2.00000
-448914995.58293,-482124518.28175,56570707.80746,  -0.00125,  -0.00327,   0.00132,479266880.00000,   0.00174,276524608.00000,  -0.00014,  -0.00195,   0.00058,  64.00000,   2.00000
-449820183.45683,-481345330.13350,56670147.80857,  -0.00126,  -0.00327,   0.00132,479269088.00000,   0.00175,276533728.00000,  -0.00015,  -0.00196,   0.00059,  64.00000,   2.00000
-450725315.60741,-480557018.25862,56768273.27098,  -0.00127,  -0.00327,   0.00133,479283488.00000,   0.00176,276542848.00000,  -0.00016,  -0.00196,   0.00059,  32.00000,   2.00000
-451610375.76369,-479774572.63222,56866810.91112,  -0.00128,  -0.00327,   0.00133,479285632.00000,   0.00176,276551968.00000,  -0.00016,  -0.00197,   0.00060,  32.00000,   2.00000
-452485293.84470,-478995512.11295,56958532.31137,  -0.00129,  -0.00328,   0.00134,479298976.00000,   0.00177,276561056.00000,  -0.00017,  -0.00198,   0.00060,  64.00000,   2.00000
-453353069.85979,-478211973.49976,57050913.52853,  -0.00131,  -0.00328,   0.00135,479300032.00000,   0.00178,276570144.00000,  -0.00018,  -0.00199,   0.00061,   0.00000,   2.00000
-454211135.36548,-477431849.58758,57136569.27502,  -0.00132,  -0.00328,   0.00135,479313280.00000,   0.00179,276579232.00000,  -0.00018,  -0.00199,   0.00061,  64.00000,   2.00000
-455055451.93519,-476652064.07511,57224912.18869,  -0.00133,  -0.00328,   0.00136,479300672.00000,   0.00180,276588224.00000,  -0.00019,  -0.00200,   0.00062,  96.00000,   2.00000
-455888730.27291,-475873581.47272,57312021.92552,  -0.00134,  -0.00328,   0.00137,479315616.00000,   0.00181,276597248.00000,  -0.00020,  -0.00201,   0.00062,  32.00000,   2.00000
-456716174.38311,-475090488.54501,57399963.22318,  -0.00135,  -0.00329,   0.00137,479316288.00000,   0.00182,276606240.00000,  -0.00020,  -0.00201,   0.00063,  32.00000,   2.00000
-457528167.29725,-474315609.72182,57483286.57156,  -0.00137,  -0.00329,   0.00138,479315168.00000,   0.00182,276615200.00000,  -0.00021,  -0.00202,   0.00063, 160.00000,   2.00000
-458332067.04897,-473543972.65187,57560101.91048,  -0.00138,  -0.00329,   0.00138,479327424.00000,   0.00183,276624160.00000,  -0.00022,  -0.00203,   0.00064,   0.00000,   2.00000
-459129381.00589,-472765636.20588,57643334.43829,  -0.00139,  -0.00329,   0.00139,479329344.00000,   0.00184,276633088.00000,  -0.00022,  -0.00204,   0.00064,  32.00000,   2.00000
-459924227.68541,-471984463.21198,57722153.13797,  -0.00140,  -0.00329,   0.00140,479327040.00000,   0.00185,276641952.00000,  -0.00023,  -0.00204,   0.00065,  32.00000,   2.00000
-460705143.62756,-471211383.35208,57796553.27548,  -0.00141,  -0.00330,   0.00140,479324800.00000,   0.00186,276650816.00000,  -0.00023,  -0.00205,   0.00065,  64.00000,   2.00000
-461477310.78058,-470439457.80075,57870015.95839,  -0.00142,  -0.00330,   0.00141,479338048.00000,   0.00187,276659680.00000,  -0.00024,  -0.00206,   0.00066, -32.00000,   2.00000
-462246218.65308,-469662670.98689,57944626.60995,  -0.00144,  -0.00330,   0.00141,479336960.00000,   0.00187,276668480.00000,  -0.00025,  -0.00206,   0.00066, 128.00000,   2.00000
-463000261.76915,-468891892.65419,58020323.44463,  -0.00145,  -0.00330,   0.00142,479335936.00000,   0.00188,276677280.00000,  -0.00025,  -0.00207,   0.00067,   0.00000,   2.00000
-463748591.02919,-468124411.46135,58089760.95175,  -0.00146,  -0.00330,   0.00143,479346144.00000,   0.00189,276686080.00000,  -0.00026,  -0.00208,   0.00067,   0.00000,   2.00000
-464501105.33477,-467347153.03826,58156987.33949,  -0.00147,  -0.00330,   0.00143,479328352.00000,   0.00190,276694784.00000,  -0.00027,  -0.00208,   0.00068, -64.00000,   2.00000
-465241337.55894,-466577599.01729,58221411.74238,  -0.00148,  -0.00331,   0.00144,479354272.00000,   0.00191,276703520.00000,  -0.00027,  -0.00209,   0.00068, -96.00000,   2.00000
-465973003.92341,-465807730.66057,58289105.22182,  -0.00149,  -0.00331,   0.00144,479337952.00000,   0.00191,276712192.00000,  -0.00028,  -0.00210,   0.00069,   0.00000,   2.00000
-466697583.61327,-465038873.46837,58356002.19185,  -0.00150,  -0.00331,   0.00145,479349408.00000,   0.00192,276720896.00000,  -0.00029,  -0.00210,   0.00069, -96.00000,   2.00000
-467418122.83620,-464273607.52847,58415397.72476,  -0.00152,  -0.00331,   0.00145,479328384.00000,   0.00193,276729472.00000,  -0.00029,  -0.00211,   0.00070,   0.00000,   2.00000
-468130001.79022,-463507424.69765,58479484.67055,  -0.00153,  -0.00331,   0.00146,479341440.00000,   0.00194,276738080.00000,  -0.00030,  -0.00212,   0.00070,  32.00000,   2.00000
-468842434.40690,-462737774.09490,58539477.77117,  -0.00154,  -0.00331,   0.00147,479336160.00000,   0.00195,276746656.00000,  -0.00031,  -0.00212,   0.00071,  32.00000,   2.00000
-469548410.04115,-461969242.81775,58598787.88538,  -0.00155,  -0.00332,   0.00147,479346592.00000,   0.00196,276755232.00000,  -0.00031,  -0.00213,   0.00071, -32.00000,   2.00000
-470243974.78799,-461208933.88218,58654096.97220,  -0.00156,  -0.00332,   0.00148,479340704.00000,   0.00196,276763744.00000,  -0.00032,  -0.00214,   0.00071,   0.00000,   2.00000
-470932165.45888,-460448110.97391,58712836.31540,  -0.00157,  -0.00332,   0.00148,479322944.00000,   0.00197,276772192.00000,  -0.00033,  -0.00214,   0.00072,  32.00000,   2.00000
-471627151.58670,-459678838.21605,58765483.70231,  -0.00158,  -0.00332,   0.00149,479331424.00000,   0.00198,276780640.00000,  -0.00033,  -0.00215,   0.00072,   0.00000,   2.00000
-472304747.98733,-458922915.20158,58817580.82888,  -0.00160,  -0.00332,   0.00149,479341248.00000,   0.00199,276789088.00000,  -0.00034,  -0.00215,   0.00073, -96.00000,   2.00000
-472983115.64025,-458163982.65527,58865696.65269,  -0.00161,  -0.00332,   0.00150,479335552.00000,   0.00199,276797504.00000,  -0.00035,  -0.00216,   0.00073,  32.00000,   2.00000
-473653686.20217,-457404779.60614,58917233.52131,  -0.00162,  -0.00332,   0.00150,479318496.00000,   0.00200,276805824.00000,  -0.00035,  -0.00217,   0.00074,  64.00000,   2.00000
-474319444.68670,-456649598.86896,58962714.79448,  -0.00163,  -0.00332,   0.00151,479327360.00000,   0.00201,276814176.00000,  -0.00036,  -0.00217,   0.00074,   0.00000,   2.00000
-474972381.39227,-455901678.55733,59009632.95668,  -0.00164,  -0.00333,   0.00152,479324480.00000,   0.00202,276822464.00000,  -0.00037,  -0.00218,   0.00075,  64.00000,   2.00000
-475628716.71516,-455144049.53274,59055755.10153,  -0.00165,  -0.00333,   0.00152,479337120.00000,   0.00203,276830752.00000,  -0.00037,  -0.00218,   0.00075,  32.00000,   2.00000
-476267973.49228,-454400531.07685,59099925.13401,  -0.00166,  -0.00333,   0.00153,479318752.00000,   0.00203,276838976.00000,  -0.00038,  -0.00219,   0.00076,  32.00000,   2.00000
-476912388.44041,-453649327.22445,59137885.79121,  -0.00167,  -0.00333,   0.00153,479330272.00000,   0.00204,276847200.00000,  -0.00039,  -0.00220,   0.00076,   0.00000,   2.00000
-477543180.64044,-452905199.86773,59177220.70304,  -0.00168,  -0.00333,   0.00154,479329088.00000,   0.00205,276855392.00000,  -0.00039,  -0.00220,   0.00077,   0.00000,   2.00000
-478165459.19182,-452160720.46165,59219910.42905,  -0.00170,  -0.00333,   0.00154,479314336.00000,   0.00206,276863488.00000,  -0.00040,  -0.00221,   0.00077, -32.00000,   2.00000
-478782929.45147,-451422947.54760,59252450.65077,  -0.00171,  -0.00333,   0.00155,479353472.00000,   0.00206,276871712.00000,  -0.00041,  -0.00221,   0.00078,   0.00000,   2.00000
-479391364.23414,-450681641.04729,59292451.97935,  -0.00172,  -0.00333,   0.00155,479310752.00000,   0.00207,276879744.00000,  -0.00041,  -0.00222,   0.00078, -64.00000,   2.00000
-479995319.79103,-449946915.38543,59322363.66287,  -0.00173,  -0.00333,   0.00156,479349344.00000,   0.00208,276887872.00000,  -0.00042,  -0.00222,   0.00079,  32.00000,   2.00000
-480593483.28457,-449212912.54932,59350341.23311,  -0.00174,  -0.00334,   0.00156,479331904.00000,   0.00209,276895904.00000,  -0.00043,  -0.00223,   0.00079, -32.00000,   2.00000
-481184335.67990,-448477812.53403,59381846.06034,  -0.00175,  -0.00334,   0.00157,479315872.00000,   0.00209,276903872.00000,  -0.00043,  -0.00223,   0.00080,  96.00000,   2.00000
-481773770.81079,-447739360.48631,59410660.96781,  -0.00176,  -0.00334,   0.00157,479342336.00000,   0.00210,276911904.00000,  -0.00044,  -0.00224,   0.00080, -32.00000,   2.00000
-482348305.47363,-447014130.04566,59437805.17724,  -0.00177,  -0.00334,   0.00158,479322144.00000,   0.00211,276919808.00000,  -0.00045,  -0.00225,   0.00080,  64.00000,   2.00000
-482924037.61012,-446287576.89614,59456924.53710,  -0.00178,  -0.00334,   0.00158,479345568.00000,   0.00212,276927808.00000,  -0.00046,  -0.00225,   0.00081,   0.00000,   2.00000
-483492788.08284,-445556511.39779,59483677.39190,  -0.00179,  -0.00334,   0.00159,479300192.00000,   0.00212,276935616.00000,  -0.00046,  -0.00226,   0.00081,  96.00000,   2.00000
-484058247.79767,-444832151.01163,59500477.73649,  -0.00180,  -0.00334,   0.00159,479336320.00000,   0.00213,276943520.00000,  -0.00047,  -0.00226,   0.00082,   0.00000,   2.00000
-484617506.93676,-444106322.21436,59520856.84167,  -0.00181,  -0.00334,   0.00160,479318464.00000,   0.00214,276951328.00000,  -0.00048,  -0.00227,   0.00082,  32.00000,   2.00000
-485168108.86512,-443388932.66214,59537477.01411,  -0.00182,  -0.00334,   0.00160,479311488.00000,   0.00215,276959104.00000,  -0.00048,  -0.00227,   0.00083, -96.00000,   2.00000
-485718350.92458,-442668656.41526,59551476.73825,  -0.00184,  -0.00334,   0.00161,479335936.00000,   0.00215,276966944.00000,  -0.00049,  -0.00228,   0.00083,  64.00000,   2.00000
-486259751.15824,-441953516.63678,59565763.24012,  -0.00185,  -0.00334,   0.00161,479300864.00000,   0.00216,276974656.00000,  -0.00050,  -0.00228,   0.00084, -64.00000,   2.00000
-486795758.18842,-441240274.40992,59579526.81260,  -0.00186,  -0.00334,   0.00161,479310464.00000,   0.00217,276982336.00000,  -0.00050,  -0.00229,   0.00084,   0.00000,   2.00000
-487333253.55498,-440522705.27370,59589258.98954,  -0.00187,  -0.00335,   0.00162,479304768.00000,   0.00218,276990016.00000,  -0.00051,  -0.00229,   0.00084,  96.00000,   2.00000
-487860327.44401,-439811773.01940,59600577.13879,  -0.00188,  -0.00335,   0.00162,479299488.00000,   0.00218,276997632.00000,  -0.00052,  -0.00230,   0.00085,  32.00000,   2.00000
-488388903.27878,-439096455.15486,59607813.85881,  -0.00189,  -0.00335,   0.00163,479293760.00000,   0.00219,277005216.00000,  -0.00052,  -0.00230,   0.00085,   0.00000,   2.00000
-488909671.30908,-438393473.25405,59607187.40296,  -0.00190,  -0.00335,   0.00163,479314112.00000,   0.00220,277012864.00000,  -0.00053,  -0.00231,   0.00086,   0.00000,   2.00000
-489424900.87993,-437688835.03821,59610034.77333,  -0.00191,  -0.00335,   0.00164,479295872.00000,   0.00220,277020416.00000,  -0.00054,  -0.00231,   0.00086, -32.00000,   2.00000
-489936910.47332,-436984462.28497,59610937.07173,  -0.00192,  -0.00335,   0.00164,479275424.00000,   0.00221,277027872.00000,  -0.00054,  -0.00231,   0.00087, -32.00000,   2.00000
-490443659.56034,-436282190.85190,59611200.94704,  -0.00193,  -0.00335,   0.00165,479284864.00000,   0.00222,277035360.00000,  -0.00055,  -0.00232,   0.00087,   0.00000,   2.00000
-490942638.77897,-435588611.69496,59607603.82853,  -0.00194,  -0.00335,   0.00165,479277344.00000,   0.00223,277042784.00000,  -0.00055,  -0.00232,   0.00088,  32.00000,   2.00000
-491438629.41851,-434899062.52124,59597973.37360,  -0.00195,  -0.00335,   0.00165,479284640.00000,   0.00223,277050208.00000,  -0.00056,  -0.00233,   0.00088,   0.00000,   2.00000
-491934055.62907,-434203068.50650,59589581.89084,  -0.00196,  -0.00335,   0.00166,479281312.00000,   0.00224,277057600.00000,  -0.00057,  -0.00233,   0.00088,  32.00000,   2.00000
-492421901.48289,-433515796.18367,59577338.73799,  -0.00197,  -0.00335,   0.00166,479273760.00000,   0.00225,277064960.00000,  -0.00057,  -0.00234,   0.00089,  64.00000,   2.00000
-492909130.71725,-432821944.40874,59566302.27590,  -0.00198,  -0.00335,   0.00167,479270400.00000,   0.00225,277072256.00000,  -0.00058,  -0.00234,   0.00089,   0.00000,   2.00000
-493388900.85068,-432136791.80701,59551416.31267,  -0.00199,  -0.00335,   0.00167,479262624.00000,   0.00226,277079552.00000,  -0.00059,  -0.00235,   0.00090, -64.00000,   2.00000
-493859220.76073,-431458510.25847,59538104.06121,  -0.00200,  -0.00335,   0.00167,479257056.00000,   0.00227,277086784.00000,  -0.00059,  -0.00235,   0.00090, -64.00000,   2.00000
-494329022.45724,-430786185.87011,59513396.80599,  -0.00201,  -0.00335,   0.00168,479262240.00000,   0.00227,277094016.00000,  -0.00060,  -0.00235,   0.00090,  32.00000,   2.00000
-494796144.90375,-430105248.02780,59495356.16929,  -0.00202,  -0.00335,   0.00168,479261024.00000,   0.00228,277101216.00000,  -0.00061,  -0.00236,   0.00091,  32.00000,   2.00000
-495262770.61509,-429425725.44997,59470043.89989,  -0.00203,  -0.00335,   0.00169,479238528.00000,   0.00229,277108320.00000,  -0.00061,  -0.00236,   0.00091, -32.00000,   2.00000
-495715670.74284,-428761925.98522,59444586.50757,  -0.00204,  -0.00335,   0.00169,479245312.00000,   0.00229,277115424.00000,  -0.00062,  -0.00237,   0.00092,  32.00000,   2.00000
-496168267.86749,-428091181.41618,59420511.24061,  -0.00205,  -0.00335,   0.00169,479241888.00000,   0.00230,277122496.00000,  -0.00063,  -0.00237,   0.00092, -32.00000,   2.00000
-496618409.68962,-427424487.62591,59390634.80921,  -0.00206,  -0.00335,   0.00170,479248832.00000,   0.00231,277129600.00000,  -0.00063,  -0.00238,   0.00093,   0.00000,   2.00000
-497066144.12645,-426756949.71304,59359120.89999,  -0.00207,  -0.00335,   0.00170,479228352.00000,   0.00231,277136576.00000,  -0.00064,  -0.00238,   0.00093,  64.00000,   2.00000
-497506936.26250,-426102440.29249,59320113.40809,  -0.00208,  -0.00335,   0.00170,479247680.00000,   0.00232,277143616.00000,  -0.00065,  -0.00238,   0.00093,  64.00000,   2.00000
-497943339.38234,-425445059.06527,59285051.28872,  -0.00209,  -0.00335,   0.00171,479229088.00000,   0.00233,277150560.00000,  -0.00065,  -0.00239,   0.00094,  32.00000,   2.00000
-498377696.32210,-424786528.93535,59248607.18288,  -0.00210,  -0.00335,   0.00171,479208160.00000,   0.00233,277157440.00000,  -0.00066,  -0.00239,   0.00094,  64.00000,   2.00000
-498803284.90388,-424139242.73587,59210315.25560,  -0.00211,  -0.00335,   0.00172,479229376.00000,   0.00234,277164352.00000,  -0.00067,  -0.00240,   0.00095,  64.00000,   2.00000
-499231035.57351,-423486079.66722,59168548.11174,  -0.00212,  -0.00335,   0.00172,479223552.00000,   0.00235,277171200.00000,  -0.00067,  -0.00240,   0.00095,  96.00000,   2.00000
-499652881.67434,-422835730.03260,59127888.83236,  -0.00213,  -0.00335,   0.00172,479187328.00000,   0.00235,277177952.00000,  -0.00068,  -0.00240,   0.00095,  32.00000,   2.00000
-500070264.59637,-422192131.00340,59083374.90837,  -0.00214,  -0.00335,   0.00173,479223264.00000,   0.00236,277184768.00000,  -0.00068,  -0.00241,   0.00096, 128.00000,   2.00000
-500486046.43034,-421546702.57818,59037836.95334,  -0.00215,  -0.00335,   0.00173,479202048.00000,   0.00237,277191520.00000,  -0.00069,  -0.00241,   0.00096,  32.00000,   2.00000
-500896141.02325,-420908966.63930,58989507.60253,  -0.00216,  -0.00335,   0.00173,479192864.00000,   0.00237,277198208.00000,  -0.00070,  -0.00241,   0.00097, -32.00000,   2.00000
-501306898.33082,-420263206.24850,58943372.58389,  -0.00216,  -0.00335,   0.00174,479188800.00000,   0.00238,277204864.00000,  -0.00070,  -0.00242,   0.00097, 128.00000,   2.00000
-501707579.69823,-419634342.11183,58892601.64611,  -0.00217,  -0.00335,   0.00174,479191904.00000,   0.00238,277211488.00000,  -0.00071,  -0.00242,   0.00097, -64.00000,   2.00000
-502109390.27058,-418997449.07073,58844039.21734,  -0.00218,  -0.00335,   0.00174,479187584.00000,   0.00239,277218112.00000,  -0.00072,  -0.00242,   0.00098, -64.00000,   2.00000
-502512529.87550,-418359958.72688,58789029.66779,  -0.00219,  -0.00335,   0.00174,479164064.00000,   0.00240,277224608.00000,  -0.00072,  -0.00243,   0.00098,  32.00000,   2.00000
-502908075.46247,-417733503.94106,58732537.21990,  -0.00220,  -0.00335,   0.00175,479184160.00000,   0.00240,277231168.00000,  -0.00073,  -0.00243,   0.00098,  32.00000,   2.00000
-503301010.88020,-417102906.57696,58680315.30731,  -0.00221,  -0.00335,   0.00175,479164512.00000,   0.00241,277237632.00000,  -0.00073,  -0.00243,   0.00099,  32.00000,   2.00000
-503691668.05646,-416481449.53003,58619702.50858,  -0.00222,  -0.00335,   0.00175,479153024.00000,   0.00242,277244064.00000,  -0.00074,  -0.00244,   0.00099,   0.00000,   2.00000
-504079446.21441,-415861242.31767,58559219.13030,  -0.00223,  -0.00335,   0.00176,479160800.00000,   0.00242,277250464.00000,  -0.00075,  -0.00244,   0.00099,  32.00000,   2.00000
-504468740.51553,-415232476.30492,58500573.00978,  -0.00224,  -0.00335,   0.00176,479156544.00000,   0.00243,277256864.00000,  -0.00075,  -0.00244,   0.00100,   0.00000,   2.00000
-504855952.31859,-414612693.08959,58433331.42180,  -0.00225,  -0.00335,   0.00176,479144896.00000,   0.00243,277263168.00000,  -0.00076,  -0.00245,   0.00100,   0.00000,   2.00000
-505236917.90510,-413998503.40455,58368315.88091,  -0.00226,  -0.00335,   0.00176,479137408.00000,   0.00244,277269440.00000,  -0.00076,  -0.00245,   0.00101,  64.00000,   2.00000
-505615257.68444,-413385559.31343,58303245.41147,  -0.00227,  -0.00335,   0.00177,479145184.00000,   0.00245,277275712.00000,  -0.00077,  -0.00245,   0.00101,  32.00000,   2.00000
-505991811.71836,-412781600.75425,58229505.17144,  -0.00227,  -0.00335,   0.00177,479133440.00000,   0.00245,277281952.00000,  -0.00078,  -0.00246,   0.00101, -32.00000,   2.00000
-506370166.34663,-412169025.81469,58157481.07298,  -0.00228,  -0.00335,   0.00177,479129280.00000,   0.00246,277288128.00000,  -0.00078,  -0.00246,   0.00102,  64.00000,   2.00000
-506744389.86469,-411563566.80979,58082215.07373,  -0.00229,  -0.00335,   0.00177,479119648.00000,   0.00246,277294272.00000,  -0.00079,  -0.00246,   0.00102,  64.00000,   2.00000
-507115880.99781,-410959297.64265,58006934.99897,  -0.00230,  -0.00335,   0.00178,479127424.00000,   0.00247,277300384.00000,  -0.00079,  -0.00247,   0.00102,  32.00000,   2.00000
-507487585.95835,-410352141.36682,57930245.06208,  -0.00231,  -0.00335,   0.00178,479105568.00000,   0.00247,277306432.00000,  -0.00080,  -0.00247,   0.00103,  32.00000,   2.00000
-507851203.38323,-409762346.07516,57848735.00291,  -0.00232,  -0.00335,   0.00178,479107744.00000,   0.00248,277312480.00000,  -0.00081,  -0.00247,   0.00103,  32.00000,   2.00000
-508218317.82173,-409165203.05162,57763644.03858,  -0.00233,  -0.00335,   0.00178,479101440.00000,   0.00249,277318464.00000,  -0.00081,  -0.00248,   0.00103,   0.00000,   2.00000
-508582679.10353,-408569317.16598,57678741.47176,  -0.00234,  -0.00335,   0.00179,479109120.00000,   0.00249,277324448.00000,  -0.00082,  -0.00248,   0.00104,  32.00000,   2.00000
-508939538.83784,-407984654.91093,57593086.74751,  -0.00234,  -0.00335,   0.00179,479083712.00000,   0.00250,277330336.00000,  -0.00082,  -0.00248,   0.00104,  64.00000,   2.00000
-509303391.94153,-407388504.79700,57501737.50010,  -0.00235,  -0.00335,   0.00179,479092960.00000,   0.00250,277336256.00000,  -0.00083,  -0.00248,   0.00104, -32.00000,   2.00000
-509653361.98697,-406812020.07567,57413375.79875,  -0.00236,  -0.00334,   0.00179,479081376.00000,   0.00251,277342080.00000,  -0.00083,  -0.00249,   0.00105, -32.00000,   2.00000
-510007043.03561,-406228228.94333,57321573.52293,  -0.00237,  -0.00334,   0.00179,479074976.00000,   0.00251,277347904.00000,  -0.00084,  -0.00249,   0.00105, -64.00000,   2.00000
-510359909.07111,-405647180.91675,57224600.32982,  -0.00238,  -0.00334,   0.00180,479080512.00000,   0.00252,277353696.00000,  -0.00085,  -0.00249,   0.00105,   0.00000,   2.00000
-510712935.05552,-405062795.24008,57126399.93503,  -0.00239,  -0.00334,   0.00180,479058592.00000,   0.00252,277359392.00000,  -0.00085,  -0.00250,   0.00106,  64.00000,   2.00000
-511055446.14772,-404493934.03115,57029006.77519,  -0.00239,  -0.00334,   0.00180,479062336.00000,   0.00253,277365120.00000,  -0.00086,  -0.00250,   0.00106, -32.00000,   2.00000
-511401371.60233,-403917565.83398,56928200.44794,  -0.00240,  -0.00334,   0.00180,479055872.00000,   0.00254,277370784.00000,  -0.00086,  -0.00250,   0.00106,  32.00000,   2.00000
-511742151.04502,-403354362.38633,56820659.80896,  -0.00241,  -0.00334,   0.00180,479072992.00000,   0.00254,277376480.00000,  -0.00087,  -0.00250,   0.00107, -32.00000,   2.00000
-512077451.31205,-402790009.03818,56719619.98793,  -0.00242,  -0.00334,   0.00181,479037152.00000,   0.00255,277382048.00000,  -0.00087,  -0.00251,   0.00107, 128.00000,   2.00000
-512413701.02635,-402229953.31727,56608176.51556,  -0.00243,  -0.00334,   0.00181,479040224.00000,   0.00255,277387584.00000,  -0.00088,  -0.00251,   0.00107,   0.00000,   2.00000
-512748535.63023,-401658914.84341,56504364.45905,  -0.00243,  -0.00334,   0.00181,479037376.00000,   0.00256,277393120.00000,  -0.00089,  -0.00251,   0.00107, -64.00000,   2.00000
-513077258.79340,-401106982.45949,56390823.81946,  -0.00244,  -0.00334,   0.00181,479036320.00000,   0.00256,277398624.00000,  -0.00089,  -0.00251,   0.00108, -32.00000,   2.00000
-513408851.34769,-400547258.23611,56274109.55492,  -0.00245,  -0.00334,   0.00181,479029536.00000,   0.00257,277404096.00000,  -0.00090,  -0.00252,   0.00108, 128.00000,   2.00000
-513726824.90540,-400007257.93408,56160719.36874,  -0.00246,  -0.00334,   0.00181,479016640.00000,   0.00257,277409504.00000,  -0.00090,  -0.00252,   0.00108, -64.00000,   2.00000
-514050946.59565,-399455461.15392,56041942.55351,  -0.00247,  -0.00334,   0.00181,479025376.00000,   0.00258,277414944.00000,  -0.00091,  -0.00252,   0.00109,  32.00000,   2.00000
-514365923.76184,-398912823.81743,55928026.72941,  -0.00247,  -0.00334,   0.00182,479000736.00000,   0.00258,277420256.00000,  -0.00091,  -0.00252,   0.00109,  96.00000,   2.00000
-514685189.45166,-398370567.26445,55801550.68341,  -0.00248,  -0.00334,   0.00182,479019104.00000,   0.00259,277425632.00000,  -0.00092,  -0.00253,   0.00109,   0.00000,   2.00000
-514995786.09903,-397837497.64715,55679810.00780,  -0.00249,  -0.00334,   0.00182,478994272.00000,   0.00259,277430912.00000,  -0.00092,  -0.00253,   0.00109, -64.00000,   2.00000
-515307588.31771,-397294752.85747,55559980.07200,  -0.00250,  -0.00333,   0.00182,478989344.00000,   0.00260,277436160.00000,  -0.00093,  -0.00253,   0.00110,   0.00000,   2.00000
-515617096.41184,-396767167.01730,55427963.83060,  -0.00251,  -0.00333,   0.00182,479003584.00000,   0.00260,277441408.00000,  -0.00093,  -0.00253,   0.00110, -32.00000,   2.00000
-515925138.19938,-396233779.13973,55299881.14648,  -0.00251,  -0.00333,   0.00182,478982912.00000,   0.00261,277446592.00000,  -0.00094,  -0.00254,   0.00110,  32.00000,   2.00000
-516230110.91001,-395707051.90775,55168671.28674,  -0.00252,  -0.00333,   0.00182,478971712.00000,   0.00261,277451744.00000,  -0.00094,  -0.00254,   0.00111,  64.00000,   2.00000
-516530881.54152,-395193877.68310,55030617.71619,  -0.00253,  -0.00333,   0.00182,478987712.00000,   0.00262,277456896.00000,  -0.00095,  -0.00254,   0.00111,   0.00000,   2.00000
-516832666.28984,-394676311.25086,54890942.43663,  -0.00254,  -0.00333,   0.00182,478964928.00000,   0.00262,277461984.00000,  -0.00095,  -0.00254,   0.00111,  32.00000,   2.00000
-517132133.63338,-394159785.28007,54751414.01162,  -0.00254,  -0.00333,   0.00182,478971456.00000,   0.00263,277467072.00000,  -0.00096,  -0.00255,   0.00111, -32.00000,   2.00000
-517432571.72748,-393638669.29017,54610229.17156,  -0.00255,  -0.00333,   0.00183,478948576.00000,   0.00263,277472032.00000,  -0.00096,  -0.00255,   0.00112,  96.00000,   2.00000
-517726199.22911,-393134943.81091,54464329.70516,  -0.00256,  -0.00333,   0.00183,478948576.00000,   0.00264,277477024.00000,  -0.00097,  -0.00255,   0.00112,   0.00000,   2.00000
-518019950.28188,-392633878.84744,54313187.01103,  -0.00257,  -0.00333,   0.00183,478952704.00000,   0.00264,277481984.00000,  -0.00097,  -0.00255,   0.00112,  96.00000,   2.00000
-518312388.54090,-392126317.61520,54165861.43012,  -0.00257,  -0.00333,   0.00183,478931872.00000,   0.00265,277486880.00000,  -0.00098,  -0.00255,   0.00112, -64.00000,   2.00000
-518601126.68904,-391632528.59937,54011820.06054,  -0.00258,  -0.00333,   0.00183,478947264.00000,   0.00265,277491808.00000,  -0.00098,  -0.00256,   0.00113,   0.00000,   2.00000
-518893469.91939,-391129937.48536,53854078.44960,  -0.00259,  -0.00333,   0.00183,478940192.00000,   0.00265,277496672.00000,  -0.00099,  -0.00256,   0.00113,  64.00000,   2.00000
-519176634.40030,-390648536.86617,53693880.89247,  -0.00259,  -0.00332,   0.00183,478923712.00000,   0.00266,277501472.00000,  -0.00099,  -0.00256,   0.00113, 128.00000,   2.00000
-519461396.58182,-390156771.93312,53535494.96415,  -0.00260,  -0.00332,   0.00183,478918432.00000,   0.00266,277506272.00000,  -0.00100,  -0.00256,   0.00113,  64.00000,   2.00000
-519748129.94096,-389668845.93993,53366514.37254,  -0.00261,  -0.00332,   0.00183,478920480.00000,   0.00267,277511040.00000,  -0.00100,  -0.00256,   0.00114,  32.00000,   2.00000
-520024209.15000,-389195316.01186,53203981.96014,  -0.00262,  -0.00332,   0.00183,478923520.00000,   0.00267,277515808.00000,  -0.00101,  -0.00257,   0.00114,   0.00000,   2.00000
-520303526.31228,-388717999.51159,53034464.96794,  -0.00262,  -0.00332,   0.00183,478898240.00000,   0.00268,277520480.00000,  -0.00101,  -0.00257,   0.00114, -32.00000,   2.00000
-520582716.48145,-388242934.56263,52859880.55141,  -0.00263,  -0.00332,   0.00183,478902080.00000,   0.00268,277525120.00000,  -0.00102,  -0.00257,   0.00114,   0.00000,   2.00000
-520859847.81447,-387768760.43910,52685739.91235,  -0.00264,  -0.00332,   0.00183,478907744.00000,   0.00269,277529792.00000,  -0.00102,  -0.00257,   0.00114,   0.00000,   2.00000
-521131755.44174,-387304113.86006,52510696.72282,  -0.00264,  -0.00332,   0.00183,478879648.00000,   0.00269,277534368.00000,  -0.00103,  -0.00257,   0.00115,   0.00000,   2.00000
-521403589.02519,-386841652.46505,52330623.63036,  -0.00265,  -0.00332,   0.00183,478883296.00000,   0.00269,277538912.00000,  -0.00103,  -0.00257,   0.00115,   0.00000,   2.00000
-521673422.54049,-386380026.59858,52151029.42810,  -0.00266,  -0.00332,   0.00183,478888704.00000,   0.00270,277543488.00000,  -0.00104,  -0.00258,   0.00115,  32.00000,   2.00000
-521942732.97773,-385925599.72261,51963005.40178,  -0.00266,  -0.00332,   0.00183,478874688.00000,   0.00270,277548000.00000,  -0.00104,  -0.00258,   0.00115, -32.00000,   2.00000
-522209969.21582,-385471903.52226,51775479.62975,  -0.00267,  -0.00332,   0.00183,478880032.00000,   0.00271,277552480.00000,  -0.00105,  -0.00258,   0.00116,  64.00000,   2.00000
-522474690.44402,-385023908.84908,51585008.71396,  -0.00268,  -0.00331,   0.00183,478867680.00000,   0.00271,277556928.00000,  -0.00105,  -0.00258,   0.00116,  64.00000,   2.00000
-522734972.34434,-384580207.30239,51397074.58181,  -0.00268,  -0.00331,   0.00183,478856960.00000,   0.00272,277561344.00000,  -0.00106,  -0.00258,   0.00116,   0.00000,   2.00000
-522997360.12211,-384140022.56936,51198686.45464,  -0.00269,  -0.00331,   0.00183,478858592.00000,   0.00272,277565728.00000,  -0.00106,  -0.00259,   0.00116, -32.00000,   2.00000
-523261330.03731,-383688885.59173,51002219.61421,  -0.00270,  -0.00331,   0.00183,478852896.00000,   0.00272,277570080.00000,  -0.00107,  -0.00259,   0.00116,  96.00000,   2.00000
-523516904.99254,-383258485.90627,50803409.33631,  -0.00270,  -0.00331,   0.00183,478835296.00000,   0.00273,277574368.00000,  -0.00107,  -0.00259,   0.00117,   0.00000,   2.00000
-523774968.37419,-382826606.88246,50597647.63521,  -0.00271,  -0.00331,   0.00183,478854720.00000,   0.00273,277578720.00000,  -0.00107,  -0.00259,   0.00117,  64.00000,   2.00000
-524026399.08784,-382402387.50281,50396415.58478,  -0.00272,  -0.00331,   0.00183,478827776.00000,   0.00274,277582944.00000,  -0.00108,  -0.00259,   0.00117,  96.00000,   2.00000
-524282176.80572,-381977946.58305,50182743.14434,  -0.00272,  -0.00331,   0.00183,478845344.00000,   0.00274,277587232.00000,  -0.00108,  -0.00259,   0.00117,  32.00000,   2.00000
-524531495.71034,-381561130.62032,49973594.36986,  -0.00273,  -0.00331,   0.00182,478818368.00000,   0.00274,277591424.00000,  -0.00109,  -0.00260,   0.00117,  32.00000,   2.00000
-524783067.98301,-381142650.08324,49757512.79884,  -0.00274,  -0.00331,   0.00182,478837824.00000,   0.00275,277595648.00000,  -0.00109,  -0.00260,   0.00118,  32.00000,   2.00000
-525028397.68600,-380731791.99591,49545934.14518,  -0.00274,  -0.00331,   0.00182,478810592.00000,   0.00275,277599776.00000,  -0.00110,  -0.00260,   0.00118,  64.00000,   2.00000
-525275761.44632,-380324083.32545,49323895.59293,  -0.00275,  -0.00331,   0.00182,478812128.00000,   0.00276,277603872.00000,  -0.00110,  -0.00260,   0.00118,  96.00000,   2.00000
-525521306.30976,-379916902.51059,49102428.71546,  -0.00276,  -0.00331,   0.00182,478817152.00000,   0.00276,277608000.00000,  -0.00111,  -0.00260,   0.00118,  96.00000,   2.00000
-525764618.66718,-379514887.47200,48877946.03282,  -0.00276,  -0.00330,   0.00182,478804256.00000,   0.00276,277612064.00000,  -0.00111,  -0.00260,   0.00118, -32.00000,   2.00000
-526002625.00910,-379130118.96758,48649175.03037,  -0.00277,  -0.00330,   0.00182,478802048.00000,   0.00277,277616128.00000,  -0.00111,  -0.00260,   0.00119, -32.00000,   2.00000
-526242316.54571,-378733874.46622,48422273.96059,  -0.00277,  -0.00330,   0.00182,478796096.00000,   0.00277,277620128.00000,  -0.00112,  -0.00261,   0.00119,  64.00000,   2.00000
-526483980.93577,-378340596.50347,48184913.38206,  -0.00278,  -0.00330,   0.00182,478797568.00000,   0.00278,277624128.00000,  -0.00112,  -0.00261,   0.00119, -64.00000,   2.00000
-526721763.44893,-377951171.53007,47950048.24953,  -0.00279,  -0.00330,   0.00182,478786336.00000,   0.00278,277628096.00000,  -0.00113,  -0.00261,   0.00119, -64.00000,   2.00000
-526954323.03672,-377578904.66364,47710888.50846,  -0.00279,  -0.00330,   0.00181,478784032.00000,   0.00278,277632032.00000,  -0.00113,  -0.00261,   0.00119, -64.00000,   2.00000
-527190417.87934,-377196231.64052,47468055.36453,  -0.00280,  -0.00330,   0.00181,478776384.00000,   0.00279,277635904.00000,  -0.00113,  -0.00261,   0.00120,  32.00000,   2.00000
-527421427.55690,-376825985.31655,47224566.04635,  -0.00280,  -0.00330,   0.00181,478792032.00000,   0.00279,277639840.00000,  -0.00114,  -0.00261,   0.00120,  96.00000,   2.00000
-527650467.03541,-376460650.23180,46978012.29833,  -0.00281,  -0.00330,   0.00181,478778944.00000,   0.00279,277643744.00000,  -0.00114,  -0.00261,   0.00120,  32.00000,   2.00000
-527881156.75763,-376088257.64658,46729635.96320,  -0.00282,  -0.00330,   0.00181,478755008.00000,   0.00280,277647520.00000,  -0.00115,  -0.00262,   0.00120, -32.00000,   2.00000
-528108565.56978,-375729438.25456,46475087.42919,  -0.00282,  -0.00330,   0.00181,478768736.00000,   0.00280,277651328.00000,  -0.00115,  -0.00262,   0.00120, -64.00000,   2.00000
-528334338.86270,-375375591.92209,46217477.09424,  -0.00283,  -0.00330,   0.00180,478755520.00000,   0.00281,277655104.00000,  -0.00116,  -0.00262,   0.00120,  32.00000,   2.00000
-528558452.73800,-375022000.78078,45960472.45924,  -0.00283,  -0.00329,   0.00180,478760160.00000,   0.00281,277658848.00000,  -0.00116,  -0.00262,   0.00121, 128.00000,   2.00000
-528784445.25779,-374670991.42537,45693000.88248,  -0.00284,  -0.00329,   0.00180,478761664.00000,   0.00281,277662624.00000,  -0.00116,  -0.00262,   0.00121, -32.00000,   2.00000
-529003666.97878,-374335809.12622,45426793.69717,  -0.00284,  -0.00329,   0.00180,478760736.00000,   0.00282,277666368.00000,  -0.00117,  -0.00262,   0.00121,  32.00000,   2.00000
-529222713.73641,-373991990.38708,45164196.05438,  -0.00285,  -0.00329,   0.00180,478738496.00000,   0.00282,277670016.00000,  -0.00117,  -0.00262,   0.00121,   0.00000,   2.00000
-529443771.33838,-373650746.36311,44891126.78408,  -0.00286,  -0.00329,   0.00180,478739808.00000,   0.00282,277673664.00000,  -0.00118,  -0.00262,   0.00121,  32.00000,   2.00000
-529659859.22501,-373321873.98753,44617514.63889,  -0.00286,  -0.00329,   0.00179,478755040.00000,   0.00283,277677344.00000,  -0.00118,  -0.00263,   0.00121,  64.00000,   2.00000
-529874269.28292,-372997631.09466,44340765.20713,  -0.00287,  -0.00329,   0.00179,478741824.00000,   0.00283,277680992.00000,  -0.00118,  -0.00263,   0.00121, -96.00000,   2.00000
-530087100.99972,-372678026.87088,44060870.29843,  -0.00287,  -0.00329,   0.00179,478728480.00000,   0.00283,277684544.00000,  -0.00119,  -0.00263,   0.00122, -32.00000,   2.00000
-530301965.09905,-372356408.78296,43774316.57118,  -0.00288,  -0.00329,   0.00179,478747648.00000,   0.00284,277688192.00000,  -0.00119,  -0.00263,   0.00122,   0.00000,   2.00000
-530511654.96584,-372041493.87195,43491894.18675,  -0.00288,  -0.00329,   0.00178,478719712.00000,   0.00284,277691712.00000,  -0.00119,  -0.00263,   0.00122, -32.00000,   2.00000
-530723315.89655,-371728956.19304,43199002.09723,  -0.00289,  -0.00329,   0.00178,478721024.00000,   0.00284,277695200.00000,  -0.00120,  -0.00263,   0.00122,  32.00000,   2.00000
-530933340.11355,-371416442.14844,42906754.36075,  -0.00289,  -0.00329,   0.00178,478725568.00000,   0.00285,277698720.00000,  -0.00120,  -0.00263,   0.00122,  96.00000,   2.00000
-531138511.73929,-371120707.43402,42610201.95942,  -0.00290,  -0.00329,   0.00178,478722720.00000,   0.00285,277702208.00000,  -0.00121,  -0.00263,   0.00122,   0.00000,   2.00000
-531342190.11561,-370825028.92925,42314312.37493,  -0.00290,  -0.00329,   0.00177,478727200.00000,   0.00285,277705728.00000,  -0.00121,  -0.00263,   0.00122,   0.00000,   2.00000
-531547678.69559,-370531539.05411,42007957.78798,  -0.00291,  -0.00329,   0.00177,478728736.00000,   0.00286,277709216.00000,  -0.00121,  -0.00264,   0.00123, -32.00000,   2.00000
-531749941.92796,-370241326.30662,41703955.63593,  -0.00291,  -0.00328,   0.00177,478716832.00000,   0.00286,277712640.00000,  -0.00122,  -0.00264,   0.00123,  64.00000,   2.00000
-531950668.80252,-369955434.82898,41396711.68153,  -0.00292,  -0.00328,   0.00177,478703360.00000,   0.00286,277716032.00000,  -0.00122,  -0.00264,   0.00123, -64.00000,   2.00000
-532151620.86287,-369670638.07505,41084569.58116,  -0.00292,  -0.00328,   0.00176,478706272.00000,   0.00287,277719392.00000,  -0.00122,  -0.00264,   0.00123,  32.00000,   2.00000
-532347738.53770,-369398165.54995,40772042.97222,  -0.00293,  -0.00328,   0.00176,478721248.00000,   0.00287,277722816.00000,  -0.00123,  -0.00264,   0.00123,  64.00000,   2.00000
-532542269.01450,-369129872.31466,40456242.88612,  -0.00294,  -0.00328,   0.00176,478707936.00000,   0.00287,277726176.00000,  -0.00123,  -0.00264,   0.00123,  96.00000,   2.00000
-532738625.77674,-368863638.47492,40129981.62102,  -0.00294,  -0.00328,   0.00176,478709312.00000,   0.00288,277729536.00000,  -0.00124,  -0.00264,   0.00123,   0.00000,   2.00000
-532930305.69352,-368599540.68424,39811599.04931,  -0.00295,  -0.00328,   0.00175,478698720.00000,   0.00288,277732832.00000,  -0.00124,  -0.00264,   0.00124,  64.00000,   2.00000
-533123544.82810,-368337298.40580,39482719.80833,  -0.00295,  -0.00328,   0.00175,478700416.00000,   0.00288,277736160.00000,  -0.00124,  -0.00264,   0.00124,   0.00000,   2.00000
-533312099.55531,-368091657.59311,39149524.47572,  -0.00296,  -0.00328,   0.00175,478697344.00000,   0.00289,277739424.00000,  -0.00125,  -0.00265,   0.00124, -32.00000,   2.00000
-533503917.30374,-367830167.43968,38816466.47058,  -0.00296,  -0.00328,   0.00174,478707616.00000,   0.00289,277742720.00000,  -0.00125,  -0.00265,   0.00124,  64.00000,   2.00000
-533689400.22178,-367588400.97638,38480626.37470,  -0.00296,  -0.00328,   0.00174,478688320.00000,   0.00289,277745952.00000,  -0.00125,  -0.00265,   0.00124,   0.00000,   2.00000
-533876593.12912,-367344324.26512,38138371.37117,  -0.00297,  -0.00328,   0.00174,478707520.00000,   0.00289,277749216.00000,  -0.00126,  -0.00265,   0.00124,  96.00000,   2.00000
-534055963.12720,-367118936.60804,37798902.54342,  -0.00297,  -0.00328,   0.00173,478689600.00000,   0.00290,277752448.00000,  -0.00126,  -0.00265,   0.00124, -32.00000,   2.00000
-534240054.49889,-366878573.30795,37453990.16521,  -0.00298,  -0.00328,   0.00173,478698528.00000,   0.00290,277755648.00000,  -0.00126,  -0.00265,   0.00124,  64.00000,   2.00000
-534420838.16383,-366655575.45746,37099136.13630,  -0.00298,  -0.00328,   0.00173,478694304.00000,   0.00290,277758848.00000,  -0.00127,  -0.00265,   0.00124,   0.00000,   2.00000
-534598760.46435,-366431484.84691,36750621.74051,  -0.00299,  -0.00328,   0.00172,478699904.00000,   0.00291,277762080.00000,  -0.00127,  -0.00265,   0.00125,   0.00000,   2.00000
-534773330.87458,-366224673.47580,36392149.86361,  -0.00299,  -0.00328,   0.00172,478695584.00000,   0.00291,277765248.00000,  -0.00127,  -0.00265,   0.00125, -32.00000,   2.00000
-534951192.41788,-366006040.77091,36029739.86087,  -0.00300,  -0.00328,   0.00172,478688160.00000,   0.00291,277768384.00000,  -0.00128,  -0.00265,   0.00125,  96.00000,   2.00000
-535124155.99381,-365799596.14906,35667138.94179,  -0.00300,  -0.00328,   0.00171,478703008.00000,   0.00292,277771584.00000,  -0.00128,  -0.00266,   0.00125, -64.00000,   2.00000
-535295674.26664,-365596981.10965,35301100.70009,  -0.00301,  -0.00328,   0.00171,478689504.00000,   0.00292,277774720.00000,  -0.00128,  -0.00266,   0.00125,   0.00000,   2.00000
-535465608.89550,-365394021.58485,34935793.00823,  -0.00301,  -0.00328,   0.00171,478693824.00000,   0.00292,277777856.00000,  -0.00129,  -0.00266,   0.00125, -32.00000,   2.00000
-535633794.15000,-365205217.35490,34559127.82905,  -0.00302,  -0.00328,   0.00170,478706048.00000,   0.00293,277780992.00000,  -0.00129,  -0.00266,   0.00125,  96.00000,   2.00000
-535802011.25263,-365006485.48770,34185460.86838,  -0.00302,  -0.00328,   0.00170,478683616.00000,   0.00293,277784064.00000,  -0.00130,  -0.00266,   0.00125,  32.00000,   2.00000
-535963801.40818,-364833571.73356,33805201.31937,  -0.00303,  -0.00328,   0.00169,478707424.00000,   0.00293,277787232.00000,  -0.00130,  -0.00266,   0.00125, -32.00000,   2.00000
-536127143.89789,-364651610.32860,33422284.56381,  -0.00303,  -0.00328,   0.00169,478683648.00000,   0.00293,277790272.00000,  -0.00130,  -0.00266,   0.00125, -64.00000,   2.00000
-536290355.47762,-364470160.20910,33034501.30091,  -0.00303,  -0.00328,   0.00169,478686592.00000,   0.00294,277793312.00000,  -0.00131,  -0.00266,   0.00126,  64.00000,   2.00000
-536448891.07580,-364300998.45896,32646652.08668,  -0.00304,  -0.00327,   0.00168,478701344.00000,   0.00294,277796416.00000,  -0.00131,  -0.00266,   0.00126, 128.00000,   2.00000
-536607052.18115,-364132173.24671,32253938.25668,  -0.00304,  -0.00327,   0.00168,478704608.00000,   0.00294,277799488.00000,  -0.00131,  -0.00266,   0.00126,  32.00000,   2.00000
-536760461.82705,-363979543.54010,31856855.38832,  -0.00305,  -0.00327,   0.00167,478701632.00000,   0.00295,277802560.00000,  -0.00132,  -0.00267,   0.00126,  64.00000,   2.00000
-536916569.36488,-363814490.62111,31455711.14708,  -0.00305,  -0.00327,   0.00167,478694464.00000,   0.00295,277805600.00000,  -0.00132,  -0.00267,   0.00126, -96.00000,   2.00000
-537066911.57529,-363664975.69827,31055834.97289,  -0.00306,  -0.00327,   0.00166,478692480.00000,   0.00295,277808608.00000,  -0.00132,  -0.00267,   0.00126,  32.00000,   2.00000
-537214898.43449,-363525225.33868,30649070.22499,  -0.00306,  -0.00327,   0.00166,478722752.00000,   0.00295,277811712.00000,  -0.00133,  -0.00267,   0.00126,  32.00000,   2.00000
-537364463.35586,-363376234.80533,30239476.59092,  -0.00307,  -0.00327,   0.00166,478699040.00000,   0.00296,277814752.00000,  -0.00133,  -0.00267,   0.00126,  64.00000,   2.00000
-537509078.94654,-363243245.52515,29825479.41086,  -0.00307,  -0.00327,   0.00165,478696096.00000,   0.00296,277817728.00000,  -0.00133,  -0.00267,   0.00126, -32.00000,   2.00000
-537654586.23004,-363107388.77200,29405448.05175,  -0.00307,  -0.00327,   0.00165,478715904.00000,   0.00296,277820768.00000,  -0.00134,  -0.00267,   0.00126,  32.00000,   2.00000
-537794127.94740,-362986871.19332,28986685.76356,  -0.00308,  -0.00327,   0.00164,478714176.00000,   0.00297,277823808.00000,  -0.00134,  -0.00267,   0.00126,  64.00000,   2.00000
-537936139.86043,-362853674.85911,28563804.61392,  -0.00308,  -0.00327,   0.00164,478707168.00000,   0.00297,277826816.00000,  -0.00134,  -0.00267,   0.00127, -32.00000,   2.00000
-538069192.75422,-362748613.29897,28141467.45996,  -0.00309,  -0.00327,   0.00163,478715488.00000,   0.00297,277829824.00000,  -0.00135,  -0.00267,   0.00127,  32.00000,   2.00000
-538205927.85441,-362631578.25069,27709346.00603,  -0.00309,  -0.00327,   0.00163,478707520.00000,   0.00297,277832800.00000,  -0.00135,  -0.00267,   0.00127,  32.00000,   2.00000
-538337932.17167,-362526731.40329,27277366.13149,  -0.00310,  -0.00327,   0.00162,478722176.00000,   0.00298,277835840.00000,  -0.00135,  -0.00268,   0.00127,  32.00000,   2.00000
-538469192.04772,-362421842.40615,26840561.92790,  -0.00310,  -0.00327,   0.00162,478725632.00000,   0.00298,277838848.00000,  -0.00136,  -0.00268,   0.00127,   0.00000,   2.00000
-538599994.53531,-362317091.07533,26398960.56677,  -0.00310,  -0.00328,   0.00161,478729120.00000,   0.00298,277841856.00000,  -0.00136,  -0.00268,   0.00127, 128.00000,   2.00000
-538724762.45665,-362227546.27590,25958618.42182,  -0.00311,  -0.00328,   0.00161,478727232.00000,   0.00299,277844864.00000,  -0.00136,  -0.00268,   0.00127,  64.00000,   2.00000
-538849732.19617,-362138509.29388,25507799.23226,  -0.00311,  -0.00328,   0.00160,478729888.00000,   0.00299,277847872.00000,  -0.00137,  -0.00268,   0.00127, -64.00000,   2.00000
-538973108.78744,-362048869.49769,25057862.51422,  -0.00312,  -0.00328,   0.00160,478734272.00000,   0.00299,277850880.00000,  -0.00137,  -0.00268,   0.00127,  64.00000,   2.00000
-539090301.71452,-361974299.77208,24609172.83908,  -0.00312,  -0.00328,   0.00159,478732288.00000,   0.00299,277853856.00000,  -0.00137,  -0.00268,   0.00127,   0.00000,   2.00000
-539209045.12599,-361897232.60961,24149042.28135,  -0.00312,  -0.00328,   0.00159,478751488.00000,   0.00300,277856896.00000,  -0.00138,  -0.00268,   0.00127,  32.00000,   2.00000
-539324791.25125,-361822467.87200,23690785.74766,  -0.00313,  -0.00328,   0.00158,478739424.00000,   0.00300,277859904.00000,  -0.00138,  -0.00268,   0.00127, -32.00000,   2.00000
-539436682.96560,-361760381.57530,23227166.51220,  -0.00313,  -0.00328,   0.00158,478753248.00000,   0.00300,277862912.00000,  -0.00138,  -0.00268,   0.00127,  32.00000,   2.00000
-539546490.50304,-361701111.65954,22759717.60838,  -0.00314,  -0.00328,   0.00157,478740352.00000,   0.00301,277865888.00000,  -0.00139,  -0.00268,   0.00127,  32.00000,   2.00000
-539652539.02372,-361650770.45256,22291699.99516,  -0.00314,  -0.00328,   0.00157,478771744.00000,   0.00301,277868960.00000,  -0.00139,  -0.00268,   0.00128,  64.00000,   2.00000
-539759662.16134,-361590437.84537,21820396.49678,  -0.00314,  -0.00328,   0.00156,478748544.00000,   0.00301,277871936.00000,  -0.00139,  -0.00269,   0.00128,  64.00000,   2.00000
-539859515.84291,-361555377.03254,21343250.18661,  -0.00315,  -0.00328,   0.00155,478772768.00000,   0.00301,277874976.00000,  -0.00140,  -0.00269,   0.00128,   0.00000,   2.00000
-539961490.47906,-361507154.69366,20861914.47856,  -0.00315,  -0.00328,   0.00155,478766176.00000,   0.00302,277877984.00000,  -0.00140,  -0.00269,   0.00128, -64.00000,   2.00000
-540058538.26719,-361470906.83953,20381023.62799,  -0.00316,  -0.00328,   0.00154,478781024.00000,   0.00302,277881056.00000,  -0.00140,  -0.00269,   0.00128,   0.00000,   2.00000
-540153408.92614,-361437323.24513,19896242.81049,  -0.00316,  -0.00328,   0.00154,478768224.00000,   0.00302,277884064.00000,  -0.00141,  -0.00269,   0.00128,   0.00000,   2.00000
-540245211.39382,-361413080.51313,19405456.66922,  -0.00316,  -0.00328,   0.00153,478799072.00000,   0.00303,277887136.00000,  -0.00141,  -0.00269,   0.00128,   0.00000,   2.00000
-540334572.00707,-361391303.21175,18910770.86860,  -0.00317,  -0.00328,   0.00153,478786336.00000,   0.00303,277890208.00000,  -0.00141,  -0.00269,   0.00128,  32.00000,   2.00000
-540422185.63206,-361368667.12545,18417101.79221,  -0.00317,  -0.00328,   0.00152,478790752.00000,   0.00303,277893248.00000,  -0.00142,  -0.00269,   0.00128,   0.00000,   2.00000
-540505442.62480,-361358303.30918,17918298.92561,  -0.00318,  -0.00328,   0.00151,478805056.00000,   0.00304,277896320.00000,  -0.00142,  -0.00269,   0.00128,  32.00000,   2.00000
-540587408.80427,-361347333.36696,17414845.03727,  -0.00318,  -0.00328,   0.00151,478809152.00000,   0.00304,277899424.00000,  -0.00142,  -0.00269,   0.00128,   0.00000,   2.00000
-540664152.40761,-361348077.97791,16912011.32111,  -0.00318,  -0.00328,   0.00150,478824160.00000,   0.00304,277902528.00000,  -0.00143,  -0.00269,   0.00128,   0.00000,   2.00000
-540738617.85361,-361351301.38399,16405239.16220,  -0.00319,  -0.00328,   0.00150,478811424.00000,   0.00304,277905600.00000,  -0.00143,  -0.00270,   0.00128,   0.00000,   2.00000
-540812586.82165,-361350647.43953,15893176.42691,  -0.00319,  -0.00329,   0.00149,478832320.00000,   0.00305,277908736.00000,  -0.00143,  -0.00270,   0.00128,  32.00000,   2.00000
-540881137.34140,-361365280.30189,15376772.45578,  -0.00319,  -0.00329,   0.00148,478829920.00000,   0.00305,277911872.00000,  -0.00144,  -0.00270,   0.00128,  96.00000,   2.00000
-540947512.43727,-361378692.54238,14861477.70800,  -0.00320,  -0.00329,   0.00148,478834720.00000,   0.00305,277914976.00000,  -0.00144,  -0.00270,   0.00128,  32.00000,   2.00000
-541009227.31708,-361404101.56006,14341234.77854,  -0.00320,  -0.00329,   0.00147,478849120.00000,   0.00306,277918144.00000,  -0.00145,  -0.00270,   0.00128,  32.00000,   2.00000
-541069405.37482,-361428651.12723,13816440.92433,  -0.00321,  -0.00329,   0.00146,478853440.00000,   0.00306,277921312.00000,  -0.00145,  -0.00270,   0.00128, -64.00000,   2.00000
-541127450.95017,-361451975.58678,13292813.28650,  -0.00321,  -0.00329,   0.00146,478858304.00000,   0.00306,277924480.00000,  -0.00145,  -0.00270,   0.00128, -32.00000,   2.00000
-541181196.79127,-361487489.81676,12758625.76078,  -0.00321,  -0.00329,   0.00145,478872448.00000,   0.00306,277927680.00000,  -0.00146,  -0.00270,   0.00129,   0.00000,   2.00000
-541232242.69138,-361521397.95752,12231356.61839,  -0.00322,  -0.00329,   0.00144,478877760.00000,   0.00307,277930880.00000,  -0.00146,  -0.00270,   0.00129,   0.00000,   2.00000
-541278965.44777,-361567448.89508,11693591.30714,  -0.00322,  -0.00329,   0.00144,478892064.00000,   0.00307,277934144.00000,  -0.00146,  -0.00270,   0.00129,  96.00000,   2.00000
-541322316.66452,-361615154.50633,11157538.82348,  -0.00322,  -0.00329,   0.00143,478880288.00000,   0.00307,277937344.00000,  -0.00147,  -0.00270,   0.00129, -64.00000,   2.00000
-541364991.96314,-361658749.32495,10616581.75905,  -0.00323,  -0.00329,   0.00142,478901472.00000,   0.00308,277940608.00000,  -0.00147,  -0.00271,   0.00129,   0.00000,   2.00000
-541402502.62184,-361713936.90948,10070937.80425,  -0.00323,  -0.00330,   0.00142,478916384.00000,   0.00308,277943904.00000,  -0.00147,  -0.00271,   0.00129, -32.00000,   2.00000
-541436824.61949,-361770856.89299,9527002.69237,  -0.00324,  -0.00330,   0.00141,478904704.00000,   0.00308,277947136.00000,  -0.00148,  -0.00271,   0.00129,  32.00000,   2.00000
-541466047.20397,-361839365.86449,8978426.48199,  -0.00324,  -0.00330,   0.00140,478919680.00000,   0.00309,277950432.00000,  -0.00148,  -0.00271,   0.00129, -32.00000,   2.00000
-541494068.36899,-361903370.23550,8425121.59893,  -0.00324,  -0.00330,   0.00140,478941184.00000,   0.00309,277953792.00000,  -0.00149,  -0.00271,   0.00129, -64.00000,   2.00000
-541519274.64015,-361969303.95459,7867807.56005,  -0.00325,  -0.00330,   0.00139,478929184.00000,   0.00309,277957088.00000,  -0.00149,  -0.00271,   0.00129,  32.00000,   2.00000
-541539635.29730,-362043234.30861,7311376.42322,  -0.00325,  -0.00330,   0.00138,478961312.00000,   0.00310,277960480.00000,  -0.00149,  -0.00271,   0.00129, -32.00000,   2.00000
-541553858.98487,-362131758.80114,6750756.23833,  -0.00325,  -0.00330,   0.00138,478959872.00000,   0.00310,277963872.00000,  -0.00150,  -0.00271,   0.00129, -32.00000,   2.00000
-541566558.68066,-362215499.98857,6191310.23385,  -0.00326,  -0.00330,   0.00137,478981824.00000,   0.00310,277967296.00000,  -0.00150,  -0.00271,   0.00129,  32.00000,   2.00000
-541576253.67291,-362300985.23928,5622120.61399,  -0.00326,  -0.00331,   0.00136,478970016.00000,   0.00311,277970688.00000,  -0.00150,  -0.00271,   0.00129, -32.00000,   2.00000
-541580233.74405,-362397560.18228,5059984.54821,  -0.00327,  -0.00331,   0.00135,478985632.00000,   0.00311,277974144.00000,  -0.00151,  -0.00271,   0.00129,   0.00000,   2.00000
-541582864.91605,-362489410.94523,4487713.13364,  -0.00327,  -0.00331,   0.00135,479007392.00000,   0.00311,277977632.00000,  -0.00151,  -0.00272,   0.00129, -32.00000,   2.00000
-541582127.34227,-362582746.48259,3917119.60510,  -0.00327,  -0.00331,   0.00134,478996064.00000,   0.00312,277981088.00000,  -0.00152,  -0.00272,   0.00129,-128.00000,   2.00000
-541576832.06602,-362684105.66111,3342110.39292,  -0.00328,  -0.00331,   0.00133,479028288.00000,   0.00312,277984640.00000,  -0.00152,  -0.00272,   0.00129,   0.00000,   2.00000
-541564946.63407,-362799658.38605,2762982.33248,  -0.00328,  -0.00331,   0.00133,479027360.00000,   0.00312,277988160.00000,  -0.00152,  -0.00272,   0.00129,  32.00000,   2.00000
-541551404.78561,-362910191.36861,2185336.69285,  -0.00328,  -0.00331,   0.00132,479049568.00000,   0.00313,277991744.00000,  -0.00153,  -0.00272,   0.00129, -32.00000,   2.00000
-541534572.03564,-363022174.42611,1603605.44518,  -0.00329,  -0.00332,   0.00131,479038496.00000,   0.00313,277995296.00000,  -0.00153,  -0.00272,   0.00129,  64.00000,   2.00000
-541512804.82232,-363141817.93205,1017673.46624,  -0.00329,  -0.00332,   0.00130,479070880.00000,   0.00313,277998944.00000,  -0.00154,  -0.00272,   0.00129,  32.00000,   2.00000
-541488629.19564,-363259652.38931,433335.41174,  -0.00330,  -0.00332,   0.00130,479076512.00000,   0.00314,278002592.00000,  -0.00154,  -0.00272,   0.00129,   0.00000,   2.00000
-541458835.19690,-363388401.67221,-155134.04352,  -0.00330,  -0.00332,   0.00129,479092480.00000,   0.00314,278006272.00000,  -0.00155,  -0.00272,   0.00129,  64.00000,   2.00000
-541426391.26654,-363515116.84754,-747753.54407,  -0.00330,  -0.00332,   0.00128,479098176.00000,   0.00314,278009984.00000,  -0.00155,  -0.00273,   0.00129,   0.00000,   2.00000
-541388423.76917,-363652712.79237,-1338795.38841,  -0.00331,  -0.00333,   0.00127,479114112.00000,   0.00315,278013728.00000,  -0.00155,  -0.00273,   0.00129, -32.00000,   2.00000
-541348242.67137,-363788448.14559,-1934061.95072,  -0.00331,  -0.00333,   0.00126,479119808.00000,   0.00315,278017472.00000,  -0.00156,  -0.00273,   0.00129,  96.00000,   2.00000
-541305625.86253,-363922152.94824,-2527889.22340,  -0.00332,  -0.00333,   0.00126,479125536.00000,   0.00315,278021216.00000,  -0.00156,  -0.00273,   0.00129,   0.00000,   2.00000
-541257588.48727,-364066644.41047,-3131698.29357,  -0.00332,  -0.00333,   0.00125,479141440.00000,   0.00316,278025024.00000,  -0.00157,  -0.00273,   0.00129,  32.00000,   2.00000
-541205166.32305,-364218674.21631,-3733914.83492,  -0.00332,  -0.00333,   0.00124,479174080.00000,   0.00316,278028896.00000,  -0.00157,  -0.00273,   0.00129,  32.00000,   2.00000
-541149891.74849,-364372044.07603,-4334975.94967,  -0.00333,  -0.00333,   0.00123,479162976.00000,   0.00317,278032736.00000,  -0.00158,  -0.00273,   0.00129, -64.00000,   2.00000
-541093544.90355,-364520209.77249,-4940224.75015,  -0.00333,  -0.00334,   0.00122,479185408.00000,   0.00317,278036640.00000,  -0.00158,  -0.00273,   0.00129,  64.00000,   2.00000
-541031673.18341,-364678950.12401,-5549552.90652,  -0.00333,  -0.00334,   0.00122,479201632.00000,   0.00317,278040576.00000,  -0.00158,  -0.00273,   0.00129,  64.00000,   2.00000
-540967305.42595,-364835506.60244,-6162768.48077,  -0.00334,  -0.00334,   0.00121,479208064.00000,   0.00318,278044544.00000,  -0.00159,  -0.00274,   0.00129,  64.00000,   2.00000
-540896857.09487,-365002484.60301,-6773480.06238,  -0.00334,  -0.00334,   0.00120,479225184.00000,   0.00318,278048544.00000,  -0.00159,  -0.00274,   0.00129, -32.00000,   2.00000
-540822456.69011,-365166705.24315,-7386885.61693,  -0.00335,  -0.00334,   0.00119,479233120.00000,   0.00318,278052544.00000,  -0.00160,  -0.00274,   0.00129, -64.00000,   2.00000
-540740421.31587,-365340774.98070,-7996366.22393,  -0.00335,  -0.00335,   0.00118,479252192.00000,   0.00319,278056608.00000,  -0.00160,  -0.00274,   0.00129,  32.00000,   2.00000
-540653640.03550,-365508078.80465,-8606948.06778,  -0.00335,  -0.00335,   0.00118,479279040.00000,   0.00319,278060736.00000,  -0.00161,  -0.00274,   0.00129, -64.00000,   2.00000
-540561091.18246,-365671844.54564,-9219114.59557,  -0.00336,  -0.00335,   0.00117,479289664.00000,   0.00320,278064864.00000,  -0.00161,  -0.00274,   0.00129,   0.00000,   2.00000
-540456969.74885,-365857552.04936,-9827376.24485,  -0.00336,  -0.00335,   0.00116,479320384.00000,   0.00320,278069120.00000,  -0.00162,  -0.00274,   0.00129,  32.00000,   2.00000
-540352034.24184,-366027372.16304,-10439915.42741,  -0.00337,  -0.00336,   0.00115,479318880.00000,   0.00320,278073312.00000,  -0.00162,  -0.00274,   0.00129, 128.00000,   2.00000
-540241795.81482,-366207372.07285,-11057781.68958,  -0.00337,  -0.00336,   0.00114,479336000.00000,   0.00321,278077568.00000,  -0.00163,  -0.00275,   0.00128,  32.00000,   2.00000
-540129722.74312,-366395336.93492,-11676083.32848,  -0.00337,  -0.00336,   0.00113,479367168.00000,   0.00321,278081920.00000,  -0.00163,  -0.00275,   0.00128,  96.00000,   2.00000
-540018865.17522,-366582195.07953,-12301934.17274,  -0.00338,  -0.00336,   0.00112,479370336.00000,   0.00322,278086240.00000,  -0.00164,  -0.00275,   0.00128,  32.00000,   2.00000
-539910234.08032,-366768658.07521,-12929161.42270,  -0.00338,  -0.00336,   0.00112,479372480.00000,   0.00322,278090560.00000,  -0.00164,  -0.00275,   0.00128,   0.00000,   2.00000
-539799261.49729,-366966717.11611,-13562004.57886,  -0.00339,  -0.00337,   0.00111,479386624.00000,   0.00322,278094944.00000,  -0.00165,  -0.00275,   0.00128,  64.00000,   2.00000
-539688521.75813,-367159612.31381,-14198762.67763,  -0.00339,  -0.00337,   0.00110,479408896.00000,   0.00323,278099360.00000,  -0.00165,  -0.00275,   0.00128, -32.00000,   2.00000
-539571418.50636,-367366047.43454,-14833007.36842,  -0.00339,  -0.00337,   0.00109,479409856.00000,   0.00323,278103744.00000,  -0.00166,  -0.00275,   0.00128,  64.00000,   2.00000
-539451151.37491,-367565477.74812,-15468613.46019,  -0.00340,  -0.00337,   0.00108,479436256.00000,   0.00324,278108224.00000,  -0.00166,  -0.00275,   0.00128,  32.00000,   2.00000
-539323245.78064,-367769698.13004,-16104449.67165,  -0.00340,  -0.00338,   0.00107,479474624.00000,   0.00324,278112800.00000,  -0.00167,  -0.00276,   0.00128,  64.00000,   2.00000
-539185691.83225,-367985465.07832,-16735911.98697,  -0.00341,  -0.00338,   0.00106,479479968.00000,   0.00325,278117376.00000,  -0.00167,  -0.00276,   0.00128,  32.00000,   2.00000
-539046490.61918,-368180516.18014,-17368430.96856,  -0.00341,  -0.00338,   0.00105,479498240.00000,   0.00325,278121984.00000,  -0.00168,  -0.00276,   0.00128,   0.00000,   2.00000
-538898772.86557,-368383862.44315,-17996700.89841,  -0.00341,  -0.00339,   0.00104,479519808.00000,   0.00326,278126656.00000,  -0.00168,  -0.00276,   0.00128,   0.00000,   2.00000
-538742419.81878,-368595565.61564,-18627263.38465,  -0.00342,  -0.00339,   0.00104,479540640.00000,   0.00326,278131392.00000,  -0.00169,  -0.00276,   0.00128, -64.00000,   2.00000
-538583666.91405,-368801151.68234,-19255152.32772,  -0.00342,  -0.00339,   0.00103,479565280.00000,   0.00326,278136160.00000,  -0.00169,  -0.00276,   0.00128,   0.00000,   2.00000
-538418280.69902,-369016909.61105,-19887334.39750,  -0.00343,  -0.00339,   0.00102,479582400.00000,   0.00327,278140992.00000,  -0.00170,  -0.00276,   0.00128,  64.00000,   2.00000
-538250627.65421,-369231174.94150,-20524969.48816,  -0.00343,  -0.00340,   0.00101,479587360.00000,   0.00327,278145856.00000,  -0.00170,  -0.00277,   0.00127,   0.00000,   2.00000
-538080284.21391,-369454058.54452,-21161075.51731,  -0.00344,  -0.00340,   0.00100,479617568.00000,   0.00328,278150784.00000,  -0.00171,  -0.00277,   0.00127,  32.00000,   2.00000
-537909228.31430,-369675891.47604,-21802046.17391,  -0.00344,  -0.00340,   0.00099,479621440.00000,   0.00328,278155712.00000,  -0.00171,  -0.00277,   0.00127,  96.00000,   2.00000
-537736940.63384,-369895734.73805,-22446776.98042,  -0.00344,  -0.00341,   0.00098,479626944.00000,   0.00329,278160672.00000,  -0.00172,  -0.00277,   0.00127,  96.00000,   2.00000
-537560958.15733,-370121901.52621,-23087092.22482,  -0.00345,  -0.00341,   0.00097,479660992.00000,   0.00329,278165696.00000,  -0.00172,  -0.00277,   0.00127,   0.00000,   2.00000
-537379177.50085,-370356987.89431,-23723423.58285,  -0.00345,  -0.00341,   0.00096,479680128.00000,   0.00330,278170784.00000,  -0.00173,  -0.00277,   0.00127,   0.00000,   2.00000
-537195671.61065,-370574736.98403,-24368555.97832,  -0.00346,  -0.00341,   0.00095,479680608.00000,   0.00330,278175840.00000,  -0.00174,  -0.00278,   0.00127,  32.00000,   2.00000
-537004610.47229,-370811056.20397,-25003005.11419,  -0.00346,  -0.00342,   0.00094,479726560.00000,   0.00331,278181056.00000,  -0.00174,  -0.00278,   0.00127,  96.00000,   2.00000
-536808708.54080,-371042501.98762,-25645801.73809,  -0.00347,  -0.00342,   0.00093,479737376.00000,   0.00331,278186272.00000,  -0.00175,  -0.00278,   0.00127, -32.00000,   2.00000
-536610347.25070,-371270079.84815,-26285017.17783,  -0.00347,  -0.00342,   0.00092,479746720.00000,   0.00332,278191488.00000,  -0.00175,  -0.00278,   0.00126,  64.00000,   2.00000
-536406501.80675,-371501997.08396,-26918722.62682,  -0.00348,  -0.00343,   0.00091,479784224.00000,   0.00332,278196800.00000,  -0.00176,  -0.00278,   0.00126, -32.00000,   2.00000
-536198517.21834,-371729421.57877,-27555014.09168,  -0.00348,  -0.00343,   0.00090,479795232.00000,   0.00333,278202144.00000,  -0.00177,  -0.00278,   0.00126,  64.00000,   2.00000
-535983141.08207,-371965295.17314,-28193813.19550,  -0.00348,  -0.00343,   0.00089,479816256.00000,   0.00333,278207552.00000,  -0.00177,  -0.00279,   0.00126,  96.00000,   2.00000
-535766767.69222,-372195118.61179,-28829294.24821,  -0.00349,  -0.00344,   0.00088,479841376.00000,   0.00334,278212992.00000,  -0.00178,  -0.00279,   0.00126, -32.00000,   2.00000
-535545269.81224,-372430649.13446,-29466266.50583,  -0.00349,  -0.00344,   0.00087,479877632.00000,   0.00334,278218560.00000,  -0.00178,  -0.00279,   0.00126,  96.00000,   2.00000
-535321497.19730,-372663451.96701,-30100828.06648,  -0.00350,  -0.00344,   0.00086,479886080.00000,   0.00335,278224128.00000,  -0.00179,  -0.00279,   0.00126, -32.00000,   2.00000
-535094371.11170,-372892731.05848,-30738479.72480,  -0.00350,  -0.00345,   0.00085,479895200.00000,   0.00335,278229696.00000,  -0.00180,  -0.00279,   0.00125,  96.00000,   2.00000
-534861648.49674,-373131394.52791,-31372662.22167,  -0.00351,  -0.00345,   0.00084,479913984.00000,   0.00336,278235328.00000,  -0.00180,  -0.00280,   0.00125,  96.00000,   2.00000
-534624903.70560,-373371558.07042,-32006350.40046,  -0.00351,  -0.00345,   0.00083,479967072.00000,   0.00336,278241120.00000,  -0.00181,  -0.00280,   0.00125,  64.00000,   2.00000
-534382951.12496,-373611136.00334,-32644083.27287,  -0.00352,  -0.00346,   0.00082,479960032.00000,   0.00337,278246848.00000,  -0.00181,  -0.00280,   0.00125,   0.00000,   2.00000
-534141721.46359,-373845129.45874,-33272010.51345,  -0.00352,  -0.00346,   0.00081,479983360.00000,   0.00338,278252672.00000,  -0.00182,  -0.00280,   0.00125, -32.00000,   2.00000
-533892298.51036,-374086557.62460,-33907401.19422,  -0.00353,  -0.00346,   0.00080,480004576.00000,   0.00338,278258528.00000,  -0.00183,  -0.00280,   0.00125, -96.00000,   2.00000
-533642318.85097,-374321456.92843,-34538469.67738,  -0.00353,  -0.00347,   0.00079,480029376.00000,   0.00339,278264448.00000,  -0.00183,  -0.00281,   0.00124,   0.00000,   2.00000
-533386771.06079,-374560921.26052,-35169841.57520,  -0.00354,  -0.00347,   0.00078,480066144.00000,   0.00339,278270464.00000,  -0.00184,  -0.00281,   0.00124, -64.00000,   2.00000
-533129174.07579,-374797267.53276,-35798175.75583,  -0.00354,  -0.00348,   0.00077,480074496.00000,   0.00340,278276512.00000,  -0.00185,  -0.00281,   0.00124,  32.00000,   2.00000
-532864679.54384,-375041683.52087,-36428118.26556,  -0.00355,  -0.00348,   0.00076,480094816.00000,   0.00340,278282592.00000,  -0.00185,  -0.00281,   0.00124,   0.00000,   2.00000
-532599772.45561,-375279437.18371,-37053506.02433,  -0.00355,  -0.00348,   0.00075,480119680.00000,   0.00341,278288736.00000,  -0.00186,  -0.00281,   0.00123, -32.00000,   2.00000
-532329502.42265,-375526157.71864,-37674815.71105,  -0.00356,  -0.00349,   0.00074,480138848.00000,   0.00342,278294912.00000,  -0.00187,  -0.00282,   0.00123, -64.00000,   2.00000
-532056018.76249,-375764254.08800,-38302651.92473,  -0.00356,  -0.00349,   0.00073,480166656.00000,   0.00342,278301184.00000,  -0.00187,  -0.00282,   0.00123,  32.00000,   2.00000
-531782025.28828,-376000069.06946,-38921707.89803,  -0.00357,  -0.00349,   0.00072,480174016.00000,   0.00343,278307456.00000,  -0.00188,  -0.00282,   0.00123,  32.00000,   2.00000
-531501352.86896,-376239245.21182,-39546142.91600,  -0.00357,  -0.00350,   0.00071,480212608.00000,   0.00343,278313856.00000,  -0.00189,  -0.00282,   0.00123,  32.00000,   2.00000
-531217111.27213,-376483721.09920,-40164681.39384,  -0.00358,  -0.00350,   0.00070,480248608.00000,   0.00344,278320320.00000,  -0.00190,  -0.00282,   0.00122,  32.00000,   2.00000
-530934648.10400,-376712960.83005,-40781012.22247,  -0.00358,  -0.00351,   0.00069,480246784.00000,   0.00345,278326784.00000,  -0.00190,  -0.00283,   0.00122,  96.00000,   2.00000
-530641736.93275,-376961838.05607,-41397449.70683,  -0.00359,  -0.00351,   0.00068,480278976.00000,   0.00345,278333312.00000,  -0.00191,  -0.00283,   0.00122,  32.00000,   2.00000
-530352471.08940,-377191969.19560,-42010014.51621,  -0.00359,  -0.00351,   0.00067,480293440.00000,   0.00346,278339904.00000,  -0.00192,  -0.00283,   0.00122,  64.00000,   2.00000
-530058153.85577,-377426205.60013,-42621994.74364,  -0.00360,  -0.00352,   0.00066,480331200.00000,   0.00347,278346560.00000,  -0.00192,  -0.00283,   0.00121,  32.00000,   2.00000
-529758762.80803,-377669147.95962,-43229470.47979,  -0.00360,  -0.00352,   0.00065,480351200.00000,   0.00347,278353312.00000,  -0.00193,  -0.00284,   0.00121, -32.00000,   2.00000
-529458085.64041,-377904222.86425,-43837386.90521,  -0.00361,  -0.00353,   0.00064,480378368.00000,   0.00348,278360096.00000,  -0.00194,  -0.00284,   0.00121,  64.00000,   2.00000
-529155755.60796,-378135938.28222,-44441884.59214,  -0.00362,  -0.00353,   0.00063,480387840.00000,   0.00349,278366880.00000,  -0.00195,  -0.00284,   0.00120,   0.00000,   2.00000
-528848689.07528,-378371689.86498,-45045545.59947,  -0.00362,  -0.00353,   0.00062,480425984.00000,   0.00349,278373792.00000,  -0.00195,  -0.00284,   0.00120,  32.00000,   2.00000
-528540207.33075,-378604172.32773,-45645769.21045,  -0.00363,  -0.00354,   0.00061,480435680.00000,   0.00350,278380704.00000,  -0.00196,  -0.00285,   0.00120, -32.00000,   2.00000
-528228915.07130,-378837024.66123,-46243189.59940,  -0.00363,  -0.00354,   0.00059,480490304.00000,   0.00351,278387808.00000,  -0.00197,  -0.00285,   0.00120, -32.00000,   2.00000
-527914277.92645,-379070103.28007,-46838983.20361,  -0.00364,  -0.00355,   0.00058,480483776.00000,   0.00351,278394816.00000,  -0.00198,  -0.00285,   0.00119,-160.00000,   2.00000
-527597335.85955,-379303728.38099,-47431849.11547,  -0.00364,  -0.00355,   0.00057,480538592.00000,   0.00352,278402016.00000,  -0.00198,  -0.00285,   0.00119, 128.00000,   2.00000
-527276812.06554,-379537402.39486,-48023085.50733,  -0.00365,  -0.00356,   0.00056,480532512.00000,   0.00353,278409184.00000,  -0.00199,  -0.00286,   0.00119, -64.00000,   2.00000
-526957328.66064,-379759542.73696,-48612505.65659,  -0.00366,  -0.00356,   0.00055,480576544.00000,   0.00353,278416448.00000,  -0.00200,  -0.00286,   0.00118, -32.00000,   2.00000
-526633277.01922,-379990381.68547,-49197119.14394,  -0.00366,  -0.00356,   0.00054,480597344.00000,   0.00354,278423776.00000,  -0.00201,  -0.00286,   0.00118, -64.00000,   2.00000
-526310377.46687,-380214596.79931,-49776289.51786,  -0.00367,  -0.00357,   0.00053,480623584.00000,   0.00355,278431136.00000,  -0.00201,  -0.00286,   0.00118,  32.00000,   2.00000
-525980834.56927,-380446036.72747,-50356099.68343,  -0.00367,  -0.00357,   0.00052,480646560.00000,   0.00355,278438560.00000,  -0.00202,  -0.00287,   0.00117,   0.00000,   2.00000
-525650595.23659,-380669519.06200,-50935886.80644,  -0.00368,  -0.00358,   0.00051,480674560.00000,   0.00356,278446080.00000,  -0.00203,  -0.00287,   0.00117,  32.00000,   2.00000
-525321490.55948,-380886298.16869,-51510109.96579,  -0.00369,  -0.00358,   0.00049,480701120.00000,   0.00357,278453632.00000,  -0.00204,  -0.00287,   0.00116, -64.00000,   2.00000
-524990305.41776,-381108325.60780,-52077389.85826,  -0.00369,  -0.00359,   0.00048,480738432.00000,   0.00358,278461312.00000,  -0.00205,  -0.00288,   0.00116,   0.00000,   2.00000
-524656334.22097,-381325965.63226,-52646641.56177,  -0.00370,  -0.00359,   0.00047,480750624.00000,   0.00358,278468992.00000,  -0.00205,  -0.00288,   0.00116, 128.00000,   2.00000
-524317781.55444,-381552120.89542,-53210924.80421,  -0.00370,  -0.00360,   0.00046,480772032.00000,   0.00359,278476736.00000,  -0.00206,  -0.00288,   0.00115,   0.00000,   2.00000
-523981231.01368,-381766939.37015,-53772960.46462,  -0.00371,  -0.00360,   0.00045,480816320.00000,   0.00360,278484576.00000,  -0.00207,  -0.00289,   0.00115,   0.00000,   2.00000
-523643896.65690,-381978735.52997,-54331468.92964,  -0.00372,  -0.00360,   0.00044,480826880.00000,   0.00361,278492416.00000,  -0.00208,  -0.00289,   0.00114, 160.00000,   2.00000
-523302652.24949,-382194349.18504,-54888290.86123,  -0.00372,  -0.00361,   0.00043,480866272.00000,   0.00361,278500384.00000,  -0.00209,  -0.00289,   0.00114, 128.00000,   2.00000
-522960809.35374,-382407036.00383,-55441595.42891,  -0.00373,  -0.00361,   0.00042,480876768.00000,   0.00362,278508384.00000,  -0.00210,  -0.00289,   0.00114,  96.00000,   2.00000
-522620737.63156,-382613287.63480,-55989202.35295,  -0.00374,  -0.00362,   0.00040,480903360.00000,   0.00363,278516416.00000,  -0.00210,  -0.00290,   0.00113,  64.00000,   2.00000
-522276906.24393,-382823375.00025,-56535016.72318,  -0.00374,  -0.00362,   0.00039,480942816.00000,   0.00364,278524544.00000,  -0.00211,  -0.00290,   0.00113,   0.00000,   2.00000
-521932865.40432,-383025612.28999,-57080510.25679,  -0.00375,  -0.00363,   0.00038,480971232.00000,   0.00364,278532768.00000,  -0.00212,  -0.00290,   0.00112,   0.00000,   2.00000
-521585039.18167,-383236805.24540,-57620946.84314,  -0.00376,  -0.00363,   0.00037,480992832.00000,   0.00365,278541024.00000,  -0.00213,  -0.00291,   0.00112,  64.00000,   2.00000
-521239232.03127,-383441618.11892,-58155594.03326,  -0.00376,  -0.00364,   0.00036,481019392.00000,   0.00366,278549344.00000,  -0.00214,  -0.00291,   0.00111,  32.00000,   2.00000
-520895641.62566,-383640208.96896,-58684467.88899,  -0.00377,  -0.00364,   0.00035,481045952.00000,   0.00367,278557728.00000,  -0.00215,  -0.00291,   0.00111, -96.00000,   2.00000
-520546218.32709,-383846309.05632,-59213699.48140,  -0.00378,  -0.00365,   0.00034,481069568.00000,   0.00368,278566176.00000,  -0.00216,  -0.00292,   0.00110,  64.00000,   2.00000
-520199251.85578,-384041001.11321,-59740153.33486,  -0.00378,  -0.00365,   0.00032,481114240.00000,   0.00369,278574720.00000,  -0.00217,  -0.00292,   0.00110,  32.00000,   2.00000
-519848753.88900,-384244750.71963,-60261489.56701,  -0.00379,  -0.00366,   0.00031,481135776.00000,   0.00369,278583328.00000,  -0.00217,  -0.00292,   0.00110,   0.00000,   2.00000
-519504329.95405,-384430849.18921,-60778625.35987,  -0.00380,  -0.00366,   0.00030,481151392.00000,   0.00370,278591936.00000,  -0.00218,  -0.00293,   0.00109,  96.00000,   2.00000
-519150379.49983,-384635850.10996,-61294336.51915,  -0.00380,  -0.00367,   0.00029,481186400.00000,   0.00371,278600672.00000,  -0.00219,  -0.00293,   0.00109,  64.00000,   2.00000
-518802489.68997,-384823140.84849,-61805818.86212,  -0.00381,  -0.00367,   0.00028,481201888.00000,   0.00372,278609408.00000,  -0.00220,  -0.00293,   0.00108,   0.00000,   2.00000
-518454007.45347,-385016137.48643,-62309756.97598,  -0.00382,  -0.00368,   0.00026,481239360.00000,   0.00373,278618240.00000,  -0.00221,  -0.00294,   0.00107,  32.00000,   2.00000
-518105998.68839,-385201539.54683,-62813175.47775,  -0.00383,  -0.00368,   0.00025,481268224.00000,   0.00374,278627168.00000,  -0.00222,  -0.00294,   0.00107,  64.00000,   2.00000
-517757342.88377,-385392530.62109,-63308954.91706,  -0.00383,  -0.00369,   0.00024,481305952.00000,   0.00374,278636160.00000,  -0.00223,  -0.00294,   0.00106,  32.00000,   2.00000
-517409931.88756,-385567883.59270,-63808357.79320,  -0.00384,  -0.00369,   0.00023,481307968.00000,   0.00375,278645152.00000,  -0.00224,  -0.00295,   0.00106,  64.00000,   2.00000
-517061450.24314,-385757021.72311,-64295851.23974,  -0.00385,  -0.00370,   0.00022,481372608.00000,   0.00376,278654336.00000,  -0.00225,  -0.00295,   0.00105,  64.00000,   2.00000
-516716637.96670,-385932206.33764,-64781638.24325,  -0.00386,  -0.00370,   0.00021,481372288.00000,   0.00377,278663456.00000,  -0.00226,  -0.00296,   0.00105,   0.00000,   2.00000
-516366244.86492,-386114898.43677,-65267566.26515,  -0.00386,  -0.00371,   0.00019,481396576.00000,   0.00378,278672672.00000,  -0.00227,  -0.00296,   0.00104,  96.00000,   2.00000
-516022036.54198,-386288387.80674,-65744989.47542,  -0.00387,  -0.00371,   0.00018,481439008.00000,   0.00379,278681984.00000,  -0.00228,  -0.00296,   0.00104,  64.00000,   2.00000
-515672099.67224,-386469218.41475,-66222483.42041,  -0.00388,  -0.00372,   0.00017,481463552.00000,   0.00380,278691328.00000,  -0.00229,  -0.00297,   0.00103,   0.00000,   2.00000
-515332102.87272,-386629504.22426,-66693235.20575,  -0.00389,  -0.00372,   0.00016,481494784.00000,   0.00381,278700768.00000,  -0.00229,  -0.00297,   0.00102,  32.00000,   2.00000
-514989121.94565,-386799106.03535,-67158742.31109,  -0.00389,  -0.00373,   0.00015,481516960.00000,   0.00382,278710272.00000,  -0.00230,  -0.00297,   0.00102,  32.00000,   2.00000
-514646257.38292,-386974561.14722,-67616424.98596,  -0.00390,  -0.00374,   0.00013,481554848.00000,   0.00383,278719840.00000,  -0.00231,  -0.00298,   0.00101,  96.00000,   2.00000
-514304640.98397,-387134395.15381,-68077842.37545,  -0.00391,  -0.00374,   0.00012,481557312.00000,   0.00383,278729408.00000,  -0.00232,  -0.00298,   0.00101,  32.00000,   2.00000
-513963870.27983,-387295007.07469,-68534064.00082,  -0.00392,  -0.00375,   0.00011,481613184.00000,   0.00384,278739104.00000,  -0.00233,  -0.00299,   0.00100,   0.00000,   2.00000
-513623021.41874,-387466850.19233,-68979732.36215,  -0.00393,  -0.00375,   0.00010,481633056.00000,   0.00385,278748864.00000,  -0.00234,  -0.00299,   0.00099, 128.00000,   2.00000
-513289700.95447,-387616289.40883,-69423876.61056,  -0.00393,  -0.00376,   0.00008,481666976.00000,   0.00386,278758720.00000,  -0.00235,  -0.00299,   0.00099,   0.00000,   2.00000
-512951182.44870,-387773366.13936,-69868050.57348,  -0.00394,  -0.00376,   0.00007,481691808.00000,   0.00387,278768608.00000,  -0.00236,  -0.00300,   0.00098,  64.00000,   2.00000
-512619198.14967,-387926835.42716,-70300886.56985,  -0.00395,  -0.00377,   0.00006,481716256.00000,   0.00388,278778560.00000,  -0.00237,  -0.00300,   0.00097, -32.00000,   2.00000
-512288638.87950,-388073078.89569,-70732987.31010,  -0.00396,  -0.00377,   0.00005,481745664.00000,   0.00389,278788544.00000,  -0.00238,  -0.00301,   0.00097, 128.00000,   2.00000
-511955871.68300,-388223341.00404,-71162335.09601,  -0.00397,  -0.00378,   0.00004,481786368.00000,   0.00390,278798656.00000,  -0.00239,  -0.00301,   0.00096,  64.00000,   2.00000
-511626816.34528,-388373625.04285,-71583111.09418,  -0.00397,  -0.00378,   0.00002,481795168.00000,   0.00391,278808800.00000,  -0.00240,  -0.00301,   0.00095,  64.00000,   2.00000
-511302513.55455,-388513269.38512,-72000376.41090,  -0.00398,  -0.00379,   0.00001,481840288.00000,   0.00392,278819008.00000,  -0.00241,  -0.00302,   0.00095,  96.00000,   2.00000
-510973052.53117,-388660454.57556,-72417616.55490,  -0.00399,  -0.00380,  -0.00000,481865536.00000,   0.00393,278829312.00000,  -0.00242,  -0.00302,   0.00094,  64.00000,   2.00000
-510653936.10832,-388792848.69172,-72825521.20514,  -0.00400,  -0.00380,  -0.00001,481879008.00000,   0.00394,278839616.00000,  -0.00243,  -0.00303,   0.00093,   0.00000,   2.00000
