# sigma_xx, sigma_yy, sigma_xy, epsilon_xx, epsilon_yy, epsilon_xy, vonMises, epsPlastic, hardening, epsilonP__xx, epsilonP__yy, epsilonP__xy, yieldValue, iteration
   0.00000,   0.00000,   0.00000,   0.00000,   0.00000,   0.00000,   0.00000,   0.00000,274640135.82653,   0.00000,   0.00000,   0.00000,-474640135.82653,   0.00000
   0.00000,   0.00000,   0.00000,   0.00000,   0.00000,   0.00000,   0.00000,   0.00000,274640135.82653,   0.00000,   0.00000,   0.00000,-474640135.82653,   0.00000
-1211475.36386,-1031997.53218,106564.96256,  -0.00000,  -0.00000,   0.00000,1147397.12027,   0.00000,274640135.82653,   0.00000,   0.00000,   0.00000,-473492738.70626,   0.00000
-2431363.75109,-2083625.45220,213129.92512,  -0.00001,  -0.00000,   0.00000,2307216.16126,   0.00000,274640135.82653,   0.00000,   0.00000,   0.00000,-472332919.66527,   0.00000
-3623208.72711,-3107209.96102,314086.20545,  -0.00001,  -0.00001,   0.00000,3438062.74051,   0.00000,274640135.82653,   0.00000,   0.00000,   0.00000,-471202073.08602,   0.00000
-4803836.33865,-4142011.83432,415042.48577,  -0.00001,  -0.00001,   0.00001,4566436.18529,   0.00000,274640135.82653,   0.00000,   0.00000,   0.00000,-470073699.64124,   0.00000
-5956420.53899,-5148770.29642,510390.08385,  -0.00002,  -0.00001,   0.00001,5665865.70363,   0.00000,274640135.82653,   0.00000,   0.00000,   0.00000,-468974270.12290,   0.00000
-7089374.35150,-6147115.73516,605737.68193,  -0.00002,  -0.00001,   0.00001,6750393.34754,   0.00000,274640135.82653,   0.00000,   0.00000,   0.00000,-467889742.47899,   0.00000
-8230741.18736,-7165091.56174,695476.59777,  -0.00002,  -0.00002,   0.00001,7846061.84319,   0.00000,274640135.82653,   0.00000,   0.00000,   0.00000,-466794073.98334,   0.00000
-9344064.61202,-8155023.97712,785215.51362,  -0.00003,  -0.00002,   0.00001,8914290.70620,   0.00000,274640135.82653,   0.00000,   0.00000,   0.00000,-465725845.12033,   0.00000
-10437757.64884,-9136543.36914,874954.42946,  -0.00003,  -0.00002,   0.00001,9967688.78917,   0.00000,274640135.82653,   0.00000,   0.00000,   0.00000,-464672447.03736,   0.00000
-11539863.70902,-10137693.14899,959084.66306,  -0.00003,  -0.00002,   0.00001,11032370.99247,   0.00000,274640135.82653,   0.00000,   0.00000,   0.00000,-463607764.83406,   0.00000
-12594295.97016,-11102386.49429,1043214.89666,  -0.00004,  -0.00003,   0.00001,12054767.82565,   0.00000,274640135.82653,   0.00000,   0.00000,   0.00000,-462585368.00088,   0.00000
-13648728.23130,-12067079.83959,1121736.44802,  -0.00004,  -0.00003,   0.00001,13075809.07200,   0.00000,274640135.82653,   0.00000,   0.00000,   0.00000,-461564326.75453,   0.00000
-14711573.51580,-13051403.57273,1200257.99938,  -0.00004,  -0.00003,   0.00002,14109737.95574,   0.00000,274640135.82653,   0.00000,   0.00000,   0.00000,-460530397.87079,   0.00000
-15726745.00126,-13999270.87131,1278779.55074,  -0.00004,  -0.00003,   0.00002,15101422.49871,   0.00000,274640135.82653,   0.00000,   0.00000,   0.00000,-459538713.32782,   0.00000
-16741916.48672,-14947138.16989,1351692.41987,  -0.00005,  -0.00004,   0.00002,16091804.91294,   0.00000,274640135.82653,   0.00000,   0.00000,   0.00000,-458548330.91359,   0.00000
-17737457.58434,-15886592.44511,1424605.28899,  -0.00005,  -0.00004,   0.00002,17067570.48049,   0.00000,274640135.82653,   0.00000,   0.00000,   0.00000,-457572565.34604,   0.00000
-18741411.70532,-16845677.10816,1491909.47587,  -0.00005,  -0.00004,   0.00002,18054998.24022,   0.00000,274640135.82653,   0.00000,   0.00000,   0.00000,-456585137.58631,   0.00000
-19697692.02726,-17768305.33666,1564822.34499,  -0.00005,  -0.00004,   0.00002,19001661.67165,   0.00000,274640135.82653,   0.00000,   0.00000,   0.00000,-455638474.15488,   0.00000
-20653972.34920,-18690933.56516,1626517.84963,  -0.00006,  -0.00004,   0.00002,19945732.05597,   0.00000,274640135.82653,   0.00000,   0.00000,   0.00000,-454694403.77056,   0.00000
-21610252.67113,-19613561.79366,1693822.03651,  -0.00006,  -0.00005,   0.00002,20891335.52160,   0.00000,274640135.82653,   0.00000,   0.00000,   0.00000,-453748800.30493,   0.00000
-22535685.24075,-20538994.36327,1755517.54115,  -0.00006,  -0.00005,   0.00002,21819546.56047,   0.00000,274640135.82653,   0.00000,   0.00000,   0.00000,-452820589.26606,   0.00000
-23452704.78701,-21444796.54505,1817213.04579,  -0.00006,  -0.00005,   0.00002,22734928.36712,   0.00000,274640135.82653,   0.00000,   0.00000,   0.00000,-451905207.45941,   0.00000
-24369724.33327,-22350598.72683,1873299.86820,  -0.00007,  -0.00005,   0.00002,23649155.48301,   0.00000,274640135.82653,   0.00000,   0.00000,   0.00000,-450990980.34352,   0.00000
-25247483.10384,-23239574.86189,1929386.69060,  -0.00007,  -0.00006,   0.00003,24534466.94305,   0.00000,274640135.82653,   0.00000,   0.00000,   0.00000,-450105668.88348,   0.00000
-26125241.87442,-24128550.99694,1985473.51300,  -0.00007,  -0.00006,   0.00003,25420018.10674,   0.00000,274640135.82653,   0.00000,   0.00000,   0.00000,-449220117.71979,   0.00000
-27003000.64500,-25017527.13200,2035951.65316,  -0.00007,  -0.00006,   0.00003,26304480.67829,   0.00000,274640135.82653,   0.00000,   0.00000,   0.00000,-448335655.14824,   0.00000
-27841498.63989,-25889677.22034,2092038.47556,  -0.00008,  -0.00006,   0.00003,27161496.55157,   0.00000,274640135.82653,   0.00000,   0.00000,   0.00000,-447478639.27496,   0.00000
-28679996.63479,-26761827.30867,2136907.93348,  -0.00008,  -0.00007,   0.00003,28016202.76315,   0.00000,274640135.82653,   0.00000,   0.00000,   0.00000,-446623933.06338,   0.00000
-29518494.62969,-27633977.39701,2187386.07364,  -0.00008,  -0.00007,   0.00003,28872457.32695,   0.00000,274640135.82653,   0.00000,   0.00000,   0.00000,-445767678.49958,   0.00000
-30317731.84890,-28489301.43863,2232255.53156,  -0.00008,  -0.00007,   0.00003,29698872.93516,   0.00000,274640135.82653,   0.00000,   0.00000,   0.00000,-444941262.89137,   0.00000
-31116969.06812,-29344625.48024,2277124.98948,  -0.00008,  -0.00007,   0.00003,30525610.55623,   0.00000,274640135.82653,   0.00000,   0.00000,   0.00000,-444114525.27029,   0.00000
-31916206.28733,-30199949.52186,2321994.44740,  -0.00009,  -0.00008,   0.00003,31352644.71672,   0.00000,274640135.82653,   0.00000,   0.00000,   0.00000,-443287491.10981,   0.00000
-32695813.11871,-31046860.54012,2361255.22309,  -0.00009,  -0.00008,   0.00003,32164389.83463,   0.00000,274640135.82653,   0.00000,   0.00000,   0.00000,-442475745.99190,   0.00000
-33455789.56224,-31885358.53501,2406124.68101,  -0.00009,  -0.00008,   0.00003,32963379.78450,   0.00000,274640135.82653,   0.00000,   0.00000,   0.00000,-441676756.04203,   0.00000
-34215766.00578,-32723856.52991,2439776.77445,  -0.00009,  -0.00008,   0.00003,33760259.83084,   0.00000,274640135.82653,   0.00000,   0.00000,   0.00000,-440879875.99569,   0.00000
-34947699.03811,-33534311.11360,2479037.55013,  -0.00009,  -0.00008,   0.00003,34530878.34386,   0.00000,274640135.82653,   0.00000,   0.00000,   0.00000,-440109257.48267,   0.00000
-35668414.70596,-34355983.06178,2512689.64357,  -0.00010,  -0.00009,   0.00003,35299954.05144,   0.00000,274640135.82653,   0.00000,   0.00000,   0.00000,-439340181.77509,   0.00000
-36389130.37382,-35177655.00996,2546341.73701,  -0.00010,  -0.00009,   0.00003,36069426.32874,   0.00000,274640135.82653,   0.00000,   0.00000,   0.00000,-438570709.49779,   0.00000
-37090215.65383,-35990913.93477,2579993.83045,  -0.00010,  -0.00009,   0.00003,36825104.59163,   0.00000,274640135.82653,   0.00000,   0.00000,   0.00000,-437815031.23490,   0.00000
-37782887.91049,-36784542.47175,2613645.92389,  -0.00010,  -0.00009,   0.00003,37567490.91582,   0.00000,274640135.82653,   0.00000,   0.00000,   0.00000,-437072644.91071,   0.00000
-38464342.80266,-37589388.37320,2641689.33509,  -0.00010,  -0.00010,   0.00003,38308644.36406,   0.00000,274640135.82653,   0.00000,   0.00000,   0.00000,-436331491.46247,   0.00000
-39117754.28363,-38366190.86346,2675341.42853,  -0.00010,  -0.00010,   0.00003,39023536.87005,   0.00000,274640135.82653,   0.00000,   0.00000,   0.00000,-435616598.95648,   0.00000
-39779578.78796,-39162623.74155,2703384.83973,  -0.00010,  -0.00010,   0.00004,39751455.05481,   0.00000,274640135.82653,   0.00000,   0.00000,   0.00000,-434888680.77172,   0.00000
-40421772.90446,-39950643.59629,2725819.56869,  -0.00011,  -0.00010,   0.00004,40464652.26125,   0.00000,274640135.82653,   0.00000,   0.00000,   0.00000,-434175483.56528,   0.00000
-41055553.99759,-40719033.06318,2753862.97989,  -0.00011,  -0.00011,   0.00004,41165604.46453,   0.00000,274640135.82653,   0.00000,   0.00000,   0.00000,-433474531.36200,   0.00000
-41669704.70288,-41479009.50672,2776297.70885,  -0.00011,  -0.00011,   0.00004,41851856.93700,   0.00000,274640135.82653,   0.00000,   0.00000,   0.00000,-432788278.88953,   0.00000
-42292268.43153,-42258616.33809,2798732.43781,  -0.00011,  -0.00011,   0.00004,42552468.64701,   0.00000,274640135.82653,   0.00000,   0.00000,   0.00000,-432087667.17952,   0.00000
-42886788.74898,-43010179.75827,2821167.16677,  -0.00011,  -0.00011,   0.00004,43225694.57208,   0.00000,274640135.82653,   0.00000,   0.00000,   0.00000,-431414441.25445,   0.00000
-43470091.70195,-43772960.54292,2843601.89573,  -0.00011,  -0.00011,   0.00004,43899482.38449,   0.00000,274640135.82653,   0.00000,   0.00000,   0.00000,-430740653.44204,   0.00000
-44044981.63157,-44516110.93973,2860427.94245,  -0.00011,  -0.00012,   0.00004,44558718.51295,   0.00000,274640135.82653,   0.00000,   0.00000,   0.00000,-430081417.31358,   0.00000
-44619871.56118,-45259261.33655,2882862.67142,  -0.00011,  -0.00012,   0.00004,45219508.38545,   0.00000,274640135.82653,   0.00000,   0.00000,   0.00000,-429420627.44108,   0.00000
-45155500.71511,-45985585.68664,2899688.71814,  -0.00012,  -0.00012,   0.00004,45852107.61136,   0.00000,274640135.82653,   0.00000,   0.00000,   0.00000,-428788028.21517,   0.00000
-45710760.25688,-46720323.06010,2916514.76486,  -0.00012,  -0.00012,   0.00004,46499020.19074,   0.00000,274640135.82653,   0.00000,   0.00000,   0.00000,-428141115.63579,   0.00000
-46246389.41081,-47446647.41019,2933340.81158,  -0.00012,  -0.00013,   0.00004,47132687.34737,   0.00000,274640135.82653,   0.00000,   0.00000,   0.00000,-427507448.47916,   0.00000
-46762388.17690,-48164558.73692,2950166.85830,  -0.00012,  -0.00013,   0.00004,47753181.33674,   0.00000,274640135.82653,   0.00000,   0.00000,   0.00000,-426886954.48979,   0.00000
-47278386.94299,-48882470.06366,2961384.22278,  -0.00012,  -0.00013,   0.00004,48373203.39404,   0.00000,274640135.82653,   0.00000,   0.00000,   0.00000,-426266932.43249,   0.00000
-47774755.32124,-49591968.36703,2978210.26950,  -0.00012,  -0.00013,   0.00004,48981176.25288,   0.00000,274640135.82653,   0.00000,   0.00000,   0.00000,-425658959.57365,   0.00000
-48271123.69949,-50301466.67041,2989427.63398,  -0.00012,  -0.00013,   0.00004,49588714.89794,   0.00000,274640135.82653,   0.00000,   0.00000,   0.00000,-425051420.92859,   0.00000
-48747861.68990,-51002551.95042,3000644.99846,  -0.00012,  -0.00014,   0.00004,50183269.99810,   0.00000,274640135.82653,   0.00000,   0.00000,   0.00000,-424456865.82843,   0.00000
-49224599.68031,-51703637.23043,3011862.36294,  -0.00012,  -0.00014,   0.00004,50778444.40842,   0.00000,274640135.82653,   0.00000,   0.00000,   0.00000,-423861691.41811,   0.00000
-49681707.28287,-52396309.48709,3023079.72742,  -0.00012,  -0.00014,   0.00004,51360726.32744,   0.00000,274640135.82653,   0.00000,   0.00000,   0.00000,-423279409.49909,   0.00000
-50130401.86208,-53069351.35590,3034297.09190,  -0.00012,  -0.00014,   0.00004,51929242.34653,   0.00000,274640135.82653,   0.00000,   0.00000,   0.00000,-422710893.48000,   0.00000
-50587509.46465,-53762023.61255,3045514.45638,  -0.00013,  -0.00015,   0.00004,52512759.33834,   0.00000,274640135.82653,   0.00000,   0.00000,   0.00000,-422127376.48819,   0.00000
-51024986.67938,-54446282.84585,3051123.13862,  -0.00013,  -0.00015,   0.00004,53082522.37442,   0.00000,274640135.82653,   0.00000,   0.00000,   0.00000,-421557613.45211,   0.00000
-51434420.48291,-55102498.66794,3062340.50310,  -0.00013,  -0.00015,   0.00004,53626054.03894,   0.00000,274640135.82653,   0.00000,   0.00000,   0.00000,-421014081.78758,   0.00000
-51852267.30980,-55778344.87787,3067949.18534,  -0.00013,  -0.00015,   0.00004,54183804.50270,   0.00000,274640135.82653,   0.00000,   0.00000,   0.00000,-420456331.32382,   0.00000
-52261701.11332,-56434560.69996,3073557.86758,  -0.00013,  -0.00015,   0.00004,54727681.97895,   0.00000,274640135.82653,   0.00000,   0.00000,   0.00000,-419912453.84758,   0.00000
-52659917.55237,-57101993.88654,3079166.54982,  -0.00013,  -0.00016,   0.00004,55273521.07677,   0.00000,274640135.82653,   0.00000,   0.00000,   0.00000,-419366614.74976,   0.00000
-53030090.58022,-57741383.66191,3090383.91430,  -0.00013,  -0.00016,   0.00004,55793176.16459,   0.00000,274640135.82653,   0.00000,   0.00000,   0.00000,-418846959.66194,   0.00000
-53419893.99591,-58389186.46064,3095992.59654,  -0.00013,  -0.00016,   0.00004,56325780.32578,   0.00000,274640135.82653,   0.00000,   0.00000,   0.00000,-418314355.50075,   0.00000
-53778849.65927,-59039793.60049,3101601.27878,  -0.00013,  -0.00016,   0.00004,56847423.04261,   0.00000,274640135.82653,   0.00000,   0.00000,   0.00000,-417792712.78392,   0.00000
-54149022.68712,-59679183.37587,3101601.27878,  -0.00013,  -0.00017,   0.00004,57367341.95768,   0.00000,274640135.82653,   0.00000,   0.00000,   0.00000,-417272793.86885,   0.00000
-54499565.32713,-60310160.12788,3107209.96102,  -0.00013,  -0.00017,   0.00004,57875770.27516,   0.00000,274640135.82653,   0.00000,   0.00000,   0.00000,-416764365.55137,   0.00000
-54830477.57929,-60932723.85653,3112818.64326,  -0.00013,  -0.00017,   0.00004,58371882.60290,   0.00000,274640135.82653,   0.00000,   0.00000,   0.00000,-416268253.22363,   0.00000
-55161389.83146,-61555287.58518,3118427.32550,  -0.00013,  -0.00017,   0.00004,58868760.05244,   0.00000,274640135.82653,   0.00000,   0.00000,   0.00000,-415771375.77409,   0.00000
-55492302.08363,-62177851.31383,3118427.32550,  -0.00013,  -0.00017,   0.00004,59365498.76385,   0.00000,274640135.82653,   0.00000,   0.00000,   0.00000,-415274637.06268,   0.00000
-55803583.94795,-62792002.01913,3124036.00774,  -0.00013,  -0.00018,   0.00004,59850944.40362,   0.00000,274640135.82653,   0.00000,   0.00000,   0.00000,-414789191.42291,   0.00000
-56106452.78892,-63386522.33658,3129644.68998,  -0.00013,  -0.00018,   0.00004,60322270.87242,   0.00000,274640135.82653,   0.00000,   0.00000,   0.00000,-414317864.95411,   0.00000
-56398104.26540,-63992260.01851,3129644.68998,  -0.00013,  -0.00018,   0.00004,60795537.51684,   0.00000,274640135.82653,   0.00000,   0.00000,   0.00000,-413844598.30969,   0.00000
-56689755.74189,-64597997.70044,3135253.37222,  -0.00013,  -0.00018,   0.00004,61270502.22621,   0.00000,274640135.82653,   0.00000,   0.00000,   0.00000,-413369633.60032,   0.00000
-56981407.21837,-65203735.38237,3135253.37222,  -0.00013,  -0.00019,   0.00004,61745418.61177,   0.00000,274640135.82653,   0.00000,   0.00000,   0.00000,-412894717.21476,   0.00000
-57245015.28366,-65781429.65310,3140862.05446,  -0.00013,  -0.00019,   0.00004,62194246.99677,   0.00000,274640135.82653,   0.00000,   0.00000,   0.00000,-412445888.82976,   0.00000
-57517036.37230,-66378754.31167,3140862.05446,  -0.00013,  -0.00019,   0.00004,62658074.61345,   0.00000,274640135.82653,   0.00000,   0.00000,   0.00000,-411982061.21307,   0.00000
-57780644.43759,-66956448.58241,3146470.73670,  -0.00013,  -0.00019,   0.00004,63108501.52189,   0.00000,274640135.82653,   0.00000,   0.00000,   0.00000,-411531634.30464,   0.00000
-58024622.11503,-67525729.82978,3146470.73670,  -0.00013,  -0.00019,   0.00004,63546257.47054,   0.00000,274640135.82653,   0.00000,   0.00000,   0.00000,-411093878.35599,   0.00000
-58277012.81584,-68114641.46499,3152079.41894,  -0.00013,  -0.00020,   0.00004,64000809.25293,   0.00000,274640135.82653,   0.00000,   0.00000,   0.00000,-410639326.57360,   0.00000
-58501360.10544,-68675509.68900,3152079.41894,  -0.00013,  -0.00020,   0.00004,64427718.07599,   0.00000,274640135.82653,   0.00000,   0.00000,   0.00000,-410212417.75054,   0.00000
-58725707.39505,-69236377.91301,3157688.10118,  -0.00013,  -0.00020,   0.00004,64856321.56993,   0.00000,274640135.82653,   0.00000,   0.00000,   0.00000,-409783814.25660,   0.00000
-58950054.68465,-69797246.13702,3157688.10118,  -0.00013,  -0.00020,   0.00004,65284960.14744,   0.00000,274640135.82653,   0.00000,   0.00000,   0.00000,-409355175.67909,   0.00000
-59154771.58642,-70349701.33767,3157688.10118,  -0.00013,  -0.00020,   0.00004,65702054.36949,   0.00000,274640135.82653,   0.00000,   0.00000,   0.00000,-408938081.45704,   0.00000
-59359488.48818,-70902156.53832,3163296.78342,  -0.00013,  -0.00021,   0.00004,66120861.08150,   0.00000,274640135.82653,   0.00000,   0.00000,   0.00000,-408519274.74503,   0.00000
-59564205.38994,-71454611.73897,3168905.46566,  -0.00013,  -0.00021,   0.00004,66540550.18088,   0.00000,274640135.82653,   0.00000,   0.00000,   0.00000,-408099585.64565,   0.00000
-59749291.90387,-71998653.91626,3168905.46566,  -0.00013,  -0.00021,   0.00004,66948049.59661,   0.00000,274640135.82653,   0.00000,   0.00000,   0.00000,-407692086.22992,   0.00000
-59934378.41779,-72542696.09355,3174514.14790,  -0.00013,  -0.00021,   0.00004,67357283.89682,   0.00000,274640135.82653,   0.00000,   0.00000,   0.00000,-407282851.92971,   0.00000
-60111051.90835,-73067107.88300,3174514.14790,  -0.00013,  -0.00022,   0.00004,67751256.23479,   0.00000,274640135.82653,   0.00000,   0.00000,   0.00000,-406888879.59174,   0.00000
-60276508.03444,-73602737.03693,3180122.83014,  -0.00013,  -0.00022,   0.00004,68150156.95825,   0.00000,274640135.82653,   0.00000,   0.00000,   0.00000,-406489978.86828,   0.00000
-60441964.16052,-74138366.19086,3185731.51238,  -0.00013,  -0.00022,   0.00004,68550029.58870,   0.00000,274640135.82653,   0.00000,   0.00000,   0.00000,-406090106.23783,   0.00000
-60599007.26324,-74654364.95695,3191340.19462,  -0.00013,  -0.00022,   0.00004,68935385.98478,   0.00000,274640135.82653,   0.00000,   0.00000,   0.00000,-405704749.84175,   0.00000
-60756050.36597,-75170363.72304,3196948.87686,  -0.00013,  -0.00022,   0.00004,69321629.23868,   0.00000,274640135.82653,   0.00000,   0.00000,   0.00000,-405318506.58785,   0.00000
-60901876.10421,-75697579.85361,3202557.55910,  -0.00013,  -0.00023,   0.00004,69712313.14360,   0.00000,274640135.82653,   0.00000,   0.00000,   0.00000,-404927822.68293,   0.00000
-61039288.81909,-76205165.59634,3208166.24134,  -0.00013,  -0.00023,   0.00004,70088443.57425,   0.00000,274640135.82653,   0.00000,   0.00000,   0.00000,-404551692.25228,   0.00000
-61157071.14613,-76704338.31571,3213774.92358,  -0.00013,  -0.00023,   0.00004,70453638.93946,   0.00000,274640135.82653,   0.00000,   0.00000,   0.00000,-404186496.88707,   0.00000
-61294483.86102,-77211924.05844,3219383.60582,  -0.00013,  -0.00023,   0.00004,70831654.13797,   0.00000,274640135.82653,   0.00000,   0.00000,   0.00000,-403808481.68856,   0.00000
-61412266.18806,-77711096.77781,3224992.28806,  -0.00013,  -0.00023,   0.00004,71198793.28649,   0.00000,274640135.82653,   0.00000,   0.00000,   0.00000,-403441342.54004,   0.00000
-61510418.12726,-78201856.47382,3230600.97030,  -0.00013,  -0.00024,   0.00004,71555176.97552,   0.00000,274640135.82653,   0.00000,   0.00000,   0.00000,-403084958.85101,   0.00000
-61628200.45430,-78701029.19319,3241818.33478,  -0.00013,  -0.00024,   0.00004,71925047.39361,   0.00000,274640135.82653,   0.00000,   0.00000,   0.00000,-402715088.43292,   0.00000
-61726352.39351,-79191788.88920,3247427.01702,  -0.00013,  -0.00024,   0.00004,72283463.43615,   0.00000,274640135.82653,   0.00000,   0.00000,   0.00000,-402356672.39038,   0.00000
-61816091.30935,-79662918.19737,3258644.38150,  -0.00013,  -0.00024,   0.00004,72627926.75579,   0.00000,274640135.82653,   0.00000,   0.00000,   0.00000,-402012209.07074,   0.00000
-61894612.86071,-80145264.87002,3269861.74598,  -0.00013,  -0.00024,   0.00004,72977547.42403,   0.00000,274640135.82653,   0.00000,   0.00000,   0.00000,-401662588.40249,   0.00000
-61984351.77655,-80616394.17819,3275470.42822,  -0.00012,  -0.00025,   0.00004,73323216.37335,   0.00000,274640135.82653,   0.00000,   0.00000,   0.00000,-401316919.45318,   0.00000
-62062873.32791,-81098740.85084,3286687.79270,  -0.00012,  -0.00025,   0.00004,73674908.09474,   0.00000,274640135.82653,   0.00000,   0.00000,   0.00000,-400965227.73178,   0.00000
-62132981.85591,-81561457.13565,3297905.15718,  -0.00012,  -0.00025,   0.00004,74011828.26632,   0.00000,274640135.82653,   0.00000,   0.00000,   0.00000,-400628307.56021,   0.00000
-62203090.38391,-82024173.42045,3309122.52166,  -0.00012,  -0.00025,   0.00004,74349736.25555,   0.00000,274640135.82653,   0.00000,   0.00000,   0.00000,-400290399.57098,   0.00000
-62253568.52408,-82478476.68190,3325948.56838,  -0.00012,  -0.00025,   0.00004,74678057.09517,   0.00000,274640135.82653,   0.00000,   0.00000,   0.00000,-399962078.73136,   0.00000
-62312459.68760,-82952410.33119,3337165.93286,  -0.00012,  -0.00026,   0.00004,75022572.04810,   0.00000,274640135.82653,   0.00000,   0.00000,   0.00000,-399617563.77843,   0.00000
-62354524.80440,-83387083.20480,3348383.29734,  -0.00012,  -0.00026,   0.00004,75336348.94952,   0.00000,274640135.82653,   0.00000,   0.00000,   0.00000,-399303786.87701,   0.00000
-62405002.94456,-83841386.46625,3365209.34406,  -0.00012,  -0.00026,   0.00004,75667789.77596,   0.00000,274640135.82653,   0.00000,   0.00000,   0.00000,-398972346.05057,   0.00000
-62435850.69688,-84287276.70434,3382035.39078,  -0.00012,  -0.00026,   0.00004,75989125.09479,   0.00000,274640135.82653,   0.00000,   0.00000,   0.00000,-398651010.73174,   0.00000
-62466698.44920,-84733166.94243,3398861.43751,  -0.00012,  -0.00026,   0.00004,76311556.03454,   0.00000,274640135.82653,   0.00000,   0.00000,   0.00000,-398328579.79199,   0.00000
-62508763.56600,-85167839.81604,3415687.48423,  -0.00012,  -0.00027,   0.00004,76630091.09979,   0.00000,274640135.82653,   0.00000,   0.00000,   0.00000,-398010044.72674,   0.00000
-62519980.93048,-85605317.03076,3432513.53095,  -0.00012,  -0.00027,   0.00004,76943628.57699,   0.00000,274640135.82653,   0.00000,   0.00000,   0.00000,-397696507.24953,   0.00000
-62542415.65944,-86031576.88101,3449339.57767,  -0.00012,  -0.00027,   0.00004,77253201.65914,   0.00000,274640135.82653,   0.00000,   0.00000,   0.00000,-397386934.16738,   0.00000
-62553633.02392,-86469054.09574,3471774.30663,  -0.00012,  -0.00027,   0.00005,77569713.76369,   0.00000,274640135.82653,   0.00000,   0.00000,   0.00000,-397070422.06284,   0.00000
-62576067.75288,-86895313.94599,3488600.35335,  -0.00012,  -0.00027,   0.00005,77881344.27171,   0.00000,274640135.82653,   0.00000,   0.00000,   0.00000,-396758791.55482,   0.00000
-62578872.09400,-87313160.77288,3511035.08231,  -0.00011,  -0.00028,   0.00005,78183925.83278,   0.00000,274640135.82653,   0.00000,   0.00000,   0.00000,-396456209.99375,   0.00000
-62562046.04728,-87722594.57640,3533469.81127,  -0.00011,  -0.00028,   0.00005,78476840.08855,   0.00000,274640135.82653,   0.00000,   0.00000,   0.00000,-396163295.73798,   0.00000
-62564850.38840,-88140441.40329,3555904.54023,  -0.00011,  -0.00028,   0.00005,78781582.59786,   0.00000,274640135.82653,   0.00000,   0.00000,   0.00000,-395858553.22867,   0.00000
-62567654.72952,-88558288.23018,3578339.26919,  -0.00011,  -0.00028,   0.00005,79087362.87780,   0.00000,274640135.82653,   0.00000,   0.00000,   0.00000,-395552772.94873,   0.00000
-62550828.68280,-88967722.03371,3606382.68039,  -0.00011,  -0.00028,   0.00005,79384349.72748,   0.00000,274640135.82653,   0.00000,   0.00000,   0.00000,-395255786.09905,   0.00000
-62525589.61272,-89357525.44940,3628817.40935,  -0.00011,  -0.00028,   0.00005,79665486.21060,   0.00000,274640135.82653,   0.00000,   0.00000,   0.00000,-394974649.61593,   0.00000
-62508763.56600,-89766959.25292,3656860.82055,  -0.00011,  -0.00029,   0.00005,79964671.93248,   0.00000,274640135.82653,   0.00000,   0.00000,   0.00000,-394675463.89405,   0.00000
-62483524.49592,-90156762.66861,3684904.23175,  -0.00011,  -0.00029,   0.00005,80248713.11885,   0.00000,274640135.82653,   0.00000,   0.00000,   0.00000,-394391422.70768,   0.00000
-62438655.03800,-90538153.06094,3712947.64295,  -0.00011,  -0.00029,   0.00005,80523414.21281,   0.00000,274640135.82653,   0.00000,   0.00000,   0.00000,-394116721.61371,   0.00000
-62421828.99128,-90947586.86447,3740991.05415,  -0.00011,  -0.00029,   0.00005,80825853.65379,   0.00000,274640135.82653,   0.00000,   0.00000,   0.00000,-393814282.17273,   0.00000
-62376959.53336,-91328977.25679,3774643.14759,  -0.00011,  -0.00029,   0.00005,81103557.51447,   0.00000,274640135.82653,   0.00000,   0.00000,   0.00000,-393536578.31206,   0.00000
-62332090.07544,-91710367.64912,3808295.24103,  -0.00010,  -0.00030,   0.00005,81382377.87311,   0.00000,274640135.82653,   0.00000,   0.00000,   0.00000,-393257757.95342,   0.00000
-62287220.61752,-92091758.04145,3836338.65223,  -0.00010,  -0.00030,   0.00005,81661512.25639,   0.00000,274640135.82653,   0.00000,   0.00000,   0.00000,-392978623.57014,   0.00000
-62233938.13623,-92453518.04594,3869990.74567,  -0.00010,  -0.00030,   0.00005,81926186.39716,   0.00000,274640135.82653,   0.00000,   0.00000,   0.00000,-392713949.42937,   0.00000
-62189068.67831,-92834908.43826,3909251.52136,  -0.00010,  -0.00030,   0.00005,82209067.22239,   0.00000,274640135.82653,   0.00000,   0.00000,   0.00000,-392431068.60413,   0.00000
-62124568.83255,-93207885.80723,3942903.61480,  -0.00010,  -0.00030,   0.00005,82482190.67449,   0.00000,274640135.82653,   0.00000,   0.00000,   0.00000,-392157945.15204,   0.00000
-62051655.96343,-93561232.78836,3982164.39048,  -0.00010,  -0.00030,   0.00005,82740895.32923,   0.00000,274640135.82653,   0.00000,   0.00000,   0.00000,-391899240.49730,   0.00000
-61998373.48215,-93922992.79284,4021425.16616,  -0.00010,  -0.00031,   0.00005,83010660.06824,   0.00000,274640135.82653,   0.00000,   0.00000,   0.00000,-391629475.75828,   0.00000
-61925460.61303,-94276339.77397,4060685.94184,  -0.00010,  -0.00031,   0.00005,83271559.72392,   0.00000,274640135.82653,   0.00000,   0.00000,   0.00000,-391368576.10261,   0.00000
-61860960.76727,-94649317.14294,4099946.71752,  -0.00010,  -0.00031,   0.00005,83550001.18196,   0.00000,274640135.82653,   0.00000,   0.00000,   0.00000,-391090134.64457,   0.00000
-61779634.87479,-94983033.73622,4139207.49320,  -0.00010,  -0.00031,   0.00005,83796670.31267,   0.00000,274640135.82653,   0.00000,   0.00000,   0.00000,-390843465.51386,   0.00000
-61706722.00566,-95336380.71735,4184076.95112,  -0.00009,  -0.00031,   0.00005,84061697.50139,   0.00000,274640135.82653,   0.00000,   0.00000,   0.00000,-390578438.32514,   0.00000
-61614178.74870,-95681314.67512,4228946.40904,  -0.00009,  -0.00032,   0.00005,84318131.73170,   0.00000,274640135.82653,   0.00000,   0.00000,   0.00000,-390322004.09483,   0.00000
-61541265.87958,-96034661.65624,4273815.86696,  -0.00009,  -0.00032,   0.00006,84585374.06102,   0.00000,274640135.82653,   0.00000,   0.00000,   0.00000,-390054761.76551,   0.00000
-61440309.59926,-96359965.22617,4318685.32488,  -0.00009,  -0.00032,   0.00006,84827599.13128,   0.00000,274640135.82653,   0.00000,   0.00000,   0.00000,-389812536.69524,   0.00000
-61358983.70678,-96693681.81946,4369163.46504,  -0.00009,  -0.00032,   0.00006,85081347.58086,   0.00000,274640135.82653,   0.00000,   0.00000,   0.00000,-389558788.24567,   0.00000
-61266440.44982,-97038615.77722,4419641.60520,  -0.00009,  -0.00032,   0.00006,85343182.49432,   0.00000,274640135.82653,   0.00000,   0.00000,   0.00000,-389296953.33221,   0.00000
-61165484.16949,-97363919.34715,4470119.74537,  -0.00009,  -0.00032,   0.00006,85589624.88779,   0.00000,274640135.82653,   0.00000,   0.00000,   0.00000,-389050510.93874,   0.00000
-61064527.88917,-97689222.91708,4520597.88553,  -0.00009,  -0.00033,   0.00006,85837182.96232,   0.00000,274640135.82653,   0.00000,   0.00000,   0.00000,-388802952.86421,   0.00000
-60955158.58549,-97994896.09916,4576684.70793,  -0.00009,  -0.00033,   0.00006,86070173.20839,   0.00000,274640135.82653,   0.00000,   0.00000,   0.00000,-388569962.61814,   0.00000
-60854202.30517,-98320199.66909,4627162.84809,  -0.00009,  -0.00033,   0.00006,86319929.26253,   0.00000,274640135.82653,   0.00000,   0.00000,   0.00000,-388320206.56400,   0.00000
-60733615.63701,-98637090.21565,4683249.67049,  -0.00008,  -0.00033,   0.00006,86562457.17557,   0.00000,274640135.82653,   0.00000,   0.00000,   0.00000,-388077678.65096,   0.00000
-60624246.33332,-98942763.39774,4739336.49289,  -0.00008,  -0.00033,   0.00006,86798750.81082,   0.00000,274640135.82653,   0.00000,   0.00000,   0.00000,-387841385.01571,   0.00000
-60514877.02964,-99248436.57983,4801031.99753,  -0.00008,  -0.00033,   0.00006,87037034.04393,   0.00000,274640135.82653,   0.00000,   0.00000,   0.00000,-387603101.78260,   0.00000
-60394290.36148,-99565327.12639,4857118.81993,  -0.00008,  -0.00034,   0.00006,87283000.67790,   0.00000,274640135.82653,   0.00000,   0.00000,   0.00000,-387357135.14863,   0.00000
-60284921.05780,-99871000.30848,4918814.32457,  -0.00008,  -0.00034,   0.00006,87523466.81365,   0.00000,274640135.82653,   0.00000,   0.00000,   0.00000,-387116669.01288,   0.00000
-60155921.36628,-100168260.46720,4980509.82922,  -0.00008,  -0.00034,   0.00006,87756012.41434,   0.00000,274640135.82653,   0.00000,   0.00000,   0.00000,-386884123.41219,   0.00000
-60018508.65139,-100445890.23809,5047814.01610,  -0.00008,  -0.00034,   0.00007,87974013.16998,   0.00000,274640135.82653,   0.00000,   0.00000,   0.00000,-386666122.65655,   0.00000
-59909139.34771,-100751563.42017,5109509.52074,  -0.00008,  -0.00034,   0.00007,88217709.78200,   0.00000,274640135.82653,   0.00000,   0.00000,   0.00000,-386422426.04453,   0.00000
-59771726.63283,-101029193.19106,5176813.70762,  -0.00007,  -0.00034,   0.00007,88437922.09593,   0.00000,274640135.82653,   0.00000,   0.00000,   0.00000,-386202213.73060,   0.00000
-59642726.94131,-101326453.34979,5244117.89450,  -0.00007,  -0.00034,   0.00007,88675934.46840,   0.00000,274640135.82653,   0.00000,   0.00000,   0.00000,-385964201.35813,   0.00000
-59505314.22642,-101604083.12067,5311422.08138,  -0.00007,  -0.00035,   0.00007,88898384.96156,   0.00000,274640135.82653,   0.00000,   0.00000,   0.00000,-385741750.86497,   0.00000
-59367901.51154,-101881712.89156,5384334.95050,  -0.00007,  -0.00035,   0.00007,89122953.51595,   0.00000,274640135.82653,   0.00000,   0.00000,   0.00000,-385517182.31058,   0.00000
-59230488.79666,-102159342.66244,5457247.81962,  -0.00007,  -0.00035,   0.00007,89348637.12764,   0.00000,274640135.82653,   0.00000,   0.00000,   0.00000,-385291498.69889,   0.00000
-59084663.05841,-102417342.04549,5530160.68875,  -0.00007,  -0.00035,   0.00007,89558713.95918,   0.00000,274640135.82653,   0.00000,   0.00000,   0.00000,-385081421.86735,   0.00000
-58947250.34353,-102694971.81637,5603073.55787,  -0.00007,  -0.00035,   0.00007,89786595.02750,   0.00000,274640135.82653,   0.00000,   0.00000,   0.00000,-384853540.79903,   0.00000
-58801424.60529,-102952971.19942,5681595.10923,  -0.00007,  -0.00035,   0.00007,89999900.05262,   0.00000,274640135.82653,   0.00000,   0.00000,   0.00000,-384640235.77391,   0.00000
-58644381.50257,-103222187.94694,5760116.66059,  -0.00007,  -0.00036,   0.00007,90222608.19059,   0.00000,274640135.82653,   0.00000,   0.00000,   0.00000,-384417527.63594,   0.00000
-58498555.76432,-103480187.32999,5838638.21195,  -0.00006,  -0.00036,   0.00008,90438143.36797,   0.00000,274640135.82653,   0.00000,   0.00000,   0.00000,-384201992.45856,   0.00000
-58352730.02608,-103738186.71303,5917159.76331,  -0.00006,  -0.00036,   0.00008,90654753.98642,   0.00000,274640135.82653,   0.00000,   0.00000,   0.00000,-383985381.84011,   0.00000
-58198491.26448,-103976555.70824,6001289.99692,  -0.00006,  -0.00036,   0.00008,90856790.05003,   0.00000,274640135.82653,   0.00000,   0.00000,   0.00000,-383783345.77650,   0.00000
-58033035.13839,-104226142.06792,6085420.23052,  -0.00006,  -0.00036,   0.00008,91068433.11991,   0.00000,274640135.82653,   0.00000,   0.00000,   0.00000,-383571702.70662,   0.00000
-57887209.40015,-104484141.45097,6169550.46412,  -0.00006,  -0.00036,   0.00008,91289427.15618,   0.00000,274640135.82653,   0.00000,   0.00000,   0.00000,-383350708.67035,   0.00000
-57713340.25071,-104714097.42281,6253680.69772,  -0.00006,  -0.00036,   0.00008,91486595.05724,   0.00000,274640135.82653,   0.00000,   0.00000,   0.00000,-383153540.76929,   0.00000
-57559101.48911,-104952466.41802,6343419.61356,  -0.00006,  -0.00037,   0.00008,91694152.60829,   0.00000,274640135.82653,   0.00000,   0.00000,   0.00000,-382945983.21824,   0.00000
-57404862.72750,-105190835.41322,6433158.52940,  -0.00006,  -0.00037,   0.00008,91902781.45193,   0.00000,274640135.82653,   0.00000,   0.00000,   0.00000,-382737354.37460,   0.00000
-57230993.57806,-105420791.38506,6522897.44525,  -0.00005,  -0.00037,   0.00008,92104494.03083,   0.00000,274640135.82653,   0.00000,   0.00000,   0.00000,-382535641.79569,   0.00000
-57068341.79310,-105639529.99243,6612636.36109,  -0.00005,  -0.00037,   0.00009,92298504.89849,   0.00000,274640135.82653,   0.00000,   0.00000,   0.00000,-382341630.92804,   0.00000
-56894472.64365,-105869485.96427,6707983.95917,  -0.00005,  -0.00037,   0.00009,92503684.51654,   0.00000,274640135.82653,   0.00000,   0.00000,   0.00000,-382136451.30999,   0.00000
-56731820.85869,-106088224.57164,6803331.55725,  -0.00005,  -0.00037,   0.00009,92701071.73018,   0.00000,274640135.82653,   0.00000,   0.00000,   0.00000,-381939064.09635,   0.00000
-56549538.68589,-106298550.15564,6898679.15533,  -0.00005,  -0.00037,   0.00009,92891729.65750,   0.00000,274640135.82653,   0.00000,   0.00000,   0.00000,-381748406.16903,   0.00000
-56386886.90092,-106517288.76301,6994026.75341,  -0.00005,  -0.00037,   0.00009,93091270.99792,   0.00000,274640135.82653,   0.00000,   0.00000,   0.00000,-381548864.82861,   0.00000
-56204604.72812,-106727614.34701,7094983.03374,  -0.00005,  -0.00038,   0.00009,93285444.90780,   0.00000,274640135.82653,   0.00000,   0.00000,   0.00000,-381354690.91873,   0.00000
-56033539.91980,-106926722.56653,7195939.31406,  -0.00005,  -0.00038,   0.00009,93471618.39389,   0.00000,274640135.82653,   0.00000,   0.00000,   0.00000,-381168517.43264,   0.00000
-55851257.74699,-107137048.15054,7296895.59438,  -0.00005,  -0.00038,   0.00009,93668058.82354,   0.00000,274640135.82653,   0.00000,   0.00000,   0.00000,-380972077.00299,   0.00000
-55680192.93867,-107336156.37006,7403460.55694,  -0.00004,  -0.00038,   0.00010,93857712.19596,   0.00000,274640135.82653,   0.00000,   0.00000,   0.00000,-380782423.63057,   0.00000
-55489497.74251,-107526851.56622,7510025.51950,  -0.00004,  -0.00038,   0.00010,94040941.24438,   0.00000,274640135.82653,   0.00000,   0.00000,   0.00000,-380599194.58215,   0.00000
-55318432.93418,-107725959.78575,7616590.48207,  -0.00004,  -0.00038,   0.00010,94232783.59515,   0.00000,274640135.82653,   0.00000,   0.00000,   0.00000,-380407352.23138,   0.00000
-55138955.10250,-107905437.61743,7723155.44463,  -0.00004,  -0.00038,   0.00010,94408877.48071,   0.00000,274640135.82653,   0.00000,   0.00000,   0.00000,-380231258.34582,   0.00000
-54948259.90634,-108096132.81360,7835329.08943,  -0.00004,  -0.00038,   0.00010,94596870.67285,   0.00000,274640135.82653,   0.00000,   0.00000,   0.00000,-380043265.15368,   0.00000
-54768782.07465,-108275610.64528,7941894.05199,  -0.00004,  -0.00039,   0.00010,94775128.96597,   0.00000,274640135.82653,   0.00000,   0.00000,   0.00000,-379865006.86056,   0.00000
-54569673.85513,-108446675.45360,8054067.69679,  -0.00004,  -0.00039,   0.00010,94948591.51568,   0.00000,274640135.82653,   0.00000,   0.00000,   0.00000,-379691544.31085,   0.00000
-54390196.02344,-108626153.28529,8171850.02384,  -0.00004,  -0.00039,   0.00011,95131878.09039,   0.00000,274640135.82653,   0.00000,   0.00000,   0.00000,-379508257.73614,   0.00000
-54210718.19176,-108805631.11697,8284023.66864,  -0.00003,  -0.00039,   0.00011,95314799.83663,   0.00000,274640135.82653,   0.00000,   0.00000,   0.00000,-379325335.98990,   0.00000
-54003196.94888,-108957065.53745,8401805.99568,  -0.00003,  -0.00039,   0.00011,95476324.67794,   0.00000,274640135.82653,   0.00000,   0.00000,   0.00000,-379163811.14858,   0.00000
-53815306.09383,-109116912.98130,8519588.32272,  -0.00003,  -0.00039,   0.00011,95646107.87692,   0.00000,274640135.82653,   0.00000,   0.00000,   0.00000,-378994027.94961,   0.00000
-53627415.23879,-109276760.42514,8642979.33201,  -0.00003,  -0.00039,   0.00011,95818490.39793,   0.00000,274640135.82653,   0.00000,   0.00000,   0.00000,-378821645.42860,   0.00000
-53419893.99591,-109428194.84562,8760761.65905,  -0.00003,  -0.00039,   0.00011,95983462.98935,   0.00000,274640135.82653,   0.00000,   0.00000,   0.00000,-378656672.83718,   0.00000
-53232003.14086,-109588042.28946,8884152.66833,  -0.00003,  -0.00039,   0.00012,96158092.04521,   0.00000,274640135.82653,   0.00000,   0.00000,   0.00000,-378482043.78132,   0.00000
-53035699.26246,-109728259.34547,9007543.67761,  -0.00003,  -0.00040,   0.00012,96317022.69753,   0.00000,274640135.82653,   0.00000,   0.00000,   0.00000,-378323113.12900,   0.00000
-52847808.40741,-109888106.78931,9136543.36914,  -0.00003,  -0.00040,   0.00012,96495443.04038,   0.00000,274640135.82653,   0.00000,   0.00000,   0.00000,-378144692.78615,   0.00000
-52651504.52901,-110028323.84531,9265543.06066,  -0.00003,  -0.00040,   0.00012,96658197.01786,   0.00000,274640135.82653,   0.00000,   0.00000,   0.00000,-377981938.80867,   0.00000
-52446787.62725,-110148910.51347,9388934.06994,  -0.00002,  -0.00040,   0.00012,96803655.67250,   0.00000,274640135.82653,   0.00000,   0.00000,   0.00000,-377836480.15403,   0.00000
-52250483.74884,-110289127.56948,9523542.44370,  -0.00002,  -0.00040,   0.00012,96970294.55618,   0.00000,274640135.82653,   0.00000,   0.00000,   0.00000,-377669841.27035,   0.00000
-52045766.84708,-110409714.23764,9652542.13523,  -0.00002,  -0.00040,   0.00013,97119634.00307,   0.00000,274640135.82653,   0.00000,   0.00000,   0.00000,-377520501.82346,   0.00000
-51841049.94532,-110530300.90580,9787150.50899,  -0.00002,  -0.00040,   0.00013,97271784.05523,   0.00000,274640135.82653,   0.00000,   0.00000,   0.00000,-377368351.77129,   0.00000
-51636333.04355,-110650887.57396,9921758.88275,  -0.00002,  -0.00040,   0.00013,97425087.25549,   0.00000,274640135.82653,   0.00000,   0.00000,   0.00000,-377215048.57104,   0.00000
-51431616.14179,-110771474.24213,10056367.25651,  -0.00002,  -0.00040,   0.00013,97579538.16883,   0.00000,274640135.82653,   0.00000,   0.00000,   0.00000,-377060597.65770,   0.00000
-51226899.24002,-110892060.91029,10190975.63028,  -0.00002,  -0.00040,   0.00013,97735131.35408,   0.00000,274640135.82653,   0.00000,   0.00000,   0.00000,-376905004.47245,   0.00000
-51013769.31490,-110993017.19061,10331192.68628,  -0.00002,  -0.00041,   0.00013,97876876.62173,   0.00000,274640135.82653,   0.00000,   0.00000,   0.00000,-376763259.20480,   0.00000
-50820269.77762,-111102386.49429,10471409.74228,  -0.00001,  -0.00041,   0.00014,98026211.37427,   0.00000,274640135.82653,   0.00000,   0.00000,   0.00000,-376613924.45226,   0.00000
-50607139.85249,-111203342.77462,10611626.79828,  -0.00001,  -0.00041,   0.00014,98170274.51503,   0.00000,274640135.82653,   0.00000,   0.00000,   0.00000,-376469861.31150,   0.00000
-50385596.90401,-111284668.66710,10751843.85429,  -0.00001,  -0.00041,   0.00014,98298768.23981,   0.00000,274640135.82653,   0.00000,   0.00000,   0.00000,-376341367.58672,   0.00000
-50183684.34336,-111374407.58294,10897669.59253,  -0.00001,  -0.00041,   0.00014,98436580.25499,   0.00000,274640135.82653,   0.00000,   0.00000,   0.00000,-376203555.57154,   0.00000
-49962141.39488,-111455733.47542,11043495.33077,  -0.00001,  -0.00041,   0.00014,98569292.12234,   0.00000,274640135.82653,   0.00000,   0.00000,   0.00000,-376070843.70419,   0.00000
-49760228.83424,-111545472.39126,11189321.06901,  -0.00001,  -0.00041,   0.00015,98709408.21912,   0.00000,274640135.82653,   0.00000,   0.00000,   0.00000,-375930727.60741,   0.00000
-49558316.27359,-111635211.30710,11340755.48950,  -0.00001,  -0.00041,   0.00015,98852578.17298,   0.00000,274640135.82653,   0.00000,   0.00000,   0.00000,-375787557.65354,   0.00000
-49328360.30175,-111696906.81174,11486581.22774,  -0.00001,  -0.00041,   0.00015,98972145.08373,   0.00000,274640135.82653,   0.00000,   0.00000,   0.00000,-375667990.74280,   0.00000
-49118034.71774,-111767015.33975,11638015.64822,  -0.00001,  -0.00041,   0.00015,99100964.36169,   0.00000,274640135.82653,   0.00000,   0.00000,   0.00000,-375539171.46484,   0.00000
-48907709.13374,-111837123.86775,11789450.06871,  -0.00000,  -0.00041,   0.00015,99230953.64860,   0.00000,274640135.82653,   0.00000,   0.00000,   0.00000,-375409182.17793,   0.00000
-48697383.54973,-111907232.39575,11940884.48919,  -0.00000,  -0.00041,   0.00016,99362108.35250,   0.00000,274640135.82653,   0.00000,   0.00000,   0.00000,-375278027.47403,   0.00000
-48478644.94237,-111957710.53591,12097927.59191,  -0.00000,  -0.00041,   0.00016,99479794.04038,   0.00000,274640135.82653,   0.00000,   0.00000,   0.00000,-375160341.78614,   0.00000
-48259906.33501,-112008188.67607,12254970.69464,  -0.00000,  -0.00042,   0.00016,99598700.37242,   0.00000,274640135.82653,   0.00000,   0.00000,   0.00000,-375041435.45410,   0.00000
-48041167.72764,-112058666.81623,12412013.79736,  -0.00000,  -0.00042,   0.00016,99718822.98207,   0.00000,274640135.82653,   0.00000,   0.00000,   0.00000,-374921312.84446,   0.00000
-47814016.09692,-112089514.56855,12569056.90008,   0.00000,  -0.00042,   0.00016,99823509.91488,   0.00000,274640135.82653,   0.00000,   0.00000,   0.00000,-374816625.91165,   0.00000
-47614907.87739,-112148405.73207,12726100.00280,   0.00000,  -0.00042,   0.00017,99951834.48408,   0.00000,274640135.82653,   0.00000,   0.00000,   0.00000,-374688301.34245,   0.00000
-47387756.24667,-112179253.48439,12888751.78777,   0.00000,  -0.00042,   0.00017,100061086.35378,   0.00000,274640135.82653,   0.00000,   0.00000,   0.00000,-374579049.47275,   0.00000
-47171821.98043,-112198883.87223,13051403.57273,   0.00000,  -0.00042,   0.00017,100160680.71034,   0.00000,274640135.82653,   0.00000,   0.00000,   0.00000,-374479455.11619,   0.00000
-46944670.34970,-112229731.62455,13214055.35769,   0.00001,  -0.00042,   0.00017,100272432.68815,   0.00000,274640135.82653,   0.00000,   0.00000,   0.00000,-374367703.13838,   0.00000
-46728736.08346,-112249362.01240,13376707.14266,   0.00001,  -0.00042,   0.00017,100374459.48584,   0.00000,274640135.82653,   0.00000,   0.00000,   0.00000,-374265676.34069,   0.00000
-46493171.42937,-112260579.37688,13544967.60986,   0.00001,  -0.00042,   0.00018,100474378.58738,   0.00000,274640135.82653,   0.00000,   0.00000,   0.00000,-374165757.23915,   0.00000
-46277237.16313,-112280209.76472,13713228.07706,   0.00001,  -0.00042,   0.00018,100581152.11676,   0.00000,274640135.82653,   0.00000,   0.00000,   0.00000,-374058983.70977,   0.00000
-46052889.87352,-112280209.76472,13881488.54427,   0.00001,  -0.00042,   0.00018,100672604.05818,   0.00000,274640135.82653,   0.00000,   0.00000,   0.00000,-373967531.76835,   0.00000
-45828542.58392,-112280209.76472,14049749.01147,   0.00001,  -0.00042,   0.00018,100765315.39918,   0.00000,274640135.82653,   0.00000,   0.00000,   0.00000,-373874820.42735,   0.00000
-45604195.29432,-112280209.76472,14218009.47867,   0.00001,  -0.00042,   0.00018,100859282.66680,   0.00000,274640135.82653,   0.00000,   0.00000,   0.00000,-373780853.15973,   0.00000
-45379848.00471,-112280209.76472,14391878.62812,   0.00001,  -0.00042,   0.00019,100956900.54681,   0.00000,274640135.82653,   0.00000,   0.00000,   0.00000,-373683235.27972,   0.00000
-45147087.69175,-112260579.37688,14565747.77756,   0.00001,  -0.00042,   0.00019,101039309.24438,   0.00000,274640135.82653,   0.00000,   0.00000,   0.00000,-373600826.58214,   0.00000
-44914327.37878,-112240948.98904,14739616.92700,   0.00001,  -0.00042,   0.00019,101123042.01869,   0.00000,274640135.82653,   0.00000,   0.00000,   0.00000,-373517093.80784,   0.00000
-44692784.43030,-112210101.23671,14913486.07645,   0.00002,  -0.00042,   0.00019,101196868.20781,   0.00000,274640135.82653,   0.00000,   0.00000,   0.00000,-373443267.61872,   0.00000
-44460024.11733,-112190470.84887,15087355.22589,   0.00002,  -0.00042,   0.00020,101283213.40314,   0.00000,274640135.82653,   0.00000,   0.00000,   0.00000,-373356922.42339,   0.00000
-44238481.16885,-112159623.09655,15266833.05757,   0.00002,  -0.00042,   0.00020,101362130.35374,   0.00000,274640135.82653,   0.00000,   0.00000,   0.00000,-373278005.47279,   0.00000
-43997307.83252,-112120362.32087,15440702.20702,   0.00002,  -0.00042,   0.00020,101434661.24597,   0.00000,274640135.82653,   0.00000,   0.00000,   0.00000,-373205474.58056,   0.00000
-43767351.86068,-112069884.18071,15620180.03870,   0.00002,  -0.00042,   0.00020,101499793.34253,   0.00000,274640135.82653,   0.00000,   0.00000,   0.00000,-373140342.48400,   0.00000
-43537395.88884,-112019406.04055,15799657.87038,   0.00002,  -0.00042,   0.00021,101566266.58937,   0.00000,274640135.82653,   0.00000,   0.00000,   0.00000,-373073869.23716,   0.00000
-43307439.91699,-111968927.90039,15984744.38431,   0.00002,  -0.00043,   0.00021,101636724.21328,   0.00000,274640135.82653,   0.00000,   0.00000,   0.00000,-373003411.61325,   0.00000
-43077483.94515,-111918449.76023,16164222.21599,   0.00002,  -0.00043,   0.00021,101705899.71388,   0.00000,274640135.82653,   0.00000,   0.00000,   0.00000,-372934236.11265,   0.00000
-42839114.94994,-111848341.23223,16349308.72991,   0.00002,  -0.00043,   0.00021,101762748.32632,   0.00000,274640135.82653,   0.00000,   0.00000,   0.00000,-372877387.50021,   0.00000
-42600745.95474,-111778232.70423,16528786.56160,   0.00002,  -0.00043,   0.00021,101818284.81798,   0.00000,274640135.82653,   0.00000,   0.00000,   0.00000,-372821851.00855,   0.00000
-42382007.34737,-111716537.19959,16713873.07552,   0.00003,  -0.00043,   0.00022,101882818.91368,   0.00000,274640135.82653,   0.00000,   0.00000,   0.00000,-372757316.91285,   0.00000
-42135225.32881,-111626798.28374,16904568.27168,   0.00003,  -0.00043,   0.00022,101930330.59657,   0.00000,274640135.82653,   0.00000,   0.00000,   0.00000,-372709805.22996,   0.00000
-41888443.31024,-111537059.36790,17089654.78561,   0.00003,  -0.00043,   0.00022,101976528.71688,   0.00000,274640135.82653,   0.00000,   0.00000,   0.00000,-372663607.10965,   0.00000
-41661291.67952,-111455733.47542,17274741.29953,   0.00003,  -0.00043,   0.00022,102028937.01383,   0.00000,274640135.82653,   0.00000,   0.00000,   0.00000,-372611198.81270,   0.00000
-41425727.02544,-111354777.19510,17465436.49570,   0.00003,  -0.00043,   0.00023,102069334.65370,   0.00000,274640135.82653,   0.00000,   0.00000,   0.00000,-372570801.17283,   0.00000
-41190162.37135,-111253820.91478,17656131.69186,   0.00003,  -0.00043,   0.00023,102111195.05404,   0.00000,274640135.82653,   0.00000,   0.00000,   0.00000,-372528940.77249,   0.00000
-40934967.32943,-111144451.61109,17846826.88802,   0.00003,  -0.00043,   0.00023,102149859.85579,   0.00000,274640135.82653,   0.00000,   0.00000,   0.00000,-372490275.97074,   0.00000
-40690989.65198,-111023864.94293,18037522.08419,   0.00003,  -0.00043,   0.00023,102178475.69337,   0.00000,274640135.82653,   0.00000,   0.00000,   0.00000,-372461660.13316,   0.00000
-40466642.36238,-110911691.29813,18228217.28035,   0.00003,  -0.00043,   0.00024,102213171.26862,   0.00000,274640135.82653,   0.00000,   0.00000,   0.00000,-372426964.55791,   0.00000
-40222664.68493,-110791104.62997,18418912.47651,   0.00003,  -0.00043,   0.00024,102244741.56813,   0.00000,274640135.82653,   0.00000,   0.00000,   0.00000,-372395394.25840,   0.00000
-39970273.98413,-110650887.57396,18609607.67268,   0.00003,  -0.00043,   0.00024,102261663.99755,   0.00000,274640135.82653,   0.00000,   0.00000,   0.00000,-372378471.82898,   0.00000
-39737513.67116,-110519083.54132,18805911.55108,   0.00003,  -0.00043,   0.00024,102287688.18501,   0.00000,274640135.82653,   0.00000,   0.00000,   0.00000,-372352447.64152,   0.00000
-39485122.97036,-110378866.48532,19002215.42948,   0.00004,  -0.00043,   0.00025,102310793.95524,   0.00000,274640135.82653,   0.00000,   0.00000,   0.00000,-372329341.87129,   0.00000
-39243949.63403,-110227432.06484,19198519.30789,   0.00004,  -0.00043,   0.00025,102323819.32420,   0.00000,274640135.82653,   0.00000,   0.00000,   0.00000,-372316316.50233,   0.00000
-39002776.29771,-110075997.64435,19394823.18629,   0.00004,  -0.00042,   0.00025,102338408.25292,   0.00000,274640135.82653,   0.00000,   0.00000,   0.00000,-372301727.57361,   0.00000
-38741972.57354,-109916150.20051,19591127.06470,   0.00004,  -0.00042,   0.00025,102350226.26418,   0.00000,274640135.82653,   0.00000,   0.00000,   0.00000,-372289909.56235,   0.00000
-38492386.21386,-109745085.39219,19787430.94310,   0.00004,  -0.00042,   0.00026,102351964.42751,   0.00000,274640135.82653,   0.00000,   0.00000,   0.00000,-372288171.39902,   0.00000
-38262430.24201,-109582433.60722,19983734.82150,   0.00004,  -0.00042,   0.00026,102359572.45861,   0.00000,274640135.82653,   0.00000,   0.00000,   0.00000,-372280563.36792,   0.00000
-38012843.88233,-109411368.79890,20185647.38215,   0.00004,  -0.00042,   0.00026,102367806.08217,   0.00000,274640135.82653,   0.00000,   0.00000,   0.00000,-372272329.74436,   0.00000
-37754844.49928,-109220673.60274,20381951.26055,   0.00004,  -0.00042,   0.00026,102358419.72688,   0.00000,274640135.82653,   0.00000,   0.00000,   0.00000,-372281716.09965,   0.00000
-37496845.11624,-109029978.40657,20583863.82120,   0.00004,  -0.00042,   0.00027,102354070.36899,   0.00000,274640135.82653,   0.00000,   0.00000,   0.00000,-372286065.45754,   0.00000
-37250063.09768,-108828065.84593,20785776.38184,   0.00004,  -0.00042,   0.00027,102339671.17582,   0.00000,274640135.82653,   0.00000,   0.00000,   0.00000,-372300464.65071,   0.00000
-37011694.10247,-108645783.67313,20982080.26024,   0.00004,  -0.00042,   0.00027,102339388.19238,   0.00000,274640135.82653,   0.00000,   0.00000,   0.00000,-372300747.63415,   0.00000
-36736868.67271,-108415827.70128,21183992.82089,   0.00004,  -0.00042,   0.00028,102308434.87822,   0.00000,274640135.82653,   0.00000,   0.00000,   0.00000,-372331700.94831,   0.00000
-36490086.65414,-108213915.14064,21385905.38153,   0.00004,  -0.00042,   0.00028,102299137.63268,   0.00000,274640135.82653,   0.00000,   0.00000,   0.00000,-372340998.19385,   0.00000
-36234891.61222,-107992372.19215,21587817.94217,   0.00005,  -0.00042,   0.00028,102275752.60550,   0.00000,274640135.82653,   0.00000,   0.00000,   0.00000,-372364383.22103,   0.00000
-35971283.54693,-107751198.85583,21795339.18506,   0.00005,  -0.00042,   0.00028,102241946.37668,   0.00000,274640135.82653,   0.00000,   0.00000,   0.00000,-372398189.44985,   0.00000
-35735718.89285,-107538068.93070,21997251.74570,   0.00005,  -0.00042,   0.00029,102226048.17578,   0.00000,274640135.82653,   0.00000,   0.00000,   0.00000,-372414087.65075,   0.00000
-35472110.82756,-107296895.59438,22199164.30635,   0.00005,  -0.00042,   0.00029,102192249.05284,   0.00000,274640135.82653,   0.00000,   0.00000,   0.00000,-372447886.77369,   0.00000
-35200089.73892,-107036091.87022,22401076.86699,   0.00005,  -0.00042,   0.00029,102144583.68286,   0.00000,274640135.82653,   0.00000,   0.00000,   0.00000,-372495552.14367,   0.00000
-34947699.03811,-106783701.16941,22608598.10987,   0.00005,  -0.00042,   0.00029,102106326.82813,   0.00000,274640135.82653,   0.00000,   0.00000,   0.00000,-372533808.99840,   0.00000
-34695308.33731,-106531310.46861,22810510.67052,   0.00005,  -0.00042,   0.00030,102066184.69230,   0.00000,274640135.82653,   0.00000,   0.00000,   0.00000,-372573951.13423,   0.00000
-34414874.22530,-106250876.35660,23018031.91340,   0.00005,  -0.00042,   0.00030,102012308.70757,   0.00000,274640135.82653,   0.00000,   0.00000,   0.00000,-372627827.11896,   0.00000
-34154070.50114,-105978855.26795,23225553.15629,   0.00005,  -0.00042,   0.00030,101964150.36422,   0.00000,274640135.82653,   0.00000,   0.00000,   0.00000,-372675985.46231,   0.00000
-33893266.77697,-105706834.17931,23427465.71693,   0.00005,  -0.00041,   0.00030,101914065.97616,   0.00000,274640135.82653,   0.00000,   0.00000,   0.00000,-372726069.85037,   0.00000
-33643680.41729,-105423595.72618,23634986.95981,   0.00005,  -0.00041,   0.00031,101857900.18736,   0.00000,274640135.82653,   0.00000,   0.00000,   0.00000,-372782235.63917,   0.00000
-33374463.66976,-105131944.24970,23842508.20270,   0.00005,  -0.00041,   0.00031,101800068.10047,   0.00000,274640135.82653,   0.00000,   0.00000,   0.00000,-372840067.72606,   0.00000
-33096833.89888,-104820662.38537,24044420.76334,   0.00005,  -0.00041,   0.00031,101724835.38661,   0.00000,274640135.82653,   0.00000,   0.00000,   0.00000,-372915300.43992,   0.00000
-32838834.51583,-104517793.54441,24251942.00623,   0.00005,  -0.00041,   0.00032,101659164.69657,   0.00000,274640135.82653,   0.00000,   0.00000,   0.00000,-372980971.12996,   0.00000
-32561204.74495,-104206511.68008,24459463.24911,   0.00006,  -0.00041,   0.00032,101592005.56985,   0.00000,274640135.82653,   0.00000,   0.00000,   0.00000,-373048130.25668,   0.00000
-32294792.33854,-103884012.45127,24666984.49199,   0.00006,  -0.00041,   0.00032,101515069.90365,   0.00000,274640135.82653,   0.00000,   0.00000,   0.00000,-373125065.92288,   0.00000
-32019966.90877,-103541882.83463,24874505.73488,   0.00006,  -0.00041,   0.00032,101424924.08873,   0.00000,274640135.82653,   0.00000,   0.00000,   0.00000,-373215211.73780,   0.00000
-31753554.50237,-103219383.60582,25082026.97776,   0.00006,  -0.00041,   0.00033,101352214.00844,   0.00000,274640135.82653,   0.00000,   0.00000,   0.00000,-373287921.81809,   0.00000
-31478729.07260,-102877253.98918,25289548.22065,   0.00006,  -0.00041,   0.00033,101266373.06596,   0.00000,274640135.82653,   0.00000,   0.00000,   0.00000,-373373762.76057,   0.00000
-31195490.61948,-102515493.98469,25491460.78129,   0.00006,  -0.00041,   0.00033,101163272.63022,   0.00000,274640135.82653,   0.00000,   0.00000,   0.00000,-373476863.19631,   0.00000
-30931882.55419,-102162147.00356,25698982.02417,   0.00006,  -0.00040,   0.00033,101069931.91529,   0.00000,274640135.82653,   0.00000,   0.00000,   0.00000,-373570203.91124,   0.00000
-30648644.10107,-101800386.99907,25906503.26706,   0.00006,  -0.00040,   0.00034,100975517.24298,   0.00000,274640135.82653,   0.00000,   0.00000,   0.00000,-373664618.58355,   0.00000
-30376623.01242,-101427409.63011,26114024.50994,   0.00006,  -0.00040,   0.00034,100871518.73928,   0.00000,274640135.82653,   0.00000,   0.00000,   0.00000,-373768617.08725,   0.00000
-30084971.53594,-101046019.23778,26321545.75283,   0.00006,  -0.00040,   0.00034,100766602.68157,   0.00000,274640135.82653,   0.00000,   0.00000,   0.00000,-373873533.14496,   0.00000
-29804537.42393,-100653411.48097,26529066.99571,   0.00006,  -0.00040,   0.00034,100652200.72840,   0.00000,274640135.82653,   0.00000,   0.00000,   0.00000,-373987935.09813,   0.00000
-29524103.31193,-100260803.72417,26736588.23859,   0.00006,  -0.00040,   0.00035,100540173.88298,   0.00000,274640135.82653,   0.00000,   0.00000,   0.00000,-374099961.94355,   0.00000
-29235256.17656,-99848565.57952,26944109.48148,   0.00006,  -0.00040,   0.00035,100415601.20652,   0.00000,274640135.82653,   0.00000,   0.00000,   0.00000,-374224534.62001,   0.00000
-28946409.04120,-99436327.43487,27146022.04212,   0.00006,  -0.00040,   0.00035,100288946.25413,   0.00000,274640135.82653,   0.00000,   0.00000,   0.00000,-374351189.57239,   0.00000
-28677192.29367,-99032502.31358,27353543.28501,   0.00006,  -0.00039,   0.00036,100172315.29171,   0.00000,274640135.82653,   0.00000,   0.00000,   0.00000,-374467820.53482,   0.00000
-28379932.13494,-98600633.78109,27561064.52789,   0.00006,  -0.00039,   0.00036,100040307.21953,   0.00000,274640135.82653,   0.00000,   0.00000,   0.00000,-374599828.60700,   0.00000
-28102302.36406,-98177178.27197,27762977.08853,   0.00006,  -0.00039,   0.00036,99909167.11199,   0.00000,274640135.82653,   0.00000,   0.00000,   0.00000,-374730968.71453,   0.00000
-27796629.18197,-97725679.35164,27970498.33142,   0.00006,  -0.00039,   0.00036,99767544.11555,   0.00000,274640135.82653,   0.00000,   0.00000,   0.00000,-374872591.71098,   0.00000
-27510586.38773,-97282593.45467,28178019.57430,   0.00006,  -0.00039,   0.00037,99631503.66624,   0.00000,274640135.82653,   0.00000,   0.00000,   0.00000,-375008632.16029,   0.00000
-27216130.57012,-96819877.16986,28379932.13494,   0.00006,  -0.00039,   0.00037,99478669.08795,   0.00000,274640135.82653,   0.00000,   0.00000,   0.00000,-375161466.73858,   0.00000
-26921674.75252,-96357160.88505,28587453.37783,   0.00007,  -0.00039,   0.00037,99333329.51116,   0.00000,274640135.82653,   0.00000,   0.00000,   0.00000,-375306806.31537,   0.00000
-26627218.93491,-95894444.60024,28789365.93847,   0.00007,  -0.00038,   0.00037,99185854.31301,   0.00000,274640135.82653,   0.00000,   0.00000,   0.00000,-375454281.51352,   0.00000
-26343980.48179,-95420510.95095,28991278.49912,   0.00007,  -0.00038,   0.00038,99029318.01619,   0.00000,274640135.82653,   0.00000,   0.00000,   0.00000,-375610817.81034,   0.00000
-26032698.61746,-94918533.89046,29198799.74200,   0.00007,  -0.00038,   0.00038,98863307.68471,   0.00000,274640135.82653,   0.00000,   0.00000,   0.00000,-375776828.14182,   0.00000
-25721416.75313,-94416556.82997,29400712.30264,   0.00007,  -0.00038,   0.00038,98695265.98832,   0.00000,274640135.82653,   0.00000,   0.00000,   0.00000,-375944869.83821,   0.00000
-25429765.27665,-93922992.79284,29602624.86329,   0.00007,  -0.00038,   0.00038,98532776.64198,   0.00000,274640135.82653,   0.00000,   0.00000,   0.00000,-376107359.18455,   0.00000
-25129700.77680,-93409798.36787,29804537.42393,   0.00007,  -0.00038,   0.00039,98358849.94659,   0.00000,274640135.82653,   0.00000,   0.00000,   0.00000,-376281285.87994,   0.00000
-24829636.27696,-92896603.94290,30006449.98458,   0.00007,  -0.00037,   0.00039,98187891.80207,   0.00000,274640135.82653,   0.00000,   0.00000,   0.00000,-376452244.02446,   0.00000
-24521158.75375,-92363779.13009,30202753.86298,   0.00007,  -0.00037,   0.00039,98000546.18928,   0.00000,274640135.82653,   0.00000,   0.00000,   0.00000,-376639589.63725,   0.00000
-24212681.23054,-91830954.31728,30404666.42362,   0.00007,  -0.00037,   0.00040,97821448.05823,   0.00000,274640135.82653,   0.00000,   0.00000,   0.00000,-376818687.76830,   0.00000
-23895790.68398,-91278499.11663,30606578.98427,   0.00007,  -0.00037,   0.00040,97631395.23698,   0.00000,274640135.82653,   0.00000,   0.00000,   0.00000,-377008740.58955,   0.00000
-23598530.52525,-90734456.93934,30802882.86267,   0.00007,  -0.00037,   0.00040,97441701.77705,   0.00000,274640135.82653,   0.00000,   0.00000,   0.00000,-377198434.04948,   0.00000
-23273226.95533,-90162371.35085,31004795.42332,   0.00007,  -0.00036,   0.00040,97244120.57790,   0.00000,274640135.82653,   0.00000,   0.00000,   0.00000,-377396015.24863,   0.00000
-22967553.77324,-89598698.78572,31201099.30172,   0.00007,  -0.00036,   0.00041,97046886.66286,   0.00000,274640135.82653,   0.00000,   0.00000,   0.00000,-377593249.16367,   0.00000
-22653467.56779,-89015395.83275,31397403.18012,   0.00007,  -0.00036,   0.00041,96839060.73966,   0.00000,274640135.82653,   0.00000,   0.00000,   0.00000,-377801075.08687,   0.00000
-22339381.36235,-88432092.87978,31593707.05853,   0.00007,  -0.00036,   0.00041,96634630.12988,   0.00000,274640135.82653,   0.00000,   0.00000,   0.00000,-378005505.69665,   0.00000
-22016882.13354,-87829159.53897,31790010.93693,   0.00007,  -0.00036,   0.00041,96419886.41798,   0.00000,274640135.82653,   0.00000,   0.00000,   0.00000,-378220249.40855,   0.00000
-21694382.90474,-87226226.19815,31980706.13309,   0.00007,  -0.00035,   0.00042,96203109.77419,   0.00000,274640135.82653,   0.00000,   0.00000,   0.00000,-378437026.05234,   0.00000
-21363470.65257,-86603662.46950,32177010.01150,   0.00007,  -0.00035,   0.00042,95981859.48252,   0.00000,274640135.82653,   0.00000,   0.00000,   0.00000,-378658276.34401,   0.00000
-21032558.40040,-85981098.74085,32367705.20766,   0.00007,  -0.00035,   0.00042,95758657.01952,   0.00000,274640135.82653,   0.00000,   0.00000,   0.00000,-378881478.80701,   0.00000
-20721276.53608,-85366948.03556,32564009.08607,   0.00007,  -0.00035,   0.00042,95546946.80719,   0.00000,274640135.82653,   0.00000,   0.00000,   0.00000,-379093189.01934,   0.00000
-20393168.62503,-84713536.55459,32754704.28223,   0.00007,  -0.00035,   0.00043,95306343.56759,   0.00000,274640135.82653,   0.00000,   0.00000,   0.00000,-379333792.25894,   0.00000
-20053843.34951,-84071342.43809,32945399.47839,   0.00007,  -0.00034,   0.00043,95080974.76029,   0.00000,274640135.82653,   0.00000,   0.00000,   0.00000,-379559161.06624,   0.00000
-19725735.43846,-83417930.95712,33130485.99232,   0.00007,  -0.00034,   0.00043,94842306.55742,   0.00000,274640135.82653,   0.00000,   0.00000,   0.00000,-379797829.26910,   0.00000
-19389214.50405,-82744889.08831,33321181.18848,   0.00007,  -0.00034,   0.00043,94600228.60998,   0.00000,274640135.82653,   0.00000,   0.00000,   0.00000,-380039907.21655,   0.00000
-19052693.56965,-82071847.21950,33506267.70240,   0.00007,  -0.00034,   0.00044,94356310.91001,   0.00000,274640135.82653,   0.00000,   0.00000,   0.00000,-380283824.91652,   0.00000
-18727389.99972,-81387587.98620,33691354.21633,   0.00007,  -0.00033,   0.00044,94105257.87569,   0.00000,274640135.82653,   0.00000,   0.00000,   0.00000,-380534877.95084,   0.00000
-18382456.04195,-80694915.72955,33882049.41249,   0.00007,  -0.00033,   0.00044,93862629.36173,   0.00000,274640135.82653,   0.00000,   0.00000,   0.00000,-380777506.46480,   0.00000
-18048739.44867,-79991026.10842,34061527.24417,   0.00007,  -0.00033,   0.00044,93600998.81795,   0.00000,274640135.82653,   0.00000,   0.00000,   0.00000,-381039137.00858,   0.00000
-17695392.46754,-79278723.46392,34246613.75810,   0.00007,  -0.00033,   0.00045,93348092.87992,   0.00000,274640135.82653,   0.00000,   0.00000,   0.00000,-381292042.94661,   0.00000
-17353262.85089,-78555203.45495,34426091.58978,   0.00007,  -0.00032,   0.00045,93082404.21264,   0.00000,274640135.82653,   0.00000,   0.00000,   0.00000,-381557731.61389,   0.00000
-17011133.23425,-77831683.44597,34611178.10370,   0.00007,  -0.00032,   0.00045,92827503.54384,   0.00000,274640135.82653,   0.00000,   0.00000,   0.00000,-381812632.28269,   0.00000
-16660590.59424,-77088533.04916,34790655.93539,   0.00007,  -0.00032,   0.00045,92558338.03187,   0.00000,274640135.82653,   0.00000,   0.00000,   0.00000,-382081797.79466,   0.00000
-16310047.95423,-76345382.65235,34964525.08483,   0.00007,  -0.00032,   0.00045,92287552.29001,   0.00000,274640135.82653,   0.00000,   0.00000,   0.00000,-382352583.53652,   0.00000
-15951092.29087,-75582601.86769,35144002.91651,   0.00007,  -0.00031,   0.00046,92015459.65420,   0.00000,274640135.82653,   0.00000,   0.00000,   0.00000,-382624676.17233,   0.00000
-15611767.01534,-74828234.10640,35317872.06596,   0.00007,  -0.00031,   0.00046,91743376.83771,   0.00000,274640135.82653,   0.00000,   0.00000,   0.00000,-382896758.98882,   0.00000
-15244398.32861,-74045822.93390,35491741.21540,   0.00008,  -0.00031,   0.00046,91462465.73589,   0.00000,274640135.82653,   0.00000,   0.00000,   0.00000,-383177670.09064,   0.00000
-14896660.02973,-73271824.78477,35665610.36484,   0.00008,  -0.00030,   0.00046,91188116.61530,   0.00000,274640135.82653,   0.00000,   0.00000,   0.00000,-383452019.21123,   0.00000
-14540508.70748,-72478196.24779,35839479.51429,   0.00008,  -0.00030,   0.00047,90906822.38824,   0.00000,274640135.82653,   0.00000,   0.00000,   0.00000,-383733313.43829,   0.00000
-14175944.36187,-71664937.32298,36007739.98149,   0.00008,  -0.00030,   0.00047,90612220.43187,   0.00000,274640135.82653,   0.00000,   0.00000,   0.00000,-384027915.39466,   0.00000
-13811380.01627,-70851678.39816,36176000.44869,   0.00008,  -0.00030,   0.00047,90323109.55694,   0.00000,274640135.82653,   0.00000,   0.00000,   0.00000,-384317026.26959,   0.00000
-13446815.67066,-70038419.47334,36344260.91590,   0.00008,  -0.00029,   0.00047,90039542.65794,   0.00000,274640135.82653,   0.00000,   0.00000,   0.00000,-384600593.16859,   0.00000
-13073838.30169,-69205530.16069,36512521.38310,   0.00008,  -0.00029,   0.00047,89749882.42394,   0.00000,274640135.82653,   0.00000,   0.00000,   0.00000,-384890253.40259,   0.00000
-12692447.90936,-68353010.46019,36675173.16806,   0.00008,  -0.00029,   0.00048,89447583.69521,   0.00000,274640135.82653,   0.00000,   0.00000,   0.00000,-385192552.13132,   0.00000
-12330687.90488,-67508903.78306,36837824.95303,   0.00008,  -0.00028,   0.00048,89152357.07853,   0.00000,274640135.82653,   0.00000,   0.00000,   0.00000,-385487778.74800,   0.00000
-11960514.87703,-66645166.71808,37000476.73799,   0.00008,  -0.00028,   0.00048,88851716.31154,   0.00000,274640135.82653,   0.00000,   0.00000,   0.00000,-385788419.51499,   0.00000
-11570711.46134,-65773016.62974,37157519.84071,   0.00008,  -0.00028,   0.00048,88549276.25380,   0.00000,274640135.82653,   0.00000,   0.00000,   0.00000,-386090859.57273,   0.00000
-11192125.41013,-64889649.17693,37320171.62568,   0.00008,  -0.00027,   0.00049,88250001.58982,   0.00000,274640135.82653,   0.00000,   0.00000,   0.00000,-386390134.23671,   0.00000
-10813539.35893,-64006281.72411,37471606.04616,   0.00008,  -0.00027,   0.00049,87942970.53208,   0.00000,274640135.82653,   0.00000,   0.00000,   0.00000,-386697165.29445,   0.00000
-10446170.67220,-63111696.90681,37628649.14888,   0.00008,  -0.00027,   0.00049,87639482.66152,   0.00000,274640135.82653,   0.00000,   0.00000,   0.00000,-387000653.16501,   0.00000
-10050758.57427,-62189068.67831,37780083.56937,   0.00008,  -0.00026,   0.00049,87323850.34614,   0.00000,274640135.82653,   0.00000,   0.00000,   0.00000,-387316285.48039,   0.00000
-9655346.47635,-61266440.44982,37931517.98985,   0.00008,  -0.00026,   0.00049,87015250.97416,   0.00000,274640135.82653,   0.00000,   0.00000,   0.00000,-387624884.85237,   0.00000
-9279564.76626,-60352225.24468,38082952.41033,   0.00008,  -0.00026,   0.00050,86714432.61737,   0.00000,274640135.82653,   0.00000,   0.00000,   0.00000,-387925703.20916,   0.00000
-8867326.62161,-59390336.24050,38228778.14857,   0.00008,  -0.00025,   0.00050,86391703.57599,   0.00000,274640135.82653,   0.00000,   0.00000,   0.00000,-388248432.25054,   0.00000
-8483131.88816,-58456490.64752,38380212.56906,   0.00008,  -0.00025,   0.00050,86095022.24932,   0.00000,274640135.82653,   0.00000,   0.00000,   0.00000,-388545113.57720,   0.00000
-8082111.10800,-57483384.27886,38520429.62506,   0.00008,  -0.00025,   0.00050,85770294.30406,   0.00000,274640135.82653,   0.00000,   0.00000,   0.00000,-388869841.52247,   0.00000
-7689503.35119,-56529908.29805,38666255.36330,   0.00008,  -0.00024,   0.00050,85471106.14783,   0.00000,274640135.82653,   0.00000,   0.00000,   0.00000,-389169029.67870,   0.00000
-7280069.54766,-55537171.54155,38806472.41931,   0.00008,  -0.00024,   0.00050,85152153.63713,   0.00000,274640135.82653,   0.00000,   0.00000,   0.00000,-389487982.18940,   0.00000
-6890266.13197,-54552847.80841,38946689.47531,   0.00008,  -0.00023,   0.00051,84841848.13509,   0.00000,274640135.82653,   0.00000,   0.00000,   0.00000,-389798287.69144,   0.00000
-6480832.32844,-53560111.05191,39081297.84907,   0.00007,  -0.00023,   0.00051,84531746.16110,   0.00000,274640135.82653,   0.00000,   0.00000,   0.00000,-390108389.66543,   0.00000
-6082615.88940,-52556156.93093,39215906.22283,   0.00007,  -0.00023,   0.00051,84220726.87176,   0.00000,274640135.82653,   0.00000,   0.00000,   0.00000,-390419408.95477,   0.00000
-5656356.03915,-51524159.39875,39350514.59660,   0.00007,  -0.00022,   0.00051,83908780.06659,   0.00000,274640135.82653,   0.00000,   0.00000,   0.00000,-390731355.75994,   0.00000
-5249726.57674,-50500574.88993,39479514.28812,   0.00007,  -0.00022,   0.00051,83598143.69040,   0.00000,274640135.82653,   0.00000,   0.00000,   0.00000,-391041992.13613,   0.00000
-4834684.09097,-49457359.99327,39608513.97964,   0.00007,  -0.00022,   0.00051,83287436.35896,   0.00000,274640135.82653,   0.00000,   0.00000,   0.00000,-391352699.46757,   0.00000
-4411228.58184,-48394514.70877,39737513.67116,   0.00007,  -0.00021,   0.00052,82977217.97764,   0.00000,274640135.82653,   0.00000,   0.00000,   0.00000,-391662917.84889,   0.00000
-3987773.07272,-47331669.42427,39860904.68045,   0.00007,  -0.00021,   0.00052,82668715.20461,   0.00000,274640135.82653,   0.00000,   0.00000,   0.00000,-391971420.62192,   0.00000
-3583947.95143,-46277237.16313,39984295.68973,   0.00007,  -0.00020,   0.00052,82369920.83554,   0.00000,274640135.82653,   0.00000,   0.00000,   0.00000,-392270214.99099,   0.00000
-3152079.41894,-45194761.49079,40102078.01677,   0.00007,  -0.00020,   0.00052,82064453.79775,   0.00000,274640135.82653,   0.00000,   0.00000,   0.00000,-392575682.02878,   0.00000
-2731428.25093,-44101068.45397,40219860.34381,   0.00007,  -0.00020,   0.00052,81760733.44233,   0.00000,274640135.82653,   0.00000,   0.00000,   0.00000,-392879402.38420,   0.00000
-2310777.08292,-43007375.41715,40337642.67085,   0.00007,  -0.00019,   0.00052,81467599.83093,   0.00000,274640135.82653,   0.00000,   0.00000,   0.00000,-393172535.99560,   0.00000
-1862082.50372,-41885638.96912,40449816.31566,   0.00007,  -0.00019,   0.00053,81169221.42988,   0.00000,274640135.82653,   0.00000,   0.00000,   0.00000,-393470914.39665,   0.00000
-1433018.31235,-40772315.54446,40561989.96046,   0.00007,  -0.00018,   0.00053,80881597.84639,   0.00000,274640135.82653,   0.00000,   0.00000,   0.00000,-393758537.98014,   0.00000
-987128.07426,-39619731.34412,40674163.60526,   0.00007,  -0.00018,   0.00053,80590015.13509,   0.00000,274640135.82653,   0.00000,   0.00000,   0.00000,-394050120.69144,   0.00000
-569281.24737,-38495190.55498,40780728.56782,   0.00007,  -0.00017,   0.00053,80308733.36365,   0.00000,274640135.82653,   0.00000,   0.00000,   0.00000,-394331402.46288,   0.00000
-123391.00928,-37342606.35464,40881684.84814,   0.00007,  -0.00017,   0.00053,80023835.20477,   0.00000,274640135.82653,   0.00000,   0.00000,   0.00000,-394616300.62176,   0.00000
311281.86433,-36178804.78981,40988249.81071,   0.00007,  -0.00017,   0.00053,79751956.00020,   0.00000,274640135.82653,   0.00000,   0.00000,   0.00000,-394888179.82633,   0.00000
773998.14913,-34986959.81379,41083597.40879,   0.00007,  -0.00016,   0.00053,79469190.25905,   0.00000,274640135.82653,   0.00000,   0.00000,   0.00000,-395170945.56748,   0.00000
1217084.04610,-33803527.86113,41184553.68911,   0.00007,  -0.00016,   0.00054,79207347.58600,   0.00000,274640135.82653,   0.00000,   0.00000,   0.00000,-395432788.24053,   0.00000
1660169.94307,-32620095.90847,41279901.28719,   0.00007,  -0.00015,   0.00054,78949809.84731,   0.00000,274640135.82653,   0.00000,   0.00000,   0.00000,-395690325.97922,   0.00000
2111668.86340,-31417033.56796,41369640.20303,   0.00007,  -0.00015,   0.00054,78690360.95197,   0.00000,274640135.82653,   0.00000,   0.00000,   0.00000,-395949774.87456,   0.00000
2571580.80709,-30194340.83962,41464987.80112,   0.00007,  -0.00014,   0.00054,78447396.85938,   0.00000,274640135.82653,   0.00000,   0.00000,   0.00000,-396192738.96715,   0.00000
3031492.75078,-28971648.11128,41549118.03472,   0.00007,  -0.00014,   0.00054,78200775.64959,   0.00000,274640135.82653,   0.00000,   0.00000,   0.00000,-396439360.17694,   0.00000
3480187.32999,-27737738.01845,41633248.26832,   0.00007,  -0.00013,   0.00054,77961582.99291,   0.00000,274640135.82653,   0.00000,   0.00000,   0.00000,-396678552.83362,   0.00000
3956925.32040,-26475784.51443,41717378.50192,   0.00007,  -0.00013,   0.00054,77732915.37686,   0.00000,274640135.82653,   0.00000,   0.00000,   0.00000,-396907220.44967,   0.00000
4414032.92296,-25222244.03376,41801508.73552,   0.00007,  -0.00012,   0.00054,77518226.85019,   0.00000,274640135.82653,   0.00000,   0.00000,   0.00000,-397121908.97634,   0.00000
4879553.54889,-23949073.16526,41874421.60464,   0.00007,  -0.00012,   0.00054,77295733.95368,   0.00000,274640135.82653,   0.00000,   0.00000,   0.00000,-397344401.87285,   0.00000
5345074.17482,-22675902.29676,41952943.15601,   0.00007,  -0.00011,   0.00055,77098113.21308,   0.00000,274640135.82653,   0.00000,   0.00000,   0.00000,-397542022.61345,   0.00000
5819007.82411,-21383101.04041,42025856.02513,   0.00007,  -0.00011,   0.00055,76902821.91411,   0.00000,274640135.82653,   0.00000,   0.00000,   0.00000,-397737313.91242,   0.00000
6292941.47340,-20090299.78407,42093160.21201,   0.00007,  -0.00010,   0.00055,76714736.18821,   0.00000,274640135.82653,   0.00000,   0.00000,   0.00000,-397925399.63832,   0.00000
6783701.16941,-18758237.75204,42160464.39889,   0.00007,  -0.00010,   0.00055,76535316.28917,   0.00000,274640135.82653,   0.00000,   0.00000,   0.00000,-398104819.53736,   0.00000
7246417.45422,-17454219.13122,42227768.58577,   0.00007,  -0.00009,   0.00055,76375350.79306,   0.00000,274640135.82653,   0.00000,   0.00000,   0.00000,-398264785.03346,   0.00000
7725959.78575,-16110939.73471,42289464.09041,   0.00007,  -0.00009,   0.00055,76216281.89180,   0.00000,274640135.82653,   0.00000,   0.00000,   0.00000,-398423853.93473,   0.00000
8225132.50512,-14759247.31484,42345550.91281,   0.00007,  -0.00008,   0.00055,76067877.56469,   0.00000,274640135.82653,   0.00000,   0.00000,   0.00000,-398572258.26184,   0.00000
8704674.83665,-13415967.91834,42401637.73521,   0.00007,  -0.00008,   0.00055,75935748.13901,   0.00000,274640135.82653,   0.00000,   0.00000,   0.00000,-398704387.68752,   0.00000
9192630.19154,-12053058.13399,42457724.55762,   0.00007,  -0.00007,   0.00055,75819226.38852,   0.00000,274640135.82653,   0.00000,   0.00000,   0.00000,-398820909.43801,   0.00000
9688998.56979,-10670517.96180,42508202.69778,   0.00006,  -0.00007,   0.00055,75709742.89954,   0.00000,274640135.82653,   0.00000,   0.00000,   0.00000,-398930392.92699,   0.00000
10165736.56020,-9296390.81298,42553072.15570,   0.00006,  -0.00006,   0.00055,75607946.61666,   0.00000,274640135.82653,   0.00000,   0.00000,   0.00000,-399032189.20987,   0.00000
10670517.96180,-7894220.25295,42597941.61362,   0.00006,  -0.00006,   0.00055,75525942.39816,   0.00000,274640135.82653,   0.00000,   0.00000,   0.00000,-399114193.42837,   0.00000
11164081.99893,-6480832.32844,42642811.07154,   0.00006,  -0.00005,   0.00055,75460045.49650,   0.00000,274640135.82653,   0.00000,   0.00000,   0.00000,-399180090.33003,   0.00000
11677276.42390,-5059031.38058,42682071.84722,   0.00006,  -0.00005,   0.00055,75407599.50145,   0.00000,274640135.82653,   0.00000,   0.00000,   0.00000,-399232536.32507,   0.00000
12179253.48439,-3626013.06823,42715723.94066,   0.00006,  -0.00004,   0.00056,75362746.32620,   0.00000,274640135.82653,   0.00000,   0.00000,   0.00000,-399277389.50032,   0.00000
12681230.54488,-2192994.75588,42749376.03410,   0.00006,  -0.00003,   0.00056,75338968.40367,   0.00000,274640135.82653,   0.00000,   0.00000,   0.00000,-399301167.42286,   0.00000
13191620.62873,-740346.05569,42783028.12754,   0.00006,  -0.00003,   0.00056,75335886.65889,   0.00000,274640135.82653,   0.00000,   0.00000,   0.00000,-399304249.16764,   0.00000
13690793.34810,723520.00897,42811071.53874,   0.00006,  -0.00002,   0.00056,75342015.36768,   0.00000,274640135.82653,   0.00000,   0.00000,   0.00000,-399298120.45885,   0.00000
14209596.45531,2195799.09700,42833506.26770,   0.00006,  -0.00002,   0.00056,75363522.49987,   0.00000,274640135.82653,   0.00000,   0.00000,   0.00000,-399276613.32666,   0.00000
14736812.58588,3687708.57287,42855940.99666,   0.00006,  -0.00001,   0.00056,75407710.51907,   0.00000,274640135.82653,   0.00000,   0.00000,   0.00000,-399232425.30746,   0.00000
15244398.32861,5171205.02538,42872767.04338,   0.00006,  -0.00001,   0.00056,75462067.25527,   0.00000,274640135.82653,   0.00000,   0.00000,   0.00000,-399178068.57126,   0.00000
15760397.09470,6674331.86573,42889593.09010,   0.00006,  -0.00000,   0.00056,75540044.26921,   0.00000,274640135.82653,   0.00000,   0.00000,   0.00000,-399100091.55732,   0.00000
16284808.88415,8197089.09392,42900810.45458,   0.00006,   0.00001,   0.00056,75632915.14735,   0.00000,274640135.82653,   0.00000,   0.00000,   0.00000,-399007220.67918,   0.00000
16809220.67360,9719846.32211,42906419.13682,   0.00006,   0.00001,   0.00056,75739848.69190,   0.00000,274640135.82653,   0.00000,   0.00000,   0.00000,-398900287.13463,   0.00000
17342045.48641,11262233.93814,42917636.50130,   0.00006,   0.00002,   0.00056,75881782.07100,   0.00000,274640135.82653,   0.00000,   0.00000,   0.00000,-398758353.75553,   0.00000
17855239.91138,12796208.53081,42917636.50130,   0.00006,   0.00002,   0.00056,76025283.55986,   0.00000,274640135.82653,   0.00000,   0.00000,   0.00000,-398614852.26667,   0.00000
18396477.74755,14358226.53468,42917636.50130,   0.00006,   0.00003,   0.00056,76198548.78127,   0.00000,274640135.82653,   0.00000,   0.00000,   0.00000,-398441587.04526,   0.00000
18926498.21924,15931461.90303,42912027.81906,   0.00006,   0.00004,   0.00056,76386015.88318,   0.00000,274640135.82653,   0.00000,   0.00000,   0.00000,-398254119.94335,   0.00000
19456518.69093,17504697.27138,42906419.13682,   0.00005,   0.00004,   0.00056,76598123.25330,   0.00000,274640135.82653,   0.00000,   0.00000,   0.00000,-398042012.57323,   0.00000
19994952.18598,19097563.02757,42895201.77234,   0.00005,   0.00005,   0.00056,76828739.23329,   0.00000,274640135.82653,   0.00000,   0.00000,   0.00000,-397811396.59324,   0.00000
20533385.68103,20690428.78376,42883984.40786,   0.00005,   0.00005,   0.00056,77084223.89011,   0.00000,274640135.82653,   0.00000,   0.00000,   0.00000,-397555911.93642,   0.00000
21080232.19944,22302924.92779,42867158.36114,   0.00005,   0.00006,   0.00056,77359069.35577,   0.00000,274640135.82653,   0.00000,   0.00000,   0.00000,-397281066.47076,   0.00000
21635491.74122,23935051.45966,42850332.31442,   0.00005,   0.00007,   0.00056,77663295.84462,   0.00000,274640135.82653,   0.00000,   0.00000,   0.00000,-396976839.98191,   0.00000
22171120.89515,25558764.96817,42827897.58546,   0.00005,   0.00007,   0.00056,77979670.65318,   0.00000,274640135.82653,   0.00000,   0.00000,   0.00000,-396660465.17335,   0.00000
22715163.07244,27202108.86452,42799854.17426,   0.00005,   0.00008,   0.00056,78316764.31855,   0.00000,274640135.82653,   0.00000,   0.00000,   0.00000,-396323371.50798,   0.00000
23287248.66093,28873496.17207,42771810.76306,   0.00005,   0.00009,   0.00056,78688460.61640,   0.00000,274640135.82653,   0.00000,   0.00000,   0.00000,-395951675.21013,   0.00000
23839703.86158,30536470.45627,42738158.66962,   0.00005,   0.00009,   0.00056,79072610.39632,   0.00000,274640135.82653,   0.00000,   0.00000,   0.00000,-395567525.43021,   0.00000
24380941.69775,32210662.10494,42698897.89394,   0.00005,   0.00010,   0.00056,79474640.23544,   0.00000,274640135.82653,   0.00000,   0.00000,   0.00000,-395165495.59109,   0.00000
24941809.92176,33893266.77697,42659637.11826,   0.00005,   0.00011,   0.00055,79906332.13078,   0.00000,274640135.82653,   0.00000,   0.00000,   0.00000,-394733803.69575,   0.00000
25511091.16913,35595501.83684,42620376.34258,   0.00005,   0.00011,   0.00055,80369551.88275,   0.00000,274640135.82653,   0.00000,   0.00000,   0.00000,-394270583.94377,   0.00000
26069155.05202,37308954.26120,42569898.20242,   0.00005,   0.00012,   0.00055,80842653.95581,   0.00000,274640135.82653,   0.00000,   0.00000,   0.00000,-393797481.87072,   0.00000
26627218.93491,39022406.68555,42519420.06226,   0.00005,   0.00013,   0.00055,81341269.30930,   0.00000,274640135.82653,   0.00000,   0.00000,   0.00000,-393298866.51723,   0.00000
27213326.22900,40763902.52110,42468941.92210,   0.00004,   0.00013,   0.00055,81876569.17256,   0.00000,274640135.82653,   0.00000,   0.00000,   0.00000,-392763566.65397,   0.00000
27779803.13525,42496985.33330,42412855.09969,   0.00004,   0.00014,   0.00055,82423929.60405,   0.00000,274640135.82653,   0.00000,   0.00000,   0.00000,-392216206.22248,   0.00000
28335062.67702,44241285.50997,42351159.59505,   0.00004,   0.00015,   0.00055,82990660.19611,   0.00000,274640135.82653,   0.00000,   0.00000,   0.00000,-391649475.63042,   0.00000
28909952.60664,45993998.71000,42289464.09041,   0.00004,   0.00015,   0.00055,83586752.97749,   0.00000,274640135.82653,   0.00000,   0.00000,   0.00000,-391053382.84904,   0.00000
29501668.58297,47785972.68572,42222159.90353,   0.00004,   0.00016,   0.00055,84215284.04256,   0.00000,274640135.82653,   0.00000,   0.00000,   0.00000,-390424851.78397,   0.00000
30065341.14810,49549903.25023,42149247.03441,   0.00004,   0.00017,   0.00055,84847274.45292,   0.00000,274640135.82653,   0.00000,   0.00000,   0.00000,-389792861.37361,   0.00000
30645839.75995,51353094.59043,42076334.16529,   0.00004,   0.00017,   0.00055,85520774.09014,   0.00000,274640135.82653,   0.00000,   0.00000,   0.00000,-389119361.73639,   0.00000
31226338.37180,53156285.93062,41997812.61393,   0.00004,   0.00018,   0.00055,86210484.07273,   0.00000,274640135.82653,   0.00000,   0.00000,   0.00000,-388429651.75380,   0.00000
31806836.98365,54959477.27082,41919291.06256,   0.00004,   0.00019,   0.00054,86924178.31703,   0.00000,274640135.82653,   0.00000,   0.00000,   0.00000,-387715957.50950,   0.00000
32395748.61886,56782298.99885,41835160.82896,   0.00004,   0.00020,   0.00054,87662711.39178,   0.00000,274640135.82653,   0.00000,   0.00000,   0.00000,-386977424.43475,   0.00000
32973442.88959,58616338.09137,41745421.91312,   0.00004,   0.00020,   0.00054,88421611.06254,   0.00000,274640135.82653,   0.00000,   0.00000,   0.00000,-386218524.76399,   0.00000
33579180.57152,60478420.59508,41650074.31504,   0.00003,   0.00021,   0.00054,89210823.28413,   0.00000,274640135.82653,   0.00000,   0.00000,   0.00000,-385429312.54240,   0.00000
34165287.86562,62332090.07544,41554726.71696,   0.00003,   0.00022,   0.00054,90018600.77219,   0.00000,274640135.82653,   0.00000,   0.00000,   0.00000,-384621535.05434,   0.00000
34751395.15971,64185759.55579,41459379.11888,   0.00003,   0.00022,   0.00054,90849143.37581,   0.00000,274640135.82653,   0.00000,   0.00000,   0.00000,-383790992.45072,   0.00000
35345915.47716,66059059.42399,41352814.15631,   0.00003,   0.00023,   0.00054,91697223.82897,   0.00000,274640135.82653,   0.00000,   0.00000,   0.00000,-382942911.99756,   0.00000
35948848.81797,67951989.68002,41246249.19375,   0.00003,   0.00024,   0.00054,92578377.85673,   0.00000,274640135.82653,   0.00000,   0.00000,   0.00000,-382061757.96980,   0.00000
36551782.15878,69844919.93606,41139684.23119,   0.00003,   0.00025,   0.00053,93481603.41684,   0.00000,274640135.82653,   0.00000,   0.00000,   0.00000,-381158532.40969,   0.00000
37143498.13511,71749067.55658,41027510.58639,   0.00003,   0.00025,   0.00053,94405119.91792,   0.00000,274640135.82653,   0.00000,   0.00000,   0.00000,-380235015.90861,   0.00000
37743627.13480,73672845.56493,40909728.25935,   0.00003,   0.00026,   0.00053,95354112.38496,   0.00000,274640135.82653,   0.00000,   0.00000,   0.00000,-379286023.44157,   0.00000
38363386.52234,75605036.59665,40786337.25006,   0.00003,   0.00027,   0.00053,96322280.19040,   0.00000,274640135.82653,   0.00000,   0.00000,   0.00000,-378317855.63613,   0.00000
38971928.54539,77548444.99285,40662946.24078,   0.00003,   0.00028,   0.00053,97317961.69891,   0.00000,274640135.82653,   0.00000,   0.00000,   0.00000,-377322174.12762,   0.00000
39560840.18060,79483440.36569,40533946.54926,   0.00003,   0.00028,   0.00053,98322165.12783,   0.00000,274640135.82653,   0.00000,   0.00000,   0.00000,-376317970.69870,   0.00000
40177795.22701,81446479.14972,40399338.17550,   0.00002,   0.00029,   0.00053,99356750.19346,   0.00000,274640135.82653,   0.00000,   0.00000,   0.00000,-375283385.63307,   0.00000
40794750.27342,83409517.93376,40264729.80173,   0.00002,   0.00030,   0.00052,100411325.43343,   0.00000,274640135.82653,   0.00000,   0.00000,   0.00000,-374228810.39310,   0.00000
41400487.95535,85383774.08228,40124512.74573,   0.00002,   0.00031,   0.00052,101485905.12109,   0.00000,274640135.82653,   0.00000,   0.00000,   0.00000,-373154230.70544,   0.00000
42014638.66065,87377660.61864,39984295.68973,   0.00002,   0.00032,   0.00052,102592281.89526,   0.00000,274640135.82653,   0.00000,   0.00000,   0.00000,-372047853.93127,   0.00000
42628789.36594,89371547.15500,39838469.95148,   0.00002,   0.00032,   0.00052,103711124.42227,   0.00000,274640135.82653,   0.00000,   0.00000,   0.00000,-370929011.40426,   0.00000
43251353.09459,91385064.07919,39687035.53100,   0.00002,   0.00033,   0.00052,104854967.33549,   0.00000,274640135.82653,   0.00000,   0.00000,   0.00000,-369785168.49104,   0.00000
43854286.43540,93390167.98003,39529992.42828,   0.00002,   0.00034,   0.00051,106005771.73621,   0.00000,274640135.82653,   0.00000,   0.00000,   0.00000,-368634364.09032,   0.00000
44485263.18741,95423315.29207,39372949.32556,   0.00002,   0.00035,   0.00051,107192834.94235,   0.00000,274640135.82653,   0.00000,   0.00000,   0.00000,-367447300.88418,   0.00000
45096609.55159,97448049.58075,39210297.54059,   0.00002,   0.00036,   0.00051,108386310.09634,   0.00000,274640135.82653,   0.00000,   0.00000,   0.00000,-366253825.73019,   0.00000
45724781.96248,99512044.64511,39047645.75563,   0.00001,   0.00036,   0.00051,109623866.41649,   0.00000,274640135.82653,   0.00000,   0.00000,   0.00000,-365016269.41004,   0.00000
46344541.35001,101556409.32163,38873776.60619,   0.00001,   0.00037,   0.00051,110853268.32784,   0.00000,274640135.82653,   0.00000,   0.00000,   0.00000,-363786867.49869,   0.00000
46972713.76090,103620404.38599,38699907.45674,   0.00001,   0.00038,   0.00050,112113072.20681,   0.00000,274640135.82653,   0.00000,   0.00000,   0.00000,-362527063.61972,   0.00000
47609299.19515,105704029.83819,38526038.30730,   0.00001,   0.00039,   0.00050,113403083.70654,   0.00000,274640135.82653,   0.00000,   0.00000,   0.00000,-361237052.11999,   0.00000
48226254.24157,107779242.26703,38346560.47562,   0.00001,   0.00040,   0.00050,114698402.88001,   0.00000,274640135.82653,   0.00000,   0.00000,   0.00000,-359941732.94652,   0.00000
48871252.69918,109882498.10707,38161473.96169,   0.00001,   0.00040,   0.00050,116023108.40180,   0.00000,274640135.82653,   0.00000,   0.00000,   0.00000,-358617027.42473,   0.00000
49505033.79231,111996971.31159,37970778.76553,   0.00001,   0.00041,   0.00049,117366929.85894,   0.00000,274640135.82653,   0.00000,   0.00000,   0.00000,-357273205.96759,   0.00000
50138814.88544,114111444.51611,37780083.56937,   0.00001,   0.00042,   0.00049,118726214.78970,   0.00000,274640135.82653,   0.00000,   0.00000,   0.00000,-355913921.03682,   0.00000
50752965.59073,116217504.69727,37583779.69096,   0.00000,   0.00043,   0.00049,120090009.51349,   0.00000,274640135.82653,   0.00000,   0.00000,   0.00000,-354550126.31304,   0.00000
51403572.73059,118371238.67747,37381867.13032,   0.00000,   0.00044,   0.00049,121497262.64154,   0.00000,274640135.82653,   0.00000,   0.00000,   0.00000,-353142873.18499,   0.00000
52026136.45924,120496929.24647,37179954.56967,   0.00000,   0.00045,   0.00048,122899496.39530,   0.00000,274640135.82653,   0.00000,   0.00000,   0.00000,-351740639.43123,   0.00000
52676743.59909,122650663.22667,36972433.32679,   0.00000,   0.00046,   0.00048,124330484.77911,   0.00000,274640135.82653,   0.00000,   0.00000,   0.00000,-350309651.04742,   0.00000
53316133.37446,124815614.57136,36759303.40167,  -0.00000,   0.00046,   0.00048,125779970.28484,   0.00000,274640135.82653,   0.00000,   0.00000,   0.00000,-348860165.54169,   0.00000
53944305.78536,126991783.28052,36540564.79430,  -0.00000,   0.00047,   0.00048,127248010.53210,   0.00000,274640135.82653,   0.00000,   0.00000,   0.00000,-347392125.29443,   0.00000
54592108.58409,129176365.01304,36321826.18694,  -0.00000,   0.00048,   0.00047,128734791.82028,   0.00000,274640135.82653,   0.00000,   0.00000,   0.00000,-345905344.00625,   0.00000
55239911.38282,131360946.74556,36103087.57957,  -0.00000,   0.00049,   0.00047,130234703.05728,   0.00000,274640135.82653,   0.00000,   0.00000,   0.00000,-344405432.76925,   0.00000
55876496.81707,133556745.84256,35873131.60773,  -0.00001,   0.00050,   0.00047,131748050.78888,   0.00000,274640135.82653,   0.00000,   0.00000,   0.00000,-342892085.03765,   0.00000
56513082.25133,135752544.93957,35643175.63588,  -0.00001,   0.00051,   0.00046,133274135.12512,   0.00000,274640135.82653,   0.00000,   0.00000,   0.00000,-341366000.70141,   0.00000
57158080.70894,137967974.42441,35407610.98180,  -0.00001,   0.00052,   0.00046,134823292.81701,   0.00000,274640135.82653,   0.00000,   0.00000,   0.00000,-339816843.00952,   0.00000
57811492.18991,140203034.29709,35172046.32772,  -0.00001,   0.00053,   0.00046,136399895.02087,   0.00000,274640135.82653,   0.00000,   0.00000,   0.00000,-338240240.80566,   0.00000
58445273.28304,142429681.14641,34925264.30915,  -0.00001,   0.00053,   0.00045,137974797.20432,   0.00000,274640135.82653,   0.00000,   0.00000,   0.00000,-336665338.62221,   0.00000
59107097.78737,144684371.40694,34678482.29059,  -0.00001,   0.00054,   0.00045,139581999.02261,   0.00000,274640135.82653,   0.00000,   0.00000,   0.00000,-335058136.80392,   0.00000
59749291.90387,146930648.64410,34431700.27202,  -0.00001,   0.00055,   0.00045,141195669.65525,   0.00000,274640135.82653,   0.00000,   0.00000,   0.00000,-333444466.17127,   0.00000
60399899.04372,149196556.26910,34179309.57122,  -0.00002,   0.00056,   0.00044,142831995.29175,   0.00000,274640135.82653,   0.00000,   0.00000,   0.00000,-331808140.53478,   0.00000
61050506.18357,151462463.89411,33921310.18817,  -0.00002,   0.00057,   0.00044,144475423.65484,   0.00000,274640135.82653,   0.00000,   0.00000,   0.00000,-330164712.17169,   0.00000
61689895.95894,153739588.88359,33657702.12289,  -0.00002,   0.00058,   0.00044,146136401.85491,   0.00000,274640135.82653,   0.00000,   0.00000,   0.00000,-328503733.97162,   0.00000
62348916.12216,156025126.89644,33394094.05760,  -0.00002,   0.00059,   0.00043,147813147.48230,   0.00000,274640135.82653,   0.00000,   0.00000,   0.00000,-326826988.34422,   0.00000
62996718.92089,158321882.27376,33124877.31008,  -0.00002,   0.00060,   0.00043,149507251.91542,   0.00000,274640135.82653,   0.00000,   0.00000,   0.00000,-325132883.91111,   0.00000
63644521.71962,160618637.65108,32850051.88031,  -0.00002,   0.00061,   0.00043,151207980.14280,   0.00000,274640135.82653,   0.00000,   0.00000,   0.00000,-323432155.68373,   0.00000
64300737.54171,162935023.41625,32569617.76831,  -0.00003,   0.00062,   0.00042,152931045.02272,   0.00000,274640135.82653,   0.00000,   0.00000,   0.00000,-321709090.80381,   0.00000
64956953.36381,165251409.18141,32289183.65630,  -0.00003,   0.00063,   0.00042,154664087.91578,   0.00000,274640135.82653,   0.00000,   0.00000,   0.00000,-319976047.91075,   0.00000
65601951.82142,167579012.31106,32003140.86205,  -0.00003,   0.00063,   0.00042,156414303.16032,   0.00000,274640135.82653,   0.00000,   0.00000,   0.00000,-318225832.66621,   0.00000
66266580.66687,169915028.46406,31717098.06781,  -0.00003,   0.00064,   0.00041,158179049.18327,   0.00000,274640135.82653,   0.00000,   0.00000,   0.00000,-316461086.64326,   0.00000
66919992.14784,172262261.98155,31425446.59132,  -0.00003,   0.00065,   0.00041,159960804.92822,   0.00000,274640135.82653,   0.00000,   0.00000,   0.00000,-314679330.89831,   0.00000
67581816.65218,174629125.88687,31128186.43260,  -0.00003,   0.00066,   0.00040,161764557.16242,   0.00000,274640135.82653,   0.00000,   0.00000,   0.00000,-312875578.66411,   0.00000
68215597.74531,176967946.38100,30830926.27387,  -0.00003,   0.00067,   0.00040,163556368.33408,   0.00000,274640135.82653,   0.00000,   0.00000,   0.00000,-311083767.49245,   0.00000
68885835.27300,179354440.67416,30522448.75067,  -0.00004,   0.00068,   0.00040,165387886.09886,   0.00000,274640135.82653,   0.00000,   0.00000,   0.00000,-309252249.72767,   0.00000
69536442.41286,181732521.94397,30213971.22746,  -0.00004,   0.00069,   0.00039,167223340.11989,   0.00000,274640135.82653,   0.00000,   0.00000,   0.00000,-307416795.70664,   0.00000
70187049.55271,184110603.21377,29905493.70425,  -0.00004,   0.00070,   0.00039,169067358.67930,   0.00000,274640135.82653,   0.00000,   0.00000,   0.00000,-305572777.14723,   0.00000
70846069.71592,186508314.87142,29591407.49881,  -0.00004,   0.00071,   0.00038,170932999.22973,   0.00000,274640135.82653,   0.00000,   0.00000,   0.00000,-303707136.59680,   0.00000
71505089.87913,188906026.52907,29271712.61112,  -0.00004,   0.00072,   0.00038,172803998.24517,   0.00000,274640135.82653,   0.00000,   0.00000,   0.00000,-301836137.58136,   0.00000
72152892.67787,191314955.55119,28946409.04120,  -0.00004,   0.00073,   0.00038,174691752.73299,   0.00000,274640135.82653,   0.00000,   0.00000,   0.00000,-299948383.09354,   0.00000
72820325.86444,193732297.59668,28621105.47127,  -0.00005,   0.00074,   0.00037,176592346.90333,   0.00000,274640135.82653,   0.00000,   0.00000,   0.00000,-298047788.92320,   0.00000
73476541.68653,196160857.00665,28290193.21910,  -0.00005,   0.00075,   0.00037,178509573.16010,   0.00000,274640135.82653,   0.00000,   0.00000,   0.00000,-296130562.66643,   0.00000
74132757.50862,198589416.41661,27953672.28470,  -0.00005,   0.00076,   0.00036,180431882.93684,   0.00000,274640135.82653,   0.00000,   0.00000,   0.00000,-294208252.88969,   0.00000
74769342.94288,201009562.80322,27617151.35029,  -0.00005,   0.00077,   0.00036,182356977.36180,   0.00000,274640135.82653,   0.00000,   0.00000,   0.00000,-292283158.46472,   0.00000
75433971.78833,203457752.60103,27275021.73364,  -0.00005,   0.00078,   0.00035,184308152.98058,   0.00000,274640135.82653,   0.00000,   0.00000,   0.00000,-290331982.84595,   0.00000
76087383.26930,205917159.76331,26927283.43476,  -0.00006,   0.00079,   0.00035,186275882.76707,   0.00000,274640135.82653,   0.00000,   0.00000,   0.00000,-288364253.05946,   0.00000
76740794.75027,208376566.92560,26579545.13587,  -0.00006,   0.00080,   0.00035,188250834.07063,   0.00000,274640135.82653,   0.00000,   0.00000,   0.00000,-286389301.75590,   0.00000
77394206.23125,210835974.08789,26226198.15474,  -0.00006,   0.00081,   0.00034,190230462.01170,   0.00000,274640135.82653,   0.00000,   0.00000,   0.00000,-284409673.81483,   0.00000
78056030.73558,213315011.63802,25867242.49138,  -0.00006,   0.00082,   0.00034,192231261.04218,   0.00000,274640135.82653,   0.00000,   0.00000,   0.00000,-282408874.78435,   0.00000
78706637.87543,215805266.55262,25508286.82801,  -0.00006,   0.00083,   0.00033,194250763.29846,   0.00000,274640135.82653,   0.00000,   0.00000,   0.00000,-280389372.52807,   0.00000
79348831.99192,218275891.07939,25143722.48240,  -0.00006,   0.00084,   0.00033,196258210.26560,   0.00000,274640135.82653,   0.00000,   0.00000,   0.00000,-278381925.56093,   0.00000
80027482.54298,220794189.40520,24773549.45456,  -0.00007,   0.00085,   0.00032,198307980.56756,   0.00000,274640135.82653,   0.00000,   0.00000,   0.00000,-276332155.25897,   0.00000
80658459.29499,223276031.29645,24403376.42671,  -0.00007,   0.00086,   0.00032,200338331.00167,   0.00000,274640135.82653,   0.00000,   0.00000,   0.00000,-274301804.82486,   0.00000
81317479.45820,225785916.59890,24027594.71662,  -0.00007,   0.00087,   0.00031,202394285.71097,   0.00000,274640135.82653,   0.00000,   0.00000,   0.00000,-272245850.11556,   0.00000
81965282.25693,228307019.26582,23646204.32429,  -0.00007,   0.00088,   0.00031,204466579.67252,   0.00000,274640135.82653,   0.00000,   0.00000,   0.00000,-270173556.15401,   0.00000
82632715.44351,230836534.95611,23264813.93197,  -0.00007,   0.00089,   0.00030,206549695.05421,   0.00000,274640135.82653,   0.00000,   0.00000,   0.00000,-268090440.77232,   0.00000
83280518.24224,233357637.62304,22877814.85740,  -0.00008,   0.00090,   0.00030,208632380.02913,   0.00000,274640135.82653,   0.00000,   0.00000,   0.00000,-266007755.79740,   0.00000
83917103.67649,235889957.65445,22490815.78283,  -0.00008,   0.00091,   0.00029,210733150.60206,   0.00000,274640135.82653,   0.00000,   0.00000,   0.00000,-263906985.22447,   0.00000
84573319.49858,238430690.70922,22092599.34378,  -0.00008,   0.00092,   0.00029,212840819.62058,   0.00000,274640135.82653,   0.00000,   0.00000,   0.00000,-261799316.20595,   0.00000
85218317.95620,240982641.12847,21699991.58698,  -0.00008,   0.00093,   0.00028,214968203.72220,   0.00000,274640135.82653,   0.00000,   0.00000,   0.00000,-259671932.10433,   0.00000
85863316.41381,243534591.54772,21296166.46569,  -0.00008,   0.00094,   0.00028,217097901.44662,   0.00000,274640135.82653,   0.00000,   0.00000,   0.00000,-257542234.37991,   0.00000
86508314.87142,246086541.96696,20892341.34440,  -0.00009,   0.00095,   0.00027,219233237.44726,   0.00000,274640135.82653,   0.00000,   0.00000,   0.00000,-255406898.37927,   0.00000
87161726.35239,248658122.77405,20482907.54087,  -0.00009,   0.00096,   0.00027,221389263.09489,   0.00000,274640135.82653,   0.00000,   0.00000,   0.00000,-253250872.73164,   0.00000
87795507.44553,251221290.55778,20073473.73735,  -0.00009,   0.00097,   0.00026,223546237.53297,   0.00000,274640135.82653,   0.00000,   0.00000,   0.00000,-251093898.29356,   0.00000
88457331.94986,253812501.75271,19658431.25158,  -0.00009,   0.00098,   0.00026,225728311.60250,   0.00000,274640135.82653,   0.00000,   0.00000,   0.00000,-248911824.22403,   0.00000
89099526.06635,256395299.92428,19237780.08357,  -0.00009,   0.00099,   0.00025,227909745.74873,   0.00000,274640135.82653,   0.00000,   0.00000,   0.00000,-246730390.07780,   0.00000
89750133.20620,258997728.48369,18817128.91556,  -0.00010,   0.00100,   0.00024,230113194.23406,   0.00000,274640135.82653,   0.00000,   0.00000,   0.00000,-244526941.59247,   0.00000
90372696.93486,261572113.63190,18390869.06531,  -0.00010,   0.00101,   0.00024,232299138.66437,   0.00000,274640135.82653,   0.00000,   0.00000,   0.00000,-242340997.16216,   0.00000
91003673.68687,264166129.16795,17959000.53282,  -0.00010,   0.00102,   0.00023,234505653.03757,   0.00000,274640135.82653,   0.00000,   0.00000,   0.00000,-240134482.78896,   0.00000
91662693.85008,266788188.11520,17527132.00034,  -0.00010,   0.00104,   0.00023,236738386.87483,   0.00000,274640135.82653,   0.00000,   0.00000,   0.00000,-237901748.95170,   0.00000
92302083.62545,269401834.03909,17089654.78561,  -0.00011,   0.00105,   0.00022,238970377.06162,   0.00000,274640135.82653,   0.00000,   0.00000,   0.00000,-235669758.76491,   0.00000
92921843.01298,272007066.93962,16652177.57088,  -0.00011,   0.00106,   0.00022,241202820.16385,   0.00000,274640135.82653,   0.00000,   0.00000,   0.00000,-233437315.66268,   0.00000
93569645.81172,274640343.25135,16209091.67391,  -0.00011,   0.00107,   0.00021,243460060.53066,   0.00000,274640135.82653,   0.00000,   0.00000,   0.00000,-231180075.29587,   0.00000
94197818.22261,277265206.53972,15760397.09470,  -0.00011,   0.00108,   0.00020,245716536.96909,   0.00000,274640135.82653,   0.00000,   0.00000,   0.00000,-228923598.85744,   0.00000
94825990.63350,279890069.82809,15311702.51549,  -0.00011,   0.00109,   0.00020,247977642.64111,   0.00000,274640135.82653,   0.00000,   0.00000,   0.00000,-226662493.18542,   0.00000
95462576.06775,282534563.50430,14857399.25405,  -0.00012,   0.00110,   0.00019,250259131.06527,   0.00000,274640135.82653,   0.00000,   0.00000,   0.00000,-224381004.76126,   0.00000
96079531.11416,285170644.15716,14397487.31036,  -0.00012,   0.00111,   0.00019,252539845.83138,   0.00000,274640135.82653,   0.00000,   0.00000,   0.00000,-222100289.99515,   0.00000
96716116.54842,287815137.83337,13937575.36667,  -0.00012,   0.00112,   0.00018,254829288.68649,   0.00000,274640135.82653,   0.00000,   0.00000,   0.00000,-219810847.14004,   0.00000
97341484.61819,290470848.87406,13477663.42298,  -0.00012,   0.00113,   0.00018,257135678.65936,   0.00000,274640135.82653,   0.00000,   0.00000,   0.00000,-217504457.16717,   0.00000
97966852.68796,293126559.91475,13006534.11481,  -0.00013,   0.00114,   0.00017,259444613.79643,   0.00000,274640135.82653,   0.00000,   0.00000,   0.00000,-215195522.03009,   0.00000
98592220.75773,295782270.95544,12541013.48888,  -0.00013,   0.00115,   0.00016,261758625.28142,   0.00000,274640135.82653,   0.00000,   0.00000,   0.00000,-212881510.54511,   0.00000
99206371.46302,298449199.36061,12064275.49847,  -0.00013,   0.00116,   0.00016,264087877.10372,   0.00000,274640135.82653,   0.00000,   0.00000,   0.00000,-210552258.72281,   0.00000
99820522.16832,301116127.76578,11587537.50806,  -0.00013,   0.00118,   0.00015,266421288.59428,   0.00000,274640135.82653,   0.00000,   0.00000,   0.00000,-208218847.23225,   0.00000
100434672.87361,303783056.17095,11110799.51765,  -0.00014,   0.00119,   0.00014,268758751.40818,   0.00000,274640135.82653,   0.00000,   0.00000,   0.00000,-205881384.41835,   0.00000
101057236.60226,306469614.96396,10628452.84500,  -0.00014,   0.00120,   0.00014,271116413.38116,   0.00000,274640135.82653,   0.00000,   0.00000,   0.00000,-203523722.44537,   0.00000
101679800.33091,309156173.75698,10140497.49011,  -0.00014,   0.00121,   0.00013,273477371.30657,   0.00000,274640135.82653,   0.00000,   0.00000,   0.00000,-201162764.51996,   0.00000
102282733.67172,311834319.52663,9652542.13523,  -0.00014,   0.00122,   0.00013,275838083.84117,   0.00000,274640135.82653,   0.00000,   0.00000,   0.00000,-198802051.98536,   0.00000
102894080.03590,314532095.68412,9158978.09810,  -0.00015,   0.00123,   0.00012,278218980.18306,   0.00000,274640135.82653,   0.00000,   0.00000,   0.00000,-196421155.64347,   0.00000
103505426.40007,317229871.84161,8659805.37873,  -0.00015,   0.00124,   0.00011,280603151.12039,   0.00000,274640135.82653,   0.00000,   0.00000,   0.00000,-194036984.70614,   0.00000
104116772.76424,319927647.99910,8166241.34160,  -0.00015,   0.00125,   0.00011,282991573.35565,   0.00000,274640135.82653,   0.00000,   0.00000,   0.00000,-191648562.47088,   0.00000
104708488.74057,322617011.13323,7661459.93999,  -0.00015,   0.00126,   0.00010,285378621.68416,   0.00000,274640135.82653,   0.00000,   0.00000,   0.00000,-189261514.14237,   0.00000
105308617.74026,325326004.65521,7156678.53838,  -0.00016,   0.00127,   0.00009,287786268.87534,   0.00000,274640135.82653,   0.00000,   0.00000,   0.00000,-186853866.95119,   0.00000
105908746.73995,328034998.17718,6646288.45453,  -0.00016,   0.00129,   0.00009,290197116.75343,   0.00000,274640135.82653,   0.00000,   0.00000,   0.00000,-184443019.07310,   0.00000
106508875.73964,330743991.69915,6135898.37068,  -0.00016,   0.00130,   0.00008,292611526.92493,   0.00000,274640135.82653,   0.00000,   0.00000,   0.00000,-182028608.90160,   0.00000
107097787.37486,333464202.58560,5625508.28683,  -0.00016,   0.00131,   0.00007,295042321.08540,   0.00000,274640135.82653,   0.00000,   0.00000,   0.00000,-179597814.74113,   0.00000
107686699.01007,336184413.47205,5109509.52074,  -0.00017,   0.00132,   0.00007,297476245.30779,   0.00000,274640135.82653,   0.00000,   0.00000,   0.00000,-177163890.51874,   0.00000
108275610.64528,338904624.35851,4587902.07241,  -0.00017,   0.00133,   0.00006,299913310.23404,   0.00000,274640135.82653,   0.00000,   0.00000,   0.00000,-174726825.59249,   0.00000
108864522.28049,341624835.24496,4066294.62408,  -0.00017,   0.00134,   0.00005,302353753.13583,   0.00000,274640135.82653,   0.00000,   0.00000,   0.00000,-172286382.69070,   0.00000
109453433.91570,344345046.13141,3539078.49351,  -0.00017,   0.00135,   0.00005,304797297.34692,   0.00000,274640135.82653,   0.00000,   0.00000,   0.00000,-169842838.47961,   0.00000
110031128.18643,347076474.38234,3011862.36294,  -0.00018,   0.00136,   0.00004,307257101.04256,   0.00000,274640135.82653,   0.00000,   0.00000,   0.00000,-167383034.78397,   0.00000
110608822.45716,349807902.63328,2479037.55013,  -0.00018,   0.00138,   0.00003,309719997.79656,   0.00000,274640135.82653,   0.00000,   0.00000,   0.00000,-164920138.02997,   0.00000
111194929.75125,352558961.27205,1946212.73732,  -0.00018,   0.00139,   0.00003,312203023.48928,   0.00000,274640135.82653,   0.00000,   0.00000,   0.00000,-162437112.33725,   0.00000
111772624.02199,355290389.52298,1407779.24227,  -0.00018,   0.00140,   0.00002,314672189.37898,   0.00000,274640135.82653,   0.00000,   0.00000,   0.00000,-159967946.44755,   0.00000
112339100.92824,358033035.13839,869345.74722,  -0.00019,   0.00141,   0.00001,317157509.54976,   0.00000,274640135.82653,   0.00000,   0.00000,   0.00000,-157482626.27677,   0.00000
112905577.83449,360775680.75381,325303.56993,  -0.00019,   0.00142,   0.00000,319645885.46173,   0.00000,274640135.82653,   0.00000,   0.00000,   0.00000,-154994250.36480,   0.00000
113472054.74074,363518326.36922,-218738.60736,  -0.00019,   0.00143,  -0.00000,322137319.98027,   0.00000,274640135.82653,   0.00000,   0.00000,   0.00000,-152502815.84626,   0.00000
114038531.64699,366260971.98463,-768389.46689,  -0.00020,   0.00144,  -0.00001,324631782.36538,   0.00000,274640135.82653,   0.00000,   0.00000,   0.00000,-150008353.46115,   0.00000
114593791.18876,369014834.96452,-1318040.32643,  -0.00020,   0.00146,  -0.00002,327142305.65663,   0.00000,274640135.82653,   0.00000,   0.00000,   0.00000,-147497830.16990,   0.00000
115149050.73053,371768697.94442,-1867691.18596,  -0.00020,   0.00147,  -0.00002,329655761.07040,   0.00000,274640135.82653,   0.00000,   0.00000,   0.00000,-144984374.75613,   0.00000
115704310.27230,374522560.92431,-2422950.72773,  -0.00020,   0.00148,  -0.00003,332172204.63852,   0.00000,274640135.82653,   0.00000,   0.00000,   0.00000,-142467931.18801,   0.00000
116259569.81407,377276423.90420,-2983818.95174,  -0.00021,   0.00149,  -0.00004,334691652.70412,   0.00000,274640135.82653,   0.00000,   0.00000,   0.00000,-139948483.12241,   0.00000
116814829.35584,380030286.88410,-3544687.17575,  -0.00021,   0.00150,  -0.00005,337213944.87142,   0.00000,274640135.82653,   0.00000,   0.00000,   0.00000,-137426190.95511,   0.00000
117358871.53313,382795367.22847,-4105555.39976,  -0.00021,   0.00151,  -0.00005,339752163.09611,   0.00000,274640135.82653,   0.00000,   0.00000,   0.00000,-134887972.73042,   0.00000
117894500.68706,385540817.18500,-4672032.30601,  -0.00022,   0.00152,  -0.00006,342276462.13117,   0.00000,274640135.82653,   0.00000,   0.00000,   0.00000,-132363673.69536,   0.00000
118438542.86435,388305897.52938,-5244117.89450,  -0.00022,   0.00154,  -0.00007,344820643.40811,   0.00000,274640135.82653,   0.00000,   0.00000,   0.00000,-129819492.41842,   0.00000
118962954.65380,391062564.85039,-5810594.80075,  -0.00022,   0.00155,  -0.00008,347363563.25044,   0.00000,274640135.82653,   0.00000,   0.00000,   0.00000,-127276572.57608,   0.00000
119506996.83109,393827645.19476,-6382680.38924,  -0.00022,   0.00156,  -0.00008,349913122.20579,   0.00000,274640135.82653,   0.00000,   0.00000,   0.00000,-124727013.62074,   0.00000
120039821.64390,396603942.90361,-6960374.65997,  -0.00023,   0.00157,  -0.00009,352478822.31958,   0.00000,274640135.82653,   0.00000,   0.00000,   0.00000,-122161313.50695,   0.00000
120564233.43335,399360610.22463,-7538068.93070,  -0.00023,   0.00158,  -0.00010,355030270.53586,   0.00000,274640135.82653,   0.00000,   0.00000,   0.00000,-119609865.29067,   0.00000
121077427.85832,402128494.91012,-8115763.20144,  -0.00023,   0.00159,  -0.00011,357597515.31608,   0.00000,274640135.82653,   0.00000,   0.00000,   0.00000,-117042620.51045,   0.00000
121610252.67113,404904792.61897,-8699066.15441,  -0.00024,   0.00161,  -0.00011,360171336.66948,   0.00000,274640135.82653,   0.00000,   0.00000,   0.00000,-114468799.15705,   0.00000
122123447.09610,407672677.30447,-9282369.10738,  -0.00024,   0.00162,  -0.00012,362744045.63086,   0.00000,274640135.82653,   0.00000,   0.00000,   0.00000,-111896090.19567,   0.00000
122636641.52107,410440561.98996,-9871280.74259,  -0.00024,   0.00163,  -0.00013,365319689.11383,   0.00000,274640135.82653,   0.00000,   0.00000,   0.00000,-109320446.71269,   0.00000
123149835.94604,413208446.67545,-10460192.37780,  -0.00025,   0.00164,  -0.00014,367897807.75593,   0.00000,274640135.82653,   0.00000,   0.00000,   0.00000,-106742328.07060,   0.00000
123643399.98317,415967918.33759,-11049104.01301,  -0.00025,   0.00165,  -0.00014,370474776.24906,   0.00000,274640135.82653,   0.00000,   0.00000,   0.00000,-104165359.57747,   0.00000
124145377.04366,418747020.38756,-11643624.33046,  -0.00025,   0.00166,  -0.00015,373071517.21285,   0.00000,274640135.82653,   0.00000,   0.00000,   0.00000,-101568618.61368,   0.00000
124638941.08079,421506492.04969,-12238144.64791,  -0.00025,   0.00167,  -0.00016,375653806.31546,   0.00000,274640135.82653,   0.00000,   0.00000,   0.00000,-98986329.51107,   0.00000
125140918.14128,424285594.09967,-12838273.64761,  -0.00026,   0.00169,  -0.00017,378255852.25446,   0.00000,274640135.82653,   0.00000,   0.00000,   0.00000,-96384283.57207,   0.00000
125634482.17841,427045065.76180,-13438402.64730,  -0.00026,   0.00170,  -0.00017,380843402.98480,   0.00000,274640135.82653,   0.00000,   0.00000,   0.00000,-93796732.84173,   0.00000
126116828.85106,429815754.78841,-14038531.64699,  -0.00026,   0.00171,  -0.00018,383446578.69389,   0.00000,274640135.82653,   0.00000,   0.00000,   0.00000,-91193557.13264,   0.00000
126599175.52371,432586443.81503,-14638660.64668,  -0.00027,   0.00172,  -0.00019,386052025.82383,   0.00000,274640135.82653,   0.00000,   0.00000,   0.00000,-88588110.00270,   0.00000
127081522.19636,435357132.84164,-15244398.32861,  -0.00027,   0.00173,  -0.00020,388660358.54005,   0.00000,274640135.82653,   0.00000,   0.00000,   0.00000,-85979777.28648,   0.00000
127544238.48117,438119408.84489,-15850136.01054,  -0.00027,   0.00174,  -0.00021,391267457.43296,   0.00000,274640135.82653,   0.00000,   0.00000,   0.00000,-83372678.39357,   0.00000
128034998.17718,440909728.25935,-16461482.37472,  -0.00028,   0.00176,  -0.00021,393897720.46039,   0.00000,274640135.82653,   0.00000,   0.00000,   0.00000,-80742415.36614,   0.00000
128497714.46199,443672004.26260,-17072828.73889,  -0.00028,   0.00177,  -0.00022,396509919.06039,   0.00000,274640135.82653,   0.00000,   0.00000,   0.00000,-78130216.76614,   0.00000
128960430.74680,446434280.26585,-17684175.10306,  -0.00028,   0.00178,  -0.00023,399124281.84576,   0.00000,274640135.82653,   0.00000,   0.00000,   0.00000,-75515853.98077,   0.00000
129423147.03160,449196556.26910,-18295521.46723,  -0.00029,   0.00179,  -0.00024,401740766.56565,   0.00000,274640135.82653,   0.00000,   0.00000,   0.00000,-72899369.26088,   0.00000
129874645.95193,451970049.63684,-18912476.51364,  -0.00029,   0.00180,  -0.00025,404373521.08668,   0.00000,274640135.82653,   0.00000,   0.00000,   0.00000,-70266614.73985,   0.00000
130317731.84890,454723912.61673,-19529431.56005,  -0.00029,   0.00181,  -0.00025,406991590.97114,   0.00000,274640135.82653,   0.00000,   0.00000,   0.00000,-67648544.85539,   0.00000
130769230.76923,457497405.98446,-20151995.28871,  -0.00030,   0.00183,  -0.00026,409629336.20693,   0.00000,274640135.82653,   0.00000,   0.00000,   0.00000,-65010799.61960,   0.00000
131212316.66620,460251268.96436,-20768950.33512,  -0.00030,   0.00184,  -0.00027,412251519.43068,   0.00000,274640135.82653,   0.00000,   0.00000,   0.00000,-62388616.39584,   0.00000
131663815.58653,463024762.33209,-21391514.06377,  -0.00030,   0.00185,  -0.00028,414893329.14573,   0.00000,274640135.82653,   0.00000,   0.00000,   0.00000,-59746806.68080,   0.00000
132087271.09566,465770212.28862,-22014077.79242,  -0.00031,   0.00186,  -0.00029,417517042.05360,   0.00000,274640135.82653,   0.00000,   0.00000,   0.00000,-57123093.77293,   0.00000
132519139.62814,468535292.63300,-22642250.20331,  -0.00031,   0.00187,  -0.00029,420160402.02301,   0.00000,274640135.82653,   0.00000,   0.00000,   0.00000,-54479733.80352,   0.00000
132951008.16063,471300372.97737,-23270422.61421,  -0.00031,   0.00189,  -0.00030,422805735.66550,   0.00000,274640135.82653,   0.00000,   0.00000,   0.00000,-51834400.16103,   0.00000
133374463.66976,474045822.93390,-23898595.02510,  -0.00032,   0.00190,  -0.00031,425436259.55494,   0.00000,274640135.82653,   0.00000,   0.00000,   0.00000,-49203876.27159,   0.00000
133786701.81441,476802490.25491,-24526767.43599,  -0.00032,   0.00191,  -0.00032,428082177.47314,   0.00000,274640135.82653,   0.00000,   0.00000,   0.00000,-46557958.35339,   0.00000
134198939.95906,479559157.57593,-25154939.84688,  -0.00032,   0.00192,  -0.00033,430729989.09157,   0.00000,274640135.82653,   0.00000,   0.00000,   0.00000,-43910146.73496,   0.00000
134602765.08034,482296194.50910,-25788720.94002,  -0.00033,   0.00193,  -0.00034,433363930.91690,   0.00000,274640135.82653,   0.00000,   0.00000,   0.00000,-41276204.90963,   0.00000
135015003.22499,485052861.83011,-26422502.03315,  -0.00033,   0.00194,  -0.00034,436016469.87496,   0.00000,274640135.82653,   0.00000,   0.00000,   0.00000,-38623665.95157,   0.00000
135427241.36964,487809529.15113,-27056283.12628,  -0.00034,   0.00196,  -0.00035,438670836.68589,   0.00000,274640135.82653,   0.00000,   0.00000,   0.00000,-35969299.14064,   0.00000
135811436.10309,490538153.06094,-27690064.21941,  -0.00034,   0.00197,  -0.00036,441307096.84264,   0.00000,274640135.82653,   0.00000,   0.00000,   0.00000,-33333038.98389,   0.00000
136204043.85990,493286407.35859,-28329453.99478,  -0.00034,   0.00198,  -0.00037,443962939.52998,   0.00000,274640135.82653,   0.00000,   0.00000,   0.00000,-30677196.29655,   0.00000
136588238.59334,496015031.26840,-28963235.08792,  -0.00035,   0.00199,  -0.00038,446602782.89519,   0.00000,274640135.82653,   0.00000,   0.00000,   0.00000,-28037352.93134,   0.00000
136980846.35015,498763285.56606,-29602624.86329,  -0.00035,   0.00200,  -0.00038,449262169.01340,   0.00000,274640135.82653,   0.00000,   0.00000,   0.00000,-25377966.81313,   0.00000
137345410.69576,501483496.45251,-30242014.63866,  -0.00035,   0.00201,  -0.00039,451903463.83295,   0.00000,274640135.82653,   0.00000,   0.00000,   0.00000,-22736671.99358,   0.00000
137718388.06472,504223337.72680,-30887013.09627,  -0.00036,   0.00203,  -0.00040,454564325.65389,   0.00000,274640135.82653,   0.00000,   0.00000,   0.00000,-20075810.17264,   0.00000
138082952.41033,506943548.61325,-31526402.87165,  -0.00036,   0.00204,  -0.00041,457209080.79689,   0.00000,274640135.82653,   0.00000,   0.00000,   0.00000,-17431055.02964,   0.00000
138447516.75594,509663759.49971,-32171401.32926,  -0.00036,   0.00205,  -0.00042,459856692.84082,   0.00000,274640135.82653,   0.00000,   0.00000,   0.00000,-14783442.98571,   0.00000
138812081.10155,512383970.38616,-32816399.78687,  -0.00037,   0.00206,  -0.00043,462505989.15145,   0.00000,274640135.82653,   0.00000,   0.00000,   0.00000,-12134146.67508,   0.00000
139165428.08267,515115398.63709,-33455789.56224,  -0.00037,   0.00207,  -0.00043,465169329.26503,   0.00000,274640135.82653,   0.00000,   0.00000,   0.00000,-9470806.56150,   0.00000
139510362.04044,517827196.50018,-34106396.70209,  -0.00037,   0.00208,  -0.00044,467820078.42948,   0.00000,274640135.82653,   0.00000,   0.00000,   0.00000,-6820057.39705,   0.00000
139855295.99821,520538994.36327,-34751395.15971,  -0.00038,   0.00210,  -0.00045,470471244.32087,   0.00000,274640135.82653,   0.00000,   0.00000,   0.00000,-4168891.50566,   0.00000
140200229.95597,523250792.22637,-35396393.61732,  -0.00038,   0.00211,  -0.00046,473124009.84708,   0.00000,274640135.82653,   0.00000,   0.00000,   0.00000,-1516125.97945,   0.00000
140393683.53588,524798420.86566,-35767179.64548,  -0.00038,   0.00211,  -0.00046,474640136.22964,   0.00000,274640135.82653,   0.00000,   0.00000,   0.00000,   0.40311,   0.00000
140319455.54857,524740368.47387,-35949251.79664,  -0.00039,   0.00212,  -0.00047,474640136.22964,   0.00000,274644885.37974,  -0.00000,   0.00001,  -0.00000,   0.00000,   2.00000
140132434.16711,524599251.24211,-36379182.68115,  -0.00039,   0.00213,  -0.00048,477298973.98403,   0.00001,274656126.33593,  -0.00000,   0.00002,  -0.00000,  -0.00000,   2.00000
139946176.63520,524457713.81124,-36806434.48136,  -0.00039,   0.00214,  -0.00049,477311561.50339,   0.00002,274667372.94015,  -0.00001,   0.00003,  -0.00001,   0.00000,   2.00000
139755736.58989,524315360.87167,-37226965.73283,  -0.00040,   0.00215,  -0.00049,477306197.20271,   0.00003,274678549.15171,  -0.00001,   0.00004,  -0.00001,   0.00000,   2.00000
139571033.42565,524173051.41710,-37648930.96341,  -0.00040,   0.00217,  -0.00050,477336625.07781,   0.00005,274689806.85424,  -0.00001,   0.00005,  -0.00001,  -0.00000,   2.00000
139362921.57727,524023340.93842,-38069958.67814,  -0.00041,   0.00218,  -0.00051,477329599.71702,   0.00006,274700987.20376,  -0.00002,   0.00006,  -0.00002,   0.00000,   2.00000
139174649.55460,523878494.57787,-38488114.90998,  -0.00041,   0.00219,  -0.00052,477345066.77333,   0.00007,274712185.68278,  -0.00002,   0.00008,  -0.00002,   0.00000,   2.00000
138968193.88001,523728102.45727,-38903937.62876,  -0.00041,   0.00220,  -0.00053,477354590.87405,   0.00008,274723377.15784,  -0.00002,   0.00009,  -0.00002,   0.00000,   2.00000
138762615.52864,523577406.91633,-39317179.64331,  -0.00042,   0.00221,  -0.00054,477367074.52305,   0.00009,274734574.19013,  -0.00003,   0.00010,  -0.00003,   0.00000,   2.00000
138557912.90963,523426425.32966,-39727855.88325,  -0.00042,   0.00222,  -0.00054,477379549.56488,   0.00010,274745776.71326,  -0.00003,   0.00011,  -0.00003,   0.00000,   2.00000
138329594.38463,523266528.89018,-40143208.53538,  -0.00042,   0.00224,  -0.00055,477373909.07673,   0.00011,274756908.13037,  -0.00003,   0.00012,  -0.00003,   0.00000,   2.00000
138107793.76607,523109802.62946,-40549024.67320,  -0.00043,   0.00225,  -0.00056,477401501.54409,   0.00012,274768109.47372,  -0.00004,   0.00014,  -0.00003,   0.00000,   2.00000
137900668.93037,522956181.51074,-40953588.32657,  -0.00043,   0.00226,  -0.00057,477400307.46583,   0.00013,274779258.40395,  -0.00004,   0.00015,  -0.00004,   0.00000,   2.00000
137675453.53619,522797073.54090,-41355926.30932,  -0.00044,   0.00227,  -0.00058,477409771.12245,   0.00014,274790400.41359,  -0.00004,   0.00016,  -0.00004,   0.00000,   2.00000
137431966.22679,522630929.92631,-41761490.66626,  -0.00044,   0.00228,  -0.00059,477420724.17052,   0.00015,274801541.96664,  -0.00005,   0.00017,  -0.00004,   0.00000,   2.00000
137208817.94957,522471458.33607,-42158835.24889,  -0.00044,   0.00229,  -0.00060,477434558.11932,   0.00016,274812695.13029,  -0.00005,   0.00018,  -0.00005,  -0.00000,   2.00000
136967663.07154,522306533.82387,-42554004.06170,  -0.00045,   0.00230,  -0.00060,477444028.94990,   0.00017,274823841.48501,  -0.00005,   0.00019,  -0.00005,   0.00000,   2.00000
136740978.92964,522143168.54339,-42953487.31844,  -0.00045,   0.00232,  -0.00061,477444260.23120,   0.00018,274834941.83302,  -0.00006,   0.00021,  -0.00005,   0.00000,   2.00000
136496575.60353,521975961.04040,-43345370.55229,  -0.00046,   0.00233,  -0.00062,477452171.21554,   0.00019,274846029.01478,  -0.00006,   0.00022,  -0.00006,   0.00000,   2.00000
136234266.07671,521803322.09280,-43735130.68704,  -0.00046,   0.00234,  -0.00063,477461595.22438,   0.00020,274857109.61033,  -0.00006,   0.00023,  -0.00006,   0.00000,   2.00000
135992139.34509,521635917.04208,-44122206.26548,  -0.00046,   0.00235,  -0.00064,477476768.11415,   0.00021,274868207.87603,  -0.00007,   0.00024,  -0.00006,   0.00000,   2.00000
135751095.55989,521468424.84617,-44506899.83632,  -0.00047,   0.00236,  -0.00065,477489053.50880,   0.00022,274879311.49253,  -0.00007,   0.00025,  -0.00007,   0.00000,   2.00000
135486477.16186,521291784.03055,-44896613.62080,  -0.00047,   0.00237,  -0.00065,477483540.30784,   0.00023,274890345.17835,  -0.00007,   0.00027,  -0.00007,   0.00000,   2.00000
135228710.45187,521118828.27970,-45276833.15765,  -0.00048,   0.00238,  -0.00066,477510720.03806,   0.00024,274901447.71309,  -0.00008,   0.00028,  -0.00007,   0.00000,   2.00000
134966735.26369,520943760.27534,-45656422.06503,  -0.00048,   0.00240,  -0.00067,477506476.72855,   0.00025,274912485.66924,  -0.00008,   0.00029,  -0.00008,   0.00000,   2.00000
134700555.85336,520766571.41468,-46035410.28408,  -0.00048,   0.00241,  -0.00068,477502175.70762,   0.00026,274923459.10775,  -0.00008,   0.00030,  -0.00008,   0.00000,   2.00000
134422255.84641,520587814.58964,-46405250.39908,  -0.00049,   0.00242,  -0.00069,477526367.49954,   0.00027,274934489.12094,  -0.00009,   0.00031,  -0.00009,   0.00000,   2.00000
134158546.55146,520410610.06185,-46779679.15976,  -0.00049,   0.00243,  -0.00070,477526512.66956,   0.00028,274945473.46907,  -0.00009,   0.00032,  -0.00009,   0.00000,   2.00000
133877006.06758,520228003.85463,-47152128.27235,  -0.00050,   0.00244,  -0.00071,477535844.64516,   0.00029,274956451.39471,  -0.00009,   0.00033,  -0.00009,  -0.00000,   2.00000
133597051.51314,520047195.54450,-47516914.74663,  -0.00050,   0.00245,  -0.00071,477546302.81082,   0.00030,274967427.67836,  -0.00009,   0.00035,  -0.00010,   0.00000,   2.00000
133318079.23931,519864655.10799,-47884874.19831,  -0.00051,   0.00246,  -0.00072,477560102.02493,   0.00031,274978416.48876,  -0.00010,   0.00036,  -0.00010,   0.00000,   2.00000
133035235.08827,519681789.44419,-48247003.38628,  -0.00051,   0.00247,  -0.00073,477554040.64799,   0.00032,274989333.59853,  -0.00010,   0.00037,  -0.00010,   0.00000,   2.00000
132753683.82596,519498992.75292,-48606941.22503,  -0.00051,   0.00249,  -0.00074,477566074.60830,   0.00033,275000256.01530,  -0.00010,   0.00038,  -0.00011,   0.00000,   2.00000
132454075.53243,519308996.28054,-48970392.03762,  -0.00052,   0.00250,  -0.00075,477577077.54843,   0.00034,275011179.46212,  -0.00011,   0.00039,  -0.00011,   0.00000,   2.00000
132150666.67643,519118705.83961,-49328098.09027,  -0.00052,   0.00251,  -0.00076,477570934.87193,   0.00035,275022031.25572,  -0.00011,   0.00040,  -0.00011,   0.00000,   2.00000
131873500.78759,518938076.66510,-49676112.63709,  -0.00053,   0.00252,  -0.00076,477600349.02738,   0.00036,275032962.28919,  -0.00011,   0.00042,  -0.00012,  -0.00000,   2.00000
131572746.88784,518747983.72718,-50029571.61593,  -0.00053,   0.00253,  -0.00077,477594912.55887,   0.00037,275043824.60077,  -0.00012,   0.00043,  -0.00012,   0.00000,   2.00000
131249113.70475,518552129.39407,-50377716.58360,  -0.00053,   0.00254,  -0.00078,477585920.13223,   0.00038,275054603.53443,  -0.00012,   0.00044,  -0.00013,   0.00000,   2.00000
130951248.65032,518362325.65962,-50726951.25068,  -0.00054,   0.00255,  -0.00079,477618757.46745,   0.00039,275065476.68452,  -0.00012,   0.00045,  -0.00013,  -0.00000,   2.00000
130649528.21695,518172279.76538,-51070613.80223,  -0.00054,   0.00256,  -0.00080,477612463.41883,   0.00040,275076277.70341,  -0.00013,   0.00046,  -0.00013,   0.00000,   2.00000
130324577.64940,517974559.87480,-51414446.31447,  -0.00055,   0.00258,  -0.00081,477605197.03382,   0.00041,275087002.91382,  -0.00013,   0.00047,  -0.00014,   0.00000,   2.00000
130006997.60484,517781246.83829,-51748950.09574,  -0.00055,   0.00259,  -0.00081,477631601.41322,   0.00042,275097795.40020,  -0.00013,   0.00048,  -0.00014,   0.00000,   2.00000
129685000.26115,517583876.36004,-52088748.84186,  -0.00056,   0.00260,  -0.00082,477628859.56019,   0.00043,275108531.27200,  -0.00014,   0.00050,  -0.00015,   0.00000,   2.00000
129364800.26946,517388640.24968,-52421169.60099,  -0.00056,   0.00261,  -0.00083,477638805.40178,   0.00044,275119264.57216,  -0.00014,   0.00051,  -0.00015,   0.00000,   2.00000
129040479.16198,517191258.89666,-52753571.71114,  -0.00056,   0.00262,  -0.00084,477634164.63661,   0.00045,275129933.44968,  -0.00014,   0.00052,  -0.00015,   0.00000,   2.00000
128723258.42237,516996465.87916,-53082042.48685,  -0.00057,   0.00263,  -0.00085,477662271.79822,   0.00046,275140677.07714,  -0.00015,   0.00053,  -0.00016,   0.00000,   2.00000
128396259.22673,516797129.04880,-53412518.51604,  -0.00057,   0.00264,  -0.00086,477641237.30306,   0.00047,275151286.67636,  -0.00015,   0.00054,  -0.00016,   0.00000,   2.00000
128057617.07207,516596787.14114,-53734037.24177,  -0.00058,   0.00265,  -0.00086,477664739.94844,   0.00048,275161951.86614,  -0.00015,   0.00055,  -0.00017,  -0.00000,   2.00000
127714894.39658,516394286.91037,-54055659.18931,  -0.00058,   0.00266,  -0.00087,477660033.82732,   0.00049,275172552.71723,  -0.00016,   0.00056,  -0.00017,   0.00000,   2.00000
127392846.58419,516197689.96091,-54375072.17248,  -0.00059,   0.00267,  -0.00088,477674255.74082,   0.00050,275183169.71331,  -0.00016,   0.00057,  -0.00017,  -0.00000,   2.00000
127047503.69040,515993251.35068,-54694954.38869,  -0.00059,   0.00268,  -0.00089,477666886.52454,   0.00051,275193711.27463,  -0.00016,   0.00058,  -0.00018,   0.00000,   2.00000
126704061.83911,515791109.80335,-55007634.07779,  -0.00060,   0.00270,  -0.00090,477676492.72181,   0.00052,275204249.75649,  -0.00017,   0.00060,  -0.00018,   0.00000,   2.00000
126343086.69948,515583572.52603,-55318814.36563,  -0.00060,   0.00271,  -0.00090,477685440.03213,   0.00053,275214782.47150,  -0.00017,   0.00061,  -0.00019,   0.00000,   2.00000
126002886.51868,515382028.89803,-55627857.43077,  -0.00060,   0.00272,  -0.00091,477699534.36740,   0.00053,275225331.17259,  -0.00017,   0.00062,  -0.00019,   0.00000,   2.00000
125653126.52471,515177834.08930,-55933898.33029,  -0.00061,   0.00273,  -0.00092,477676368.25903,   0.00054,275235737.62933,  -0.00018,   0.00063,  -0.00019,  -0.00000,   2.00000
125291570.26799,514970742.70024,-56236428.19120,  -0.00061,   0.00274,  -0.00093,477701538.22781,   0.00055,275246207.75928,  -0.00018,   0.00064,  -0.00020,  -0.00000,   2.00000
124945049.59006,514767169.72146,-56538965.90395,  -0.00062,   0.00275,  -0.00094,477699167.26365,   0.00056,275256624.24461,  -0.00018,   0.00065,  -0.00020,   0.00000,   2.00000
124581299.70582,514560258.75320,-56834766.75786,  -0.00062,   0.00276,  -0.00094,477705996.08899,   0.00057,275267026.46973,  -0.00019,   0.00066,  -0.00021,  -0.00000,   2.00000
124218889.80852,514351584.24803,-57134184.42657,  -0.00063,   0.00277,  -0.00095,477719363.94367,   0.00058,275277442.26656,  -0.00019,   0.00067,  -0.00021,   0.00000,   2.00000
123852992.95446,514144884.19765,-57423361.66923,  -0.00063,   0.00278,  -0.00096,477710349.04713,   0.00059,275287776.49596,  -0.00019,   0.00068,  -0.00021,   0.00000,   2.00000
123482637.48178,513933816.84674,-57718323.05630,  -0.00063,   0.00279,  -0.00097,477707334.78795,   0.00060,275298055.02662,  -0.00019,   0.00069,  -0.00022,   0.00000,   2.00000
123120090.97603,513727831.74607,-58004165.68736,  -0.00064,   0.00280,  -0.00098,477732811.59061,   0.00061,275308399.08656,  -0.00020,   0.00070,  -0.00022,   0.00000,   2.00000
122747865.46282,513519094.30094,-58287351.88185,  -0.00064,   0.00281,  -0.00098,477709394.13566,   0.00062,275318600.68347,  -0.00020,   0.00072,  -0.00023,   0.00000,   2.00000
122382832.50784,513311211.68153,-58572096.21770,  -0.00065,   0.00282,  -0.00099,477738867.52777,   0.00063,275328885.14479,  -0.00020,   0.00073,  -0.00023,   0.00000,   2.00000
121994766.40455,513097357.89136,-58852406.80447,  -0.00065,   0.00283,  -0.00100,477729243.13934,   0.00064,275339086.07065,  -0.00021,   0.00074,  -0.00023,   0.00000,   2.00000
121622066.41562,512889225.21693,-59127680.71219,  -0.00066,   0.00284,  -0.00101,477724413.26006,   0.00065,275349224.09618,  -0.00021,   0.00075,  -0.00024,   0.00000,   2.00000
121231872.10133,512675603.58306,-59401739.15679,  -0.00066,   0.00285,  -0.00102,477733012.03928,   0.00066,275359356.65973,  -0.00021,   0.00076,  -0.00024,   0.00000,   2.00000
120862597.41978,512468247.55358,-59673938.55530,  -0.00067,   0.00286,  -0.00102,477746444.81241,   0.00067,275369504.21679,  -0.00022,   0.00077,  -0.00025,   0.00000,   2.00000
120469899.61124,512252668.57421,-59947134.50191,  -0.00067,   0.00287,  -0.00103,477738797.41259,   0.00068,275379577.20119,  -0.00022,   0.00078,  -0.00025,   0.00000,   2.00000
120079275.46712,512039679.17351,-60213519.43407,  -0.00068,   0.00288,  -0.00104,477747636.18829,   0.00069,275389646.00332,  -0.00022,   0.00079,  -0.00026,   0.00000,   2.00000
119690718.42708,511829300.37807,-60473136.07318,  -0.00068,   0.00290,  -0.00105,477756434.10866,   0.00070,275399710.44205,  -0.00023,   0.00080,  -0.00026,   0.00000,   2.00000
119292000.24720,511613804.39651,-60735752.86757,  -0.00068,   0.00291,  -0.00105,477734852.61328,   0.00070,275409641.38381,  -0.00023,   0.00081,  -0.00026,   0.00000,   2.00000
118901004.65042,511401487.55523,-60994699.79084,  -0.00069,   0.00292,  -0.00106,477761890.03080,   0.00071,275419646.14251,  -0.00023,   0.00082,  -0.00027,  -0.00000,   2.00000
118506090.58006,511189023.99147,-61249174.07260,  -0.00069,   0.00293,  -0.00107,477754337.84341,   0.00072,275429577.27406,  -0.00024,   0.00083,  -0.00027,   0.00000,   2.00000
118106929.90184,510974165.38044,-61504499.20899,  -0.00070,   0.00294,  -0.00108,477748876.55301,   0.00073,275439444.00279,  -0.00024,   0.00084,  -0.00028,   0.00000,   2.00000
117709840.67420,510761968.70679,-61753157.37712,  -0.00070,   0.00295,  -0.00108,477757399.52174,   0.00074,275449306.07583,  -0.00024,   0.00085,  -0.00028,   0.00000,   2.00000
117314496.50944,510550193.79973,-62000463.24521,  -0.00071,   0.00296,  -0.00109,477768078.64430,   0.00075,275459172.67380,  -0.00025,   0.00086,  -0.00028,   0.00000,   2.00000
116915175.65388,510338255.65768,-62243421.05386,  -0.00071,   0.00297,  -0.00110,477760343.24277,   0.00076,275468965.41862,  -0.00025,   0.00087,  -0.00029,   0.00000,   2.00000
116498387.05582,510120710.58922,-62485387.74571,  -0.00072,   0.00298,  -0.00111,477768669.03978,   0.00077,275478753.06520,  -0.00025,   0.00088,  -0.00029,   0.00000,   2.00000
116096891.61577,509909041.01411,-62722743.33033,  -0.00072,   0.00299,  -0.00111,477763121.54348,   0.00078,275488476.49013,  -0.00025,   0.00089,  -0.00030,   0.00000,   2.00000
115677919.37402,509691740.21693,-62959146.18382,  -0.00073,   0.00300,  -0.00112,477771387.90802,   0.00079,275498194.85486,  -0.00026,   0.00090,  -0.00030,   0.00000,   2.00000
115274216.62693,509480332.21522,-63190997.54119,  -0.00073,   0.00301,  -0.00113,477765726.12365,   0.00079,275507848.79000,  -0.00026,   0.00091,  -0.00031,   0.00000,   2.00000
114866150.73392,509266427.87924,-63423920.68955,  -0.00073,   0.00302,  -0.00113,477759972.75987,   0.00080,275517438.19518,  -0.00026,   0.00092,  -0.00031,   0.00000,   2.00000
114440915.20407,509049157.80591,-63650670.45081,  -0.00074,   0.00302,  -0.00114,477765884.68826,   0.00081,275527013.09074,  -0.00027,   0.00093,  -0.00031,   0.00000,   2.00000
114017817.14271,508834642.81180,-63870965.06424,  -0.00074,   0.00303,  -0.00115,477773988.25226,   0.00082,275536582.84733,  -0.00027,   0.00094,  -0.00032,   0.00000,   2.00000
113609313.01401,508621408.77930,-64097361.57417,  -0.00075,   0.00304,  -0.00116,477772611.62153,   0.00083,275546107.03783,  -0.00027,   0.00095,  -0.00032,   0.00000,   2.00000
113183929.05121,508407122.93356,-64312379.84680,  -0.00075,   0.00305,  -0.00116,477776177.06397,   0.00084,275555606.96777,  -0.00028,   0.00096,  -0.00033,  -0.00000,   2.00000
112773428.92022,508196442.38889,-64528296.85056,  -0.00076,   0.00306,  -0.00117,477772435.41568,   0.00085,275565051.53049,  -0.00028,   0.00097,  -0.00033,   0.00000,   2.00000
112339220.87154,507977002.84898,-64745749.05676,  -0.00076,   0.00307,  -0.00118,477764329.65106,   0.00086,275574422.47403,  -0.00028,   0.00098,  -0.00034,  -0.00000,   2.00000
111907145.98544,507760349.96679,-64956828.62053,  -0.00077,   0.00308,  -0.00118,477772175.02592,   0.00086,275583788.05943,  -0.00029,   0.00099,  -0.00034,  -0.00000,   2.00000
111496456.41039,507552705.96127,-65161261.67234,  -0.00077,   0.00309,  -0.00119,477782098.48541,   0.00087,275593157.04989,  -0.00029,   0.00100,  -0.00034,   0.00000,   2.00000
111062301.45615,507338582.74698,-65362072.79049,  -0.00078,   0.00310,  -0.00120,477771628.32733,   0.00088,275602442.60251,  -0.00029,   0.00101,  -0.00035,   0.00000,   2.00000
110623400.25894,507119454.78769,-65569465.38059,  -0.00078,   0.00311,  -0.00120,477767842.28931,   0.00089,275611673.58868,  -0.00029,   0.00102,  -0.00035,   0.00000,   2.00000
110206200.46689,506911767.63466,-65765014.81176,  -0.00078,   0.00312,  -0.00121,477775241.08969,   0.00090,275620897.80038,  -0.00030,   0.00103,  -0.00036,  -0.00000,   2.00000
109765173.23567,506695146.24405,-65962259.81797,  -0.00079,   0.00313,  -0.00122,477766981.97422,   0.00091,275630048.60760,  -0.00030,   0.00104,  -0.00036,   0.00000,   2.00000
109326263.46737,506481350.00790,-66153272.17669,  -0.00079,   0.00314,  -0.00122,477774517.12228,   0.00092,275639193.65033,  -0.00030,   0.00105,  -0.00036,   0.00000,   2.00000
108902132.50941,506271155.64851,-66345408.99623,  -0.00080,   0.00315,  -0.00123,477770306.01775,   0.00092,275648282.78181,  -0.00031,   0.00106,  -0.00037,   0.00000,   2.00000
108460747.66285,506057484.48329,-66531654.84066,  -0.00080,   0.00316,  -0.00124,477775703.99046,   0.00093,275657357.29116,  -0.00031,   0.00107,  -0.00037,   0.00000,   2.00000
108015123.52737,505843486.81598,-66714141.53734,  -0.00081,   0.00317,  -0.00124,477767032.19426,   0.00094,275666357.22324,  -0.00031,   0.00108,  -0.00038,   0.00000,   2.00000
107584244.92043,505633085.84544,-66897828.93778,  -0.00081,   0.00318,  -0.00125,477762640.48378,   0.00095,275675301.08150,  -0.00032,   0.00109,  -0.00038,   0.00000,   2.00000
107136097.59757,505419172.39993,-67075682.52186,  -0.00082,   0.00319,  -0.00126,477767902.63838,   0.00096,275684230.36008,  -0.00032,   0.00109,  -0.00039,  -0.00000,   2.00000
106709352.79533,505214486.65039,-67247135.23667,  -0.00082,   0.00319,  -0.00126,477777101.59077,   0.00097,275693161.81204,  -0.00032,   0.00110,  -0.00039,   0.00000,   2.00000
106252215.26722,504997393.30537,-67422889.56706,  -0.00083,   0.00320,  -0.00127,477752598.32651,   0.00097,275701951.71374,  -0.00032,   0.00111,  -0.00039,   0.00000,   2.00000
105822909.77073,504792800.78396,-67589841.15139,  -0.00083,   0.00321,  -0.00128,477777679.16538,   0.00098,275710812.18109,  -0.00033,   0.00112,  -0.00040,   0.00000,   2.00000
105363140.48055,504575709.42567,-67761138.93852,  -0.00083,   0.00322,  -0.00128,477753148.54939,   0.00099,275719531.24692,  -0.00033,   0.00113,  -0.00040,   0.00000,   2.00000
104925076.39828,504370348.47978,-67920879.01224,  -0.00084,   0.00323,  -0.00129,477759655.92838,   0.00100,275728241.91225,  -0.00033,   0.00114,  -0.00041,   0.00000,   2.00000
104469412.43255,504158962.80249,-68080140.63795,  -0.00084,   0.00324,  -0.00129,477767094.31285,   0.00101,275736948.25960,  -0.00034,   0.00115,  -0.00041,  -0.00000,   2.00000
104028387.34816,503951167.29505,-68240791.49802,  -0.00085,   0.00325,  -0.00130,477762303.97595,   0.00101,275745598.01348,  -0.00034,   0.00116,  -0.00041,   0.00000,   2.00000
103583160.54277,503745378.88797,-68392698.39659,  -0.00085,   0.00326,  -0.00131,477750718.48101,   0.00102,275754162.38524,  -0.00034,   0.00117,  -0.00042,   0.00000,   2.00000
103113812.35529,503530179.17775,-68546626.21305,  -0.00086,   0.00327,  -0.00131,477742027.24579,   0.00103,275762654.19412,  -0.00034,   0.00118,  -0.00042,   0.00000,   2.00000
102665883.07306,503324356.38725,-68694329.92683,  -0.00086,   0.00327,  -0.00132,477750588.51396,   0.00104,275771147.35073,  -0.00035,   0.00118,  -0.00043,   0.00000,   2.00000
102219672.28101,503118944.95728,-68841337.60524,  -0.00087,   0.00328,  -0.00132,477759692.52390,   0.00105,275779644.15693,  -0.00035,   0.00119,  -0.00043,   0.00000,   2.00000
101769177.34456,502915506.34231,-68979704.73201,  -0.00087,   0.00329,  -0.00133,477747913.64565,   0.00105,275788055.35385,  -0.00035,   0.00120,  -0.00043,  -0.00000,   2.00000
101313825.78645,502709086.04160,-69119896.40230,  -0.00088,   0.00330,  -0.00134,477740924.90022,   0.00106,275796401.78944,  -0.00036,   0.00121,  -0.00044,   0.00000,   2.00000
100853881.32317,502502137.74866,-69256706.17962,  -0.00088,   0.00331,  -0.00134,477731437.59166,   0.00107,275804673.06168,  -0.00036,   0.00122,  -0.00044,   0.00000,   2.00000
100395655.73207,502295581.17544,-69392884.25925,  -0.00088,   0.00332,  -0.00135,477740315.75955,   0.00108,275812947.98720,  -0.00036,   0.00123,  -0.00045,   0.00000,   2.00000
99959047.71029,502100983.14328,-69517753.83567,  -0.00089,   0.00333,  -0.00135,477746029.30990,   0.00108,275821212.91328,  -0.00036,   0.00124,  -0.00045,   0.00000,   2.00000
99491447.85708,501893277.73397,-69647293.73005,  -0.00089,   0.00333,  -0.00136,477721151.33629,   0.00109,275829337.19089,  -0.00037,   0.00124,  -0.00045,   0.00000,   2.00000
99025833.10585,501688436.97707,-69771042.63971,  -0.00090,   0.00334,  -0.00136,477727412.28521,   0.00110,275837454.55845,  -0.00037,   0.00125,  -0.00046,   0.00000,   2.00000
98581298.27269,501490624.63342,-69893958.97551,  -0.00090,   0.00335,  -0.00137,477737832.44624,   0.00111,275845582.74740,  -0.00037,   0.00126,  -0.00046,   0.00000,   2.00000
98125574.08113,501291217.16029,-70010911.28087,  -0.00091,   0.00336,  -0.00137,477709646.01313,   0.00111,275853556.59094,  -0.00038,   0.00127,  -0.00046,   0.00000,   2.00000
97658808.27327,501088990.02461,-70125108.11561,  -0.00091,   0.00337,  -0.00138,477732448.73551,   0.00112,275861594.91732,  -0.00038,   0.00128,  -0.00047,   0.00000,   2.00000
97199966.57592,500889309.13643,-70238328.89731,  -0.00092,   0.00337,  -0.00139,477708354.90518,   0.00113,275869496.75525,  -0.00038,   0.00129,  -0.00047,   0.00000,   2.00000
96743024.33321,500692488.66860,-70345850.90241,  -0.00092,   0.00338,  -0.00139,477714327.07118,   0.00114,275877391.31958,  -0.00038,   0.00129,  -0.00048,  -0.00000,   2.00000
96281233.85970,500494993.42968,-70450205.80448,  -0.00092,   0.00339,  -0.00140,477704340.49240,   0.00114,275885210.34740,  -0.00039,   0.00130,  -0.00048,   0.00000,   2.00000
95821077.58214,500297847.06711,-70554099.12828,  -0.00093,   0.00340,  -0.00140,477712708.72787,   0.00115,275893032.71051,  -0.00039,   0.00131,  -0.00048,  -0.00000,   2.00000
95349264.73711,500096434.85276,-70657361.05191,  -0.00093,   0.00341,  -0.00141,477686726.92257,   0.00116,275900711.37785,  -0.00039,   0.00132,  -0.00049,   0.00000,   2.00000
94905525.71511,499908217.93798,-70752213.43745,  -0.00094,   0.00341,  -0.00141,477709983.13026,   0.00117,275908457.64640,  -0.00040,   0.00133,  -0.00049,   0.00000,   2.00000
94430592.14015,499708892.53019,-70846741.58748,  -0.00094,   0.00342,  -0.00142,477682314.27895,   0.00117,275916053.27731,  -0.00040,   0.00133,  -0.00049,   0.00000,   2.00000
93976944.19722,499519210.08460,-70935417.92366,  -0.00095,   0.00343,  -0.00142,477689524.68673,   0.00118,275923648.18387,  -0.00040,   0.00134,  -0.00050,  -0.00000,   2.00000
93518272.24034,499328756.64972,-71021039.55772,  -0.00095,   0.00344,  -0.00143,477679213.64104,   0.00119,275931167.33194,  -0.00040,   0.00135,  -0.00050,  -0.00000,   2.00000
93061162.11978,499138620.17246,-71106291.97868,  -0.00096,   0.00345,  -0.00143,477687247.11075,   0.00119,275938689.60981,  -0.00041,   0.00136,  -0.00051,   0.00000,   2.00000
92599231.86678,498950203.43447,-71183323.31519,  -0.00096,   0.00345,  -0.00143,477674351.00809,   0.00120,275946125.34025,  -0.00041,   0.00136,  -0.00051,   0.00000,   2.00000
92131981.40942,498758438.78552,-71262546.06716,  -0.00096,   0.00346,  -0.00144,477666406.10868,   0.00121,275953496.11505,  -0.00041,   0.00137,  -0.00051,  -0.00000,   2.00000
91666527.50384,498569496.70683,-71336242.99929,  -0.00097,   0.00347,  -0.00144,477671773.71441,   0.00121,275960859.23574,  -0.00041,   0.00138,  -0.00052,   0.00000,   2.00000
91208472.76385,498382918.19334,-71409252.36970,  -0.00097,   0.00348,  -0.00145,477646844.81400,   0.00122,275968084.85739,  -0.00042,   0.00139,  -0.00052,  -0.00000,   2.00000
90739643.62136,498195928.79647,-71474476.08402,  -0.00098,   0.00348,  -0.00145,477666444.50212,   0.00123,275975364.44207,  -0.00042,   0.00139,  -0.00052,   0.00000,   2.00000
90278148.38733,498011272.66570,-71539057.41020,  -0.00098,   0.00349,  -0.00146,477641414.71608,   0.00123,275982506.41331,  -0.00042,   0.00140,  -0.00053,   0.00000,   2.00000
89818375.11985,497829416.78828,-71598180.72597,  -0.00099,   0.00350,  -0.00146,477646516.18413,   0.00124,275989640.51327,  -0.00042,   0.00141,  -0.00053,  -0.00000,   2.00000
89353120.27029,497644103.32438,-71659582.43482,  -0.00099,   0.00351,  -0.00147,477638273.34335,   0.00125,275996709.57225,  -0.00043,   0.00142,  -0.00053,   0.00000,   2.00000
88902262.50003,497467349.14421,-71712661.63201,  -0.00099,   0.00351,  -0.00147,477626318.99085,   0.00125,276003697.88313,  -0.00043,   0.00142,  -0.00054,   0.00000,   2.00000
88433388.53524,497283860.77509,-71765741.30854,  -0.00100,   0.00352,  -0.00147,477632372.45817,   0.00126,276010683.07305,  -0.00043,   0.00143,  -0.00054,   0.00000,   2.00000
87978652.03345,497106394.82835,-71815721.12873,  -0.00100,   0.00353,  -0.00148,477622845.53917,   0.00127,276017598.26961,  -0.00043,   0.00144,  -0.00054,   0.00000,   2.00000
87518749.03501,496930465.11891,-71857657.27465,  -0.00101,   0.00353,  -0.00148,477609301.73835,   0.00127,276024426.53541,  -0.00044,   0.00144,  -0.00055,   0.00000,   2.00000
87060269.06310,496754763.40110,-71899411.66783,  -0.00101,   0.00354,  -0.00148,477616596.87314,   0.00128,276031257.63492,  -0.00044,   0.00145,  -0.00055,   0.00000,   2.00000
86596364.01584,496578028.10718,-71938336.96008,  -0.00102,   0.00355,  -0.00149,477605516.05663,   0.00129,276038012.71441,  -0.00044,   0.00146,  -0.00055,   0.00000,   2.00000
86127016.58858,496400237.08621,-71974443.83149,  -0.00102,   0.00356,  -0.00149,477594369.07423,   0.00129,276044691.81596,  -0.00044,   0.00146,  -0.00056,   0.00000,   2.00000
85678759.99039,496232265.99307,-72004997.23650,  -0.00102,   0.00356,  -0.00150,477600289.28735,   0.00130,276051368.43589,  -0.00045,   0.00147,  -0.00056,   0.00000,   2.00000
85224757.26636,496060675.44701,-72037947.94838,  -0.00103,   0.00357,  -0.00150,477591585.25633,   0.00130,276057979.82550,  -0.00045,   0.00148,  -0.00056,   0.00000,   2.00000
84765406.46777,495890516.19574,-72062924.14254,  -0.00103,   0.00358,  -0.00150,477577734.42909,   0.00131,276064504.16472,  -0.00045,   0.00148,  -0.00057,   0.00000,   2.00000
84300483.07554,495719225.69225,-72085134.32760,  -0.00104,   0.00358,  -0.00151,477566352.72750,   0.00132,276070952.42736,  -0.00045,   0.00149,  -0.00057,   0.00000,   2.00000
83856591.17076,495557783.03891,-72101851.40555,  -0.00104,   0.00359,  -0.00151,477571964.83043,   0.00132,276077397.83334,  -0.00046,   0.00150,  -0.00057,   0.00000,   2.00000
83387358.13746,495385492.07272,-72121214.63435,  -0.00104,   0.00360,  -0.00151,477561792.84041,   0.00133,276083772.68155,  -0.00046,   0.00150,  -0.00058,  -0.00000,   2.00000
82932172.01693,495221715.40466,-72132449.14488,  -0.00105,   0.00360,  -0.00152,477548959.08546,   0.00133,276090065.77982,  -0.00046,   0.00151,  -0.00058,   0.00000,   2.00000
82497958.83594,495067808.54607,-72138236.09740,  -0.00105,   0.00361,  -0.00152,477554350.68915,   0.00134,276096355.69074,  -0.00046,   0.00152,  -0.00058,  -0.00000,   2.00000
82031087.56712,494899051.99948,-72149229.45844,  -0.00106,   0.00362,  -0.00152,477528267.83376,   0.00135,276102507.30312,  -0.00047,   0.00152,  -0.00058,  -0.00000,   2.00000
81592602.48561,494746622.55377,-72147065.90321,  -0.00106,   0.00362,  -0.00153,477546741.58946,   0.00135,276108712.54257,  -0.00047,   0.00153,  -0.00059,   0.00000,   2.00000
81121390.59746,494579254.32545,-72150124.65671,  -0.00107,   0.00363,  -0.00153,477520624.21898,   0.00136,276114779.66346,  -0.00047,   0.00154,  -0.00059,  -0.00000,   2.00000
80690825.39952,494431547.67495,-72142398.21218,  -0.00107,   0.00363,  -0.00153,477524358.42262,   0.00136,276120837.40776,  -0.00047,   0.00154,  -0.00059,   0.00000,   2.00000
80234866.61480,494275288.82473,-72132193.05060,  -0.00107,   0.00364,  -0.00153,477511346.54195,   0.00137,276126813.90201,  -0.00047,   0.00155,  -0.00060,  -0.00000,   2.00000
79792359.56154,494122450.72155,-72124327.54083,  -0.00108,   0.00365,  -0.00154,477503112.94167,   0.00137,276132729.98788,  -0.00048,   0.00155,  -0.00060,  -0.00000,   2.00000
79344100.19927,493970804.11428,-72108609.33578,  -0.00108,   0.00365,  -0.00154,477488575.77001,   0.00138,276138558.82254,  -0.00048,   0.00156,  -0.00060,  -0.00000,   2.00000
78897024.16406,493819247.01149,-72092903.44931,  -0.00108,   0.00366,  -0.00154,477494825.06365,   0.00138,276144390.13817,  -0.00048,   0.00157,  -0.00061,   0.00000,   2.00000
78444152.35633,493668836.43618,-72069361.64989,  -0.00109,   0.00367,  -0.00154,477480221.05336,   0.00139,276150134.25814,  -0.00048,   0.00157,  -0.00061,  -0.00000,   2.00000
78004628.17265,493521831.77723,-72048199.74881,  -0.00109,   0.00367,  -0.00155,477471708.11346,   0.00140,276155817.70611,  -0.00049,   0.00158,  -0.00061,   0.00000,   2.00000
77566572.44178,493379935.88024,-72016694.43439,  -0.00110,   0.00368,  -0.00155,477472705.58394,   0.00140,276161481.62525,  -0.00049,   0.00158,  -0.00061,   0.00000,   2.00000
77122275.57518,493234087.00390,-71987761.61418,  -0.00110,   0.00368,  -0.00155,477463027.54622,   0.00141,276167080.19154,  -0.00049,   0.00159,  -0.00062,   0.00000,   2.00000
76691567.30385,493096670.47432,-71950850.56474,  -0.00110,   0.00369,  -0.00155,477449237.49447,   0.00141,276172595.94433,  -0.00049,   0.00159,  -0.00062,   0.00000,   2.00000
76254542.08677,492955268.51748,-71916521.23544,  -0.00111,   0.00369,  -0.00156,477439406.48452,   0.00142,276178046.27866,  -0.00049,   0.00160,  -0.00062,   0.00000,   2.00000
75818914.10867,492818924.04283,-71871876.47606,  -0.00111,   0.00370,  -0.00156,477440178.70080,   0.00142,276183477.07873,  -0.00050,   0.00161,  -0.00062,   0.00000,   2.00000
75369671.48218,492677014.25506,-71827143.93943,  -0.00112,   0.00371,  -0.00156,477412007.16075,   0.00143,276188763.89818,  -0.00050,   0.00161,  -0.00063,   0.00000,   2.00000
74941026.52007,492542540.64542,-71782337.69400,  -0.00112,   0.00371,  -0.00156,477418692.49255,   0.00143,276194057.30753,  -0.00050,   0.00162,  -0.00063,   0.00000,   2.00000
74513714.03249,492413086.33794,-71727237.28076,  -0.00112,   0.00372,  -0.00156,477419308.14485,   0.00144,276199331.14014,  -0.00050,   0.00162,  -0.00063,   0.00000,   2.00000
74072646.09717,492277984.48122,-71672055.63306,  -0.00113,   0.00372,  -0.00157,477390995.91307,   0.00144,276204460.97745,  -0.00050,   0.00163,  -0.00063,   0.00000,   2.00000
73652279.36491,492152831.20506,-71611638.58020,  -0.00113,   0.00373,  -0.00157,477394944.38394,   0.00145,276209586.25912,  -0.00051,   0.00163,  -0.00064,   0.00000,   2.00000
73225397.89723,492023573.92440,-71553837.34822,  -0.00113,   0.00373,  -0.00157,477384738.79815,   0.00145,276214646.07557,  -0.00051,   0.00164,  -0.00064,   0.00000,   2.00000
72799780.82681,491899277.33455,-71485761.12704,  -0.00114,   0.00374,  -0.00157,477385140.98492,   0.00145,276219686.36712,  -0.00051,   0.00164,  -0.00064,   0.00000,   2.00000
72379776.31336,491776732.41620,-71417458.52906,  -0.00114,   0.00374,  -0.00157,477357525.73058,   0.00146,276224586.53977,  -0.00051,   0.00165,  -0.00064,   0.00000,   2.00000
71960842.20957,491656626.89099,-71344093.72896,  -0.00114,   0.00375,  -0.00157,477360295.95744,   0.00146,276229478.04432,  -0.00051,   0.00165,  -0.00065,   0.00000,   2.00000
71535427.73996,491534828.91469,-71268157.56701,  -0.00115,   0.00375,  -0.00158,477347355.79236,   0.00147,276234293.25451,  -0.00052,   0.00166,  -0.00065,   0.00000,   2.00000
71130615.95258,491422992.49569,-71187034.84253,  -0.00115,   0.00376,  -0.00158,477350914.50367,   0.00147,276239103.51708,  -0.00052,   0.00166,  -0.00065,   0.00000,   2.00000
70711676.71461,491305296.86150,-71105821.67295,  -0.00116,   0.00376,  -0.00158,477322187.44647,   0.00148,276243769.78127,  -0.00052,   0.00167,  -0.00065,   0.00000,   2.00000
70293881.67964,491192457.80060,-71014361.08353,  -0.00116,   0.00377,  -0.00158,477322234.01271,   0.00148,276248416.61840,  -0.00052,   0.00167,  -0.00066,  -0.00000,   2.00000
69896512.02475,491087106.28999,-70922947.30086,  -0.00116,   0.00377,  -0.00158,477328104.73952,   0.00149,276253069.16494,  -0.00052,   0.00168,  -0.00066,   0.00000,   2.00000
69484885.33904,490975817.74355,-70831433.36430,  -0.00117,   0.00378,  -0.00158,477299243.59221,   0.00149,276257577.74202,  -0.00052,   0.00168,  -0.00066,   0.00000,   2.00000
69074344.82787,490869336.93696,-70729680.68968,  -0.00117,   0.00378,  -0.00158,477299151.51859,   0.00149,276262066.93869,  -0.00053,   0.00169,  -0.00066,   0.00000,   2.00000
68668918.08481,490762024.58183,-70632903.37968,  -0.00117,   0.00379,  -0.00158,477273446.26418,   0.00150,276266426.42220,  -0.00053,   0.00169,  -0.00066,   0.00000,   2.00000
68272177.75490,490663661.16921,-70523437.03269,  -0.00118,   0.00379,  -0.00158,477288902.85060,   0.00150,276270834.15517,  -0.00053,   0.00169,  -0.00067,  -0.00000,   2.00000
67880461.94377,490564453.13375,-70418946.81333,  -0.00118,   0.00380,  -0.00158,477263089.50738,   0.00151,276275112.00051,  -0.00053,   0.00170,  -0.00067,   0.00000,   2.00000
67489733.93893,490469990.63321,-70304224.63912,  -0.00118,   0.00380,  -0.00158,477262781.88872,   0.00151,276279370.46690,  -0.00053,   0.00170,  -0.00067,  -0.00000,   2.00000
67084498.09341,490369424.18480,-70189369.67359,  -0.00119,   0.00381,  -0.00158,477233593.92850,   0.00151,276283485.12574,  -0.00053,   0.00171,  -0.00067,   0.00000,   2.00000
66699687.74649,490278809.63776,-70069385.89266,  -0.00119,   0.00381,  -0.00158,477236362.16790,   0.00152,276287594.35017,  -0.00054,   0.00171,  -0.00067,   0.00000,   2.00000
66315592.50849,490188021.08601,-69949610.67554,  -0.00119,   0.00382,  -0.00159,477240866.06072,   0.00152,276291705.64693,  -0.00054,   0.00172,  -0.00068,   0.00000,   2.00000
65916976.74229,490093488.75207,-69824455.35307,  -0.00120,   0.00382,  -0.00159,477209085.01809,   0.00153,276295662.52115,  -0.00054,   0.00172,  -0.00068,   0.00000,   2.00000
65538743.91810,490008903.98266,-69694182.67996,  -0.00120,   0.00383,  -0.00159,477211677.01787,   0.00153,276299613.85584,  -0.00054,   0.00172,  -0.00068,   0.00000,   2.00000
65153643.09071,489924722.31816,-69556100.48770,  -0.00120,   0.00383,  -0.00159,477195441.85763,   0.00153,276303478.45932,  -0.00054,   0.00173,  -0.00068,   0.00000,   2.00000
64788783.70761,489848067.10590,-69418141.02640,  -0.00120,   0.00383,  -0.00159,477200383.06060,   0.00154,276307348.02548,  -0.00054,   0.00173,  -0.00068,  -0.00000,   2.00000
64409117.48610,489765142.71442,-69279988.13385,  -0.00121,   0.00384,  -0.00159,477170862.45530,   0.00154,276311073.86162,  -0.00055,   0.00174,  -0.00068,   0.00000,   2.00000
64049854.93211,489694557.79311,-69131503.77748,  -0.00121,   0.00384,  -0.00159,477170746.97683,   0.00154,276314783.42051,  -0.00055,   0.00174,  -0.00069,  -0.00000,   2.00000
63683399.73437,489619490.92162,-68985642.90874,  -0.00121,   0.00385,  -0.00158,477159197.02654,   0.00155,276318427.43753,  -0.00055,   0.00174,  -0.00069,  -0.00000,   2.00000
63309925.36898,489544707.37085,-68831933.14475,  -0.00122,   0.00385,  -0.00158,477142722.53128,   0.00155,276321984.94079,  -0.00055,   0.00175,  -0.00069,   0.00000,   2.00000
62956627.11507,489477465.26384,-68678359.63862,  -0.00122,   0.00385,  -0.00158,477147309.35530,   0.00155,276325547.16804,  -0.00055,   0.00175,  -0.00069,   0.00000,   2.00000
62596244.80853,489410459.42768,-68516925.79242,  -0.00122,   0.00386,  -0.00158,477130775.23198,   0.00156,276329022.93612,  -0.00055,   0.00175,  -0.00069,   0.00000,   2.00000
62248252.60716,489349116.36130,-68352771.56350,  -0.00123,   0.00386,  -0.00158,477117179.95456,   0.00156,276332425.27579,  -0.00055,   0.00176,  -0.00069,  -0.00000,   2.00000
61893027.54758,489285587.32222,-68185975.73639,  -0.00123,   0.00387,  -0.00158,477102934.71468,   0.00156,276335751.69921,  -0.00056,   0.00176,  -0.00070,  -0.00000,   2.00000
61538418.31108,489224107.81511,-68014171.82746,  -0.00123,   0.00387,  -0.00158,477104293.94993,   0.00157,276339069.89586,  -0.00056,   0.00176,  -0.00070,  -0.00000,   2.00000
61188254.51254,489164004.54291,-67841978.37635,  -0.00123,   0.00387,  -0.00158,477074884.51066,   0.00157,276342247.03720,  -0.00056,   0.00177,  -0.00070,   0.00000,   2.00000
60858256.00170,489113804.05728,-67664687.87933,  -0.00124,   0.00388,  -0.00158,477076639.24940,   0.00157,276345418.26188,  -0.00056,   0.00177,  -0.00070,   0.00000,   2.00000
60528807.14660,489065614.12373,-67482387.06480,  -0.00124,   0.00388,  -0.00158,477077853.27211,   0.00157,276348581.25681,  -0.00056,   0.00177,  -0.00070,   0.00000,   2.00000
60184091.23755,489010873.46139,-67299736.23269,  -0.00124,   0.00388,  -0.00158,477047765.06165,   0.00158,276351600.88739,  -0.00056,   0.00178,  -0.00070,   0.00000,   2.00000
59859579.72994,488968338.54875,-67106738.24356,  -0.00124,   0.00389,  -0.00158,477046995.58021,   0.00158,276354604.35989,  -0.00056,   0.00178,  -0.00070,  -0.00000,   2.00000
59527580.17830,488921157.41868,-66916292.56761,  -0.00125,   0.00389,  -0.00158,477034801.80053,   0.00158,276357542.40632,  -0.00056,   0.00178,  -0.00071,   0.00000,   2.00000
59207812.87679,488881880.11512,-66717805.25346,  -0.00125,   0.00390,  -0.00157,477018306.55621,   0.00159,276360396.70333,  -0.00057,   0.00179,  -0.00071,   0.00000,   2.00000
58888525.18446,488844515.45085,-66514292.20774,  -0.00125,   0.00390,  -0.00157,477019275.88189,   0.00159,276363243.04994,  -0.00057,   0.00179,  -0.00071,   0.00000,   2.00000
58581281.28486,488810421.19233,-66313239.25977,  -0.00125,   0.00390,  -0.00157,477007402.01448,   0.00159,276366025.97974,  -0.00057,   0.00179,  -0.00071,   0.00000,   2.00000
58266585.27375,488776226.50127,-66104179.45307,  -0.00126,   0.00390,  -0.00157,476990317.48054,   0.00159,276368723.25391,  -0.00057,   0.00179,  -0.00071,  -0.00000,   2.00000
57963951.77776,488747580.49293,-65892296.64965,  -0.00126,   0.00391,  -0.00157,476975956.01187,   0.00160,276371346.98625,  -0.00057,   0.00180,  -0.00071,   0.00000,   2.00000
57653750.01890,488716496.79889,-65677641.36108,  -0.00126,   0.00391,  -0.00157,476961086.21900,   0.00160,276373895.29899,  -0.00057,   0.00180,  -0.00071,   0.00000,   2.00000
57363560.74885,488695233.93354,-65457872.89260,  -0.00126,   0.00391,  -0.00157,476962234.19528,   0.00160,276376437.70719,  -0.00057,   0.00180,  -0.00071,   0.00000,   2.00000
57065755.98401,488671496.11718,-65235311.61032,  -0.00127,   0.00392,  -0.00156,476947307.09022,   0.00160,276378904.77262,  -0.00057,   0.00180,  -0.00072,   0.00000,   2.00000
56779978.98081,488655520.83203,-65004610.24836,  -0.00127,   0.00392,  -0.00156,476930430.08452,   0.00161,276381288.37267,  -0.00057,   0.00181,  -0.00072,   0.00000,   2.00000
56494507.81009,488639068.10490,-64774121.71054,  -0.00127,   0.00392,  -0.00156,476933328.66902,   0.00161,276383674.33391,  -0.00058,   0.00181,  -0.00072,   0.00000,   2.00000
56220963.81383,488628111.51908,-64540745.84902,  -0.00127,   0.00393,  -0.00156,476918674.79967,   0.00161,276385986.76595,  -0.00058,   0.00181,  -0.00072,   0.00000,   2.00000
55939767.11502,488616830.81557,-64299241.76687,  -0.00128,   0.00393,  -0.00156,476901299.89969,   0.00161,276388214.22471,  -0.00058,   0.00181,  -0.00072,  -0.00000,   2.00000
55670453.82286,488611010.95570,-64054820.87799,  -0.00128,   0.00393,  -0.00155,476886514.92633,   0.00161,276390368.25526,  -0.00058,   0.00182,  -0.00072,   0.00000,   2.00000
55393340.41828,488600385.68025,-63812803.27275,  -0.00128,   0.00393,  -0.00155,476873552.86669,   0.00162,276392457.05791,  -0.00058,   0.00182,  -0.00072,   0.00000,   2.00000
55136187.52882,488601710.15938,-63560348.58073,  -0.00128,   0.00394,  -0.00155,476872035.07155,   0.00162,276394530.36611,  -0.00058,   0.00182,  -0.00072,   0.00000,   2.00000
54890849.25218,488608469.95842,-63304938.35186,  -0.00128,   0.00394,  -0.00155,476857106.31045,   0.00162,276396530.25406,  -0.00058,   0.00182,  -0.00072,   0.00000,   2.00000
54637646.08424,488610399.56575,-63051895.37852,  -0.00129,   0.00394,  -0.00154,476844000.36085,   0.00162,276398464.92337,  -0.00058,   0.00182,  -0.00072,   0.00000,   2.00000
54384750.90553,488616134.11064,-62788438.18248,  -0.00129,   0.00394,  -0.00154,476842049.64099,   0.00162,276400382.88233,  -0.00058,   0.00183,  -0.00072,   0.00000,   2.00000
54143622.57515,488627267.50675,-62521981.05895,  -0.00129,   0.00395,  -0.00154,476826998.59026,   0.00162,276402227.54672,  -0.00058,   0.00183,  -0.00073,  -0.00000,   2.00000
53914235.12861,488643794.88975,-62252506.21557,  -0.00129,   0.00395,  -0.00154,476811874.55599,   0.00163,276403998.90460,  -0.00058,   0.00183,  -0.00073,   0.00000,   2.00000
53676953.98980,488657597.97983,-61980036.62120,  -0.00129,   0.00395,  -0.00153,476796379.79806,   0.00163,276405695.67146,  -0.00058,   0.00183,  -0.00073,   0.00000,   2.00000
53459541.07361,488683190.47927,-61697069.75143,  -0.00130,   0.00395,  -0.00153,476794610.89880,   0.00163,276407377.50703,  -0.00059,   0.00183,  -0.00073,  -0.00000,   2.00000
53234160.57603,488703874.22216,-61416387.30495,  -0.00130,   0.00396,  -0.00153,476781251.97252,   0.00163,276408994.35914,  -0.00059,   0.00184,  -0.00073,   0.00000,   2.00000
53020453.51812,488729908.29239,-61132618.89060,  -0.00130,   0.00396,  -0.00152,476765941.51238,   0.00163,276410538.05375,  -0.00059,   0.00184,  -0.00073,   0.91710,   1.00000
52798784.53397,488753142.85893,-60845781.03401,  -0.00130,   0.00396,  -0.00152,476750292.22552,   0.00163,276412007.44758,  -0.00059,   0.00184,  -0.00073,   0.83050,   1.00000
52596942.53835,488788073.38827,-60548402.08078,  -0.00130,   0.00396,  -0.00152,476748387.09411,   0.00164,276413462.28858,  -0.00059,   0.00184,  -0.00073,   0.81377,   1.00000
52387072.23527,488818058.70044,-60253241.34714,  -0.00130,   0.00396,  -0.00151,476734836.42415,   0.00164,276414852.27590,  -0.00059,   0.00184,  -0.00073,   0.74247,   1.00000
52208461.36776,488863581.36874,-59949562.31507,  -0.00130,   0.00397,  -0.00151,476717480.75843,   0.00164,276416161.21121,  -0.00059,   0.00184,  -0.00073,   0.65818,   1.00000
52010337.19450,488900248.29658,-59646031.16624,  -0.00131,   0.00397,  -0.00151,476719218.41963,   0.00164,276417472.03911,  -0.00059,   0.00184,  -0.00073,   0.65980,   1.00000
51843412.94712,488950361.76816,-59339274.70172,  -0.00131,   0.00397,  -0.00150,476703918.48722,   0.00164,276418711.03926,  -0.00059,   0.00185,  -0.00073,   0.58929,   1.00000
51668457.89191,488999610.02457,-59024000.50618,  -0.00131,   0.00397,  -0.00150,476685986.22868,   0.00164,276419867.13816,  -0.00059,   0.00185,  -0.00073,   0.51290,   1.00000
51485431.98404,489045906.83381,-58705515.61210,  -0.00131,   0.00397,  -0.00150,476670104.65349,   0.00164,276420949.56637,  -0.00059,   0.00185,  -0.00073,   0.44945,   1.00000
51313915.63152,489095401.29438,-58389105.49563,  -0.00131,   0.00397,  -0.00149,476656459.81445,   0.00164,276421968.31116,  -0.00059,   0.00185,  -0.00073,   0.39799,   1.00000
51162147.38513,489156384.98967,-58062054.96517,  -0.00131,   0.00398,  -0.00149,476654310.50720,   0.00164,276422973.36434,  -0.00059,   0.00185,  -0.00073,   0.38728,   1.00000
51010443.25287,489216602.04220,-57735077.07083,  -0.00131,   0.00398,  -0.00148,476656066.71445,   0.00165,276423981.67969,  -0.00059,   0.00185,  -0.00073,   0.38970,   1.00000
50862058.93869,489279762.21286,-57401424.50940,  -0.00132,   0.00398,  -0.00148,476622596.37736,   0.00165,276424840.85630,  -0.00059,   0.00185,  -0.00073,   0.28288,   1.00000
50713752.17314,489344110.17482,-57062468.49188,  -0.00132,   0.00398,  -0.00148,476622216.90217,   0.00165,276425694.68543,  -0.00059,   0.00185,  -0.00073,   0.27931,   1.00000
50596520.93765,489419851.97726,-56725476.13472,  -0.00132,   0.00398,  -0.00147,476608568.54181,   0.00165,276426485.77955,  -0.00059,   0.00185,  -0.00073,   0.23975,   1.00000
50451531.13848,489486267.59129,-56379784.00990,  -0.00132,   0.00398,  -0.00147,476590261.42235,   0.00165,276427194.26503,  -0.00059,   0.00185,  -0.00074,   0.19226,   1.00000
50345848.81255,489570240.67414,-56028706.25696,  -0.00132,   0.00398,  -0.00146,476590194.19090,   0.00165,276427899.39226,  -0.00059,   0.00186,  -0.00074,   0.19043,   1.00000
50231964.69316,489649155.10462,-55679582.60443,  -0.00132,   0.00399,  -0.00146,476576028.62475,   0.00165,276428540.18995,  -0.00059,   0.00186,  -0.00074,   0.15726,   1.00000
50109917.86853,489726862.67797,-55321653.80646,  -0.00132,   0.00399,  -0.00145,476557881.77263,   0.00165,276429099.71559,  -0.00059,   0.00186,  -0.00074,   0.11988,   1.00000
50018926.58331,489817873.06805,-54960212.93627,  -0.00132,   0.00399,  -0.00145,476542015.20586,   0.00165,276429588.17879,  -0.00059,   0.00186,  -0.00074,   0.09137,   1.00000
49927948.45739,489908001.90618,-54598756.75882,  -0.00132,   0.00399,  -0.00145,476543378.30816,   0.00165,276430080.42235,  -0.00060,   0.00186,  -0.00074,   0.09279,   1.00000
49828780.98684,489996825.17966,-54228412.13361,  -0.00132,   0.00399,  -0.00144,476525197.76722,   0.00165,276430491.88783,  -0.00060,   0.00186,  -0.00074,   0.06483,   1.00000
49749249.50396,490092973.13615,-53858016.01233,  -0.00132,   0.00399,  -0.00144,476526696.16357,   0.00165,276430908.05080,  -0.00060,   0.00186,  -0.00074,   0.06632,   1.00000
49672891.15489,490191817.81047,-53480514.87462,  -0.00133,   0.00399,  -0.00143,476492965.97474,   0.00165,276431176.49915,  -0.00060,   0.00186,  -0.00074,   0.02760,   1.00000
49616160.23491,490297971.04411,-53102935.43049,  -0.00133,   0.00399,  -0.00143,476494342.90192,   0.00165,276431449.73753,  -0.00060,   0.00186,  -0.00074,   0.02860,   1.00000
49551211.64999,490402686.81160,-52716347.49122,  -0.00133,   0.00399,  -0.00142,476476102.35629,   0.00165,276431642.88796,  -0.00060,   0.00186,  -0.00074,   0.01429,   1.00000
49505887.08879,490514677.57755,-52329665.23544,  -0.00133,   0.00399,  -0.00142,476477441.10262,   0.00165,276431840.98939,  -0.00060,   0.00186,  -0.00074,   0.01504,   1.00000
49452336.01422,490625155.08715,-51933918.34225,  -0.00133,   0.00400,  -0.00141,476459215.26227,   0.00165,276431959.39522,  -0.00060,   0.00186,  -0.00074,   0.00537,   1.00000
49410146.45693,490738734.94243,-51539851.83765,  -0.00133,   0.00400,  -0.00141,476444777.22884,   0.00165,276432014.83676,  -0.00060,   0.00186,  -0.00074,   0.00118,   1.00000
49387594.26736,490861348.23768,-51140259.49696,  -0.00133,   0.00400,  -0.00140,476444198.92284,   0.00165,276432067.53553,  -0.00060,   0.00186,  -0.00074,   0.00106,   1.00000
49376376.90288,490984739.24696,-50736434.37567,  -0.00133,   0.00400,  -0.00140,476427906.98102,   0.00165,276432067.53553,  -0.00060,   0.00186,  -0.00074,-4160.55451,   0.00000
49356746.51504,491088499.86841,-50327000.57214,  -0.00133,   0.00400,  -0.00139,476407276.90167,   0.00165,276432067.53553,  -0.00060,   0.00186,  -0.00074,-24790.63386,   0.00000
49348333.49168,491181043.12537,-49911958.08638,  -0.00133,   0.00400,  -0.00139,476370360.01754,   0.00165,276432067.53553,  -0.00060,   0.00186,  -0.00074,-61707.51799,   0.00000
49339920.46832,491273586.38233,-49491306.91837,  -0.00133,   0.00400,  -0.00138,476332796.61383,   0.00165,276432067.53553,  -0.00060,   0.00186,  -0.00074,-99270.92170,   0.00000
49342724.80944,491354912.27481,-49065047.06812,  -0.00133,   0.00400,  -0.00137,476279015.51449,   0.00165,276432067.53553,  -0.00060,   0.00186,  -0.00074,-153052.02103,   0.00000
49365159.53840,491444651.19065,-48633178.53563,  -0.00133,   0.00400,  -0.00137,476224819.50574,   0.00165,276432067.53553,  -0.00060,   0.00186,  -0.00074,-207248.02979,   0.00000
49390398.60848,491503542.35417,-48195701.32090,  -0.00133,   0.00400,  -0.00136,476138703.13649,   0.00165,276432067.53553,  -0.00060,   0.00186,  -0.00074,-293364.39904,   0.00000
49424050.70192,491582063.90554,-47758224.10618,  -0.00133,   0.00400,  -0.00136,476069563.61452,   0.00165,276432067.53553,  -0.00060,   0.00186,  -0.00074,-362503.92101,   0.00000
49460507.13648,491629737.70458,-47309529.52697,  -0.00133,   0.00400,  -0.00135,475966867.92634,   0.00165,276432067.53553,  -0.00060,   0.00186,  -0.00074,-465199.60918,   0.00000
49516593.95888,491685824.52698,-46860834.94776,  -0.00133,   0.00400,  -0.00135,475865579.07210,   0.00165,276432067.53553,  -0.00060,   0.00186,  -0.00074,-566488.46342,   0.00000
49564267.75792,491722280.96154,-46406531.68631,  -0.00133,   0.00400,  -0.00134,475748107.70590,   0.00165,276432067.53553,  -0.00060,   0.00186,  -0.00074,-683959.82963,   0.00000
49623158.92144,491747520.03162,-45946619.74262,  -0.00133,   0.00400,  -0.00133,475614646.13714,   0.00165,276432067.53553,  -0.00060,   0.00186,  -0.00074,-817421.39839,   0.00000
49701680.47280,491781172.12506,-45481099.11669,  -0.00133,   0.00400,  -0.00133,475481039.31661,   0.00165,276432067.53553,  -0.00060,   0.00186,  -0.00074,-951028.21891,   0.00000
49771789.00081,491795193.83066,-45009969.80852,  -0.00133,   0.00400,  -0.00132,475331367.76655,   0.00165,276432067.53553,  -0.00060,   0.00186,  -0.00074,-1100699.76898,   0.00000
49861527.91665,491817628.55962,-44538840.50035,  -0.00133,   0.00400,  -0.00132,475183225.97837,   0.00165,276432067.53553,  -0.00060,   0.00186,  -0.00074,-1248841.55715,   0.00000
49962484.19697,491828845.92410,-44056493.82770,  -0.00133,   0.00400,  -0.00131,475017680.21121,   0.00165,276432067.53553,  -0.00060,   0.00186,  -0.00074,-1414387.32431,   0.00000
50074657.84177,491828845.92410,-43574147.15506,  -0.00133,   0.00400,  -0.00130,474837912.09792,   0.00165,276432067.53553,  -0.00060,   0.00186,  -0.00074,-1594155.43761,   0.00000
50178418.46321,491809215.53626,-43086191.80017,  -0.00133,   0.00400,  -0.00130,474642211.89875,   0.00165,276432067.53553,  -0.00060,   0.00186,  -0.00074,-1789855.63677,   0.00000
50301809.47250,491797998.17178,-42592627.76304,  -0.00133,   0.00400,  -0.00129,474446635.20597,   0.00165,276432067.53553,  -0.00060,   0.00186,  -0.00074,-1985432.32956,   0.00000
50444830.86962,491795193.83066,-42093455.04367,  -0.00133,   0.00400,  -0.00128,474251246.84460,   0.00165,276432067.53553,  -0.00060,   0.00186,  -0.00074,-2180820.69092,   0.00000
50590656.60786,491761541.73722,-41588673.64206,  -0.00132,   0.00400,  -0.00128,474024411.29410,   0.00165,276432067.53553,  -0.00060,   0.00186,  -0.00074,-2407656.24143,   0.00000
50736482.34610,491727889.64378,-41083892.24045,  -0.00132,   0.00400,  -0.00127,473799138.14533,   0.00165,276432067.53553,  -0.00060,   0.00186,  -0.00074,-2632929.39020,   0.00000
50893525.44883,491683020.18586,-40573502.15660,  -0.00132,   0.00400,  -0.00126,473558326.08335,   0.00165,276432067.53553,  -0.00060,   0.00186,  -0.00074,-2873741.45217,   0.00000
51070198.93939,491646563.75130,-40057503.39051,  -0.00132,   0.00400,  -0.00126,473317897.17183,   0.00165,276432067.53553,  -0.00060,   0.00186,  -0.00074,-3114170.36370,   0.00000
51238459.40659,491590476.92890,-39535895.94218,  -0.00132,   0.00400,  -0.00125,473061834.47474,   0.00165,276432067.53553,  -0.00060,   0.00186,  -0.00074,-3370233.06079,   0.00000
51426350.26164,491542803.12985,-39014288.49385,  -0.00132,   0.00400,  -0.00124,472807665.51283,   0.00165,276432067.53553,  -0.00060,   0.00186,  -0.00074,-3624402.02270,   0.00000
51617045.45780,491464281.57849,-38481463.68104,  -0.00132,   0.00399,  -0.00124,472520893.11187,   0.00165,276432067.53553,  -0.00060,   0.00186,  -0.00074,-3911174.42366,   0.00000
51835784.06517,491413803.43833,-37948638.86823,  -0.00132,   0.00399,  -0.00123,472252001.04770,   0.00165,276432067.53553,  -0.00060,   0.00186,  -0.00074,-4180066.48782,   0.00000
52037696.62581,491324064.52249,-37410205.37318,  -0.00132,   0.00399,  -0.00122,471951751.80587,   0.00165,276432067.53553,  -0.00060,   0.00186,  -0.00074,-4480315.72966,   0.00000
52278869.96213,491251151.65337,-36871771.87813,  -0.00132,   0.00399,  -0.00122,471653794.48653,   0.00165,276432067.53553,  -0.00060,   0.00186,  -0.00074,-4778273.04900,   0.00000
52520043.29846,491178238.78425,-36327729.70084,  -0.00131,   0.00399,  -0.00121,471356369.07833,   0.00165,276432067.53553,  -0.00060,   0.00186,  -0.00074,-5075698.45719,   0.00000
52744390.58806,491066065.13945,-35778078.84131,  -0.00131,   0.00399,  -0.00120,471027688.67924,   0.00165,276432067.53553,  -0.00060,   0.00186,  -0.00074,-5404378.85628,   0.00000
53007998.65335,490970717.54136,-35222819.29953,  -0.00131,   0.00399,  -0.00119,470700179.80480,   0.00165,276432067.53553,  -0.00060,   0.00186,  -0.00074,-5731887.73072,   0.00000
53271606.71863,490875369.94328,-34667559.75776,  -0.00131,   0.00399,  -0.00119,470374629.78198,   0.00165,276432067.53553,  -0.00060,   0.00186,  -0.00074,-6057437.75355,   0.00000
53546432.14840,490768804.98072,-34101082.85151,  -0.00131,   0.00399,  -0.00118,470032949.24560,   0.00165,276432067.53553,  -0.00060,   0.00186,  -0.00074,-6399118.28993,   0.00000
53832474.94264,490651022.65368,-33540214.62750,  -0.00131,   0.00399,  -0.00117,469678869.54678,   0.00165,276432067.53553,  -0.00060,   0.00186,  -0.00074,-6753197.98875,   0.00000
54118517.73689,490533240.32664,-32968129.03901,  -0.00131,   0.00399,  -0.00117,469324444.87501,   0.00165,276432067.53553,  -0.00060,   0.00186,  -0.00074,-7107622.66052,   0.00000
54435408.28346,490412653.65847,-32396043.45052,  -0.00130,   0.00398,  -0.00116,468956802.28333,   0.00165,276432067.53553,  -0.00060,   0.00186,  -0.00074,-7475265.25220,   0.00000
54743885.80666,490272436.60247,-31818349.17979,  -0.00130,   0.00398,  -0.00115,468574176.49226,   0.00165,276432067.53553,  -0.00060,   0.00186,  -0.00074,-7857891.04327,   0.00000
55071993.71771,490140632.56983,-31240654.90906,  -0.00130,   0.00398,  -0.00114,468194060.09448,   0.00165,276432067.53553,  -0.00060,   0.00186,  -0.00074,-8238007.44104,   0.00000
55400101.62875,490008828.53719,-30651743.27385,  -0.00130,   0.00398,  -0.00114,467813929.35877,   0.00165,276432067.53553,  -0.00060,   0.00186,  -0.00074,-8618138.17676,   0.00000
55750644.26876,489854589.77558,-30068440.32088,  -0.00130,   0.00398,  -0.00113,467405902.60776,   0.00165,276432067.53553,  -0.00060,   0.00186,  -0.00074,-9026164.92776,   0.00000
56101186.90877,489700351.01398,-29473920.00342,  -0.00130,   0.00398,  -0.00112,466998010.61179,   0.00165,276432067.53553,  -0.00060,   0.00186,  -0.00074,-9434056.92374,   0.00000
56471359.93661,489554525.27574,-28879399.68597,  -0.00129,   0.00398,  -0.00111,466592860.08710,   0.00165,276432067.53553,  -0.00060,   0.00186,  -0.00074,-9839207.44842,   0.00000
56852750.32894,489397482.17301,-28284879.36852,  -0.00129,   0.00398,  -0.00110,466174474.97083,   0.00165,276432067.53553,  -0.00060,   0.00186,  -0.00074,-10257592.56469,   0.00000
57225727.69791,489220808.68245,-27679141.68659,  -0.00129,   0.00397,  -0.00110,465740455.00705,   0.00165,276432067.53553,  -0.00060,   0.00186,  -0.00074,-10691612.52848,   0.00000
57618335.45472,489052548.21525,-27073404.00466,  -0.00129,   0.00397,  -0.00109,465309339.39858,   0.00165,276432067.53553,  -0.00060,   0.00186,  -0.00074,-11122728.13694,   0.00000
58041790.96384,488881483.40692,-26467666.32273,  -0.00129,   0.00397,  -0.00108,464865582.21938,   0.00165,276432067.53553,  -0.00060,   0.00186,  -0.00074,-11566485.31615,   0.00000
58445616.08513,488702005.57524,-25856319.95855,  -0.00128,   0.00397,  -0.00107,464422973.52774,   0.00165,276432067.53553,  -0.00060,   0.00186,  -0.00074,-12009094.00779,   0.00000
58880288.95874,488519723.40244,-25239364.91214,  -0.00128,   0.00397,  -0.00106,463966919.86453,   0.00165,276432067.53553,  -0.00060,   0.00186,  -0.00074,-12465147.67099,   0.00000
59334592.22019,488345854.25299,-24622409.86573,  -0.00128,   0.00397,  -0.00106,463514028.13538,   0.00165,276432067.53553,  -0.00060,   0.00186,  -0.00074,-12918039.40014,   0.00000
59780482.45828,488152354.71571,-23999846.13708,  -0.00128,   0.00396,  -0.00105,463046889.70254,   0.00165,276432067.53553,  -0.00060,   0.00186,  -0.00074,-13385177.83298,   0.00000
60237590.06085,487947637.81395,-23377282.40843,  -0.00127,   0.00396,  -0.00104,462566932.15703,   0.00165,276432067.53553,  -0.00060,   0.00186,  -0.00074,-13865135.37850,   0.00000
60714328.05126,487751333.93554,-22749109.99754,  -0.00127,   0.00396,  -0.00103,462089455.52529,   0.00165,276432067.53553,  -0.00060,   0.00186,  -0.00074,-14342612.01024,   0.00000
61202283.40615,487543812.69266,-22120937.58664,  -0.00127,   0.00396,  -0.00102,461599287.07790,   0.00165,276432067.53553,  -0.00060,   0.00186,  -0.00074,-14832780.45762,   0.00000
61690238.76103,487336291.44977,-21487156.49351,  -0.00127,   0.00396,  -0.00102,461111210.04427,   0.00165,276432067.53553,  -0.00060,   0.00186,  -0.00074,-15320857.49126,   0.00000
62189411.48040,487117552.84241,-20853375.40038,  -0.00126,   0.00395,  -0.00101,460610539.44865,   0.00165,276432067.53553,  -0.00060,   0.00186,  -0.00074,-15821528.08687,   0.00000
62708214.58761,486907227.25841,-20213985.62501,  -0.00126,   0.00395,  -0.00100,460112704.54813,   0.00165,276432067.53553,  -0.00060,   0.00186,  -0.00074,-16319362.98739,   0.00000
63238235.05930,486685684.30992,-19574595.84963,  -0.00126,   0.00395,  -0.00099,459602415.56075,   0.00165,276432067.53553,  -0.00060,   0.00186,  -0.00074,-16829651.97478,   0.00000
63787885.91884,486472554.38480,-18929597.39202,  -0.00125,   0.00395,  -0.00098,459095168.48927,   0.00165,276432067.53553,  -0.00060,   0.00186,  -0.00074,-17336899.04625,   0.00000
64348754.14285,486248207.09519,-18284598.93441,  -0.00125,   0.00395,  -0.00097,458575614.71020,   0.00165,276432067.53553,  -0.00060,   0.00186,  -0.00074,-17856452.82533,   0.00000
64901209.34350,486004229.41775,-17633991.79456,  -0.00125,   0.00394,  -0.00097,458042453.00054,   0.00165,276432067.53553,  -0.00060,   0.00186,  -0.00074,-18389614.53498,   0.00000
65473294.93199,485768664.76366,-16983384.65470,  -0.00125,   0.00394,  -0.00096,457513255.56941,   0.00165,276432067.53553,  -0.00060,   0.00186,  -0.00074,-18918811.96611,   0.00000
66065010.90832,485541513.13294,-16332777.51485,  -0.00124,   0.00394,  -0.00095,456988096.28285,   0.00165,276432067.53553,  -0.00060,   0.00186,  -0.00074,-19443971.25268,   0.00000
66667944.24913,485303144.13773,-15676561.69276,  -0.00124,   0.00394,  -0.00094,456450279.11328,   0.00165,276432067.53553,  -0.00060,   0.00186,  -0.00074,-19981788.42224,   0.00000
67262464.56658,485045144.75469,-15020345.87067,  -0.00124,   0.00394,  -0.00093,455899695.21556,   0.00165,276432067.53553,  -0.00060,   0.00186,  -0.00074,-20532372.31997,   0.00000
67896245.65971,484803971.41836,-14358521.36633,  -0.00123,   0.00393,  -0.00092,455353623.84081,   0.00165,276432067.53553,  -0.00060,   0.00186,  -0.00074,-21078443.69471,   0.00000
68521613.72949,484543167.69420,-13696696.86200,  -0.00123,   0.00393,  -0.00091,454794911.63601,   0.00165,276432067.53553,  -0.00060,   0.00186,  -0.00074,-21637155.89951,   0.00000
69166612.18710,484290776.99340,-13029263.67543,  -0.00123,   0.00393,  -0.00091,454240145.40768,   0.00165,276432067.53553,  -0.00060,   0.00186,  -0.00074,-22191922.12785,   0.00000
69831241.03255,484046799.31595,-12361830.48886,  -0.00122,   0.00393,  -0.00090,453689940.37470,   0.00165,276432067.53553,  -0.00060,   0.00186,  -0.00074,-22742127.16082,   0.00000
70498674.21912,483771973.88619,-11694397.30228,  -0.00122,   0.00392,  -0.00089,453111884.40145,   0.00165,276432067.53553,  -0.00060,   0.00186,  -0.00074,-23320183.13407,   0.00000
71174520.42906,483516778.84426,-11021355.43347,  -0.00121,   0.00392,  -0.00088,452553448.50677,   0.00165,276432067.53553,  -0.00060,   0.00186,  -0.00074,-23878619.02876,   0.00000
71853170.98011,483230736.05001,-10348313.56466,  -0.00121,   0.00392,  -0.00087,451967282.58137,   0.00165,276432067.53553,  -0.00060,   0.00186,  -0.00074,-24464784.95416,   0.00000
72559864.94236,482972736.66697,-9675271.69584,  -0.00121,   0.00392,  -0.00086,451402253.50324,   0.00165,276432067.53553,  -0.00060,   0.00186,  -0.00074,-25029814.03229,   0.00000
73277776.26910,482703519.91944,-9002229.82703,  -0.00120,   0.00391,  -0.00085,450825909.33328,   0.00165,276432067.53553,  -0.00060,   0.00186,  -0.00074,-25606158.20224,   0.00000
74006904.96031,482423085.80744,-8323579.27598,  -0.00120,   0.00391,  -0.00084,450238006.12082,   0.00165,276432067.53553,  -0.00060,   0.00186,  -0.00074,-26194061.41470,   0.00000
74755664.03937,482151064.71879,-7644928.72493,  -0.00120,   0.00391,  -0.00084,449655279.42049,   0.00165,276432067.53553,  -0.00060,   0.00186,  -0.00074,-26776788.11503,   0.00000
75496010.09506,481859413.24231,-6960669.49163,  -0.00119,   0.00390,  -0.00083,449060164.45825,   0.00165,276432067.53553,  -0.00060,   0.00186,  -0.00074,-27371903.07728,   0.00000
76275616.92643,481584587.81254,-6282018.94058,  -0.00119,   0.00390,  -0.00082,448471754.63381,   0.00165,276432067.53553,  -0.00060,   0.00186,  -0.00074,-27960312.90171,   0.00000
77046810.73445,481290131.99494,-5597759.70729,  -0.00118,   0.00390,  -0.00081,447871116.76587,   0.00165,276432067.53553,  -0.00060,   0.00186,  -0.00074,-28560950.76966,   0.00000
77837634.93030,481004089.20069,-4907891.79175,  -0.00118,   0.00390,  -0.00080,447275835.19531,   0.00165,276432067.53553,  -0.00060,   0.00186,  -0.00074,-29156232.34022,   0.00000
78628459.12616,480718046.40645,-4223632.55846,  -0.00118,   0.00389,  -0.00079,446685205.34967,   0.00165,276432067.53553,  -0.00060,   0.00186,  -0.00074,-29746862.18586,   0.00000
79450131.07434,480429199.27108,-3533764.64293,  -0.00117,   0.00389,  -0.00078,446085012.59694,   0.00165,276432067.53553,  -0.00060,   0.00186,  -0.00074,-30347054.93859,   0.00000
80263389.99915,480120721.74788,-2843896.72739,  -0.00117,   0.00389,  -0.00077,445473080.82007,   0.00165,276432067.53553,  -0.00060,   0.00186,  -0.00074,-30958986.71546,   0.00000
81115909.69965,479829070.27139,-2154028.81186,  -0.00116,   0.00388,  -0.00076,444868379.93824,   0.00165,276432067.53553,  -0.00060,   0.00186,  -0.00074,-31563687.59728,   0.00000
81960016.37678,479517788.40706,-1464160.89633,  -0.00116,   0.00388,  -0.00076,444252067.18019,   0.00165,276432067.53553,  -0.00060,   0.00186,  -0.00074,-32180000.35533,   0.00000
82823753.44176,479214919.56610,-774292.98079,  -0.00115,   0.00388,  -0.00075,443641897.83431,   0.00165,276432067.53553,  -0.00060,   0.00186,  -0.00074,-32790169.70122,   0.00000
83687490.50674,478912050.72513,-78816.38302,  -0.00115,   0.00388,  -0.00074,443036589.15998,   0.00165,276432067.53553,  -0.00060,   0.00186,  -0.00074,-33395478.37554,   0.00000
84582075.32403,478606377.54305,616660.21475,  -0.00114,   0.00387,  -0.00073,442422662.42198,   0.00165,276432067.53553,  -0.00060,   0.00186,  -0.00074,-34009405.11355,   0.00000
85476660.14133,478300704.36096,1306528.13029,  -0.00114,   0.00387,  -0.00072,441813758.85813,   0.00165,276432067.53553,  -0.00060,   0.00186,  -0.00074,-34618308.67739,   0.00000
86382462.32311,477983813.81439,2002004.72806,  -0.00113,   0.00387,  -0.00071,441195037.76275,   0.00165,276432067.53553,  -0.00060,   0.00186,  -0.00074,-35237029.77278,   0.00000
87327525.28057,477683749.31455,2703090.00807,  -0.00113,   0.00386,  -0.00070,440584658.63353,   0.00165,276432067.53553,  -0.00060,   0.00186,  -0.00074,-35847408.90199,   0.00000
88244544.82682,477355641.40350,3398566.60585,  -0.00113,   0.00386,  -0.00069,439961506.88463,   0.00165,276432067.53553,  -0.00060,   0.00186,  -0.00074,-36470560.65089,   0.00000
89200825.14876,477044359.53918,4094043.20362,  -0.00112,   0.00386,  -0.00068,439346834.79133,   0.00165,276432067.53553,  -0.00060,   0.00186,  -0.00074,-37085232.74419,   0.00000
90168322.83518,476721860.31037,4789519.80139,  -0.00112,   0.00385,  -0.00067,438722767.17469,   0.00165,276432067.53553,  -0.00060,   0.00186,  -0.00074,-37709300.36083,   0.00000
91135820.52160,476399361.08156,5490605.08141,  -0.00111,   0.00385,  -0.00067,438104419.72823,   0.00165,276432067.53553,  -0.00060,   0.00186,  -0.00074,-38327647.80729,   0.00000
92122948.59586,476085274.87612,6186081.67918,  -0.00111,   0.00385,  -0.00066,437493142.94836,   0.00165,276432067.53553,  -0.00060,   0.00186,  -0.00074,-38938924.58717,   0.00000
93121294.03460,475759971.30619,6887166.95919,  -0.00110,   0.00384,  -0.00065,436873025.86475,   0.00165,276432067.53553,  -0.00060,   0.00186,  -0.00074,-39559041.67078,   0.00000
