# sigma_xx, sigma_yy, sigma_xy, epsilon_xx, epsilon_yy, epsilon_xy, vonMises, epsPlastic, hardening, epsilonP__xx, epsilonP__yy, epsilonP__xy, yieldValue, iteration
   0.00000,   0.00000,   0.00000,   0.00000,   0.00000,   0.00000,   0.00000,   0.00000,274640135.82653,   0.00000,   0.00000,   0.00000,-474640135.82653,   0.00000
   0.00000,   0.00000,   0.00000,   0.00000,   0.00000,   0.00000,   0.00000,   0.00000,274640135.82653,   0.00000,   0.00000,   0.00000,-474640135.82653,   0.00000
-3532455.36787,-2894720.12516,104628.43826,  -0.00001,  -0.00001,   0.00000,3265733.79422,   0.00000,274640135.82653,   0.00000,   0.00000,   0.00000,-471374402.03231,   0.00000
-7047472.66271,-5781966.79044,204274.56993,  -0.00002,  -0.00001,   0.00000,6517280.28435,   0.00000,274640135.82653,   0.00000,   0.00000,   0.00000,-468122855.54218,   0.00000
-10579928.03058,-8676686.91559,303920.70161,  -0.00003,  -0.00002,   0.00000,9782543.29054,   0.00000,274640135.82653,   0.00000,   0.00000,   0.00000,-464857592.53599,   0.00000
-14087471.86554,-11546495.50783,398584.52670,  -0.00004,  -0.00003,   0.00001,13022829.96654,   0.00000,274640135.82653,   0.00000,   0.00000,   0.00000,-461617305.85999,   0.00000
-17612453.77354,-14423777.55994,488266.04521,  -0.00005,  -0.00003,   0.00001,16276393.41814,   0.00000,274640135.82653,   0.00000,   0.00000,   0.00000,-458363742.40839,   0.00000
-21137435.68154,-17301059.61205,572965.25713,  -0.00006,  -0.00004,   0.00001,19529533.62670,   0.00000,274640135.82653,   0.00000,   0.00000,   0.00000,-455110602.19983,   0.00000
-24644979.51649,-20170868.20429,657664.46905,  -0.00007,  -0.00004,   0.00001,22768967.33320,   0.00000,274640135.82653,   0.00000,   0.00000,   0.00000,-451871168.49333,   0.00000
-28169961.42449,-23048150.25640,737381.37439,  -0.00008,  -0.00005,   0.00001,26021714.91551,   0.00000,274640135.82653,   0.00000,   0.00000,   0.00000,-448618420.91102,   0.00000
-31670031.79957,-25900520.77560,817098.27973,  -0.00009,  -0.00006,   0.00001,29249966.20238,   0.00000,274640135.82653,   0.00000,   0.00000,   0.00000,-445390169.62415,   0.00000
-35187540.24770,-28760364.75467,886850.57191,  -0.00010,  -0.00006,   0.00001,32491146.31668,   0.00000,274640135.82653,   0.00000,   0.00000,   0.00000,-442148989.50985,   0.00000
-38705048.69582,-31620208.73373,956602.86408,  -0.00011,  -0.00007,   0.00001,35732365.48590,   0.00000,274640135.82653,   0.00000,   0.00000,   0.00000,-438907770.34063,   0.00000
-42205119.07090,-34472579.25293,1026355.15625,  -0.00012,  -0.00007,   0.00001,38959872.93110,   0.00000,274640135.82653,   0.00000,   0.00000,   0.00000,-435680262.89543,   0.00000
-45715154.05915,-37314985.15895,1086142.83526,  -0.00014,  -0.00008,   0.00001,42189598.85545,   0.00000,274640135.82653,   0.00000,   0.00000,   0.00000,-432450536.97108,   0.00000
-49207750.97435,-40149917.60510,1145930.51426,  -0.00015,  -0.00009,   0.00001,45405626.99411,   0.00000,274640135.82653,   0.00000,   0.00000,   0.00000,-429234508.83242,   0.00000
-52717785.96260,-42992323.51113,1200735.88668,  -0.00016,  -0.00009,   0.00002,48635069.94750,   0.00000,274640135.82653,   0.00000,   0.00000,   0.00000,-426005065.87903,   0.00000
-56202909.41793,-45809817.88424,1255541.25910,  -0.00017,  -0.00010,   0.00002,51840047.72555,   0.00000,274640135.82653,   0.00000,   0.00000,   0.00000,-422800088.10098,   0.00000
-59695506.33313,-48644750.33039,1305364.32494,  -0.00018,  -0.00010,   0.00002,55055464.19490,   0.00000,274640135.82653,   0.00000,   0.00000,   0.00000,-419584671.63163,   0.00000
-63180629.78846,-51462244.70350,1350205.08419,  -0.00019,  -0.00011,   0.00002,58259820.98327,   0.00000,274640135.82653,   0.00000,   0.00000,   0.00000,-416380314.84326,   0.00000
-66675717.85696,-54269774.46344,1390063.53686,  -0.00020,  -0.00012,   0.00002,61466905.17407,   0.00000,274640135.82653,   0.00000,   0.00000,   0.00000,-413173230.65246,   0.00000
-70160841.31229,-57087268.83654,1429921.98953,  -0.00021,  -0.00012,   0.00002,64671037.85900,   0.00000,274640135.82653,   0.00000,   0.00000,   0.00000,-409969097.96753,   0.00000
-73638491.30774,-59887325.13661,1464798.13562,  -0.00022,  -0.00013,   0.00002,67864156.54318,   0.00000,274640135.82653,   0.00000,   0.00000,   0.00000,-406775979.28335,   0.00000
-77091229.77028,-62662469.90375,1494691.97512,  -0.00023,  -0.00013,   0.00002,71032515.71577,   0.00000,274640135.82653,   0.00000,   0.00000,   0.00000,-403607620.11076,   0.00000
-80568879.76573,-65462526.20382,1524585.81463,  -0.00024,  -0.00014,   0.00002,74225449.85739,   0.00000,274640135.82653,   0.00000,   0.00000,   0.00000,-400414685.96914,   0.00000
-84039056.30131,-68245144.43084,1544515.04096,  -0.00025,  -0.00015,   0.00002,77407117.03340,   0.00000,274640135.82653,   0.00000,   0.00000,   0.00000,-397233018.79313,   0.00000
-87491794.76384,-71020289.19799,1569426.57388,  -0.00026,  -0.00015,   0.00002,80575383.09867,   0.00000,274640135.82653,   0.00000,   0.00000,   0.00000,-394064752.72786,   0.00000
-90954497.83955,-73785469.35196,1584373.49363,  -0.00027,  -0.00016,   0.00002,83746203.31736,   0.00000,274640135.82653,   0.00000,   0.00000,   0.00000,-390893932.50917,   0.00000
-94399762.84221,-76543176.04607,1599320.41338,  -0.00028,  -0.00016,   0.00002,86903330.40396,   0.00000,274640135.82653,   0.00000,   0.00000,   0.00000,-387736805.42257,   0.00000
-97845027.84487,-79300882.74017,1609285.02655,  -0.00029,  -0.00017,   0.00002,90060267.55672,   0.00000,274640135.82653,   0.00000,   0.00000,   0.00000,-384579868.26981,   0.00000
-101282819.38765,-82041151.36123,1614267.33313,  -0.00030,  -0.00018,   0.00002,93206322.10951,   0.00000,274640135.82653,   0.00000,   0.00000,   0.00000,-381433813.71702,   0.00000
-104720610.93043,-84781419.98229,1619249.63972,  -0.00031,  -0.00018,   0.00002,96352474.48794,   0.00000,274640135.82653,   0.00000,   0.00000,   0.00000,-378287661.33859,   0.00000
-108140964.40017,-87514215.14347,1619249.63972,  -0.00032,  -0.00019,   0.00002,99484673.78157,   0.00000,274640135.82653,   0.00000,   0.00000,   0.00000,-375155462.04496,   0.00000
-111578755.94296,-90254483.76453,1614267.33313,  -0.00033,  -0.00019,   0.00002,102630527.51364,   0.00000,274640135.82653,   0.00000,   0.00000,   0.00000,-372009608.31289,   0.00000
-114984162.49295,-92952402.77963,1609285.02655,  -0.00034,  -0.00020,   0.00002,105741297.59123,   0.00000,274640135.82653,   0.00000,   0.00000,   0.00000,-368898838.23529,   0.00000
-118397042.50281,-95667759.86777,1599320.41338,  -0.00035,  -0.00020,   0.00002,108862636.37112,   0.00000,274640135.82653,   0.00000,   0.00000,   0.00000,-365777499.45541,   0.00000
-121802449.05280,-98365678.88287,1584373.49363,  -0.00036,  -0.00021,   0.00002,111973182.07846,   0.00000,274640135.82653,   0.00000,   0.00000,   0.00000,-362666953.74807,   0.00000
-125207855.60279,-101063597.89796,1569426.57388,  -0.00037,  -0.00022,   0.00002,115083842.70494,   0.00000,274640135.82653,   0.00000,   0.00000,   0.00000,-359556293.12159,   0.00000
-128605788.69290,-103744078.84002,1549497.34754,  -0.00038,  -0.00022,   0.00002,118183740.52440,   0.00000,274640135.82653,   0.00000,   0.00000,   0.00000,-356456395.30213,   0.00000
-131993757.16985,-106434524.39524,1524585.81463,  -0.00039,  -0.00023,   0.00002,121280419.82636,   0.00000,274640135.82653,   0.00000,   0.00000,   0.00000,-353359716.00017,   0.00000
-135366778.72705,-109090093.80438,1494691.97512,  -0.00040,  -0.00023,   0.00002,124355703.81835,   0.00000,274640135.82653,   0.00000,   0.00000,   0.00000,-350284432.00818,   0.00000
-138739800.28424,-111745663.21351,1464798.13562,  -0.00041,  -0.00024,   0.00002,127431123.88189,   0.00000,274640135.82653,   0.00000,   0.00000,   0.00000,-347209011.94464,   0.00000
-142112821.84144,-114401232.62265,1429921.98953,  -0.00042,  -0.00024,   0.00002,130506506.34303,   0.00000,274640135.82653,   0.00000,   0.00000,   0.00000,-344133629.48350,   0.00000
-145468405.32559,-117049328.57191,1395045.84345,  -0.00043,  -0.00025,   0.00002,133568190.65194,   0.00000,274640135.82653,   0.00000,   0.00000,   0.00000,-341071945.17459,   0.00000
-148816515.34986,-119679986.44813,1350205.08419,  -0.00044,  -0.00025,   0.00002,136619050.71431,   0.00000,274640135.82653,   0.00000,   0.00000,   0.00000,-338021085.11222,   0.00000
-152157151.91426,-122293206.25130,1305364.32494,  -0.00045,  -0.00026,   0.00002,139659418.37300,   0.00000,274640135.82653,   0.00000,   0.00000,   0.00000,-334980717.45353,   0.00000
-155497788.47867,-124906426.05447,1260523.56569,  -0.00046,  -0.00027,   0.00002,142699934.24032,   0.00000,274640135.82653,   0.00000,   0.00000,   0.00000,-331940201.58621,   0.00000
-158838425.04307,-127519645.85765,1210700.49985,  -0.00047,  -0.00027,   0.00002,145740464.61722,   0.00000,274640135.82653,   0.00000,   0.00000,   0.00000,-328899671.20931,   0.00000
-162154150.07455,-130107954.12790,1155895.12743,  -0.00048,  -0.00028,   0.00002,148756551.70390,   0.00000,274640135.82653,   0.00000,   0.00000,   0.00000,-325883584.12263,   0.00000
-165469875.10603,-132696262.39816,1096107.44842,  -0.00049,  -0.00028,   0.00001,151772685.32447,   0.00000,274640135.82653,   0.00000,   0.00000,   0.00000,-322867450.50206,   0.00000
-168778126.67764,-135267132.59537,1036319.76942,  -0.00050,  -0.00029,   0.00001,154778363.60705,   0.00000,274640135.82653,   0.00000,   0.00000,   0.00000,-319861772.21948,   0.00000
-172068940.17620,-137830529.33271,971549.78383,  -0.00051,  -0.00029,   0.00001,157770255.78428,   0.00000,274640135.82653,   0.00000,   0.00000,   0.00000,-316869880.04224,   0.00000
-175359753.67476,-140393926.07004,901797.49166,  -0.00052,  -0.00030,   0.00001,160762225.38055,   0.00000,274640135.82653,   0.00000,   0.00000,   0.00000,-313877910.44598,   0.00000
-178643093.71345,-142939884.73434,832045.19949,  -0.00053,  -0.00030,   0.00001,163743760.95911,   0.00000,274640135.82653,   0.00000,   0.00000,   0.00000,-310896374.86742,   0.00000
-181918960.29226,-145468405.32559,757310.60073,  -0.00054,  -0.00031,   0.00001,166714800.08572,   0.00000,274640135.82653,   0.00000,   0.00000,   0.00000,-307925335.74081,   0.00000
-185177388.79803,-147989452.45696,677593.69539,  -0.00055,  -0.00031,   0.00001,169672096.65878,   0.00000,274640135.82653,   0.00000,   0.00000,   0.00000,-304968039.16775,   0.00000
-188435817.30380,-150510499.58834,597876.79005,  -0.00056,  -0.00032,   0.00001,172629577.69895,   0.00000,274640135.82653,   0.00000,   0.00000,   0.00000,-302010558.12758,   0.00000
-191686772.34969,-153014108.64667,513177.57813,  -0.00057,  -0.00032,   0.00001,175576608.86921,   0.00000,274640135.82653,   0.00000,   0.00000,   0.00000,-299063526.95732,   0.00000
-194920289.32254,-155510244.24512,428478.36620,  -0.00058,  -0.00033,   0.00001,178509955.56275,   0.00000,274640135.82653,   0.00000,   0.00000,   0.00000,-296130180.26378,   0.00000
-198146332.83552,-157988941.77054,333814.54111,  -0.00059,  -0.00033,   0.00000,181432852.02517,   0.00000,274640135.82653,   0.00000,   0.00000,   0.00000,-293207283.80136,   0.00000
-201372376.34849,-160467639.29595,239150.71602,  -0.00060,  -0.00034,   0.00000,184355957.17142,   0.00000,274640135.82653,   0.00000,   0.00000,   0.00000,-290284178.65511,   0.00000
-204573508.32855,-162921425.28844,144486.89093,  -0.00061,  -0.00034,   0.00000,187254816.23742,   0.00000,274640135.82653,   0.00000,   0.00000,   0.00000,-287385319.58911,   0.00000
-207774640.30860,-165375211.28094,44840.75925,  -0.00062,  -0.00035,   0.00000,190153865.73459,   0.00000,274640135.82653,   0.00000,   0.00000,   0.00000,-284486270.09194,   0.00000
-210968298.82878,-167811559.20039,-59787.67900,  -0.00063,  -0.00035,  -0.00000,193042570.60909,   0.00000,274640135.82653,   0.00000,   0.00000,   0.00000,-281597565.21744,   0.00000
-214137045.81605,-170222995.58692,-164416.11726,  -0.00064,  -0.00036,  -0.00000,195907055.28502,   0.00000,274640135.82653,   0.00000,   0.00000,   0.00000,-278733080.54151,   0.00000
-217313266.26318,-172651870.04650,-279009.16869,  -0.00065,  -0.00036,  -0.00000,198782332.35533,   0.00000,274640135.82653,   0.00000,   0.00000,   0.00000,-275857803.47120,   0.00000
-220474539.79057,-175045868.35999,-388619.91353,  -0.00066,  -0.00037,  -0.00001,201636739.04616,   0.00000,274640135.82653,   0.00000,   0.00000,   0.00000,-273003396.78037,   0.00000
-223625848.70479,-177449831.28664,-508195.27154,  -0.00067,  -0.00037,  -0.00001,204488064.43384,   0.00000,274640135.82653,   0.00000,   0.00000,   0.00000,-270152071.39269,   0.00000
-226762210.69925,-179818918.06721,-627770.62955,  -0.00068,  -0.00038,  -0.00001,207318572.24450,   0.00000,274640135.82653,   0.00000,   0.00000,   0.00000,-267321563.58203,   0.00000
-229898572.69372,-182188004.84778,-747345.98756,  -0.00069,  -0.00038,  -0.00001,210149318.67289,   0.00000,274640135.82653,   0.00000,   0.00000,   0.00000,-264490817.15364,   0.00000
-233017496.61515,-184549618.16848,-871903.65216,  -0.00070,  -0.00039,  -0.00001,212966443.16877,   0.00000,274640135.82653,   0.00000,   0.00000,   0.00000,-261673692.65776,   0.00000
-236128947.07669,-186893793.41613,-1001443.62333,  -0.00071,  -0.00039,  -0.00001,215773361.83712,   0.00000,274640135.82653,   0.00000,   0.00000,   0.00000,-258866773.98941,   0.00000
-239240397.53824,-189237968.66378,-1135965.90109,  -0.00072,  -0.00039,  -0.00001,218580605.27271,   0.00000,274640135.82653,   0.00000,   0.00000,   0.00000,-256059530.55382,   0.00000
-242326936.46687,-191557232.37852,-1270488.17885,  -0.00073,  -0.00040,  -0.00002,221363688.42747,   0.00000,274640135.82653,   0.00000,   0.00000,   0.00000,-253276447.39906,   0.00000
-245396037.32246,-193869022.63337,-1409992.76320,  -0.00074,  -0.00040,  -0.00002,224133191.19522,   0.00000,274640135.82653,   0.00000,   0.00000,   0.00000,-250506944.63131,   0.00000
-248475102.79121,-196170848.27506,-1549497.34754,  -0.00075,  -0.00041,  -0.00002,226906389.41283,   0.00000,274640135.82653,   0.00000,   0.00000,   0.00000,-247733746.41370,   0.00000
-251529256.72705,-198447762.38383,-1693984.23847,  -0.00076,  -0.00041,  -0.00002,229655550.68637,   0.00000,274640135.82653,   0.00000,   0.00000,   0.00000,-244984585.14016,   0.00000
-254565972.58984,-200717203.03273,-1838471.12940,  -0.00077,  -0.00042,  -0.00002,232391049.56223,   0.00000,274640135.82653,   0.00000,   0.00000,   0.00000,-242249086.26430,   0.00000
-257595214.99276,-202969205.60858,-1987940.32691,  -0.00078,  -0.00042,  -0.00003,235116466.40999,   0.00000,274640135.82653,   0.00000,   0.00000,   0.00000,-239523669.41654,   0.00000
-260624457.39567,-205221208.18444,-2142391.83101,  -0.00079,  -0.00043,  -0.00003,237842291.40459,   0.00000,274640135.82653,   0.00000,   0.00000,   0.00000,-236797844.42193,   0.00000
-263636261.72555,-207465737.30041,-2296843.33511,  -0.00079,  -0.00043,  -0.00003,240554454.75012,   0.00000,274640135.82653,   0.00000,   0.00000,   0.00000,-234085681.07641,   0.00000
-266640592.59554,-209692828.34335,-2456277.14579,  -0.00080,  -0.00043,  -0.00003,243256588.31382,   0.00000,274640135.82653,   0.00000,   0.00000,   0.00000,-231383547.51271,   0.00000
-269620011.93262,-211895007.85336,-2620693.26305,  -0.00081,  -0.00044,  -0.00003,245934777.41339,   0.00000,274640135.82653,   0.00000,   0.00000,   0.00000,-228705358.41314,   0.00000
-272599431.26970,-214097187.36338,-2785109.38031,  -0.00082,  -0.00044,  -0.00004,248613263.03429,   0.00000,274640135.82653,   0.00000,   0.00000,   0.00000,-226026872.79224,   0.00000
-275571377.14691,-216281928.80035,-2949525.49758,  -0.00083,  -0.00045,  -0.00004,251281608.47687,   0.00000,274640135.82653,   0.00000,   0.00000,   0.00000,-223358527.34966,   0.00000
-278518411.49119,-218441758.70440,-3123906.22801,  -0.00084,  -0.00045,  -0.00004,253926233.81234,   0.00000,274640135.82653,   0.00000,   0.00000,   0.00000,-220713902.01419,   0.00000
-281465445.83548,-220601588.60845,-3298286.95844,  -0.00085,  -0.00045,  -0.00004,256571178.61682,   0.00000,274640135.82653,   0.00000,   0.00000,   0.00000,-218068957.20971,   0.00000
-284395042.10672,-222753945.05263,-3472667.68887,  -0.00086,  -0.00046,  -0.00005,259202470.45764,   0.00000,274640135.82653,   0.00000,   0.00000,   0.00000,-215437665.36889,   0.00000
-287317164.91808,-224888863.42377,-3652030.72588,  -0.00087,  -0.00046,  -0.00005,261823863.45271,   0.00000,274640135.82653,   0.00000,   0.00000,   0.00000,-212816272.37382,   0.00000
-290214376.19653,-226998870.26198,-3831393.76290,  -0.00088,  -0.00047,  -0.00005,264421206.51615,   0.00000,274640135.82653,   0.00000,   0.00000,   0.00000,-210218929.31037,   0.00000
-293111587.47498,-229108877.10020,-4015739.10650,  -0.00089,  -0.00047,  -0.00005,267019085.62588,   0.00000,274640135.82653,   0.00000,   0.00000,   0.00000,-207621050.20065,   0.00000
-296001325.29355,-231201445.86537,-4205066.75668,  -0.00090,  -0.00047,  -0.00005,269607133.65771,   0.00000,274640135.82653,   0.00000,   0.00000,   0.00000,-205033002.16882,   0.00000
-298873625.03908,-233286541.17067,-4394394.40686,  -0.00090,  -0.00048,  -0.00006,272181542.19101,   0.00000,274640135.82653,   0.00000,   0.00000,   0.00000,-202458593.63552,   0.00000
-301721013.25169,-235346724.94305,-4588704.36363,  -0.00091,  -0.00048,  -0.00006,274732173.37431,   0.00000,274640135.82653,   0.00000,   0.00000,   0.00000,-199907962.45222,   0.00000
-304568401.46430,-237406908.71542,-4783014.32039,  -0.00092,  -0.00049,  -0.00006,277283141.33799,   0.00000,274640135.82653,   0.00000,   0.00000,   0.00000,-197356994.48854,   0.00000
-307408316.21703,-239449654.41476,-4982306.58374,  -0.00093,  -0.00049,  -0.00006,279824346.56947,   0.00000,274640135.82653,   0.00000,   0.00000,   0.00000,-194815789.25706,   0.00000
-310223319.43685,-241467488.58118,-5181598.84709,  -0.00094,  -0.00049,  -0.00007,282341560.91554,   0.00000,274640135.82653,   0.00000,   0.00000,   0.00000,-192298574.91099,   0.00000
-313038322.65667,-243485322.74759,-5385873.41703,  -0.00095,  -0.00050,  -0.00007,284859403.42240,   0.00000,274640135.82653,   0.00000,   0.00000,   0.00000,-189780732.40413,   0.00000
-315828414.34356,-245478245.38109,-5595130.29355,  -0.00096,  -0.00050,  -0.00007,287353558.73315,   0.00000,274640135.82653,   0.00000,   0.00000,   0.00000,-187286577.09338,   0.00000
-318618506.03046,-247471168.01459,-5804387.17006,  -0.00097,  -0.00050,  -0.00008,289848081.37441,   0.00000,274640135.82653,   0.00000,   0.00000,   0.00000,-184792054.45212,   0.00000
-321383686.18444,-249439179.11517,-6013644.04658,  -0.00098,  -0.00051,  -0.00008,292318638.99596,   0.00000,274640135.82653,   0.00000,   0.00000,   0.00000,-182321496.83057,   0.00000
-324148866.33842,-251407190.21575,-6227883.22968,  -0.00098,  -0.00051,  -0.00008,294789868.77344,   0.00000,274640135.82653,   0.00000,   0.00000,   0.00000,-179850267.05309,   0.00000
-326889134.95948,-253350289.78341,-6447104.71937,  -0.00099,  -0.00052,  -0.00008,297237471.21897,   0.00000,274640135.82653,   0.00000,   0.00000,   0.00000,-177402664.60756,   0.00000
-329621930.12066,-255275951.27802,-6666326.20905,  -0.00100,  -0.00052,  -0.00009,299675150.88692,   0.00000,274640135.82653,   0.00000,   0.00000,   0.00000,-174964984.93961,   0.00000
-332337287.20880,-257194139.31277,-6885547.69873,  -0.00101,  -0.00052,  -0.00009,302099201.45917,   0.00000,274640135.82653,   0.00000,   0.00000,   0.00000,-172540934.36736,   0.00000
-335045170.83706,-259094889.27446,-7109751.49500,  -0.00102,  -0.00053,  -0.00009,304513681.80818,   0.00000,274640135.82653,   0.00000,   0.00000,   0.00000,-170126454.01835,   0.00000
-337735616.39229,-260988165.77629,-7338937.59786,  -0.00103,  -0.00053,  -0.00010,306914890.85868,   0.00000,274640135.82653,   0.00000,   0.00000,   0.00000,-167725244.96785,   0.00000
-340418588.48763,-262864004.20507,-7568123.70071,  -0.00104,  -0.00053,  -0.00010,309306217.70017,   0.00000,274640135.82653,   0.00000,   0.00000,   0.00000,-165333918.12636,   0.00000
-343084122.50994,-264732369.17397,-7802292.11014,  -0.00104,  -0.00054,  -0.00010,311684290.77412,   0.00000,274640135.82653,   0.00000,   0.00000,   0.00000,-162955845.05241,   0.00000
-345742183.07236,-266583296.06983,-8036460.51958,  -0.00105,  -0.00054,  -0.00010,314052502.35962,   0.00000,274640135.82653,   0.00000,   0.00000,   0.00000,-160587633.46691,   0.00000
-348375332.10187,-268409311.43277,-8270628.92902,  -0.00106,  -0.00054,  -0.00011,316396835.28746,   0.00000,274640135.82653,   0.00000,   0.00000,   0.00000,-158243300.53906,   0.00000
-351008481.13138,-270235326.79572,-8509779.64504,  -0.00107,  -0.00055,  -0.00011,318741969.49376,   0.00000,274640135.82653,   0.00000,   0.00000,   0.00000,-155898166.33277,   0.00000
-353616718.62797,-272036430.62574,-8753912.66764,  -0.00108,  -0.00055,  -0.00011,321063648.35753,   0.00000,274640135.82653,   0.00000,   0.00000,   0.00000,-153576487.46900,   0.00000
-356224956.12456,-273837534.45576,-8993063.38366,  -0.00109,  -0.00055,  -0.00012,323385337.50475,   0.00000,274640135.82653,   0.00000,   0.00000,   0.00000,-151254798.32178,   0.00000
-358808282.08823,-275613726.75287,-9242178.71285,  -0.00110,  -0.00055,  -0.00012,325684011.66723,   0.00000,274640135.82653,   0.00000,   0.00000,   0.00000,-148956124.15930,   0.00000
-361391608.05191,-277389919.04997,-9491294.04203,  -0.00110,  -0.00056,  -0.00012,327983119.45253,   0.00000,274640135.82653,   0.00000,   0.00000,   0.00000,-146657016.37400,   0.00000
-363942549.02278,-279123761.74112,-9740409.37122,  -0.00111,  -0.00056,  -0.00013,330248189.61045,   0.00000,274640135.82653,   0.00000,   0.00000,   0.00000,-144391946.21608,   0.00000
-366500963.45354,-280875042.50530,-9994507.00699,  -0.00112,  -0.00056,  -0.00013,332524348.78880,   0.00000,274640135.82653,   0.00000,   0.00000,   0.00000,-142115787.03773,   0.00000
-369034466.35137,-282601411.73657,-10248604.64276,  -0.00113,  -0.00057,  -0.00013,334776695.41317,   0.00000,274640135.82653,   0.00000,   0.00000,   0.00000,-139863440.41336,   0.00000
-371543057.71628,-284302869.43492,-10507684.58512,  -0.00114,  -0.00057,  -0.00014,337005700.52264,   0.00000,274640135.82653,   0.00000,   0.00000,   0.00000,-137634435.30389,   0.00000
-374051649.08120,-286004327.13327,-10766764.52747,  -0.00114,  -0.00057,  -0.00014,339235155.55722,   0.00000,274640135.82653,   0.00000,   0.00000,   0.00000,-135404980.26931,   0.00000
-376552766.98624,-287688346.75857,-11030826.77641,  -0.00115,  -0.00057,  -0.00014,341455363.99675,   0.00000,274640135.82653,   0.00000,   0.00000,   0.00000,-133184771.82978,   0.00000
-379028973.35836,-289347454.85096,-11294889.02535,  -0.00116,  -0.00058,  -0.00015,343651810.80869,   0.00000,274640135.82653,   0.00000,   0.00000,   0.00000,-130988325.01784,   0.00000
-381487741.65744,-290999089.48347,-11558951.27429,  -0.00117,  -0.00058,  -0.00015,345834656.60250,   0.00000,274640135.82653,   0.00000,   0.00000,   0.00000,-128805479.22403,   0.00000
-383946509.95652,-292650724.11598,-11827995.82981,  -0.00118,  -0.00058,  -0.00015,348018460.90239,   0.00000,274640135.82653,   0.00000,   0.00000,   0.00000,-126621674.92414,   0.00000
-386390331.33584,-294267482.60241,-12097040.38533,  -0.00118,  -0.00059,  -0.00016,350182444.62155,   0.00000,274640135.82653,   0.00000,   0.00000,   0.00000,-124457691.20498,   0.00000
-388824188.10200,-295894205.70200,-12371067.24744,  -0.00119,  -0.00059,  -0.00016,352343491.26890,   0.00000,274640135.82653,   0.00000,   0.00000,   0.00000,-122296644.55763,   0.00000
-391225659.87537,-297478579.19563,-12645094.10954,  -0.00120,  -0.00059,  -0.00016,354470681.15105,   0.00000,274640135.82653,   0.00000,   0.00000,   0.00000,-120169454.67548,   0.00000
-393627131.64873,-299062952.68926,-12924103.27823,  -0.00121,  -0.00059,  -0.00017,356598897.26189,   0.00000,274640135.82653,   0.00000,   0.00000,   0.00000,-118041238.56464,   0.00000
-396011165.34905,-300639852.72302,-13198130.14034,  -0.00122,  -0.00060,  -0.00017,358712973.86187,   0.00000,274640135.82653,   0.00000,   0.00000,   0.00000,-115927161.96466,   0.00000
-398387725.58950,-302199314.68373,-13482121.61561,  -0.00122,  -0.00060,  -0.00018,360818528.97808,   0.00000,274640135.82653,   0.00000,   0.00000,   0.00000,-113821606.84845,   0.00000
-400739374.29703,-303733865.11152,-13761130.78430,  -0.00123,  -0.00060,  -0.00018,362899840.21950,   0.00000,274640135.82653,   0.00000,   0.00000,   0.00000,-111740295.60703,   0.00000
-403091023.00455,-305268415.53932,-14050104.56616,  -0.00124,  -0.00060,  -0.00018,364982789.67231,   0.00000,274640135.82653,   0.00000,   0.00000,   0.00000,-109657346.15422,   0.00000
-405425233.63904,-306795492.50723,-14334096.04143,  -0.00125,  -0.00061,  -0.00019,367051575.38533,   0.00000,274640135.82653,   0.00000,   0.00000,   0.00000,-107588560.44120,   0.00000
-407727059.28073,-308280219.86919,-14623069.82329,  -0.00125,  -0.00061,  -0.00019,369087203.60343,   0.00000,274640135.82653,   0.00000,   0.00000,   0.00000,-105552932.22310,   0.00000
-410036358.38229,-309782385.30419,-14912043.60515,  -0.00126,  -0.00061,  -0.00019,371133409.18395,   0.00000,274640135.82653,   0.00000,   0.00000,   0.00000,-103506726.64258,   0.00000
-412330710.56411,-311249674.59310,-15205999.69359,  -0.00127,  -0.00061,  -0.00020,373160612.33849,   0.00000,274640135.82653,   0.00000,   0.00000,   0.00000,-101479523.48804,   0.00000
-414607624.67288,-312709490.42214,-15499955.78203,  -0.00128,  -0.00061,  -0.00020,375174245.76869,   0.00000,274640135.82653,   0.00000,   0.00000,   0.00000,-99465890.05784,   0.00000
-416867100.70861,-314161832.79130,-15793911.87047,  -0.00128,  -0.00062,  -0.00021,377174293.13713,   0.00000,274640135.82653,   0.00000,   0.00000,   0.00000,-97465842.68940,   0.00000
-419119103.28446,-315596737.08742,-16092850.26549,  -0.00129,  -0.00062,  -0.00021,379165453.64737,   0.00000,274640135.82653,   0.00000,   0.00000,   0.00000,-95474682.17916,   0.00000
-421346194.32739,-317006729.85062,-16391788.66052,  -0.00130,  -0.00062,  -0.00021,381133015.16991,   0.00000,274640135.82653,   0.00000,   0.00000,   0.00000,-93507120.65662,   0.00000
-423573285.37033,-318416722.61382,-16695709.36213,  -0.00131,  -0.00062,  -0.00022,383101762.11872,   0.00000,274640135.82653,   0.00000,   0.00000,   0.00000,-91538373.70781,   0.00000
-425782938.34022,-319819241.91714,-16994647.75715,  -0.00131,  -0.00062,  -0.00022,385056275.98837,   0.00000,274640135.82653,   0.00000,   0.00000,   0.00000,-89583859.83816,   0.00000
-427967679.77719,-321196849.68755,-17298568.45876,  -0.00132,  -0.00063,  -0.00022,386987857.79753,   0.00000,274640135.82653,   0.00000,   0.00000,   0.00000,-87652278.02900,   0.00000
-430144947.75429,-322557019.38491,-17607471.46695,  -0.00133,  -0.00063,  -0.00023,388910662.92440,   0.00000,274640135.82653,   0.00000,   0.00000,   0.00000,-85729472.90213,   0.00000
-432322215.73138,-323917189.08227,-17916374.47515,  -0.00134,  -0.00063,  -0.00023,390834026.31210,   0.00000,274640135.82653,   0.00000,   0.00000,   0.00000,-83806109.51443,   0.00000
-434474572.17556,-325252447.24672,-18225277.48334,  -0.00134,  -0.00063,  -0.00024,392733844.55452,   0.00000,274640135.82653,   0.00000,   0.00000,   0.00000,-81906291.27201,   0.00000
-436609490.54670,-326580231.95128,-18534180.49153,  -0.00135,  -0.00063,  -0.00024,394620088.16253,   0.00000,274640135.82653,   0.00000,   0.00000,   0.00000,-80020047.66400,   0.00000
-438736935.45795,-327890578.58281,-18848065.80631,  -0.00136,  -0.00064,  -0.00025,396497630.76135,   0.00000,274640135.82653,   0.00000,   0.00000,   0.00000,-78142505.06518,   0.00000
-440864380.36921,-329200925.21433,-19161951.12108,  -0.00136,  -0.00064,  -0.00025,398375740.02569,   0.00000,274640135.82653,   0.00000,   0.00000,   0.00000,-76264395.80084,   0.00000
-442949475.67451,-330478886.85306,-19475836.43586,  -0.00137,  -0.00064,  -0.00025,400216201.09327,   0.00000,274640135.82653,   0.00000,   0.00000,   0.00000,-74423934.73325,   0.00000
-445052009.05285,-331764321.95167,-19794704.05722,  -0.00138,  -0.00064,  -0.00026,402072094.27107,   0.00000,274640135.82653,   0.00000,   0.00000,   0.00000,-72568041.55546,   0.00000
-447112192.82523,-333017372.05748,-20113571.67858,  -0.00138,  -0.00064,  -0.00026,403890359.98962,   0.00000,274640135.82653,   0.00000,   0.00000,   0.00000,-70749775.83691,   0.00000
-449164903.13773,-334252984.09025,-20432439.29994,  -0.00139,  -0.00064,  -0.00027,405699287.75980,   0.00000,274640135.82653,   0.00000,   0.00000,   0.00000,-68940848.06673,   0.00000
-451217613.45023,-335488596.12302,-20756289.22788,  -0.00140,  -0.00065,  -0.00027,407509557.87743,   0.00000,274640135.82653,   0.00000,   0.00000,   0.00000,-67130577.94910,   0.00000
-453252885.68969,-336716734.69591,-21080139.15582,  -0.00141,  -0.00065,  -0.00027,409306270.35249,   0.00000,274640135.82653,   0.00000,   0.00000,   0.00000,-65333865.47404,   0.00000
-455263246.39624,-337919961.73589,-21403989.08377,  -0.00141,  -0.00065,  -0.00028,411079526.98103,   0.00000,274640135.82653,   0.00000,   0.00000,   0.00000,-63560608.84550,   0.00000
-457273607.10278,-339123188.77586,-21727839.01171,  -0.00142,  -0.00065,  -0.00028,412853366.34078,   0.00000,274640135.82653,   0.00000,   0.00000,   0.00000,-61786769.48575,   0.00000
-459276494.34944,-340308977.74279,-22056671.24624,  -0.00143,  -0.00065,  -0.00029,414618709.82904,   0.00000,274640135.82653,   0.00000,   0.00000,   0.00000,-60021425.99749,   0.00000
-461254470.06319,-341469855.17680,-22385503.48076,  -0.00143,  -0.00065,  -0.00029,416360640.97591,   0.00000,274640135.82653,   0.00000,   0.00000,   0.00000,-58279494.85062,   0.00000
-463222481.16377,-342640697.22398,-22714335.71529,  -0.00144,  -0.00066,  -0.00030,418098868.30131,   0.00000,274640135.82653,   0.00000,   0.00000,   0.00000,-56541267.52522,   0.00000
-465175545.34459,-343776663.12508,-23043167.94982,  -0.00145,  -0.00066,  -0.00030,419817994.03741,   0.00000,274640135.82653,   0.00000,   0.00000,   0.00000,-54822141.78912,   0.00000
-467111171.45238,-344905155.56630,-23376982.49093,  -0.00145,  -0.00066,  -0.00030,421524390.16791,   0.00000,274640135.82653,   0.00000,   0.00000,   0.00000,-53115745.65862,   0.00000
-469046797.56016,-346033648.00751,-23710797.03204,  -0.00146,  -0.00066,  -0.00031,423231396.63372,   0.00000,274640135.82653,   0.00000,   0.00000,   0.00000,-51408739.19281,   0.00000
-470957512.13503,-347137228.91581,-24044611.57315,  -0.00147,  -0.00066,  -0.00031,424915024.76759,   0.00000,274640135.82653,   0.00000,   0.00000,   0.00000,-49725111.05894,   0.00000
-472850788.63685,-348233336.36424,-24383408.42085,  -0.00147,  -0.00066,  -0.00032,426585945.57140,   0.00000,274640135.82653,   0.00000,   0.00000,   0.00000,-48054190.25513,   0.00000
-474736591.67880,-349312005.73962,-24717222.96196,  -0.00148,  -0.00066,  -0.00032,428246822.67144,   0.00000,274640135.82653,   0.00000,   0.00000,   0.00000,-46393313.15509,   0.00000
-476622394.72075,-350390675.11500,-25056019.80965,  -0.00149,  -0.00066,  -0.00033,429909178.87603,   0.00000,274640135.82653,   0.00000,   0.00000,   0.00000,-44730956.95050,   0.00000
-478490759.68965,-351461871.03050,-25394816.65735,  -0.00149,  -0.00067,  -0.00033,431557975.67012,   0.00000,274640135.82653,   0.00000,   0.00000,   0.00000,-43082160.15641,   0.00000
-480326739.66576,-352490717.34005,-25738595.81162,  -0.00150,  -0.00067,  -0.00033,433174550.92551,   0.00000,274640135.82653,   0.00000,   0.00000,   0.00000,-41465584.90102,   0.00000
-482170193.10175,-353537001.72263,-26077392.65932,  -0.00150,  -0.00067,  -0.00034,434800636.54199,   0.00000,274640135.82653,   0.00000,   0.00000,   0.00000,-39839499.28454,   0.00000
-484006173.07786,-354565848.03218,-26421171.81360,  -0.00151,  -0.00067,  -0.00034,436418482.55786,   0.00000,274640135.82653,   0.00000,   0.00000,   0.00000,-38221653.26867,   0.00000
-485799803.44801,-355562309.34892,-26764950.96788,  -0.00152,  -0.00067,  -0.00035,437998850.07312,   0.00000,274640135.82653,   0.00000,   0.00000,   0.00000,-36641285.75341,   0.00000
-487618345.35107,-356583682.19859,-27108730.12215,  -0.00152,  -0.00067,  -0.00035,439603773.62673,   0.00000,274640135.82653,   0.00000,   0.00000,   0.00000,-35036362.19980,   0.00000
-489404502.26134,-357562705.44230,-27452509.27643,  -0.00153,  -0.00067,  -0.00036,441175677.10539,   0.00000,274640135.82653,   0.00000,   0.00000,   0.00000,-33464458.72114,   0.00000
-491180694.55845,-358551693.29917,-27801270.73729,  -0.00154,  -0.00067,  -0.00036,442744682.28162,   0.00000,274640135.82653,   0.00000,   0.00000,   0.00000,-31895453.54491,   0.00000
-492941939.93580,-359505805.00996,-28150032.19816,  -0.00154,  -0.00067,  -0.00037,444294906.54520,   0.00000,274640135.82653,   0.00000,   0.00000,   0.00000,-30345229.28133,   0.00000
-494693220.69999,-360469881.33391,-28498793.65902,  -0.00155,  -0.00068,  -0.00037,445841289.15238,   0.00000,274640135.82653,   0.00000,   0.00000,   0.00000,-28798846.67415,   0.00000
-496419589.93126,-361409046.12495,-28847555.11988,  -0.00155,  -0.00068,  -0.00038,447364417.13982,   0.00000,274640135.82653,   0.00000,   0.00000,   0.00000,-27275718.68671,   0.00000
-498155923.77569,-362338246.30282,-29196316.58074,  -0.00156,  -0.00068,  -0.00038,448892704.35820,   0.00000,274640135.82653,   0.00000,   0.00000,   0.00000,-25747431.46833,   0.00000
-499857381.47404,-363252499.56093,-29545078.04160,  -0.00157,  -0.00068,  -0.00038,450393241.41951,   0.00000,274640135.82653,   0.00000,   0.00000,   0.00000,-24246894.40702,   0.00000
-501558839.17239,-364166752.81905,-29898821.80905,  -0.00157,  -0.00068,  -0.00039,451895405.86106,   0.00000,274640135.82653,   0.00000,   0.00000,   0.00000,-22744729.96547,   0.00000
-503260296.87074,-365081006.07717,-30252565.57650,  -0.00158,  -0.00068,  -0.00039,453398219.09262,   0.00000,274640135.82653,   0.00000,   0.00000,   0.00000,-21241916.73391,   0.00000
-504929369.57629,-365952909.72932,-30606309.34394,  -0.00158,  -0.00068,  -0.00040,454868186.30325,   0.00000,274640135.82653,   0.00000,   0.00000,   0.00000,-19771949.52328,   0.00000
-506605915.74172,-366842251.45452,-30960053.11139,  -0.00159,  -0.00068,  -0.00040,456348453.76295,   0.00000,274640135.82653,   0.00000,   0.00000,   0.00000,-18291682.06358,   0.00000
-508257550.37423,-367706681.64680,-31313796.87883,  -0.00160,  -0.00068,  -0.00041,457805532.50806,   0.00000,274640135.82653,   0.00000,   0.00000,   0.00000,-16834603.31847,   0.00000
-509891746.93370,-368563638.37921,-31667540.64628,  -0.00160,  -0.00068,  -0.00041,459249051.26604,   0.00000,274640135.82653,   0.00000,   0.00000,   0.00000,-15391084.56049,   0.00000
-511518470.03329,-369403157.03857,-32026266.72031,  -0.00161,  -0.00068,  -0.00042,460684648.30244,   0.00000,274640135.82653,   0.00000,   0.00000,   0.00000,-13955487.52408,   0.00000
-513145193.13289,-370242675.69793,-32380010.48776,  -0.00161,  -0.00068,  -0.00042,462119869.78906,   0.00000,274640135.82653,   0.00000,   0.00000,   0.00000,-12520266.03747,   0.00000
-514754478.15944,-371074720.89741,-32738736.56178,  -0.00162,  -0.00068,  -0.00043,463542577.95327,   0.00000,274640135.82653,   0.00000,   0.00000,   0.00000,-11097557.87326,   0.00000
-516356289.72611,-371889328.02386,-33097462.63581,  -0.00162,  -0.00069,  -0.00043,464956366.47905,   0.00000,274640135.82653,   0.00000,   0.00000,   0.00000,-9683769.34748,   0.00000
-517940663.21974,-372696461.69042,-33456188.70984,  -0.00163,  -0.00069,  -0.00043,466356602.09162,   0.00000,274640135.82653,   0.00000,   0.00000,   0.00000,-8283533.73491,   0.00000
-519507598.64033,-373496121.89711,-33814914.78387,  -0.00164,  -0.00069,  -0.00044,467743273.72449,   0.00000,274640135.82653,   0.00000,   0.00000,   0.00000,-6896862.10204,   0.00000
-521067060.60104,-374278344.03076,-34173640.85790,  -0.00164,  -0.00069,  -0.00044,469121047.35509,   0.00000,274640135.82653,   0.00000,   0.00000,   0.00000,-5519088.47144,   0.00000
-522626522.56175,-375060566.16441,-34532366.93193,  -0.00165,  -0.00069,  -0.00045,470499483.55952,   0.00000,274640135.82653,   0.00000,   0.00000,   0.00000,-4140652.26701,   0.00000
-524168546.44942,-375835314.83818,-34896075.31255,  -0.00165,  -0.00069,  -0.00045,471865453.81070,   0.00000,274640135.82653,   0.00000,   0.00000,   0.00000,-2774682.01583,   0.00000
-525703096.87721,-376592625.43891,-35254801.38658,  -0.00166,  -0.00069,  -0.00046,473221454.72213,   0.00000,274640135.82653,   0.00000,   0.00000,   0.00000,-1418681.10440,   0.00000
-527220209.23196,-377342462.57976,-35618509.76719,  -0.00166,  -0.00069,  -0.00046,474565006.85265,   0.00000,274640135.82653,   0.00000,   0.00000,   0.00000,-75128.97388,   0.00000
-527305014.42130,-377384442.55721,-35638795.39387,  -0.00166,  -0.00069,  -0.00046,474640135.26506,   0.00000,274640135.82653,   0.00000,   0.00000,   0.00000,  -0.56147,   0.00000
-527318199.29310,-377149083.70724,-35865951.69827,  -0.00167,  -0.00069,  -0.00047,474640135.26506,   0.00000,274644539.03427,  -0.00000,  -0.00000,  -0.00000,   0.00000,   2.00000
-527334988.39737,-376885777.88021,-36110336.95555,  -0.00167,  -0.00069,  -0.00047,475979846.89264,   0.00001,274649230.01724,  -0.00001,  -0.00000,  -0.00000,   0.00000,   2.00000
-527348112.81559,-376629174.47370,-36356430.59213,  -0.00168,  -0.00069,  -0.00048,475956668.28122,   0.00001,274653824.27735,  -0.00001,  -0.00000,  -0.00000,  -0.00000,   2.00000
-527363744.07544,-376362649.75902,-36602546.45083,  -0.00168,  -0.00069,  -0.00048,475952377.11788,   0.00002,274658388.54052,  -0.00002,  -0.00001,  -0.00001,   0.00000,   2.00000
-527375639.31798,-376106932.74792,-36846971.06658,  -0.00169,  -0.00069,  -0.00049,475967019.33795,   0.00002,274662989.42258,  -0.00002,  -0.00001,  -0.00001,   0.00000,   2.00000
-527390035.21096,-375841273.68309,-37091432.69680,  -0.00170,  -0.00069,  -0.00049,475962743.32036,   0.00002,274667560.32047,  -0.00003,  -0.00001,  -0.00001,   0.00000,   2.00000
-527400776.22870,-375582229.91741,-37337691.44219,  -0.00170,  -0.00069,  -0.00050,475939437.92837,   0.00003,274672034.36364,  -0.00003,  -0.00001,  -0.00001,   0.00000,   2.00000
-527415511.88936,-375310125.38665,-37582692.37875,  -0.00171,  -0.00069,  -0.00050,475949297.70309,   0.00003,274676528.59658,  -0.00004,  -0.00001,  -0.00001,   0.00000,   2.00000
-527428100.45223,-375041533.17503,-37828207.02379,  -0.00171,  -0.00069,  -0.00051,475940161.79765,   0.00004,274680976.08776,  -0.00004,  -0.00001,  -0.00001,  -0.00000,   2.00000
-527438553.14601,-374776427.35799,-38074250.62973,  -0.00172,  -0.00069,  -0.00051,475930973.34537,   0.00004,274685376.78350,  -0.00005,  -0.00002,  -0.00002,   0.00000,   2.00000
-527447053.33862,-374510845.49752,-38324345.91698,  -0.00172,  -0.00069,  -0.00052,475937181.73930,   0.00005,274689785.05939,  -0.00005,  -0.00002,  -0.00002,   0.00000,   2.00000
-527459333.55234,-374236115.93107,-38569669.19023,  -0.00173,  -0.00069,  -0.00052,475931571.94539,   0.00005,274694159.28866,  -0.00006,  -0.00002,  -0.00002,   0.00000,   2.00000
-527466439.39410,-373975307.23620,-38814659.34182,  -0.00173,  -0.00069,  -0.00052,475931722.57961,   0.00005,274698519.82050,  -0.00006,  -0.00002,  -0.00002,   0.00000,   2.00000
-527479006.57932,-373693949.67927,-39060669.92763,  -0.00174,  -0.00069,  -0.00053,475917871.55897,   0.00006,274702817.42672,  -0.00006,  -0.00002,  -0.00002,   0.00000,   2.00000
-527485027.56497,-373425608.12561,-39311212.48809,  -0.00174,  -0.00069,  -0.00053,475919176.52257,   0.00006,274707105.69302,  -0.00007,  -0.00002,  -0.00002,   0.00000,   2.00000
-527491824.39466,-373158571.25786,-39556112.09937,  -0.00175,  -0.00069,  -0.00054,475922834.18955,   0.00006,274711392.93085,  -0.00007,  -0.00002,  -0.00002,   0.00000,   2.00000
-527498111.51085,-372883494.90910,-39807395.48274,  -0.00175,  -0.00069,  -0.00054,475905348.04923,   0.00007,274715604.59961,  -0.00008,  -0.00003,  -0.00003,   0.00000,   2.00000
-527505179.38370,-372609730.46447,-40053048.86680,  -0.00176,  -0.00069,  -0.00055,475908924.03073,   0.00007,274719815.23341,  -0.00008,  -0.00003,  -0.00003,  -0.00000,   2.00000
-527513102.21648,-372328798.08853,-40300278.14000,  -0.00176,  -0.00069,  -0.00055,475890132.55025,   0.00008,274723945.91633,  -0.00009,  -0.00003,  -0.00003,  -0.00000,   2.00000
-527516012.12933,-372057876.41366,-40550652.89061,  -0.00177,  -0.00069,  -0.00056,475905513.56335,   0.00008,274728117.51233,  -0.00009,  -0.00003,  -0.00003,   0.00000,   2.00000
-527522706.92764,-371777704.92754,-40796351.88470,  -0.00177,  -0.00069,  -0.00056,475899671.10459,   0.00008,274732254.96908,  -0.00010,  -0.00003,  -0.00003,   0.00000,   2.00000
-527525832.84762,-371499930.82262,-41047572.15376,  -0.00178,  -0.00069,  -0.00057,475891465.19480,   0.00009,274736350.04275,  -0.00010,  -0.00003,  -0.00003,  -0.00000,   2.00000
-527529790.20517,-371223476.86915,-41293190.09621,  -0.00178,  -0.00069,  -0.00057,475894885.90810,   0.00009,274740443.93298,  -0.00010,  -0.00003,  -0.00004,   0.00000,   2.00000
-527531692.93985,-370946452.63592,-41542894.06450,  -0.00178,  -0.00069,  -0.00058,475900895.40625,   0.00010,274744545.80528,  -0.00011,  -0.00004,  -0.00004,  -0.00000,   2.00000
-527532937.19352,-370673676.74920,-41788468.87367,  -0.00179,  -0.00069,  -0.00058,475890048.42162,   0.00010,274748596.01202,  -0.00011,  -0.00004,  -0.00004,  -0.00000,   2.00000
-527534988.98599,-370393546.93778,-42035741.26048,  -0.00179,  -0.00069,  -0.00059,475871141.53540,   0.00010,274752566.23134,  -0.00012,  -0.00004,  -0.00004,   0.00000,   2.00000
-527536474.24851,-370109917.04922,-42285627.33561,  -0.00180,  -0.00069,  -0.00059,475891312.16827,   0.00011,274756594.97649,  -0.00012,  -0.00004,  -0.00004,   0.00000,   2.00000
-527535798.55372,-369833404.43501,-42532917.95152,  -0.00180,  -0.00069,  -0.00060,475866120.53588,   0.00011,274760521.50495,  -0.00012,  -0.00004,  -0.00004,   0.00000,   2.00000
-527536053.20241,-369554363.69744,-42777983.07292,  -0.00181,  -0.00069,  -0.00060,475884910.08218,   0.00011,274764501.82683,  -0.00013,  -0.00004,  -0.00004,   0.00000,   2.00000
-527534200.53965,-369278557.12705,-43023829.76737,  -0.00181,  -0.00069,  -0.00061,475875240.24802,   0.00012,274768434.99326,  -0.00013,  -0.00004,  -0.00005,   0.00000,   2.00000
-527533109.15416,-368995268.13069,-43271459.13839,  -0.00182,  -0.00069,  -0.00061,475856255.82485,   0.00012,274772288.18080,  -0.00014,  -0.00004,  -0.00005,   0.00000,   2.00000
-527528564.59018,-368719191.37162,-43520679.09122,  -0.00182,  -0.00069,  -0.00061,475885608.37294,   0.00012,274776232.88122,  -0.00014,  -0.00005,  -0.00005,   0.00000,   2.00000
-527526291.01157,-368436578.11653,-43766875.61737,  -0.00183,  -0.00069,  -0.00062,475865282.35000,   0.00013,274780092.75848,  -0.00014,  -0.00005,  -0.00005,   0.00000,   2.00000
-527521906.48264,-368157141.34029,-44013904.60561,  -0.00183,  -0.00069,  -0.00062,475855495.37489,   0.00013,274783905.42415,  -0.00015,  -0.00005,  -0.00005,   0.00000,   2.00000
-527516941.37396,-367878037.96609,-44260228.68137,  -0.00184,  -0.00069,  -0.00063,475859915.64332,   0.00013,274787721.40460,  -0.00015,  -0.00005,  -0.00005,  -0.00000,   2.00000
-527511400.51535,-367599269.84854,-44505849.46714,  -0.00184,  -0.00069,  -0.00063,475864336.36746,   0.00014,274791540.69022,  -0.00016,  -0.00005,  -0.00006,  -0.00000,   2.00000
-527506856.24909,-367321851.78546,-44745954.38536,  -0.00184,  -0.00069,  -0.00064,475867348.28517,   0.00014,274795358.25820,  -0.00016,  -0.00005,  -0.00006,   0.00000,   2.00000
-527501448.65480,-367035771.14306,-44992782.71984,  -0.00185,  -0.00069,  -0.00064,475849700.05680,   0.00014,274799100.81636,  -0.00016,  -0.00005,  -0.00006,   0.00000,   2.00000
-527491146.25972,-366763592.75436,-45239480.34289,  -0.00185,  -0.00069,  -0.00065,475848995.10862,   0.00015,274802828.70812,  -0.00017,  -0.00005,  -0.00006,  -0.00000,   2.00000
-527486184.95362,-366479175.88233,-45480113.72644,  -0.00186,  -0.00069,  -0.00065,475856953.92510,   0.00015,274806572.77981,  -0.00017,  -0.00005,  -0.00006,   0.00000,   2.00000
-527474767.48042,-366207646.29029,-45725449.97513,  -0.00186,  -0.00069,  -0.00066,475857652.17460,   0.00016,274810307.15409,  -0.00018,  -0.00006,  -0.00006,  -0.00000,   2.00000
-527465639.28555,-365929382.91317,-45967942.09832,  -0.00187,  -0.00069,  -0.00066,475837091.31276,   0.00016,274813956.32050,  -0.00018,  -0.00006,  -0.00006,   0.00000,   2.00000
-527455874.09045,-365647652.78601,-46212955.65537,  -0.00187,  -0.00069,  -0.00067,475857044.44103,   0.00016,274817664.58535,  -0.00018,  -0.00006,  -0.00007,   0.00000,   2.00000
-527442909.79945,-365380873.27568,-46453067.13239,  -0.00187,  -0.00069,  -0.00067,475854786.45346,   0.00017,274821352.72736,  -0.00019,  -0.00006,  -0.00007,  -0.00000,   2.00000
-527430619.84840,-365106253.75515,-46695202.31375,  -0.00188,  -0.00069,  -0.00068,475835626.41667,   0.00017,274824960.71031,  -0.00019,  -0.00006,  -0.00007,   0.00000,   2.00000
-527419329.84047,-364829224.76761,-46935037.90126,  -0.00188,  -0.00069,  -0.00068,475854075.99391,   0.00017,274828622.60939,  -0.00019,  -0.00006,  -0.00007,  -0.00000,   2.00000
-527405971.04658,-364555214.12632,-47175867.66008,  -0.00189,  -0.00069,  -0.00069,475844052.21142,   0.00018,274832236.90514,  -0.00020,  -0.00006,  -0.00007,   0.00000,   2.00000
-527390548.04155,-364284196.77938,-47417705.31953,  -0.00189,  -0.00069,  -0.00069,475833978.17095,   0.00018,274835803.55500,  -0.00020,  -0.00006,  -0.00007,  -0.00000,   2.00000
-527376143.59186,-364010787.43734,-47657226.83168,  -0.00190,  -0.00069,  -0.00069,475852379.52667,   0.00018,274839424.12556,  -0.00021,  -0.00006,  -0.00008,  -0.00000,   2.00000
-527364030.61391,-363730498.57928,-47894054.26115,  -0.00190,  -0.00069,  -0.00070,475831687.60886,   0.00018,274842959.19263,  -0.00021,  -0.00007,  -0.00008,   0.00000,   2.00000
-527347043.49723,-363460380.95248,-48133967.58882,  -0.00190,  -0.00069,  -0.00070,475846410.29380,   0.00019,274846535.19979,  -0.00021,  -0.00007,  -0.00008,  -0.00000,   2.00000
-527329696.74536,-363194286.11729,-48370141.63946,  -0.00191,  -0.00069,  -0.00071,475834764.35799,   0.00019,274850058.00420,  -0.00022,  -0.00007,  -0.00008,  -0.00000,   2.00000
-527311859.22010,-362928476.23642,-48605692.00189,  -0.00191,  -0.00069,  -0.00071,475838834.21730,   0.00019,274853583.80690,  -0.00022,  -0.00007,  -0.00008,   0.00000,   2.00000
-527291826.55624,-362661865.42856,-48845406.00339,  -0.00192,  -0.00069,  -0.00072,475844442.67582,   0.00020,274857118.09757,  -0.00022,  -0.00007,  -0.00008,   0.00000,   2.00000
-527273015.39409,-362396627.44054,-49079700.52533,  -0.00192,  -0.00069,  -0.00072,475846989.14030,   0.00020,274860649.91195,  -0.00023,  -0.00007,  -0.00008,  -0.00000,   2.00000
-527256515.24136,-362124389.27968,-49311415.14698,  -0.00192,  -0.00069,  -0.00073,475826180.68615,   0.00020,274864095.91748,  -0.00023,  -0.00007,  -0.00009,  -0.00000,   2.00000
-527235189.00769,-361862350.57329,-49546209.67467,  -0.00193,  -0.00069,  -0.00073,475840783.56198,   0.00021,274867582.77493,  -0.00024,  -0.00007,  -0.00009,  -0.00000,   2.00000
-527213392.37991,-361600587.95487,-49780390.77379,  -0.00193,  -0.00069,  -0.00074,475844806.33611,   0.00021,274871072.57503,  -0.00024,  -0.00007,  -0.00009,  -0.00000,   2.00000
-527191321.32218,-361342794.68790,-50010931.66823,  -0.00194,  -0.00069,  -0.00074,475832991.69242,   0.00021,274874508.71519,  -0.00024,  -0.00007,  -0.00009,  -0.00000,   2.00000
-527168799.69091,-361085270.86735,-50240879.22917,  -0.00194,  -0.00069,  -0.00075,475836944.93412,   0.00022,274877947.70115,  -0.00025,  -0.00008,  -0.00009,   0.00000,   2.00000
-527145831.07209,-360828017.90438,-50470234.68780,  -0.00194,  -0.00069,  -0.00075,475840898.85089,   0.00022,274881389.52534,  -0.00025,  -0.00008,  -0.00009,   0.00000,   2.00000
-527122419.03275,-360571037.19494,-50698999.27660,  -0.00195,  -0.00069,  -0.00075,475844853.44395,   0.00022,274884834.18022,  -0.00025,  -0.00008,  -0.00010,   0.00000,   2.00000
-527097003.03585,-360316876.20197,-50928954.78924,  -0.00195,  -0.00069,  -0.00076,475834545.78420,   0.00023,274888230.64359,  -0.00026,  -0.00008,  -0.00010,  -0.00000,   2.00000
-527071151.07695,-360062974.16053,-51158325.32428,  -0.00196,  -0.00069,  -0.00076,475838451.61231,   0.00023,274891629.90927,  -0.00026,  -0.00008,  -0.00010,   0.00000,   2.00000
-527046661.55241,-359810464.73129,-51382344.97173,  -0.00196,  -0.00069,  -0.00077,475840740.29293,   0.00023,274895026.16875,  -0.00026,  -0.00008,  -0.00010,  -0.00000,   2.00000
-527019951.67807,-359557087.20087,-51610561.07886,  -0.00196,  -0.00069,  -0.00077,475846251.94028,   0.00024,274898430.97829,  -0.00027,  -0.00008,  -0.00010,   0.00000,   2.00000
-526993053.54077,-359307621.74944,-51835243.56485,  -0.00197,  -0.00069,  -0.00078,475834265.66206,   0.00024,274901781.64283,  -0.00027,  -0.00008,  -0.00010,   0.00000,   2.00000
-526963240.75965,-359069542.56025,-52058217.57723,  -0.00197,  -0.00069,  -0.00078,475847079.43583,   0.00024,274905167.11514,  -0.00027,  -0.00008,  -0.00010,   0.00000,   2.00000
-526935538.13622,-358820568.46769,-52281778.02923,  -0.00198,  -0.00069,  -0.00079,475841965.53374,   0.00024,274908523.09494,  -0.00028,  -0.00008,  -0.00011,  -0.00000,   2.00000
-526906778.13655,-358584155.75965,-52498866.21075,  -0.00198,  -0.00069,  -0.00079,475853113.74325,   0.00025,274911907.90104,  -0.00028,  -0.00009,  -0.00011,  -0.00000,   2.00000
-526876704.78097,-358338153.29768,-52723162.37691,  -0.00198,  -0.00069,  -0.00079,475835393.86149,   0.00025,274915218.00836,  -0.00028,  -0.00009,  -0.00011,   0.00000,   2.00000
-526847197.91741,-358102263.51468,-52939138.65892,  -0.00199,  -0.00069,  -0.00080,475860726.41334,   0.00025,274918607.96669,  -0.00029,  -0.00009,  -0.00011,   0.00000,   2.00000
-526815742.17236,-357869086.42758,-53156426.59202,  -0.00199,  -0.00069,  -0.00080,475850303.75457,   0.00026,274921949.29097,  -0.00029,  -0.00009,  -0.00011,   0.00000,   2.00000
-526782337.55911,-357638599.32514,-53375037.56779,  -0.00199,  -0.00069,  -0.00081,475839832.41336,   0.00026,274925241.95258,  -0.00029,  -0.00009,  -0.00011,   0.00000,   2.00000
-526752038.69937,-357407073.86692,-53586491.67411,  -0.00200,  -0.00069,  -0.00081,475856143.94907,   0.00026,274928582.19831,  -0.00030,  -0.00009,  -0.00012,   0.00000,   2.00000
-526717925.26470,-357177054.87181,-53804046.92487,  -0.00200,  -0.00069,  -0.00082,475847348.64615,   0.00027,274931879.77256,  -0.00030,  -0.00009,  -0.00012,   0.00000,   2.00000
-526684518.33336,-356957246.41609,-54013257.58330,  -0.00201,  -0.00069,  -0.00082,475872562.11789,   0.00027,274935256.86247,  -0.00031,  -0.00009,  -0.00012,   0.00000,   2.00000
-526651611.59264,-356728861.51621,-54225020.12637,  -0.00201,  -0.00069,  -0.00083,475853183.87970,   0.00027,274938553.11585,  -0.00031,  -0.00009,  -0.00012,   0.00000,   2.00000
-526614358.75202,-356514361.50605,-54436976.75127,  -0.00201,  -0.00069,  -0.00083,475851550.75335,   0.00028,274941832.48786,  -0.00031,  -0.00009,  -0.00012,   0.00000,   2.00000
-526582705.16836,-356287618.74053,-54642960.37151,  -0.00202,  -0.00069,  -0.00083,475858881.74389,   0.00028,274945127.26243,  -0.00032,  -0.00009,  -0.00012,   0.00000,   2.00000
-526544819.94387,-356073578.20828,-54853899.78047,  -0.00202,  -0.00069,  -0.00084,475858945.41463,   0.00028,274948411.24769,  -0.00032,  -0.00010,  -0.00013,   0.00000,   2.00000
-526507775.84174,-355869839.48415,-55056471.09503,  -0.00202,  -0.00069,  -0.00084,475884043.26116,   0.00028,274951774.42415,  -0.00032,  -0.00010,  -0.00013,   0.00000,   2.00000
-526471219.42440,-355657421.34556,-55261668.04775,  -0.00203,  -0.00069,  -0.00085,475864650.72565,   0.00029,274955056.60379,  -0.00033,  -0.00010,  -0.00013,   0.00000,   2.00000
-526434371.22560,-355445227.50577,-55466366.87994,  -0.00203,  -0.00069,  -0.00085,475868324.18536,   0.00029,274958340.99609,  -0.00033,  -0.00010,  -0.00013,   0.00000,   2.00000
-526396813.65069,-355245760.28503,-55664628.52631,  -0.00203,  -0.00069,  -0.00086,475879111.65511,   0.00029,274961653.13849,  -0.00033,  -0.00010,  -0.00013,   0.00000,   2.00000
-526355428.95914,-355047651.06579,-55869085.26146,  -0.00204,  -0.00069,  -0.00086,475870290.79732,   0.00030,274964922.39773,  -0.00034,  -0.00010,  -0.00013,  -0.00000,   2.00000
-526317358.19158,-354848615.73167,-56066365.86823,  -0.00204,  -0.00069,  -0.00086,475886422.25108,   0.00030,274968238.70194,  -0.00034,  -0.00010,  -0.00013,   0.00000,   2.00000
-526279363.65336,-354653350.62463,-56260398.08494,  -0.00205,  -0.00069,  -0.00087,475874074.36237,   0.00030,274971499.36646,  -0.00034,  -0.00010,  -0.00014,   0.00000,   2.00000
-526239160.45525,-354457078.71834,-56458691.42499,  -0.00205,  -0.00069,  -0.00087,475879458.46503,   0.00031,274974768.42490,  -0.00035,  -0.00010,  -0.00014,   0.00000,   2.00000
-526198358.15107,-354273575.08560,-56650559.10113,  -0.00205,  -0.00069,  -0.00088,475890139.70373,   0.00031,274978064.88076,  -0.00035,  -0.00010,  -0.00014,   0.00000,   2.00000
-526155357.48922,-354089046.72584,-56846686.48428,  -0.00206,  -0.00069,  -0.00088,475895556.32532,   0.00031,274981369.69306,  -0.00035,  -0.00010,  -0.00014,   0.00000,   2.00000
-526116100.06076,-353907175.25551,-57032896.77833,  -0.00206,  -0.00069,  -0.00088,475895612.33810,   0.00031,274984663.49590,  -0.00036,  -0.00011,  -0.00014,   0.00000,   2.00000
-526072998.32906,-353726575.01301,-57225370.78011,  -0.00206,  -0.00069,  -0.00089,475886775.60676,   0.00032,274987914.28663,  -0.00036,  -0.00011,  -0.00014,   0.00000,   2.00000
-526031034.44823,-353556478.42913,-57409432.66042,  -0.00207,  -0.00069,  -0.00089,475911612.40241,   0.00032,274991243.53309,  -0.00036,  -0.00011,  -0.00015,   0.00000,   2.00000
-525987515.39897,-353376246.41875,-57601010.05206,  -0.00207,  -0.00069,  -0.00090,475893997.61887,   0.00032,274994497.97953,  -0.00037,  -0.00011,  -0.00015,  -0.00000,   2.00000
-525945525.03558,-353210072.67542,-57781457.86111,  -0.00207,  -0.00069,  -0.00090,475902748.22530,   0.00033,274997772.87990,  -0.00037,  -0.00011,  -0.00015,   0.00000,   2.00000
-525899070.26900,-353054228.64493,-57964942.00991,  -0.00208,  -0.00069,  -0.00090,475916940.07280,   0.00033,275001087.76885,  -0.00037,  -0.00011,  -0.00015,  -0.00000,   2.00000
-525856738.87521,-352888408.33199,-58144523.26661,  -0.00208,  -0.00069,  -0.00091,475909914.99240,   0.00033,275004366.00197,  -0.00038,  -0.00011,  -0.00015,  -0.00000,   2.00000
-525809947.46613,-352732926.01747,-58327133.28615,  -0.00208,  -0.00069,  -0.00091,475924110.13807,   0.00034,275007684.23732,  -0.00038,  -0.00011,  -0.00015,   0.00000,   2.00000
-525767061.38102,-352580123.92341,-58499887.26382,  -0.00209,  -0.00069,  -0.00092,475924032.04040,   0.00034,275010990.81196,  -0.00038,  -0.00011,  -0.00016,   0.00000,   2.00000
-525721991.05585,-352426242.94607,-58676934.91717,  -0.00209,  -0.00069,  -0.00092,475929447.84052,   0.00034,275014305.60425,  -0.00039,  -0.00011,  -0.00016,   0.00000,   2.00000
-525674897.14980,-352287456.28680,-58849636.30999,  -0.00209,  -0.00069,  -0.00092,475925725.17299,   0.00034,275017595.54905,  -0.00039,  -0.00011,  -0.00016,  -0.00000,   2.00000
-525629354.96406,-352146589.49356,-59019875.98076,  -0.00210,  -0.00069,  -0.00093,475943505.61349,   0.00035,275020938.36582,  -0.00039,  -0.00012,  -0.00016,   0.00000,   2.00000
-525582004.92018,-352008113.66193,-59191762.94855,  -0.00210,  -0.00069,  -0.00093,475932860.62346,   0.00035,275024231.23038,  -0.00040,  -0.00012,  -0.00016,  -0.00000,   2.00000
-525536216.47298,-351867570.21747,-59361178.77452,  -0.00211,  -0.00069,  -0.00094,475950639.86826,   0.00035,275027576.96827,  -0.00040,  -0.00012,  -0.00017,   0.00000,   2.00000
-525488464.23654,-351742122.53002,-59526281.67196,  -0.00211,  -0.00069,  -0.00094,475946890.05062,   0.00036,275030897.58569,  -0.00040,  -0.00012,  -0.00017,   0.00000,   2.00000
-525440611.25752,-351616815.84824,-59690991.03049,  -0.00211,  -0.00069,  -0.00094,475950438.97624,   0.00036,275034219.53457,  -0.00041,  -0.00012,  -0.00017,  -0.00000,   2.00000
-525392658.78223,-351491650.55654,-59855307.73603,  -0.00212,  -0.00069,  -0.00095,475953988.33860,   0.00036,275037542.81118,  -0.00041,  -0.00012,  -0.00017,   0.00000,   2.00000
-525346188.93229,-351377166.76217,-60011171.16728,  -0.00212,  -0.00069,  -0.00095,475978635.77105,   0.00037,275040943.60988,  -0.00041,  -0.00012,  -0.00017,   0.00000,   2.00000
-525297939.27472,-351265016.46323,-60168745.82337,  -0.00212,  -0.00070,  -0.00096,475968010.33755,   0.00037,275044294.17857,  -0.00042,  -0.00012,  -0.00017,  -0.00000,   2.00000
-525249613.76206,-351152994.41425,-60325943.47153,  -0.00213,  -0.00070,  -0.00096,475971566.55820,   0.00037,275047645.95038,  -0.00042,  -0.00012,  -0.00018,  -0.00000,   2.00000
-525197312.82389,-351054757.04890,-60483573.32584,  -0.00213,  -0.00070,  -0.00096,475969641.94940,   0.00038,275050979.06936,  -0.00042,  -0.00012,  -0.00018,   0.00000,   2.00000
-525148768.58917,-350955731.18126,-60634034.93238,  -0.00213,  -0.00070,  -0.00097,475985491.85928,   0.00038,275054357.85506,  -0.00043,  -0.00012,  -0.00018,   0.00000,   2.00000
-525100170.30427,-350856819.00769,-60784135.22868,  -0.00214,  -0.00070,  -0.00097,475989055.93522,   0.00038,275057737.72344,  -0.00043,  -0.00012,  -0.00018,   0.00000,   2.00000
-525049343.41680,-350769503.48953,-60932575.75202,  -0.00214,  -0.00070,  -0.00097,476001358.61850,   0.00038,275061150.23880,  -0.00043,  -0.00013,  -0.00018,   0.00000,   2.00000
-525000594.25987,-350683583.07048,-61075972.45583,  -0.00214,  -0.00070,  -0.00098,476003025.53401,   0.00039,275064556.80619,  -0.00044,  -0.00013,  -0.00018,  -0.00000,   2.00000
-524950080.39504,-350599924.20729,-61221146.95075,  -0.00215,  -0.00070,  -0.00098,475992377.44967,   0.00039,275067912.89636,  -0.00044,  -0.00013,  -0.00019,   0.00000,   2.00000
-524899102.18214,-350525685.96118,-61362540.84979,  -0.00215,  -0.00070,  -0.00099,476018853.21649,   0.00039,275071352.95237,  -0.00044,  -0.00013,  -0.00019,  -0.00000,   2.00000
-524850234.19594,-350452833.53759,-61498910.64490,  -0.00215,  -0.00070,  -0.00099,476020516.35549,   0.00040,275074786.89650,  -0.00045,  -0.00013,  -0.00019,   0.00000,   2.00000
-524797472.77099,-350380903.32681,-61641766.85166,  -0.00216,  -0.00070,  -0.00099,476011822.10756,   0.00040,275078177.28411,  -0.00045,  -0.00013,  -0.00019,  -0.00000,   2.00000
-524748562.79221,-350321020.21985,-61771467.98236,  -0.00216,  -0.00070,  -0.00100,476034425.60856,   0.00040,275081637.46264,  -0.00046,  -0.00013,  -0.00019,   0.00000,   2.00000
-524697508.67880,-350259882.55662,-61905530.85071,  -0.00216,  -0.00070,  -0.00100,476039967.17849,   0.00041,275085105.45423,  -0.00046,  -0.00013,  -0.00020,   0.00000,   2.00000
-524644699.20653,-350213771.54009,-62035421.00050,  -0.00217,  -0.00070,  -0.00100,476036134.30163,   0.00041,275088547.25234,  -0.00046,  -0.00013,  -0.00020,  -0.00000,   2.00000
-524595800.55500,-350154042.41873,-62164165.61250,  -0.00217,  -0.00070,  -0.00101,476045196.16221,   0.00041,275092009.65791,  -0.00047,  -0.00013,  -0.00020,   0.00000,   2.00000
-524540859.76160,-350119532.32084,-62292105.84513,  -0.00217,  -0.00070,  -0.00101,476052020.34788,   0.00042,275095484.42493,  -0.00047,  -0.00013,  -0.00020,   0.00000,   2.00000
-524492002.95014,-350072708.95526,-62414227.46390,  -0.00218,  -0.00071,  -0.00101,476059145.01397,   0.00042,275098972.62102,  -0.00047,  -0.00014,  -0.00020,   0.00000,   2.00000
-524437119.83880,-350051085.03054,-62535557.77026,  -0.00218,  -0.00071,  -0.00102,476065980.08755,   0.00042,275102473.07599,  -0.00048,  -0.00014,  -0.00021,  -0.00000,   2.00000
-524386175.93289,-350015802.43041,-62655753.16003,  -0.00218,  -0.00071,  -0.00102,476075080.52147,   0.00043,275105993.98461,  -0.00048,  -0.00014,  -0.00021,   0.00000,   2.00000
-524333125.31460,-349992052.79635,-62774318.54742,  -0.00219,  -0.00071,  -0.00103,476087430.48696,   0.00043,275109547.00161,  -0.00048,  -0.00014,  -0.00021,   0.00000,   2.00000
-524280504.06736,-349971759.20005,-62890099.31659,  -0.00219,  -0.00071,  -0.00103,476074910.77379,   0.00043,275113041.95540,  -0.00049,  -0.00014,  -0.00021,   0.00000,   2.00000
-524229752.88769,-349962181.71377,-62997411.83692,  -0.00219,  -0.00071,  -0.00103,476099442.85428,   0.00044,275116613.15634,  -0.00049,  -0.00014,  -0.00021,  -0.00000,   2.00000
-524176866.35228,-349951236.91955,-63109122.73317,  -0.00220,  -0.00071,  -0.00104,476105089.58879,   0.00044,275120191.96439,  -0.00049,  -0.00014,  -0.00022,   0.00000,   2.00000
-524124418.92961,-349943727.17421,-63218078.16965,  -0.00220,  -0.00071,  -0.00104,476092578.34698,   0.00044,275123712.59076,  -0.00050,  -0.00014,  -0.00022,   0.00000,   2.00000
-524071688.91775,-349945578.03099,-63323229.89354,  -0.00220,  -0.00071,  -0.00104,476119102.39811,   0.00045,275127316.55105,  -0.00050,  -0.00014,  -0.00022,   0.00000,   2.00000
-524019081.98083,-349960236.94381,-63422108.15017,  -0.00221,  -0.00071,  -0.00105,476129513.12479,   0.00045,275130945.14602,  -0.00051,  -0.00014,  -0.00022,   0.00000,   2.00000
-523966464.67304,-349961953.17785,-63526747.53711,  -0.00221,  -0.00072,  -0.00105,476126501.96161,   0.00045,275134549.73858,  -0.00051,  -0.00014,  -0.00022,   0.00000,   2.00000
-523910049.11780,-349990114.38250,-63625960.38395,  -0.00221,  -0.00072,  -0.00105,476131433.51697,   0.00045,275138159.08591,  -0.00051,  -0.00015,  -0.00023,   0.00000,   2.00000
-523859834.90863,-350005883.04693,-63719415.14023,  -0.00222,  -0.00072,  -0.00106,476138588.54730,   0.00046,275141781.24575,  -0.00052,  -0.00015,  -0.00023,  -0.00000,   2.00000
-523807562.97625,-350033086.69420,-63811278.64680,  -0.00222,  -0.00072,  -0.00106,476150999.57085,   0.00046,275145435.16387,  -0.00052,  -0.00015,  -0.00023,   0.00000,   2.00000
-523753238.53910,-350071695.23955,-63901550.35358,  -0.00222,  -0.00072,  -0.00106,476163442.77422,   0.00047,275149120.80133,  -0.00052,  -0.00015,  -0.00023,  -0.00000,   2.00000
-523698987.37764,-350110169.03120,-63991589.96349,  -0.00223,  -0.00072,  -0.00107,476167197.82220,   0.00047,275152806.58472,  -0.00053,  -0.00015,  -0.00023,   0.00000,   2.00000
-523647022.31545,-350149869.45015,-64076742.71789,  -0.00223,  -0.00072,  -0.00107,476168936.27342,   0.00047,275156485.19838,  -0.00053,  -0.00015,  -0.00024,   0.00000,   2.00000
-523594840.70385,-350198824.23693,-64158096.45519,  -0.00224,  -0.00072,  -0.00107,476195581.41978,   0.00048,275160246.80088,  -0.00054,  -0.00015,  -0.00024,  -0.00000,   2.00000
-523543120.24090,-350251105.02976,-64236802.16022,  -0.00224,  -0.00072,  -0.00107,476183202.99590,   0.00048,275163949.79665,  -0.00054,  -0.00015,  -0.00024,  -0.00000,   2.00000
-523487134.12424,-350313357.62837,-64318589.22328,  -0.00224,  -0.00073,  -0.00108,476197714.27134,   0.00048,275167691.72070,  -0.00054,  -0.00015,  -0.00024,  -0.00000,   2.00000
-523435392.17653,-350387530.79781,-64387263.85940,  -0.00225,  -0.00073,  -0.00108,476220371.95606,   0.00049,275171501.84598,  -0.00055,  -0.00015,  -0.00024,  -0.00000,   2.00000
-523381787.16278,-350450742.02825,-64464003.44682,  -0.00225,  -0.00073,  -0.00108,476203357.94664,   0.00049,275175236.37892,  -0.00055,  -0.00015,  -0.00025,   0.00000,   2.00000
-523330213.89479,-350524503.12145,-64532289.77442,  -0.00225,  -0.00073,  -0.00109,476228024.39185,   0.00049,275179046.40291,  -0.00055,  -0.00016,  -0.00025,  -0.00000,   2.00000
-523274740.76384,-350611657.95802,-64601247.77793,  -0.00226,  -0.00073,  -0.00109,476226452.46515,   0.00050,275182836.63677,  -0.00056,  -0.00016,  -0.00025,   0.00000,   2.00000
-523221209.87397,-350696431.59211,-64667788.54332,  -0.00226,  -0.00073,  -0.00109,476244467.71577,   0.00050,275186678.03566,  -0.00056,  -0.00016,  -0.00025,  -0.00000,   2.00000
-523167864.54785,-350793812.83172,-64728121.11079,  -0.00226,  -0.00073,  -0.00110,476255067.33287,   0.00050,275190543.51744,  -0.00057,  -0.00016,  -0.00025,   0.00000,   2.00000
-523112736.03465,-350893039.79615,-64790522.95383,  -0.00227,  -0.00074,  -0.00110,476244821.72668,   0.00051,275194357.57346,  -0.00057,  -0.00016,  -0.00026,   0.00000,   2.00000
-523059661.08188,-351002699.85870,-64844487.63102,  -0.00227,  -0.00074,  -0.00110,476269560.07605,   0.00051,275198246.90402,  -0.00057,  -0.00016,  -0.00026,  -0.00000,   2.00000
-523006667.96899,-351112042.18559,-64898300.98274,  -0.00227,  -0.00074,  -0.00110,476273501.23788,   0.00051,275202135.99249,  -0.00058,  -0.00016,  -0.00026,  -0.00000,   2.00000
-522955635.57902,-351218931.36103,-64949723.26363,  -0.00228,  -0.00074,  -0.00111,476291599.57013,   0.00052,275206076.04388,  -0.00058,  -0.00016,  -0.00026,  -0.00000,   2.00000
-522900660.55681,-351339105.23988,-65001854.03048,  -0.00228,  -0.00074,  -0.00111,476290188.84560,   0.00052,275209996.26937,  -0.00059,  -0.00016,  -0.00027,   0.00000,   2.00000
-522845862.28774,-351471766.97882,-65047801.85042,  -0.00228,  -0.00074,  -0.00111,476300879.42255,   0.00052,275213940.44735,  -0.00059,  -0.00017,  -0.00027,   0.00000,   2.00000
-522793032.28979,-351601895.45767,-65091371.09546,  -0.00229,  -0.00075,  -0.00112,476319032.70521,   0.00053,275217935.46571,  -0.00059,  -0.00017,  -0.00027,   0.00000,   2.00000
-522740630.23754,-351735179.92490,-65132412.68758,  -0.00229,  -0.00075,  -0.00112,476306882.02467,   0.00053,275221871.56612,  -0.00060,  -0.00017,  -0.00027,   0.00000,   2.00000
-522688045.24212,-351877360.56957,-65169693.57103,  -0.00229,  -0.00075,  -0.00112,476333792.34993,   0.00054,275225890.11942,  -0.00060,  -0.00017,  -0.00027,   0.00000,   2.00000
-522633374.18331,-352030549.09759,-65205465.54898,  -0.00230,  -0.00075,  -0.00112,476346644.11386,   0.00054,275229939.95547,  -0.00061,  -0.00017,  -0.00028,   0.00000,   2.00000
-522581020.87095,-352184674.49888,-65236482.63442,  -0.00230,  -0.00075,  -0.00113,476348703.42913,   0.00054,275233981.94070,  -0.00061,  -0.00017,  -0.00028,   0.00000,   2.00000
-522526487.94109,-352336945.77129,-65272043.32948,  -0.00231,  -0.00076,  -0.00113,476354857.96063,   0.00055,275238030.91814,  -0.00061,  -0.00017,  -0.00028,   0.00000,   2.00000
-522474351.33360,-352502965.65007,-65296809.10497,  -0.00231,  -0.00076,  -0.00113,476363650.45960,   0.00055,275242096.31539,  -0.00062,  -0.00017,  -0.00028,   0.00000,   2.00000
-522417850.26095,-352678490.46018,-65324732.16972,  -0.00231,  -0.00076,  -0.00114,476378630.88616,   0.00055,275246200.38902,  -0.00062,  -0.00017,  -0.00029,   0.00000,   2.00000
-522365581.80161,-352852704.51449,-65345668.10905,  -0.00232,  -0.00076,  -0.00114,476394887.39801,   0.00056,275250347.57694,  -0.00063,  -0.00017,  -0.00029,   0.00000,   2.00000
-522313694.24398,-353029969.38565,-65364138.31431,  -0.00232,  -0.00076,  -0.00114,476382911.78288,   0.00056,275254435.77444,  -0.00063,  -0.00018,  -0.00029,  -0.00000,   2.00000
-522259349.05542,-353214488.87670,-65383525.08831,  -0.00232,  -0.00077,  -0.00114,476412068.31590,   0.00057,275258613.65098,  -0.00064,  -0.00018,  -0.00029,   0.00000,   2.00000
-522205112.46172,-353411211.61114,-65396791.84571,  -0.00233,  -0.00077,  -0.00115,476423080.97359,   0.00057,275262815.31392,  -0.00064,  -0.00018,  -0.00030,  -0.00000,   2.00000
-522153169.74477,-353608725.69958,-65405359.62791,  -0.00233,  -0.00077,  -0.00115,476425306.37527,   0.00057,275267008.94983,  -0.00064,  -0.00018,  -0.00030,   0.00000,   2.00000
-522099059.31787,-353816978.33198,-65412474.15259,  -0.00233,  -0.00077,  -0.00115,476438409.26398,   0.00058,275271233.78451,  -0.00065,  -0.00018,  -0.00030,   0.00000,   2.00000
-522044982.31316,-354024574.71566,-65419545.39974,  -0.00234,  -0.00077,  -0.00115,476442723.21693,   0.00058,275275457.99885,  -0.00065,  -0.00018,  -0.00030,   0.00000,   2.00000
-521988721.49355,-354242851.83224,-65425163.05326,  -0.00234,  -0.00078,  -0.00116,476455878.04580,   0.00058,275279713.42801,  -0.00066,  -0.00018,  -0.00031,  -0.00000,   2.00000
-521936692.47558,-354459622.61117,-65423848.30298,  -0.00234,  -0.00078,  -0.00116,476472291.14846,   0.00059,275284011.67355,  -0.00066,  -0.00018,  -0.00031,  -0.00000,   2.00000
-521884686.52718,-354675698.07061,-65422512.87708,  -0.00235,  -0.00078,  -0.00116,476476682.41753,   0.00059,275288309.24031,  -0.00067,  -0.00019,  -0.00031,  -0.00000,   2.00000
-521828518.87665,-354917337.32082,-65415940.12687,  -0.00235,  -0.00078,  -0.00116,476482624.08756,   0.00060,275292611.61329,  -0.00067,  -0.00019,  -0.00031,  -0.00000,   2.00000
-521774314.54477,-355143241.28291,-65413161.21395,  -0.00236,  -0.00079,  -0.00117,476494344.67452,   0.00060,275296939.65142,  -0.00067,  -0.00019,  -0.00032,   0.00000,   2.00000
-521722094.95719,-355391566.78023,-65396003.71178,  -0.00236,  -0.00079,  -0.00117,476526518.59256,   0.00060,275301366.77559,  -0.00068,  -0.00019,  -0.00032,   0.00000,   2.00000
-521665644.48332,-355639898.40397,-65385754.30527,  -0.00236,  -0.00079,  -0.00117,476519017.57303,   0.00061,275305749.76987,  -0.00068,  -0.00019,  -0.00032,  -0.00000,   2.00000
-521611437.89868,-355888819.51894,-65370863.64393,  -0.00237,  -0.00079,  -0.00117,476521468.25427,   0.00061,275310124.61827,  -0.00069,  -0.00019,  -0.00032,   0.00000,   2.00000
-521556933.73930,-356145902.22062,-65352320.13747,  -0.00237,  -0.00080,  -0.00118,476548965.22266,   0.00062,275314581.42595,  -0.00069,  -0.00019,  -0.00033,   0.00000,   2.00000
-521504657.61630,-356403530.82607,-65329158.71943,  -0.00237,  -0.00080,  -0.00118,476551498.16183,   0.00062,275319030.04304,  -0.00070,  -0.00019,  -0.00033,   0.00000,   2.00000
-521450072.88060,-356671519.30269,-65304613.36400,  -0.00238,  -0.00080,  -0.00118,476564990.35751,   0.00063,275323509.86872,  -0.00070,  -0.00019,  -0.00033,   0.00000,   2.00000
-521393163.81078,-356949809.13588,-65278685.30015,  -0.00238,  -0.00080,  -0.00118,476578534.42723,   0.00063,275328020.91534,  -0.00071,  -0.00020,  -0.00033,   0.00000,   2.00000
-521338455.83960,-357228552.69717,-65248156.52867,  -0.00239,  -0.00081,  -0.00118,476581149.46888,   0.00063,275332523.76157,  -0.00071,  -0.00020,  -0.00034,   0.00000,   2.00000
-521285702.96187,-357504025.42572,-65215440.66509,  -0.00239,  -0.00081,  -0.00119,476599898.08586,   0.00064,275337076.40550,  -0.00071,  -0.00020,  -0.00034,   0.00000,   2.00000
-521228581.67600,-357792032.42907,-65183603.95370,  -0.00239,  -0.00081,  -0.00119,476599460.38966,   0.00064,275341609.68813,  -0.00072,  -0.00020,  -0.00034,   0.00000,   2.00000
-521173326.91784,-358089300.52979,-65143520.21655,  -0.00240,  -0.00081,  -0.00119,476625151.33052,   0.00065,275346217.43772,  -0.00072,  -0.00020,  -0.00034,  -0.00000,   2.00000
-521117999.74516,-358385505.16274,-65103517.05786,  -0.00240,  -0.00082,  -0.00119,476629939.30177,   0.00065,275350824.31926,  -0.00073,  -0.00020,  -0.00035,   0.00000,   2.00000
-521062491.51387,-358693218.31476,-65057527.87750,  -0.00240,  -0.00082,  -0.00120,476641649.76406,   0.00065,275355455.11124,  -0.00073,  -0.00020,  -0.00035,   0.00000,   2.00000
-521008915.41900,-358997470.74296,-65009402.79951,  -0.00241,  -0.00082,  -0.00120,476660552.51572,   0.00066,275360135.51099,  -0.00074,  -0.00021,  -0.00035,   0.00000,   2.00000
-520953224.92063,-359302969.60592,-64963614.38130,  -0.00241,  -0.00083,  -0.00120,476651348.49091,   0.00066,275364764.53721,  -0.00074,  -0.00021,  -0.00035,   0.00000,   2.00000
-520894739.10045,-359627209.31327,-64912841.95418,  -0.00242,  -0.00083,  -0.00120,476688238.15761,   0.00067,275369507.52443,  -0.00075,  -0.00021,  -0.00036,   0.00000,   2.00000
-520838370.33866,-359951662.75947,-64857536.45342,  -0.00242,  -0.00083,  -0.00120,476691160.76707,   0.00067,275374242.26858,  -0.00075,  -0.00021,  -0.00036,   0.00000,   2.00000
-520784107.73842,-360276329.79292,-64797711.42679,  -0.00242,  -0.00083,  -0.00121,476694077.90726,   0.00068,275378968.77116,  -0.00076,  -0.00021,  -0.00036,   0.00000,   2.00000
-520725101.40989,-360609423.37583,-64741242.83408,  -0.00243,  -0.00084,  -0.00121,476710089.61256,   0.00068,275383733.92466,  -0.00076,  -0.00021,  -0.00037,   0.00000,   2.00000
-520670236.16434,-360940281.16307,-64678036.26349,  -0.00243,  -0.00084,  -0.00121,476727116.11311,   0.00068,275388541.17849,  -0.00077,  -0.00021,  -0.00037,  -0.00000,   2.00000
-520612983.94822,-361284752.88067,-64611124.75161,  -0.00244,  -0.00084,  -0.00121,476725110.55132,   0.00069,275393322.19997,  -0.00077,  -0.00022,  -0.00037,  -0.00000,   2.00000
-520552991.32264,-361635078.69729,-64545374.69963,  -0.00244,  -0.00085,  -0.00121,476755289.41795,   0.00069,275398192.17327,  -0.00078,  -0.00022,  -0.00037,   0.00000,   2.00000
-520495055.02602,-361985466.90024,-64475133.79805,  -0.00244,  -0.00085,  -0.00121,476758395.46707,   0.00070,275403053.91899,  -0.00078,  -0.00022,  -0.00038,  -0.00000,   2.00000
-520439163.08111,-362335917.17275,-64400415.64297,  -0.00245,  -0.00085,  -0.00122,476761497.09771,   0.00070,275407907.44300,  -0.00079,  -0.00022,  -0.00038,  -0.00000,   2.00000
-520380503.41803,-362692095.93942,-64326895.51337,  -0.00245,  -0.00086,  -0.00122,476791775.98304,   0.00071,275412849.82949,  -0.00079,  -0.00022,  -0.00038,   0.00000,   2.00000
-520319332.26980,-363061710.09247,-64249685.30722,  -0.00246,  -0.00086,  -0.00122,476790026.60223,   0.00071,275417766.27209,  -0.00080,  -0.00022,  -0.00039,   0.00000,   2.00000
-520262242.43319,-363428803.23200,-64165814.68894,  -0.00246,  -0.00086,  -0.00122,476807268.04292,   0.00072,275422724.64624,  -0.00080,  -0.00022,  -0.00039,   0.00000,   2.00000
-520204948.38048,-363794423.45127,-64082158.85663,  -0.00246,  -0.00087,  -0.00122,476812525.39577,   0.00072,275427682.02155,  -0.00081,  -0.00023,  -0.00039,   0.00000,   2.00000
-520142448.94559,-364180393.84054,-63995861.66100,  -0.00247,  -0.00087,  -0.00123,476836039.79459,   0.00073,275432703.41025,  -0.00081,  -0.00023,  -0.00039,  -0.00000,   2.00000
-520084326.48368,-364551381.56556,-63909021.65624,  -0.00247,  -0.00087,  -0.00123,476846287.74011,   0.00073,275437741.29984,  -0.00082,  -0.00023,  -0.00040,   0.00000,   2.00000
-520023562.44767,-364935673.89704,-63818517.49983,  -0.00248,  -0.00088,  -0.00123,476844747.40882,   0.00073,275442753.55389,  -0.00082,  -0.00023,  -0.00040,   0.00000,   2.00000
-519964310.40354,-365328142.23494,-63719982.98425,  -0.00248,  -0.00088,  -0.00123,476871280.84965,   0.00074,275447840.19764,  -0.00083,  -0.00023,  -0.00040,   0.00000,   2.00000
-519902621.28009,-365717545.19407,-63626366.08457,  -0.00248,  -0.00088,  -0.00123,476878721.66025,   0.00074,275452932.96556,  -0.00083,  -0.00023,  -0.00041,   0.00000,   2.00000
-519842415.38045,-366115016.04703,-63524739.01261,  -0.00249,  -0.00089,  -0.00123,476905369.62856,   0.00075,275458100.10412,  -0.00084,  -0.00024,  -0.00041,  -0.00000,   2.00000
-519777259.96293,-366524167.55174,-63424136.54920,  -0.00249,  -0.00089,  -0.00124,476906080.45231,   0.00075,275463248.99498,  -0.00084,  -0.00024,  -0.00041,  -0.00000,   2.00000
-519718694.25187,-366919631.13142,-63318403.58561,  -0.00250,  -0.00089,  -0.00124,476914431.42523,   0.00076,275468406.91615,  -0.00085,  -0.00024,  -0.00041,   0.00000,   2.00000
-519652545.41654,-367337540.99603,-63212277.16086,  -0.00250,  -0.00090,  -0.00124,476924383.96633,   0.00076,275473579.42250,  -0.00085,  -0.00024,  -0.00042,   0.00000,   2.00000
-519588223.36879,-367751045.07851,-63104276.23999,  -0.00250,  -0.00090,  -0.00124,476943975.88984,   0.00077,275478800.68919,  -0.00086,  -0.00024,  -0.00042,   0.00000,   2.00000
-519527892.57483,-368161560.46712,-62989757.34277,  -0.00251,  -0.00091,  -0.00124,476961624.22147,   0.00077,275484063.58425,  -0.00086,  -0.00024,  -0.00042,   0.00000,   2.00000
-519462489.40032,-368583618.39553,-62876293.44513,  -0.00251,  -0.00091,  -0.00124,476962541.39446,   0.00078,275489308.51470,  -0.00087,  -0.00025,  -0.00043,   0.00000,   2.00000
-519398909.66707,-369001182.54728,-62760997.42695,  -0.00252,  -0.00091,  -0.00124,476982210.75360,   0.00078,275494602.07009,  -0.00087,  -0.00025,  -0.00043,  -0.00000,   2.00000
-519334504.47420,-369428996.65941,-62639944.95204,  -0.00252,  -0.00092,  -0.00125,476995232.39587,   0.00079,275499920.40222,  -0.00088,  -0.00025,  -0.00043,   0.00000,   2.00000
-519267091.13071,-369865554.26722,-62517817.82989,  -0.00253,  -0.00092,  -0.00125,477010287.50541,   0.00079,275505270.55921,  -0.00088,  -0.00025,  -0.00043,   0.00000,   2.00000
-519201460.85711,-370301558.27781,-62391377.05414,  -0.00253,  -0.00092,  -0.00125,477014137.18814,   0.00080,275510612.70571,  -0.00089,  -0.00025,  -0.00044,  -0.00000,   2.00000
-519133340.48649,-370734170.89643,-62269968.25778,  -0.00253,  -0.00093,  -0.00125,477021902.70406,   0.00080,275515960.76835,  -0.00089,  -0.00025,  -0.00044,   0.00000,   2.00000
-519068586.67610,-371175560.79305,-62136029.55593,  -0.00254,  -0.00093,  -0.00125,477047113.99360,   0.00081,275521376.34530,  -0.00090,  -0.00026,  -0.00044,   0.00000,   2.00000
-519001329.33904,-371613500.97216,-62007156.70319,  -0.00254,  -0.00094,  -0.00125,477054963.09331,   0.00081,275526797.77572,  -0.00091,  -0.00026,  -0.00045,  -0.00000,   2.00000
-518933092.51640,-372061401.92873,-61872578.52398,  -0.00255,  -0.00094,  -0.00125,477068269.82607,   0.00082,275532244.25328,  -0.00091,  -0.00026,  -0.00045,   0.00000,   2.00000
-518861719.88901,-372517759.08545,-61736984.33057,  -0.00255,  -0.00094,  -0.00126,477083588.14881,   0.00082,275537722.72518,  -0.00092,  -0.00026,  -0.00045,   0.00000,   2.00000
-518796995.89631,-372960113.15390,-61596432.46801,  -0.00256,  -0.00095,  -0.00126,477092236.22267,   0.00083,275543209.54018,  -0.00092,  -0.00026,  -0.00046,   0.00000,   2.00000
-518724231.72988,-373419978.19377,-61458152.82343,  -0.00256,  -0.00095,  -0.00126,477118945.83038,   0.00083,275548768.31114,  -0.00093,  -0.00027,  -0.00046,   0.00000,   2.00000
-518655252.10145,-373880471.86561,-61310946.88859,  -0.00256,  -0.00096,  -0.00126,477121179.94240,   0.00084,275554312.36477,  -0.00093,  -0.00027,  -0.00046,   0.00000,   2.00000
-518583749.70432,-374337351.69839,-61168869.16368,  -0.00257,  -0.00096,  -0.00126,477129190.86428,   0.00084,275559862.16260,  -0.00094,  -0.00027,  -0.00047,  -0.00000,   2.00000
-518511109.39320,-374803893.59936,-61021140.07470,  -0.00257,  -0.00097,  -0.00126,477142790.76450,   0.00085,275565437.30002,  -0.00094,  -0.00027,  -0.00047,   0.00000,   2.00000
-518440241.39765,-375265359.71620,-60871786.50929,  -0.00258,  -0.00097,  -0.00126,477162879.79074,   0.00085,275571060.51824,  -0.00095,  -0.00027,  -0.00047,   0.00000,   2.00000
-518365960.85804,-375739218.36505,-60718890.42189,  -0.00258,  -0.00097,  -0.00126,477162658.00393,   0.00086,275576660.06250,  -0.00096,  -0.00027,  -0.00047,   0.00000,   2.00000
-518293441.59962,-376207913.49720,-60564400.41337,  -0.00259,  -0.00098,  -0.00127,477182789.38384,   0.00086,275582307.63130,  -0.00096,  -0.00028,  -0.00048,   0.00000,   2.00000
-518219827.49761,-376681792.80350,-60406929.67246,  -0.00259,  -0.00098,  -0.00127,477212447.40155,   0.00087,275588036.44599,  -0.00097,  -0.00028,  -0.00048,   0.00000,   2.00000
-518145577.16208,-377157586.12549,-60247342.43704,  -0.00259,  -0.00099,  -0.00127,477202931.59219,   0.00087,275593708.50839,  -0.00097,  -0.00028,  -0.00048,   0.00000,   2.00000
-518070193.68009,-377638432.07167,-60084808.86879,  -0.00260,  -0.00099,  -0.00127,477232659.72669,   0.00088,275599461.81978,  -0.00098,  -0.00028,  -0.00049,  -0.00000,   2.00000
-517992085.75354,-378119757.47995,-59924850.35522,  -0.00260,  -0.00100,  -0.00127,477225095.39486,   0.00088,275605165.16185,  -0.00098,  -0.00029,  -0.00049,   0.00000,   2.00000
-517912826.26569,-378606013.45754,-59761963.80066,  -0.00261,  -0.00100,  -0.00127,477254891.85070,   0.00089,275610949.74536,  -0.00099,  -0.00029,  -0.00049,   0.00000,   2.00000
-517837368.28939,-379088256.67377,-59592885.35525,  -0.00261,  -0.00100,  -0.00127,477273358.90872,   0.00090,275616775.47620,  -0.00100,  -0.00029,  -0.00050,  -0.00000,   2.00000
-517761183.18417,-379572367.00130,-59421708.51288,  -0.00262,  -0.00101,  -0.00127,477264023.80580,   0.00090,275622544.76465,  -0.00100,  -0.00029,  -0.00050,   0.00000,   2.00000
-517681768.05464,-380059847.06317,-59252369.47068,  -0.00262,  -0.00101,  -0.00127,477295804.14306,   0.00091,275628401.79629,  -0.00101,  -0.00029,  -0.00050,  -0.00000,   2.00000
-517600890.37247,-380556367.51733,-59077511.03687,  -0.00263,  -0.00102,  -0.00127,477310053.40273,   0.00091,275634284.76026,  -0.00101,  -0.00030,  -0.00051,   0.00000,   2.00000
-517521495.66541,-381051679.54226,-58898545.88349,  -0.00263,  -0.00102,  -0.00127,477314760.60020,   0.00092,275640160.15974,  -0.00102,  -0.00030,  -0.00051,   0.00000,   2.00000
-517439563.16962,-381543009.54212,-58724880.66400,  -0.00264,  -0.00103,  -0.00128,477323163.08709,   0.00092,275646040.98292,  -0.00102,  -0.00030,  -0.00051,   0.00000,   2.00000
-517356095.75708,-382043258.39061,-58545717.28021,  -0.00264,  -0.00103,  -0.00128,477337515.96891,   0.00093,275651947.92307,  -0.00103,  -0.00030,  -0.00052,   0.00000,   2.00000
-517274386.20815,-382537829.47040,-58365170.54087,  -0.00264,  -0.00104,  -0.00128,477358018.27931,   0.00093,275657902.34057,  -0.00104,  -0.00030,  -0.00052,   0.00000,   2.00000
-517194133.18608,-383031150.38248,-58180545.81018,  -0.00265,  -0.00104,  -0.00128,477362827.75140,   0.00094,275663849.25954,  -0.00104,  -0.00031,  -0.00052,   0.00000,   2.00000
-517107208.43089,-383541913.28824,-57993798.48600,  -0.00265,  -0.00105,  -0.00128,477388845.85495,   0.00094,275669862.56412,  -0.00105,  -0.00031,  -0.00053,   0.00000,   2.00000
-517022802.62274,-384039896.71762,-57809078.83598,  -0.00266,  -0.00105,  -0.00128,477385891.08705,   0.00095,275675841.06244,  -0.00105,  -0.00031,  -0.00053,   0.00000,   2.00000
-516939045.21369,-384543474.73619,-57616955.87128,  -0.00266,  -0.00106,  -0.00128,477414365.69173,   0.00096,275681894.30224,  -0.00106,  -0.00031,  -0.00053,   0.00000,   2.00000
-516852400.56743,-385047407.38494,-57427471.30993,  -0.00267,  -0.00106,  -0.00128,477407269.39515,   0.00096,275687898.15399,  -0.00107,  -0.00032,  -0.00053,   0.00000,   2.00000
-516764406.84947,-385555424.01278,-57235328.16316,  -0.00267,  -0.00107,  -0.00128,477437628.28039,   0.00097,275693983.08622,  -0.00107,  -0.00032,  -0.00054,   0.00000,   2.00000
-516677794.16165,-386062008.73163,-57039159.81161,  -0.00268,  -0.00107,  -0.00128,477442664.67121,   0.00097,275700060.69016,  -0.00108,  -0.00032,  -0.00054,   0.00000,   2.00000
-516590609.81792,-386565796.98770,-56843692.85914,  -0.00268,  -0.00107,  -0.00128,477449491.74705,   0.00098,275706137.23785,  -0.00108,  -0.00032,  -0.00054,   0.00000,   2.00000
-516502043.99502,-387073510.07079,-56645632.09959,  -0.00269,  -0.00108,  -0.00128,477479968.33332,   0.00098,275712294.80596,  -0.00109,  -0.00033,  -0.00055,  -0.00000,   2.00000
-516407372.26589,-387591403.95719,-56448853.96819,  -0.00269,  -0.00108,  -0.00128,477482833.29139,   0.00099,275718437.17125,  -0.00110,  -0.00033,  -0.00055,   0.00000,   2.00000
-516319599.71337,-388094733.87622,-56247513.22631,  -0.00270,  -0.00109,  -0.00129,477492024.29436,   0.00099,275724586.39136,  -0.00110,  -0.00033,  -0.00055,   0.00000,   2.00000
-516228047.10369,-388605036.83962,-56045553.35352,  -0.00270,  -0.00109,  -0.00129,477508767.44497,   0.00100,275730768.56910,  -0.00111,  -0.00033,  -0.00056,   0.00000,   2.00000
-516134592.90413,-389123577.14110,-55838262.56471,  -0.00271,  -0.00110,  -0.00129,477523824.10085,   0.00101,275736977.64733,  -0.00112,  -0.00034,  -0.00056,   0.00000,   2.00000
-516042917.99458,-389635918.42989,-55629843.57034,  -0.00271,  -0.00110,  -0.00129,477544685.28359,   0.00101,275743233.61240,  -0.00112,  -0.00034,  -0.00056,  -0.00000,   2.00000
-515948265.45658,-390148566.26176,-55424091.94956,  -0.00271,  -0.00111,  -0.00129,477537898.93382,   0.00102,275749440.62598,  -0.00113,  -0.00034,  -0.00057,   0.00000,   2.00000
-515852158.51014,-390664717.90316,-55215879.41515,  -0.00272,  -0.00112,  -0.00129,477568633.59195,   0.00102,275755728.59252,  -0.00113,  -0.00034,  -0.00057,   0.00000,   2.00000
-515757337.63305,-391179219.05204,-55003725.60421,  -0.00272,  -0.00112,  -0.00129,477574002.16857,   0.00103,275762009.49201,  -0.00114,  -0.00035,  -0.00057,  -0.00000,   2.00000
-515661922.76852,-391690732.93238,-54792374.03576,  -0.00273,  -0.00113,  -0.00129,477581097.69505,   0.00104,275768289.33981,  -0.00115,  -0.00035,  -0.00058,   0.00000,   2.00000
-515567780.13407,-392200610.11878,-54577093.66720,  -0.00273,  -0.00113,  -0.00129,477586469.15889,   0.00104,275774562.18594,  -0.00115,  -0.00035,  -0.00058,   0.00000,   2.00000
-515466962.34821,-392722068.05475,-54362847.82697,  -0.00274,  -0.00114,  -0.00129,477628995.38529,   0.00105,275780956.12790,  -0.00116,  -0.00035,  -0.00058,   0.00000,   2.00000
-515372574.87257,-393233512.58681,-54141294.03550,  -0.00274,  -0.00114,  -0.00129,477622854.48422,   0.00105,275787302.90290,  -0.00117,  -0.00036,  -0.00059,  -0.00000,   2.00000
-515269954.94238,-393753513.35613,-53925839.24178,  -0.00275,  -0.00115,  -0.00129,477627907.22186,   0.00106,275793641.27213,  -0.00117,  -0.00036,  -0.00059,  -0.00000,   2.00000
-515171012.91725,-394268393.59933,-53704649.95530,  -0.00275,  -0.00115,  -0.00129,477647207.50231,   0.00106,275800020.31339,  -0.00118,  -0.00036,  -0.00059,  -0.00000,   2.00000
-515073921.67151,-394776824.96376,-53482504.78980,  -0.00276,  -0.00116,  -0.00129,477668229.96202,   0.00107,275806445.78568,  -0.00118,  -0.00036,  -0.00060,  -0.00000,   2.00000
-514970386.12602,-395295082.51075,-53261729.47774,  -0.00276,  -0.00116,  -0.00129,477671722.55557,   0.00108,275812857.17240,  -0.00119,  -0.00037,  -0.00060,   0.00000,   2.00000
-514866261.40598,-395810227.81698,-53041819.98102,  -0.00277,  -0.00117,  -0.00129,477678991.37237,   0.00108,275819267.53445,  -0.00120,  -0.00037,  -0.00060,   0.00000,   2.00000
-514765823.68852,-396320162.72676,-52816237.25681,  -0.00277,  -0.00117,  -0.00129,477698376.70409,   0.00109,275825718.47787,  -0.00120,  -0.00037,  -0.00061,  -0.00000,   2.00000
-514663138.45614,-396837717.68559,-52585501.35218,  -0.00278,  -0.00118,  -0.00129,477714099.01552,   0.00109,275832197.18612,  -0.00121,  -0.00038,  -0.00061,   0.00000,   2.00000
-514558064.68772,-397350809.25332,-52360435.96649,  -0.00278,  -0.00118,  -0.00129,477723104.16579,   0.00110,275838680.54389,  -0.00122,  -0.00038,  -0.00061,   0.00000,   2.00000
-514454182.30693,-397862068.60097,-52131524.34580,  -0.00279,  -0.00119,  -0.00129,477728808.35465,   0.00111,275845157.21328,  -0.00122,  -0.00038,  -0.00061,   0.00000,   2.00000
-514346226.87781,-398379529.47968,-51902237.18409,  -0.00279,  -0.00119,  -0.00129,477746271.79722,   0.00111,275851667.46876,  -0.00123,  -0.00038,  -0.00062,   0.00000,   2.00000
-514241942.89699,-398891597.81244,-51667370.40340,  -0.00280,  -0.00120,  -0.00129,477765805.74481,   0.00112,275858218.24225,  -0.00124,  -0.00039,  -0.00062,   0.00000,   2.00000
-514135317.37320,-399399202.44876,-51438218.31859,  -0.00280,  -0.00120,  -0.00129,477774855.64968,   0.00112,275864773.53227,  -0.00124,  -0.00039,  -0.00062,   0.00000,   2.00000
-514027341.43601,-399908468.88491,-51206986.54773,  -0.00281,  -0.00121,  -0.00129,477766908.51734,   0.00113,275871275.20464,  -0.00125,  -0.00039,  -0.00063,   0.00000,   2.00000
-513919508.73598,-400421558.24474,-50968927.93244,  -0.00281,  -0.00122,  -0.00129,477796612.51682,   0.00114,275877852.09010,  -0.00125,  -0.00040,  -0.00063,  -0.00000,   2.00000
-513811900.41970,-400926606.35533,-50734891.03642,  -0.00282,  -0.00122,  -0.00129,477819428.02498,   0.00114,275884480.37490,  -0.00126,  -0.00040,  -0.00063,  -0.00000,   2.00000
-513702896.08800,-401433314.81682,-50498782.75026,  -0.00282,  -0.00123,  -0.00129,477811598.99118,   0.00115,275891055.24708,  -0.00127,  -0.00040,  -0.00064,   0.00000,   2.00000
-513591439.30302,-401947264.44165,-50257621.41066,  -0.00283,  -0.00123,  -0.00129,477827702.89079,   0.00116,275897658.51341,  -0.00127,  -0.00041,  -0.00064,   0.00000,   2.00000
-513480258.75283,-402453105.73712,-50020534.28237,  -0.00283,  -0.00124,  -0.00129,477850525.03878,   0.00116,275904312.99394,  -0.00128,  -0.00041,  -0.00064,   0.00000,   2.00000
-513367636.92635,-402960600.55163,-49781366.68758,  -0.00284,  -0.00124,  -0.00129,477842775.29237,   0.00117,275910914.31959,  -0.00129,  -0.00041,  -0.00065,   0.00000,   2.00000
-513257027.53663,-403461261.96246,-49541521.47519,  -0.00284,  -0.00125,  -0.00129,477863996.91751,   0.00117,275917561.37936,  -0.00129,  -0.00041,  -0.00065,  -0.00000,   2.00000
-513143894.31174,-403969038.03738,-49296669.28334,  -0.00285,  -0.00125,  -0.00129,477880262.19800,   0.00118,275924237.04797,  -0.00130,  -0.00042,  -0.00065,  -0.00000,   2.00000
-513032179.58248,-404463279.24537,-49058878.38202,  -0.00285,  -0.00126,  -0.00129,477879096.48948,   0.00119,275930882.03755,  -0.00131,  -0.00042,  -0.00066,   0.00000,   2.00000
-512920526.49217,-404960957.34206,-48814428.47958,  -0.00286,  -0.00127,  -0.00129,477909093.78424,   0.00119,275937602.32104,  -0.00131,  -0.00042,  -0.00066,   0.00000,   2.00000
-512803678.00279,-405469308.05355,-48566661.58491,  -0.00286,  -0.00127,  -0.00129,477911805.05537,   0.00120,275944304.84251,  -0.00132,  -0.00043,  -0.00066,   0.00000,   2.00000
-512690937.34694,-405960488.92153,-48324335.20200,  -0.00287,  -0.00128,  -0.00129,477924312.78405,   0.00120,275951023.03728,  -0.00133,  -0.00043,  -0.00066,   0.00000,   2.00000
-512572969.19531,-406462352.32019,-48078674.79972,  -0.00287,  -0.00128,  -0.00129,477927058.69482,   0.00121,275957723.66880,  -0.00133,  -0.00043,  -0.00067,   0.00000,   2.00000
-512457093.73595,-406957244.90426,-47832455.36514,  -0.00288,  -0.00129,  -0.00129,477948361.73413,   0.00122,275964469.74613,  -0.00134,  -0.00044,  -0.00067,   0.00000,   2.00000
-512342296.94402,-407450129.00295,-47582526.94425,  -0.00288,  -0.00129,  -0.00129,477954510.36989,   0.00122,275971209.72816,  -0.00135,  -0.00044,  -0.00067,   0.00000,   2.00000
-512225363.72067,-407938574.63623,-47338473.95590,  -0.00289,  -0.00130,  -0.00129,477963641.59763,   0.00123,275977953.79166,  -0.00135,  -0.00044,  -0.00068,   0.00000,   2.00000
-512111108.82778,-408426254.88919,-47085917.38756,  -0.00289,  -0.00131,  -0.00129,477968306.63458,   0.00124,275984686.78166,  -0.00136,  -0.00045,  -0.00068,   0.00000,   2.00000
-511990967.15089,-408918334.02792,-46838047.36690,  -0.00290,  -0.00131,  -0.00129,477987841.18209,   0.00124,275991459.02739,  -0.00137,  -0.00045,  -0.00068,  -0.00000,   2.00000
-511872994.02775,-409403394.02955,-46589695.66072,  -0.00290,  -0.00132,  -0.00129,478009181.39238,   0.00125,275998276.48437,  -0.00137,  -0.00045,  -0.00069,   0.00000,   2.00000
-511753406.51302,-409890231.53532,-46339224.42870,  -0.00291,  -0.00132,  -0.00129,478001771.82097,   0.00125,276005041.84631,  -0.00138,  -0.00046,  -0.00069,   0.00000,   2.00000
-511636007.44877,-410370049.96779,-46088304.71553,  -0.00291,  -0.00133,  -0.00129,478023092.31546,   0.00126,276011852.35377,  -0.00139,  -0.00046,  -0.00069,   0.00000,   2.00000
-511516962.60968,-410851687.45992,-45835259.65525,  -0.00292,  -0.00133,  -0.00129,478015698.36962,   0.00127,276018610.93504,  -0.00139,  -0.00046,  -0.00070,  -0.00000,   2.00000
-511396291.75350,-411334986.52927,-45580615.07349,  -0.00292,  -0.00134,  -0.00129,478047498.80617,   0.00127,276025449.94376,  -0.00140,  -0.00047,  -0.00070,   0.00000,   2.00000
-511275124.62040,-411815047.61522,-45327116.64955,  -0.00293,  -0.00135,  -0.00129,478055246.12432,   0.00128,276032288.00071,  -0.00141,  -0.00047,  -0.00070,  -0.00000,   2.00000
-511157334.39149,-412283260.49633,-45075935.88994,  -0.00293,  -0.00135,  -0.00129,478052456.42598,   0.00129,276039089.70506,  -0.00141,  -0.00047,  -0.00070,   0.00000,   2.00000
-511035213.27378,-412756965.42870,-44824716.65678,  -0.00294,  -0.00136,  -0.00129,478070663.32551,   0.00129,276045925.85976,  -0.00142,  -0.00048,  -0.00071,   0.00000,   2.00000
-510914138.33632,-413228659.15699,-44569831.46320,  -0.00294,  -0.00136,  -0.00129,478076980.88092,   0.00130,276052756.32175,  -0.00143,  -0.00048,  -0.00071,   0.00000,   2.00000
-510788702.56640,-413705743.11167,-44314942.08367,  -0.00295,  -0.00137,  -0.00129,478095267.64718,   0.00131,276059621.32952,  -0.00143,  -0.00048,  -0.00071,   0.00000,   2.00000
-510670957.45513,-414168314.88043,-44056077.56826,  -0.00296,  -0.00138,  -0.00129,478104685.61110,   0.00131,276066490.99004,  -0.00144,  -0.00049,  -0.00072,  -0.00000,   2.00000
-510548506.86379,-414630521.47358,-43804684.53776,  -0.00296,  -0.00138,  -0.00129,478100199.15074,   0.00132,276073318.64133,  -0.00145,  -0.00049,  -0.00072,   0.00000,   2.00000
-510425942.65078,-415095326.98750,-43547016.29908,  -0.00297,  -0.00139,  -0.00129,478130733.62600,   0.00132,276080221.95416,  -0.00145,  -0.00049,  -0.00072,   0.00000,   2.00000
-510300149.50646,-415560902.92195,-43291996.11898,  -0.00297,  -0.00139,  -0.00129,478124922.74708,   0.00133,276087078.71292,  -0.00146,  -0.00050,  -0.00072,   0.00000,   2.00000
-510182123.39286,-416012062.55897,-43033017.97945,  -0.00298,  -0.00140,  -0.00129,478134270.82613,   0.00134,276093939.99514,  -0.00147,  -0.00050,  -0.00073,   0.00000,   2.00000
-510059696.70979,-416468575.47619,-42774107.22834,  -0.00298,  -0.00140,  -0.00129,478152638.50928,   0.00134,276100835.97685,  -0.00147,  -0.00050,  -0.00073,  -0.00000,   2.00000
-509936842.99351,-416921968.20732,-42516398.36270,  -0.00299,  -0.00141,  -0.00129,478160408.46884,   0.00135,276107731.04727,  -0.00148,  -0.00051,  -0.00073,   0.00000,   2.00000
-509813575.85694,-417372262.33252,-42259887.85817,  -0.00299,  -0.00142,  -0.00129,478168168.82625,   0.00136,276114625.20565,  -0.00149,  -0.00051,  -0.00074,   0.00000,   2.00000
-509689908.74047,-417819479.31151,-42004572.16664,  -0.00300,  -0.00142,  -0.00128,478175919.66216,   0.00136,276121518.45137,  -0.00149,  -0.00052,  -0.00074,   0.00000,   2.00000
-509563244.97822,-418273069.71611,-41744518.94678,  -0.00300,  -0.00143,  -0.00128,478193051.01528,   0.00137,276128442.10069,  -0.00150,  -0.00052,  -0.00074,   0.00000,   2.00000
-509440200.50185,-418715230.57437,-41486786.90238,  -0.00301,  -0.00143,  -0.00128,478190139.41675,   0.00138,276135329.13215,  -0.00151,  -0.00052,  -0.00074,   0.00000,   2.00000
-509318154.46985,-419155455.32349,-41225436.19651,  -0.00301,  -0.00144,  -0.00128,478196577.16892,   0.00138,276142210.92806,  -0.00151,  -0.00053,  -0.00075,   0.00000,   2.00000
-509194337.58531,-419591564.18493,-40970136.34276,  -0.00302,  -0.00145,  -0.00128,478205598.67153,   0.00139,276149096.18564,  -0.00152,  -0.00053,  -0.00075,   0.00000,   2.00000
-509067471.87745,-420034000.78894,-40710121.54412,  -0.00302,  -0.00145,  -0.00128,478222787.00054,   0.00140,276156012.08708,  -0.00153,  -0.00053,  -0.00075,   0.00000,   2.00000
-508944297.74624,-420465167.20699,-40452413.44978,  -0.00303,  -0.00146,  -0.00128,478219797.17365,   0.00140,276162891.30259,  -0.00153,  -0.00054,  -0.00076,   0.00000,   2.00000
-508819578.77588,-420897485.06403,-40193494.69790,  -0.00303,  -0.00146,  -0.00128,478251822.50276,   0.00141,276169850.65087,  -0.00154,  -0.00054,  -0.00076,   0.00000,   2.00000
-508697037.26865,-421323783.84892,-39933388.00048,  -0.00304,  -0.00147,  -0.00128,478234035.43745,   0.00141,276176723.93713,  -0.00155,  -0.00054,  -0.00076,   0.00000,   2.00000
-508572948.07113,-421751192.37798,-39672114.69665,  -0.00304,  -0.00148,  -0.00128,478266068.56448,   0.00142,276183677.35081,  -0.00155,  -0.00055,  -0.00076,  -0.00000,   2.00000
-508449702.85329,-422171605.08334,-39414471.17168,  -0.00305,  -0.00148,  -0.00128,478249513.39903,   0.00143,276190548.96727,  -0.00156,  -0.00055,  -0.00077,   0.00000,   2.00000
-508324931.94516,-422593104.28720,-39155682.43371,  -0.00306,  -0.00149,  -0.00128,478281543.24842,   0.00143,276197500.67740,  -0.00157,  -0.00056,  -0.00077,   0.00000,   2.00000
-508202335.52707,-423008758.56464,-38895647.16598,  -0.00306,  -0.00149,  -0.00128,478263733.13196,   0.00144,276204366.54024,  -0.00157,  -0.00056,  -0.00077,  -0.00000,   2.00000
-508078210.79485,-423425458.63230,-38634510.78209,  -0.00307,  -0.00150,  -0.00128,478295770.75795,   0.00145,276211312.49236,  -0.00158,  -0.00056,  -0.00077,   0.00000,   2.00000
-507954961.89512,-423835357.23023,-38376951.59660,  -0.00307,  -0.00151,  -0.00128,478279160.97797,   0.00145,276218176.74487,  -0.00159,  -0.00057,  -0.00078,   0.00000,   2.00000
-507834365.10262,-424238268.07135,-38119341.69258,  -0.00308,  -0.00151,  -0.00127,478300319.19565,   0.00146,276225085.00743,  -0.00159,  -0.00057,  -0.00078,   0.00000,   2.00000
-507707602.20866,-424651555.92765,-37858369.77324,  -0.00308,  -0.00152,  -0.00127,478304205.02871,   0.00147,276231979.75745,  -0.00160,  -0.00058,  -0.00078,  -0.00000,   2.00000
-507587685.14933,-425049817.41557,-37598406.88916,  -0.00309,  -0.00152,  -0.00127,478314506.38296,   0.00147,276238882.39723,  -0.00161,  -0.00058,  -0.00078,  -0.00000,   2.00000
-507463283.56009,-425453251.04939,-37338684.93142,  -0.00309,  -0.00153,  -0.00127,478333095.63676,   0.00148,276245820.33701,  -0.00161,  -0.00058,  -0.00079,   0.00000,   2.00000
-507339799.91016,-425850123.44689,-37082467.84968,  -0.00310,  -0.00153,  -0.00127,478316417.75732,   0.00149,276252676.69255,  -0.00162,  -0.00059,  -0.00079,   0.00000,   2.00000
-507220276.84180,-426241040.69975,-36821395.81734,  -0.00310,  -0.00154,  -0.00127,478336363.26110,   0.00149,276259573.04922,  -0.00163,  -0.00059,  -0.00079,   0.00000,   2.00000
-507096252.01269,-426637109.63655,-36560592.33941,  -0.00311,  -0.00155,  -0.00127,478354972.65072,   0.00150,276266504.80036,  -0.00163,  -0.00059,  -0.00079,  -0.00000,   2.00000
-506973158.89769,-427026750.69293,-36303258.86161,  -0.00311,  -0.00155,  -0.00127,478338259.95090,   0.00150,276273355.04873,  -0.00164,  -0.00060,  -0.00080,   0.00000,   2.00000
-506852832.68282,-427409452.34432,-36045958.34115,  -0.00312,  -0.00156,  -0.00127,478359333.76588,   0.00151,276280249.06974,  -0.00165,  -0.00060,  -0.00080,  -0.00000,   2.00000
-506730413.20029,-427794693.65428,-35786246.48110,  -0.00312,  -0.00156,  -0.00127,478352388.90094,   0.00152,276287094.10627,  -0.00165,  -0.00061,  -0.00080,   0.00000,   2.00000
-506610776.41431,-428172998.61982,-35526599.73549,  -0.00313,  -0.00157,  -0.00127,478373448.16794,   0.00152,276293982.87409,  -0.00166,  -0.00061,  -0.00080,   0.00000,   2.00000
-506490886.53957,-428548651.31163,-35268216.37151,  -0.00313,  -0.00158,  -0.00126,478381081.17304,   0.00153,276300870.89840,  -0.00167,  -0.00061,  -0.00081,   0.00000,   2.00000
-506371963.23777,-428918173.33368,-35013219.39154,  -0.00314,  -0.00158,  -0.00126,478364248.20895,   0.00154,276307677.52192,  -0.00167,  -0.00062,  -0.00081,   0.00000,   2.00000
-506252760.12036,-429289553.78687,-34752476.51530,  -0.00314,  -0.00159,  -0.00126,478395143.89408,   0.00154,276314560.44972,  -0.00168,  -0.00062,  -0.00081,   0.00000,   2.00000
-506130235.48063,-429662604.37353,-34494158.01660,  -0.00315,  -0.00159,  -0.00126,478389328.13498,   0.00155,276321398.37273,  -0.00169,  -0.00063,  -0.00081,   0.00000,   2.00000
-506014862.41239,-430021049.20783,-34236889.91482,  -0.00316,  -0.00160,  -0.00126,478399290.24512,   0.00156,276328243.53362,  -0.00169,  -0.00063,  -0.00082,  -0.00000,   2.00000
-505896170.73200,-430381287.81992,-33982009.45222,  -0.00316,  -0.00161,  -0.00126,478393410.84870,   0.00156,276335043.74890,  -0.00170,  -0.00063,  -0.00082,  -0.00000,   2.00000
-505776059.22293,-430742379.62156,-33726310.43358,  -0.00317,  -0.00161,  -0.00126,478425402.25426,   0.00157,276341923.85954,  -0.00170,  -0.00064,  -0.00082,  -0.00000,   2.00000
-505658069.93696,-431098524.02260,-33469034.48814,  -0.00317,  -0.00162,  -0.00126,478407445.33591,   0.00157,276348719.22322,  -0.00171,  -0.00064,  -0.00082,   0.00000,   2.00000
-505542986.48898,-431447858.49483,-33211899.49283,  -0.00318,  -0.00162,  -0.00126,478428358.08655,   0.00158,276355558.05930,  -0.00172,  -0.00065,  -0.00082,  -0.00000,   2.00000
-505428905.31320,-431791465.85124,-32958030.89308,  -0.00318,  -0.00163,  -0.00126,478411380.79770,   0.00159,276362315.68034,  -0.00172,  -0.00065,  -0.00083,  -0.00000,   2.00000
-505311372.06861,-432141182.30989,-32699614.89027,  -0.00319,  -0.00163,  -0.00125,478428888.99368,   0.00159,276369105.70649,  -0.00173,  -0.00065,  -0.00083,  -0.00000,   2.00000
-505195697.16122,-432483206.03477,-32446250.16463,  -0.00319,  -0.00164,  -0.00125,478450796.37876,   0.00160,276375942.50582,  -0.00174,  -0.00066,  -0.00083,   0.00000,   2.00000
-505082123.86864,-432820524.60185,-32191217.01226,  -0.00320,  -0.00165,  -0.00125,478432768.75954,   0.00161,276382694.80180,  -0.00174,  -0.00066,  -0.00083,   0.00000,   2.00000
-504969422.39464,-433156377.76764,-31932544.99600,  -0.00320,  -0.00165,  -0.00125,478439184.10796,   0.00161,276389443.16204,  -0.00175,  -0.00067,  -0.00084,   0.00000,   2.00000
-504855465.07558,-433489005.58351,-31680008.42364,  -0.00321,  -0.00166,  -0.00125,478447601.56905,   0.00162,276396194.21298,  -0.00176,  -0.00067,  -0.00084,  -0.00000,   2.00000
-504741336.99883,-433819319.56537,-31428700.96454,  -0.00321,  -0.00166,  -0.00125,478455005.27193,   0.00163,276402944.64154,  -0.00176,  -0.00067,  -0.00084,   0.00000,   2.00000
-504628083.11200,-434148201.06288,-31173736.95162,  -0.00322,  -0.00167,  -0.00125,478461422.94093,   0.00163,276409691.22083,  -0.00177,  -0.00068,  -0.00084,   0.00000,   2.00000
-504519051.05977,-434467320.34374,-30920875.57683,  -0.00322,  -0.00168,  -0.00125,478457649.43931,   0.00164,276416400.63282,  -0.00178,  -0.00068,  -0.00084,   0.00000,   2.00000
-504410866.91518,-434785074.84784,-30664359.03842,  -0.00323,  -0.00168,  -0.00124,478464026.26211,   0.00164,276423106.27476,  -0.00178,  -0.00069,  -0.00085,   0.00000,   2.00000
-504301489.52563,-435099766.15608,-30413974.09172,  -0.00323,  -0.00169,  -0.00124,478472325.92904,   0.00165,276429814.49762,  -0.00179,  -0.00069,  -0.00085,  -0.00000,   2.00000
-504189746.82336,-435417526.75044,-30160924.72533,  -0.00324,  -0.00169,  -0.00124,478465343.19214,   0.00166,276436475.27176,  -0.00179,  -0.00069,  -0.00085,  -0.00000,   2.00000
-504081064.48786,-435728662.39582,-29908104.73347,  -0.00324,  -0.00170,  -0.00124,478485995.45742,   0.00166,276443179.22114,  -0.00180,  -0.00070,  -0.00085,   0.00000,   2.00000
-503976656.35044,-436030249.08868,-29657345.60626,  -0.00325,  -0.00170,  -0.00124,478482099.46683,   0.00167,276449845.95272,  -0.00181,  -0.00070,  -0.00085,  -0.00000,   2.00000
-503868857.30428,-436334179.28602,-29408781.52984,  -0.00326,  -0.00171,  -0.00124,478476014.06274,   0.00168,276456468.47103,  -0.00181,  -0.00071,  -0.00086,   0.00000,   2.00000
-503761883.91947,-436636829.15046,-29156526.29958,  -0.00326,  -0.00171,  -0.00124,478482319.68277,   0.00168,276463087.44412,  -0.00182,  -0.00071,  -0.00086,   0.00000,   2.00000
-503658007.38300,-436932935.11741,-28904529.39892,  -0.00327,  -0.00172,  -0.00124,478502887.71243,   0.00169,276469749.50085,  -0.00183,  -0.00071,  -0.00086,   0.00000,   2.00000
-503550720.93091,-437231433.44667,-28654710.71310,  -0.00327,  -0.00173,  -0.00123,478496806.92885,   0.00169,276476367.46883,  -0.00183,  -0.00072,  -0.00086,  -0.00000,   2.00000
-503447760.62895,-437520566.83813,-28406897.31148,  -0.00328,  -0.00173,  -0.00123,478492756.80021,   0.00170,276482948.20433,  -0.00184,  -0.00072,  -0.00086,   0.00000,   2.00000
-503345596.54848,-437808498.82810,-28155382.82760,  -0.00328,  -0.00174,  -0.00123,478499027.34500,   0.00171,276489525.53098,  -0.00184,  -0.00073,  -0.00086,   0.00000,   2.00000
-503247758.83291,-438087169.65304,-27905864.80438,  -0.00329,  -0.00174,  -0.00123,478494907.27892,   0.00171,276496065.62390,  -0.00185,  -0.00073,  -0.00087,  -0.00000,   2.00000
-503141085.76657,-438374877.90920,-27662582.61953,  -0.00329,  -0.00175,  -0.00123,478500843.98078,   0.00172,276502601.41556,  -0.00186,  -0.00073,  -0.00087,  -0.00000,   2.00000
-503043903.45133,-438650436.73027,-27410532.20448,  -0.00330,  -0.00175,  -0.00123,478508243.75225,   0.00172,276509137.71614,  -0.00186,  -0.00074,  -0.00087,  -0.00000,   2.00000
-502945666.60207,-438923324.71157,-27164593.55302,  -0.00330,  -0.00176,  -0.00123,478516198.59793,   0.00173,276515676.36764,  -0.00187,  -0.00074,  -0.00087,  -0.00000,   2.00000
-502844885.30301,-439199590.37733,-26915830.37743,  -0.00331,  -0.00176,  -0.00122,478509127.05844,   0.00174,276522168.41330,  -0.00188,  -0.00075,  -0.00087,   0.00000,   2.00000
-502747593.38490,-439466012.94418,-26673910.80500,  -0.00331,  -0.00177,  -0.00122,478505697.24534,   0.00174,276528625.95873,  -0.00188,  -0.00075,  -0.00088,   0.00000,   2.00000
-502651061.41031,-439731369.04713,-26428240.67854,  -0.00332,  -0.00178,  -0.00122,478511851.78511,   0.00175,276535080.33524,  -0.00189,  -0.00076,  -0.00088,   0.00000,   2.00000
-502555267.40675,-439995648.74133,-26178837.15114,  -0.00332,  -0.00178,  -0.00122,478518020.46459,   0.00175,276541531.60278,  -0.00189,  -0.00076,  -0.00088,   0.00000,   2.00000
-502462997.59212,-440250228.54741,-25936260.67955,  -0.00333,  -0.00179,  -0.00122,478514488.02944,   0.00176,276547948.28314,  -0.00190,  -0.00076,  -0.00088,   0.00000,   2.00000
-502371454.84327,-440503801.95551,-25689930.08331,  -0.00333,  -0.00179,  -0.00122,478520609.92997,   0.00177,276554361.90353,  -0.00191,  -0.00077,  -0.00088,   0.00000,   2.00000
-502279776.23415,-440755639.73805,-25444769.76329,  -0.00334,  -0.00180,  -0.00121,478527544.95354,   0.00177,276560775.13585,  -0.00191,  -0.00077,  -0.00088,   0.00000,   2.00000
-502189152.81722,-441003181.26143,-25202322.83498,  -0.00334,  -0.00180,  -0.00121,478509823.36798,   0.00178,276567107.89923,  -0.00192,  -0.00078,  -0.00089,   0.00000,   2.00000
-502093860.29855,-441256143.56244,-24960307.83193,  -0.00335,  -0.00181,  -0.00121,478528032.61105,   0.00178,276573477.21057,  -0.00192,  -0.00078,  -0.00089,   0.00000,   2.00000
-502011742.33998,-441489376.73068,-24715110.71604,  -0.00335,  -0.00181,  -0.00121,478524658.38039,   0.00179,276579812.90569,  -0.00193,  -0.00078,  -0.00089,   0.00000,   2.00000
-501920739.70787,-441731944.50722,-24476095.81860,  -0.00336,  -0.00182,  -0.00121,478530362.91342,   0.00180,276586144.58136,  -0.00194,  -0.00079,  -0.00089,   0.00000,   2.00000
-501831611.55193,-441971060.59881,-24234784.00894,  -0.00336,  -0.00182,  -0.00121,478511757.75234,   0.00180,276592393.38024,  -0.00194,  -0.00079,  -0.00089,   0.00000,   2.00000
-501745748.57398,-442204005.59770,-23993801.32779,  -0.00337,  -0.00183,  -0.00121,478531767.85983,   0.00181,276598684.92701,  -0.00195,  -0.00080,  -0.00089,   0.00000,   2.00000
-501665117.00659,-442429015.55106,-23749709.85965,  -0.00337,  -0.00183,  -0.00120,478526388.93465,   0.00181,276604936.73947,  -0.00195,  -0.00080,  -0.00089,   0.00000,   2.00000
-501580165.86936,-442656398.68085,-23512449.51818,  -0.00338,  -0.00184,  -0.00120,478520595.17838,   0.00182,276611147.64574,  -0.00196,  -0.00080,  -0.00090,   0.00000,   2.00000
-501495870.22008,-442882920.46226,-23271373.14178,  -0.00338,  -0.00184,  -0.00120,478526541.70978,   0.00183,276617355.85882,  -0.00196,  -0.00081,  -0.00090,   0.00000,   2.00000
-501416032.19480,-443100919.87049,-23032070.85918,  -0.00339,  -0.00185,  -0.00120,478521799.50052,   0.00183,276623526.79333,  -0.00197,  -0.00081,  -0.00090,  -0.00000,   2.00000
-501336063.97702,-443317453.84938,-22793873.17978,  -0.00339,  -0.00185,  -0.00120,478528430.02727,   0.00184,276629697.44857,  -0.00198,  -0.00082,  -0.00090,   0.00000,   2.00000
-501256715.23632,-443533175.15285,-22551856.86523,  -0.00340,  -0.00186,  -0.00120,478534348.24794,   0.00184,276635865.51940,  -0.00198,  -0.00082,  -0.00090,  -0.00000,   2.00000
-501181089.90073,-443739841.15234,-22316515.16529,  -0.00340,  -0.00186,  -0.00119,478530237.13875,   0.00185,276641998.59670,  -0.00199,  -0.00082,  -0.00090,   0.00000,   2.00000
-501102636.66743,-443950351.44958,-22078064.29320,  -0.00341,  -0.00187,  -0.00119,478522868.13876,   0.00185,276648086.25992,  -0.00199,  -0.00083,  -0.00090,  -0.00000,   2.00000
-501028659.82906,-444152515.50997,-21841326.17183,  -0.00341,  -0.00187,  -0.00119,478517949.59960,   0.00186,276654136.64953,  -0.00200,  -0.00083,  -0.00091,   0.00000,   2.00000
-500954548.43548,-444353329.67725,-21605663.71970,  -0.00342,  -0.00188,  -0.00119,478524435.56851,   0.00187,276660186.81393,  -0.00200,  -0.00084,  -0.00091,  -0.00000,   2.00000
-500881012.09468,-444553413.80492,-21366149.36119,  -0.00342,  -0.00188,  -0.00119,478530246.84560,   0.00187,276666234.57239,  -0.00201,  -0.00084,  -0.00091,   0.00000,   2.00000
-500807801.62307,-444749259.08790,-21133950.27891,  -0.00343,  -0.00189,  -0.00118,478512692.03737,   0.00188,276672204.42527,  -0.00202,  -0.00084,  -0.00091,   0.00000,   2.00000
-500738616.77275,-444939789.89220,-20897179.76577,  -0.00343,  -0.00189,  -0.00118,478531654.77179,   0.00188,276678214.71671,  -0.00202,  -0.00085,  -0.00091,  -0.00000,   2.00000
-500670451.36246,-445126781.30906,-20662754.50236,  -0.00344,  -0.00190,  -0.00118,478513375.41427,   0.00189,276684144.96960,  -0.00203,  -0.00085,  -0.00091,  -0.00000,   2.00000
-500602817.60201,-445313114.68237,-20424450.15914,  -0.00344,  -0.00190,  -0.00118,478519078.94745,   0.00189,276690072.96877,  -0.00203,  -0.00085,  -0.00091,   0.00000,   2.00000
-500538998.34274,-445490757.24427,-20192717.68693,  -0.00345,  -0.00191,  -0.00118,478514569.46747,   0.00190,276695965.78194,  -0.00204,  -0.00086,  -0.00091,  -0.00000,   2.00000
-500472215.92886,-445672427.89118,-19957745.71954,  -0.00345,  -0.00191,  -0.00118,478507012.53820,   0.00191,276701813.69142,  -0.00204,  -0.00086,  -0.00092,  -0.00000,   2.00000
-500408119.42644,-445847689.79422,-19728090.32326,  -0.00346,  -0.00192,  -0.00117,478527109.46396,   0.00191,276707706.17393,  -0.00205,  -0.00087,  -0.00092,   0.00000,   2.00000
-500346331.29565,-446020715.59206,-19490800.13057,  -0.00346,  -0.00192,  -0.00117,478507441.96565,   0.00192,276713514.72253,  -0.00205,  -0.00087,  -0.00092,  -0.00000,   2.00000
-500283741.85353,-446192030.67624,-19259483.04966,  -0.00347,  -0.00193,  -0.00117,478514264.40885,   0.00192,276719325.15060,  -0.00206,  -0.00087,  -0.00092,   0.00000,   2.00000
-500225659.97752,-446355394.98261,-19029730.03160,  -0.00347,  -0.00193,  -0.00117,478508945.99633,   0.00193,276725098.31720,  -0.00207,  -0.00088,  -0.00092,   0.00000,   2.00000
-500164544.66086,-446522869.49577,-18796668.57512,  -0.00348,  -0.00194,  -0.00117,478501300.28505,   0.00193,276730826.84582,  -0.00207,  -0.00088,  -0.00092,   0.00000,   2.00000
-500107931.97909,-446682436.34920,-18565152.49881,  -0.00348,  -0.00194,  -0.00116,478495892.78373,   0.00194,276736518.15148,  -0.00208,  -0.00089,  -0.00092,   0.00000,   2.00000
-500054664.13829,-446836285.95231,-18334031.57680,  -0.00349,  -0.00195,  -0.00116,478515170.57174,   0.00194,276742251.97166,  -0.00208,  -0.00089,  -0.00092,   0.00000,   2.00000
-499994203.16729,-446998430.05289,-18105108.88294,  -0.00349,  -0.00195,  -0.00116,478494875.43885,   0.00195,276747900.59559,  -0.00209,  -0.00089,  -0.00092,   0.00000,   2.00000
-499941782.18647,-447148073.20502,-17877093.69036,  -0.00349,  -0.00196,  -0.00116,478502559.72244,   0.00195,276753554.53717,  -0.00209,  -0.00090,  -0.00093,   0.00000,   2.00000
-499890930.15283,-447295135.05471,-17646211.30038,  -0.00350,  -0.00196,  -0.00116,478483278.54116,   0.00196,276759126.91537,  -0.00210,  -0.00090,  -0.00093,   0.00000,   2.00000
-499839899.22834,-447441218.40088,-17416306.69695,  -0.00350,  -0.00196,  -0.00115,478489221.64737,   0.00196,276764699.28619,  -0.00210,  -0.00090,  -0.00093,   0.00000,   2.00000
-499788693.93560,-447586330.30842,-17187376.29968,  -0.00351,  -0.00197,  -0.00115,478495161.70388,   0.00197,276770271.64950,  -0.00211,  -0.00091,  -0.00093,  -0.00000,   2.00000
-499741999.32092,-447723736.12802,-16959905.79435,  -0.00351,  -0.00197,  -0.00115,478489538.44218,   0.00197,276775806.80579,  -0.00211,  -0.00091,  -0.00093,   0.00000,   2.00000
-499696824.70216,-447858653.60346,-16729488.38142,  -0.00352,  -0.00198,  -0.00115,478470148.50447,   0.00198,276781260.58855,  -0.00212,  -0.00091,  -0.00093,   0.00000,   2.00000
-499650912.91300,-447992190.92166,-16504968.08469,  -0.00352,  -0.00198,  -0.00115,478476480.95731,   0.00198,276786716.09443,  -0.00212,  -0.00092,  -0.00093,   0.00000,   2.00000
-499605362.81158,-448125314.58439,-16276440.96798,  -0.00353,  -0.00199,  -0.00114,478481770.05508,   0.00199,276792169.96005,  -0.00213,  -0.00092,  -0.00093,   0.00000,   2.00000
-499564318.31825,-448250833.67010,-16049327.86728,  -0.00353,  -0.00199,  -0.00114,478476003.77071,   0.00199,276797586.65465,  -0.00213,  -0.00093,  -0.00093,  -0.00000,   2.00000
-499524225.19419,-448373492.03633,-15824131.40761,  -0.00354,  -0.00200,  -0.00114,478457003.83716,   0.00200,276802923.76837,  -0.00214,  -0.00093,  -0.00093,   0.00000,   2.00000
-499484450.20203,-448495779.95082,-15594909.86150,  -0.00354,  -0.00200,  -0.00114,478462190.65661,   0.00201,276808259.36787,  -0.00214,  -0.00093,  -0.00094,  -0.00000,   2.00000
-499443963.09573,-448616794.57589,-15371565.48775,  -0.00355,  -0.00200,  -0.00114,478468358.50333,   0.00201,276813596.62940,  -0.00215,  -0.00094,  -0.00094,  -0.00000,   2.00000
-499408489.58010,-448730750.75357,-15144626.47524,  -0.00355,  -0.00201,  -0.00113,478461965.16136,   0.00202,276818895.18745,  -0.00215,  -0.00094,  -0.00094,   0.00000,   2.00000
-499373948.79118,-448841947.55560,-14919529.20165,  -0.00355,  -0.00201,  -0.00113,478442832.85501,   0.00202,276824114.25769,  -0.00216,  -0.00094,  -0.00094,   0.00000,   2.00000
-499339196.44706,-448952387.72001,-14695330.54038,  -0.00356,  -0.00202,  -0.00113,478448384.32455,   0.00202,276829333.45157,  -0.00216,  -0.00095,  -0.00094,  -0.00000,   2.00000
-499309421.15612,-449055825.27464,-14467500.51213,  -0.00356,  -0.00202,  -0.00113,478441881.15334,   0.00203,276834514.05796,  -0.00217,  -0.00095,  -0.00094,   0.00000,   2.00000
-499278944.11158,-449158126.20692,-14245520.50782,  -0.00357,  -0.00202,  -0.00112,478447844.09563,   0.00203,276839696.27410,  -0.00217,  -0.00095,  -0.00094,   0.00000,   2.00000
-499245144.64981,-449264839.66226,-14019935.92178,  -0.00357,  -0.00203,  -0.00112,478439733.88893,   0.00204,276844834.88831,  -0.00218,  -0.00096,  -0.00094,   0.00000,   2.00000
-499220562.00738,-449357514.05146,-13796039.02196,  -0.00358,  -0.00203,  -0.00112,478421991.15683,   0.00204,276849899.16802,  -0.00218,  -0.00096,  -0.00094,   0.00000,   2.00000
-499187447.88016,-449460895.40261,-13573064.31370,  -0.00358,  -0.00204,  -0.00112,478425815.38118,   0.00205,276854958.60257,  -0.00219,  -0.00096,  -0.00094,   0.00000,   2.00000
-499167578.22964,-449545953.32430,-13346341.09529,  -0.00359,  -0.00204,  -0.00112,478420724.11102,   0.00205,276859984.63277,  -0.00219,  -0.00097,  -0.00094,  -0.00000,   2.00000
-499143437.82604,-449634722.21621,-13125873.13663,  -0.00359,  -0.00204,  -0.00111,478413318.74584,   0.00206,276864969.95595,  -0.00220,  -0.00097,  -0.00094,   0.00000,   2.00000
-499119490.20330,-449723237.07037,-12901299.05095,  -0.00359,  -0.00205,  -0.00111,478418209.25449,   0.00206,276869954.17443,  -0.00220,  -0.00097,  -0.00094,   0.00000,   2.00000
-499096443.69488,-449809209.18693,-12678369.06162,  -0.00360,  -0.00205,  -0.00111,478398729.85174,   0.00207,276874859.11719,  -0.00220,  -0.00098,  -0.00094,   0.00000,   2.00000
-499077882.92006,-449887938.13156,-12456640.57508,  -0.00360,  -0.00205,  -0.00111,478392329.03474,   0.00207,276879727.04395,  -0.00221,  -0.00098,  -0.00095,   0.00000,   2.00000
-499059470.87243,-449966440.45035,-12230789.98046,  -0.00361,  -0.00206,  -0.00110,478397122.98670,   0.00208,276884593.99331,  -0.00221,  -0.00098,  -0.00095,  -0.00000,   2.00000
-499040399.25209,-450044003.58489,-12010736.59081,  -0.00361,  -0.00206,  -0.00110,478402687.72521,   0.00208,276889462.45304,  -0.00222,  -0.00099,  -0.00095,   0.00000,   2.00000
-499027348.20396,-450112840.31374,-11787626.73822,  -0.00362,  -0.00207,  -0.00110,478371073.60561,   0.00209,276894213.22639,  -0.00222,  -0.00099,  -0.00095,   0.00000,   2.00000
-499009286.87141,-450187749.33396,-11564996.56195,  -0.00362,  -0.00207,  -0.00110,478387764.93961,   0.00209,276899001.58979,  -0.00223,  -0.00099,  -0.00095,  -0.00000,   2.00000
-499000442.31790,-450248881.08919,-11343845.98367,  -0.00362,  -0.00207,  -0.00110,478369601.38801,   0.00209,276903715.71627,  -0.00223,  -0.00100,  -0.00095,   0.00000,   2.00000
-498987725.10965,-450314250.12401,-11123863.88780,  -0.00363,  -0.00208,  -0.00109,478361458.75885,   0.00210,276908387.98027,  -0.00224,  -0.00100,  -0.00095,   0.98390,   1.00000
-498978690.58489,-450374683.37666,-10899360.51021,  -0.00363,  -0.00208,  -0.00109,478379251.34608,   0.00210,276913101.65596,  -0.00224,  -0.00100,  -0.00095,   0.99394,   1.00000
-498971660.98880,-450430894.48164,-10676994.87696,  -0.00364,  -0.00208,  -0.00109,478334686.49171,   0.00211,276917656.80579,  -0.00224,  -0.00101,  -0.00095,   0.92150,   1.00000
-498963190.51930,-450488480.73015,-10454762.52762,  -0.00364,  -0.00209,  -0.00109,478364344.55102,   0.00211,276922291.78502,  -0.00225,  -0.00101,  -0.00095,   0.94722,   1.00000
-498960327.25666,-450537138.77514,-10234255.85086,  -0.00364,  -0.00209,  -0.00108,478332848.56025,   0.00212,276926810.43610,  -0.00225,  -0.00101,  -0.00095,   0.89422,   1.00000
-498957164.36819,-450585353.04448,-10014517.84831,  -0.00365,  -0.00209,  -0.00108,478337667.08716,   0.00212,276931329.48820,  -0.00226,  -0.00102,  -0.00095,   0.88846,   1.00000
-498950430.03267,-450638156.85138,-9790910.67583,  -0.00365,  -0.00210,  -0.00108,478329019.69036,   0.00212,276935805.80603,  -0.00226,  -0.00102,  -0.00095,   0.86574,   1.00000
-498951430.19189,-450678884.54952,-9572997.64992,  -0.00366,  -0.00210,  -0.00108,478335619.46530,   0.00213,276940288.39573,  -0.00227,  -0.00102,  -0.00095,   0.86287,   1.00000
-498949988.19956,-450722389.57353,-9351767.62314,  -0.00366,  -0.00210,  -0.00107,478302142.82681,   0.00213,276944648.91356,  -0.00227,  -0.00103,  -0.00095,   0.81139,   1.00000
-498951837.39315,-450760723.01252,-9130982.63362,  -0.00366,  -0.00211,  -0.00107,478319961.94626,   0.00214,276949052.02135,  -0.00227,  -0.00103,  -0.00095,   0.82243,   1.00000
-498954817.82677,-450797082.15652,-8906541.65008,  -0.00367,  -0.00211,  -0.00107,478299582.99035,   0.00214,276953375.29963,  -0.00228,  -0.00103,  -0.00095,   0.78824,   1.00000
-498957183.45158,-450832784.58236,-8687810.15261,  -0.00367,  -0.00211,  -0.00107,478304488.94998,   0.00215,276957699.96609,  -0.00228,  -0.00103,  -0.00095,   0.78432,   1.00000
-498969024.35597,-450855191.91414,-8465342.87873,  -0.00368,  -0.00212,  -0.00106,478285546.76012,   0.00215,276961949.71792,  -0.00229,  -0.00104,  -0.00095,   0.75363,   1.00000
-498972160.81778,-450888578.89464,-8243637.81386,  -0.00368,  -0.00212,  -0.00106,478288593.10687,   0.00215,276966195.16411,  -0.00229,  -0.00104,  -0.00095,   0.74803,   1.00000
-498984487.37376,-450908431.17323,-8023127.90593,  -0.00368,  -0.00212,  -0.00106,478269842.99855,   0.00216,276970366.60545,  -0.00229,  -0.00104,  -0.00095,   0.71883,   1.00000
-498992869.41267,-450932703.29472,-7803586.33228,  -0.00369,  -0.00212,  -0.00106,478261157.36858,   0.00216,276974496.49466,  -0.00230,  -0.00105,  -0.00095,   0.70122,   1.00000
-499004765.52921,-450952092.50316,-7579535.79398,  -0.00369,  -0.00213,  -0.00105,478278503.42535,   0.00217,276978668.26352,  -0.00230,  -0.00105,  -0.00096,   0.71231,   1.00000
-499017225.90686,-450969108.91670,-7361627.07000,  -0.00370,  -0.00213,  -0.00105,478258408.12617,   0.00217,276982762.01071,  -0.00230,  -0.00105,  -0.00096,   0.68303,   1.00000
-499030744.38968,-450984199.53681,-7139889.52059,  -0.00370,  -0.00213,  -0.00105,478237762.97920,   0.00217,276986776.25094,  -0.00231,  -0.00105,  -0.00096,   0.65408,   1.00000
-499043909.06429,-450998967.93256,-6918841.59330,  -0.00370,  -0.00214,  -0.00105,478242081.12294,   0.00218,276990791.10046,  -0.00231,  -0.00106,  -0.00096,   0.65170,   1.00000
-499061703.73546,-451007040.09649,-6693713.17800,  -0.00371,  -0.00214,  -0.00104,478234536.88347,   0.00218,276994768.63483,  -0.00232,  -0.00106,  -0.00096,   0.63736,   1.00000
-499083670.27559,-451008043.09006,-6474430.92355,  -0.00371,  -0.00214,  -0.00104,478227380.35802,   0.00218,276998710.23989,  -0.00232,  -0.00106,  -0.00096,   0.62402,   1.00000
-499101876.57801,-451013715.57847,-6251060.57705,  -0.00371,  -0.00214,  -0.00104,478218266.27345,   0.00219,277002609.77291,  -0.00232,  -0.00106,  -0.00096,   0.60880,   1.00000
-499124472.88320,-451012518.39246,-6028541.36566,  -0.00372,  -0.00215,  -0.00104,478210824.65526,   0.00219,277006472.74002,  -0.00233,  -0.00107,  -0.00096,   0.59580,   1.00000
-499147858.02787,-451009234.55427,-5807049.08550,  -0.00372,  -0.00215,  -0.00103,478190185.80092,   0.00220,277010257.08217,  -0.00233,  -0.00107,  -0.00096,   0.57035,   1.00000
-499170860.96535,-451005683.83683,-5586207.34929,  -0.00373,  -0.00215,  -0.00103,478194276.55668,   0.00220,277014042.12405,  -0.00233,  -0.00107,  -0.00096,   0.56921,   1.00000
-499198424.73174,-450995450.14217,-5361205.34234,  -0.00373,  -0.00215,  -0.00103,478186548.12434,   0.00220,277017790.09613,  -0.00234,  -0.00108,  -0.00096,   0.55701,   1.00000
-499225414.19555,-450984810.02526,-5141823.82103,  -0.00373,  -0.00216,  -0.00102,478190775.24078,   0.00221,277021539.34310,  -0.00234,  -0.00108,  -0.00096,   0.55641,   1.00000
-499253357.36211,-450972258.00457,-4918420.40528,  -0.00374,  -0.00216,  -0.00102,478169861.20973,   0.00221,277025209.51320,  -0.00234,  -0.00108,  -0.00096,   0.53232,   1.00000
-499285664.28241,-450952880.33198,-4695790.76303,  -0.00374,  -0.00216,  -0.00102,478162197.28628,   0.00221,277028843.23321,  -0.00235,  -0.00108,  -0.00096,   0.52122,   1.00000
-499313977.38734,-450938038.00060,-4473937.04110,  -0.00374,  -0.00216,  -0.00102,478152981.07356,   0.00222,277032435.66175,  -0.00235,  -0.00109,  -0.00096,   0.50881,   1.00000
-499346798.71759,-450916499.67524,-4247859.70880,  -0.00375,  -0.00217,  -0.00101,478145103.99882,   0.00222,277035991.22946,  -0.00235,  -0.00109,  -0.00096,   0.49802,   1.00000
-499379197.29680,-450894728.24354,-4022407.46905,  -0.00375,  -0.00217,  -0.00101,478148984.39292,   0.00222,277039547.63256,  -0.00236,  -0.00109,  -0.00096,   0.49792,   1.00000
-499417130.55021,-450864320.36547,-3797924.95360,  -0.00375,  -0.00217,  -0.00101,478116406.63946,   0.00223,277042988.39671,  -0.00236,  -0.00109,  -0.00096,   0.46602,   1.00000
-499449866.20989,-450840289.47271,-3573939.43312,  -0.00376,  -0.00217,  -0.00101,478131815.29139,   0.00223,277046467.21737,  -0.00236,  -0.00109,  -0.00096,   0.47625,   1.00000
-499488145.08302,-450807621.99977,-3350865.71197,  -0.00376,  -0.00217,  -0.00100,478099158.63112,   0.00223,277049830.42431,  -0.00237,  -0.00110,  -0.00096,   0.44524,   1.00000
-499525996.16066,-450774751.38973,-3128376.13194,  -0.00376,  -0.00218,  -0.00100,478102842.60188,   0.00224,277053194.50267,  -0.00237,  -0.00110,  -0.00096,   0.44567,   1.00000
-499568282.94782,-450735170.31708,-2901585.39078,  -0.00377,  -0.00218,  -0.00100,478094794.14697,   0.00224,277056521.98210,  -0.00237,  -0.00110,  -0.00096,   0.43641,   1.00000
-499610118.57637,-450695390.87032,-2675382.55490,  -0.00377,  -0.00218,  -0.00099,478098456.13728,   0.00224,277059850.39563,  -0.00238,  -0.00110,  -0.00096,   0.43710,   1.00000
-499652708.14256,-450653579.26804,-2449918.37681,  -0.00377,  -0.00218,  -0.00099,478077305.75201,   0.00224,277063100.48869,  -0.00238,  -0.00111,  -0.00096,   0.41729,   1.00000
-499699688.78206,-450605037.20585,-2220120.76860,  -0.00378,  -0.00218,  -0.00099,478069181.48764,   0.00225,277066314.14041,  -0.00238,  -0.00111,  -0.00096,   0.40869,   1.00000
-499742573.68749,-450561008.78030,-1995934.21388,  -0.00378,  -0.00219,  -0.00099,478059628.90189,   0.00225,277069486.90655,  -0.00239,  -0.00111,  -0.00096,   0.39900,   1.00000
-499789838.61813,-450510235.87488,-1767384.23649,  -0.00378,  -0.00219,  -0.00098,478051442.02311,   0.00225,277072623.29605,  -0.00239,  -0.00111,  -0.00096,   0.39071,   1.00000
-499836635.25040,-450459276.45766,-1539393.62115,  -0.00379,  -0.00219,  -0.00098,478054923.67952,   0.00226,277075760.70009,  -0.00239,  -0.00111,  -0.00096,   0.39184,   1.00000
-499888943.70906,-450399662.84028,-1312080.87111,  -0.00379,  -0.00219,  -0.00098,478021964.54779,   0.00226,277078782.74540,  -0.00239,  -0.00112,  -0.00096,   0.36457,   1.00000
-499936011.87826,-450346497.32784,-1085273.01110,  -0.00379,  -0.00219,  -0.00097,478036961.37155,   0.00226,277081842.96373,  -0.00240,  -0.00112,  -0.00096,   0.37480,   1.00000
-499988628.46194,-450284691.10264,-854114.81038,  -0.00380,  -0.00219,  -0.00097,478003900.33583,   0.00227,277084787.76310,  -0.00240,  -0.00112,  -0.00096,   0.34815,   1.00000
-500040756.70958,-450222703.39323,-623488.56855,  -0.00380,  -0.00220,  -0.00097,478007204.32846,   0.00227,277087733.66044,  -0.00240,  -0.00112,  -0.00096,   0.34956,   1.00000
-500097160.22360,-450153904.72131,-393404.88887,  -0.00380,  -0.00220,  -0.00096,477998886.04464,   0.00227,277090643.54734,  -0.00240,  -0.00112,  -0.00096,   0.34235,   1.00000
-500149533.96003,-450089696.77189,-163850.22192,  -0.00381,  -0.00220,  -0.00096,477988967.97315,   0.00227,277093512.42915,  -0.00241,  -0.00113,  -0.00096,   0.33398,   1.00000
-500206186.03722,-450018672.37427,65191.08144,  -0.00381,  -0.00220,  -0.00096,477980575.04635,   0.00228,277096345.32153,  -0.00241,  -0.00113,  -0.00096,   0.32699,   1.00000
-500267094.69875,-449940828.68188,298704.44702,  -0.00381,  -0.00220,  -0.00096,477972161.10181,   0.00228,277099142.28568,  -0.00241,  -0.00113,  -0.00096,   0.32021,   1.00000
-500323962.13836,-449867572.27067,531723.90010,  -0.00381,  -0.00220,  -0.00095,477962141.09456,   0.00228,277101898.30626,  -0.00242,  -0.00113,  -0.00096,   0.31229,   1.00000
-500385083.50317,-449787484.29863,764262.42005,  -0.00382,  -0.00221,  -0.00095,477953658.64295,   0.00228,277104618.43724,  -0.00242,  -0.00113,  -0.00096,   0.30570,   1.00000
-500446931.57476,-449705323.66186,996366.94608,  -0.00382,  -0.00221,  -0.00095,477931948.93591,   0.00229,277107260.55851,  -0.00242,  -0.00114,  -0.00096,   0.28990,   1.00000
-500508267.21949,-449622994.32157,1227990.57151,  -0.00382,  -0.00221,  -0.00094,477934966.72454,   0.00229,277109903.89220,  -0.00242,  -0.00114,  -0.00096,   0.29169,   1.00000
-500573798.81586,-449533785.71716,1464148.16836,  -0.00383,  -0.00221,  -0.00094,477926427.79777,   0.00229,277112511.53872,  -0.00243,  -0.00114,  -0.00096,   0.28549,   1.00000
-500635290.59249,-449449156.62144,1699878.46472,  -0.00383,  -0.00221,  -0.00094,477916224.94929,   0.00229,277115078.29621,  -0.00243,  -0.00114,  -0.00096,   0.27815,   1.00000
-500701013.36622,-449357667.07597,1935189.67306,  -0.00383,  -0.00221,  -0.00093,477907582.57117,   0.00230,277117609.29008,  -0.00243,  -0.00114,  -0.00096,   0.27209,   1.00000
-500770954.71757,-449259318.42675,2170095.77466,  -0.00383,  -0.00221,  -0.00093,477898911.96404,   0.00230,277120104.55514,  -0.00243,  -0.00114,  -0.00096,   0.26617,   1.00000
-500836782.29199,-449165482.81386,2409592.68615,  -0.00384,  -0.00221,  -0.00093,477888669.67937,   0.00230,277122559.18398,  -0.00243,  -0.00115,  -0.00096,   0.25921,   1.00000
-500906814.72241,-449064762.39993,2648703.80823,  -0.00384,  -0.00221,  -0.00092,477879942.71471,   0.00230,277124978.15621,  -0.00244,  -0.00115,  -0.00096,   0.25345,   1.00000
-500977556.99998,-448961902.49471,2887538.55028,  -0.00384,  -0.00222,  -0.00092,477857973.99134,   0.00231,277127319.29747,  -0.00244,  -0.00115,  -0.00096,   0.23906,   1.00000
-501047746.57054,-448858859.59015,3125932.76261,  -0.00385,  -0.00222,  -0.00092,477860727.02697,   0.00231,277129661.81848,  -0.00244,  -0.00115,  -0.00096,   0.24104,   1.00000
-501122129.77028,-448748917.55364,3363984.14092,  -0.00385,  -0.00222,  -0.00092,477851902.16361,   0.00231,277131968.74409,  -0.00244,  -0.00115,  -0.00096,   0.23553,   1.00000
-501197105.90485,-448636711.23252,3606798.13961,  -0.00385,  -0.00222,  -0.00091,477829942.45067,   0.00231,277134198.23717,  -0.00245,  -0.00115,  -0.00096,   0.22169,   1.00000
-501271506.50270,-448524310.74222,3849184.65746,  -0.00385,  -0.00222,  -0.00091,477832604.21212,   0.00231,277136429.19350,  -0.00245,  -0.00116,  -0.00096,   0.22372,   1.00000
-501341874.43051,-448416456.25398,4091279.18754,  -0.00386,  -0.00222,  -0.00091,477822040.05209,   0.00232,277138619.35696,  -0.00245,  -0.00116,  -0.00096,   0.21726,   1.00000
-501421159.75645,-448294912.75935,4333205.03484,  -0.00386,  -0.00222,  -0.00090,477801527.08469,   0.00232,277140737.09007,  -0.00245,  -0.00116,  -0.00096,   0.20484,   1.00000
-501499710.92246,-448173043.15577,4579697.73210,  -0.00386,  -0.00222,  -0.00090,477804226.69854,   0.00232,277142856.78128,  -0.00245,  -0.00116,  -0.00096,   0.20697,   1.00000
-501579114.24303,-448049079.59941,4821103.00265,  -0.00386,  -0.00222,  -0.00090,477781857.89756,   0.00232,277144898.33751,  -0.00246,  -0.00116,  -0.00096,   0.19365,   1.00000
-501657771.19300,-447924772.44303,5067089.81711,  -0.00387,  -0.00222,  -0.00089,477784496.79716,   0.00232,277146941.90723,  -0.00246,  -0.00116,  -0.00096,   0.19573,   1.00000
-501740565.86096,-447793480.40750,5312831.06627,  -0.00387,  -0.00222,  -0.00089,477775444.52991,   0.00233,277148950.13739,  -0.00246,  -0.00116,  -0.00096,   0.19075,   1.00000
-501819142.95294,-447666547.45974,5563336.40807,  -0.00387,  -0.00222,  -0.00089,477764845.22693,   0.00233,277150918.19377,  -0.00246,  -0.00117,  -0.00096,   0.18485,   1.00000
-501902033.67329,-447532763.67554,5808645.22335,  -0.00387,  -0.00222,  -0.00088,477755559.30852,   0.00233,277152850.40606,  -0.00246,  -0.00117,  -0.00096,   0.17985,   1.00000
-501985428.65009,-447396516.84365,6058923.89149,  -0.00388,  -0.00222,  -0.00088,477733358.54469,   0.00233,277154705.61754,  -0.00247,  -0.00117,  -0.00096,   0.16739,   1.00000
-502068208.64471,-447260036.82424,6308832.25371,  -0.00388,  -0.00223,  -0.00088,477735691.43756,   0.00233,277156562.47889,  -0.00247,  -0.00117,  -0.00096,   0.16930,   1.00000
-502154878.50674,-447116320.65717,6563531.09173,  -0.00388,  -0.00223,  -0.00087,477726702.54619,   0.00233,277158384.80754,  -0.00247,  -0.00117,  -0.00096,   0.16470,   1.00000
-502242447.71397,-446970446.66792,6813309.19917,  -0.00388,  -0.00223,  -0.00087,477704033.09745,   0.00234,277160128.98316,  -0.00247,  -0.00117,  -0.00096,   0.15241,   1.00000
-502329159.82818,-446824129.75614,7067710.06594,  -0.00389,  -0.00223,  -0.00087,477706485.07921,   0.00234,277161875.55592,  -0.00247,  -0.00117,  -0.00096,   0.15439,   1.00000
-502416555.41345,-446675430.78370,7322208.12630,  -0.00389,  -0.00223,  -0.00086,477683957.85952,   0.00234,277163544.66444,  -0.00247,  -0.00117,  -0.00096,   0.14246,   1.00000
-502503314.75356,-446526471.72209,7576364.97045,  -0.00389,  -0.00223,  -0.00086,477686130.52238,   0.00234,277165215.51992,  -0.00247,  -0.00117,  -0.00096,   0.14425,   1.00000
-502593888.24501,-446370169.19259,7835376.72629,  -0.00389,  -0.00223,  -0.00086,477677044.15681,   0.00234,277166852.12512,  -0.00248,  -0.00118,  -0.00096,   0.13989,   1.00000
-502685397.66041,-446211658.94404,8089576.85427,  -0.00390,  -0.00223,  -0.00085,477654184.68892,   0.00234,277168410.54315,  -0.00248,  -0.00118,  -0.00096,   0.12822,   1.00000
-502775985.41168,-446052639.04312,8348427.86703,  -0.00390,  -0.00223,  -0.00085,477656518.30455,   0.00235,277169971.58566,  -0.00248,  -0.00118,  -0.00096,   0.13006,   1.00000
-502862549.95891,-445898036.05489,8607237.71193,  -0.00390,  -0.00223,  -0.00084,477645332.71691,   0.00235,277171492.00327,  -0.00248,  -0.00118,  -0.00096,   0.12471,   1.00000
-502957569.94718,-445729096.33604,8871208.43108,  -0.00390,  -0.00223,  -0.00084,477624681.51464,   0.00235,277172941.65474,  -0.00248,  -0.00118,  -0.00096,   0.11467,   1.00000
-503052204.99379,-445560107.22173,9129897.77138,  -0.00390,  -0.00223,  -0.00084,477626402.49632,   0.00235,277174392.32476,  -0.00248,  -0.00118,  -0.00096,   0.11615,   1.00000
-503145859.40476,-445390554.14787,9393251.50526,  -0.00391,  -0.00223,  -0.00083,477628687.28167,   0.00235,277175845.81764,  -0.00249,  -0.00118,  -0.00096,   0.11794,   1.00000
-503236839.05421,-445223141.59512,9657211.36714,  -0.00391,  -0.00223,  -0.00083,477592650.70917,   0.00235,277177179.50601,  -0.00249,  -0.00118,  -0.00096,   0.10043,   1.00000
-503334837.52383,-445043497.87344,9925807.16516,  -0.00391,  -0.00223,  -0.00083,477596673.84181,   0.00235,277178521.95669,  -0.00249,  -0.00118,  -0.00096,   0.10297,   1.00000
-503429133.94942,-444868488.67734,10189476.47368,  -0.00391,  -0.00223,  -0.00082,477584988.34217,   0.00235,277179822.86551,  -0.00249,  -0.00118,  -0.00096,   0.09783,   1.00000
-503527081.04453,-444685893.51355,10458131.76966,  -0.00391,  -0.00223,  -0.00082,477575724.21041,   0.00236,277181090.11493,  -0.00249,  -0.00119,  -0.00096,   0.09396,   1.00000
-503621002.15587,-444507624.76872,10726862.46960,  -0.00392,  -0.00223,  -0.00082,477564279.25497,   0.00236,277182316.82279,  -0.00249,  -0.00119,  -0.00096,   0.08909,   1.00000
-503718899.20769,-444322023.21749,10995634.74804,  -0.00392,  -0.00223,  -0.00081,477554643.95424,   0.00236,277183508.90985,  -0.00249,  -0.00119,  -0.00096,   0.08515,   1.00000
-503820381.96476,-444128748.54254,11269430.57915,  -0.00392,  -0.00223,  -0.00081,477545343.21010,   0.00236,277184667.55738,  -0.00249,  -0.00119,  -0.00096,   0.08145,   1.00000
-503917829.34815,-443939756.54288,11543345.36692,  -0.00392,  -0.00223,  -0.00081,477533810.70400,   0.00236,277185785.71596,  -0.00249,  -0.00119,  -0.00096,   0.07679,   1.00000
-504019213.70502,-443743364.73709,11817340.95391,  -0.00392,  -0.00223,  -0.00080,477524115.07438,   0.00236,277186869.39433,  -0.00250,  -0.00119,  -0.00096,   0.07304,   1.00000
-504119860.05437,-443546578.58859,12091086.60920,  -0.00393,  -0.00222,  -0.00080,477525821.44084,   0.00236,277187955.22154,  -0.00250,  -0.00119,  -0.00096,   0.07425,   1.00000
-504221148.43010,-443347017.28717,12365345.77682,  -0.00393,  -0.00222,  -0.00079,477502795.23707,   0.00236,277188963.95308,  -0.00250,  -0.00119,  -0.00095,   0.06489,   1.00000
-504321279.29842,-443146689.18495,12644335.79081,  -0.00393,  -0.00222,  -0.00079,477504826.54891,   0.00236,277189976.11202,  -0.00250,  -0.00119,  -0.00095,   0.06616,   1.00000
-504422040.51665,-442943527.42028,12923883.72213,  -0.00393,  -0.00222,  -0.00079,477481753.33680,   0.00237,277190911.23398,  -0.00250,  -0.00119,  -0.00095,   0.05720,   1.00000
-504522047.51865,-442739930.87719,13203206.98793,  -0.00393,  -0.00222,  -0.00078,477483336.54334,   0.00237,277191848.57861,  -0.00250,  -0.00119,  -0.00095,   0.05820,   1.00000
-504625492.08108,-442528433.52295,13487653.03617,  -0.00393,  -0.00222,  -0.00078,477473954.69379,   0.00237,277192752.99279,  -0.00250,  -0.00119,  -0.00095,   0.05490,   1.00000
-504729543.95373,-442314014.96575,13772726.23960,  -0.00394,  -0.00222,  -0.00078,477450816.19939,   0.00237,277193580.46461,  -0.00250,  -0.00119,  -0.00095,   0.04656,   1.00000
-504832810.34404,-442099121.14741,14057592.18207,  -0.00394,  -0.00222,  -0.00077,477452326.17882,   0.00237,277194410.26514,  -0.00250,  -0.00119,  -0.00095,   0.04743,   1.00000
-504932062.09406,-441888380.58818,14342728.10984,  -0.00394,  -0.00222,  -0.00077,477440493.22536,   0.00237,277195199.58924,  -0.00250,  -0.00119,  -0.00095,   0.04347,   1.00000
-505039788.40400,-441662895.63742,14628494.92632,  -0.00394,  -0.00222,  -0.00076,477419230.90648,   0.00237,277195918.31023,  -0.00250,  -0.00119,  -0.00095,   0.03653,   1.00000
-505141599.96195,-441443631.97181,14918615.16644,  -0.00394,  -0.00222,  -0.00076,477432473.48230,   0.00237,277196677.34529,  -0.00250,  -0.00120,  -0.00095,   0.04128,   1.00000
-505244012.82620,-441221319.98136,15209476.10159,  -0.00394,  -0.00222,  -0.00076,477409232.05864,   0.00237,277197359.49456,  -0.00251,  -0.00120,  -0.00095,   0.03378,   1.00000
-505350231.01872,-440991315.63757,15500594.66865,  -0.00395,  -0.00222,  -0.00075,477399281.78874,   0.00237,277198007.64408,  -0.00251,  -0.00120,  -0.00095,   0.03091,   1.00000
-505455104.42133,-440760331.08040,15796498.61548,  -0.00395,  -0.00222,  -0.00075,477401148.26597,   0.00237,277198659.83038,  -0.00251,  -0.00120,  -0.00095,   0.03171,   1.00000
-505560551.82252,-440526199.17279,16093215.49838,  -0.00395,  -0.00222,  -0.00074,477377847.18050,   0.00237,277199235.22780,  -0.00251,  -0.00120,  -0.00095,   0.02502,   1.00000
-505665160.71692,-440291501.16869,16389769.41764,  -0.00395,  -0.00221,  -0.00074,477379170.65433,   0.00237,277199813.14305,  -0.00251,  -0.00120,  -0.00095,   0.02558,   1.00000
-505773522.15140,-440049012.17968,16686630.80887,  -0.00395,  -0.00221,  -0.00074,477369181.49712,   0.00237,277200357.23132,  -0.00251,  -0.00120,  -0.00095,   0.02298,   1.00000
-505877862.78440,-439810528.57626,16983902.03277,  -0.00395,  -0.00221,  -0.00073,477357110.27319,   0.00237,277200860.89752,  -0.00251,  -0.00120,  -0.00095,   0.01996,   1.00000
-505985366.80878,-439563721.15253,17286469.46685,  -0.00395,  -0.00221,  -0.00073,477347609.27043,   0.00238,277201332.51892,  -0.00251,  -0.00120,  -0.00095,   0.01774,   1.00000
-506088841.86518,-439320874.26184,17589479.61187,  -0.00396,  -0.00221,  -0.00072,477335483.88645,   0.00238,277201763.74879,  -0.00251,  -0.00120,  -0.00095,   0.01503,   1.00000
-506196025.02863,-439070128.29747,17892857.91978,  -0.00396,  -0.00221,  -0.00072,477325409.50224,   0.00238,277202161.29666,  -0.00251,  -0.00120,  -0.00095,   0.01295,   1.00000
-506301723.48514,-438818236.66148,18201061.70909,  -0.00396,  -0.00221,  -0.00072,477327171.44792,   0.00238,277202563.32243,  -0.00251,  -0.00120,  -0.00095,   0.01343,   1.00000
-506407950.33715,-438562944.19695,18510271.78341,  -0.00396,  -0.00221,  -0.00071,477303721.24530,   0.00238,277202888.71584,  -0.00251,  -0.00120,  -0.00095,   0.00892,   1.00000
-506513277.33277,-438306981.86824,18819365.50750,  -0.00396,  -0.00221,  -0.00071,477304867.80455,   0.00238,277203216.82743,  -0.00251,  -0.00120,  -0.00095,   0.00919,   1.00000
-506622252.72066,-438043010.67688,19128879.04290,  -0.00396,  -0.00220,  -0.00070,477294762.00529,   0.00238,277203511.43941,  -0.00251,  -0.00120,  -0.00095,   0.00751,   1.00000
-506726549.49820,-437782349.17426,19443883.78286,  -0.00396,  -0.00220,  -0.00070,477283095.47168,   0.00238,277203767.62006,  -0.00251,  -0.00120,  -0.00095,   0.00576,   1.00000
-506829922.08333,-437520981.81612,19758784.37573,  -0.00396,  -0.00220,  -0.00070,477284200.11665,   0.00238,277204026.59552,  -0.00251,  -0.00120,  -0.00095,   0.00597,   1.00000
-506938331.99733,-437248669.63598,20075376.88633,  -0.00397,  -0.00220,  -0.00069,477249431.35410,   0.00238,277204172.82637,  -0.00251,  -0.00120,  -0.00095,   0.00193,   1.00000
-507044365.87628,-436978485.23764,20390635.37240,  -0.00397,  -0.00220,  -0.00069,477275091.49101,   0.00238,277204401.28595,  -0.00251,  -0.00120,  -0.00095,   0.00477,   1.00000
-507147113.49992,-436708619.99830,20712708.49851,  -0.00397,  -0.00220,  -0.00068,477238775.05135,   0.00238,277204512.04740,  -0.00251,  -0.00120,  -0.00095,   0.00114,   1.00000
-507251985.26802,-436433475.56746,21034003.01320,  -0.00397,  -0.00220,  -0.00068,477253196.78159,   0.00238,277204668.96427,  -0.00251,  -0.00120,  -0.00095,   0.00231,   1.00000
-507357325.08877,-436154628.34616,21356523.34651,  -0.00397,  -0.00220,  -0.00067,477229619.39285,   0.00238,277204749.40425,  -0.00251,  -0.00120,  -0.00095,   0.00062,   1.00000
-507466193.36151,-435867531.49879,21679580.13623,  -0.00397,  -0.00219,  -0.00067,477219412.35889,   0.00238,277204796.69063,  -0.00251,  -0.00120,  -0.00095,   0.00022,   1.00000
-507565785.10676,-435590984.95727,22007642.74673,  -0.00397,  -0.00219,  -0.00067,477218813.87607,   0.00238,277204841.90695,  -0.00251,  -0.00120,  -0.00095,   0.00020,   1.00000
-507665431.23844,-435292046.56225,22336474.98126,  -0.00397,  -0.00219,  -0.00066,477197428.41505,   0.00238,277204841.90695,  -0.00251,  -0.00120,  -0.00095,-7413.49190,   0.00000
-507772550.82999,-435010546.24026,22665307.21578,  -0.00397,  -0.00219,  -0.00066,477202129.57178,   0.00238,277204841.90695,  -0.00251,  -0.00120,  -0.00095,-2712.33517,   0.00000
-507872196.96166,-434711607.84524,22999121.75689,  -0.00398,  -0.00219,  -0.00065,477197328.07899,   0.00238,277204841.90695,  -0.00251,  -0.00120,  -0.00095,-7513.82796,   0.00000
-507946931.56042,-434387757.91730,23332936.29800,  -0.00398,  -0.00219,  -0.00065,477168899.36103,   0.00238,277204841.90695,  -0.00251,  -0.00120,  -0.00095,-35942.54592,   0.00000
-508004228.08613,-434056434.52948,23666750.83911,  -0.00398,  -0.00218,  -0.00064,477127996.90094,   0.00238,277204841.90695,  -0.00251,  -0.00120,  -0.00095,-76845.00601,   0.00000
-508078962.68489,-433732584.60153,24000565.38023,  -0.00398,  -0.00218,  -0.00064,477101526.94873,   0.00238,277204841.90695,  -0.00251,  -0.00120,  -0.00095,-103314.95822,   0.00000
-508128785.75073,-433383823.14067,24339362.22792,  -0.00398,  -0.00218,  -0.00064,477052218.22463,   0.00238,277204841.90695,  -0.00251,  -0.00120,  -0.00095,-152623.68232,   0.00000
-508178608.81656,-433035061.67981,24678159.07562,  -0.00398,  -0.00218,  -0.00063,477003922.93525,   0.00238,277204841.90695,  -0.00251,  -0.00120,  -0.00095,-200918.97170,   0.00000
-508210993.80936,-432678826.75907,25016955.92331,  -0.00398,  -0.00218,  -0.00063,476943171.72784,   0.00238,277204841.90695,  -0.00251,  -0.00120,  -0.00095,-261670.17911,   0.00000
-508235905.34228,-432305153.76529,25360735.07759,  -0.00398,  -0.00218,  -0.00062,476873128.71885,   0.00238,277204841.90695,  -0.00251,  -0.00120,  -0.00095,-331713.18810,   0.00000
-508253343.41532,-431914042.69847,25704514.23187,  -0.00398,  -0.00217,  -0.00062,476793048.66907,   0.00238,277204841.90695,  -0.00251,  -0.00120,  -0.00095,-411793.23788,   0.00000
-508260816.87520,-431532896.24481,26048293.38614,  -0.00398,  -0.00217,  -0.00061,476711628.68464,   0.00238,277204841.90695,  -0.00251,  -0.00120,  -0.00095,-493213.22231,   0.00000
-508260816.87520,-431134311.71811,26392072.54042,  -0.00398,  -0.00217,  -0.00061,476620183.93418,   0.00238,277204841.90695,  -0.00251,  -0.00120,  -0.00095,-584657.97277,   0.00000
-508253343.41532,-430718289.11837,26740834.00129,  -0.00399,  -0.00217,  -0.00060,476519581.72631,   0.00238,277204841.90695,  -0.00251,  -0.00120,  -0.00095,-685260.18064,   0.00000
-508228431.88240,-430294793.05875,27084613.15556,  -0.00399,  -0.00217,  -0.00060,476405739.67267,   0.00238,277204841.90695,  -0.00251,  -0.00120,  -0.00095,-799102.23428,   0.00000
-508220958.42253,-429878770.45901,27438356.92301,  -0.00399,  -0.00217,  -0.00060,476308187.45324,   0.00238,277204841.90695,  -0.00251,  -0.00120,  -0.00095,-896654.45371,   0.00000
-508178608.81656,-429447800.93951,27787118.38387,  -0.00399,  -0.00216,  -0.00059,476183890.94339,   0.00238,277204841.90695,  -0.00251,  -0.00120,  -0.00095,-1020950.96356,   0.00000
-508146223.82377,-429006866.80685,28140862.15132,  -0.00399,  -0.00216,  -0.00059,476064051.95024,   0.00238,277204841.90695,  -0.00251,  -0.00120,  -0.00095,-1140789.95671,   0.00000
-508088927.29806,-428541021.14127,28494605.91876,  -0.00399,  -0.00216,  -0.00058,475920838.80432,   0.00238,277204841.90695,  -0.00251,  -0.00120,  -0.00095,-1284003.10263,   0.00000
-508039104.23222,-428092613.54874,28848349.68621,  -0.00399,  -0.00216,  -0.00058,475789776.19027,   0.00238,277204841.90695,  -0.00251,  -0.00120,  -0.00095,-1415065.71668,   0.00000
-507964369.63346,-427619294.42328,29207075.76024,  -0.00399,  -0.00216,  -0.00057,475636264.66950,   0.00238,277204841.90695,  -0.00251,  -0.00120,  -0.00095,-1568577.23745,   0.00000
-507907073.10775,-427153448.75770,29565801.83427,  -0.00399,  -0.00215,  -0.00057,475497440.25219,   0.00238,277204841.90695,  -0.00251,  -0.00120,  -0.00095,-1707401.65476,   0.00000
-507807426.97608,-426655218.09933,29924527.90830,  -0.00399,  -0.00215,  -0.00056,475321787.45153,   0.00238,277204841.90695,  -0.00251,  -0.00120,  -0.00095,-1883054.45542,   0.00000
-507725218.91744,-426164460.90083,30288236.28891,  -0.00399,  -0.00215,  -0.00056,475161796.89284,   0.00238,277204841.90695,  -0.00251,  -0.00120,  -0.00095,-2043045.01411,   0.00000
-507625572.78577,-425666230.24245,30646962.36294,  -0.00399,  -0.00215,  -0.00055,474988533.20764,   0.00238,277204841.90695,  -0.00251,  -0.00120,  -0.00095,-2216308.69931,   0.00000
-507518453.19422,-425150561.51103,31015653.05014,  -0.00399,  -0.00215,  -0.00055,474807473.75694,   0.00238,277204841.90695,  -0.00251,  -0.00120,  -0.00095,-2397368.15001,   0.00000
-507411333.60267,-424634892.77962,31379361.43075,  -0.00399,  -0.00214,  -0.00054,474626684.21220,   0.00238,277204841.90695,  -0.00251,  -0.00120,  -0.00095,-2578157.69475,   0.00000
-507286775.93807,-424111750.58832,31748052.11795,  -0.00399,  -0.00214,  -0.00054,474434593.88538,   0.00238,277204841.90695,  -0.00251,  -0.00120,  -0.00095,-2770248.02157,   0.00000
-507154744.81361,-423571170.32399,32116742.80515,  -0.00399,  -0.00214,  -0.00053,474232852.32653,   0.00238,277204841.90695,  -0.00251,  -0.00120,  -0.00095,-2971989.58042,   0.00000
-507030187.14901,-423048028.13269,32485433.49234,  -0.00399,  -0.00214,  -0.00053,474043282.91596,   0.00238,277204841.90695,  -0.00251,  -0.00120,  -0.00095,-3161558.99099,   0.00000
-506890682.56467,-422490009.79531,32854124.17954,  -0.00400,  -0.00213,  -0.00053,473833202.12141,   0.00238,277204841.90695,  -0.00251,  -0.00120,  -0.00095,-3371639.78554,   0.00000
-506741213.36715,-421941956.07110,33227797.17332,  -0.00400,  -0.00213,  -0.00052,473622795.42154,   0.00238,277204841.90695,  -0.00251,  -0.00120,  -0.00095,-3582046.48541,   0.00000
-506584270.70977,-421376464.27385,33601470.16710,  -0.00400,  -0.00213,  -0.00052,473402825.84520,   0.00238,277204841.90695,  -0.00251,  -0.00120,  -0.00095,-3802016.06175,   0.00000
-506409889.97934,-420803499.01672,33980125.46747,  -0.00400,  -0.00213,  -0.00051,473171696.73806,   0.00238,277204841.90695,  -0.00251,  -0.00120,  -0.00095,-4033145.16889,   0.00000
-506252947.32195,-420238007.21946,34358780.76783,  -0.00400,  -0.00213,  -0.00051,472955470.52544,   0.00238,277204841.90695,  -0.00251,  -0.00120,  -0.00095,-4249371.38151,   0.00000
-506078566.59152,-419665041.96233,34737436.06820,  -0.00400,  -0.00212,  -0.00050,472727033.83399,   0.00238,277204841.90695,  -0.00251,  -0.00120,  -0.00095,-4477808.07296,   0.00000
-505896712.40121,-419074638.63216,35116091.36856,  -0.00400,  -0.00212,  -0.00050,472489125.85086,   0.00238,277204841.90695,  -0.00251,  -0.00120,  -0.00095,-4715716.05609,   0.00000
-505697420.13786,-418476761.84211,35499728.97551,  -0.00400,  -0.00212,  -0.00049,472240144.79579,   0.00238,277204841.90695,  -0.00251,  -0.00120,  -0.00095,-4964697.11116,   0.00000
-505498127.87451,-417878885.05206,35883366.58246,  -0.00400,  -0.00212,  -0.00049,471992556.90822,   0.00238,277204841.90695,  -0.00251,  -0.00120,  -0.00095,-5212284.99873,   0.00000
-505291362.15128,-417263570.18897,36267004.18940,  -0.00400,  -0.00211,  -0.00048,471735579.21072,   0.00238,277204841.90695,  -0.00251,  -0.00120,  -0.00095,-5469262.69623,   0.00000
-505084596.42806,-416648255.32587,36655624.10294,  -0.00400,  -0.00211,  -0.00048,471481183.77767,   0.00238,277204841.90695,  -0.00251,  -0.00120,  -0.00095,-5723658.12928,   0.00000
-504860392.63179,-416025467.00291,37039261.70989,  -0.00400,  -0.00211,  -0.00047,471213481.71656,   0.00238,277204841.90695,  -0.00251,  -0.00120,  -0.00095,-5991360.19039,   0.00000
-504636188.83552,-415402678.67994,37432863.93000,  -0.00400,  -0.00211,  -0.00047,470949574.62748,   0.00238,277204841.90695,  -0.00251,  -0.00120,  -0.00095,-6255267.27947,   0.00000
-504411985.03925,-414779890.35697,37821483.84353,  -0.00400,  -0.00210,  -0.00046,470685940.05646,   0.00238,277204841.90695,  -0.00251,  -0.00120,  -0.00095,-6518901.85049,   0.00000
-504180307.78311,-414139663.96096,38215086.06365,  -0.00400,  -0.00210,  -0.00046,470414242.12017,   0.00238,277204841.90695,  -0.00251,  -0.00120,  -0.00095,-6790599.78678,   0.00000
-503931192.45392,-413491964.10507,38608688.28376,  -0.00400,  -0.00210,  -0.00045,470130455.29821,   0.00238,277204841.90695,  -0.00251,  -0.00120,  -0.00095,-7074386.60874,   0.00000
-503682077.12474,-412844264.24919,39002290.50388,  -0.00400,  -0.00210,  -0.00045,469848167.80288,   0.00238,277204841.90695,  -0.00251,  -0.00120,  -0.00095,-7356674.10407,   0.00000
-503432961.79555,-412196564.39330,39400875.03058,  -0.00400,  -0.00209,  -0.00044,469568636.43661,   0.00238,277204841.90695,  -0.00251,  -0.00120,  -0.00095,-7636205.47034,   0.00000
-503176373.00649,-411531426.46437,39799459.55728,  -0.00400,  -0.00209,  -0.00044,469279956.65316,   0.00238,277204841.90695,  -0.00251,  -0.00120,  -0.00095,-7924885.25379,   0.00000
-502909819.60425,-410876253.14861,40203026.39056,  -0.00400,  -0.00209,  -0.00043,468991182.96410,   0.00238,277204841.90695,  -0.00251,  -0.00120,  -0.00095,-8213658.94285,   0.00000
-502635792.74215,-410203641.75980,40601610.91726,  -0.00400,  -0.00209,  -0.00042,468692017.87966,   0.00238,277204841.90695,  -0.00251,  -0.00120,  -0.00095,-8512824.02729,   0.00000
-502361765.88004,-409531030.37100,41005177.75055,  -0.00400,  -0.00208,  -0.00042,468395720.37120,   0.00238,277204841.90695,  -0.00251,  -0.00120,  -0.00095,-8809121.53575,   0.00000
-502062827.48502,-408833507.44927,41408744.58383,  -0.00400,  -0.00208,  -0.00041,468076772.78300,   0.00238,277204841.90695,  -0.00251,  -0.00120,  -0.00095,-9128069.12395,   0.00000
-501788800.62291,-408160896.06047,41817293.72370,  -0.00400,  -0.00208,  -0.00041,467785003.14913,   0.00238,277204841.90695,  -0.00251,  -0.00120,  -0.00095,-9419838.75782,   0.00000
-501497335.68776,-407480811.21178,42225842.86356,  -0.00400,  -0.00208,  -0.00040,467481243.96360,   0.00238,277204841.90695,  -0.00251,  -0.00120,  -0.00095,-9723597.94335,   0.00000
-501198397.29274,-406783288.29006,42634392.00343,  -0.00400,  -0.00207,  -0.00040,467168512.51871,   0.00238,277204841.90695,  -0.00251,  -0.00120,  -0.00095,-10036329.38824,   0.00000
-500882020.82467,-406078291.90846,43047923.44988,  -0.00400,  -0.00207,  -0.00039,466845192.35031,   0.00238,277204841.90695,  -0.00251,  -0.00120,  -0.00095,-10359649.55664,   0.00000
-500583082.42965,-405380768.98674,43456472.58975,  -0.00400,  -0.00207,  -0.00039,466535776.13276,   0.00238,277204841.90695,  -0.00251,  -0.00120,  -0.00095,-10669065.77419,   0.00000
-500266705.96158,-404675772.60514,43874986.34278,  -0.00400,  -0.00207,  -0.00038,466217208.56627,   0.00238,277204841.90695,  -0.00251,  -0.00120,  -0.00095,-10987633.34068,   0.00000
-499942856.03363,-403953338.15049,44288517.78923,  -0.00400,  -0.00206,  -0.00038,465888389.58126,   0.00238,277204841.90695,  -0.00251,  -0.00120,  -0.00095,-11316452.32569,   0.00000
-499609041.49252,-403240868.30902,44707031.54227,  -0.00400,  -0.00206,  -0.00037,465559625.09347,   0.00238,277204841.90695,  -0.00251,  -0.00120,  -0.00095,-11645216.81348,   0.00000
-499285191.56458,-402518433.85437,45125545.29530,  -0.00400,  -0.00206,  -0.00037,465235685.72026,   0.00238,277204841.90695,  -0.00251,  -0.00120,  -0.00095,-11969156.18669,   0.00000
-498951377.02347,-401805964.01290,45544059.04834,  -0.00400,  -0.00206,  -0.00036,464910372.27972,   0.00238,277204841.90695,  -0.00251,  -0.00120,  -0.00095,-12294469.62723,   0.00000
-498610089.02248,-401076056.09838,45967555.10796,  -0.00400,  -0.00205,  -0.00035,464577769.57389,   0.00238,277204841.90695,  -0.00251,  -0.00120,  -0.00095,-12627072.33306,   0.00000
-498268801.02150,-400346148.18386,46391051.16757,  -0.00400,  -0.00205,  -0.00035,464246949.44954,   0.00238,277204841.90695,  -0.00251,  -0.00120,  -0.00095,-12957892.45741,   0.00000
-497910074.94747,-399608766.80947,46819529.53378,  -0.00400,  -0.00205,  -0.00034,463905791.35284,   0.00238,277204841.90695,  -0.00251,  -0.00120,  -0.00095,-13299050.55411,   0.00000
-497568786.94648,-398878858.89495,47243025.59339,  -0.00400,  -0.00205,  -0.00034,463578561.04379,   0.00238,277204841.90695,  -0.00251,  -0.00120,  -0.00095,-13626280.86316,   0.00000
-497210060.87245,-398141477.52056,47671503.95960,  -0.00400,  -0.00204,  -0.00033,463241027.27468,   0.00238,277204841.90695,  -0.00251,  -0.00120,  -0.00095,-13963814.63227,   0.00000
-496843861.33855,-397386658.07312,48104964.63238,  -0.00400,  -0.00204,  -0.00033,462896446.07590,   0.00238,277204841.90695,  -0.00251,  -0.00120,  -0.00095,-14308395.83105,   0.00000
-496467697.19147,-396641803.23885,48533442.99858,  -0.00400,  -0.00204,  -0.00032,462548956.36591,   0.00238,277204841.90695,  -0.00251,  -0.00120,  -0.00095,-14655885.54104,   0.00000
-496101497.65757,-395886983.79141,48966903.67137,  -0.00400,  -0.00203,  -0.00032,462208121.21486,   0.00238,277204841.90695,  -0.00251,  -0.00120,  -0.00095,-14996720.69209,   0.00000
-495725333.51050,-395142128.95714,49405346.65074,  -0.00400,  -0.00203,  -0.00031,461867523.79074,   0.00238,277204841.90695,  -0.00251,  -0.00120,  -0.00095,-15337318.11621,   0.00000
-495341695.90355,-394379836.04983,49838807.32352,  -0.00400,  -0.00203,  -0.00030,461516840.54918,   0.00238,277204841.90695,  -0.00251,  -0.00120,  -0.00095,-15688001.35777,   0.00000
-494958058.29660,-393617543.14252,50277250.30289,  -0.00400,  -0.00203,  -0.00030,461169687.39397,   0.00238,277204841.90695,  -0.00251,  -0.00120,  -0.00095,-16035154.51298,   0.00000
-494581894.14953,-392872688.30825,50720675.58885,  -0.00400,  -0.00202,  -0.00029,460836458.72754,   0.00238,277204841.90695,  -0.00251,  -0.00120,  -0.00095,-16368383.17941,   0.00000
-494180818.46953,-392102921.94106,51159118.56822,  -0.00400,  -0.00202,  -0.00029,460479539.27057,   0.00238,277204841.90695,  -0.00251,  -0.00120,  -0.00095,-16725302.63638,   0.00000
-493797180.86259,-391340629.03374,51602543.85417,  -0.00400,  -0.00202,  -0.00028,460139883.06077,   0.00238,277204841.90695,  -0.00251,  -0.00120,  -0.00095,-17064958.84618,   0.00000
-493396105.18259,-390570862.66656,52045969.14012,  -0.00400,  -0.00202,  -0.00028,459788561.89250,   0.00238,277204841.90695,  -0.00251,  -0.00120,  -0.00095,-17416280.01445,   0.00000
-492995029.50260,-389801096.29937,52494376.73266,  -0.00400,  -0.00201,  -0.00027,459440931.55253,   0.00238,277204841.90695,  -0.00251,  -0.00120,  -0.00095,-17763910.35442,   0.00000
-492593953.82261,-389031329.93218,52942784.32520,  -0.00400,  -0.00201,  -0.00026,459095320.46792,   0.00238,277204841.90695,  -0.00251,  -0.00120,  -0.00095,-18109521.43903,   0.00000
-492175440.06958,-388254090.10511,53391191.91773,  -0.00400,  -0.00201,  -0.00026,458738087.31990,   0.00238,277204841.90695,  -0.00251,  -0.00120,  -0.00095,-18466754.58705,   0.00000
-491774364.38959,-387484323.73793,53844581.81686,  -0.00399,  -0.00200,  -0.00025,458398283.77664,   0.00238,277204841.90695,  -0.00251,  -0.00120,  -0.00095,-18806558.13031,   0.00000
-491355850.63655,-386707083.91086,54292989.40939,  -0.00399,  -0.00200,  -0.00025,458045127.29254,   0.00238,277204841.90695,  -0.00251,  -0.00120,  -0.00095,-19159714.61441,   0.00000
-490937336.88352,-385929844.08380,54751361.61510,  -0.00399,  -0.00200,  -0.00024,457697583.80242,   0.00238,277204841.90695,  -0.00251,  -0.00120,  -0.00095,-19507258.10453,   0.00000
-490518823.13048,-385152604.25673,55204751.51422,  -0.00399,  -0.00200,  -0.00023,457350342.75120,   0.00238,277204841.90695,  -0.00251,  -0.00120,  -0.00095,-19854499.15575,   0.00000
-490100309.37745,-384375364.42967,55663123.71992,  -0.00399,  -0.00199,  -0.00023,457007001.07880,   0.00238,277204841.90695,  -0.00251,  -0.00120,  -0.00095,-20197840.82815,   0.00000
-489664357.55137,-383590651.14273,56121495.92563,  -0.00399,  -0.00199,  -0.00022,456652130.02960,   0.00238,277204841.90695,  -0.00251,  -0.00120,  -0.00095,-20552711.87735,   0.00000
-489245843.79834,-382813411.31567,56584850.43791,  -0.00399,  -0.00199,  -0.00022,456314879.24225,   0.00238,277204841.90695,  -0.00251,  -0.00120,  -0.00095,-20889962.66469,   0.00000
-488809891.97226,-382028698.02873,57043222.64362,  -0.00399,  -0.00199,  -0.00021,455964272.44077,   0.00238,277204841.90695,  -0.00251,  -0.00120,  -0.00095,-21240569.46618,   0.00000
-488373940.14618,-381243984.74179,57511559.46249,  -0.00399,  -0.00198,  -0.00020,455619570.19617,   0.00238,277204841.90695,  -0.00251,  -0.00120,  -0.00095,-21585271.71078,   0.00000
-487937988.32010,-380459271.45485,57974913.97478,  -0.00399,  -0.00198,  -0.00020,455275167.43346,   0.00238,277204841.90695,  -0.00251,  -0.00120,  -0.00095,-21929674.47349,   0.00000
-487509509.95390,-379691996.24095,58443250.79365,  -0.00399,  -0.00198,  -0.00019,454944959.27977,   0.00238,277204841.90695,  -0.00251,  -0.00120,  -0.00095,-22259882.62718,   0.00000
-487056120.05478,-378899809.49413,58911587.61252,  -0.00399,  -0.00197,  -0.00019,454593207.25335,   0.00238,277204841.90695,  -0.00251,  -0.00120,  -0.00095,-22611634.65360,   0.00000
-486620168.22870,-378115096.20719,59384906.73798,  -0.00399,  -0.00197,  -0.00018,454259269.38851,   0.00238,277204841.90695,  -0.00251,  -0.00120,  -0.00095,-22945572.51844,   0.00000
-486166778.32958,-377322909.46038,59853243.55685,  -0.00399,  -0.00197,  -0.00017,453911977.55241,   0.00238,277204841.90695,  -0.00251,  -0.00120,  -0.00095,-23292864.35454,   0.00000
-485730826.50350,-376538196.17344,60331544.98889,  -0.00399,  -0.00197,  -0.00017,453584529.84874,   0.00238,277204841.90695,  -0.00251,  -0.00120,  -0.00095,-23620312.05821,   0.00000
-485284910.06426,-375763447.49967,60804864.11435,  -0.00399,  -0.00196,  -0.00016,453253765.66278,   0.00238,277204841.90695,  -0.00251,  -0.00120,  -0.00095,-23951076.24417,   0.00000
-484831520.16514,-374971260.75285,61283165.54639,  -0.00399,  -0.00196,  -0.00016,452917257.46027,   0.00238,277204841.90695,  -0.00251,  -0.00120,  -0.00095,-24287584.44668,   0.00000
-484368165.65285,-374189038.61920,61761466.97843,  -0.00399,  -0.00196,  -0.00015,452579423.62337,   0.00238,277204841.90695,  -0.00251,  -0.00120,  -0.00095,-24625418.28358,   0.00000
-483914775.75373,-373396851.87239,62239768.41046,  -0.00399,  -0.00196,  -0.00014,452247533.60895,   0.00238,277204841.90695,  -0.00251,  -0.00120,  -0.00095,-24957308.29800,   0.00000
-483468859.31448,-372622103.19862,62723052.14909,  -0.00399,  -0.00195,  -0.00014,451930006.02184,   0.00238,277204841.90695,  -0.00251,  -0.00120,  -0.00095,-25274835.88511,   0.00000
-483005504.80220,-371839881.06497,63206335.88771,  -0.00399,  -0.00195,  -0.00013,451601182.51540,   0.00238,277204841.90695,  -0.00251,  -0.00120,  -0.00095,-25603659.39155,   0.00000
-482542150.28991,-371057658.93132,63694601.93292,  -0.00398,  -0.00195,  -0.00012,451276810.15306,   0.00238,277204841.90695,  -0.00251,  -0.00120,  -0.00095,-25928031.75389,   0.00000
-482088760.39079,-370265472.18451,64177885.67154,  -0.00398,  -0.00195,  -0.00012,450956398.46221,   0.00238,277204841.90695,  -0.00251,  -0.00120,  -0.00095,-26248443.44474,   0.00000
-481625405.87850,-369483250.05086,64671134.02333,  -0.00398,  -0.00194,  -0.00011,450638935.41539,   0.00238,277204841.90695,  -0.00251,  -0.00120,  -0.00095,-26565906.49156,   0.00000
-481169524.82609,-368718465.99025,65159400.06854,  -0.00398,  -0.00194,  -0.00011,450331624.42839,   0.00238,277204841.90695,  -0.00251,  -0.00120,  -0.00095,-26873217.47856,   0.00000
-480706170.31380,-367936243.85660,65652648.42033,  -0.00398,  -0.00194,  -0.00010,450018988.21152,   0.00238,277204841.90695,  -0.00251,  -0.00120,  -0.00095,-27185853.69543,   0.00000
-480225377.72847,-367146548.26308,66145896.77212,  -0.00398,  -0.00193,  -0.00009,449695175.06191,   0.00238,277204841.90695,  -0.00251,  -0.00120,  -0.00095,-27509666.84503,   0.00000
-479769496.67605,-366381764.20248,66639145.12391,  -0.00398,  -0.00193,  -0.00009,449397262.41572,   0.00238,277204841.90695,  -0.00251,  -0.00120,  -0.00095,-27807579.49123,   0.00000
-479288704.09072,-365592068.60895,67137375.78229,  -0.00398,  -0.00193,  -0.00008,449080566.70279,   0.00238,277204841.90695,  -0.00251,  -0.00120,  -0.00095,-28124275.20416,   0.00000
-478832823.03831,-364827284.54835,67635606.44066,  -0.00398,  -0.00193,  -0.00007,448789780.59205,   0.00238,277204841.90695,  -0.00251,  -0.00120,  -0.00095,-28415061.31490,   0.00000
-478359503.91285,-364055027.02787,68138819.40562,  -0.00398,  -0.00192,  -0.00007,448490124.40850,   0.00238,277204841.90695,  -0.00251,  -0.00120,  -0.00095,-28714717.49844,   0.00000
-477886184.78740,-363282769.50739,68637050.06399,  -0.00398,  -0.00192,  -0.00006,448190688.69979,   0.00238,277204841.90695,  -0.00251,  -0.00120,  -0.00095,-29014153.20716,   0.00000
-477430303.73499,-362517985.44678,69140263.02895,  -0.00398,  -0.00192,  -0.00005,447909634.53665,   0.00238,277204841.90695,  -0.00251,  -0.00120,  -0.00095,-29295207.37030,   0.00000
-476964458.06941,-361763165.99935,69648458.30049,  -0.00398,  -0.00192,  -0.00005,447629571.57215,   0.00238,277204841.90695,  -0.00251,  -0.00120,  -0.00095,-29575270.33480,   0.00000
-476491138.94395,-360990908.47886,70151671.26545,  -0.00398,  -0.00191,  -0.00004,447339963.91000,   0.00238,277204841.90695,  -0.00251,  -0.00120,  -0.00095,-29864877.99695,   0.00000
-476007855.20533,-360228615.57155,70664848.84358,  -0.00398,  -0.00191,  -0.00003,447053739.04960,   0.00238,277204841.90695,  -0.00251,  -0.00120,  -0.00095,-30151102.85735,   0.00000
-475534536.07987,-359456358.05107,71173044.11512,  -0.00398,  -0.00191,  -0.00003,446771599.93346,   0.00238,277204841.90695,  -0.00251,  -0.00120,  -0.00095,-30433241.97349,   0.00000
-475068690.41429,-358701538.60363,71686221.69324,  -0.00397,  -0.00191,  -0.00002,446504117.96142,   0.00238,277204841.90695,  -0.00251,  -0.00120,  -0.00095,-30700723.94553,   0.00000
-474610318.20859,-357964157.22924,72199399.27137,  -0.00397,  -0.00190,  -0.00001,446248887.06472,   0.00238,277204841.90695,  -0.00251,  -0.00120,  -0.00095,-30955954.84223,   0.00000
-474127034.46996,-357201864.32193,72712576.84950,  -0.00397,  -0.00190,  -0.00001,445972995.31309,   0.00238,277204841.90695,  -0.00251,  -0.00120,  -0.00095,-31231846.59386,   0.00000
-473668662.26426,-356464482.94753,73230736.73421,  -0.00397,  -0.00190,  -0.00000,445725360.32818,   0.00238,277204841.90695,  -0.00251,  -0.00120,  -0.00095,-31479481.57877,   0.00000
-473185378.52564,-355702190.04022,73748896.61891,  -0.00397,  -0.00190,   0.00001,445457152.00320,   0.00238,277204841.90695,  -0.00251,  -0.00120,  -0.00095,-31747689.90375,   0.00000
-472727006.31993,-354964808.66583,74267056.50362,  -0.00397,  -0.00189,   0.00001,445214749.97015,   0.00238,277204841.90695,  -0.00251,  -0.00120,  -0.00095,-31990091.93680,   0.00000
-472251196.04118,-354219953.83156,74790198.69492,  -0.00397,  -0.00189,   0.00002,444963922.64837,   0.00238,277204841.90695,  -0.00251,  -0.00120,  -0.00095,-32240919.25858,   0.00000
-471782859.22231,-353492537.07033,75313340.88621,  -0.00397,  -0.00189,   0.00003,444725328.84235,   0.00238,277204841.90695,  -0.00251,  -0.00120,  -0.00095,-32479513.06460,   0.00000
-471307048.94356,-352747682.23606,75836483.07750,  -0.00397,  -0.00189,   0.00003,444479818.51501,   0.00238,277204841.90695,  -0.00251,  -0.00120,  -0.00095,-32725023.39194,   0.00000
-470838712.12469,-352020265.47483,76364607.57538,  -0.00397,  -0.00188,   0.00004,444249087.30652,   0.00238,277204841.90695,  -0.00251,  -0.00120,  -0.00095,-32955754.60043,   0.00000
-470370375.30582,-351292848.71361,76892732.07326,  -0.00397,  -0.00188,   0.00005,444021039.10520,   0.00238,277204841.90695,  -0.00251,  -0.00120,  -0.00095,-33183802.80175,   0.00000
-469919476.55999,-350572905.41226,77420856.57113,  -0.00397,  -0.00188,   0.00005,443809201.51433,   0.00238,277204841.90695,  -0.00251,  -0.00120,  -0.00095,-33395640.39262,   0.00000
-469451139.74112,-349845488.65103,77953963.37559,  -0.00397,  -0.00188,   0.00006,443589152.67519,   0.00238,277204841.90695,  -0.00251,  -0.00120,  -0.00095,-33615689.23176,   0.00000
-468972838.30908,-349128036.50297,78487070.18006,  -0.00397,  -0.00187,   0.00007,443367796.85535,   0.00238,277204841.90695,  -0.00251,  -0.00120,  -0.00095,-33837045.05160,   0.00000
-468511974.95008,-348418057.81479,79020176.98452,  -0.00397,  -0.00187,   0.00007,443162663.61232,   0.00238,277204841.90695,  -0.00251,  -0.00120,  -0.00095,-34042178.29463,   0.00000
-468051111.59109,-347708079.12660,79558266.09556,  -0.00396,  -0.00187,   0.00008,442962923.41408,   0.00238,277204841.90695,  -0.00251,  -0.00120,  -0.00095,-34241918.49287,   0.00000
-467590248.23209,-346998100.43842,80096355.20660,  -0.00396,  -0.00187,   0.00009,442765934.07996,   0.00238,277204841.90695,  -0.00251,  -0.00120,  -0.00095,-34438907.82699,   0.00000
-467136858.33297,-346305559.82328,80634444.31765,  -0.00396,  -0.00187,   0.00010,442581105.30147,   0.00238,277204841.90695,  -0.00251,  -0.00120,  -0.00095,-34623736.60548,   0.00000
-466683468.43385,-345613019.20814,81172533.42869,  -0.00396,  -0.00186,   0.00010,442399001.76804,   0.00238,277204841.90695,  -0.00251,  -0.00120,  -0.00095,-34805840.13891,   0.00000
-466212640.46168,-344913005.13312,81715604.84632,  -0.00396,  -0.00186,   0.00011,442208915.11788,   0.00238,277204841.90695,  -0.00251,  -0.00120,  -0.00095,-34995926.78907,   0.00000
-465759250.56256,-344220464.51798,82263658.57053,  -0.00396,  -0.00186,   0.00012,442037861.11555,   0.00238,277204841.90695,  -0.00251,  -0.00120,  -0.00095,-35166980.79140,   0.00000
-465313334.12332,-343545361.97588,82806729.98816,  -0.00396,  -0.00186,   0.00012,441876159.61771,   0.00238,277204841.90695,  -0.00251,  -0.00120,  -0.00095,-35328682.28924,   0.00000
-464849979.61103,-342862785.97391,83354783.71237,  -0.00396,  -0.00185,   0.00013,441706570.45603,   0.00238,277204841.90695,  -0.00251,  -0.00120,  -0.00095,-35498271.45092,   0.00000
-464404063.17179,-342187683.43181,83902837.43659,  -0.00396,  -0.00185,   0.00014,441553227.16469,   0.00238,277204841.90695,  -0.00251,  -0.00120,  -0.00095,-35651614.74226,   0.00000
-463965620.19242,-341530018.96276,84455873.46738,  -0.00396,  -0.00185,   0.00015,441414824.40021,   0.00238,277204841.90695,  -0.00251,  -0.00120,  -0.00095,-35790017.50674,   0.00000
-463502265.68013,-340847442.96079,85008909.49818,  -0.00396,  -0.00185,   0.00015,441256514.60587,   0.00238,277204841.90695,  -0.00251,  -0.00120,  -0.00095,-35948327.30108,   0.00000
-463071296.16063,-340207216.56477,85561945.52897,  -0.00396,  -0.00185,   0.00016,441132993.96089,   0.00238,277204841.90695,  -0.00251,  -0.00120,  -0.00095,-36071847.94606,   0.00000
-462615415.10822,-339542078.63584,86114981.55977,  -0.00396,  -0.00184,   0.00017,440989587.12467,   0.00238,277204841.90695,  -0.00251,  -0.00120,  -0.00095,-36215254.78228,   0.00000
-462176972.12885,-338884414.16679,86672999.89715,  -0.00395,  -0.00184,   0.00017,440865346.81647,   0.00238,277204841.90695,  -0.00251,  -0.00120,  -0.00095,-36339495.09048,   0.00000
-461746002.60936,-338244187.77078,87231018.23453,  -0.00395,  -0.00184,   0.00018,440753163.91845,   0.00238,277204841.90695,  -0.00251,  -0.00120,  -0.00095,-36451677.98850,   0.00000
-461305068.47670,-337613925.98794,87789036.57191,  -0.00395,  -0.00184,   0.00019,440639601.94630,   0.00238,277204841.90695,  -0.00251,  -0.00120,  -0.00095,-36565239.96065,   0.00000
-460874098.95720,-336973699.59192,88352037.21587,  -0.00395,  -0.00184,   0.00020,440536044.58110,   0.00238,277204841.90695,  -0.00251,  -0.00120,  -0.00095,-36668797.32585,   0.00000
-460433164.82454,-336343437.80908,88915037.85983,  -0.00395,  -0.00183,   0.00020,440431136.23133,   0.00238,277204841.90695,  -0.00251,  -0.00120,  -0.00095,-36773705.67562,   0.00000
-460009668.76492,-335720649.48611,89483020.81038,  -0.00395,  -0.00183,   0.00021,440345475.87206,   0.00238,277204841.90695,  -0.00251,  -0.00120,  -0.00095,-36859366.03489,   0.00000
-459593646.16518,-335115299.23619,90046021.45434,  -0.00395,  -0.00183,   0.00022,440268757.75501,   0.00238,277204841.90695,  -0.00251,  -0.00120,  -0.00095,-36936084.15194,   0.00000
-459160185.49239,-334502475.52639,90614004.40489,  -0.00395,  -0.00183,   0.00023,440184571.22802,   0.00238,277204841.90695,  -0.00251,  -0.00120,  -0.00095,-37020270.67893,   0.00000
-458744162.89265,-333897125.27646,91186969.66202,  -0.00395,  -0.00183,   0.00023,440119677.28923,   0.00238,277204841.90695,  -0.00251,  -0.00120,  -0.00095,-37085164.61772,   0.00000
-458328140.29291,-333291775.02654,91754952.61257,  -0.00395,  -0.00182,   0.00024,440054548.94668,   0.00238,277204841.90695,  -0.00251,  -0.00120,  -0.00095,-37150292.96027,   0.00000
-457902153.08000,-332696389.38978,92327917.86970,  -0.00395,  -0.00182,   0.00025,439991147.11461,   0.00238,277204841.90695,  -0.00251,  -0.00120,  -0.00095,-37213694.79234,   0.00000
-457493603.94013,-332108477.21290,92900883.12683,  -0.00395,  -0.00182,   0.00026,439943924.15493,   0.00238,277204841.90695,  -0.00251,  -0.00120,  -0.00095,-37260917.75202,   0.00000
-457092528.26014,-331538003.10906,93478830.69054,  -0.00395,  -0.00182,   0.00026,439911761.83772,   0.00238,277204841.90695,  -0.00251,  -0.00120,  -0.00095,-37293080.06923,   0.00000
-456683979.12027,-330950090.93218,94056778.25426,  -0.00395,  -0.00182,   0.00027,439873445.05293,   0.00238,277204841.90695,  -0.00251,  -0.00120,  -0.00095,-37331396.85402,   0.00000
-456272938.82711,-330389581.44151,94634725.81797,  -0.00394,  -0.00181,   0.00028,439842743.42176,   0.00238,277204841.90695,  -0.00251,  -0.00120,  -0.00095,-37362098.48519,   0.00000
-455871863.14712,-329819107.33767,95212673.38169,  -0.00394,  -0.00181,   0.00029,439819176.17149,   0.00238,277204841.90695,  -0.00251,  -0.00120,  -0.00095,-37385665.73546,   0.00000
-455478260.92701,-329266071.30687,95795603.25198,  -0.00394,  -0.00181,   0.00029,439810694.68246,   0.00238,277204841.90695,  -0.00251,  -0.00120,  -0.00095,-37394147.22449,   0.00000
-455084658.70689,-328713035.27608,96378533.12228,  -0.00394,  -0.00181,   0.00030,439805083.66783,   0.00238,277204841.90695,  -0.00251,  -0.00120,  -0.00095,-37399758.23912,   0.00000
-454698529.94665,-328177437.31832,96966445.29916,  -0.00394,  -0.00181,   0.00031,439814574.26060,   0.00238,277204841.90695,  -0.00251,  -0.00120,  -0.00095,-37390267.64635,   0.00000
-454312401.18641,-327641839.36057,97549375.16946,  -0.00394,  -0.00181,   0.00032,439823628.04898,   0.00238,277204841.90695,  -0.00251,  -0.00120,  -0.00095,-37381213.85797,   0.00000
-453926272.42617,-327106241.40282,98137287.34634,  -0.00394,  -0.00180,   0.00032,439838855.28586,   0.00238,277204841.90695,  -0.00251,  -0.00120,  -0.00095,-37365986.62109,   0.00000
-453547617.12581,-326588081.51811,98730181.82981,  -0.00394,  -0.00180,   0.00033,439869203.56896,   0.00238,277204841.90695,  -0.00251,  -0.00120,  -0.00095,-37335638.33799,   0.00000
-453186399.89848,-326077395.09328,99318094.00669,  -0.00394,  -0.00180,   0.00034,439912254.05134,   0.00238,277204841.90695,  -0.00251,  -0.00120,  -0.00095,-37292587.85561,   0.00000
-452807744.59812,-325559235.20857,99910988.49016,  -0.00394,  -0.00180,   0.00035,439948341.32314,   0.00238,277204841.90695,  -0.00251,  -0.00120,  -0.00095,-37256500.58381,   0.00000
-452436562.75763,-325058513.39690,100503882.97362,  -0.00394,  -0.00180,   0.00035,439996153.88509,   0.00238,277204841.90695,  -0.00251,  -0.00120,  -0.00095,-37208688.02186,   0.00000
-452065380.91714,-324557791.58523,101101759.76367,  -0.00394,  -0.00180,   0.00036,440050252.24601,   0.00238,277204841.90695,  -0.00251,  -0.00120,  -0.00095,-37154589.66094,   0.00000
-451719110.60957,-324081981.30649,101699636.55372,  -0.00394,  -0.00179,   0.00037,440129196.21693,   0.00238,277204841.90695,  -0.00251,  -0.00120,  -0.00095,-37075645.69002,   0.00000
-451355402.22896,-323598697.56786,102297513.34377,  -0.00394,  -0.00179,   0.00038,440197841.42625,   0.00238,277204841.90695,  -0.00251,  -0.00120,  -0.00095,-37007000.48070,   0.00000
-451009131.92139,-323122887.28912,102895390.13382,  -0.00393,  -0.00179,   0.00039,440282464.33252,   0.00238,277204841.90695,  -0.00251,  -0.00120,  -0.00095,-36922377.57443,   0.00000
-450670335.07369,-322664515.08341,103498249.23045,  -0.00393,  -0.00179,   0.00039,440382195.21425,   0.00238,277204841.90695,  -0.00251,  -0.00120,  -0.00095,-36822646.69270,   0.00000
-450314100.15296,-322198669.41783,104101108.32709,  -0.00393,  -0.00179,   0.00040,440471667.35966,   0.00238,277204841.90695,  -0.00251,  -0.00120,  -0.00095,-36733174.54729,   0.00000
-449982776.76514,-321757735.28517,104703967.42372,  -0.00393,  -0.00179,   0.00041,440585817.76383,   0.00238,277204841.90695,  -0.00251,  -0.00120,  -0.00095,-36619024.14312,   0.00000
-449651453.37732,-321316801.15251,105311808.82694,  -0.00393,  -0.00179,   0.00042,440706343.07852,   0.00238,277204841.90695,  -0.00251,  -0.00120,  -0.00095,-36498498.82843,   0.00000
-449320129.98950,-320875867.01985,105914667.92357,  -0.00393,  -0.00178,   0.00042,440826117.20921,   0.00238,277204841.90695,  -0.00251,  -0.00120,  -0.00095,-36378724.69774,   0.00000
-448996280.06156,-320452370.96023,106527491.63337,  -0.00393,  -0.00178,   0.00043,440964600.03745,   0.00238,277204841.90695,  -0.00251,  -0.00120,  -0.00095,-36240241.86950,   0.00000
-448672430.13361,-320028874.90061,107135333.03659,  -0.00393,  -0.00178,   0.00044,441102296.60720,   0.00238,277204841.90695,  -0.00251,  -0.00120,  -0.00095,-36102545.29975,   0.00000
-448356053.66554,-319622816.91403,107748156.74639,  -0.00393,  -0.00178,   0.00045,441255104.15665,   0.00238,277204841.90695,  -0.00251,  -0.00120,  -0.00095,-35949737.75030,   0.00000
-448039677.19748,-319216758.92746,108360980.45619,  -0.00393,  -0.00178,   0.00046,441410720.47897,   0.00238,277204841.90695,  -0.00251,  -0.00120,  -0.00095,-35794121.42798,   0.00000
-447740738.80245,-318818174.40076,108973804.16599,  -0.00393,  -0.00178,   0.00046,441582135.67237,   0.00238,277204841.90695,  -0.00251,  -0.00120,  -0.00095,-35622706.23458,   0.00000
-447431835.79426,-318429554.48723,109586627.87579,  -0.00393,  -0.00178,   0.00047,441751961.79004,   0.00238,277204841.90695,  -0.00251,  -0.00120,  -0.00095,-35452880.11691,   0.00000
-447140370.85911,-318048408.03357,110204433.89217,  -0.00393,  -0.00178,   0.00048,441941251.45082,   0.00238,277204841.90695,  -0.00251,  -0.00120,  -0.00095,-35263590.45613,   0.00000
-446856379.38384,-317684699.65296,110822239.90856,  -0.00393,  -0.00177,   0.00049,442141904.92658,   0.00238,277204841.90695,  -0.00251,  -0.00120,  -0.00095,-35062936.98036,   0.00000
-446554949.83552,-317313517.81247,111445028.23153,  -0.00393,  -0.00177,   0.00050,442336130.93758,   0.00238,277204841.90695,  -0.00251,  -0.00120,  -0.00095,-34868710.96937,   0.00000
-446278431.82012,-316967247.50490,112062834.24791,  -0.00393,  -0.00177,   0.00050,442550861.48697,   0.00238,277204841.90695,  -0.00251,  -0.00120,  -0.00095,-34653980.41998,   0.00000
-446001913.80473,-316620977.19733,112685622.57088,  -0.00392,  -0.00177,   0.00051,442772105.19713,   0.00238,277204841.90695,  -0.00251,  -0.00120,  -0.00095,-34432736.70982,   0.00000
-445742833.86237,-316282180.34963,113313393.20043,  -0.00392,  -0.00177,   0.00052,443012811.79323,   0.00238,277204841.90695,  -0.00251,  -0.00120,  -0.00095,-34192030.11372,   0.00000
-445473789.30685,-315953348.11511,113936181.52340,  -0.00392,  -0.00177,   0.00053,443248057.29515,   0.00238,277204841.90695,  -0.00251,  -0.00120,  -0.00095,-33956784.61180,   0.00000
-445204744.75133,-315624515.88058,114563952.15295,  -0.00392,  -0.00177,   0.00054,443489870.39478,   0.00238,277204841.90695,  -0.00251,  -0.00120,  -0.00095,-33714971.51217,   0.00000
-444960611.72872,-315320595.17897,115191722.78250,  -0.00392,  -0.00177,   0.00055,443755763.68687,   0.00238,277204841.90695,  -0.00251,  -0.00120,  -0.00095,-33449078.22007,   0.00000
-444699040.63308,-315009201.01749,115819493.41205,  -0.00392,  -0.00177,   0.00055,444011496.63636,   0.00238,277204841.90695,  -0.00251,  -0.00120,  -0.00095,-33193345.27059,   0.00000
-444462381.07035,-314722718.38892,116452246.34819,  -0.00392,  -0.00177,   0.00056,444295133.78314,   0.00238,277204841.90695,  -0.00251,  -0.00120,  -0.00095,-32909708.12381,   0.00000
-444225721.50762,-314436235.76036,117084999.28432,  -0.00392,  -0.00177,   0.00057,444581449.77220,   0.00238,277204841.90695,  -0.00251,  -0.00120,  -0.00095,-32623392.13475,   0.00000
-443989061.94489,-314149753.13179,117717752.22046,  -0.00392,  -0.00176,   0.00058,444870439.43128,   0.00238,277204841.90695,  -0.00251,  -0.00120,  -0.00095,-32334402.47567,   0.00000
-443759875.84204,-313880708.57627,118350505.15659,  -0.00392,  -0.00176,   0.00059,445170516.28464,   0.00238,277204841.90695,  -0.00251,  -0.00120,  -0.00095,-32034325.62231,   0.00000
-443538163.19906,-313629102.09379,118988240.39931,  -0.00392,  -0.00176,   0.00059,445485627.24928,   0.00238,277204841.90695,  -0.00251,  -0.00120,  -0.00095,-31719214.65767,   0.00000
-443333888.62913,-313384969.07119,119625975.64203,  -0.00392,  -0.00176,   0.00060,445816128.93148,   0.00238,277204841.90695,  -0.00251,  -0.00120,  -0.00095,-31388712.97547,   0.00000
-443112175.98615,-313133362.58871,120263710.88475,  -0.00392,  -0.00176,   0.00061,446136501.61141,   0.00238,277204841.90695,  -0.00251,  -0.00120,  -0.00095,-31068340.29554,   0.00000
-442915374.87610,-312906667.63915,120901446.12747,  -0.00392,  -0.00176,   0.00062,446480589.70485,   0.00238,277204841.90695,  -0.00251,  -0.00120,  -0.00095,-30724252.20210,   0.00000
-442718573.76604,-312679972.68959,121544163.67678,  -0.00392,  -0.00176,   0.00063,446831311.00665,   0.00238,277204841.90695,  -0.00251,  -0.00120,  -0.00095,-30373530.90030,   0.00000
-442511808.04281,-312463242.35319,122186881.22608,  -0.00392,  -0.00176,   0.00064,447180283.09601,   0.00238,277204841.90695,  -0.00251,  -0.00120,  -0.00095,-30024558.81094,   0.00000
-442339918.46567,-312261458.93655,122829598.77538,  -0.00392,  -0.00176,   0.00064,447557197.37861,   0.00238,277204841.90695,  -0.00251,  -0.00120,  -0.00095,-29647644.52834,   0.00000
-442158064.27537,-312069640.13308,123472316.32468,  -0.00392,  -0.00176,   0.00065,447932299.33989,   0.00238,277204841.90695,  -0.00251,  -0.00120,  -0.00095,-29272542.56706,   0.00000
-441976210.08506,-311877821.32960,124120016.18057,  -0.00392,  -0.00176,   0.00066,448314067.91178,   0.00238,277204841.90695,  -0.00251,  -0.00120,  -0.00095,-28890773.99517,   0.00000
-441811793.96780,-311693475.98601,124767716.03646,  -0.00392,  -0.00176,   0.00067,448711019.88107,   0.00238,277204841.90695,  -0.00251,  -0.00120,  -0.00095,-28493822.02588,   0.00000
-441654851.31041,-311526568.71545,125415415.89234,  -0.00391,  -0.00176,   0.00068,449118770.42351,   0.00238,277204841.90695,  -0.00251,  -0.00120,  -0.00095,-28086071.48344,   0.00000
-441487944.03985,-311369626.05806,126068098.05482,  -0.00391,  -0.00176,   0.00069,449528874.22358,   0.00238,277204841.90695,  -0.00251,  -0.00120,  -0.00095,-27675967.68337,   0.00000
-441338474.84234,-311220156.86055,126715797.91070,  -0.00391,  -0.00176,   0.00069,449949870.94551,   0.00238,277204841.90695,  -0.00251,  -0.00120,  -0.00095,-27254970.96144,   0.00000
-441206443.71787,-311078161.12291,127368480.07317,  -0.00391,  -0.00176,   0.00070,450390106.75957,   0.00238,277204841.90695,  -0.00251,  -0.00120,  -0.00095,-26814735.14738,   0.00000
-441064447.98023,-310946129.99844,128021162.23564,  -0.00391,  -0.00176,   0.00071,450828474.91508,   0.00238,277204841.90695,  -0.00251,  -0.00120,  -0.00095,-26376366.99187,   0.00000
-440947363.77552,-310839010.40689,128678826.70470,  -0.00391,  -0.00176,   0.00072,451294302.13564,   0.00238,277204841.90695,  -0.00251,  -0.00120,  -0.00095,-25910539.77131,   0.00000
-440805368.03788,-310706979.28242,129331508.86717,  -0.00391,  -0.00175,   0.00073,451737548.43810,   0.00238,277204841.90695,  -0.00251,  -0.00120,  -0.00095,-25467293.46885,   0.00000
-440695757.29304,-310617297.76392,129989173.33622,  -0.00391,  -0.00175,   0.00074,452216415.50673,   0.00238,277204841.90695,  -0.00251,  -0.00120,  -0.00095,-24988426.40022,   0.00000
-440586146.54820,-310527616.24541,130646837.80528,  -0.00391,  -0.00175,   0.00075,452697664.92488,   0.00238,277204841.90695,  -0.00251,  -0.00120,  -0.00095,-24507176.98207,   0.00000
-440476535.80335,-310437934.72690,131309484.58091,  -0.00391,  -0.00175,   0.00075,453185619.87677,   0.00238,277204841.90695,  -0.00251,  -0.00120,  -0.00095,-24019222.03018,   0.00000
-440391836.59143,-310373164.74131,131967149.04997,  -0.00391,  -0.00175,   0.00076,453692239.69991,   0.00238,277204841.90695,  -0.00251,  -0.00120,  -0.00095,-23512602.20704,   0.00000
-440307137.37951,-310308394.75572,132629795.82561,  -0.00391,  -0.00175,   0.00077,454205528.70448,   0.00238,277204841.90695,  -0.00251,  -0.00120,  -0.00095,-22999313.20247,   0.00000
-440212473.55441,-310253589.38330,133292442.60124,  -0.00391,  -0.00175,   0.00078,454716876.03428,   0.00238,277204841.90695,  -0.00251,  -0.00120,  -0.00095,-22487965.87267,   0.00000
-440135247.80237,-310206257.47076,133955089.37688,  -0.00391,  -0.00175,   0.00079,455242955.39880,   0.00238,277204841.90695,  -0.00251,  -0.00120,  -0.00095,-21961886.50815,   0.00000
-440058022.05032,-310158925.55821,134622718.45910,  -0.00391,  -0.00175,   0.00080,455775742.60575,   0.00238,277204841.90695,  -0.00251,  -0.00120,  -0.00095,-21429099.30120,   0.00000
-440013181.29106,-310153943.25163,135290347.54133,  -0.00391,  -0.00175,   0.00081,456339434.38833,   0.00238,277204841.90695,  -0.00251,  -0.00120,  -0.00095,-20865407.51862,   0.00000
-439943428.99889,-310124049.41213,135957976.62355,  -0.00391,  -0.00175,   0.00082,456884912.48059,   0.00238,277204841.90695,  -0.00251,  -0.00120,  -0.00095,-20319929.42636,   0.00000
