# sigma_xx, sigma_yy, sigma_xy, epsilon_xx, epsilon_yy, epsilon_xy, vonMises, epsPlastic, hardening, epsilonP__xx, epsilonP__yy, epsilonP__xy, yieldValue, iteration
   0.00000,   0.00000,   0.00000,   0.00000,   0.00000,   0.00000,   0.00000,   0.00000,274640135.82653,   0.00000,   0.00000,   0.00000,-474640135.82653,   0.00000
   0.00000,   0.00000,   0.00000,   0.00000,   0.00000,   0.00000,   0.00000,   0.00000,274640135.82653,   0.00000,   0.00000,   0.00000,-474640135.82653,   0.00000
-1128609.97645,-647375.26568,-973927.39085,  -0.00000,  -0.00000,  -0.00001,1951364.83471,   0.00000,274640135.82653,   0.00000,   0.00000,   0.00000,-472688770.99182,   0.00000
-2208523.58337,-1257512.13113,-1942125.79704,  -0.00001,  -0.00000,  -0.00003,3872625.18389,   0.00000,274640135.82653,   0.00000,   0.00000,   0.00000,-470767510.64264,   0.00000
-3317082.11354,-1896293.91983,-2910324.20324,  -0.00001,  -0.00000,  -0.00004,5806785.91294,   0.00000,274640135.82653,   0.00000,   0.00000,   0.00000,-468833349.91358,   0.00000
-4385537.75114,-2517888.75458,-3878522.60944,  -0.00002,  -0.00000,  -0.00005,7723938.23490,   0.00000,274640135.82653,   0.00000,   0.00000,   0.00000,-466916197.59163,   0.00000
-5453993.38875,-3139483.58932,-4840992.03098,  -0.00002,  -0.00000,  -0.00006,9632512.12737,   0.00000,274640135.82653,   0.00000,   0.00000,   0.00000,-465007623.69915,   0.00000
-6510991.05705,-3772536.39338,-5797732.46787,  -0.00002,  -0.00000,  -0.00008,11528364.58358,   0.00000,274640135.82653,   0.00000,   0.00000,   0.00000,-463111771.24295,   0.00000
-7539343.80210,-4376944.27417,-6754472.90477,  -0.00003,  -0.00001,  -0.00009,13411516.36183,   0.00000,274640135.82653,   0.00000,   0.00000,   0.00000,-461228619.46470,   0.00000
-8576290.02412,-5001403.60124,-7711213.34166,  -0.00003,  -0.00001,  -0.00010,15299076.25807,   0.00000,274640135.82653,   0.00000,   0.00000,   0.00000,-459341059.56846,   0.00000
-9593184.79986,-5617269.45134,-8662224.79390,  -0.00003,  -0.00001,  -0.00011,17169677.39697,   0.00000,274640135.82653,   0.00000,   0.00000,   0.00000,-457470458.42956,   0.00000
-10590028.12931,-6224541.82445,-9613236.24614,  -0.00004,  -0.00001,  -0.00012,19032038.17418,   0.00000,274640135.82653,   0.00000,   0.00000,   0.00000,-455608097.65235,   0.00000
-11566820.01249,-6823220.72059,-10558518.71373,  -0.00004,  -0.00001,  -0.00014,20877539.42655,   0.00000,274640135.82653,   0.00000,   0.00000,   0.00000,-453762596.39998,   0.00000
-12543611.89566,-7421899.61673,-11498072.19666,  -0.00004,  -0.00001,  -0.00015,22714452.61740,   0.00000,274640135.82653,   0.00000,   0.00000,   0.00000,-451925683.20913,   0.00000
-13500352.33256,-8011985.03589,-12443354.66425,  -0.00005,  -0.00001,  -0.00016,24551945.38834,   0.00000,274640135.82653,   0.00000,   0.00000,   0.00000,-450088190.43819,   0.00000
-14445634.80014,-8613528.42436,-13377179.16254,  -0.00005,  -0.00001,  -0.00017,26368316.55183,   0.00000,274640135.82653,   0.00000,   0.00000,   0.00000,-448271819.27470,   0.00000
-15370865.82145,-9206478.33584,-14316732.64547,  -0.00005,  -0.00001,  -0.00019,28185416.74673,   0.00000,274640135.82653,   0.00000,   0.00000,   0.00000,-446454719.07980,   0.00000
-16296096.84276,-9799428.24733,-15244828.15911,  -0.00006,  -0.00001,  -0.00020,29985221.21584,   0.00000,274640135.82653,   0.00000,   0.00000,   0.00000,-444654914.61069,   0.00000
-17201276.41778,-10383784.68184,-16178652.65739,  -0.00006,  -0.00001,  -0.00021,31785829.38308,   0.00000,274640135.82653,   0.00000,   0.00000,   0.00000,-442854306.44345,   0.00000
-18086404.54652,-10959547.63937,-17106748.17102,  -0.00006,  -0.00001,  -0.00022,33569828.72443,   0.00000,274640135.82653,   0.00000,   0.00000,   0.00000,-441070307.10210,   0.00000
-18971532.67526,-11535310.59690,-18029114.70000,  -0.00006,  -0.00002,  -0.00023,35345252.17486,   0.00000,274640135.82653,   0.00000,   0.00000,   0.00000,-439294883.65167,   0.00000
-19825151.38842,-12113938.04676,-18951481.22898,  -0.00007,  -0.00002,  -0.00025,37109289.79656,   0.00000,274640135.82653,   0.00000,   0.00000,   0.00000,-437530846.02997,   0.00000
-20670176.62460,-12672514.05033,-19868118.77331,  -0.00007,  -0.00002,  -0.00026,38860418.69462,   0.00000,274640135.82653,   0.00000,   0.00000,   0.00000,-435779717.13191,   0.00000
-21503743.89147,-13242548.02321,-20784756.31764,  -0.00007,  -0.00002,  -0.00027,40608250.44109,   0.00000,274640135.82653,   0.00000,   0.00000,   0.00000,-434031885.38544,   0.00000
-22337311.15834,-13812581.99609,-21701393.86197,  -0.00007,  -0.00002,  -0.00028,42356326.98775,   0.00000,274640135.82653,   0.00000,   0.00000,   0.00000,-432283808.83878,   0.00000
-23130775.53265,-14365429.01502,-22612302.42164,  -0.00008,  -0.00002,  -0.00029,44080193.69257,   0.00000,274640135.82653,   0.00000,   0.00000,   0.00000,-430559942.13396,   0.00000
-23924239.90696,-14918276.03394,-23517481.99667,  -0.00008,  -0.00002,  -0.00031,45795542.12483,   0.00000,274640135.82653,   0.00000,   0.00000,   0.00000,-428844593.70170,   0.00000
-24706246.31197,-15482581.02217,-24428390.55634,  -0.00008,  -0.00002,  -0.00032,47516641.89709,   0.00000,274640135.82653,   0.00000,   0.00000,   0.00000,-427123493.92944,   0.00000
-25479659.23999,-16026834.56411,-25327841.14671,  -0.00008,  -0.00002,  -0.00033,49215981.03464,   0.00000,274640135.82653,   0.00000,   0.00000,   0.00000,-425424154.79189,   0.00000
-26221562.75243,-16573952.59838,-26227291.73709,  -0.00009,  -0.00002,  -0.00034,50904654.16232,   0.00000,274640135.82653,   0.00000,   0.00000,   0.00000,-423735481.66421,   0.00000
-26963466.26487,-17121070.63265,-27126742.32746,  -0.00009,  -0.00003,  -0.00035,52593693.63435,   0.00000,274640135.82653,   0.00000,   0.00000,   0.00000,-422046442.19218,   0.00000
-27685318.33103,-17659595.18994,-28020463.93318,  -0.00009,  -0.00003,  -0.00036,54266618.06326,   0.00000,274640135.82653,   0.00000,   0.00000,   0.00000,-420373517.76327,   0.00000
-28387118.95091,-18189526.27026,-28914185.53890,  -0.00009,  -0.00003,  -0.00038,55932365.57225,   0.00000,274640135.82653,   0.00000,   0.00000,   0.00000,-418707770.25428,   0.00000
-29068868.12450,-18710863.87360,-29802178.15996,  -0.00010,  -0.00003,  -0.00039,57582127.05114,   0.00000,274640135.82653,   0.00000,   0.00000,   0.00000,-417058008.77539,   0.00000
-29759210.77507,-19252252.92321,-30690170.78103,  -0.00010,  -0.00003,  -0.00040,59236709.59502,   0.00000,274640135.82653,   0.00000,   0.00000,   0.00000,-415403426.23151,   0.00000
-30429501.97936,-19785048.49586,-31572434.41745,  -0.00010,  -0.00003,  -0.00041,60875359.60848,   0.00000,274640135.82653,   0.00000,   0.00000,   0.00000,-413764776.21805,   0.00000
-31071148.26039,-20289199.14524,-32454698.05386,  -0.00010,  -0.00003,  -0.00042,62502651.29377,   0.00000,274640135.82653,   0.00000,   0.00000,   0.00000,-412137484.53276,   0.00000
-31701336.57212,-20804807.76392,-33336961.69028,  -0.00010,  -0.00003,  -0.00043,64127479.27003,   0.00000,274640135.82653,   0.00000,   0.00000,   0.00000,-410512656.55650,   0.00000
-32340118.36082,-21340467.82889,-34213496.34204,  -0.00011,  -0.00003,  -0.00044,65748274.22167,   0.00000,274640135.82653,   0.00000,   0.00000,   0.00000,-408891861.60486,   0.00000
-32930203.77998,-21838889.49362,-35084302.00915,  -0.00011,  -0.00004,  -0.00046,67341674.14284,   0.00000,274640135.82653,   0.00000,   0.00000,   0.00000,-407298461.68368,   0.00000
-33520289.19915,-22337311.15834,-35955107.67627,  -0.00011,  -0.00004,  -0.00047,68935632.52670,   0.00000,274640135.82653,   0.00000,   0.00000,   0.00000,-405704503.29983,   0.00000
-34098916.64900,-22847190.79238,-36820184.35873,  -0.00011,  -0.00004,  -0.00048,70518392.76301,   0.00000,274640135.82653,   0.00000,   0.00000,   0.00000,-404121743.06352,   0.00000
-34677544.09886,-23357070.42641,-37685261.04119,  -0.00011,  -0.00004,  -0.00049,72101703.60766,   0.00000,274640135.82653,   0.00000,   0.00000,   0.00000,-402538432.21886,   0.00000
-35216068.65615,-23849763.10648,-38550337.72365,  -0.00011,  -0.00004,  -0.00050,73671388.01910,   0.00000,274640135.82653,   0.00000,   0.00000,   0.00000,-400968747.80743,   0.00000
-35754593.21344,-24342455.78656,-39409685.42145,  -0.00012,  -0.00004,  -0.00051,75232714.95944,   0.00000,274640135.82653,   0.00000,   0.00000,   0.00000,-399407420.86709,   0.00000
-36273066.32446,-24826554.98966,-40269033.11926,  -0.00012,  -0.00004,  -0.00052,76787648.63287,   0.00000,274640135.82653,   0.00000,   0.00000,   0.00000,-397852487.19366,   0.00000
-36771487.98918,-25302060.71578,-41122651.83242,  -0.00012,  -0.00004,  -0.00053,78327260.03686,   0.00000,274640135.82653,   0.00000,   0.00000,   0.00000,-396312875.78967,   0.00000
-37258451.68461,-25789024.41120,-41976270.54557,  -0.00012,  -0.00004,  -0.00055,79865065.88455,   0.00000,274640135.82653,   0.00000,   0.00000,   0.00000,-394775069.94198,   0.00000
-37745415.38003,-26275988.10663,-42824160.27407,  -0.00012,  -0.00005,  -0.00056,81394545.00840,   0.00000,274640135.82653,   0.00000,   0.00000,   0.00000,-393245590.81813,   0.00000
-38203734.15220,-26734306.87879,-43666321.01793,  -0.00012,  -0.00005,  -0.00057,82904408.13637,   0.00000,274640135.82653,   0.00000,   0.00000,   0.00000,-391735727.69016,   0.00000
-38639136.98575,-27215541.58956,-44514210.74643,  -0.00012,  -0.00005,  -0.00058,84419360.61431,   0.00000,274640135.82653,   0.00000,   0.00000,   0.00000,-390220775.21222,   0.00000
-39085997.78861,-27685318.33103,-45356371.49028,  -0.00012,  -0.00005,  -0.00059,85928371.84220,   0.00000,274640135.82653,   0.00000,   0.00000,   0.00000,-388711763.98433,   0.00000
-39492755.69891,-28137908.11854,-46192803.24948,  -0.00012,  -0.00005,  -0.00060,87415681.14997,   0.00000,274640135.82653,   0.00000,   0.00000,   0.00000,-387224454.67656,   0.00000
-39888055.63990,-28601955.87536,-47029235.00868,  -0.00013,  -0.00005,  -0.00061,88901627.04791,   0.00000,274640135.82653,   0.00000,   0.00000,   0.00000,-385738508.77862,   0.00000
-40274762.10391,-29045952.18589,-47859937.78323,  -0.00013,  -0.00005,  -0.00062,90374918.64664,   0.00000,274640135.82653,   0.00000,   0.00000,   0.00000,-384265217.17989,   0.00000
-40650010.59862,-29501406.46573,-48690640.55777,  -0.00013,  -0.00005,  -0.00063,91846934.04462,   0.00000,274640135.82653,   0.00000,   0.00000,   0.00000,-382793201.78191,   0.00000
-41005207.64705,-29948267.26859,-49515614.34767,  -0.00013,  -0.00006,  -0.00064,93304228.42097,   0.00000,274640135.82653,   0.00000,   0.00000,   0.00000,-381335907.40556,   0.00000
-41368998.17245,-30415179.51773,-50340588.13756,  -0.00013,  -0.00006,  -0.00065,94766851.22506,   0.00000,274640135.82653,   0.00000,   0.00000,   0.00000,-379873284.60147,   0.00000
-41684092.32832,-30844853.36664,-51165561.92746,  -0.00013,  -0.00006,  -0.00067,96213164.37429,   0.00000,274640135.82653,   0.00000,   0.00000,   0.00000,-378426971.45224,   0.00000
-42007779.96116,-31294578.66182,-51984806.73270,  -0.00013,  -0.00006,  -0.00068,97655767.10872,   0.00000,274640135.82653,   0.00000,   0.00000,   0.00000,-376984368.71781,   0.00000
-42302822.67074,-31715659.03375,-52798322.55329,  -0.00013,  -0.00006,  -0.00069,99079455.62624,   0.00000,274640135.82653,   0.00000,   0.00000,   0.00000,-375560680.20029,   0.00000
-42586407.41101,-32148197.37498,-53611838.37388,  -0.00013,  -0.00006,  -0.00070,100502338.78463,   0.00000,274640135.82653,   0.00000,   0.00000,   0.00000,-374137797.04190,   0.00000
-42849940.70501,-32572142.23923,-54425354.19448,  -0.00013,  -0.00006,  -0.00071,101920091.45636,   0.00000,274640135.82653,   0.00000,   0.00000,   0.00000,-372720044.37017,   0.00000
-43122067.47598,-33016138.54976,-55233141.03042,  -0.00013,  -0.00007,  -0.00072,103334183.87958,   0.00000,274640135.82653,   0.00000,   0.00000,   0.00000,-371305951.94695,   0.00000
-43365549.32369,-33431489.93704,-56040927.86635,  -0.00013,  -0.00007,  -0.00073,104738804.89147,   0.00000,274640135.82653,   0.00000,   0.00000,   0.00000,-369901330.93506,   0.00000
-43577521.75582,-33849705.81664,-56842985.71764,  -0.00013,  -0.00007,  -0.00074,106127714.43166,   0.00000,274640135.82653,   0.00000,   0.00000,   0.00000,-368512421.39487,   0.00000
-43809545.63423,-34276515.17322,-57645043.56893,  -0.00013,  -0.00007,  -0.00075,107523813.03518,   0.00000,274640135.82653,   0.00000,   0.00000,   0.00000,-367116322.79135,   0.00000
-44001466.62007,-34686137.57584,-58441372.43556,  -0.00013,  -0.00007,  -0.00076,108899946.35619,   0.00000,274640135.82653,   0.00000,   0.00000,   0.00000,-365740189.47034,   0.00000
-44193387.60591,-35095759.97846,-59237701.30220,  -0.00013,  -0.00007,  -0.00077,110277301.01524,   0.00000,274640135.82653,   0.00000,   0.00000,   0.00000,-364362834.81129,   0.00000
-44345205.69919,-35488195.42712,-60028301.18418,  -0.00013,  -0.00007,  -0.00078,111634980.11934,   0.00000,274640135.82653,   0.00000,   0.00000,   0.00000,-363005155.70719,   0.00000
-44505617.26945,-35900682.32207,-60818901.06616,  -0.00013,  -0.00008,  -0.00079,112998420.84416,   0.00000,274640135.82653,   0.00000,   0.00000,   0.00000,-361641714.98237,   0.00000
-44637383.91645,-36284524.29376,-61603771.96349,  -0.00013,  -0.00008,  -0.00080,114343739.07387,   0.00000,274640135.82653,   0.00000,   0.00000,   0.00000,-360296396.75266,   0.00000
-44777744.04042,-36688417.71173,-62388642.86083,  -0.00013,  -0.00008,  -0.00081,115694814.28328,   0.00000,274640135.82653,   0.00000,   0.00000,   0.00000,-358945321.54325,   0.00000
-44878001.27183,-37075124.17574,-63173513.75816,  -0.00013,  -0.00008,  -0.00082,117035981.14488,   0.00000,274640135.82653,   0.00000,   0.00000,   0.00000,-357604154.68165,   0.00000
-44986851.98022,-37481882.08604,-63946926.68618,  -0.00013,  -0.00008,  -0.00083,118364457.30151,   0.00000,274640135.82653,   0.00000,   0.00000,   0.00000,-356275678.52502,   0.00000
-45067057.76535,-37859995.07307,-64726068.59886,  -0.00013,  -0.00008,  -0.00084,119693659.84211,   0.00000,274640135.82653,   0.00000,   0.00000,   0.00000,-354946475.98442,   0.00000
-45135805.58118,-38249566.02941,-65499481.52689,  -0.00013,  -0.00009,  -0.00085,121014013.70051,   0.00000,274640135.82653,   0.00000,   0.00000,   0.00000,-353626122.12602,   0.00000
-45204553.39700,-38639136.98575,-66267165.47026,  -0.00013,  -0.00009,  -0.00086,122326535.47832,   0.00000,274640135.82653,   0.00000,   0.00000,   0.00000,-352313600.34821,   0.00000
-45253249.76654,-39020114.46511,-67040578.39829,  -0.00013,  -0.00009,  -0.00087,123644475.88723,   0.00000,274640135.82653,   0.00000,   0.00000,   0.00000,-350995659.93930,   0.00000
-45261843.24352,-39383904.99052,-67802533.35701,  -0.00013,  -0.00009,  -0.00088,124934738.48771,   0.00000,274640135.82653,   0.00000,   0.00000,   0.00000,-349705397.33882,   0.00000
-45270436.72050,-39747695.51592,-68564488.31574,  -0.00013,  -0.00009,  -0.00089,126226634.98267,   0.00000,274640135.82653,   0.00000,   0.00000,   0.00000,-348413500.84386,   0.00000
-45287623.67446,-40131537.48761,-69326443.27446,  -0.00013,  -0.00009,  -0.00090,127524563.92101,   0.00000,274640135.82653,   0.00000,   0.00000,   0.00000,-347115571.90552,   0.00000
-45264707.73585,-40498192.50534,-70082669.24853,  -0.00013,  -0.00010,  -0.00091,128804503.42291,   0.00000,274640135.82653,   0.00000,   0.00000,   0.00000,-345835632.40362,   0.00000
-45241791.79724,-40864847.52307,-70838895.22260,  -0.00013,  -0.00010,  -0.00092,130086139.89860,   0.00000,274640135.82653,   0.00000,   0.00000,   0.00000,-344553995.92792,   0.00000
-45198824.41235,-41222909.06383,-71589392.21202,  -0.00013,  -0.00010,  -0.00093,131355084.26878,   0.00000,274640135.82653,   0.00000,   0.00000,   0.00000,-343285051.55775,   0.00000
-45135805.58118,-41572377.12760,-72339889.20144,  -0.00012,  -0.00010,  -0.00094,132620810.82150,   0.00000,274640135.82653,   0.00000,   0.00000,   0.00000,-342019325.00503,   0.00000
-45081380.22698,-41941896.63766,-73084657.20620,  -0.00012,  -0.00010,  -0.00095,133883368.28679,   0.00000,274640135.82653,   0.00000,   0.00000,   0.00000,-340756767.53974,   0.00000
-44986851.98022,-42294229.19376,-73829425.21097,  -0.00012,  -0.00010,  -0.00096,135138027.68567,   0.00000,274640135.82653,   0.00000,   0.00000,   0.00000,-339502108.14086,   0.00000
-44892323.73346,-42646561.74986,-74568464.23108,  -0.00012,  -0.00011,  -0.00097,136385168.82868,   0.00000,274640135.82653,   0.00000,   0.00000,   0.00000,-338254966.99785,   0.00000
-44797795.48671,-42998894.30596,-75307503.25120,  -0.00012,  -0.00011,  -0.00098,137634123.15454,   0.00000,274640135.82653,   0.00000,   0.00000,   0.00000,-337006012.67199,   0.00000
-44671757.82436,-43354091.35439,-76040813.28666,  -0.00012,  -0.00011,  -0.00099,138870643.29978,   0.00000,274640135.82653,   0.00000,   0.00000,   0.00000,-335769492.52675,   0.00000
-44537126.68504,-43689236.95653,-76774123.32212,  -0.00012,  -0.00011,  -0.00100,140104639.58677,   0.00000,274640135.82653,   0.00000,   0.00000,   0.00000,-334535496.23976,   0.00000
-44370986.13013,-44027247.05101,-77507433.35759,  -0.00012,  -0.00011,  -0.00101,141335972.78062,   0.00000,274640135.82653,   0.00000,   0.00000,   0.00000,-333304163.04591,   0.00000
-44224897.02150,-44373850.62245,-78235014.40840,  -0.00011,  -0.00012,  -0.00102,142564384.05102,   0.00000,274640135.82653,   0.00000,   0.00000,   0.00000,-332075751.77551,   0.00000
-44038705.02031,-44703267.23995,-78956866.47455,  -0.00011,  -0.00012,  -0.00103,143776479.06667,   0.00000,274640135.82653,   0.00000,   0.00000,   0.00000,-330863656.75986,   0.00000
-43861106.49610,-45052735.30372,-79678718.54071,  -0.00011,  -0.00012,  -0.00104,144995094.27971,   0.00000,274640135.82653,   0.00000,   0.00000,   0.00000,-329645041.54682,   0.00000
-43643405.07932,-45385016.41354,-80400570.60687,  -0.00011,  -0.00012,  -0.00105,146207199.30167,   0.00000,274640135.82653,   0.00000,   0.00000,   0.00000,-328432936.52486,   0.00000
-43445755.10882,-45725891.00034,-81116693.68838,  -0.00011,  -0.00012,  -0.00105,147416243.56569,   0.00000,274640135.82653,   0.00000,   0.00000,   0.00000,-327223892.26084,   0.00000
-43208002.24576,-46049578.63318,-81832816.76988,  -0.00011,  -0.00013,  -0.00106,148619024.87516,   0.00000,274640135.82653,   0.00000,   0.00000,   0.00000,-326021110.95137,   0.00000
-42970249.38270,-46373266.26602,-82543210.86674,  -0.00011,  -0.00013,  -0.00107,149814539.75039,   0.00000,274640135.82653,   0.00000,   0.00000,   0.00000,-324825596.07614,   0.00000
-42721038.55034,-46708411.86816,-83253604.96359,  -0.00010,  -0.00013,  -0.00108,151012645.92186,   0.00000,274640135.82653,   0.00000,   0.00000,   0.00000,-323627489.90467,   0.00000
-42451776.27169,-47034963.99333,-83958270.07579,  -0.00010,  -0.00013,  -0.00109,152199529.30428,   0.00000,274640135.82653,   0.00000,   0.00000,   0.00000,-322440606.52225,   0.00000
-42162462.54676,-47352922.64152,-84662935.18800,  -0.00010,  -0.00013,  -0.00110,153384792.22951,   0.00000,274640135.82653,   0.00000,   0.00000,   0.00000,-321255343.59702,   0.00000
-41873148.82183,-47670881.28971,-85361871.31555,  -0.00010,  -0.00014,  -0.00111,154562902.50884,   0.00000,274640135.82653,   0.00000,   0.00000,   0.00000,-320077233.31769,   0.00000
-41563783.65062,-47980246.46092,-86060807.44310,  -0.00010,  -0.00014,  -0.00112,155739523.92272,   0.00000,274640135.82653,   0.00000,   0.00000,   0.00000,-318900611.90381,   0.00000
-41242960.51011,-48301069.60143,-86754014.58599,  -0.00009,  -0.00014,  -0.00113,156909761.17015,   0.00000,274640135.82653,   0.00000,   0.00000,   0.00000,-317730374.65638,   0.00000
-40922137.36959,-48621892.74195,-87447221.72889,  -0.00009,  -0.00014,  -0.00114,158082408.16440,   0.00000,274640135.82653,   0.00000,   0.00000,   0.00000,-316557727.66213,   0.00000
-40581262.78280,-48934122.40549,-88134699.88714,  -0.00009,  -0.00014,  -0.00115,159244323.97058,   0.00000,274640135.82653,   0.00000,   0.00000,   0.00000,-315395811.85595,   0.00000
-40228930.22670,-49257810.03833,-88822178.04538,  -0.00009,  -0.00015,  -0.00115,160409624.43689,   0.00000,274640135.82653,   0.00000,   0.00000,   0.00000,-314230511.38964,   0.00000
-39847952.74733,-49552852.74791,-89509656.20363,  -0.00008,  -0.00015,  -0.00116,161569491.17916,   0.00000,274640135.82653,   0.00000,   0.00000,   0.00000,-313070644.64737,   0.00000
-39475568.74495,-49867946.90377,-90191405.37722,  -0.00008,  -0.00015,  -0.00117,162726875.16732,   0.00000,274640135.82653,   0.00000,   0.00000,   0.00000,-311913260.65920,   0.00000
-39091726.77326,-50194499.02894,-90867425.56617,  -0.00008,  -0.00015,  -0.00118,163878394.79440,   0.00000,274640135.82653,   0.00000,   0.00000,   0.00000,-310761741.03213,   0.00000
-38679239.87832,-50492406.23084,-91549174.73976,  -0.00008,  -0.00015,  -0.00119,165034278.19245,   0.00000,274640135.82653,   0.00000,   0.00000,   0.00000,-309605857.63408,   0.00000
-38275346.46035,-50810364.87903,-92219465.94405,  -0.00008,  -0.00016,  -0.00120,166178219.70191,   0.00000,274640135.82653,   0.00000,   0.00000,   0.00000,-308461916.12462,   0.00000
-37851401.59610,-51119730.05024,-92889757.14834,  -0.00007,  -0.00016,  -0.00121,167321615.22295,   0.00000,274640135.82653,   0.00000,   0.00000,   0.00000,-307318520.60358,   0.00000
-37407405.28556,-51420501.74448,-93560048.35263,  -0.00007,  -0.00016,  -0.00122,168464602.70439,   0.00000,274640135.82653,   0.00000,   0.00000,   0.00000,-306175533.12214,   0.00000
-36963408.97503,-51721273.43871,-94224610.57227,  -0.00007,  -0.00016,  -0.00122,169600769.03965,   0.00000,274640135.82653,   0.00000,   0.00000,   0.00000,-305039366.78688,   0.00000
-36507954.69519,-52033503.10225,-94889172.79191,  -0.00006,  -0.00017,  -0.00123,170741163.07038,   0.00000,274640135.82653,   0.00000,   0.00000,   0.00000,-303898972.75615,   0.00000
-36032448.96907,-52337139.28880,-95548006.02689,  -0.00006,  -0.00017,  -0.00124,171871878.42744,   0.00000,274640135.82653,   0.00000,   0.00000,   0.00000,-302768257.39909,   0.00000
-35556943.24295,-52640775.47536,-96206839.26188,  -0.00006,  -0.00017,  -0.00125,173005404.97877,   0.00000,274640135.82653,   0.00000,   0.00000,   0.00000,-301634730.84775,   0.00000
-35061386.07055,-52935818.18494,-96865672.49686,  -0.00006,  -0.00017,  -0.00126,174138950.28558,   0.00000,274640135.82653,   0.00000,   0.00000,   0.00000,-300501185.54095,   0.00000
-34554370.92884,-53242318.86383,-97518776.74720,  -0.00005,  -0.00017,  -0.00127,175267594.51753,   0.00000,274640135.82653,   0.00000,   0.00000,   0.00000,-299372541.30900,   0.00000
-34047355.78713,-53548819.54271,-98166152.01288,  -0.00005,  -0.00018,  -0.00128,176389577.36388,   0.00000,274640135.82653,   0.00000,   0.00000,   0.00000,-298250558.46265,   0.00000
-33520289.19915,-53846726.74462,-98813527.27856,  -0.00005,  -0.00018,  -0.00128,177511862.80328,   0.00000,274640135.82653,   0.00000,   0.00000,   0.00000,-297128273.02325,   0.00000
-32981764.64185,-54156091.91583,-99460902.54424,  -0.00004,  -0.00018,  -0.00129,178639102.71198,   0.00000,274640135.82653,   0.00000,   0.00000,   0.00000,-296001033.11455,   0.00000
-32434646.60758,-54445405.64076,-100102548.82527,  -0.00004,  -0.00018,  -0.00130,179755255.41282,   0.00000,274640135.82653,   0.00000,   0.00000,   0.00000,-294884880.41371,   0.00000
-31876070.60401,-54746177.33499,-100738466.12165,  -0.00004,  -0.00019,  -0.00131,180866941.32855,   0.00000,274640135.82653,   0.00000,   0.00000,   0.00000,-293773194.49798,   0.00000
-31306036.63113,-55058406.99853,-101374383.41803,  -0.00004,  -0.00019,  -0.00132,181983879.62831,   0.00000,274640135.82653,   0.00000,   0.00000,   0.00000,-292656256.19821,   0.00000
-30727409.18127,-55350585.21578,-102010300.71440,  -0.00003,  -0.00019,  -0.00133,183099386.21935,   0.00000,274640135.82653,   0.00000,   0.00000,   0.00000,-291540749.60718,   0.00000
-30137323.76211,-55654221.40234,-102640489.02613,  -0.00003,  -0.00019,  -0.00133,184210725.30361,   0.00000,274640135.82653,   0.00000,   0.00000,   0.00000,-290429410.52292,   0.00000
-29547238.34295,-55957857.58890,-103270677.33786,  -0.00003,  -0.00020,  -0.00134,185325171.94853,   0.00000,274640135.82653,   0.00000,   0.00000,   0.00000,-289314963.87800,   0.00000
-28937101.47751,-56252900.29848,-103900865.64958,  -0.00002,  -0.00020,  -0.00135,186440656.50433,   0.00000,274640135.82653,   0.00000,   0.00000,   0.00000,-288199479.32220,   0.00000
-28315506.64276,-56559400.97736,-104519595.99200,  -0.00002,  -0.00020,  -0.00136,187542697.80576,   0.00000,274640135.82653,   0.00000,   0.00000,   0.00000,-287097438.02077,   0.00000
-27693911.80801,-56865901.65625,-105144055.31908,  -0.00002,  -0.00020,  -0.00137,188657524.00548,   0.00000,274640135.82653,   0.00000,   0.00000,   0.00000,-285982611.82105,   0.00000
-27052265.52698,-57163808.85816,-105762785.66150,  -0.00001,  -0.00021,  -0.00137,189764106.37997,   0.00000,274640135.82653,   0.00000,   0.00000,   0.00000,-284876029.44656,   0.00000
-26399161.27665,-57473174.02937,-106375787.01927,  -0.00001,  -0.00021,  -0.00138,190867131.92885,   0.00000,274640135.82653,   0.00000,   0.00000,   0.00000,-283773003.89768,   0.00000
-25746057.02631,-57782539.20058,-106988788.37704,  -0.00000,  -0.00021,  -0.00139,191973464.97535,   0.00000,274640135.82653,   0.00000,   0.00000,   0.00000,-282666670.85117,   0.00000
-25092952.77598,-58091904.37179,-107601789.73481,  -0.00000,  -0.00022,  -0.00140,193083048.66531,   0.00000,274640135.82653,   0.00000,   0.00000,   0.00000,-281557087.16122,   0.00000
-24399745.63308,-58384082.58904,-108209062.10792,   0.00000,  -0.00022,  -0.00141,194183148.82955,   0.00000,274640135.82653,   0.00000,   0.00000,   0.00000,-280456986.99698,   0.00000
-23735183.41344,-58704905.72956,-108816334.48104,   0.00001,  -0.00022,  -0.00141,195292696.05721,   0.00000,274640135.82653,   0.00000,   0.00000,   0.00000,-279347439.76932,   0.00000
-23030518.30124,-59008541.91612,-109417877.86951,   0.00001,  -0.00022,  -0.00142,196393053.54355,   0.00000,274640135.82653,   0.00000,   0.00000,   0.00000,-278247082.28298,   0.00000
-22325853.18904,-59312178.10267,-110019421.25797,   0.00001,  -0.00023,  -0.00143,197496841.42557,   0.00000,274640135.82653,   0.00000,   0.00000,   0.00000,-277143294.40096,   0.00000
-21621188.07684,-59615814.28923,-110615235.66178,   0.00002,  -0.00023,  -0.00144,198594429.51819,   0.00000,274640135.82653,   0.00000,   0.00000,   0.00000,-276045706.30834,   0.00000
-20905064.99533,-59930908.44510,-111211050.06560,   0.00002,  -0.00023,  -0.00145,199698695.44721,   0.00000,274640135.82653,   0.00000,   0.00000,   0.00000,-274941440.37932,   0.00000
-20177483.94452,-60257460.57026,-111806864.46941,   0.00003,  -0.00023,  -0.00145,200809793.82729,   0.00000,274640135.82653,   0.00000,   0.00000,   0.00000,-273830341.99924,   0.00000
-19441309.41673,-60563961.24915,-112396949.88857,   0.00003,  -0.00024,  -0.00146,201910223.20982,   0.00000,274640135.82653,   0.00000,   0.00000,   0.00000,-272729912.61671,   0.00000
-18693676.91964,-60881919.89734,-112981306.32308,   0.00003,  -0.00024,  -0.00147,203008082.40502,   0.00000,274640135.82653,   0.00000,   0.00000,   0.00000,-271632053.42151,   0.00000
-17946044.42255,-61199878.54553,-113565662.75759,   0.00004,  -0.00024,  -0.00148,204109453.91648,   0.00000,274640135.82653,   0.00000,   0.00000,   0.00000,-270530681.91005,   0.00000
-17178360.47917,-61509243.71674,-114150019.19210,   0.00004,  -0.00025,  -0.00148,205213390.92432,   0.00000,274640135.82653,   0.00000,   0.00000,   0.00000,-269426744.90221,   0.00000
-16419270.01278,-61838660.33423,-114728646.64196,   0.00005,  -0.00025,  -0.00149,206315907.67392,   0.00000,274640135.82653,   0.00000,   0.00000,   0.00000,-268324228.15261,   0.00000
-15640128.10010,-62159483.47474,-115307274.09181,   0.00005,  -0.00025,  -0.00150,207421153.89735,   0.00000,274640135.82653,   0.00000,   0.00000,   0.00000,-267218981.92918,   0.00000
-14860986.18742,-62480306.61526,-115885901.54167,   0.00005,  -0.00026,  -0.00151,208529962.30753,   0.00000,274640135.82653,   0.00000,   0.00000,   0.00000,-266110173.51900,   0.00000
-14070386.30544,-62812587.72508,-116453071.02222,   0.00006,  -0.00026,  -0.00151,209627175.77855,   0.00000,274640135.82653,   0.00000,   0.00000,   0.00000,-265012960.04798,   0.00000
-13279786.42345,-63144868.83490,-117025969.48743,   0.00006,  -0.00026,  -0.00152,210737536.80629,   0.00000,274640135.82653,   0.00000,   0.00000,   0.00000,-263902599.02024,   0.00000
-12469135.09519,-63468556.46774,-117593138.96798,   0.00007,  -0.00026,  -0.00153,211841398.17858,   0.00000,274640135.82653,   0.00000,   0.00000,   0.00000,-262798737.64795,   0.00000
-11667077.24390,-63812295.54686,-118160308.44853,   0.00007,  -0.00027,  -0.00154,212953521.33993,   0.00000,274640135.82653,   0.00000,   0.00000,   0.00000,-261686614.48660,   0.00000
-10844967.94633,-64147441.14901,-118721748.94443,   0.00008,  -0.00027,  -0.00154,214059317.97027,   0.00000,274640135.82653,   0.00000,   0.00000,   0.00000,-260580817.85626,   0.00000
-10022858.64876,-64482586.75115,-119277460.45568,   0.00008,  -0.00027,  -0.00155,215159242.31966,   0.00000,274640135.82653,   0.00000,   0.00000,   0.00000,-259480893.50687,   0.00000
-9209342.82817,-64837783.79958,-119838900.95158,   0.00008,  -0.00028,  -0.00156,216276959.86394,   0.00000,274640135.82653,   0.00000,   0.00000,   0.00000,-258363175.96259,   0.00000
-8355724.11502,-65175793.89405,-120394612.46283,   0.00009,  -0.00028,  -0.00157,217388360.80314,   0.00000,274640135.82653,   0.00000,   0.00000,   0.00000,-257251775.02339,   0.00000
-7522156.84814,-65522397.46550,-120944594.98943,   0.00009,  -0.00028,  -0.00157,218494125.39916,   0.00000,274640135.82653,   0.00000,   0.00000,   0.00000,-256146010.42737,   0.00000
-6677131.61196,-65880459.00625,-121494577.51603,   0.00010,  -0.00029,  -0.00158,219608113.61921,   0.00000,274640135.82653,   0.00000,   0.00000,   0.00000,-255032022.20731,   0.00000
-5812054.92950,-66229927.07003,-122044560.04262,   0.00010,  -0.00029,  -0.00159,220725791.77815,   0.00000,274640135.82653,   0.00000,   0.00000,   0.00000,-253914344.04838,   0.00000
-4946978.24705,-66579395.13380,-122588813.58457,   0.00011,  -0.00029,  -0.00159,221837718.34147,   0.00000,274640135.82653,   0.00000,   0.00000,   0.00000,-252802417.48506,   0.00000
-4090495.04156,-66948914.64386,-123127338.14186,   0.00011,  -0.00030,  -0.00160,222948557.54633,   0.00000,274640135.82653,   0.00000,   0.00000,   0.00000,-251691578.28020,   0.00000
-3213960.38980,-67309840.67694,-123671591.68381,   0.00012,  -0.00030,  -0.00161,224072757.82741,   0.00000,274640135.82653,   0.00000,   0.00000,   0.00000,-250567377.99912,   0.00000
-2337425.73804,-67670766.71002,-124210116.24110,   0.00012,  -0.00030,  -0.00161,225191207.12022,   0.00000,274640135.82653,   0.00000,   0.00000,   0.00000,-249448928.70631,   0.00000
-1469484.56325,-68051744.18938,-124742911.81374,   0.00013,  -0.00031,  -0.00162,226308595.56769,   0.00000,274640135.82653,   0.00000,   0.00000,   0.00000,-248331540.25884,   0.00000
-581491.94218,-68424128.19176,-125275707.38638,   0.00013,  -0.00031,  -0.00163,227430033.10021,   0.00000,274640135.82653,   0.00000,   0.00000,   0.00000,-247210102.72632,   0.00000
326552.12517,-68787918.71717,-125808502.95902,   0.00014,  -0.00031,  -0.00164,228555650.74866,   0.00000,274640135.82653,   0.00000,   0.00000,   0.00000,-246084485.07787,   0.00000
1226002.71554,-69171760.68885,-126335569.54701,   0.00014,  -0.00032,  -0.00164,229680362.07782,   0.00000,274640135.82653,   0.00000,   0.00000,   0.00000,-244959773.74871,   0.00000
2125453.30591,-69555602.66054,-126862636.13500,   0.00015,  -0.00032,  -0.00165,230808842.85531,   0.00000,274640135.82653,   0.00000,   0.00000,   0.00000,-243831292.97122,   0.00000
3024903.89628,-69939444.63223,-127383973.73833,   0.00015,  -0.00032,  -0.00166,231931598.43739,   0.00000,274640135.82653,   0.00000,   0.00000,   0.00000,-242708537.38914,   0.00000
3935812.45596,-70334744.57322,-127905311.34167,   0.00016,  -0.00033,  -0.00166,233063504.83479,   0.00000,274640135.82653,   0.00000,   0.00000,   0.00000,-241576630.99174,   0.00000
4846721.01563,-70730044.51421,-128420919.96036,   0.00016,  -0.00033,  -0.00167,234189745.17506,   0.00000,274640135.82653,   0.00000,   0.00000,   0.00000,-240450390.65147,   0.00000
5769087.54461,-71136802.42451,-128936528.57904,   0.00016,  -0.00033,  -0.00168,235325320.94348,   0.00000,274640135.82653,   0.00000,   0.00000,   0.00000,-239314814.88305,   0.00000
6691454.07359,-71543560.33480,-129452137.19772,   0.00017,  -0.00034,  -0.00168,236464700.33901,   0.00000,274640135.82653,   0.00000,   0.00000,   0.00000,-238175435.48752,   0.00000
7613820.60257,-71950318.24510,-129962016.83176,   0.00017,  -0.00034,  -0.00169,237598427.67175,   0.00000,274640135.82653,   0.00000,   0.00000,   0.00000,-237041708.15478,   0.00000
8547645.10086,-72368534.12470,-130471896.46579,   0.00018,  -0.00035,  -0.00170,238741690.57044,   0.00000,274640135.82653,   0.00000,   0.00000,   0.00000,-235898445.25608,   0.00000
9481469.59914,-72786750.00430,-130981776.09982,   0.00019,  -0.00035,  -0.00170,239888748.40252,   0.00000,274640135.82653,   0.00000,   0.00000,   0.00000,-234751387.42401,   0.00000
10415294.09743,-73204965.88390,-131485926.74920,   0.00019,  -0.00035,  -0.00171,241030171.20178,   0.00000,274640135.82653,   0.00000,   0.00000,   0.00000,-233609964.62475,   0.00000
11360576.56502,-73634639.73280,-131984348.41393,   0.00020,  -0.00036,  -0.00172,242171962.68301,   0.00000,274640135.82653,   0.00000,   0.00000,   0.00000,-232468173.14352,   0.00000
12305859.03260,-74064313.58170,-132488499.06331,   0.00020,  -0.00036,  -0.00172,243326917.67926,   0.00000,274640135.82653,   0.00000,   0.00000,   0.00000,-231313218.14727,   0.00000
13242548.02321,-74514038.87689,-132981191.74339,   0.00021,  -0.00036,  -0.00173,244471787.49009,   0.00000,274640135.82653,   0.00000,   0.00000,   0.00000,-230168348.33644,   0.00000
14199288.46011,-74955170.69510,-133479613.40812,   0.00021,  -0.00037,  -0.00174,245631083.30120,   0.00000,274640135.82653,   0.00000,   0.00000,   0.00000,-229009052.52533,   0.00000
15156028.89700,-75396302.51331,-133972306.08819,   0.00022,  -0.00037,  -0.00174,246784830.53054,   0.00000,274640135.82653,   0.00000,   0.00000,   0.00000,-227855305.29599,   0.00000
16104175.85691,-75857485.77780,-134464998.76827,   0.00022,  -0.00038,  -0.00175,247947237.53420,   0.00000,274640135.82653,   0.00000,   0.00000,   0.00000,-226692898.29233,   0.00000
17052322.81683,-76318669.04229,-134951962.46369,   0.00023,  -0.00038,  -0.00175,249104050.66498,   0.00000,274640135.82653,   0.00000,   0.00000,   0.00000,-225536085.16155,   0.00000
18020521.22302,-76771258.82980,-135438926.15912,   0.00023,  -0.00038,  -0.00176,250266121.60643,   0.00000,274640135.82653,   0.00000,   0.00000,   0.00000,-224374014.22010,   0.00000
18980126.15224,-77243900.06359,-135920160.86989,   0.00024,  -0.00039,  -0.00177,251427593.24739,   0.00000,274640135.82653,   0.00000,   0.00000,   0.00000,-223212542.57914,   0.00000
19939731.08146,-77716541.29739,-136401395.58066,   0.00024,  -0.00039,  -0.00177,252592800.27336,   0.00000,274640135.82653,   0.00000,   0.00000,   0.00000,-222047335.55317,   0.00000
20890742.53370,-78209233.97746,-136882630.29143,   0.00025,  -0.00040,  -0.00178,253766664.08383,   0.00000,274640135.82653,   0.00000,   0.00000,   0.00000,-220873471.74270,   0.00000
21861805.43222,-78693333.18056,-137358136.01755,   0.00025,  -0.00040,  -0.00179,254936717.93855,   0.00000,274640135.82653,   0.00000,   0.00000,   0.00000,-219703417.88798,   0.00000
22832868.33075,-79177432.38366,-137833641.74367,   0.00026,  -0.00040,  -0.00179,256110507.30579,   0.00000,274640135.82653,   0.00000,   0.00000,   0.00000,-218529628.52074,   0.00000
23795337.75229,-79681583.03304,-138303418.48514,   0.00026,  -0.00041,  -0.00180,257283753.17601,   0.00000,274640135.82653,   0.00000,   0.00000,   0.00000,-217356382.65052,   0.00000
24757807.17383,-80185733.68242,-138778924.21126,   0.00027,  -0.00041,  -0.00180,258469907.82401,   0.00000,274640135.82653,   0.00000,   0.00000,   0.00000,-216170228.00252,   0.00000
25731734.56468,-80701342.30110,-139242971.96808,   0.00027,  -0.00042,  -0.00181,259648281.44920,   0.00000,274640135.82653,   0.00000,   0.00000,   0.00000,-214991854.37733,   0.00000
26705661.95553,-81216950.91979,-139712748.70955,   0.00028,  -0.00042,  -0.00182,260839595.13357,   0.00000,274640135.82653,   0.00000,   0.00000,   0.00000,-213800540.69296,   0.00000
27650944.42312,-81761204.46173,-140176796.46636,   0.00029,  -0.00043,  -0.00182,262028331.68529,   0.00000,274640135.82653,   0.00000,   0.00000,   0.00000,-212611804.14124,   0.00000
28644923.26025,-82268219.60344,-140635115.23853,   0.00029,  -0.00043,  -0.00183,263210686.21366,   0.00000,274640135.82653,   0.00000,   0.00000,   0.00000,-211429449.61287,   0.00000
29601663.69714,-82823931.11469,-141093434.01069,   0.00030,  -0.00043,  -0.00183,264404726.84248,   0.00000,274640135.82653,   0.00000,   0.00000,   0.00000,-210235408.98404,   0.00000
30566997.61101,-83359591.17966,-141551752.78285,   0.00030,  -0.00044,  -0.00184,265597272.87141,   0.00000,274640135.82653,   0.00000,   0.00000,   0.00000,-209042862.95512,   0.00000
31543789.49419,-83906709.21393,-142010071.55502,   0.00031,  -0.00044,  -0.00185,266800793.38065,   0.00000,274640135.82653,   0.00000,   0.00000,   0.00000,-207839342.44588,   0.00000
32511987.90038,-84473878.69448,-142462661.34253,   0.00031,  -0.00045,  -0.00185,268003934.46986,   0.00000,274640135.82653,   0.00000,   0.00000,   0.00000,-206636201.35667,   0.00000
33480186.30658,-85041048.17503,-142915251.13004,   0.00032,  -0.00045,  -0.00186,269210697.97303,   0.00000,274640135.82653,   0.00000,   0.00000,   0.00000,-205429437.85350,   0.00000
34448384.71278,-85608217.65558,-143362111.93290,   0.00032,  -0.00046,  -0.00186,270411923.49718,   0.00000,274640135.82653,   0.00000,   0.00000,   0.00000,-204228212.32935,   0.00000
35407989.64200,-86195438.58242,-143808972.73576,   0.00033,  -0.00046,  -0.00187,271621885.12225,   0.00000,274640135.82653,   0.00000,   0.00000,   0.00000,-203018250.70428,   0.00000
36387646.01750,-86774066.03228,-144255833.53862,   0.00033,  -0.00047,  -0.00188,272837936.96353,   0.00000,274640135.82653,   0.00000,   0.00000,   0.00000,-201802198.86299,   0.00000
37338657.46974,-87381338.40539,-144696965.35683,   0.00034,  -0.00047,  -0.00188,274051109.93673,   0.00000,274640135.82653,   0.00000,   0.00000,   0.00000,-200589025.88980,   0.00000
38309720.36826,-87980017.30153,-145138097.17504,   0.00035,  -0.00048,  -0.00189,275270430.18577,   0.00000,274640135.82653,   0.00000,   0.00000,   0.00000,-199369705.64076,   0.00000
39260731.82050,-88587289.67465,-145573500.00859,   0.00035,  -0.00048,  -0.00189,276481548.19419,   0.00000,274640135.82653,   0.00000,   0.00000,   0.00000,-198158587.63233,   0.00000
40223201.24204,-89206020.01707,-146014631.82680,   0.00036,  -0.00048,  -0.00190,277713142.90674,   0.00000,274640135.82653,   0.00000,   0.00000,   0.00000,-196926992.91979,   0.00000
41185670.66359,-89824750.35949,-146450034.66036,   0.00036,  -0.00049,  -0.00190,278939197.29389,   0.00000,274640135.82653,   0.00000,   0.00000,   0.00000,-195700938.53264,   0.00000
42139546.60815,-90463532.14820,-146879708.50926,   0.00037,  -0.00049,  -0.00191,280165005.99051,   0.00000,274640135.82653,   0.00000,   0.00000,   0.00000,-194475129.83602,   0.00000
43093422.55272,-91102313.93690,-147309382.35816,   0.00037,  -0.00050,  -0.00192,281394292.00716,   0.00000,274640135.82653,   0.00000,   0.00000,   0.00000,-193245843.81937,   0.00000
44038705.02031,-91761147.17189,-147739056.20707,   0.00038,  -0.00050,  -0.00192,282632347.67036,   0.00000,274640135.82653,   0.00000,   0.00000,   0.00000,-192007788.15617,   0.00000
44992580.96488,-92399928.96059,-148168730.05597,   0.00038,  -0.00051,  -0.00193,283868469.89039,   0.00000,274640135.82653,   0.00000,   0.00000,   0.00000,-190771665.93614,   0.00000
45949321.40177,-93070220.16488,-148592674.92022,   0.00039,  -0.00051,  -0.00193,285112729.63155,   0.00000,274640135.82653,   0.00000,   0.00000,   0.00000,-189527406.19498,   0.00000
46886010.39238,-93749104.84615,-149010890.79982,   0.00040,  -0.00052,  -0.00194,286348478.02098,   0.00000,274640135.82653,   0.00000,   0.00000,   0.00000,-188291657.80555,   0.00000
47822699.38299,-94427989.52742,-149434835.66408,   0.00040,  -0.00052,  -0.00194,287596535.91242,   0.00000,274640135.82653,   0.00000,   0.00000,   0.00000,-187043599.91411,   0.00000
48770846.34290,-95118332.17799,-149853051.54367,   0.00041,  -0.00053,  -0.00195,288847546.81878,   0.00000,274640135.82653,   0.00000,   0.00000,   0.00000,-185792589.00775,   0.00000
49698941.85653,-95817268.30554,-150271267.42327,   0.00041,  -0.00053,  -0.00195,290098796.98571,   0.00000,274640135.82653,   0.00000,   0.00000,   0.00000,-184541338.84082,   0.00000
50618443.89319,-96536255.87937,-150683754.31822,   0.00042,  -0.00054,  -0.00196,291349913.43669,   0.00000,274640135.82653,   0.00000,   0.00000,   0.00000,-183290222.38984,   0.00000
51557997.37613,-97246649.97622,-151096241.21317,   0.00042,  -0.00054,  -0.00196,292607591.96506,   0.00000,274640135.82653,   0.00000,   0.00000,   0.00000,-182032543.86147,   0.00000
52477499.41278,-97965637.55006,-151508728.10812,   0.00043,  -0.00055,  -0.00197,293865326.04414,   0.00000,274640135.82653,   0.00000,   0.00000,   0.00000,-180774809.78238,   0.00000
53408459.41874,-98696083.09319,-151921215.00307,   0.00044,  -0.00055,  -0.00197,295135143.29560,   0.00000,274640135.82653,   0.00000,   0.00000,   0.00000,-179504992.53093,   0.00000
54319367.97841,-99435122.11331,-152327972.91336,   0.00044,  -0.00056,  -0.00198,296396059.74269,   0.00000,274640135.82653,   0.00000,   0.00000,   0.00000,-178244076.08384,   0.00000
55221683.06111,-100194212.57970,-152734730.82366,   0.00045,  -0.00056,  -0.00199,297665754.77459,   0.00000,274640135.82653,   0.00000,   0.00000,   0.00000,-176974381.05194,   0.00000
56135456.11311,-100964761.01541,-153135759.74930,   0.00045,  -0.00057,  -0.00199,298938886.81947,   0.00000,274640135.82653,   0.00000,   0.00000,   0.00000,-175701249.00706,   0.00000
57037771.19581,-101723851.48180,-153536788.67494,   0.00046,  -0.00057,  -0.00200,300206241.60583,   0.00000,274640135.82653,   0.00000,   0.00000,   0.00000,-174433894.22070,   0.00000
57931492.80153,-102502993.39448,-153937817.60059,   0.00046,  -0.00058,  -0.00200,301482384.22818,   0.00000,274640135.82653,   0.00000,   0.00000,   0.00000,-173157751.59835,   0.00000
58816620.93027,-103302186.75344,-154338846.52623,   0.00047,  -0.00058,  -0.00201,302767337.87908,   0.00000,274640135.82653,   0.00000,   0.00000,   0.00000,-171872797.94745,   0.00000
59721800.50530,-104092786.63542,-154734146.46722,   0.00047,  -0.00059,  -0.00201,304050289.54340,   0.00000,274640135.82653,   0.00000,   0.00000,   0.00000,-170589846.28313,   0.00000
60598335.15706,-104912031.44067,-155129446.40821,   0.00048,  -0.00060,  -0.00202,305338537.42497,   0.00000,274640135.82653,   0.00000,   0.00000,   0.00000,-169301598.40156,   0.00000
61474869.80882,-105731276.24591,-155524746.34920,   0.00049,  -0.00060,  -0.00202,306629938.22765,   0.00000,274640135.82653,   0.00000,   0.00000,   0.00000,-168010197.59888,   0.00000
62331353.01431,-106559114.52813,-155914317.30554,   0.00049,  -0.00061,  -0.00203,307912064.17534,   0.00000,274640135.82653,   0.00000,   0.00000,   0.00000,-166728071.65119,   0.00000
63199294.18909,-107398410.77966,-156303888.26188,   0.00050,  -0.00061,  -0.00203,309206710.21123,   0.00000,274640135.82653,   0.00000,   0.00000,   0.00000,-165433425.61530,   0.00000
64067235.36388,-108237707.03118,-156693459.21822,   0.00050,  -0.00062,  -0.00204,310504465.35834,   0.00000,274640135.82653,   0.00000,   0.00000,   0.00000,-164135670.46819,   0.00000
64926583.06168,-109097054.72899,-157077301.18991,   0.00051,  -0.00062,  -0.00204,311802442.53625,   0.00000,274640135.82653,   0.00000,   0.00000,   0.00000,-162837693.29028,   0.00000
65765879.31321,-109964995.90378,-157461143.16160,   0.00051,  -0.00063,  -0.00205,313099713.62573,   0.00000,274640135.82653,   0.00000,   0.00000,   0.00000,-161540422.20080,   0.00000
66596582.08776,-110852988.52484,-157844985.13328,   0.00052,  -0.00063,  -0.00205,314405849.11195,   0.00000,274640135.82653,   0.00000,   0.00000,   0.00000,-160234286.71457,   0.00000
67447336.30859,-111732387.66893,-158228827.10497,   0.00052,  -0.00064,  -0.00206,315718872.95193,   0.00000,274640135.82653,   0.00000,   0.00000,   0.00000,-158921262.87460,   0.00000
68269445.60616,-112640431.73628,-158606940.09201,   0.00053,  -0.00065,  -0.00206,317028339.78784,   0.00000,274640135.82653,   0.00000,   0.00000,   0.00000,-157611796.03869,   0.00000
69091554.90372,-113548475.80363,-158985053.07904,   0.00054,  -0.00065,  -0.00207,318340825.80499,   0.00000,274640135.82653,   0.00000,   0.00000,   0.00000,-156299310.02154,   0.00000
69893612.75501,-114465113.34796,-159363166.06608,   0.00054,  -0.00066,  -0.00207,319652335.63956,   0.00000,274640135.82653,   0.00000,   0.00000,   0.00000,-154987800.18697,   0.00000
70707128.57560,-115393208.86159,-159735550.06846,   0.00055,  -0.00066,  -0.00208,320968146.40324,   0.00000,274640135.82653,   0.00000,   0.00000,   0.00000,-153671989.42329,   0.00000
71491999.47293,-116349949.29849,-160107934.07084,   0.00055,  -0.00067,  -0.00208,322288936.92093,   0.00000,274640135.82653,   0.00000,   0.00000,   0.00000,-152351198.90560,   0.00000
72296921.81655,-117298096.25840,-160480318.07323,   0.00056,  -0.00067,  -0.00209,323616713.18254,   0.00000,274640135.82653,   0.00000,   0.00000,   0.00000,-151023422.64399,   0.00000
73081792.71388,-118254836.69529,-160852702.07561,   0.00056,  -0.00068,  -0.00209,324943388.27857,   0.00000,274640135.82653,   0.00000,   0.00000,   0.00000,-149696747.54796,   0.00000
73858070.13423,-119231628.57847,-161219357.09334,   0.00057,  -0.00069,  -0.00210,326270527.42772,   0.00000,274640135.82653,   0.00000,   0.00000,   0.00000,-148369608.39881,   0.00000
74614296.10830,-120217013.93862,-161586012.11107,   0.00057,  -0.00069,  -0.00210,327596473.46882,   0.00000,274640135.82653,   0.00000,   0.00000,   0.00000,-147043662.35771,   0.00000
75381980.05168,-121213857.26808,-161952667.12880,   0.00058,  -0.00070,  -0.00211,328935528.41140,   0.00000,274640135.82653,   0.00000,   0.00000,   0.00000,-145704607.41513,   0.00000
76129612.54877,-122219294.07451,-162313593.16188,   0.00058,  -0.00070,  -0.00211,330264876.77338,   0.00000,274640135.82653,   0.00000,   0.00000,   0.00000,-144375259.05315,   0.00000
76868651.56888,-123244782.32723,-162680248.17962,   0.00059,  -0.00071,  -0.00211,331611694.06196,   0.00000,274640135.82653,   0.00000,   0.00000,   0.00000,-143028441.76457,   0.00000
77607690.58900,-124270270.57995,-163041174.21269,   0.00060,  -0.00072,  -0.00212,332952933.55535,   0.00000,274640135.82653,   0.00000,   0.00000,   0.00000,-141687202.27118,   0.00000
78338136.13213,-125315810.27894,-163402100.24577,   0.00060,  -0.00072,  -0.00212,334303248.53022,   0.00000,274640135.82653,   0.00000,   0.00000,   0.00000,-140336887.29631,   0.00000
79048530.22899,-126369943.45492,-163757297.29420,   0.00061,  -0.00073,  -0.00213,335643781.83827,   0.00000,274640135.82653,   0.00000,   0.00000,   0.00000,-138996353.98826,   0.00000
79758924.32584,-127424076.63090,-164112494.34263,   0.00061,  -0.00074,  -0.00213,336987122.89674,   0.00000,274640135.82653,   0.00000,   0.00000,   0.00000,-137653012.92979,   0.00000
80460724.94572,-128498261.25316,-164467691.39105,   0.00062,  -0.00074,  -0.00214,338339561.96856,   0.00000,274640135.82653,   0.00000,   0.00000,   0.00000,-136300573.85797,   0.00000
81153932.08862,-129592497.32170,-164822888.43948,   0.00062,  -0.00075,  -0.00214,339701148.72187,   0.00000,274640135.82653,   0.00000,   0.00000,   0.00000,-134938987.10466,   0.00000
81827087.78523,-130695326.86722,-165178085.48791,   0.00063,  -0.00075,  -0.00215,341061224.00733,   0.00000,274640135.82653,   0.00000,   0.00000,   0.00000,-133578911.81920,   0.00000
82500243.48185,-131798156.41274,-165527553.55168,   0.00063,  -0.00076,  -0.00215,342415737.30962,   0.00000,274640135.82653,   0.00000,   0.00000,   0.00000,-132224398.51691,   0.00000
83164805.70149,-132921037.40454,-165877021.61546,   0.00064,  -0.00077,  -0.00216,343779432.54578,   0.00000,274640135.82653,   0.00000,   0.00000,   0.00000,-130860703.28075,   0.00000
83809316.47484,-134052511.87332,-166226489.67923,   0.00064,  -0.00077,  -0.00216,345141513.69055,   0.00000,274640135.82653,   0.00000,   0.00000,   0.00000,-129498622.13598,   0.00000
84445233.77122,-135204037.78838,-166570228.75836,   0.00065,  -0.00078,  -0.00217,346504529.90494,   0.00000,274640135.82653,   0.00000,   0.00000,   0.00000,-128135605.92159,   0.00000
85081151.06760,-136355563.70344,-166919696.82213,   0.00065,  -0.00079,  -0.00217,347878550.49688,   0.00000,274640135.82653,   0.00000,   0.00000,   0.00000,-126761585.32965,   0.00000
85708474.88700,-137527141.06479,-167263435.90126,   0.00066,  -0.00079,  -0.00217,349253589.36111,   0.00000,274640135.82653,   0.00000,   0.00000,   0.00000,-125386546.46542,   0.00000
86315747.26011,-138707311.90311,-167607174.98038,   0.00066,  -0.00080,  -0.00218,350626934.49381,   0.00000,274640135.82653,   0.00000,   0.00000,   0.00000,-124013201.33272,   0.00000
86914426.15625,-139907534.18772,-167945185.07485,   0.00067,  -0.00081,  -0.00218,352001383.82526,   0.00000,274640135.82653,   0.00000,   0.00000,   0.00000,-122638752.00127,   0.00000
87493053.60611,-141116349.94930,-168288924.15397,   0.00067,  -0.00081,  -0.00219,353382292.99422,   0.00000,274640135.82653,   0.00000,   0.00000,   0.00000,-121257842.83231,   0.00000
88063087.57899,-142345217.15716,-168626934.24844,   0.00068,  -0.00082,  -0.00219,354764367.47299,   0.00000,274640135.82653,   0.00000,   0.00000,   0.00000,-119875768.35354,   0.00000
88633121.55187,-143574084.36503,-168964944.34291,   0.00068,  -0.00083,  -0.00220,356149160.40743,   0.00000,274640135.82653,   0.00000,   0.00000,   0.00000,-118490975.41910,   0.00000
89203155.52475,-144802951.57289,-169302954.43739,   0.00069,  -0.00083,  -0.00220,357536640.21059,   0.00000,274640135.82653,   0.00000,   0.00000,   0.00000,-117103495.61594,   0.00000
89744544.57437,-146060463.70402,-169635235.54720,   0.00069,  -0.00084,  -0.00221,358920898.73842,   0.00000,274640135.82653,   0.00000,   0.00000,   0.00000,-115719237.08811,   0.00000
90257288.70072,-147346620.75840,-169973245.64167,   0.00070,  -0.00085,  -0.00221,360318226.02151,   0.00000,274640135.82653,   0.00000,   0.00000,   0.00000,-114321909.80502,   0.00000
90790084.27336,-148624184.33581,-170305526.75149,   0.00070,  -0.00085,  -0.00221,361714676.39435,   0.00000,274640135.82653,   0.00000,   0.00000,   0.00000,-112925459.43218,   0.00000
91302828.39972,-149910341.39020,-170637807.86131,   0.00071,  -0.00086,  -0.00222,363109266.64015,   0.00000,274640135.82653,   0.00000,   0.00000,   0.00000,-111530869.18638,   0.00000
91786927.60282,-151225143.36784,-170970088.97113,   0.00071,  -0.00087,  -0.00222,364508832.97913,   0.00000,274640135.82653,   0.00000,   0.00000,   0.00000,-110131302.84740,   0.00000
92271026.80592,-152539945.34549,-171296641.09630,   0.00072,  -0.00087,  -0.00223,365903009.62467,   0.00000,274640135.82653,   0.00000,   0.00000,   0.00000,-108737126.20186,   0.00000
92746532.53204,-153874798.76941,-171628922.20612,   0.00072,  -0.00088,  -0.00223,367314834.76151,   0.00000,274640135.82653,   0.00000,   0.00000,   0.00000,-107325301.06502,   0.00000
93201986.81188,-155218245.67032,-171955474.33128,   0.00073,  -0.00089,  -0.00224,368716718.46835,   0.00000,274640135.82653,   0.00000,   0.00000,   0.00000,-105923417.35817,   0.00000
93648847.61474,-156581744.01751,-172282026.45645,   0.00073,  -0.00090,  -0.00224,370128273.74263,   0.00000,274640135.82653,   0.00000,   0.00000,   0.00000,-104511862.08390,   0.00000
94095708.41760,-157945242.36470,-172608578.58162,   0.00074,  -0.00090,  -0.00224,371542508.46928,   0.00000,274640135.82653,   0.00000,   0.00000,   0.00000,-103097627.35725,   0.00000
94522517.77417,-159317334.18886,-172929401.72213,   0.00074,  -0.00091,  -0.00225,372946817.69917,   0.00000,274640135.82653,   0.00000,   0.00000,   0.00000,-101693318.12736,   0.00000
94920682.20749,-160718070.93629,-173255953.84730,   0.00075,  -0.00092,  -0.00225,374364234.13993,   0.00000,274640135.82653,   0.00000,   0.00000,   0.00000,-100275901.68660,   0.00000
95330304.61011,-162130265.65302,-173576776.98781,   0.00075,  -0.00092,  -0.00226,375788118.70179,   0.00000,274640135.82653,   0.00000,   0.00000,   0.00000,-98852017.12474,   0.00000
95699824.12017,-163559647.32370,-173897600.12833,   0.00075,  -0.00093,  -0.00226,377205474.56592,   0.00000,274640135.82653,   0.00000,   0.00000,   0.00000,-97434661.26061,   0.00000
96069343.63023,-164989028.99439,-174218423.26884,   0.00076,  -0.00094,  -0.00226,378625492.02950,   0.00000,274640135.82653,   0.00000,   0.00000,   0.00000,-96014643.79703,   0.00000
96430269.66331,-166438462.11136,-174539246.40936,   0.00076,  -0.00095,  -0.00227,380055403.81965,   0.00000,274640135.82653,   0.00000,   0.00000,   0.00000,-94584732.00688,   0.00000
96771144.25010,-167896488.70531,-174854340.56522,   0.00077,  -0.00095,  -0.00227,381475480.01166,   0.00000,274640135.82653,   0.00000,   0.00000,   0.00000,-93164655.81487,   0.00000
97103425.35992,-169374566.74554,-175175163.70574,   0.00077,  -0.00096,  -0.00228,382913415.29738,   0.00000,274640135.82653,   0.00000,   0.00000,   0.00000,-91726720.52914,   0.00000
97415655.02346,-170861238.26274,-175490257.86160,   0.00078,  -0.00097,  -0.00228,384341545.81674,   0.00000,274640135.82653,   0.00000,   0.00000,   0.00000,-90298590.00979,   0.00000
97719291.21002,-172367961.22623,-175805352.01746,   0.00078,  -0.00097,  -0.00229,385779748.46299,   0.00000,274640135.82653,   0.00000,   0.00000,   0.00000,-88860387.36354,   0.00000
98022927.39658,-173874684.18972,-176120446.17332,   0.00079,  -0.00098,  -0.00229,387220661.02259,   0.00000,274640135.82653,   0.00000,   0.00000,   0.00000,-87419474.80394,   0.00000
98286460.69057,-175398594.10717,-176435540.32919,   0.00079,  -0.00099,  -0.00229,388654990.79325,   0.00000,274640135.82653,   0.00000,   0.00000,   0.00000,-85985145.03328,   0.00000
98561451.95387,-176933961.99392,-176744905.50040,   0.00079,  -0.00100,  -0.00230,390096321.14803,   0.00000,274640135.82653,   0.00000,   0.00000,   0.00000,-84543814.67850,   0.00000
98787746.84763,-178506568.28090,-177059999.65626,   0.00080,  -0.00100,  -0.00230,391546428.86822,   0.00000,274640135.82653,   0.00000,   0.00000,   0.00000,-83093706.95831,   0.00000
99034093.18766,-180070581.09091,-177369364.82747,   0.00080,  -0.00101,  -0.00231,392996141.50006,   0.00000,274640135.82653,   0.00000,   0.00000,   0.00000,-81643994.32646,   0.00000
99240336.63514,-181651780.85488,-177678729.99868,   0.00081,  -0.00102,  -0.00231,394439337.62678,   0.00000,274640135.82653,   0.00000,   0.00000,   0.00000,-80200798.19975,   0.00000
99437986.60563,-183253032.06513,-177988095.16989,   0.00081,  -0.00103,  -0.00231,395892896.57153,   0.00000,274640135.82653,   0.00000,   0.00000,   0.00000,-78747239.25500,   0.00000
99635636.57613,-184854283.27538,-178297460.34110,   0.00081,  -0.00104,  -0.00232,397349208.38151,   0.00000,274640135.82653,   0.00000,   0.00000,   0.00000,-77290927.44502,   0.00000
99804641.62337,-186484179.40888,-178606825.51231,   0.00082,  -0.00104,  -0.00232,398811354.79380,   0.00000,274640135.82653,   0.00000,   0.00000,   0.00000,-75828781.03273,   0.00000
99973646.67060,-188114075.54239,-178910461.69887,   0.00082,  -0.00105,  -0.00233,400268591.67781,   0.00000,274640135.82653,   0.00000,   0.00000,   0.00000,-74371544.14872,   0.00000
100102548.82527,-189761158.62986,-179219826.87008,   0.00083,  -0.00106,  -0.00233,401727061.92485,   0.00000,274640135.82653,   0.00000,   0.00000,   0.00000,-72913073.90168,   0.00000
100242908.94925,-191419699.68662,-179523463.05664,   0.00083,  -0.00107,  -0.00233,403193044.47504,   0.00000,274640135.82653,   0.00000,   0.00000,   0.00000,-71447091.35149,   0.00000
100363217.62694,-193086834.22037,-179827099.24320,   0.00083,  -0.00107,  -0.00234,404657230.05045,   0.00000,274640135.82653,   0.00000,   0.00000,   0.00000,-69982905.77608,   0.00000
100454881.38137,-194782613.67738,-180130735.42976,   0.00084,  -0.00108,  -0.00234,406127516.52141,   0.00000,274640135.82653,   0.00000,   0.00000,   0.00000,-68512619.30512,   0.00000
100526493.68952,-196486986.61136,-180434371.61632,   0.00084,  -0.00109,  -0.00235,407596058.66901,   0.00000,274640135.82653,   0.00000,   0.00000,   0.00000,-67044077.15752,   0.00000
100589512.52070,-198211410.99163,-180738007.80288,   0.00084,  -0.00110,  -0.00235,409075402.67998,   0.00000,274640135.82653,   0.00000,   0.00000,   0.00000,-65564733.14655,   0.00000
100652531.35187,-199935835.37190,-181041643.98944,   0.00085,  -0.00111,  -0.00235,410557607.22062,   0.00000,274640135.82653,   0.00000,   0.00000,   0.00000,-64082528.60591,   0.00000
100686905.25978,-201688904.67542,-181339551.19134,   0.00085,  -0.00111,  -0.00236,412038587.11994,   0.00000,274640135.82653,   0.00000,   0.00000,   0.00000,-62601548.70658,   0.00000
100709821.19839,-203430516.00965,-181643187.37790,   0.00085,  -0.00112,  -0.00236,413517395.50568,   0.00000,274640135.82653,   0.00000,   0.00000,   0.00000,-61122740.32085,   0.00000
100695498.73676,-205220823.71341,-181941094.57981,   0.00086,  -0.00113,  -0.00237,415003215.45398,   0.00000,274640135.82653,   0.00000,   0.00000,   0.00000,-59636920.37255,   0.00000
100681176.27513,-207011131.41718,-182244730.76637,   0.00086,  -0.00114,  -0.00237,416499529.02279,   0.00000,274640135.82653,   0.00000,   0.00000,   0.00000,-58140606.80374,   0.00000
100666853.81350,-208801439.12094,-182542637.96827,   0.00087,  -0.00115,  -0.00237,417991249.20621,   0.00000,274640135.82653,   0.00000,   0.00000,   0.00000,-56648886.62032,   0.00000
100612428.45930,-210608933.77867,-182840545.17018,   0.00087,  -0.00115,  -0.00238,419476882.44401,   0.00000,274640135.82653,   0.00000,   0.00000,   0.00000,-55163253.38252,   0.00000
100569461.07441,-212427886.40569,-183138452.37209,   0.00087,  -0.00116,  -0.00238,420978217.59363,   0.00000,274640135.82653,   0.00000,   0.00000,   0.00000,-53661918.23289,   0.00000
100477797.31998,-214284077.43296,-183430630.58934,   0.00088,  -0.00117,  -0.00238,422474418.64802,   0.00000,274640135.82653,   0.00000,   0.00000,   0.00000,-52165717.17851,   0.00000
100394727.04253,-216120217.01394,-183728537.79125,   0.00088,  -0.00118,  -0.00239,423972766.12102,   0.00000,274640135.82653,   0.00000,   0.00000,   0.00000,-50667369.70551,   0.00000
100274418.36483,-218005052.96446,-184026444.99315,   0.00088,  -0.00119,  -0.00239,425486415.00464,   0.00000,274640135.82653,   0.00000,   0.00000,   0.00000,-49153720.82188,   0.00000
100142651.71784,-219878430.94568,-184318623.21041,   0.00088,  -0.00120,  -0.00240,426982843.68955,   0.00000,274640135.82653,   0.00000,   0.00000,   0.00000,-47657292.13698,   0.00000
100002291.59386,-221771860.37319,-184616530.41232,   0.00089,  -0.00120,  -0.00240,428498191.98009,   0.00000,274640135.82653,   0.00000,   0.00000,   0.00000,-46141943.84644,   0.00000
99841880.02360,-223673883.27767,-184908708.62957,   0.00089,  -0.00121,  -0.00240,430004790.28372,   0.00000,274640135.82653,   0.00000,   0.00000,   0.00000,-44635345.54281,   0.00000
99672874.97637,-225595957.62843,-185206615.83148,   0.00089,  -0.00122,  -0.00241,431530401.51009,   0.00000,274640135.82653,   0.00000,   0.00000,   0.00000,-43109734.31644,   0.00000
99463767.03657,-227535218.93315,-185498794.04873,   0.00090,  -0.00123,  -0.00241,433042993.93622,   0.00000,274640135.82653,   0.00000,   0.00000,   0.00000,-41597141.89031,   0.00000
99266117.06607,-229485938.20717,-185790972.26599,   0.00090,  -0.00124,  -0.00242,434571733.97025,   0.00000,274640135.82653,   0.00000,   0.00000,   0.00000,-40068401.85628,   0.00000
99028364.20301,-231453844.43515,-186083150.48324,   0.00090,  -0.00125,  -0.00242,436094956.75225,   0.00000,274640135.82653,   0.00000,   0.00000,   0.00000,-38545179.07427,   0.00000
98790611.33995,-233421750.66313,-186375328.70049,   0.00090,  -0.00125,  -0.00242,437621372.26633,   0.00000,274640135.82653,   0.00000,   0.00000,   0.00000,-37018763.56020,   0.00000
98524213.55363,-235418301.81437,-186667506.91775,   0.00091,  -0.00126,  -0.00243,439155410.92486,   0.00000,274640135.82653,   0.00000,   0.00000,   0.00000,-35484724.90167,   0.00000
98237764.32103,-237423446.44259,-186953956.15035,   0.00091,  -0.00127,  -0.00243,440681114.86219,   0.00000,274640135.82653,   0.00000,   0.00000,   0.00000,-33959020.96434,   0.00000
97951315.08843,-239428591.07080,-187246134.36761,   0.00091,  -0.00128,  -0.00243,442217367.61653,   0.00000,274640135.82653,   0.00000,   0.00000,   0.00000,-32422768.21000,   0.00000
97636220.93256,-241462380.62228,-187538312.58486,   0.00092,  -0.00129,  -0.00244,443761471.17189,   0.00000,274640135.82653,   0.00000,   0.00000,   0.00000,-30878664.65464,   0.00000
97301075.33042,-243504763.65074,-187824761.81746,   0.00092,  -0.00130,  -0.00244,445297392.74749,   0.00000,274640135.82653,   0.00000,   0.00000,   0.00000,-29342743.07904,   0.00000
96937284.80501,-245575791.60245,-188116940.03472,   0.00092,  -0.00131,  -0.00245,446848639.29792,   0.00000,274640135.82653,   0.00000,   0.00000,   0.00000,-27791496.52861,   0.00000
96573494.27961,-247646819.55417,-188403389.26732,   0.00092,  -0.00132,  -0.00245,448396049.27618,   0.00000,274640135.82653,   0.00000,   0.00000,   0.00000,-26244086.55035,   0.00000
96189652.30792,-249726440.98286,-188695567.48457,   0.00092,  -0.00132,  -0.00245,449949881.24490,   0.00000,274640135.82653,   0.00000,   0.00000,   0.00000,-24690254.58163,   0.00000
95777165.41297,-251834707.33482,-188982016.71718,   0.00093,  -0.00133,  -0.00246,451504825.64594,   0.00000,274640135.82653,   0.00000,   0.00000,   0.00000,-23135310.18059,   0.00000
95364678.51803,-253942973.68677,-189274194.93443,   0.00093,  -0.00134,  -0.00246,453070423.27381,   0.00000,274640135.82653,   0.00000,   0.00000,   0.00000,-21569712.55272,   0.00000
94932140.17680,-256059833.51571,-189560644.16703,   0.00093,  -0.00135,  -0.00246,454628167.88961,   0.00000,274640135.82653,   0.00000,   0.00000,   0.00000,-20011967.93692,   0.00000
94470956.91231,-258205338.26790,-189847093.39964,   0.00093,  -0.00136,  -0.00247,456194498.44652,   0.00000,274640135.82653,   0.00000,   0.00000,   0.00000,-18445637.38001,   0.00000
93989722.20153,-260359436.49707,-190133542.63224,   0.00094,  -0.00137,  -0.00247,457760316.39184,   0.00000,274640135.82653,   0.00000,   0.00000,   0.00000,-16879819.43469,   0.00000
93488436.04448,-262522128.20322,-190419991.86484,   0.00094,  -0.00138,  -0.00248,459325656.33611,   0.00000,274640135.82653,   0.00000,   0.00000,   0.00000,-15314479.49042,   0.00000
92978556.41045,-264704871.35565,-190706441.09744,   0.00094,  -0.00139,  -0.00248,460903892.05690,   0.00000,274640135.82653,   0.00000,   0.00000,   0.00000,-13736243.76963,   0.00000
92448625.33013,-266896207.98506,-190992890.33005,   0.00094,  -0.00139,  -0.00248,462481755.49545,   0.00000,274640135.82653,   0.00000,   0.00000,   0.00000,-12158380.33108,   0.00000
91910100.77284,-269107596.06075,-191279339.56265,   0.00094,  -0.00140,  -0.00249,464072654.20936,   0.00000,274640135.82653,   0.00000,   0.00000,   0.00000,-10567481.61717,   0.00000
91340066.79996,-271316119.64412,-191565788.79525,   0.00094,  -0.00141,  -0.00249,465649902.16278,   0.00000,274640135.82653,   0.00000,   0.00000,   0.00000,-8990233.66375,   0.00000
90761439.35010,-273544694.67376,-191852238.02785,   0.00095,  -0.00142,  -0.00249,467240294.47505,   0.00000,274640135.82653,   0.00000,   0.00000,   0.00000,-7399841.35148,   0.00000
90154166.97699,-275801914.62667,-192138687.26046,   0.00095,  -0.00143,  -0.00250,468840044.39189,   0.00000,274640135.82653,   0.00000,   0.00000,   0.00000,-5800091.43464,   0.00000
89535436.63457,-278047676.61027,-192425136.49306,   0.00095,  -0.00144,  -0.00250,470430148.34868,   0.00000,274640135.82653,   0.00000,   0.00000,   0.00000,-4209987.47785,   0.00000
88888061.36888,-280322083.51714,-192705856.74101,   0.00095,  -0.00145,  -0.00251,472022760.24668,   0.00000,274640135.82653,   0.00000,   0.00000,   0.00000,-2617375.57985,   0.00000
88232092.62622,-282616541.87028,-192992305.97361,   0.00095,  -0.00146,  -0.00251,473635884.72893,   0.00000,274640135.82653,   0.00000,   0.00000,   0.00000,-1004251.09760,   0.00000
87813909.60463,-284046979.07291,-193171783.66528,   0.00095,  -0.00146,  -0.00251,474640136.10056,   0.00000,274640135.82653,   0.00000,   0.00000,   0.00000,   0.27403,   0.00000
87433185.90862,-284560183.35460,-193034427.95141,   0.00095,  -0.00147,  -0.00251,474640136.10056,   0.00000,274642954.24827,   0.00000,  -0.00000,  -0.00000,   0.49345,   1.00000
86385845.31012,-285954062.98655,-192664225.63935,   0.00096,  -0.00148,  -0.00252,476256330.47994,   0.00001,274650540.27469,   0.00000,  -0.00001,  -0.00001,   0.00000,   2.00000
85312065.09943,-287370498.37650,-192288174.68988,   0.00096,  -0.00149,  -0.00252,476267088.10857,   0.00002,274658138.90687,   0.00001,  -0.00001,  -0.00002,   0.00000,   2.00000
84230260.38395,-288772594.95700,-191919957.61094,   0.00096,  -0.00149,  -0.00252,476272316.70670,   0.00002,274665724.07924,   0.00001,  -0.00002,  -0.00003,   0.00000,   2.00000
83141304.04751,-290186400.41540,-191544320.86887,   0.00096,  -0.00150,  -0.00253,476286956.01937,   0.00003,274673340.03871,   0.00001,  -0.00002,  -0.00004,   0.00000,   2.00000
82033725.99780,-291600154.87125,-191172532.43665,   0.00096,  -0.00151,  -0.00253,476302083.59360,   0.00004,274680988.87817,   0.00002,  -0.00003,  -0.00005,  -0.00000,   2.00000
80909042.65267,-293017809.99044,-190801644.49963,   0.00096,  -0.00152,  -0.00253,476310363.58365,   0.00004,274688638.23812,   0.00002,  -0.00003,  -0.00005,  -0.00000,   2.00000
79758079.95383,-294457481.46284,-190424663.17959,   0.00096,  -0.00153,  -0.00254,476321830.18040,   0.00005,274696303.01705,   0.00002,  -0.00004,  -0.00006,   0.00000,   2.00000
78607972.65280,-295886158.39936,-190050047.53211,   0.00096,  -0.00154,  -0.00254,476340764.15780,   0.00006,274704018.14771,   0.00003,  -0.00004,  -0.00007,  -0.00000,   2.00000
77422973.42004,-297333149.34379,-189674677.66202,   0.00096,  -0.00155,  -0.00255,476339006.60851,   0.00007,274711686.25705,   0.00003,  -0.00005,  -0.00008,   0.00000,   2.00000
76228372.46018,-298783021.57399,-189297610.70936,   0.00096,  -0.00156,  -0.00255,476368136.03339,   0.00007,274719452.37471,   0.00004,  -0.00005,  -0.00009,   0.00000,   2.00000
75018252.83891,-300240374.45625,-188918302.30283,   0.00097,  -0.00157,  -0.00255,476370159.82957,   0.00008,274727188.88956,   0.00004,  -0.00006,  -0.00010,   0.00000,   2.00000
73789941.94950,-301697004.63139,-188542691.82810,   0.00097,  -0.00158,  -0.00256,476385921.55181,   0.00009,274734960.28827,   0.00004,  -0.00006,  -0.00011,   0.00000,   2.00000
72546164.56083,-303161008.96696,-188164752.38909,   0.00097,  -0.00159,  -0.00256,476388129.64182,   0.00009,274742702.86150,   0.00005,  -0.00007,  -0.00011,   0.00000,   2.00000
71294429.36295,-304631458.93336,-187782056.15368,   0.00097,  -0.00160,  -0.00256,476410835.00663,   0.00010,274750512.69127,   0.00005,  -0.00007,  -0.00012,   0.00000,   2.00000
70015843.83956,-306097711.27771,-187408396.61550,   0.00097,  -0.00161,  -0.00257,476413260.94469,   0.00011,274758294.45778,   0.00005,  -0.00008,  -0.00013,   0.00000,   2.00000
68730738.30676,-307574313.28786,-187026895.75187,   0.00097,  -0.00162,  -0.00257,476429380.38237,   0.00011,274766112.33628,   0.00006,  -0.00008,  -0.00014,   0.00000,   2.00000
67417238.21550,-309063353.71515,-186644874.21516,   0.00097,  -0.00163,  -0.00258,476456020.38948,   0.00012,274774015.26594,   0.00006,  -0.00009,  -0.00015,   0.00000,   2.00000
66098932.80287,-310545742.46047,-186264443.69124,   0.00097,  -0.00164,  -0.00258,476448430.33497,   0.00013,274781842.73616,   0.00006,  -0.00009,  -0.00016,   0.00000,   2.00000
64771822.28928,-312029819.89971,-185882210.71983,   0.00097,  -0.00164,  -0.00258,476478399.65275,   0.00014,274789770.63442,   0.00007,  -0.00010,  -0.00017,  -0.00000,   2.00000
63409988.90273,-313531197.11405,-185498578.96640,   0.00097,  -0.00165,  -0.00259,476478401.92751,   0.00014,274797658.35747,   0.00007,  -0.00010,  -0.00017,   0.00000,   2.00000
62050023.21345,-315020505.94705,-185117261.40519,   0.00097,  -0.00166,  -0.00259,476498033.89456,   0.00015,274805597.76094,   0.00007,  -0.00011,  -0.00018,   0.00000,   2.00000
60664413.68656,-316529847.71713,-184729085.78981,   0.00097,  -0.00167,  -0.00259,476511981.66957,   0.00016,274813561.95883,   0.00008,  -0.00011,  -0.00019,  -0.00000,   2.00000
59272895.94149,-318028252.49730,-184345454.48330,   0.00097,  -0.00168,  -0.00260,476511432.25158,   0.00017,274821483.15179,   0.00008,  -0.00012,  -0.00020,  -0.00000,   2.00000
57853559.68696,-319538038.96106,-183961084.06723,   0.00097,  -0.00169,  -0.00260,476539000.09855,   0.00017,274829492.63329,   0.00008,  -0.00013,  -0.00021,   0.00000,   2.00000
56419138.47071,-321054204.45895,-183573879.96304,   0.00097,  -0.00170,  -0.00260,476542730.46974,   0.00018,274837478.74254,   0.00009,  -0.00013,  -0.00022,   0.00000,   2.00000
54957117.83699,-322581318.23070,-183185852.25908,   0.00097,  -0.00171,  -0.00261,476570696.78624,   0.00019,274845554.46384,   0.00009,  -0.00014,  -0.00023,   0.00000,   2.00000
53509994.10884,-324091188.93774,-182798046.34486,   0.00097,  -0.00172,  -0.00261,476566637.46982,   0.00019,274853570.13492,   0.00009,  -0.00014,  -0.00024,   0.00000,   2.00000
52035413.01411,-325611778.42875,-182409387.09438,   0.00097,  -0.00173,  -0.00262,476594795.02693,   0.00020,274861675.99873,   0.00010,  -0.00015,  -0.00024,  -0.00000,   2.00000
50545882.92044,-327138399.05384,-182017738.68603,   0.00097,  -0.00174,  -0.00262,476599050.76918,   0.00021,274869760.27349,   0.00010,  -0.00015,  -0.00025,   0.00000,   2.00000
49039395.58388,-328662455.77834,-181629407.53454,   0.00097,  -0.00175,  -0.00262,476616567.75332,   0.00022,274877884.70722,   0.00010,  -0.00016,  -0.00026,   0.00000,   2.00000
47518030.51941,-330192388.86867,-181237995.58775,   0.00097,  -0.00176,  -0.00263,476621058.98252,   0.00022,274885988.46121,   0.00011,  -0.00017,  -0.00027,   0.00000,   2.00000
45979858.96363,-331719561.03258,-180849849.59473,   0.00097,  -0.00177,  -0.00263,476638757.70910,   0.00023,274894132.96968,   0.00011,  -0.00017,  -0.00028,  -0.00000,   2.00000
44416685.68611,-333265096.78138,-180454247.17037,   0.00097,  -0.00178,  -0.00263,476654678.05013,   0.00024,274902309.65895,   0.00011,  -0.00018,  -0.00029,  -0.00000,   2.00000
42856547.36919,-334797363.41995,-180060918.55624,   0.00097,  -0.00179,  -0.00264,476675142.07273,   0.00025,274910539.41115,   0.00012,  -0.00018,  -0.00030,   0.00000,   2.00000
41291836.70667,-336322607.47605,-179668657.48267,   0.00096,  -0.00180,  -0.00264,476668905.86382,   0.00025,274918698.00171,   0.00012,  -0.00019,  -0.00031,   0.00000,   2.00000
39700464.04483,-337857225.82356,-179275289.18208,   0.00096,  -0.00181,  -0.00265,476698228.74736,   0.00026,274926950.66359,   0.00012,  -0.00019,  -0.00031,   0.00000,   2.00000
38083482.23710,-339405246.27329,-178877520.86212,   0.00096,  -0.00182,  -0.00265,476721367.81871,   0.00027,274935268.10934,   0.00013,  -0.00020,  -0.00032,   0.00000,   2.00000
36462024.71777,-340946039.53547,-178480698.29123,   0.00096,  -0.00183,  -0.00265,476715516.42717,   0.00028,274943515.62052,   0.00013,  -0.00021,  -0.00033,  -0.00000,   2.00000
34824326.53278,-342483292.23130,-178086990.77858,   0.00096,  -0.00184,  -0.00266,476733954.25706,   0.00028,274951806.00820,   0.00013,  -0.00021,  -0.00034,   0.00000,   2.00000
33181813.77616,-344027790.76135,-177684662.50416,   0.00096,  -0.00185,  -0.00266,476753286.13253,   0.00029,274960143.10269,   0.00014,  -0.00022,  -0.00035,   0.00000,   2.00000
31503509.43239,-345578467.40989,-177286215.37859,   0.00096,  -0.00186,  -0.00266,476769895.44300,   0.00030,274968513.94739,   0.00014,  -0.00022,  -0.00036,   0.00000,   2.00000
29829809.96343,-347119556.85175,-176886733.13807,   0.00096,  -0.00187,  -0.00267,476784427.38481,   0.00031,274976908.70995,   0.00014,  -0.00023,  -0.00037,  -0.00000,   2.00000
28141742.30438,-348665379.60059,-176483680.39330,   0.00096,  -0.00188,  -0.00267,476790564.25227,   0.00031,274985288.39388,   0.00015,  -0.00024,  -0.00038,   0.00000,   2.00000
26437876.73200,-350207057.65434,-176083646.14648,   0.00095,  -0.00189,  -0.00267,476809577.59678,   0.00032,274993712.48330,   0.00015,  -0.00024,  -0.00039,   0.00000,   2.00000
24719035.73242,-351748883.89416,-175683278.42090,   0.00095,  -0.00190,  -0.00268,476822342.69729,   0.00033,275002151.81438,   0.00015,  -0.00025,  -0.00039,   0.00000,   2.00000
22985290.73119,-353290750.49487,-175282541.42047,   0.00095,  -0.00191,  -0.00268,476835230.75002,   0.00034,275010606.79574,   0.00016,  -0.00025,  -0.00040,   0.00000,   2.00000
21256511.15941,-354822744.96503,-174880739.24927,   0.00095,  -0.00192,  -0.00269,476850021.05319,   0.00035,275019086.06946,   0.00016,  -0.00026,  -0.00041,  -0.00000,   2.00000
19483980.28749,-356380516.91112,-174471402.15592,   0.00095,  -0.00193,  -0.00269,476866901.99282,   0.00035,275027598.98640,   0.00017,  -0.00027,  -0.00042,   0.00000,   2.00000
17725741.45244,-357912074.21410,-174068755.79662,   0.00095,  -0.00194,  -0.00269,476876357.81752,   0.00036,275036111.15603,   0.00017,  -0.00027,  -0.00043,   0.00000,   2.00000
15943134.38584,-359454862.39533,-173661206.22298,   0.00095,  -0.00195,  -0.00270,476901619.96865,   0.00037,275044695.21400,   0.00017,  -0.00028,  -0.00044,   0.00000,   2.00000
14146007.22102,-360997092.76850,-173253145.13221,   0.00094,  -0.00196,  -0.00270,476915188.89958,   0.00038,275053296.88708,   0.00018,  -0.00029,  -0.00045,   0.00000,   2.00000
12334439.46349,-362538650.10519,-172844537.41573,   0.00094,  -0.00197,  -0.00270,476928887.14867,   0.00039,275061916.58903,   0.00018,  -0.00029,  -0.00046,  -0.00000,   2.00000
10518117.34324,-364068090.51192,-172439808.79339,   0.00094,  -0.00198,  -0.00271,476930612.98160,   0.00039,275070499.17721,   0.00018,  -0.00030,  -0.00047,   0.00000,   2.00000
8677885.02274,-365608025.36454,-172030003.36090,   0.00094,  -0.00199,  -0.00271,476956575.70595,   0.00040,275079156.01085,   0.00019,  -0.00031,  -0.00048,   0.00000,   2.00000
6843333.86568,-367137406.68077,-171619058.42789,   0.00094,  -0.00200,  -0.00272,476972006.46286,   0.00041,275087838.29751,   0.00019,  -0.00031,  -0.00048,   0.00000,   2.00000
4994616.62177,-368665750.10566,-171207473.12894,   0.00093,  -0.00201,  -0.00272,476986130.68484,   0.00042,275096539.81598,   0.00019,  -0.00032,  -0.00049,   0.00000,   2.00000
3111927.61028,-370202386.40801,-170795657.26926,   0.00093,  -0.00202,  -0.00272,476999165.31978,   0.00042,275105255.33760,   0.00020,  -0.00033,  -0.00050,  -0.00000,   2.00000
1225785.73106,-371739198.33189,-170378164.47838,   0.00093,  -0.00203,  -0.00273,477027157.18482,   0.00043,275114053.17582,   0.00020,  -0.00033,  -0.00051,   0.00000,   2.00000
-664812.90125,-373263550.51385,-169964427.54371,   0.00093,  -0.00204,  -0.00273,477029460.20818,   0.00044,275122815.26489,   0.00020,  -0.00034,  -0.00052,   0.00000,   2.00000
-2549310.57705,-374777040.44709,-169549534.84893,   0.00092,  -0.00205,  -0.00273,477045176.21053,   0.00045,275131603.09531,   0.00021,  -0.00035,  -0.00053,  -0.00000,   2.00000
-4467511.79503,-376298283.97973,-169134233.07469,   0.00092,  -0.00206,  -0.00274,477058883.15040,   0.00046,275140407.20496,   0.00021,  -0.00035,  -0.00054,   0.00000,   2.00000
-6379413.28735,-377808493.77615,-168717751.88045,   0.00092,  -0.00207,  -0.00274,477074758.96705,   0.00047,275149237.35265,   0.00021,  -0.00036,  -0.00055,   0.00000,   2.00000
-8325158.39016,-379321589.33894,-168304256.43703,   0.00092,  -0.00208,  -0.00275,477094950.56382,   0.00047,275158112.94057,   0.00022,  -0.00037,  -0.00056,  -0.00000,   2.00000
-10273256.10075,-380838597.30135,-167881501.40029,   0.00091,  -0.00209,  -0.00275,477117508.60280,   0.00048,275167044.39543,   0.00022,  -0.00037,  -0.00057,  -0.00000,   2.00000
-12225551.96920,-382342919.52267,-167462389.86774,   0.00091,  -0.00209,  -0.00275,477120273.73541,   0.00049,275175941.16078,   0.00022,  -0.00038,  -0.00058,   0.00000,   2.00000
-14191150.28386,-383845059.77405,-167042346.19235,   0.00091,  -0.00210,  -0.00276,477135673.26180,   0.00050,275184860.86437,   0.00023,  -0.00039,  -0.00059,   0.00000,   2.00000
-16149996.53184,-385335848.86605,-166621114.97850,   0.00091,  -0.00211,  -0.00276,477151846.20930,   0.00051,275193806.83732,   0.00023,  -0.00039,  -0.00059,   0.00000,   2.00000
-18142170.46888,-386828741.58894,-166202688.68932,   0.00090,  -0.00212,  -0.00276,477172861.58148,   0.00051,275202800.79047,   0.00023,  -0.00040,  -0.00060,   0.00000,   2.00000
-20136125.35793,-388324904.67958,-165774915.82052,   0.00090,  -0.00213,  -0.00277,477196014.24356,   0.00052,275211852.04549,   0.00023,  -0.00041,  -0.00061,   0.00000,   2.00000
-22134054.38323,-389808195.40377,-165350703.02729,   0.00090,  -0.00214,  -0.00277,477199167.14578,   0.00053,275220869.43457,   0.00024,  -0.00041,  -0.00062,   0.00000,   2.00000
-24144970.75289,-391284176.61624,-164929028.04797,   0.00089,  -0.00215,  -0.00278,477221140.63429,   0.00054,275229938.40980,   0.00024,  -0.00042,  -0.00063,   0.00000,   2.00000
-26168490.88726,-392761905.04859,-164502679.25341,   0.00089,  -0.00216,  -0.00278,477231343.98386,   0.00055,275239005.22184,   0.00024,  -0.00043,  -0.00064,  -0.00000,   2.00000
-28204734.18326,-394232038.60765,-164078824.73352,   0.00089,  -0.00217,  -0.00278,477253581.30355,   0.00056,275248124.26504,   0.00025,  -0.00044,  -0.00065,   0.00000,   2.00000
-30233431.19260,-395694944.27138,-163650148.88993,   0.00088,  -0.00218,  -0.00279,477264306.66489,   0.00056,275257243.08821,   0.00025,  -0.00044,  -0.00066,  -0.00000,   2.00000
-32294628.45311,-397158757.30457,-163224014.68030,   0.00088,  -0.00219,  -0.00279,477286558.78601,   0.00057,275266413.63728,   0.00025,  -0.00045,  -0.00067,   0.00000,   2.00000
-34339474.09613,-398605465.37314,-162797635.57820,   0.00088,  -0.00220,  -0.00279,477284380.36523,   0.00058,275275525.25176,   0.00026,  -0.00046,  -0.00068,   0.00000,   2.00000
-36405220.53219,-400053910.17539,-162369098.25433,   0.00087,  -0.00221,  -0.00280,477320037.85753,   0.00059,275284748.86924,   0.00026,  -0.00046,  -0.00069,   0.00000,   2.00000
-38483094.67799,-401503427.39582,-161935691.19003,   0.00087,  -0.00222,  -0.00280,477331109.21368,   0.00060,275293972.84224,   0.00026,  -0.00047,  -0.00070,  -0.00000,   2.00000
-40544496.45346,-402926655.73693,-161509375.43415,   0.00087,  -0.00223,  -0.00281,477340676.00699,   0.00061,275303190.38575,   0.00027,  -0.00048,  -0.00071,   0.00000,   2.00000
-42646378.14367,-404368788.85159,-161073457.86154,   0.00086,  -0.00224,  -0.00281,477365276.81873,   0.00062,275312468.98186,   0.00027,  -0.00049,  -0.00072,  -0.00000,   2.00000
-44731604.57386,-405784584.48664,-160644646.67621,   0.00086,  -0.00225,  -0.00281,477374905.95860,   0.00062,275321740.92554,   0.00027,  -0.00049,  -0.00072,  -0.00000,   2.00000
-46828724.38371,-407201178.34224,-160210856.85625,   0.00086,  -0.00226,  -0.00282,477386381.97175,   0.00063,275331014.43652,   0.00028,  -0.00050,  -0.00073,   0.00000,   2.00000
-48945645.91005,-408618330.10490,-159774810.29512,   0.00085,  -0.00227,  -0.00282,477422979.04989,   0.00064,275340402.09950,   0.00028,  -0.00051,  -0.00074,   0.00000,   2.00000
-51065808.85326,-410022073.34987,-159342068.11366,   0.00085,  -0.00228,  -0.00282,477427264.70424,   0.00065,275349758.23795,   0.00028,  -0.00052,  -0.00075,   0.00000,   2.00000
-53169448.21498,-411408987.04492,-158909067.30995,   0.00085,  -0.00229,  -0.00283,477425260.63535,   0.00066,275359054.85528,   0.00028,  -0.00052,  -0.00076,  -0.00000,   2.00000
-55292443.39573,-412796079.47900,-158473788.49877,   0.00084,  -0.00230,  -0.00283,477462124.53156,   0.00067,275368466.13421,   0.00029,  -0.00053,  -0.00077,  -0.00000,   2.00000
-57426885.04131,-414183399.89935,-158033389.18650,   0.00084,  -0.00231,  -0.00284,477474323.18940,   0.00068,275377880.93159,   0.00029,  -0.00054,  -0.00078,   0.00000,   2.00000
-59564214.07209,-415552606.18977,-157599995.68383,   0.00083,  -0.00232,  -0.00284,477484505.00860,   0.00068,275387290.14821,   0.00029,  -0.00055,  -0.00079,   0.00000,   2.00000
-61720507.19794,-416926016.61717,-157160500.30933,   0.00083,  -0.00233,  -0.00284,477516219.45041,   0.00069,275396789.74919,   0.00030,  -0.00056,  -0.00080,   0.00000,   2.00000
-63860116.66273,-418282653.64651,-156720738.31950,   0.00082,  -0.00234,  -0.00285,477514417.30949,   0.00070,275406229.70267,   0.00030,  -0.00056,  -0.00081,   0.00000,   2.00000
-66030213.07134,-419637658.86166,-156282997.07422,   0.00082,  -0.00235,  -0.00285,477539258.49747,   0.00071,275415728.88289,   0.00030,  -0.00057,  -0.00082,  -0.00000,   2.00000
-68191024.95824,-420979899.78444,-155844079.74173,   0.00082,  -0.00236,  -0.00285,477556831.85309,   0.00072,275425254.51000,   0.00031,  -0.00058,  -0.00083,   0.00000,   2.00000
-70362414.78057,-422317110.16219,-155403667.93621,   0.00081,  -0.00237,  -0.00286,477575415.34454,   0.00073,275434810.77790,   0.00031,  -0.00059,  -0.00084,   0.00000,   2.00000
-72517098.59583,-423637763.19647,-154962991.77799,   0.00081,  -0.00238,  -0.00286,477573615.79565,   0.00074,275444306.95360,   0.00031,  -0.00059,  -0.00085,   0.00000,   2.00000
-74689450.50575,-424957029.45334,-154519951.56663,   0.00080,  -0.00239,  -0.00287,477611689.01037,   0.00075,275453920.14021,   0.00031,  -0.00060,  -0.00086,  -0.00000,   2.00000
-76884407.69286,-426270167.41149,-154079643.43223,   0.00080,  -0.00240,  -0.00287,477617979.32591,   0.00075,275463508.58224,   0.00032,  -0.00061,  -0.00087,   0.00000,   2.00000
-79050176.74905,-427567619.89428,-153634802.71834,   0.00079,  -0.00241,  -0.00287,477628855.48006,   0.00076,275473092.74050,   0.00032,  -0.00062,  -0.00088,   0.00000,   2.00000
-81245487.32886,-428862389.49871,-153191808.42079,   0.00079,  -0.00242,  -0.00288,477654761.35118,   0.00077,275482738.91667,   0.00032,  -0.00063,  -0.00089,  -0.00000,   2.00000
-83423526.53056,-430136114.36321,-152752396.49415,   0.00078,  -0.00243,  -0.00288,477658565.70049,   0.00078,275492349.05945,   0.00033,  -0.00063,  -0.00090,   0.00000,   2.00000
-85639093.78081,-431424283.91293,-152302334.31001,   0.00078,  -0.00244,  -0.00288,477687777.03103,   0.00079,275502035.25629,   0.00033,  -0.00064,  -0.00090,   0.00000,   2.00000
-87816911.67573,-432679464.18597,-151860270.24083,   0.00077,  -0.00245,  -0.00289,477695587.73711,   0.00080,275511702.74459,   0.00033,  -0.00065,  -0.00091,   0.00000,   2.00000
-90024257.73374,-433936109.26019,-151416063.83437,   0.00077,  -0.00246,  -0.00289,477716591.35705,   0.00081,275521409.53027,   0.00033,  -0.00066,  -0.00092,  -0.00000,   2.00000
-92221292.55592,-435179733.03999,-150970788.87012,   0.00076,  -0.00247,  -0.00290,477734486.42650,   0.00082,275531141.62014,   0.00034,  -0.00067,  -0.00093,   0.00000,   2.00000
-94421340.83047,-436414336.30800,-150524677.96978,   0.00076,  -0.00248,  -0.00290,477734527.77099,   0.00083,275540820.31015,   0.00034,  -0.00068,  -0.00094,   0.00000,   2.00000
-96630147.64292,-437638241.42921,-150080826.29723,   0.00075,  -0.00249,  -0.00290,477759641.69700,   0.00083,275550555.85860,   0.00034,  -0.00068,  -0.00095,   0.00000,   2.00000
-98848794.10338,-438860706.09127,-149631378.11264,   0.00075,  -0.00250,  -0.00291,477774076.77324,   0.00084,275560300.92702,   0.00034,  -0.00069,  -0.00096,   0.00000,   2.00000
-101056117.89408,-440065369.66908,-149184834.13866,   0.00074,  -0.00251,  -0.00291,477797464.40806,   0.00085,275570094.60054,   0.00035,  -0.00070,  -0.00097,  -0.00000,   2.00000
-103265685.74455,-441256275.96239,-148741309.52094,   0.00074,  -0.00252,  -0.00292,477803184.99989,   0.00086,275579859.19943,   0.00035,  -0.00071,  -0.00098,   0.00000,   2.00000
-105491555.81651,-442452990.30988,-148287442.49258,   0.00073,  -0.00252,  -0.00292,477832217.14207,   0.00087,275589696.54762,   0.00035,  -0.00072,  -0.00099,   0.00000,   2.00000
-107699105.48035,-443624455.69347,-147841248.98089,   0.00073,  -0.00253,  -0.00292,477841319.62191,   0.00088,275599519.20065,   0.00035,  -0.00073,  -0.00100,   0.00000,   2.00000
-109909566.30425,-444786881.96147,-147394082.43441,   0.00072,  -0.00254,  -0.00293,477841827.75024,   0.00089,275609289.69695,   0.00036,  -0.00073,  -0.00101,   0.00000,   2.00000
-112134389.13472,-445945346.14924,-146944479.95397,   0.00072,  -0.00255,  -0.00293,477881846.15251,   0.00090,275619180.19324,   0.00036,  -0.00074,  -0.00102,   0.00000,   2.00000
-114361174.71005,-447089912.42578,-146497833.19581,   0.00071,  -0.00256,  -0.00293,477887942.17377,   0.00091,275629042.30202,   0.00036,  -0.00075,  -0.00103,   0.00000,   2.00000
-116571154.59994,-448218980.02506,-146050932.07658,   0.00071,  -0.00257,  -0.00294,477886258.43575,   0.00092,275638842.40635,   0.00036,  -0.00076,  -0.00104,  -0.00000,   2.00000
-118795769.22753,-449348412.85428,-145597599.79424,   0.00070,  -0.00258,  -0.00294,477921272.08483,   0.00092,275648739.89358,   0.00037,  -0.00077,  -0.00105,   0.00000,   2.00000
-121001894.44330,-450453068.79288,-145152072.49744,   0.00070,  -0.00259,  -0.00295,477930097.74263,   0.00093,275658620.66502,   0.00037,  -0.00078,  -0.00106,   0.00000,   2.00000
-123236525.56976,-451561755.10506,-144699904.94066,   0.00069,  -0.00260,  -0.00295,477948245.20982,   0.00094,275668524.91861,   0.00037,  -0.00079,  -0.00107,   0.00000,   2.00000
-125452564.67177,-452645758.90064,-144255553.35898,   0.00068,  -0.00261,  -0.00295,477957038.16757,   0.00095,275678412.07720,   0.00037,  -0.00079,  -0.00108,   0.00000,   2.00000
-127657936.92260,-453721516.54636,-143806290.54018,   0.00068,  -0.00262,  -0.00296,477969847.03008,   0.00096,275688299.51297,   0.00037,  -0.00080,  -0.00109,   0.00000,   2.00000
-129871154.39731,-454790305.62781,-143355271.34202,   0.00067,  -0.00263,  -0.00296,477990730.70024,   0.00097,275698221.88186,   0.00038,  -0.00081,  -0.00110,   0.00000,   2.00000
-132092039.23548,-455851977.40060,-142902480.95416,   0.00067,  -0.00264,  -0.00296,478011775.51257,   0.00098,275708179.48993,   0.00038,  -0.00082,  -0.00111,   0.00000,   2.00000
-134313661.01156,-456895119.31604,-142456645.16746,   0.00066,  -0.00265,  -0.00297,478023405.53610,   0.00099,275718131.53652,   0.00038,  -0.00083,  -0.00112,   0.00000,   2.00000
-136524318.73585,-457929977.42358,-142005908.36179,   0.00066,  -0.00265,  -0.00297,478036377.05528,   0.00100,275728083.74317,   0.00038,  -0.00084,  -0.00113,   0.00000,   2.00000
-138736700.47705,-458951080.39297,-141558050.22246,   0.00065,  -0.00266,  -0.00298,478042858.78204,   0.00101,275738008.18034,   0.00039,  -0.00085,  -0.00113,  -0.00000,   2.00000
-140937068.83351,-459959325.10947,-141109410.35617,   0.00064,  -0.00267,  -0.00298,478060884.86736,   0.00102,275747954.42142,   0.00039,  -0.00086,  -0.00114,   0.00000,   2.00000
-143163934.44938,-460965761.54804,-140657923.15822,   0.00064,  -0.00268,  -0.00298,478085546.07166,   0.00103,275757950.45219,   0.00039,  -0.00086,  -0.00115,  -0.00000,   2.00000
-145353822.38025,-461947478.85022,-140211400.42495,   0.00063,  -0.00269,  -0.00299,478085481.17355,   0.00104,275767890.39846,   0.00039,  -0.00087,  -0.00116,  -0.00000,   2.00000
-147570018.27684,-462927231.14970,-139761988.28129,   0.00062,  -0.00270,  -0.00299,478110338.13998,   0.00104,275777880.71491,   0.00039,  -0.00088,  -0.00117,   0.00000,   2.00000
-149774930.01695,-463898754.45353,-139307713.93360,   0.00062,  -0.00271,  -0.00299,478123428.33825,   0.00105,275787870.84803,   0.00040,  -0.00089,  -0.00118,   0.00000,   2.00000
-151961115.22831,-464846680.57923,-138861546.62731,   0.00061,  -0.00272,  -0.00300,478131587.45762,   0.00106,275797839.83446,   0.00040,  -0.00090,  -0.00119,   0.00000,   2.00000
-154154088.79163,-465787147.90488,-138413568.95413,   0.00061,  -0.00273,  -0.00300,478153175.30146,   0.00107,275807844.72334,   0.00040,  -0.00091,  -0.00120,  -0.00000,   2.00000
-156348605.25745,-466713991.95445,-137968408.27728,   0.00060,  -0.00274,  -0.00300,478159942.96798,   0.00108,275817822.28442,   0.00040,  -0.00092,  -0.00121,   0.00000,   2.00000
-158550819.29267,-467637831.90527,-137517231.55538,   0.00059,  -0.00274,  -0.00301,478176768.28288,   0.00109,275827815.15016,   0.00040,  -0.00093,  -0.00122,  -0.00000,   2.00000
-160734249.67648,-468538419.49601,-137074213.66168,   0.00059,  -0.00275,  -0.00301,478184751.94157,   0.00110,275837785.81938,   0.00040,  -0.00094,  -0.00123,   0.00000,   2.00000
-162906309.14945,-469431156.72823,-136626384.61639,   0.00058,  -0.00276,  -0.00302,478197693.74362,   0.00111,275847755.32263,   0.00041,  -0.00094,  -0.00124,   0.00000,   2.00000
-165084714.25195,-470316228.51049,-136176737.36374,   0.00057,  -0.00277,  -0.00302,478219564.10867,   0.00112,275857761.19064,   0.00041,  -0.00095,  -0.00125,   0.00000,   2.00000
-167263327.04148,-471183131.26703,-135734078.51300,   0.00057,  -0.00278,  -0.00302,478231403.97691,   0.00113,275867760.82370,   0.00041,  -0.00096,  -0.00126,   0.00000,   2.00000
-169430405.26422,-472042238.19891,-135286624.65506,   0.00056,  -0.00279,  -0.00303,478244404.81050,   0.00114,275877759.07647,   0.00041,  -0.00097,  -0.00127,   0.00000,   2.00000
-171598959.70142,-472887878.78146,-134841945.95381,   0.00055,  -0.00280,  -0.00303,478251355.85882,   0.00115,275887730.43708,   0.00041,  -0.00098,  -0.00128,   0.00000,   2.00000
-173754654.25153,-473721213.88869,-134396723.52150,   0.00055,  -0.00281,  -0.00303,478269174.00156,   0.00116,275897720.64105,   0.00041,  -0.00099,  -0.00129,   0.00000,   2.00000
-175911837.32756,-474541173.43979,-133954262.83118,   0.00054,  -0.00281,  -0.00304,478276142.58651,   0.00116,275907683.99568,   0.00041,  -0.00100,  -0.00130,   0.00000,   2.00000
-178074810.62475,-475353273.76873,-133509941.36862,   0.00053,  -0.00282,  -0.00304,478298340.37241,   0.00117,275917684.25666,   0.00042,  -0.00101,  -0.00131,   0.00000,   2.00000
-180226070.17432,-476157720.60888,-133060866.67095,   0.00053,  -0.00283,  -0.00305,478311363.09280,   0.00118,275927682.75768,   0.00042,  -0.00102,  -0.00132,  -0.00000,   2.00000
-182358709.89398,-476940019.86242,-132620181.09586,   0.00052,  -0.00284,  -0.00305,478318694.70258,   0.00119,275937655.79469,   0.00042,  -0.00103,  -0.00132,   0.00000,   2.00000
-184492862.10056,-477709118.48260,-132182228.28773,   0.00051,  -0.00285,  -0.00305,478325704.91865,   0.00120,275947602.10807,   0.00042,  -0.00103,  -0.00133,   0.00000,   2.00000
-186633940.70105,-478474895.43169,-131738131.82604,   0.00051,  -0.00286,  -0.00306,478343265.10002,   0.00121,275957565.59811,   0.00042,  -0.00104,  -0.00134,   0.00000,   2.00000
-188761838.71852,-479228678.06116,-131293607.66543,   0.00050,  -0.00287,  -0.00306,478360951.39482,   0.00122,275967546.62118,   0.00042,  -0.00105,  -0.00135,   0.00000,   2.00000
-190889699.78186,-479964668.45989,-130856093.38296,   0.00049,  -0.00287,  -0.00306,478372860.18440,   0.00123,275977521.01413,   0.00042,  -0.00106,  -0.00136,   0.00000,   2.00000
-193001980.43483,-480688213.62853,-130418412.51844,   0.00048,  -0.00288,  -0.00307,478370424.76404,   0.00124,275987429.39563,   0.00042,  -0.00107,  -0.00137,   0.00000,   2.00000
-195101128.53367,-481400101.05022,-129980353.34505,   0.00048,  -0.00289,  -0.00307,478387874.61385,   0.00125,275997354.42780,   0.00043,  -0.00108,  -0.00138,  -0.00000,   2.00000
-197205479.99954,-482104073.27364,-129540459.26281,   0.00047,  -0.00290,  -0.00307,478410333.05778,   0.00126,276007316.52705,   0.00043,  -0.00109,  -0.00139,   0.00000,   2.00000
-199312766.62637,-482799474.50972,-129098920.56420,   0.00046,  -0.00291,  -0.00308,478412906.52954,   0.00127,276017233.31131,   0.00043,  -0.00110,  -0.00140,   0.00000,   2.00000
-201401691.76692,-483473746.86465,-128665906.26947,   0.00046,  -0.00291,  -0.00308,478419636.54817,   0.00128,276027122.25137,   0.00043,  -0.00111,  -0.00141,   0.00000,   2.00000
-203477383.73506,-484136638.97030,-128232571.07132,   0.00045,  -0.00292,  -0.00308,478436944.37560,   0.00128,276037026.99249,   0.00043,  -0.00112,  -0.00142,   0.00000,   2.00000
-205556199.46435,-484791174.26175,-127797542.83750,   0.00044,  -0.00293,  -0.00309,478439488.78360,   0.00129,276046886.69407,   0.00043,  -0.00113,  -0.00143,   0.00000,   2.00000
-207621737.95544,-485434422.08196,-127362232.38917,   0.00043,  -0.00294,  -0.00309,478456736.42777,   0.00130,276056761.90460,   0.00043,  -0.00114,  -0.00144,   0.00000,   2.00000
-209688856.23586,-486064844.49570,-126929573.93747,   0.00043,  -0.00295,  -0.00310,478463940.28888,   0.00131,276066611.31107,   0.00043,  -0.00114,  -0.00144,   0.00000,   2.00000
-211742650.35249,-486684117.84954,-126496660.41715,   0.00042,  -0.00295,  -0.00310,478481120.18451,   0.00132,276076475.82865,   0.00043,  -0.00115,  -0.00145,   0.00000,   2.00000
-213798030.63491,-487290634.72436,-126066380.00131,   0.00041,  -0.00296,  -0.00310,478488360.65493,   0.00133,276086314.69769,   0.00043,  -0.00116,  -0.00146,   0.00000,   2.00000
-215840041.39461,-487886141.02012,-125635871.02701,   0.00040,  -0.00297,  -0.00311,478505474.01439,   0.00134,276096168.29086,   0.00043,  -0.00117,  -0.00147,   0.00000,   2.00000
-217885287.95746,-488473403.68571,-125203575.12398,   0.00040,  -0.00298,  -0.00311,478508231.05511,   0.00135,276105977.97808,   0.00044,  -0.00118,  -0.00148,   0.00000,   2.00000
-219912623.72676,-489040658.91291,-124779940.66494,   0.00039,  -0.00299,  -0.00311,478514275.39161,   0.00136,276115757.46954,   0.00044,  -0.00119,  -0.00149,   0.00000,   2.00000
-221928327.16724,-489601656.16578,-124351699.24651,   0.00038,  -0.00299,  -0.00312,478526680.51168,   0.00137,276125532.71677,   0.00044,  -0.00120,  -0.00150,   0.00000,   2.00000
-223945760.73268,-490150127.15156,-123926052.72922,   0.00037,  -0.00300,  -0.00312,478533910.93129,   0.00138,276135282.70208,   0.00044,  -0.00121,  -0.00151,   0.00000,   2.00000
-225949849.18196,-490688000.49636,-123500252.06745,   0.00037,  -0.00301,  -0.00312,478550753.76102,   0.00138,276145046.44183,   0.00044,  -0.00122,  -0.00152,   0.00000,   2.00000
-227938060.26601,-491210868.44541,-123078744.64352,   0.00036,  -0.00302,  -0.00313,478551970.71408,   0.00139,276154760.77717,   0.00044,  -0.00123,  -0.00153,   0.00000,   2.00000
-229929861.93508,-491725803.33301,-122655351.03183,   0.00035,  -0.00302,  -0.00313,478554721.00217,   0.00140,276164432.11660,   0.00044,  -0.00124,  -0.00153,   0.00000,   2.00000
-231906647.47698,-492226022.96372,-122236304.32157,   0.00034,  -0.00303,  -0.00313,478575779.04367,   0.00141,276174134.45381,   0.00044,  -0.00124,  -0.00154,   0.00000,   2.00000
-233887051.09352,-492718344.69056,-121815333.80328,   0.00034,  -0.00304,  -0.00314,478578607.87247,   0.00142,276183794.19430,   0.00044,  -0.00125,  -0.00155,   0.00000,   2.00000
-235854139.53554,-493200469.78535,-121394277.35463,   0.00033,  -0.00305,  -0.00314,478595193.60595,   0.00143,276193466.81380,   0.00044,  -0.00126,  -0.00156,   0.00000,   2.00000
-237805744.11298,-493668147.10069,-120977535.20403,   0.00032,  -0.00305,  -0.00314,478596103.95604,   0.00144,276203089.44916,   0.00044,  -0.00127,  -0.00157,   0.00000,   2.00000
-239759341.42738,-494123687.03380,-120563307.91180,   0.00031,  -0.00306,  -0.00315,478603300.77965,   0.00145,276212687.51114,   0.00044,  -0.00128,  -0.00158,   0.00000,   2.00000
-241701500.55005,-494573674.64512,-120144530.62079,   0.00030,  -0.00307,  -0.00315,478615348.50944,   0.00146,276222280.49527,   0.00044,  -0.00129,  -0.00159,   0.00000,   2.00000
-243626645.66231,-495005229.75732,-119734580.94409,   0.00030,  -0.00308,  -0.00315,478620366.63344,   0.00147,276231840.46666,   0.00044,  -0.00130,  -0.00160,   0.00000,   2.00000
-245557644.30166,-495433383.71926,-119318273.94713,   0.00029,  -0.00308,  -0.00316,478638871.30857,   0.00147,276241421.19009,   0.00044,  -0.00131,  -0.00161,   0.00000,   2.00000
-247471714.36266,-495843400.06160,-118910609.30017,   0.00028,  -0.00309,  -0.00316,478623839.59172,   0.00148,276250889.27791,   0.00044,  -0.00132,  -0.00161,   0.00000,   2.00000
-249374491.83350,-496248137.35834,-118498627.64116,   0.00027,  -0.00310,  -0.00316,478655567.14026,   0.00149,276260431.05668,   0.00044,  -0.00133,  -0.00162,   0.00000,   2.00000
-251279588.96578,-496641086.11268,-118088888.33747,   0.00026,  -0.00310,  -0.00317,478642857.52254,   0.00150,276269869.83266,   0.00044,  -0.00133,  -0.00163,   0.00000,   2.00000
-253171588.44296,-497024642.43687,-117679169.07476,   0.00026,  -0.00311,  -0.00317,478658880.26776,   0.00151,276279320.00621,   0.00044,  -0.00134,  -0.00164,   0.00000,   2.00000
-255047072.90568,-497390522.63472,-117278323.68824,   0.00025,  -0.00312,  -0.00317,478663395.36736,   0.00152,276288736.10128,   0.00044,  -0.00135,  -0.00165,   0.00000,   2.00000
-256913399.32307,-497755840.56198,-116868418.48190,   0.00024,  -0.00313,  -0.00318,478670777.59258,   0.00153,276298129.58796,   0.00044,  -0.00136,  -0.00166,  -0.00000,   2.00000
-258778781.18207,-498101101.30732,-116469770.50121,   0.00023,  -0.00313,  -0.00318,478666428.20004,   0.00154,276307454.41753,   0.00044,  -0.00137,  -0.00166,   0.00000,   2.00000
-260632603.76820,-498441465.54887,-116066922.39438,   0.00022,  -0.00314,  -0.00318,478697838.09244,   0.00155,276316851.63950,   0.00044,  -0.00138,  -0.00167,   0.00000,   2.00000
-262472827.83429,-498769095.63178,-115668075.34519,   0.00022,  -0.00315,  -0.00319,478677976.85175,   0.00155,276326119.48541,   0.00044,  -0.00139,  -0.00168,   0.00000,   2.00000
-264316843.34742,-499089192.98940,-115267372.83452,   0.00021,  -0.00315,  -0.00319,478700742.66452,   0.00156,276335425.84686,   0.00044,  -0.00140,  -0.00169,   0.00000,   2.00000
-266130281.67634,-499395389.16058,-114872947.31021,   0.00020,  -0.00316,  -0.00319,478693350.59073,   0.00157,276344652.56367,   0.00044,  -0.00141,  -0.00170,   0.00000,   2.00000
-267948416.54332,-499694395.81990,-114476285.67940,   0.00019,  -0.00317,  -0.00319,478696198.23979,   0.00158,276353840.09707,   0.00044,  -0.00141,  -0.00171,   0.00000,   2.00000
-269768266.51430,-499981706.23065,-114082368.43564,   0.00018,  -0.00317,  -0.00320,478723099.45338,   0.00159,276363082.49947,   0.00044,  -0.00142,  -0.00171,  -0.00000,   2.00000
-271559976.20897,-500259815.98913,-113690133.92701,   0.00018,  -0.00318,  -0.00320,478711245.94992,   0.00160,276372228.51548,   0.00044,  -0.00143,  -0.00172,   0.00000,   2.00000
-273355398.58077,-500530530.95270,-113296053.58741,   0.00017,  -0.00319,  -0.00320,478733965.17411,   0.00161,276381413.19122,   0.00044,  -0.00144,  -0.00173,   0.00000,   2.00000
-275122269.14792,-500788488.59010,-112907843.50297,   0.00016,  -0.00319,  -0.00321,478706112.79793,   0.00161,276390439.99105,   0.00044,  -0.00145,  -0.00174,  -0.00000,   2.00000
-276907087.66633,-501035762.82955,-112520390.94194,   0.00015,  -0.00320,  -0.00321,478740415.49802,   0.00162,276399550.86609,   0.00043,  -0.00146,  -0.00175,   0.00000,   2.00000
-278664483.45971,-501274480.32691,-112134615.24484,   0.00014,  -0.00320,  -0.00321,478728098.02560,   0.00163,276408564.83210,   0.00043,  -0.00147,  -0.00175,   0.00000,   2.00000
-280409494.31731,-501505282.42798,-111749016.18943,   0.00014,  -0.00321,  -0.00322,478743015.56045,   0.00164,276417587.85889,   0.00043,  -0.00148,  -0.00176,   0.00000,   2.00000
-282159054.56560,-501725237.37928,-111365157.27742,   0.00013,  -0.00322,  -0.00322,478730192.99999,   0.00165,276426512.73023,   0.00043,  -0.00148,  -0.00177,   0.00000,   2.00000
-283896260.85816,-501937380.24065,-110981469.46576,   0.00012,  -0.00322,  -0.00322,478745019.50178,   0.00166,276435446.69889,   0.00043,  -0.00149,  -0.00178,  -0.00000,   2.00000
-285619092.08523,-502137721.50280,-110602643.08383,   0.00011,  -0.00323,  -0.00322,478763786.64323,   0.00166,276444404.91376,   0.00043,  -0.00150,  -0.00179,   0.00000,   2.00000
-287333045.96639,-502331029.57441,-110222854.75968,   0.00010,  -0.00323,  -0.00323,478739053.11218,   0.00167,276453220.05490,   0.00043,  -0.00151,  -0.00179,   0.00000,   2.00000
-289032808.64809,-502512779.94291,-109847948.60212,   0.00009,  -0.00324,  -0.00323,478757567.95214,   0.00168,276462059.08632,   0.00043,  -0.00152,  -0.00180,  -0.00000,   2.00000
-290722339.70203,-502687445.77813,-109472639.20034,   0.00009,  -0.00325,  -0.00323,478752361.43191,   0.00169,276470830.97475,   0.00043,  -0.00153,  -0.00181,  -0.00000,   2.00000
-292415509.47267,-502855013.29718,-109095462.42330,   0.00008,  -0.00325,  -0.00324,478774898.66948,   0.00170,276479642.20746,   0.00043,  -0.00153,  -0.00182,   0.00000,   2.00000
-294080774.17297,-503007645.67721,-108728705.71052,   0.00007,  -0.00326,  -0.00324,478749672.51661,   0.00171,276488310.27495,   0.00043,  -0.00154,  -0.00183,   0.00000,   2.00000
-295751867.53992,-503157328.90914,-108355354.58170,   0.00006,  -0.00326,  -0.00324,478768183.84025,   0.00171,276497002.82020,   0.00043,  -0.00155,  -0.00183,   0.00000,   2.00000
-297411047.66063,-503296175.46868,-107986264.04974,   0.00005,  -0.00327,  -0.00324,478766696.27588,   0.00172,276505643.56840,   0.00042,  -0.00156,  -0.00184,   0.00000,   2.00000
-299058475.70538,-503424316.70563,-107621416.73938,   0.00004,  -0.00327,  -0.00325,478765099.40383,   0.00173,276514232.50279,   0.00042,  -0.00157,  -0.00185,   0.00000,   2.00000
-300696322.54242,-503549596.51359,-107252086.54022,   0.00004,  -0.00328,  -0.00325,478775267.63497,   0.00174,276522814.61843,   0.00042,  -0.00158,  -0.00186,  -0.00000,   2.00000
-302322666.66764,-503664350.92566,-106887010.64624,   0.00003,  -0.00329,  -0.00325,478773525.42794,   0.00175,276531344.85761,   0.00042,  -0.00158,  -0.00186,   0.00000,   2.00000
-303952850.03849,-503768455.52622,-106524018.84363,   0.00002,  -0.00329,  -0.00326,478780206.98127,   0.00175,276539855.40027,   0.00042,  -0.00159,  -0.00187,   0.00000,   2.00000
-305556552.88289,-503862475.33042,-106167391.54813,   0.00001,  -0.00330,  -0.00326,478769807.84034,   0.00176,276548281.97274,   0.00042,  -0.00160,  -0.00188,   0.00000,   2.00000
-307166087.95563,-503953615.90331,-105804109.77055,   0.00000,  -0.00330,  -0.00326,478788306.75024,   0.00177,276556734.07989,   0.00042,  -0.00161,  -0.00188,  -0.00000,   2.00000
-308749923.55438,-504031250.73891,-105451146.60694,  -0.00001,  -0.00331,  -0.00326,478761930.38033,   0.00178,276565042.61618,   0.00042,  -0.00162,  -0.00189,   0.00000,   2.00000
-310337488.07613,-504102132.68668,-105096257.85804,  -0.00001,  -0.00331,  -0.00327,478784154.44875,   0.00178,276573391.34717,   0.00041,  -0.00162,  -0.00190,   0.00000,   2.00000
-311901550.50479,-504167459.27092,-104742969.32259,  -0.00002,  -0.00332,  -0.00327,478769429.39009,   0.00179,276581641.27657,   0.00041,  -0.00163,  -0.00191,   0.00000,   2.00000
-313469340.55279,-504226067.86461,-104387771.96158,  -0.00003,  -0.00332,  -0.00327,478791619.98197,   0.00180,276589931.49569,   0.00041,  -0.00164,  -0.00191,   0.00000,   2.00000
-315029392.14600,-504275020.97183,-104035866.89001,  -0.00004,  -0.00333,  -0.00327,478769858.65509,   0.00181,276598097.10019,   0.00041,  -0.00165,  -0.00192,   0.00000,   2.00000
-316561478.19532,-504314747.36687,-103691218.32621,  -0.00005,  -0.00333,  -0.00328,478777947.17858,   0.00182,276606250.75704,   0.00041,  -0.00166,  -0.00193,  -0.00000,   2.00000
-318100286.16270,-504348045.49665,-103343721.47895,  -0.00006,  -0.00334,  -0.00328,478780606.69060,   0.00182,276614372.17352,   0.00041,  -0.00166,  -0.00193,   0.00000,   2.00000
-319631164.81334,-504375616.60871,-102995567.52954,  -0.00006,  -0.00334,  -0.00328,478774331.09441,   0.00183,276622428.24007,   0.00041,  -0.00167,  -0.00194,  -0.00000,   2.00000
-321151174.92729,-504397364.25311,-102647703.86264,  -0.00007,  -0.00335,  -0.00328,478787395.19239,   0.00184,276630491.45787,   0.00040,  -0.00168,  -0.00195,  -0.00000,   2.00000
-322647746.26492,-504406911.27593,-102310031.45592,  -0.00008,  -0.00335,  -0.00329,478759868.02824,   0.00185,276638410.95600,   0.00040,  -0.00169,  -0.00196,  -0.00000,   2.00000
-324148166.09541,-504409955.91065,-101970401.41834,  -0.00009,  -0.00336,  -0.00329,478781808.17002,   0.00185,276646371.36178,   0.00040,  -0.00169,  -0.00196,  -0.00000,   2.00000
-325641189.21669,-504407553.72068,-101630050.29347,  -0.00010,  -0.00336,  -0.00329,478775284.33674,   0.00186,276654266.83228,   0.00040,  -0.00170,  -0.00197,   0.00000,   2.00000
-327123634.77263,-504399653.13450,-101289994.52147,  -0.00011,  -0.00337,  -0.00329,478788036.50879,   0.00187,276662169.22274,   0.00040,  -0.00171,  -0.00198,   0.00000,   2.00000
-328585850.96198,-504383842.07213,-100955237.07033,  -0.00012,  -0.00337,  -0.00329,478756400.32321,   0.00188,276669914.41971,   0.00040,  -0.00172,  -0.00198,   0.00000,   2.00000
-330051935.79942,-504361585.79000,-100618518.40560,  -0.00012,  -0.00338,  -0.00330,478778240.26637,   0.00188,276677700.91657,   0.00039,  -0.00172,  -0.00199,   0.00000,   2.00000
-331510095.27850,-504326638.14489,-100289615.30899,  -0.00013,  -0.00338,  -0.00330,478759437.84214,   0.00189,276685378.59647,   0.00039,  -0.00173,  -0.00200,  -0.00000,   2.00000
-332946261.88060,-504291532.46763,-99958404.91950,  -0.00014,  -0.00338,  -0.00330,478758751.28865,   0.00190,276693014.97697,   0.00039,  -0.00174,  -0.00200,   0.00000,   2.00000
-334386299.79758,-504250034.55579,-99625229.40899,  -0.00015,  -0.00339,  -0.00330,478780530.12501,   0.00190,276700692.90730,   0.00039,  -0.00175,  -0.00201,  -0.00000,   2.00000
-335805030.66619,-504197411.58226,-99302086.00022,  -0.00016,  -0.00339,  -0.00331,478751980.19837,   0.00191,276708227.38942,   0.00039,  -0.00175,  -0.00201,   0.00000,   2.00000
-337229943.91108,-504142163.99647,-98972087.00744,  -0.00017,  -0.00340,  -0.00331,478770112.97949,   0.00192,276715790.50981,   0.00039,  -0.00176,  -0.00202,   0.00000,   2.00000
-338634019.19975,-504075991.09567,-98652072.78232,  -0.00017,  -0.00340,  -0.00331,478741333.64614,   0.00193,276723210.36885,   0.00038,  -0.00177,  -0.00203,  -0.00000,   2.00000
-340030614.94278,-504008724.20898,-98327464.66759,  -0.00018,  -0.00340,  -0.00331,478749705.95909,   0.00193,276730623.80310,   0.00038,  -0.00177,  -0.00203,   0.00000,   2.00000
-341432670.08610,-503931389.46499,-98004537.68684,  -0.00019,  -0.00341,  -0.00331,478755735.71921,   0.00194,276738022.25818,   0.00038,  -0.00178,  -0.00204,   0.00000,   2.00000
-342811338.57210,-503850928.65395,-97684198.04241,  -0.00020,  -0.00341,  -0.00332,478757861.19129,   0.00195,276745391.70080,   0.00038,  -0.00179,  -0.00205,   0.00000,   2.00000
-344186016.92473,-503761996.48121,-97366579.35197,  -0.00021,  -0.00342,  -0.00332,478734899.96433,   0.00195,276752640.91816,   0.00038,  -0.00180,  -0.00205,  -0.00000,   2.00000
-345551164.62530,-503668505.86577,-97049243.03340,  -0.00022,  -0.00342,  -0.00332,478746560.09654,   0.00196,276759896.70695,   0.00037,  -0.00180,  -0.00206,   0.00000,   2.00000
-346897510.69391,-503572137.41601,-96733247.79459,  -0.00022,  -0.00342,  -0.00332,478729153.00992,   0.00197,276767053.46491,   0.00037,  -0.00181,  -0.00206,   0.00000,   2.00000
-348249700.63483,-503465795.02600,-96418853.20211,  -0.00023,  -0.00343,  -0.00332,478734987.59227,   0.00197,276774196.14967,   0.00037,  -0.00182,  -0.00207,   0.00000,   2.00000
-349581126.26935,-503353130.45386,-96110664.13155,  -0.00024,  -0.00343,  -0.00333,478720850.27942,   0.00198,276781252.57355,   0.00037,  -0.00182,  -0.00208,   0.00000,   2.00000
-350920820.08033,-503234100.40683,-95799109.39319,  -0.00025,  -0.00343,  -0.00333,478723183.43617,   0.00199,276788282.83899,   0.00037,  -0.00183,  -0.00208,   0.00000,   2.00000
-352240466.49119,-503116295.76432,-95485244.17621,  -0.00026,  -0.00344,  -0.00333,478720953.61955,   0.00199,276795270.68163,   0.00036,  -0.00184,  -0.00209,   0.00000,   2.00000
-353550710.75065,-502986920.76844,-95180169.29795,  -0.00027,  -0.00344,  -0.00333,478720021.14004,   0.00200,276802221.13912,   0.00036,  -0.00184,  -0.00209,   0.00000,   2.00000
-354856331.25109,-502853172.29975,-94874004.22330,  -0.00027,  -0.00344,  -0.00333,478712162.76293,   0.00201,276809109.46912,   0.00036,  -0.00185,  -0.00210,   0.00000,   2.00000
-356157426.59920,-502715050.36397,-94566733.04430,  -0.00028,  -0.00345,  -0.00333,478704259.55402,   0.00201,276815935.90180,   0.00036,  -0.00186,  -0.00210,   0.00000,   2.00000
-357438874.67162,-502571156.21099,-94265611.70666,  -0.00029,  -0.00345,  -0.00334,478689414.94809,   0.00202,276822675.96517,   0.00036,  -0.00186,  -0.00211,   0.00000,   2.00000
-358728975.21606,-502420834.38646,-93960997.43198,  -0.00030,  -0.00345,  -0.00334,478691637.11245,   0.00202,276829391.45331,   0.00035,  -0.00187,  -0.00212,  -0.00000,   2.00000
-359995203.06127,-502265262.24364,-93663939.13722,  -0.00031,  -0.00346,  -0.00334,478695485.10028,   0.00203,276836088.49989,   0.00035,  -0.00187,  -0.00212,   0.00000,   2.00000
-361259791.12751,-502108984.24873,-93360751.97532,  -0.00031,  -0.00346,  -0.00334,478683943.88591,   0.00204,276842712.01732,   0.00035,  -0.00188,  -0.00213,   0.00000,   2.00000
-362518123.38432,-501944991.87083,-93061330.74510,  -0.00032,  -0.00346,  -0.00334,478679092.87151,   0.00204,276849286.45356,   0.00035,  -0.00189,  -0.00213,   0.00000,   2.00000
-363770300.09091,-501773326.10022,-92765648.79451,  -0.00033,  -0.00347,  -0.00334,478674184.91680,   0.00205,276855811.94908,   0.00035,  -0.00189,  -0.00214,   0.00000,   2.00000
-365003903.78688,-501596399.90403,-92476037.21008,  -0.00034,  -0.00347,  -0.00334,478658671.60039,   0.00206,276862251.03291,   0.00034,  -0.00190,  -0.00214,   0.00000,   2.00000
-366248860.27373,-501416417.51432,-92177825.15760,  -0.00035,  -0.00347,  -0.00335,478657476.65881,   0.00206,276868655.20802,   0.00034,  -0.00190,  -0.00215,   0.00000,   2.00000
-367470724.90494,-501231788.60354,-91887200.70709,  -0.00036,  -0.00347,  -0.00335,478660555.18800,   0.00207,276875040.05419,   0.00034,  -0.00191,  -0.00215,   0.00000,   2.00000
-368689288.03676,-501043090.64699,-91595280.71977,  -0.00036,  -0.00348,  -0.00335,478652052.88276,   0.00207,276881364.47356,   0.00034,  -0.00192,  -0.00216,   0.00000,   2.00000
-369892357.58854,-500852839.22981,-91304415.54180,  -0.00037,  -0.00348,  -0.00335,478632802.83876,   0.00208,276887590.68740,   0.00033,  -0.00192,  -0.00216,   0.00000,   2.00000
-371102275.76858,-500652593.79053,-91014835.70248,  -0.00038,  -0.00348,  -0.00335,478638149.72003,   0.00209,276893806.60536,   0.00033,  -0.00193,  -0.00217,   0.00000,   2.00000
-372294625.76023,-500447490.48939,-90731253.77199,  -0.00039,  -0.00348,  -0.00335,478622017.42483,   0.00209,276899936.20863,   0.00033,  -0.00193,  -0.00217,   0.00000,   2.00000
-373481519.98357,-500242431.18760,-90442907.48148,  -0.00040,  -0.00349,  -0.00335,478628654.85747,   0.00210,276906060.67716,   0.00033,  -0.00194,  -0.00218,   0.00000,   2.00000
-374653620.07880,-500036042.82083,-90155556.87625,  -0.00040,  -0.00349,  -0.00335,478609020.70787,   0.00210,276912087.13175,   0.00033,  -0.00195,  -0.00218,   0.00000,   2.00000
-375835483.07367,-499815548.45554,-89872783.09042,  -0.00041,  -0.00349,  -0.00336,478598882.13833,   0.00211,276918049.70546,   0.00032,  -0.00195,  -0.00219,   0.00000,   2.00000
-376994975.57498,-499598628.58995,-89589259.61994,  -0.00042,  -0.00349,  -0.00336,478613040.92020,   0.00211,276924034.65638,   0.00032,  -0.00196,  -0.00219,  -0.00000,   2.00000
-378154857.40113,-499373665.02459,-89307631.27362,  -0.00043,  -0.00350,  -0.00336,478588735.27097,   0.00212,276929906.19169,   0.00032,  -0.00196,  -0.00220,   0.00000,   2.00000
-379300636.57571,-499147558.27881,-89026909.20524,  -0.00044,  -0.00350,  -0.00336,478568699.50994,   0.00212,276935680.07645,   0.00032,  -0.00197,  -0.00220,   0.00000,   2.00000
-380448424.35321,-498912202.40820,-88749040.53426,  -0.00044,  -0.00350,  -0.00336,478592354.33231,   0.00213,276941510.66468,   0.00031,  -0.00197,  -0.00221,  -0.00000,   2.00000
-381584757.00015,-498679085.89931,-88467023.72803,  -0.00045,  -0.00350,  -0.00336,478569019.24941,   0.00214,276947232.44419,   0.00031,  -0.00198,  -0.00221,  -0.00000,   2.00000
-382708038.63123,-498437496.33887,-88194185.20896,  -0.00046,  -0.00350,  -0.00336,478536567.45856,   0.00214,276952814.12256,   0.00031,  -0.00198,  -0.00222,  -0.00000,   2.00000
-383832818.71748,-498194187.21362,-87915877.28479,  -0.00047,  -0.00351,  -0.00336,478572172.54058,   0.00215,276958495.24612,   0.00031,  -0.00199,  -0.00222,   0.00000,   2.00000
-384947256.90747,-497945729.32737,-87641664.60951,  -0.00048,  -0.00351,  -0.00336,478536459.84406,   0.00215,276964025.36163,   0.00031,  -0.00199,  -0.00222,   0.00000,   2.00000
-386060063.96163,-497693360.17066,-87365855.86301,  -0.00048,  -0.00351,  -0.00336,478527087.76397,   0.00216,276969497.55229,   0.00030,  -0.00200,  -0.00223,   0.00000,   2.00000
-387163459.51906,-497434843.44900,-87095284.43555,  -0.00049,  -0.00351,  -0.00337,478539241.44298,   0.00216,276974987.50101,   0.00030,  -0.00200,  -0.00223,   0.00000,   2.00000
-388256425.87819,-497178742.58561,-86820427.72659,  -0.00050,  -0.00351,  -0.00337,478515384.99078,   0.00217,276980369.31062,   0.00030,  -0.00201,  -0.00224,   0.00000,   2.00000
-389345673.48937,-496915524.08099,-86548984.57485,  -0.00051,  -0.00351,  -0.00337,478508981.38479,   0.00217,276985704.54444,   0.00030,  -0.00201,  -0.00224,  -0.00000,   2.00000
-390420066.75734,-496648356.38392,-86283323.81715,  -0.00051,  -0.00352,  -0.00337,478491139.36981,   0.00218,276990953.66488,   0.00029,  -0.00202,  -0.00225,  -0.00000,   2.00000
-391490209.52073,-496381666.79155,-86012776.00229,  -0.00052,  -0.00352,  -0.00337,478496670.89510,   0.00218,276996198.56947,   0.00029,  -0.00202,  -0.00225,   0.00000,   2.00000
-392559330.05060,-496111090.26196,-85740535.58320,  -0.00053,  -0.00352,  -0.00337,478486995.11799,   0.00219,277001386.36388,   0.00029,  -0.00203,  -0.00225,  -0.00000,   2.00000
-393625084.35043,-495833424.84066,-85471650.78192,  -0.00054,  -0.00352,  -0.00337,478480382.76890,   0.00219,277006528.05238,   0.00029,  -0.00203,  -0.00226,  -0.00000,   2.00000
-394678959.51272,-495555107.62021,-85203421.90582,  -0.00054,  -0.00352,  -0.00337,478459119.84268,   0.00220,277011573.05368,   0.00028,  -0.00204,  -0.00226,  -0.00000,   2.00000
-395729705.36100,-495269729.18520,-84938506.75144,  -0.00055,  -0.00352,  -0.00337,478452337.45328,   0.00220,277016572.18078,   0.00028,  -0.00204,  -0.00227,  -0.00000,   2.00000
-396777382.57671,-494977288.82052,-84676878.42143,  -0.00056,  -0.00352,  -0.00337,478445523.56977,   0.00221,277021525.61180,   0.00028,  -0.00205,  -0.00227,  -0.00000,   2.00000
-397810278.69158,-494688743.09819,-84412708.65504,  -0.00057,  -0.00353,  -0.00337,478439128.07781,   0.00221,277026435.08584,   0.00028,  -0.00205,  -0.00227,   0.00000,   2.00000
-398842721.59317,-494396275.99163,-84146721.31259,  -0.00057,  -0.00353,  -0.00337,478429145.16973,   0.00221,277031288.43210,   0.00028,  -0.00205,  -0.00228,  -0.00000,   2.00000
-399861671.30757,-494100179.36605,-83886388.90567,  -0.00058,  -0.00353,  -0.00337,478410451.74437,   0.00222,277036055.91891,   0.00027,  -0.00206,  -0.00228,  -0.00000,   2.00000
-400876932.66031,-493804688.10534,-83621104.37546,  -0.00059,  -0.00353,  -0.00337,478415431.49306,   0.00222,277040819.76694,   0.00027,  -0.00206,  -0.00228,   0.00000,   2.00000
-401895477.88232,-493500677.13463,-83357029.37992,  -0.00060,  -0.00353,  -0.00337,478390231.02902,   0.00223,277045475.86521,   0.00027,  -0.00207,  -0.00229,   0.00000,   2.00000
-402897445.00520,-493197675.46650,-83095489.92179,  -0.00060,  -0.00353,  -0.00337,478386333.08123,   0.00223,277050098.29718,   0.00027,  -0.00207,  -0.00229,  -0.00000,   2.00000
-403897025.62694,-492887649.67555,-82837142.95814,  -0.00061,  -0.00353,  -0.00337,478379072.56992,   0.00224,277054675.69365,   0.00026,  -0.00208,  -0.00229,   0.00000,   2.00000
-404886267.11366,-492577194.65251,-82579252.78747,  -0.00062,  -0.00353,  -0.00337,478356918.70489,   0.00224,277059157.07972,   0.00026,  -0.00208,  -0.00230,   0.00000,   2.00000
-405882477.92154,-492263797.14041,-82313970.02223,  -0.00063,  -0.00353,  -0.00337,478373501.22477,   0.00225,277063676.11344,   0.00026,  -0.00208,  -0.00230,   0.00000,   2.00000
-406859458.23702,-491945871.66069,-82059661.57337,  -0.00063,  -0.00353,  -0.00337,478327264.22568,   0.00225,277068016.89876,   0.00026,  -0.00209,  -0.00230,  -0.00000,   2.00000
-407841043.49212,-491621970.40425,-81803054.63046,  -0.00064,  -0.00353,  -0.00337,478346704.26946,   0.00225,277072405.79204,   0.00026,  -0.00209,  -0.00231,   0.00000,   2.00000
-408801339.94981,-491309049.63632,-81541108.03678,  -0.00065,  -0.00353,  -0.00337,478324323.68252,   0.00226,277076699.15655,   0.00025,  -0.00210,  -0.00231,   0.00000,   2.00000
-409771241.43820,-490977678.55148,-81287991.45667,  -0.00066,  -0.00353,  -0.00337,478316677.27990,   0.00226,277080948.00809,   0.00025,  -0.00210,  -0.00231,   0.00000,   2.00000
-410730281.93903,-490653657.68727,-81027098.66835,  -0.00066,  -0.00353,  -0.00337,478306120.00954,   0.00227,277085142.61412,   0.00025,  -0.00210,  -0.00232,   0.00000,   2.00000
-411687579.99645,-490322550.97272,-80769281.51826,  -0.00067,  -0.00353,  -0.00337,478298434.16838,   0.00227,277089293.10876,   0.00025,  -0.00211,  -0.00232,  -0.00000,   2.00000
-412633222.50429,-489988113.25339,-80516911.51961,  -0.00068,  -0.00353,  -0.00337,478278573.48224,   0.00227,277093358.16517,   0.00025,  -0.00211,  -0.00232,   0.00000,   2.00000
-413579713.80016,-489649534.24361,-80262419.79439,  -0.00068,  -0.00353,  -0.00337,478267848.17979,   0.00228,277097369.42359,   0.00024,  -0.00211,  -0.00233,   0.00000,   2.00000
-414513415.53435,-489315447.48143,-80005257.69692,  -0.00069,  -0.00354,  -0.00337,478259815.15021,   0.00228,277101336.37426,   0.00024,  -0.00212,  -0.00233,  -0.00000,   2.00000
-415445730.07884,-488974258.59275,-79751105.27209,  -0.00070,  -0.00354,  -0.00337,478251876.81643,   0.00228,277105259.59437,   0.00024,  -0.00212,  -0.00233,   0.00000,   2.00000
-416379088.08977,-488628845.65901,-79494781.37679,  -0.00070,  -0.00354,  -0.00337,478241055.21703,   0.00229,277109129.48412,   0.00024,  -0.00212,  -0.00234,   0.00000,   2.00000
-417297551.89451,-488285097.89797,-79240926.93670,  -0.00071,  -0.00354,  -0.00337,478235645.90043,   0.00229,277112964.79173,   0.00023,  -0.00213,  -0.00234,   0.00000,   2.00000
-418207596.48124,-487941011.12335,-78987263.93260,  -0.00072,  -0.00354,  -0.00337,478212389.78488,   0.00230,277116705.00502,   0.00023,  -0.00213,  -0.00234,   0.00000,   2.00000
-419118976.66076,-487592655.06867,-78731377.49264,  -0.00073,  -0.00353,  -0.00337,478201372.75280,   0.00230,277120392.20731,   0.00023,  -0.00213,  -0.00234,  -0.00000,   2.00000
-420029322.89632,-487237111.26291,-78478415.84913,  -0.00073,  -0.00353,  -0.00337,478193184.15854,   0.00230,277124036.29813,   0.00023,  -0.00214,  -0.00235,  -0.00000,   2.00000
-420927615.16403,-486886227.94214,-78222723.92566,  -0.00074,  -0.00353,  -0.00337,478184537.96331,   0.00231,277127635.96186,   0.00023,  -0.00214,  -0.00235,   0.00000,   2.00000
-421825030.79283,-486528146.47799,-77969933.18929,  -0.00075,  -0.00353,  -0.00337,478176245.19204,   0.00231,277131192.64376,   0.00022,  -0.00214,  -0.00235,   0.00000,   2.00000
-422723985.46470,-486165659.46851,-77714837.56094,  -0.00075,  -0.00353,  -0.00337,478165137.56923,   0.00231,277134697.01792,   0.00022,  -0.00215,  -0.00235,   0.00000,   2.00000
-423601847.45874,-485811913.80837,-77459373.86665,  -0.00076,  -0.00353,  -0.00336,478143746.04538,   0.00232,277138114.55527,   0.00022,  -0.00215,  -0.00236,  -0.00000,   2.00000
-424488355.25737,-485446881.79622,-77204384.58373,  -0.00077,  -0.00353,  -0.00336,478147800.43717,   0.00232,277141531.80492,   0.00022,  -0.00215,  -0.00236,   0.00000,   2.00000
-425364986.24667,-485078632.62126,-76954609.68443,  -0.00077,  -0.00353,  -0.00336,478126798.78459,   0.00232,277144864.07369,   0.00022,  -0.00215,  -0.00236,  -0.00000,   2.00000
-426236679.56995,-484712746.10204,-76699631.62470,  -0.00078,  -0.00353,  -0.00336,478100124.83166,   0.00233,277148092.60325,   0.00021,  -0.00216,  -0.00236,   0.00000,   2.00000
-427101429.15737,-484342006.70690,-76449879.55420,  -0.00079,  -0.00353,  -0.00336,478108962.23037,   0.00233,277151337.87429,   0.00021,  -0.00216,  -0.00237,  -0.00000,   2.00000
-427966382.88345,-483974731.89347,-76189751.98246,  -0.00079,  -0.00353,  -0.00336,478109541.45473,   0.00233,277154571.91115,   0.00021,  -0.00216,  -0.00237,   0.00000,   2.00000
-428826099.15055,-483598952.37431,-75937530.70511,  -0.00080,  -0.00353,  -0.00336,478073555.50433,   0.00233,277157671.48712,   0.00021,  -0.00217,  -0.00237,   0.00000,   2.00000
-429674790.41452,-483228014.42833,-75682484.16259,  -0.00081,  -0.00353,  -0.00336,478064025.68437,   0.00234,277160726.43425,   0.00021,  -0.00217,  -0.00237,   0.00000,   2.00000
-430523306.12157,-482849695.34534,-75430179.60343,  -0.00081,  -0.00353,  -0.00336,478055210.73238,   0.00234,277163739.39569,   0.00021,  -0.00217,  -0.00238,   0.00000,   2.00000
-431369822.69328,-482472045.72198,-75172667.77911,  -0.00082,  -0.00353,  -0.00336,478058312.90813,   0.00234,277166750.68482,   0.00020,  -0.00217,  -0.00238,   0.00000,   2.00000
-432207420.50385,-482091178.98897,-74920238.74639,  -0.00082,  -0.00353,  -0.00335,478036685.60318,   0.00235,277169677.15954,   0.00020,  -0.00218,  -0.00238,   0.00000,   2.00000
-433047356.47831,-481705548.99925,-74665277.43449,  -0.00083,  -0.00353,  -0.00335,478025081.32719,   0.00235,277172552.91726,   0.00020,  -0.00218,  -0.00238,   0.00000,   2.00000
-433880961.35222,-481319347.34271,-74410121.84639,  -0.00084,  -0.00352,  -0.00335,478000606.88536,   0.00235,277175334.97389,   0.00020,  -0.00218,  -0.00238,   0.00000,   2.00000
-434701745.45990,-480935384.72181,-74157311.81601,  -0.00084,  -0.00352,  -0.00335,477993259.25343,   0.00235,277178081.30585,   0.00020,  -0.00218,  -0.00239,  -0.00000,   2.00000
-435520785.35076,-480552084.21300,-73899259.83985,  -0.00085,  -0.00352,  -0.00335,477996054.39212,   0.00236,277180826.11337,   0.00020,  -0.00219,  -0.00239,   0.00000,   2.00000
-436346702.07822,-480158332.14035,-73641252.56339,  -0.00086,  -0.00352,  -0.00335,477969778.18685,   0.00236,277183471.91707,   0.00019,  -0.00219,  -0.00239,   0.00000,   2.00000
-437155692.73907,-479772428.89227,-73382942.03188,  -0.00086,  -0.00352,  -0.00335,477976744.89265,   0.00236,277186130.61742,   0.00019,  -0.00219,  -0.00239,  -0.00000,   2.00000
-437971705.52496,-479375956.41830,-73124618.09901,  -0.00087,  -0.00352,  -0.00334,477950434.09467,   0.00236,277188690.69646,   0.00019,  -0.00219,  -0.00239,   0.00000,   2.00000
-438775311.51641,-478981805.97266,-72868608.22273,  -0.00087,  -0.00352,  -0.00334,477942703.57840,   0.00237,277191214.83506,   0.00019,  -0.00219,  -0.00240,   0.00000,   2.00000
-439573380.16967,-478586977.44068,-72612256.15392,  -0.00088,  -0.00352,  -0.00334,477917747.21274,   0.00237,277193645.58017,   0.00019,  -0.00220,  -0.00240,  -0.00000,   2.00000
-440369916.16534,-478192736.29507,-72350612.14823,  -0.00089,  -0.00352,  -0.00334,477920247.09966,   0.00237,277196075.16237,   0.00019,  -0.00220,  -0.00240,  -0.00000,   2.00000
-441166982.62435,-477790774.99750,-72091509.89133,  -0.00089,  -0.00351,  -0.00334,477910911.28660,   0.00237,277198464.05287,   0.00018,  -0.00220,  -0.00240,  -0.00000,   2.00000
-441954335.89255,-477393783.25425,-71829437.65659,  -0.00090,  -0.00351,  -0.00334,477900260.85066,   0.00237,277200808.05553,   0.00018,  -0.00220,  -0.00240,   0.00000,   2.00000
-442734215.19246,-476993468.29326,-71572206.86493,  -0.00090,  -0.00351,  -0.00333,477877662.00632,   0.00238,277203067.51562,   0.00018,  -0.00220,  -0.00240,   0.00000,   2.00000
-443517157.21951,-476587911.17045,-71312193.80519,  -0.00091,  -0.00351,  -0.00333,477865577.81572,   0.00238,277205277.89444,   0.00018,  -0.00221,  -0.00241,   0.00000,   2.00000
-444298683.62905,-476182865.44415,-71046850.12221,  -0.00092,  -0.00351,  -0.00333,477867897.62505,   0.00238,277207487.44171,   0.00018,  -0.00221,  -0.00241,  -0.00000,   2.00000
-445072984.85946,-475774420.12075,-70786286.30866,  -0.00092,  -0.00351,  -0.00333,477845149.37886,   0.00238,277209612.64222,   0.00018,  -0.00221,  -0.00241,   0.00000,   2.00000
-445838024.23444,-475370969.90838,-70522693.45591,  -0.00093,  -0.00350,  -0.00333,477834090.20075,   0.00239,277211692.81501,   0.00018,  -0.00221,  -0.00241,   0.00000,   2.00000
-446603985.17828,-474959618.66653,-70261528.87403,  -0.00093,  -0.00350,  -0.00332,477824435.76559,   0.00239,277213732.84880,   0.00017,  -0.00221,  -0.00241,   0.99056,   1.00000
-447360844.05796,-474553271.10465,-69997313.65467,  -0.00094,  -0.00350,  -0.00332,477813239.45329,   0.00239,277215727.80072,   0.00017,  -0.00221,  -0.00241,   0.93959,   1.00000
-448121020.19429,-474141432.10907,-69730207.47263,  -0.00094,  -0.00350,  -0.00332,477801001.16759,   0.00239,277217674.40547,   0.00017,  -0.00222,  -0.00241,   0.88731,   1.00000
-448869938.06998,-473732127.62987,-69465322.63044,  -0.00095,  -0.00350,  -0.00332,477792180.23809,   0.00239,277219584.25499,   0.00017,  -0.00222,  -0.00241,   0.84724,   1.00000
-449622255.88623,-473317252.59748,-69197508.48327,  -0.00095,  -0.00350,  -0.00332,477779890.98373,   0.00239,277221445.98770,   0.00017,  -0.00222,  -0.00242,   0.79856,   1.00000
-450365768.33360,-472907368.49626,-68926600.98404,  -0.00096,  -0.00349,  -0.00331,477768434.15825,   0.00240,277223262.58387,   0.00017,  -0.00222,  -0.00242,   0.75414,   1.00000
-451110457.48866,-472489391.14227,-68658029.09126,  -0.00097,  -0.00349,  -0.00331,477758579.35768,   0.00240,277225039.57126,   0.00017,  -0.00222,  -0.00242,   0.71580,   1.00000
-451851093.11802,-472070275.00127,-68388746.06900,  -0.00097,  -0.00349,  -0.00331,477732762.66728,   0.00240,277226724.16942,   0.00016,  -0.00222,  -0.00242,   0.63813,   1.00000
-452586033.97767,-471657683.67611,-68111651.38839,  -0.00098,  -0.00349,  -0.00331,477748796.21753,   0.00240,277228455.56264,   0.00016,  -0.00222,  -0.00242,   0.66860,   1.00000
-453319436.07928,-471235333.58382,-67841510.14599,  -0.00098,  -0.00349,  -0.00330,477711156.31557,   0.00240,277230055.65474,   0.00016,  -0.00223,  -0.00242,   0.56648,   1.00000
-454049536.21771,-470810951.96002,-67571250.82998,  -0.00099,  -0.00348,  -0.00330,477715334.18196,   0.00240,277231663.57218,   0.00016,  -0.00223,  -0.00242,   0.56750,   1.00000
-454773538.95349,-470393914.21860,-67292505.38691,  -0.00099,  -0.00348,  -0.00330,477701064.89024,   0.00241,277233218.18193,   0.00016,  -0.00223,  -0.00242,   0.52622,   1.00000
-455491670.51211,-469973232.05836,-67018256.91467,  -0.00100,  -0.00348,  -0.00330,477677399.58312,   0.00241,277234688.62280,   0.00016,  -0.00223,  -0.00242,   0.46706,   1.00000
-456213846.18836,-469545864.58490,-66741628.52240,  -0.00100,  -0.00348,  -0.00329,477695051.30453,   0.00241,277236211.97206,   0.00016,  -0.00223,  -0.00243,   0.49731,   1.00000
-456920649.20582,-469128143.14549,-66464053.93646,  -0.00101,  -0.00348,  -0.00329,477669403.77639,   0.00241,277237644.80123,   0.00016,  -0.00223,  -0.00243,   0.43650,   1.00000
-457631264.21329,-468704375.84337,-66183338.80245,  -0.00101,  -0.00347,  -0.00329,477656842.71779,   0.00241,277239030.75824,   0.00016,  -0.00223,  -0.00243,   0.40518,   1.00000
-458338584.99165,-468279170.59939,-65901695.09024,  -0.00102,  -0.00347,  -0.00329,477630582.42355,   0.00241,277240324.77217,   0.00016,  -0.00223,  -0.00243,   0.35042,   1.00000
-459042808.01577,-467851909.20082,-65619905.82693,  -0.00102,  -0.00347,  -0.00328,477634409.57295,   0.00241,277241626.62648,   0.00015,  -0.00223,  -0.00243,   0.35191,   1.00000
-459743931.63168,-467422603.49344,-65337975.50357,  -0.00103,  -0.00347,  -0.00328,477638240.16595,   0.00241,277242936.30871,   0.00015,  -0.00224,  -0.00243,   0.35339,   1.00000
-460437244.79086,-466998755.18911,-65051924.24238,  -0.00103,  -0.00346,  -0.00328,477595756.74985,   0.00242,277244100.91380,   0.00015,  -0.00224,  -0.00243,   0.27725,   1.00000
-461132243.97245,-466565869.60896,-64768848.87443,  -0.00104,  -0.00346,  -0.00327,477615570.48383,   0.00242,277245326.60254,   0.00015,  -0.00224,  -0.00243,   0.30475,   1.00000
-461826511.89769,-466133609.89792,-64479368.44823,  -0.00104,  -0.00346,  -0.00327,477586821.49584,   0.00242,277246452.94997,   0.00015,  -0.00224,  -0.00243,   0.25536,   1.00000
-462506197.73821,-465710596.29043,-64189705.36875,  -0.00105,  -0.00346,  -0.00327,477590601.29786,   0.00242,277247587.61809,   0.00015,  -0.00224,  -0.00243,   0.25716,   1.00000
-463194674.32454,-465274560.21507,-63898959.29814,  -0.00105,  -0.00345,  -0.00326,477563950.05388,   0.00242,277248630.28416,   0.00015,  -0.00224,  -0.00243,   0.21548,   1.00000
-463868687.59150,-464847833.97164,-63608031.08164,  -0.00106,  -0.00345,  -0.00326,477567562.88633,   0.00242,277249681.03578,   0.00015,  -0.00224,  -0.00243,   0.21718,   1.00000
-464540110.81405,-464419379.34540,-63315951.60029,  -0.00106,  -0.00345,  -0.00326,477540906.72622,   0.00242,277250640.15790,   0.00015,  -0.00224,  -0.00243,   0.17959,   1.00000
-465215651.79538,-463984344.80328,-63020499.75476,  -0.00107,  -0.00345,  -0.00325,477528128.90667,   0.00242,277251553.71260,   0.00015,  -0.00224,  -0.00244,   0.16171,   1.00000
-465888306.42376,-463547202.46335,-62724857.79648,  -0.00107,  -0.00344,  -0.00325,477531545.77568,   0.00242,277252475.18664,   0.00015,  -0.00224,  -0.00244,   0.16330,   1.00000
-466553716.20578,-463114918.48882,-62425821.76297,  -0.00107,  -0.00344,  -0.00325,477518707.39346,   0.00242,277253351.07216,   0.00015,  -0.00224,  -0.00244,   0.14644,   1.00000
-467216288.37384,-462680549.50489,-62126598.68985,  -0.00108,  -0.00344,  -0.00324,477522054.40022,   0.00243,277254234.78750,   0.00014,  -0.00224,  -0.00244,   0.14797,   1.00000
-467876564.80001,-462244229.43450,-61826088.78353,  -0.00108,  -0.00344,  -0.00324,477495266.74412,   0.00243,277255027.23196,   0.00014,  -0.00224,  -0.00244,   0.11811,   1.00000
-468529801.41567,-461812746.17209,-61522139.13143,  -0.00109,  -0.00343,  -0.00324,477482234.94550,   0.00243,277255773.97966,   0.00014,  -0.00225,  -0.00244,   0.10411,   1.00000
-469180286.26229,-461379170.07532,-61217986.49070,  -0.00109,  -0.00343,  -0.00323,477485426.63010,   0.00243,277256528.51937,   0.00014,  -0.00225,  -0.00244,   0.10553,   1.00000
-469834993.53527,-460938683.68818,-60910326.95065,  -0.00110,  -0.00343,  -0.00323,477472623.83600,   0.00243,277257238.28865,   0.00014,  -0.00225,  -0.00244,   0.09270,   1.00000
-470477936.05759,-460509922.55753,-60597110.80671,  -0.00110,  -0.00342,  -0.00323,477473285.87783,   0.00243,277257947.67470,   0.00014,  -0.00225,  -0.00244,   0.09193,   1.00000
-471121656.82937,-460069985.56100,-60289936.19547,  -0.00111,  -0.00342,  -0.00322,477434712.69968,   0.00243,277258527.90062,   0.00014,  -0.00225,  -0.00244,   0.06107,   1.00000
-471757826.06278,-459634913.33916,-59980481.41719,  -0.00111,  -0.00342,  -0.00322,477451502.55126,   0.00243,277259161.14467,   0.00014,  -0.00225,  -0.00244,   0.07223,   1.00000
-472394277.82688,-459199660.12061,-59664137.81438,  -0.00111,  -0.00342,  -0.00322,477422299.58255,   0.00243,277259696.32051,   0.00014,  -0.00225,  -0.00244,   0.05122,   1.00000
-473028063.67218,-458762262.01688,-59347559.75817,  -0.00112,  -0.00341,  -0.00321,477425282.96535,   0.00243,277260239.36878,   0.00014,  -0.00225,  -0.00244,   0.05237,   1.00000
-473659178.66365,-458322726.89801,-59030751.46121,  -0.00112,  -0.00341,  -0.00321,477428272.47190,   0.00243,277260790.28272,   0.00014,  -0.00225,  -0.00244,   0.05353,   1.00000
-474283715.74159,-457887946.24932,-58710380.24535,  -0.00113,  -0.00341,  -0.00320,477414871.23517,   0.00243,277261295.30968,   0.00014,  -0.00225,  -0.00244,   0.04468,   1.00000
-474906648.77909,-457450768.48985,-58388412.76674,  -0.00113,  -0.00341,  -0.00320,477387715.06364,   0.00243,277261709.55710,   0.00014,  -0.00225,  -0.00244,   0.02985,   1.00000
-475526981.17581,-457011434.98552,-58066194.55293,  -0.00113,  -0.00340,  -0.00320,477390560.05351,   0.00243,277262131.65555,   0.00014,  -0.00225,  -0.00244,   0.03079,   1.00000
-476140912.21465,-456576813.87892,-57740357.84826,  -0.00114,  -0.00340,  -0.00319,477376984.50319,   0.00243,277262507.79860,   0.00014,  -0.00225,  -0.00244,   0.02429,   1.00000
-476754327.31298,-456141993.69486,-57408837.06071,  -0.00114,  -0.00340,  -0.00319,477377700.64759,   0.00243,277262884.95463,   0.00014,  -0.00225,  -0.00244,   0.02425,   1.00000
-477364301.75404,-455702657.49226,-57081034.95286,  -0.00115,  -0.00339,  -0.00318,477352506.76197,   0.00243,277263178.31290,   0.00014,  -0.00225,  -0.00244,   0.01458,   1.00000
-477973765.75765,-455263065.85028,-56747524.52038,  -0.00115,  -0.00339,  -0.00318,477353174.05511,   0.00243,277263472.82057,   0.00014,  -0.00225,  -0.00244,   0.01460,   1.00000
-478570057.14580,-454833540.72271,-56413865.64695,  -0.00115,  -0.00339,  -0.00318,477355053.75895,   0.00243,277263772.44116,   0.00014,  -0.00225,  -0.00244,   0.01501,   1.00000
-479170795.37892,-454396427.40996,-56076395.24084,  -0.00116,  -0.00338,  -0.00317,477342136.65522,   0.00243,277264028.75854,   0.00014,  -0.00225,  -0.00244,   0.01091,   1.00000
-479773931.94695,-453949745.27349,-55740530.49211,  -0.00116,  -0.00338,  -0.00317,477331267.37394,   0.00243,277264248.63437,   0.00014,  -0.00225,  -0.00244,   0.00798,   1.00000
-480360469.55991,-453520007.24056,-55401058.88182,  -0.00116,  -0.00338,  -0.00316,477316480.26676,   0.00243,277264419.39613,   0.00014,  -0.00225,  -0.00244,   0.00478,   1.00000
-480952061.87671,-453085030.75056,-55053865.38816,  -0.00117,  -0.00338,  -0.00316,477331543.41587,   0.00244,277264638.79464,   0.00014,  -0.00225,  -0.00244,   0.00785,   1.00000
-481540601.96343,-452645334.72715,-54710210.83647,  -0.00117,  -0.00337,  -0.00315,477306152.73971,   0.00244,277264774.45499,   0.00014,  -0.00225,  -0.00244,   0.00298,   1.00000
-482123197.50000,-452210208.91240,-54362768.12221,  -0.00118,  -0.00337,  -0.00315,477292186.59732,   0.00244,277264864.01339,   0.00014,  -0.00225,  -0.00244,   0.00129,   1.00000
-482703340.93186,-451772884.70692,-54015027.08157,  -0.00118,  -0.00337,  -0.00315,477294673.11117,   0.00244,277264961.38221,   0.00014,  -0.00225,  -0.00244,   0.00152,   1.00000
-483284919.82503,-451336954.89916,-53656050.24486,  -0.00118,  -0.00336,  -0.00314,477293302.28051,   0.00244,277265053.93518,   0.00014,  -0.00225,  -0.00244,   0.00136,   1.00000
-483851453.07809,-450906928.91763,-53306122.49936,  -0.00119,  -0.00336,  -0.00314,477268523.09887,   0.00244,277265065.26213,   0.00014,  -0.00225,  -0.00244,   0.00002,   1.00000
-484422801.68541,-450471541.09627,-52948484.96719,  -0.00119,  -0.00336,  -0.00313,477283606.56405,   0.00244,277265125.78797,   0.00014,  -0.00225,  -0.00244,   0.00058,   1.00000
-484988388.88293,-450040666.72964,-52586984.47931,  -0.00119,  -0.00335,  -0.00313,477269519.92659,   0.00244,277265140.12922,   0.00014,  -0.00225,  -0.00244,   0.00003,   1.00000
-485551546.58295,-449607587.44963,-52225177.44405,  -0.00120,  -0.00335,  -0.00312,477271925.43707,   0.00244,277265162.27029,   0.00014,  -0.00225,  -0.00244,   0.00008,   1.00000
-486092935.63256,-449152133.16979,-51858522.42632,  -0.00120,  -0.00335,  -0.00312,477244403.72774,   0.00244,277265162.27029,   0.00014,  -0.00225,  -0.00244,-20758.54255,   0.00000
-486622866.71288,-448708136.85926,-51486138.42393,  -0.00120,  -0.00334,  -0.00311,477222834.70633,   0.00244,277265162.27029,   0.00014,  -0.00225,  -0.00244,-42327.56396,   0.00000
-487172849.23948,-448272734.02570,-51113754.42155,  -0.00121,  -0.00334,  -0.00311,477218368.99738,   0.00244,277265162.27029,   0.00014,  -0.00225,  -0.00244,-46793.27291,   0.00000
-487674135.39653,-447800092.79191,-50741370.41917,  -0.00121,  -0.00334,  -0.00310,477173471.99154,   0.00244,277265162.27029,   0.00014,  -0.00225,  -0.00244,-91690.27875,   0.00000
-488204066.47685,-447356096.48138,-50363257.43213,  -0.00121,  -0.00334,  -0.00310,477157201.78542,   0.00244,277265162.27029,   0.00014,  -0.00225,  -0.00244,-107960.48487,   0.00000
-488685301.18762,-446874861.77060,-49979415.46045,  -0.00122,  -0.00333,  -0.00309,477098643.01954,   0.00244,277265162.27029,   0.00014,  -0.00225,  -0.00244,-166519.25075,   0.00000
-489195180.82165,-446422271.98309,-49595573.48876,  -0.00122,  -0.00333,  -0.00309,477070548.79245,   0.00244,277265162.27029,   0.00014,  -0.00225,  -0.00244,-194613.47784,   0.00000
-489676415.53242,-445941037.27232,-49206002.53242,  -0.00122,  -0.00333,  -0.00308,477014972.55069,   0.00244,277265162.27029,   0.00014,  -0.00225,  -0.00244,-250189.71960,   0.00000
-490146192.27389,-445471260.53085,-48810702.59143,  -0.00123,  -0.00332,  -0.00308,476958431.84212,   0.00244,277265162.27029,   0.00014,  -0.00225,  -0.00244,-306730.42817,   0.00000
-490607375.53838,-444981432.34310,-48415402.65044,  -0.00123,  -0.00332,  -0.00307,476891028.45307,   0.00244,277265162.27029,   0.00014,  -0.00225,  -0.00244,-374133.81722,   0.00000
-491077152.27985,-444511655.60163,-48020102.70944,  -0.00123,  -0.00332,  -0.00307,476839233.14008,   0.00244,277265162.27029,   0.00014,  -0.00225,  -0.00244,-425929.13021,   0.00000
-491518284.09806,-444013233.93691,-47619073.78380,  -0.00123,  -0.00331,  -0.00306,476759982.81776,   0.00244,277265162.27029,   0.00014,  -0.00225,  -0.00244,-505179.45253,   0.00000
-491968009.39324,-443534863.71846,-47212315.87351,  -0.00124,  -0.00331,  -0.00306,476694600.25308,   0.00244,277265162.27029,   0.00014,  -0.00225,  -0.00244,-570562.01721,   0.00000
-492397683.24215,-443047900.02304,-46805557.96321,  -0.00124,  -0.00331,  -0.00305,476616660.85981,   0.00244,277265162.27029,   0.00014,  -0.00225,  -0.00244,-648501.41048,   0.00000
-492827357.09105,-442560936.32761,-46393071.06826,  -0.00124,  -0.00330,  -0.00305,476539401.08650,   0.00244,277265162.27029,   0.00014,  -0.00225,  -0.00244,-725761.18379,   0.00000
-493248437.46298,-442053921.18590,-45980584.17331,  -0.00125,  -0.00330,  -0.00304,476451389.71246,   0.00244,277265162.27029,   0.00014,  -0.00225,  -0.00244,-813772.55784,   0.00000
-493658059.86560,-441558364.01350,-45562368.29372,  -0.00125,  -0.00330,  -0.00304,476362269.51534,   0.00244,277265162.27029,   0.00014,  -0.00225,  -0.00244,-902892.75495,   0.00000
-494067682.26822,-441062806.84110,-45144152.41412,  -0.00125,  -0.00330,  -0.00303,476275528.47203,   0.00244,277265162.27029,   0.00014,  -0.00225,  -0.00244,-989633.79827,   0.00000
-494465846.70154,-440578707.63800,-44720207.54986,  -0.00125,  -0.00329,  -0.00302,476187608.36172,   0.00244,277265162.27029,   0.00014,  -0.00225,  -0.00244,-1077553.90857,   0.00000
-494855417.65788,-440074556.98862,-44296262.68561,  -0.00126,  -0.00329,  -0.00302,476088960.23602,   0.00244,277265162.27029,   0.00014,  -0.00225,  -0.00244,-1176202.03428,   0.00000
-495224937.16793,-439561812.86226,-43866588.83671,  -0.00126,  -0.00329,  -0.00301,475976036.59440,   0.00244,277265162.27029,   0.00014,  -0.00225,  -0.00244,-1289125.67589,   0.00000
-495603050.15497,-439069120.18219,-43436914.98780,  -0.00126,  -0.00328,  -0.00301,475878531.95988,   0.00244,277265162.27029,   0.00014,  -0.00225,  -0.00244,-1386630.31041,   0.00000
-495981163.14200,-438576427.50211,-43001512.15425,  -0.00127,  -0.00328,  -0.00300,475781820.22404,   0.00244,277265162.27029,   0.00014,  -0.00225,  -0.00244,-1483342.04625,   0.00000
-496350682.65206,-438063683.37575,-42560380.33604,  -0.00127,  -0.00328,  -0.00300,475672934.37436,   0.00244,277265162.27029,   0.00014,  -0.00225,  -0.00244,-1592227.89593,   0.00000
-496717337.66979,-437582448.66498,-42119248.51783,  -0.00127,  -0.00327,  -0.00299,475577351.53877,   0.00244,277265162.27029,   0.00014,  -0.00225,  -0.00244,-1687810.73152,   0.00000
-497055347.76426,-437072569.03095,-41678116.69963,  -0.00127,  -0.00327,  -0.00299,475455978.80072,   0.00244,277265162.27029,   0.00014,  -0.00225,  -0.00244,-1809183.46957,   0.00000
-497393357.85873,-436562689.39691,-41231255.89677,  -0.00128,  -0.00327,  -0.00298,475335462.18324,   0.00244,277265162.27029,   0.00014,  -0.00225,  -0.00244,-1929700.08705,   0.00000
-497739961.43018,-436072861.20916,-40778666.10925,  -0.00128,  -0.00327,  -0.00297,475228807.20514,   0.00244,277265162.27029,   0.00014,  -0.00225,  -0.00244,-2036355.06515,   0.00000
-498077971.52465,-435562981.57513,-40326076.32174,  -0.00128,  -0.00326,  -0.00297,475111594.88807,   0.00244,277265162.27029,   0.00014,  -0.00225,  -0.00244,-2153567.38223,   0.00000
-498404523.64982,-435064559.91040,-39873486.53423,  -0.00128,  -0.00326,  -0.00296,474994505.79008,   0.00244,277265162.27029,   0.00014,  -0.00225,  -0.00244,-2270656.48021,   0.00000
-498739669.25197,-434586189.69196,-39415167.76207,  -0.00129,  -0.00326,  -0.00296,474891258.91853,   0.00244,277265162.27029,   0.00014,  -0.00225,  -0.00244,-2373903.35176,   0.00000
-499046169.93085,-434079174.55025,-38951120.00525,  -0.00129,  -0.00325,  -0.00295,474760812.66657,   0.00244,277265162.27029,   0.00014,  -0.00225,  -0.00244,-2504349.60372,   0.00000
-499361264.08671,-433592210.85483,-38487072.24843,  -0.00129,  -0.00325,  -0.00294,474645643.68000,   0.00244,277265162.27029,   0.00014,  -0.00225,  -0.00244,-2619518.59029,   0.00000
-499676358.24258,-433105247.15940,-38023024.49162,  -0.00129,  -0.00325,  -0.00294,474532840.42485,   0.00244,277265162.27029,   0.00014,  -0.00225,  -0.00244,-2732321.84544,   0.00000
-499991452.39844,-432618283.46398,-37553247.75015,  -0.00130,  -0.00325,  -0.00293,474421044.03715,   0.00244,277265162.27029,   0.00014,  -0.00225,  -0.00244,-2844118.23314,   0.00000
-500286495.10802,-432122726.29158,-37077742.02403,  -0.00130,  -0.00324,  -0.00293,474294993.05074,   0.00244,277265162.27029,   0.00014,  -0.00225,  -0.00244,-2970169.21956,   0.00000
-500590131.29458,-431647220.56546,-36602236.29791,  -0.00130,  -0.00324,  -0.00292,474184178.20677,   0.00244,277265162.27029,   0.00014,  -0.00225,  -0.00244,-3080984.06352,   0.00000
-500873716.03485,-431163121.36236,-36126730.57179,  -0.00130,  -0.00324,  -0.00291,474060401.01338,   0.00244,277265162.27029,   0.00014,  -0.00225,  -0.00244,-3204761.25692,   0.00000
-501157300.77513,-430679022.15926,-35645495.86102,  -0.00130,  -0.00323,  -0.00291,473937683.80241,   0.00244,277265162.27029,   0.00014,  -0.00225,  -0.00244,-3327478.46788,   0.00000
-501449478.99239,-430214974.40244,-35158532.16559,  -0.00131,  -0.00323,  -0.00290,473828868.43788,   0.00244,277265162.27029,   0.00014,  -0.00225,  -0.00244,-3436293.83242,   0.00000
-501741657.20964,-429750926.64563,-34671568.47017,  -0.00131,  -0.00323,  -0.00289,473722450.79819,   0.00244,277265162.27029,   0.00014,  -0.00225,  -0.00244,-3542711.47211,   0.00000
-502013783.98061,-429278285.41183,-34184604.77474,  -0.00131,  -0.00323,  -0.00289,473603030.82135,   0.00244,277265162.27029,   0.00014,  -0.00225,  -0.00244,-3662131.44894,   0.00000
-502294504.22856,-428825695.62432,-33691912.09467,  -0.00131,  -0.00322,  -0.00288,473497508.80400,   0.00244,277265162.27029,   0.00014,  -0.00225,  -0.00244,-3767653.46629,   0.00000
-502546579.55325,-428344460.91355,-33199219.41459,  -0.00132,  -0.00322,  -0.00288,473366203.50688,   0.00244,277265162.27029,   0.00014,  -0.00225,  -0.00244,-3898958.76341,   0.00000
-502835893.27818,-427911922.57232,-32700797.74986,  -0.00132,  -0.00322,  -0.00287,473276982.04941,   0.00244,277265162.27029,   0.00014,  -0.00225,  -0.00244,-3988180.22088,   0.00000
-503096562.07985,-427450739.30783,-32202376.08513,  -0.00132,  -0.00322,  -0.00286,473161988.10101,   0.00244,277265162.27029,   0.00014,  -0.00225,  -0.00244,-4103174.16928,   0.00000
-503365824.35850,-427009607.48962,-31698225.43575,  -0.00132,  -0.00321,  -0.00286,473060934.15634,   0.00244,277265162.27029,   0.00014,  -0.00225,  -0.00244,-4204228.11396,   0.00000
-503623628.66784,-426579933.64072,-31194074.78637,  -0.00132,  -0.00321,  -0.00285,472959486.57976,   0.00244,277265162.27029,   0.00014,  -0.00225,  -0.00244,-4305675.69053,   0.00000
-503892890.94648,-426138801.82251,-30684195.15234,  -0.00133,  -0.00321,  -0.00284,472862105.34019,   0.00244,277265162.27029,   0.00014,  -0.00225,  -0.00244,-4403056.93010,   0.00000
-504159288.73280,-425729179.41989,-30174315.51831,  -0.00133,  -0.00321,  -0.00284,472776977.32331,   0.00244,277265162.27029,   0.00014,  -0.00225,  -0.00244,-4488184.94699,   0.00000
-504397041.59586,-425290912.09401,-29664435.88428,  -0.00133,  -0.00320,  -0.00283,472666048.99399,   0.00244,277265162.27029,   0.00014,  -0.00225,  -0.00244,-4599113.27631,   0.00000
-504663439.38219,-424881289.69138,-29148827.26559,  -0.00133,  -0.00320,  -0.00282,472584602.78235,   0.00244,277265162.27029,   0.00014,  -0.00225,  -0.00244,-4680559.48794,   0.00000
-504918379.19920,-424483125.25807,-28633218.64691,  -0.00133,  -0.00320,  -0.00282,472502640.53181,   0.00244,277265162.27029,   0.00014,  -0.00225,  -0.00244,-4762521.73848,   0.00000
-505164725.53924,-424064909.37847,-28111881.04357,  -0.00134,  -0.00320,  -0.00281,472409406.45348,   0.00244,277265162.27029,   0.00014,  -0.00225,  -0.00244,-4855755.81681,   0.00000
-505428258.83323,-423686796.39143,-27590543.44023,  -0.00134,  -0.00319,  -0.00280,472343795.06336,   0.00244,277265162.27029,   0.00014,  -0.00225,  -0.00244,-4921367.20693,   0.00000
-505683198.65025,-423288631.95811,-27063476.85225,  -0.00134,  -0.00319,  -0.00280,472266989.44479,   0.00244,277265162.27029,   0.00014,  -0.00225,  -0.00244,-4998172.82550,   0.00000
-505935273.97494,-422921976.94038,-26536410.26426,  -0.00134,  -0.00319,  -0.00279,472202178.06258,   0.00244,277265162.27029,   0.00014,  -0.00225,  -0.00244,-5062984.20771,   0.00000
-506178755.82265,-422535270.47637,-26003614.69162,  -0.00134,  -0.00319,  -0.00278,472126226.84287,   0.00244,277265162.27029,   0.00014,  -0.00225,  -0.00244,-5138935.42743,   0.00000
-506430831.14734,-422168615.45864,-25470819.11898,  -0.00135,  -0.00319,  -0.00277,472065262.10216,   0.00244,277265162.27029,   0.00014,  -0.00225,  -0.00244,-5199900.16813,   0.00000
-506691499.94901,-421822011.88719,-24938023.54633,  -0.00135,  -0.00318,  -0.00277,472019250.63889,   0.00244,277265162.27029,   0.00014,  -0.00225,  -0.00244,-5245911.63140,   0.00000
-506932117.30440,-421466814.83876,-24399498.98904,  -0.00135,  -0.00318,  -0.00276,471959097.16632,   0.00244,277265162.27029,   0.00014,  -0.00225,  -0.00244,-5306065.10397,   0.00000
-507181328.13676,-421131669.23662,-23860974.43175,  -0.00135,  -0.00318,  -0.00275,471913870.76797,   0.00244,277265162.27029,   0.00014,  -0.00225,  -0.00244,-5351291.50232,   0.00000
-507450590.41541,-420805117.11145,-23322449.87446,  -0.00135,  -0.00318,  -0.00275,471886695.27391,   0.00244,277265162.27029,   0.00014,  -0.00225,  -0.00244,-5378466.99638,   0.00000
-507679749.80149,-420461378.03233,-22778196.33251,  -0.00135,  -0.00318,  -0.00274,471829747.11138,   0.00244,277265162.27029,   0.00014,  -0.00225,  -0.00244,-5435415.15891,   0.00000
-507946147.58781,-420166335.32275,-22228213.80591,  -0.00136,  -0.00317,  -0.00273,471815056.22603,   0.00244,277265162.27029,   0.00014,  -0.00225,  -0.00244,-5450106.04426,   0.00000
-508203951.89715,-419851241.16688,-21678231.27932,  -0.00136,  -0.00317,  -0.00273,471790312.10647,   0.00244,277265162.27029,   0.00014,  -0.00225,  -0.00244,-5474850.16382,   0.00000
-508458891.71417,-419567656.42661,-21128248.75272,  -0.00136,  -0.00317,  -0.00272,471777241.90851,   0.00244,277265162.27029,   0.00014,  -0.00225,  -0.00244,-5487920.36178,   0.00000
-508705238.05421,-419264020.24005,-20578266.22612,  -0.00136,  -0.00317,  -0.00271,471754098.85922,   0.00244,277265162.27029,   0.00014,  -0.00225,  -0.00244,-5511063.41107,   0.00000
-508968771.34820,-419000486.94605,-20022554.71488,  -0.00136,  -0.00317,  -0.00270,471757525.98706,   0.00244,277265162.27029,   0.00014,  -0.00225,  -0.00244,-5507636.28324,   0.00000
-509232304.64220,-418736953.65206,-19466843.20363,  -0.00136,  -0.00316,  -0.00270,471763358.52932,   0.00244,277265162.27029,   0.00014,  -0.00225,  -0.00244,-5501803.74097,   0.00000
-509495837.93619,-418473420.35807,-18905402.70773,  -0.00137,  -0.00316,  -0.00269,471770907.55551,   0.00244,277265162.27029,   0.00014,  -0.00225,  -0.00244,-5494254.71479,   0.00000
-509767964.70716,-418229938.51035,-18343962.21182,  -0.00137,  -0.00316,  -0.00268,471793320.87570,   0.00244,277265162.27029,   0.00014,  -0.00225,  -0.00244,-5471841.39459,   0.00000
-510028633.50883,-417997914.63195,-17776792.73127,  -0.00137,  -0.00316,  -0.00267,471814159.92496,   0.00244,277265162.27029,   0.00014,  -0.00225,  -0.00244,-5451002.34533,   0.00000
-510309353.75678,-417774484.23052,-17215352.23537,  -0.00137,  -0.00316,  -0.00267,471853827.15387,   0.00244,277265162.27029,   0.00014,  -0.00225,  -0.00244,-5411335.11642,   0.00000
-510578616.03543,-417562511.79839,-16642453.77017,  -0.00137,  -0.00316,  -0.00266,471891299.80559,   0.00244,277265162.27029,   0.00014,  -0.00225,  -0.00244,-5373862.46470,   0.00000
-510856471.79105,-417370590.81255,-16075284.28961,  -0.00137,  -0.00315,  -0.00265,471944193.40548,   0.00244,277265162.27029,   0.00014,  -0.00225,  -0.00244,-5320968.86481,   0.00000
-511134327.54668,-417178669.82670,-15502385.82441,  -0.00138,  -0.00315,  -0.00264,471998915.66086,   0.00244,277265162.27029,   0.00014,  -0.00225,  -0.00244,-5266246.60943,   0.00000
-511420776.77928,-417006800.28714,-14929487.35920,  -0.00138,  -0.00315,  -0.00264,472068437.26368,   0.00244,277265162.27029,   0.00014,  -0.00225,  -0.00244,-5196725.00661,   0.00000
-511707226.01188,-416834930.74758,-14350859.90935,  -0.00138,  -0.00315,  -0.00263,472139852.23324,   0.00244,277265162.27029,   0.00014,  -0.00225,  -0.00244,-5125310.03705,   0.00000
-511982217.27518,-416674519.17732,-13772232.45949,  -0.00138,  -0.00315,  -0.00262,472210254.74670,   0.00244,277265162.27029,   0.00014,  -0.00225,  -0.00244,-5054907.52359,   0.00000
-512285853.46174,-416542752.53033,-13193605.00963,  -0.00138,  -0.00315,  -0.00261,472311247.48275,   0.00244,277265162.27029,   0.00014,  -0.00225,  -0.00244,-4953914.78754,   0.00000
-512578031.67899,-416422443.85263,-12609248.57512,  -0.00138,  -0.00315,  -0.00261,472410703.87541,   0.00244,277265162.27029,   0.00014,  -0.00225,  -0.00244,-4854458.39488,   0.00000
-512890261.34253,-416310728.65192,-12024892.14061,  -0.00139,  -0.00315,  -0.00260,472528431.57391,   0.00244,277265162.27029,   0.00014,  -0.00225,  -0.00244,-4736730.69638,   0.00000
-513182439.55978,-416190419.97422,-11440535.70610,  -0.00139,  -0.00315,  -0.00259,472632758.57562,   0.00244,277265162.27029,   0.00014,  -0.00225,  -0.00244,-4632403.69468,   0.00000
-513491804.73099,-416110214.18910,-10850450.28694,  -0.00139,  -0.00314,  -0.00258,472763742.09717,   0.00244,277265162.27029,   0.00014,  -0.00225,  -0.00244,-4501420.17312,   0.00000
-513821221.34849,-416038601.88095,-10260364.86778,  -0.00139,  -0.00314,  -0.00258,472913024.22135,   0.00244,277265162.27029,   0.00014,  -0.00225,  -0.00244,-4352138.04895,   0.00000
-514139179.99668,-415978447.54210,-9670279.44862,  -0.00139,  -0.00314,  -0.00257,473061190.78344,   0.00244,277265162.27029,   0.00014,  -0.00225,  -0.00244,-4203971.48685,   0.00000
-514465732.12184,-415938344.64953,-9074465.04481,  -0.00139,  -0.00314,  -0.00256,473223740.76893,   0.00244,277265162.27029,   0.00014,  -0.00225,  -0.00244,-4041421.50136,   0.00000
-514792284.24701,-415898241.75697,-8478650.64099,  -0.00140,  -0.00314,  -0.00255,473388740.97140,   0.00244,277265162.27029,   0.00014,  -0.00225,  -0.00244,-3876421.29890,   0.00000
-515127429.84915,-415878190.31069,-7882836.23718,  -0.00140,  -0.00314,  -0.00255,473568466.19623,   0.00244,277265162.27029,   0.00014,  -0.00225,  -0.00244,-3696696.07406,   0.00000
-515471168.92828,-415878190.31069,-7281292.84872,  -0.00140,  -0.00314,  -0.00254,473762630.39395,   0.00244,277265162.27029,   0.00014,  -0.00225,  -0.00244,-3502531.87634,   0.00000
-515823501.48438,-415898241.75697,-6685478.44490,  -0.00140,  -0.00314,  -0.00253,473971762.57872,   0.00244,277265162.27029,   0.00014,  -0.00225,  -0.00244,-3293399.69157,   0.00000
-516175834.04048,-415918293.20325,-6078206.07179,  -0.00140,  -0.00314,  -0.00252,474182855.18222,   0.00244,277265162.27029,   0.00014,  -0.00225,  -0.00244,-3082307.08807,   0.00000
-516536760.07356,-415958396.09582,-5476662.68332,  -0.00140,  -0.00314,  -0.00251,474408885.92817,   0.00244,277265162.27029,   0.00014,  -0.00225,  -0.00244,-2856276.34212,   0.00000
-516886228.13733,-416009956.95768,-4869390.31020,  -0.00140,  -0.00314,  -0.00251,474633513.87415,   0.00244,277265162.27029,   0.00014,  -0.00225,  -0.00244,-2631648.39614,   0.00000
-517255747.64739,-416070111.29653,-4262117.93709,  -0.00141,  -0.00314,  -0.00250,474876495.99036,   0.00244,277265162.27029,   0.00014,  -0.00225,  -0.00244,-2388666.27994,   0.00000
-517642454.11140,-416170368.52794,-3654845.56397,  -0.00141,  -0.00314,  -0.00249,475146407.68315,   0.00244,277265162.27029,   0.00014,  -0.00225,  -0.00244,-2118754.58715,   0.00000
-518029160.57542,-416270625.75935,-3041844.20620,  -0.00141,  -0.00314,  -0.00248,475418637.29850,   0.00244,277265162.27029,   0.00014,  -0.00225,  -0.00244,-1846524.97180,   0.00000
-518424460.51641,-416390934.43705,-2428842.84843,  -0.00141,  -0.00314,  -0.00248,475705564.21634,   0.00244,277265162.27029,   0.00014,  -0.00225,  -0.00244,-1559598.05395,   0.00000
-518828353.93438,-416531294.56102,-1815841.49066,  -0.00141,  -0.00314,  -0.00247,476007170.23659,   0.00244,277265162.27029,   0.00014,  -0.00225,  -0.00244,-1257992.03370,   0.00000
-519232247.35235,-416671654.68500,-1197111.14824,  -0.00141,  -0.00314,  -0.00246,476311173.56587,   0.00244,277265162.27029,   0.00014,  -0.00225,  -0.00244,-953988.70442,   0.00000
-519653327.72427,-416852117.70154,-578380.80582,  -0.00142,  -0.00314,  -0.00245,476642090.55404,   0.00244,277265162.27029,   0.00014,  -0.00225,  -0.00244,-623071.71625,   0.00000
-520054356.64992,-417023987.24110,40349.53660,  -0.00142,  -0.00314,  -0.00244,476959540.52417,   0.00244,277265162.27029,   0.00014,  -0.00225,  -0.00244,-305621.74612,   0.00000
-520431825.93916,-417200139.57608,583905.31311,  -0.00142,  -0.00314,  -0.00244,477265161.44305,   0.00244,277265162.27029,   0.00014,  -0.00225,  -0.00244,  -0.82724,   0.00000
-520437341.82443,-417188711.95909,659010.31387,  -0.00142,  -0.00314,  -0.00243,477265161.44305,   0.00244,277265300.16489,   0.00014,  -0.00225,  -0.00244,   0.00264,   1.00000
-520476301.36247,-417103298.05175,1282311.93470,  -0.00142,  -0.00314,  -0.00243,477628030.44475,   0.00244,277266479.50226,   0.00013,  -0.00225,  -0.00244,   0.19355,   1.00000
-520510187.46009,-417020797.90223,1904906.37578,  -0.00142,  -0.00314,  -0.00242,477659814.74564,   0.00244,277267758.42180,   0.00013,  -0.00225,  -0.00244,   0.22821,   1.00000
-520538830.45123,-416941142.53604,2526976.60560,  -0.00142,  -0.00314,  -0.00241,477647623.90656,   0.00244,277268993.62167,   0.00013,  -0.00225,  -0.00244,   0.21345,   1.00000
-520555086.65687,-416879017.99678,3148249.09738,  -0.00142,  -0.00314,  -0.00240,477675711.30375,   0.00244,277270316.20931,   0.00013,  -0.00225,  -0.00244,   0.24531,   1.00000
-520568499.93746,-416814791.78741,3774592.44583,  -0.00143,  -0.00314,  -0.00239,477679609.85670,   0.00244,277271647.25552,   0.00013,  -0.00226,  -0.00244,   0.24912,   1.00000
-520574350.56704,-416758313.87936,4400137.97271,  -0.00143,  -0.00314,  -0.00239,477695615.61254,   0.00244,277273026.10913,   0.00013,  -0.00226,  -0.00244,   0.26805,   1.00000
-520575165.11493,-416704765.18809,5024642.01736,  -0.00143,  -0.00314,  -0.00238,477727591.75869,   0.00244,277274504.56749,   0.00013,  -0.00226,  -0.00244,   0.30904,   1.00000
-520565950.07029,-416663804.56042,5648458.52007,  -0.00143,  -0.00314,  -0.00237,477727789.35572,   0.00245,277275978.94644,   0.00012,  -0.00226,  -0.00244,   0.30814,   1.00000
-520551494.13197,-416625594.52152,6276814.14032,  -0.00143,  -0.00314,  -0.00236,477760065.81235,   0.00245,277277553.61263,   0.00012,  -0.00226,  -0.00244,   0.35246,   1.00000
-520531819.14850,-416590160.87889,6904644.68347,  -0.00143,  -0.00314,  -0.00235,477748196.45959,   0.00245,277279084.64665,   0.00012,  -0.00226,  -0.00244,   0.33414,   1.00000
-520502322.56811,-416567422.27031,7530939.84206,  -0.00144,  -0.00314,  -0.00234,477792519.26810,   0.00245,277280754.98793,   0.00012,  -0.00226,  -0.00244,   0.39881,   1.00000
-520465341.41127,-416552416.86998,8156138.88354,  -0.00144,  -0.00314,  -0.00234,477808848.94869,   0.00245,277282473.12177,   0.00012,  -0.00226,  -0.00244,   0.42310,   1.00000
-520425363.42104,-416535099.84071,8786178.48614,  -0.00144,  -0.00314,  -0.00233,477813347.34059,   0.00245,277284200.41604,   0.00012,  -0.00226,  -0.00244,   0.42889,   1.00000
-520378260.04531,-416525770.88413,9409330.19219,  -0.00144,  -0.00314,  -0.00232,477829425.45821,   0.00246,277285974.51898,   0.00011,  -0.00226,  -0.00244,   0.45377,   1.00000
-520323333.61379,-416523875.50226,10036985.07466,  -0.00144,  -0.00314,  -0.00231,477846198.07699,   0.00246,277287797.54439,   0.00011,  -0.00226,  -0.00244,   0.48054,   1.00000
-520255726.17809,-416539128.77812,10668765.19144,  -0.00144,  -0.00315,  -0.00230,477875267.98365,   0.00246,277289709.34491,   0.00011,  -0.00226,  -0.00244,   0.52993,   1.00000
-520185901.24225,-416552585.14218,11293843.50855,  -0.00145,  -0.00315,  -0.00229,477879299.43879,   0.00246,277291628.16396,   0.00011,  -0.00227,  -0.00244,   0.53537,   1.00000
-520110742.71705,-416568560.66492,11922808.49153,  -0.00145,  -0.00315,  -0.00229,477912229.26915,   0.00246,277293648.04392,   0.00011,  -0.00227,  -0.00244,   0.59505,   1.00000
-520025608.96298,-416596983.47681,12550842.31081,  -0.00145,  -0.00315,  -0.00228,477913031.55011,   0.00246,277295664.08595,   0.00010,  -0.00227,  -0.00244,   0.59451,   1.00000
-519940425.05170,-416618464.82291,13177307.33835,  -0.00145,  -0.00315,  -0.00227,477933467.36568,   0.00247,277297740.23370,   0.00010,  -0.00227,  -0.00244,   0.63252,   1.00000
-519843058.82629,-416657360.52537,13801858.78496,  -0.00145,  -0.00315,  -0.00226,477962422.03792,   0.00247,277299904.01402,   0.00010,  -0.00227,  -0.00244,   0.68910,   1.00000
-519737771.37247,-416703435.62713,14430554.32474,  -0.00145,  -0.00315,  -0.00225,477979789.34883,   0.00247,277302117.42933,   0.00010,  -0.00227,  -0.00244,   0.72325,   1.00000
-519625703.37302,-416757532.50669,15051939.35148,  -0.00146,  -0.00316,  -0.00224,477996186.14199,   0.00247,277304377.15902,   0.00010,  -0.00227,  -0.00244,   0.75605,   1.00000
-519508306.47679,-416813952.35638,15676760.57325,  -0.00146,  -0.00316,  -0.00224,478029585.55177,   0.00247,277306738.42769,   0.00009,  -0.00227,  -0.00244,   0.82808,   1.00000
-519385784.83651,-416872958.32113,16300999.34917,  -0.00146,  -0.00316,  -0.00223,478018565.13345,   0.00248,277309056.28338,   0.00009,  -0.00227,  -0.00244,   0.80044,   1.00000
-519253778.32927,-416944468.66842,16922336.35304,  -0.00146,  -0.00316,  -0.00222,478063689.09085,   0.00248,277311513.68289,   0.00009,  -0.00228,  -0.00244,   0.90248,   1.00000
-519118605.87674,-417013219.86009,17548091.94647,  -0.00146,  -0.00316,  -0.00221,478069280.41064,   0.00248,277313981.46371,   0.00009,  -0.00228,  -0.00244,   0.91313,   1.00000
-518971355.84475,-417099196.25421,18171454.84716,  -0.00147,  -0.00316,  -0.00220,478098703.89732,   0.00248,277316537.19246,   0.00008,  -0.00228,  -0.00244,   0.98240,   1.00000
-518817588.07289,-417193181.96995,18787229.99634,  -0.00147,  -0.00317,  -0.00219,478115333.93192,   0.00249,277319138.91932,   0.00008,  -0.00228,  -0.00244,  -0.00000,   2.00000
-518660657.89984,-417284309.61854,19407349.37329,  -0.00147,  -0.00317,  -0.00218,478121123.92568,   0.00249,277321751.20978,   0.00008,  -0.00228,  -0.00244,   0.00000,   2.00000
-518493618.87154,-417387195.93912,20029787.22786,  -0.00147,  -0.00317,  -0.00218,478167284.18310,   0.00249,277324505.53108,   0.00007,  -0.00228,  -0.00244,   0.00000,   2.00000
-518324965.27290,-417488348.78323,20645110.19149,  -0.00147,  -0.00317,  -0.00217,478171856.52343,   0.00249,277327265.96587,   0.00007,  -0.00228,  -0.00244,   0.00000,   2.00000
-518144391.30229,-417606604.45977,21257717.57984,  -0.00147,  -0.00318,  -0.00216,478201579.33058,   0.00250,277330114.41238,   0.00007,  -0.00229,  -0.00244,  -0.00000,   2.00000
-517960630.48525,-417721837.87442,21874534.85588,  -0.00148,  -0.00318,  -0.00215,478207726.76079,   0.00250,277332973.80597,   0.00007,  -0.00229,  -0.00243,  -0.00000,   2.00000
-517764961.97016,-417854072.19407,22488502.08537,  -0.00148,  -0.00318,  -0.00214,478237605.06083,   0.00250,277335921.41449,   0.00006,  -0.00229,  -0.00243,  -0.00000,   2.00000
-517564944.71033,-417988782.50539,23099337.17351,  -0.00148,  -0.00318,  -0.00213,478271174.21577,   0.00251,277338968.99370,   0.00006,  -0.00229,  -0.00243,   0.00000,   2.00000
-517359891.25633,-418125830.35450,23709538.69915,  -0.00148,  -0.00319,  -0.00212,478260935.14614,   0.00251,277341973.47679,   0.00006,  -0.00229,  -0.00243,   0.00000,   2.00000
-517145798.80989,-418274997.22538,24315759.88474,  -0.00148,  -0.00319,  -0.00212,478306796.38996,   0.00251,277345117.81792,   0.00005,  -0.00229,  -0.00243,   0.00000,   2.00000
-516926536.71719,-418425814.52944,24924299.56923,  -0.00149,  -0.00319,  -0.00211,478341433.49578,   0.00251,277348365.00855,   0.00005,  -0.00230,  -0.00243,  -0.00000,   2.00000
-516702246.59468,-418578885.66613,25532176.56861,  -0.00149,  -0.00319,  -0.00210,478331440.56904,   0.00252,277351569.26703,   0.00005,  -0.00230,  -0.00243,   0.00000,   2.00000
-516470060.90304,-418744735.05691,26130138.51288,  -0.00149,  -0.00320,  -0.00209,478376594.38451,   0.00252,277354910.46548,   0.00004,  -0.00230,  -0.00243,   0.00000,   2.00000
-516229949.76101,-418916869.38393,26731252.62872,  -0.00149,  -0.00320,  -0.00208,478395685.55600,   0.00252,277358303.21665,   0.00004,  -0.00230,  -0.00243,   0.00000,   2.00000
-515982945.87844,-419096032.09334,27329811.84853,  -0.00149,  -0.00320,  -0.00207,478413914.54325,   0.00253,277361744.54528,   0.00004,  -0.00230,  -0.00243,   0.00000,   2.00000
-515732756.29290,-419271734.89290,27932274.49323,  -0.00150,  -0.00321,  -0.00206,478420914.86775,   0.00253,277365197.72251,   0.00003,  -0.00230,  -0.00243,   0.00000,   2.00000
-515474945.73686,-419460096.83375,28524478.64813,  -0.00150,  -0.00321,  -0.00205,478466270.32730,   0.00253,277368787.74223,   0.00003,  -0.00231,  -0.00243,   0.00000,   2.00000
-515210359.15830,-419655397.81247,29113997.68518,  -0.00150,  -0.00321,  -0.00205,478484697.23614,   0.00254,277372426.36240,   0.00003,  -0.00231,  -0.00242,  -0.00000,   2.00000
-514937870.02988,-419856692.60733,29706429.59175,  -0.00150,  -0.00322,  -0.00204,478504249.75801,   0.00254,277376117.10928,   0.00002,  -0.00231,  -0.00242,   0.00000,   2.00000
-514658626.77065,-420064813.34119,30296083.45692,  -0.00150,  -0.00322,  -0.00203,478522834.85194,   0.00254,277379856.66182,   0.00002,  -0.00231,  -0.00242,  -0.00000,   2.00000
-514375660.21278,-420274959.48220,30881719.89734,  -0.00151,  -0.00322,  -0.00202,478557191.70754,   0.00255,277383696.31146,   0.00001,  -0.00231,  -0.00242,   0.00000,   2.00000
-514086030.28842,-420491872.36630,31464489.31164,  -0.00151,  -0.00323,  -0.00201,478575921.51329,   0.00255,277387584.77092,   0.00001,  -0.00232,  -0.00242,   0.00000,   2.00000
-513789770.21860,-420715509.41739,32044356.81154,  -0.00151,  -0.00323,  -0.00200,478594708.50415,   0.00256,277391522.07077,   0.00001,  -0.00232,  -0.00242,   0.00000,   2.00000
-513485221.09586,-420950566.69430,32619020.57233,  -0.00151,  -0.00323,  -0.00199,478641586.83097,   0.00256,277395599.66967,   0.00000,  -0.00232,  -0.00242,  -0.00000,   2.00000
-513175809.13399,-421187508.25210,33192988.12738,  -0.00151,  -0.00324,  -0.00198,478632544.22522,   0.00256,277399634.71499,  -0.00000,  -0.00232,  -0.00242,   0.00000,   2.00000
-512861674.62212,-421425249.81802,33768249.85695,  -0.00152,  -0.00324,  -0.00198,478668383.51037,   0.00257,277403773.78680,  -0.00001,  -0.00233,  -0.00241,   0.00000,   2.00000
-512539417.08350,-421674224.76611,34338049.16904,  -0.00152,  -0.00325,  -0.00197,478715505.07934,   0.00257,277408053.34414,  -0.00001,  -0.00233,  -0.00241,   0.00000,   2.00000
-512213663.03690,-421926050.47835,34901530.10108,  -0.00152,  -0.00325,  -0.00196,478705463.97679,   0.00257,277412286.43377,  -0.00001,  -0.00233,  -0.00241,   0.00000,   2.00000
-511878574.57416,-422187927.56772,35465027.11736,  -0.00152,  -0.00326,  -0.00195,478753931.67391,   0.00258,277416664.11168,  -0.00002,  -0.00233,  -0.00241,   0.00000,   2.00000
-511541875.13695,-422446765.62328,36026426.74618,  -0.00153,  -0.00326,  -0.00194,478760886.55526,   0.00258,277421050.48272,  -0.00002,  -0.00233,  -0.00241,   0.00000,   2.00000
-511197329.73744,-422716608.39471,36582065.15710,  -0.00153,  -0.00326,  -0.00193,478808264.66195,   0.00259,277425577.41480,  -0.00003,  -0.00234,  -0.00241,   0.00000,   2.00000
-510843244.33736,-422997492.25941,37135856.13681,  -0.00153,  -0.00327,  -0.00192,478812183.44210,   0.00259,277430102.61560,  -0.00003,  -0.00234,  -0.00241,   0.00000,   2.00000
-510484748.65079,-423278675.77871,37690476.79529,  -0.00153,  -0.00327,  -0.00191,478848660.43844,   0.00260,277434732.38032,  -0.00004,  -0.00234,  -0.00240,  -0.00000,   2.00000
-510124827.42090,-423562441.99065,38234677.53341,  -0.00154,  -0.00328,  -0.00190,478882521.71233,   0.00260,277439457.82903,  -0.00004,  -0.00234,  -0.00240,   0.00000,   2.00000
-509755421.67986,-423857117.82826,38776987.26573,  -0.00154,  -0.00328,  -0.00190,478886689.51835,   0.00261,277444181.72113,  -0.00005,  -0.00235,  -0.00240,  -0.00000,   2.00000
-509381772.75777,-424151909.59661,39319953.57094,  -0.00154,  -0.00329,  -0.00189,478923397.94596,   0.00261,277449010.31403,  -0.00005,  -0.00235,  -0.00240,   0.00000,   2.00000
-509002038.16895,-424452723.02890,39859451.78384,  -0.00154,  -0.00329,  -0.00188,478943284.74869,   0.00261,277453888.35808,  -0.00005,  -0.00235,  -0.00240,   0.00000,   2.00000
-508621252.62471,-424756003.66552,40388340.14581,  -0.00155,  -0.00330,  -0.00187,478977288.87082,   0.00262,277458861.77388,  -0.00006,  -0.00236,  -0.00239,   0.00000,   2.00000
-508232954.35878,-425063989.07865,40919277.76181,  -0.00155,  -0.00330,  -0.00186,478998755.12086,   0.00262,277463889.34074,  -0.00006,  -0.00236,  -0.00239,   0.00000,   2.00000
-507833967.59954,-425387078.02193,41445368.36502,  -0.00155,  -0.00331,  -0.00185,479031365.97561,   0.00263,277469007.24048,  -0.00007,  -0.00236,  -0.00239,   0.00000,   2.00000
-507433835.35542,-425706728.51899,41969157.51468,  -0.00155,  -0.00331,  -0.00184,479039068.64520,   0.00263,277474133.88406,  -0.00007,  -0.00236,  -0.00239,  -0.00000,   2.00000
-507026663.15266,-426036581.59186,42486386.88523,  -0.00156,  -0.00332,  -0.00183,479087283.62895,   0.00264,277479401.51214,  -0.00008,  -0.00237,  -0.00239,   0.00000,   2.00000
-506618455.09105,-426362950.66696,43001287.53372,  -0.00156,  -0.00332,  -0.00182,479095113.53579,   0.00264,277484677.82118,  -0.00008,  -0.00237,  -0.00238,   0.00000,   2.00000
-506201724.22029,-426698044.97856,43515034.76260,  -0.00156,  -0.00333,  -0.00182,479145041.12022,   0.00265,277490100.26776,  -0.00009,  -0.00237,  -0.00238,   0.00000,   2.00000
-505780969.23599,-427040065.96221,44019497.48330,  -0.00156,  -0.00333,  -0.00181,479164026.16804,   0.00265,277495567.29815,  -0.00010,  -0.00238,  -0.00238,   0.00000,   2.00000
-505352889.42478,-427386226.79590,44525742.27612,  -0.00157,  -0.00334,  -0.00180,479186223.32677,   0.00266,277501089.28553,  -0.00010,  -0.00238,  -0.00238,  -0.00000,   2.00000
-504920900.36001,-427739225.06872,45022663.68753,  -0.00157,  -0.00334,  -0.00179,479205303.40727,   0.00266,277506655.84714,  -0.00011,  -0.00238,  -0.00237,   0.00000,   2.00000
-504485397.84019,-428091464.85730,45519582.70495,  -0.00157,  -0.00335,  -0.00178,479243029.83200,   0.00267,277512327.78434,  -0.00011,  -0.00239,  -0.00237,   0.00000,   2.00000
-504046135.32518,-428450484.78146,46007133.94246,  -0.00157,  -0.00336,  -0.00177,479262225.94448,   0.00268,277518044.19752,  -0.00012,  -0.00239,  -0.00237,  -0.00000,   2.00000
-503599675.53937,-428813360.65670,46496353.26068,  -0.00158,  -0.00336,  -0.00176,479284778.73498,   0.00268,277523815.93698,  -0.00012,  -0.00239,  -0.00237,   0.00000,   2.00000
-503146919.71809,-429185697.58505,46978427.70206,  -0.00158,  -0.00337,  -0.00175,479333727.69357,   0.00269,277529729.03733,  -0.00013,  -0.00240,  -0.00236,   0.00000,   2.00000
-502693566.28503,-429554191.91193,47458055.49484,  -0.00158,  -0.00337,  -0.00174,479342203.03317,   0.00269,277535650.83943,  -0.00013,  -0.00240,  -0.00236,   0.00000,   2.00000
-502238845.35097,-429923074.88796,47931929.92804,  -0.00159,  -0.00338,  -0.00173,479378622.36506,   0.00270,277541672.63078,  -0.00014,  -0.00240,  -0.00236,  -0.00000,   2.00000
-501774157.48678,-430305964.30914,48400318.33090,  -0.00159,  -0.00339,  -0.00173,479412535.39940,   0.00270,277547785.86277,  -0.00014,  -0.00241,  -0.00235,   0.00000,   2.00000
-501304291.79354,-430693807.42515,48864710.49590,  -0.00159,  -0.00339,  -0.00172,479433893.60562,   0.00271,277553949.21350,  -0.00015,  -0.00241,  -0.00235,   0.00000,   2.00000
-500834027.39032,-431077675.99085,49326639.98023,  -0.00159,  -0.00340,  -0.00171,479442602.31880,   0.00272,277560121.22071,  -0.00016,  -0.00241,  -0.00235,   0.00000,   2.00000
-500358004.42069,-431470546.22328,49781108.20485,  -0.00160,  -0.00341,  -0.00170,479491974.42461,   0.00272,277566434.72275,  -0.00016,  -0.00242,  -0.00235,   0.00000,   2.00000
-499875081.16048,-431866625.86353,50237001.06960,  -0.00160,  -0.00341,  -0.00169,479515363.13069,   0.00273,277572804.37155,  -0.00017,  -0.00242,  -0.00234,   0.00000,   2.00000
-499393214.45570,-432264270.90308,50681418.23873,  -0.00160,  -0.00342,  -0.00168,479550403.93630,   0.00273,277579268.04583,  -0.00017,  -0.00243,  -0.00234,   0.00000,   2.00000
-498902262.03444,-432671338.39945,51123664.06325,  -0.00161,  -0.00343,  -0.00167,479556975.46923,   0.00274,277585732.37928,  -0.00018,  -0.00243,  -0.00234,   0.00000,   2.00000
-498412949.34716,-433071905.42860,51563414.74272,  -0.00161,  -0.00343,  -0.00166,479610905.93983,   0.00275,277592352.22543,  -0.00019,  -0.00243,  -0.00233,  -0.00000,   2.00000
-497916517.60508,-433483416.98268,51995497.40668,  -0.00161,  -0.00344,  -0.00165,479615831.73249,   0.00275,277598966.84466,  -0.00019,  -0.00244,  -0.00233,   0.00000,   2.00000
-497417667.11585,-433893029.26476,52426948.24474,  -0.00162,  -0.00345,  -0.00164,479654768.07642,   0.00276,277605687.48245,  -0.00020,  -0.00244,  -0.00233,  -0.00000,   2.00000
-496909379.99650,-434315733.79180,52852543.73652,  -0.00162,  -0.00345,  -0.00164,479689665.32822,   0.00276,277612500.55319,  -0.00021,  -0.00245,  -0.00232,   0.00000,   2.00000
-496407525.73219,-434731055.85806,53268199.79138,  -0.00162,  -0.00346,  -0.00163,479712170.49808,   0.00277,277619365.24875,  -0.00021,  -0.00245,  -0.00232,  -0.00000,   2.00000
-495894384.60296,-435157635.00080,53683422.38336,  -0.00163,  -0.00347,  -0.00162,479749146.54106,   0.00278,277626328.71587,  -0.00022,  -0.00245,  -0.00231,   0.00000,   2.00000
-495381438.37698,-435579821.88367,54096142.68262,  -0.00163,  -0.00347,  -0.00161,479758621.90705,   0.00278,277633300.75210,  -0.00022,  -0.00246,  -0.00231,  -0.00000,   2.00000
-494859270.93574,-436014754.52201,54502899.55973,  -0.00163,  -0.00348,  -0.00160,479793873.60875,   0.00279,277640365.58190,  -0.00023,  -0.00246,  -0.00231,  -0.00000,   2.00000
-494341917.49751,-436440488.14049,54905128.91988,  -0.00164,  -0.00349,  -0.00159,479818456.12902,   0.00280,277647488.05749,  -0.00024,  -0.00247,  -0.00230,   0.00000,   2.00000
-493820040.40084,-436874096.49612,55299300.81753,  -0.00164,  -0.00350,  -0.00158,479868870.00996,   0.00281,277654752.43288,  -0.00024,  -0.00247,  -0.00230,   0.00000,   2.00000
-493289268.47186,-437316406.45406,55691269.40247,  -0.00164,  -0.00350,  -0.00157,479876572.80628,   0.00281,277662018.56114,  -0.00025,  -0.00248,  -0.00230,   0.00000,   2.00000
-492763592.11425,-437749433.54951,56078692.92499,  -0.00165,  -0.00351,  -0.00156,479901276.01975,   0.00282,277669342.08189,  -0.00026,  -0.00248,  -0.00229,   0.00000,   2.00000
-492233681.54302,-438190086.03547,56457957.82749,  -0.00165,  -0.00352,  -0.00155,479951904.08883,   0.00283,277676807.56598,  -0.00026,  -0.00249,  -0.00229,   0.00000,   2.00000
-491694924.86449,-438639265.38945,56835033.22547,  -0.00165,  -0.00353,  -0.00154,479959888.05263,   0.00283,277684275.06653,  -0.00027,  -0.00249,  -0.00228,   0.00000,   2.00000
-491156832.10186,-439087430.89169,57205716.48906,  -0.00166,  -0.00354,  -0.00154,479997717.90277,   0.00284,277691842.20789,  -0.00028,  -0.00250,  -0.00228,  -0.00000,   2.00000
-490619521.17182,-439534557.78405,57569995.11115,  -0.00166,  -0.00354,  -0.00153,480035609.87913,   0.00285,277699508.86944,  -0.00028,  -0.00250,  -0.00227,   0.00000,   2.00000
-490076141.93653,-439983468.15568,57935378.17901,  -0.00166,  -0.00355,  -0.00152,480060806.29835,   0.00285,277707233.24054,  -0.00029,  -0.00251,  -0.00227,   0.00000,   2.00000
-489530975.11684,-440437810.51556,58291031.96440,  -0.00167,  -0.00356,  -0.00151,480081923.44505,   0.00286,277715001.74581,  -0.00030,  -0.00251,  -0.00227,   0.00000,   2.00000
-488981947.80714,-440895652.11416,58642383.26238,  -0.00167,  -0.00357,  -0.00150,480105177.25867,   0.00287,277722821.23427,  -0.00030,  -0.00252,  -0.00226,  -0.00000,   2.00000
-488431927.63926,-441350316.56283,58992662.76875,  -0.00167,  -0.00358,  -0.00149,480145412.01527,   0.00288,277730747.14338,  -0.00031,  -0.00252,  -0.00226,  -0.00000,   2.00000
-487880316.61108,-441810284.18561,59333219.01595,  -0.00168,  -0.00358,  -0.00148,480166715.61754,   0.00288,277738717.14000,  -0.00032,  -0.00253,  -0.00225,   0.00000,   2.00000
-487322845.20458,-442271652.74872,59674848.16843,  -0.00168,  -0.00359,  -0.00147,480192343.30795,   0.00289,277746745.27862,  -0.00033,  -0.00253,  -0.00225,  -0.00000,   2.00000
-486764285.06829,-442741624.95922,60002632.27770,  -0.00168,  -0.00360,  -0.00146,480241630.65480,   0.00290,277754908.70015,  -0.00033,  -0.00254,  -0.00224,  -0.00000,   2.00000
-486204679.63496,-443204695.77048,60333440.00750,  -0.00169,  -0.00361,  -0.00145,480254353.28361,   0.00291,277763087.39955,  -0.00034,  -0.00254,  -0.00224,   0.00000,   2.00000
-485646713.21559,-443666222.21846,60657710.16649,  -0.00169,  -0.00362,  -0.00144,480292774.20671,   0.00292,277771365.42227,  -0.00035,  -0.00255,  -0.00223,   0.00000,   2.00000
-485082271.35539,-444137543.58483,60974488.34198,  -0.00169,  -0.00363,  -0.00143,480299730.63971,   0.00292,277779639.43040,  -0.00035,  -0.00255,  -0.00223,   0.00000,   2.00000
-484522695.24301,-444600510.48156,61287897.90307,  -0.00170,  -0.00364,  -0.00143,480355074.74203,   0.00293,277788067.83887,  -0.00036,  -0.00256,  -0.00222,   0.00000,   2.00000
-483954480.41166,-445071194.82963,61599205.32503,  -0.00170,  -0.00365,  -0.00142,480364418.93763,   0.00294,277796499.59753,  -0.00037,  -0.00256,  -0.00222,  -0.00000,   2.00000
-483383593.71836,-445548037.63309,61901932.38846,  -0.00171,  -0.00365,  -0.00141,480416295.99626,   0.00295,277805073.86360,  -0.00038,  -0.00257,  -0.00221,   0.00000,   2.00000
-482814156.03073,-446019768.63743,62202371.14144,  -0.00171,  -0.00366,  -0.00140,480427226.33500,   0.00296,277813656.18639,  -0.00038,  -0.00258,  -0.00221,  -0.00000,   2.00000
-482241512.48973,-446494315.09052,62498492.79535,  -0.00171,  -0.00367,  -0.00139,480451411.55282,   0.00296,277822289.93035,  -0.00039,  -0.00258,  -0.00220,   0.00000,   2.00000
-481673416.70698,-446968980.83364,62782707.69942,  -0.00172,  -0.00368,  -0.00138,480487950.18354,   0.00297,277831015.30528,  -0.00040,  -0.00259,  -0.00220,   0.00000,   2.00000
-481099982.28085,-447444313.89996,63068001.50662,  -0.00172,  -0.00369,  -0.00137,480514527.50786,   0.00298,277839799.45712,  -0.00040,  -0.00259,  -0.00219,   0.00000,   2.00000
-480529049.37795,-447917627.36294,63346736.03584,  -0.00173,  -0.00370,  -0.00136,480553437.14995,   0.00299,277848682.55690,  -0.00041,  -0.00260,  -0.00219,   0.00000,   2.00000
-479947291.15320,-448396155.25753,63628792.90858,  -0.00173,  -0.00371,  -0.00135,480565736.21889,   0.00300,277857577.23057,  -0.00042,  -0.00260,  -0.00218,   0.00000,   2.00000
-479370478.20515,-448874617.18056,63898917.53956,  -0.00173,  -0.00372,  -0.00134,480602478.97468,   0.00301,277866563.40428,  -0.00043,  -0.00261,  -0.00217,   0.00000,   2.00000
-478796451.29409,-449350906.25097,64162491.38675,  -0.00174,  -0.00373,  -0.00133,480641550.21369,   0.00302,277875648.39036,  -0.00043,  -0.00262,  -0.00217,   0.00000,   2.00000
-478213897.50150,-449834328.35335,64424103.01917,  -0.00174,  -0.00374,  -0.00132,480651844.39582,   0.00302,277884737.65787,  -0.00044,  -0.00262,  -0.00216,   0.00000,   2.00000
-477634302.24471,-450315439.98277,64679164.77223,  -0.00175,  -0.00375,  -0.00132,480691020.07772,   0.00303,277893925.74961,  -0.00045,  -0.00263,  -0.00216,   0.00000,   2.00000
-477057774.52895,-450794227.78110,64927692.00513,  -0.00175,  -0.00376,  -0.00131,480730252.61453,   0.00304,277903212.51365,  -0.00046,  -0.00264,  -0.00215,  -0.00000,   2.00000
-476470452.39111,-451277828.68891,65179621.63461,  -0.00175,  -0.00377,  -0.00130,480743179.44453,   0.00305,277912511.56229,  -0.00047,  -0.00264,  -0.00214,   0.00000,   2.00000
-475888675.82202,-451761129.78049,65419670.22155,  -0.00176,  -0.00378,  -0.00129,480780188.69716,   0.00306,277921901.64584,  -0.00047,  -0.00265,  -0.00214,   0.00000,   2.00000
-475308974.32611,-452239109.31191,65657700.67332,  -0.00176,  -0.00379,  -0.00128,480791787.36633,   0.00307,277931299.29112,  -0.00048,  -0.00266,  -0.00213,   0.00000,   2.00000
-474725728.23641,-452719929.83276,65892336.61604,  -0.00177,  -0.00380,  -0.00127,480847027.34916,   0.00308,277940847.40116,  -0.00049,  -0.00266,  -0.00213,   0.00000,   2.00000
-474136337.39910,-453209670.86756,66119788.02622,  -0.00177,  -0.00381,  -0.00126,480855634.19286,   0.00309,277950392.71562,  -0.00050,  -0.00267,  -0.00212,   0.00000,   2.00000
-473552866.00069,-453687134.65420,66348251.90619,  -0.00177,  -0.00382,  -0.00125,480884037.95266,   0.00310,277960000.16538,  -0.00050,  -0.00268,  -0.00211,   0.00000,   2.00000
-472975411.38164,-454164230.52976,66564900.77302,  -0.00178,  -0.00383,  -0.00124,480921196.20054,   0.00311,277969698.13938,  -0.00051,  -0.00268,  -0.00211,  -0.00000,   2.00000
-472382535.71116,-454653105.86213,66782827.99446,  -0.00178,  -0.00384,  -0.00123,480948338.17895,   0.00311,277979453.57901,  -0.00052,  -0.00269,  -0.00210,   0.00000,   2.00000
-471798170.08179,-455131862.03716,66996492.75381,  -0.00179,  -0.00385,  -0.00122,480974487.23427,   0.00312,277989263.06228,  -0.00053,  -0.00270,  -0.00209,   0.00000,   2.00000
-471213896.55884,-455614762.83577,67200730.73707,  -0.00179,  -0.00386,  -0.00121,480997615.95849,   0.00313,277999116.45658,  -0.00054,  -0.00270,  -0.00209,  -0.00000,   2.00000
-470631325.01063,-456092625.26452,67403823.85717,  -0.00180,  -0.00387,  -0.00121,481039781.92525,   0.00314,278009076.02035,  -0.00054,  -0.00271,  -0.00208,   0.00000,   2.00000
-470044936.78443,-456569716.04566,67607435.96979,  -0.00180,  -0.00388,  -0.00120,481037717.15551,   0.00315,278018996.57394,  -0.00055,  -0.00272,  -0.00208,   0.00000,   2.00000
-469458131.79306,-457051171.77406,67802311.53941,  -0.00180,  -0.00389,  -0.00119,481091163.62290,   0.00316,278029060.03930,  -0.00056,  -0.00273,  -0.00207,   0.00000,   2.00000
-468869270.68276,-457534315.53692,67993115.52947,  -0.00181,  -0.00390,  -0.00118,481117005.51610,   0.00317,278039175.51232,  -0.00057,  -0.00273,  -0.00206,   0.00000,   2.00000
-468291763.83895,-458009653.77841,68174524.59117,  -0.00181,  -0.00391,  -0.00117,481140835.86046,   0.00318,278049336.17792,  -0.00057,  -0.00274,  -0.00205,   0.00000,   2.00000
-467703459.43129,-458489005.40557,68359578.10361,  -0.00182,  -0.00392,  -0.00116,481155146.12805,   0.00319,278059510.79118,  -0.00058,  -0.00275,  -0.00205,  -0.00000,   2.00000
-467119698.04045,-458965351.06131,68538233.31131,  -0.00182,  -0.00393,  -0.00115,481195146.69435,   0.00320,278069783.45190,  -0.00059,  -0.00276,  -0.00204,  -0.00000,   2.00000
-466534039.40024,-459443279.04707,68712885.93703,  -0.00183,  -0.00394,  -0.00114,481221204.49413,   0.00321,278080108.15437,  -0.00060,  -0.00276,  -0.00203,   0.00000,   2.00000
-465950740.77615,-459915813.61991,68886450.07048,  -0.00183,  -0.00396,  -0.00113,481263790.10942,   0.00322,278090538.92184,  -0.00061,  -0.00277,  -0.00203,  -0.00000,   2.00000
-465361395.85505,-460396777.15133,69053122.55806,  -0.00183,  -0.00397,  -0.00112,481273578.27109,   0.00323,278100967.89929,  -0.00061,  -0.00278,  -0.00202,   0.00000,   2.00000
-464781514.47826,-460867625.52683,69215814.02389,  -0.00184,  -0.00398,  -0.00111,481299994.53900,   0.00324,278111449.58687,  -0.00062,  -0.00279,  -0.00201,   0.00000,   2.00000
-464195313.83532,-461346847.06540,69372222.99886,  -0.00184,  -0.00399,  -0.00110,481340077.43305,   0.00325,278122028.56050,  -0.00063,  -0.00279,  -0.00201,   0.00000,   2.00000
-463618739.81365,-461815956.70154,69524716.49558,  -0.00185,  -0.00400,  -0.00109,481366564.86587,   0.00326,278132659.94923,  -0.00064,  -0.00280,  -0.00200,  -0.00000,   2.00000
