# sigma_xx, sigma_yy, sigma_xy, epsilon_xx, epsilon_yy, epsilon_xy, vonMises, epsPlastic, hardening, epsilonP__xx, epsilonP__yy, epsilonP__xy, yieldValue, iteration
   0.00000,   0.00000,   0.00000,   0.00000,   0.00000,   0.00000,   0.00000,   0.00000,274640135.82653,   0.00000,   0.00000,   0.00000,-474640135.82653,   0.00000
   0.00000,   0.00000,   0.00000,   0.00000,   0.00000,   0.00000,   0.00000,   0.00000,274640135.82653,   0.00000,   0.00000,   0.00000,-474640135.82653,   0.00000
-2439947.83560,-1119657.76010,-45304.07122,  -0.00001,  -0.00000,  -0.00000,2116891.53913,   0.00000,274640135.82653,   0.00000,   0.00000,   0.00000,-472523244.28740,   0.00000
-4870187.65593,-2216663.48459,-90608.14244,  -0.00002,  -0.00000,  -0.00000,4226273.43819,   0.00000,274640135.82653,   0.00000,   0.00000,   0.00000,-470413862.38834,   0.00000
-7277775.44066,-3303961.19383,-148856.23400,  -0.00003,  -0.00000,  -0.00000,6316894.95218,   0.00000,274640135.82653,   0.00000,   0.00000,   0.00000,-468323240.87435,   0.00000
-9653003.17452,-4358898.85219,-207104.32557,  -0.00004,  -0.00000,  -0.00000,8380494.11660,   0.00000,274640135.82653,   0.00000,   0.00000,   0.00000,-466259641.70993,   0.00000
-12028230.90838,-5413836.51055,-271824.42731,  -0.00004,  -0.00000,  -0.00000,10444651.95480,   0.00000,274640135.82653,   0.00000,   0.00000,   0.00000,-464195483.87173,   0.00000
-14403458.64224,-6468774.16891,-343016.53922,  -0.00005,  -0.00000,  -0.00000,12509393.26817,   0.00000,274640135.82653,   0.00000,   0.00000,   0.00000,-462130742.55836,   0.00000
-16736618.30996,-7468699.74080,-420680.66131,  -0.00006,  -0.00000,  -0.00001,14540495.45561,   0.00000,274640135.82653,   0.00000,   0.00000,   0.00000,-460099640.37092,   0.00000
-19056833.95734,-8481569.33303,-498344.78340,  -0.00007,  -0.00000,  -0.00001,16559381.71916,   0.00000,274640135.82653,   0.00000,   0.00000,   0.00000,-458080754.10737,   0.00000
-21367341.58946,-9471786.88965,-582480.91566,  -0.00008,  -0.00000,  -0.00001,18571725.27261,   0.00000,274640135.82653,   0.00000,   0.00000,   0.00000,-456068410.55392,   0.00000
-23668141.20632,-10439352.41066,-673089.05810,  -0.00009,  -0.00000,  -0.00001,20577659.40525,   0.00000,274640135.82653,   0.00000,   0.00000,   0.00000,-454062476.42128,   0.00000
-25946288.78757,-11397209.91641,-770169.21071,  -0.00010,  -0.00000,  -0.00001,22564806.17471,   0.00000,274640135.82653,   0.00000,   0.00000,   0.00000,-452075329.65182,   0.00000
-28224436.36881,-12355067.42217,-873721.37349,  -0.00010,  -0.00000,  -0.00001,24552837.96569,   0.00000,274640135.82653,   0.00000,   0.00000,   0.00000,-450087297.86083,   0.00000
-30470223.89919,-13280564.87705,-977273.53627,  -0.00011,  -0.00000,  -0.00001,26514361.26523,   0.00000,274640135.82653,   0.00000,   0.00000,   0.00000,-448125774.56130,   0.00000
-32693359.39396,-14196354.31667,-1087297.70923,  -0.00012,  -0.00000,  -0.00001,28457202.24326,   0.00000,274640135.82653,   0.00000,   0.00000,   0.00000,-446182933.58327,   0.00000
-34906786.87347,-15089491.72068,-1203793.89236,  -0.00013,  -0.00000,  -0.00002,30394049.05407,   0.00000,274640135.82653,   0.00000,   0.00000,   0.00000,-444246086.77246,   0.00000
-37110506.33772,-15959977.08908,-1326762.08567,  -0.00014,  -0.00000,  -0.00002,32325046.19188,   0.00000,274640135.82653,   0.00000,   0.00000,   0.00000,-442315089.63465,   0.00000
-39301281.78161,-16843406.47783,-1449730.27898,  -0.00015,   0.00000,  -0.00002,34243667.74972,   0.00000,274640135.82653,   0.00000,   0.00000,   0.00000,-440396468.07681,   0.00000
-41449989.15938,-17671823.78011,-1579170.48246,  -0.00015,   0.00000,  -0.00002,36130034.47485,   0.00000,274640135.82653,   0.00000,   0.00000,   0.00000,-438510101.35168,   0.00000
-43608404.55241,-18522893.11799,-1715082.69611,  -0.00016,   0.00000,  -0.00002,38024481.93546,   0.00000,274640135.82653,   0.00000,   0.00000,   0.00000,-436615653.89107,   0.00000
-45757111.93018,-19351310.42026,-1857466.91994,  -0.00017,   0.00000,  -0.00002,39913368.44157,   0.00000,274640135.82653,   0.00000,   0.00000,   0.00000,-434726767.38496,   0.00000
-47873459.25708,-20147367.67166,-1999851.14377,  -0.00018,   0.00000,  -0.00003,41776291.76652,   0.00000,274640135.82653,   0.00000,   0.00000,   0.00000,-432863844.06001,   0.00000
-49989806.58398,-20943424.92306,-2148707.37777,  -0.00019,   0.00000,  -0.00003,43640587.51767,   0.00000,274640135.82653,   0.00000,   0.00000,   0.00000,-430999548.30886,   0.00000
-52083501.87526,-21729774.15920,-2304035.62194,  -0.00019,   0.00000,  -0.00003,45486671.23315,   0.00000,274640135.82653,   0.00000,   0.00000,   0.00000,-429153464.59338,   0.00000
-54167489.15129,-22493471.35974,-2465835.87629,  -0.00020,   0.00000,  -0.00003,47327574.50599,   0.00000,274640135.82653,   0.00000,   0.00000,   0.00000,-427312561.32054,   0.00000
-56228824.39171,-23247460.54501,-2627636.13064,  -0.00021,   0.00000,  -0.00003,49149375.91295,   0.00000,274640135.82653,   0.00000,   0.00000,   0.00000,-425490759.91358,   0.00000
-58290159.63213,-24001449.73028,-2795908.39517,  -0.00022,   0.00000,  -0.00004,50972691.45510,   0.00000,274640135.82653,   0.00000,   0.00000,   0.00000,-423667444.37143,   0.00000
-60319134.82168,-24723078.86468,-2970652.66987,  -0.00023,   0.00001,  -0.00004,52771472.01656,   0.00000,274640135.82653,   0.00000,   0.00000,   0.00000,-421868663.80997,   0.00000
-62338401.99597,-25422055.96347,-3145396.94456,  -0.00023,   0.00001,  -0.00004,54564342.88455,   0.00000,274640135.82653,   0.00000,   0.00000,   0.00000,-420075792.94198,   0.00000
-64335017.13465,-26111325.04700,-3333085.23961,  -0.00024,   0.00001,  -0.00004,56340496.56119,   0.00000,274640135.82653,   0.00000,   0.00000,   0.00000,-418299639.26534,   0.00000
-66331632.27333,-26800594.13053,-3520773.53466,  -0.00025,   0.00001,  -0.00005,58117275.14317,   0.00000,274640135.82653,   0.00000,   0.00000,   0.00000,-416522860.68336,   0.00000
-68305595.37640,-27480155.19880,-3708461.82970,  -0.00026,   0.00001,  -0.00005,59875061.54495,   0.00000,274640135.82653,   0.00000,   0.00000,   0.00000,-414765074.28158,   0.00000
-70269850.46420,-28137064.23146,-3909094.14510,  -0.00026,   0.00001,  -0.00005,61629554.78410,   0.00000,274640135.82653,   0.00000,   0.00000,   0.00000,-413010581.04243,   0.00000
-72201745.50114,-28761613.21326,-4109726.46049,  -0.00027,   0.00001,  -0.00005,63358924.59121,   0.00000,274640135.82653,   0.00000,   0.00000,   0.00000,-411281211.23531,   0.00000
-74143348.55334,-29408814.23066,-4310358.77588,  -0.00028,   0.00001,  -0.00006,65095192.62927,   0.00000,274640135.82653,   0.00000,   0.00000,   0.00000,-409544943.19726,   0.00000
-76052591.55467,-30023655.19719,-4523935.11163,  -0.00029,   0.00001,  -0.00006,66808964.47764,   0.00000,274640135.82653,   0.00000,   0.00000,   0.00000,-407831171.34889,   0.00000
-77952126.54074,-30615844.12811,-4737511.44737,  -0.00029,   0.00001,  -0.00006,68517339.64783,   0.00000,274640135.82653,   0.00000,   0.00000,   0.00000,-406122796.17870,   0.00000
-79851661.52681,-31208033.05903,-4957559.79328,  -0.00030,   0.00001,  -0.00006,70227829.81533,   0.00000,274640135.82653,   0.00000,   0.00000,   0.00000,-404412306.01120,   0.00000
-81728544.47727,-31790513.97469,-5177608.13920,  -0.00031,   0.00001,  -0.00007,71919553.69677,   0.00000,274640135.82653,   0.00000,   0.00000,   0.00000,-402720582.12976,   0.00000
-83582775.39212,-32363286.87509,-5404128.49529,  -0.00032,   0.00002,  -0.00007,73593907.05866,   0.00000,274640135.82653,   0.00000,   0.00000,   0.00000,-401046228.76787,   0.00000
-85449950.32732,-32923115.75514,-5637120.86155,  -0.00032,   0.00002,  -0.00007,75283984.69060,   0.00000,274640135.82653,   0.00000,   0.00000,   0.00000,-399356151.13593,   0.00000
-87262113.17604,-33440876.56906,-5876585.23799,  -0.00033,   0.00002,  -0.00008,76931461.88627,   0.00000,274640135.82653,   0.00000,   0.00000,   0.00000,-397708673.94026,   0.00000
-89083984.04002,-33981289.41859,-6116049.61443,  -0.00034,   0.00002,  -0.00008,78585709.81690,   0.00000,274640135.82653,   0.00000,   0.00000,   0.00000,-396054426.00963,   0.00000
-90896146.88874,-34499050.23251,-6361986.00104,  -0.00035,   0.00002,  -0.00008,80236449.61201,   0.00000,274640135.82653,   0.00000,   0.00000,   0.00000,-394403686.21452,   0.00000
-92685657.70185,-35007103.03117,-6607922.38765,  -0.00035,   0.00002,  -0.00009,81868589.53484,   0.00000,274640135.82653,   0.00000,   0.00000,   0.00000,-392771546.29169,   0.00000
-94465460.49970,-35492503.79422,-6860330.78444,  -0.00036,   0.00002,  -0.00009,83497411.65576,   0.00000,274640135.82653,   0.00000,   0.00000,   0.00000,-391142724.17077,   0.00000
-96222611.26194,-35968196.54200,-7119211.19140,  -0.00037,   0.00002,  -0.00009,85109328.45970,   0.00000,274640135.82653,   0.00000,   0.00000,   0.00000,-389530807.36683,   0.00000
-97979762.02419,-36443889.28979,-7378091.59836,  -0.00037,   0.00003,  -0.00010,86722176.74813,   0.00000,274640135.82653,   0.00000,   0.00000,   0.00000,-387917959.07840,   0.00000
-99727204.77117,-36896930.00197,-7643444.01549,  -0.00038,   0.00003,  -0.00010,88331975.13109,   0.00000,274640135.82653,   0.00000,   0.00000,   0.00000,-386308160.69543,   0.00000
-101451995.48254,-37340262.69889,-7915268.44280,  -0.00039,   0.00003,  -0.00010,89925040.26538,   0.00000,274640135.82653,   0.00000,   0.00000,   0.00000,-384715095.56114,   0.00000
-103154134.15830,-37773887.38055,-8187092.87011,  -0.00040,   0.00003,  -0.00011,91499698.27406,   0.00000,274640135.82653,   0.00000,   0.00000,   0.00000,-383140437.55247,   0.00000
-104856272.83406,-38207512.06221,-8465389.30759,  -0.00040,   0.00003,  -0.00011,93077081.33540,   0.00000,274640135.82653,   0.00000,   0.00000,   0.00000,-381563054.49113,   0.00000
-106548703.49456,-38618484.70826,-8750157.75525,  -0.00041,   0.00003,  -0.00011,94651782.25036,   0.00000,274640135.82653,   0.00000,   0.00000,   0.00000,-379988353.57617,   0.00000
-108218482.11945,-39019749.33905,-9034926.20290,  -0.00042,   0.00003,  -0.00012,96208171.89326,   0.00000,274640135.82653,   0.00000,   0.00000,   0.00000,-378431963.93327,   0.00000
-109888260.74435,-39421013.96983,-9326166.66073,  -0.00042,   0.00003,  -0.00012,97767436.72438,   0.00000,274640135.82653,   0.00000,   0.00000,   0.00000,-376872699.10215,   0.00000
-111525679.31837,-39789918.54975,-9617407.11856,  -0.00043,   0.00004,  -0.00013,99303074.61699,   0.00000,274640135.82653,   0.00000,   0.00000,   0.00000,-375337061.20954,   0.00000
-113163097.89239,-40158823.12967,-9915119.58657,  -0.00044,   0.00004,  -0.00013,100841706.43114,   0.00000,274640135.82653,   0.00000,   0.00000,   0.00000,-373798429.39539,   0.00000
-114777864.43080,-40518019.69433,-10219304.06475,  -0.00044,   0.00004,  -0.00013,102364050.51808,   0.00000,274640135.82653,   0.00000,   0.00000,   0.00000,-372276085.30845,   0.00000
-116382922.95395,-40854564.22337,-10523488.54292,  -0.00045,   0.00004,  -0.00014,103882327.68956,   0.00000,274640135.82653,   0.00000,   0.00000,   0.00000,-370757808.13697,   0.00000
-117997689.49237,-41213760.78803,-10834145.03128,  -0.00046,   0.00004,  -0.00014,105408900.72109,   0.00000,274640135.82653,   0.00000,   0.00000,   0.00000,-369231235.10544,   0.00000
-119580095.97991,-41540597.30182,-11144801.51963,  -0.00046,   0.00004,  -0.00014,106912168.47992,   0.00000,274640135.82653,   0.00000,   0.00000,   0.00000,-367727967.34661,   0.00000
-121139850.43184,-41857725.80034,-11461930.01815,  -0.00047,   0.00005,  -0.00015,108399360.92145,   0.00000,274640135.82653,   0.00000,   0.00000,   0.00000,-366240774.90508,   0.00000
-122689896.86852,-42152202.26326,-11779058.51668,  -0.00048,   0.00005,  -0.00015,109882702.27569,   0.00000,274640135.82653,   0.00000,   0.00000,   0.00000,-364757433.55084,   0.00000
-124239943.30519,-42446678.72618,-12102659.02538,  -0.00048,   0.00005,  -0.00016,111369359.14057,   0.00000,274640135.82653,   0.00000,   0.00000,   0.00000,-363270776.68596,   0.00000
-125767337.70625,-42731447.17383,-12432731.54425,  -0.00049,   0.00005,  -0.00016,112840143.14443,   0.00000,274640135.82653,   0.00000,   0.00000,   0.00000,-361799992.68210,   0.00000
-127294732.10732,-43016215.62149,-12762804.06313,  -0.00050,   0.00005,  -0.00017,114312175.58739,   0.00000,274640135.82653,   0.00000,   0.00000,   0.00000,-360327960.23914,   0.00000
-128822126.50838,-43300984.06915,-13099348.59218,  -0.00050,   0.00005,  -0.00017,115787604.91703,   0.00000,274640135.82653,   0.00000,   0.00000,   0.00000,-358852530.90950,   0.00000
-130317160.85858,-43553392.46593,-13435893.12122,  -0.00051,   0.00006,  -0.00017,117240247.48143,   0.00000,274640135.82653,   0.00000,   0.00000,   0.00000,-357399888.34510,   0.00000
-131789543.17316,-43796092.84746,-13778909.66045,  -0.00051,   0.00006,  -0.00018,118677248.97237,   0.00000,274640135.82653,   0.00000,   0.00000,   0.00000,-355962886.85416,   0.00000
-133261925.48775,-44038793.22898,-14121926.19967,  -0.00052,   0.00006,  -0.00018,120115561.48427,   0.00000,274640135.82653,   0.00000,   0.00000,   0.00000,-354524574.34225,   0.00000
-134734307.80233,-44281493.61051,-14471414.74906,  -0.00053,   0.00006,  -0.00019,121557449.46240,   0.00000,274640135.82653,   0.00000,   0.00000,   0.00000,-353082686.36413,   0.00000
-136174330.06605,-44491833.94116,-14827375.30863,  -0.00053,   0.00006,  -0.00019,122979180.96843,   0.00000,274640135.82653,   0.00000,   0.00000,   0.00000,-351660954.85810,   0.00000
-137614352.32976,-44702174.27182,-15183335.86820,  -0.00054,   0.00006,  -0.00020,124402309.68869,   0.00000,274640135.82653,   0.00000,   0.00000,   0.00000,-350237826.13784,   0.00000
-139041430.57313,-44925458.62282,-15539296.42777,  -0.00055,   0.00007,  -0.00020,125812262.56861,   0.00000,274640135.82653,   0.00000,   0.00000,   0.00000,-348827873.25792,   0.00000
-140449092.78597,-45103438.90261,-15901728.99752,  -0.00055,   0.00007,  -0.00021,127216845.36718,   0.00000,274640135.82653,   0.00000,   0.00000,   0.00000,-347423290.45935,   0.00000
-141866463.01408,-45304071.21800,-16270633.57744,  -0.00056,   0.00007,  -0.00021,128629795.94265,   0.00000,274640135.82653,   0.00000,   0.00000,   0.00000,-346010339.88388,   0.00000
-143261181.20658,-45494995.51813,-16639538.15735,  -0.00056,   0.00007,  -0.00022,130025061.24303,   0.00000,274640135.82653,   0.00000,   0.00000,   0.00000,-344615074.58350,   0.00000
-144646191.38381,-45663267.78266,-17008442.73727,  -0.00057,   0.00007,  -0.00022,131417267.92387,   0.00000,274640135.82653,   0.00000,   0.00000,   0.00000,-343222867.90266,   0.00000
-146008549.52544,-45821832.03192,-17383819.32736,  -0.00057,   0.00008,  -0.00023,132794386.61677,   0.00000,274640135.82653,   0.00000,   0.00000,   0.00000,-341845749.20976,   0.00000
-147370907.66707,-45980396.28118,-17759195.91746,  -0.00058,   0.00008,  -0.00023,134172931.89330,   0.00000,274640135.82653,   0.00000,   0.00000,   0.00000,-340467203.93323,   0.00000
-148710613.77308,-46129252.51518,-18141044.51772,  -0.00059,   0.00008,  -0.00024,135536480.77375,   0.00000,274640135.82653,   0.00000,   0.00000,   0.00000,-339103655.05278,   0.00000
-150050319.87910,-46278108.74919,-18529365.12816,  -0.00059,   0.00008,  -0.00024,136904086.64523,   0.00000,274640135.82653,   0.00000,   0.00000,   0.00000,-337736049.18130,   0.00000
-151380317.96986,-46404312.94758,-18917685.73860,  -0.00060,   0.00008,  -0.00025,138268932.81113,   0.00000,274640135.82653,   0.00000,   0.00000,   0.00000,-336371203.01540,   0.00000
-152697372.04027,-46543461.16632,-19306006.34904,  -0.00060,   0.00009,  -0.00025,139620495.06801,   0.00000,274640135.82653,   0.00000,   0.00000,   0.00000,-335019640.75852,   0.00000
-153982066.05981,-46650249.33419,-19700798.96966,  -0.00061,   0.00009,  -0.00026,140953130.85006,   0.00000,274640135.82653,   0.00000,   0.00000,   0.00000,-333687004.97647,   0.00000
-155289412.11496,-46766745.51732,-20095591.59027,  -0.00062,   0.00009,  -0.00026,142306176.91254,   0.00000,274640135.82653,   0.00000,   0.00000,   0.00000,-332333958.91398,   0.00000
-156574106.13449,-46873533.68519,-20496856.22106,  -0.00062,   0.00009,  -0.00027,143644563.34532,   0.00000,274640135.82653,   0.00000,   0.00000,   0.00000,-330995572.48121,   0.00000
-157836148.11842,-46970613.83780,-20898120.85185,  -0.00063,   0.00009,  -0.00027,144965588.39828,   0.00000,274640135.82653,   0.00000,   0.00000,   0.00000,-329674547.42825,   0.00000
-159088482.08709,-47045041.95481,-21305857.49281,  -0.00063,   0.00010,  -0.00028,146286962.78720,   0.00000,274640135.82653,   0.00000,   0.00000,   0.00000,-328353173.03933,   0.00000
-160350524.07102,-47142122.10742,-21713594.13377,  -0.00064,   0.00010,  -0.00028,147613843.42776,   0.00000,274640135.82653,   0.00000,   0.00000,   0.00000,-327026292.39877,   0.00000
-161580206.00408,-47206842.20916,-22121330.77473,  -0.00064,   0.00010,  -0.00029,148919499.93355,   0.00000,274640135.82653,   0.00000,   0.00000,   0.00000,-325720635.89297,   0.00000
-162819595.95240,-47294214.34650,-22535539.42587,  -0.00065,   0.00010,  -0.00029,150233452.59168,   0.00000,274640135.82653,   0.00000,   0.00000,   0.00000,-324406683.23485,   0.00000
-164026625.84986,-47349226.43298,-22956220.08718,  -0.00065,   0.00010,  -0.00030,151529249.66870,   0.00000,274640135.82653,   0.00000,   0.00000,   0.00000,-323110886.15783,   0.00000
-165233655.74731,-47404238.51946,-23370428.73831,  -0.00066,   0.00011,  -0.00030,152823682.75558,   0.00000,274640135.82653,   0.00000,   0.00000,   0.00000,-321816453.07095,   0.00000
-166440685.64476,-47459250.60594,-23797581.40980,  -0.00066,   0.00011,  -0.00031,154125619.99163,   0.00000,274640135.82653,   0.00000,   0.00000,   0.00000,-320514515.83490,   0.00000
-167625063.50660,-47504554.67716,-24218262.07111,  -0.00067,   0.00011,  -0.00031,155407410.66400,   0.00000,274640135.82653,   0.00000,   0.00000,   0.00000,-319232725.16253,   0.00000
-168809441.36844,-47549858.74838,-24645414.74259,  -0.00068,   0.00011,  -0.00032,156693780.58225,   0.00000,274640135.82653,   0.00000,   0.00000,   0.00000,-317946355.24428,   0.00000
-169971167.19467,-47585454.80433,-25079039.42425,  -0.00068,   0.00011,  -0.00033,157966112.02154,   0.00000,274640135.82653,   0.00000,   0.00000,   0.00000,-316674023.80499,   0.00000
-171123185.00565,-47598398.82468,-25506192.09573,  -0.00069,   0.00012,  -0.00033,159233350.51042,   0.00000,274640135.82653,   0.00000,   0.00000,   0.00000,-315406785.31611,   0.00000
-172284910.83188,-47633994.88064,-25946288.78757,  -0.00069,   0.00012,  -0.00034,160511990.56022,   0.00000,274640135.82653,   0.00000,   0.00000,   0.00000,-314128145.26631,   0.00000
-173414276.60724,-47637230.88573,-26379913.46922,  -0.00070,   0.00012,  -0.00034,161766933.17234,   0.00000,274640135.82653,   0.00000,   0.00000,   0.00000,-312873202.65419,   0.00000
-174530698.36226,-47653410.91116,-26820010.16106,  -0.00070,   0.00012,  -0.00035,163011557.84709,   0.00000,274640135.82653,   0.00000,   0.00000,   0.00000,-311628577.97944,   0.00000
-175660064.13762,-47656646.91625,-27260106.85289,  -0.00071,   0.00013,  -0.00035,164272897.18981,   0.00000,274640135.82653,   0.00000,   0.00000,   0.00000,-310367238.63672,   0.00000
-176776485.89264,-47672826.94168,-27706675.55489,  -0.00071,   0.00013,  -0.00036,165523923.30039,   0.00000,274640135.82653,   0.00000,   0.00000,   0.00000,-309116212.52613,   0.00000
-177860547.59678,-47656646.91625,-28153244.25690,  -0.00072,   0.00013,  -0.00037,166754635.78606,   0.00000,274640135.82653,   0.00000,   0.00000,   0.00000,-307885500.04047,   0.00000
-178944609.30093,-47640466.89081,-28599812.95891,  -0.00072,   0.00013,  -0.00037,167986994.89127,   0.00000,274640135.82653,   0.00000,   0.00000,   0.00000,-306653140.93526,   0.00000
-180038379.02033,-47646938.90099,-29052853.67109,  -0.00073,   0.00013,  -0.00038,169227586.34806,   0.00000,274640135.82653,   0.00000,   0.00000,   0.00000,-305412549.47847,   0.00000
-181099788.68887,-47621050.86029,-29505894.38327,  -0.00073,   0.00014,  -0.00038,170448024.65948,   0.00000,274640135.82653,   0.00000,   0.00000,   0.00000,-304192111.16705,   0.00000
-182161198.35740,-47595162.81960,-29965407.10562,  -0.00074,   0.00014,  -0.00039,171673488.58986,   0.00000,274640135.82653,   0.00000,   0.00000,   0.00000,-302966647.23667,   0.00000
-183222608.02594,-47569274.77890,-30418447.81780,  -0.00074,   0.00014,  -0.00040,172897192.89467,   0.00000,274640135.82653,   0.00000,   0.00000,   0.00000,-301742942.93186,   0.00000
-184261365.65887,-47533678.72294,-30877960.54015,  -0.00075,   0.00014,  -0.00040,174107513.54403,   0.00000,274640135.82653,   0.00000,   0.00000,   0.00000,-300532622.28250,   0.00000
-185277471.25618,-47488374.65172,-31343945.27268,  -0.00075,   0.00015,  -0.00041,175304563.05636,   0.00000,274640135.82653,   0.00000,   0.00000,   0.00000,-299335572.77017,   0.00000
-186316228.88911,-47452778.59577,-31803457.99504,  -0.00076,   0.00015,  -0.00041,176518158.85900,   0.00000,274640135.82653,   0.00000,   0.00000,   0.00000,-298121976.96753,   0.00000
-187342042.50169,-47430126.56016,-32269442.72756,  -0.00076,   0.00015,  -0.00042,177721556.96529,   0.00000,274640135.82653,   0.00000,   0.00000,   0.00000,-296918578.86124,   0.00000
-188335496.06340,-47375114.47368,-32741899.47027,  -0.00076,   0.00015,  -0.00043,178908749.94293,   0.00000,274640135.82653,   0.00000,   0.00000,   0.00000,-295731385.88360,   0.00000
-189328949.62511,-47320102.38720,-33207884.20279,  -0.00077,   0.00015,  -0.00043,180094055.13409,   0.00000,274640135.82653,   0.00000,   0.00000,   0.00000,-294546080.69244,   0.00000
-190322403.18682,-47265090.30072,-33680340.94550,  -0.00077,   0.00016,  -0.00044,181284573.09347,   0.00000,274640135.82653,   0.00000,   0.00000,   0.00000,-293355562.73306,   0.00000
-191293204.71292,-47200370.19898,-34152797.68820,  -0.00078,   0.00016,  -0.00044,182458476.93942,   0.00000,274640135.82653,   0.00000,   0.00000,   0.00000,-292181658.88711,   0.00000
-192264006.23902,-47135650.09724,-34631726.44107,  -0.00078,   0.00016,  -0.00045,183637681.61698,   0.00000,274640135.82653,   0.00000,   0.00000,   0.00000,-291002454.20955,   0.00000
-193234807.76512,-47070929.99550,-35110655.19395,  -0.00079,   0.00016,  -0.00046,184818547.76538,   0.00000,274640135.82653,   0.00000,   0.00000,   0.00000,-289821588.06115,   0.00000
-194182957.25561,-46996501.87850,-35589583.94683,  -0.00079,   0.00016,  -0.00046,185982869.69083,   0.00000,274640135.82653,   0.00000,   0.00000,   0.00000,-288657266.13569,   0.00000
-195140814.76136,-46944725.79711,-36068512.69970,  -0.00080,   0.00017,  -0.00047,187151611.40157,   0.00000,274640135.82653,   0.00000,   0.00000,   0.00000,-287488524.42496,   0.00000
-196066312.21624,-46860589.66485,-36553913.46275,  -0.00080,   0.00017,  -0.00048,188304796.57799,   0.00000,274640135.82653,   0.00000,   0.00000,   0.00000,-286335339.24854,   0.00000
-196991809.67112,-46776453.53258,-37032842.21563,  -0.00081,   0.00017,  -0.00048,189455867.31192,   0.00000,274640135.82653,   0.00000,   0.00000,   0.00000,-285184268.51461,   0.00000
-197894655.09040,-46682609.38506,-37518242.97868,  -0.00081,   0.00017,  -0.00049,190594274.09550,   0.00000,274640135.82653,   0.00000,   0.00000,   0.00000,-284045861.73103,   0.00000
-198829860.56054,-46621125.28841,-38010115.75190,  -0.00081,   0.00018,  -0.00049,191758904.96097,   0.00000,274640135.82653,   0.00000,   0.00000,   0.00000,-282881230.86556,   0.00000
-199710053.94420,-46517573.12562,-38495516.51495,  -0.00082,   0.00018,  -0.00050,192882548.69967,   0.00000,274640135.82653,   0.00000,   0.00000,   0.00000,-281757587.12686,   0.00000
-200622607.37874,-46446381.01371,-38987389.28818,  -0.00082,   0.00018,  -0.00051,194032348.87245,   0.00000,274640135.82653,   0.00000,   0.00000,   0.00000,-280607786.95408,   0.00000
-201502800.76240,-46342828.85093,-39479262.06140,  -0.00083,   0.00018,  -0.00051,195163170.42675,   0.00000,274640135.82653,   0.00000,   0.00000,   0.00000,-279476965.39977,   0.00000
-202370050.12572,-46252220.70849,-39971134.83462,  -0.00083,   0.00018,  -0.00052,196280197.02724,   0.00000,274640135.82653,   0.00000,   0.00000,   0.00000,-278359938.79929,   0.00000
-203250243.50938,-46148668.54571,-40469479.61802,  -0.00083,   0.00019,  -0.00053,197418259.83753,   0.00000,274640135.82653,   0.00000,   0.00000,   0.00000,-277221875.98900,   0.00000
-204094840.83709,-46048352.38801,-40967824.40142,  -0.00084,   0.00019,  -0.00053,198524586.81756,   0.00000,274640135.82653,   0.00000,   0.00000,   0.00000,-276115549.00897,   0.00000
-204962090.20041,-45957744.24557,-41466169.18482,  -0.00084,   0.00019,  -0.00054,199650461.84415,   0.00000,274640135.82653,   0.00000,   0.00000,   0.00000,-274989673.98237,   0.00000
-205806687.52811,-45857428.08788,-41964513.96822,  -0.00085,   0.00019,  -0.00055,200760036.52762,   0.00000,274640135.82653,   0.00000,   0.00000,   0.00000,-273880099.29891,   0.00000
-206628632.82021,-45747403.91492,-42462858.75161,  -0.00085,   0.00019,  -0.00055,201853353.84920,   0.00000,274640135.82653,   0.00000,   0.00000,   0.00000,-272786781.97733,   0.00000
-207473230.14792,-45647087.75722,-42961203.53501,  -0.00085,   0.00020,  -0.00056,202966115.72482,   0.00000,274640135.82653,   0.00000,   0.00000,   0.00000,-271674020.10171,   0.00000
-208295175.44002,-45537063.58426,-43466020.32858,  -0.00086,   0.00020,  -0.00057,204066749.84615,   0.00000,274640135.82653,   0.00000,   0.00000,   0.00000,-270573385.98038,   0.00000
-209094468.69650,-45417331.39604,-43970837.12216,  -0.00086,   0.00020,  -0.00057,205151216.43415,   0.00000,274640135.82653,   0.00000,   0.00000,   0.00000,-269488919.39238,   0.00000
-209903469.96825,-45320251.24343,-44475653.91573,  -0.00087,   0.00020,  -0.00058,206239582.17410,   0.00000,274640135.82653,   0.00000,   0.00000,   0.00000,-268400553.65243,   0.00000
-210702763.22474,-45200519.05522,-44980470.70930,  -0.00087,   0.00021,  -0.00058,207327266.23618,   0.00000,274640135.82653,   0.00000,   0.00000,   0.00000,-267312869.59035,   0.00000
-211479404.44562,-45071078.85174,-45491759.51305,  -0.00087,   0.00021,  -0.00059,208403062.09609,   0.00000,274640135.82653,   0.00000,   0.00000,   0.00000,-266237073.73044,   0.00000
-212265753.68176,-44964290.68386,-45996576.30662,  -0.00088,   0.00021,  -0.00060,209478432.46455,   0.00000,274640135.82653,   0.00000,   0.00000,   0.00000,-265161703.36198,   0.00000
-213052102.91791,-44857502.51599,-46507865.11036,  -0.00088,   0.00021,  -0.00060,210559619.58174,   0.00000,274640135.82653,   0.00000,   0.00000,   0.00000,-264080516.24479,   0.00000
-213815800.11844,-44741006.33286,-47019153.91411,  -0.00089,   0.00021,  -0.00061,211624720.82721,   0.00000,274640135.82653,   0.00000,   0.00000,   0.00000,-263015414.99932,   0.00000
-214579497.31897,-44624510.14973,-47530442.71786,  -0.00089,   0.00022,  -0.00062,212691399.86045,   0.00000,274640135.82653,   0.00000,   0.00000,   0.00000,-261948735.96608,   0.00000
-215320542.48389,-44498305.95134,-48041731.52160,  -0.00089,   0.00022,  -0.00062,213742040.25840,   0.00000,274640135.82653,   0.00000,   0.00000,   0.00000,-260898095.56813,   0.00000
-216061587.64882,-44372101.75294,-48553020.32535,  -0.00090,   0.00022,  -0.00063,214794258.92557,   0.00000,274640135.82653,   0.00000,   0.00000,   0.00000,-259845876.90096,   0.00000
-216812340.82900,-44268549.59016,-49070781.13927,  -0.00090,   0.00022,  -0.00064,215854470.51584,   0.00000,274640135.82653,   0.00000,   0.00000,   0.00000,-258785665.31069,   0.00000
-217530733.95831,-44132637.37651,-49582069.94301,  -0.00090,   0.00022,  -0.00064,216892254.07497,   0.00000,274640135.82653,   0.00000,   0.00000,   0.00000,-257747881.75155,   0.00000
-218258835.10289,-44019377.19846,-50099830.75693,  -0.00091,   0.00023,  -0.00065,217938032.03145,   0.00000,274640135.82653,   0.00000,   0.00000,   0.00000,-256702103.79508,   0.00000
-218964284.21185,-43896409.00515,-50617591.57085,  -0.00091,   0.00023,  -0.00066,218967870.78468,   0.00000,274640135.82653,   0.00000,   0.00000,   0.00000,-255672265.04185,   0.00000
-219669733.32082,-43773440.81185,-51135352.38477,  -0.00091,   0.00023,  -0.00066,219999269.49565,   0.00000,274640135.82653,   0.00000,   0.00000,   0.00000,-254640866.33088,   0.00000
-220375182.42979,-43650472.61854,-51653113.19869,  -0.00092,   0.00023,  -0.00067,221032206.32676,   0.00000,274640135.82653,   0.00000,   0.00000,   0.00000,-253607929.49976,   0.00000
-221057979.50314,-43517796.40998,-52170874.01261,  -0.00092,   0.00023,  -0.00068,222049258.15074,   0.00000,274640135.82653,   0.00000,   0.00000,   0.00000,-252590877.67579,   0.00000
-221750484.59176,-43407772.23702,-52688634.82653,  -0.00092,   0.00023,  -0.00068,223069707.26279,   0.00000,274640135.82653,   0.00000,   0.00000,   0.00000,-251570428.56374,   0.00000
-222410629.62951,-43265388.01319,-53206395.64045,  -0.00093,   0.00024,  -0.00069,224072446.75349,   0.00000,274640135.82653,   0.00000,   0.00000,   0.00000,-250567689.07304,   0.00000
-223103134.71813,-43155363.84023,-53730628.46455,  -0.00093,   0.00024,  -0.00070,225100507.55644,   0.00000,274640135.82653,   0.00000,   0.00000,   0.00000,-249539628.27009,   0.00000
-223750335.73553,-43025923.63675,-54248389.27847,  -0.00093,   0.00024,  -0.00071,226090780.89437,   0.00000,274640135.82653,   0.00000,   0.00000,   0.00000,-248549354.93216,   0.00000
-224420188.78854,-42906191.44853,-54772622.10256,  -0.00094,   0.00024,  -0.00071,227104529.26217,   0.00000,274640135.82653,   0.00000,   0.00000,   0.00000,-247535606.56435,   0.00000
-225077097.82120,-42799403.28066,-55290382.91648,  -0.00094,   0.00024,  -0.00072,228099545.67043,   0.00000,274640135.82653,   0.00000,   0.00000,   0.00000,-246540590.15610,   0.00000
-225701646.80299,-42660255.06192,-55814615.74058,  -0.00094,   0.00025,  -0.00073,229081764.66455,   0.00000,274640135.82653,   0.00000,   0.00000,   0.00000,-245558371.16198,   0.00000
-226335903.80004,-42543758.87879,-56338848.56467,  -0.00095,   0.00025,  -0.00073,230067229.79254,   0.00000,274640135.82653,   0.00000,   0.00000,   0.00000,-244572906.03399,   0.00000
-226970160.79709,-42427262.69566,-56856609.37859,  -0.00095,   0.00025,  -0.00074,231049401.57027,   0.00000,274640135.82653,   0.00000,   0.00000,   0.00000,-243590734.25626,   0.00000
-227604417.79414,-42310766.51252,-57380842.20268,  -0.00095,   0.00025,  -0.00075,232037793.77388,   0.00000,274640135.82653,   0.00000,   0.00000,   0.00000,-242602342.05265,   0.00000
-228216022.75559,-42184562.31413,-57905075.02678,  -0.00096,   0.00025,  -0.00075,233010494.28849,   0.00000,274640135.82653,   0.00000,   0.00000,   0.00000,-241629641.53804,   0.00000
-228814683.69668,-42071302.13609,-58429307.85087,  -0.00096,   0.00025,  -0.00076,233969173.81454,   0.00000,274640135.82653,   0.00000,   0.00000,   0.00000,-240670962.01199,   0.00000
-229426288.65813,-41945097.93769,-58953540.67497,  -0.00096,   0.00026,  -0.00077,234944812.44655,   0.00000,274640135.82653,   0.00000,   0.00000,   0.00000,-239695323.37998,   0.00000
-230024949.59922,-41831837.75965,-59477773.49906,  -0.00097,   0.00026,  -0.00077,235906401.64562,   0.00000,274640135.82653,   0.00000,   0.00000,   0.00000,-238733734.18091,   0.00000
-230600958.50471,-41708869.56634,-60002006.32315,  -0.00097,   0.00026,  -0.00078,236852377.76315,   0.00000,274640135.82653,   0.00000,   0.00000,   0.00000,-237787758.06338,   0.00000
-231186675.42545,-41608553.40865,-60526239.14725,  -0.00097,   0.00026,  -0.00079,237801354.82195,   0.00000,274640135.82653,   0.00000,   0.00000,   0.00000,-236838781.00458,   0.00000
-231762684.33094,-41485585.21534,-61050471.97134,  -0.00097,   0.00026,  -0.00079,238750215.54371,   0.00000,274640135.82653,   0.00000,   0.00000,   0.00000,-235889920.28282,   0.00000
-232325749.21608,-41375561.04238,-61574704.79544,  -0.00098,   0.00026,  -0.00080,239685033.72950,   0.00000,274640135.82653,   0.00000,   0.00000,   0.00000,-234955102.09703,   0.00000
-232888814.10122,-41265536.86942,-62098937.61953,  -0.00098,   0.00027,  -0.00081,240621271.88228,   0.00000,274640135.82653,   0.00000,   0.00000,   0.00000,-234018863.94425,   0.00000
-233451878.98635,-41155512.69647,-62623170.44362,  -0.00098,   0.00027,  -0.00081,241558913.49144,   0.00000,274640135.82653,   0.00000,   0.00000,   0.00000,-233081222.33509,   0.00000
-234001999.85114,-41058432.54386,-63147403.26772,  -0.00098,   0.00027,  -0.00082,242482492.37758,   0.00000,274640135.82653,   0.00000,   0.00000,   0.00000,-232157643.44895,   0.00000
-234542412.70067,-40938700.35564,-63671636.09181,  -0.00099,   0.00027,  -0.00083,243406020.29499,   0.00000,274640135.82653,   0.00000,   0.00000,   0.00000,-231234115.53154,   0.00000
-235069881.52985,-40831912.18777,-64195868.91591,  -0.00099,   0.00027,  -0.00083,244315513.73656,   0.00000,274640135.82653,   0.00000,   0.00000,   0.00000,-230324622.08997,   0.00000
-235597350.35903,-40725124.01990,-64720101.74000,  -0.00099,   0.00027,  -0.00084,245226406.85336,   0.00000,274640135.82653,   0.00000,   0.00000,   0.00000,-229413728.97317,   0.00000
-236124819.18822,-40618335.85202,-65244334.56409,  -0.00100,   0.00028,  -0.00085,246138684.10594,   0.00000,274640135.82653,   0.00000,   0.00000,   0.00000,-228501451.72059,   0.00000
-236639343.99705,-40524491.70450,-65768567.38819,  -0.00100,   0.00028,  -0.00085,247036915.84737,   0.00000,274640135.82653,   0.00000,   0.00000,   0.00000,-227603219.97916,   0.00000
-237153868.80588,-40430647.55698,-66292800.21228,  -0.00100,   0.00028,  -0.00086,247936516.76380,   0.00000,274640135.82653,   0.00000,   0.00000,   0.00000,-226703619.06273,   0.00000
-237668393.61471,-40336803.40945,-66817033.03638,  -0.00100,   0.00028,  -0.00087,248837472.00566,   0.00000,274640135.82653,   0.00000,   0.00000,   0.00000,-225802663.82087,   0.00000
-238160266.38794,-40233251.24667,-67341265.86047,  -0.00101,   0.00028,  -0.00088,249723053.44193,   0.00000,274640135.82653,   0.00000,   0.00000,   0.00000,-224917082.38459,   0.00000
-238639195.14081,-40142643.10423,-67865498.68456,  -0.00101,   0.00028,  -0.00088,250594626.73159,   0.00000,274640135.82653,   0.00000,   0.00000,   0.00000,-224045509.09494,   0.00000
-239140775.92930,-40061742.97706,-68389731.50866,  -0.00101,   0.00028,  -0.00089,251484241.63214,   0.00000,274640135.82653,   0.00000,   0.00000,   0.00000,-223155894.19439,   0.00000
-239619704.68218,-39971134.83462,-68907492.32258,  -0.00101,   0.00029,  -0.00090,252353225.58195,   0.00000,274640135.82653,   0.00000,   0.00000,   0.00000,-222286910.24458,   0.00000
-240075981.39944,-39870818.67693,-69431725.14667,  -0.00101,   0.00029,  -0.00090,253212216.28180,   0.00000,274640135.82653,   0.00000,   0.00000,   0.00000,-221427919.54473,   0.00000
-240541966.13197,-39793154.55484,-69955957.97077,  -0.00102,   0.00029,  -0.00091,254073841.92724,   0.00000,274640135.82653,   0.00000,   0.00000,   0.00000,-220566293.89929,   0.00000
-241007950.86450,-39715490.43275,-70473718.78469,  -0.00102,   0.00029,  -0.00092,254931439.23705,   0.00000,274640135.82653,   0.00000,   0.00000,   0.00000,-219708696.58948,   0.00000
-241451283.56142,-39628118.29540,-70997951.60878,  -0.00102,   0.00029,  -0.00092,255779157.60177,   0.00000,274640135.82653,   0.00000,   0.00000,   0.00000,-218860978.22476,   0.00000
-241894616.25834,-39540746.15805,-71515712.42270,  -0.00102,   0.00029,  -0.00093,256622823.87389,   0.00000,274640135.82653,   0.00000,   0.00000,   0.00000,-218017311.95263,   0.00000
-242347656.97052,-39476026.05631,-72033473.23662,  -0.00103,   0.00029,  -0.00094,257468997.84369,   0.00000,274640135.82653,   0.00000,   0.00000,   0.00000,-217171137.98284,   0.00000
-242778045.64709,-39401597.93931,-72557706.06071,  -0.00103,   0.00029,  -0.00094,258305409.45108,   0.00000,274640135.82653,   0.00000,   0.00000,   0.00000,-216334726.37545,   0.00000
-243208434.32366,-39327169.82231,-73075466.87463,  -0.00103,   0.00030,  -0.00095,259137687.32157,   0.00000,274640135.82653,   0.00000,   0.00000,   0.00000,-215502448.50496,   0.00000
-243638823.00023,-39252741.70531,-73593227.68855,  -0.00103,   0.00030,  -0.00096,259971251.29630,   0.00000,274640135.82653,   0.00000,   0.00000,   0.00000,-214668884.53023,   0.00000
-244056267.65645,-39191257.60866,-74110988.50247,  -0.00103,   0.00030,  -0.00096,260790836.20606,   0.00000,274640135.82653,   0.00000,   0.00000,   0.00000,-213849299.62047,   0.00000
-244451060.27707,-39120065.49674,-74628749.31639,  -0.00104,   0.00030,  -0.00097,261595316.43333,   0.00000,274640135.82653,   0.00000,   0.00000,   0.00000,-213044819.39320,   0.00000
-244855560.91294,-39071525.42044,-75140038.12014,  -0.00104,   0.00030,  -0.00098,262396694.95292,   0.00000,274640135.82653,   0.00000,   0.00000,   0.00000,-212243440.87361,   0.00000
-245250353.53356,-39000333.30852,-75657798.93406,  -0.00104,   0.00030,  -0.00098,263203768.95726,   0.00000,274640135.82653,   0.00000,   0.00000,   0.00000,-211436366.86927,   0.00000
-245654854.16943,-38951793.23222,-76169087.73781,  -0.00104,   0.00030,  -0.00099,264007655.69835,   0.00000,274640135.82653,   0.00000,   0.00000,   0.00000,-210632480.12818,   0.00000
-246036702.76970,-38893545.14065,-76686848.55173,  -0.00104,   0.00030,  -0.00100,264802087.56796,   0.00000,274640135.82653,   0.00000,   0.00000,   0.00000,-209838048.25857,   0.00000
-246428259.38522,-38857949.08470,-77198137.35547,  -0.00105,   0.00030,  -0.00100,265593274.96746,   0.00000,274640135.82653,   0.00000,   0.00000,   0.00000,-209046860.85907,   0.00000
-246797163.96514,-38812645.01348,-77709426.15922,  -0.00105,   0.00030,  -0.00101,266369434.39676,   0.00000,274640135.82653,   0.00000,   0.00000,   0.00000,-208270701.42977,   0.00000
-247166068.54506,-38767340.94226,-78220714.96296,  -0.00105,   0.00031,  -0.00102,267146854.11410,   0.00000,274640135.82653,   0.00000,   0.00000,   0.00000,-207493281.71243,   0.00000
-247512321.08937,-38712328.85578,-78732003.76671,  -0.00105,   0.00031,  -0.00102,267909313.72011,   0.00000,274640135.82653,   0.00000,   0.00000,   0.00000,-206730822.10642,   0.00000
-247890933.68455,-38689676.82017,-79243292.57046,  -0.00105,   0.00031,  -0.00103,268690312.88225,   0.00000,274640135.82653,   0.00000,   0.00000,   0.00000,-205949822.94428,   0.00000
-248224242.20851,-38647608.75404,-79748109.36403,  -0.00105,   0.00031,  -0.00104,269434447.55202,   0.00000,274640135.82653,   0.00000,   0.00000,   0.00000,-205205688.27451,   0.00000
-248580202.76808,-38615248.70317,-80259398.16777,  -0.00106,   0.00031,  -0.00104,270201741.79826,   0.00000,274640135.82653,   0.00000,   0.00000,   0.00000,-204438394.02827,   0.00000
-248913511.29204,-38573180.63704,-80764214.96135,  -0.00106,   0.00031,  -0.00105,270948363.69517,   0.00000,274640135.82653,   0.00000,   0.00000,   0.00000,-203691772.13136,   0.00000
-249233875.79565,-38544056.59126,-81269031.75492,  -0.00106,   0.00031,  -0.00106,271681157.05115,   0.00000,274640135.82653,   0.00000,   0.00000,   0.00000,-202958978.77538,   0.00000
-249563948.31453,-38537584.58108,-81773848.54849,  -0.00106,   0.00031,  -0.00106,272416234.60509,   0.00000,274640135.82653,   0.00000,   0.00000,   0.00000,-202223901.22144,   0.00000
-249884312.81814,-38508460.53530,-82278665.34206,  -0.00106,   0.00031,  -0.00107,273151510.04206,   0.00000,274640135.82653,   0.00000,   0.00000,   0.00000,-201488625.78447,   0.00000
-250191733.30140,-38492280.50986,-82783482.13563,  -0.00106,   0.00031,  -0.00108,273873006.03606,   0.00000,274640135.82653,   0.00000,   0.00000,   0.00000,-200767129.79047,   0.00000
-250499153.78467,-38476100.48443,-83281826.91903,  -0.00106,   0.00031,  -0.00108,274589864.75825,   0.00000,274640135.82653,   0.00000,   0.00000,   0.00000,-200050271.06828,   0.00000
-250806574.26793,-38459920.45899,-83780171.70243,  -0.00107,   0.00031,  -0.00109,275307925.40764,   0.00000,274640135.82653,   0.00000,   0.00000,   0.00000,-199332210.41889,   0.00000
-251101050.73085,-38456684.45391,-84284988.49600,  -0.00107,   0.00031,  -0.00110,276018148.38999,   0.00000,274640135.82653,   0.00000,   0.00000,   0.00000,-198621987.43654,   0.00000
-251395527.19377,-38453448.44882,-84776861.26923,  -0.00107,   0.00032,  -0.00110,276717730.66685,   0.00000,274640135.82653,   0.00000,   0.00000,   0.00000,-197922405.15967,   0.00000
-251667351.62108,-38440504.42847,-85275206.05262,  -0.00107,   0.00032,  -0.00111,277408526.56352,   0.00000,274640135.82653,   0.00000,   0.00000,   0.00000,-197231609.26301,   0.00000
-251948884.06365,-38450212.44373,-85773550.83602,  -0.00107,   0.00032,  -0.00112,278101558.73302,   0.00000,274640135.82653,   0.00000,   0.00000,   0.00000,-196538577.09351,   0.00000
-252230416.50621,-38459920.45899,-86265423.60925,  -0.00107,   0.00032,  -0.00112,278789807.32425,   0.00000,274640135.82653,   0.00000,   0.00000,   0.00000,-195850328.50228,   0.00000
-252489296.91317,-38459920.45899,-86757296.38247,  -0.00107,   0.00032,  -0.00113,279463374.50224,   0.00000,274640135.82653,   0.00000,   0.00000,   0.00000,-195176761.32429,   0.00000
-252757885.33540,-38482572.49460,-87249169.15569,  -0.00108,   0.00032,  -0.00113,280139136.66980,   0.00000,274640135.82653,   0.00000,   0.00000,   0.00000,-194500999.15673,   0.00000
-253003821.72201,-38495516.51495,-87741041.92892,  -0.00108,   0.00032,  -0.00114,280800279.76582,   0.00000,274640135.82653,   0.00000,   0.00000,   0.00000,-193839856.06070,   0.00000
-253249758.10862,-38508460.53530,-88232914.70214,  -0.00108,   0.00032,  -0.00115,281462652.77951,   0.00000,274640135.82653,   0.00000,   0.00000,   0.00000,-193177483.04702,   0.00000
-253505402.51049,-38544056.59126,-88718315.46519,  -0.00108,   0.00032,  -0.00115,282121118.16897,   0.00000,274640135.82653,   0.00000,   0.00000,   0.00000,-192519017.65756,   0.00000
-253738394.87676,-38569944.63195,-89203716.22824,  -0.00108,   0.00032,  -0.00116,282765002.76543,   0.00000,274640135.82653,   0.00000,   0.00000,   0.00000,-191875133.06110,   0.00000
-253971387.24302,-38595832.67265,-89689116.99129,  -0.00108,   0.00032,  -0.00117,283410091.19684,   0.00000,274640135.82653,   0.00000,   0.00000,   0.00000,-191230044.62969,   0.00000
-254191435.58894,-38634664.73369,-90174517.75434,  -0.00108,   0.00032,  -0.00117,284041640.09944,   0.00000,274640135.82653,   0.00000,   0.00000,   0.00000,-190598495.72709,   0.00000
-254401775.91959,-38650844.75913,-90653446.50722,  -0.00108,   0.00032,  -0.00118,284667261.79003,   0.00000,274640135.82653,   0.00000,   0.00000,   0.00000,-189972874.03650,   0.00000
-254631532.28077,-38712328.85578,-91132375.26009,  -0.00108,   0.00032,  -0.00118,285296006.77897,   0.00000,274640135.82653,   0.00000,   0.00000,   0.00000,-189344129.04756,   0.00000
-254828928.59108,-38741452.90156,-91611304.01297,  -0.00108,   0.00032,  -0.00119,285909309.31626,   0.00000,274640135.82653,   0.00000,   0.00000,   0.00000,-188730826.51027,   0.00000
-255036032.91664,-38793228.98296,-92090232.76585,  -0.00108,   0.00032,  -0.00120,286524788.43818,   0.00000,274640135.82653,   0.00000,   0.00000,   0.00000,-188115347.38834,   0.00000
-255220485.20660,-38835297.04909,-92569161.51872,  -0.00109,   0.00032,  -0.00120,287125864.39193,   0.00000,274640135.82653,   0.00000,   0.00000,   0.00000,-187514271.43460,   0.00000
-255414645.51182,-38900017.15083,-93041618.26142,  -0.00109,   0.00032,  -0.00121,287722864.17905,   0.00000,274640135.82653,   0.00000,   0.00000,   0.00000,-186917271.64748,   0.00000
-255608805.81704,-38964737.25257,-93514075.00413,  -0.00109,   0.00032,  -0.00122,288321052.08240,   0.00000,274640135.82653,   0.00000,   0.00000,   0.00000,-186319083.74412,   0.00000
-255780314.08665,-39019749.33905,-93986531.74683,  -0.00109,   0.00032,  -0.00122,288904881.61438,   0.00000,274640135.82653,   0.00000,   0.00000,   0.00000,-185735254.21215,   0.00000
-255951822.35626,-39074761.42553,-94452516.47936,  -0.00109,   0.00032,  -0.00123,289483591.17712,   0.00000,274640135.82653,   0.00000,   0.00000,   0.00000,-185156544.64941,   0.00000
-256133038.64114,-39152425.54761,-94918501.21188,  -0.00109,   0.00032,  -0.00123,290064444.22068,   0.00000,274640135.82653,   0.00000,   0.00000,   0.00000,-184575691.60585,   0.00000
-256291602.89040,-39220381.65444,-95384485.94441,  -0.00109,   0.00032,  -0.00124,290630986.03848,   0.00000,274640135.82653,   0.00000,   0.00000,   0.00000,-184009149.78805,   0.00000
-256437223.11931,-39301281.78161,-95850470.67694,  -0.00109,   0.00032,  -0.00125,291184248.84030,   0.00000,274640135.82653,   0.00000,   0.00000,   0.00000,-183455886.98623,   0.00000
-256582843.34823,-39382181.90879,-96316455.40947,  -0.00109,   0.00032,  -0.00125,291738750.06429,   0.00000,274640135.82653,   0.00000,   0.00000,   0.00000,-182901385.76223,   0.00000
-256728463.57714,-39463082.03597,-96775968.13182,  -0.00109,   0.00032,  -0.00126,292288053.91069,   0.00000,274640135.82653,   0.00000,   0.00000,   0.00000,-182352081.91584,   0.00000
-256874083.80606,-39543982.16314,-97235480.85418,  -0.00109,   0.00032,  -0.00126,292838545.07074,   0.00000,274640135.82653,   0.00000,   0.00000,   0.00000,-181801590.75579,   0.00000
-256984107.97902,-39628118.29540,-97694993.57653,  -0.00109,   0.00032,  -0.00127,293360457.78552,   0.00000,274640135.82653,   0.00000,   0.00000,   0.00000,-181279678.04101,   0.00000
-257126492.20285,-39744614.47853,-98148034.28871,  -0.00109,   0.00032,  -0.00128,293893490.86358,   0.00000,274640135.82653,   0.00000,   0.00000,   0.00000,-180746644.96295,   0.00000
-257236516.37580,-39828750.61080,-98601075.00089,  -0.00109,   0.00032,  -0.00128,294411381.65439,   0.00000,274640135.82653,   0.00000,   0.00000,   0.00000,-180228754.17214,   0.00000
-257356248.56402,-39935538.77867,-99054115.71307,  -0.00109,   0.00032,  -0.00129,294931481.88541,   0.00000,274640135.82653,   0.00000,   0.00000,   0.00000,-179708653.94112,   0.00000
-257453328.71663,-40032618.93128,-99507156.42525,  -0.00109,   0.00032,  -0.00129,295437503.68595,   0.00000,274640135.82653,   0.00000,   0.00000,   0.00000,-179202632.14058,   0.00000
-257560116.88450,-40152351.11950,-99953725.12726,  -0.00109,   0.00032,  -0.00130,295939220.72429,   0.00000,274640135.82653,   0.00000,   0.00000,   0.00000,-178700915.10223,   0.00000
-257657197.03711,-40249431.27211,-100400293.82926,  -0.00109,   0.00032,  -0.00131,296441139.62446,   0.00000,274640135.82653,   0.00000,   0.00000,   0.00000,-178198996.20207,   0.00000
-257751041.18464,-40382107.48067,-100846862.53127,  -0.00109,   0.00032,  -0.00131,296931057.04047,   0.00000,274640135.82653,   0.00000,   0.00000,   0.00000,-177709078.78606,   0.00000
-257835177.31690,-40492131.65363,-101286959.22310,  -0.00109,   0.00032,  -0.00132,297414592.39423,   0.00000,274640135.82653,   0.00000,   0.00000,   0.00000,-177225543.43230,   0.00000
-257906369.42881,-40615099.84694,-101727055.91493,  -0.00109,   0.00032,  -0.00132,297885163.27165,   0.00000,274640135.82653,   0.00000,   0.00000,   0.00000,-176754972.55488,   0.00000
-257977561.54073,-40738068.04024,-102167152.60676,  -0.00109,   0.00032,  -0.00133,298356977.80774,   0.00000,274640135.82653,   0.00000,   0.00000,   0.00000,-176283158.01879,   0.00000
-258058461.66790,-40883688.26916,-102607249.29860,  -0.00109,   0.00032,  -0.00133,298831067.20808,   0.00000,274640135.82653,   0.00000,   0.00000,   0.00000,-175809068.61845,   0.00000
-258107001.74421,-40996948.44720,-103040873.98025,  -0.00109,   0.00032,  -0.00134,299283544.18317,   0.00000,274640135.82653,   0.00000,   0.00000,   0.00000,-175356591.64336,   0.00000
-258152305.81542,-41145804.68120,-103474498.66191,  -0.00109,   0.00032,  -0.00135,299724242.44229,   0.00000,274640135.82653,   0.00000,   0.00000,   0.00000,-174915893.38424,   0.00000
-258210553.90699,-41281716.89486,-103901651.33340,  -0.00109,   0.00032,  -0.00135,300173541.07667,   0.00000,274640135.82653,   0.00000,   0.00000,   0.00000,-174466594.74986,   0.00000
-258255857.97821,-41430573.12886,-104335276.01505,  -0.00109,   0.00032,  -0.00136,300616769.03216,   0.00000,274640135.82653,   0.00000,   0.00000,   0.00000,-174023366.79437,   0.00000
-258278510.01382,-41569721.34760,-104755956.67636,  -0.00109,   0.00031,  -0.00136,301032716.08592,   0.00000,274640135.82653,   0.00000,   0.00000,   0.00000,-173607419.74061,   0.00000
-258310870.06469,-41731521.60195,-105183109.34785,  -0.00109,   0.00031,  -0.00137,301457757.09195,   0.00000,274640135.82653,   0.00000,   0.00000,   0.00000,-173182378.73458,   0.00000
-258333522.10030,-41870669.82069,-105603790.00916,  -0.00109,   0.00031,  -0.00137,301876208.76345,   0.00000,274640135.82653,   0.00000,   0.00000,   0.00000,-172763927.06308,   0.00000
-258352938.13082,-42045414.09539,-106024470.67047,  -0.00109,   0.00031,  -0.00138,302283089.77458,   0.00000,274640135.82653,   0.00000,   0.00000,   0.00000,-172357046.05195,   0.00000
-258362646.14608,-42197506.33448,-106445151.33178,  -0.00109,   0.00031,  -0.00138,302690167.98245,   0.00000,274640135.82653,   0.00000,   0.00000,   0.00000,-171949967.84408,   0.00000
-258359410.14099,-42362542.59392,-106865831.99309,  -0.00109,   0.00031,  -0.00139,303084685.27709,   0.00000,274640135.82653,   0.00000,   0.00000,   0.00000,-171555450.54944,   0.00000
-258356174.13591,-42527578.85335,-107280040.64422,  -0.00109,   0.00031,  -0.00139,303473666.84992,   0.00000,274640135.82653,   0.00000,   0.00000,   0.00000,-171166468.97661,   0.00000
-258352938.13082,-42692615.11279,-107687777.28519,  -0.00109,   0.00031,  -0.00140,303857054.55854,   0.00000,274640135.82653,   0.00000,   0.00000,   0.00000,-170783081.26799,   0.00000
-258336758.10538,-42870595.39258,-108101985.93632,  -0.00109,   0.00031,  -0.00141,304234836.92056,   0.00000,274640135.82653,   0.00000,   0.00000,   0.00000,-170405298.90597,   0.00000
-258320578.07995,-43048575.67236,-108509722.57728,  -0.00109,   0.00031,  -0.00141,304607038.09199,   0.00000,274640135.82653,   0.00000,   0.00000,   0.00000,-170033097.73454,   0.00000
-258291454.03417,-43239499.97249,-108910987.20807,  -0.00109,   0.00031,  -0.00142,304959908.29822,   0.00000,274640135.82653,   0.00000,   0.00000,   0.00000,-169680227.52831,   0.00000
-258262329.98838,-43430424.27263,-109318723.84903,  -0.00109,   0.00031,  -0.00142,305321044.85351,   0.00000,274640135.82653,   0.00000,   0.00000,   0.00000,-169319090.97302,   0.00000
-258233205.94260,-43621348.57276,-109719988.47982,  -0.00109,   0.00031,  -0.00143,305676557.21244,   0.00000,274640135.82653,   0.00000,   0.00000,   0.00000,-168963578.61409,   0.00000
-258181429.86121,-43802564.85763,-110114781.10044,  -0.00109,   0.00030,  -0.00143,306011603.76225,   0.00000,274640135.82653,   0.00000,   0.00000,   0.00000,-168628532.06428,   0.00000
-258139361.79508,-44006433.17811,-110516045.73122,  -0.00109,   0.00030,  -0.00144,306356153.49745,   0.00000,274640135.82653,   0.00000,   0.00000,   0.00000,-168283982.32908,   0.00000
-258074641.69334,-44200593.48333,-110910838.35184,  -0.00109,   0.00030,  -0.00144,306680294.46853,   0.00000,274640135.82653,   0.00000,   0.00000,   0.00000,-167959841.35800,   0.00000
-258009921.59160,-44394753.78855,-111299158.96228,  -0.00109,   0.00030,  -0.00145,306998754.42209,   0.00000,274640135.82653,   0.00000,   0.00000,   0.00000,-167641381.40444,   0.00000
-257954909.50512,-44611566.12938,-111693951.58289,  -0.00109,   0.00030,  -0.00145,307326814.85208,   0.00000,274640135.82653,   0.00000,   0.00000,   0.00000,-167313320.97444,   0.00000
-257877245.38303,-44818670.45495,-112082272.19333,  -0.00109,   0.00030,  -0.00146,307634489.04357,   0.00000,274640135.82653,   0.00000,   0.00000,   0.00000,-167005646.78296,   0.00000
-257799581.26094,-45025774.78052,-112464120.79360,  -0.00109,   0.00030,  -0.00146,307936444.75146,   0.00000,274640135.82653,   0.00000,   0.00000,   0.00000,-166703691.07507,   0.00000
-257708973.11851,-45245823.12643,-112852441.40404,  -0.00108,   0.00030,  -0.00147,308233459.10677,   0.00000,274640135.82653,   0.00000,   0.00000,   0.00000,-166406676.71976,   0.00000
-257618364.97607,-45465871.47235,-113227817.99413,  -0.00108,   0.00030,  -0.00147,308517649.85799,   0.00000,274640135.82653,   0.00000,   0.00000,   0.00000,-166122485.96853,   0.00000
-257505104.79802,-45676211.80300,-113609666.59440,  -0.00108,   0.00029,  -0.00148,308795736.11965,   0.00000,274640135.82653,   0.00000,   0.00000,   0.00000,-165844399.70688,   0.00000
-257401552.63524,-45909204.16927,-113985043.18449,  -0.00108,   0.00029,  -0.00148,309069383.96156,   0.00000,274640135.82653,   0.00000,   0.00000,   0.00000,-165570751.86497,   0.00000
-257298000.47246,-46142196.53553,-114360419.77458,  -0.00108,   0.00029,  -0.00149,309344444.39056,   0.00000,274640135.82653,   0.00000,   0.00000,   0.00000,-165295691.43597,   0.00000
-257171796.27406,-46365480.88654,-114729324.35450,  -0.00108,   0.00029,  -0.00149,309599176.69866,   0.00000,274640135.82653,   0.00000,   0.00000,   0.00000,-165040959.12787,   0.00000
-257045592.07567,-46588765.23754,-115098228.93442,  -0.00108,   0.00029,  -0.00150,309855320.46239,   0.00000,274640135.82653,   0.00000,   0.00000,   0.00000,-164784815.36414,   0.00000
-256906443.85693,-46824993.60889,-115467133.51433,  -0.00108,   0.00029,  -0.00150,310099717.98770,   0.00000,274640135.82653,   0.00000,   0.00000,   0.00000,-164540417.83882,   0.00000
-256767295.63819,-47061221.98024,-115829566.08408,  -0.00108,   0.00029,  -0.00151,310338339.82285,   0.00000,274640135.82653,   0.00000,   0.00000,   0.00000,-164301796.00368,   0.00000
-256637855.43471,-47320102.38720,-116191998.65382,  -0.00108,   0.00029,  -0.00151,310579769.12537,   0.00000,274640135.82653,   0.00000,   0.00000,   0.00000,-164060366.70116,   0.00000
-256476055.18036,-47546622.74329,-116554431.22357,  -0.00107,   0.00028,  -0.00152,310806827.93396,   0.00000,274640135.82653,   0.00000,   0.00000,   0.00000,-163833307.89257,   0.00000
-256323962.94127,-47795795.13499,-116910391.78314,  -0.00107,   0.00028,  -0.00152,311029457.62457,   0.00000,274640135.82653,   0.00000,   0.00000,   0.00000,-163610678.20196,   0.00000
-256158926.68183,-48057911.54704,-117266352.34271,  -0.00107,   0.00028,  -0.00152,311240562.45272,   0.00000,274640135.82653,   0.00000,   0.00000,   0.00000,-163399573.37381,   0.00000
-255984182.40713,-48297375.92347,-117622312.90228,  -0.00107,   0.00028,  -0.00153,311451760.87639,   0.00000,274640135.82653,   0.00000,   0.00000,   0.00000,-163188374.95014,   0.00000
-255819146.14770,-48559492.33552,-117971801.45167,  -0.00107,   0.00028,  -0.00153,311658546.77554,   0.00000,274640135.82653,   0.00000,   0.00000,   0.00000,-162981589.05099,   0.00000
-255631457.85265,-48811900.73231,-118314817.99089,  -0.00107,   0.00028,  -0.00154,311845113.83196,   0.00000,274640135.82653,   0.00000,   0.00000,   0.00000,-162795021.99457,   0.00000
-255453477.57287,-49086961.16470,-118664306.54029,  -0.00107,   0.00027,  -0.00154,312042027.56602,   0.00000,274640135.82653,   0.00000,   0.00000,   0.00000,-162598108.26051,   0.00000
-255252845.25747,-49352313.58184,-119007323.07951,  -0.00107,   0.00027,  -0.00155,312218795.47165,   0.00000,274640135.82653,   0.00000,   0.00000,   0.00000,-162421340.35488,   0.00000
-255052212.94208,-49617665.99897,-119343867.60856,  -0.00106,   0.00027,  -0.00155,312389700.21287,   0.00000,274640135.82653,   0.00000,   0.00000,   0.00000,-162250435.61366,   0.00000
-254851580.62668,-49883018.41610,-119680412.13761,  -0.00106,   0.00027,  -0.00156,312562122.99754,   0.00000,274640135.82653,   0.00000,   0.00000,   0.00000,-162078012.82899,   0.00000
-254638004.29094,-50161314.85359,-120016956.66666,  -0.00106,   0.00027,  -0.00156,312723365.44103,   0.00000,274640135.82653,   0.00000,   0.00000,   0.00000,-161916770.38550,   0.00000
-254424427.95520,-50439611.29107,-120353501.19570,  -0.00106,   0.00027,  -0.00156,312886194.05257,   0.00000,274640135.82653,   0.00000,   0.00000,   0.00000,-161753941.77395,   0.00000
-254188199.58385,-50708199.71329,-120683573.71458,  -0.00106,   0.00026,  -0.00157,313028930.34055,   0.00000,274640135.82653,   0.00000,   0.00000,   0.00000,-161611205.48598,   0.00000
-253961679.22776,-50999440.17112,-121007174.22328,  -0.00106,   0.00026,  -0.00157,313167339.59487,   0.00000,274640135.82653,   0.00000,   0.00000,   0.00000,-161472796.23166,   0.00000
-253702798.82080,-51258320.57808,-121337246.74215,  -0.00105,   0.00026,  -0.00158,313299103.90133,   0.00000,274640135.82653,   0.00000,   0.00000,   0.00000,-161341031.92520,   0.00000
-253463334.44436,-51562505.05626,-121660847.25085,  -0.00105,   0.00026,  -0.00158,313428196.93329,   0.00000,274640135.82653,   0.00000,   0.00000,   0.00000,-161211938.89324,   0.00000
-253214162.05266,-51844037.49883,-121977975.74938,  -0.00105,   0.00026,  -0.00159,313549758.85698,   0.00000,274640135.82653,   0.00000,   0.00000,   0.00000,-161090376.96955,   0.00000
-252942337.62535,-52115861.92613,-122295104.24790,  -0.00105,   0.00026,  -0.00159,313658825.56329,   0.00000,274640135.82653,   0.00000,   0.00000,   0.00000,-160981310.26324,   0.00000
-252680221.21331,-52410338.38905,-122612232.74643,  -0.00105,   0.00025,  -0.00159,313771191.66942,   0.00000,274640135.82653,   0.00000,   0.00000,   0.00000,-160868944.15711,   0.00000
-252427812.81652,-52727466.88758,-122922889.23478,  -0.00105,   0.00025,  -0.00160,313879303.87237,   0.00000,274640135.82653,   0.00000,   0.00000,   0.00000,-160760831.95416,   0.00000
-252143044.36887,-53012235.33523,-123233545.72313,  -0.00104,   0.00025,  -0.00160,313973352.19267,   0.00000,274640135.82653,   0.00000,   0.00000,   0.00000,-160666783.63386,   0.00000
-251845331.90086,-53309947.80324,-123544202.21149,  -0.00104,   0.00025,  -0.00161,314056794.12669,   0.00000,274640135.82653,   0.00000,   0.00000,   0.00000,-160583341.69984,   0.00000
-251570271.46847,-53617368.28650,-123848386.68966,  -0.00104,   0.00025,  -0.00161,314148303.24279,   0.00000,274640135.82653,   0.00000,   0.00000,   0.00000,-160491832.58374,   0.00000
-251249906.96485,-53905372.73925,-124152571.16784,  -0.00104,   0.00024,  -0.00161,314213570.45348,   0.00000,274640135.82653,   0.00000,   0.00000,   0.00000,-160426565.37305,   0.00000
-250952194.49685,-54203085.20725,-124450283.63585,  -0.00104,   0.00024,  -0.00162,314286834.72051,   0.00000,274640135.82653,   0.00000,   0.00000,   0.00000,-160353301.10602,   0.00000
-250641538.00850,-54513741.69560,-124747996.10385,  -0.00103,   0.00024,  -0.00162,314349659.04787,   0.00000,274640135.82653,   0.00000,   0.00000,   0.00000,-160290476.77865,   0.00000
-250330881.52015,-54824398.18395,-125045708.57185,  -0.00103,   0.00024,  -0.00163,314414237.35161,   0.00000,274640135.82653,   0.00000,   0.00000,   0.00000,-160225898.47492,   0.00000
-250007281.01145,-55147998.69265,-125336949.02968,  -0.00103,   0.00024,  -0.00163,314460798.01523,   0.00000,274640135.82653,   0.00000,   0.00000,   0.00000,-160179337.81130,   0.00000
-249673972.48748,-55448947.16574,-125628189.48751,  -0.00103,   0.00023,  -0.00163,314507305.72132,   0.00000,274640135.82653,   0.00000,   0.00000,   0.00000,-160132830.10521,   0.00000
-249327719.94318,-55762839.65918,-125912957.93517,  -0.00103,   0.00023,  -0.00164,314535854.04066,   0.00000,274640135.82653,   0.00000,   0.00000,   0.00000,-160104281.78587,   0.00000
-248981467.39887,-56076732.15262,-126197726.38283,  -0.00102,   0.00023,  -0.00164,314566213.01612,   0.00000,274640135.82653,   0.00000,   0.00000,   0.00000,-160073922.81041,   0.00000
-248635214.85456,-56390624.64606,-126482494.83048,  -0.00102,   0.00023,  -0.00164,314598382.12349,   0.00000,274640135.82653,   0.00000,   0.00000,   0.00000,-160041753.70304,   0.00000
-248276018.28990,-56717461.15985,-126760791.26796,  -0.00102,   0.00023,  -0.00165,314612715.64046,   0.00000,274640135.82653,   0.00000,   0.00000,   0.00000,-160027420.18606,   0.00000
-247907113.70998,-57021645.63803,-127039087.70545,  -0.00102,   0.00022,  -0.00165,314626958.35745,   0.00000,274640135.82653,   0.00000,   0.00000,   0.00000,-160013177.46908,   0.00000
-247525265.10972,-57338774.13655,-127310912.13275,  -0.00101,   0.00022,  -0.00166,314623428.34271,   0.00000,274640135.82653,   0.00000,   0.00000,   0.00000,-160016707.48382,   0.00000
-247153124.52471,-57678554.67069,-127582736.56006,  -0.00101,   0.00022,  -0.00166,314623762.02499,   0.00000,274640135.82653,   0.00000,   0.00000,   0.00000,-160016373.80154,   0.00000
-246771275.92445,-57995683.16921,-127854560.98737,  -0.00101,   0.00022,  -0.00166,314623996.93870,   0.00000,274640135.82653,   0.00000,   0.00000,   0.00000,-160016138.88783,   0.00000
-246376483.30383,-58325755.68809,-128119913.40450,  -0.00101,   0.00022,  -0.00167,314606591.41476,   0.00000,274640135.82653,   0.00000,   0.00000,   0.00000,-160033544.41177,   0.00000
-245981690.68322,-58655828.20696,-128385265.82164,  -0.00100,   0.00021,  -0.00167,314591112.37211,   0.00000,274640135.82653,   0.00000,   0.00000,   0.00000,-160049023.45442,   0.00000
-245586898.06260,-58985900.72584,-128644146.22860,  -0.00100,   0.00021,  -0.00167,314569619.75438,   0.00000,274640135.82653,   0.00000,   0.00000,   0.00000,-160070516.07215,   0.00000
-245169453.40638,-59306265.22945,-128903026.63556,  -0.00100,   0.00021,  -0.00168,314536452.85816,   0.00000,274640135.82653,   0.00000,   0.00000,   0.00000,-160103682.96837,   0.00000
-244739064.72981,-59639573.75341,-129161907.04252,  -0.00100,   0.00021,  -0.00168,314493799.22917,   0.00000,274640135.82653,   0.00000,   0.00000,   0.00000,-160146336.59736,   0.00000
-244331328.08885,-59982590.29263,-129414315.43930,  -0.00099,   0.00020,  -0.00168,314458706.66486,   0.00000,274640135.82653,   0.00000,   0.00000,   0.00000,-160181429.16167,   0.00000
-243900939.41228,-60315898.81659,-129666723.83609,  -0.00099,   0.00020,  -0.00169,314412069.30482,   0.00000,274640135.82653,   0.00000,   0.00000,   0.00000,-160228066.52171,   0.00000
-243447898.70010,-60639499.32529,-129912660.22270,  -0.00099,   0.00020,  -0.00169,314345935.91991,   0.00000,274640135.82653,   0.00000,   0.00000,   0.00000,-160294199.90662,   0.00000
-243004566.00318,-60985751.86960,-130158596.60931,  -0.00099,   0.00020,  -0.00169,314284020.71687,   0.00000,274640135.82653,   0.00000,   0.00000,   0.00000,-160356115.10966,   0.00000
-242551525.29100,-61309352.37830,-130404532.99593,  -0.00098,   0.00019,  -0.00170,314221942.03100,   0.00000,274640135.82653,   0.00000,   0.00000,   0.00000,-160418193.79553,   0.00000
-242085540.55847,-61645896.90735,-130643997.37236,  -0.00098,   0.00019,  -0.00170,314142654.57792,   0.00000,274640135.82653,   0.00000,   0.00000,   0.00000,-160497481.24861,   0.00000
-241619555.82594,-61982441.43640,-130883461.74880,  -0.00098,   0.00019,  -0.00170,314065446.22598,   0.00000,274640135.82653,   0.00000,   0.00000,   0.00000,-160574689.60055,   0.00000
-241163279.10867,-62341638.00105,-131116454.11507,  -0.00098,   0.00019,  -0.00170,313984500.88004,   0.00000,274640135.82653,   0.00000,   0.00000,   0.00000,-160655634.94649,   0.00000
-240674642.34054,-62668474.51484,-131349446.48133,  -0.00097,   0.00018,  -0.00171,313890012.18059,   0.00000,274640135.82653,   0.00000,   0.00000,   0.00000,-160750123.64594,   0.00000
-240195713.58766,-63017963.06424,-131582438.84759,  -0.00097,   0.00018,  -0.00171,313799959.41179,   0.00000,274640135.82653,   0.00000,   0.00000,   0.00000,-160840176.41474,   0.00000
-239716784.83479,-63367451.61363,-131808959.20368,  -0.00097,   0.00018,  -0.00171,313703895.84864,   0.00000,274640135.82653,   0.00000,   0.00000,   0.00000,-160936239.97789,   0.00000
-239215204.04630,-63707232.14777,-132035479.55977,  -0.00096,   0.00018,  -0.00172,313596700.11837,   0.00000,274640135.82653,   0.00000,   0.00000,   0.00000,-161043435.70816,   0.00000
-238690971.22221,-64037304.66664,-132255527.90569,  -0.00096,   0.00017,  -0.00172,313470259.62836,   0.00000,274640135.82653,   0.00000,   0.00000,   0.00000,-161169876.19817,   0.00000
-238199098.44898,-64399737.23639,-132475576.25161,  -0.00096,   0.00017,  -0.00172,313361631.69340,   0.00000,274640135.82653,   0.00000,   0.00000,   0.00000,-161278504.13313,   0.00000
-237661921.60454,-64742753.77561,-132695624.59752,  -0.00096,   0.00017,  -0.00173,313228849.62422,   0.00000,274640135.82653,   0.00000,   0.00000,   0.00000,-161411286.20231,   0.00000
-237147396.79571,-65095478.33009,-132909200.93326,  -0.00095,   0.00017,  -0.00173,313103262.44708,   0.00000,274640135.82653,   0.00000,   0.00000,   0.00000,-161536873.37944,   0.00000
-236610219.95127,-65438494.86931,-133122777.26901,  -0.00095,   0.00016,  -0.00173,312966767.58928,   0.00000,274640135.82653,   0.00000,   0.00000,   0.00000,-161673368.23725,   0.00000
-236073043.10682,-65781511.40854,-133329881.59457,  -0.00095,   0.00016,  -0.00173,312824262.68529,   0.00000,274640135.82653,   0.00000,   0.00000,   0.00000,-161815873.14124,   0.00000
-235513214.22677,-66114819.93250,-133536985.92014,  -0.00094,   0.00016,  -0.00174,312670928.55863,   0.00000,274640135.82653,   0.00000,   0.00000,   0.00000,-161969207.26790,   0.00000
-234963093.36198,-66470780.49207,-133744090.24571,  -0.00094,   0.00016,  -0.00174,312522454.75455,   0.00000,274640135.82653,   0.00000,   0.00000,   0.00000,-162117681.07197,   0.00000
-234412972.49719,-66826741.05164,-133944722.56110,  -0.00094,   0.00015,  -0.00174,312367997.86190,   0.00000,274640135.82653,   0.00000,   0.00000,   0.00000,-162272137.96463,   0.00000
-233840199.59679,-67172993.59595,-134145354.87650,  -0.00093,   0.00015,  -0.00174,312202870.72822,   0.00000,274640135.82653,   0.00000,   0.00000,   0.00000,-162437265.09831,   0.00000
-233267426.69639,-67519246.14025,-134339515.18172,  -0.00093,   0.00015,  -0.00175,312031755.07481,   0.00000,274640135.82653,   0.00000,   0.00000,   0.00000,-162608380.75172,   0.00000
-232694653.79600,-67865498.68456,-134533675.48694,  -0.00093,   0.00014,  -0.00175,311862980.51535,   0.00000,274640135.82653,   0.00000,   0.00000,   0.00000,-162777155.31118,   0.00000
-232099228.85999,-68202043.21361,-134727835.79216,  -0.00092,   0.00014,  -0.00175,311683651.01666,   0.00000,274640135.82653,   0.00000,   0.00000,   0.00000,-162956484.80987,   0.00000
-231513511.93924,-68561239.77827,-134915524.08720,  -0.00092,   0.00014,  -0.00175,311501031.01848,   0.00000,274640135.82653,   0.00000,   0.00000,   0.00000,-163139104.80805,   0.00000
-230905142.98288,-68910728.32766,-135103212.38225,  -0.00092,   0.00014,  -0.00176,311307992.09955,   0.00000,274640135.82653,   0.00000,   0.00000,   0.00000,-163332143.72698,   0.00000
-230319426.06214,-69269924.89232,-135290900.67730,  -0.00091,   0.00013,  -0.00176,311130253.41460,   0.00000,274640135.82653,   0.00000,   0.00000,   0.00000,-163509882.41193,   0.00000
-229688405.07017,-69609705.42646,-135472116.96217,  -0.00091,   0.00013,  -0.00176,310920915.53812,   0.00000,274640135.82653,   0.00000,   0.00000,   0.00000,-163719220.28841,   0.00000
-229080036.11382,-69959193.97585,-135646861.23687,  -0.00091,   0.00013,  -0.00176,310718377.27340,   0.00000,274640135.82653,   0.00000,   0.00000,   0.00000,-163921758.55313,   0.00000
-228449015.12185,-70298974.50999,-135828077.52174,  -0.00090,   0.00013,  -0.00177,310514036.34324,   0.00000,274640135.82653,   0.00000,   0.00000,   0.00000,-164126099.48329,   0.00000
-227805050.10954,-70651699.06447,-136002821.79644,  -0.00090,   0.00012,  -0.00177,310293880.37823,   0.00000,274640135.82653,   0.00000,   0.00000,   0.00000,-164346255.44830,   0.00000
-227174029.11757,-70991479.59861,-136171094.06096,  -0.00090,   0.00012,  -0.00177,310077586.74395,   0.00000,274640135.82653,   0.00000,   0.00000,   0.00000,-164562549.08257,   0.00000
-226530064.10526,-71344204.15309,-136339366.32548,  -0.00089,   0.00012,  -0.00177,309854040.96048,   0.00000,274640135.82653,   0.00000,   0.00000,   0.00000,-164786094.86605,   0.00000
-225863447.05734,-71687220.69231,-136507638.59001,  -0.00089,   0.00011,  -0.00177,309620473.69634,   0.00000,274640135.82653,   0.00000,   0.00000,   0.00000,-165019662.13019,   0.00000
-225196830.00942,-72030237.23153,-136669438.84436,  -0.00088,   0.00011,  -0.00178,309380983.21430,   0.00000,274640135.82653,   0.00000,   0.00000,   0.00000,-165259152.61223,   0.00000
-224530212.96149,-72373253.77075,-136831239.09871,  -0.00088,   0.00011,  -0.00178,309144118.96703,   0.00000,274640135.82653,   0.00000,   0.00000,   0.00000,-165496016.85950,   0.00000
-223873303.92883,-72738922.34559,-136993039.35306,  -0.00088,   0.00011,  -0.00178,308912904.65088,   0.00000,274640135.82653,   0.00000,   0.00000,   0.00000,-165727231.17565,   0.00000
-223184034.84530,-73072230.86955,-137148367.59723,  -0.00087,   0.00010,  -0.00178,308660222.92681,   0.00000,274640135.82653,   0.00000,   0.00000,   0.00000,-165979912.89972,   0.00000
-222504473.77703,-73428191.42912,-137303695.84141,  -0.00087,   0.00010,  -0.00178,308413283.96835,   0.00000,274640135.82653,   0.00000,   0.00000,   0.00000,-166226851.85818,   0.00000
-221792552.65789,-73751791.93782,-137459024.08559,  -0.00087,   0.00010,  -0.00179,308153557.40158,   0.00000,274640135.82653,   0.00000,   0.00000,   0.00000,-166486578.42495,   0.00000
-221112991.58962,-74107752.49739,-137607880.31959,  -0.00086,   0.00009,  -0.00179,307903415.62476,   0.00000,274640135.82653,   0.00000,   0.00000,   0.00000,-166736720.20177,   0.00000
-220388126.45013,-74444297.02643,-137750264.54342,  -0.00086,   0.00009,  -0.00179,307622571.73158,   0.00000,274640135.82653,   0.00000,   0.00000,   0.00000,-167017564.09495,   0.00000
-219685913.34626,-74790549.57074,-137899120.77742,  -0.00085,   0.00009,  -0.00179,307365579.02490,   0.00000,274640135.82653,   0.00000,   0.00000,   0.00000,-167274556.80163,   0.00000
-218961048.20677,-75127094.09979,-138041505.00125,  -0.00085,   0.00009,  -0.00179,307090353.04922,   0.00000,274640135.82653,   0.00000,   0.00000,   0.00000,-167549782.77731,   0.00000
-218236183.06728,-75463638.62884,-138177417.21490,  -0.00085,   0.00008,  -0.00180,306809210.72337,   0.00000,274640135.82653,   0.00000,   0.00000,   0.00000,-167830925.10316,   0.00000
-217498373.90744,-75813127.17824,-138313329.42855,  -0.00084,   0.00008,  -0.00180,306521895.32830,   0.00000,274640135.82653,   0.00000,   0.00000,   0.00000,-168118240.49822,   0.00000
-216773508.76796,-76149671.70728,-138449241.64221,  -0.00084,   0.00008,  -0.00180,306246424.65030,   0.00000,274640135.82653,   0.00000,   0.00000,   0.00000,-168393711.17623,   0.00000
-216013047.57251,-76489452.24142,-138578681.84569,  -0.00083,   0.00007,  -0.00180,305943959.78055,   0.00000,274640135.82653,   0.00000,   0.00000,   0.00000,-168696176.04598,   0.00000
-215265530.39741,-76816288.75521,-138714594.05934,  -0.00083,   0.00007,  -0.00180,305662080.52112,   0.00000,274640135.82653,   0.00000,   0.00000,   0.00000,-168978055.30541,   0.00000
-214505069.20197,-77156069.28934,-138837562.25265,  -0.00083,   0.00007,  -0.00180,305356712.44634,   0.00000,274640135.82653,   0.00000,   0.00000,   0.00000,-169283423.38019,   0.00000
-213744608.00652,-77495849.82348,-138967002.45613,  -0.00082,   0.00006,  -0.00181,305063153.23880,   0.00000,274640135.82653,   0.00000,   0.00000,   0.00000,-169576982.58773,   0.00000
-212961494.77547,-77825922.34235,-139083498.63926,  -0.00082,   0.00006,  -0.00181,304742853.02915,   0.00000,274640135.82653,   0.00000,   0.00000,   0.00000,-169897282.79738,   0.00000
-212178381.54442,-78155994.86122,-139206466.83257,  -0.00081,   0.00006,  -0.00181,304434449.19050,   0.00000,274640135.82653,   0.00000,   0.00000,   0.00000,-170205686.63602,   0.00000
-211395268.31336,-78486067.38010,-139322963.01570,  -0.00081,   0.00006,  -0.00181,304120211.48851,   0.00000,274640135.82653,   0.00000,   0.00000,   0.00000,-170519924.33802,   0.00000
-210612155.08231,-78816139.89897,-139439459.19883,  -0.00080,   0.00005,  -0.00181,303809010.79886,   0.00000,274640135.82653,   0.00000,   0.00000,   0.00000,-170831125.02767,   0.00000
-209806389.81564,-79136504.40258,-139555955.38196,  -0.00080,   0.00005,  -0.00181,303488973.92313,   0.00000,274640135.82653,   0.00000,   0.00000,   0.00000,-171151161.90340,   0.00000
-209000624.54898,-79456868.90620,-139665979.55492,  -0.00080,   0.00005,  -0.00182,303163120.09749,   0.00000,274640135.82653,   0.00000,   0.00000,   0.00000,-171477015.72904,   0.00000
-208204567.29758,-79799885.44542,-139776003.72788,  -0.00079,   0.00004,  -0.00182,302843947.59599,   0.00000,274640135.82653,   0.00000,   0.00000,   0.00000,-171796188.23054,   0.00000
-207376149.99531,-80110541.93377,-139879555.89066,  -0.00079,   0.00004,  -0.00182,302503588.77878,   0.00000,274640135.82653,   0.00000,   0.00000,   0.00000,-172136547.04775,   0.00000
-206557440.70830,-80443850.45773,-139983108.05345,  -0.00078,   0.00004,  -0.00182,302170026.86909,   0.00000,274640135.82653,   0.00000,   0.00000,   0.00000,-172470108.95744,   0.00000
-205729023.40602,-80754506.94609,-140086660.21623,  -0.00078,   0.00003,  -0.00182,301836036.16146,   0.00000,274640135.82653,   0.00000,   0.00000,   0.00000,-172804099.66507,   0.00000
-204887662.08340,-81078107.45479,-140183740.36884,  -0.00077,   0.00003,  -0.00182,301488230.10408,   0.00000,274640135.82653,   0.00000,   0.00000,   0.00000,-173151905.72245,   0.00000
-204046300.76078,-81401707.96349,-140280820.52145,  -0.00077,   0.00003,  -0.00182,301143718.75649,   0.00000,274640135.82653,   0.00000,   0.00000,   0.00000,-173496417.07004,   0.00000
-203195231.42290,-81702656.43658,-140377900.67406,  -0.00077,   0.00002,  -0.00182,300798771.52720,   0.00000,274640135.82653,   0.00000,   0.00000,   0.00000,-173841364.29933,   0.00000
-202331218.06467,-82016548.93002,-140468508.81650,  -0.00076,   0.00002,  -0.00183,300440233.26253,   0.00000,274640135.82653,   0.00000,   0.00000,   0.00000,-174199902.56400,   0.00000
-201467204.70645,-82330441.42345,-140559116.95893,  -0.00076,   0.00002,  -0.00183,300085068.50925,   0.00000,274640135.82653,   0.00000,   0.00000,   0.00000,-174555067.31728,   0.00000
-200603191.34822,-82644333.91689,-140643253.09119,  -0.00075,   0.00002,  -0.00183,299724178.36621,   0.00000,274640135.82653,   0.00000,   0.00000,   0.00000,-174915957.46032,   0.00000
-199739177.98999,-82958226.41033,-140733861.23363,  -0.00075,   0.00001,  -0.00183,299375780.07537,   0.00000,274640135.82653,   0.00000,   0.00000,   0.00000,-175264355.75116,   0.00000
-198852512.59615,-83262410.88851,-140811525.35572,  -0.00074,   0.00001,  -0.00183,299001117.45910,   0.00000,274640135.82653,   0.00000,   0.00000,   0.00000,-175639018.36743,   0.00000
-197965847.20231,-83566595.36669,-140895661.48798,  -0.00074,   0.00001,  -0.00183,298639051.27852,   0.00000,274640135.82653,   0.00000,   0.00000,   0.00000,-176001084.54801,   0.00000
-197079181.80847,-83870779.84487,-140973325.61007,  -0.00073,   0.00000,  -0.00183,298271290.17944,   0.00000,274640135.82653,   0.00000,   0.00000,   0.00000,-176368845.64709,   0.00000
-196169864.37903,-84165256.30778,-141050989.73216,  -0.00073,  -0.00000,  -0.00183,297895727.15596,   0.00000,274640135.82653,   0.00000,   0.00000,   0.00000,-176744408.67057,   0.00000
-195260546.94958,-84459732.77070,-141128653.85424,  -0.00072,  -0.00000,  -0.00183,297523721.49941,   0.00000,274640135.82653,   0.00000,   0.00000,   0.00000,-177116414.32712,   0.00000
-194351229.52013,-84754209.23362,-141199845.96616,  -0.00072,  -0.00001,  -0.00184,297146060.26304,   0.00000,274640135.82653,   0.00000,   0.00000,   0.00000,-177494075.56349,   0.00000
-193441912.09069,-85048685.69653,-141271038.07807,  -0.00071,  -0.00001,  -0.00184,296771950.34073,   0.00000,274640135.82653,   0.00000,   0.00000,   0.00000,-177868185.48580,   0.00000
-192509942.62563,-85333454.14419,-141335758.17981,  -0.00071,  -0.00001,  -0.00184,296381051.46136,   0.00000,274640135.82653,   0.00000,   0.00000,   0.00000,-178259084.36516,   0.00000
-191577973.16057,-85618222.59185,-141400478.28155,  -0.00070,  -0.00002,  -0.00184,295993783.82848,   0.00000,274640135.82653,   0.00000,   0.00000,   0.00000,-178646351.99805,   0.00000
-190655711.71078,-85925643.07511,-141465198.38329,  -0.00070,  -0.00002,  -0.00184,295614290.87917,   0.00000,274640135.82653,   0.00000,   0.00000,   0.00000,-179025844.94736,   0.00000
-189701090.21011,-86200703.50751,-141529918.48503,  -0.00070,  -0.00002,  -0.00184,295223391.61893,   0.00000,274640135.82653,   0.00000,   0.00000,   0.00000,-179416744.20760,   0.00000
-188769120.74506,-86485471.95516,-141588166.57660,  -0.00069,  -0.00003,  -0.00184,294837850.43908,   0.00000,274640135.82653,   0.00000,   0.00000,   0.00000,-179802285.38745,   0.00000
-187814499.24439,-86760532.38756,-141646414.66816,  -0.00069,  -0.00003,  -0.00184,294445089.15430,   0.00000,274640135.82653,   0.00000,   0.00000,   0.00000,-180195046.67223,   0.00000
-186846933.72338,-87048536.84030,-141698190.74956,  -0.00068,  -0.00003,  -0.00184,294040140.11567,   0.00000,274640135.82653,   0.00000,   0.00000,   0.00000,-180599995.71086,   0.00000
-185892312.22272,-87323597.27270,-141756438.84112,  -0.00068,  -0.00003,  -0.00184,293654969.02705,   0.00000,274640135.82653,   0.00000,   0.00000,   0.00000,-180985166.79948,   0.00000
-184915038.68644,-87588949.68983,-141801742.91234,  -0.00067,  -0.00004,  -0.00184,293244069.84406,   0.00000,274640135.82653,   0.00000,   0.00000,   0.00000,-181396065.98247,   0.00000
-183937765.15017,-87854302.10696,-141853518.99373,  -0.00067,  -0.00004,  -0.00184,292846407.54408,   0.00000,274640135.82653,   0.00000,   0.00000,   0.00000,-181793728.28245,   0.00000
-182970199.62915,-88142306.55971,-141898823.06495,  -0.00066,  -0.00004,  -0.00184,292447555.45678,   0.00000,274640135.82653,   0.00000,   0.00000,   0.00000,-182192580.36975,   0.00000
-181970274.05727,-88397950.96158,-141944127.13617,  -0.00066,  -0.00005,  -0.00185,292037642.60357,   0.00000,274640135.82653,   0.00000,   0.00000,   0.00000,-182602493.22296,   0.00000
-180970348.48539,-88653595.36345,-141989431.20739,  -0.00065,  -0.00005,  -0.00185,291631703.82895,   0.00000,274640135.82653,   0.00000,   0.00000,   0.00000,-183008431.99758,   0.00000
-179970422.91351,-88909239.76533,-142028263.26843,  -0.00065,  -0.00005,  -0.00185,291220286.48253,   0.00000,274640135.82653,   0.00000,   0.00000,   0.00000,-183419849.34399,   0.00000
-178970497.34162,-89164884.16720,-142067095.32947,  -0.00064,  -0.00006,  -0.00185,290812844.53839,   0.00000,274640135.82653,   0.00000,   0.00000,   0.00000,-183827291.28814,   0.00000
-177957627.74939,-89433472.58942,-142105927.39052,  -0.00064,  -0.00006,  -0.00185,290403475.30418,   0.00000,274640135.82653,   0.00000,   0.00000,   0.00000,-184236660.52235,   0.00000
-176957702.17751,-89689116.99129,-142138287.44139,  -0.00063,  -0.00006,  -0.00185,289994593.54240,   0.00000,274640135.82653,   0.00000,   0.00000,   0.00000,-184645542.28412,   0.00000
-175935124.57002,-89935053.37790,-142170647.49226,  -0.00063,  -0.00007,  -0.00185,289579395.13958,   0.00000,274640135.82653,   0.00000,   0.00000,   0.00000,-185060740.68695,   0.00000
-174889894.92692,-90171281.74926,-142203007.54313,  -0.00062,  -0.00007,  -0.00185,289158045.83693,   0.00000,274640135.82653,   0.00000,   0.00000,   0.00000,-185482089.98960,   0.00000
-173867317.31942,-90417218.13587,-142235367.59400,  -0.00061,  -0.00007,  -0.00185,288751134.36022,   0.00000,274640135.82653,   0.00000,   0.00000,   0.00000,-185889001.46631,   0.00000
-172822087.67632,-90653446.50722,-142261255.63469,  -0.00061,  -0.00008,  -0.00185,288328628.54092,   0.00000,274640135.82653,   0.00000,   0.00000,   0.00000,-186311507.28561,   0.00000
-171776858.03322,-90889674.87857,-142287143.67539,  -0.00060,  -0.00008,  -0.00185,287910355.74098,   0.00000,274640135.82653,   0.00000,   0.00000,   0.00000,-186729780.08555,   0.00000
-170731628.39012,-91125903.24992,-142306559.70591,  -0.00060,  -0.00008,  -0.00185,287486723.40036,   0.00000,274640135.82653,   0.00000,   0.00000,   0.00000,-187153412.42617,   0.00000
-169686398.74702,-91362131.62127,-142332447.74661,  -0.00059,  -0.00008,  -0.00185,287076956.51527,   0.00000,274640135.82653,   0.00000,   0.00000,   0.00000,-187563179.31125,   0.00000
-168618517.06831,-91588651.97736,-142351863.77713,  -0.00059,  -0.00009,  -0.00185,286651883.22267,   0.00000,274640135.82653,   0.00000,   0.00000,   0.00000,-187988252.60386,   0.00000
-167573287.42521,-91824880.34871,-142364807.79748,  -0.00058,  -0.00009,  -0.00185,286231433.87777,   0.00000,274640135.82653,   0.00000,   0.00000,   0.00000,-188408701.94876,   0.00000
-166505405.74650,-92051400.70480,-142384223.82800,  -0.00058,  -0.00009,  -0.00185,285815073.56321,   0.00000,274640135.82653,   0.00000,   0.00000,   0.00000,-188825062.26332,   0.00000
-165414872.03218,-92268213.04563,-142397167.84835,  -0.00057,  -0.00010,  -0.00185,285383651.61334,   0.00000,274640135.82653,   0.00000,   0.00000,   0.00000,-189256484.21318,   0.00000
-164346990.35347,-92494733.40172,-142410111.86870,  -0.00057,  -0.00010,  -0.00185,284966485.35318,   0.00000,274640135.82653,   0.00000,   0.00000,   0.00000,-189673650.47335,   0.00000
-163246748.62389,-92688893.70694,-142423055.88904,  -0.00056,  -0.00010,  -0.00185,284539192.32332,   0.00000,274640135.82653,   0.00000,   0.00000,   0.00000,-190100943.50321,   0.00000
-162178866.94518,-92915414.06303,-142429527.89922,  -0.00056,  -0.00011,  -0.00185,284121195.50013,   0.00000,274640135.82653,   0.00000,   0.00000,   0.00000,-190518940.32640,   0.00000
-161088333.23086,-93132226.40386,-142435999.90939,  -0.00055,  -0.00011,  -0.00185,283698060.95059,   0.00000,274640135.82653,   0.00000,   0.00000,   0.00000,-190942074.87594,   0.00000
-159965439.46567,-93316678.69382,-142442471.91957,  -0.00055,  -0.00011,  -0.00185,283265024.75390,   0.00000,274640135.82653,   0.00000,   0.00000,   0.00000,-191375111.07263,   0.00000
-158874905.75135,-93533491.03465,-142442471.91957,  -0.00054,  -0.00012,  -0.00185,282841295.55207,   0.00000,274640135.82653,   0.00000,   0.00000,   0.00000,-191798840.27446,   0.00000
-157774664.02177,-93727651.33987,-142442471.91957,  -0.00054,  -0.00012,  -0.00185,282417141.74753,   0.00000,274640135.82653,   0.00000,   0.00000,   0.00000,-192222994.07900,   0.00000
-156661478.27184,-93934755.66544,-142442471.91957,  -0.00053,  -0.00012,  -0.00185,281993214.15995,   0.00000,274640135.82653,   0.00000,   0.00000,   0.00000,-192646921.66657,   0.00000
-155538584.50666,-94119207.95540,-142442471.91957,  -0.00052,  -0.00012,  -0.00185,281568964.22703,   0.00000,274640135.82653,   0.00000,   0.00000,   0.00000,-193071171.59950,   0.00000
-154415690.74147,-94303660.24535,-142435999.90939,  -0.00052,  -0.00013,  -0.00185,281139579.67025,   0.00000,274640135.82653,   0.00000,   0.00000,   0.00000,-193500556.15628,   0.00000
-153292796.97628,-94488112.53531,-142435999.90939,  -0.00051,  -0.00013,  -0.00185,280724740.93730,   0.00000,274640135.82653,   0.00000,   0.00000,   0.00000,-193915394.88923,   0.00000
-152147251.17548,-94662856.81001,-142429527.89922,  -0.00051,  -0.00013,  -0.00185,280295665.86090,   0.00000,274640135.82653,   0.00000,   0.00000,   0.00000,-194344469.96562,   0.00000
-151001705.37468,-94837601.08471,-142416583.87887,  -0.00050,  -0.00014,  -0.00185,279861566.13460,   0.00000,274640135.82653,   0.00000,   0.00000,   0.00000,-194778569.69193,   0.00000
-149878811.60949,-95022053.37467,-142410111.86870,  -0.00050,  -0.00014,  -0.00185,279451205.48655,   0.00000,274640135.82653,   0.00000,   0.00000,   0.00000,-195188930.33998,   0.00000
-148733265.80869,-95196797.64937,-142397167.84835,  -0.00049,  -0.00014,  -0.00185,279026780.55267,   0.00000,274640135.82653,   0.00000,   0.00000,   0.00000,-195613355.27386,   0.00000
-147587720.00790,-95371541.92406,-142384223.82800,  -0.00049,  -0.00015,  -0.00185,278607249.12536,   0.00000,274640135.82653,   0.00000,   0.00000,   0.00000,-196032886.70117,   0.00000
-146419522.17149,-95536578.18350,-142364807.79748,  -0.00048,  -0.00015,  -0.00185,278173883.77425,   0.00000,274640135.82653,   0.00000,   0.00000,   0.00000,-196466252.05228,   0.00000
-145264268.35543,-95688670.42259,-142351863.77713,  -0.00047,  -0.00015,  -0.00185,277758967.40107,   0.00000,274640135.82653,   0.00000,   0.00000,   0.00000,-196881168.42546,   0.00000
-144096070.51902,-95853706.68203,-142332447.74661,  -0.00047,  -0.00016,  -0.00185,277335618.32330,   0.00000,274640135.82653,   0.00000,   0.00000,   0.00000,-197304517.50323,   0.00000
-142940816.70296,-96005798.92112,-142313031.71609,  -0.00046,  -0.00016,  -0.00185,276920638.79180,   0.00000,274640135.82653,   0.00000,   0.00000,   0.00000,-197719497.03473,   0.00000
-141772618.86656,-96170835.18055,-142287143.67539,  -0.00046,  -0.00016,  -0.00185,276497391.67554,   0.00000,274640135.82653,   0.00000,   0.00000,   0.00000,-198142744.15099,   0.00000
-140594713.01489,-96313219.40438,-142267727.64487,  -0.00045,  -0.00016,  -0.00185,276083862.45085,   0.00000,274640135.82653,   0.00000,   0.00000,   0.00000,-198556273.37568,   0.00000
-139416807.16322,-96455603.62821,-142241839.60417,  -0.00045,  -0.00017,  -0.00185,275665413.32195,   0.00000,274640135.82653,   0.00000,   0.00000,   0.00000,-198974722.50458,   0.00000
-138216249.27594,-96588279.83678,-142215951.56348,  -0.00044,  -0.00017,  -0.00185,275243688.82864,   0.00000,274640135.82653,   0.00000,   0.00000,   0.00000,-199396446.99789,   0.00000
-137038343.42428,-96730664.06060,-142190063.52278,  -0.00043,  -0.00017,  -0.00185,274835517.12018,   0.00000,274640135.82653,   0.00000,   0.00000,   0.00000,-199804618.70635,   0.00000
-135837785.53700,-96863340.26917,-142157703.47191,  -0.00043,  -0.00018,  -0.00185,274414188.76406,   0.00000,274640135.82653,   0.00000,   0.00000,   0.00000,-200225947.06247,   0.00000
-134659879.68533,-97005724.49300,-142125343.42104,  -0.00042,  -0.00018,  -0.00185,274006303.43098,   0.00000,274640135.82653,   0.00000,   0.00000,   0.00000,-200633832.39555,   0.00000
-133459321.79805,-97138400.70157,-142092983.37017,  -0.00042,  -0.00018,  -0.00185,273595471.73991,   0.00000,274640135.82653,   0.00000,   0.00000,   0.00000,-201044664.08662,   0.00000
-132249055.89552,-97248424.87452,-142060623.31930,  -0.00041,  -0.00018,  -0.00185,273184404.09814,   0.00000,274640135.82653,   0.00000,   0.00000,   0.00000,-201455731.72839,   0.00000
-131048498.00824,-97381101.08309,-142028263.26843,  -0.00041,  -0.00019,  -0.00185,272784206.55929,   0.00000,274640135.82653,   0.00000,   0.00000,   0.00000,-201855929.26724,   0.00000
-129838232.10570,-97491125.25605,-141989431.20739,  -0.00040,  -0.00019,  -0.00185,272373652.16660,   0.00000,274640135.82653,   0.00000,   0.00000,   0.00000,-202266483.65992,   0.00000
-128605314.16755,-97591441.41375,-141950599.14634,  -0.00039,  -0.00019,  -0.00185,271960578.17317,   0.00000,274640135.82653,   0.00000,   0.00000,   0.00000,-202679557.65336,   0.00000
-127404756.28028,-97724117.62231,-141911767.08530,  -0.00039,  -0.00020,  -0.00184,271566394.48086,   0.00000,274640135.82653,   0.00000,   0.00000,   0.00000,-203073741.34567,   0.00000
-126194490.37774,-97834141.79527,-141872935.02425,  -0.00038,  -0.00020,  -0.00184,271171953.03775,   0.00000,274640135.82653,   0.00000,   0.00000,   0.00000,-203468182.78878,   0.00000
-124951864.42433,-97911805.91736,-141834102.96321,  -0.00038,  -0.00020,  -0.00184,270769580.55277,   0.00000,274640135.82653,   0.00000,   0.00000,   0.00000,-203870555.27376,   0.00000
-123718946.48618,-98012122.07506,-141788798.89199,  -0.00037,  -0.00020,  -0.00184,270368244.77184,   0.00000,274640135.82653,   0.00000,   0.00000,   0.00000,-204271891.05469,   0.00000
-122486028.54804,-98112438.23275,-141743494.82077,  -0.00037,  -0.00021,  -0.00184,269972461.16442,   0.00000,274640135.82653,   0.00000,   0.00000,   0.00000,-204667674.66211,   0.00000
-121266054.63024,-98199810.37010,-141698190.74956,  -0.00036,  -0.00021,  -0.00184,269583914.53939,   0.00000,274640135.82653,   0.00000,   0.00000,   0.00000,-205056221.28714,   0.00000
-120033136.69209,-98300126.52780,-141652886.67834,  -0.00035,  -0.00021,  -0.00184,269199214.64982,   0.00000,274640135.82653,   0.00000,   0.00000,   0.00000,-205440921.17671,   0.00000
-118790510.73868,-98377790.64989,-141601110.59695,  -0.00035,  -0.00022,  -0.00184,268804112.14290,   0.00000,274640135.82653,   0.00000,   0.00000,   0.00000,-205836023.68363,   0.00000
-117525232.74967,-98445746.75671,-141555806.52573,  -0.00034,  -0.00022,  -0.00184,268417632.00282,   0.00000,274640135.82653,   0.00000,   0.00000,   0.00000,-206222503.82371,   0.00000
-116282606.79626,-98523410.87880,-141504030.44434,  -0.00034,  -0.00022,  -0.00184,268033803.80664,   0.00000,274640135.82653,   0.00000,   0.00000,   0.00000,-206606332.01989,   0.00000
-115039980.84285,-98601075.00089,-141452254.36294,  -0.00033,  -0.00022,  -0.00184,267655607.44648,   0.00000,274640135.82653,   0.00000,   0.00000,   0.00000,-206984528.38005,   0.00000
-113797354.88944,-98678739.12298,-141400478.28155,  -0.00033,  -0.00023,  -0.00184,267283066.82891,   0.00000,274640135.82653,   0.00000,   0.00000,   0.00000,-207357068.99762,   0.00000
-112532076.90043,-98746695.22980,-141342230.18999,  -0.00032,  -0.00023,  -0.00184,266899017.52218,   0.00000,274640135.82653,   0.00000,   0.00000,   0.00000,-207741118.30435,   0.00000
-111279742.93176,-98801707.31628,-141290454.10859,  -0.00031,  -0.00023,  -0.00184,266532000.38801,   0.00000,274640135.82653,   0.00000,   0.00000,   0.00000,-208108135.43852,   0.00000
-110004756.92748,-98847011.38750,-141232206.01703,  -0.00031,  -0.00024,  -0.00184,266153611.27652,   0.00000,274640135.82653,   0.00000,   0.00000,   0.00000,-208486524.55001,   0.00000
-108762130.97407,-98924675.50959,-141173957.92546,  -0.00030,  -0.00024,  -0.00184,265793704.27717,   0.00000,274640135.82653,   0.00000,   0.00000,   0.00000,-208846431.54936,   0.00000
-107487144.96979,-98969979.58081,-141115709.83390,  -0.00030,  -0.00024,  -0.00183,265426964.21972,   0.00000,274640135.82653,   0.00000,   0.00000,   0.00000,-209213171.60681,   0.00000
-106212158.96551,-99015283.65203,-141050989.73216,  -0.00029,  -0.00024,  -0.00183,265055781.25143,   0.00000,274640135.82653,   0.00000,   0.00000,   0.00000,-209584354.57510,   0.00000
-104927464.94598,-99037935.68763,-140992741.64059,  -0.00028,  -0.00025,  -0.00183,264694816.09216,   0.00000,274640135.82653,   0.00000,   0.00000,   0.00000,-209945319.73437,   0.00000
-103675130.97731,-99092947.77411,-140928021.53885,  -0.00028,  -0.00025,  -0.00183,264341809.98639,   0.00000,274640135.82653,   0.00000,   0.00000,   0.00000,-210298325.84014,   0.00000
-102400144.97303,-99138251.84533,-140863301.43711,  -0.00027,  -0.00025,  -0.00183,263988295.92123,   0.00000,274640135.82653,   0.00000,   0.00000,   0.00000,-210651839.90529,   0.00000
-101115450.95349,-99160903.88094,-140798581.33537,  -0.00027,  -0.00025,  -0.00183,263634673.90557,   0.00000,274640135.82653,   0.00000,   0.00000,   0.00000,-211005461.92096,   0.00000
-99830756.93395,-99183555.91655,-140733861.23363,  -0.00026,  -0.00026,  -0.00183,263287005.80334,   0.00000,274640135.82653,   0.00000,   0.00000,   0.00000,-211353130.02319,   0.00000
-98546062.91441,-99206207.95216,-140669141.13189,  -0.00025,  -0.00026,  -0.00183,262945315.23147,   0.00000,274640135.82653,   0.00000,   0.00000,   0.00000,-211694820.59506,   0.00000
-97261368.89487,-99228859.98777,-140597949.01998,  -0.00025,  -0.00026,  -0.00183,262599229.97480,   0.00000,274640135.82653,   0.00000,   0.00000,   0.00000,-212040905.85173,   0.00000
-95976674.87533,-99251512.02338,-140533228.91824,  -0.00024,  -0.00026,  -0.00183,262269555.89480,   0.00000,274640135.82653,   0.00000,   0.00000,   0.00000,-212370579.93173,   0.00000
-94691980.85579,-99274164.05899,-140462036.80632,  -0.00024,  -0.00027,  -0.00183,261935516.86779,   0.00000,274640135.82653,   0.00000,   0.00000,   0.00000,-212704618.95874,   0.00000
-93397578.82099,-99274164.05899,-140390844.69441,  -0.00023,  -0.00027,  -0.00183,261601354.42821,   0.00000,274640135.82653,   0.00000,   0.00000,   0.00000,-213038781.39832,   0.00000
-92103176.78619,-99274164.05899,-140319652.58249,  -0.00023,  -0.00027,  -0.00182,261273235.60539,   0.00000,274640135.82653,   0.00000,   0.00000,   0.00000,-213366900.22114,   0.00000
-90808774.75139,-99274164.05899,-140248460.47058,  -0.00022,  -0.00027,  -0.00182,260951183.19697,   0.00000,274640135.82653,   0.00000,   0.00000,   0.00000,-213688952.62956,   0.00000
-89491720.68099,-99264456.04372,-140177268.35867,  -0.00021,  -0.00028,  -0.00182,260629723.98362,   0.00000,274640135.82653,   0.00000,   0.00000,   0.00000,-214010411.84291,   0.00000
-88197318.64619,-99264456.04372,-140099604.23658,  -0.00021,  -0.00028,  -0.00182,260309503.69098,   0.00000,274640135.82653,   0.00000,   0.00000,   0.00000,-214330632.13555,   0.00000
-86902916.61139,-99264456.04372,-140021940.11449,  -0.00020,  -0.00028,  -0.00182,259995402.92755,   0.00000,274640135.82653,   0.00000,   0.00000,   0.00000,-214644732.89898,   0.00000
-85598806.56132,-99241804.00812,-139950748.00258,  -0.00020,  -0.00028,  -0.00182,259691638.22284,   0.00000,274640135.82653,   0.00000,   0.00000,   0.00000,-214948497.60369,   0.00000
-84304404.52652,-99241804.00812,-139873083.88049,  -0.00019,  -0.00029,  -0.00182,259389833.79660,   0.00000,274640135.82653,   0.00000,   0.00000,   0.00000,-215250302.02993,   0.00000
-83000294.47646,-99219151.97251,-139795419.75840,  -0.00018,  -0.00029,  -0.00182,259087916.21027,   0.00000,274640135.82653,   0.00000,   0.00000,   0.00000,-215552219.61626,   0.00000
-81696184.42640,-99196499.93690,-139717755.63631,  -0.00018,  -0.00029,  -0.00182,258792175.91807,   0.00000,274640135.82653,   0.00000,   0.00000,   0.00000,-215847959.90846,   0.00000
-80392074.37634,-99173847.90129,-139633619.50405,  -0.00017,  -0.00029,  -0.00182,258492145.83971,   0.00000,274640135.82653,   0.00000,   0.00000,   0.00000,-216147989.98682,   0.00000
-79078256.31102,-99128543.83007,-139555955.38196,  -0.00017,  -0.00030,  -0.00181,258202479.60476,   0.00000,274640135.82653,   0.00000,   0.00000,   0.00000,-216437656.22177,   0.00000
-77774146.26096,-99105891.79446,-139471819.24970,  -0.00016,  -0.00030,  -0.00181,257914878.56600,   0.00000,274640135.82653,   0.00000,   0.00000,   0.00000,-216725257.26053,   0.00000
-76460328.19564,-99060587.72324,-139394155.12761,  -0.00015,  -0.00030,  -0.00181,257637668.50076,   0.00000,274640135.82653,   0.00000,   0.00000,   0.00000,-217002467.32577,   0.00000
-75146510.13031,-99015283.65203,-139310018.99535,  -0.00015,  -0.00030,  -0.00181,257356203.62233,   0.00000,274640135.82653,   0.00000,   0.00000,   0.00000,-217283932.20420,   0.00000
-73832692.06499,-98969979.58081,-139225882.86309,  -0.00014,  -0.00031,  -0.00181,257081004.01768,   0.00000,274640135.82653,   0.00000,   0.00000,   0.00000,-217559131.80885,   0.00000
-72518873.99967,-98924675.50959,-139141746.73083,  -0.00014,  -0.00031,  -0.00181,256812089.82841,   0.00000,274640135.82653,   0.00000,   0.00000,   0.00000,-217828045.99812,   0.00000
-71195347.91909,-98856719.40276,-139057610.59856,  -0.00013,  -0.00031,  -0.00181,256543070.84878,   0.00000,274640135.82653,   0.00000,   0.00000,   0.00000,-218097064.97775,   0.00000
-69881529.85377,-98811415.33154,-138973474.46630,  -0.00013,  -0.00031,  -0.00181,256286774.84382,   0.00000,274640135.82653,   0.00000,   0.00000,   0.00000,-218353360.98270,   0.00000
-68580655.80879,-98753167.23998,-138889338.33404,  -0.00012,  -0.00032,  -0.00181,256034533.46605,   0.00000,274640135.82653,   0.00000,   0.00000,   0.00000,-218605602.36047,   0.00000
-67257129.72821,-98685211.13315,-138798730.19160,  -0.00011,  -0.00032,  -0.00180,255773866.64129,   0.00000,274640135.82653,   0.00000,   0.00000,   0.00000,-218866269.18523,   0.00000
-65933603.64763,-98617255.02632,-138714594.05934,  -0.00011,  -0.00032,  -0.00180,255530091.94283,   0.00000,274640135.82653,   0.00000,   0.00000,   0.00000,-219110043.88370,   0.00000
-64632729.60265,-98559006.93476,-138623985.91691,  -0.00010,  -0.00032,  -0.00180,255286032.42874,   0.00000,274640135.82653,   0.00000,   0.00000,   0.00000,-219354103.39779,   0.00000
-63299495.50681,-98468398.79232,-138539849.78464,  -0.00010,  -0.00032,  -0.00180,255048469.23728,   0.00000,274640135.82653,   0.00000,   0.00000,   0.00000,-219591666.58925,   0.00000
-61998621.46183,-98410150.70076,-138449241.64221,  -0.00009,  -0.00033,  -0.00180,254816935.61599,   0.00000,274640135.82653,   0.00000,   0.00000,   0.00000,-219823200.21054,   0.00000
-60665387.36599,-98319542.55832,-138358633.49977,  -0.00008,  -0.00033,  -0.00180,254581544.75525,   0.00000,274640135.82653,   0.00000,   0.00000,   0.00000,-220058591.07128,   0.00000
-59354805.30575,-98238642.43115,-138268025.35734,  -0.00008,  -0.00033,  -0.00180,254356106.26295,   0.00000,274640135.82653,   0.00000,   0.00000,   0.00000,-220284029.56358,   0.00000
-58021571.20991,-98148034.28871,-138177417.21490,  -0.00007,  -0.00033,  -0.00180,254133492.64580,   0.00000,274640135.82653,   0.00000,   0.00000,   0.00000,-220506643.18073,   0.00000
-56701281.13441,-98044482.12593,-138086809.07246,  -0.00007,  -0.00034,  -0.00180,253914175.52466,   0.00000,274640135.82653,   0.00000,   0.00000,   0.00000,-220725960.30187,   0.00000
-55390699.07418,-97963581.99875,-137996200.93003,  -0.00006,  -0.00034,  -0.00179,253707658.66365,   0.00000,274640135.82653,   0.00000,   0.00000,   0.00000,-220932477.16288,   0.00000
-54070408.99868,-97860029.83597,-137905592.78759,  -0.00006,  -0.00034,  -0.00179,253500927.60623,   0.00000,274640135.82653,   0.00000,   0.00000,   0.00000,-221139208.22030,   0.00000
-52750118.92319,-97756477.67318,-137808512.63498,  -0.00005,  -0.00034,  -0.00179,253289945.74342,   0.00000,274640135.82653,   0.00000,   0.00000,   0.00000,-221350190.08311,   0.00000
-51429828.84769,-97652925.51040,-137717904.49255,  -0.00004,  -0.00034,  -0.00179,253095854.49790,   0.00000,274640135.82653,   0.00000,   0.00000,   0.00000,-221544281.32863,   0.00000
-50122482.79254,-97536429.32727,-137627296.35011,  -0.00004,  -0.00035,  -0.00179,252904465.02291,   0.00000,274640135.82653,   0.00000,   0.00000,   0.00000,-221735670.80362,   0.00000
-48802192.71705,-97432877.16448,-137530216.19750,  -0.00003,  -0.00035,  -0.00179,252712410.89463,   0.00000,274640135.82653,   0.00000,   0.00000,   0.00000,-221927724.93190,   0.00000
-47472194.62629,-97306672.96609,-137433136.04489,  -0.00003,  -0.00035,  -0.00179,252520171.86412,   0.00000,274640135.82653,   0.00000,   0.00000,   0.00000,-222119963.96241,   0.00000
-46164848.57114,-97190176.78296,-137342527.90245,  -0.00002,  -0.00035,  -0.00179,252347506.08005,   0.00000,274640135.82653,   0.00000,   0.00000,   0.00000,-222292629.74648,   0.00000
-44857502.51599,-97073680.59983,-137245447.74984,  -0.00001,  -0.00035,  -0.00178,252170479.85359,   0.00000,274640135.82653,   0.00000,   0.00000,   0.00000,-222469655.97294,   0.00000
-43527504.42524,-96947476.40143,-137148367.59723,  -0.00001,  -0.00036,  -0.00178,251997220.85328,   0.00000,274640135.82653,   0.00000,   0.00000,   0.00000,-222642914.97325,   0.00000
-42210450.35483,-96808328.18269,-137057759.45480,  -0.00000,  -0.00036,  -0.00178,251836732.17842,   0.00000,274640135.82653,   0.00000,   0.00000,   0.00000,-222803403.64811,   0.00000
-40903104.29968,-96691831.99956,-136960679.30219,   0.00000,  -0.00036,  -0.00178,251678487.86165,   0.00000,274640135.82653,   0.00000,   0.00000,   0.00000,-222961647.96488,   0.00000
-39586050.22927,-96552683.78082,-136863599.14958,   0.00001,  -0.00036,  -0.00178,251519921.76494,   0.00000,274640135.82653,   0.00000,   0.00000,   0.00000,-223120214.06158,   0.00000
-38291648.19447,-96423243.57734,-136766518.99697,   0.00001,  -0.00036,  -0.00178,251369706.72345,   0.00000,274640135.82653,   0.00000,   0.00000,   0.00000,-223270429.10308,   0.00000
-36974594.12406,-96284095.35860,-136669438.84436,   0.00002,  -0.00037,  -0.00178,251223583.33817,   0.00000,274640135.82653,   0.00000,   0.00000,   0.00000,-223416552.48836,   0.00000
-35670484.07400,-96132003.11951,-136572358.69175,   0.00003,  -0.00037,  -0.00178,251079066.92404,   0.00000,274640135.82653,   0.00000,   0.00000,   0.00000,-223561068.90248,   0.00000
-34343721.98833,-95970202.86516,-136475278.53914,   0.00003,  -0.00037,  -0.00177,250938841.29132,   0.00000,274640135.82653,   0.00000,   0.00000,   0.00000,-223701294.53520,   0.00000
-33049319.95353,-95840762.66168,-136378198.38653,   0.00004,  -0.00037,  -0.00177,250813229.89953,   0.00000,274640135.82653,   0.00000,   0.00000,   0.00000,-223826905.92700,   0.00000
-31745209.90347,-95688670.42259,-136281118.23392,   0.00004,  -0.00037,  -0.00177,250687160.88458,   0.00000,274640135.82653,   0.00000,   0.00000,   0.00000,-223952974.94195,   0.00000
-30431391.83815,-95513926.14789,-136177566.07113,   0.00005,  -0.00038,  -0.00177,250550087.78278,   0.00000,274640135.82653,   0.00000,   0.00000,   0.00000,-224090048.04375,   0.00000
-29127281.78809,-95361833.90880,-136080485.91852,   0.00005,  -0.00038,  -0.00177,250436304.96832,   0.00000,274640135.82653,   0.00000,   0.00000,   0.00000,-224203830.85821,   0.00000
-27836115.75837,-95196797.64937,-135983405.76591,   0.00006,  -0.00038,  -0.00177,250323451.70820,   0.00000,274640135.82653,   0.00000,   0.00000,   0.00000,-224316684.11833,   0.00000
-26522297.69305,-95022053.37467,-135886325.61330,   0.00006,  -0.00038,  -0.00177,250215307.64824,   0.00000,274640135.82653,   0.00000,   0.00000,   0.00000,-224424828.17829,   0.00000
-25231131.66334,-94857017.11523,-135789245.46069,   0.00007,  -0.00038,  -0.00177,250114516.49462,   0.00000,274640135.82653,   0.00000,   0.00000,   0.00000,-224525619.33191,   0.00000
-23939965.63363,-94691980.85579,-135685693.29791,   0.00008,  -0.00038,  -0.00176,250009184.87661,   0.00000,274640135.82653,   0.00000,   0.00000,   0.00000,-224630950.94992,   0.00000
-22648799.60391,-94526944.59636,-135588613.14530,   0.00008,  -0.00039,  -0.00176,249920398.52098,   0.00000,274640135.82653,   0.00000,   0.00000,   0.00000,-224719737.30555,   0.00000
-21347925.55894,-94339256.30131,-135491532.99269,   0.00009,  -0.00039,  -0.00176,249831039.54968,   0.00000,274640135.82653,   0.00000,   0.00000,   0.00000,-224809096.27685,   0.00000
-20047051.51397,-94151568.00626,-135387980.82991,   0.00009,  -0.00039,  -0.00176,249737175.36261,   0.00000,274640135.82653,   0.00000,   0.00000,   0.00000,-224902960.46392,   0.00000
-18768829.50460,-93973587.72648,-135290900.67730,   0.00010,  -0.00039,  -0.00176,249660596.25701,   0.00000,274640135.82653,   0.00000,   0.00000,   0.00000,-224979539.56952,   0.00000
-17490607.49524,-93795607.44669,-135193820.52469,   0.00010,  -0.00039,  -0.00176,249589868.57724,   0.00000,274640135.82653,   0.00000,   0.00000,   0.00000,-225050267.24929,   0.00000
-16202677.47061,-93594975.13130,-135096740.37208,   0.00011,  -0.00039,  -0.00176,249518425.59138,   0.00000,274640135.82653,   0.00000,   0.00000,   0.00000,-225121710.23514,   0.00000
-14924455.46124,-93416994.85152,-134993188.20929,   0.00011,  -0.00040,  -0.00175,249448910.81672,   0.00000,274640135.82653,   0.00000,   0.00000,   0.00000,-225191225.00981,   0.00000
-13636525.43662,-93216362.53612,-134896108.05668,   0.00012,  -0.00040,  -0.00175,249389209.22553,   0.00000,274640135.82653,   0.00000,   0.00000,   0.00000,-225250926.60100,   0.00000
-12348595.41199,-93015730.22073,-134799027.90407,   0.00013,  -0.00040,  -0.00175,249335384.63152,   0.00000,274640135.82653,   0.00000,   0.00000,   0.00000,-225304751.19501,   0.00000
-11083317.42298,-92824805.92059,-134695475.74129,   0.00013,  -0.00040,  -0.00175,249277137.51178,   0.00000,274640135.82653,   0.00000,   0.00000,   0.00000,-225362998.31475,   0.00000
-9808331.41870,-92611229.58485,-134598395.58868,   0.00014,  -0.00040,  -0.00175,249228541.42878,   0.00000,274640135.82653,   0.00000,   0.00000,   0.00000,-225411594.39775,   0.00000
-8543053.42968,-92420305.28472,-134501315.43607,   0.00014,  -0.00040,  -0.00175,249192208.03807,   0.00000,274640135.82653,   0.00000,   0.00000,   0.00000,-225447927.78846,   0.00000
-7268067.42540,-92206728.94898,-134404235.28346,   0.00015,  -0.00041,  -0.00175,249155044.76307,   0.00000,274640135.82653,   0.00000,   0.00000,   0.00000,-225485091.06346,   0.00000
-6015733.45673,-92002860.62850,-134300683.12067,   0.00015,  -0.00041,  -0.00175,249112968.72321,   0.00000,274640135.82653,   0.00000,   0.00000,   0.00000,-225527167.10332,   0.00000
-4753691.47280,-91776340.27241,-134203602.96806,   0.00016,  -0.00041,  -0.00174,249080386.54034,   0.00000,274640135.82653,   0.00000,   0.00000,   0.00000,-225559749.28619,   0.00000
-3478705.46853,-91562763.93666,-134106522.81545,   0.00016,  -0.00041,  -0.00174,249060232.93331,   0.00000,274640135.82653,   0.00000,   0.00000,   0.00000,-225579902.89322,   0.00000
-2239315.52020,-91345951.59584,-134009442.66284,   0.00017,  -0.00041,  -0.00174,249038425.08386,   0.00000,274640135.82653,   0.00000,   0.00000,   0.00000,-225601710.74267,   0.00000
-977273.53627,-91119431.23975,-133912362.51023,   0.00017,  -0.00041,  -0.00174,249022528.50585,   0.00000,274640135.82653,   0.00000,   0.00000,   0.00000,-225617607.32068,   0.00000
262116.41205,-90902618.89892,-133808810.34745,   0.00018,  -0.00041,  -0.00174,249001154.76802,   0.00000,274640135.82653,   0.00000,   0.00000,   0.00000,-225638981.05851,   0.00000
1524158.39598,-90676098.54283,-133711730.19484,   0.00018,  -0.00042,  -0.00174,248996311.25333,   0.00000,274640135.82653,   0.00000,   0.00000,   0.00000,-225643824.57320,   0.00000
2773256.35956,-90436634.16639,-133614650.04223,   0.00019,  -0.00042,  -0.00174,248989766.53417,   0.00000,274640135.82653,   0.00000,   0.00000,   0.00000,-225650369.29235,   0.00000
3989994.27227,-90229529.84082,-133517569.88962,   0.00019,  -0.00042,  -0.00174,248994232.51259,   0.00000,274640135.82653,   0.00000,   0.00000,   0.00000,-225645903.31394,   0.00000
5239092.23585,-89990065.46438,-133420489.73701,   0.00020,  -0.00042,  -0.00173,248998408.56521,   0.00000,274640135.82653,   0.00000,   0.00000,   0.00000,-225641727.26132,   0.00000
6465538.16383,-89760309.10321,-133329881.59457,   0.00020,  -0.00042,  -0.00173,249017342.68164,   0.00000,274640135.82653,   0.00000,   0.00000,   0.00000,-225622793.14489,   0.00000
7701692.10706,-89507900.70642,-133232801.44196,   0.00021,  -0.00042,  -0.00173,249024658.98540,   0.00000,274640135.82653,   0.00000,   0.00000,   0.00000,-225615476.84113,   0.00000
8928138.03503,-89278144.34524,-133135721.28935,   0.00021,  -0.00042,  -0.00173,249043665.15219,   0.00000,274640135.82653,   0.00000,   0.00000,   0.00000,-225596470.67434,   0.00000
10141639.94266,-89035443.96372,-133038641.13674,   0.00022,  -0.00042,  -0.00173,249060170.76982,   0.00000,274640135.82653,   0.00000,   0.00000,   0.00000,-225579965.05671,   0.00000
11377793.88589,-88783035.56693,-132941560.98413,   0.00022,  -0.00043,  -0.00173,249083143.92614,   0.00000,274640135.82653,   0.00000,   0.00000,   0.00000,-225556991.90039,   0.00000
12591295.79352,-88540335.18541,-132850952.84170,   0.00023,  -0.00043,  -0.00173,249120244.55536,   0.00000,274640135.82653,   0.00000,   0.00000,   0.00000,-225519891.27117,   0.00000
13782145.66553,-88307342.81914,-132753872.68909,   0.00023,  -0.00043,  -0.00173,249150498.97370,   0.00000,274640135.82653,   0.00000,   0.00000,   0.00000,-225489636.85283,   0.00000
15005355.58842,-88041990.40201,-132663264.54665,   0.00024,  -0.00043,  -0.00172,249191250.69613,   0.00000,274640135.82653,   0.00000,   0.00000,   0.00000,-225448885.13040,   0.00000
16196205.46043,-87808998.03574,-132566184.39404,   0.00024,  -0.00043,  -0.00172,249231397.53090,   0.00000,274640135.82653,   0.00000,   0.00000,   0.00000,-225408738.29563,   0.00000
17396763.34771,-87553353.63387,-132475576.25161,   0.00025,  -0.00043,  -0.00172,249280398.32800,   0.00000,274640135.82653,   0.00000,   0.00000,   0.00000,-225359737.49853,   0.00000
18607029.25025,-87275057.19639,-132384968.10917,   0.00025,  -0.00043,  -0.00172,249327948.75830,   0.00000,274640135.82653,   0.00000,   0.00000,   0.00000,-225312187.06823,   0.00000
19784935.10192,-87029120.80978,-132287887.95656,   0.00026,  -0.00043,  -0.00172,249374483.32404,   0.00000,274640135.82653,   0.00000,   0.00000,   0.00000,-225265652.50249,   0.00000
20962840.95359,-86783184.42317,-132197279.81412,   0.00026,  -0.00044,  -0.00172,249436056.46085,   0.00000,274640135.82653,   0.00000,   0.00000,   0.00000,-225204079.36568,   0.00000
22150454.82051,-86514596.00094,-132106671.67169,   0.00027,  -0.00044,  -0.00172,249496039.48863,   0.00000,274640135.82653,   0.00000,   0.00000,   0.00000,-225144096.33790,   0.00000
23338068.68744,-86246007.57872,-132016063.52925,   0.00027,  -0.00044,  -0.00172,249560769.37591,   0.00000,274640135.82653,   0.00000,   0.00000,   0.00000,-225079366.45062,   0.00000
24503030.51876,-85987127.17176,-131925455.38682,   0.00028,  -0.00044,  -0.00172,249627937.30315,   0.00000,274640135.82653,   0.00000,   0.00000,   0.00000,-225012198.52338,   0.00000
25677700.36534,-85705594.72919,-131834847.24438,   0.00028,  -0.00044,  -0.00171,249693405.37722,   0.00000,274640135.82653,   0.00000,   0.00000,   0.00000,-224946730.44931,   0.00000
26842662.19666,-85446714.32223,-131750711.11212,   0.00029,  -0.00044,  -0.00171,249779976.03147,   0.00000,274640135.82653,   0.00000,   0.00000,   0.00000,-224860159.79506,   0.00000
27994680.00764,-85174889.89493,-131660102.96968,   0.00029,  -0.00044,  -0.00171,249852068.04547,   0.00000,274640135.82653,   0.00000,   0.00000,   0.00000,-224788067.78106,   0.00000
29146697.81861,-84903065.46762,-131569494.82725,   0.00030,  -0.00044,  -0.00171,249928590.64116,   0.00000,274640135.82653,   0.00000,   0.00000,   0.00000,-224711545.18537,   0.00000
30298715.62958,-84631241.04031,-131485358.69498,   0.00030,  -0.00044,  -0.00171,250019750.59569,   0.00000,274640135.82653,   0.00000,   0.00000,   0.00000,-224620385.23084,   0.00000
31428081.40494,-84369124.62826,-131394750.55255,   0.00031,  -0.00045,  -0.00171,250102328.31086,   0.00000,274640135.82653,   0.00000,   0.00000,   0.00000,-224537807.51567,   0.00000
32589807.23118,-84074648.16535,-131310614.42029,   0.00031,  -0.00045,  -0.00171,250196025.05741,   0.00000,274640135.82653,   0.00000,   0.00000,   0.00000,-224444110.76912,   0.00000
33706228.98619,-83799587.73295,-131226478.28802,   0.00032,  -0.00045,  -0.00171,250288263.17147,   0.00000,274640135.82653,   0.00000,   0.00000,   0.00000,-224351872.65506,   0.00000
34845302.77682,-83514819.28530,-131142342.15576,   0.00032,  -0.00045,  -0.00170,250387621.59601,   0.00000,274640135.82653,   0.00000,   0.00000,   0.00000,-224252514.23052,   0.00000
35961724.53183,-83239758.85290,-131058206.02350,   0.00033,  -0.00045,  -0.00170,250488140.36088,   0.00000,274640135.82653,   0.00000,   0.00000,   0.00000,-224151995.46565,   0.00000
37078146.28685,-82964698.42051,-130974069.89124,   0.00033,  -0.00045,  -0.00170,250592753.87045,   0.00000,274640135.82653,   0.00000,   0.00000,   0.00000,-224047381.95607,   0.00000
38204276.05712,-82666985.95250,-130889933.75898,   0.00034,  -0.00045,  -0.00170,250695340.81420,   0.00000,274640135.82653,   0.00000,   0.00000,   0.00000,-223944795.01233,   0.00000
39298045.77653,-82401633.53537,-130812269.63689,   0.00034,  -0.00045,  -0.00170,250814948.59866,   0.00000,274640135.82653,   0.00000,   0.00000,   0.00000,-223825187.22787,   0.00000
40401523.51119,-82113629.08262,-130728133.50463,   0.00034,  -0.00045,  -0.00170,250922262.00145,   0.00000,274640135.82653,   0.00000,   0.00000,   0.00000,-223717873.82508,   0.00000
41505001.24586,-81825624.62988,-130650469.38254,   0.00035,  -0.00045,  -0.00170,251043633.80960,   0.00000,274640135.82653,   0.00000,   0.00000,   0.00000,-223596502.01693,   0.00000
42595534.96018,-81524676.15679,-130572805.26045,   0.00035,  -0.00045,  -0.00170,251159335.95054,   0.00000,274640135.82653,   0.00000,   0.00000,   0.00000,-223480799.87599,   0.00000
43676360.65924,-81246379.71931,-130488669.12819,   0.00036,  -0.00045,  -0.00170,251274796.17611,   0.00000,274640135.82653,   0.00000,   0.00000,   0.00000,-223365339.65042,   0.00000
44766894.37356,-80945431.24622,-130411005.00610,   0.00036,  -0.00046,  -0.00170,251398098.48568,   0.00000,274640135.82653,   0.00000,   0.00000,   0.00000,-223242037.34085,   0.00000
45834776.05227,-80654190.78839,-130339812.89419,   0.00037,  -0.00046,  -0.00169,251531493.92438,   0.00000,274640135.82653,   0.00000,   0.00000,   0.00000,-223108641.90215,   0.00000
46902657.73098,-80362950.33056,-130262148.77210,   0.00037,  -0.00046,  -0.00169,251658461.51051,   0.00000,274640135.82653,   0.00000,   0.00000,   0.00000,-222981674.31601,   0.00000
47970539.40969,-80071709.87273,-130184484.65001,   0.00037,  -0.00046,  -0.00169,251789067.70949,   0.00000,274640135.82653,   0.00000,   0.00000,   0.00000,-222851068.11704,   0.00000
49025477.06805,-79767525.39455,-130113292.53810,   0.00038,  -0.00046,  -0.00169,251923407.37144,   0.00000,274640135.82653,   0.00000,   0.00000,   0.00000,-222716728.45509,   0.00000
50070706.71115,-79485992.95198,-130035628.41601,   0.00038,  -0.00046,  -0.00169,252057161.29382,   0.00000,274640135.82653,   0.00000,   0.00000,   0.00000,-222582974.53271,   0.00000
51102992.33390,-79191516.48906,-129964436.30409,   0.00039,  -0.00046,  -0.00169,252194368.85246,   0.00000,274640135.82653,   0.00000,   0.00000,   0.00000,-222445766.97407,   0.00000
52157929.99227,-78887332.01089,-129893244.19218,   0.00039,  -0.00046,  -0.00169,252339107.97473,   0.00000,274640135.82653,   0.00000,   0.00000,   0.00000,-222301027.85180,   0.00000
53167563.57941,-78602563.56323,-129822052.08027,   0.00040,  -0.00046,  -0.00169,252478821.35028,   0.00000,274640135.82653,   0.00000,   0.00000,   0.00000,-222161314.47625,   0.00000
54209557.21742,-78285435.06470,-129757331.97853,   0.00040,  -0.00046,  -0.00169,252630164.10351,   0.00000,274640135.82653,   0.00000,   0.00000,   0.00000,-222009971.72302,   0.00000
55219190.80457,-78000666.61705,-129686139.86661,   0.00040,  -0.00046,  -0.00169,252776346.47873,   0.00000,274640135.82653,   0.00000,   0.00000,   0.00000,-221863789.34780,   0.00000
56238532.40697,-77693246.13378,-129621419.76487,   0.00041,  -0.00046,  -0.00169,252929841.15793,   0.00000,274640135.82653,   0.00000,   0.00000,   0.00000,-221710294.66860,   0.00000
57235221.97377,-77395533.66578,-129550227.65296,   0.00041,  -0.00046,  -0.00168,253072073.27111,   0.00000,274640135.82653,   0.00000,   0.00000,   0.00000,-221568062.55542,   0.00000
58231911.54056,-77097821.19777,-129485507.55122,   0.00042,  -0.00046,  -0.00168,253227314.98885,   0.00000,274640135.82653,   0.00000,   0.00000,   0.00000,-221412820.83768,   0.00000
59238309.12262,-76777456.69416,-129420787.44948,   0.00042,  -0.00046,  -0.00168,253379838.40384,   0.00000,274640135.82653,   0.00000,   0.00000,   0.00000,-221260297.42269,   0.00000
60212346.65381,-76489452.24142,-129362539.35791,   0.00042,  -0.00047,  -0.00168,253546390.57745,   0.00000,274640135.82653,   0.00000,   0.00000,   0.00000,-221093745.24908,   0.00000
61196092.20026,-76178795.75307,-129297819.25617,   0.00043,  -0.00047,  -0.00168,253700203.83276,   0.00000,274640135.82653,   0.00000,   0.00000,   0.00000,-220939931.99377,   0.00000
62179837.74670,-75868139.26471,-129233099.15443,   0.00043,  -0.00047,  -0.00168,253856961.92639,   0.00000,274640135.82653,   0.00000,   0.00000,   0.00000,-220783173.90014,   0.00000
63140931.25754,-75567190.79162,-129174851.06287,   0.00043,  -0.00047,  -0.00168,254021626.56878,   0.00000,274640135.82653,   0.00000,   0.00000,   0.00000,-220618509.25775,   0.00000
64102024.76838,-75266242.31853,-129116602.97130,   0.00044,  -0.00047,  -0.00168,254189076.92902,   0.00000,274640135.82653,   0.00000,   0.00000,   0.00000,-220451058.89751,   0.00000
65050174.25887,-74952349.82509,-129058354.87973,   0.00044,  -0.00047,  -0.00168,254348619.46831,   0.00000,274640135.82653,   0.00000,   0.00000,   0.00000,-220291516.35821,   0.00000
65988615.73410,-74661109.36726,-129006578.79834,   0.00045,  -0.00047,  -0.00168,254526332.69375,   0.00000,274640135.82653,   0.00000,   0.00000,   0.00000,-220113803.13278,   0.00000
66936765.22459,-74347216.87382,-128948330.70678,   0.00045,  -0.00047,  -0.00168,254691219.66176,   0.00000,274640135.82653,   0.00000,   0.00000,   0.00000,-219948916.16477,   0.00000
67862262.67948,-74043032.39565,-128896554.62538,   0.00045,  -0.00047,  -0.00168,254863395.64407,   0.00000,274640135.82653,   0.00000,   0.00000,   0.00000,-219776740.18246,   0.00000
68787760.13436,-73738847.91747,-128838306.53382,   0.00046,  -0.00047,  -0.00167,255028295.51078,   0.00000,274640135.82653,   0.00000,   0.00000,   0.00000,-219611840.31575,   0.00000
69722965.60450,-73412011.40368,-128786530.45243,   0.00046,  -0.00047,  -0.00167,255199979.96669,   0.00000,274640135.82653,   0.00000,   0.00000,   0.00000,-219440155.85984,   0.00000
70625811.02377,-73117534.94076,-128741226.38121,   0.00046,  -0.00047,  -0.00167,255384170.24993,   0.00000,274640135.82653,   0.00000,   0.00000,   0.00000,-219255965.57660,   0.00000
71515712.42270,-72810114.45750,-128689450.29982,   0.00047,  -0.00047,  -0.00167,255549996.97330,   0.00000,274640135.82653,   0.00000,   0.00000,   0.00000,-219090138.85323,   0.00000
72428265.85723,-72492985.95897,-128644146.22860,   0.00047,  -0.00047,  -0.00167,255733410.10672,   0.00000,274640135.82653,   0.00000,   0.00000,   0.00000,-218906725.71981,   0.00000
73295515.22055,-72195273.49097,-128598842.15738,   0.00047,  -0.00047,  -0.00167,255908121.10120,   0.00000,274640135.82653,   0.00000,   0.00000,   0.00000,-218732014.72533,   0.00000
74185416.61947,-71887853.00770,-128553538.08616,   0.00048,  -0.00047,  -0.00167,256090621.14363,   0.00000,274640135.82653,   0.00000,   0.00000,   0.00000,-218549514.68290,   0.00000
75052665.98279,-71590140.53970,-128508234.01494,   0.00048,  -0.00047,  -0.00167,256269741.53833,   0.00000,274640135.82653,   0.00000,   0.00000,   0.00000,-218370394.28820,   0.00000
75929623.36137,-71269776.03609,-128462929.94373,   0.00048,  -0.00047,  -0.00167,256445606.39770,   0.00000,274640135.82653,   0.00000,   0.00000,   0.00000,-218194529.42883,   0.00000
76783928.70434,-70959119.54774,-128424097.88268,   0.00049,  -0.00047,  -0.00167,256627619.48294,   0.00000,274640135.82653,   0.00000,   0.00000,   0.00000,-218012516.34359,   0.00000
77638234.04730,-70648463.05938,-128385265.82164,   0.00049,  -0.00047,  -0.00167,256811705.47505,   0.00000,274640135.82653,   0.00000,   0.00000,   0.00000,-217828430.35148,   0.00000
78469887.35466,-70347514.58629,-128346433.76059,   0.00049,  -0.00047,  -0.00167,256991981.88344,   0.00000,274640135.82653,   0.00000,   0.00000,   0.00000,-217648153.94309,   0.00000
79301540.66202,-70046566.11320,-128307601.69955,   0.00050,  -0.00047,  -0.00167,257174217.89160,   0.00000,274640135.82653,   0.00000,   0.00000,   0.00000,-217465917.93493,   0.00000
80133193.96938,-69745617.64011,-128275241.64868,   0.00050,  -0.00047,  -0.00167,257368086.44952,   0.00000,274640135.82653,   0.00000,   0.00000,   0.00000,-217272049.37701,   0.00000
80951903.25639,-69431725.14667,-128236409.58764,   0.00050,  -0.00047,  -0.00167,257542881.14110,   0.00000,274640135.82653,   0.00000,   0.00000,   0.00000,-217097254.68543,   0.00000
81747960.50779,-69127540.66849,-128204049.53677,   0.00051,  -0.00047,  -0.00167,257723138.93693,   0.00000,274640135.82653,   0.00000,   0.00000,   0.00000,-216916996.88960,   0.00000
82556961.77954,-68836300.21066,-128178161.49607,   0.00051,  -0.00047,  -0.00167,257926204.99677,   0.00000,274640135.82653,   0.00000,   0.00000,   0.00000,-216713930.82976,   0.00000
83362727.04621,-68509463.69688,-128145801.44520,   0.00051,  -0.00047,  -0.00167,258104757.57521,   0.00000,274640135.82653,   0.00000,   0.00000,   0.00000,-216535378.25132,   0.00000
84136132.26200,-68214987.23396,-128119913.40450,   0.00052,  -0.00047,  -0.00167,258293737.93385,   0.00000,274640135.82653,   0.00000,   0.00000,   0.00000,-216346397.89268,   0.00000
84909537.47779,-67920510.77104,-128094025.36381,   0.00052,  -0.00047,  -0.00167,258484356.38280,   0.00000,274640135.82653,   0.00000,   0.00000,   0.00000,-216155779.44373,   0.00000
85692650.70885,-67603382.27252,-128068137.32311,   0.00052,  -0.00047,  -0.00166,258671421.10454,   0.00000,274640135.82653,   0.00000,   0.00000,   0.00000,-215968714.72199,   0.00000
86443403.88903,-67318613.82486,-128042249.28242,   0.00052,  -0.00047,  -0.00166,258858959.22536,   0.00000,274640135.82653,   0.00000,   0.00000,   0.00000,-215781176.60117,   0.00000
87203865.08448,-67011193.34160,-128022833.25189,   0.00053,  -0.00047,  -0.00166,259052478.62851,   0.00000,274640135.82653,   0.00000,   0.00000,   0.00000,-215587657.19802,   0.00000
87941674.24431,-66713480.87359,-128003417.22137,   0.00053,  -0.00048,  -0.00166,259241096.78618,   0.00000,274640135.82653,   0.00000,   0.00000,   0.00000,-215399039.04035,   0.00000
88679483.40415,-66415768.40559,-127984001.19085,   0.00053,  -0.00048,  -0.00166,259431175.42864,   0.00000,274640135.82653,   0.00000,   0.00000,   0.00000,-215208960.39789,   0.00000
89404348.54364,-66105111.91724,-127964585.16033,   0.00054,  -0.00048,  -0.00166,259611080.25705,   0.00000,274640135.82653,   0.00000,   0.00000,   0.00000,-215029055.56948,   0.00000
90119505.66786,-65817107.46449,-127951641.13998,   0.00054,  -0.00048,  -0.00166,259807023.64879,   0.00000,274640135.82653,   0.00000,   0.00000,   0.00000,-214833112.17774,   0.00000
90844370.80735,-65506450.97614,-127938697.11963,   0.00054,  -0.00048,  -0.00166,259999265.02133,   0.00000,274640135.82653,   0.00000,   0.00000,   0.00000,-214640870.80520,   0.00000
91546583.91123,-65205502.50305,-127925753.09928,   0.00054,  -0.00048,  -0.00166,260186222.74617,   0.00000,274640135.82653,   0.00000,   0.00000,   0.00000,-214453913.08036,   0.00000
92226144.97950,-64914262.04522,-127912809.07894,   0.00055,  -0.00048,  -0.00166,260367769.81160,   0.00000,274640135.82653,   0.00000,   0.00000,   0.00000,-214272366.01493,   0.00000
92905706.04777,-64623021.58739,-127906337.06876,   0.00055,  -0.00048,  -0.00166,260560061.73218,   0.00000,274640135.82653,   0.00000,   0.00000,   0.00000,-214080074.09435,   0.00000
93585267.11604,-64331781.12956,-127899865.05859,   0.00055,  -0.00048,  -0.00166,260753549.64326,   0.00000,274640135.82653,   0.00000,   0.00000,   0.00000,-213886586.18327,   0.00000
94242176.14870,-64050248.68699,-127893393.04841,   0.00055,  -0.00048,  -0.00166,260941405.10380,   0.00000,274640135.82653,   0.00000,   0.00000,   0.00000,-213698730.72273,   0.00000
94908793.19662,-63746064.20881,-127893393.04841,   0.00056,  -0.00048,  -0.00166,261134949.23038,   0.00000,274640135.82653,   0.00000,   0.00000,   0.00000,-213505186.59615,   0.00000
95565702.22928,-63464531.76624,-127893393.04841,   0.00056,  -0.00048,  -0.00166,261334541.79669,   0.00000,274640135.82653,   0.00000,   0.00000,   0.00000,-213305594.02984,   0.00000
96209667.24160,-63170055.30333,-127893393.04841,   0.00056,  -0.00048,  -0.00166,261523394.58343,   0.00000,274640135.82653,   0.00000,   0.00000,   0.00000,-213116741.24310,   0.00000
96830980.21830,-62885286.85567,-127893393.04841,   0.00056,  -0.00047,  -0.00166,261706327.69730,   0.00000,274640135.82653,   0.00000,   0.00000,   0.00000,-212933808.12922,   0.00000
97452293.19500,-62600518.40801,-127899865.05859,   0.00057,  -0.00047,  -0.00166,261899722.93607,   0.00000,274640135.82653,   0.00000,   0.00000,   0.00000,-212740412.89046,   0.00000
98073606.17171,-62315749.96036,-127899865.05859,   0.00057,  -0.00047,  -0.00166,262084607.87800,   0.00000,274640135.82653,   0.00000,   0.00000,   0.00000,-212555527.94853,   0.00000
98681975.12806,-62018037.49236,-127912809.07894,   0.00057,  -0.00047,  -0.00166,262277509.14305,   0.00000,274640135.82653,   0.00000,   0.00000,   0.00000,-212362626.68348,   0.00000
99257984.03355,-61752685.07522,-127919281.08911,   0.00057,  -0.00047,  -0.00166,262459551.09444,   0.00000,274640135.82653,   0.00000,   0.00000,   0.00000,-212180584.73209,   0.00000
99843700.95430,-61464680.62248,-127932225.10946,   0.00057,  -0.00047,  -0.00166,262647092.95929,   0.00000,274640135.82653,   0.00000,   0.00000,   0.00000,-211993042.86724,   0.00000
100429417.87504,-61176676.16973,-127945169.12981,   0.00058,  -0.00047,  -0.00166,262835481.94283,   0.00000,274640135.82653,   0.00000,   0.00000,   0.00000,-211804653.88370,   0.00000
100992482.76018,-60898379.73225,-127958113.15015,   0.00058,  -0.00047,  -0.00166,263017506.93852,   0.00000,274640135.82653,   0.00000,   0.00000,   0.00000,-211622628.88801,   0.00000
101555547.64532,-60620083.29477,-127977529.18068,   0.00058,  -0.00047,  -0.00166,263209751.79329,   0.00000,274640135.82653,   0.00000,   0.00000,   0.00000,-211430384.03324,   0.00000
102095960.49485,-60351494.87255,-127996945.21120,   0.00058,  -0.00047,  -0.00166,263395493.25914,   0.00000,274640135.82653,   0.00000,   0.00000,   0.00000,-211244642.56739,   0.00000
102636373.34438,-60082906.45033,-128016361.24172,   0.00058,  -0.00047,  -0.00166,263581939.13007,   0.00000,274640135.82653,   0.00000,   0.00000,   0.00000,-211058196.69646,   0.00000
103186494.20917,-59791665.99250,-128042249.28242,   0.00059,  -0.00047,  -0.00166,263773844.62818,   0.00000,274640135.82653,   0.00000,   0.00000,   0.00000,-210866291.19835,   0.00000
103704255.02309,-59532785.58554,-128068137.32311,   0.00059,  -0.00047,  -0.00166,263963769.55995,   0.00000,274640135.82653,   0.00000,   0.00000,   0.00000,-210676366.26658,   0.00000
104209071.81666,-59260961.15823,-128094025.36381,   0.00059,  -0.00047,  -0.00167,264142309.98699,   0.00000,274640135.82653,   0.00000,   0.00000,   0.00000,-210497825.83954,   0.00000
104713888.61023,-58989136.73092,-128119913.40450,   0.00059,  -0.00047,  -0.00167,264321461.94610,   0.00000,274640135.82653,   0.00000,   0.00000,   0.00000,-210318673.88043,   0.00000
105186345.35293,-58749672.35449,-128152273.45537,   0.00059,  -0.00047,  -0.00167,264507788.45142,   0.00000,274640135.82653,   0.00000,   0.00000,   0.00000,-210132347.37511,   0.00000
105668510.11090,-58487555.94244,-128184633.50624,   0.00059,  -0.00047,  -0.00167,264690048.78732,   0.00000,274640135.82653,   0.00000,   0.00000,   0.00000,-209950087.03921,   0.00000
106160382.88412,-58202787.49478,-128223465.56729,   0.00060,  -0.00047,  -0.00167,264877694.30039,   0.00000,274640135.82653,   0.00000,   0.00000,   0.00000,-209762441.52614,   0.00000
106619895.60648,-57950379.09800,-128255825.61816,   0.00060,  -0.00047,  -0.00167,265053546.21568,   0.00000,274640135.82653,   0.00000,   0.00000,   0.00000,-209586589.61085,   0.00000
107056756.29322,-57707678.71647,-128301129.68938,   0.00060,  -0.00047,  -0.00167,265241138.93998,   0.00000,274640135.82653,   0.00000,   0.00000,   0.00000,-209398996.88655,   0.00000
107525977.03084,-57432618.28408,-128339961.75042,   0.00060,  -0.00047,  -0.00167,265422827.05173,   0.00000,274640135.82653,   0.00000,   0.00000,   0.00000,-209217308.77480,   0.00000
107940185.68197,-57199625.91781,-128385265.82164,   0.00060,  -0.00047,  -0.00167,265603743.52215,   0.00000,274640135.82653,   0.00000,   0.00000,   0.00000,-209036392.30438,   0.00000
108364102.34837,-56943981.51594,-128430569.89286,   0.00060,  -0.00047,  -0.00167,265780573.02742,   0.00000,274640135.82653,   0.00000,   0.00000,   0.00000,-208859562.79911,   0.00000
108788019.01477,-56688337.11407,-128475873.96407,   0.00061,  -0.00047,  -0.00167,265957822.05886,   0.00000,274640135.82653,   0.00000,   0.00000,   0.00000,-208682313.76767,   0.00000
109189283.64555,-56442400.72745,-128527650.04547,   0.00061,  -0.00047,  -0.00167,266137220.32854,   0.00000,274640135.82653,   0.00000,   0.00000,   0.00000,-208502915.49799,   0.00000
109590548.27634,-56196464.34084,-128579426.12686,   0.00061,  -0.00047,  -0.00167,266316989.10051,   0.00000,274640135.82653,   0.00000,   0.00000,   0.00000,-208323146.72602,   0.00000
109969160.87152,-55960235.96949,-128637674.21842,   0.00061,  -0.00047,  -0.00167,266498814.68641,   0.00000,274640135.82653,   0.00000,   0.00000,   0.00000,-208141321.14012,   0.00000
110347773.46670,-55724007.59814,-128695922.30999,   0.00061,  -0.00047,  -0.00167,266680965.86860,   0.00000,274640135.82653,   0.00000,   0.00000,   0.00000,-207959169.95793,   0.00000
110713442.04153,-55474835.20644,-128754170.40156,   0.00061,  -0.00047,  -0.00167,266851349.49937,   0.00000,274640135.82653,   0.00000,   0.00000,   0.00000,-207788786.32716,   0.00000
111069402.60110,-55248314.85035,-128812418.49312,   0.00061,  -0.00047,  -0.00167,267026409.34420,   0.00000,274640135.82653,   0.00000,   0.00000,   0.00000,-207613726.48233,   0.00000
111412419.14032,-55008850.47391,-128877138.59486,   0.00061,  -0.00047,  -0.00168,267199027.75232,   0.00000,274640135.82653,   0.00000,   0.00000,   0.00000,-207441108.07421,   0.00000
111755435.67954,-54769386.09748,-128941858.69660,   0.00062,  -0.00047,  -0.00168,267371929.03341,   0.00000,274640135.82653,   0.00000,   0.00000,   0.00000,-207268206.79312,   0.00000
112066092.16790,-54562281.77191,-129013050.80852,   0.00062,  -0.00047,  -0.00168,267550995.40208,   0.00000,274640135.82653,   0.00000,   0.00000,   0.00000,-207089140.42445,   0.00000
112386456.67151,-54332525.41073,-129084242.92043,   0.00062,  -0.00047,  -0.00168,267725987.31657,   0.00000,274640135.82653,   0.00000,   0.00000,   0.00000,-206914148.50996,   0.00000
112684169.13951,-54112477.06481,-129155435.03234,   0.00062,  -0.00047,  -0.00168,267893413.24875,   0.00000,274640135.82653,   0.00000,   0.00000,   0.00000,-206746722.57778,   0.00000
112981881.60752,-53892428.71890,-129233099.15443,   0.00062,  -0.00047,  -0.00168,268070418.35502,   0.00000,274640135.82653,   0.00000,   0.00000,   0.00000,-206569717.47151,   0.00000
113256942.03991,-53682088.38824,-129310763.27652,   0.00062,  -0.00047,  -0.00168,268239801.67863,   0.00000,274640135.82653,   0.00000,   0.00000,   0.00000,-206400334.14790,   0.00000
113541710.48757,-53449096.02198,-129388427.39861,   0.00062,  -0.00046,  -0.00168,268405147.31729,   0.00000,274640135.82653,   0.00000,   0.00000,   0.00000,-206234988.50924,   0.00000
113794118.88435,-53248463.70659,-129472563.53087,   0.00062,  -0.00046,  -0.00168,268576425.82881,   0.00000,274640135.82653,   0.00000,   0.00000,   0.00000,-206063709.99772,   0.00000
114046527.28114,-53047831.39119,-129556699.66313,   0.00062,  -0.00046,  -0.00168,268747872.61105,   0.00000,274640135.82653,   0.00000,   0.00000,   0.00000,-205892263.21548,   0.00000
114285991.65758,-52834255.05545,-129647307.80557,   0.00062,  -0.00046,  -0.00169,268916780.60808,   0.00000,274640135.82653,   0.00000,   0.00000,   0.00000,-205723355.21844,   0.00000
114525456.03402,-52620678.71971,-129737915.94800,   0.00062,  -0.00046,  -0.00169,269085866.66622,   0.00000,274640135.82653,   0.00000,   0.00000,   0.00000,-205554269.16031,   0.00000
114732560.35958,-52439462.43484,-129828524.09044,   0.00062,  -0.00046,  -0.00169,269251385.17500,   0.00000,274640135.82653,   0.00000,   0.00000,   0.00000,-205388750.65153,   0.00000
114949372.70041,-52235594.11435,-129925604.24305,   0.00062,  -0.00046,  -0.00169,269422256.44245,   0.00000,274640135.82653,   0.00000,   0.00000,   0.00000,-205217879.38408,   0.00000
115166185.04124,-52031725.79387,-130022684.39566,   0.00063,  -0.00046,  -0.00169,269593288.86156,   0.00000,274640135.82653,   0.00000,   0.00000,   0.00000,-205046846.96496,   0.00000
115360345.34646,-51837565.48865,-130119764.54827,   0.00063,  -0.00046,  -0.00169,269756559.34421,   0.00000,274640135.82653,   0.00000,   0.00000,   0.00000,-204883576.48232,   0.00000
115531853.61607,-51653113.19869,-130223316.71105,   0.00063,  -0.00046,  -0.00169,269921414.23320,   0.00000,274640135.82653,   0.00000,   0.00000,   0.00000,-204718721.59333,   0.00000
115703361.88568,-51468660.90874,-130326868.87384,   0.00063,  -0.00046,  -0.00169,270086405.35514,   0.00000,274640135.82653,   0.00000,   0.00000,   0.00000,-204553730.47139,   0.00000
115852218.11969,-51293916.63404,-130436893.04680,   0.00063,  -0.00046,  -0.00170,270252965.84518,   0.00000,274640135.82653,   0.00000,   0.00000,   0.00000,-204387169.98135,   0.00000
116001074.35369,-51119172.35934,-130546917.21975,   0.00063,  -0.00046,  -0.00170,270419656.70863,   0.00000,274640135.82653,   0.00000,   0.00000,   0.00000,-204220479.11790,   0.00000
116127278.55208,-50954136.09990,-130663413.40289,   0.00063,  -0.00046,  -0.00170,270587909.50842,   0.00000,274640135.82653,   0.00000,   0.00000,   0.00000,-204052226.31811,   0.00000
116263190.76574,-50766447.80486,-130773437.57584,   0.00063,  -0.00046,  -0.00170,270742879.65078,   0.00000,274640135.82653,   0.00000,   0.00000,   0.00000,-203897256.17575,   0.00000
116389394.96413,-50601411.54542,-130896405.76915,   0.00063,  -0.00046,  -0.00170,270920779.77603,   0.00000,274640135.82653,   0.00000,   0.00000,   0.00000,-203719356.05050,   0.00000
116502655.14217,-50423431.26563,-131012901.95228,   0.00063,  -0.00046,  -0.00170,271077472.56730,   0.00000,274640135.82653,   0.00000,   0.00000,   0.00000,-203562663.25923,   0.00000
116583555.26935,-50277811.03672,-131135870.14559,   0.00063,  -0.00046,  -0.00170,271239744.35954,   0.00000,274640135.82653,   0.00000,   0.00000,   0.00000,-203400391.46699,   0.00000
116674163.41178,-50109538.77220,-131265310.34907,   0.00063,  -0.00046,  -0.00171,271407553.14123,   0.00000,274640135.82653,   0.00000,   0.00000,   0.00000,-203232582.68530,   0.00000
116732411.50335,-49973626.55854,-131394750.55255,   0.00063,  -0.00046,  -0.00171,271571542.33249,   0.00000,274640135.82653,   0.00000,   0.00000,   0.00000,-203068593.49404,   0.00000
116800367.61018,-49815062.30928,-131524190.75603,   0.00063,  -0.00045,  -0.00171,271731709.88878,   0.00000,274640135.82653,   0.00000,   0.00000,   0.00000,-202908425.93775,   0.00000
116868323.71700,-49656498.06002,-131660102.96968,   0.00063,  -0.00045,  -0.00171,271901439.34871,   0.00000,274640135.82653,   0.00000,   0.00000,   0.00000,-202738696.47782,   0.00000
116890975.75261,-49517349.84127,-131796015.18334,   0.00063,  -0.00045,  -0.00171,272055450.85874,   0.00000,274640135.82653,   0.00000,   0.00000,   0.00000,-202584684.96779,   0.00000
116926571.80857,-49391145.64288,-131938399.40716,   0.00063,  -0.00045,  -0.00172,272230912.12225,   0.00000,274640135.82653,   0.00000,   0.00000,   0.00000,-202409223.70428,   0.00000
116949223.84418,-49251997.42414,-132080783.63099,   0.00063,  -0.00045,  -0.00172,272394682.93871,   0.00000,274640135.82653,   0.00000,   0.00000,   0.00000,-202245452.88781,   0.00000
116949223.84418,-49122557.22066,-132223167.85482,   0.00063,  -0.00045,  -0.00172,272550710.65499,   0.00000,274640135.82653,   0.00000,   0.00000,   0.00000,-202089425.17154,   0.00000
116949223.84418,-48993117.01718,-132372024.08882,   0.00063,  -0.00045,  -0.00172,272716357.71584,   0.00000,274640135.82653,   0.00000,   0.00000,   0.00000,-201923778.11069,   0.00000
116926571.80857,-48873384.82896,-132520880.32282,   0.00063,  -0.00045,  -0.00172,272874292.38550,   0.00000,274640135.82653,   0.00000,   0.00000,   0.00000,-201765843.44103,   0.00000
116903919.77296,-48753652.64074,-132676208.56700,   0.00063,  -0.00045,  -0.00172,273041878.03374,   0.00000,274640135.82653,   0.00000,   0.00000,   0.00000,-201598257.79279,   0.00000
116881267.73735,-48633920.45252,-132831536.81118,   0.00063,  -0.00045,  -0.00173,273209690.08960,   0.00000,274640135.82653,   0.00000,   0.00000,   0.00000,-201430445.73692,   0.00000
116845671.68140,-48501244.24396,-132993337.06553,   0.00063,  -0.00045,  -0.00173,273375429.13808,   0.00000,274640135.82653,   0.00000,   0.00000,   0.00000,-201264706.68845,   0.00000
116777715.57457,-48400928.08626,-133155137.31988,   0.00063,  -0.00045,  -0.00173,273537394.68682,   0.00000,274640135.82653,   0.00000,   0.00000,   0.00000,-201102741.13971,   0.00000
116709759.46774,-48300611.92856,-133323409.58440,   0.00063,  -0.00045,  -0.00173,273709087.34941,   0.00000,274640135.82653,   0.00000,   0.00000,   0.00000,-200931048.47712,   0.00000
116619151.32531,-48210003.78613,-133491681.84892,   0.00062,  -0.00045,  -0.00174,273873196.96601,   0.00000,274640135.82653,   0.00000,   0.00000,   0.00000,-200766938.86052,   0.00000
116538251.19813,-48096743.60808,-133659954.11345,   0.00062,  -0.00045,  -0.00174,274033795.59328,   0.00000,274640135.82653,   0.00000,   0.00000,   0.00000,-200606340.23325,   0.00000
116447643.05569,-48006135.46565,-133834698.38815,   0.00062,  -0.00045,  -0.00174,274207992.99199,   0.00000,274640135.82653,   0.00000,   0.00000,   0.00000,-200432142.83454,   0.00000
116334382.87765,-47925235.33847,-134009442.66284,   0.00062,  -0.00044,  -0.00174,274374673.88146,   0.00000,274640135.82653,   0.00000,   0.00000,   0.00000,-200265461.94507,   0.00000
116208178.67926,-47831391.19095,-134190658.94772,   0.00062,  -0.00044,  -0.00174,274539579.06953,   0.00000,274640135.82653,   0.00000,   0.00000,   0.00000,-200100556.75700,   0.00000
116072266.46560,-47760199.07903,-134371875.23259,   0.00062,  -0.00044,  -0.00175,274708654.34684,   0.00000,274640135.82653,   0.00000,   0.00000,   0.00000,-199931481.47969,   0.00000
115913702.21634,-47698714.98238,-134559563.52763,   0.00062,  -0.00044,  -0.00175,274879822.51755,   0.00000,274640135.82653,   0.00000,   0.00000,   0.00000,-199760313.30898,   0.00000
115764845.98234,-47614578.85012,-134747251.82268,   0.00062,  -0.00044,  -0.00175,275047646.22294,   0.00000,274640135.82653,   0.00000,   0.00000,   0.00000,-199592489.60359,   0.00000
115606281.73307,-47553094.75347,-134941412.12790,   0.00062,  -0.00044,  -0.00175,275229176.84603,   0.00000,274640135.82653,   0.00000,   0.00000,   0.00000,-199410958.98050,   0.00000
115434773.46346,-47478666.63646,-135135572.43312,   0.00062,  -0.00044,  -0.00176,275399652.59264,   0.00000,274640135.82653,   0.00000,   0.00000,   0.00000,-199240483.23389,   0.00000
115230905.14298,-47436598.57033,-135329732.73834,   0.00062,  -0.00044,  -0.00176,275566624.00089,   0.00000,274640135.82653,   0.00000,   0.00000,   0.00000,-199073511.82564,   0.00000
115027036.82250,-47394530.50420,-135530365.05373,   0.00062,  -0.00044,  -0.00176,275743635.79631,   0.00000,274640135.82653,   0.00000,   0.00000,   0.00000,-198896500.03022,   0.00000
114810224.48167,-47339518.41772,-135737469.37930,   0.00061,  -0.00044,  -0.00176,275919300.09776,   0.00000,274640135.82653,   0.00000,   0.00000,   0.00000,-198720835.72877,   0.00000
114583704.12558,-47307158.36685,-135944573.70487,   0.00061,  -0.00044,  -0.00177,276099263.45539,   0.00000,274640135.82653,   0.00000,   0.00000,   0.00000,-198540872.37113,   0.00000
114366891.78475,-47252146.28037,-136151678.03044,   0.00061,  -0.00044,  -0.00177,276276076.88029,   0.00000,274640135.82653,   0.00000,   0.00000,   0.00000,-198364058.94624,   0.00000
114117719.39305,-47229494.24477,-136365254.36618,   0.00061,  -0.00044,  -0.00177,276459127.12813,   0.00000,274640135.82653,   0.00000,   0.00000,   0.00000,-198181008.69840,   0.00000
113855602.98101,-47193898.18881,-136585302.71210,   0.00061,  -0.00044,  -0.00178,276641079.45603,   0.00000,274640135.82653,   0.00000,   0.00000,   0.00000,-197999056.37049,   0.00000
113583778.55370,-47180954.16846,-136805351.05801,   0.00061,  -0.00044,  -0.00178,276827420.01349,   0.00000,274640135.82653,   0.00000,   0.00000,   0.00000,-197812715.81304,   0.00000
113321662.14165,-47145358.11250,-137025399.40393,   0.00061,  -0.00044,  -0.00178,277010747.97035,   0.00000,274640135.82653,   0.00000,   0.00000,   0.00000,-197629387.85618,   0.00000
113027185.67874,-47142122.10742,-137251919.76002,   0.00061,  -0.00043,  -0.00178,277200530.66580,   0.00000,274640135.82653,   0.00000,   0.00000,   0.00000,-197439605.16073,   0.00000
112719765.19547,-47125942.08198,-137478440.11611,   0.00060,  -0.00043,  -0.00179,277379864.98520,   0.00000,274640135.82653,   0.00000,   0.00000,   0.00000,-197260270.84133,   0.00000
112402636.69694,-47132414.09216,-137711432.48237,   0.00060,  -0.00043,  -0.00179,277573306.93255,   0.00000,274640135.82653,   0.00000,   0.00000,   0.00000,-197066828.89398,   0.00000
112085508.19842,-47138886.10233,-137950896.85881,   0.00060,  -0.00043,  -0.00179,277777197.71105,   0.00000,274640135.82653,   0.00000,   0.00000,   0.00000,-196862938.11548,   0.00000
111755435.67954,-47132414.09216,-138190361.23525,   0.00060,  -0.00043,  -0.00180,277970813.48329,   0.00000,274640135.82653,   0.00000,   0.00000,   0.00000,-196669322.34324,   0.00000
111393003.10980,-47158302.13285,-138429825.61169,   0.00060,  -0.00043,  -0.00180,278161574.18784,   0.00000,274640135.82653,   0.00000,   0.00000,   0.00000,-196478561.63869,   0.00000
111030570.54006,-47184190.17355,-138675761.99830,   0.00060,  -0.00043,  -0.00180,278362935.48109,   0.00000,274640135.82653,   0.00000,   0.00000,   0.00000,-196277200.34544,   0.00000
110677845.98557,-47187426.17863,-138921698.38491,   0.00060,  -0.00043,  -0.00181,278561584.42052,   0.00000,274640135.82653,   0.00000,   0.00000,   0.00000,-196078551.40601,   0.00000
110292761.38022,-47223022.23459,-139174106.78170,   0.00059,  -0.00043,  -0.00181,278767215.71997,   0.00000,274640135.82653,   0.00000,   0.00000,   0.00000,-195872920.10656,   0.00000
109885024.73926,-47268326.30581,-139426515.17848,   0.00059,  -0.00043,  -0.00181,278966582.12704,   0.00000,274640135.82653,   0.00000,   0.00000,   0.00000,-195673553.69949,   0.00000
109477288.09830,-47313630.37703,-139685395.58544,   0.00059,  -0.00043,  -0.00182,279176742.21209,   0.00000,274640135.82653,   0.00000,   0.00000,   0.00000,-195463393.61444,   0.00000
109079259.47260,-47336282.41264,-139950748.00258,   0.00059,  -0.00043,  -0.00182,279394077.80219,   0.00000,274640135.82653,   0.00000,   0.00000,   0.00000,-195246058.02434,   0.00000
108648870.79602,-47391294.49912,-140216100.41971,   0.00059,  -0.00043,  -0.00182,279608989.48920,   0.00000,274640135.82653,   0.00000,   0.00000,   0.00000,-195031146.33732,   0.00000
108195830.08384,-47456014.60086,-140481452.83684,   0.00058,  -0.00043,  -0.00183,279817922.29053,   0.00000,274640135.82653,   0.00000,   0.00000,   0.00000,-194822213.53600,   0.00000
107765441.40727,-47511026.68733,-140753277.26415,   0.00058,  -0.00043,  -0.00183,280044978.46428,   0.00000,274640135.82653,   0.00000,   0.00000,   0.00000,-194595157.36225,   0.00000
107289748.65948,-47585454.80434,-141031573.70163,   0.00058,  -0.00043,  -0.00183,280268820.07179,   0.00000,274640135.82653,   0.00000,   0.00000,   0.00000,-194371315.75474,   0.00000
106814055.91170,-47659882.92134,-141309870.13912,   0.00058,  -0.00043,  -0.00184,280494011.65745,   0.00000,274640135.82653,   0.00000,   0.00000,   0.00000,-194146124.16908,   0.00000
106338363.16391,-47734311.03834,-141588166.57660,   0.00058,  -0.00042,  -0.00184,280720549.97243,   0.00000,274640135.82653,   0.00000,   0.00000,   0.00000,-193919585.85410,   0.00000
105840018.38051,-47818447.17060,-141872935.02425,   0.00057,  -0.00042,  -0.00184,280951255.17649,   0.00000,274640135.82653,   0.00000,   0.00000,   0.00000,-193688880.65004,   0.00000
105341673.59711,-47902583.30286,-142164175.48208,   0.00057,  -0.00042,  -0.00185,281193211.77720,   0.00000,274640135.82653,   0.00000,   0.00000,   0.00000,-193446924.04933,   0.00000
104810968.76284,-48019079.48599,-142455415.93991,   0.00057,  -0.00042,  -0.00185,281433356.23120,   0.00000,274640135.82653,   0.00000,   0.00000,   0.00000,-193206779.59533,   0.00000
104289971.94384,-48112923.63352,-142746656.39774,   0.00057,  -0.00042,  -0.00186,281671388.07961,   0.00000,274640135.82653,   0.00000,   0.00000,   0.00000,-192968747.74692,   0.00000
103746323.08922,-48216475.79630,-143050840.87592,   0.00057,  -0.00042,  -0.00186,281923818.42416,   0.00000,274640135.82653,   0.00000,   0.00000,   0.00000,-192716317.40237,   0.00000
103192966.21934,-48342679.99469,-143348553.34393,   0.00056,  -0.00042,  -0.00186,282171668.96634,   0.00000,274640135.82653,   0.00000,   0.00000,   0.00000,-192468466.86019,   0.00000
102626665.32912,-48455940.17274,-143659209.83228,   0.00056,  -0.00042,  -0.00187,282430500.90034,   0.00000,274640135.82653,   0.00000,   0.00000,   0.00000,-192209634.92619,   0.00000
102050656.42363,-48591852.38639,-143963394.31046,   0.00056,  -0.00042,  -0.00187,282684827.55866,   0.00000,274640135.82653,   0.00000,   0.00000,   0.00000,-191955308.26787,   0.00000
101451995.48254,-48737472.61531,-144280522.80898,   0.00056,  -0.00042,  -0.00188,282954007.32630,   0.00000,274640135.82653,   0.00000,   0.00000,   0.00000,-191686128.50023,   0.00000
100863042.55670,-48860440.80861,-144597651.30751,   0.00055,  -0.00042,  -0.00188,283221381.68113,   0.00000,274640135.82653,   0.00000,   0.00000,   0.00000,-191418754.14540,   0.00000
100264381.61561,-49006061.03753,-144914779.80603,   0.00055,  -0.00042,  -0.00188,283494237.79543,   0.00000,274640135.82653,   0.00000,   0.00000,   0.00000,-191145898.03110,   0.00000
99620416.60329,-49171097.29697,-145238380.31473,   0.00055,  -0.00042,  -0.00189,283765802.66217,   0.00000,274640135.82653,   0.00000,   0.00000,   0.00000,-190874333.16435,   0.00000
98999103.62659,-49326425.54114,-145561980.82343,   0.00055,  -0.00042,  -0.00189,284045879.16908,   0.00000,274640135.82653,   0.00000,   0.00000,   0.00000,-190594256.65745,   0.00000
98355138.61428,-49491461.80058,-145892053.34231,   0.00054,  -0.00042,  -0.00190,284331411.12778,   0.00000,274640135.82653,   0.00000,   0.00000,   0.00000,-190308724.69875,   0.00000
97688521.56636,-49666206.07528,-146228597.87136,   0.00054,  -0.00042,  -0.00190,284622567.65988,   0.00000,274640135.82653,   0.00000,   0.00000,   0.00000,-190017568.16665,   0.00000
97021904.51843,-49840950.34997,-146565142.40040,   0.00054,  -0.00042,  -0.00191,284915877.25974,   0.00000,274640135.82653,   0.00000,   0.00000,   0.00000,-189724258.56679,   0.00000
96345579.45525,-50038346.66028,-146908158.93963,   0.00054,  -0.00042,  -0.00191,285225002.07752,   0.00000,274640135.82653,   0.00000,   0.00000,   0.00000,-189415133.74901,   0.00000
95656310.37172,-50222798.95024,-147251175.47885,   0.00053,  -0.00042,  -0.00191,285526378.69758,   0.00000,274640135.82653,   0.00000,   0.00000,   0.00000,-189113757.12895,   0.00000
94957333.27293,-50429903.27581,-147600664.02824,   0.00053,  -0.00041,  -0.00192,285843711.63930,   0.00000,274640135.82653,   0.00000,   0.00000,   0.00000,-188796424.18723,   0.00000
94245412.15379,-50624063.58103,-147950152.57764,   0.00053,  -0.00041,  -0.00192,286153494.13528,   0.00000,274640135.82653,   0.00000,   0.00000,   0.00000,-188486641.69125,   0.00000
93501130.98378,-50850583.93712,-148306113.13721,   0.00052,  -0.00041,  -0.00193,286473279.85852,   0.00000,274640135.82653,   0.00000,   0.00000,   0.00000,-188166855.96801,   0.00000
92779501.84938,-51067396.27795,-148668545.70695,   0.00052,  -0.00041,  -0.00193,286811666.36192,   0.00000,274640135.82653,   0.00000,   0.00000,   0.00000,-187828469.46461,   0.00000
92012568.64376,-51303624.64930,-149030978.27670,   0.00052,  -0.00041,  -0.00194,287140471.60514,   0.00000,274640135.82653,   0.00000,   0.00000,   0.00000,-187499664.22139,   0.00000
91268287.47375,-51530145.00539,-149399882.85662,   0.00052,  -0.00041,  -0.00194,287487911.43854,   0.00000,274640135.82653,   0.00000,   0.00000,   0.00000,-187152224.38799,   0.00000
90501354.26813,-51766373.37674,-149768787.43653,   0.00051,  -0.00041,  -0.00195,287831979.64041,   0.00000,274640135.82653,   0.00000,   0.00000,   0.00000,-186808156.18612,   0.00000
89702061.01164,-52034961.79896,-150144164.02663,   0.00051,  -0.00041,  -0.00195,288186658.76641,   0.00000,274640135.82653,   0.00000,   0.00000,   0.00000,-186453477.06012,   0.00000
88912475.77041,-52280898.18557,-150519540.61672,   0.00051,  -0.00041,  -0.00196,288540362.99675,   0.00000,274640135.82653,   0.00000,   0.00000,   0.00000,-186099772.82978,   0.00000
88090530.47831,-52559194.62305,-150901389.21698,   0.00050,  -0.00041,  -0.00196,288904942.21816,   0.00000,274640135.82653,   0.00000,   0.00000,   0.00000,-185735193.60837,   0.00000
87278293.20148,-52814839.02493,-151283237.81725,   0.00050,  -0.00041,  -0.00197,289268648.18817,   0.00000,274640135.82653,   0.00000,   0.00000,   0.00000,-185371487.63836,   0.00000
86456347.90938,-53093135.46241,-151671558.42769,   0.00050,  -0.00041,  -0.00197,289649106.03323,   0.00000,274640135.82653,   0.00000,   0.00000,   0.00000,-184991029.79330,   0.00000
85611750.58167,-53381139.91515,-152066351.04830,   0.00049,  -0.00041,  -0.00198,290037059.93531,   0.00000,274640135.82653,   0.00000,   0.00000,   0.00000,-184603075.89122,   0.00000
84744501.21836,-53678852.38316,-152461143.66892,   0.00049,  -0.00041,  -0.00198,290422516.75379,   0.00000,274640135.82653,   0.00000,   0.00000,   0.00000,-184217619.07273,   0.00000
83890195.87539,-53989508.87151,-152862408.29971,   0.00049,  -0.00041,  -0.00199,290830483.47827,   0.00000,274640135.82653,   0.00000,   0.00000,   0.00000,-183809652.34826,   0.00000
83000294.47646,-54296929.35477,-153270144.94067,   0.00048,  -0.00041,  -0.00199,291237151.71068,   0.00000,274640135.82653,   0.00000,   0.00000,   0.00000,-183402984.11585,   0.00000
82110393.07754,-54604349.83804,-153677881.58163,   0.00048,  -0.00041,  -0.00200,291647064.38396,   0.00000,274640135.82653,   0.00000,   0.00000,   0.00000,-182993071.44257,   0.00000
81210783.66335,-54934422.35691,-154085618.22259,   0.00048,  -0.00041,  -0.00200,292064004.73478,   0.00000,274640135.82653,   0.00000,   0.00000,   0.00000,-182576131.09175,   0.00000
80311174.24917,-55264494.87579,-154499826.87373,   0.00047,  -0.00041,  -0.00201,292494436.00341,   0.00000,274640135.82653,   0.00000,   0.00000,   0.00000,-182145699.82312,   0.00000
79388912.79937,-55604275.40992,-154920507.53504,   0.00047,  -0.00041,  -0.00201,292933249.82982,   0.00000,274640135.82653,   0.00000,   0.00000,   0.00000,-181706885.99671,   0.00000
78443999.31397,-55953763.95932,-155341188.19635,   0.00047,  -0.00041,  -0.00202,293370373.42237,   0.00000,274640135.82653,   0.00000,   0.00000,   0.00000,-181269762.40416,   0.00000
77489377.81330,-56325904.54432,-155768340.86783,   0.00046,  -0.00041,  -0.00202,293825115.57845,   0.00000,274640135.82653,   0.00000,   0.00000,   0.00000,-180815020.24808,   0.00000
76544464.32790,-56675393.09372,-156201965.54949,   0.00046,  -0.00041,  -0.00203,294289831.51152,   0.00000,274640135.82653,   0.00000,   0.00000,   0.00000,-180350304.31501,   0.00000
75567190.79162,-57057241.69398,-156635590.23115,   0.00046,  -0.00041,  -0.00204,294757033.85021,   0.00000,274640135.82653,   0.00000,   0.00000,   0.00000,-179883101.97631,   0.00000
74567265.21974,-57448798.30951,-157075686.92298,   0.00045,  -0.00041,  -0.00204,295233391.60169,   0.00000,274640135.82653,   0.00000,   0.00000,   0.00000,-179406744.22484,   0.00000
73589991.68347,-57830646.90978,-157515783.61481,   0.00045,  -0.00041,  -0.00205,295718267.42100,   0.00000,274640135.82653,   0.00000,   0.00000,   0.00000,-178921868.40552,   0.00000
72567414.07597,-58231911.54057,-157962352.31682,   0.00044,  -0.00041,  -0.00205,296207762.54671,   0.00000,274640135.82653,   0.00000,   0.00000,   0.00000,-178432373.27982,   0.00000
71567488.50409,-58623468.15609,-158408921.01882,   0.00044,  -0.00041,  -0.00206,296705762.64678,   0.00000,274640135.82653,   0.00000,   0.00000,   0.00000,-177934373.17975,   0.00000
70535202.88134,-59047384.82249,-158861961.73100,   0.00044,  -0.00041,  -0.00207,297217254.58496,   0.00000,274640135.82653,   0.00000,   0.00000,   0.00000,-177422881.24157,   0.00000
69480265.22298,-59481009.50415,-159321474.45336,   0.00043,  -0.00041,  -0.00207,297738561.03827,   0.00000,274640135.82653,   0.00000,   0.00000,   0.00000,-176901574.78826,   0.00000
68425327.56461,-59914634.18581,-159780987.17571,   0.00043,  -0.00041,  -0.00208,298263908.14270,   0.00000,274640135.82653,   0.00000,   0.00000,   0.00000,-176376227.68383,   0.00000
67370389.90625,-60348258.86746,-160246971.90824,   0.00042,  -0.00041,  -0.00208,298803687.27946,   0.00000,274640135.82653,   0.00000,   0.00000,   0.00000,-175836448.54707,   0.00000
66292800.21228,-60791591.56438,-160719428.65094,   0.00042,  -0.00041,  -0.00209,299353640.42673,   0.00000,274640135.82653,   0.00000,   0.00000,   0.00000,-175286495.39980,   0.00000
65205502.50305,-61257576.29691,-161191885.39364,   0.00042,  -0.00041,  -0.00210,299911738.69203,   0.00000,274640135.82653,   0.00000,   0.00000,   0.00000,-174728397.13450,   0.00000
64095552.75821,-61733269.04470,-161670814.14652,   0.00041,  -0.00041,  -0.00210,300480316.88234,   0.00000,274640135.82653,   0.00000,   0.00000,   0.00000,-174159818.94419,   0.00000
62985603.01337,-62208961.79249,-162149742.89940,   0.00041,  -0.00041,  -0.00211,301053197.04765,   0.00000,274640135.82653,   0.00000,   0.00000,   0.00000,-173586938.77888,   0.00000
61853001.23292,-62694362.55554,-162635143.66245,   0.00040,  -0.00041,  -0.00211,301636836.61735,   0.00000,274640135.82653,   0.00000,   0.00000,   0.00000,-173003299.20918,   0.00000
60720399.45247,-63179763.31859,-163127016.43567,   0.00040,  -0.00041,  -0.00212,302235372.42071,   0.00000,274640135.82653,   0.00000,   0.00000,   0.00000,-172404763.40582,   0.00000
59578089.65676,-63687816.11725,-163618889.20889,   0.00040,  -0.00041,  -0.00213,302842381.15803,   0.00000,274640135.82653,   0.00000,   0.00000,   0.00000,-171797754.66850,   0.00000
58413127.82544,-64205576.93117,-164117233.99229,   0.00039,  -0.00041,  -0.00213,303460537.24272,   0.00000,274640135.82653,   0.00000,   0.00000,   0.00000,-171179598.58380,   0.00000
57248165.99412,-64723337.74509,-164615578.77569,   0.00039,  -0.00041,  -0.00214,304083247.92472,   0.00000,274640135.82653,   0.00000,   0.00000,   0.00000,-170556887.90181,   0.00000
56060552.12719,-65250806.57427,-165120395.56926,   0.00038,  -0.00041,  -0.00215,304717384.81016,   0.00000,274640135.82653,   0.00000,   0.00000,   0.00000,-169922751.01637,   0.00000
54863230.24500,-65800927.43906,-165631684.37301,   0.00038,  -0.00041,  -0.00215,305370843.60151,   0.00000,274640135.82653,   0.00000,   0.00000,   0.00000,-169269292.22502,   0.00000
53643256.32720,-66360756.31911,-166142973.17675,   0.00037,  -0.00041,  -0.00216,306025519.52077,   0.00000,274640135.82653,   0.00000,   0.00000,   0.00000,-168614616.30576,   0.00000
52423282.40940,-66920585.19916,-166660733.99067,   0.00037,  -0.00041,  -0.00217,306695553.86703,   0.00000,274640135.82653,   0.00000,   0.00000,   0.00000,-167944581.95950,   0.00000
51203308.49160,-67480414.07921,-167178494.80459,   0.00036,  -0.00041,  -0.00217,307370383.93348,   0.00000,274640135.82653,   0.00000,   0.00000,   0.00000,-167269751.89305,   0.00000
49950974.52293,-68072603.01013,-167702727.62869,   0.00036,  -0.00041,  -0.00218,308061498.01191,   0.00000,274640135.82653,   0.00000,   0.00000,   0.00000,-166578637.81462,   0.00000
48698640.55426,-68664791.94105,-168233432.46296,   0.00036,  -0.00041,  -0.00219,308768127.66284,   0.00000,274640135.82653,   0.00000,   0.00000,   0.00000,-165872008.16369,   0.00000
47423654.54998,-69266688.88724,-168764137.29722,   0.00035,  -0.00041,  -0.00219,309476588.51505,   0.00000,274640135.82653,   0.00000,   0.00000,   0.00000,-165163547.31148,   0.00000
46148668.54571,-69868585.83342,-169301314.14167,   0.00035,  -0.00041,  -0.00220,310200686.67650,   0.00000,274640135.82653,   0.00000,   0.00000,   0.00000,-164439449.15003,   0.00000
44863974.52617,-70493134.81521,-169844962.99628,   0.00034,  -0.00041,  -0.00221,310944681.31262,   0.00000,274640135.82653,   0.00000,   0.00000,   0.00000,-163695454.51391,   0.00000
43556628.47102,-71127391.81226,-170388611.85090,   0.00034,  -0.00041,  -0.00222,311690860.10739,   0.00000,274640135.82653,   0.00000,   0.00000,   0.00000,-162949275.71914,   0.00000
42249282.41587,-71761648.80931,-170938732.71569,   0.00033,  -0.00041,  -0.00222,312452820.91701,   0.00000,274640135.82653,   0.00000,   0.00000,   0.00000,-162187314.90952,   0.00000
40919284.32511,-72405613.82163,-171495325.59065,   0.00033,  -0.00041,  -0.00223,313227851.15567,   0.00000,274640135.82653,   0.00000,   0.00000,   0.00000,-161412284.67086,   0.00000
39579578.21910,-73072230.86955,-172051918.46562,   0.00032,  -0.00041,  -0.00224,314012499.68225,   0.00000,274640135.82653,   0.00000,   0.00000,   0.00000,-160627636.14428,   0.00000
38239872.11308,-73738847.91747,-172608511.34058,   0.00032,  -0.00041,  -0.00224,314802420.87249,   0.00000,274640135.82653,   0.00000,   0.00000,   0.00000,-159837714.95403,   0.00000
36877513.97145,-74415172.98065,-173178048.23589,   0.00031,  -0.00041,  -0.00225,315616420.29545,   0.00000,274640135.82653,   0.00000,   0.00000,   0.00000,-159023715.53108,   0.00000
35505447.81456,-75114150.07944,-173747585.13120,   0.00031,  -0.00041,  -0.00226,316440205.91452,   0.00000,274640135.82653,   0.00000,   0.00000,   0.00000,-158199929.91201,   0.00000
34110729.62207,-75822835.19350,-174317122.02652,   0.00030,  -0.00041,  -0.00227,317267069.73371,   0.00000,274640135.82653,   0.00000,   0.00000,   0.00000,-157373066.09282,   0.00000
32716011.42957,-76531520.30755,-174899602.94218,   0.00030,  -0.00041,  -0.00227,318120779.61922,   0.00000,274640135.82653,   0.00000,   0.00000,   0.00000,-156519356.20731,   0.00000
31298641.20146,-77249913.43686,-175482083.85784,   0.00029,  -0.00041,  -0.00228,318977830.97863,   0.00000,274640135.82653,   0.00000,   0.00000,   0.00000,-155662304.84790,   0.00000
29894214.99371,-77981250.58653,-176064564.77350,   0.00029,  -0.00041,  -0.00229,319847027.04618,   0.00000,274640135.82653,   0.00000,   0.00000,   0.00000,-154793108.78035,   0.00000
28444484.71473,-78732003.76671,-176653517.69933,   0.00028,  -0.00041,  -0.00230,320728396.54785,   0.00000,274640135.82653,   0.00000,   0.00000,   0.00000,-153911739.27868,   0.00000
27007698.45610,-79495700.96724,-177248942.63534,   0.00028,  -0.00041,  -0.00230,321632618.31550,   0.00000,274640135.82653,   0.00000,   0.00000,   0.00000,-153007517.51103,   0.00000
25548260.16186,-80269106.18304,-177850839.58152,   0.00027,  -0.00042,  -0.00231,322551302.01567,   0.00000,274640135.82653,   0.00000,   0.00000,   0.00000,-152088833.81086,   0.00000
24066169.83202,-81052219.41409,-178452736.52770,   0.00027,  -0.00042,  -0.00232,323473950.73281,   0.00000,274640135.82653,   0.00000,   0.00000,   0.00000,-151166185.09372,   0.00000
22584079.50217,-81835332.64514,-179054633.47388,   0.00026,  -0.00042,  -0.00233,324402409.48558,   0.00000,274640135.82653,   0.00000,   0.00000,   0.00000,-150237726.34095,   0.00000
21092281.15707,-82641097.91181,-179669474.44041,   0.00026,  -0.00042,  -0.00234,325362697.30540,   0.00000,274640135.82653,   0.00000,   0.00000,   0.00000,-149277438.52113,   0.00000
19600482.81196,-83446863.17847,-180284315.40694,   0.00025,  -0.00042,  -0.00234,326328760.38358,   0.00000,274640135.82653,   0.00000,   0.00000,   0.00000,-148311375.44295,   0.00000
18086032.43124,-84262336.46039,-180899156.37347,   0.00025,  -0.00042,  -0.00235,327299146.95081,   0.00000,274640135.82653,   0.00000,   0.00000,   0.00000,-147340988.87572,   0.00000
16539221.99966,-85110169.79319,-181520469.35018,   0.00024,  -0.00042,  -0.00236,328289483.89880,   0.00000,274640135.82653,   0.00000,   0.00000,   0.00000,-146350651.92772,   0.00000
14992411.56807,-85958003.12598,-182148254.33706,   0.00024,  -0.00042,  -0.00237,329296565.63739,   0.00000,274640135.82653,   0.00000,   0.00000,   0.00000,-145343570.18914,   0.00000
13435893.12122,-86828488.49438,-182782511.33411,   0.00023,  -0.00042,  -0.00238,330325093.32214,   0.00000,274640135.82653,   0.00000,   0.00000,   0.00000,-144315042.50439,   0.00000
11879374.67438,-87698973.86279,-183416768.33116,   0.00023,  -0.00042,  -0.00238,331359579.97839,   0.00000,274640135.82653,   0.00000,   0.00000,   0.00000,-143280555.84814,   0.00000
10300204.19192,-88579167.24645,-184057497.33839,   0.00022,  -0.00042,  -0.00239,332409737.47119,   0.00000,274640135.82653,   0.00000,   0.00000,   0.00000,-142230398.35533,   0.00000
8721033.70946,-89459360.63012,-184698226.34561,   0.00021,  -0.00042,  -0.00240,333465914.56795,   0.00000,274640135.82653,   0.00000,   0.00000,   0.00000,-141174221.25858,   0.00000
7109503.17614,-90371914.06465,-185345427.36301,   0.00021,  -0.00043,  -0.00241,334542836.76434,   0.00000,274640135.82653,   0.00000,   0.00000,   0.00000,-140097299.06219,   0.00000
5488264.62755,-91307119.53479,-185999100.39059,   0.00020,  -0.00043,  -0.00242,335641512.32985,   0.00000,274640135.82653,   0.00000,   0.00000,   0.00000,-138998623.49668,   0.00000
3876734.09423,-92219672.96933,-186652773.41816,   0.00020,  -0.00043,  -0.00243,336741416.77887,   0.00000,274640135.82653,   0.00000,   0.00000,   0.00000,-137898719.04766,   0.00000
2223135.49477,-93187238.49034,-187312918.45591,   0.00019,  -0.00043,  -0.00244,337867370.23252,   0.00000,274640135.82653,   0.00000,   0.00000,   0.00000,-136772765.59401,   0.00000
579244.91057,-94132151.97574,-187979535.50383,   0.00019,  -0.00043,  -0.00244,339005369.33050,   0.00000,274640135.82653,   0.00000,   0.00000,   0.00000,-135634766.49603,   0.00000
-1097005.72449,-95109425.51202,-188646152.55175,   0.00018,  -0.00043,  -0.00245,340154058.15054,   0.00000,274640135.82653,   0.00000,   0.00000,   0.00000,-134486077.67599,   0.00000
-2750604.32395,-96076991.03303,-189319241.60985,   0.00017,  -0.00043,  -0.00246,341320098.98968,   0.00000,274640135.82653,   0.00000,   0.00000,   0.00000,-133320036.83685,   0.00000
-4459215.00989,-97086624.62017,-189998802.67812,   0.00017,  -0.00043,  -0.00247,342507521.38053,   0.00000,274640135.82653,   0.00000,   0.00000,   0.00000,-132132614.44600,   0.00000
-6145173.66021,-98086550.19206,-190678363.74639,   0.00016,  -0.00043,  -0.00248,343701455.92684,   0.00000,274640135.82653,   0.00000,   0.00000,   0.00000,-130938679.89969,   0.00000
-7853784.34615,-99096183.77920,-191364396.82483,   0.00016,  -0.00044,  -0.00249,344912239.02266,   0.00000,274640135.82653,   0.00000,   0.00000,   0.00000,-129727896.80387,   0.00000
-9594755.08296,-100138177.41722,-192050429.90328,   0.00015,  -0.00044,  -0.00250,346134389.35314,   0.00000,274640135.82653,   0.00000,   0.00000,   0.00000,-128505746.47339,   0.00000
-11322781.79941,-101193115.07558,-192742934.99189,   0.00015,  -0.00044,  -0.00251,347378728.95824,   0.00000,274640135.82653,   0.00000,   0.00000,   0.00000,-127261406.86829,   0.00000
-13063752.53622,-102235108.71359,-193441912.09069,   0.00014,  -0.00044,  -0.00251,348635088.57136,   0.00000,274640135.82653,   0.00000,   0.00000,   0.00000,-126005047.25517,   0.00000
-14846791.33916,-103332114.43808,-194140889.18948,   0.00013,  -0.00044,  -0.00252,349908355.58966,   0.00000,274640135.82653,   0.00000,   0.00000,   0.00000,-124731780.23687,   0.00000
-16597470.09122,-104396760.11171,-194846338.29844,   0.00013,  -0.00044,  -0.00253,351193285.92188,   0.00000,274640135.82653,   0.00000,   0.00000,   0.00000,-123446849.90464,   0.00000
-18380508.89416,-105493765.83620,-195558259.41758,   0.00012,  -0.00044,  -0.00254,352500846.97144,   0.00000,274640135.82653,   0.00000,   0.00000,   0.00000,-122139288.85509,   0.00000
-20195907.74797,-106623131.61156,-196270180.53672,   0.00012,  -0.00045,  -0.00255,353820529.72990,   0.00000,274640135.82653,   0.00000,   0.00000,   0.00000,-120819606.09663,   0.00000
-22011306.60177,-107752497.38693,-196988573.66604,   0.00011,  -0.00045,  -0.00256,355157457.36122,   0.00000,274640135.82653,   0.00000,   0.00000,   0.00000,-119482678.46531,   0.00000
-23826705.45558,-108881863.16229,-197713438.80553,   0.00010,  -0.00045,  -0.00257,356511553.23279,   0.00000,274640135.82653,   0.00000,   0.00000,   0.00000,-118128582.59374,   0.00000
-25651812.32465,-110033880.97326,-198438303.94501,   0.00010,  -0.00045,  -0.00258,357877330.08842,   0.00000,274640135.82653,   0.00000,   0.00000,   0.00000,-116762805.73811,   0.00000
-27499571.22933,-111195606.79949,-199169641.09468,   0.00009,  -0.00045,  -0.00259,359261041.14012,   0.00000,274640135.82653,   0.00000,   0.00000,   0.00000,-115379094.68641,   0.00000
-29357038.14926,-112379984.66134,-199907450.25451,   0.00009,  -0.00045,  -0.00260,360667324.75544,   0.00000,274640135.82653,   0.00000,   0.00000,   0.00000,-113972811.07109,   0.00000
-31237157.10481,-113574070.53844,-200645259.41435,   0.00008,  -0.00046,  -0.00261,362081011.34217,   0.00000,274640135.82653,   0.00000,   0.00000,   0.00000,-112559124.48436,   0.00000
-33104332.04001,-114781100.43589,-201389540.58436,   0.00007,  -0.00046,  -0.00262,363516282.06544,   0.00000,274640135.82653,   0.00000,   0.00000,   0.00000,-111123853.76109,   0.00000
-35016811.04643,-116007546.36386,-202133821.75437,   0.00007,  -0.00046,  -0.00263,364960215.95418,   0.00000,274640135.82653,   0.00000,   0.00000,   0.00000,-109679919.87235,   0.00000
-36916346.03250,-117246936.31218,-202884574.93455,   0.00006,  -0.00046,  -0.00264,366425687.48104,   0.00000,274640135.82653,   0.00000,   0.00000,   0.00000,-108214448.34549,   0.00000
-38838533.05417,-118496034.27577,-203641800.12491,   0.00005,  -0.00046,  -0.00265,367909605.63597,   0.00000,274640135.82653,   0.00000,   0.00000,   0.00000,-106730530.19056,   0.00000
-40770428.09111,-119767784.27496,-204399025.31527,   0.00005,  -0.00047,  -0.00266,369405537.00499,   0.00000,274640135.82653,   0.00000,   0.00000,   0.00000,-105234598.82154,   0.00000
-42724975.16366,-121049242.28941,-205162722.51580,   0.00004,  -0.00047,  -0.00267,370920132.67207,   0.00000,274640135.82653,   0.00000,   0.00000,   0.00000,-103720003.15446,   0.00000
-44689230.25147,-122353352.33947,-205932891.72651,   0.00004,  -0.00047,  -0.00268,372457595.81321,   0.00000,274640135.82653,   0.00000,   0.00000,   0.00000,-102182540.01331,   0.00000
-46653485.33928,-123657462.38953,-206703060.93721,   0.00003,  -0.00047,  -0.00269,374001511.08341,   0.00000,274640135.82653,   0.00000,   0.00000,   0.00000,-100638624.74312,   0.00000
-48617740.42709,-124961572.43959,-207479702.15809,   0.00002,  -0.00047,  -0.00270,375562525.28895,   0.00000,274640135.82653,   0.00000,   0.00000,   0.00000,-99077610.53758,   0.00000
-50624063.58103,-126320694.57613,-208256343.37897,   0.00002,  -0.00048,  -0.00271,377143156.49442,   0.00000,274640135.82653,   0.00000,   0.00000,   0.00000,-97496979.33211,   0.00000
-52620678.71971,-127657164.67706,-209039456.61003,   0.00001,  -0.00048,  -0.00272,378735216.38872,   0.00000,274640135.82653,   0.00000,   0.00000,   0.00000,-95904919.43781,   0.00000
-54659361.92452,-129048646.86447,-209829041.85125,   0.00000,  -0.00048,  -0.00273,380357940.39478,   0.00000,274640135.82653,   0.00000,   0.00000,   0.00000,-94282195.43175,   0.00000
-56688337.11407,-130417477.01627,-210625099.10266,  -0.00000,  -0.00048,  -0.00274,381992058.93499,   0.00000,274640135.82653,   0.00000,   0.00000,   0.00000,-92648076.89154,   0.00000
-58736728.33414,-131831611.23929,-211421156.35406,  -0.00001,  -0.00049,  -0.00275,383644282.51232,   0.00000,274640135.82653,   0.00000,   0.00000,   0.00000,-90995853.31421,   0.00000
-60785119.55421,-133245745.46231,-212217213.60546,  -0.00002,  -0.00049,  -0.00276,385302917.36036,   0.00000,274640135.82653,   0.00000,   0.00000,   0.00000,-89337218.46617,   0.00000
-62856162.80989,-134669587.70059,-213026214.87721,  -0.00002,  -0.00049,  -0.00277,386991584.14533,   0.00000,274640135.82653,   0.00000,   0.00000,   0.00000,-87648551.68120,   0.00000
-64936914.08083,-136116081.97448,-213828744.13879,  -0.00003,  -0.00049,  -0.00278,388681910.72153,   0.00000,274640135.82653,   0.00000,   0.00000,   0.00000,-85958225.10500,   0.00000
-67027373.36703,-137585228.28398,-214644217.42071,  -0.00004,  -0.00050,  -0.00279,390405952.27648,   0.00000,274640135.82653,   0.00000,   0.00000,   0.00000,-84234183.55005,   0.00000
-69140484.68884,-139064082.60874,-215459690.70263,  -0.00004,  -0.00050,  -0.00280,392138881.74149,   0.00000,274640135.82653,   0.00000,   0.00000,   0.00000,-82501254.08504,   0.00000
-71253596.01065,-140542936.93350,-216281635.99473,  -0.00005,  -0.00050,  -0.00281,393888868.36468,   0.00000,274640135.82653,   0.00000,   0.00000,   0.00000,-80751267.46185,   0.00000
-73376415.34773,-142044443.29386,-217103581.28683,  -0.00006,  -0.00050,  -0.00282,395651241.81996,   0.00000,274640135.82653,   0.00000,   0.00000,   0.00000,-78988894.00656,   0.00000
-75531594.73567,-143578309.70510,-217931998.58910,  -0.00006,  -0.00051,  -0.00283,397439457.20918,   0.00000,274640135.82653,   0.00000,   0.00000,   0.00000,-77200678.61735,   0.00000
-77696482.13887,-145134828.15195,-218766887.90155,  -0.00007,  -0.00051,  -0.00284,399250860.76626,   0.00000,274640135.82653,   0.00000,   0.00000,   0.00000,-75389275.06027,   0.00000
-79861369.54207,-146691346.59880,-219601777.21399,  -0.00008,  -0.00051,  -0.00285,401068621.73372,   0.00000,274640135.82653,   0.00000,   0.00000,   0.00000,-73571514.09281,   0.00000
-82048908.98089,-148257573.06090,-220443138.53661,  -0.00008,  -0.00051,  -0.00287,402906305.85867,   0.00000,274640135.82653,   0.00000,   0.00000,   0.00000,-71733829.96786,   0.00000
-84246156.43496,-149846451.55862,-221290971.86941,  -0.00009,  -0.00052,  -0.00288,404767178.77351,   0.00000,274640135.82653,   0.00000,   0.00000,   0.00000,-69872957.05302,   0.00000
-86453111.90429,-151457982.09195,-222138805.20220,  -0.00010,  -0.00052,  -0.00289,406640619.40821,   0.00000,274640135.82653,   0.00000,   0.00000,   0.00000,-67999516.41832,   0.00000
-88660067.37363,-153069512.62527,-222993110.54517,  -0.00010,  -0.00052,  -0.00290,408530919.26029,   0.00000,274640135.82653,   0.00000,   0.00000,   0.00000,-66109216.56624,   0.00000
-90899382.89383,-154713403.20947,-223847415.88814,  -0.00011,  -0.00053,  -0.00291,410437058.34803,   0.00000,274640135.82653,   0.00000,   0.00000,   0.00000,-64203077.47850,   0.00000
-93148406.42930,-156379945.82927,-224708193.24128,  -0.00012,  -0.00053,  -0.00292,412366447.05367,   0.00000,274640135.82653,   0.00000,   0.00000,   0.00000,-62273688.77286,   0.00000
-95420082.00037,-158056196.46434,-225575442.60460,  -0.00013,  -0.00053,  -0.00293,414316134.10681,   0.00000,274640135.82653,   0.00000,   0.00000,   0.00000,-60324001.71972,   0.00000
-97678813.55110,-159745391.11975,-226442691.96791,  -0.00013,  -0.00054,  -0.00294,416275003.52885,   0.00000,274640135.82653,   0.00000,   0.00000,   0.00000,-58365132.29768,   0.00000
-99969905.15269,-161466945.82604,-227316413.34140,  -0.00014,  -0.00054,  -0.00296,418260656.28302,   0.00000,274640135.82653,   0.00000,   0.00000,   0.00000,-56379479.54351,   0.00000
-102260996.75429,-163188500.53232,-228190134.71489,  -0.00015,  -0.00054,  -0.00297,420252533.82163,   0.00000,274640135.82653,   0.00000,   0.00000,   0.00000,-54387602.00490,   0.00000
-104574740.39149,-164919763.25387,-229070328.09856,  -0.00015,  -0.00055,  -0.00298,422264856.28986,   0.00000,274640135.82653,   0.00000,   0.00000,   0.00000,-52375279.53666,   0.00000
-106907900.05922,-166696330.04663,-229956993.49239,  -0.00016,  -0.00055,  -0.00299,424307043.92150,   0.00000,274640135.82653,   0.00000,   0.00000,   0.00000,-50333091.90502,   0.00000
-109241059.72695,-168472896.83939,-230843658.88623,  -0.00017,  -0.00055,  -0.00300,426355430.19606,   0.00000,274640135.82653,   0.00000,   0.00000,   0.00000,-48284705.63047,   0.00000
-111574219.39467,-170249463.63216,-231736796.29024,  -0.00018,  -0.00056,  -0.00301,428420428.50224,   0.00000,274640135.82653,   0.00000,   0.00000,   0.00000,-46219707.32429,   0.00000
-113949447.12853,-172081042.51140,-232636405.70443,  -0.00018,  -0.00056,  -0.00302,430519353.58873,   0.00000,274640135.82653,   0.00000,   0.00000,   0.00000,-44120782.23780,   0.00000
-116324674.86239,-173912621.39064,-233536015.11862,  -0.00019,  -0.00056,  -0.00304,432624446.59950,   0.00000,274640135.82653,   0.00000,   0.00000,   0.00000,-42015689.22703,   0.00000
-118709610.61151,-175766852.30549,-234442096.54298,  -0.00020,  -0.00057,  -0.00305,434752841.64651,   0.00000,274640135.82653,   0.00000,   0.00000,   0.00000,-39887294.18002,   0.00000
-121094546.36063,-177621083.22034,-235348177.96734,  -0.00020,  -0.00057,  -0.00306,436887272.05497,   0.00000,274640135.82653,   0.00000,   0.00000,   0.00000,-37752863.77155,   0.00000
-123511842.16062,-179507674.18606,-236260731.40187,  -0.00021,  -0.00058,  -0.00307,439049264.12938,   0.00000,274640135.82653,   0.00000,   0.00000,   0.00000,-35590871.69715,   0.00000
-125938845.97587,-181416917.18739,-237173284.83640,  -0.00022,  -0.00058,  -0.00308,441224154.70677,   0.00000,274640135.82653,   0.00000,   0.00000,   0.00000,-33415981.11976,   0.00000
-128388501.82673,-183335868.20398,-238092310.28111,  -0.00023,  -0.00058,  -0.00310,443419976.05724,   0.00000,274640135.82653,   0.00000,   0.00000,   0.00000,-31220159.76929,   0.00000
-130825213.65724,-185267763.24092,-239017807.73599,  -0.00023,  -0.00059,  -0.00311,445634629.66844,   0.00000,274640135.82653,   0.00000,   0.00000,   0.00000,-29005506.15809,   0.00000
-133294285.53862,-187232018.32873,-239943305.19088,  -0.00024,  -0.00059,  -0.00312,447866728.22323,   0.00000,274640135.82653,   0.00000,   0.00000,   0.00000,-26773407.60329,   0.00000
-135773065.43526,-189218925.45215,-240875274.65593,  -0.00025,  -0.00060,  -0.00313,450122191.54543,   0.00000,274640135.82653,   0.00000,   0.00000,   0.00000,-24517944.28110,   0.00000
-138274497.36751,-191215540.59083,-241807244.12099,  -0.00026,  -0.00060,  -0.00314,452388347.27454,   0.00000,274640135.82653,   0.00000,   0.00000,   0.00000,-22251788.55199,   0.00000
-140762985.27941,-193225099.74986,-242745685.59622,  -0.00026,  -0.00060,  -0.00316,454673090.20124,   0.00000,274640135.82653,   0.00000,   0.00000,   0.00000,-19967045.62529,   0.00000
-143283833.24219,-195267018.95975,-243690599.08162,  -0.00027,  -0.00061,  -0.00317,456985976.61411,   0.00000,274640135.82653,   0.00000,   0.00000,   0.00000,-17654159.21242,   0.00000
-145804681.20496,-197308938.16965,-244635512.56703,  -0.00028,  -0.00061,  -0.00318,459304754.32004,   0.00000,274640135.82653,   0.00000,   0.00000,   0.00000,-15335381.50649,   0.00000
-148357889.21860,-199383217.43042,-245586898.06260,  -0.00029,  -0.00062,  -0.00319,461651850.31878,   0.00000,274640135.82653,   0.00000,   0.00000,   0.00000,-12988285.50775,   0.00000
-150898153.21190,-201470440.71153,-246538283.55818,  -0.00029,  -0.00062,  -0.00320,464006949.81061,   0.00000,274640135.82653,   0.00000,   0.00000,   0.00000,-10633186.01592,   0.00000
-153470777.25606,-203590024.04352,-247496141.06393,  -0.00030,  -0.00063,  -0.00322,466390477.66297,   0.00000,274640135.82653,   0.00000,   0.00000,   0.00000,-8249658.16356,   0.00000
-156066053.33584,-205719315.39076,-248460470.57986,  -0.00031,  -0.00063,  -0.00323,468795333.17107,   0.00000,274640135.82653,   0.00000,   0.00000,   0.00000,-5844802.65546,   0.00000
-158648385.39526,-207861550.75836,-249424800.09579,  -0.00032,  -0.00064,  -0.00324,471208051.46675,   0.00000,274640135.82653,   0.00000,   0.00000,   0.00000,-3432084.35978,   0.00000
-161263077.50556,-210036146.17682,-250389129.61171,  -0.00032,  -0.00064,  -0.00326,473639141.36252,   0.00000,274640135.82653,   0.00000,   0.00000,   0.00000,-1000994.46401,   0.00000
-162329680.55341,-210929146.75573,-250786311.01794,  -0.00033,  -0.00064,  -0.00326,474640169.50673,   0.00000,274640135.82653,   0.00000,   0.00000,   0.00000,  -3.92094,   0.00000
-163472360.52419,-211666861.10022,-250579144.29348,  -0.00033,  -0.00065,  -0.00327,474651571.13311,   0.00001,274651576.98351,  -0.00000,  -0.00000,  -0.00001,  -5.85041,   1.00000
-165390198.95948,-212906488.79808,-250227836.77112,  -0.00034,  -0.00065,  -0.00328,474670786.15348,   0.00003,274670791.18538,  -0.00000,  -0.00000,  -0.00003,  -5.03190,   1.00000
-167306361.98944,-214169492.50250,-249868510.45109,  -0.00035,  -0.00066,  -0.00329,474690308.71331,   0.00005,274690309.39513,  -0.00000,  -0.00001,  -0.00004,  -0.68182,   1.00000
-169232457.02389,-215431769.27709,-249504213.22370,  -0.00035,  -0.00066,  -0.00331,474709891.76292,   0.00006,274709899.24396,  -0.00000,  -0.00001,  -0.00006,  -7.48104,   1.00000
-171147442.82374,-216685786.10649,-249137945.69102,  -0.00036,  -0.00067,  -0.00332,474729509.13836,   0.00008,274729517.17486,  -0.00001,  -0.00001,  -0.00008,  -8.03651,   1.00000
-173063066.13985,-217966613.67779,-248762707.17489,  -0.00037,  -0.00067,  -0.00333,474749357.55999,   0.00010,274749359.12275,  -0.00001,  -0.00002,  -0.00010,  -1.56276,   1.00000
-174985117.22351,-219242244.13022,-248383511.93804,  -0.00038,  -0.00068,  -0.00334,474769344.08144,   0.00012,274769352.24545,  -0.00001,  -0.00002,  -0.00012,  -8.16401,   1.00000
-176889642.17891,-220540946.36269,-247997421.96025,  -0.00039,  -0.00068,  -0.00336,474789436.84715,   0.00014,274789445.34070,  -0.00001,  -0.00002,  -0.00013,  -8.49355,   1.00000
-178803458.20965,-221838191.20199,-247606364.60150,  -0.00039,  -0.00069,  -0.00337,474809603.28023,   0.00015,274809610.47710,  -0.00001,  -0.00003,  -0.00015,  -7.19687,   1.00000
-180702547.20153,-223122542.10509,-247214579.00176,  -0.00040,  -0.00069,  -0.00338,474829876.77393,   0.00017,274829880.12040,  -0.00001,  -0.00003,  -0.00017,  -3.34647,   1.00000
-182621857.80970,-224439919.40436,-246810676.49469,  -0.00041,  -0.00070,  -0.00340,474850413.72955,   0.00019,274850419.94484,  -0.00002,  -0.00003,  -0.00019,  -6.21529,   1.00000
-184505502.00755,-225736902.96173,-246409381.11057,  -0.00042,  -0.00070,  -0.00341,474871012.30240,   0.00021,274871015.96796,  -0.00002,  -0.00004,  -0.00021,  -3.66556,   1.00000
-186415452.21217,-227074727.47614,-245993719.10139,  -0.00043,  -0.00071,  -0.00342,474891718.37947,   0.00023,274891727.01266,  -0.00002,  -0.00004,  -0.00023,  -8.63319,   1.00000
-188306799.96367,-228394852.02729,-245578659.54379,  -0.00043,  -0.00072,  -0.00344,474912612.70013,   0.00025,274912617.68522,  -0.00002,  -0.00004,  -0.00024,  -4.98509,   1.00000
-190213596.22654,-229731887.83835,-245154465.98098,  -0.00044,  -0.00072,  -0.00345,474933637.99253,   0.00027,274933641.53268,  -0.00002,  -0.00005,  -0.00026,  -3.54016,   1.00000
-192087794.68612,-231052421.73582,-244732039.50983,  -0.00045,  -0.00073,  -0.00346,474954635.51498,   0.00029,274954640.16344,  -0.00003,  -0.00005,  -0.00028,  -4.64846,   1.00000
-193980760.70126,-232404524.22072,-244297437.85134,  -0.00046,  -0.00073,  -0.00348,474975900.88755,   0.00031,274975910.46190,  -0.00003,  -0.00005,  -0.00030,  -9.57435,   1.00000
-195868261.12062,-233765952.96597,-243857083.73146,  -0.00047,  -0.00074,  -0.00349,474997260.64672,   0.00033,274997265.16189,  -0.00003,  -0.00006,  -0.00032,  -4.51517,   1.00000
-197739892.39467,-235113232.00065,-243416476.78136,  -0.00047,  -0.00074,  -0.00350,475018710.38478,   0.00035,275018718.42275,  -0.00003,  -0.00006,  -0.00034,  -8.03796,   1.00000
-199622634.83898,-236472202.23254,-242967943.52590,  -0.00048,  -0.00075,  -0.00352,475040376.63818,   0.00037,275040381.91553,  -0.00003,  -0.00006,  -0.00036,  -5.27734,   1.00000
-201479356.52850,-237833341.87238,-242517251.20381,  -0.00049,  -0.00076,  -0.00353,475062072.07713,   0.00039,275062077.84903,  -0.00004,  -0.00007,  -0.00038,  -5.77190,   1.00000
-203350368.17289,-239210037.42337,-242057397.36933,  -0.00050,  -0.00076,  -0.00354,475083904.08757,   0.00041,275083908.19749,  -0.00004,  -0.00007,  -0.00040,  -4.10992,   1.00000
-205208148.20929,-240586667.88662,-241594492.93057,  -0.00051,  -0.00077,  -0.00356,475105968.49393,   0.00043,275105972.36356,  -0.00004,  -0.00008,  -0.00042,  -3.86962,   1.00000
-207063330.33446,-241976084.24780,-241124708.41000,  -0.00051,  -0.00078,  -0.00357,475128034.60633,   0.00045,275128043.95389,  -0.00004,  -0.00008,  -0.00044,  -9.34757,   1.00000
-208921974.16792,-243357171.58681,-240651421.59837,  -0.00052,  -0.00078,  -0.00358,475150253.80301,   0.00047,275150262.12279,  -0.00005,  -0.00008,  -0.00046,  -8.31978,   1.00000
-210776984.49154,-244760816.76458,-240169553.49449,  -0.00053,  -0.00079,  -0.00360,475172695.98801,   0.00049,275172700.92194,  -0.00005,  -0.00009,  -0.00048,  -4.93393,   1.00000
-212598998.33976,-246147138.99571,-239690263.98919,  -0.00054,  -0.00080,  -0.00361,475195097.71228,   0.00051,275195104.00516,  -0.00005,  -0.00009,  -0.00050,  -6.29288,   1.00000
-214454094.41012,-247554261.01787,-239198110.11710,  -0.00055,  -0.00080,  -0.00363,475217690.68942,   0.00053,275217696.19808,  -0.00005,  -0.00009,  -0.00052,  -5.50865,   1.00000
-216285097.49741,-248976793.32475,-238701185.71147,  -0.00055,  -0.00081,  -0.00364,475240449.85153,   0.00055,275240454.08516,  -0.00006,  -0.00010,  -0.00054,  -4.23362,   1.00000
-218099030.73552,-250383668.57174,-238204723.13219,  -0.00056,  -0.00082,  -0.00365,475263299.27228,   0.00057,275263301.60633,  -0.00006,  -0.00010,  -0.00056,  -2.33405,   1.00000
-219925615.14429,-251804199.34124,-237699117.74107,  -0.00057,  -0.00082,  -0.00367,475286281.40426,   0.00059,275286284.55469,  -0.00006,  -0.00011,  -0.00058,  -3.15043,   1.00000
-221741105.36872,-253227361.69719,-237189615.43138,  -0.00058,  -0.00083,  -0.00368,475309415.47099,   0.00061,275309420.90425,  -0.00006,  -0.00011,  -0.00060,  -5.43326,   1.00000
-223549226.50580,-254657483.61783,-236674816.92786,  -0.00059,  -0.00084,  -0.00370,475332635.16272,   0.00063,275332637.03513,  -0.00007,  -0.00012,  -0.00062,  -1.87242,   1.00000
-225343757.54143,-256076000.44589,-236159267.59910,  -0.00060,  -0.00085,  -0.00371,475355864.51566,   0.00065,275355866.89379,  -0.00007,  -0.00012,  -0.00064,  -2.37812,   1.00000
-227152431.13099,-257521201.29262,-235631570.20693,  -0.00060,  -0.00085,  -0.00372,475379364.06313,   0.00068,275379370.81621,  -0.00007,  -0.00012,  -0.00066,  -6.75308,   1.00000
-228953254.55393,-258972757.67825,-235098658.82135,  -0.00061,  -0.00086,  -0.00374,475402949.52583,   0.00070,275402953.89074,  -0.00008,  -0.00013,  -0.00068,  -4.36490,   1.00000
-230742188.45970,-260425935.75809,-234562114.54510,  -0.00062,  -0.00087,  -0.00375,475426684.08680,   0.00072,275426687.45988,  -0.00008,  -0.00013,  -0.00070,  -3.37309,   1.00000
-232513206.40407,-261862373.75429,-234026597.55283,  -0.00063,  -0.00087,  -0.00377,475450500.96599,   0.00074,275450503.73156,  -0.00008,  -0.00014,  -0.00072,  -2.76557,   1.00000
-234282069.72374,-263323023.57306,-233481417.45607,  -0.00064,  -0.00088,  -0.00378,475474454.47781,   0.00076,275474464.42923,  -0.00008,  -0.00014,  -0.00075,  -9.95142,   1.00000
-236036913.16133,-264771288.48666,-232935821.69171,  -0.00065,  -0.00089,  -0.00380,475498425.90176,   0.00079,275498434.98454,  -0.00009,  -0.00015,  -0.00077,  -9.08278,   1.00000
-237804389.96327,-266244462.99017,-232378190.91918,  -0.00065,  -0.00090,  -0.00381,475522671.06928,   0.00081,275522679.22913,  -0.00009,  -0.00015,  -0.00079,  -8.15985,   1.00000
-239557573.42113,-267704916.34640,-231820237.38704,  -0.00066,  -0.00091,  -0.00382,475546927.70867,   0.00083,275546932.38339,  -0.00009,  -0.00015,  -0.00081,  -4.67472,   1.00000
-241307838.58867,-269188606.53145,-231252697.18542,  -0.00067,  -0.00091,  -0.00384,475571327.88098,   0.00085,275571329.73827,  -0.00010,  -0.00016,  -0.00083,  -1.85729,   1.00000
-243035527.44284,-270649988.67820,-230688321.52161,  -0.00068,  -0.00092,  -0.00385,475595864.44743,   0.00088,275595874.11815,  -0.00010,  -0.00016,  -0.00085,  -9.67072,   1.00000
-244764172.42431,-272138902.24826,-230112741.73401,  -0.00069,  -0.00093,  -0.00387,475620490.25586,   0.00090,275620492.34460,  -0.00010,  -0.00017,  -0.00088,  -2.08874,   1.00000
-246493079.87003,-273615423.86472,-229534652.10575,  -0.00070,  -0.00094,  -0.00388,475645245.56022,   0.00092,275645246.50660,  -0.00011,  -0.00017,  -0.00090,  -0.94638,   1.00000
-248212882.72816,-275096486.65978,-228951811.22542,  -0.00070,  -0.00095,  -0.00390,475670070.25119,   0.00094,275670075.15030,  -0.00011,  -0.00018,  -0.00092,  -4.89911,   1.00000
-249924696.03842,-276594870.54140,-228361300.23980,  -0.00071,  -0.00095,  -0.00391,475695109.80826,   0.00097,275695115.53605,  -0.00012,  -0.00018,  -0.00094,  -5.72779,   1.00000
-251621820.06198,-278079657.88210,-227770893.48871,  -0.00072,  -0.00096,  -0.00393,475720155.74554,   0.00099,275720159.97644,  -0.00012,  -0.00019,  -0.00097,  -4.23090,   1.00000
-253310651.75368,-279581308.34751,-227172931.78521,  -0.00073,  -0.00097,  -0.00394,475745408.42890,   0.00101,275745414.95396,  -0.00012,  -0.00019,  -0.00099,  -6.52506,   1.00000
-254984758.62422,-281069156.45716,-226575211.38004,  -0.00074,  -0.00098,  -0.00396,475770665.40716,   0.00104,275770672.37104,  -0.00013,  -0.00020,  -0.00101,  -6.96387,   1.00000
-256668779.31845,-282578577.43965,-225965781.70917,  -0.00075,  -0.00099,  -0.00397,475796195.53120,   0.00106,275796201.55090,  -0.00013,  -0.00020,  -0.00103,  -6.01970,   1.00000
-258319393.50159,-284068774.74118,-225361009.98604,  -0.00076,  -0.00100,  -0.00399,475821666.91302,   0.00108,275821669.07374,  -0.00013,  -0.00021,  -0.00106,  -2.16072,   1.00000
-259983824.35026,-285584794.57465,-224742705.47058,  -0.00076,  -0.00101,  -0.00400,475847336.58279,   0.00111,275847341.06383,  -0.00014,  -0.00021,  -0.00108,  -4.48104,   1.00000
