# sigma_xx, sigma_yy, sigma_xy, epsilon_xx, epsilon_yy, epsilon_xy, vonMises, epsPlastic, hardening, epsilonP__xx, epsilonP__yy, epsilonP__xy, yieldValue, iteration
   0.00000,   0.00000,   0.00000,   0.00000,   0.00000,   0.00000,1181185.37500,   0.00000,274640576.00000,   0.00000,   0.00000,   0.00000,-473459392.00000,   0.00000
   0.00000,   0.00000,   0.00000,   0.00000,   0.00000,   0.00000,1181185.37500,   0.00000,274640576.00000,   0.00000,   0.00000,   0.00000,-473459392.00000,   0.00000
-2474729.47671,-3549469.13517,548682.87827,  -0.00000,  -0.00001,   0.00001,2950394.25000,   0.00000,274640576.00000,   0.00000,   0.00000,   0.00000,-471690176.00000,   0.00000
-4960772.00247,-7087625.22131,1097365.75653,  -0.00001,  -0.00002,   0.00001,6010905.00000,   0.00000,274640576.00000,   0.00000,   0.00000,   0.00000,-468629664.00000,   0.00000
-7429844.95466,-10586185.63582,1640392.11028,  -0.00001,  -0.00003,   0.00002,9418810.00000,   0.00000,274640576.00000,   0.00000,   0.00000,   0.00000,-465221760.00000,   0.00000
-9898917.90686,-14084746.05033,2183418.46403,  -0.00002,  -0.00004,   0.00003,12751863.00000,   0.00000,274640576.00000,   0.00000,   0.00000,   0.00000,-461888720.00000,   0.00000
-12351021.28550,-17543710.79321,2720788.29326,  -0.00002,  -0.00006,   0.00004,15926166.00000,   0.00000,274640576.00000,   0.00000,   0.00000,   0.00000,-458714416.00000,   0.00000
-14822922.49996,-21011160.32287,3252501.59797,  -0.00003,  -0.00007,   0.00004,19097292.00000,   0.00000,274640576.00000,   0.00000,   0.00000,   0.00000,-455543280.00000,   0.00000
-17277854.14086,-24439014.18091,3778558.37816,  -0.00003,  -0.00008,   0.00005,22273944.00000,   0.00000,274640576.00000,   0.00000,   0.00000,   0.00000,-452366624.00000,   0.00000
-19724300.99498,-27847070.20313,4304615.15835,  -0.00004,  -0.00009,   0.00006,25471268.00000,   0.00000,274640576.00000,   0.00000,   0.00000,   0.00000,-449169312.00000,   0.00000
-22182060.89814,-31243813.17631,4825015.41403,  -0.00004,  -0.00010,   0.00006,28677960.00000,   0.00000,274640576.00000,   0.00000,   0.00000,   0.00000,-445962624.00000,   0.00000
-24631336.01453,-34620758.31368,5339759.14519,  -0.00004,  -0.00011,   0.00007,31866130.00000,   0.00000,274640576.00000,   0.00000,   0.00000,   0.00000,-442774448.00000,   0.00000
-27072126.34413,-37977905.61523,5854502.87634,  -0.00005,  -0.00012,   0.00008,35028956.00000,   0.00000,274640576.00000,   0.00000,   0.00000,   0.00000,-439611616.00000,   0.00000
-29504431.88696,-41315255.08097,6363590.08298,  -0.00005,  -0.00013,   0.00008,38161368.00000,   0.00000,274640576.00000,   0.00000,   0.00000,   0.00000,-436479200.00000,   0.00000
-31939565.69205,-44621493.66186,6867020.76510,  -0.00006,  -0.00014,   0.00009,41260412.00000,   0.00000,274640576.00000,   0.00000,   0.00000,   0.00000,-433380160.00000,   0.00000
-34354901.66132,-47919247.45598,7370451.44722,  -0.00006,  -0.00015,   0.00010,44343772.00000,   0.00000,274640576.00000,   0.00000,   0.00000,   0.00000,-430296800.00000,   0.00000
-36773065.89285,-51185890.36524,7868225.60482,  -0.00007,  -0.00016,   0.00010,47401916.00000,   0.00000,274640576.00000,   0.00000,   0.00000,   0.00000,-427238656.00000,   0.00000
-39202543.17342,-54441220.22547,8360343.23791,  -0.00007,  -0.00017,   0.00011,50452836.00000,   0.00000,274640576.00000,   0.00000,   0.00000,   0.00000,-424187744.00000,   0.00000
-41603737.83140,-57668267.46311,8852460.87099,  -0.00008,  -0.00018,   0.00012,53479152.00000,   0.00000,274640576.00000,   0.00000,   0.00000,   0.00000,-421161424.00000,   0.00000
-44016245.53842,-60884001.65171,9338921.97956,  -0.00008,  -0.00019,   0.00012,56498484.00000,   0.00000,274640576.00000,   0.00000,   0.00000,   0.00000,-418142096.00000,   0.00000
-46420268.45865,-64079938.00449,9819726.56360,  -0.00009,  -0.00020,   0.00013,59499260.00000,   0.00000,274640576.00000,   0.00000,   0.00000,   0.00000,-415141312.00000,   0.00000
-48815806.59211,-67256076.52146,10294874.62313,  -0.00009,  -0.00021,   0.00013,62480668.00000,   0.00000,274640576.00000,   0.00000,   0.00000,   0.00000,-412159904.00000,   0.00000
-51194375.15202,-70392619.36681,10770022.68266,  -0.00010,  -0.00022,   0.00014,65429588.00000,   0.00000,274640576.00000,   0.00000,   0.00000,   0.00000,-409210992.00000,   0.00000
-53592741.54774,-73537646.99893,11245170.74219,  -0.00010,  -0.00023,   0.00015,68387984.00000,   0.00000,274640576.00000,   0.00000,   0.00000,   0.00000,-406252592.00000,   0.00000
-55954340.53409,-76634594.17265,11709005.75269,  -0.00011,  -0.00024,   0.00015,71298648.00000,   0.00000,274640576.00000,   0.00000,   0.00000,   0.00000,-403341920.00000,   0.00000
-58335737.35625,-79740026.13314,12172840.76318,  -0.00011,  -0.00025,   0.00016,74220408.00000,   0.00000,274640576.00000,   0.00000,   0.00000,   0.00000,-400420160.00000,   0.00000
-60700164.60486,-82805862.42201,12631019.24915,  -0.00011,  -0.00026,   0.00016,77109680.00000,   0.00000,274640576.00000,   0.00000,   0.00000,   0.00000,-397530896.00000,   0.00000
-63056107.06670,-85851900.87506,13089197.73513,  -0.00012,  -0.00027,   0.00017,79985344.00000,   0.00000,274640576.00000,   0.00000,   0.00000,   0.00000,-394655232.00000,   0.00000
-65423362.57757,-88886626.27908,13541719.69658,  -0.00012,  -0.00028,   0.00018,82855688.00000,   0.00000,274640576.00000,   0.00000,   0.00000,   0.00000,-391784896.00000,   0.00000
-67753850.67907,-91873271.22469,13988585.13352,  -0.00013,  -0.00029,   0.00018,85683592.00000,   0.00000,274640576.00000,   0.00000,   0.00000,   0.00000,-388956992.00000,   0.00000
-70104136.61638,-94868400.95708,14429794.04594,  -0.00013,  -0.00029,   0.00019,88521096.00000,   0.00000,274640576.00000,   0.00000,   0.00000,   0.00000,-386119488.00000,   0.00000
-72445937.76692,-97843732.85366,14871002.95836,  -0.00014,  -0.00030,   0.00019,91344144.00000,   0.00000,274640576.00000,   0.00000,   0.00000,   0.00000,-383296432.00000,   0.00000
-74770769.34390,-100779469.07861,15306555.34626,  -0.00014,  -0.00031,   0.00020,94133544.00000,   0.00000,274640576.00000,   0.00000,   0.00000,   0.00000,-380507040.00000,   0.00000
-77087116.13410,-103695407.46774,15742107.73417,  -0.00015,  -0.00032,   0.00020,96907120.00000,   0.00000,274640576.00000,   0.00000,   0.00000,   0.00000,-377733456.00000,   0.00000
-79403462.92431,-106611345.85688,16172003.59755,  -0.00015,  -0.00033,   0.00021,99676896.00000,   0.00000,274640576.00000,   0.00000,   0.00000,   0.00000,-374963680.00000,   0.00000
-81722637.97677,-109496173.36116,16596242.93642,  -0.00016,  -0.00034,   0.00022,102422584.00000,   0.00000,274640576.00000,   0.00000,   0.00000,   0.00000,-372217984.00000,   0.00000
-84013530.40665,-112352718.24286,17020482.27528,  -0.00016,  -0.00035,   0.00022,105140576.00000,   0.00000,274640576.00000,   0.00000,   0.00000,   0.00000,-369500000.00000,   0.00000
-86307251.09878,-115178152.23970,17439065.08963,  -0.00017,  -0.00036,   0.00023,107834608.00000,   0.00000,274640576.00000,   0.00000,   0.00000,   0.00000,-366805968.00000,   0.00000
-88600971.79091,-118003586.23654,17851991.37946,  -0.00017,  -0.00036,   0.00023,110525112.00000,   0.00000,274640576.00000,   0.00000,   0.00000,   0.00000,-364115456.00000,   0.00000
-90886207.69627,-120809222.39757,18264917.66929,  -0.00018,  -0.00037,   0.00024,113199816.00000,   0.00000,274640576.00000,   0.00000,   0.00000,   0.00000,-361440768.00000,   0.00000
-93154474.02807,-123575262.88698,18672187.43460,  -0.00018,  -0.00038,   0.00024,115841080.00000,   0.00000,274640576.00000,   0.00000,   0.00000,   0.00000,-358799488.00000,   0.00000
-95414255.57309,-126321505.54057,19073800.67539,  -0.00019,  -0.00039,   0.00025,118464880.00000,   0.00000,274640576.00000,   0.00000,   0.00000,   0.00000,-356175696.00000,   0.00000
-97674037.11811,-129067748.19415,19469757.39166,  -0.00019,  -0.00040,   0.00025,121087096.00000,   0.00000,274640576.00000,   0.00000,   0.00000,   0.00000,-353553472.00000,   0.00000
-99916849.08958,-131774395.17612,19871370.63246,  -0.00020,  -0.00040,   0.00026,123682664.00000,   0.00000,274640576.00000,   0.00000,   0.00000,   0.00000,-350957920.00000,   0.00000
-102151176.27427,-134461244.32226,20261670.82421,  -0.00020,  -0.00041,   0.00026,126259032.00000,   0.00000,274640576.00000,   0.00000,   0.00000,   0.00000,-348381536.00000,   0.00000
-104396816.50800,-137136780.41937,20651971.01597,  -0.00021,  -0.00042,   0.00027,128832816.00000,   0.00000,274640576.00000,   0.00000,   0.00000,   0.00000,-345807760.00000,   0.00000
-106605689.33236,-139764236.05808,21036614.68321,  -0.00021,  -0.00043,   0.00027,131363536.00000,   0.00000,274640576.00000,   0.00000,   0.00000,   0.00000,-343277040.00000,   0.00000
-108834359.99253,-142400176.48356,21415601.82593,  -0.00022,  -0.00044,   0.00028,133904288.00000,   0.00000,274640576.00000,   0.00000,   0.00000,   0.00000,-340736288.00000,   0.00000
-111054545.86593,-145016319.07324,21794588.96865,  -0.00022,  -0.00044,   0.00028,136430736.00000,   0.00000,274640576.00000,   0.00000,   0.00000,   0.00000,-338209840.00000,   0.00000
-113237964.32996,-147584381.20450,22167919.58685,  -0.00023,  -0.00045,   0.00029,138913328.00000,   0.00000,274640576.00000,   0.00000,   0.00000,   0.00000,-335727248.00000,   0.00000
-115432695.84302,-150141130.28673,22541250.20505,  -0.00023,  -0.00046,   0.00029,141392064.00000,   0.00000,274640576.00000,   0.00000,   0.00000,   0.00000,-333248512.00000,   0.00000
-117618942.56931,-152678081.53314,22908924.29873,  -0.00024,  -0.00047,   0.00030,143852576.00000,   0.00000,274640576.00000,   0.00000,   0.00000,   0.00000,-330788000.00000,   0.00000
-119796704.50882,-155195234.94375,23270941.86790,  -0.00024,  -0.00047,   0.00030,146294752.00000,   0.00000,274640576.00000,   0.00000,   0.00000,   0.00000,-328345824.00000,   0.00000
-121965981.66155,-157692590.51853,23632959.43706,  -0.00025,  -0.00048,   0.00031,148720928.00000,   0.00000,274640576.00000,   0.00000,   0.00000,   0.00000,-325919648.00000,   0.00000
-124126774.02750,-160170148.25751,23989320.48171,  -0.00025,  -0.00049,   0.00031,151128176.00000,   0.00000,274640576.00000,   0.00000,   0.00000,   0.00000,-323512400.00000,   0.00000
-126279081.60668,-162627908.16067,24340025.00184,  -0.00026,  -0.00049,   0.00032,153516528.00000,   0.00000,274640576.00000,   0.00000,   0.00000,   0.00000,-321124048.00000,   0.00000
-128422904.39908,-165065870.22801,24690729.52197,  -0.00026,  -0.00050,   0.00032,155888784.00000,   0.00000,274640576.00000,   0.00000,   0.00000,   0.00000,-318751792.00000,   0.00000
-130549757.61792,-167464236.62373,25035777.51758,  -0.00027,  -0.00051,   0.00033,158227152.00000,   0.00000,274640576.00000,   0.00000,   0.00000,   0.00000,-316413424.00000,   0.00000
-132676610.83677,-169862603.01945,25380825.51319,  -0.00027,  -0.00051,   0.00033,160565248.00000,   0.00000,274640576.00000,   0.00000,   0.00000,   0.00000,-314075328.00000,   0.00000
-134786494.48206,-172221373.74354,25720216.98428,  -0.00028,  -0.00052,   0.00033,162870304.00000,   0.00000,274640576.00000,   0.00000,   0.00000,   0.00000,-311770272.00000,   0.00000
-136887893.34057,-174560346.63182,26059608.45537,  -0.00028,  -0.00053,   0.00034,165160880.00000,   0.00000,274640576.00000,   0.00000,   0.00000,   0.00000,-309479696.00000,   0.00000
-138980807.41231,-176879521.68429,26387686.87743,  -0.00029,  -0.00053,   0.00034,167432128.00000,   0.00000,274640576.00000,   0.00000,   0.00000,   0.00000,-307208448.00000,   0.00000
-141065236.69727,-179178898.90094,26721421.82400,  -0.00029,  -0.00054,   0.00035,169692640.00000,   0.00000,274640576.00000,   0.00000,   0.00000,   0.00000,-304947936.00000,   0.00000
-143141181.19545,-181458478.28177,27043843.72154,  -0.00030,  -0.00055,   0.00035,171935184.00000,   0.00000,274640576.00000,   0.00000,   0.00000,   0.00000,-302705392.00000,   0.00000
-145208640.90685,-183718259.82680,27366265.61908,  -0.00030,  -0.00055,   0.00036,174165376.00000,   0.00000,274640576.00000,   0.00000,   0.00000,   0.00000,-300475200.00000,   0.00000
-147267615.83148,-185958243.53601,27688687.51662,  -0.00031,  -0.00056,   0.00036,176383504.00000,   0.00000,274640576.00000,   0.00000,   0.00000,   0.00000,-298257072.00000,   0.00000
-149309621.18255,-188158631.57359,28005452.88964,  -0.00031,  -0.00056,   0.00036,178571968.00000,   0.00000,274640576.00000,   0.00000,   0.00000,   0.00000,-296068608.00000,   0.00000
-151351626.53363,-190359019.61117,28316561.73814,  -0.00032,  -0.00057,   0.00037,180761120.00000,   0.00000,274640576.00000,   0.00000,   0.00000,   0.00000,-293879456.00000,   0.00000
-153376662.31114,-192519811.97712,28627670.58664,  -0.00032,  -0.00058,   0.00037,182922672.00000,   0.00000,274640576.00000,   0.00000,   0.00000,   0.00000,-291717904.00000,   0.00000
-155401698.08866,-194680604.34308,28933122.91062,  -0.00033,  -0.00058,   0.00038,185083680.00000,   0.00000,274640576.00000,   0.00000,   0.00000,   0.00000,-289556896.00000,   0.00000
-157389966.45681,-196793316.25063,29232918.71009,  -0.00033,  -0.00059,   0.00038,187200832.00000,   0.00000,274640576.00000,   0.00000,   0.00000,   0.00000,-287439744.00000,   0.00000
-159389547.87400,-198894715.10914,29538371.03407,  -0.00034,  -0.00059,   0.00038,189316832.00000,   0.00000,274640576.00000,   0.00000,   0.00000,   0.00000,-285323744.00000,   0.00000
-161380644.50440,-200976316.13184,29832510.30902,  -0.00034,  -0.00060,   0.00039,191410656.00000,   0.00000,274640576.00000,   0.00000,   0.00000,   0.00000,-283229920.00000,   0.00000
-163363256.34803,-203038119.31873,30126649.58396,  -0.00035,  -0.00061,   0.00039,193486464.00000,   0.00000,274640576.00000,   0.00000,   0.00000,   0.00000,-281154112.00000,   0.00000
-165317585.56907,-205071639.88302,30415132.33439,  -0.00035,  -0.00061,   0.00040,195529392.00000,   0.00000,274640576.00000,   0.00000,   0.00000,   0.00000,-279111184.00000,   0.00000
-167283227.83915,-207093847.39828,30703615.08482,  -0.00036,  -0.00062,   0.00040,197565360.00000,   0.00000,274640576.00000,   0.00000,   0.00000,   0.00000,-277075216.00000,   0.00000
-169220587.48664,-209087772.29095,30986441.31073,  -0.00036,  -0.00062,   0.00040,199569152.00000,   0.00000,274640576.00000,   0.00000,   0.00000,   0.00000,-275071424.00000,   0.00000
-171160775.39638,-211050586.29877,31269267.53664,  -0.00037,  -0.00063,   0.00041,201552880.00000,   0.00000,274640576.00000,   0.00000,   0.00000,   0.00000,-273087696.00000,   0.00000
-173081165.47031,-213004915.51981,31546437.23803,  -0.00037,  -0.00063,   0.00041,203522896.00000,   0.00000,274640576.00000,   0.00000,   0.00000,   0.00000,-271117680.00000,   0.00000
-174993070.75747,-214939446.90503,31823606.93942,  -0.00038,  -0.00064,   0.00041,205481504.00000,   0.00000,274640576.00000,   0.00000,   0.00000,   0.00000,-269159072.00000,   0.00000
-176907804.30688,-216842867.40541,32095120.11630,  -0.00038,  -0.00064,   0.00042,207428416.00000,   0.00000,274640576.00000,   0.00000,   0.00000,   0.00000,-267212160.00000,   0.00000
-178794255.23370,-218718005.28319,32366633.29317,  -0.00039,  -0.00065,   0.00042,209363520.00000,   0.00000,274640576.00000,   0.00000,   0.00000,   0.00000,-265277056.00000,   0.00000
-180680706.16052,-220593143.16098,32632489.94553,  -0.00039,  -0.00065,   0.00042,211294928.00000,   0.00000,274640576.00000,   0.00000,   0.00000,   0.00000,-263345648.00000,   0.00000
-182550187.51379,-222428685.36714,32892690.07337,  -0.00040,  -0.00066,   0.00043,213148064.00000,   0.00000,274640576.00000,   0.00000,   0.00000,   0.00000,-261492512.00000,   0.00000
-184411184.08028,-224244429.73748,33152890.20120,  -0.00040,  -0.00066,   0.00043,214978992.00000,   0.00000,274640576.00000,   0.00000,   0.00000,   0.00000,-259661584.00000,   0.00000
-186243898.02418,-226031891.48523,33413090.32904,  -0.00041,  -0.00067,   0.00043,216866208.00000,   0.00000,274640576.00000,   0.00000,   0.00000,   0.00000,-257774368.00000,   0.00000
-188096409.80389,-227827838.01976,33667633.93236,  -0.00041,  -0.00067,   0.00044,218775712.00000,   0.00000,274640576.00000,   0.00000,   0.00000,   0.00000,-255864864.00000,   0.00000
-189912154.17423,-229575704.09589,33916521.01116,  -0.00042,  -0.00067,   0.00044,220524464.00000,   0.00000,274640576.00000,   0.00000,   0.00000,   0.00000,-254116112.00000,   0.00000
-191739211.59361,-231312257.12298,34171064.61448,  -0.00042,  -0.00068,   0.00044,222245344.00000,   0.00000,274640576.00000,   0.00000,   0.00000,   0.00000,-252395232.00000,   0.00000
-193537986.39040,-233020527.52748,34414295.16876,  -0.00043,  -0.00068,   0.00045,223988288.00000,   0.00000,274640576.00000,   0.00000,   0.00000,   0.00000,-250652288.00000,   0.00000
-195328276.40041,-234709000.09616,34657525.72305,  -0.00043,  -0.00069,   0.00045,225744304.00000,   0.00000,274640576.00000,   0.00000,   0.00000,   0.00000,-248896272.00000,   0.00000
-197101596.83687,-236357876.99322,34900756.27733,  -0.00044,  -0.00069,   0.00045,227470992.00000,   0.00000,274640576.00000,   0.00000,   0.00000,   0.00000,-247169584.00000,   0.00000
-198874917.27333,-238006753.89027,35138330.30709,  -0.00044,  -0.00070,   0.00046,229187984.00000,   0.00000,274640576.00000,   0.00000,   0.00000,   0.00000,-245452592.00000,   0.00000
-200639752.92301,-239635832.95152,35370247.81234,  -0.00045,  -0.00070,   0.00046,230883488.00000,   0.00000,274640576.00000,   0.00000,   0.00000,   0.00000,-243757088.00000,   0.00000
-202376305.95010,-241236629.39017,35607821.84210,  -0.00045,  -0.00070,   0.00046,232556480.00000,   0.00000,274640576.00000,   0.00000,   0.00000,   0.00000,-242084096.00000,   0.00000
-204115687.23945,-242806314.94397,35834082.82283,  -0.00046,  -0.00071,   0.00047,234210928.00000,   0.00000,274640576.00000,   0.00000,   0.00000,   0.00000,-240429648.00000,   0.00000
-205835270.69298,-244367515.71100,36066000.32808,  -0.00046,  -0.00071,   0.00047,235861504.00000,   0.00000,274640576.00000,   0.00000,   0.00000,   0.00000,-238779072.00000,   0.00000
-207546369.35974,-245908918.64221,36286604.78429,  -0.00046,  -0.00071,   0.00047,237496544.00000,   0.00000,274640576.00000,   0.00000,   0.00000,   0.00000,-237144032.00000,   0.00000
-209240498.45294,-247410725.90179,36512865.76502,  -0.00047,  -0.00072,   0.00047,239107840.00000,   0.00000,274640576.00000,   0.00000,   0.00000,   0.00000,-235532736.00000,   0.00000
-210934627.54614,-248912533.16137,36733470.22123,  -0.00047,  -0.00072,   0.00048,240718688.00000,   0.00000,274640576.00000,   0.00000,   0.00000,   0.00000,-233921888.00000,   0.00000
-212600474.01675,-250386057.79837,36948418.15292,  -0.00048,  -0.00072,   0.00048,242300960.00000,   0.00000,274640576.00000,   0.00000,   0.00000,   0.00000,-232339616.00000,   0.00000
-214269148.74963,-251828471.55051,37163366.08461,  -0.00048,  -0.00073,   0.00048,243865936.00000,   0.00000,274640576.00000,   0.00000,   0.00000,   0.00000,-230774640.00000,   0.00000
-215918025.64668,-253262400.51587,37378314.01630,  -0.00049,  -0.00073,   0.00049,245418400.00000,   0.00000,274640576.00000,   0.00000,   0.00000,   0.00000,-229222176.00000,   0.00000
-217549932.97018,-254656733.80961,37587605.42348,  -0.00049,  -0.00073,   0.00049,246938112.00000,   0.00000,274640576.00000,   0.00000,   0.00000,   0.00000,-227702464.00000,   0.00000
-219181840.29369,-256051067.10335,37791240.30613,  -0.00050,  -0.00074,   0.00049,248454400.00000,   0.00000,274640576.00000,   0.00000,   0.00000,   0.00000,-226186176.00000,   0.00000
-220796778.04363,-257405804.72546,38000531.71330,  -0.00050,  -0.00074,   0.00049,249942864.00000,   0.00000,274640576.00000,   0.00000,   0.00000,   0.00000,-224697712.00000,   0.00000
-222411715.79358,-258760542.34757,38204166.59596,  -0.00051,  -0.00074,   0.00050,251428000.00000,   0.00000,274640576.00000,   0.00000,   0.00000,   0.00000,-223212576.00000,   0.00000
-223989886.13416,-260067199.51128,38402144.95410,  -0.00051,  -0.00075,   0.00050,252868208.00000,   0.00000,274640576.00000,   0.00000,   0.00000,   0.00000,-221772368.00000,   0.00000
-225568056.47474,-261373856.67498,38600123.31223,  -0.00052,  -0.00075,   0.00050,254308000.00000,   0.00000,274640576.00000,   0.00000,   0.00000,   0.00000,-220332576.00000,   0.00000
-227129257.24177,-262640918.16706,38798101.67037,  -0.00052,  -0.00075,   0.00050,255718240.00000,   0.00000,274640576.00000,   0.00000,   0.00000,   0.00000,-218922336.00000,   0.00000
-228690458.00879,-263907979.65914,38990423.50399,  -0.00053,  -0.00075,   0.00051,257126048.00000,   0.00000,274640576.00000,   0.00000,   0.00000,   0.00000,-217514528.00000,   0.00000
-230243173.98904,-265155243.31540,39182745.33761,  -0.00053,  -0.00076,   0.00051,258519488.00000,   0.00000,274640576.00000,   0.00000,   0.00000,   0.00000,-216121088.00000,   0.00000
-231759122.55992,-266354426.51326,39375067.17123,  -0.00054,  -0.00076,   0.00051,259871760.00000,   0.00000,274640576.00000,   0.00000,   0.00000,   0.00000,-214768816.00000,   0.00000
-233275071.13080,-267553609.71112,39561732.48033,  -0.00054,  -0.00076,   0.00051,261222240.00000,   0.00000,274640576.00000,   0.00000,   0.00000,   0.00000,-213418336.00000,   0.00000
-234774050.12812,-268713197.23735,39748397.78943,  -0.00054,  -0.00076,   0.00052,262544368.00000,   0.00000,274640576.00000,   0.00000,   0.00000,   0.00000,-212096208.00000,   0.00000
-236273029.12544,-269872784.76359,39929406.57401,  -0.00055,  -0.00077,   0.00052,263865008.00000,   0.00000,274640576.00000,   0.00000,   0.00000,   0.00000,-210775568.00000,   0.00000
-237743725.50018,-271004089.66723,40110415.35860,  -0.00055,  -0.00077,   0.00052,265159936.00000,   0.00000,274640576.00000,   0.00000,   0.00000,   0.00000,-209480640.00000,   0.00000
-239217250.13717,-272104283.68602,40291424.14318,  -0.00056,  -0.00077,   0.00052,266439104.00000,   0.00000,274640576.00000,   0.00000,   0.00000,   0.00000,-208201472.00000,   0.00000
-240670976.93835,-273195992.91803,40466776.40324,  -0.00056,  -0.00077,   0.00053,267704768.00000,   0.00000,274640576.00000,   0.00000,   0.00000,   0.00000,-206935808.00000,   0.00000
-242116218.95275,-274267904.31423,40647785.18782,  -0.00057,  -0.00078,   0.00053,268959648.00000,   0.00000,274640576.00000,   0.00000,   0.00000,   0.00000,-205680928.00000,   0.00000
-243533178.34456,-275311533.08784,40817480.92337,  -0.00057,  -0.00078,   0.00053,270183552.00000,   0.00000,274640576.00000,   0.00000,   0.00000,   0.00000,-204457024.00000,   0.00000
-244961450.78541,-276343848.81241,40992833.18344,  -0.00058,  -0.00078,   0.00053,271409536.00000,   0.00000,274640576.00000,   0.00000,   0.00000,   0.00000,-203231040.00000,   0.00000
-246352955.81689,-277328084.07858,41162528.91898,  -0.00058,  -0.00078,   0.00054,272592608.00000,   0.00000,274640576.00000,   0.00000,   0.00000,   0.00000,-202047968.00000,   0.00000
-247744460.84837,-278312319.34475,41326568.13001,  -0.00058,  -0.00078,   0.00054,273774528.00000,   0.00000,274640576.00000,   0.00000,   0.00000,   0.00000,-200866048.00000,   0.00000
-249107683.25725,-279268271.98832,41496263.86556,  -0.00059,  -0.00078,   0.00054,274933088.00000,   0.00000,274640576.00000,   0.00000,   0.00000,   0.00000,-199707488.00000,   0.00000
-250490703.50195,-280232709.41868,41660303.07658,  -0.00059,  -0.00079,   0.00054,276103168.00000,   0.00000,274640576.00000,   0.00000,   0.00000,   0.00000,-198537408.00000,   0.00000
-251836956.33729,-281149066.39063,41824342.28761,  -0.00060,  -0.00079,   0.00054,277232768.00000,   0.00000,274640576.00000,   0.00000,   0.00000,   0.00000,-197407808.00000,   0.00000
-253174724.38584,-282045625.52676,41982724.97412,  -0.00060,  -0.00079,   0.00055,278346432.00000,   0.00000,274640576.00000,   0.00000,   0.00000,   0.00000,-196294144.00000,   0.00000
-254484209.81181,-282913902.04031,42141107.66063,  -0.00061,  -0.00079,   0.00055,279433600.00000,   0.00000,274640576.00000,   0.00000,   0.00000,   0.00000,-195206976.00000,   0.00000
-255805008.28681,-283770865.50482,42299490.34714,  -0.00061,  -0.00079,   0.00055,280519040.00000,   0.00000,274640576.00000,   0.00000,   0.00000,   0.00000,-194121536.00000,   0.00000
-257106008.92600,-284619344.18255,42457873.03365,  -0.00061,  -0.00079,   0.00055,281590848.00000,   0.00000,274640576.00000,   0.00000,   0.00000,   0.00000,-193049728.00000,   0.00000
-258390039.99163,-285428227.18865,42610599.19564,  -0.00062,  -0.00079,   0.00055,282628960.00000,   0.00000,274640576.00000,   0.00000,   0.00000,   0.00000,-192011616.00000,   0.00000
-259654273.22145,-286228625.40798,42763325.35763,  -0.00062,  -0.00080,   0.00056,283650592.00000,   0.00000,274640576.00000,   0.00000,   0.00000,   0.00000,-190989984.00000,   0.00000
-260910021.66449,-287009225.79149,42916051.51963,  -0.00063,  -0.00080,   0.00056,284653184.00000,   0.00000,274640576.00000,   0.00000,   0.00000,   0.00000,-189987392.00000,   0.00000
-262168598.36979,-287758715.29015,43068777.68162,  -0.00063,  -0.00080,   0.00056,285635936.00000,   0.00000,274640576.00000,   0.00000,   0.00000,   0.00000,-189004640.00000,   0.00000
-263387579.40346,-288491235.21526,43215847.31909,  -0.00064,  -0.00080,   0.00056,286589824.00000,   0.00000,274640576.00000,   0.00000,   0.00000,   0.00000,-188050752.00000,   0.00000
-264617873.48617,-289212442.09133,43362916.95656,  -0.00064,  -0.00080,   0.00056,287546272.00000,   0.00000,274640576.00000,   0.00000,   0.00000,   0.00000,-187094304.00000,   0.00000
-265819884.94629,-289905366.34481,43509986.59404,  -0.00064,  -0.00080,   0.00057,288485152.00000,   0.00000,274640576.00000,   0.00000,   0.00000,   0.00000,-186155424.00000,   0.00000
-267021896.40641,-290598290.59829,43657056.23151,  -0.00065,  -0.00080,   0.00057,289435328.00000,   0.00000,274640576.00000,   0.00000,   0.00000,   0.00000,-185205248.00000,   0.00000
-268187140.45716,-291243134.39337,43798469.34447,  -0.00065,  -0.00080,   0.00057,290349696.00000,   0.00000,274640576.00000,   0.00000,   0.00000,   0.00000,-184290880.00000,   0.00000
-269363697.55695,-291876665.13941,43939882.45742,  -0.00066,  -0.00080,   0.00057,291266496.00000,   0.00000,274640576.00000,   0.00000,   0.00000,   0.00000,-183374080.00000,   0.00000
-270520456.82092,-292501711.09867,44081295.57038,  -0.00066,  -0.00080,   0.00057,292169408.00000,   0.00000,274640576.00000,   0.00000,   0.00000,   0.00000,-182471168.00000,   0.00000
-271660246.51134,-293087161.38630,44222708.68333,  -0.00066,  -0.00080,   0.00057,293040928.00000,   0.00000,274640576.00000,   0.00000,   0.00000,   0.00000,-181599648.00000,   0.00000
-272780238.36594,-293664126.88716,44358465.27177,  -0.00067,  -0.00080,   0.00058,293893984.00000,   0.00000,274640576.00000,   0.00000,   0.00000,   0.00000,-180746592.00000,   0.00000
-273891745.43377,-294221294.55220,44499878.38472,  -0.00067,  -0.00080,   0.00058,294733024.00000,   0.00000,274640576.00000,   0.00000,   0.00000,   0.00000,-179907552.00000,   0.00000
-274994767.71482,-294758664.38143,44635634.97316,  -0.00068,  -0.00080,   0.00058,295553952.00000,   0.00000,274640576.00000,   0.00000,   0.00000,   0.00000,-179086624.00000,   0.00000
-276089305.20909,-295276236.37485,44771391.56160,  -0.00068,  -0.00081,   0.00058,296360256.00000,   0.00000,274640576.00000,   0.00000,   0.00000,   0.00000,-178280320.00000,   0.00000
-277164044.86755,-295785323.58149,44901491.62552,  -0.00068,  -0.00081,   0.00058,297151040.00000,   0.00000,274640576.00000,   0.00000,   0.00000,   0.00000,-177489536.00000,   0.00000
-278221814.95246,-296254815.11650,45037248.21395,  -0.00069,  -0.00081,   0.00059,297916736.00000,   0.00000,274640576.00000,   0.00000,   0.00000,   0.00000,-176723840.00000,   0.00000
-279259787.20155,-296715821.86473,45167348.27787,  -0.00069,  -0.00081,   0.00059,298667680.00000,   0.00000,274640576.00000,   0.00000,   0.00000,   0.00000,-175972896.00000,   0.00000
-280309072.49967,-297165515.56393,45297448.34179,  -0.00070,  -0.00081,   0.00059,299418560.00000,   0.00000,274640576.00000,   0.00000,   0.00000,   0.00000,-175222016.00000,   0.00000
-281330075.17521,-297586926.64053,45433204.93023,  -0.00070,  -0.00081,   0.00059,300146304.00000,   0.00000,274640576.00000,   0.00000,   0.00000,   0.00000,-174494272.00000,   0.00000
-282322795.22816,-297980055.09455,45557648.46963,  -0.00070,  -0.00081,   0.00059,300842784.00000,   0.00000,274640576.00000,   0.00000,   0.00000,   0.00000,-173797792.00000,   0.00000
-283326828.33014,-298361870.49953,45687748.53355,  -0.00071,  -0.00081,   0.00059,301542432.00000,   0.00000,274640576.00000,   0.00000,   0.00000,   0.00000,-173098144.00000,   0.00000
-284311063.59631,-298735201.11773,45817848.59746,  -0.00071,  -0.00080,   0.00060,302230304.00000,   0.00000,274640576.00000,   0.00000,   0.00000,   0.00000,-172410272.00000,   0.00000
-285278329.28892,-299068936.06430,45942292.13687,  -0.00071,  -0.00080,   0.00060,302888864.00000,   0.00000,274640576.00000,   0.00000,   0.00000,   0.00000,-171751712.00000,   0.00000
-286225797.14572,-299394186.22410,46072392.20078,  -0.00072,  -0.00080,   0.00060,303538304.00000,   0.00000,274640576.00000,   0.00000,   0.00000,   0.00000,-171102272.00000,   0.00000
-287164780.21574,-299699638.54808,46196835.74018,  -0.00072,  -0.00080,   0.00060,304172544.00000,   0.00000,274640576.00000,   0.00000,   0.00000,   0.00000,-170468032.00000,   0.00000
-288095278.49898,-299985293.03625,46321279.27959,  -0.00073,  -0.00080,   0.00060,304794144.00000,   0.00000,274640576.00000,   0.00000,   0.00000,   0.00000,-169846432.00000,   0.00000
-289005978.94642,-300262462.73764,46445722.81899,  -0.00073,  -0.00080,   0.00060,305403776.00000,   0.00000,274640576.00000,   0.00000,   0.00000,   0.00000,-169236800.00000,   0.00000
-289899709.82029,-300500036.76741,46570166.35839,  -0.00073,  -0.00080,   0.00061,305986912.00000,   0.00000,274640576.00000,   0.00000,   0.00000,   0.00000,-168653664.00000,   0.00000
-290793440.69417,-300737610.79717,46688953.37327,  -0.00074,  -0.00080,   0.00061,306568768.00000,   0.00000,274640576.00000,   0.00000,   0.00000,   0.00000,-168071808.00000,   0.00000
-291658888.94545,-300946902.20435,46813396.91267,  -0.00074,  -0.00080,   0.00061,307127360.00000,   0.00000,274640576.00000,   0.00000,   0.00000,   0.00000,-167513216.00000,   0.00000
-292535650.24578,-301144880.56248,46937840.45207,  -0.00074,  -0.00080,   0.00061,307686560.00000,   0.00000,274640576.00000,   0.00000,   0.00000,   0.00000,-166954016.00000,   0.00000
-293372815.87447,-301325889.34707,47056627.46695,  -0.00075,  -0.00080,   0.00061,308217792.00000,   0.00000,274640576.00000,   0.00000,   0.00000,   0.00000,-166422784.00000,   0.00000
-294212809.76542,-301475787.24680,47181071.00635,  -0.00075,  -0.00080,   0.00061,308738624.00000,   0.00000,274640576.00000,   0.00000,   0.00000,   0.00000,-165901952.00000,   0.00000
-295033005.82056,-301617200.35975,47299858.02123,  -0.00075,  -0.00080,   0.00061,309244672.00000,   0.00000,274640576.00000,   0.00000,   0.00000,   0.00000,-165395904.00000,   0.00000
-295824919.25311,-301730330.85012,47418645.03612,  -0.00076,  -0.00080,   0.00062,309724896.00000,   0.00000,274640576.00000,   0.00000,   0.00000,   0.00000,-164915680.00000,   0.00000
-296636630.52148,-301851946.12726,47537432.05100,  -0.00076,  -0.00079,   0.00062,310219680.00000,   0.00000,274640576.00000,   0.00000,   0.00000,   0.00000,-164420896.00000,   0.00000
-297411574.38047,-301925480.94600,47656219.06588,  -0.00076,  -0.00079,   0.00062,310674880.00000,   0.00000,274640576.00000,   0.00000,   0.00000,   0.00000,-163965696.00000,   0.00000
-298166720.40365,-301990530.97796,47780662.60528,  -0.00077,  -0.00079,   0.00062,311120448.00000,   0.00000,274640576.00000,   0.00000,   0.00000,   0.00000,-163520128.00000,   0.00000
-298933179.47587,-302044267.96088,47899449.62016,  -0.00077,  -0.00079,   0.00062,311564384.00000,   0.00000,274640576.00000,   0.00000,   0.00000,   0.00000,-163076192.00000,   0.00000
-299671355.92549,-302069722.32121,48018236.63505,  -0.00077,  -0.00079,   0.00062,311982400.00000,   0.00000,274640576.00000,   0.00000,   0.00000,   0.00000,-162658176.00000,   0.00000
-300389734.53930,-302086691.89477,48137023.64993,  -0.00078,  -0.00079,   0.00063,312388256.00000,   0.00000,274640576.00000,   0.00000,   0.00000,   0.00000,-162252320.00000,   0.00000
-301119426.20215,-302092348.41928,48255810.66481,  -0.00078,  -0.00079,   0.00063,312795360.00000,   0.00000,274640576.00000,   0.00000,   0.00000,   0.00000,-161845216.00000,   0.00000
-301801037.40660,-302061237.53443,48368941.15518,  -0.00078,  -0.00079,   0.00063,313160288.00000,   0.00000,274640576.00000,   0.00000,   0.00000,   0.00000,-161480288.00000,   0.00000
-302493961.66008,-302018813.60055,48487728.17006,  -0.00079,  -0.00078,   0.00063,313529152.00000,   0.00000,274640576.00000,   0.00000,   0.00000,   0.00000,-161111424.00000,   0.00000
-303167088.07774,-301967904.87988,48606515.18494,  -0.00079,  -0.00078,   0.00063,313885760.00000,   0.00000,274640576.00000,   0.00000,   0.00000,   0.00000,-160754816.00000,   0.00000
-303831729.70863,-301897198.32341,48725302.19982,  -0.00079,  -0.00078,   0.00063,314230176.00000,   0.00000,274640576.00000,   0.00000,   0.00000,   0.00000,-160410400.00000,   0.00000
-304487886.55274,-301806693.93111,48844089.21470,  -0.00080,  -0.00078,   0.00063,314562400.00000,   0.00000,274640576.00000,   0.00000,   0.00000,   0.00000,-160078176.00000,   0.00000
-305124245.56104,-301707704.75205,48962876.22959,  -0.00080,  -0.00078,   0.00064,314882272.00000,   0.00000,274640576.00000,   0.00000,   0.00000,   0.00000,-159758304.00000,   0.00000
-305732321.94675,-301580432.95039,49081663.24447,  -0.00080,  -0.00078,   0.00064,315176352.00000,   0.00000,274640576.00000,   0.00000,   0.00000,   0.00000,-159464224.00000,   0.00000
-306351711.38149,-301441848.09969,49200450.25935,  -0.00081,  -0.00077,   0.00064,315472064.00000,   0.00000,274640576.00000,   0.00000,   0.00000,   0.00000,-159168512.00000,   0.00000
-306942818.19365,-301274980.62640,49319237.27423,  -0.00081,  -0.00077,   0.00064,315742016.00000,   0.00000,274640576.00000,   0.00000,   0.00000,   0.00000,-158898560.00000,   0.00000
-307514127.16998,-301099628.36634,49438024.28912,  -0.00081,  -0.00077,   0.00064,315999584.00000,   0.00000,274640576.00000,   0.00000,   0.00000,   0.00000,-158640992.00000,   0.00000
-308096749.19536,-300912963.05724,49556811.30400,  -0.00082,  -0.00077,   0.00064,316259072.00000,   0.00000,274640576.00000,   0.00000,   0.00000,   0.00000,-158381504.00000,   0.00000
-308651088.59814,-300698015.12555,49675598.31888,  -0.00082,  -0.00077,   0.00065,316492736.00000,   0.00000,274640576.00000,   0.00000,   0.00000,   0.00000,-158147840.00000,   0.00000
-309185630.16511,-300474582.40708,49794385.33376,  -0.00082,  -0.00076,   0.00065,316714112.00000,   0.00000,274640576.00000,   0.00000,   0.00000,   0.00000,-157926464.00000,   0.00000
-309711686.94531,-300231351.85279,49913172.34865,  -0.00082,  -0.00076,   0.00065,316923456.00000,   0.00000,274640576.00000,   0.00000,   0.00000,   0.00000,-157717120.00000,   0.00000
-310229258.93872,-299968323.46270,50031959.36353,  -0.00083,  -0.00076,   0.00065,317121088.00000,   0.00000,274640576.00000,   0.00000,   0.00000,   0.00000,-157519488.00000,   0.00000
-310727033.09632,-299696810.28582,50150746.37841,  -0.00083,  -0.00076,   0.00065,317306304.00000,   0.00000,274640576.00000,   0.00000,   0.00000,   0.00000,-157334272.00000,   0.00000
-311216322.46715,-299405499.27314,50275189.91781,  -0.00083,  -0.00076,   0.00065,317482400.00000,   0.00000,274640576.00000,   0.00000,   0.00000,   0.00000,-157158176.00000,   0.00000
-311697127.05120,-299094390.42464,50393976.93269,  -0.00083,  -0.00075,   0.00066,317644064.00000,   0.00000,274640576.00000,   0.00000,   0.00000,   0.00000,-156996512.00000,   0.00000
-312158133.79943,-298774796.78936,50518420.47209,  -0.00084,  -0.00075,   0.00066,317796000.00000,   0.00000,274640576.00000,   0.00000,   0.00000,   0.00000,-156844576.00000,   0.00000
-312610655.76089,-298435405.31826,50637207.48698,  -0.00084,  -0.00075,   0.00066,317933600.00000,   0.00000,274640576.00000,   0.00000,   0.00000,   0.00000,-156706976.00000,   0.00000
-313054692.93557,-298076216.01136,50761651.02638,  -0.00084,  -0.00075,   0.00066,318062208.00000,   0.00000,274640576.00000,   0.00000,   0.00000,   0.00000,-156578368.00000,   0.00000
-313478932.27443,-297708541.91767,50880438.04126,  -0.00085,  -0.00074,   0.00066,318175776.00000,   0.00000,274640576.00000,   0.00000,   0.00000,   0.00000,-156464800.00000,   0.00000
-313894686.82652,-297321069.98818,51004881.58066,  -0.00085,  -0.00074,   0.00066,318280352.00000,   0.00000,274640576.00000,   0.00000,   0.00000,   0.00000,-156360224.00000,   0.00000
-314290643.54279,-296925113.27190,51129325.12006,  -0.00085,  -0.00074,   0.00066,318372544.00000,   0.00000,274640576.00000,   0.00000,   0.00000,   0.00000,-156268032.00000,   0.00000
-314678115.47229,-296509358.71982,51253768.65946,  -0.00085,  -0.00074,   0.00067,318453152.00000,   0.00000,274640576.00000,   0.00000,   0.00000,   0.00000,-156187424.00000,   0.00000
-315057102.61501,-296073806.33191,51378212.19886,  -0.00086,  -0.00073,   0.00067,318522336.00000,   0.00000,274640576.00000,   0.00000,   0.00000,   0.00000,-156118240.00000,   0.00000
-315416291.92192,-295629769.15723,51508312.26278,  -0.00086,  -0.00073,   0.00067,318581888.00000,   0.00000,274640576.00000,   0.00000,   0.00000,   0.00000,-156058688.00000,   0.00000
-315766996.44205,-295165934.14674,51632755.80218,  -0.00086,  -0.00073,   0.00067,318627168.00000,   0.00000,274640576.00000,   0.00000,   0.00000,   0.00000,-156013408.00000,   0.00000
-316089418.33958,-294673816.51366,51762855.86610,  -0.00086,  -0.00072,   0.00067,318649728.00000,   0.00000,274640576.00000,   0.00000,   0.00000,   0.00000,-155990848.00000,   0.00000
-316431638.07294,-294190183.66735,51887299.40550,  -0.00087,  -0.00072,   0.00067,318685280.00000,   0.00000,274640576.00000,   0.00000,   0.00000,   0.00000,-155955296.00000,   0.00000
-316734262.13466,-293689581.24749,52017399.46942,  -0.00087,  -0.00072,   0.00068,318696992.00000,   0.00000,274640576.00000,   0.00000,   0.00000,   0.00000,-155943584.00000,   0.00000
-317039714.45864,-293157867.94278,52147499.53334,  -0.00087,  -0.00072,   0.00068,318698720.00000,   0.00000,274640576.00000,   0.00000,   0.00000,   0.00000,-155941856.00000,   0.00000
-317325368.94681,-292617669.85129,52277599.59726,  -0.00087,  -0.00071,   0.00068,318687968.00000,   0.00000,274640576.00000,   0.00000,   0.00000,   0.00000,-155952608.00000,   0.00000
-317591225.59917,-292068986.97302,52407699.66117,  -0.00088,  -0.00071,   0.00068,318664768.00000,   0.00000,274640576.00000,   0.00000,   0.00000,   0.00000,-155975808.00000,   0.00000
-317848597.46475,-291500506.25894,52543456.24961,  -0.00088,  -0.00071,   0.00068,318633088.00000,   0.00000,274640576.00000,   0.00000,   0.00000,   0.00000,-156007488.00000,   0.00000
-318097484.54355,-290912227.70905,52673556.31353,  -0.00088,  -0.00070,   0.00068,318587648.00000,   0.00000,274640576.00000,   0.00000,   0.00000,   0.00000,-156052928.00000,   0.00000
-318346371.62235,-290323949.15916,52809312.90197,  -0.00088,  -0.00070,   0.00069,318546752.00000,   0.00000,274640576.00000,   0.00000,   0.00000,   0.00000,-156093824.00000,   0.00000
-318566976.07856,-289707387.98667,52945069.49040,  -0.00088,  -0.00070,   0.00069,318480640.00000,   0.00000,274640576.00000,   0.00000,   0.00000,   0.00000,-156159936.00000,   0.00000
-318767782.69895,-289082342.02741,53080826.07884,  -0.00089,  -0.00069,   0.00069,318402112.00000,   0.00000,274640576.00000,   0.00000,   0.00000,   0.00000,-156238464.00000,   0.00000
-318979902.36839,-288445983.01911,53216582.66728,  -0.00089,  -0.00069,   0.00069,318326976.00000,   0.00000,274640576.00000,   0.00000,   0.00000,   0.00000,-156313600.00000,   0.00000
-319152426.36619,-287792654.43726,53352339.25571,  -0.00089,  -0.00069,   0.00069,318224992.00000,   0.00000,274640576.00000,   0.00000,   0.00000,   0.00000,-156415584.00000,   0.00000
-319336263.41303,-287128012.80637,53493752.36867,  -0.00089,  -0.00068,   0.00070,318129568.00000,   0.00000,274640576.00000,   0.00000,   0.00000,   0.00000,-156511008.00000,   0.00000
-319500302.62406,-286454886.38871,53635165.48162,  -0.00090,  -0.00068,   0.00070,318021632.00000,   0.00000,274640576.00000,   0.00000,   0.00000,   0.00000,-156618944.00000,   0.00000
-319655857.04831,-285761962.13522,53776578.59458,  -0.00090,  -0.00068,   0.00070,317903072.00000,   0.00000,274640576.00000,   0.00000,   0.00000,   0.00000,-156737504.00000,   0.00000
-319783128.84997,-285040755.25915,53917991.70754,  -0.00090,  -0.00067,   0.00070,317759616.00000,   0.00000,274640576.00000,   0.00000,   0.00000,   0.00000,-156880960.00000,   0.00000
-319910400.65163,-284319548.38308,54065061.34501,  -0.00090,  -0.00067,   0.00070,317621120.00000,   0.00000,274640576.00000,   0.00000,   0.00000,   0.00000,-157019456.00000,   0.00000
-320017874.61748,-283589856.72023,54206474.45796,  -0.00090,  -0.00067,   0.00070,317467232.00000,   0.00000,274640576.00000,   0.00000,   0.00000,   0.00000,-157173344.00000,   0.00000
-320136661.63236,-282848852.00835,54353544.09544,  -0.00091,  -0.00066,   0.00071,317320416.00000,   0.00000,274640576.00000,   0.00000,   0.00000,   0.00000,-157320160.00000,   0.00000
-320207368.18884,-282071079.88710,54500613.73291,  -0.00091,  -0.00066,   0.00071,317134464.00000,   0.00000,274640576.00000,   0.00000,   0.00000,   0.00000,-157506112.00000,   0.00000
-320297872.58113,-281301792.55262,54647683.37038,  -0.00091,  -0.00066,   0.00071,316965216.00000,   0.00000,274640576.00000,   0.00000,   0.00000,   0.00000,-157675360.00000,   0.00000
-320368579.13761,-280524020.43137,54800409.53238,  -0.00091,  -0.00065,   0.00071,316786656.00000,   0.00000,274640576.00000,   0.00000,   0.00000,   0.00000,-157853920.00000,   0.00000
-320411003.07149,-279717965.68752,54953135.69437,  -0.00091,  -0.00065,   0.00071,316583520.00000,   0.00000,274640576.00000,   0.00000,   0.00000,   0.00000,-158057056.00000,   0.00000
-320464740.05442,-278900597.89464,55105861.85636,  -0.00091,  -0.00064,   0.00072,316384896.00000,   0.00000,274640576.00000,   0.00000,   0.00000,   0.00000,-158255680.00000,   0.00000
-320478881.36571,-278066260.52821,55258588.01835,  -0.00092,  -0.00064,   0.00072,316159712.00000,   0.00000,274640576.00000,   0.00000,   0.00000,   0.00000,-158480864.00000,   0.00000
-320512820.51282,-277240407.94855,55411314.18034,  -0.00092,  -0.00064,   0.00072,315951584.00000,   0.00000,274640576.00000,   0.00000,   0.00000,   0.00000,-158688992.00000,   0.00000
-320518477.03734,-276386272.74630,55569696.86685,  -0.00092,  -0.00063,   0.00072,315721984.00000,   0.00000,274640576.00000,   0.00000,   0.00000,   0.00000,-158918592.00000,   0.00000
-320524133.56186,-275532137.54405,55728079.55336,  -0.00092,  -0.00063,   0.00072,315495168.00000,   0.00000,274640576.00000,   0.00000,   0.00000,   0.00000,-159145408.00000,   0.00000
-320501507.46378,-274649719.71921,55886462.23987,  -0.00092,  -0.00062,   0.00073,315244224.00000,   0.00000,274640576.00000,   0.00000,   0.00000,   0.00000,-159396352.00000,   0.00000
-320478881.36571,-273767301.89437,56050501.45090,  -0.00092,  -0.00062,   0.00073,314998784.00000,   0.00000,274640576.00000,   0.00000,   0.00000,   0.00000,-159641792.00000,   0.00000
-320427972.64505,-272856601.44694,56214540.66193,  -0.00093,  -0.00062,   0.00073,314729664.00000,   0.00000,274640576.00000,   0.00000,   0.00000,   0.00000,-159910912.00000,   0.00000
-320377063.92438,-271945900.99951,56378579.87295,  -0.00093,  -0.00061,   0.00073,314463200.00000,   0.00000,274640576.00000,   0.00000,   0.00000,   0.00000,-160177376.00000,   0.00000
-320317670.41694,-271015402.71626,56542619.08398,  -0.00093,  -0.00061,   0.00074,314187648.00000,   0.00000,274640576.00000,   0.00000,   0.00000,   0.00000,-160452928.00000,   0.00000
-320238479.07369,-270076419.64624,56712314.81953,  -0.00093,  -0.00060,   0.00074,313903424.00000,   0.00000,274640576.00000,   0.00000,   0.00000,   0.00000,-160737152.00000,   0.00000
-320159287.73043,-269137436.57622,56882010.55507,  -0.00093,  -0.00060,   0.00074,313622080.00000,   0.00000,274640576.00000,   0.00000,   0.00000,   0.00000,-161018496.00000,   0.00000
-320071611.60040,-268178655.67038,57051706.29062,  -0.00093,  -0.00060,   0.00074,313331872.00000,   0.00000,274640576.00000,   0.00000,   0.00000,   0.00000,-161308704.00000,   0.00000
-319955652.84778,-267191592.14196,57221402.02617,  -0.00093,  -0.00059,   0.00074,313018240.00000,   0.00000,274640576.00000,   0.00000,   0.00000,   0.00000,-161622336.00000,   0.00000
-319848178.88193,-266224326.44934,57396754.28623,  -0.00094,  -0.00059,   0.00075,312722624.00000,   0.00000,274640576.00000,   0.00000,   0.00000,   0.00000,-161917952.00000,   0.00000
-319712422.29349,-265228778.13414,57572106.54630,  -0.00094,  -0.00058,   0.00075,312403616.00000,   0.00000,274640576.00000,   0.00000,   0.00000,   0.00000,-162236960.00000,   0.00000
-319568180.91828,-264213431.98312,57747458.80636,  -0.00094,  -0.00058,   0.00075,312076160.00000,   0.00000,274640576.00000,   0.00000,   0.00000,   0.00000,-162564416.00000,   0.00000
-319423939.54307,-263198085.83210,57928467.59094,  -0.00094,  -0.00057,   0.00075,311754912.00000,   0.00000,274640576.00000,   0.00000,   0.00000,   0.00000,-162885664.00000,   0.00000
-319259900.33204,-262174254.89431,58109476.37553,  -0.00094,  -0.00057,   0.00076,311422208.00000,   0.00000,274640576.00000,   0.00000,   0.00000,   0.00000,-163218368.00000,   0.00000
-319087376.33423,-261130626.12070,58290485.16011,  -0.00094,  -0.00057,   0.00076,311081088.00000,   0.00000,274640576.00000,   0.00000,   0.00000,   0.00000,-163559488.00000,   0.00000
-318895054.50061,-260078512.56031,58471493.94469,  -0.00094,  -0.00056,   0.00076,310728416.00000,   0.00000,274640576.00000,   0.00000,   0.00000,   0.00000,-163912160.00000,   0.00000
-318722530.50281,-259034883.78670,58658159.25379,  -0.00095,  -0.00056,   0.00076,310396928.00000,   0.00000,274640576.00000,   0.00000,   0.00000,   0.00000,-164243648.00000,   0.00000
-318501926.04660,-257954487.60373,58844824.56289,  -0.00095,  -0.00055,   0.00076,310027552.00000,   0.00000,274640576.00000,   0.00000,   0.00000,   0.00000,-164613024.00000,   0.00000
-318292634.63942,-256862778.37171,59037146.39651,  -0.00095,  -0.00055,   0.00077,309668128.00000,   0.00000,274640576.00000,   0.00000,   0.00000,   0.00000,-164972448.00000,   0.00000
-318072030.18321,-255782382.18874,59229468.23013,  -0.00095,  -0.00054,   0.00077,309308160.00000,   0.00000,274640576.00000,   0.00000,   0.00000,   0.00000,-165332416.00000,   0.00000
-317823143.10441,-254673703.38317,59421790.06375,  -0.00095,  -0.00054,   0.00077,308925056.00000,   0.00000,274640576.00000,   0.00000,   0.00000,   0.00000,-165715520.00000,   0.00000
-317574256.02561,-253565024.57760,59614111.89737,  -0.00095,  -0.00053,   0.00077,308544896.00000,   0.00000,274640576.00000,   0.00000,   0.00000,   0.00000,-166095680.00000,   0.00000
-317316884.16003,-252436547.93622,59812090.25551,  -0.00095,  -0.00053,   0.00078,308159552.00000,   0.00000,274640576.00000,   0.00000,   0.00000,   0.00000,-166481024.00000,   0.00000
-317059512.29446,-251308071.29483,60010068.61364,  -0.00095,  -0.00053,   0.00078,307776832.00000,   0.00000,274640576.00000,   0.00000,   0.00000,   0.00000,-166863744.00000,   0.00000
-316782342.59306,-250171109.86668,60213703.49630,  -0.00095,  -0.00052,   0.00078,307385248.00000,   0.00000,274640576.00000,   0.00000,   0.00000,   0.00000,-167255328.00000,   0.00000
-316476890.26908,-249005865.81593,60411681.85443,  -0.00095,  -0.00052,   0.00079,306967008.00000,   0.00000,274640576.00000,   0.00000,   0.00000,   0.00000,-167673568.00000,   0.00000
-316191235.78091,-247849106.55195,60620973.26161,  -0.00096,  -0.00051,   0.00079,306574016.00000,   0.00000,274640576.00000,   0.00000,   0.00000,   0.00000,-168066560.00000,   0.00000
-315857500.83434,-246655579.87861,60824608.14426,  -0.00096,  -0.00051,   0.00079,306140832.00000,   0.00000,274640576.00000,   0.00000,   0.00000,   0.00000,-168499744.00000,   0.00000
-315552048.51035,-245490335.82786,61033899.55144,  -0.00096,  -0.00050,   0.00079,305742304.00000,   0.00000,274640576.00000,   0.00000,   0.00000,   0.00000,-168898272.00000,   0.00000
-315218313.56378,-244296809.15452,61243190.95861,  -0.00096,  -0.00050,   0.00080,305323712.00000,   0.00000,274640576.00000,   0.00000,   0.00000,   0.00000,-169316864.00000,   0.00000
-314876093.83043,-243083484.64536,61452482.36578,  -0.00096,  -0.00049,   0.00080,304900064.00000,   0.00000,274640576.00000,   0.00000,   0.00000,   0.00000,-169740512.00000,   0.00000
-314522561.04804,-241881473.18525,61667430.29748,  -0.00096,  -0.00049,   0.00080,304480896.00000,   0.00000,274640576.00000,   0.00000,   0.00000,   0.00000,-170159680.00000,   0.00000
-314160543.47888,-240659663.88931,61888034.75369,  -0.00096,  -0.00048,   0.00080,304057856.00000,   0.00000,274640576.00000,   0.00000,   0.00000,   0.00000,-170582720.00000,   0.00000
-313798525.90971,-239437854.59338,62102982.68538,  -0.00096,  -0.00048,   0.00081,303633728.00000,   0.00000,274640576.00000,   0.00000,   0.00000,   0.00000,-171006848.00000,   0.00000
-313408225.71795,-238187762.67486,62323587.14159,  -0.00096,  -0.00047,   0.00081,303188896.00000,   0.00000,274640576.00000,   0.00000,   0.00000,   0.00000,-171451680.00000,   0.00000
-313017925.52620,-236937670.75633,62544191.59780,  -0.00096,  -0.00047,   0.00081,302744992.00000,   0.00000,274640576.00000,   0.00000,   0.00000,   0.00000,-171895584.00000,   0.00000
-312627625.33444,-235687578.83781,62770452.57853,  -0.00096,  -0.00046,   0.00082,302305888.00000,   0.00000,274640576.00000,   0.00000,   0.00000,   0.00000,-172334688.00000,   0.00000
-312217527.30687,-234429002.13251,62996713.55925,  -0.00096,  -0.00046,   0.00082,301853760.00000,   0.00000,274640576.00000,   0.00000,   0.00000,   0.00000,-172786816.00000,   0.00000
-311798944.49252,-233150627.59140,63222974.53998,  -0.00096,  -0.00045,   0.00082,301393536.00000,   0.00000,274640576.00000,   0.00000,   0.00000,   0.00000,-173247040.00000,   0.00000
-311360563.84236,-231863768.26350,63454892.04523,  -0.00096,  -0.00045,   0.00082,300925088.00000,   0.00000,274640576.00000,   0.00000,   0.00000,   0.00000,-173715488.00000,   0.00000
-310922183.19220,-230576908.93561,63686809.55048,  -0.00097,  -0.00044,   0.00083,300460448.00000,   0.00000,274640576.00000,   0.00000,   0.00000,   0.00000,-174180128.00000,   0.00000
-310483802.54204,-229290049.60772,63924383.58024,  -0.00097,  -0.00044,   0.00083,300003616.00000,   0.00000,274640576.00000,   0.00000,   0.00000,   0.00000,-174636960.00000,   0.00000
-310017139.26929,-227974907.65724,64156301.08549,  -0.00097,  -0.00043,   0.00083,299522080.00000,   0.00000,274640576.00000,   0.00000,   0.00000,   0.00000,-175118496.00000,   0.00000
-309550475.99654,-226659765.70675,64399531.63977,  -0.00097,  -0.00043,   0.00084,299052544.00000,   0.00000,274640576.00000,   0.00000,   0.00000,   0.00000,-175588032.00000,   0.00000
-309083812.72379,-225344623.75627,64637105.66953,  -0.00097,  -0.00042,   0.00084,298584128.00000,   0.00000,274640576.00000,   0.00000,   0.00000,   0.00000,-176056448.00000,   0.00000
-308588866.82844,-224001199.18320,64880336.22382,  -0.00097,  -0.00042,   0.00084,298098944.00000,   0.00000,274640576.00000,   0.00000,   0.00000,   0.00000,-176541632.00000,   0.00000
-308102405.71988,-222677572.44594,65123566.77810,  -0.00097,  -0.00041,   0.00085,297629184.00000,   0.00000,274640576.00000,   0.00000,   0.00000,   0.00000,-177011392.00000,   0.00000
-307607459.82453,-221334147.87286,65372453.85690,  -0.00097,  -0.00041,   0.00085,297157984.00000,   0.00000,274640576.00000,   0.00000,   0.00000,   0.00000,-177482592.00000,   0.00000
-307092716.09338,-219982238.51301,65621340.93570,  -0.00097,  -0.00040,   0.00085,296677088.00000,   0.00000,274640576.00000,   0.00000,   0.00000,   0.00000,-177963488.00000,   0.00000
-306569487.57544,-218610531.31735,65875884.53902,  -0.00097,  -0.00040,   0.00086,296195328.00000,   0.00000,274640576.00000,   0.00000,   0.00000,   0.00000,-178445248.00000,   0.00000
-306034946.00847,-217250137.17072,66130428.14234,  -0.00097,  -0.00039,   0.00086,295714112.00000,   0.00000,274640576.00000,   0.00000,   0.00000,   0.00000,-178926464.00000,   0.00000
-305491919.65473,-215869945.18828,66384971.74566,  -0.00097,  -0.00039,   0.00086,295228768.00000,   0.00000,274640576.00000,   0.00000,   0.00000,   0.00000,-179411808.00000,   0.00000
-304948893.30098,-214489753.20584,66639515.34898,  -0.00097,  -0.00038,   0.00087,294749056.00000,   0.00000,274640576.00000,   0.00000,   0.00000,   0.00000,-179891520.00000,   0.00000
-304386069.11142,-213101076.43662,66899715.47682,  -0.00097,  -0.00038,   0.00087,294264160.00000,   0.00000,274640576.00000,   0.00000,   0.00000,   0.00000,-180376416.00000,   0.00000
-303814760.13508,-211692601.83158,67165572.12917,  -0.00097,  -0.00037,   0.00087,293779584.00000,   0.00000,274640576.00000,   0.00000,   0.00000,   0.00000,-180860992.00000,   0.00000
-303251935.94552,-210303925.06236,67431428.78153,  -0.00097,  -0.00037,   0.00088,293310688.00000,   0.00000,274640576.00000,   0.00000,   0.00000,   0.00000,-181329888.00000,   0.00000
-302660829.13336,-208886965.67055,67697285.43388,  -0.00097,  -0.00036,   0.00088,292823104.00000,   0.00000,274640576.00000,   0.00000,   0.00000,   0.00000,-181817472.00000,   0.00000
-302069722.32121,-207470006.27874,67963142.08624,  -0.00097,  -0.00035,   0.00088,292341376.00000,   0.00000,274640576.00000,   0.00000,   0.00000,   0.00000,-182299200.00000,   0.00000
-301478615.50906,-206053046.88693,68234655.26311,  -0.00097,  -0.00035,   0.00089,291869280.00000,   0.00000,274640576.00000,   0.00000,   0.00000,   0.00000,-182771296.00000,   0.00000
-300859226.07432,-204607804.87253,68506168.43999,  -0.00097,  -0.00034,   0.00089,291378272.00000,   0.00000,274640576.00000,   0.00000,   0.00000,   0.00000,-183262304.00000,   0.00000
-300248321.42635,-203182360.69394,68783338.14138,  -0.00097,  -0.00034,   0.00089,290905696.00000,   0.00000,274640576.00000,   0.00000,   0.00000,   0.00000,-183734880.00000,   0.00000
-299628931.99161,-201737118.67954,69060507.84277,  -0.00097,  -0.00033,   0.00090,290428640.00000,   0.00000,274640576.00000,   0.00000,   0.00000,   0.00000,-184211936.00000,   0.00000
-298989744.72105,-200283391.87836,69343334.06868,  -0.00097,  -0.00033,   0.00090,289945248.00000,   0.00000,274640576.00000,   0.00000,   0.00000,   0.00000,-184695328.00000,   0.00000
-298350557.45049,-198829665.07718,69626160.29459,  -0.00097,  -0.00032,   0.00091,289466048.00000,   0.00000,274640576.00000,   0.00000,   0.00000,   0.00000,-185174528.00000,   0.00000
-297691572.34412,-197367453.48923,69908986.52050,  -0.00097,  -0.00032,   0.00091,288975808.00000,   0.00000,274640576.00000,   0.00000,   0.00000,   0.00000,-185664768.00000,   0.00000
-297024102.45097,-195885444.06546,70191812.74641,  -0.00097,  -0.00031,   0.00091,288480512.00000,   0.00000,274640576.00000,   0.00000,   0.00000,   0.00000,-186160064.00000,   0.00000
-296365117.34460,-194423232.47750,70480295.49684,  -0.00097,  -0.00031,   0.00092,288002368.00000,   0.00000,274640576.00000,   0.00000,   0.00000,   0.00000,-186638208.00000,   0.00000
-295697647.45145,-192941223.05373,70774434.77179,  -0.00097,  -0.00030,   0.00092,287523456.00000,   0.00000,274640576.00000,   0.00000,   0.00000,   0.00000,-187117120.00000,   0.00000
-295010379.72249,-191450728.84318,71068574.04673,  -0.00097,  -0.00030,   0.00092,287034016.00000,   0.00000,274640576.00000,   0.00000,   0.00000,   0.00000,-187606560.00000,   0.00000
-294331596.78031,-189980032.46845,71362713.32168,  -0.00097,  -0.00029,   0.00093,286557952.00000,   0.00000,274640576.00000,   0.00000,   0.00000,   0.00000,-188082624.00000,   0.00000
-293616046.42875,-188461255.63531,71656852.59663,  -0.00097,  -0.00028,   0.00093,286054496.00000,   0.00000,274640576.00000,   0.00000,   0.00000,   0.00000,-188586080.00000,   0.00000
-292908980.86398,-186962276.63799,71956648.39609,  -0.00097,  -0.00028,   0.00094,285569568.00000,   0.00000,274640576.00000,   0.00000,   0.00000,   0.00000,-189071008.00000,   0.00000
-292201915.29920,-185463297.64066,72262100.72008,  -0.00097,  -0.00027,   0.00094,285094848.00000,   0.00000,274640576.00000,   0.00000,   0.00000,   0.00000,-189545728.00000,   0.00000
-291475051.89861,-183955833.85656,72561896.51954,  -0.00097,  -0.00027,   0.00094,284607328.00000,   0.00000,274640576.00000,   0.00000,   0.00000,   0.00000,-190033248.00000,   0.00000
-290759501.54706,-182437057.02342,72867348.84352,  -0.00097,  -0.00026,   0.00095,284137600.00000,   0.00000,274640576.00000,   0.00000,   0.00000,   0.00000,-190502976.00000,   0.00000
-290004355.52388,-180901310.61673,73178457.69202,  -0.00097,  -0.00026,   0.00095,283649664.00000,   0.00000,274640576.00000,   0.00000,   0.00000,   0.00000,-190990912.00000,   0.00000
-289277492.12329,-179393846.83263,73489566.54053,  -0.00097,  -0.00025,   0.00096,283193024.00000,   0.00000,274640576.00000,   0.00000,   0.00000,   0.00000,-191447552.00000,   0.00000
-288522346.10011,-177858100.42594,73800675.38903,  -0.00097,  -0.00025,   0.00096,282721408.00000,   0.00000,274640576.00000,   0.00000,   0.00000,   0.00000,-191919168.00000,   0.00000
-287767200.07693,-176322354.01924,74117440.76205,  -0.00097,  -0.00024,   0.00096,282262592.00000,   0.00000,274640576.00000,   0.00000,   0.00000,   0.00000,-192377984.00000,   0.00000
-286992256.21793,-174778122.82577,74434206.13507,  -0.00096,  -0.00024,   0.00097,281797760.00000,   0.00000,274640576.00000,   0.00000,   0.00000,   0.00000,-192842816.00000,   0.00000
-286217312.35894,-173233891.63230,74750971.50809,  -0.00096,  -0.00023,   0.00097,281341760.00000,   0.00000,274640576.00000,   0.00000,   0.00000,   0.00000,-193298816.00000,   0.00000
-285433883.71317,-171669862.60302,75073393.40562,  -0.00096,  -0.00022,   0.00098,280891264.00000,   0.00000,274640576.00000,   0.00000,   0.00000,   0.00000,-193749312.00000,   0.00000
-284658939.85417,-170125631.40955,75395815.30316,  -0.00096,  -0.00022,   0.00098,280457408.00000,   0.00000,274640576.00000,   0.00000,   0.00000,   0.00000,-194183168.00000,   0.00000
-283864198.15937,-168572915.42930,75723893.72522,  -0.00096,  -0.00021,   0.00098,280021952.00000,   0.00000,274640576.00000,   0.00000,   0.00000,   0.00000,-194618624.00000,   0.00000
-283041173.84197,-166991916.82646,76046315.62276,  -0.00096,  -0.00021,   0.00099,279567808.00000,   0.00000,274640576.00000,   0.00000,   0.00000,   0.00000,-195072768.00000,   0.00000
-282246432.14716,-165439200.84622,76380050.56933,  -0.00096,  -0.00020,   0.00099,279153504.00000,   0.00000,274640576.00000,   0.00000,   0.00000,   0.00000,-195487072.00000,   0.00000
-281423407.82976,-163858202.24338,76708128.99139,  -0.00096,  -0.00020,   0.00100,278720256.00000,   0.00000,274640576.00000,   0.00000,   0.00000,   0.00000,-195920320.00000,   0.00000
-280600383.51236,-162277203.64054,77041863.93796,  -0.00096,  -0.00019,   0.00100,278299424.00000,   0.00000,274640576.00000,   0.00000,   0.00000,   0.00000,-196341152.00000,   0.00000
-279766046.14593,-160707518.08674,77381255.40905,  -0.00096,  -0.00019,   0.00101,277883456.00000,   0.00000,274640576.00000,   0.00000,   0.00000,   0.00000,-196757120.00000,   0.00000
-278943021.82853,-159126519.48390,77720646.88014,  -0.00096,  -0.00018,   0.00101,277482016.00000,   0.00000,274640576.00000,   0.00000,   0.00000,   0.00000,-197158560.00000,   0.00000
-278100199.67532,-157537036.09428,78060038.35124,  -0.00096,  -0.00017,   0.00101,277073088.00000,   0.00000,274640576.00000,   0.00000,   0.00000,   0.00000,-197567488.00000,   0.00000
-277237579.68629,-155939067.91789,78399429.82233,  -0.00096,  -0.00017,   0.00102,276656352.00000,   0.00000,274640576.00000,   0.00000,   0.00000,   0.00000,-197984224.00000,   0.00000
-276374959.69726,-154341099.74150,78744477.81794,  -0.00096,  -0.00016,   0.00102,276251392.00000,   0.00000,274640576.00000,   0.00000,   0.00000,   0.00000,-198389184.00000,   0.00000
-275512339.70824,-152743131.56510,79089525.81355,  -0.00096,  -0.00016,   0.00103,275853088.00000,   0.00000,274640576.00000,   0.00000,   0.00000,   0.00000,-198787488.00000,   0.00000
-274649719.71921,-151145163.38871,79440230.33368,  -0.00095,  -0.00015,   0.00103,275466176.00000,   0.00000,274640576.00000,   0.00000,   0.00000,   0.00000,-199174400.00000,   0.00000
-273767301.89437,-149538710.42554,79790934.85381,  -0.00095,  -0.00015,   0.00104,275071040.00000,   0.00000,274640576.00000,   0.00000,   0.00000,   0.00000,-199569536.00000,   0.00000
-272884884.06953,-147932257.46237,80141639.37394,  -0.00095,  -0.00014,   0.00104,274681984.00000,   0.00000,274640576.00000,   0.00000,   0.00000,   0.00000,-199958592.00000,   0.00000
-272002466.24469,-146325804.49920,80498000.41858,  -0.00095,  -0.00014,   0.00105,274303360.00000,   0.00000,274640576.00000,   0.00000,   0.00000,   0.00000,-200337216.00000,   0.00000
-271100250.58404,-144710866.74925,80854361.46323,  -0.00095,  -0.00013,   0.00105,273914464.00000,   0.00000,274640576.00000,   0.00000,   0.00000,   0.00000,-200726112.00000,   0.00000
-270198034.92338,-143095928.99930,81210722.50788,  -0.00095,  -0.00012,   0.00106,273527232.00000,   0.00000,274640576.00000,   0.00000,   0.00000,   0.00000,-201113344.00000,   0.00000
-269295819.26273,-141480991.24936,81572740.07704,  -0.00095,  -0.00012,   0.00106,273142848.00000,   0.00000,274640576.00000,   0.00000,   0.00000,   0.00000,-201497728.00000,   0.00000
-268373805.76626,-139857568.71263,81934757.64621,  -0.00095,  -0.00011,   0.00107,272736032.00000,   0.00000,274640576.00000,   0.00000,   0.00000,   0.00000,-201904544.00000,   0.00000
-267463105.31883,-138222833.12687,82296775.21537,  -0.00095,  -0.00011,   0.00107,272324928.00000,   0.00000,274640576.00000,   0.00000,   0.00000,   0.00000,-202315648.00000,   0.00000
-266521293.98655,-136590925.80337,82664449.30906,  -0.00095,  -0.00010,   0.00107,271882752.00000,   0.00000,274640576.00000,   0.00000,   0.00000,   0.00000,-202757824.00000,   0.00000
-265599280.49008,-134967503.26664,83032123.40274,  -0.00095,  -0.00010,   0.00108,271445760.00000,   0.00000,274640576.00000,   0.00000,   0.00000,   0.00000,-203194816.00000,   0.00000
-264657469.15780,-133335595.94314,83399797.49642,  -0.00094,  -0.00009,   0.00108,270990368.00000,   0.00000,274640576.00000,   0.00000,   0.00000,   0.00000,-203650208.00000,   0.00000
-263715657.82552,-131703688.61964,83773128.11462,  -0.00094,  -0.00009,   0.00109,270554720.00000,   0.00000,274640576.00000,   0.00000,   0.00000,   0.00000,-204085856.00000,   0.00000
-262773846.49324,-130071781.29614,84146458.73283,  -0.00094,  -0.00008,   0.00109,270152320.00000,   0.00000,274640576.00000,   0.00000,   0.00000,   0.00000,-204488256.00000,   0.00000
-261812237.32514,-128431389.18586,84519789.35103,  -0.00094,  -0.00007,   0.00110,269771168.00000,   0.00000,274640576.00000,   0.00000,   0.00000,   0.00000,-204869408.00000,   0.00000
-260850628.15705,-126790997.07558,84898776.49375,  -0.00094,  -0.00007,   0.00110,269422656.00000,   0.00000,274640576.00000,   0.00000,   0.00000,   0.00000,-205217920.00000,   0.00000
-259889018.98895,-125150604.96530,85277763.63647,  -0.00094,  -0.00006,   0.00111,269091072.00000,   0.00000,274640576.00000,   0.00000,   0.00000,   0.00000,-205549504.00000,   0.00000
-258907611.98504,-123501728.06824,85656750.77919,  -0.00094,  -0.00006,   0.00111,268754944.00000,   0.00000,274640576.00000,   0.00000,   0.00000,   0.00000,-205885632.00000,   0.00000
-257926204.98114,-121852851.17118,86041394.44642,  -0.00094,  -0.00005,   0.00112,268430672.00000,   0.00000,274640576.00000,   0.00000,   0.00000,   0.00000,-206209904.00000,   0.00000
-256944797.97723,-120203974.27413,86426038.11366,  -0.00093,  -0.00005,   0.00112,268111584.00000,   0.00000,274640576.00000,   0.00000,   0.00000,   0.00000,-206528992.00000,   0.00000
-255943593.13750,-118546612.59029,86810681.78090,  -0.00093,  -0.00004,   0.00113,267783744.00000,   0.00000,274640576.00000,   0.00000,   0.00000,   0.00000,-206856832.00000,   0.00000
-254962186.13360,-116897735.69324,87195325.44814,  -0.00093,  -0.00003,   0.00113,267476416.00000,   0.00000,274640576.00000,   0.00000,   0.00000,   0.00000,-207164160.00000,   0.00000
-253960981.29387,-115240374.00940,87585625.63989,  -0.00093,  -0.00003,   0.00114,267167776.00000,   0.00000,274640576.00000,   0.00000,   0.00000,   0.00000,-207472800.00000,   0.00000
-252948463.40511,-113594325.37460,87975925.83165,  -0.00093,  -0.00002,   0.00114,266859408.00000,   0.00000,274640576.00000,   0.00000,   0.00000,   0.00000,-207781168.00000,   0.00000
-251947258.56539,-111936963.69077,88371882.54792,  -0.00093,  -0.00002,   0.00115,266574576.00000,   0.00000,274640576.00000,   0.00000,   0.00000,   0.00000,-208066000.00000,   0.00000
-250926255.88986,-110271117.22016,88767839.26420,  -0.00093,  -0.00001,   0.00115,266285920.00000,   0.00000,274640576.00000,   0.00000,   0.00000,   0.00000,-208354656.00000,   0.00000
-249893940.16528,-108616583.79858,89163795.98047,  -0.00093,  -0.00001,   0.00116,265999504.00000,   0.00000,274640576.00000,   0.00000,   0.00000,   0.00000,-208641072.00000,   0.00000
-248872937.48975,-106950737.32797,89559752.69675,  -0.00092,  -0.00000,   0.00116,265732672.00000,   0.00000,274640576.00000,   0.00000,   0.00000,   0.00000,-208907904.00000,   0.00000
-247840621.76518,-105296203.90640,89955709.41302,  -0.00092,   0.00000,   0.00117,265467936.00000,   0.00000,274640576.00000,   0.00000,   0.00000,   0.00000,-209172640.00000,   0.00000
-246808306.04060,-103641670.48482,90357322.65382,  -0.00092,   0.00001,   0.00117,265219056.00000,   0.00000,274640576.00000,   0.00000,   0.00000,   0.00000,-209421520.00000,   0.00000
-245767505.52925,-101967339.22743,90758935.89461,  -0.00092,   0.00002,   0.00118,264973696.00000,   0.00000,274640576.00000,   0.00000,   0.00000,   0.00000,-209666880.00000,   0.00000
-244715391.96887,-100304321.01908,91166205.65992,  -0.00092,   0.00002,   0.00119,264732656.00000,   0.00000,274640576.00000,   0.00000,   0.00000,   0.00000,-209907920.00000,   0.00000
-243663278.40848,-98641302.81073,91573475.42523,  -0.00092,   0.00003,   0.00119,264496528.00000,   0.00000,274640576.00000,   0.00000,   0.00000,   0.00000,-210144048.00000,   0.00000
-242611164.84809,-96978284.60237,91975088.66602,  -0.00091,   0.00003,   0.00120,264257440.00000,   0.00000,274640576.00000,   0.00000,   0.00000,   0.00000,-210383136.00000,   0.00000
-241539253.45189,-95306781.60724,92388014.95585,  -0.00091,   0.00004,   0.00120,264020320.00000,   0.00000,274640576.00000,   0.00000,   0.00000,   0.00000,-210620256.00000,   0.00000
-240467342.05569,-93635278.61212,92795284.72116,  -0.00091,   0.00004,   0.00121,263782656.00000,   0.00000,274640576.00000,   0.00000,   0.00000,   0.00000,-210857920.00000,   0.00000
-239395430.65949,-91963775.61699,93208211.01099,  -0.00091,   0.00005,   0.00121,263560960.00000,   0.00000,274640576.00000,   0.00000,   0.00000,   0.00000,-211079616.00000,   0.00000
-238332004.05007,-90312070.45767,93621137.30082,  -0.00091,   0.00005,   0.00122,263357696.00000,   0.00000,274640576.00000,   0.00000,   0.00000,   0.00000,-211282880.00000,   0.00000
-237240294.81806,-88632082.67576,94034063.59065,  -0.00091,   0.00006,   0.00122,263152128.00000,   0.00000,274640576.00000,   0.00000,   0.00000,   0.00000,-211488448.00000,   0.00000
-236157070.37282,-86971892.72967,94446989.88048,  -0.00090,   0.00006,   0.00123,262967552.00000,   0.00000,274640576.00000,   0.00000,   0.00000,   0.00000,-211673024.00000,   0.00000
-235065361.14081,-85291904.94776,94865572.69482,  -0.00090,   0.00007,   0.00123,262801088.00000,   0.00000,274640576.00000,   0.00000,   0.00000,   0.00000,-211839488.00000,   0.00000
-233982136.69557,-83631715.00167,95284155.50917,  -0.00090,   0.00008,   0.00124,262653856.00000,   0.00000,274640576.00000,   0.00000,   0.00000,   0.00000,-211986720.00000,   0.00000
-232879114.41452,-81963040.26880,95702738.32352,  -0.00090,   0.00008,   0.00124,262507024.00000,   0.00000,274640576.00000,   0.00000,   0.00000,   0.00000,-212133552.00000,   0.00000
-231776092.13347,-80294365.53593,96121321.13787,  -0.00090,   0.00009,   0.00125,262373552.00000,   0.00000,274640576.00000,   0.00000,   0.00000,   0.00000,-212267024.00000,   0.00000
-230673069.85242,-78625690.80306,96545560.47673,  -0.00090,   0.00009,   0.00126,262259456.00000,   0.00000,274640576.00000,   0.00000,   0.00000,   0.00000,-212381120.00000,   0.00000
-229550249.73556,-76948531.28341,96964143.29108,  -0.00089,   0.00010,   0.00126,262139808.00000,   0.00000,274640576.00000,   0.00000,   0.00000,   0.00000,-212500768.00000,   0.00000
-228435914.40547,-75291169.59957,97388382.62994,  -0.00089,   0.00010,   0.00127,262044608.00000,   0.00000,274640576.00000,   0.00000,   0.00000,   0.00000,-212595968.00000,   0.00000
-227313094.28861,-73614010.07993,97812621.96881,  -0.00089,   0.00011,   0.00127,261963248.00000,   0.00000,274640576.00000,   0.00000,   0.00000,   0.00000,-212677328.00000,   0.00000
-226198758.95852,-71956648.39609,98242517.83219,  -0.00089,   0.00011,   0.00128,261911040.00000,   0.00000,274640576.00000,   0.00000,   0.00000,   0.00000,-212729536.00000,   0.00000
-225056141.00584,-70271004.08967,98666757.17106,  -0.00089,   0.00012,   0.00128,261860240.00000,   0.00000,274640576.00000,   0.00000,   0.00000,   0.00000,-212780336.00000,   0.00000
-223922007.83994,-68605157.61906,99096653.03444,  -0.00089,   0.00012,   0.00129,261845056.00000,   0.00000,274640576.00000,   0.00000,   0.00000,   0.00000,-212795520.00000,   0.00000
-222787874.67404,-66939311.14844,99526548.89783,  -0.00088,   0.00013,   0.00129,261858400.00000,   0.00000,274640576.00000,   0.00000,   0.00000,   0.00000,-212782176.00000,   0.00000
-221633943.67233,-65264979.89106,99956444.76121,  -0.00088,   0.00014,   0.00130,261886352.00000,   0.00000,274640576.00000,   0.00000,   0.00000,   0.00000,-212754224.00000,   0.00000
-220488497.45739,-63610446.46948,100386340.62459,  -0.00088,   0.00014,   0.00131,261936384.00000,   0.00000,274640576.00000,   0.00000,   0.00000,   0.00000,-212704192.00000,   0.00000
-219334566.45568,-61936115.21209,100821893.01250,  -0.00088,   0.00015,   0.00131,262000752.00000,   0.00000,274640576.00000,   0.00000,   0.00000,   0.00000,-212639824.00000,   0.00000
-218189120.24074,-60281581.79052,101251788.87588,  -0.00088,   0.00015,   0.00132,262057712.00000,   0.00000,274640576.00000,   0.00000,   0.00000,   0.00000,-212582864.00000,   0.00000
-217043674.02580,-58627048.36894,101687341.26378,  -0.00087,   0.00016,   0.00132,262111312.00000,   0.00000,274640576.00000,   0.00000,   0.00000,   0.00000,-212529264.00000,   0.00000
-215878429.97505,-56964030.16059,102122893.65168,  -0.00087,   0.00016,   0.00133,262141696.00000,   0.00000,274640576.00000,   0.00000,   0.00000,   0.00000,-212498880.00000,   0.00000
-214713185.92430,-55301011.95224,102558446.03958,  -0.00087,   0.00017,   0.00133,262165440.00000,   0.00000,274640576.00000,   0.00000,   0.00000,   0.00000,-212475136.00000,   0.00000
-213528144.03774,-53629508.95711,102993998.42749,  -0.00087,   0.00017,   0.00134,262175984.00000,   0.00000,274640576.00000,   0.00000,   0.00000,   0.00000,-212464592.00000,   0.00000
-212362899.98699,-51966490.74875,103429550.81539,  -0.00086,   0.00018,   0.00134,262203328.00000,   0.00000,274640576.00000,   0.00000,   0.00000,   0.00000,-212437248.00000,   0.00000
-211186342.88720,-50314785.58944,103870759.72781,  -0.00086,   0.00018,   0.00135,262234768.00000,   0.00000,274640576.00000,   0.00000,   0.00000,   0.00000,-212405808.00000,   0.00000
-210009785.78742,-48663080.43012,104306312.11571,  -0.00086,   0.00019,   0.00136,262269024.00000,   0.00000,274640576.00000,   0.00000,   0.00000,   0.00000,-212371552.00000,   0.00000
-208813430.85182,-47002890.48403,104747521.02813,  -0.00086,   0.00019,   0.00136,262308288.00000,   0.00000,274640576.00000,   0.00000,   0.00000,   0.00000,-212332288.00000,   0.00000
-207617075.91622,-45342700.53794,105188729.94055,  -0.00086,   0.00020,   0.00137,262358272.00000,   0.00000,274640576.00000,   0.00000,   0.00000,   0.00000,-212282304.00000,   0.00000
-206440518.81643,-43690995.37862,105629938.85297,  -0.00085,   0.00020,   0.00137,262431312.00000,   0.00000,274640576.00000,   0.00000,   0.00000,   0.00000,-212209264.00000,   0.00000
-205232850.83179,-42042118.48156,106071147.76539,  -0.00085,   0.00021,   0.00138,262492512.00000,   0.00000,274640576.00000,   0.00000,   0.00000,   0.00000,-212148064.00000,   0.00000
-204036495.89619,-40381928.53547,106512356.67781,  -0.00085,   0.00021,   0.00138,262575280.00000,   0.00000,274640576.00000,   0.00000,   0.00000,   0.00000,-212065296.00000,   0.00000
-202828827.91155,-38733051.63841,106953565.59023,  -0.00085,   0.00022,   0.00139,262658112.00000,   0.00000,274640576.00000,   0.00000,   0.00000,   0.00000,-211982464.00000,   0.00000
-201621159.92692,-37084174.74136,107394774.50265,  -0.00085,   0.00022,   0.00140,262751760.00000,   0.00000,274640576.00000,   0.00000,   0.00000,   0.00000,-211888816.00000,   0.00000
-200421976.72906,-35455095.68011,107841639.93959,  -0.00084,   0.00023,   0.00140,262864000.00000,   0.00000,274640576.00000,   0.00000,   0.00000,   0.00000,-211776576.00000,   0.00000
-199194510.90861,-33797733.99628,108282848.85201,  -0.00084,   0.00023,   0.00141,262967184.00000,   0.00000,274640576.00000,   0.00000,   0.00000,   0.00000,-211673392.00000,   0.00000
-197995327.71075,-32168654.93503,108729714.28895,  -0.00084,   0.00024,   0.00141,263100496.00000,   0.00000,274640576.00000,   0.00000,   0.00000,   0.00000,-211540080.00000,   0.00000
-196776346.67707,-30531091.08701,109170923.20137,  -0.00084,   0.00024,   0.00142,263225584.00000,   0.00000,274640576.00000,   0.00000,   0.00000,   0.00000,-211414992.00000,   0.00000
-195537567.80759,-28885042.45222,109617788.63830,  -0.00083,   0.00025,   0.00143,263356768.00000,   0.00000,274640576.00000,   0.00000,   0.00000,   0.00000,-211283808.00000,   0.00000
-194318586.77391,-27247478.60420,110064654.07524,  -0.00083,   0.00025,   0.00143,263509728.00000,   0.00000,274640576.00000,   0.00000,   0.00000,   0.00000,-211130848.00000,   0.00000
-193079807.90443,-25601429.96940,110505862.98766,  -0.00083,   0.00026,   0.00144,263654592.00000,   0.00000,274640576.00000,   0.00000,   0.00000,   0.00000,-210985984.00000,   0.00000
-191849513.82172,-23975179.17041,110952728.42460,  -0.00083,   0.00027,   0.00144,263817232.00000,   0.00000,274640576.00000,   0.00000,   0.00000,   0.00000,-210823344.00000,   0.00000
-190619219.73901,-22348928.37143,111399593.86154,  -0.00082,   0.00027,   0.00145,263989936.00000,   0.00000,274640576.00000,   0.00000,   0.00000,   0.00000,-210650640.00000,   0.00000
-189369127.82048,-20714192.78567,111846459.29848,  -0.00082,   0.00028,   0.00145,264161648.00000,   0.00000,274640576.00000,   0.00000,   0.00000,   0.00000,-210478928.00000,   0.00000
-188119035.90196,-19079457.19991,112293324.73542,  -0.00082,   0.00028,   0.00146,264343248.00000,   0.00000,274640576.00000,   0.00000,   0.00000,   0.00000,-210297328.00000,   0.00000
-186877428.77021,-17464519.44996,112740190.17235,  -0.00082,   0.00028,   0.00147,264534896.00000,   0.00000,274640576.00000,   0.00000,   0.00000,   0.00000,-210105680.00000,   0.00000
-185635821.63847,-15849581.70001,113187055.60929,  -0.00081,   0.00029,   0.00147,264736400.00000,   0.00000,274640576.00000,   0.00000,   0.00000,   0.00000,-209904176.00000,   0.00000
-184374416.67091,-14226159.16329,113628264.52171,  -0.00081,   0.00029,   0.00148,264929824.00000,   0.00000,274640576.00000,   0.00000,   0.00000,   0.00000,-209710752.00000,   0.00000
-183113011.70335,-12602736.62656,114075129.95865,  -0.00081,   0.00030,   0.00148,265140464.00000,   0.00000,274640576.00000,   0.00000,   0.00000,   0.00000,-209500112.00000,   0.00000
-181860091.52257,-10999111.92565,114521995.39559,  -0.00081,   0.00030,   0.00149,265360928.00000,   0.00000,274640576.00000,   0.00000,   0.00000,   0.00000,-209279648.00000,   0.00000
-180598686.55501,-9375689.38893,114968860.83253,  -0.00080,   0.00031,   0.00149,265592048.00000,   0.00000,274640576.00000,   0.00000,   0.00000,   0.00000,-209048528.00000,   0.00000
-179325968.53841,-7763579.90124,115415726.26947,  -0.00080,   0.00031,   0.00150,265822656.00000,   0.00000,274640576.00000,   0.00000,   0.00000,   0.00000,-208817920.00000,   0.00000
-178053250.52181,-6151470.41355,115862591.70640,  -0.00080,   0.00032,   0.00151,266063760.00000,   0.00000,274640576.00000,   0.00000,   0.00000,   0.00000,-208576816.00000,   0.00000
-176789017.29200,-4559158.76167,116309457.14334,  -0.00080,   0.00032,   0.00151,266315040.00000,   0.00000,274640576.00000,   0.00000,   0.00000,   0.00000,-208325536.00000,   0.00000
-175524784.06218,-2966847.10980,116750666.05576,  -0.00079,   0.00033,   0.00152,266569248.00000,   0.00000,274640576.00000,   0.00000,   0.00000,   0.00000,-208071328.00000,   0.00000
-174232268.20977,-1346252.83533,117197531.49270,  -0.00079,   0.00033,   0.00152,266832176.00000,   0.00000,274640576.00000,   0.00000,   0.00000,   0.00000,-207808400.00000,   0.00000
-172956721.93091,234745.76751,117644396.92964,  -0.00079,   0.00034,   0.00153,267103904.00000,   0.00000,274640576.00000,   0.00000,   0.00000,   0.00000,-207536672.00000,   0.00000
-171672690.86528,1835542.20616,118091262.36658,  -0.00078,   0.00034,   0.00154,267386656.00000,   0.00000,274640576.00000,   0.00000,   0.00000,   0.00000,-207253920.00000,   0.00000
-170397144.58642,3416540.80900,118532471.27900,  -0.00078,   0.00035,   0.00154,267670912.00000,   0.00000,274640576.00000,   0.00000,   0.00000,   0.00000,-206969664.00000,   0.00000
-169101800.47175,5006024.19861,118979336.71593,  -0.00078,   0.00035,   0.00155,267962368.00000,   0.00000,274640576.00000,   0.00000,   0.00000,   0.00000,-206678208.00000,   0.00000
-167806456.35708,6595507.58823,119420545.62836,  -0.00078,   0.00036,   0.00155,268255792.00000,   0.00000,274640576.00000,   0.00000,   0.00000,   0.00000,-206384784.00000,   0.00000
-166511112.24242,8184990.97784,119861754.54078,  -0.00077,   0.00036,   0.00156,268558208.00000,   0.00000,274640576.00000,   0.00000,   0.00000,   0.00000,-206082368.00000,   0.00000
-165224252.91452,9754676.53165,120308619.97771,  -0.00077,   0.00037,   0.00156,268876000.00000,   0.00000,274640576.00000,   0.00000,   0.00000,   0.00000,-205764576.00000,   0.00000
-163917595.75082,11332846.87222,120749828.89013,  -0.00077,   0.00037,   0.00157,269185696.00000,   0.00000,274640576.00000,   0.00000,   0.00000,   0.00000,-205454880.00000,   0.00000
-162610938.58711,12911017.21280,121191037.80255,  -0.00077,   0.00038,   0.00158,269504320.00000,   0.00000,274640576.00000,   0.00000,   0.00000,   0.00000,-205136256.00000,   0.00000
-161312766.21018,14469389.71757,121632246.71497,  -0.00076,   0.00038,   0.00158,269830688.00000,   0.00000,274640576.00000,   0.00000,   0.00000,   0.00000,-204809888.00000,   0.00000
-160014593.83326,16027762.22234,122073455.62739,  -0.00076,   0.00038,   0.00159,270166528.00000,   0.00000,274640576.00000,   0.00000,   0.00000,   0.00000,-204474048.00000,   0.00000
-158696623.62051,17594619.51388,122509008.01530,  -0.00076,   0.00039,   0.00159,270495040.00000,   0.00000,274640576.00000,   0.00000,   0.00000,   0.00000,-204145536.00000,   0.00000
-157378653.40777,19161476.80542,122950216.92772,  -0.00075,   0.00039,   0.00160,270841344.00000,   0.00000,274640576.00000,   0.00000,   0.00000,   0.00000,-203799232.00000,   0.00000
-156060683.19503,20728334.09696,123385769.31562,  -0.00075,   0.00040,   0.00160,271190432.00000,   0.00000,274640576.00000,   0.00000,   0.00000,   0.00000,-203450144.00000,   0.00000
-154731399.93325,22283878.33947,123826978.22804,  -0.00075,   0.00040,   0.00161,271546816.00000,   0.00000,274640576.00000,   0.00000,   0.00000,   0.00000,-203093760.00000,   0.00000
-153430399.29407,23811139.95939,124262530.61594,  -0.00074,   0.00041,   0.00162,271913056.00000,   0.00000,274640576.00000,   0.00000,   0.00000,   0.00000,-202727520.00000,   0.00000
-152101116.03229,25366684.20189,124698083.00384,  -0.00074,   0.00041,   0.00162,272283520.00000,   0.00000,274640576.00000,   0.00000,   0.00000,   0.00000,-202357056.00000,   0.00000
-150760519.72147,26910915.39536,125133635.39174,  -0.00074,   0.00042,   0.00163,272654048.00000,   0.00000,274640576.00000,   0.00000,   0.00000,   0.00000,-201986528.00000,   0.00000
-149439721.24647,28446661.80206,125563531.25513,  -0.00074,   0.00042,   0.00163,273036320.00000,   0.00000,274640576.00000,   0.00000,   0.00000,   0.00000,-201604256.00000,   0.00000
-148099124.93566,29990892.99553,125999083.64303,  -0.00073,   0.00043,   0.00164,273428768.00000,   0.00000,274640576.00000,   0.00000,   0.00000,   0.00000,-201211808.00000,   0.00000
-146767013.41162,31515326.35318,126428979.50641,  -0.00073,   0.00043,   0.00164,273821056.00000,   0.00000,274640576.00000,   0.00000,   0.00000,   0.00000,-200819520.00000,   0.00000
-145434901.88758,33039759.71084,126858875.36980,  -0.00073,   0.00043,   0.00165,274223232.00000,   0.00000,274640576.00000,   0.00000,   0.00000,   0.00000,-200417344.00000,   0.00000
-144102790.36354,34564193.06849,127288771.23318,  -0.00072,   0.00044,   0.00165,274634304.00000,   0.00000,274640576.00000,   0.00000,   0.00000,   0.00000,-200006272.00000,   0.00000
-142750881.00369,36097111.21293,127718667.09656,  -0.00072,   0.00044,   0.00166,275045856.00000,   0.00000,274640576.00000,   0.00000,   0.00000,   0.00000,-199594720.00000,   0.00000
-141407456.43062,37610231.52155,128148562.95995,  -0.00072,   0.00045,   0.00167,275462432.00000,   0.00000,274640576.00000,   0.00000,   0.00000,   0.00000,-199178144.00000,   0.00000
-140064031.85755,39123351.83017,128572802.29881,  -0.00071,   0.00045,   0.00167,275878528.00000,   0.00000,274640576.00000,   0.00000,   0.00000,   0.00000,-198762048.00000,   0.00000
-138700809.44866,40644956.92557,128997041.63768,  -0.00071,   0.00046,   0.00168,276293312.00000,   0.00000,274640576.00000,   0.00000,   0.00000,   0.00000,-198347264.00000,   0.00000
-137365869.66236,42138279.39837,129421280.97654,  -0.00071,   0.00046,   0.00168,276719840.00000,   0.00000,274640576.00000,   0.00000,   0.00000,   0.00000,-197920736.00000,   0.00000
-136011132.04025,43640086.65796,129845520.31541,  -0.00070,   0.00046,   0.00169,277144992.00000,   0.00000,274640576.00000,   0.00000,   0.00000,   0.00000,-197495584.00000,   0.00000
-134636596.58233,45150378.70432,130264103.12976,  -0.00070,   0.00047,   0.00169,277561216.00000,   0.00000,274640576.00000,   0.00000,   0.00000,   0.00000,-197079360.00000,   0.00000
-133290343.74699,46632388.12809,130682685.94410,  -0.00070,   0.00047,   0.00170,277989120.00000,   0.00000,274640576.00000,   0.00000,   0.00000,   0.00000,-196651456.00000,   0.00000
-131924293.07585,48122882.33863,131101268.75845,  -0.00069,   0.00048,   0.00170,278416544.00000,   0.00000,274640576.00000,   0.00000,   0.00000,   0.00000,-196224032.00000,   0.00000
-130558242.40470,49613376.54918,131519851.57280,  -0.00069,   0.00048,   0.00171,278851840.00000,   0.00000,274640576.00000,   0.00000,   0.00000,   0.00000,-195788736.00000,   0.00000
-129200676.52033,51084072.92391,131932777.86263,  -0.00069,   0.00048,   0.00172,279283680.00000,   0.00000,274640576.00000,   0.00000,   0.00000,   0.00000,-195356896.00000,   0.00000
-127823312.80015,52563254.08542,132351360.67697,  -0.00068,   0.00049,   0.00172,279724608.00000,   0.00000,274640576.00000,   0.00000,   0.00000,   0.00000,-194915968.00000,   0.00000
-126465746.91578,54033950.46016,132758630.44228,  -0.00068,   0.00049,   0.00173,280165536.00000,   0.00000,274640576.00000,   0.00000,   0.00000,   0.00000,-194475040.00000,   0.00000
-125088383.19560,55513131.62167,133171556.73211,  -0.00068,   0.00050,   0.00173,280616256.00000,   0.00000,274640576.00000,   0.00000,   0.00000,   0.00000,-194024320.00000,   0.00000
-123699706.42638,56980999.73414,133578826.49742,  -0.00067,   0.00050,   0.00174,281057280.00000,   0.00000,274640576.00000,   0.00000,   0.00000,   0.00000,-193583296.00000,   0.00000
-122330827.49297,58440383.05984,133986096.26273,  -0.00067,   0.00050,   0.00174,281514688.00000,   0.00000,274640576.00000,   0.00000,   0.00000,   0.00000,-193125888.00000,   0.00000
-120950635.51053,59888453.33650,134393366.02805,  -0.00067,   0.00051,   0.00175,281970336.00000,   0.00000,274640576.00000,   0.00000,   0.00000,   0.00000,-192670240.00000,   0.00000
-119570443.52809,61336523.61316,134794979.26884,  -0.00066,   0.00051,   0.00175,282427008.00000,   0.00000,274640576.00000,   0.00000,   0.00000,   0.00000,-192213568.00000,   0.00000
-118190251.54565,62784593.88982,135202249.03415,  -0.00066,   0.00052,   0.00176,282900544.00000,   0.00000,274640576.00000,   0.00000,   0.00000,   0.00000,-191740032.00000,   0.00000
-116790261.72739,64241148.95326,135598205.75042,  -0.00066,   0.00052,   0.00176,283360032.00000,   0.00000,274640576.00000,   0.00000,   0.00000,   0.00000,-191280544.00000,   0.00000
-115398756.69591,65677906.18088,135999818.99122,  -0.00065,   0.00052,   0.00177,283831840.00000,   0.00000,274640576.00000,   0.00000,   0.00000,   0.00000,-190808736.00000,   0.00000
-114007251.66443,67114663.40851,136395775.70749,  -0.00065,   0.00053,   0.00177,284303776.00000,   0.00000,274640576.00000,   0.00000,   0.00000,   0.00000,-190336800.00000,   0.00000
-112624231.41973,68531622.80032,136791732.42376,  -0.00065,   0.00053,   0.00178,284779360.00000,   0.00000,274640576.00000,   0.00000,   0.00000,   0.00000,-189861216.00000,   0.00000
-111212928.55244,69976864.81472,137182032.61552,  -0.00064,   0.00054,   0.00178,285252032.00000,   0.00000,274640576.00000,   0.00000,   0.00000,   0.00000,-189388544.00000,   0.00000
-109810110.47192,71402308.99331,137572332.80728,  -0.00064,   0.00054,   0.00179,285727808.00000,   0.00000,274640576.00000,   0.00000,   0.00000,   0.00000,-188912768.00000,   0.00000
-108415777.17819,72807955.33608,137962632.99903,  -0.00064,   0.00054,   0.00179,286206176.00000,   0.00000,274640576.00000,   0.00000,   0.00000,   0.00000,-188434400.00000,   0.00000
-107021443.88445,74213601.67886,138347276.66627,  -0.00063,   0.00055,   0.00180,286683360.00000,   0.00000,274640576.00000,   0.00000,   0.00000,   0.00000,-187957216.00000,   0.00000
-105607312.75490,75627732.80841,138731920.33351,  -0.00063,   0.00055,   0.00180,287161216.00000,   0.00000,274640576.00000,   0.00000,   0.00000,   0.00000,-187479360.00000,   0.00000
-104193181.62535,77041863.93796,139110907.47623,  -0.00062,   0.00055,   0.00181,287637824.00000,   0.00000,274640576.00000,   0.00000,   0.00000,   0.00000,-187002752.00000,   0.00000
-102787535.28257,78436197.23170,139495551.14347,  -0.00062,   0.00056,   0.00181,288124864.00000,   0.00000,274640576.00000,   0.00000,   0.00000,   0.00000,-186515712.00000,   0.00000
-101362091.10398,79839015.31221,139868881.76167,  -0.00062,   0.00056,   0.00182,288596800.00000,   0.00000,274640576.00000,   0.00000,   0.00000,   0.00000,-186043776.00000,   0.00000
-99964929.54799,81213550.77014,140247868.90439,  -0.00061,   0.00056,   0.00182,289085280.00000,   0.00000,274640576.00000,   0.00000,   0.00000,   0.00000,-185555296.00000,   0.00000
-98547970.15618,82596571.01484,140621199.52259,  -0.00061,   0.00057,   0.00183,289566816.00000,   0.00000,274640576.00000,   0.00000,   0.00000,   0.00000,-185073760.00000,   0.00000
-97111212.92855,83988076.04632,140988873.61627,  -0.00061,   0.00057,   0.00183,290041856.00000,   0.00000,274640576.00000,   0.00000,   0.00000,   0.00000,-184598720.00000,   0.00000
-95702738.32352,85351298.45520,141356547.70996,  -0.00060,   0.00057,   0.00184,290523936.00000,   0.00000,274640576.00000,   0.00000,   0.00000,   0.00000,-184116640.00000,   0.00000
-94274465.88267,86723005.65087,141724221.80364,  -0.00060,   0.00058,   0.00184,291005088.00000,   0.00000,274640576.00000,   0.00000,   0.00000,   0.00000,-183635488.00000,   0.00000
-92846193.44183,88094712.84653,142086239.37280,  -0.00059,   0.00058,   0.00185,291479424.00000,   0.00000,274640576.00000,   0.00000,   0.00000,   0.00000,-183161152.00000,   0.00000
-91426405.78776,89446622.20638,142448256.94197,  -0.00059,   0.00059,   0.00185,291946848.00000,   0.00000,274640576.00000,   0.00000,   0.00000,   0.00000,-182693728.00000,   0.00000
-89986820.29787,90807016.35301,142804617.98662,  -0.00059,   0.00059,   0.00186,292399744.00000,   0.00000,274640576.00000,   0.00000,   0.00000,   0.00000,-182240832.00000,   0.00000
-88547234.80799,92167410.49964,143160979.03126,  -0.00058,   0.00059,   0.00186,292863136.00000,   0.00000,274640576.00000,   0.00000,   0.00000,   0.00000,-181777440.00000,   0.00000
-87116134.10488,93508006.81046,143517340.07591,  -0.00058,   0.00060,   0.00187,293350720.00000,   0.00000,274640576.00000,   0.00000,   0.00000,   0.00000,-181289856.00000,   0.00000
-85685033.40178,94848603.12127,143868044.59604,  -0.00057,   0.00060,   0.00187,293869888.00000,   0.00000,274640576.00000,   0.00000,   0.00000,   0.00000,-180770688.00000,   0.00000
-84242619.64963,96177886.38305,144213092.59165,  -0.00057,   0.00060,   0.00187,294402080.00000,   0.00000,274640576.00000,   0.00000,   0.00000,   0.00000,-180238496.00000,   0.00000
-82791721.11071,97526967.48064,144563797.11178,  -0.00057,   0.00061,   0.00188,294962208.00000,   0.00000,274640576.00000,   0.00000,   0.00000,   0.00000,-179678368.00000,   0.00000
-81357792.14535,98836452.90661,144903188.58287,  -0.00056,   0.00061,   0.00188,295494208.00000,   0.00000,274640576.00000,   0.00000,   0.00000,   0.00000,-179146368.00000,   0.00000
-79895580.55739,100174220.95516,145242580.05396,  -0.00056,   0.00061,   0.00189,296022816.00000,   0.00000,274640576.00000,   0.00000,   0.00000,   0.00000,-178617760.00000,   0.00000
-78461651.59203,101483706.38113,145581971.52506,  -0.00055,   0.00061,   0.00189,296545504.00000,   0.00000,274640576.00000,   0.00000,   0.00000,   0.00000,-178095072.00000,   0.00000
-77016409.57763,102781878.75805,145915706.47163,  -0.00055,   0.00062,   0.00190,297047776.00000,   0.00000,274640576.00000,   0.00000,   0.00000,   0.00000,-177592800.00000,   0.00000
-75542884.94063,104108333.75757,146249441.41820,  -0.00055,   0.00062,   0.00190,297551936.00000,   0.00000,274640576.00000,   0.00000,   0.00000,   0.00000,-177088640.00000,   0.00000
-74097642.92623,105406506.13450,146577519.84026,  -0.00054,   0.00062,   0.00191,298048576.00000,   0.00000,274640576.00000,   0.00000,   0.00000,   0.00000,-176592000.00000,   0.00000
-72641087.86280,106693365.46239,146899941.73780,  -0.00054,   0.00063,   0.00191,298529824.00000,   0.00000,274640576.00000,   0.00000,   0.00000,   0.00000,-176110752.00000,   0.00000
-71184532.79936,107980224.79028,147222363.63534,  -0.00053,   0.00063,   0.00191,299015360.00000,   0.00000,274640576.00000,   0.00000,   0.00000,   0.00000,-175625216.00000,   0.00000
-69708179.90011,109275568.90495,147544785.53287,  -0.00053,   0.00063,   0.00192,299501152.00000,   0.00000,274640576.00000,   0.00000,   0.00000,   0.00000,-175139424.00000,   0.00000
-68251624.83667,110562428.23285,147861550.90589,  -0.00053,   0.00064,   0.00192,299987616.00000,   0.00000,274640576.00000,   0.00000,   0.00000,   0.00000,-174652960.00000,   0.00000
-66783756.72419,111837974.51170,148172659.75439,  -0.00052,   0.00064,   0.00193,300460512.00000,   0.00000,274640576.00000,   0.00000,   0.00000,   0.00000,-174180064.00000,   0.00000
-65304575.56268,113102207.74152,148483768.60290,  -0.00052,   0.00064,   0.00193,300928832.00000,   0.00000,274640576.00000,   0.00000,   0.00000,   0.00000,-173711744.00000,   0.00000
-63845192.23699,114357956.18456,148794877.45140,  -0.00051,   0.00064,   0.00193,301406528.00000,   0.00000,274640576.00000,   0.00000,   0.00000,   0.00000,-173234048.00000,   0.00000
-62366011.07547,115622189.41438,149094673.25086,  -0.00051,   0.00065,   0.00194,301869792.00000,   0.00000,274640576.00000,   0.00000,   0.00000,   0.00000,-172770784.00000,   0.00000
-60886829.91396,116886422.64420,149400125.57484,  -0.00050,   0.00065,   0.00194,302347776.00000,   0.00000,274640576.00000,   0.00000,   0.00000,   0.00000,-172292800.00000,   0.00000
-59416133.53923,118130858.03820,149694264.84979,  -0.00050,   0.00065,   0.00195,302809184.00000,   0.00000,274640576.00000,   0.00000,   0.00000,   0.00000,-171831392.00000,   0.00000
-57925639.32868,119383778.21899,149988404.12474,  -0.00050,   0.00066,   0.00195,303274048.00000,   0.00000,274640576.00000,   0.00000,   0.00000,   0.00000,-171366528.00000,   0.00000
-56443629.90491,120616900.56396,150282543.39968,  -0.00049,   0.00066,   0.00195,303739680.00000,   0.00000,274640576.00000,   0.00000,   0.00000,   0.00000,-170900896.00000,   0.00000
-54961620.48114,121850022.90892,150571026.15011,  -0.00049,   0.00066,   0.00196,304204288.00000,   0.00000,274640576.00000,   0.00000,   0.00000,   0.00000,-170436288.00000,   0.00000
-53459813.22156,123091630.04067,150853852.37602,  -0.00048,   0.00066,   0.00196,304664704.00000,   0.00000,274640576.00000,   0.00000,   0.00000,   0.00000,-169975872.00000,   0.00000
-51966490.74875,124313439.33660,151136678.60193,  -0.00048,   0.00067,   0.00196,305126336.00000,   0.00000,274640576.00000,   0.00000,   0.00000,   0.00000,-169514240.00000,   0.00000
-50481653.06272,125515450.79672,151413848.30333,  -0.00047,   0.00067,   0.00197,305580448.00000,   0.00000,274640576.00000,   0.00000,   0.00000,   0.00000,-169060128.00000,   0.00000
-48988330.58992,126737260.09265,151691018.00472,  -0.00047,   0.00067,   0.00197,306048576.00000,   0.00000,274640576.00000,   0.00000,   0.00000,   0.00000,-168592000.00000,   0.00000
-47483695.06808,127947756.33955,151956874.65707,  -0.00047,   0.00067,   0.00198,306497440.00000,   0.00000,274640576.00000,   0.00000,   0.00000,   0.00000,-168143136.00000,   0.00000
-45987544.33301,129138454.75063,152228387.83395,  -0.00046,   0.00068,   0.00198,306954944.00000,   0.00000,274640576.00000,   0.00000,   0.00000,   0.00000,-167685632.00000,   0.00000
-44482908.81117,130348950.99753,152494244.48630,  -0.00046,   0.00068,   0.00198,307417632.00000,   0.00000,274640576.00000,   0.00000,   0.00000,   0.00000,-167222944.00000,   0.00000
-42995242.86288,131519851.57280,152754444.61414,  -0.00045,   0.00068,   0.00199,307864736.00000,   0.00000,274640576.00000,   0.00000,   0.00000,   0.00000,-166775840.00000,   0.00000
-41479294.29200,132719034.77066,153008988.21746,  -0.00045,   0.00068,   0.00199,308313792.00000,   0.00000,274640576.00000,   0.00000,   0.00000,   0.00000,-166326784.00000,   0.00000
-39971830.50790,133898420.13270,153263531.82078,  -0.00044,   0.00069,   0.00199,308761984.00000,   0.00000,274640576.00000,   0.00000,   0.00000,   0.00000,-165878592.00000,   0.00000
-38453053.67476,135066492.44571,153512418.89958,  -0.00044,   0.00069,   0.00200,309197888.00000,   0.00000,274640576.00000,   0.00000,   0.00000,   0.00000,-165442688.00000,   0.00000
-36934276.84162,136234564.75872,153761305.97838,  -0.00043,   0.00069,   0.00200,309639552.00000,   0.00000,274640576.00000,   0.00000,   0.00000,   0.00000,-165001024.00000,   0.00000
-35415500.00848,137402637.07173,153998880.00815,  -0.00043,   0.00069,   0.00200,310069856.00000,   0.00000,274640576.00000,   0.00000,   0.00000,   0.00000,-164570720.00000,   0.00000
-33896723.17535,138570709.38474,154242110.56243,  -0.00042,   0.00070,   0.00201,310513984.00000,   0.00000,274640576.00000,   0.00000,   0.00000,   0.00000,-164126592.00000,   0.00000
-32394915.91576,139699186.02612,154474028.06767,  -0.00042,   0.00070,   0.00201,310932416.00000,   0.00000,274640576.00000,   0.00000,   0.00000,   0.00000,-163708160.00000,   0.00000
-30864826.03359,140855945.29009,154705945.57292,  -0.00042,   0.00070,   0.00201,311361024.00000,   0.00000,274640576.00000,   0.00000,   0.00000,   0.00000,-163279552.00000,   0.00000
-29323423.10238,142001391.50503,154932206.55365,  -0.00041,   0.00070,   0.00201,311776992.00000,   0.00000,274640576.00000,   0.00000,   0.00000,   0.00000,-162863584.00000,   0.00000
-27801818.00698,143138352.93319,155158467.53438,  -0.00041,   0.00071,   0.00202,312200576.00000,   0.00000,274640576.00000,   0.00000,   0.00000,   0.00000,-162440000.00000,   0.00000
-26268899.86255,144264001.31231,155379071.99059,  -0.00040,   0.00071,   0.00202,312611808.00000,   0.00000,274640576.00000,   0.00000,   0.00000,   0.00000,-162028768.00000,   0.00000
-24735981.71811,145389649.69144,155594019.92228,  -0.00040,   0.00071,   0.00202,313020384.00000,   0.00000,274640576.00000,   0.00000,   0.00000,   0.00000,-161620192.00000,   0.00000
-23203063.57368,146515298.07056,155803311.32945,  -0.00039,   0.00071,   0.00203,313426048.00000,   0.00000,274640576.00000,   0.00000,   0.00000,   0.00000,-161214528.00000,   0.00000
-21658832.38021,147629633.40065,156012602.73663,  -0.00039,   0.00071,   0.00203,313828416.00000,   0.00000,274640576.00000,   0.00000,   0.00000,   0.00000,-160812160.00000,   0.00000
-20123085.97352,148724170.89492,156216237.61928,  -0.00038,   0.00072,   0.00203,314220832.00000,   0.00000,274640576.00000,   0.00000,   0.00000,   0.00000,-160419744.00000,   0.00000
-18578854.78005,149838506.22501,156419872.50194,  -0.00038,   0.00072,   0.00203,314626816.00000,   0.00000,274640576.00000,   0.00000,   0.00000,   0.00000,-160013760.00000,   0.00000
-17031795.32432,150921730.67024,156617850.86007,  -0.00037,   0.00072,   0.00204,315013760.00000,   0.00000,274640576.00000,   0.00000,   0.00000,   0.00000,-159626816.00000,   0.00000
-15476251.08181,152024752.95129,156810172.69369,  -0.00037,   0.00072,   0.00204,315405920.00000,   0.00000,274640576.00000,   0.00000,   0.00000,   0.00000,-159234656.00000,   0.00000
-13929191.62608,153107977.39653,156996838.00279,  -0.00036,   0.00072,   0.00204,315787936.00000,   0.00000,274640576.00000,   0.00000,   0.00000,   0.00000,-158852640.00000,   0.00000
-12362334.33454,154199686.62854,157177846.78738,  -0.00036,   0.00073,   0.00204,316165952.00000,   0.00000,274640576.00000,   0.00000,   0.00000,   0.00000,-158474624.00000,   0.00000
-10823759.66559,155263113.23796,157358855.57196,  -0.00035,   0.00073,   0.00205,316542880.00000,   0.00000,274640576.00000,   0.00000,   0.00000,   0.00000,-158097696.00000,   0.00000
-9254074.11178,156323711.58513,157534207.83202,  -0.00035,   0.00073,   0.00205,316906048.00000,   0.00000,274640576.00000,   0.00000,   0.00000,   0.00000,-157734528.00000,   0.00000
-7695701.60702,157395622.98133,157709560.09209,  -0.00034,   0.00073,   0.00205,317282528.00000,   0.00000,274640576.00000,   0.00000,   0.00000,   0.00000,-157358048.00000,   0.00000
-6126016.05322,158456221.32849,157879255.82763,  -0.00034,   0.00073,   0.00205,317645248.00000,   0.00000,274640576.00000,   0.00000,   0.00000,   0.00000,-156995328.00000,   0.00000
-4564815.28619,159497021.83984,158043295.03866,  -0.00033,   0.00073,   0.00205,317995168.00000,   0.00000,274640576.00000,   0.00000,   0.00000,   0.00000,-156645408.00000,   0.00000
-3003614.51917,160537822.35119,158201677.72517,  -0.00033,   0.00074,   0.00206,318339776.00000,   0.00000,274640576.00000,   0.00000,   0.00000,   0.00000,-156300800.00000,   0.00000
-1422615.91633,161587107.64932,158354403.88716,  -0.00032,   0.00074,   0.00206,318679072.00000,   0.00000,274640576.00000,   0.00000,   0.00000,   0.00000,-155961504.00000,   0.00000
149897.89973,162616595.11163,158507130.04916,  -0.00032,   0.00074,   0.00206,319016320.00000,   0.00000,274640576.00000,   0.00000,   0.00000,   0.00000,-155624256.00000,   0.00000
1722411.71579,163646082.57395,158654199.68663,  -0.00031,   0.00074,   0.00206,319353888.00000,   0.00000,274640576.00000,   0.00000,   0.00000,   0.00000,-155286688.00000,   0.00000
3306238.58089,164664256.98722,158795612.79958,  -0.00031,   0.00074,   0.00206,319686464.00000,   0.00000,274640576.00000,   0.00000,   0.00000,   0.00000,-154954112.00000,   0.00000
4890065.44599,165682431.40050,158937025.91254,  -0.00030,   0.00074,   0.00207,320033376.00000,   0.00000,274640576.00000,   0.00000,   0.00000,   0.00000,-154607200.00000,   0.00000
6473892.31109,166700605.81378,159067125.97646,  -0.00030,   0.00075,   0.00207,320376672.00000,   0.00000,274640576.00000,   0.00000,   0.00000,   0.00000,-154263904.00000,   0.00000
8069032.22522,167707467.17802,159197226.04038,  -0.00029,   0.00075,   0.00207,320720288.00000,   0.00000,274640576.00000,   0.00000,   0.00000,   0.00000,-153920288.00000,   0.00000
9655687.35258,168694530.70644,159327326.10429,  -0.00029,   0.00075,   0.00207,321057056.00000,   0.00000,274640576.00000,   0.00000,   0.00000,   0.00000,-153583520.00000,   0.00000
11250827.26671,169701392.07068,159446113.11918,  -0.00028,   0.00075,   0.00207,321379104.00000,   0.00000,274640576.00000,   0.00000,   0.00000,   0.00000,-153261472.00000,   0.00000
12828997.60729,170668657.76330,159564900.13406,  -0.00027,   0.00075,   0.00207,321674784.00000,   0.00000,274640576.00000,   0.00000,   0.00000,   0.00000,-152965792.00000,   0.00000
14435450.57046,171664206.07850,159678030.62442,  -0.00027,   0.00075,   0.00208,321960000.00000,   0.00000,274640576.00000,   0.00000,   0.00000,   0.00000,-152680576.00000,   0.00000
16033418.74685,172639956.55789,159785504.59027,  -0.00026,   0.00075,   0.00208,322224832.00000,   0.00000,274640576.00000,   0.00000,   0.00000,   0.00000,-152415744.00000,   0.00000
17642699.97228,173604393.98825,159887322.03160,  -0.00026,   0.00076,   0.00208,322477184.00000,   0.00000,274640576.00000,   0.00000,   0.00000,   0.00000,-152163392.00000,   0.00000
19251981.19771,174568831.41860,159989139.47293,  -0.00025,   0.00076,   0.00208,322740160.00000,   0.00000,274640576.00000,   0.00000,   0.00000,   0.00000,-151900416.00000,   0.00000
20861262.42314,175533268.84895,160079643.86522,  -0.00025,   0.00076,   0.00208,323000960.00000,   0.00000,274640576.00000,   0.00000,   0.00000,   0.00000,-151639616.00000,   0.00000
22481856.69761,176486393.23027,160170148.25751,  -0.00024,   0.00076,   0.00208,323267904.00000,   0.00000,274640576.00000,   0.00000,   0.00000,   0.00000,-151372672.00000,   0.00000
24082653.13626,177431032.82481,160254996.12528,  -0.00024,   0.00076,   0.00208,323540576.00000,   0.00000,274640576.00000,   0.00000,   0.00000,   0.00000,-151100000.00000,   0.00000
25694762.62395,178364359.37032,160339843.99305,  -0.00023,   0.00076,   0.00208,323819552.00000,   0.00000,274640576.00000,   0.00000,   0.00000,   0.00000,-150821024.00000,   0.00000
27326669.94745,179306170.70260,160413378.81179,  -0.00023,   0.00076,   0.00209,324098240.00000,   0.00000,274640576.00000,   0.00000,   0.00000,   0.00000,-150542336.00000,   0.00000
28950092.48418,180228184.19906,160486913.63053,  -0.00022,   0.00076,   0.00209,324387136.00000,   0.00000,274640576.00000,   0.00000,   0.00000,   0.00000,-150253440.00000,   0.00000
30573515.02090,181150197.69553,160554791.92475,  -0.00021,   0.00076,   0.00209,324688192.00000,   0.00000,274640576.00000,   0.00000,   0.00000,   0.00000,-149952384.00000,   0.00000
32196937.55763,182072211.19200,160622670.21896,  -0.00021,   0.00077,   0.00209,325009888.00000,   0.00000,274640576.00000,   0.00000,   0.00000,   0.00000,-149630688.00000,   0.00000
33831673.14339,182982911.63943,160679235.46415,  -0.00020,   0.00077,   0.00209,325321344.00000,   0.00000,274640576.00000,   0.00000,   0.00000,   0.00000,-149319232.00000,   0.00000
35466408.72915,183893612.08686,160735800.70933,  -0.00020,   0.00077,   0.00209,325640192.00000,   0.00000,274640576.00000,   0.00000,   0.00000,   0.00000,-149000384.00000,   0.00000
37112457.36395,184792999.48526,160781052.90547,  -0.00019,   0.00077,   0.00209,325931264.00000,   0.00000,274640576.00000,   0.00000,   0.00000,   0.00000,-148709312.00000,   0.00000
38738708.16293,185683902.09687,160826305.10162,  -0.00019,   0.00077,   0.00209,326213504.00000,   0.00000,274640576.00000,   0.00000,   0.00000,   0.00000,-148427072.00000,   0.00000
40396069.84676,186571976.44623,160871557.29777,  -0.00018,   0.00077,   0.00209,326480608.00000,   0.00000,274640576.00000,   0.00000,   0.00000,   0.00000,-148159968.00000,   0.00000
42033633.69479,187451566.00881,160905496.44487,  -0.00017,   0.00077,   0.00209,326723840.00000,   0.00000,274640576.00000,   0.00000,   0.00000,   0.00000,-147916736.00000,   0.00000
43682510.59184,188319842.52236,160939435.59198,  -0.00017,   0.00077,   0.00209,326958400.00000,   0.00000,274640576.00000,   0.00000,   0.00000,   0.00000,-147682176.00000,   0.00000
45331387.48890,189188119.03590,160962061.69006,  -0.00016,   0.00077,   0.00209,327178976.00000,   0.00000,274640576.00000,   0.00000,   0.00000,   0.00000,-147461600.00000,   0.00000
46980264.38596,190056395.54945,160984687.78813,  -0.00016,   0.00077,   0.00209,327405024.00000,   0.00000,274640576.00000,   0.00000,   0.00000,   0.00000,-147235552.00000,   0.00000
48640454.33205,190913359.01395,161001657.36168,  -0.00015,   0.00077,   0.00209,327622144.00000,   0.00000,274640576.00000,   0.00000,   0.00000,   0.00000,-147018432.00000,   0.00000
50300644.27814,191770322.47846,161018626.93524,  -0.00015,   0.00077,   0.00209,327846656.00000,   0.00000,274640576.00000,   0.00000,   0.00000,   0.00000,-146793920.00000,   0.00000
51972147.27327,192615972.89393,161024283.45976,  -0.00014,   0.00078,   0.00209,328054624.00000,   0.00000,274640576.00000,   0.00000,   0.00000,   0.00000,-146585952.00000,   0.00000
53643650.26840,193461623.30941,161029939.98427,  -0.00013,   0.00078,   0.00209,328269984.00000,   0.00000,274640576.00000,   0.00000,   0.00000,   0.00000,-146370592.00000,   0.00000
55306668.47675,194287475.88906,161029939.98427,  -0.00013,   0.00078,   0.00209,328474976.00000,   0.00000,274640576.00000,   0.00000,   0.00000,   0.00000,-146165600.00000,   0.00000
56969686.68511,195113328.46872,161024283.45976,  -0.00012,   0.00078,   0.00209,328678144.00000,   0.00000,274640576.00000,   0.00000,   0.00000,   0.00000,-145962432.00000,   0.00000
58652502.72927,195947665.83516,161012970.41072,  -0.00012,   0.00078,   0.00209,328881472.00000,   0.00000,274640576.00000,   0.00000,   0.00000,   0.00000,-145759104.00000,   0.00000
60326833.98666,196762205.36578,160996000.83717,  -0.00011,   0.00078,   0.00209,329073568.00000,   0.00000,274640576.00000,   0.00000,   0.00000,   0.00000,-145567008.00000,   0.00000
62012478.29309,197565431.84736,160979031.26361,  -0.00010,   0.00078,   0.00209,329265024.00000,   0.00000,274640576.00000,   0.00000,   0.00000,   0.00000,-145375552.00000,   0.00000
63698122.59951,198368658.32895,160956405.16554,  -0.00010,   0.00078,   0.00209,329454112.00000,   0.00000,274640576.00000,   0.00000,   0.00000,   0.00000,-145186464.00000,   0.00000
65383766.90594,199171884.81053,160928122.54295,  -0.00009,   0.00078,   0.00209,329641376.00000,   0.00000,274640576.00000,   0.00000,   0.00000,   0.00000,-144999200.00000,   0.00000
67060926.42559,199955313.45631,160894183.39584,  -0.00008,   0.00078,   0.00209,329817056.00000,   0.00000,274640576.00000,   0.00000,   0.00000,   0.00000,-144823520.00000,   0.00000
68757883.78105,200747226.88886,160854587.72421,  -0.00008,   0.00078,   0.00209,329993184.00000,   0.00000,274640576.00000,   0.00000,   0.00000,   0.00000,-144647392.00000,   0.00000
70466154.18555,201527827.27237,160809335.52806,  -0.00007,   0.00078,   0.00209,330160544.00000,   0.00000,274640576.00000,   0.00000,   0.00000,   0.00000,-144480032.00000,   0.00000
72154626.75423,202299942.86910,160764083.33192,  -0.00007,   0.00078,   0.00209,330332000.00000,   0.00000,274640576.00000,   0.00000,   0.00000,   0.00000,-144308576.00000,   0.00000
73862897.15873,203080543.25261,160713174.61126,  -0.00006,   0.00078,   0.00209,330504256.00000,   0.00000,274640576.00000,   0.00000,   0.00000,   0.00000,-144136320.00000,   0.00000
75562682.77645,203841345.80031,160656609.36607,  -0.00005,   0.00078,   0.00209,330665696.00000,   0.00000,274640576.00000,   0.00000,   0.00000,   0.00000,-143974880.00000,   0.00000
77273781.44321,204590835.29898,160594387.59637,  -0.00005,   0.00078,   0.00209,330819008.00000,   0.00000,274640576.00000,   0.00000,   0.00000,   0.00000,-143821568.00000,   0.00000
78984880.10996,205340324.79764,160526509.30215,  -0.00004,   0.00078,   0.00209,330971072.00000,   0.00000,274640576.00000,   0.00000,   0.00000,   0.00000,-143669504.00000,   0.00000
80695978.77672,206089814.29630,160458631.00794,  -0.00003,   0.00078,   0.00209,331130016.00000,   0.00000,274640576.00000,   0.00000,   0.00000,   0.00000,-143510560.00000,   0.00000
82418390.49251,206827990.74593,160379439.66468,  -0.00003,   0.00078,   0.00208,331273312.00000,   0.00000,274640576.00000,   0.00000,   0.00000,   0.00000,-143367264.00000,   0.00000
84140802.20831,207566167.19555,160300248.32143,  -0.00002,   0.00078,   0.00208,331423680.00000,   0.00000,274640576.00000,   0.00000,   0.00000,   0.00000,-143216896.00000,   0.00000
85854729.13732,208284545.80936,160215400.45365,  -0.00002,   0.00078,   0.00208,331563552.00000,   0.00000,274640576.00000,   0.00000,   0.00000,   0.00000,-143077024.00000,   0.00000
87588453.90215,209011409.20995,160124896.06136,  -0.00001,   0.00078,   0.00208,331705536.00000,   0.00000,274640576.00000,   0.00000,   0.00000,   0.00000,-142935040.00000,   0.00000
89313693.88021,209718474.77473,160034391.66907,  -0.00000,   0.00078,   0.00208,331845120.00000,   0.00000,274640576.00000,   0.00000,   0.00000,   0.00000,-142795456.00000,   0.00000
91058731.69407,210434025.12628,159932574.22774,   0.00000,   0.00078,   0.00208,331979040.00000,   0.00000,274640576.00000,   0.00000,   0.00000,   0.00000,-142661536.00000,   0.00000
92783971.67213,211141090.69106,159830756.78642,   0.00001,   0.00078,   0.00208,332116192.00000,   0.00000,274640576.00000,   0.00000,   0.00000,   0.00000,-142524384.00000,   0.00000
94540322.53503,211845327.99357,159723282.82057,   0.00002,   0.00078,   0.00208,332249824.00000,   0.00000,274640576.00000,   0.00000,   0.00000,   0.00000,-142390752.00000,   0.00000
96268390.77534,212521282.67350,159610152.33021,   0.00002,   0.00078,   0.00207,332369088.00000,   0.00000,274640576.00000,   0.00000,   0.00000,   0.00000,-142271488.00000,   0.00000
98016256.85147,213205722.14020,159491365.31532,   0.00003,   0.00078,   0.00207,332490432.00000,   0.00000,274640576.00000,   0.00000,   0.00000,   0.00000,-142150144.00000,   0.00000
99764122.92759,213890161.60691,159366921.77592,   0.00004,   0.00078,   0.00207,332610144.00000,   0.00000,274640576.00000,   0.00000,   0.00000,   0.00000,-142030432.00000,   0.00000
101523302.05275,214563288.02457,159242478.23652,   0.00004,   0.00078,   0.00207,332730784.00000,   0.00000,274640576.00000,   0.00000,   0.00000,   0.00000,-141909792.00000,   0.00000
103282481.17791,215236414.44224,159112378.17260,   0.00005,   0.00078,   0.00207,332849696.00000,   0.00000,274640576.00000,   0.00000,   0.00000,   0.00000,-141790880.00000,   0.00000
105033175.51630,215889743.02409,158976621.58417,   0.00006,   0.00078,   0.00207,332957408.00000,   0.00000,274640576.00000,   0.00000,   0.00000,   0.00000,-141683168.00000,   0.00000
106783869.85468,216543071.60594,158835208.47121,   0.00006,   0.00078,   0.00206,333063264.00000,   0.00000,274640576.00000,   0.00000,   0.00000,   0.00000,-141577312.00000,   0.00000
108545877.24211,217185087.13876,158688138.83374,   0.00007,   0.00078,   0.00206,333162016.00000,   0.00000,274640576.00000,   0.00000,   0.00000,   0.00000,-141478560.00000,   0.00000
110327682.46534,217835587.45835,158541069.19626,   0.00008,   0.00078,   0.00206,333271424.00000,   0.00000,274640576.00000,   0.00000,   0.00000,   0.00000,-141369152.00000,   0.00000
112081205.06598,218457805.15536,158388343.03427,   0.00008,   0.00078,   0.00206,333365536.00000,   0.00000,274640576.00000,   0.00000,   0.00000,   0.00000,-141275040.00000,   0.00000
113874323.33825,219096992.42591,158224303.82324,   0.00009,   0.00077,   0.00206,333458912.00000,   0.00000,274640576.00000,   0.00000,   0.00000,   0.00000,-141181664.00000,   0.00000
115647643.77471,219727694.90969,158065921.13674,   0.00010,   0.00077,   0.00205,333562688.00000,   0.00000,274640576.00000,   0.00000,   0.00000,   0.00000,-141077888.00000,   0.00000
117432277.26021,220347084.34444,157896225.40119,   0.00010,   0.00077,   0.00205,333652544.00000,   0.00000,274640576.00000,   0.00000,   0.00000,   0.00000,-140988032.00000,   0.00000
119216910.74570,220966473.77918,157720873.14112,   0.00011,   0.00077,   0.00205,333741696.00000,   0.00000,274640576.00000,   0.00000,   0.00000,   0.00000,-140898880.00000,   0.00000
120993059.44442,221566065.37811,157545520.88106,   0.00012,   0.00077,   0.00205,333828704.00000,   0.00000,274640576.00000,   0.00000,   0.00000,   0.00000,-140811872.00000,   0.00000
122789005.97895,222174141.76382,157364512.09648,   0.00013,   0.00077,   0.00205,333920096.00000,   0.00000,274640576.00000,   0.00000,   0.00000,   0.00000,-140720480.00000,   0.00000
124576467.72670,222762420.31371,157177846.78738,   0.00013,   0.00077,   0.00204,334001760.00000,   0.00000,274640576.00000,   0.00000,   0.00000,   0.00000,-140638816.00000,   0.00000
126383727.31027,223359183.65038,156991181.47828,   0.00014,   0.00077,   0.00204,334096608.00000,   0.00000,274640576.00000,   0.00000,   0.00000,   0.00000,-140543968.00000,   0.00000
128182502.10706,223936149.15124,156793203.12014,   0.00015,   0.00077,   0.00204,334174176.00000,   0.00000,274640576.00000,   0.00000,   0.00000,   0.00000,-140466400.00000,   0.00000
129981276.90384,224513114.65210,156595224.76200,   0.00015,   0.00077,   0.00204,334260480.00000,   0.00000,274640576.00000,   0.00000,   0.00000,   0.00000,-140380096.00000,   0.00000
131791364.74967,225078767.10392,156391589.87935,   0.00016,   0.00077,   0.00203,334342656.00000,   0.00000,274640576.00000,   0.00000,   0.00000,   0.00000,-140297920.00000,   0.00000
133601452.59550,225644419.55574,156182298.47217,   0.00017,   0.00077,   0.00203,334425696.00000,   0.00000,274640576.00000,   0.00000,   0.00000,   0.00000,-140214880.00000,   0.00000
135411540.44132,226210072.00756,155967350.54048,   0.00018,   0.00077,   0.00203,334509600.00000,   0.00000,274640576.00000,   0.00000,   0.00000,   0.00000,-140130976.00000,   0.00000
137232941.33618,226764411.41034,155752402.60879,   0.00018,   0.00076,   0.00202,334597536.00000,   0.00000,274640576.00000,   0.00000,   0.00000,   0.00000,-140043040.00000,   0.00000
139054342.23105,227318750.81313,155531798.15258,   0.00019,   0.00076,   0.00202,334686272.00000,   0.00000,274640576.00000,   0.00000,   0.00000,   0.00000,-139954304.00000,   0.00000
140867258.33913,227853292.38010,155305537.17185,   0.00020,   0.00076,   0.00202,334765696.00000,   0.00000,274640576.00000,   0.00000,   0.00000,   0.00000,-139874880.00000,   0.00000
142699972.28303,228396318.73384,155073619.66660,   0.00020,   0.00076,   0.00202,334850944.00000,   0.00000,274640576.00000,   0.00000,   0.00000,   0.00000,-139789632.00000,   0.00000
144524201.44015,228919547.25178,154841702.16136,   0.00021,   0.00076,   0.00201,334934496.00000,   0.00000,274640576.00000,   0.00000,   0.00000,   0.00000,-139706080.00000,   0.00000
146368228.43309,229451260.55649,154604128.13159,   0.00022,   0.00076,   0.00201,335024000.00000,   0.00000,274640576.00000,   0.00000,   0.00000,   0.00000,-139616576.00000,   0.00000
148203770.63924,229963176.02539,154360897.57731,   0.00023,   0.00076,   0.00201,335103520.00000,   0.00000,274640576.00000,   0.00000,   0.00000,   0.00000,-139537056.00000,   0.00000
150039312.84540,230475091.49428,154112010.49851,   0.00023,   0.00076,   0.00200,335182976.00000,   0.00000,274640576.00000,   0.00000,   0.00000,   0.00000,-139457600.00000,   0.00000
151866370.26478,230967209.12737,153857466.89519,   0.00024,   0.00075,   0.00200,335252288.00000,   0.00000,274640576.00000,   0.00000,   0.00000,   0.00000,-139388288.00000,   0.00000
153713225.51998,231467811.54723,153602923.29187,   0.00025,   0.00075,   0.00200,335335456.00000,   0.00000,274640576.00000,   0.00000,   0.00000,   0.00000,-139305120.00000,   0.00000
155579878.61098,231976898.75387,153342723.16403,   0.00026,   0.00075,   0.00199,335424832.00000,   0.00000,274640576.00000,   0.00000,   0.00000,   0.00000,-139215744.00000,   0.00000
157418249.07940,232457703.33792,153082523.03620,   0.00026,   0.00075,   0.00199,335506112.00000,   0.00000,274640576.00000,   0.00000,   0.00000,   0.00000,-139134464.00000,   0.00000
159296215.21945,232955477.49552,152811009.85932,   0.00027,   0.00075,   0.00199,335592736.00000,   0.00000,274640576.00000,   0.00000,   0.00000,   0.00000,-139047840.00000,   0.00000
161145898.73690,233424969.03053,152539496.68245,   0.00028,   0.00075,   0.00198,335671616.00000,   0.00000,274640576.00000,   0.00000,   0.00000,   0.00000,-138968960.00000,   0.00000
163015380.09017,233902945.35232,152262326.98106,   0.00029,   0.00075,   0.00198,335758144.00000,   0.00000,274640576.00000,   0.00000,   0.00000,   0.00000,-138882432.00000,   0.00000
164876376.65665,234361123.83829,151979500.75515,   0.00029,   0.00074,   0.00198,335836416.00000,   0.00000,274640576.00000,   0.00000,   0.00000,   0.00000,-138804160.00000,   0.00000
166737373.22314,234819302.32427,151696674.52924,   0.00030,   0.00074,   0.00197,335924512.00000,   0.00000,274640576.00000,   0.00000,   0.00000,   0.00000,-138716064.00000,   0.00000
168609682.83867,235266167.76120,151408191.77881,   0.00031,   0.00074,   0.00197,336012064.00000,   0.00000,274640576.00000,   0.00000,   0.00000,   0.00000,-138628512.00000,   0.00000
170481992.45420,235713033.19814,151114052.50386,   0.00032,   0.00074,   0.00196,336103104.00000,   0.00000,274640576.00000,   0.00000,   0.00000,   0.00000,-138537472.00000,   0.00000
172374099.90554,236168383.42186,150819913.22891,   0.00032,   0.00074,   0.00196,336213184.00000,   0.00000,274640576.00000,   0.00000,   0.00000,   0.00000,-138427392.00000,   0.00000
174257722.57010,236603935.80976,150514460.90493,   0.00033,   0.00074,   0.00196,336309888.00000,   0.00000,274640576.00000,   0.00000,   0.00000,   0.00000,-138330688.00000,   0.00000
176132860.44788,237019690.36185,150214665.10547,   0.00034,   0.00073,   0.00195,336415168.00000,   0.00000,274640576.00000,   0.00000,   0.00000,   0.00000,-138225408.00000,   0.00000
178036280.94826,237463727.53653,149903556.25696,   0.00035,   0.00073,   0.00195,336530656.00000,   0.00000,274640576.00000,   0.00000,   0.00000,   0.00000,-138109920.00000,   0.00000
179922731.87508,237868169.03958,149592447.40846,   0.00035,   0.00073,   0.00194,336629952.00000,   0.00000,274640576.00000,   0.00000,   0.00000,   0.00000,-138010624.00000,   0.00000
181817667.58868,238292408.37844,149275682.03544,   0.00036,   0.00073,   0.00194,336738720.00000,   0.00000,274640576.00000,   0.00000,   0.00000,   0.00000,-137901856.00000,   0.00000
183715431.56454,238685536.83246,148953260.13791,   0.00037,   0.00073,   0.00194,336839104.00000,   0.00000,274640576.00000,   0.00000,   0.00000,   0.00000,-137801472.00000,   0.00000
185621680.32717,239098463.12229,148630838.24037,   0.00038,   0.00073,   0.00193,336964000.00000,   0.00000,274640576.00000,   0.00000,   0.00000,   0.00000,-137676576.00000,   0.00000
187519444.30303,239491591.57630,148302759.81831,   0.00039,   0.00072,   0.00193,337085152.00000,   0.00000,274640576.00000,   0.00000,   0.00000,   0.00000,-137555424.00000,   0.00000
189428521.32793,239873406.98128,147969024.87174,   0.00039,   0.00072,   0.00192,337210016.00000,   0.00000,274640576.00000,   0.00000,   0.00000,   0.00000,-137430560.00000,   0.00000
191337598.35282,240255222.38626,147635289.92516,   0.00040,   0.00072,   0.00192,337349056.00000,   0.00000,274640576.00000,   0.00000,   0.00000,   0.00000,-137291520.00000,   0.00000
193266473.21353,240645522.57802,147295898.45407,   0.00041,   0.00072,   0.00191,337503488.00000,   0.00000,274640576.00000,   0.00000,   0.00000,   0.00000,-137137088.00000,   0.00000
195186863.28746,241016024.93396,146950850.45846,   0.00042,   0.00072,   0.00191,337656032.00000,   0.00000,274640576.00000,   0.00000,   0.00000,   0.00000,-136984544.00000,   0.00000
197107253.36139,241386527.28990,146605802.46285,   0.00043,   0.00071,   0.00191,337824384.00000,   0.00000,274640576.00000,   0.00000,   0.00000,   0.00000,-136816192.00000,   0.00000
199038956.48436,241745716.59681,146255097.94272,   0.00043,   0.00071,   0.00190,337997280.00000,   0.00000,274640576.00000,   0.00000,   0.00000,   0.00000,-136643296.00000,   0.00000
200970659.60732,242104905.90371,145904393.42259,   0.00044,   0.00071,   0.00190,338179520.00000,   0.00000,274640576.00000,   0.00000,   0.00000,   0.00000,-136461056.00000,   0.00000
202893877.94351,242444297.37481,145542375.85343,   0.00045,   0.00071,   0.00189,338340672.00000,   0.00000,274640576.00000,   0.00000,   0.00000,   0.00000,-136299904.00000,   0.00000
204836894.11552,242792173.63268,145186014.80878,   0.00046,   0.00071,   0.00189,338518208.00000,   0.00000,274640576.00000,   0.00000,   0.00000,   0.00000,-136122368.00000,   0.00000
206779910.28752,243140049.89055,144818340.71510,   0.00047,   0.00070,   0.00188,338681536.00000,   0.00000,274640576.00000,   0.00000,   0.00000,   0.00000,-135959040.00000,   0.00000
208714441.67275,243468128.31260,144450666.62141,   0.00047,   0.00070,   0.00188,338837760.00000,   0.00000,274640576.00000,   0.00000,   0.00000,   0.00000,-135802816.00000,   0.00000
210668770.89379,243804691.52144,144082992.52773,   0.00048,   0.00070,   0.00187,339009216.00000,   0.00000,274640576.00000,   0.00000,   0.00000,   0.00000,-135631360.00000,   0.00000
212614615.32805,244121456.89446,143704005.38501,   0.00049,   0.00070,   0.00187,339165824.00000,   0.00000,274640576.00000,   0.00000,   0.00000,   0.00000,-135474752.00000,   0.00000
214560459.76231,244438222.26747,143330674.76681,   0.00050,   0.00069,   0.00186,339341152.00000,   0.00000,274640576.00000,   0.00000,   0.00000,   0.00000,-135299424.00000,   0.00000
216517617.24561,244743674.59146,142946031.09957,   0.00051,   0.00069,   0.00186,339512960.00000,   0.00000,274640576.00000,   0.00000,   0.00000,   0.00000,-135127616.00000,   0.00000
218474774.72891,245049126.91544,142561387.43233,   0.00052,   0.00069,   0.00185,339696768.00000,   0.00000,274640576.00000,   0.00000,   0.00000,   0.00000,-134943808.00000,   0.00000
220451730.04802,245363064.02620,142176743.76510,   0.00052,   0.00069,   0.00185,339901856.00000,   0.00000,274640576.00000,   0.00000,   0.00000,   0.00000,-134738720.00000,   0.00000
222400402.74455,245648718.51437,141786443.57334,   0.00053,   0.00068,   0.00184,340092128.00000,   0.00000,274640576.00000,   0.00000,   0.00000,   0.00000,-134548448.00000,   0.00000
224380186.32592,245931544.74028,141390486.85707,   0.00054,   0.00068,   0.00184,340295040.00000,   0.00000,274640576.00000,   0.00000,   0.00000,   0.00000,-134345536.00000,   0.00000
226348656.85825,246225684.01523,140994530.14079,   0.00055,   0.00068,   0.00183,340510240.00000,   0.00000,274640576.00000,   0.00000,   0.00000,   0.00000,-134130336.00000,   0.00000
228319955.65285,246488712.40532,140592916.90000,   0.00056,   0.00068,   0.00183,340718560.00000,   0.00000,274640576.00000,   0.00000,   0.00000,   0.00000,-133922016.00000,   0.00000
230299739.23422,246771538.63123,140191303.65921,   0.00057,   0.00067,   0.00182,340948224.00000,   0.00000,274640576.00000,   0.00000,   0.00000,   0.00000,-133692352.00000,   0.00000
232290835.86463,247043051.80811,139784033.89389,   0.00058,   0.00067,   0.00182,341181472.00000,   0.00000,274640576.00000,   0.00000,   0.00000,   0.00000,-133459104.00000,   0.00000
234273447.70826,247294767.14917,139371107.60407,   0.00058,   0.00067,   0.00181,341408544.00000,   0.00000,274640576.00000,   0.00000,   0.00000,   0.00000,-133232032.00000,   0.00000
236256059.55189,247546482.49023,138963837.83876,   0.00059,   0.00067,   0.00181,341653824.00000,   0.00000,274640576.00000,   0.00000,   0.00000,   0.00000,-132986752.00000,   0.00000
238258469.23134,247806682.61807,138545255.02441,   0.00060,   0.00066,   0.00180,341906272.00000,   0.00000,274640576.00000,   0.00000,   0.00000,   0.00000,-132734304.00000,   0.00000
240252394.12400,248047084.91009,138126672.21006,   0.00061,   0.00066,   0.00180,342159936.00000,   0.00000,274640576.00000,   0.00000,   0.00000,   0.00000,-132480640.00000,   0.00000
242246319.01667,248287487.20211,137708089.39571,   0.00062,   0.00066,   0.00179,342425056.00000,   0.00000,274640576.00000,   0.00000,   0.00000,   0.00000,-132215520.00000,   0.00000
244260041.74515,248536374.28091,137283850.05685,   0.00063,   0.00065,   0.00178,342704960.00000,   0.00000,274640576.00000,   0.00000,   0.00000,   0.00000,-131935616.00000,   0.00000
246265279.68685,248765463.52390,136853954.19346,   0.00064,   0.00065,   0.00178,342979840.00000,   0.00000,274640576.00000,   0.00000,   0.00000,   0.00000,-131660736.00000,   0.00000
248262032.84178,248974754.93108,136424058.33008,   0.00064,   0.00065,   0.00177,343256512.00000,   0.00000,274640576.00000,   0.00000,   0.00000,   0.00000,-131384064.00000,   0.00000
250278583.83252,249192531.12503,135994162.46670,   0.00065,   0.00065,   0.00177,343555424.00000,   0.00000,274640576.00000,   0.00000,   0.00000,   0.00000,-131085152.00000,   0.00000
252295134.82326,249410307.31898,135558610.07880,   0.00066,   0.00064,   0.00176,343860160.00000,   0.00000,274640576.00000,   0.00000,   0.00000,   0.00000,-130780416.00000,   0.00000
254303201.02722,249608285.67711,135123057.69089,   0.00067,   0.00064,   0.00176,344167008.00000,   0.00000,274640576.00000,   0.00000,   0.00000,   0.00000,-130473568.00000,   0.00000
256331065.06700,249814748.82203,134681848.77847,   0.00068,   0.00064,   0.00175,344490304.00000,   0.00000,274640576.00000,   0.00000,   0.00000,   0.00000,-130150272.00000,   0.00000
258358929.10678,250021211.96694,134240639.86605,   0.00069,   0.00063,   0.00175,344826176.00000,   0.00000,274640576.00000,   0.00000,   0.00000,   0.00000,-129814400.00000,   0.00000
260378308.35978,250207877.27604,133793774.42912,   0.00070,   0.00063,   0.00174,345157888.00000,   0.00000,274640576.00000,   0.00000,   0.00000,   0.00000,-129482688.00000,   0.00000
262417485.44859,250403027.37192,133346908.99218,   0.00071,   0.00063,   0.00173,345512928.00000,   0.00000,274640576.00000,   0.00000,   0.00000,   0.00000,-129127648.00000,   0.00000
264448177.75063,250578379.63199,132900043.55524,   0.00071,   0.00062,   0.00173,345870400.00000,   0.00000,274640576.00000,   0.00000,   0.00000,   0.00000,-128770176.00000,   0.00000
266478870.05266,250753731.89205,132447521.59378,   0.00072,   0.00062,   0.00172,346233792.00000,   0.00000,274640576.00000,   0.00000,   0.00000,   0.00000,-128406784.00000,   0.00000
268529360.19051,250937568.93889,131994999.63233,   0.00073,   0.00062,   0.00172,346620480.00000,   0.00000,274640576.00000,   0.00000,   0.00000,   0.00000,-128020096.00000,   0.00000
270571365.54158,251101608.14992,131536821.14635,   0.00074,   0.00061,   0.00171,347003168.00000,   0.00000,274640576.00000,   0.00000,   0.00000,   0.00000,-127637408.00000,   0.00000
272624683.94169,251254334.31191,131078642.66038,   0.00075,   0.00061,   0.00170,347399200.00000,   0.00000,274640576.00000,   0.00000,   0.00000,   0.00000,-127241376.00000,   0.00000
274666689.29276,251418373.52294,130614807.64988,   0.00076,   0.00061,   0.00170,347800096.00000,   0.00000,274640576.00000,   0.00000,   0.00000,   0.00000,-126840480.00000,   0.00000
276720007.69287,251571099.68493,130156629.16391,   0.00077,   0.00061,   0.00169,348220736.00000,   0.00000,274640576.00000,   0.00000,   0.00000,   0.00000,-126419840.00000,   0.00000
278784639.14202,251712512.79789,129687137.62890,   0.00078,   0.00060,   0.00169,348642112.00000,   0.00000,274640576.00000,   0.00000,   0.00000,   0.00000,-125998464.00000,   0.00000
280829472.75535,251845441.12406,129223302.61841,   0.00079,   0.00060,   0.00168,349070528.00000,   0.00000,274640576.00000,   0.00000,   0.00000,   0.00000,-125570048.00000,   0.00000
282913902.04031,251995339.02380,128753811.08339,   0.00080,   0.00059,   0.00167,349528032.00000,   0.00000,274640576.00000,   0.00000,   0.00000,   0.00000,-125112544.00000,   0.00000
284970048.70268,252116954.30094,128284319.54838,   0.00080,   0.00059,   0.00167,349976160.00000,   0.00000,274640576.00000,   0.00000,   0.00000,   0.00000,-124664416.00000,   0.00000
287045993.20086,252247054.36486,127809171.48885,   0.00081,   0.00059,   0.00166,350441856.00000,   0.00000,274640576.00000,   0.00000,   0.00000,   0.00000,-124198720.00000,   0.00000
289121937.69904,252377154.42878,127334023.42932,   0.00082,   0.00058,   0.00166,350919616.00000,   0.00000,274640576.00000,   0.00000,   0.00000,   0.00000,-123720960.00000,   0.00000
291189397.41044,252487456.65688,126858875.36980,   0.00083,   0.00058,   0.00165,351399872.00000,   0.00000,274640576.00000,   0.00000,   0.00000,   0.00000,-123240704.00000,   0.00000
293276654.95766,252606243.67176,126378070.78575,   0.00084,   0.00058,   0.00164,351898080.00000,   0.00000,274640576.00000,   0.00000,   0.00000,   0.00000,-122742496.00000,   0.00000
295363912.50488,252725030.68665,125897266.20170,   0.00085,   0.00057,   0.00164,352408992.00000,   0.00000,274640576.00000,   0.00000,   0.00000,   0.00000,-122231584.00000,   0.00000
297442685.26532,252824019.86571,125416461.61765,   0.00086,   0.00057,   0.00163,352922912.00000,   0.00000,274640576.00000,   0.00000,   0.00000,   0.00000,-121717664.00000,   0.00000
299512973.23898,252903211.20897,124935657.03361,   0.00087,   0.00057,   0.00162,353440192.00000,   0.00000,274640576.00000,   0.00000,   0.00000,   0.00000,-121200384.00000,   0.00000
301611543.83524,253010685.17482,124449195.92504,   0.00088,   0.00056,   0.00162,353987776.00000,   0.00000,274640576.00000,   0.00000,   0.00000,   0.00000,-120652800.00000,   0.00000
303721427.48053,253106846.09162,123962734.81647,   0.00089,   0.00056,   0.00161,354553792.00000,   0.00000,274640576.00000,   0.00000,   0.00000,   0.00000,-120086784.00000,   0.00000
305803028.50323,253174724.38584,123476273.70791,   0.00090,   0.00056,   0.00161,355112256.00000,   0.00000,274640576.00000,   0.00000,   0.00000,   0.00000,-119528320.00000,   0.00000
307904427.36174,253251087.46684,122984156.07482,   0.00091,   0.00055,   0.00160,355697056.00000,   0.00000,274640576.00000,   0.00000,   0.00000,   0.00000,-118943520.00000,   0.00000
310005826.22025,253327450.54783,122497694.96626,   0.00092,   0.00055,   0.00159,356324672.00000,   0.00000,274640576.00000,   0.00000,   0.00000,   0.00000,-118315904.00000,   0.00000
312127022.91458,253412298.41561,122005577.33317,   0.00093,   0.00054,   0.00159,356955552.00000,   0.00000,274640576.00000,   0.00000,   0.00000,   0.00000,-117685024.00000,   0.00000
314219936.98632,253468863.66079,121507803.17557,   0.00094,   0.00054,   0.00158,357522432.00000,   0.00000,274640576.00000,   0.00000,   0.00000,   0.00000,-117118144.00000,   0.00000
316332648.89387,253533913.69275,121015685.54249,   0.00094,   0.00054,   0.00157,358138976.00000,   0.00000,274640576.00000,   0.00000,   0.00000,   0.00000,-116501600.00000,   0.00000
318456673.85045,253587650.67567,120517911.38489,   0.00095,   0.00053,   0.00157,358785888.00000,   0.00000,274640576.00000,   0.00000,   0.00000,   0.00000,-115854688.00000,   0.00000
320580698.80704,253641387.65860,120020137.22728,   0.00096,   0.00053,   0.00156,359433984.00000,   0.00000,274640576.00000,   0.00000,   0.00000,   0.00000,-115206592.00000,   0.00000
322704723.76363,253695124.64152,119522363.06968,   0.00097,   0.00053,   0.00155,360088064.00000,   0.00000,274640576.00000,   0.00000,   0.00000,   0.00000,-114552512.00000,   0.00000
324820263.93343,253729063.78863,119024588.91208,   0.00098,   0.00052,   0.00155,360749696.00000,   0.00000,274640576.00000,   0.00000,   0.00000,   0.00000,-113890880.00000,   0.00000
326935804.10324,253763002.93574,118526814.75448,   0.00099,   0.00052,   0.00154,361429536.00000,   0.00000,274640576.00000,   0.00000,   0.00000,   0.00000,-113211040.00000,   0.00000
329071142.10887,253805426.86962,118023384.07236,   0.00100,   0.00051,   0.00153,362132096.00000,   0.00000,274640576.00000,   0.00000,   0.00000,   0.00000,-112508480.00000,   0.00000
331217793.16352,253836537.75447,117525609.91476,   0.00101,   0.00051,   0.00153,362856736.00000,   0.00000,274640576.00000,   0.00000,   0.00000,   0.00000,-111783840.00000,   0.00000
333344646.38237,253859163.85255,117022179.23264,   0.00102,   0.00051,   0.00152,363574272.00000,   0.00000,274640576.00000,   0.00000,   0.00000,   0.00000,-111066304.00000,   0.00000
335491297.43703,253890274.73740,116518748.55052,   0.00103,   0.00050,   0.00151,364316416.00000,   0.00000,274640576.00000,   0.00000,   0.00000,   0.00000,-110324160.00000,   0.00000
337629463.70491,253901587.78643,116015317.86840,   0.00104,   0.00050,   0.00151,365060960.00000,   0.00000,274640576.00000,   0.00000,   0.00000,   0.00000,-109579616.00000,   0.00000
339767629.97279,253912900.83547,115511887.18627,   0.00105,   0.00049,   0.00150,365817920.00000,   0.00000,274640576.00000,   0.00000,   0.00000,   0.00000,-108822656.00000,   0.00000
341925594.07649,253932698.67128,115002799.97964,   0.00106,   0.00049,   0.00150,366596064.00000,   0.00000,274640576.00000,   0.00000,   0.00000,   0.00000,-108044512.00000,   0.00000
344075073.39341,253932698.67128,114499369.29752,   0.00107,   0.00048,   0.00149,367383840.00000,   0.00000,274640576.00000,   0.00000,   0.00000,   0.00000,-107256736.00000,   0.00000
346224552.71032,253932698.67128,113995938.61540,   0.00108,   0.00048,   0.00148,368185952.00000,   0.00000,274640576.00000,   0.00000,   0.00000,   0.00000,-106454624.00000,   0.00000
348393829.86306,253941183.45806,113486851.40876,   0.00109,   0.00048,   0.00148,369010720.00000,   0.00000,274640576.00000,   0.00000,   0.00000,   0.00000,-105629856.00000,   0.00000
350554622.22901,253929870.40902,112977764.20212,   0.00110,   0.00047,   0.00147,369840480.00000,   0.00000,274640576.00000,   0.00000,   0.00000,   0.00000,-104800096.00000,   0.00000
352715414.59496,253918557.35999,112474333.52000,   0.00111,   0.00047,   0.00146,370689504.00000,   0.00000,274640576.00000,   0.00000,   0.00000,   0.00000,-103951072.00000,   0.00000
354876206.96092,253907244.31095,111965246.31336,   0.00112,   0.00046,   0.00146,371547040.00000,   0.00000,274640576.00000,   0.00000,   0.00000,   0.00000,-103093536.00000,   0.00000
357048312.37591,253884618.21288,111456159.10672,   0.00113,   0.00046,   0.00145,372422592.00000,   0.00000,274640576.00000,   0.00000,   0.00000,   0.00000,-102217984.00000,   0.00000
359220417.79090,253861992.11481,110947071.90008,   0.00114,   0.00045,   0.00144,373310752.00000,   0.00000,274640576.00000,   0.00000,   0.00000,   0.00000,-101329824.00000,   0.00000
361392523.20589,253839366.01673,110437984.69344,   0.00115,   0.00045,   0.00144,374211136.00000,   0.00000,274640576.00000,   0.00000,   0.00000,   0.00000,-100429440.00000,   0.00000
363564628.62088,253816739.91866,109934554.01132,   0.00116,   0.00045,   0.00143,375128224.00000,   0.00000,274640576.00000,   0.00000,   0.00000,   0.00000,-99512352.00000,   0.00000
365748047.08491,253782800.77155,109425466.80469,   0.00117,   0.00044,   0.00142,376056640.00000,   0.00000,274640576.00000,   0.00000,   0.00000,   0.00000,-98583936.00000,   0.00000
367931465.54894,253748861.62444,108916379.59805,   0.00118,   0.00044,   0.00142,376995936.00000,   0.00000,274640576.00000,   0.00000,   0.00000,   0.00000,-97644640.00000,   0.00000
370106399.22619,253695124.64152,108407292.39141,   0.00119,   0.00043,   0.00141,377937152.00000,   0.00000,274640576.00000,   0.00000,   0.00000,   0.00000,-96703424.00000,   0.00000
372309615.52603,253669670.28119,107898205.18477,   0.00120,   0.00043,   0.00140,378912032.00000,   0.00000,274640576.00000,   0.00000,   0.00000,   0.00000,-95728544.00000,   0.00000
374504347.03909,253624418.08504,107389117.97813,   0.00121,   0.00042,   0.00140,379888608.00000,   0.00000,274640576.00000,   0.00000,   0.00000,   0.00000,-94751968.00000,   0.00000
376690593.76538,253559368.05308,106885687.29601,   0.00122,   0.00042,   0.00139,380871744.00000,   0.00000,274640576.00000,   0.00000,   0.00000,   0.00000,-93768832.00000,   0.00000
378885325.27844,253514115.85694,106376600.08937,   0.00123,   0.00041,   0.00138,381869568.00000,   0.00000,274640576.00000,   0.00000,   0.00000,   0.00000,-92771008.00000,   0.00000
381091369.84054,253457550.61175,105867512.88273,   0.00124,   0.00041,   0.00138,382883808.00000,   0.00000,274640576.00000,   0.00000,   0.00000,   0.00000,-91756768.00000,   0.00000
383297414.40264,253400985.36657,105364082.20061,   0.00125,   0.00041,   0.00137,383913632.00000,   0.00000,274640576.00000,   0.00000,   0.00000,   0.00000,-90726944.00000,   0.00000
385494974.17797,253324622.28558,104854994.99398,   0.00126,   0.00040,   0.00136,384941536.00000,   0.00000,274640576.00000,   0.00000,   0.00000,   0.00000,-89699040.00000,   0.00000
387701018.74007,253268057.04039,104351564.31186,   0.00127,   0.00040,   0.00136,385994048.00000,   0.00000,274640576.00000,   0.00000,   0.00000,   0.00000,-88646528.00000,   0.00000
389918376.35120,253200178.74618,103848133.62974,   0.00128,   0.00039,   0.00135,387063872.00000,   0.00000,274640576.00000,   0.00000,   0.00000,   0.00000,-87576704.00000,   0.00000
392135733.96234,253132300.45196,103339046.42310,   0.00129,   0.00039,   0.00134,388141280.00000,   0.00000,274640576.00000,   0.00000,   0.00000,   0.00000,-86499296.00000,   0.00000
394344606.78670,253044624.32192,102835615.74098,   0.00130,   0.00038,   0.00134,389226816.00000,   0.00000,274640576.00000,   0.00000,   0.00000,   0.00000,-85413760.00000,   0.00000
396553479.61106,252956948.19189,102337841.58337,   0.00131,   0.00038,   0.00133,390328864.00000,   0.00000,274640576.00000,   0.00000,   0.00000,   0.00000,-84311712.00000,   0.00000
398782150.27123,252877756.84864,101834410.90125,   0.00132,   0.00037,   0.00132,391453824.00000,   0.00000,274640576.00000,   0.00000,   0.00000,   0.00000,-83186752.00000,   0.00000
401010820.93140,252798565.50538,101330980.21913,   0.00133,   0.00037,   0.00132,392591392.00000,   0.00000,274640576.00000,   0.00000,   0.00000,   0.00000,-82049184.00000,   0.00000
403239491.59158,252719374.16213,100833206.06153,   0.00134,   0.00036,   0.00131,393746112.00000,   0.00000,274640576.00000,   0.00000,   0.00000,   0.00000,-80894464.00000,   0.00000
405459677.46497,252620384.98306,100329775.37941,   0.00135,   0.00036,   0.00130,394900896.00000,   0.00000,274640576.00000,   0.00000,   0.00000,   0.00000,-79739680.00000,   0.00000
407699661.17418,252529880.59077,99832001.22181,   0.00136,   0.00035,   0.00130,396087904.00000,   0.00000,274640576.00000,   0.00000,   0.00000,   0.00000,-78552672.00000,   0.00000
409939644.88339,252439376.19848,99334227.06421,   0.00137,   0.00035,   0.00129,397287744.00000,   0.00000,274640576.00000,   0.00000,   0.00000,   0.00000,-77352832.00000,   0.00000
412171143.80582,252329073.97037,98842109.43112,   0.00138,   0.00034,   0.00128,398496544.00000,   0.00000,274640576.00000,   0.00000,   0.00000,   0.00000,-76144032.00000,   0.00000
414411127.51503,252238569.57808,98344335.27352,   0.00139,   0.00034,   0.00128,399722112.00000,   0.00000,274640576.00000,   0.00000,   0.00000,   0.00000,-74918464.00000,   0.00000
416642626.43746,252128267.34998,97852217.64044,   0.00140,   0.00033,   0.00127,400956352.00000,   0.00000,274640576.00000,   0.00000,   0.00000,   0.00000,-73684224.00000,   0.00000
418885438.40893,252006652.07283,97360100.00735,   0.00141,   0.00033,   0.00127,402210048.00000,   0.00000,274640576.00000,   0.00000,   0.00000,   0.00000,-72430528.00000,   0.00000
421136735.16718,251904834.63151,96867982.37427,   0.00142,   0.00032,   0.00126,403484576.00000,   0.00000,274640576.00000,   0.00000,   0.00000,   0.00000,-71156000.00000,   0.00000
423388031.92542,251803017.19018,96375864.74119,   0.00144,   0.00032,   0.00125,404771232.00000,   0.00000,274640576.00000,   0.00000,   0.00000,   0.00000,-69869344.00000,   0.00000
425650641.73271,251689886.69981,95889403.63262,   0.00145,   0.00032,   0.00125,406081184.00000,   0.00000,274640576.00000,   0.00000,   0.00000,   0.00000,-68559392.00000,   0.00000
427893453.70418,251568271.42267,95402942.52405,   0.00146,   0.00031,   0.00124,407387520.00000,   0.00000,274640576.00000,   0.00000,   0.00000,   0.00000,-67253056.00000,   0.00000
430156063.51146,251455140.93231,94916481.41549,   0.00147,   0.00031,   0.00123,408720864.00000,   0.00000,274640576.00000,   0.00000,   0.00000,   0.00000,-65919712.00000,   0.00000
432410188.53196,251322212.60613,94430020.30692,   0.00148,   0.00030,   0.00123,410057280.00000,   0.00000,274640576.00000,   0.00000,   0.00000,   0.00000,-64583296.00000,   0.00000
434692596.17506,251217566.90254,93949215.72288,   0.00149,   0.00030,   0.00122,411432576.00000,   0.00000,274640576.00000,   0.00000,   0.00000,   0.00000,-63208000.00000,   0.00000
436946721.19556,251084638.57637,93468411.13883,   0.00150,   0.00029,   0.00122,412794848.00000,   0.00000,274640576.00000,   0.00000,   0.00000,   0.00000,-61845728.00000,   0.00000
439220644.05188,250960195.03697,92993263.07930,   0.00151,   0.00029,   0.00121,414187232.00000,   0.00000,274640576.00000,   0.00000,   0.00000,   0.00000,-60453344.00000,   0.00000
441494566.90820,250835751.49757,92512458.49525,   0.00152,   0.00028,   0.00120,415585856.00000,   0.00000,274640576.00000,   0.00000,   0.00000,   0.00000,-59054720.00000,   0.00000
443760004.97774,250691510.12235,92042966.96024,   0.00153,   0.00028,   0.00120,416994208.00000,   0.00000,274640576.00000,   0.00000,   0.00000,   0.00000,-57646368.00000,   0.00000
446033927.83406,250567066.58295,91567818.90071,   0.00154,   0.00027,   0.00119,418416480.00000,   0.00000,274640576.00000,   0.00000,   0.00000,   0.00000,-56224096.00000,   0.00000
448319163.73942,250431309.99451,91098327.36570,   0.00155,   0.00027,   0.00118,419859936.00000,   0.00000,274640576.00000,   0.00000,   0.00000,   0.00000,-54780640.00000,   0.00000
450584601.80896,250287068.61930,90628835.83069,   0.00156,   0.00026,   0.00118,421296960.00000,   0.00000,274640576.00000,   0.00000,   0.00000,   0.00000,-53343616.00000,   0.00000
452869837.71431,250151312.03086,90159344.29568,   0.00157,   0.00026,   0.00117,422759104.00000,   0.00000,274640576.00000,   0.00000,   0.00000,   0.00000,-51881472.00000,   0.00000
455155073.61967,250015555.44243,89695509.28518,   0.00158,   0.00025,   0.00117,424233888.00000,   0.00000,274640576.00000,   0.00000,   0.00000,   0.00000,-50406688.00000,   0.00000
457451622.57406,249868485.80495,89237330.79921,   0.00159,   0.00024,   0.00116,425729440.00000,   0.00000,274640576.00000,   0.00000,   0.00000,   0.00000,-48911136.00000,   0.00000
459736858.47941,249732729.21652,88773495.78872,   0.00160,   0.00024,   0.00115,427222112.00000,   0.00000,274640576.00000,   0.00000,   0.00000,   0.00000,-47418464.00000,   0.00000
462033407.43380,249585659.57904,88315317.30274,   0.00162,   0.00023,   0.00115,428735648.00000,   0.00000,274640576.00000,   0.00000,   0.00000,   0.00000,-45904928.00000,   0.00000
464329956.38820,249438589.94157,87862795.34129,   0.00163,   0.00023,   0.00114,430261408.00000,   0.00000,274640576.00000,   0.00000,   0.00000,   0.00000,-44379168.00000,   0.00000
466626505.34259,249291520.30410,87410273.37983,   0.00164,   0.00022,   0.00114,431796416.00000,   0.00000,274640576.00000,   0.00000,   0.00000,   0.00000,-42844160.00000,   0.00000
468923054.29698,249144450.66662,86957751.41837,   0.00165,   0.00022,   0.00113,433340192.00000,   0.00000,274640576.00000,   0.00000,   0.00000,   0.00000,-41300384.00000,   0.00000
471239401.08718,249005865.81593,86510885.98144,   0.00166,   0.00021,   0.00112,434912352.00000,   0.00000,274640576.00000,   0.00000,   0.00000,   0.00000,-39728224.00000,   0.00000
473535950.04158,248858796.17845,86064020.54450,   0.00167,   0.00021,   0.00112,436477728.00000,   0.00000,274640576.00000,   0.00000,   0.00000,   0.00000,-38162848.00000,   0.00000
475843812.04500,248700413.49194,85622811.63208,   0.00168,   0.00020,   0.00111,438064224.00000,   0.00000,274640576.00000,   0.00000,   0.00000,   0.00000,-36576352.00000,   0.00000
478160158.83521,248561828.64125,85181602.71966,   0.00169,   0.00020,   0.00111,439667168.00000,   0.00000,274640576.00000,   0.00000,   0.00000,   0.00000,-34973408.00000,   0.00000
480468020.83864,248403445.95474,84746050.33176,   0.00170,   0.00019,   0.00110,441275456.00000,   0.00000,274640576.00000,   0.00000,   0.00000,   0.00000,-33365120.00000,   0.00000
482775882.84206,248245063.26823,84310497.94385,   0.00171,   0.00019,   0.00110,442892704.00000,   0.00000,274640576.00000,   0.00000,   0.00000,   0.00000,-31747872.00000,   0.00000
485103542.68131,248095165.36849,83880602.08047,   0.00172,   0.00018,   0.00109,444538592.00000,   0.00000,274640576.00000,   0.00000,   0.00000,   0.00000,-30101984.00000,   0.00000
487411404.68473,247936782.68198,83450706.21709,   0.00173,   0.00018,   0.00108,446177440.00000,   0.00000,274640576.00000,   0.00000,   0.00000,   0.00000,-28463136.00000,   0.00000
489739064.52398,247786884.78225,83026466.87822,   0.00175,   0.00017,   0.00108,447844512.00000,   0.00000,274640576.00000,   0.00000,   0.00000,   0.00000,-26796064.00000,   0.00000
492066724.36322,247636986.88252,82602227.53936,   0.00176,   0.00017,   0.00107,449520256.00000,   0.00000,274640576.00000,   0.00000,   0.00000,   0.00000,-25120320.00000,   0.00000
494385899.41568,247467291.14697,82183644.72501,   0.00177,   0.00016,   0.00107,451200384.00000,   0.00000,274640576.00000,   0.00000,   0.00000,   0.00000,-23440192.00000,   0.00000
496713559.25492,247317393.24724,81765061.91066,   0.00178,   0.00016,   0.00106,452895680.00000,   0.00000,274640576.00000,   0.00000,   0.00000,   0.00000,-21744896.00000,   0.00000
499052532.14320,247156182.29847,81352135.62083,   0.00179,   0.00015,   0.00106,454610848.00000,   0.00000,274640576.00000,   0.00000,   0.00000,   0.00000,-20029728.00000,   0.00000
501380191.98244,247006284.39874,80944865.85552,   0.00180,   0.00015,   0.00105,456326528.00000,   0.00000,274640576.00000,   0.00000,   0.00000,   0.00000,-18314048.00000,   0.00000
503719164.87072,246845073.44997,80537596.09021,   0.00181,   0.00014,   0.00105,458058272.00000,   0.00000,274640576.00000,   0.00000,   0.00000,   0.00000,-16582304.00000,   0.00000
506058137.75900,246683862.50120,80135982.84942,   0.00182,   0.00014,   0.00104,459799488.00000,   0.00000,274640576.00000,   0.00000,   0.00000,   0.00000,-14841088.00000,   0.00000
508405595.43405,246542449.38825,79734369.60863,   0.00183,   0.00013,   0.00104,461553920.00000,   0.00000,274640576.00000,   0.00000,   0.00000,   0.00000,-13086656.00000,   0.00000
510744568.32233,246381238.43948,79338412.89235,   0.00184,   0.00013,   0.00103,463311168.00000,   0.00000,274640576.00000,   0.00000,   0.00000,   0.00000,-11329408.00000,   0.00000
513083541.21061,246220027.49071,78948112.70059,   0.00185,   0.00012,   0.00103,465078432.00000,   0.00000,274640576.00000,   0.00000,   0.00000,   0.00000,-9562144.00000,   0.00000
515422514.09889,246058816.54194,78557812.50884,   0.00187,   0.00011,   0.00102,466853024.00000,   0.00000,274640576.00000,   0.00000,   0.00000,   0.00000,-7787552.00000,   0.00000
517781284.82298,245906090.37995,78173168.84160,   0.00188,   0.00011,   0.00102,468654464.00000,   0.00000,274640576.00000,   0.00000,   0.00000,   0.00000,-5986112.00000,   0.00000
520140055.54707,245753364.21796,77788525.17436,   0.00189,   0.00010,   0.00101,470463392.00000,   0.00000,274640576.00000,   0.00000,   0.00000,   0.00000,-4177184.00000,   0.00000
522479028.43535,245592153.26919,77409538.03164,   0.00190,   0.00010,   0.00101,472265536.00000,   0.00000,274640576.00000,   0.00000,   0.00000,   0.00000,-2375040.00000,   0.00000
524837799.15944,245439427.10720,77036207.41344,   0.00191,   0.00009,   0.00100,474092352.00000,   0.00000,274640576.00000,   0.00000,   0.00000,   0.00000,-548224.00000,   0.00000
525544969.67926,245393639.08793,76924281.14412,   0.00191,   0.00009,   0.00100,474640736.00000,   0.00000,274640576.00000,   0.00000,   0.00000,   0.00000, 160.00000,   0.00000
525802622.31628,244741905.53473,76432460.02384,   0.00192,   0.00009,   0.00100,474640736.00000,   0.00000,274645696.00000,   0.00001,  -0.00000,   0.00000,-192.00000,   2.00000
526161030.89700,243812602.33558,75737309.11334,   0.00193,   0.00008,   0.00099,476482688.00000,   0.00001,274653024.00000,   0.00001,  -0.00000,   0.00001, -32.00000,   2.00000
526510688.29379,242885793.48997,75045934.93399,   0.00194,   0.00008,   0.00099,476516032.00000,   0.00002,274660448.00000,   0.00002,  -0.00000,   0.00001,  96.00000,   2.00000
526848296.95699,241958437.85832,74364221.40828,   0.00195,   0.00007,   0.00098,476516096.00000,   0.00002,274667872.00000,   0.00003,  -0.00000,   0.00002,  96.00000,   2.00000
527180475.92160,241034800.33948,73681288.63623,   0.00196,   0.00007,   0.00098,476546112.00000,   0.00003,274675360.00000,   0.00004,  -0.00000,   0.00002, 128.00000,   2.00000
527499044.50387,240093279.14975,73009185.20301,   0.00198,   0.00006,   0.00097,476539488.00000,   0.00004,274682816.00000,   0.00004,  -0.00000,   0.00002, 128.00000,   2.00000
527813862.97959,239172632.81320,72334977.39247,   0.00199,   0.00006,   0.00097,476575488.00000,   0.00005,274690368.00000,   0.00005,  -0.00000,   0.00003,  64.00000,   2.00000
528115675.45423,238251724.04365,71673047.65270,   0.00200,   0.00005,   0.00096,476593920.00000,   0.00005,274697984.00000,   0.00006,  -0.00000,   0.00003, -64.00000,   2.00000
528410493.30241,237332739.06630,71013115.31888,   0.00201,   0.00005,   0.00096,476606848.00000,   0.00006,274705632.00000,   0.00007,  -0.00000,   0.00004, -96.00000,   2.00000
528695736.05242,236414657.84719,70360505.65843,   0.00202,   0.00004,   0.00096,476622112.00000,   0.00007,274713312.00000,   0.00008,  -0.00000,   0.00004, -64.00000,   2.00000
528973926.37868,235498358.70046,69710029.48959,   0.00203,   0.00004,   0.00095,476635168.00000,   0.00007,274720992.00000,   0.00008,  -0.00001,   0.00005,  32.00000,   2.00000
529239614.88315,234581797.67657,69072200.02008,   0.00204,   0.00003,   0.00095,476652896.00000,   0.00008,274728736.00000,   0.00009,  -0.00001,   0.00005, -96.00000,   2.00000
529498644.30949,233667074.90874,68436638.03212,   0.00205,   0.00002,   0.00094,476665408.00000,   0.00009,274736480.00000,   0.00010,  -0.00001,   0.00005,   0.00000,   2.00000
529749897.29141,232755084.22957,67805961.00668,   0.00206,   0.00002,   0.00094,476697216.00000,   0.00009,274744352.00000,   0.00011,  -0.00001,   0.00006,  32.00000,   2.00000
529994773.39203,231860317.51486,67179309.46033,   0.00208,   0.00001,   0.00093,476699360.00000,   0.00010,274752192.00000,   0.00012,  -0.00001,   0.00006,  32.00000,   2.00000
530227515.32037,230950017.35118,66563848.56430,   0.00209,   0.00001,   0.00093,476727424.00000,   0.00011,274760128.00000,   0.00012,  -0.00001,   0.00007, 128.00000,   2.00000
530453825.80136,230041598.78077,65950729.79587,   0.00210,   0.00000,   0.00093,476740032.00000,   0.00012,274768064.00000,   0.00013,  -0.00001,   0.00007, -32.00000,   2.00000
530671911.05312,229149673.65093,65346897.99062,   0.00211,  -0.00000,   0.00092,476744032.00000,   0.00012,274776000.00000,   0.00014,  -0.00001,   0.00007,  32.00000,   2.00000
530880791.57434,228243361.65386,64748997.15525,   0.00212,  -0.00001,   0.00092,476769600.00000,   0.00013,274784000.00000,   0.00015,  -0.00001,   0.00008, -96.00000,   2.00000
531083394.10571,227355783.01022,64157809.80935,   0.00213,  -0.00001,   0.00092,476790048.00000,   0.00014,274792032.00000,   0.00016,  -0.00001,   0.00008,  32.00000,   2.00000
531275733.22954,226451982.36810,63575060.75342,   0.00214,  -0.00002,   0.00091,476799008.00000,   0.00015,274800096.00000,   0.00017,  -0.00001,   0.00009, 160.00000,   2.00000
531464378.38332,225567894.12851,62993649.71290,   0.00215,  -0.00002,   0.00091,476817216.00000,   0.00015,274808224.00000,   0.00018,  -0.00001,   0.00009, 128.00000,   2.00000
531645082.95745,224685227.14744,62419754.40538,   0.00217,  -0.00003,   0.00090,476831520.00000,   0.00016,274816352.00000,   0.00018,  -0.00001,   0.00009, -32.00000,   2.00000
531815803.98066,223803318.30946,61858680.59799,   0.00218,  -0.00003,   0.00090,476848064.00000,   0.00017,274824512.00000,   0.00019,  -0.00001,   0.00010, -64.00000,   2.00000
531982829.94259,222926093.57680,61297339.87811,   0.00219,  -0.00004,   0.00090,476877088.00000,   0.00018,274832768.00000,   0.00020,  -0.00002,   0.00010,  32.00000,   2.00000
532143250.76984,222049091.49590,60740503.93826,   0.00220,  -0.00004,   0.00089,476872672.00000,   0.00018,274840960.00000,   0.00021,  -0.00002,   0.00010,  64.00000,   2.00000
532294140.94552,221173102.51135,60196447.12564,   0.00221,  -0.00005,   0.00089,476888928.00000,   0.00019,274849216.00000,   0.00022,  -0.00002,   0.00011,  96.00000,   2.00000
532441622.32565,220318953.46169,59656675.54219,   0.00222,  -0.00005,   0.00089,476925632.00000,   0.00020,274857568.00000,   0.00023,  -0.00002,   0.00011, 192.00000,   2.00000
532578163.29414,219446585.64216,59127388.80694,   0.00223,  -0.00006,   0.00088,476917568.00000,   0.00021,274865888.00000,   0.00024,  -0.00002,   0.00012,   0.00000,   2.00000
532713996.38983,218597084.92069,58597095.57957,   0.00224,  -0.00006,   0.00088,476951936.00000,   0.00021,274874272.00000,   0.00025,  -0.00002,   0.00012, 128.00000,   2.00000
532841726.11023,217747174.62919,58076507.49153,   0.00225,  -0.00007,   0.00088,476949280.00000,   0.00022,274882656.00000,   0.00025,  -0.00002,   0.00012, 128.00000,   2.00000
532961764.53555,216900943.94783,57566392.20914,   0.00227,  -0.00007,   0.00087,476982048.00000,   0.00023,274891136.00000,   0.00026,  -0.00002,   0.00013,   0.00000,   2.00000
533076444.00063,216055159.60794,57060579.95267,   0.00228,  -0.00008,   0.00087,476977184.00000,   0.00024,274899552.00000,   0.00027,  -0.00002,   0.00013, -64.00000,   2.00000
533186041.23308,215213993.00532,56559933.01316,   0.00229,  -0.00009,   0.00087,477008096.00000,   0.00024,274908064.00000,   0.00028,  -0.00002,   0.00013,  96.00000,   2.00000
533289236.87963,214374978.31169,56066681.36815,   0.00230,  -0.00009,   0.00087,477022144.00000,   0.00025,274916576.00000,   0.00029,  -0.00003,   0.00014, 192.00000,   2.00000
533388656.10301,213555959.87974,55580117.45311,   0.00231,  -0.00010,   0.00086,477041440.00000,   0.00026,274925184.00000,   0.00030,  -0.00003,   0.00014,-128.00000,   2.00000
533480924.40751,212736612.95583,55103145.11772,   0.00232,  -0.00010,   0.00086,477038528.00000,   0.00027,274933728.00000,   0.00031,  -0.00003,   0.00014, -32.00000,   2.00000
533568474.61494,211922070.16870,54631397.66294,   0.00233,  -0.00011,   0.00086,477069120.00000,   0.00028,274942368.00000,   0.00032,  -0.00003,   0.00015, -64.00000,   2.00000
533650272.60032,211109812.31768,54167055.30326,   0.00234,  -0.00011,   0.00086,477082976.00000,   0.00028,274951008.00000,   0.00033,  -0.00003,   0.00015,  32.00000,   2.00000
533726221.23727,210299800.97576,53710086.42214,   0.00236,  -0.00012,   0.00085,477096768.00000,   0.00029,274959712.00000,   0.00034,  -0.00003,   0.00016,  64.00000,   2.00000
533799294.36728,209510031.85636,53259849.35696,   0.00237,  -0.00012,   0.00085,477115840.00000,   0.00030,274968416.00000,   0.00035,  -0.00003,   0.00016, -96.00000,   2.00000
533867076.79968,208722595.80830,52817014.49773,   0.00238,  -0.00013,   0.00085,477129408.00000,   0.00031,274977184.00000,   0.00036,  -0.00003,   0.00016, 128.00000,   2.00000
533929215.69778,207937371.91959,52381518.46837,   0.00239,  -0.00013,   0.00085,477143136.00000,   0.00032,274985952.00000,   0.00037,  -0.00004,   0.00017,  64.00000,   2.00000
533986214.71770,207154504.62286,51953392.95307,   0.00240,  -0.00014,   0.00084,477156512.00000,   0.00032,274994752.00000,   0.00038,  -0.00004,   0.00017, -32.00000,   2.00000
534040982.06611,206391996.83456,51532005.60876,   0.00241,  -0.00014,   0.00084,477175200.00000,   0.00033,275003616.00000,   0.00038,  -0.00004,   0.00017,  32.00000,   2.00000
534087938.28798,205613791.80764,51118572.56244,   0.00242,  -0.00015,   0.00084,477183616.00000,   0.00034,275012448.00000,   0.00039,  -0.00004,   0.00018, 128.00000,   2.00000
534132598.01288,204855911.96422,50711828.88472,   0.00243,  -0.00015,   0.00084,477202336.00000,   0.00035,275021344.00000,   0.00040,  -0.00004,   0.00018, -32.00000,   2.00000
534172676.67111,204100423.50743,50312417.83743,   0.00245,  -0.00016,   0.00084,477215488.00000,   0.00036,275030240.00000,   0.00041,  -0.00004,   0.00018,  64.00000,   2.00000
534210728.34142,203365251.86377,49919687.34747,   0.00246,  -0.00016,   0.00083,477234016.00000,   0.00036,275039200.00000,   0.00042,  -0.00004,   0.00019, -96.00000,   2.00000
534244462.73436,202632440.30782,49534267.89037,   0.00247,  -0.00017,   0.00083,477247104.00000,   0.00037,275048160.00000,   0.00043,  -0.00005,   0.00019,  96.00000,   2.00000
534273556.70599,201901874.23133,49156095.32374,   0.00248,  -0.00017,   0.00083,477260448.00000,   0.00038,275057152.00000,   0.00044,  -0.00005,   0.00019,  32.00000,   2.00000
534298397.78992,201173649.56220,48785178.19240,   0.00249,  -0.00017,   0.00083,477273568.00000,   0.00039,275066144.00000,   0.00045,  -0.00005,   0.00020,  96.00000,   2.00000
534318804.95499,200447691.55898,48421466.78640,   0.00250,  -0.00018,   0.00083,477286880.00000,   0.00040,275075168.00000,   0.00046,  -0.00005,   0.00020,   0.00000,   2.00000
534337064.94115,199739186.17529,48066301.13879,   0.00251,  -0.00018,   0.00083,477287808.00000,   0.00041,275084160.00000,   0.00047,  -0.00005,   0.00020,  96.00000,   2.00000
534352456.61991,199036009.24788,47716437.87960,   0.00252,  -0.00019,   0.00083,477317920.00000,   0.00041,275093248.00000,   0.00048,  -0.00005,   0.00021, 192.00000,   2.00000
534364852.08062,198352647.06196,47378617.80174,   0.00254,  -0.00019,   0.00082,477337504.00000,   0.00042,275102368.00000,   0.00049,  -0.00005,   0.00021,  64.00000,   2.00000
534372191.62843,197653869.69364,47043007.38644,   0.00255,  -0.00020,   0.00082,477343840.00000,   0.00043,275111488.00000,   0.00050,  -0.00006,   0.00021, -96.00000,   2.00000
534380379.37383,196993277.60614,46718931.81560,   0.00256,  -0.00020,   0.00082,477368096.00000,   0.00044,275120672.00000,   0.00051,  -0.00006,   0.00022,  96.00000,   2.00000
534383340.70589,196317087.95763,46396976.17057,   0.00257,  -0.00021,   0.00082,477374560.00000,   0.00045,275129856.00000,   0.00052,  -0.00006,   0.00022,-160.00000,   2.00000
534384282.23854,195660875.68239,46087048.84919,   0.00258,  -0.00021,   0.00082,477393792.00000,   0.00046,275139072.00000,   0.00053,  -0.00006,   0.00022,  64.00000,   2.00000
534381696.11453,195006811.65671,45784136.93612,   0.00259,  -0.00022,   0.00082,477406592.00000,   0.00046,275148288.00000,   0.00054,  -0.00006,   0.00022, -64.00000,   2.00000
534374455.64654,194351648.11032,45489973.77639,   0.00260,  -0.00022,   0.00082,477402464.00000,   0.00047,275157472.00000,   0.00055,  -0.00006,   0.00023,  32.00000,   2.00000
534368302.10832,193720154.52823,45200500.57665,   0.00261,  -0.00023,   0.00082,477436544.00000,   0.00048,275166752.00000,   0.00056,  -0.00007,   0.00023,   0.00000,   2.00000
534359049.22124,193090798.09124,44917977.63924,   0.00263,  -0.00023,   0.00082,477449248.00000,   0.00049,275176032.00000,   0.00057,  -0.00007,   0.00023, 128.00000,   2.00000
534345375.29193,192460213.47430,44644083.21129,   0.00264,  -0.00024,   0.00082,477445088.00000,   0.00050,275185280.00000,   0.00058,  -0.00007,   0.00024,  96.00000,   2.00000
534331199.64463,191852818.18765,44380293.73423,   0.00265,  -0.00024,   0.00082,477480640.00000,   0.00051,275194624.00000,   0.00059,  -0.00007,   0.00024, -64.00000,   2.00000
534315027.73216,191244713.86761,44119609.52710,   0.00266,  -0.00024,   0.00082,477474464.00000,   0.00051,275203904.00000,   0.00060,  -0.00007,   0.00024, 128.00000,   2.00000
534294994.61010,190641439.66215,43869454.83690,   0.00267,  -0.00025,   0.00082,477505600.00000,   0.00052,275213280.00000,   0.00061,  -0.00007,   0.00025,  32.00000,   2.00000
534274576.38843,190055222.35736,43627306.16909,   0.00268,  -0.00025,   0.00082,477505472.00000,   0.00053,275222624.00000,   0.00062,  -0.00008,   0.00025, 224.00000,   2.00000
534255768.35520,189492672.64425,43389713.78569,   0.00269,  -0.00026,   0.00082,477539168.00000,   0.00054,275232064.00000,   0.00063,  -0.00008,   0.00025, 128.00000,   2.00000
534229820.11340,188910307.04075,43160960.01511,   0.00270,  -0.00026,   0.00082,477530112.00000,   0.00055,275241408.00000,   0.00064,  -0.00008,   0.00026,  96.00000,   2.00000
534204668.78104,188348285.08898,42938400.61440,   0.00272,  -0.00027,   0.00082,477546784.00000,   0.00056,275250816.00000,   0.00065,  -0.00008,   0.00026, 160.00000,   2.00000
534180226.34218,187806500.34722,42721999.08303,   0.00273,  -0.00027,   0.00082,477563424.00000,   0.00057,275260224.00000,   0.00066,  -0.00008,   0.00026, -64.00000,   2.00000
534153086.41761,187269685.64168,42516048.28956,   0.00274,  -0.00028,   0.00082,477593696.00000,   0.00058,275269728.00000,   0.00067,  -0.00009,   0.00026, -32.00000,   2.00000
534123796.26324,186731621.22282,42312782.43083,   0.00275,  -0.00028,   0.00082,477587584.00000,   0.00058,275279200.00000,   0.00068,  -0.00009,   0.00027,   0.00000,   2.00000
534094204.90764,186213434.98043,42121107.91703,   0.00276,  -0.00028,   0.00082,477605472.00000,   0.00059,275288672.00000,   0.00069,  -0.00009,   0.00027, -64.00000,   2.00000
534062102.63478,185696991.19063,41935883.82269,   0.00277,  -0.00029,   0.00082,477617472.00000,   0.00060,275298176.00000,   0.00070,  -0.00009,   0.00027,  32.00000,   2.00000
534030192.91549,185197231.47768,41758288.61539,   0.00278,  -0.00029,   0.00082,477616864.00000,   0.00061,275307616.00000,   0.00071,  -0.00009,   0.00028,   0.00000,   2.00000
533995815.58704,184702393.67008,41590977.79738,   0.00279,  -0.00030,   0.00082,477646976.00000,   0.00062,275317152.00000,   0.00072,  -0.00010,   0.00028, 160.00000,   2.00000
533964293.14922,184228095.63008,41424089.91053,   0.00280,  -0.00030,   0.00082,477661920.00000,   0.00063,275326720.00000,   0.00073,  -0.00010,   0.00028,  64.00000,   2.00000
533928003.14794,183751470.33704,41270641.07285,   0.00282,  -0.00030,   0.00082,477658240.00000,   0.00064,275336224.00000,   0.00074,  -0.00010,   0.00028,  96.00000,   2.00000
533890900.45993,183280152.15109,41121877.77424,   0.00283,  -0.00031,   0.00082,477686784.00000,   0.00065,275345824.00000,   0.00076,  -0.00010,   0.00029,  64.00000,   2.00000
533854093.96693,182825291.58804,40980525.99536,   0.00284,  -0.00031,   0.00082,477686048.00000,   0.00065,275355392.00000,   0.00077,  -0.00010,   0.00029, -64.00000,   2.00000
533820364.13702,182394198.57955,40843416.76007,   0.00285,  -0.00032,   0.00082,477718816.00000,   0.00066,275365024.00000,   0.00078,  -0.00010,   0.00029,  96.00000,   2.00000
533781760.79833,181960511.83569,40719552.58902,   0.00286,  -0.00032,   0.00083,477715200.00000,   0.00067,275374624.00000,   0.00079,  -0.00011,   0.00030,  32.00000,   2.00000
533741436.82812,181528401.97191,40601822.22177,   0.00287,  -0.00032,   0.00083,477726624.00000,   0.00068,275384224.00000,   0.00080,  -0.00011,   0.00030, -32.00000,   2.00000
533703120.55506,181116355.19947,40489792.19623,   0.00288,  -0.00033,   0.00083,477742560.00000,   0.00069,275393856.00000,   0.00081,  -0.00011,   0.00030,  96.00000,   2.00000
533666582.86316,180724231.03598,40383416.60854,   0.00289,  -0.00033,   0.00083,477758560.00000,   0.00070,275403520.00000,   0.00082,  -0.00011,   0.00030, 160.00000,   2.00000
533624431.57111,180314964.08727,40283462.31949,   0.00290,  -0.00034,   0.00083,477765664.00000,   0.00071,275413152.00000,   0.00083,  -0.00012,   0.00031, -96.00000,   2.00000
533585690.85036,179940155.31019,40195800.62186,   0.00292,  -0.00034,   0.00083,477770048.00000,   0.00072,275422784.00000,   0.00084,  -0.00012,   0.00031, 128.00000,   2.00000
533547652.61363,179570716.34318,40107000.51634,   0.00293,  -0.00034,   0.00083,477797120.00000,   0.00073,275432480.00000,   0.00085,  -0.00012,   0.00031, -32.00000,   2.00000
533509158.32594,179217008.34140,40030814.68687,   0.00294,  -0.00035,   0.00084,477797312.00000,   0.00073,275442144.00000,   0.00086,  -0.00012,   0.00032,   0.00000,   2.00000
533470294.16059,178868333.20799,39958968.46532,   0.00295,  -0.00035,   0.00084,477825728.00000,   0.00074,275451904.00000,   0.00087,  -0.00012,   0.00032,  64.00000,   2.00000
533430719.00151,178535220.12559,39899616.42792,   0.00296,  -0.00035,   0.00084,477826080.00000,   0.00075,275461600.00000,   0.00088,  -0.00013,   0.00032, 128.00000,   2.00000
533391204.68053,178203688.09978,39840565.34220,   0.00297,  -0.00036,   0.00084,477835968.00000,   0.00076,275471328.00000,   0.00089,  -0.00013,   0.00032, -64.00000,   2.00000
533352477.05146,177891498.56891,39792421.82605,   0.00298,  -0.00036,   0.00084,477852896.00000,   0.00077,275481056.00000,   0.00090,  -0.00013,   0.00033, 192.00000,   2.00000
533312242.04817,177580407.68172,39750011.15612,   0.00299,  -0.00036,   0.00085,477864352.00000,   0.00078,275490784.00000,   0.00091,  -0.00013,   0.00033, 256.00000,   2.00000
533271412.75799,177284708.17083,39719936.20449,   0.00300,  -0.00037,   0.00085,477864416.00000,   0.00079,275500512.00000,   0.00092,  -0.00013,   0.00033,  32.00000,   2.00000
533235902.39083,177012857.36092,39688100.85127,   0.00302,  -0.00037,   0.00085,477895360.00000,   0.00080,275510304.00000,   0.00093,  -0.00014,   0.00034, 128.00000,   2.00000
533196072.95488,176737684.72509,39668933.82437,   0.00303,  -0.00037,   0.00085,477891200.00000,   0.00081,275520032.00000,   0.00094,  -0.00014,   0.00034,  96.00000,   2.00000
533155920.24790,176467287.54238,39653802.04924,   0.00304,  -0.00038,   0.00086,477919552.00000,   0.00081,275529856.00000,   0.00096,  -0.00014,   0.00034, -64.00000,   2.00000
533121133.75192,176231163.67538,39645023.46933,   0.00305,  -0.00038,   0.00086,477922144.00000,   0.00082,275539648.00000,   0.00097,  -0.00014,   0.00034,  32.00000,   2.00000
533083205.47226,175995390.45898,39647249.05781,   0.00306,  -0.00038,   0.00086,477934912.00000,   0.00083,275549440.00000,   0.00098,  -0.00014,   0.00035,  96.00000,   2.00000
533045420.62938,175760777.08200,39649437.70868,   0.00307,  -0.00039,   0.00087,477944672.00000,   0.00084,275559232.00000,   0.00099,  -0.00015,   0.00035,  96.00000,   2.00000
533011387.51451,175559862.74065,39663374.51669,   0.00308,  -0.00039,   0.00087,477948768.00000,   0.00085,275569024.00000,   0.00100,  -0.00015,   0.00035, 128.00000,   2.00000
532977053.32210,175363426.63285,39681165.62935,   0.00309,  -0.00039,   0.00087,477976992.00000,   0.00086,275578880.00000,   0.00101,  -0.00015,   0.00036,  32.00000,   2.00000
532938665.73260,175163343.16261,39711368.83137,   0.00310,  -0.00040,   0.00087,477972704.00000,   0.00087,275588672.00000,   0.00102,  -0.00015,   0.00036,  96.00000,   2.00000
532902652.23466,174982429.13190,39746486.75670,   0.00311,  -0.00040,   0.00088,477988128.00000,   0.00088,275598496.00000,   0.00103,  -0.00016,   0.00036, 128.00000,   2.00000
532871005.18163,174821084.92597,39781034.50478,   0.00312,  -0.00040,   0.00088,478002080.00000,   0.00089,275608320.00000,   0.00104,  -0.00016,   0.00036,  96.00000,   2.00000
532838489.83716,174677944.20472,39831452.88400,   0.00314,  -0.00040,   0.00088,478020352.00000,   0.00090,275618208.00000,   0.00105,  -0.00016,   0.00037, -32.00000,   2.00000
532806334.74178,174535588.85637,39881583.67501,   0.00315,  -0.00041,   0.00089,478030016.00000,   0.00091,275628064.00000,   0.00106,  -0.00016,   0.00037,  64.00000,   2.00000
532773745.67607,174407830.01783,39943551.52204,   0.00316,  -0.00041,   0.00089,478030016.00000,   0.00091,275637888.00000,   0.00107,  -0.00016,   0.00037,-128.00000,   2.00000
532741453.32477,174284398.68144,40009135.93162,   0.00317,  -0.00041,   0.00090,478057952.00000,   0.00092,275647808.00000,   0.00108,  -0.00017,   0.00038, 192.00000,   2.00000
532710157.66620,174175822.55019,40080967.03187,   0.00318,  -0.00042,   0.00090,478056736.00000,   0.00093,275657664.00000,   0.00109,  -0.00017,   0.00038, 128.00000,   2.00000
532681384.69444,174086035.81819,40157486.39048,   0.00319,  -0.00042,   0.00090,478071904.00000,   0.00094,275667552.00000,   0.00111,  -0.00017,   0.00038,   0.00000,   2.00000
532653809.59819,174014631.39136,40244178.79779,   0.00320,  -0.00042,   0.00091,478088864.00000,   0.00095,275677440.00000,   0.00112,  -0.00017,   0.00038, 128.00000,   2.00000
532623528.68334,173939284.41271,40337407.08122,   0.00321,  -0.00042,   0.00091,478083360.00000,   0.00096,275687296.00000,   0.00113,  -0.00018,   0.00039, 224.00000,   2.00000
532596931.24921,173886502.40258,40433628.49699,   0.00322,  -0.00043,   0.00092,478115488.00000,   0.00097,275697248.00000,   0.00114,  -0.00018,   0.00039, -32.00000,   2.00000
532571769.98329,173848339.08927,40535974.45953,   0.00323,  -0.00043,   0.00092,478113984.00000,   0.00098,275707136.00000,   0.00115,  -0.00018,   0.00039,  64.00000,   2.00000
532543335.03487,173809583.61615,40648677.38727,   0.00324,  -0.00043,   0.00092,478126752.00000,   0.00099,275717024.00000,   0.00116,  -0.00018,   0.00040,  32.00000,   2.00000
532521601.27845,173807951.42065,40765464.02715,   0.00325,  -0.00043,   0.00093,478146208.00000,   0.00100,275726976.00000,   0.00117,  -0.00018,   0.00040, -32.00000,   2.00000
532497004.77942,173802000.62324,40888622.69732,   0.00326,  -0.00043,   0.00093,478140608.00000,   0.00101,275736832.00000,   0.00118,  -0.00019,   0.00040, 128.00000,   2.00000
532472091.86900,173799674.60977,41014955.21166,   0.00328,  -0.00044,   0.00094,478168960.00000,   0.00102,275746784.00000,   0.00119,  -0.00019,   0.00040, -64.00000,   2.00000
532450911.26376,173829926.22215,41152350.24149,   0.00329,  -0.00044,   0.00094,478172768.00000,   0.00102,275756704.00000,   0.00120,  -0.00019,   0.00041, -32.00000,   2.00000
532428311.89307,173859709.96708,41294433.26554,   0.00330,  -0.00044,   0.00095,478184384.00000,   0.00103,275766624.00000,   0.00121,  -0.00019,   0.00041, 256.00000,   2.00000
532408001.19665,173907568.15316,41440765.74807,   0.00331,  -0.00044,   0.00095,478199968.00000,   0.00104,275776576.00000,   0.00122,  -0.00020,   0.00041, 224.00000,   2.00000
532388565.28819,173969424.70322,41592917.42174,   0.00332,  -0.00044,   0.00096,478198784.00000,   0.00105,275786496.00000,   0.00124,  -0.00020,   0.00042, -96.00000,   2.00000
532367537.43572,174034262.34868,41753556.41620,   0.00333,  -0.00045,   0.00096,478228256.00000,   0.00106,275796480.00000,   0.00125,  -0.00020,   0.00042, 128.00000,   2.00000
532353084.83566,174132042.90700,41914074.23000,   0.00334,  -0.00045,   0.00097,478229632.00000,   0.00107,275806432.00000,   0.00126,  -0.00020,   0.00042, 192.00000,   2.00000
532335087.58718,174228505.34778,42084584.10906,   0.00335,  -0.00045,   0.00097,478242656.00000,   0.00108,275816384.00000,   0.00127,  -0.00020,   0.00043, -96.00000,   2.00000
532316669.80815,174338423.57695,42266301.25682,   0.00336,  -0.00045,   0.00098,478242912.00000,   0.00109,275826304.00000,   0.00128,  -0.00021,   0.00043, 192.00000,   2.00000
532303362.21684,174470336.87439,42444901.52218,   0.00337,  -0.00045,   0.00098,478273888.00000,   0.00110,275836320.00000,   0.00129,  -0.00021,   0.00043, 160.00000,   2.00000
532285278.56770,174596834.58681,42635036.48949,   0.00338,  -0.00045,   0.00099,478270080.00000,   0.00111,275846272.00000,   0.00130,  -0.00021,   0.00044,   0.00000,   2.00000
532273435.80687,174759523.64685,42828724.72344,   0.00339,  -0.00046,   0.00100,478289824.00000,   0.00112,275856256.00000,   0.00131,  -0.00021,   0.00044, 128.00000,   2.00000
532258281.57814,174917010.25887,43028385.95356,   0.00340,  -0.00046,   0.00100,478284704.00000,   0.00113,275866176.00000,   0.00132,  -0.00022,   0.00044, -64.00000,   2.00000
532245103.35802,175095465.28580,43235751.24842,   0.00341,  -0.00046,   0.00101,478318720.00000,   0.00114,275876192.00000,   0.00133,  -0.00022,   0.00044,-128.00000,   2.00000
532232484.82369,175287219.33468,43448604.78990,   0.00342,  -0.00046,   0.00101,478317696.00000,   0.00114,275886176.00000,   0.00134,  -0.00022,   0.00045, -32.00000,   2.00000
532222049.84178,175496207.03517,43665265.56478,   0.00343,  -0.00046,   0.00102,478333536.00000,   0.00115,275896160.00000,   0.00135,  -0.00022,   0.00045,  32.00000,   2.00000
532209597.19944,175703684.08515,43886097.94479,   0.00344,  -0.00046,   0.00103,478345408.00000,   0.00116,275906144.00000,   0.00137,  -0.00022,   0.00045,  32.00000,   2.00000
532201495.99085,175942874.17258,44111931.31440,   0.00345,  -0.00046,   0.00103,478348672.00000,   0.00117,275916128.00000,   0.00138,  -0.00023,   0.00046,  32.00000,   2.00000
532189770.31622,176180009.94165,44347361.46219,   0.00347,  -0.00047,   0.00104,478362112.00000,   0.00118,275926112.00000,   0.00139,  -0.00023,   0.00046, -32.00000,   2.00000
532179822.12915,176434033.80496,44586418.24830,   0.00348,  -0.00047,   0.00104,478378080.00000,   0.00119,275936128.00000,   0.00140,  -0.00023,   0.00046, -96.00000,   2.00000
532175677.46727,176723453.63012,44828661.24651,   0.00349,  -0.00047,   0.00105,478398368.00000,   0.00120,275946176.00000,   0.00141,  -0.00023,   0.00047,  32.00000,   2.00000
532167800.50384,177006981.86698,45076633.66819,   0.00350,  -0.00047,   0.00106,478393472.00000,   0.00121,275956160.00000,   0.00142,  -0.00024,   0.00047, -32.00000,   2.00000
532159137.63032,177292449.56558,45326832.81883,   0.00351,  -0.00047,   0.00106,478422304.00000,   0.00122,275966208.00000,   0.00143,  -0.00024,   0.00047,  32.00000,   2.00000
532151538.03562,177604905.10515,45589086.81031,   0.00352,  -0.00047,   0.00107,478410784.00000,   0.00123,275976192.00000,   0.00144,  -0.00024,   0.00048,  32.00000,   2.00000
532146924.77671,177937658.50780,45853015.37488,   0.00353,  -0.00047,   0.00108,478443872.00000,   0.00124,275986240.00000,   0.00145,  -0.00024,   0.00048,  96.00000,   2.00000
532142223.28623,178282814.05071,46122119.03262,   0.00354,  -0.00047,   0.00108,478443520.00000,   0.00125,275996256.00000,   0.00146,  -0.00024,   0.00048,  32.00000,   2.00000
532135208.77485,178625673.91007,46395060.63122,   0.00355,  -0.00047,   0.00109,478455712.00000,   0.00126,276006272.00000,   0.00147,  -0.00025,   0.00049,  96.00000,   2.00000
532131428.82888,179002772.67842,46676322.02394,   0.00356,  -0.00047,   0.00110,478477920.00000,   0.00127,276016352.00000,   0.00149,  -0.00025,   0.00049, -64.00000,   2.00000
532123990.21500,179373597.91069,46963163.31025,   0.00357,  -0.00047,   0.00111,478473280.00000,   0.00127,276026368.00000,   0.00150,  -0.00025,   0.00049, 160.00000,   2.00000
532120893.07081,179764663.84105,47245970.08311,   0.00358,  -0.00047,   0.00111,478505056.00000,   0.00128,276036448.00000,   0.00151,  -0.00025,   0.00050,  64.00000,   2.00000
532118057.99289,180182063.63730,47540666.75744,   0.00359,  -0.00047,   0.00112,478494176.00000,   0.00129,276046464.00000,   0.00152,  -0.00026,   0.00050,  96.00000,   2.00000
532111950.97766,180599944.98181,47842588.79947,   0.00360,  -0.00047,   0.00113,478525056.00000,   0.00130,276056544.00000,   0.00153,  -0.00026,   0.00051,  32.00000,   2.00000
532107648.66080,181030303.52237,48144084.81401,   0.00361,  -0.00047,   0.00114,478523232.00000,   0.00131,276066560.00000,   0.00154,  -0.00026,   0.00051,  96.00000,   2.00000
532102323.17190,181475749.53520,48454115.80666,   0.00362,  -0.00047,   0.00114,478541792.00000,   0.00132,276076640.00000,   0.00155,  -0.00026,   0.00051,  64.00000,   2.00000
532101509.38801,181955126.81534,48766698.10702,   0.00363,  -0.00047,   0.00115,478563008.00000,   0.00133,276086752.00000,   0.00156,  -0.00026,   0.00052,  64.00000,   2.00000
532096434.38298,182427603.08914,49084690.13032,   0.00364,  -0.00047,   0.00116,478558752.00000,   0.00134,276096800.00000,   0.00157,  -0.00027,   0.00052, 160.00000,   2.00000
532092198.14227,182915385.80019,49405673.90625,   0.00365,  -0.00047,   0.00117,478575872.00000,   0.00135,276106848.00000,   0.00158,  -0.00027,   0.00052, 224.00000,   2.00000
532088358.54492,183418262.16621,49729577.37455,   0.00366,  -0.00047,   0.00117,478592992.00000,   0.00136,276116960.00000,   0.00160,  -0.00027,   0.00053,  64.00000,   2.00000
532083854.41820,183932566.25580,50058347.84651,   0.00367,  -0.00047,   0.00118,478593376.00000,   0.00137,276127008.00000,   0.00161,  -0.00027,   0.00053,   0.00000,   2.00000
532077781.16803,184461280.83539,50395401.26148,   0.00368,  -0.00047,   0.00119,478612224.00000,   0.00138,276137088.00000,   0.00162,  -0.00027,   0.00054,  64.00000,   2.00000
532072102.32295,185004821.50235,50735263.85704,   0.00369,  -0.00047,   0.00120,478629600.00000,   0.00139,276147200.00000,   0.00163,  -0.00028,   0.00054,  96.00000,   2.00000
532065487.93792,185559504.14053,51079894.47582,   0.00370,  -0.00047,   0.00121,478630048.00000,   0.00140,276157280.00000,   0.00164,  -0.00028,   0.00054, 128.00000,   2.00000
532058964.64892,186128759.91756,51427252.67549,   0.00371,  -0.00047,   0.00122,478647328.00000,   0.00141,276167360.00000,   0.00165,  -0.00028,   0.00055,  96.00000,   2.00000
532052622.63034,186712509.01963,51777321.21427,   0.00372,  -0.00047,   0.00122,478664864.00000,   0.00141,276177472.00000,   0.00166,  -0.00028,   0.00055, 128.00000,   2.00000
532048350.58980,187325420.72380,52131526.64935,   0.00373,  -0.00047,   0.00123,478670336.00000,   0.00142,276187584.00000,   0.00167,  -0.00028,   0.00055,   0.00000,   2.00000
532038640.37363,187933617.46619,52494333.68644,   0.00374,  -0.00047,   0.00124,478685120.00000,   0.00143,276197696.00000,   0.00168,  -0.00029,   0.00056,  64.00000,   2.00000
532030653.80806,188556433.85455,52854292.88911,   0.00375,  -0.00047,   0.00125,478701056.00000,   0.00144,276207808.00000,   0.00169,  -0.00029,   0.00056,  64.00000,   2.00000
532019082.92669,189189237.27912,53224284.01724,   0.00376,  -0.00047,   0.00126,478703840.00000,   0.00145,276217920.00000,   0.00171,  -0.00029,   0.00057, -32.00000,   2.00000
532010738.62814,189854278.21065,53596219.00776,   0.00377,  -0.00047,   0.00127,478726336.00000,   0.00146,276228064.00000,   0.00172,  -0.00029,   0.00057, 160.00000,   2.00000
531996977.87402,190511181.90944,53973261.15458,   0.00378,  -0.00046,   0.00128,478723040.00000,   0.00147,276238144.00000,   0.00173,  -0.00029,   0.00057, 160.00000,   2.00000
531987525.35441,191203428.54858,54350047.88655,   0.00379,  -0.00046,   0.00129,478762176.00000,   0.00148,276248320.00000,   0.00174,  -0.00030,   0.00058,   0.00000,   2.00000
531972676.34488,191887373.95359,54731928.61583,   0.00380,  -0.00046,   0.00129,478759136.00000,   0.00149,276258464.00000,   0.00175,  -0.00030,   0.00058,   0.00000,   2.00000
531959169.66412,192599631.26982,55117711.68102,   0.00381,  -0.00046,   0.00130,478765248.00000,   0.00150,276268576.00000,   0.00176,  -0.00030,   0.00059, 128.00000,   2.00000
531939152.06181,193306111.86734,55511753.66887,   0.00381,  -0.00046,   0.00131,478780992.00000,   0.00151,276278720.00000,   0.00177,  -0.00030,   0.00059,  64.00000,   2.00000
531923789.60473,194044569.60870,55902064.56867,   0.00382,  -0.00046,   0.00132,478801952.00000,   0.00152,276288896.00000,   0.00178,  -0.00030,   0.00060,  32.00000,   2.00000
531903796.39678,194791985.89725,56302141.50388,   0.00383,  -0.00046,   0.00133,478805792.00000,   0.00153,276299040.00000,   0.00179,  -0.00030,   0.00060,  32.00000,   2.00000
531884947.99335,195552784.64876,56699011.79457,   0.00384,  -0.00045,   0.00134,478822496.00000,   0.00154,276309216.00000,   0.00180,  -0.00031,   0.00060, 192.00000,   2.00000
531862563.84259,196325510.41040,57103356.10659,   0.00385,  -0.00045,   0.00135,478843488.00000,   0.00155,276319424.00000,   0.00182,  -0.00031,   0.00061,  96.00000,   2.00000
531837415.80543,197107490.97055,57511969.35429,   0.00386,  -0.00045,   0.00136,478845664.00000,   0.00156,276329568.00000,   0.00183,  -0.00031,   0.00061,   0.00000,   2.00000
531813056.38516,197902446.80551,57917220.97512,   0.00387,  -0.00045,   0.00137,478862720.00000,   0.00157,276339776.00000,   0.00184,  -0.00031,   0.00062,   0.00000,   2.00000
531786682.57014,198723979.20828,58331393.81128,   0.00388,  -0.00045,   0.00138,478872160.00000,   0.00158,276349952.00000,   0.00185,  -0.00031,   0.00062,   0.00000,   2.00000
531755513.72675,199539347.56944,58748099.06007,   0.00389,  -0.00044,   0.00139,478886688.00000,   0.00159,276360128.00000,   0.00186,  -0.00032,   0.00063,  96.00000,   2.00000
531725774.14387,200384790.02964,59165948.22377,   0.00390,  -0.00044,   0.00140,478911168.00000,   0.00159,276370368.00000,   0.00187,  -0.00032,   0.00063, 160.00000,   2.00000
531692446.86162,201238808.49433,59587808.16926,   0.00391,  -0.00044,   0.00141,478914432.00000,   0.00160,276380576.00000,   0.00188,  -0.00032,   0.00064, -64.00000,   2.00000
531657178.00166,202104427.78509,60011339.96638,   0.00392,  -0.00044,   0.00142,478934240.00000,   0.00161,276390816.00000,   0.00189,  -0.00032,   0.00064, -64.00000,   2.00000
531618447.57713,202978557.56749,60438820.53452,   0.00393,  -0.00044,   0.00143,478937600.00000,   0.00162,276400992.00000,   0.00190,  -0.00032,   0.00064,   0.00000,   2.00000
531577684.47693,203864097.41889,60867845.50751,   0.00394,  -0.00043,   0.00144,478957856.00000,   0.00163,276411232.00000,   0.00192,  -0.00032,   0.00065, 160.00000,   2.00000
531534349.19055,204760784.94156,61298282.06747,   0.00395,  -0.00043,   0.00145,478978464.00000,   0.00164,276421504.00000,   0.00193,  -0.00033,   0.00065,  96.00000,   2.00000
531490071.62228,205683711.85546,61731762.70061,   0.00395,  -0.00043,   0.00146,478987488.00000,   0.00165,276431744.00000,   0.00194,  -0.00033,   0.00066,  96.00000,   2.00000
531438872.00151,206596728.44926,62169691.88050,   0.00396,  -0.00042,   0.00147,478986400.00000,   0.00166,276441952.00000,   0.00195,  -0.00033,   0.00066,   0.00000,   2.00000
531389516.75368,207541481.90317,62605685.00589,   0.00397,  -0.00042,   0.00148,479028864.00000,   0.00167,276452288.00000,   0.00196,  -0.00033,   0.00067,  32.00000,   2.00000
531338448.33112,208494919.37594,63040004.15437,   0.00398,  -0.00042,   0.00149,479031136.00000,   0.00168,276462560.00000,   0.00197,  -0.00033,   0.00067, 160.00000,   2.00000
531280356.12961,209455377.55999,63483181.05467,   0.00399,  -0.00042,   0.00150,479037856.00000,   0.00169,276472800.00000,   0.00198,  -0.00033,   0.00068,  96.00000,   2.00000
531222127.08104,210444265.40156,63926616.42653,   0.00400,  -0.00041,   0.00151,479064480.00000,   0.00170,276483136.00000,   0.00199,  -0.00033,   0.00068,  32.00000,   2.00000
