# sigma_xx, sigma_yy, sigma_xy, epsilon_xx, epsilon_yy, epsilon_xy, vonMises, epsPlastic, hardening, epsilonP__xx, epsilonP__yy, epsilonP__xy, yieldValue, iteration
   0.00000,   0.00000,   0.00000,   0.00000,   0.00000,   0.00000,   0.00000,   0.00000,274640135.82653,   0.00000,   0.00000,   0.00000,-474640135.82653,   0.00000
   0.00000,   0.00000,   0.00000,   0.00000,   0.00000,   0.00000,   0.00000,   0.00000,274640135.82653,   0.00000,   0.00000,   0.00000,-474640135.82653,   0.00000
-22152.60561,-4777578.60944,221526.05608,   0.00001,  -0.00002,   0.00000,4781959.18774,   0.00000,274640135.82653,   0.00000,   0.00000,   0.00000,-469858176.63879,   0.00000
-81226.22056,-9592078.22823,450436.31403,   0.00002,  -0.00004,   0.00001,9583533.41898,   0.00000,274640135.82653,   0.00000,   0.00000,   0.00000,-465056602.40755,   0.00000
-118147.22991,-14354888.43394,686730.77385,   0.00003,  -0.00007,   0.00001,14345577.29344,   0.00000,274640135.82653,   0.00000,   0.00000,   0.00000,-460294558.53309,   0.00000
-206757.65234,-19139851.24525,915641.03179,   0.00004,  -0.00009,   0.00001,19103259.91042,   0.00000,274640135.82653,   0.00000,   0.00000,   0.00000,-455536875.91611,   0.00000
-295368.07477,-23924814.05657,1159319.69348,   0.00005,  -0.00011,   0.00002,23863139.15077,   0.00000,274640135.82653,   0.00000,   0.00000,   0.00000,-450776996.67576,   0.00000
-435667.91029,-28731929.47349,1395614.15330,   0.00005,  -0.00013,   0.00002,28618861.17091,   0.00000,274640135.82653,   0.00000,   0.00000,   0.00000,-446021274.65562,   0.00000
-564891.44300,-33513200.18387,1639292.81499,   0.00006,  -0.00015,   0.00002,33355422.52310,   0.00000,274640135.82653,   0.00000,   0.00000,   0.00000,-441284713.30343,   0.00000
-719959.68226,-38305547.19705,1882971.47667,   0.00007,  -0.00017,   0.00002,38090570.79077,   0.00000,274640135.82653,   0.00000,   0.00000,   0.00000,-436549565.03576,   0.00000
-889796.32525,-43083125.80649,2134034.34023,   0.00008,  -0.00019,   0.00003,42805076.42128,   0.00000,274640135.82653,   0.00000,   0.00000,   0.00000,-431835059.40525,   0.00000
-1085477.67479,-47871780.71874,2385097.20379,   0.00009,  -0.00022,   0.00003,47518290.87581,   0.00000,274640135.82653,   0.00000,   0.00000,   0.00000,-427121844.95072,   0.00000
-1295927.42806,-52645667.22725,2636160.06734,   0.00010,  -0.00024,   0.00003,52209853.10528,   0.00000,274640135.82653,   0.00000,   0.00000,   0.00000,-422430282.72125,   0.00000
-1532221.88788,-57430630.03856,2894607.13277,   0.00011,  -0.00026,   0.00004,56901359.85650,   0.00000,274640135.82653,   0.00000,   0.00000,   0.00000,-417738775.97002,   0.00000
-1794361.05424,-62226669.15268,3153054.19820,   0.00011,  -0.00028,   0.00004,61591770.76605,   0.00000,274640135.82653,   0.00000,   0.00000,   0.00000,-413048365.06048,   0.00000
-2045423.91780,-66996863.56026,3411501.26362,   0.00012,  -0.00030,   0.00004,66261916.07090,   0.00000,274640135.82653,   0.00000,   0.00000,   0.00000,-408378219.75563,   0.00000
-2348176.19444,-71789210.57344,3677332.53092,   0.00013,  -0.00032,   0.00005,70930947.36813,   0.00000,274640135.82653,   0.00000,   0.00000,   0.00000,-403709188.45840,   0.00000
-2639852.16828,-76555712.88008,3943163.79821,   0.00014,  -0.00034,   0.00005,75579731.75148,   0.00000,274640135.82653,   0.00000,   0.00000,   0.00000,-399060404.07505,   0.00000
-2957372.84866,-81333291.48952,4208995.06551,   0.00015,  -0.00036,   0.00005,80227578.85619,   0.00000,274640135.82653,   0.00000,   0.00000,   0.00000,-394412556.97034,   0.00000
-3289661.93278,-86096101.69523,4482210.53467,   0.00015,  -0.00039,   0.00006,84855195.29334,   0.00000,274640135.82653,   0.00000,   0.00000,   0.00000,-389784940.53319,   0.00000
-3647795.72344,-90869988.20374,4755426.00384,   0.00016,  -0.00041,   0.00006,89481999.55780,   0.00000,274640135.82653,   0.00000,   0.00000,   0.00000,-385158136.26873,   0.00000
-4031774.22064,-95654951.01505,5028641.47300,   0.00017,  -0.00043,   0.00007,94108062.33618,   0.00000,274640135.82653,   0.00000,   0.00000,   0.00000,-380532073.49035,   0.00000
-4430521.12159,-100425145.42263,5309241.14403,   0.00018,  -0.00045,   0.00007,98714070.66476,   0.00000,274640135.82653,   0.00000,   0.00000,   0.00000,-375926065.16177,   0.00000
-4818191.71973,-105169495.12366,5589840.81507,   0.00018,  -0.00047,   0.00007,103299805.64577,   0.00000,274640135.82653,   0.00000,   0.00000,   0.00000,-371340330.18076,   0.00000
-5257551.73095,-109935997.43030,5870440.48610,   0.00019,  -0.00049,   0.00008,107883999.75028,   0.00000,274640135.82653,   0.00000,   0.00000,   0.00000,-366756136.07625,   0.00000
-5696911.74217,-114702499.73694,6151040.15714,   0.00020,  -0.00051,   0.00008,112468547.23316,   0.00000,274640135.82653,   0.00000,   0.00000,   0.00000,-362171588.59337,   0.00000
-6151040.15714,-119454233.63984,6439024.03004,   0.00020,  -0.00053,   0.00008,117033177.06025,   0.00000,274640135.82653,   0.00000,   0.00000,   0.00000,-357606958.76628,   0.00000
-6631013.27864,-124217043.84554,6727007.90294,   0.00021,  -0.00055,   0.00009,121597357.52734,   0.00000,274640135.82653,   0.00000,   0.00000,   0.00000,-353042778.29918,   0.00000
-7125754.80388,-128965085.64751,7014991.77585,   0.00022,  -0.00057,   0.00009,126140502.80483,   0.00000,274640135.82653,   0.00000,   0.00000,   0.00000,-348499633.02170,   0.00000
-7646341.03567,-133724203.75228,7310359.85062,   0.00023,  -0.00059,   0.00010,130684553.09347,   0.00000,274640135.82653,   0.00000,   0.00000,   0.00000,-343955582.73306,   0.00000
-8155850.96465,-138457477.15051,7605727.92539,   0.00023,  -0.00061,   0.00010,135208334.16282,   0.00000,274640135.82653,   0.00000,   0.00000,   0.00000,-339431801.66371,   0.00000
-8691205.60018,-143201826.85154,7901096.00016,   0.00024,  -0.00063,   0.00010,139731834.96586,   0.00000,274640135.82653,   0.00000,   0.00000,   0.00000,-334908300.86067,   0.00000
-9267173.34598,-147942484.45164,8196464.07493,   0.00025,  -0.00066,   0.00011,144233826.22982,   0.00000,274640135.82653,   0.00000,   0.00000,   0.00000,-330406309.59671,   0.00000
-9832064.78899,-152657297.34519,8499216.35158,   0.00025,  -0.00068,   0.00011,148716823.28680,   0.00000,274640135.82653,   0.00000,   0.00000,   0.00000,-325923312.53973,   0.00000
-10408032.53479,-157397954.94529,8801968.62822,   0.00026,  -0.00070,   0.00011,153220965.54134,   0.00000,274640135.82653,   0.00000,   0.00000,   0.00000,-321419170.28519,   0.00000
-11013537.08808,-162109075.73791,9104720.90486,   0.00027,  -0.00072,   0.00012,157683049.01321,   0.00000,274640135.82653,   0.00000,   0.00000,   0.00000,-316957086.81332,   0.00000
-11655962.65071,-166857117.53988,9407473.18150,   0.00027,  -0.00074,   0.00012,162165904.13513,   0.00000,274640135.82653,   0.00000,   0.00000,   0.00000,-312474231.69140,   0.00000
-12276235.60773,-171553469.92876,9717609.66001,   0.00028,  -0.00076,   0.00013,166609015.36723,   0.00000,274640135.82653,   0.00000,   0.00000,   0.00000,-308031120.45930,   0.00000
-12922353.27129,-176260898.62045,10020361.93665,   0.00028,  -0.00078,   0.00013,171050895.80792,   0.00000,274640135.82653,   0.00000,   0.00000,   0.00000,-303589240.01861,   0.00000
-13594315.64140,-180979403.61494,10330498.41517,   0.00029,  -0.00080,   0.00013,175494206.18858,   0.00000,274640135.82653,   0.00000,   0.00000,   0.00000,-299145929.63795,   0.00000
-14281046.41525,-185683140.20569,10640634.89368,   0.00030,  -0.00082,   0.00014,179916915.91503,   0.00000,274640135.82653,   0.00000,   0.00000,   0.00000,-294723219.91150,   0.00000
-14967777.18909,-190386876.79644,10958155.57406,   0.00030,  -0.00084,   0.00014,184341455.94365,   0.00000,274640135.82653,   0.00000,   0.00000,   0.00000,-290298679.88288,   0.00000
-15669276.36668,-195075844.98345,11268292.05257,   0.00031,  -0.00086,   0.00015,188744105.62372,   0.00000,274640135.82653,   0.00000,   0.00000,   0.00000,-285896030.20281,   0.00000
-16385543.94800,-199750044.76672,11585812.73295,   0.00031,  -0.00088,   0.00015,193127539.38185,   0.00000,274640135.82653,   0.00000,   0.00000,   0.00000,-281512596.44468,   0.00000
-17127656.23587,-204435320.85280,11903333.41333,   0.00032,  -0.00090,   0.00015,197511334.26042,   0.00000,274640135.82653,   0.00000,   0.00000,   0.00000,-277128801.56611,   0.00000
-17884536.92747,-209105828.53514,12220854.09371,   0.00033,  -0.00092,   0.00016,201874691.58027,   0.00000,274640135.82653,   0.00000,   0.00000,   0.00000,-272765444.24626,   0.00000
-18667262.32562,-213787412.52028,12538374.77409,   0.00033,  -0.00094,   0.00016,206238529.98251,   0.00000,274640135.82653,   0.00000,   0.00000,   0.00000,-268401605.84402,   0.00000
-19449987.72376,-218468996.50543,12863279.65634,   0.00034,  -0.00096,   0.00017,210604313.93265,   0.00000,274640135.82653,   0.00000,   0.00000,   0.00000,-264035821.89388,   0.00000
-20236405.22285,-223109967.38029,13180800.33672,   0.00034,  -0.00098,   0.00017,214927491.08516,   0.00000,274640135.82653,   0.00000,   0.00000,   0.00000,-259712644.74137,   0.00000
-21059743.73127,-227787859.26450,13505705.21897,   0.00035,  -0.00100,   0.00018,219273527.61678,   0.00000,274640135.82653,   0.00000,   0.00000,   0.00000,-255366608.20975,   0.00000
-21860929.63409,-232414061.73562,13830610.10122,   0.00035,  -0.00101,   0.00018,223578322.32722,   0.00000,274640135.82653,   0.00000,   0.00000,   0.00000,-251061813.49931,   0.00000
-22713804.95000,-237062416.81235,14155514.98347,   0.00036,  -0.00103,   0.00018,227883857.95644,   0.00000,274640135.82653,   0.00000,   0.00000,   0.00000,-246756277.87009,   0.00000
-23566680.26591,-241710771.88908,14480419.86572,   0.00036,  -0.00105,   0.00019,232190036.10512,   0.00000,274640135.82653,   0.00000,   0.00000,   0.00000,-242450099.72141,   0.00000
-24408479.27901,-246333282.25927,14805324.74797,   0.00037,  -0.00107,   0.00019,236475859.05598,   0.00000,274640135.82653,   0.00000,   0.00000,   0.00000,-238164276.77055,   0.00000
-25290891.40239,-250952100.52852,15137613.83209,   0.00037,  -0.00109,   0.00020,240743069.85566,   0.00000,274640135.82653,   0.00000,   0.00000,   0.00000,-233897065.97087,   0.00000
-26173303.52577,-255570918.79778,15462518.71434,   0.00038,  -0.00111,   0.00020,245009529.56469,   0.00000,274640135.82653,   0.00000,   0.00000,   0.00000,-229630606.26184,   0.00000
-27096328.75944,-260186044.96610,15794807.79846,   0.00038,  -0.00113,   0.00021,249257558.10906,   0.00000,274640135.82653,   0.00000,   0.00000,   0.00000,-225382577.71747,   0.00000
-27982432.98375,-264764250.12507,16127096.88257,   0.00039,  -0.00115,   0.00021,253484963.21467,   0.00000,274640135.82653,   0.00000,   0.00000,   0.00000,-221155172.61186,   0.00000
-28920226.62116,-269364607.88965,16459385.96669,   0.00039,  -0.00117,   0.00021,257713639.81497,   0.00000,274640135.82653,   0.00000,   0.00000,   0.00000,-216926496.01156,   0.00000
-29858020.25856,-273964965.65423,16791675.05081,   0.00040,  -0.00119,   0.00022,261942996.35242,   0.00000,274640135.82653,   0.00000,   0.00000,   0.00000,-212697139.47411,   0.00000
-30810582.29970,-278550555.01507,17123964.13493,   0.00040,  -0.00121,   0.00022,266152379.89546,   0.00000,274640135.82653,   0.00000,   0.00000,   0.00000,-208487755.93107,   0.00000
-31777912.74458,-283121375.97218,17463637.42092,   0.00041,  -0.00123,   0.00023,270343261.03108,   0.00000,274640135.82653,   0.00000,   0.00000,   0.00000,-204296874.79545,   0.00000
-32760011.59320,-287677428.52554,17795926.50504,   0.00041,  -0.00125,   0.00023,274512823.65233,   0.00000,274640135.82653,   0.00000,   0.00000,   0.00000,-200127312.17420,   0.00000
-33742110.44182,-292233481.07891,18128215.58916,   0.00042,  -0.00126,   0.00024,278683081.09489,   0.00000,274640135.82653,   0.00000,   0.00000,   0.00000,-195957054.73164,   0.00000
-34750053.99698,-296800609.93507,18467888.87515,   0.00042,  -0.00128,   0.00024,282856005.50025,   0.00000,274640135.82653,   0.00000,   0.00000,   0.00000,-191784130.32628,   0.00000
-35772765.95588,-301352970.38750,18800177.95927,   0.00042,  -0.00130,   0.00024,287007690.38412,   0.00000,274640135.82653,   0.00000,   0.00000,   0.00000,-187632445.44241,   0.00000
-36784401.61197,-305879486.13339,19139851.24525,   0.00043,  -0.00132,   0.00025,291140447.36769,   0.00000,274640135.82653,   0.00000,   0.00000,   0.00000,-183499688.45884,   0.00000
-37810805.67181,-310391233.47554,19479524.53124,   0.00043,  -0.00134,   0.00025,295253429.88818,   0.00000,274640135.82653,   0.00000,   0.00000,   0.00000,-179386705.93835,   0.00000
-38863054.43818,-314914057.12049,19819197.81723,   0.00044,  -0.00136,   0.00026,299367800.59567,   0.00000,274640135.82653,   0.00000,   0.00000,   0.00000,-175272335.23086,   0.00000
-39904226.90176,-319411036.05890,20158871.10322,   0.00044,  -0.00138,   0.00026,303461772.01667,   0.00000,274640135.82653,   0.00000,   0.00000,   0.00000,-171178363.80986,   0.00000
-40997088.77841,-323930167.60292,20491160.18734,   0.00045,  -0.00139,   0.00027,307556472.65146,   0.00000,274640135.82653,   0.00000,   0.00000,   0.00000,-167083663.17507,   0.00000
-42053029.64572,-328412378.13759,20830833.47333,   0.00045,  -0.00141,   0.00027,311631485.59173,   0.00000,274640135.82653,   0.00000,   0.00000,   0.00000,-163008650.23480,   0.00000
-43149583.62332,-332890896.57133,21170506.75931,   0.00045,  -0.00143,   0.00028,315687666.97041,   0.00000,274640135.82653,   0.00000,   0.00000,   0.00000,-158952468.85612,   0.00000
-44246137.60091,-337369415.00507,21510180.04530,   0.00046,  -0.00145,   0.00028,319744605.66451,   0.00000,274640135.82653,   0.00000,   0.00000,   0.00000,-154895530.16202,   0.00000
-45357459.98224,-341833165.03507,21857237.53316,   0.00046,  -0.00147,   0.00028,323783483.65535,   0.00000,274640135.82653,   0.00000,   0.00000,   0.00000,-150856652.17118,   0.00000
-46494627.07011,-346307991.36787,22196910.81915,   0.00046,  -0.00149,   0.00029,327822547.83850,   0.00000,274640135.82653,   0.00000,   0.00000,   0.00000,-146817587.98803,   0.00000
-47620717.85518,-350756972.99413,22536584.10514,   0.00047,  -0.00150,   0.00029,331841198.30988,   0.00000,274640135.82653,   0.00000,   0.00000,   0.00000,-142798937.51665,   0.00000
-48761577.04399,-355191186.21665,22876257.39112,   0.00047,  -0.00152,   0.00030,335840374.62228,   0.00000,274640135.82653,   0.00000,   0.00000,   0.00000,-138799761.20425,   0.00000
-49917204.63654,-359610631.03543,23215930.67711,   0.00047,  -0.00154,   0.00030,339820120.24771,   0.00000,274640135.82653,   0.00000,   0.00000,   0.00000,-134820015.57882,   0.00000
-51072832.22909,-364030075.85421,23555603.96310,   0.00048,  -0.00156,   0.00031,343800643.92331,   0.00000,274640135.82653,   0.00000,   0.00000,   0.00000,-130839491.90322,   0.00000
-52243228.22537,-368434752.26926,23902661.45096,   0.00048,  -0.00157,   0.00031,347763299.38548,   0.00000,274640135.82653,   0.00000,   0.00000,   0.00000,-126876836.44105,   0.00000
-53413624.22166,-372839428.68430,24242334.73695,   0.00048,  -0.00159,   0.00032,351725208.18938,   0.00000,274640135.82653,   0.00000,   0.00000,   0.00000,-122914927.63715,   0.00000
-54598788.62168,-377229336.69561,24582008.02294,   0.00049,  -0.00161,   0.00032,355667767.33623,   0.00000,274640135.82653,   0.00000,   0.00000,   0.00000,-118972368.49030,   0.00000
-55798721.42545,-381604476.30317,24921681.30892,   0.00049,  -0.00163,   0.00032,359591020.99076,   0.00000,274640135.82653,   0.00000,   0.00000,   0.00000,-115049114.83577,   0.00000
-57013422.63295,-385964847.50700,25261354.59491,   0.00049,  -0.00164,   0.00033,363495013.73053,   0.00000,274640135.82653,   0.00000,   0.00000,   0.00000,-111145122.09600,   0.00000
-58228123.84045,-390325218.71083,25608412.08277,   0.00050,  -0.00166,   0.00033,367401358.05777,   0.00000,274640135.82653,   0.00000,   0.00000,   0.00000,-107238777.76876,   0.00000
-59457593.45169,-394670821.51092,25948085.36876,   0.00050,  -0.00168,   0.00034,371286944.18393,   0.00000,274640135.82653,   0.00000,   0.00000,   0.00000,-103353191.64260,   0.00000
-60687063.06293,-399016424.31101,26287758.65475,   0.00050,  -0.00170,   0.00034,375173333.74470,   0.00000,274640135.82653,   0.00000,   0.00000,   0.00000,-99466802.08183,   0.00000
-61931301.07791,-403347258.70736,26627431.94073,   0.00050,  -0.00171,   0.00035,379040548.01204,   0.00000,274640135.82653,   0.00000,   0.00000,   0.00000,-95599587.81449,   0.00000
-63190307.49663,-407663324.69997,26967105.22672,   0.00051,  -0.00173,   0.00035,382888632.26399,   0.00000,274640135.82653,   0.00000,   0.00000,   0.00000,-91751503.56254,   0.00000
-64438237.61254,-411953545.98604,27306778.51271,   0.00051,  -0.00175,   0.00035,386716214.41793,   0.00000,274640135.82653,   0.00000,   0.00000,   0.00000,-87923921.40860,   0.00000
-65712012.43500,-416254843.57491,27646451.79870,   0.00051,  -0.00177,   0.00036,390546026.49609,   0.00000,274640135.82653,   0.00000,   0.00000,   0.00000,-84094109.33044,   0.00000
-66974710.95465,-420530296.45724,27986125.08469,   0.00052,  -0.00178,   0.00036,394355317.80965,   0.00000,274640135.82653,   0.00000,   0.00000,   0.00000,-80284818.01688,   0.00000
-68252177.87804,-424790980.93584,28325798.37068,   0.00052,  -0.00180,   0.00037,398145551.57344,   0.00000,274640135.82653,   0.00000,   0.00000,   0.00000,-76494584.25309,   0.00000
-69555489.50797,-429062741.71723,28665471.65666,   0.00052,  -0.00182,   0.00037,401938131.08080,   0.00000,274640135.82653,   0.00000,   0.00000,   0.00000,-72702004.74573,   0.00000
-70847724.83510,-433308657.79209,28997760.74078,   0.00052,  -0.00183,   0.00038,405708603.38414,   0.00000,274640135.82653,   0.00000,   0.00000,   0.00000,-68931532.44239,   0.00000
-72154728.56597,-437539805.46320,29337434.02677,   0.00052,  -0.00185,   0.00038,409461689.81362,   0.00000,274640135.82653,   0.00000,   0.00000,   0.00000,-65178446.01291,   0.00000
-73476500.70058,-441756184.73058,29677107.31276,   0.00053,  -0.00187,   0.00039,413195857.16877,   0.00000,274640135.82653,   0.00000,   0.00000,   0.00000,-61444278.65776,   0.00000
-74798272.83518,-445972563.99795,30009396.39688,   0.00053,  -0.00188,   0.00039,416929278.84166,   0.00000,274640135.82653,   0.00000,   0.00000,   0.00000,-57710856.98487,   0.00000
-76108968.66699,-450163098.55879,30349069.68287,   0.00053,  -0.00190,   0.00039,420643720.20060,   0.00000,274640135.82653,   0.00000,   0.00000,   0.00000,-53996415.62593,   0.00000
-77445509.20533,-454364709.42243,30681358.76699,   0.00053,  -0.00192,   0.00040,424359078.02922,   0.00000,274640135.82653,   0.00000,   0.00000,   0.00000,-50281057.79731,   0.00000
-78785741.84461,-458525707.17578,31021032.05297,   0.00054,  -0.00193,   0.00040,428035795.87843,   0.00000,274640135.82653,   0.00000,   0.00000,   0.00000,-46604339.94810,   0.00000
-80151819.19043,-462697781.23194,31353321.13709,   0.00054,  -0.00195,   0.00041,431713532.58192,   0.00000,274640135.82653,   0.00000,   0.00000,   0.00000,-42926603.24461,   0.00000
-81480975.52691,-466832934.27876,31685610.22121,   0.00054,  -0.00197,   0.00041,435368888.06193,   0.00000,274640135.82653,   0.00000,   0.00000,   0.00000,-39271247.76460,   0.00000
-82861821.27647,-470990239.93118,32017899.30533,   0.00054,  -0.00198,   0.00042,439028718.96873,   0.00000,274640135.82653,   0.00000,   0.00000,   0.00000,-35611416.85780,   0.00000
-84231590.72323,-475121700.87706,32350188.38945,   0.00054,  -0.00200,   0.00042,442667978.21231,   0.00000,274640135.82653,   0.00000,   0.00000,   0.00000,-31972157.61422,   0.00000
-85590283.86718,-479227317.11640,32682477.47357,   0.00055,  -0.00201,   0.00042,446286622.08896,   0.00000,274640135.82653,   0.00000,   0.00000,   0.00000,-28353513.73757,   0.00000
-86989590.12141,-483329241.25480,33014766.55769,   0.00055,  -0.00203,   0.00043,449888492.94415,   0.00000,274640135.82653,   0.00000,   0.00000,   0.00000,-24751642.88238,   0.00000
-88351975.36630,-487394244.38385,33339671.43994,   0.00055,  -0.00205,   0.00043,453466181.55197,   0.00000,274640135.82653,   0.00000,   0.00000,   0.00000,-21173954.27456,   0.00000
-89740205.31773,-491470323.81571,33671960.52406,   0.00055,  -0.00206,   0.00044,457048289.19032,   0.00000,274640135.82653,   0.00000,   0.00000,   0.00000,-17591846.63621,   0.00000
-91143203.67290,-495531634.84383,33996865.40631,   0.00055,  -0.00208,   0.00044,460610143.78560,   0.00000,274640135.82653,   0.00000,   0.00000,   0.00000,-14029992.04093,   0.00000
-92546202.02807,-499592945.87195,34329154.49043,   0.00055,  -0.00209,   0.00045,464174486.50099,   0.00000,274640135.82653,   0.00000,   0.00000,   0.00000,-10465649.32554,   0.00000
-93952892.48417,-503613643.78979,34654059.37268,   0.00055,  -0.00211,   0.00045,467697125.47956,   0.00000,274640135.82653,   0.00000,   0.00000,   0.00000,-6943010.34697,   0.00000
-95359582.94028,-507634341.70763,34978964.25492,   0.00056,  -0.00212,   0.00045,471220606.13807,   0.00000,274640135.82653,   0.00000,   0.00000,   0.00000,-3419529.68846,   0.00000
-96746405.31731,-511542659.31564,35295952.22682,   0.00056,  -0.00214,   0.00046,474640135.80510,   0.00000,274640135.82653,   0.00000,   0.00000,   0.00000,  -0.02143,   0.00000
-96772180.50349,-511551630.21000,35297080.00866,   0.00056,  -0.00214,   0.00046,474640135.80510,   0.00000,274640506.18211,   0.00000,  -0.00000,   0.00000,   0.06002,   1.00000
-97841519.72959,-511922462.75999,35344284.28987,   0.00056,  -0.00215,   0.00046,478126972.45593,   0.00001,274655616.64958,   0.00001,  -0.00002,   0.00000,   0.00000,   2.00000
-98903381.24266,-512290594.80690,35383736.74831,   0.00056,  -0.00217,   0.00047,478141704.02022,   0.00003,274670714.09814,   0.00001,  -0.00003,   0.00001,   0.00000,   2.00000
-99948786.73817,-512649244.09805,35431600.50633,   0.00056,  -0.00219,   0.00047,478138163.80026,   0.00004,274685719.62744,   0.00002,  -0.00005,   0.00001,   0.00000,   2.00000
-101003704.26034,-513010579.44663,35473242.90603,   0.00056,  -0.00220,   0.00048,478133484.94341,   0.00006,274700628.75083,   0.00002,  -0.00006,   0.00001,   0.00000,   2.00000
-102042552.17118,-513364283.99479,35516095.80285,   0.00056,  -0.00222,   0.00048,478128070.45301,   0.00007,274715438.95892,   0.00003,  -0.00008,   0.00002,   0.00000,   2.00000
-103090918.59548,-513719007.25298,35559966.65340,   0.00056,  -0.00223,   0.00048,478124903.48986,   0.00008,274730160.44628,   0.00003,  -0.00009,   0.00002,   0.00000,   2.00000
-104131903.64872,-514069543.10954,35603319.81562,   0.00057,  -0.00225,   0.00049,478140851.42167,   0.00010,274744876.24851,   0.00004,  -0.00011,   0.00003,   0.00000,   2.00000
-105182483.22458,-514421077.90607,35647686.55560,   0.00057,  -0.00226,   0.00049,478137666.54301,   0.00011,274759503.79577,   0.00004,  -0.00012,   0.00003,   0.00000,   2.00000
-106242855.98410,-514775286.28912,35685862.08072,   0.00057,  -0.00228,   0.00050,478132792.87903,   0.00012,274774036.22529,   0.00005,  -0.00014,   0.00003,   0.00000,   2.00000
-107287262.49514,-515120335.11586,35732489.79983,   0.00057,  -0.00229,   0.00050,478128647.21869,   0.00014,274788477.34049,   0.00005,  -0.00016,   0.00004,   0.00000,   2.00000
-108324605.44736,-515463026.07587,35771389.16442,   0.00057,  -0.00230,   0.00050,478142647.78518,   0.00015,274802905.76460,   0.00006,  -0.00017,   0.00004,   0.00000,   2.00000
-109371800.88886,-515806729.29972,35811339.19669,   0.00057,  -0.00232,   0.00051,478139307.18231,   0.00016,274817246.91888,   0.00006,  -0.00019,   0.00004,   0.00000,   2.00000
-110403522.94655,-516143215.80924,35852549.38644,   0.00057,  -0.00233,   0.00051,478133244.33997,   0.00017,274831489.71729,   0.00007,  -0.00020,   0.00005,   0.00000,   2.00000
-111445272.16556,-516480752.17388,35894796.57712,   0.00057,  -0.00235,   0.00052,478129778.39010,   0.00019,274845645.78798,   0.00007,  -0.00022,   0.00005,   0.00000,   2.00000
-112480076.44506,-516816023.77419,35929353.62604,   0.00057,  -0.00236,   0.00052,478143488.16785,   0.00020,274859789.32802,   0.00008,  -0.00023,   0.00005,   0.00000,   2.00000
-113491401.19740,-517139477.96353,35974174.45623,   0.00057,  -0.00238,   0.00052,478117177.53587,   0.00021,274873749.04177,   0.00008,  -0.00024,   0.00006,   0.00000,   2.00000
-114546624.47860,-517476865.77095,36010829.33650,   0.00057,  -0.00239,   0.00053,478136355.54486,   0.00023,274887720.47322,   0.00009,  -0.00026,   0.00006,  -0.00000,   2.00000
-115561400.33248,-517799273.24070,36049025.84193,   0.00057,  -0.00240,   0.00053,478126997.12915,   0.00024,274901581.69985,   0.00009,  -0.00027,   0.00006,   0.00000,   2.00000
-116594780.05888,-518127539.27663,36079332.54963,   0.00057,  -0.00242,   0.00054,478143296.10934,   0.00025,274915442.91706,   0.00009,  -0.00029,   0.00007,   0.00000,   2.00000
-117630376.31447,-518452111.17483,36119715.94672,   0.00057,  -0.00243,   0.00054,478119641.31033,   0.00026,274929133.36119,   0.00010,  -0.00030,   0.00007,   0.00000,   2.00000
-118659239.99950,-518774576.29012,36152431.83270,   0.00057,  -0.00245,   0.00054,478132877.48809,   0.00028,274942811.57930,   0.00010,  -0.00032,   0.00007,  -0.00000,   2.00000
-119673384.47502,-519090321.62958,36186503.22094,   0.00058,  -0.00246,   0.00055,478126039.40470,   0.00029,274956392.07157,   0.00011,  -0.00033,   0.00008,   0.00000,   2.00000
-120698198.10656,-519407183.35037,36221671.74831,   0.00058,  -0.00247,   0.00055,478122186.16233,   0.00030,274969888.03593,   0.00011,  -0.00035,   0.00008,   0.00000,   2.00000
-121708475.62809,-519717440.84801,36258187.83169,   0.00058,  -0.00249,   0.00056,478115146.60180,   0.00031,274983286.47742,   0.00012,  -0.00036,   0.00008,   0.00000,   2.00000
-122729578.83392,-520028834.82957,36295785.82614,   0.00058,  -0.00250,   0.00056,478111177.31728,   0.00033,274996600.93630,   0.00012,  -0.00037,   0.00009,   0.00000,   2.00000
-123744186.99053,-520338298.26620,36325746.23070,   0.00058,  -0.00252,   0.00056,478124003.71504,   0.00034,275009903.36537,   0.00012,  -0.00039,   0.00009,   0.00000,   2.00000
-124744525.60186,-520641330.88070,36357105.15490,   0.00058,  -0.00253,   0.00057,478116721.31335,   0.00035,275023108.43280,   0.00013,  -0.00040,   0.00009,  -0.00000,   2.00000
-125755914.92740,-520945530.77529,36389584.89206,   0.00058,  -0.00254,   0.00057,478112636.30304,   0.00036,275036230.18655,   0.00013,  -0.00042,   0.00010,   0.00000,   2.00000
-126753210.66645,-521243407.01209,36423454.37091,   0.00058,  -0.00256,   0.00057,478105157.43392,   0.00037,275049254.78865,   0.00014,  -0.00043,   0.00010,   0.00000,   2.00000
-127761986.72228,-521544256.24748,36451235.28032,   0.00058,  -0.00257,   0.00058,478099259.47040,   0.00039,275062189.39690,   0.00014,  -0.00044,   0.00010,   0.00000,   2.00000
-128764208.02668,-521841531.32090,36478648.91385,   0.00058,  -0.00258,   0.00058,478113377.41629,   0.00040,275075119.39046,   0.00014,  -0.00046,   0.00011,   0.00000,   2.00000
-129777682.21822,-522139934.58274,36507208.72936,   0.00058,  -0.00259,   0.00059,478109167.26434,   0.00041,275087967.06705,   0.00015,  -0.00047,   0.00011,   0.00000,   2.00000
-130777318.23337,-522432159.65915,36537198.22017,   0.00058,  -0.00261,   0.00059,478101398.28610,   0.00042,275100717.92482,   0.00015,  -0.00049,   0.00011,   0.00000,   2.00000
-131763586.12369,-522720128.31476,36561422.65036,   0.00058,  -0.00262,   0.00059,478091785.00135,   0.00043,275113364.79459,   0.00016,  -0.00050,   0.00012,   0.00000,   2.00000
-132761111.27615,-523007489.21229,36594012.93291,   0.00058,  -0.00263,   0.00060,478089065.33564,   0.00044,275125937.31921,   0.00016,  -0.00051,   0.00012,   0.00000,   2.00000
-133745442.92105,-523290695.49620,36620828.67089,   0.00058,  -0.00265,   0.00060,478079259.84809,   0.00046,275138406.07455,   0.00016,  -0.00053,   0.00012,   0.00000,   2.00000
-134723841.80963,-523572361.70291,36640102.70577,   0.00058,  -0.00266,   0.00060,478091155.76927,   0.00047,275150863.23822,   0.00017,  -0.00054,   0.00013,   0.00000,   2.00000
-135713689.78353,-523853423.28100,36667775.78238,   0.00058,  -0.00267,   0.00061,478088334.19832,   0.00048,275163246.72807,   0.00017,  -0.00055,   0.00013,   0.00000,   2.00000
-136690600.15216,-524130484.77192,36689718.81818,   0.00058,  -0.00268,   0.00061,478078298.47237,   0.00049,275175526.63891,   0.00018,  -0.00057,   0.00013,   0.00000,   2.00000
-137679403.76088,-524408754.32470,36712849.33807,   0.00057,  -0.00270,   0.00061,478073662.06887,   0.00050,275187726.19828,   0.00018,  -0.00058,   0.00014,   0.00000,   2.00000
-138655118.94189,-524681289.27635,36737479.96957,   0.00057,  -0.00271,   0.00062,478065142.15107,   0.00051,275199829.60627,   0.00018,  -0.00059,   0.00014,   0.00000,   2.00000
-139617910.74386,-524948198.34272,36763608.41505,   0.00057,  -0.00272,   0.00062,478056487.71743,   0.00052,275211836.92483,   0.00019,  -0.00060,   0.00014,   0.00000,   2.00000
-140600013.41953,-525220565.05793,36781878.51488,   0.00057,  -0.00273,   0.00062,478071833.50319,   0.00053,275223849.35863,   0.00019,  -0.00062,   0.00015,   0.00000,   2.00000
-141562500.84582,-525484991.44531,36803520.97230,   0.00057,  -0.00274,   0.00063,478041191.62062,   0.00054,275235673.95760,   0.00019,  -0.00063,   0.00015,   0.00000,   2.00000
-142519104.15897,-525746293.97272,36824861.46456,   0.00057,  -0.00276,   0.00063,478054120.38084,   0.00056,275247494.58581,   0.00020,  -0.00064,   0.00015,   0.00000,   2.00000
-143488405.46484,-526010690.16899,36840201.53659,   0.00057,  -0.00277,   0.00063,478047471.75510,   0.00057,275259229.08752,   0.00020,  -0.00065,   0.00015,   0.00000,   2.00000
-144445172.78046,-526269666.78534,36857114.72896,   0.00057,  -0.00278,   0.00064,478038408.81340,   0.00058,275270867.91474,   0.00020,  -0.00067,   0.00016,   0.00000,   2.00000
-145421001.95939,-526532138.01954,36873408.64632,   0.00057,  -0.00279,   0.00064,478055299.01712,   0.00059,275282520.08597,   0.00021,  -0.00068,   0.00016,   0.00000,   2.00000
-146377827.48727,-526786991.02409,36893112.40795,   0.00057,  -0.00280,   0.00064,478024228.06720,   0.00060,275293985.05229,   0.00021,  -0.00069,   0.00016,   0.00000,   2.00000
-147328919.43475,-527038813.42291,36912530.86535,   0.00057,  -0.00282,   0.00065,478036798.79070,   0.00061,275305446.29631,   0.00021,  -0.00070,   0.00017,   0.00000,   2.00000
-148268217.93498,-527287292.54126,36926318.32601,   0.00057,  -0.00283,   0.00065,478025679.90101,   0.00062,275316804.95812,   0.00022,  -0.00072,   0.00017,   0.00000,   2.00000
-149213910.80716,-527534886.46951,36943191.90457,   0.00057,  -0.00284,   0.00065,477998502.61829,   0.00063,275327994.55506,   0.00022,  -0.00073,   0.00017,   0.00000,   2.00000
-150154403.73009,-527781393.48369,36952609.02853,   0.00057,  -0.00285,   0.00066,478009055.97526,   0.00064,275339173.40232,   0.00022,  -0.00074,   0.00018,   0.00000,   2.00000
-151113747.66864,-528029430.94757,36968633.30599,   0.00057,  -0.00286,   0.00066,478027421.84945,   0.00065,275350373.97375,   0.00022,  -0.00075,   0.00018,  -0.00000,   2.00000
-152055255.29520,-528272118.85610,36980905.58283,   0.00057,  -0.00287,   0.00066,477994075.20978,   0.00066,275361380.90802,   0.00023,  -0.00076,   0.00018,   0.00000,   2.00000
-152985432.63231,-528511692.03969,36987604.83190,   0.00056,  -0.00288,   0.00067,477982460.04232,   0.00067,275372285.78876,   0.00023,  -0.00078,   0.00018,   0.00000,   2.00000
-153909852.83989,-528746592.90890,37001304.15391,   0.00056,  -0.00289,   0.00067,477996144.35093,   0.00068,275383194.42008,   0.00023,  -0.00079,   0.00019,   0.00000,   2.00000
-154841727.56895,-528982594.08393,37010901.62196,   0.00056,  -0.00290,   0.00067,477966934.17051,   0.00069,275393928.47937,   0.00024,  -0.00080,   0.00019,   0.00000,   2.00000
-155768273.25262,-529215798.31440,37020287.20597,   0.00056,  -0.00292,   0.00067,477978737.05931,   0.00070,275404659.26477,   0.00024,  -0.00081,   0.00019,   0.00000,   2.00000
-156683469.33476,-529444233.24046,37031323.63328,   0.00056,  -0.00293,   0.00068,477968518.98363,   0.00071,275415295.48497,   0.00024,  -0.00082,   0.00020,   0.00000,   2.00000
-157612497.70757,-529675825.79763,37036415.04157,   0.00056,  -0.00294,   0.00068,477961112.77093,   0.00072,275425849.21955,   0.00024,  -0.00083,   0.00020,  -0.00000,   2.00000
-158536269.08538,-529904662.29138,37041322.15953,   0.00056,  -0.00295,   0.00068,477972735.56197,   0.00073,275436399.78971,   0.00025,  -0.00085,   0.00020,   0.00000,   2.00000
-159442982.67816,-530126886.52481,37049775.97400,   0.00056,  -0.00296,   0.00069,477940299.42359,   0.00074,275446764.90178,   0.00025,  -0.00086,   0.00020,   0.00000,   2.00000
-160363765.74701,-530352276.92523,37052296.63573,   0.00056,  -0.00297,   0.00069,477932708.76659,   0.00075,275457048.28307,   0.00025,  -0.00087,   0.00021,   0.00000,   2.00000
-161279029.77557,-530573123.21906,37061846.76414,   0.00056,  -0.00298,   0.00069,477945778.65183,   0.00076,275467335.83572,   0.00025,  -0.00088,   0.00021,   0.00000,   2.00000
-162184244.85758,-530793174.03774,37058667.76386,   0.00055,  -0.00299,   0.00069,477931620.84788,   0.00077,275477515.08091,   0.00026,  -0.00089,   0.00021,   0.00000,   2.00000
-163072581.64036,-531005030.28804,37066294.11140,   0.00055,  -0.00300,   0.00070,477900462.81225,   0.00078,275487516.55372,   0.00026,  -0.00090,   0.00022,   0.00000,   2.00000
-163981035.47907,-531221942.31651,37066118.79155,   0.00055,  -0.00301,   0.00070,477914653.92868,   0.00079,275497528.18690,   0.00026,  -0.00091,   0.00022,   0.00000,   2.00000
-164878888.52565,-531434443.69512,37067667.32416,   0.00055,  -0.00302,   0.00070,477903651.39168,   0.00079,275507446.11295,   0.00026,  -0.00092,   0.00022,  -0.00000,   2.00000
-165796369.19423,-531650011.49432,37068635.13428,   0.00055,  -0.00303,   0.00071,477919590.70948,   0.00080,275517381.70568,   0.00027,  -0.00093,   0.00022,   0.00000,   2.00000
-166673700.40953,-531855719.61102,37066426.01200,   0.00055,  -0.00304,   0.00071,477879697.25097,   0.00081,275527105.25429,   0.00027,  -0.00094,   0.00023,   0.00000,   2.00000
-167564860.87554,-532060875.73513,37072728.82449,   0.00055,  -0.00305,   0.00071,477875129.29921,   0.00082,275536763.18018,   0.00027,  -0.00095,   0.00023,  -0.00000,   2.00000
-168452163.27622,-532267331.86903,37064458.39320,   0.00055,  -0.00306,   0.00071,477882344.24724,   0.00083,275546404.27697,   0.00027,  -0.00097,   0.00023,   0.00000,   2.00000
-169323455.19007,-532465996.34683,37067041.08495,   0.00054,  -0.00307,   0.00072,477850555.81557,   0.00084,275555868.51056,   0.00028,  -0.00098,   0.00023,   0.00000,   2.00000
-170215037.25021,-532669569.64434,37061831.06787,   0.00054,  -0.00308,   0.00072,477864450.74192,   0.00085,275565344.25715,   0.00028,  -0.00099,   0.00024,   0.00000,   2.00000
-171096599.73091,-532869006.75090,37058383.08959,   0.00054,  -0.00309,   0.00072,477852858.90419,   0.00086,275574726.94598,   0.00028,  -0.00100,   0.00024,   0.00000,   2.00000
-171968721.94715,-533066260.05879,37049492.42987,   0.00054,  -0.00310,   0.00072,477839420.92967,   0.00087,275584009.56474,   0.00028,  -0.00101,   0.00024,  -0.00000,   2.00000
-172854976.16035,-533262883.75496,37049136.44388,   0.00054,  -0.00311,   0.00073,477834610.53344,   0.00087,275593227.92603,   0.00028,  -0.00102,   0.00024,   0.00000,   2.00000
-173707593.50537,-533452163.39278,37043776.89902,   0.00054,  -0.00311,   0.00073,477815684.09333,   0.00088,275602324.78144,   0.00029,  -0.00103,   0.00025,  -0.00000,   2.00000
-174575470.20190,-533644630.64556,37032534.84468,   0.00054,  -0.00312,   0.00073,477807257.77325,   0.00089,275611343.64989,   0.00029,  -0.00104,   0.00025,   0.00000,   2.00000
-175438511.93653,-533832941.10947,37028413.26437,   0.00053,  -0.00313,   0.00073,477818979.73874,   0.00090,275620367.35171,   0.00029,  -0.00105,   0.00025,   0.00000,   2.00000
-176311730.39963,-534022757.55583,37020276.36072,   0.00053,  -0.00314,   0.00073,477788463.26086,   0.00091,275629223.23178,   0.00029,  -0.00106,   0.00025,   0.00000,   2.00000
-177156823.32593,-534207145.85083,37005309.11137,   0.00053,  -0.00315,   0.00074,477791114.07754,   0.00092,275638047.76255,   0.00029,  -0.00107,   0.00026,   0.00000,   2.00000
-178016471.40446,-534390917.81168,36998899.06132,   0.00053,  -0.00316,   0.00074,477785984.54807,   0.00092,275646809.28891,   0.00030,  -0.00107,   0.00026,   0.00000,   2.00000
-178862404.93323,-534571263.80093,36988951.97428,   0.00053,  -0.00317,   0.00074,477749740.62263,   0.00093,275655381.37717,   0.00030,  -0.00108,   0.00026,   0.00000,   2.00000
-179728900.69928,-534756271.64173,36971243.93816,   0.00053,  -0.00318,   0.00074,477763120.49841,   0.00094,275663967.10023,   0.00030,  -0.00109,   0.00026,   0.00000,   2.00000
-180561644.78394,-534930788.96689,36963051.75133,   0.00052,  -0.00318,   0.00075,477746665.42352,   0.00095,275672445.10766,   0.00030,  -0.00110,   0.00027,   0.00000,   2.00000
-181410169.01547,-535108450.50935,36948971.18451,   0.00052,  -0.00319,   0.00075,477737856.29745,   0.00095,275680846.99199,   0.00030,  -0.00111,   0.00027,   0.00000,   2.00000
-182249829.64571,-535282501.63288,36936711.26313,   0.00052,  -0.00320,   0.00075,477725073.84764,   0.00096,275689157.05756,   0.00031,  -0.00112,   0.00027,   0.00000,   2.00000
-183085995.22184,-535456363.71068,36917177.68903,   0.00052,  -0.00321,   0.00075,477732603.25817,   0.00097,275697458.33078,   0.00031,  -0.00113,   0.00027,   0.00000,   2.00000
-183932842.84640,-535629948.14438,36900885.76115,   0.00052,  -0.00322,   0.00075,477703300.17257,   0.00098,275705601.25010,   0.00031,  -0.00114,   0.00027,   0.00000,   2.00000
-184751660.30027,-535796785.26935,36885033.81121,   0.00052,  -0.00323,   0.00076,477706609.70442,   0.00098,275713719.14669,   0.00031,  -0.00115,   0.00028,  -0.00000,   2.00000
-185581437.26507,-535963417.48159,36872404.57158,   0.00051,  -0.00323,   0.00076,477677142.61965,   0.00099,275721679.19368,   0.00031,  -0.00116,   0.00028,   0.00000,   2.00000
-186407904.54732,-536129939.94076,36852502.55932,   0.00051,  -0.00324,   0.00076,477684316.54870,   0.00100,275729630.71877,   0.00031,  -0.00117,   0.00028,   0.00000,   2.00000
-187245474.96642,-536296218.71843,36835832.34726,   0.00051,  -0.00325,   0.00076,477654766.02502,   0.00101,275737424.99892,   0.00032,  -0.00117,   0.00028,   0.00000,   2.00000
-188055769.39868,-536457871.51219,36812409.42323,   0.00051,  -0.00326,   0.00076,477655866.34727,   0.00101,275745187.04549,   0.00032,  -0.00118,   0.00029,   0.00000,   2.00000
-188881406.28867,-536618826.24619,36797552.13395,   0.00051,  -0.00326,   0.00077,477650033.25663,   0.00102,275752888.91421,   0.00032,  -0.00119,   0.00029,   0.00000,   2.00000
-189699924.61742,-536780241.31070,36770107.66868,   0.00050,  -0.00327,   0.00077,477633068.38791,   0.00103,275760485.96176,   0.00032,  -0.00120,   0.00029,   0.00000,   2.00000
-190509906.42487,-536936509.21634,36751751.33195,   0.00050,  -0.00328,   0.00077,477621119.02631,   0.00104,275767999.05672,   0.00032,  -0.00121,   0.00029,   0.00000,   2.00000
-191316844.84231,-537092787.97736,36726147.38622,   0.00050,  -0.00329,   0.00077,477627822.94870,   0.00104,275775503.92998,   0.00032,  -0.00122,   0.00029,  -0.00000,   2.00000
-192135498.31274,-537248872.23071,36703781.19763,   0.00050,  -0.00329,   0.00077,477597963.45575,   0.00105,275782853.09967,   0.00032,  -0.00122,   0.00030,   0.00000,   2.00000
-192946334.56632,-537401763.97521,36683270.64141,   0.00050,  -0.00330,   0.00077,477584057.84973,   0.00106,275790111.74320,   0.00033,  -0.00123,   0.00030,   0.00000,   2.00000
-193754220.70419,-537554685.92823,36655517.65034,   0.00049,  -0.00331,   0.00078,477590525.18865,   0.00106,275797362.40213,   0.00033,  -0.00124,   0.00030,   0.00000,   2.00000
-194550256.25771,-537703216.68799,36631525.28067,   0.00049,  -0.00331,   0.00078,477554300.09129,   0.00107,275804433.33629,   0.00033,  -0.00125,   0.00030,   0.00000,   2.00000
-195342955.05361,-537849967.99055,36607515.55265,   0.00049,  -0.00332,   0.00078,477562258.03093,   0.00108,275811503.24320,   0.00033,  -0.00126,   0.00030,   0.00000,   2.00000
-196128742.58199,-537995586.35123,36578160.14197,   0.00049,  -0.00333,   0.00078,477546305.33274,   0.00108,275818476.03113,   0.00033,  -0.00126,   0.00031,   0.00000,   2.00000
-196926886.88413,-538141061.87988,36552035.26742,   0.00049,  -0.00334,   0.00078,477516051.29386,   0.00109,275825294.70924,   0.00033,  -0.00127,   0.00031,   0.00000,   2.00000
-197721773.16677,-538284771.91520,36525897.97394,   0.00048,  -0.00334,   0.00078,477523774.62083,   0.00109,275832112.57404,   0.00033,  -0.00128,   0.00031,  -0.00000,   2.00000
-198509952.57927,-538427399.60444,36494416.49344,   0.00048,  -0.00335,   0.00079,477507583.36760,   0.00110,275838833.70376,   0.00033,  -0.00129,   0.00031,   0.00000,   2.00000
-199290990.43686,-538567108.39053,36464822.82203,   0.00048,  -0.00335,   0.00079,477492980.08553,   0.00111,275845465.01139,   0.00034,  -0.00129,   0.00031,   0.00000,   2.00000
-200068908.68668,-538705130.62898,36435232.22989,   0.00048,  -0.00336,   0.00079,477500482.43735,   0.00111,275852095.55402,   0.00034,  -0.00130,   0.00031,  -0.00000,   2.00000
-200860167.58253,-538844878.79431,36401637.37920,   0.00048,  -0.00337,   0.00079,477468326.82888,   0.00112,275858566.46716,   0.00034,  -0.00131,   0.00032,   0.00000,   2.00000
-201644476.68523,-538981754.69576,36369931.04666,   0.00047,  -0.00337,   0.00079,477453485.91245,   0.00112,275864947.91809,   0.00034,  -0.00131,   0.00032,   0.00000,   2.00000
-202402114.77268,-539113163.97549,36338783.96864,   0.00047,  -0.00338,   0.00079,477454219.32649,   0.00113,275871302.77697,   0.00034,  -0.00132,   0.00032,   0.00000,   2.00000
-203196506.68374,-539248227.08206,36310285.10370,   0.00047,  -0.00339,   0.00079,477430100.36474,   0.00114,275877531.69706,   0.00034,  -0.00133,   0.00032,  -0.00000,   2.00000
-203964835.60725,-539379752.65465,36275118.55098,   0.00047,  -0.00339,   0.00080,477428959.84009,   0.00114,275883727.22301,   0.00034,  -0.00134,   0.00032,   0.00000,   2.00000
-204723433.36530,-539509321.03792,36236499.69391,   0.00046,  -0.00340,   0.00080,477389875.92606,   0.00115,275889738.12261,   0.00034,  -0.00134,   0.00033,   0.00000,   2.00000
-205478664.84740,-539635458.09555,36205128.81780,   0.00046,  -0.00340,   0.00080,477398417.42557,   0.00115,275895755.35596,   0.00034,  -0.00135,   0.00033,  -0.00000,   2.00000
-206251569.52065,-539764431.74976,36167853.37922,   0.00046,  -0.00341,   0.00080,477388056.21457,   0.00116,275901703.44961,   0.00035,  -0.00136,   0.00033,  -0.00000,   2.00000
-207018053.19637,-539890724.98646,36132468.33372,   0.00046,  -0.00341,   0.00080,477372656.17348,   0.00116,275907562.71971,   0.00035,  -0.00136,   0.00033,   0.00000,   2.00000
-207778779.99490,-540016247.12606,36091747.97043,   0.00046,  -0.00342,   0.00080,477355472.14447,   0.00117,275913326.54769,   0.00035,  -0.00137,   0.00033,  -0.00000,   2.00000
-208533277.84724,-540139165.78841,36052926.58856,   0.00045,  -0.00343,   0.00080,477339861.96952,   0.00118,275919001.72150,   0.00035,  -0.00137,   0.00033,   0.00000,   2.00000
-209281640.95465,-540259522.81756,36015996.49430,   0.00045,  -0.00343,   0.00080,477324149.30579,   0.00118,275924588.32206,   0.00035,  -0.00138,   0.00033,   0.00000,   2.00000
-210047376.21957,-540380766.58546,35980374.54022,   0.00045,  -0.00344,   0.00080,477315194.66770,   0.00119,275930113.59609,   0.00035,  -0.00139,   0.00034,   0.00000,   2.00000
-210787626.47641,-540498957.87446,35938120.78967,   0.00045,  -0.00344,   0.00080,477313041.44093,   0.00119,275935604.96487,   0.00035,  -0.00139,   0.00034,   0.00000,   2.00000
-211541997.72034,-540617003.78040,35899045.98024,   0.00044,  -0.00345,   0.00081,477281791.72806,   0.00120,275940947.07389,   0.00035,  -0.00140,   0.00034,   0.00000,   2.00000
-212294389.66902,-540735413.24373,35852770.59045,   0.00044,  -0.00345,   0.00081,477286331.58139,   0.00120,275946282.65261,   0.00035,  -0.00140,   0.00034,   0.00000,   2.00000
-213037107.18502,-540848497.03892,35817476.48412,   0.00044,  -0.00346,   0.00081,477249701.97250,   0.00121,275951448.59276,   0.00035,  -0.00141,   0.00034,   0.00000,   2.00000
-213778541.80258,-540963853.11105,35767745.60934,   0.00044,  -0.00346,   0.00081,477252382.22608,   0.00121,275956601.48792,   0.00035,  -0.00142,   0.00034,  -0.00000,   2.00000
-214513747.44927,-541074942.32842,35727145.12139,   0.00043,  -0.00347,   0.00081,477237793.00898,   0.00121,275961673.06438,   0.00035,  -0.00142,   0.00034,   0.00000,   2.00000
-215240832.00026,-541184558.91965,35683051.42308,   0.00043,  -0.00347,   0.00081,477197528.49171,   0.00122,275966562.18924,   0.00036,  -0.00143,   0.00035,   0.00000,   2.00000
-215988859.90494,-541295909.68550,35638398.66267,   0.00043,  -0.00347,   0.00081,477210348.50195,   0.00122,275971479.62754,   0.00036,  -0.00143,   0.00035,   0.00000,   2.00000
-216708196.48671,-541401804.55423,35596220.22989,   0.00043,  -0.00348,   0.00081,477186741.27584,   0.00123,275976281.38749,   0.00036,  -0.00144,   0.00035,   0.00000,   2.00000
-217446035.64800,-541510313.99893,35548095.31981,   0.00042,  -0.00348,   0.00081,477175607.21265,   0.00123,275981017.25518,   0.00036,  -0.00144,   0.00035,   0.00000,   2.00000
-218181586.39877,-541617419.27598,35500008.80406,   0.00042,  -0.00349,   0.00081,477181200.34041,   0.00124,275985753.59256,   0.00036,  -0.00145,   0.00035,   0.00000,   2.00000
-218908909.05432,-541721313.81978,35455649.72196,   0.00042,  -0.00349,   0.00081,477142266.20163,   0.00124,275990314.79836,   0.00036,  -0.00145,   0.00035,  -0.00000,   2.00000
-219631708.24809,-541824797.70675,35405931.62267,   0.00042,  -0.00350,   0.00081,477123754.14022,   0.00125,275994782.29140,   0.00036,  -0.00146,   0.00035,  -0.00000,   2.00000
-220352366.90182,-541926942.87924,35356253.01768,   0.00041,  -0.00350,   0.00081,477129054.10260,   0.00125,275999250.36571,   0.00036,  -0.00146,   0.00036,   0.00000,   2.00000
-221088250.98540,-542028850.80631,35309686.02656,   0.00041,  -0.00350,   0.00082,477097144.03898,   0.00125,276003572.46945,   0.00036,  -0.00147,   0.00036,   0.00000,   2.00000
-221798935.71267,-542126573.45937,35263751.15529,   0.00041,  -0.00351,   0.00082,477094982.17099,   0.00126,276007866.48526,   0.00036,  -0.00147,   0.00036,   0.00000,   2.00000
-222525650.90432,-542225903.47440,35213674.78262,   0.00041,  -0.00351,   0.00082,477061296.69576,   0.00126,276012008.54210,   0.00036,  -0.00148,   0.00036,  -0.00000,   2.00000
-223227305.78972,-542321157.83099,35164240.47597,   0.00040,  -0.00351,   0.00082,477058880.68975,   0.00127,276016122.38523,   0.00036,  -0.00148,   0.00036,   0.00000,   2.00000
-223947903.67354,-542418858.30545,35108826.95979,   0.00040,  -0.00352,   0.00082,477047332.41578,   0.00127,276020172.22607,   0.00036,  -0.00149,   0.00036,   0.00000,   2.00000
-224663830.29072,-542514412.67521,35055284.72757,   0.00040,  -0.00352,   0.00082,477029960.36085,   0.00127,276024135.54744,   0.00036,  -0.00149,   0.00036,   0.00000,   2.00000
-225375167.77049,-542607851.67296,35003605.89954,   0.00040,  -0.00352,   0.00082,477012492.32181,   0.00128,276028012.43020,   0.00036,  -0.00150,   0.00036,   0.00000,   2.00000
-226081997.40574,-542699205.25296,34953782.84660,   0.00039,  -0.00353,   0.00082,476994928.70992,   0.00128,276031802.95535,   0.00036,  -0.00150,   0.00036,   0.00000,   2.00000
-226807926.87976,-542792887.30271,34897953.65009,   0.00039,  -0.00353,   0.00082,476983211.31880,   0.00128,276035530.41196,   0.00036,  -0.00150,   0.00037,   0.00000,   2.00000
-227509077.36058,-542882730.48650,34842778.68583,   0.00039,  -0.00353,   0.00082,476980221.19472,   0.00129,276039229.36415,   0.00036,  -0.00151,   0.00037,   0.00000,   2.00000
-228203418.51417,-542969761.06802,34791275.52612,   0.00039,  -0.00354,   0.00082,476940185.55274,   0.00129,276042755.00051,   0.00037,  -0.00151,   0.00037,   0.00000,   2.00000
-228919498.81090,-543059865.88284,34731936.46426,   0.00038,  -0.00354,   0.00082,476950556.21984,   0.00129,276046305.28760,   0.00037,  -0.00152,   0.00037,   0.00000,   2.00000
-229628920.04783,-543147146.81145,34676260.43928,   0.00038,  -0.00354,   0.00082,476910414.85454,   0.00130,276049682.67665,   0.00037,  -0.00152,   0.00037,  -0.00000,   2.00000
-230313828.05223,-543230802.15449,34621238.08640,   0.00038,  -0.00355,   0.00082,476906930.54256,   0.00130,276053031.31196,   0.00037,  -0.00152,   0.00037,   0.00000,   2.00000
-231018139.67577,-543316693.69177,34560185.49079,   0.00037,  -0.00355,   0.00082,476894928.43071,   0.00130,276056318.02909,   0.00037,  -0.00153,   0.00037,   0.00000,   2.00000
-231717825.07105,-543398803.75901,34508213.24844,   0.00037,  -0.00355,   0.00082,476878388.54289,   0.00131,276059525.45236,   0.00037,  -0.00153,   0.00037,   0.00000,   2.00000
-232414854.34662,-543482576.64769,34443579.76046,   0.00037,  -0.00355,   0.00082,476856944.44457,   0.00131,276062634.85934,   0.00037,  -0.00153,   0.00037,  -0.00000,   2.00000
-233130111.12976,-543564858.62689,34387391.93865,   0.00037,  -0.00356,   0.00082,476848044.72948,   0.00131,276065695.59731,   0.00037,  -0.00154,   0.00037,  -0.00000,   2.00000
-233819483.84550,-543644757.78221,34326411.58406,   0.00036,  -0.00356,   0.00082,476820247.37073,   0.00131,276068634.36549,   0.00037,  -0.00154,   0.00037,   0.00000,   2.00000
-234505167.03236,-543722773.10626,34267253.42126,   0.00036,  -0.00356,   0.00082,476801729.67551,   0.00132,276071487.91307,   0.00037,  -0.00154,   0.00037,   0.00000,   2.00000
-235212011.91513,-543801778.48347,34207479.34667,   0.00036,  -0.00356,   0.00082,476813324.18747,   0.00132,276074373.77009,   0.00037,  -0.00155,   0.00038,   0.00000,   2.00000
-235891127.90934,-543877845.86141,34144699.65559,   0.00036,  -0.00356,   0.00082,476762976.89076,   0.00132,276077050.99463,   0.00037,  -0.00155,   0.00038,   0.00000,   2.00000
-236591437.58212,-543954856.81453,34081302.86459,   0.00035,  -0.00357,   0.00082,476774446.75308,   0.00132,276079760.80759,   0.00037,  -0.00155,   0.00038,   0.00000,   2.00000
-237263646.96355,-544027262.99847,34022137.70775,   0.00035,  -0.00357,   0.00082,476725446.01185,   0.00133,276082268.26048,   0.00037,  -0.00156,   0.00038,  -0.00000,   2.00000
-237957080.80958,-544100574.03639,33962343.02535,   0.00035,  -0.00357,   0.00082,476736792.72528,   0.00133,276084808.55930,   0.00037,  -0.00156,   0.00038,  -0.00000,   2.00000
-238647807.01395,-544173826.50282,33897091.52832,   0.00034,  -0.00357,   0.00082,476716326.08118,   0.00133,276087258.13262,   0.00037,  -0.00156,   0.00038,   0.00000,   2.00000
-239335255.30367,-544245255.26360,33833632.84361,   0.00034,  -0.00357,   0.00082,476697345.98071,   0.00133,276089623.20773,   0.00037,  -0.00156,   0.00038,   0.00000,   2.00000
-240020145.52087,-544316654.62924,33764710.46195,   0.00034,  -0.00358,   0.00082,476676704.36835,   0.00134,276091897.77481,   0.00037,  -0.00157,   0.00038,   0.00000,   2.00000
-240701256.20650,-544384494.45468,33704824.46663,   0.00034,  -0.00358,   0.00082,476659112.36313,   0.00134,276094094.10794,   0.00037,  -0.00157,   0.00038,   0.00000,   2.00000
-241381783.73314,-544452991.42216,33637690.86511,   0.00033,  -0.00358,   0.00082,476660583.73160,   0.00134,276096286.37348,   0.00037,  -0.00157,   0.00038,  -0.00000,   2.00000
-242079890.91118,-544520871.73806,33573447.92265,   0.00033,  -0.00358,   0.00082,476627258.85610,   0.00134,276098339.97714,   0.00037,  -0.00157,   0.00038,  -0.00000,   2.00000
-242755055.08414,-544587599.25782,33502604.32801,   0.00033,  -0.00358,   0.00082,476620405.92671,   0.00134,276100357.97992,   0.00037,  -0.00158,   0.00038,   0.00000,   2.00000
-243427337.09041,-544652598.31044,33433530.01619,   0.00033,  -0.00358,   0.00082,476600978.08051,   0.00135,276102291.98271,   0.00037,  -0.00158,   0.00038,  -0.00000,   2.00000
-244117445.96102,-544716945.66222,33367318.68547,   0.00032,  -0.00358,   0.00082,476567472.94703,   0.00135,276104088.02712,   0.00037,  -0.00158,   0.00038,  -0.00000,   2.00000
-244806443.88610,-544780161.19131,33301101.46167,   0.00032,  -0.00358,   0.00082,476570154.92030,   0.00135,276105886.44809,   0.00037,  -0.00158,   0.00038,  -0.00000,   2.00000
-245471092.89850,-544841770.16706,33230028.98397,   0.00032,  -0.00358,   0.00082,476540648.88130,   0.00135,276107563.12699,   0.00037,  -0.00158,   0.00038,   0.00000,   2.00000
-246155394.01149,-544903294.89276,33160045.20651,   0.00031,  -0.00359,   0.00082,476529253.08309,   0.00135,276109188.45129,   0.00037,  -0.00159,   0.00038,   0.00000,   2.00000
-246838654.79061,-544963706.03370,33090054.15468,   0.00031,  -0.00359,   0.00082,476531760.66137,   0.00135,276110816.23677,   0.00037,  -0.00159,   0.00039,  -0.00000,   2.00000
-247517849.13410,-545021814.51503,33023535.10896,   0.00031,  -0.00359,   0.00081,476489697.31354,   0.00135,276112274.87913,   0.00037,  -0.00159,   0.00039,   0.00000,   2.00000
-248196734.28106,-545080567.86249,32949742.20043,   0.00031,  -0.00359,   0.00081,476490497.51565,   0.00136,276113730.15149,   0.00037,  -0.00159,   0.00039,   0.00000,   2.00000
-248871762.80165,-545137055.89213,32879405.39165,   0.00030,  -0.00359,   0.00081,476448261.67623,   0.00136,276115016.57427,   0.00037,  -0.00159,   0.00039,   0.89010,   1.00000
-249545891.24226,-545192464.86607,32809050.06213,   0.00030,  -0.00359,   0.00081,476450423.41184,   0.00136,276116305.62981,   0.00037,  -0.00159,   0.00039,   0.89309,   1.00000
-250218407.12344,-545247949.52484,32733142.28875,   0.00030,  -0.00359,   0.00081,476428777.63002,   0.00136,276117505.85605,   0.00037,  -0.00160,   0.00039,   0.77367,   1.00000
-250888715.95776,-545301791.10913,32658939.62510,   0.00029,  -0.00359,   0.00081,476408569.92137,   0.00136,276118623.21823,   0.00037,  -0.00160,   0.00039,   0.67001,   1.00000
-251578940.08112,-545355306.46053,32585769.75256,   0.00029,  -0.00359,   0.00081,476396890.73600,   0.00136,276119690.83325,   0.00037,  -0.00160,   0.00039,   0.61118,   1.00000
-252246284.80999,-545406430.34531,32513236.97205,   0.00029,  -0.00359,   0.00081,476390243.64765,   0.00136,276120728.26381,   0.00037,  -0.00160,   0.00039,   0.57665,   1.00000
-252932360.62456,-545456626.09785,32443437.17790,   0.00028,  -0.00359,   0.00081,476356256.30210,   0.00136,276121630.86796,   0.00037,  -0.00160,   0.00039,   0.43614,   1.00000
-253596343.85242,-545506226.40412,32367003.90402,   0.00028,  -0.00359,   0.00081,476347875.60370,   0.00136,276122497.40888,   0.00037,  -0.00160,   0.00039,   0.40164,   1.00000
-254279212.46454,-545554858.32283,32293283.34921,   0.00028,  -0.00359,   0.00081,476313778.60350,   0.00136,276123229.61213,   0.00037,  -0.00160,   0.00039,   0.28651,   1.00000
-254940107.94570,-545602965.11654,32212924.50938,   0.00028,  -0.00359,   0.00081,476305179.73657,   0.00137,276123925.70737,   0.00037,  -0.00160,   0.00039,   0.25872,   1.00000
-255620467.78130,-545648897.82424,32140825.93822,   0.00027,  -0.00359,   0.00081,476294750.40484,   0.00137,276124578.86421,   0.00037,  -0.00160,   0.00039,   0.22758,   1.00000
-256299752.41165,-545694905.93702,32063109.94976,   0.00027,  -0.00359,   0.00081,476272554.60162,   0.00137,276125144.33141,   0.00037,  -0.00160,   0.00039,   0.17041,   1.00000
-256978385.14750,-545739824.04038,31985348.08941,   0.00027,  -0.00359,   0.00081,476274048.02533,   0.00137,276125713.01842,   0.00037,  -0.00160,   0.00039,   0.17219,   1.00000
-257655052.29483,-545784298.14998,31903645.16209,   0.00026,  -0.00359,   0.00080,476229502.81417,   0.00137,276126109.18010,   0.00037,  -0.00161,   0.00039,   0.08348,   1.00000
-258330460.37054,-545826005.00768,31829160.52923,   0.00026,  -0.00359,   0.00080,476232311.77951,   0.00137,276126514.32049,   0.00037,  -0.00161,   0.00039,   0.08722,   1.00000
-259004109.41588,-545867290.99250,31750711.14329,   0.00026,  -0.00358,   0.00080,476187610.83011,   0.00137,276126747.25741,   0.00037,  -0.00161,   0.00039,   0.02880,   1.00000
-259677237.45523,-545907505.63137,31672202.09052,   0.00026,  -0.00358,   0.00080,476188773.40976,   0.00137,276126983.60437,   0.00037,  -0.00161,   0.00039,   0.02962,   1.00000
-260349663.36786,-545947816.48285,31588032.66608,   0.00025,  -0.00358,   0.00080,476166194.56486,   0.00137,276127132.93018,   0.00037,  -0.00161,   0.00039,   0.01181,   1.00000
-261020921.69665,-545985385.50513,31511074.00669,   0.00025,  -0.00358,   0.00080,476168745.88251,   0.00137,276127291.31361,   0.00037,  -0.00161,   0.00039,   0.01327,   1.00000
-261689191.96582,-546018614.41355,31429847.78613,   0.00025,  -0.00358,   0.00080,476123824.72337,   0.00137,276127291.31361,   0.00037,  -0.00161,   0.00039,-3466.59024,   0.00000
-262070141.78648,-546042930.35954,31385268.55180,   0.00024,  -0.00358,   0.00080,476127291.88422,   0.00137,276127291.31361,   0.00037,  -0.00161,   0.00039,   0.57061,   0.00000
-262381881.07811,-546059419.59795,31348392.35571,   0.00024,  -0.00358,   0.00080,476127291.88422,   0.00137,276127303.00310,   0.00037,  -0.00161,   0.00039,   0.00007,   1.00000
-263027998.74168,-546040959.09328,31259781.93328,   0.00024,  -0.00358,   0.00080,476079739.46369,   0.00137,276127303.00310,   0.00037,  -0.00161,   0.00039,-47563.53940,   0.00000
-263674116.40524,-546022498.58861,31178555.71272,   0.00024,  -0.00358,   0.00079,476034574.14697,   0.00137,276127303.00310,   0.00037,  -0.00161,   0.00039,-92728.85612,   0.00000
-264335002.47254,-545989269.68019,31089945.29029,   0.00023,  -0.00358,   0.00079,475975792.74752,   0.00137,276127303.00310,   0.00037,  -0.00161,   0.00039,-151510.25557,   0.00000
-264995888.53985,-545956040.77178,31001334.86786,   0.00023,  -0.00357,   0.00079,475918019.79015,   0.00137,276127303.00310,   0.00037,  -0.00161,   0.00039,-209283.21295,   0.00000
-265608777.29500,-545860046.14748,30905340.24356,   0.00023,  -0.00357,   0.00079,475806066.89234,   0.00137,276127303.00310,   0.00037,  -0.00161,   0.00039,-321236.11075,   0.00000
-266247510.75670,-545775127.82598,30816729.82112,   0.00023,  -0.00357,   0.00079,475705760.35153,   0.00137,276127303.00310,   0.00037,  -0.00161,   0.00039,-421542.65157,   0.00000
-266864091.61278,-545638520.09140,30720735.19682,   0.00022,  -0.00357,   0.00079,475560512.13259,   0.00137,276127303.00310,   0.00037,  -0.00161,   0.00039,-566790.87050,   0.00000
-267454827.76233,-545490836.05401,30624740.57252,   0.00022,  -0.00357,   0.00079,475406987.44858,   0.00137,276127303.00310,   0.00037,  -0.00161,   0.00039,-720315.55452,   0.00000
-268060332.31561,-545328383.61289,30528745.94822,   0.00022,  -0.00356,   0.00079,475241510.17152,   0.00137,276127303.00310,   0.00037,  -0.00161,   0.00039,-885792.83157,   0.00000
-268665836.86889,-545165931.17177,30425367.12205,   0.00021,  -0.00356,   0.00079,475075648.89573,   0.00137,276127303.00310,   0.00037,  -0.00161,   0.00039,-1051654.10736,   0.00000
-269249188.81657,-544951789.31756,30329372.49775,   0.00021,  -0.00356,   0.00078,474867732.79432,   0.00137,276127303.00310,   0.00037,  -0.00161,   0.00039,-1259570.20878,   0.00000
-269832540.76425,-544737647.46335,30225993.67158,   0.00021,  -0.00356,   0.00078,474659449.74741,   0.00137,276127303.00310,   0.00037,  -0.00161,   0.00039,-1467853.25568,   0.00000
-270404816.40912,-544497660.90259,30122614.84541,   0.00020,  -0.00356,   0.00078,474429966.60146,   0.00137,276127303.00310,   0.00037,  -0.00161,   0.00039,-1697336.40164,   0.00000
-270966015.75118,-544231829.63530,30011851.81737,   0.00020,  -0.00355,   0.00078,474177887.83064,   0.00137,276127303.00310,   0.00037,  -0.00161,   0.00039,-1949415.17246,   0.00000
-271541983.49699,-543951229.96426,29908472.99120,   0.00020,  -0.00355,   0.00078,473915544.94550,   0.00137,276127303.00310,   0.00037,  -0.00161,   0.00039,-2211758.05760,   0.00000
-272092106.53625,-543659553.99043,29797709.96316,   0.00019,  -0.00355,   0.00078,473643391.54868,   0.00137,276127303.00310,   0.00037,  -0.00161,   0.00039,-2483911.45442,   0.00000
-272620076.96991,-543316188.60350,29686946.93512,   0.00019,  -0.00355,   0.00078,473327825.57612,   0.00137,276127303.00310,   0.00037,  -0.00161,   0.00039,-2799477.42698,   0.00000
-273173892.11011,-542983899.51938,29576183.90708,   0.00019,  -0.00354,   0.00077,473022956.36316,   0.00137,276127303.00310,   0.00037,  -0.00161,   0.00039,-3104346.63994,   0.00000
-273690786.24096,-542614689.42592,29458036.67717,   0.00019,  -0.00354,   0.00077,472685978.69381,   0.00137,276127303.00310,   0.00037,  -0.00161,   0.00039,-3441324.30928,   0.00000
-274233525.07835,-542256555.63526,29347273.64913,   0.00018,  -0.00354,   0.00077,472361153.21809,   0.00137,276127303.00310,   0.00037,  -0.00161,   0.00039,-3766149.78501,   0.00000
-274728266.60360,-541835656.12871,29229126.41922,   0.00018,  -0.00354,   0.00077,471981942.05380,   0.00137,276127303.00310,   0.00037,  -0.00161,   0.00039,-4145360.94930,   0.00000
-275248852.83539,-541425832.92496,29110979.18931,   0.00018,  -0.00353,   0.00077,471613582.78333,   0.00137,276127303.00310,   0.00037,  -0.00161,   0.00039,-4513720.21977,   0.00000
-275732518.05782,-540979088.71187,28992831.95940,   0.00017,  -0.00353,   0.00077,471214412.45569,   0.00137,276127303.00310,   0.00037,  -0.00161,   0.00039,-4912890.54741,   0.00000
-276230951.68400,-540517576.09503,28867300.52763,   0.00017,  -0.00353,   0.00076,470802577.95439,   0.00137,276127303.00310,   0.00037,  -0.00161,   0.00039,-5324725.04871,   0.00000
-276729385.31018,-540056063.47820,28741769.09585,   0.00017,  -0.00352,   0.00076,470391953.36085,   0.00137,276127303.00310,   0.00037,  -0.00161,   0.00039,-5735349.64224,   0.00000
-277205666.33075,-539542861.44828,28623621.86594,   0.00016,  -0.00352,   0.00076,469939440.30064,   0.00137,276127303.00310,   0.00037,  -0.00161,   0.00039,-6187862.70246,   0.00000
-277656102.64478,-539018583.11556,28490706.23229,   0.00016,  -0.00352,   0.00076,469475565.14015,   0.00137,276127303.00310,   0.00037,  -0.00161,   0.00039,-6651737.86295,   0.00000
-278121307.36255,-538479536.37910,28365174.80051,   0.00016,  -0.00351,   0.00076,469001907.76452,   0.00137,276127303.00310,   0.00037,  -0.00161,   0.00039,-7125395.23857,   0.00000
-278586512.08031,-537940489.64264,28239643.36873,   0.00015,  -0.00351,   0.00076,468529489.75118,   0.00137,276127303.00310,   0.00037,  -0.00161,   0.00039,-7597813.25192,   0.00000
-279029564.19247,-537349753.49310,28106727.73509,   0.00015,  -0.00351,   0.00075,468012555.56699,   0.00137,276127303.00310,   0.00037,  -0.00161,   0.00039,-8114747.43610,   0.00000
-279472616.30463,-536759017.34355,27973812.10144,   0.00015,  -0.00350,   0.00075,467496889.35022,   0.00137,276127303.00310,   0.00037,  -0.00161,   0.00039,-8630413.65288,   0.00000
-279930436.82053,-536153512.79027,27840896.46779,   0.00014,  -0.00350,   0.00075,466970339.79261,   0.00137,276127303.00310,   0.00037,  -0.00161,   0.00039,-9156963.21048,   0.00000
-280362412.62988,-535536931.93418,27707980.83414,   0.00014,  -0.00350,   0.00075,466435052.49645,   0.00137,276127303.00310,   0.00037,  -0.00161,   0.00039,-9692250.50664,   0.00000
-280772235.83363,-534868661.66501,27567680.99863,   0.00014,  -0.00349,   0.00075,465855336.70898,   0.00137,276127303.00310,   0.00037,  -0.00161,   0.00039,-10271966.29412,   0.00000
-281182059.03738,-534200391.39584,27434765.36498,   0.00013,  -0.00349,   0.00075,465278241.00489,   0.00137,276127303.00310,   0.00037,  -0.00161,   0.00039,-10849061.99821,   0.00000
-281606650.64486,-533517352.72293,27294465.52946,   0.00013,  -0.00348,   0.00074,464689143.54469,   0.00137,276127303.00310,   0.00037,  -0.00161,   0.00039,-11438159.45841,   0.00000
-282005397.54580,-532823237.74721,27154165.69395,   0.00013,  -0.00348,   0.00074,464091223.88755,   0.00137,276127303.00310,   0.00037,  -0.00161,   0.00039,-12036079.11554,   0.00000
-282418912.85049,-532114354.36776,27013865.85843,   0.00012,  -0.00348,   0.00074,463482704.99884,   0.00137,276127303.00310,   0.00037,  -0.00161,   0.00039,-12644598.00426,   0.00000
-282784430.84302,-531342705.27242,26866181.82104,   0.00012,  -0.00347,   0.00074,462819657.59602,   0.00137,276127303.00310,   0.00037,  -0.00161,   0.00039,-13307645.40708,   0.00000
-283186869.84489,-530607977.18642,26725881.98553,   0.00012,  -0.00347,   0.00074,462191772.79131,   0.00137,276127303.00310,   0.00037,  -0.00161,   0.00039,-13935530.21179,   0.00000
-283567156.24116,-529821559.68734,26578197.94814,   0.00012,  -0.00346,   0.00074,461519691.92109,   0.00137,276127303.00310,   0.00037,  -0.00161,   0.00039,-14607611.08201,   0.00000
-283921597.93089,-529024065.88545,26430513.91075,   0.00011,  -0.00346,   0.00073,460838685.57693,   0.00137,276127303.00310,   0.00037,  -0.00161,   0.00039,-15288617.42617,   0.00000
-284290808.02436,-528211803.67983,26282829.87337,   0.00011,  -0.00346,   0.00073,460147339.48612,   0.00137,276127303.00310,   0.00037,  -0.00161,   0.00039,-15979963.51698,   0.00000
-284648941.81502,-527373696.76766,26135145.83598,   0.00011,  -0.00345,   0.00073,459435315.29086,   0.00137,276127303.00310,   0.00037,  -0.00161,   0.00039,-16691987.71224,   0.00000
-285007075.60568,-526535589.85549,25980077.59673,   0.00010,  -0.00345,   0.00073,458723538.91919,   0.00137,276127303.00310,   0.00037,  -0.00161,   0.00039,-17403764.08391,   0.00000
-285354133.09354,-525671638.23678,25832393.55934,   0.00010,  -0.00344,   0.00073,457992375.01317,   0.00137,276127303.00310,   0.00037,  -0.00161,   0.00039,-18134927.98993,   0.00000
-285690114.27859,-524781841.91153,25677325.32008,   0.00010,  -0.00344,   0.00072,457239339.64207,   0.00137,276127303.00310,   0.00037,  -0.00161,   0.00039,-18887963.36102,   0.00000
-286026095.46364,-523892045.58628,25522257.08083,   0.00009,  -0.00343,   0.00072,456487856.67392,   0.00137,276127303.00310,   0.00037,  -0.00161,   0.00039,-19639446.32918,   0.00000
-286351000.34589,-522976404.55449,25367188.84157,   0.00009,  -0.00343,   0.00072,455715790.07922,   0.00137,276127303.00310,   0.00037,  -0.00161,   0.00039,-20411512.92388,   0.00000
-286664828.92534,-522034918.81615,25204736.40045,   0.00009,  -0.00342,   0.00072,454921934.09610,   0.00137,276127303.00310,   0.00037,  -0.00161,   0.00039,-21205368.90699,   0.00000
-286967581.20198,-521067588.37127,25049668.16119,   0.00008,  -0.00342,   0.00072,454108771.61675,   0.00137,276127303.00310,   0.00037,  -0.00161,   0.00039,-22018531.38635,   0.00000
-287296178.18517,-520111334.22919,24887215.72007,   0.00008,  -0.00341,   0.00071,453306757.01729,   0.00137,276127303.00310,   0.00037,  -0.00161,   0.00039,-22820545.98581,   0.00000
-287587854.15900,-519118159.07777,24732147.48081,   0.00008,  -0.00341,   0.00071,452474747.22570,   0.00137,276127303.00310,   0.00037,  -0.00161,   0.00039,-23652555.77739,   0.00000
-287905374.83938,-518136060.22915,24569695.03969,   0.00007,  -0.00340,   0.00071,451653999.07025,   0.00137,276127303.00310,   0.00037,  -0.00161,   0.00039,-24473303.93285,   0.00000
-288174898.20761,-517091195.66465,24399858.39669,   0.00007,  -0.00340,   0.00071,450778696.46367,   0.00137,276127303.00310,   0.00037,  -0.00161,   0.00039,-25348606.53943,   0.00000
-288481342.58519,-516083252.10948,24237405.95557,   0.00007,  -0.00339,   0.00070,449939300.59036,   0.00137,276127303.00310,   0.00037,  -0.00161,   0.00039,-26188002.41273,   0.00000
-288739789.65062,-515012542.83843,24074953.51444,   0.00006,  -0.00339,   0.00070,449046525.74311,   0.00137,276127303.00310,   0.00037,  -0.00161,   0.00039,-27080777.25998,   0.00000
-289024081.42258,-513952909.87019,23905116.87145,   0.00006,  -0.00338,   0.00070,448165270.15647,   0.00137,276127303.00310,   0.00037,  -0.00161,   0.00039,-27962032.84663,   0.00000
-289297296.89175,-512867432.19540,23735280.22846,   0.00006,  -0.00338,   0.00070,447263745.21104,   0.00137,276127303.00310,   0.00037,  -0.00161,   0.00039,-28863557.79206,   0.00000
-289559436.05811,-511756109.81407,23565443.58546,   0.00005,  -0.00337,   0.00070,446341979.62930,   0.00137,276127303.00310,   0.00037,  -0.00161,   0.00039,-29785323.37379,   0.00000
-289821575.22447,-510644787.43274,23395606.94247,   0.00005,  -0.00336,   0.00069,445422081.84655,   0.00137,276127303.00310,   0.00037,  -0.00161,   0.00039,-30705221.15654,   0.00000
-290072638.08803,-509507620.34486,23225770.29947,   0.00005,  -0.00336,   0.00069,444481990.87866,   0.00137,276127303.00310,   0.00037,  -0.00161,   0.00039,-31645312.12444,   0.00000
-290323700.95158,-508370453.25699,23055933.65648,   0.00004,  -0.00335,   0.00069,443543803.77281,   0.00137,276127303.00310,   0.00037,  -0.00161,   0.00039,-32583499.23029,   0.00000
-290563687.51234,-507207441.46257,22878712.81162,   0.00004,  -0.00335,   0.00069,442584327.72802,   0.00137,276127303.00310,   0.00037,  -0.00161,   0.00039,-33542975.27508,   0.00000
-290792597.77028,-506018584.96161,22708876.16862,   0.00004,  -0.00334,   0.00068,441605891.68855,   0.00137,276127303.00310,   0.00037,  -0.00161,   0.00039,-34521411.31455,   0.00000
-291021508.02823,-504829728.46066,22531655.32376,   0.00003,  -0.00334,   0.00068,440628290.59590,   0.00137,276127303.00310,   0.00037,  -0.00161,   0.00039,-35499012.40719,   0.00000
-291265186.68992,-503626103.55596,22354434.47889,   0.00003,  -0.00333,   0.00068,439641981.96822,   0.00137,276127303.00310,   0.00037,  -0.00161,   0.00039,-36485321.03488,   0.00000
-291471944.34226,-502385557.64191,22177213.63403,   0.00003,  -0.00332,   0.00068,438624365.47025,   0.00137,276127303.00310,   0.00037,  -0.00161,   0.00039,-37502937.53284,   0.00000
-291704546.70114,-501156088.03067,21999992.78917,   0.00002,  -0.00332,   0.00068,437620219.70996,   0.00137,276127303.00310,   0.00037,  -0.00161,   0.00039,-38507083.29314,   0.00000
-291900228.05068,-499889697.41009,21815387.74243,   0.00002,  -0.00331,   0.00067,436583633.98741,   0.00137,276127303.00310,   0.00037,  -0.00161,   0.00039,-39543669.01568,   0.00000
-292121754.10676,-498634383.09230,21638166.89757,   0.00002,  -0.00331,   0.00067,435561760.69238,   0.00137,276127303.00310,   0.00037,  -0.00161,   0.00039,-40565542.31071,   0.00000
-292332203.86004,-497353224.06798,21453561.85084,   0.00001,  -0.00330,   0.00067,434518985.50472,   0.00137,276127303.00310,   0.00037,  -0.00161,   0.00039,-41608317.49837,   0.00000
-292505732.60396,-496035144.03431,21276341.00597,   0.00001,  -0.00329,   0.00067,433445951.16353,   0.00137,276127303.00310,   0.00037,  -0.00161,   0.00039,-42681351.83957,   0.00000
-292705106.05444,-494728140.30344,21091735.95924,   0.00001,  -0.00329,   0.00066,432385641.66740,   0.00137,276127303.00310,   0.00037,  -0.00161,   0.00039,-43741661.33570,   0.00000
-292893403.20210,-493395291.86603,20907130.91251,   0.00000,  -0.00328,   0.00066,431305643.23379,   0.00137,276127303.00310,   0.00037,  -0.00161,   0.00039,-44821659.76930,   0.00000
-293081700.34977,-492062443.42862,20715141.66391,  -0.00000,  -0.00327,   0.00066,430226899.43447,   0.00137,276127303.00310,   0.00037,  -0.00161,   0.00039,-45900403.56863,   0.00000
-293258921.19463,-490703750.28466,20530536.61717,  -0.00001,  -0.00327,   0.00066,429129609.52421,   0.00137,276127303.00310,   0.00037,  -0.00161,   0.00039,-46997693.47889,   0.00000
-293450910.44324,-489330288.73697,20345931.57044,  -0.00001,  -0.00326,   0.00065,428024555.80546,   0.00137,276127303.00310,   0.00037,  -0.00161,   0.00039,-48102747.19763,   0.00000
-293617054.98530,-487945750.88648,20153942.32184,  -0.00001,  -0.00325,   0.00065,426909101.08812,   0.00137,276127303.00310,   0.00037,  -0.00161,   0.00039,-49218201.91498,   0.00000
-293772123.22455,-486535368.32944,19961953.07324,  -0.00002,  -0.00325,   0.00065,425774160.26908,   0.00137,276127303.00310,   0.00037,  -0.00161,   0.00039,-50353142.73402,   0.00000
-293953036.17035,-485136062.07520,19777348.02650,  -0.00002,  -0.00324,   0.00065,424654681.21964,   0.00137,276127303.00310,   0.00037,  -0.00161,   0.00039,-51472621.78346,   0.00000
-294097028.10680,-483699834.81162,19585358.77790,  -0.00002,  -0.00323,   0.00064,423502853.66166,   0.00137,276127303.00310,   0.00037,  -0.00161,   0.00039,-52624449.34143,   0.00000
-294266864.74979,-482274683.85085,19393369.52930,  -0.00003,  -0.00323,   0.00064,422365608.86656,   0.00137,276127303.00310,   0.00037,  -0.00161,   0.00039,-53761694.13654,   0.00000
-294399780.38344,-480812611.88072,19193996.07883,  -0.00003,  -0.00322,   0.00064,421196034.58073,   0.00137,276127303.00310,   0.00037,  -0.00161,   0.00039,-54931268.42237,   0.00000
-294547464.42083,-479335771.50686,19002006.83023,  -0.00003,  -0.00321,   0.00064,420020336.80525,   0.00137,276127303.00310,   0.00037,  -0.00161,   0.00039,-56106966.19785,   0.00000
-294695148.45821,-477858931.13300,18810017.58162,  -0.00004,  -0.00321,   0.00063,418847382.96941,   0.00137,276127303.00310,   0.00037,  -0.00161,   0.00039,-57279920.03369,   0.00000
-294842832.49560,-476382090.75914,18610644.13115,  -0.00004,  -0.00320,   0.00063,417676208.92912,   0.00137,276127303.00310,   0.00037,  -0.00161,   0.00039,-58451094.07397,   0.00000
-294979440.23018,-474879405.67873,18411270.68068,  -0.00004,  -0.00319,   0.00063,416485994.35824,   0.00137,276127303.00310,   0.00037,  -0.00161,   0.00039,-59641308.64485,   0.00000
-295104971.66196,-473350875.89178,18219281.43208,  -0.00005,  -0.00318,   0.00063,415277769.49726,   0.00137,276127303.00310,   0.00037,  -0.00161,   0.00039,-60849533.50584,   0.00000
-295230503.09374,-471822346.10484,18019907.98161,  -0.00005,  -0.00318,   0.00062,414071465.90951,   0.00137,276127303.00310,   0.00037,  -0.00161,   0.00039,-62055837.09358,   0.00000
-295370802.92926,-470279047.91415,17820534.53114,  -0.00005,  -0.00317,   0.00062,412858702.82680,   0.00137,276127303.00310,   0.00037,  -0.00161,   0.00039,-63268600.17629,   0.00000
-295485258.05823,-468724673.42066,17621161.08067,  -0.00006,  -0.00316,   0.00062,411636541.22608,   0.00137,276127303.00310,   0.00037,  -0.00161,   0.00039,-64490761.77701,   0.00000
-295614481.59094,-467155530.52343,17414403.42833,  -0.00006,  -0.00316,   0.00062,410407182.91372,   0.00137,276127303.00310,   0.00037,  -0.00161,   0.00039,-65720120.08937,   0.00000
-295717860.41711,-465575311.32340,17215029.97785,  -0.00007,  -0.00315,   0.00061,409169354.09117,   0.00137,276127303.00310,   0.00037,  -0.00161,   0.00039,-66957948.91193,   0.00000
-295836007.64702,-463980323.71963,17008272.32551,  -0.00007,  -0.00314,   0.00061,407924553.81603,   0.00137,276127303.00310,   0.00037,  -0.00161,   0.00039,-68202749.18706,   0.00000
-295954154.87693,-462385336.11586,16808898.87504,  -0.00007,  -0.00313,   0.00061,406683927.28311,   0.00137,276127303.00310,   0.00037,  -0.00161,   0.00039,-69443375.71999,   0.00000
-296072302.10684,-460790348.51209,16602141.22270,  -0.00008,  -0.00313,   0.00061,405445665.11887,   0.00137,276127303.00310,   0.00037,  -0.00161,   0.00039,-70681637.88423,   0.00000
-296179373.03395,-459169516.20177,16395383.57036,  -0.00008,  -0.00312,   0.00060,404189005.29587,   0.00137,276127303.00310,   0.00037,  -0.00161,   0.00039,-71938297.70722,   0.00000
-296275367.65825,-457522839.18492,16188625.91802,  -0.00008,  -0.00311,   0.00060,402914022.20901,   0.00137,276127303.00310,   0.00037,  -0.00161,   0.00039,-73213280.79409,   0.00000
-296371362.28255,-455876162.16806,15981868.26568,  -0.00009,  -0.00310,   0.00060,401642478.75466,   0.00137,276127303.00310,   0.00037,  -0.00161,   0.00039,-74484824.24843,   0.00000
-296456280.60405,-454203640.44466,15775110.61334,  -0.00009,  -0.00309,   0.00059,400352736.67644,   0.00137,276127303.00310,   0.00037,  -0.00161,   0.00039,-75774566.32666,   0.00000
-296567043.63208,-452542195.02407,15568352.96100,  -0.00009,  -0.00309,   0.00059,399079527.90211,   0.00137,276127303.00310,   0.00037,  -0.00161,   0.00039,-77047775.10099,   0.00000
-296651961.95358,-450869673.30067,15361595.30866,  -0.00010,  -0.00308,   0.00059,397796947.56801,   0.00137,276127303.00310,   0.00037,  -0.00161,   0.00039,-78330355.43509,   0.00000
-296751648.67882,-449182383.17353,15147453.45445,  -0.00010,  -0.00307,   0.00059,396508609.76943,   0.00137,276127303.00310,   0.00037,  -0.00161,   0.00039,-79618693.23367,   0.00000
-296814414.39471,-447458172.03705,14940695.80211,  -0.00011,  -0.00306,   0.00058,395190144.34707,   0.00137,276127303.00310,   0.00037,  -0.00161,   0.00039,-80937158.65603,   0.00000
-296914101.11994,-445770881.90991,14726553.94790,  -0.00011,  -0.00306,   0.00058,393909400.83783,   0.00137,276127303.00310,   0.00037,  -0.00161,   0.00039,-82217902.16527,   0.00000
-296991635.23957,-444031902.36969,14512412.09369,  -0.00011,  -0.00305,   0.00058,392589392.69335,   0.00137,276127303.00310,   0.00037,  -0.00161,   0.00039,-83537910.30974,   0.00000
-297080245.66200,-442318767.53601,14298270.23948,  -0.00012,  -0.00304,   0.00058,391294924.51625,   0.00137,276127303.00310,   0.00037,  -0.00161,   0.00039,-84832378.48685,   0.00000
-297146703.47883,-440553943.28924,14084128.38527,  -0.00012,  -0.00303,   0.00057,389961378.08782,   0.00137,276127303.00310,   0.00037,  -0.00161,   0.00039,-86165924.91527,   0.00000
-297250082.30500,-438826040.05182,13869986.53106,  -0.00012,  -0.00302,   0.00057,388666898.40277,   0.00137,276127303.00310,   0.00037,  -0.00161,   0.00039,-87460404.60033,   0.00000
-297316540.12182,-437061215.80506,13655844.67685,  -0.00013,  -0.00302,   0.00057,387341643.98877,   0.00137,276127303.00310,   0.00037,  -0.00161,   0.00039,-88785659.01433,   0.00000
-297371921.63584,-435270546.85175,13441702.82264,  -0.00013,  -0.00301,   0.00056,385999103.50873,   0.00137,276127303.00310,   0.00037,  -0.00161,   0.00039,-90128199.49437,   0.00000
-297464224.15921,-433516798.90779,13220176.76656,  -0.00014,  -0.00300,   0.00056,384695152.76908,   0.00137,276127303.00310,   0.00037,  -0.00161,   0.00039,-91432150.23402,   0.00000
-297534374.07696,-431711361.55074,13006034.91235,  -0.00014,  -0.00299,   0.00056,383353498.14613,   0.00137,276127303.00310,   0.00037,  -0.00161,   0.00039,-92773804.85697,   0.00000
-297615600.29753,-429931768.90024,12784508.85627,  -0.00014,  -0.00298,   0.00056,382037041.34810,   0.00137,276127303.00310,   0.00037,  -0.00161,   0.00039,-94090261.65500,   0.00000
-297685750.21529,-428126331.54319,12570367.00206,  -0.00015,  -0.00297,   0.00055,380704473.08800,   0.00137,276127303.00310,   0.00037,  -0.00161,   0.00039,-95422829.91509,   0.00000
-297744823.83024,-426295049.47960,12348840.94598,  -0.00015,  -0.00297,   0.00055,379354433.92642,   0.00137,276127303.00310,   0.00037,  -0.00161,   0.00039,-96772869.07667,   0.00000
-297814973.74800,-424489612.12255,12127314.88990,  -0.00016,  -0.00296,   0.00055,378030477.60362,   0.00137,276127303.00310,   0.00037,  -0.00161,   0.00039,-98096825.39948,   0.00000
-297874047.36295,-422658330.05897,11905788.83382,  -0.00016,  -0.00295,   0.00054,376689936.23079,   0.00137,276127303.00310,   0.00037,  -0.00161,   0.00039,-99437366.77231,   0.00000
-297947889.38165,-420812279.59164,11684262.77774,  -0.00016,  -0.00294,   0.00054,375346979.34293,   0.00137,276127303.00310,   0.00037,  -0.00161,   0.00039,-100780323.66017,   0.00000
-297995886.69380,-418955152.82151,11462736.72166,  -0.00017,  -0.00293,   0.00054,373994972.30790,   0.00137,276127303.00310,   0.00037,  -0.00161,   0.00039,-102132330.69520,   0.00000
-298069728.71249,-417109102.35418,11241210.66558,  -0.00017,  -0.00292,   0.00054,372662131.03951,   0.00137,276127303.00310,   0.00037,  -0.00161,   0.00039,-103465171.96359,   0.00000
-298132494.42838,-415237207.18031,11012300.40763,  -0.00017,  -0.00291,   0.00053,371312577.73694,   0.00137,276127303.00310,   0.00037,  -0.00161,   0.00039,-104814725.26615,   0.00000
-298195260.14427,-413365312.00644,10790774.35155,  -0.00018,  -0.00291,   0.00053,369968971.70929,   0.00137,276127303.00310,   0.00037,  -0.00161,   0.00039,-106158331.29381,   0.00000
-298258025.86016,-411493416.83257,10561864.09360,  -0.00018,  -0.00290,   0.00053,368630067.74679,   0.00137,276127303.00310,   0.00037,  -0.00161,   0.00039,-107497235.25631,   0.00000
-298309715.27324,-409595676.95216,10340338.03753,  -0.00019,  -0.00289,   0.00052,367276058.03774,   0.00137,276127303.00310,   0.00037,  -0.00161,   0.00039,-108851244.96536,   0.00000
-298361404.68633,-407697937.07174,10111427.77958,  -0.00019,  -0.00288,   0.00052,365926945.47100,   0.00137,276127303.00310,   0.00037,  -0.00161,   0.00039,-110200357.53210,   0.00000
-298438938.80596,-405811273.49413,9882517.52163,  -0.00019,  -0.00287,   0.00052,364597993.04325,   0.00137,276127303.00310,   0.00037,  -0.00161,   0.00039,-111529309.95984,   0.00000
-298505396.62278,-403898765.20998,9653607.26368,  -0.00020,  -0.00286,   0.00052,363253767.55957,   0.00137,276127303.00310,   0.00037,  -0.00161,   0.00039,-112873535.44353,   0.00000
-298557086.03586,-402001025.32957,9424697.00573,  -0.00020,  -0.00285,   0.00051,361921784.40013,   0.00137,276127303.00310,   0.00037,  -0.00161,   0.00039,-114205518.60297,   0.00000
-298612467.54988,-400062672.33887,9195786.74778,  -0.00021,  -0.00284,   0.00051,360568347.60579,   0.00137,276127303.00310,   0.00037,  -0.00161,   0.00039,-115558955.39730,   0.00000
-298678925.36671,-398150164.05472,8966876.48983,  -0.00021,  -0.00284,   0.00051,359241986.80350,   0.00137,276127303.00310,   0.00037,  -0.00161,   0.00039,-116885316.19960,   0.00000
-298760151.58727,-396222887.36683,8737966.23189,  -0.00021,  -0.00283,   0.00050,357915703.65004,   0.00137,276127303.00310,   0.00037,  -0.00161,   0.00039,-118211599.35305,   0.00000
-298815533.10129,-394284534.37614,8501671.77207,  -0.00022,  -0.00282,   0.00050,356580297.83820,   0.00137,276127303.00310,   0.00037,  -0.00161,   0.00039,-119547005.16490,   0.00000
-298859838.31251,-392320336.67890,8272761.51412,  -0.00022,  -0.00281,   0.00050,355230872.65984,   0.00137,276127303.00310,   0.00037,  -0.00161,   0.00039,-120896430.34326,   0.00000
-298929988.23026,-390367215.28447,8043851.25617,  -0.00023,  -0.00280,   0.00049,353903015.23288,   0.00137,276127303.00310,   0.00037,  -0.00161,   0.00039,-122224287.77022,   0.00000
-299000138.14802,-388414093.89004,7807556.79635,  -0.00023,  -0.00279,   0.00049,352581333.93953,   0.00137,276127303.00310,   0.00037,  -0.00161,   0.00039,-123545969.06356,   0.00000
-299070288.06578,-386460972.49560,7571262.33653,  -0.00023,  -0.00278,   0.00049,351266420.44986,   0.00137,276127303.00310,   0.00037,  -0.00161,   0.00039,-124860882.55323,   0.00000
-299140437.98354,-384507851.10117,7334967.87672,  -0.00024,  -0.00277,   0.00048,349958351.05076,   0.00137,276127303.00310,   0.00037,  -0.00161,   0.00039,-126168951.95234,   0.00000
-299199511.59849,-382528885.00020,7106057.61877,  -0.00024,  -0.00276,   0.00048,348636957.59420,   0.00137,276127303.00310,   0.00037,  -0.00161,   0.00039,-127490345.40890,   0.00000
-299258585.21345,-380549918.89922,6869763.15895,  -0.00025,  -0.00275,   0.00048,347322173.49727,   0.00137,276127303.00310,   0.00037,  -0.00161,   0.00039,-128805129.50583,   0.00000
-299332427.23214,-378556184.39451,6633468.69913,  -0.00025,  -0.00275,   0.00048,346009470.87965,   0.00137,276127303.00310,   0.00037,  -0.00161,   0.00039,-130117832.12345,   0.00000
-299417345.55364,-376588294.59634,6389790.03744,  -0.00026,  -0.00274,   0.00047,344724398.84772,   0.00137,276127303.00310,   0.00037,  -0.00161,   0.00039,-131402904.15537,   0.00000
-299465342.86579,-374583483.78882,6153495.57763,  -0.00026,  -0.00273,   0.00047,343410982.67802,   0.00137,276127303.00310,   0.00037,  -0.00161,   0.00039,-132716320.32508,   0.00000
-299539184.88448,-372589749.28410,5917201.11781,  -0.00026,  -0.00272,   0.00047,342120818.66379,   0.00137,276127303.00310,   0.00037,  -0.00161,   0.00039,-134006484.33930,   0.00000
-299601950.60037,-370570170.07285,5680906.65799,  -0.00027,  -0.00271,   0.00046,340817916.29050,   0.00137,276127303.00310,   0.00037,  -0.00161,   0.00039,-135309386.71259,   0.00000
-299701637.32561,-368587511.87094,5437227.99630,  -0.00027,  -0.00270,   0.00046,339558882.76147,   0.00137,276127303.00310,   0.00037,  -0.00161,   0.00039,-136568420.24163,   0.00000
-299764403.04150,-366567932.65968,5200933.53649,  -0.00028,  -0.00269,   0.00046,338271899.81771,   0.00137,276127303.00310,   0.00037,  -0.00161,   0.00039,-137855403.18538,   0.00000
-299853013.46393,-364559429.75123,4957254.87480,  -0.00028,  -0.00268,   0.00045,337008734.35866,   0.00137,276127303.00310,   0.00037,  -0.00161,   0.00039,-139118568.64444,   0.00000
-299941623.88636,-362550926.84278,4713576.21311,  -0.00029,  -0.00267,   0.00045,335753915.77399,   0.00137,276127303.00310,   0.00037,  -0.00161,   0.00039,-140373387.22911,   0.00000
-300030234.30879,-360542423.93432,4469897.55142,  -0.00029,  -0.00266,   0.00045,334507537.99715,   0.00137,276127303.00310,   0.00037,  -0.00161,   0.00039,-141619765.00595,   0.00000
-300107768.42842,-358508076.31933,4226218.88974,  -0.00029,  -0.00265,   0.00044,333249512.35947,   0.00137,276127303.00310,   0.00037,  -0.00161,   0.00039,-142877790.64363,   0.00000
-300185302.54805,-356473728.70433,3982540.22805,  -0.00030,  -0.00264,   0.00044,332000215.21182,   0.00137,276127303.00310,   0.00037,  -0.00161,   0.00039,-144127087.79127,   0.00000
-300262836.66767,-354439381.08934,3738861.56636,  -0.00030,  -0.00263,   0.00044,330759745.45813,   0.00137,276127303.00310,   0.00037,  -0.00161,   0.00039,-145367557.54496,   0.00000
-300366215.49385,-352416109.77715,3495182.90467,  -0.00031,  -0.00262,   0.00044,329544736.83908,   0.00137,276127303.00310,   0.00037,  -0.00161,   0.00039,-146582566.16401,   0.00000
-300469594.32002,-350392838.46496,3251504.24299,  -0.00031,  -0.00261,   0.00043,328338912.05839,   0.00137,276127303.00310,   0.00037,  -0.00161,   0.00039,-147788390.94471,   0.00000
-300561896.84338,-348343722.44622,3000441.37943,  -0.00032,  -0.00261,   0.00043,327122241.33384,   0.00137,276127303.00310,   0.00037,  -0.00161,   0.00039,-149005061.66926,   0.00000
-300665275.66955,-346320451.13403,2756762.71774,  -0.00032,  -0.00260,   0.00043,325935159.47034,   0.00137,276127303.00310,   0.00037,  -0.00161,   0.00039,-150192143.53276,   0.00000
-300757578.19292,-344271335.11530,2505699.85419,  -0.00032,  -0.00259,   0.00042,324737579.63515,   0.00137,276127303.00310,   0.00037,  -0.00161,   0.00039,-151389723.36794,   0.00000
-300875725.42283,-342233295.39937,2262021.19250,  -0.00033,  -0.00258,   0.00042,323566824.36727,   0.00137,276127303.00310,   0.00037,  -0.00161,   0.00039,-152560478.63583,   0.00000
-300968027.94619,-340184179.38063,2010958.32894,  -0.00033,  -0.00257,   0.00042,322388895.59074,   0.00137,276127303.00310,   0.00037,  -0.00161,   0.00039,-153738407.41236,   0.00000
-301086175.17610,-338146139.66470,1759895.46539,  -0.00034,  -0.00256,   0.00041,321238012.23743,   0.00137,276127303.00310,   0.00037,  -0.00161,   0.00039,-154889290.76567,   0.00000
-301193246.10321,-336082255.24223,1508832.60183,  -0.00034,  -0.00255,   0.00041,320077768.83167,   0.00137,276127303.00310,   0.00037,  -0.00161,   0.00039,-156049534.17143,   0.00000
-301337238.03966,-334055291.82911,1257769.73827,  -0.00035,  -0.00254,   0.00041,318964756.65852,   0.00137,276127303.00310,   0.00037,  -0.00161,   0.00039,-157162546.34458,   0.00000
-301444308.96676,-331991407.40663,1006706.87472,  -0.00035,  -0.00253,   0.00040,317825559.05384,   0.00137,276127303.00310,   0.00037,  -0.00161,   0.00039,-158301743.94926,   0.00000
-301588300.90322,-329964443.99351,755644.01116,  -0.00036,  -0.00252,   0.00040,316733854.38373,   0.00137,276127303.00310,   0.00037,  -0.00161,   0.00039,-159393448.61937,   0.00000
-301695371.83032,-327900559.57104,504581.14760,  -0.00036,  -0.00251,   0.00040,315616154.39341,   0.00137,276127303.00310,   0.00037,  -0.00161,   0.00039,-160511148.60969,   0.00000
-301828287.46397,-325847751.45137,253518.28405,  -0.00037,  -0.00250,   0.00039,314526940.43492,   0.00137,276127303.00310,   0.00037,  -0.00161,   0.00039,-161600362.56817,   0.00000
-301961203.09762,-323794943.33170,-4928.78138,  -0.00037,  -0.00249,   0.00039,313448915.98290,   0.00137,276127303.00310,   0.00037,  -0.00161,   0.00039,-162678387.02020,   0.00000
-302119963.43781,-321753211.51483,-255991.64494,  -0.00037,  -0.00248,   0.00039,312399951.22292,   0.00137,276127303.00310,   0.00037,  -0.00161,   0.00039,-163727351.78018,   0.00000
-302241802.76865,-319674558.68862,-514438.71036,  -0.00038,  -0.00247,   0.00038,311325729.48256,   0.00137,276127303.00310,   0.00037,  -0.00161,   0.00039,-164801573.52054,   0.00000
-302400563.10884,-317632826.87176,-772885.77579,  -0.00038,  -0.00246,   0.00038,310300112.18896,   0.00137,276127303.00310,   0.00037,  -0.00161,   0.00039,-165827190.81413,   0.00000
-302559323.44903,-315591095.05490,-1023948.63934,  -0.00039,  -0.00245,   0.00038,309286276.27165,   0.00137,276127303.00310,   0.00037,  -0.00161,   0.00039,-166841026.73145,   0.00000
-302707007.48642,-313523518.53149,-1282395.70477,  -0.00039,  -0.00244,   0.00037,308265626.69019,   0.00137,276127303.00310,   0.00037,  -0.00161,   0.00039,-167861676.31290,   0.00000
-302865767.82661,-311481786.71462,-1540842.77020,  -0.00040,  -0.00243,   0.00037,307275981.59982,   0.00137,276127303.00310,   0.00037,  -0.00161,   0.00039,-168851321.40327,   0.00000
-303039296.57054,-309425286.49402,-1799289.83562,  -0.00040,  -0.00242,   0.00037,306298080.89396,   0.00137,276127303.00310,   0.00037,  -0.00161,   0.00039,-169829222.10913,   0.00000
-303212825.31446,-307368786.27342,-2065121.10292,  -0.00041,  -0.00241,   0.00036,305332972.81237,   0.00137,276127303.00310,   0.00037,  -0.00161,   0.00039,-170794330.19072,   0.00000
-303371585.65465,-305327054.45655,-2323568.16834,  -0.00041,  -0.00240,   0.00036,304380639.03455,   0.00137,276127303.00310,   0.00037,  -0.00161,   0.00039,-171746663.96854,   0.00000
-303570959.10513,-303281630.53875,-2582015.23377,  -0.00042,  -0.00239,   0.00036,303459354.08327,   0.00137,276127303.00310,   0.00037,  -0.00161,   0.00039,-172667948.91982,   0.00000
-303744487.84906,-301225130.31815,-2847846.50106,  -0.00042,  -0.00238,   0.00035,302532892.07490,   0.00137,276127303.00310,   0.00037,  -0.00161,   0.00039,-173594410.92820,   0.00000
-303918016.59298,-299168630.09755,-3106293.56649,  -0.00043,  -0.00238,   0.00035,301619363.66443,   0.00137,276127303.00310,   0.00037,  -0.00161,   0.00039,-174507939.33867,   0.00000
-304128466.34626,-297149050.88629,-3372124.83378,  -0.00043,  -0.00237,   0.00035,300756231.92237,   0.00137,276127303.00310,   0.00037,  -0.00161,   0.00039,-175371071.08073,   0.00000
-304327839.79673,-295103626.96849,-3637956.10108,  -0.00044,  -0.00236,   0.00034,299888378.54706,   0.00137,276127303.00310,   0.00037,  -0.00161,   0.00039,-176238924.45604,   0.00000
-304527213.24720,-293058203.05069,-3903787.36837,  -0.00044,  -0.00235,   0.00034,299034203.32230,   0.00137,276127303.00310,   0.00037,  -0.00161,   0.00039,-177093099.68080,   0.00000
-304752431.40422,-291023855.43570,-4169618.63567,  -0.00045,  -0.00234,   0.00034,298212773.86705,   0.00137,276127303.00310,   0.00037,  -0.00161,   0.00039,-177914529.13604,   0.00000
-304951804.85469,-288978431.51790,-4435449.90297,  -0.00045,  -0.00233,   0.00033,297386385.96738,   0.00137,276127303.00310,   0.00037,  -0.00161,   0.00039,-178740917.03571,   0.00000
-305177023.01170,-286944083.90290,-4701281.17026,  -0.00046,  -0.00232,   0.00033,296593134.61167,   0.00137,276127303.00310,   0.00037,  -0.00161,   0.00039,-179534168.39142,   0.00000
-305402241.16872,-284909736.28791,-4967112.43756,  -0.00046,  -0.00231,   0.00033,295814183.85079,   0.00137,276127303.00310,   0.00037,  -0.00161,   0.00039,-180313119.15231,   0.00000
-305627459.32573,-282875388.67291,-5232943.70485,  -0.00047,  -0.00230,   0.00032,295049646.94832,   0.00137,276127303.00310,   0.00037,  -0.00161,   0.00039,-181077656.05478,   0.00000
-305863753.78555,-280866885.76446,-5506159.17402,  -0.00047,  -0.00229,   0.00032,294317510.13385,   0.00137,276127303.00310,   0.00037,  -0.00161,   0.00039,-181809792.86925,   0.00000
-306114816.64910,-278843614.45227,-5779374.64318,  -0.00048,  -0.00228,   0.00031,293601913.98370,   0.00137,276127303.00310,   0.00037,  -0.00161,   0.00039,-182525389.01940,   0.00000
-306365879.51266,-276820343.14008,-6045205.91047,  -0.00048,  -0.00227,   0.00031,292900802.58707,   0.00137,276127303.00310,   0.00037,  -0.00161,   0.00039,-183226500.41603,   0.00000
-306616942.37622,-274797071.82789,-6318421.37964,  -0.00049,  -0.00226,   0.00031,292215176.61769,   0.00137,276127303.00310,   0.00037,  -0.00161,   0.00039,-183912126.38540,   0.00000
-306879081.54258,-272799645.22224,-6591636.84880,  -0.00049,  -0.00225,   0.00030,291561762.89063,   0.00137,276127303.00310,   0.00037,  -0.00161,   0.00039,-184565540.11246,   0.00000
-307155989.11268,-270787450.21285,-6864852.31797,  -0.00050,  -0.00224,   0.00030,290926169.88366,   0.00137,276127303.00310,   0.00037,  -0.00161,   0.00039,-185201133.11943,   0.00000
-307407051.97623,-268764178.90066,-7138067.78713,  -0.00050,  -0.00223,   0.00030,290286292.45523,   0.00137,276127303.00310,   0.00037,  -0.00161,   0.00039,-185841010.54787,   0.00000
-307695035.84914,-266777828.59782,-7411283.25630,  -0.00051,  -0.00222,   0.00029,289698485.91583,   0.00137,276127303.00310,   0.00037,  -0.00161,   0.00039,-186428817.08727,   0.00000
-307997788.12578,-264776709.89123,-7691882.92733,  -0.00051,  -0.00221,   0.00029,289130070.70587,   0.00137,276127303.00310,   0.00037,  -0.00161,   0.00039,-186997232.29723,   0.00000
-308285771.99868,-262790359.58839,-7965098.39650,  -0.00052,  -0.00220,   0.00029,288573543.15200,   0.00137,276127303.00310,   0.00037,  -0.00161,   0.00039,-187553759.85110,   0.00000
-308588524.27532,-260789240.88181,-8245698.06753,  -0.00052,  -0.00219,   0.00028,288036999.52158,   0.00137,276127303.00310,   0.00037,  -0.00161,   0.00039,-188090303.48152,   0.00000
-308902352.85477,-258813966.88177,-8518913.53669,  -0.00053,  -0.00218,   0.00028,287532268.44021,   0.00137,276127303.00310,   0.00037,  -0.00161,   0.00039,-188595034.56289,   0.00000
-309216181.43421,-256838692.88172,-8799513.20773,  -0.00053,  -0.00217,   0.00028,287044204.71869,   0.00137,276127303.00310,   0.00037,  -0.00161,   0.00039,-189083098.28440,   0.00000
-309530010.01366,-254863418.88168,-9080112.87876,  -0.00054,  -0.00216,   0.00027,286572256.39309,   0.00137,276127303.00310,   0.00037,  -0.00161,   0.00039,-189555046.61001,   0.00000
-309869683.29965,-252899221.18445,-9360712.54980,  -0.00054,  -0.00215,   0.00027,286136862.26541,   0.00137,276127303.00310,   0.00037,  -0.00161,   0.00039,-189990440.73769,   0.00000
-310183511.87909,-250923947.18441,-9641312.22083,  -0.00055,  -0.00214,   0.00026,285697448.12309,   0.00137,276127303.00310,   0.00037,  -0.00161,   0.00039,-190429854.88001,   0.00000
-310523185.16508,-248959749.48717,-9921911.89186,  -0.00056,  -0.00213,   0.00026,285294872.03225,   0.00137,276127303.00310,   0.00037,  -0.00161,   0.00039,-190832430.97085,   0.00000
-310899779.46042,-247032472.79928,-10209895.76477,  -0.00056,  -0.00212,   0.00026,284945784.47064,   0.00137,276127303.00310,   0.00037,  -0.00161,   0.00039,-191181518.53246,   0.00000
-311239452.74641,-245068275.10204,-10490495.43580,  -0.00057,  -0.00211,   0.00025,284576337.84729,   0.00137,276127303.00310,   0.00037,  -0.00161,   0.00039,-191550965.15581,   0.00000
-311616047.04174,-243140998.41415,-10778479.30870,  -0.00057,  -0.00211,   0.00025,284260436.80536,   0.00137,276127303.00310,   0.00037,  -0.00161,   0.00039,-191866866.19773,   0.00000
-311992641.33708,-241213721.72626,-11066463.18161,  -0.00058,  -0.00210,   0.00025,283961197.08764,   0.00137,276127303.00310,   0.00037,  -0.00161,   0.00039,-192166105.91546,   0.00000
-312358159.32961,-239260600.33183,-11347062.85264,  -0.00058,  -0.00209,   0.00024,283662689.39944,   0.00137,276127303.00310,   0.00037,  -0.00161,   0.00039,-192464613.60365,   0.00000
-312760598.33148,-237344399.94674,-11635046.72554,  -0.00059,  -0.00208,   0.00024,283417893.67239,   0.00137,276127303.00310,   0.00037,  -0.00161,   0.00039,-192709409.33071,   0.00000
-313148268.92962,-235442967.96540,-11923030.59845,  -0.00059,  -0.00207,   0.00023,283183946.62112,   0.00137,276127303.00310,   0.00037,  -0.00161,   0.00039,-192943356.38198,   0.00000
-313550707.93150,-233526767.58031,-12218398.67322,  -0.00060,  -0.00206,   0.00023,282973818.79514,   0.00137,276127303.00310,   0.00037,  -0.00161,   0.00039,-193153484.20796,   0.00000
-313953146.93338,-231610567.19522,-12506382.54612,  -0.00060,  -0.00205,   0.00023,282779765.33880,   0.00137,276127303.00310,   0.00037,  -0.00161,   0.00039,-193347537.66429,   0.00000
-314392506.94460,-229731287.81948,-12801750.62089,  -0.00061,  -0.00204,   0.00022,282639296.59870,   0.00137,276127303.00310,   0.00037,  -0.00161,   0.00039,-193488006.40439,   0.00000
-314806022.24928,-227840932.14094,-13089734.49380,  -0.00062,  -0.00203,   0.00022,282493624.52587,   0.00137,276127303.00310,   0.00037,  -0.00161,   0.00039,-193633678.47722,   0.00000
-315245382.26051,-225961652.76520,-13385102.56857,  -0.00062,  -0.00202,   0.00022,282387030.27421,   0.00137,276127303.00310,   0.00037,  -0.00161,   0.00039,-193740272.72889,   0.00000
-315710586.97827,-224093449.69227,-13680470.64334,  -0.00063,  -0.00201,   0.00021,282318685.55922,   0.00137,276127303.00310,   0.00037,  -0.00161,   0.00039,-193808617.44388,   0.00000
-316149946.98950,-222214170.31653,-13975838.71811,  -0.00063,  -0.00200,   0.00021,282246170.05136,   0.00137,276127303.00310,   0.00037,  -0.00161,   0.00039,-193881132.95173,   0.00000
-316626228.01007,-220371811.95013,-14271206.79289,  -0.00064,  -0.00199,   0.00020,282225814.23132,   0.00137,276127303.00310,   0.00037,  -0.00161,   0.00039,-193901488.77178,   0.00000
-317102509.03064,-218529453.58374,-14566574.86766,  -0.00064,  -0.00198,   0.00020,282222324.77031,   0.00137,276127303.00310,   0.00037,  -0.00161,   0.00039,-193904978.23278,   0.00000
-317578790.05121,-216687095.21735,-14869327.14430,  -0.00065,  -0.00197,   0.00020,282236869.09130,   0.00137,276127303.00310,   0.00037,  -0.00161,   0.00039,-193890433.91180,   0.00000
-318055071.07178,-214844736.85095,-15164695.21907,  -0.00066,  -0.00196,   0.00019,282267134.25719,   0.00137,276127303.00310,   0.00037,  -0.00161,   0.00039,-193860168.74591,   0.00000
-318557196.79889,-213013454.78737,-15467447.49572,  -0.00066,  -0.00195,   0.00019,282336990.68915,   0.00137,276127303.00310,   0.00037,  -0.00161,   0.00039,-193790312.31395,   0.00000
-319070398.82881,-211208017.43032,-15770199.77236,  -0.00067,  -0.00195,   0.00018,282436926.19923,   0.00137,276127303.00310,   0.00037,  -0.00161,   0.00039,-193690376.80387,   0.00000
-319572524.55592,-209376735.36673,-16072952.04900,  -0.00067,  -0.00194,   0.00018,282540586.85817,   0.00137,276127303.00310,   0.00037,  -0.00161,   0.00039,-193586716.14492,   0.00000
-320085726.58584,-207571298.00968,-16375704.32564,  -0.00068,  -0.00193,   0.00018,282674012.70031,   0.00137,276127303.00310,   0.00037,  -0.00161,   0.00039,-193453290.30278,   0.00000
-320635849.62510,-205802781.66198,-16678456.60228,  -0.00069,  -0.00192,   0.00017,282858438.08365,   0.00137,276127303.00310,   0.00037,  -0.00161,   0.00039,-193268864.91944,   0.00000
-321174896.36156,-204008420.60774,-16988593.08079,  -0.00069,  -0.00191,   0.00017,283048058.23525,   0.00137,276127303.00310,   0.00037,  -0.00161,   0.00039,-193079244.76785,   0.00000
-321725019.40083,-202239904.26004,-17291345.35744,  -0.00070,  -0.00190,   0.00016,283265426.29608,   0.00137,276127303.00310,   0.00037,  -0.00161,   0.00039,-192861876.70702,   0.00000
-322300987.14663,-200482464.21515,-17601481.83595,  -0.00070,  -0.00189,   0.00016,283522283.32144,   0.00137,276127303.00310,   0.00037,  -0.00161,   0.00039,-192605019.68166,   0.00000
-322876954.89244,-198725024.17025,-17911618.31446,  -0.00071,  -0.00188,   0.00016,283795543.97311,   0.00137,276127303.00310,   0.00037,  -0.00161,   0.00039,-192331759.02999,   0.00000
-323463998.94105,-196993428.83190,-18221754.79297,  -0.00072,  -0.00187,   0.00015,284097139.02469,   0.00137,276127303.00310,   0.00037,  -0.00161,   0.00039,-192030163.97841,   0.00000
-324039966.68686,-195235988.78700,-18531891.27148,  -0.00072,  -0.00186,   0.00015,284402920.18145,   0.00137,276127303.00310,   0.00037,  -0.00161,   0.00039,-191724382.82165,   0.00000
-324638087.03827,-193530238.15519,-18842027.74999,  -0.00073,  -0.00185,   0.00014,284748345.67861,   0.00137,276127303.00310,   0.00037,  -0.00161,   0.00039,-191378957.32449,   0.00000
-325250975.79342,-191809719.11964,-19159548.43037,  -0.00073,  -0.00184,   0.00014,285121258.73244,   0.00137,276127303.00310,   0.00037,  -0.00161,   0.00039,-191006044.27066,   0.00000
-325863864.54858,-190089200.08409,-19469684.90888,  -0.00074,  -0.00184,   0.00014,285508610.64099,   0.00137,276127303.00310,   0.00037,  -0.00161,   0.00039,-190618692.36211,   0.00000
-326513674.31307,-188405602.05789,-19787205.58926,  -0.00075,  -0.00183,   0.00013,285946578.09847,   0.00137,276127303.00310,   0.00037,  -0.00161,   0.00039,-190180724.90462,   0.00000
-327148715.67384,-186736772.43542,-20104726.26964,  -0.00075,  -0.00182,   0.00013,286389261.54876,   0.00137,276127303.00310,   0.00037,  -0.00161,   0.00039,-189738041.45434,   0.00000
-327798525.43833,-185053174.40922,-20422246.95002,  -0.00076,  -0.00181,   0.00012,286858148.65699,   0.00137,276127303.00310,   0.00037,  -0.00161,   0.00039,-189269154.34611,   0.00000
-328459411.50564,-183395421.08956,-20739767.63040,  -0.00076,  -0.00180,   0.00012,287353314.37697,   0.00137,276127303.00310,   0.00037,  -0.00161,   0.00039,-188773988.62612,   0.00000
-329146142.27948,-181748744.07270,-21064672.51265,  -0.00077,  -0.00179,   0.00012,287887221.42185,   0.00137,276127303.00310,   0.00037,  -0.00161,   0.00039,-188240081.58124,   0.00000
-329807028.34679,-180090990.75304,-21389577.39490,  -0.00078,  -0.00178,   0.00011,288414126.67978,   0.00137,276127303.00310,   0.00037,  -0.00161,   0.00039,-187713176.32332,   0.00000
-330504835.42344,-178470158.44273,-21707098.07528,  -0.00078,  -0.00177,   0.00011,288986829.57756,   0.00137,276127303.00310,   0.00037,  -0.00161,   0.00039,-187140473.42554,   0.00000
-331202642.50009,-176849326.13242,-22032002.95753,  -0.00079,  -0.00177,   0.00010,289575789.51991,   0.00137,276127303.00310,   0.00037,  -0.00161,   0.00039,-186551513.48319,   0.00000
-331926294.28328,-175239570.12491,-22356907.83978,  -0.00080,  -0.00176,   0.00010,290201386.34284,   0.00137,276127303.00310,   0.00037,  -0.00161,   0.00039,-185925916.66026,   0.00000
-332661022.36928,-173655658.82394,-22689196.92390,  -0.00080,  -0.00175,   0.00009,290853182.22760,   0.00137,276127303.00310,   0.00037,  -0.00161,   0.00039,-185274120.77550,   0.00000
-333395750.45527,-172071747.52297,-23014101.80615,  -0.00081,  -0.00174,   0.00009,291517357.91459,   0.00137,276127303.00310,   0.00037,  -0.00161,   0.00039,-184609945.08851,   0.00000
-334130478.54127,-170487836.22201,-23346390.89027,  -0.00082,  -0.00173,   0.00009,292197293.94770,   0.00137,276127303.00310,   0.00037,  -0.00161,   0.00039,-183930009.05540,   0.00000
-334902127.63661,-168940845.93038,-23678679.97439,  -0.00082,  -0.00172,   0.00008,292922917.21266,   0.00137,276127303.00310,   0.00037,  -0.00161,   0.00039,-183204385.79043,   0.00000
-335647932.02541,-167382779.33596,-24010969.05851,  -0.00083,  -0.00171,   0.00008,293639958.54749,   0.00137,276127303.00310,   0.00037,  -0.00161,   0.00039,-182487344.45561,   0.00000
-336430657.42356,-165861633.75088,-24343258.14263,  -0.00084,  -0.00171,   0.00007,294401958.16570,   0.00137,276127303.00310,   0.00037,  -0.00161,   0.00039,-181725344.83739,   0.00000
-337228151.22544,-164325719.76207,-24675547.22675,  -0.00084,  -0.00170,   0.00007,295190036.03258,   0.00137,276127303.00310,   0.00037,  -0.00161,   0.00039,-180937266.97051,   0.00000
-338047797.63294,-162841495.18633,-25015220.51273,  -0.00085,  -0.00169,   0.00006,296011386.60516,   0.00137,276127303.00310,   0.00037,  -0.00161,   0.00039,-180115916.39794,   0.00000
-338830523.03108,-161320349.60126,-25347509.59685,  -0.00085,  -0.00168,   0.00006,296812413.53812,   0.00137,276127303.00310,   0.00037,  -0.00161,   0.00039,-179314889.46497,   0.00000
-339676014.14512,-159847201.32833,-25687182.88284,  -0.00086,  -0.00167,   0.00006,297681299.76860,   0.00137,276127303.00310,   0.00037,  -0.00161,   0.00039,-178446003.23449,   0.00000
-340495660.55261,-158362976.75260,-26026856.16883,  -0.00087,  -0.00166,   0.00005,298540470.64134,   0.00137,276127303.00310,   0.00037,  -0.00161,   0.00039,-177586832.36176,   0.00000
-341352227.96945,-156915673.18621,-26373913.65669,  -0.00087,  -0.00165,   0.00005,299444664.92236,   0.00137,276127303.00310,   0.00037,  -0.00161,   0.00039,-176682638.08074,   0.00000
-342208795.38629,-155468369.61983,-26713586.94268,  -0.00088,  -0.00165,   0.00004,300358914.11068,   0.00137,276127303.00310,   0.00037,  -0.00161,   0.00039,-175768388.89242,   0.00000
-343065362.80313,-154021066.05344,-27060644.43053,  -0.00089,  -0.00164,   0.00004,301287030.03867,   0.00137,276127303.00310,   0.00037,  -0.00161,   0.00039,-174840272.96443,   0.00000
-343958851.22932,-152610683.49640,-27407701.91839,  -0.00090,  -0.00163,   0.00003,302257279.56301,   0.00137,276127303.00310,   0.00037,  -0.00161,   0.00039,-173870023.44009,   0.00000
-344852339.65551,-151200300.93937,-27754759.40625,  -0.00090,  -0.00162,   0.00003,303238964.58663,   0.00137,276127303.00310,   0.00037,  -0.00161,   0.00039,-172888338.41647,   0.00000
-345756904.38450,-149815763.08887,-28101816.89411,  -0.00091,  -0.00161,   0.00002,304239875.20391,   0.00137,276127303.00310,   0.00037,  -0.00161,   0.00039,-171887427.79918,   0.00000
-346661469.11349,-148431225.23837,-28456258.58383,  -0.00092,  -0.00161,   0.00002,305253815.94340,   0.00137,276127303.00310,   0.00037,  -0.00161,   0.00039,-170873487.05970,   0.00000
-347591878.54902,-147057763.69068,-28803316.07169,  -0.00092,  -0.00160,   0.00002,306298724.46463,   0.00137,276127303.00310,   0.00037,  -0.00161,   0.00039,-169828578.53847,   0.00000
-348533364.28736,-145710146.84953,-29157757.76142,  -0.00093,  -0.00159,   0.00001,307364002.01898,   0.00137,276127303.00310,   0.00037,  -0.00161,   0.00039,-168763300.98411,   0.00000
-349474850.02570,-144362530.00838,-29512199.45114,  -0.00094,  -0.00158,   0.00001,308439697.66589,   0.00137,276127303.00310,   0.00037,  -0.00161,   0.00039,-167687605.33720,   0.00000
-350453256.77338,-143051834.17658,-29866641.14087,  -0.00094,  -0.00157,   0.00000,309555132.45443,   0.00137,276127303.00310,   0.00037,  -0.00161,   0.00039,-166572170.54867,   0.00000
-351431663.52106,-141741138.34478,-30228467.03247,  -0.00095,  -0.00157,  -0.00000,310682669.36535,   0.00137,276127303.00310,   0.00037,  -0.00161,   0.00039,-165444633.63775,   0.00000
-352421146.57155,-140456287.21952,-30590292.92406,  -0.00096,  -0.00156,  -0.00001,311827140.33380,   0.00137,276127303.00310,   0.00037,  -0.00161,   0.00039,-164300162.66930,   0.00000
-353410629.62204,-139171436.09426,-30952118.81566,  -0.00096,  -0.00155,  -0.00001,312981146.19965,   0.00137,276127303.00310,   0.00037,  -0.00161,   0.00039,-163146156.80345,   0.00000
-354425957.37907,-137897661.27180,-31313944.70726,  -0.00097,  -0.00154,  -0.00002,314166680.33243,   0.00137,276127303.00310,   0.00037,  -0.00161,   0.00039,-161960622.67067,   0.00000
-355452361.43890,-136649731.15589,-31675770.59885,  -0.00098,  -0.00154,  -0.00002,315368235.52351,   0.00137,276127303.00310,   0.00037,  -0.00161,   0.00039,-160759067.47959,   0.00000
-356489841.80154,-135427645.74652,-32044980.69232,  -0.00099,  -0.00153,  -0.00003,316587613.30020,   0.00137,276127303.00310,   0.00037,  -0.00161,   0.00039,-159539689.70290,   0.00000
-357516245.86138,-134179715.63060,-32406806.58391,  -0.00099,  -0.00152,  -0.00003,317806918.23405,   0.00137,276127303.00310,   0.00037,  -0.00161,   0.00039,-158320384.76905,   0.00000
-358590647.23336,-132994551.23058,-32776016.67738,  -0.00100,  -0.00151,  -0.00004,319072096.15334,   0.00137,276127303.00310,   0.00037,  -0.00161,   0.00039,-157055206.84976,   0.00000
-359665048.60535,-131809386.83056,-33145226.77085,  -0.00101,  -0.00150,  -0.00004,320345517.05456,   0.00137,276127303.00310,   0.00037,  -0.00161,   0.00039,-155781785.94854,   0.00000
-360765294.68387,-130635298.73334,-33521821.06618,  -0.00101,  -0.00150,  -0.00005,321651417.75316,   0.00137,276127303.00310,   0.00037,  -0.00161,   0.00039,-154475885.24993,   0.00000
-361839696.05586,-129450134.33331,-33898415.36151,  -0.00102,  -0.00149,  -0.00005,322943359.35457,   0.00137,276127303.00310,   0.00037,  -0.00161,   0.00039,-153183943.64852,   0.00000
-362962094.73999,-128327735.64918,-34267625.45498,  -0.00103,  -0.00148,  -0.00006,324274878.26440,   0.00137,276127303.00310,   0.00037,  -0.00161,   0.00039,-151852424.73870,   0.00000
-364073417.12132,-127179492.25850,-34644219.75032,  -0.00104,  -0.00148,  -0.00006,325610303.67227,   0.00137,276127303.00310,   0.00037,  -0.00161,   0.00039,-150516999.33083,   0.00000
-365221660.51200,-126068169.87717,-35028198.24752,  -0.00104,  -0.00147,  -0.00007,326983397.80557,   0.00137,276127303.00310,   0.00037,  -0.00161,   0.00039,-149143905.19753,   0.00000
-366380980.20548,-124982692.20238,-35404792.54285,  -0.00105,  -0.00146,  -0.00007,328367039.65786,   0.00137,276127303.00310,   0.00037,  -0.00161,   0.00039,-147760263.34524,   0.00000
-367540299.89897,-123897214.52759,-35788771.04006,  -0.00106,  -0.00145,  -0.00008,329760035.22421,   0.00137,276127303.00310,   0.00037,  -0.00161,   0.00039,-146367267.77889,   0.00000
-368710695.89525,-122837581.55934,-36172749.53726,  -0.00107,  -0.00145,  -0.00008,331165399.70131,   0.00137,276127303.00310,   0.00037,  -0.00161,   0.00039,-144961903.30178,   0.00000
-369881091.89154,-121777948.59110,-36564112.23634,  -0.00107,  -0.00144,  -0.00009,332579814.81088,   0.00137,276127303.00310,   0.00037,  -0.00161,   0.00039,-143547488.19222,   0.00000
-371088408.89717,-120755236.63220,-36948090.73354,  -0.00108,  -0.00143,  -0.00009,334025522.96291,   0.00137,276127303.00310,   0.00037,  -0.00161,   0.00039,-142101780.04018,   0.00000
-372295725.90280,-119732524.67330,-37339453.43261,  -0.00109,  -0.00143,  -0.00010,335479928.08908,   0.00137,276127303.00310,   0.00037,  -0.00161,   0.00039,-140647374.91402,   0.00000
-373528887.61498,-118720889.01720,-37730816.13169,  -0.00110,  -0.00142,  -0.00010,336962373.59466,   0.00137,276127303.00310,   0.00037,  -0.00161,   0.00039,-139164929.40843,   0.00000
-374784201.93276,-117760942.77419,-38122178.83076,  -0.00110,  -0.00141,  -0.00011,338460925.75271,   0.00137,276127303.00310,   0.00037,  -0.00161,   0.00039,-137666377.25039,   0.00000
-376002595.24120,-116764075.52184,-38513541.52983,  -0.00111,  -0.00140,  -0.00011,339938353.49508,   0.00137,276127303.00310,   0.00037,  -0.00161,   0.00039,-136188949.50802,   0.00000
-377283754.26552,-115815205.58163,-38912288.43078,  -0.00112,  -0.00140,  -0.00012,341472540.75034,   0.00137,276127303.00310,   0.00037,  -0.00161,   0.00039,-134654762.25276,   0.00000
-378550144.88611,-114881104.04516,-39311035.33172,  -0.00113,  -0.00139,  -0.00012,342995180.98001,   0.00137,276127303.00310,   0.00037,  -0.00161,   0.00039,-133132122.02308,   0.00000
-379842380.21324,-113958078.81150,-39709782.23266,  -0.00113,  -0.00138,  -0.00013,344544873.77855,   0.00137,276127303.00310,   0.00037,  -0.00161,   0.00039,-131582429.22455,   0.00000
-381145691.84317,-113060898.28438,-40115913.33547,  -0.00114,  -0.00138,  -0.00013,346106905.94481,   0.00137,276127303.00310,   0.00037,  -0.00161,   0.00039,-130020397.05829,   0.00000
-382460079.77591,-112189562.46380,-40522044.43829,  -0.00115,  -0.00137,  -0.00014,347678428.71605,   0.00137,276127303.00310,   0.00037,  -0.00161,   0.00039,-128448874.28705,   0.00000
-383789236.11238,-111303458.23948,-40920791.33923,  -0.00116,  -0.00136,  -0.00014,349269382.92511,   0.00137,276127303.00310,   0.00037,  -0.00161,   0.00039,-126857920.07799,   0.00000
-385140545.05447,-110469043.42825,-41334306.64391,  -0.00116,  -0.00136,  -0.00015,350879061.95782,   0.00137,276127303.00310,   0.00037,  -0.00161,   0.00039,-125248241.04527,   0.00000
-386491853.99655,-109634628.61702,-41740437.74672,  -0.00117,  -0.00135,  -0.00015,352490576.54231,   0.00137,276127303.00310,   0.00037,  -0.00161,   0.00039,-123636726.46078,   0.00000
-387869007.64518,-108811290.10859,-42153953.05140,  -0.00118,  -0.00135,  -0.00016,354130772.60430,   0.00137,276127303.00310,   0.00037,  -0.00161,   0.00039,-121996530.39879,   0.00000
-389242469.19287,-108028564.71044,-42567468.35609,  -0.00119,  -0.00134,  -0.00016,355761905.53830,   0.00137,276127303.00310,   0.00037,  -0.00161,   0.00039,-120365397.46479,   0.00000
-390630699.14430,-107231070.90855,-42980983.66077,  -0.00120,  -0.00133,  -0.00017,357414594.48727,   0.00137,276127303.00310,   0.00037,  -0.00161,   0.00039,-118712708.51583,   0.00000
-392055850.10508,-106470498.11602,-43401883.16732,  -0.00120,  -0.00133,  -0.00017,359099631.45081,   0.00137,276127303.00310,   0.00037,  -0.00161,   0.00039,-117027671.55228,   0.00000
-393466232.66211,-105724693.72722,-43822782.67387,  -0.00121,  -0.00132,  -0.00018,360770840.02545,   0.00137,276127303.00310,   0.00037,  -0.00161,   0.00039,-115356462.97764,   0.00000
-394902459.92570,-104989965.64122,-44243682.18042,  -0.00122,  -0.00131,  -0.00019,362467323.05151,   0.00137,276127303.00310,   0.00037,  -0.00161,   0.00039,-113659979.95159,   0.00000
-396349763.49208,-104281082.26177,-44664581.68697,  -0.00123,  -0.00131,  -0.00019,364171211.68288,   0.00137,276127303.00310,   0.00037,  -0.00161,   0.00039,-111956091.32021,   0.00000
-397833988.06781,-103609119.89166,-45092865.39539,  -0.00124,  -0.00130,  -0.00020,365906548.10849,   0.00137,276127303.00310,   0.00037,  -0.00161,   0.00039,-110220754.89461,   0.00000
-399292367.93700,-102926081.21875,-45513764.90194,  -0.00124,  -0.00130,  -0.00020,367620841.33265,   0.00137,276127303.00310,   0.00037,  -0.00161,   0.00039,-108506461.67045,   0.00000
-400787668.81554,-102279963.55518,-45949432.81223,  -0.00125,  -0.00129,  -0.00021,369368988.12288,   0.00137,276127303.00310,   0.00037,  -0.00161,   0.00039,-106758314.88022,   0.00000
-402282969.69407,-101633845.89162,-46377716.52065,  -0.00126,  -0.00128,  -0.00021,371117419.09927,   0.00137,276127303.00310,   0.00037,  -0.00161,   0.00039,-105009883.90383,   0.00000
-403815191.58195,-101024649.23740,-46813384.43094,  -0.00127,  -0.00128,  -0.00022,372896606.99079,   0.00137,276127303.00310,   0.00037,  -0.00161,   0.00039,-103230696.01230,   0.00000
-405321568.76329,-100404376.28038,-47249052.34123,  -0.00128,  -0.00127,  -0.00022,374657139.81954,   0.00137,276127303.00310,   0.00037,  -0.00161,   0.00039,-101470163.18356,   0.00000
-406864866.95398,-99821024.33270,-47684720.25152,  -0.00128,  -0.00127,  -0.00023,376445330.31022,   0.00137,276127303.00310,   0.00037,  -0.00161,   0.00039,-99681972.69288,   0.00000
-408445086.15401,-99274593.39437,-48127772.36368,  -0.00129,  -0.00126,  -0.00024,378263745.10806,   0.00137,276127303.00310,   0.00037,  -0.00161,   0.00039,-97863557.89504,   0.00000
-409999460.64750,-98717086.15324,-48563440.27397,  -0.00130,  -0.00126,  -0.00024,380060379.33996,   0.00137,276127303.00310,   0.00037,  -0.00161,   0.00039,-96066923.66313,   0.00000
-411590756.15034,-98196499.92145,-49013876.58799,  -0.00131,  -0.00125,  -0.00025,381889790.10415,   0.00137,276127303.00310,   0.00037,  -0.00161,   0.00039,-94237512.89895,   0.00000
-413182051.65317,-97675913.68967,-49456928.70015,  -0.00132,  -0.00125,  -0.00025,383718674.15777,   0.00137,276127303.00310,   0.00037,  -0.00161,   0.00039,-92408628.84532,   0.00000
-414784423.45881,-97181172.16442,-49907365.01418,  -0.00133,  -0.00124,  -0.00026,385555828.57482,   0.00137,276127303.00310,   0.00037,  -0.00161,   0.00039,-90571474.42828,   0.00000
-416423716.27380,-96723351.64853,-50357801.32821,  -0.00133,  -0.00123,  -0.00027,387419598.30306,   0.00137,276127303.00310,   0.00037,  -0.00161,   0.00039,-88707704.70004,   0.00000
-418063009.08879,-96265531.13263,-50808237.64224,  -0.00134,  -0.00123,  -0.00027,389285377.93335,   0.00137,276127303.00310,   0.00037,  -0.00161,   0.00039,-86841925.06974,   0.00000
-419713378.20658,-95833555.32327,-51266058.15813,  -0.00135,  -0.00122,  -0.00028,391159035.53212,   0.00137,276127303.00310,   0.00037,  -0.00161,   0.00039,-84968267.47098,   0.00000
-421363747.32437,-95401579.51392,-51716494.47216,  -0.00136,  -0.00122,  -0.00028,393031664.48749,   0.00137,276127303.00310,   0.00037,  -0.00161,   0.00039,-83095638.51561,   0.00000
-423062113.75431,-95032369.42045,-52181699.18993,  -0.00137,  -0.00121,  -0.00029,394939105.99088,   0.00137,276127303.00310,   0.00037,  -0.00161,   0.00039,-81188197.01221,   0.00000
-424723559.17491,-94626238.31764,-52639519.70583,  -0.00138,  -0.00121,  -0.00029,396821107.13938,   0.00137,276127303.00310,   0.00037,  -0.00161,   0.00039,-79306195.86371,   0.00000
-426458846.61420,-94293949.23352,-53104724.42359,  -0.00138,  -0.00120,  -0.00030,398755994.50423,   0.00137,276127303.00310,   0.00037,  -0.00161,   0.00039,-77371308.49887,   0.00000
-428168289.34694,-93950583.84660,-53569929.14136,  -0.00139,  -0.00120,  -0.00031,400671121.19953,   0.00137,276127303.00310,   0.00037,  -0.00161,   0.00039,-75456181.80357,   0.00000
-429877732.07969,-93607218.45968,-54035133.85913,  -0.00140,  -0.00119,  -0.00031,402587759.60220,   0.00137,276127303.00310,   0.00037,  -0.00161,   0.00039,-73539543.40090,   0.00000
-431624095.82178,-93300774.08210,-54507722.77876,  -0.00141,  -0.00119,  -0.00032,404532826.62005,   0.00137,276127303.00310,   0.00037,  -0.00161,   0.00039,-71594476.38305,   0.00000
-433381535.86667,-93020174.41107,-54980311.69840,  -0.00142,  -0.00118,  -0.00033,406481963.25068,   0.00137,276127303.00310,   0.00037,  -0.00161,   0.00039,-69645339.75242,   0.00000
-435175896.92092,-92776495.74938,-55452900.61803,  -0.00143,  -0.00118,  -0.00033,408456261.10320,   0.00137,276127303.00310,   0.00037,  -0.00161,   0.00039,-67671041.89990,   0.00000
-436944413.26862,-92521740.78489,-55932873.73954,  -0.00144,  -0.00118,  -0.00034,410413564.78188,   0.00137,276127303.00310,   0.00037,  -0.00161,   0.00039,-65713738.22122,   0.00000
-438749850.62566,-92303906.82974,-56412846.86104,  -0.00144,  -0.00117,  -0.00034,412395859.79889,   0.00137,276127303.00310,   0.00037,  -0.00161,   0.00039,-63731443.20421,   0.00000
-440555287.98271,-92086072.87460,-56892819.98255,  -0.00145,  -0.00117,  -0.00035,414379269.66636,   0.00137,276127303.00310,   0.00037,  -0.00161,   0.00039,-61748033.33673,   0.00000
-442397646.34910,-91905159.92880,-57372793.10405,  -0.00146,  -0.00116,  -0.00036,416387465.76069,   0.00137,276127303.00310,   0.00037,  -0.00161,   0.00039,-59739837.24241,   0.00000
-444225236.31176,-91739015.38674,-57860150.42743,  -0.00147,  -0.00116,  -0.00036,418381061.65747,   0.00137,276127303.00310,   0.00037,  -0.00161,   0.00039,-57746241.34562,   0.00000
-446089747.28376,-91609791.85403,-58347507.75080,  -0.00148,  -0.00115,  -0.00037,420399242.00756,   0.00137,276127303.00310,   0.00037,  -0.00161,   0.00039,-55728060.99553,   0.00000
-447954258.25576,-91480568.32132,-58842249.27605,  -0.00149,  -0.00115,  -0.00038,422421392.26401,   0.00137,276127303.00310,   0.00037,  -0.00161,   0.00039,-53705910.73909,   0.00000
-449844613.93430,-91362421.09141,-59336990.80129,  -0.00150,  -0.00114,  -0.00038,424465559.33488,   0.00137,276127303.00310,   0.00037,  -0.00161,   0.00039,-51661743.66821,   0.00000
-451731277.51191,-91284886.97178,-59831732.32653,  -0.00151,  -0.00114,  -0.00039,426494252.76583,   0.00137,276127303.00310,   0.00037,  -0.00161,   0.00039,-49633050.23727,   0.00000
-453643785.79606,-91218429.15495,-60326473.85178,  -0.00151,  -0.00114,  -0.00039,428544820.31034,   0.00137,276127303.00310,   0.00037,  -0.00161,   0.00039,-47582482.69275,   0.00000
-455556294.08021,-91151971.33813,-60828599.57889,  -0.00152,  -0.00113,  -0.00040,430599257.16867,   0.00137,276127303.00310,   0.00037,  -0.00161,   0.00039,-45528045.83443,   0.00000
-457490954.96997,-91137202.93439,-61330725.30600,  -0.00153,  -0.00113,  -0.00041,432659093.55285,   0.00137,276127303.00310,   0.00037,  -0.00161,   0.00039,-43468209.45024,   0.00000
-459451460.56628,-91133510.83346,-61832851.03312,  -0.00154,  -0.00113,  -0.00041,434740659.65240,   0.00137,276127303.00310,   0.00037,  -0.00161,   0.00039,-41386643.35070,   0.00000
-461397197.75884,-91144587.13626,-62342360.96210,  -0.00155,  -0.00112,  -0.00042,436807237.43933,   0.00137,276127303.00310,   0.00037,  -0.00161,   0.00039,-39320065.56377,   0.00000
-463368779.65794,-91166739.74187,-62851870.89108,  -0.00156,  -0.00112,  -0.00043,438895491.52480,   0.00137,276127303.00310,   0.00037,  -0.00161,   0.00039,-37231811.47829,   0.00000
-465351437.85985,-91214737.05402,-63361380.82006,  -0.00157,  -0.00111,  -0.00043,440986591.25902,   0.00137,276127303.00310,   0.00037,  -0.00161,   0.00039,-35140711.74408,   0.00000
-467371017.07111,-91299655.37552,-63878274.95092,  -0.00158,  -0.00111,  -0.00044,443104709.87205,   0.00137,276127303.00310,   0.00037,  -0.00161,   0.00039,-33022593.13105,   0.00000
-469364751.57583,-91373497.39421,-64395169.08177,  -0.00159,  -0.00111,  -0.00045,445202314.17418,   0.00137,276127303.00310,   0.00037,  -0.00161,   0.00039,-30924988.82892,   0.00000
-471395407.08989,-91484260.42225,-64912063.21262,  -0.00159,  -0.00110,  -0.00045,447323671.85064,   0.00137,276127303.00310,   0.00037,  -0.00161,   0.00039,-28803631.15246,   0.00000
-473437138.90675,-91620868.15683,-65436341.54534,  -0.00160,  -0.00110,  -0.00046,449450921.32313,   0.00137,276127303.00310,   0.00037,  -0.00161,   0.00039,-26676381.67996,   0.00000
-475504715.43016,-91768552.19422,-65960619.87806,  -0.00161,  -0.00110,  -0.00047,451599637.28471,   0.00137,276127303.00310,   0.00037,  -0.00161,   0.00039,-24527665.71839,   0.00000
-477568599.85263,-91956849.34189,-66492282.41265,  -0.00162,  -0.00109,  -0.00047,453735381.89164,   0.00137,276127303.00310,   0.00037,  -0.00161,   0.00039,-22391921.11145,   0.00000
-479647252.67884,-92130378.08581,-67016560.74537,  -0.00163,  -0.00109,  -0.00048,455887123.17183,   0.00137,276127303.00310,   0.00037,  -0.00161,   0.00039,-20240179.83127,   0.00000
-481748058.11066,-92355596.24283,-67548223.27996,  -0.00164,  -0.00109,  -0.00049,458046838.11807,   0.00137,276127303.00310,   0.00037,  -0.00161,   0.00039,-18080464.88502,   0.00000
-483848863.54248,-92580814.39984,-68087270.01642,  -0.00165,  -0.00108,  -0.00050,460210209.71720,   0.00137,276127303.00310,   0.00037,  -0.00161,   0.00039,-15917093.28589,   0.00000
-485960745.27710,-92831877.26340,-68618932.55101,  -0.00166,  -0.00108,  -0.00050,462372824.50361,   0.00137,276127303.00310,   0.00037,  -0.00161,   0.00039,-13754478.49948,   0.00000
-488098471.71827,-93094016.42976,-69157979.28747,  -0.00167,  -0.00108,  -0.00051,464560055.47252,   0.00137,276127303.00310,   0.00037,  -0.00161,   0.00039,-11567247.53058,   0.00000
-490232506.05850,-93396768.70640,-69704410.22580,  -0.00168,  -0.00108,  -0.00052,466734237.90768,   0.00137,276127303.00310,   0.00037,  -0.00161,   0.00039,-9393065.09541,   0.00000
-492392385.10527,-93710597.28585,-70250841.16413,  -0.00169,  -0.00107,  -0.00052,468929733.00796,   0.00137,276127303.00310,   0.00037,  -0.00161,   0.00039,-7197569.99514,   0.00000
-494578108.85859,-94035502.16810,-70797272.10246,  -0.00169,  -0.00107,  -0.00053,471146518.41410,   0.00137,276127303.00310,   0.00037,  -0.00161,   0.00039,-4980784.58900,   0.00000
-496760140.51097,-94401020.16063,-71343703.04079,  -0.00170,  -0.00107,  -0.00054,473346910.47813,   0.00137,276127303.00310,   0.00037,  -0.00161,   0.00039,-2780392.52497,   0.00000
-498968016.86989,-94777614.45596,-71897518.18099,  -0.00171,  -0.00106,  -0.00055,475571907.38525,   0.00137,276127303.00310,   0.00037,  -0.00161,   0.00039,-555395.61785,   0.00000
-499517811.53493,-94869712.03945,-72037059.97414,  -0.00172,  -0.00106,  -0.00055,476127303.76797,   0.00137,276127303.00310,   0.00037,  -0.00161,   0.00039,   0.76487,   0.00000
-499490831.38404,-94976085.59556,-72185057.74204,  -0.00172,  -0.00106,  -0.00055,476127303.76797,   0.00138,276134341.54628,   0.00037,  -0.00160,   0.00039,  -0.00000,   2.00000
-499474034.35699,-95177460.09237,-72384614.40260,  -0.00173,  -0.00106,  -0.00056,478367543.73832,   0.00138,276143872.31271,   0.00036,  -0.00160,   0.00038,   0.00000,   2.00000
-499460431.96909,-95378217.70919,-72576321.29352,  -0.00174,  -0.00106,  -0.00057,478373994.66506,   0.00139,276153388.03390,   0.00035,  -0.00160,   0.00038,   0.00000,   2.00000
-499453527.11465,-95611745.74861,-72776881.11309,  -0.00175,  -0.00105,  -0.00057,478413617.40043,   0.00140,276163030.16748,   0.00034,  -0.00159,   0.00037,   0.00000,   2.00000
-499444992.86668,-95835611.33566,-72972975.15390,  -0.00176,  -0.00105,  -0.00058,478399252.77042,   0.00141,276172567.86610,   0.00033,  -0.00159,   0.00037,   0.00000,   2.00000
-499455322.33837,-96117958.63126,-73170709.13256,  -0.00177,  -0.00105,  -0.00059,478437721.37632,   0.00142,276182226.67144,   0.00032,  -0.00159,   0.00036,  -0.00000,   2.00000
-499465284.53493,-96398959.76709,-73367374.49065,  -0.00178,  -0.00105,  -0.00060,478447712.85026,   0.00143,276191884.59039,   0.00031,  -0.00158,   0.00036,   0.00000,   2.00000
-499471459.52462,-96678264.27243,-73569763.35827,  -0.00179,  -0.00105,  -0.00060,478461123.22151,   0.00144,276201556.21722,   0.00030,  -0.00158,   0.00035,   0.00000,   2.00000
-499494925.74815,-97007227.18409,-73770330.67453,  -0.00180,  -0.00104,  -0.00061,478475519.98016,   0.00145,276211245.45545,   0.00029,  -0.00158,   0.00035,   0.00000,   2.00000
-499522684.70143,-97343446.13406,-73966350.69474,  -0.00181,  -0.00104,  -0.00062,478506503.14280,   0.00146,276221022.83593,   0.00028,  -0.00157,   0.00034,  -0.00000,   2.00000
-499541717.31887,-97668868.61606,-74171518.33974,  -0.00182,  -0.00104,  -0.00063,478499178.32147,   0.00146,276230724.83832,   0.00027,  -0.00157,   0.00034,   0.00000,   2.00000
-499582612.79432,-98052503.33370,-74371346.20023,  -0.00183,  -0.00104,  -0.00063,478534652.39920,   0.00147,276240533.78187,   0.00026,  -0.00157,   0.00033,   0.00000,   2.00000
-499622882.11073,-98434287.00493,-74570049.69435,  -0.00184,  -0.00104,  -0.00064,478544879.99921,   0.00148,276250341.67876,   0.00025,  -0.00156,   0.00033,   0.00000,   2.00000
-499667796.06981,-98839329.70081,-74774021.26177,  -0.00184,  -0.00104,  -0.00065,478560848.67123,   0.00149,276260172.86281,   0.00024,  -0.00156,   0.00032,   0.00000,   2.00000
-499720751.94829,-99267885.64691,-74976450.42348,  -0.00185,  -0.00103,  -0.00066,478573418.23694,   0.00150,276270012.64314,   0.00023,  -0.00156,   0.00032,   0.00000,   2.00000
-499777720.49589,-99703090.50326,-75174216.92152,  -0.00186,  -0.00103,  -0.00066,478604650.15814,   0.00151,276279940.29892,   0.00022,  -0.00155,   0.00031,   0.00000,   2.00000
-499834337.16732,-100152538.93758,-75380718.81354,  -0.00187,  -0.00103,  -0.00067,478599954.31075,   0.00152,276289802.59732,   0.00021,  -0.00155,   0.00031,   0.00000,   2.00000
-499903567.99536,-100633947.64183,-75582106.85644,  -0.00188,  -0.00103,  -0.00068,478633589.03343,   0.00153,276299762.60275,   0.00020,  -0.00155,   0.00030,   0.00000,   2.00000
-499968359.88866,-101112594.47075,-75789061.34483,  -0.00189,  -0.00103,  -0.00069,478647607.01693,   0.00154,276309736.50275,   0.00019,  -0.00154,   0.00030,   0.00000,   2.00000
-500044420.30512,-101614738.23389,-75987644.44037,  -0.00190,  -0.00103,  -0.00070,478656975.60683,   0.00155,276319704.35076,   0.00017,  -0.00154,   0.00029,   0.00000,   2.00000
-500121013.59557,-102139041.99660,-76198125.36245,  -0.00191,  -0.00103,  -0.00070,478676990.38550,   0.00156,276329711.28734,   0.00016,  -0.00154,   0.00029,   0.00000,   2.00000
-500213443.31390,-102695200.21887,-76396624.72916,  -0.00192,  -0.00102,  -0.00071,478707413.77393,   0.00157,276339801.10492,   0.00015,  -0.00153,   0.00028,  -0.00000,   2.00000
-500296424.56793,-103239595.37628,-76604223.87357,  -0.00193,  -0.00102,  -0.00072,478700769.45275,   0.00158,276349816.20038,   0.00014,  -0.00153,   0.00028,   0.00000,   2.00000
-500387979.40511,-103814842.76543,-76813290.23064,  -0.00194,  -0.00102,  -0.00073,478738398.99472,   0.00159,276359944.55459,   0.00013,  -0.00153,   0.00027,  -0.00000,   2.00000
-500490422.14383,-104413051.89837,-77013906.30953,  -0.00195,  -0.00102,  -0.00074,478748135.60486,   0.00159,276370067.21420,   0.00012,  -0.00152,   0.00027,   0.00000,   2.00000
-500596457.05442,-105033239.66116,-77219562.07058,  -0.00196,  -0.00102,  -0.00074,478765078.57253,   0.00160,276380214.64052,   0.00011,  -0.00152,   0.00026,  -0.00000,   2.00000
-500697517.54848,-105649861.18555,-77430650.04562,  -0.00197,  -0.00102,  -0.00075,478779581.83457,   0.00161,276390376.39550,   0.00010,  -0.00152,   0.00025,   0.00000,   2.00000
-500809277.76630,-106289212.07274,-77633244.27877,  -0.00198,  -0.00102,  -0.00076,478789477.89339,   0.00162,276400532.76534,   0.00009,  -0.00151,   0.00025,   0.00000,   2.00000
-500917038.44778,-106932841.02858,-77844348.01866,  -0.00199,  -0.00102,  -0.00077,478828589.15582,   0.00163,276410807.40496,   0.00008,  -0.00151,   0.00024,   0.00000,   2.00000
-501039049.20077,-107616017.84019,-78050111.51742,  -0.00200,  -0.00102,  -0.00078,478820380.05066,   0.00164,276420999.31260,   0.00007,  -0.00151,   0.00024,   0.00000,   2.00000
-501160496.53558,-108303608.19830,-78257594.77724,  -0.00201,  -0.00102,  -0.00078,478856021.89098,   0.00165,276431294.30828,   0.00006,  -0.00150,   0.00023,   0.00000,   2.00000
-501283981.04413,-109004706.31241,-78466916.92206,  -0.00202,  -0.00102,  -0.00079,478848954.97718,   0.00166,276441511.27986,   0.00005,  -0.00150,   0.00023,  -0.00000,   2.00000
-501406800.34057,-109710032.11512,-78677894.55895,  -0.00203,  -0.00102,  -0.00080,478884693.57995,   0.00167,276451831.44055,   0.00004,  -0.00150,   0.00022,   0.00000,   2.00000
-501544441.22071,-110462414.48798,-78886503.98935,  -0.00204,  -0.00102,  -0.00081,478901453.81674,   0.00168,276462173.85920,   0.00003,  -0.00149,   0.00022,  -0.00000,   2.00000
-501672023.24728,-111185543.02877,-79094204.46779,  -0.00205,  -0.00102,  -0.00082,478910033.97674,   0.00169,276472504.03534,   0.00002,  -0.00149,   0.00021,   0.00000,   2.00000
-501810527.43275,-111955089.96642,-79306206.07219,  -0.00206,  -0.00102,  -0.00083,478930644.90276,   0.00170,276482872.54800,   0.00001,  -0.00149,   0.00020,   0.00000,   2.00000
-501959882.27678,-112754102.53371,-79512533.03466,  -0.00207,  -0.00102,  -0.00083,478965889.20202,   0.00171,276493340.71760,  -0.00000,  -0.00148,   0.00020,   0.00000,   2.00000
-502102592.55424,-113540768.10797,-79721159.47228,  -0.00208,  -0.00102,  -0.00084,478956523.12839,   0.00172,276503720.07724,  -0.00001,  -0.00148,   0.00019,   0.00000,   2.00000
-502252260.30592,-114356184.40459,-79930760.20082,  -0.00209,  -0.00102,  -0.00085,478995597.55441,   0.00173,276514214.97754,  -0.00003,  -0.00148,   0.00019,   0.00000,   2.00000
-502395241.58964,-115159210.02215,-80142646.49787,  -0.00210,  -0.00102,  -0.00086,478986304.38424,   0.00174,276524621.23959,  -0.00004,  -0.00147,   0.00018,   0.00000,   2.00000
-502545004.82550,-115990766.72699,-80355426.06626,  -0.00211,  -0.00102,  -0.00087,479025549.79647,   0.00175,276535143.41685,  -0.00005,  -0.00147,   0.00018,   0.00000,   2.00000
-502700573.29339,-116843150.34547,-80566149.91827,  -0.00212,  -0.00102,  -0.00088,479040316.76937,   0.00176,276545677.81698,  -0.00006,  -0.00147,   0.00017,   0.00000,   2.00000
-502861822.88079,-117716224.99935,-80774806.70536,  -0.00213,  -0.00102,  -0.00089,479055178.03872,   0.00177,276556224.64525,  -0.00007,  -0.00146,   0.00016,   0.00000,   2.00000
-503024829.93327,-118609293.45338,-80988045.33514,  -0.00214,  -0.00102,  -0.00089,479073901.80197,   0.00178,276566799.95215,  -0.00008,  -0.00146,   0.00016,   0.00000,   2.00000
-503185417.06056,-119497529.32470,-81199723.36585,  -0.00215,  -0.00102,  -0.00090,479085862.12677,   0.00179,276577375.19760,  -0.00009,  -0.00146,   0.00015,   0.00000,   2.00000
-503351421.43940,-120406181.47575,-81409269.61084,  -0.00216,  -0.00102,  -0.00091,479100976.04946,   0.00180,276587963.48884,  -0.00010,  -0.00145,   0.00015,  -0.00000,   2.00000
-503511114.90067,-121309308.31564,-81623911.25457,  -0.00217,  -0.00102,  -0.00092,479116776.88403,   0.00181,276598567.66484,  -0.00011,  -0.00145,   0.00014,  -0.00000,   2.00000
-503688311.55359,-122265662.70141,-81831920.97245,  -0.00218,  -0.00102,  -0.00093,479156280.10509,   0.00182,276609286.66424,  -0.00012,  -0.00145,   0.00013,   0.00000,   2.00000
-503858324.51530,-123209027.73561,-82042193.87155,  -0.00219,  -0.00102,  -0.00094,479147556.18563,   0.00183,276619917.90594,  -0.00013,  -0.00144,   0.00013,   0.00000,   2.00000
-504021846.00673,-124146597.94268,-82257510.74378,  -0.00220,  -0.00102,  -0.00095,479163532.39768,   0.00184,276630565.30560,  -0.00014,  -0.00144,   0.00012,   0.00000,   2.00000
-504202437.51287,-125136948.22413,-82466066.92626,  -0.00221,  -0.00102,  -0.00096,479203430.39039,   0.00185,276641328.53761,  -0.00016,  -0.00144,   0.00012,   0.00000,   2.00000
-504376293.20217,-126121135.64390,-82679616.77633,  -0.00222,  -0.00102,  -0.00097,479219688.27359,   0.00186,276652108.14681,  -0.00017,  -0.00143,   0.00011,   0.00000,   2.00000
-504550414.91811,-127117406.56969,-82894758.27659,  -0.00223,  -0.00103,  -0.00097,479214571.26341,   0.00187,276662814.64804,  -0.00018,  -0.00143,   0.00010,   0.00000,   2.00000
-504733567.81408,-128140721.81763,-83103646.53634,  -0.00224,  -0.00103,  -0.00098,479251472.68311,   0.00188,276673623.73421,  -0.00019,  -0.00143,   0.00010,   0.00000,   2.00000
-504909804.63190,-129157596.85943,-83317476.61703,  -0.00225,  -0.00103,  -0.00099,479267913.41542,   0.00189,276684449.47616,  -0.00020,  -0.00142,   0.00009,   0.00000,   2.00000
-505090464.13286,-130193795.82708,-83528923.75211,  -0.00226,  -0.00103,  -0.00100,479284076.64813,   0.00190,276695290.49262,  -0.00021,  -0.00142,   0.00008,   0.00000,   2.00000
-505271026.88074,-131241819.70731,-83741925.67137,  -0.00227,  -0.00103,  -0.00101,479279340.82887,   0.00191,276706059.51408,  -0.00022,  -0.00142,   0.00008,   0.00000,   2.00000
-505448907.83972,-132290513.30485,-83955844.29743,  -0.00228,  -0.00103,  -0.00102,479316889.41709,   0.00192,276716933.04772,  -0.00023,  -0.00142,   0.00007,   0.00000,   2.00000
-505630930.54810,-133358232.78508,-84167309.49030,  -0.00229,  -0.00103,  -0.00103,479333340.37148,   0.00193,276727822.55668,  -0.00025,  -0.00141,   0.00006,   0.00000,   2.00000
-505812974.28609,-134444116.20992,-84382904.26608,  -0.00230,  -0.00103,  -0.00104,479353830.42236,   0.00194,276738744.64044,  -0.00026,  -0.00141,   0.00006,   0.00000,   2.00000
-505998882.63608,-135548713.71103,-84595971.56247,  -0.00231,  -0.00104,  -0.00105,479370554.08764,   0.00195,276749683.32547,  -0.00027,  -0.00141,   0.00005,   0.00000,   2.00000
-506181423.96394,-136646883.94377,-84807234.58830,  -0.00232,  -0.00104,  -0.00106,479383547.67033,   0.00196,276760623.03671,  -0.00028,  -0.00140,   0.00005,   0.00000,   2.00000
-506367969.58036,-137769942.44539,-85018520.41301,  -0.00233,  -0.00104,  -0.00107,479425396.06042,   0.00197,276771683.37971,  -0.00029,  -0.00140,   0.00004,   0.00000,   2.00000
-506553759.95392,-138904305.01815,-85231250.71446,  -0.00234,  -0.00104,  -0.00108,479421480.33258,   0.00198,276782673.75226,  -0.00030,  -0.00140,   0.00003,   0.00000,   2.00000
-506742986.93546,-140056917.63205,-85441365.34364,  -0.00235,  -0.00104,  -0.00109,479438628.45712,   0.00199,276793681.73077,  -0.00031,  -0.00139,   0.00003,   0.00000,   2.00000
-506924565.66535,-141201932.15875,-85656204.92253,  -0.00236,  -0.00105,  -0.00110,479455841.91769,   0.00200,276804707.52173,  -0.00032,  -0.00139,   0.00002,   0.00000,   2.00000
-507109435.31596,-142365037.43609,-85868370.65740,  -0.00237,  -0.00105,  -0.00110,479473174.80629,   0.00201,276815751.38178,  -0.00034,  -0.00139,   0.00001,   0.00000,   2.00000
-507290667.37881,-143521201.94911,-86078653.34182,  -0.00238,  -0.00105,  -0.00111,479486495.64172,   0.00202,276826796.62767,  -0.00035,  -0.00139,   0.00000,   0.00000,   2.00000
-507475178.49630,-144701248.77475,-86288716.19603,  -0.00239,  -0.00105,  -0.00112,479529034.87756,   0.00203,276837963.84568,  -0.00036,  -0.00138,  -0.00000,  -0.00000,   2.00000
-507658438.97703,-145892273.73789,-86500147.42774,  -0.00240,  -0.00105,  -0.00113,479525721.99798,   0.00204,276849062.88204,  -0.00037,  -0.00138,  -0.00001,  -0.00000,   2.00000
-507844558.21474,-147100908.07083,-86708814.32952,  -0.00241,  -0.00106,  -0.00114,479543496.34864,   0.00205,276860181.01606,  -0.00038,  -0.00138,  -0.00002,   0.00000,   2.00000
-508022695.11932,-148301351.87080,-86922103.40717,  -0.00242,  -0.00106,  -0.00115,479561102.47588,   0.00206,276871317.48297,  -0.00039,  -0.00137,  -0.00002,   0.00000,   2.00000
-508210063.96065,-149544005.10351,-87131701.98471,  -0.00243,  -0.00106,  -0.00116,479583455.90787,   0.00207,276882491.44517,  -0.00040,  -0.00137,  -0.00003,   0.00000,   2.00000
-508386943.02217,-150759890.22419,-87342587.29234,  -0.00244,  -0.00106,  -0.00117,479617900.83344,   0.00209,276893752.61075,  -0.00042,  -0.00137,  -0.00004,   0.00000,   2.00000
-508568612.73497,-152011250.84802,-87553874.38643,  -0.00245,  -0.00107,  -0.00118,479619576.88619,   0.00210,276904965.41752,  -0.00043,  -0.00137,  -0.00004,   0.00000,   2.00000
-508746212.36701,-153254853.04014,-87763147.91804,  -0.00246,  -0.00107,  -0.00119,479633431.94165,   0.00211,276916180.22935,  -0.00044,  -0.00136,  -0.00005,   0.00000,   2.00000
-508926092.65901,-154515400.05659,-87969506.01023,  -0.00247,  -0.00107,  -0.00120,479651853.64431,   0.00212,276927415.65193,  -0.00045,  -0.00136,  -0.00006,   0.00000,   2.00000
-509103912.60986,-155791797.78609,-88179454.53861,  -0.00248,  -0.00107,  -0.00121,479674508.07814,   0.00213,276938688.82158,  -0.00046,  -0.00136,  -0.00007,   0.00000,   2.00000
-509273337.17824,-157059230.76646,-88393870.55463,  -0.00249,  -0.00108,  -0.00122,479692641.99932,   0.00214,276949981.02256,  -0.00047,  -0.00135,  -0.00007,   0.00000,   2.00000
-509448976.62988,-158344207.71718,-88598734.35440,  -0.00250,  -0.00108,  -0.00123,479707315.60692,   0.00215,276961277.79688,  -0.00049,  -0.00135,  -0.00008,   0.00000,   2.00000
-509620237.00407,-159626168.47123,-88803835.32251,  -0.00251,  -0.00108,  -0.00124,479746594.81445,   0.00216,276972679.84707,  -0.00050,  -0.00135,  -0.00009,  -0.00000,   2.00000
-509791015.71506,-160941999.02760,-89015665.85342,  -0.00252,  -0.00109,  -0.00125,479753558.66916,   0.00217,276984054.13733,  -0.00051,  -0.00135,  -0.00009,  -0.00000,   2.00000
-509957616.97405,-162244400.61434,-89223117.43317,  -0.00253,  -0.00109,  -0.00126,479742655.27035,   0.00218,276995327.84857,  -0.00052,  -0.00134,  -0.00010,   0.00000,   2.00000
-510125588.03718,-163567880.42260,-89429696.49721,  -0.00254,  -0.00109,  -0.00127,479787027.37448,   0.00219,277006727.14166,  -0.00053,  -0.00134,  -0.00011,   0.00000,   2.00000
-510284872.28206,-164881773.77384,-89640645.89321,  -0.00255,  -0.00109,  -0.00128,479805563.64622,   0.00220,277018145.90156,  -0.00055,  -0.00134,  -0.00012,   0.00000,   2.00000
-510449872.82723,-166212592.39083,-89841915.48958,  -0.00256,  -0.00110,  -0.00129,479820852.08485,   0.00221,277029570.60012,  -0.00056,  -0.00134,  -0.00012,   0.00000,   2.00000
-510611849.89954,-167558087.00529,-90046507.59731,  -0.00257,  -0.00110,  -0.00130,479844601.30153,   0.00222,277041035.55011,  -0.00057,  -0.00133,  -0.00013,   0.00000,   2.00000
-510765003.51518,-168893680.12278,-90255422.95248,  -0.00258,  -0.00110,  -0.00131,479863339.00852,   0.00223,277052520.16593,  -0.00058,  -0.00133,  -0.00014,   0.00000,   2.00000
-510925236.03383,-170264616.52460,-90457839.89067,  -0.00259,  -0.00111,  -0.00132,479863112.44681,   0.00225,277063946.93323,  -0.00059,  -0.00133,  -0.00015,  -0.00000,   2.00000
-511070599.29995,-171605558.53083,-90667780.63835,  -0.00260,  -0.00111,  -0.00133,479901937.16998,   0.00226,277075475.03889,  -0.00060,  -0.00133,  -0.00015,   0.00000,   2.00000
-511222829.97357,-172981750.55013,-90871166.03140,  -0.00261,  -0.00112,  -0.00134,479902004.90117,   0.00227,277086946.27633,  -0.00062,  -0.00133,  -0.00016,   0.00000,   2.00000
-511369997.93787,-174353075.01140,-91074443.48365,  -0.00262,  -0.00112,  -0.00135,479942040.95613,   0.00228,277098523.06985,  -0.00063,  -0.00132,  -0.00017,   0.00000,   2.00000
-511513954.00304,-175734021.09244,-91278734.71081,  -0.00263,  -0.00112,  -0.00136,479941244.71883,   0.00229,277110039.25564,  -0.00064,  -0.00132,  -0.00018,   0.00000,   2.00000
-511653252.74366,-177105674.81280,-91480790.26637,  -0.00264,  -0.00113,  -0.00137,479956048.35621,   0.00230,277121558.36853,  -0.00065,  -0.00132,  -0.00018,   0.00000,   2.00000
-511797918.64041,-178520449.10737,-91680334.19028,  -0.00265,  -0.00113,  -0.00138,480007370.06811,   0.00231,277133227.74459,  -0.00066,  -0.00132,  -0.00019,   0.00000,   2.00000
-511933823.52039,-179920347.06599,-91882016.26678,  -0.00265,  -0.00113,  -0.00139,480001386.13299,   0.00232,277144815.00870,  -0.00068,  -0.00131,  -0.00020,   0.00000,   2.00000
-512064988.99162,-181310677.17764,-92081432.10814,  -0.00266,  -0.00114,  -0.00141,480016362.98814,   0.00233,277156405.29477,  -0.00069,  -0.00131,  -0.00021,   0.00000,   2.00000
-512192086.44468,-182714318.67019,-92283819.09456,  -0.00267,  -0.00114,  -0.00142,480041367.45078,   0.00234,277168038.91365,  -0.00070,  -0.00131,  -0.00022,   0.00000,   2.00000
-512319405.44009,-184132283.83380,-92482676.05619,  -0.00268,  -0.00115,  -0.00143,480062271.38051,   0.00235,277179698.93513,  -0.00071,  -0.00131,  -0.00022,   0.00000,   2.00000
-512442927.22618,-185559466.84229,-92682440.88152,  -0.00269,  -0.00115,  -0.00144,480062237.30786,   0.00237,277191300.82076,  -0.00072,  -0.00131,  -0.00023,   0.00000,   2.00000
-512561000.03585,-186980335.07873,-92881849.80654,  -0.00270,  -0.00115,  -0.00145,480102791.61366,   0.00238,277203008.16253,  -0.00074,  -0.00130,  -0.00024,   0.00000,   2.00000
-512675170.01020,-188410355.71349,-93082130.13164,  -0.00271,  -0.00116,  -0.00146,480102963.11395,   0.00239,277214657.97638,  -0.00075,  -0.00130,  -0.00025,   0.00000,   2.00000
-512788345.81878,-189835070.48380,-93275582.59396,  -0.00272,  -0.00116,  -0.00147,480139284.91589,   0.00240,277226395.69297,  -0.00076,  -0.00130,  -0.00026,   0.00000,   2.00000
-512897648.57481,-191291406.81105,-93475012.82058,  -0.00273,  -0.00117,  -0.00148,480150108.53233,   0.00241,277238118.29398,  -0.00077,  -0.00130,  -0.00026,   0.00000,   2.00000
-513001959.39153,-192737389.55216,-93672053.56468,  -0.00274,  -0.00117,  -0.00149,480165565.60593,   0.00242,277249844.46277,  -0.00079,  -0.00130,  -0.00027,   0.00000,   2.00000
-513101361.38019,-194173066.82102,-93866728.28767,  -0.00275,  -0.00118,  -0.00150,480180976.51813,   0.00243,277261574.02199,  -0.00080,  -0.00129,  -0.00028,   0.00000,   2.00000
-513200374.72503,-195622202.63195,-94057695.54372,  -0.00276,  -0.00118,  -0.00151,480202667.77644,   0.00244,277273331.91602,  -0.00081,  -0.00129,  -0.00029,   0.00000,   2.00000
-513294324.80856,-197083225.63876,-94251331.59988,  -0.00277,  -0.00119,  -0.00152,480228887.20904,   0.00245,277285135.94975,  -0.00082,  -0.00129,  -0.00030,   0.00000,   2.00000
-513383797.99437,-198552972.67473,-94445731.50578,  -0.00278,  -0.00119,  -0.00153,480229847.92998,   0.00247,277296884.95239,  -0.00083,  -0.00129,  -0.00031,   0.00000,   2.00000
-513467527.51514,-200014923.96898,-94639542.99071,  -0.00279,  -0.00120,  -0.00154,480270903.94634,   0.00248,277308739.11842,  -0.00085,  -0.00129,  -0.00031,  -0.00000,   2.00000
-513547076.36885,-201463403.26102,-94829134.86202,  -0.00280,  -0.00120,  -0.00156,480261096.05298,   0.00249,277320495.28229,  -0.00086,  -0.00129,  -0.00032,   0.00000,   2.00000
-513625430.00128,-202946918.43826,-95019844.39311,  -0.00281,  -0.00121,  -0.00157,480294274.59258,   0.00250,277332324.78303,  -0.00087,  -0.00128,  -0.00033,   0.00000,   2.00000
-513694149.96873,-204418047.32515,-95214493.38774,  -0.00282,  -0.00121,  -0.00158,480314459.49639,   0.00251,277344175.59934,  -0.00088,  -0.00128,  -0.00034,   0.00000,   2.00000
-513766493.49379,-205903191.68891,-95398837.59228,  -0.00283,  -0.00122,  -0.00159,480332541.73156,   0.00252,277356039.06651,  -0.00090,  -0.00128,  -0.00035,   0.00000,   2.00000
-513829204.69471,-207375810.36074,-95587140.02913,  -0.00284,  -0.00122,  -0.00160,480352784.37232,   0.00253,277367923.75089,  -0.00091,  -0.00128,  -0.00036,   0.00000,   2.00000
-513887034.51262,-208856917.35448,-95776122.37198,  -0.00285,  -0.00123,  -0.00161,480354411.71919,   0.00254,277379755.66637,  -0.00092,  -0.00128,  -0.00037,   0.00000,   2.00000
-513942839.68270,-210352524.79271,-95962841.20125,  -0.00286,  -0.00123,  -0.00162,480402666.36757,   0.00256,277391719.55078,  -0.00093,  -0.00128,  -0.00037,   0.00000,   2.00000
-513989810.11500,-211833085.83102,-96151733.37428,  -0.00287,  -0.00124,  -0.00163,480397635.12873,   0.00257,277403603.97155,  -0.00094,  -0.00128,  -0.00038,   0.00000,   2.00000
-514035494.14778,-213325677.21046,-96336588.19142,  -0.00288,  -0.00124,  -0.00164,480420591.24388,   0.00258,277415519.83032,  -0.00096,  -0.00127,  -0.00039,   0.00000,   2.00000
-514076192.80881,-214806935.51235,-96518979.04016,  -0.00289,  -0.00125,  -0.00166,480436563.64597,   0.00259,277427439.41331,  -0.00097,  -0.00127,  -0.00040,   0.00000,   2.00000
-514107040.87513,-216294909.11141,-96708338.40849,  -0.00290,  -0.00125,  -0.00167,480443145.79215,   0.00260,277439325.63046,  -0.00098,  -0.00127,  -0.00041,  -0.00000,   2.00000
-514140198.84046,-217798045.69938,-96888883.56686,  -0.00291,  -0.00126,  -0.00168,480487405.77456,   0.00261,277451326.86770,  -0.00099,  -0.00127,  -0.00042,   0.00000,   2.00000
-514164562.05021,-219286187.04148,-97071643.58806,  -0.00292,  -0.00126,  -0.00169,480482526.80489,   0.00262,277463249.20175,  -0.00101,  -0.00127,  -0.00043,   0.00000,   2.00000
-514187342.25446,-220785840.57228,-97250269.54310,  -0.00293,  -0.00127,  -0.00170,480505927.74720,   0.00263,277475204.10934,  -0.00102,  -0.00127,  -0.00044,   0.00000,   2.00000
-514203706.68520,-222295127.44858,-97431066.63875,  -0.00294,  -0.00128,  -0.00171,480534006.35826,   0.00265,277487209.65399,  -0.00103,  -0.00127,  -0.00044,   0.00000,   2.00000
-514211287.32193,-223789438.22632,-97614070.18366,  -0.00295,  -0.00128,  -0.00172,480529235.66466,   0.00266,277499136.80025,  -0.00104,  -0.00127,  -0.00045,   0.00000,   2.00000
-514220899.99565,-225298049.12492,-97788116.60913,  -0.00296,  -0.00129,  -0.00173,480573914.12589,   0.00267,277511179.54812,  -0.00106,  -0.00126,  -0.00046,   0.00000,   2.00000
-514220059.46742,-226812770.82587,-97968995.75517,  -0.00296,  -0.00129,  -0.00175,480581383.94067,   0.00268,277523191.53541,  -0.00107,  -0.00126,  -0.00047,   0.00000,   2.00000
-514218999.36126,-228317260.90567,-98141020.90602,  -0.00297,  -0.00130,  -0.00176,480593149.83536,   0.00269,277535189.74539,  -0.00108,  -0.00126,  -0.00048,   0.00000,   2.00000
-514208311.55341,-229808093.90065,-98316871.47736,  -0.00298,  -0.00130,  -0.00177,480613941.66411,   0.00270,277547209.60150,  -0.00109,  -0.00126,  -0.00049,   0.00000,   2.00000
-514189933.78976,-231327698.89693,-98497715.87036,  -0.00299,  -0.00131,  -0.00178,480629428.26773,   0.00271,277559230.04707,  -0.00110,  -0.00126,  -0.00050,   0.00000,   2.00000
-514175213.31903,-232839722.25687,-98664907.36783,  -0.00300,  -0.00132,  -0.00179,480662224.31894,   0.00273,277571318.47449,  -0.00112,  -0.00126,  -0.00051,   0.00000,   2.00000
-514147023.06067,-234335056.37327,-98840688.39306,  -0.00301,  -0.00132,  -0.00180,480662247.48189,   0.00274,277583347.05116,  -0.00113,  -0.00126,  -0.00052,   0.00000,   2.00000
-514112890.92645,-235838187.74396,-99016893.30078,  -0.00302,  -0.00133,  -0.00181,480665630.77519,   0.00275,277595329.12291,  -0.00114,  -0.00126,  -0.00053,   0.00000,   2.00000
-514080390.82924,-237354206.26231,-99183887.71106,  -0.00303,  -0.00134,  -0.00183,480710984.49417,   0.00276,277607427.79997,  -0.00115,  -0.00126,  -0.00054,   0.00000,   2.00000
-514034412.52144,-238853501.24678,-99359452.34539,  -0.00304,  -0.00134,  -0.00184,480711146.86086,   0.00277,277619467.18403,  -0.00117,  -0.00126,  -0.00055,   0.00000,   2.00000
-513986162.20530,-240362897.23547,-99530558.03683,  -0.00305,  -0.00135,  -0.00185,480735760.48424,   0.00278,277631542.26738,  -0.00118,  -0.00126,  -0.00056,   0.00000,   2.00000
-513940344.64438,-241884088.04108,-99690929.10812,  -0.00306,  -0.00136,  -0.00186,480755901.26549,   0.00279,277643635.32674,  -0.00119,  -0.00126,  -0.00056,   0.00000,   2.00000
-513880071.60659,-243388912.31356,-99861327.28214,  -0.00307,  -0.00136,  -0.00187,480781706.19818,   0.00281,277655768.31363,  -0.00120,  -0.00126,  -0.00057,   0.00000,   2.00000
-513816091.88195,-244880983.80616,-100027747.92307,  -0.00308,  -0.00137,  -0.00188,480772718.75872,   0.00282,277667806.63439,  -0.00122,  -0.00126,  -0.00058,   0.00000,   2.00000
-513747012.30050,-246402956.29777,-100193962.60829,  -0.00309,  -0.00137,  -0.00190,480810712.18973,   0.00283,277679931.88895,  -0.00123,  -0.00126,  -0.00059,   0.00000,   2.00000
-513671113.61605,-247890204.35988,-100359595.43946,  -0.00309,  -0.00138,  -0.00191,480818836.35856,   0.00284,277692028.65801,  -0.00124,  -0.00126,  -0.00060,   0.00000,   2.00000
-513590861.10779,-249406957.83750,-100523550.05955,  -0.00310,  -0.00139,  -0.00192,480831635.63461,   0.00285,277704114.84399,  -0.00125,  -0.00126,  -0.00061,   0.00000,   2.00000
-513505951.27290,-250911003.43234,-100684942.08397,  -0.00311,  -0.00140,  -0.00193,480848268.17139,   0.00286,277716205.31557,  -0.00127,  -0.00125,  -0.00062,   0.00000,   2.00000
-513411618.47032,-252400377.04348,-100850039.66167,  -0.00312,  -0.00140,  -0.00194,480869519.58651,   0.00288,277728317.90765,  -0.00128,  -0.00125,  -0.00063,   0.00000,   2.00000
-513321381.11209,-253922836.62163,-101002217.11708,  -0.00313,  -0.00141,  -0.00195,480898974.69648,   0.00289,277740483.59123,  -0.00129,  -0.00125,  -0.00064,   0.00000,   2.00000
-513215917.37653,-255406756.32893,-101165096.56980,  -0.00314,  -0.00142,  -0.00197,480890732.70951,   0.00290,277752557.88485,  -0.00130,  -0.00125,  -0.00065,   0.00000,   2.00000
-513109483.80999,-256921462.26159,-101321224.00932,  -0.00315,  -0.00142,  -0.00198,480925098.04209,   0.00291,277764704.19013,  -0.00131,  -0.00125,  -0.00066,   0.00000,   2.00000
-512992001.15453,-258399468.59784,-101483150.35027,  -0.00316,  -0.00143,  -0.00199,480937572.26611,   0.00292,277776838.64116,  -0.00133,  -0.00125,  -0.00067,   0.00000,   2.00000
-512874287.03584,-259908495.01913,-101636940.76883,  -0.00317,  -0.00144,  -0.00200,480946748.25029,   0.00293,277788948.38064,  -0.00134,  -0.00125,  -0.00068,   0.00000,   2.00000
-512747213.50967,-261402394.67345,-101794409.00983,  -0.00318,  -0.00144,  -0.00201,480968194.89870,   0.00294,277801080.52030,  -0.00135,  -0.00125,  -0.00069,   0.00000,   2.00000
-512615826.02418,-262883397.46902,-101949324.68936,  -0.00318,  -0.00145,  -0.00203,480984891.97371,   0.00296,277813216.88243,  -0.00136,  -0.00126,  -0.00070,   0.00000,   2.00000
-512482956.49872,-264394337.48914,-102097313.60290,  -0.00319,  -0.00146,  -0.00204,481020015.06895,   0.00297,277825427.30041,  -0.00138,  -0.00126,  -0.00071,   0.00000,   2.00000
-512340351.26281,-265869433.41506,-102249940.17989,  -0.00320,  -0.00147,  -0.00205,481006837.46376,   0.00298,277837527.88056,  -0.00139,  -0.00126,  -0.00072,   0.00000,   2.00000
-512185836.73228,-267349478.55335,-102408965.38411,  -0.00321,  -0.00147,  -0.00206,481016831.82271,   0.00299,277849607.33712,  -0.00140,  -0.00126,  -0.00073,   0.00000,   2.00000
-512032460.98187,-268838990.14249,-102558196.67768,  -0.00322,  -0.00148,  -0.00207,481063658.34732,   0.00300,277861805.44879,  -0.00141,  -0.00126,  -0.00074,   0.00000,   2.00000
-511876868.78820,-270337637.60701,-102701388.44701,  -0.00323,  -0.00149,  -0.00209,481064502.87270,   0.00301,277873946.99890,  -0.00143,  -0.00126,  -0.00075,   0.00000,   2.00000
-511711072.69644,-271799710.91320,-102850567.23173,  -0.00324,  -0.00150,  -0.00210,481076526.35406,   0.00303,277886075.00359,  -0.00144,  -0.00126,  -0.00076,   0.00000,   2.00000
-511534180.30386,-273287583.36471,-103003765.73883,  -0.00324,  -0.00150,  -0.00211,481096509.82936,   0.00304,277898219.46301,  -0.00145,  -0.00126,  -0.00077,   0.00000,   2.00000
-511358185.20307,-274764547.36344,-103148199.60744,  -0.00325,  -0.00151,  -0.00212,481108582.27059,   0.00305,277910350.39102,  -0.00146,  -0.00126,  -0.00078,   0.00000,   2.00000
-511178205.68310,-276228370.99947,-103290132.48824,  -0.00326,  -0.00152,  -0.00213,481125339.09109,   0.00306,277922485.63177,  -0.00147,  -0.00126,  -0.00079,   0.00000,   2.00000
-510985947.61837,-277696775.75870,-103438381.26318,  -0.00327,  -0.00153,  -0.00215,481136007.25208,   0.00307,277934602.19327,  -0.00149,  -0.00126,  -0.00080,   0.00000,   2.00000
-510790541.96994,-279172774.75842,-103581695.01749,  -0.00328,  -0.00153,  -0.00216,481162649.76214,   0.00308,277946760.25499,  -0.00150,  -0.00126,  -0.00081,  -0.00000,   2.00000
-510591240.77589,-280635469.25086,-103722486.44432,  -0.00329,  -0.00154,  -0.00217,481179502.83201,   0.00309,277958922.80694,  -0.00151,  -0.00126,  -0.00082,   0.00000,   2.00000
-510384480.27760,-282104943.42742,-103863359.71899,  -0.00330,  -0.00155,  -0.00218,481185700.77844,   0.00311,277971049.70472,  -0.00152,  -0.00126,  -0.00083,   0.00000,   2.00000
-510173913.92719,-283561112.22909,-104001726.12173,  -0.00330,  -0.00156,  -0.00219,481202526.74127,   0.00312,277983181.15371,  -0.00154,  -0.00126,  -0.00084,   0.00000,   2.00000
-509955126.86286,-285022086.46051,-104141297.66170,  -0.00331,  -0.00157,  -0.00221,481234246.07621,   0.00313,277995372.94865,  -0.00155,  -0.00126,  -0.00085,   0.00000,   2.00000
-509733315.67655,-286471736.45967,-104277233.78926,  -0.00332,  -0.00157,  -0.00222,481225746.10541,   0.00314,278007474.09202,  -0.00156,  -0.00127,  -0.00086,   0.00000,   2.00000
-509503242.46130,-287926020.12571,-104414344.70603,  -0.00333,  -0.00158,  -0.00223,481257576.77668,   0.00315,278019636.04244,  -0.00157,  -0.00127,  -0.00087,   0.00000,   2.00000
-509265176.86448,-289366616.29360,-104553994.00077,  -0.00334,  -0.00159,  -0.00224,481253919.69954,   0.00316,278031725.88346,  -0.00158,  -0.00127,  -0.00088,   0.00000,   2.00000
-509023859.89105,-290814209.82542,-104688598.63863,  -0.00334,  -0.00160,  -0.00225,481281042.20505,   0.00318,278043858.90107,  -0.00160,  -0.00127,  -0.00089,   0.00000,   2.00000
-508779038.80787,-292248434.65025,-104820728.88382,  -0.00335,  -0.00161,  -0.00227,481297874.89553,   0.00319,278055996.53443,  -0.00161,  -0.00127,  -0.00090,   0.00000,   2.00000
-508526469.40692,-293689329.93655,-104952870.29087,  -0.00336,  -0.00162,  -0.00228,481304677.25700,   0.00320,278068101.31801,  -0.00162,  -0.00127,  -0.00091,   0.00000,   2.00000
-508270487.42443,-295116856.82945,-105082553.33691,  -0.00337,  -0.00162,  -0.00229,481321486.47268,   0.00321,278080210.79220,  -0.00163,  -0.00127,  -0.00092,   0.00000,   2.00000
-508006676.64059,-296551036.93711,-105212232.66097,  -0.00338,  -0.00163,  -0.00230,481328422.64115,   0.00322,278092288.15750,  -0.00164,  -0.00127,  -0.00094,   0.00000,   2.00000
-507734501.87705,-297969209.08388,-105345590.48908,  -0.00339,  -0.00164,  -0.00232,481350095.00156,   0.00323,278104388.51363,  -0.00166,  -0.00128,  -0.00095,   0.00000,   2.00000
-507454444.78424,-299394009.08216,-105478878.59589,  -0.00339,  -0.00165,  -0.00233,481357201.71277,   0.00325,278116457.61738,  -0.00167,  -0.00128,  -0.00096,   0.00000,   2.00000
-507176237.03831,-300808114.40861,-105603576.02285,  -0.00340,  -0.00166,  -0.00234,481369105.06444,   0.00326,278128513.45689,  -0.00168,  -0.00128,  -0.00097,   0.00000,   2.00000
-506889628.42322,-302225923.36649,-105729286.47545,  -0.00341,  -0.00167,  -0.00235,481401576.13694,   0.00327,278140632.26050,  -0.00169,  -0.00128,  -0.00098,   0.00000,   2.00000
-506594961.44428,-303650178.23863,-105854915.06254,  -0.00342,  -0.00168,  -0.00236,481408985.51131,   0.00328,278152720.89201,  -0.00170,  -0.00128,  -0.00099,   0.00000,   2.00000
-506297521.77019,-305041386.20627,-105980849.30930,  -0.00342,  -0.00168,  -0.00238,481414862.40120,   0.00329,278164774.14868,  -0.00172,  -0.00128,  -0.00100,   0.00000,   2.00000
-505991662.22905,-306458722.88084,-106103936.95227,  -0.00343,  -0.00169,  -0.00239,481433307.90663,   0.00330,278176838.40847,  -0.00173,  -0.00129,  -0.00101,   0.00000,   2.00000
-505682782.09086,-307862541.72926,-106224600.81678,  -0.00344,  -0.00170,  -0.00240,481450156.09412,   0.00331,278188907.81362,  -0.00174,  -0.00129,  -0.00102,   0.00000,   2.00000
-505370992.42680,-309252948.03513,-106342877.47325,  -0.00345,  -0.00171,  -0.00241,481466937.39796,   0.00333,278200982.18564,  -0.00175,  -0.00129,  -0.00103,   0.00000,   2.00000
-505051006.86504,-310649837.88906,-106461060.60069,  -0.00345,  -0.00172,  -0.00243,481474638.11928,   0.00334,278213028.03273,  -0.00176,  -0.00129,  -0.00104,   0.00000,   2.00000
-504718267.66122,-312031084.66595,-106588044.19940,  -0.00346,  -0.00173,  -0.00244,481476117.77087,   0.00335,278225022.86943,  -0.00177,  -0.00129,  -0.00105,   0.00000,   2.00000
-504387242.13293,-313421017.08077,-106703656.38057,  -0.00347,  -0.00174,  -0.00245,481499217.10226,   0.00336,278237046.24118,  -0.00179,  -0.00130,  -0.00106,   0.00000,   2.00000
-504048418.45616,-314794670.85057,-106822996.92596,  -0.00348,  -0.00175,  -0.00246,481520916.89671,   0.00337,278249093.02595,  -0.00180,  -0.00130,  -0.00107,   0.00000,   2.00000
-503706345.52742,-316177630.71743,-106936081.96074,  -0.00348,  -0.00176,  -0.00248,481523978.82256,   0.00338,278261094.65419,  -0.00181,  -0.00130,  -0.00109,   0.00000,   2.00000
-503356565.18447,-317544275.86819,-107052906.34195,  -0.00349,  -0.00177,  -0.00249,481545673.76518,   0.00340,278273119.80158,  -0.00182,  -0.00130,  -0.00110,   0.00000,   2.00000
-503004342.07849,-318901413.19602,-107166401.86631,  -0.00350,  -0.00177,  -0.00250,481537280.91062,   0.00341,278285058.33090,  -0.00183,  -0.00130,  -0.00111,   0.00000,   2.00000
-502643672.53270,-320261192.64231,-107280705.28748,  -0.00351,  -0.00178,  -0.00251,481570468.31138,   0.00342,278297062.70407,  -0.00184,  -0.00131,  -0.00112,   0.00000,   2.00000
-502274511.45141,-321627314.96141,-107394796.99756,  -0.00351,  -0.00179,  -0.00252,481578778.89342,   0.00343,278309041.68519,  -0.00186,  -0.00131,  -0.00113,   0.00000,   2.00000
-501908031.93199,-322983015.65230,-107500473.67183,  -0.00352,  -0.00180,  -0.00254,481590534.16328,   0.00344,278321008.00947,  -0.00187,  -0.00131,  -0.00114,   0.00000,   2.00000
-501527858.92506,-324342018.18767,-107612031.58722,  -0.00353,  -0.00181,  -0.00255,481603947.39789,   0.00345,278332967.84343,  -0.00188,  -0.00131,  -0.00115,   0.00000,   2.00000
-501146515.88845,-325669164.82840,-107724287.06464,  -0.00354,  -0.00182,  -0.00256,481608791.84422,   0.00346,278344890.31646,  -0.00189,  -0.00132,  -0.00116,   0.00000,   2.00000
-500755430.24698,-327021200.00020,-107833257.47102,  -0.00354,  -0.00183,  -0.00257,481629187.87614,   0.00348,278356831.99455,  -0.00190,  -0.00132,  -0.00117,   0.00000,   2.00000
-500367221.68449,-328362892.97553,-107933859.65534,  -0.00355,  -0.00184,  -0.00259,481640901.11242,   0.00349,278368761.24739,  -0.00191,  -0.00132,  -0.00118,   0.00000,   2.00000
-499966440.00348,-329689491.01777,-108043383.42090,  -0.00356,  -0.00185,  -0.00260,481642576.78913,   0.00350,278380641.94708,  -0.00192,  -0.00132,  -0.00119,   0.00000,   2.00000
-499562302.24848,-331021097.72622,-108147513.19998,  -0.00356,  -0.00186,  -0.00261,481671246.83009,   0.00351,278392572.19230,  -0.00194,  -0.00133,  -0.00121,   0.00000,   2.00000
-499150731.35233,-332340785.95381,-108254484.58004,  -0.00357,  -0.00187,  -0.00262,481667984.25974,   0.00352,278404436.16879,  -0.00195,  -0.00133,  -0.00122,   0.00000,   2.00000
-498730340.35873,-333666751.90589,-108361146.64810,  -0.00358,  -0.00188,  -0.00264,481676881.15594,   0.00353,278416278.24105,  -0.00196,  -0.00133,  -0.00123,   0.00000,   2.00000
-498318611.14054,-334981146.75283,-108454378.05134,  -0.00358,  -0.00189,  -0.00265,481708317.45918,   0.00354,278428180.01895,  -0.00197,  -0.00134,  -0.00124,   0.00000,   2.00000
-497888852.32801,-336282220.62955,-108561695.83507,  -0.00359,  -0.00190,  -0.00266,481690216.45022,   0.00356,278439962.48667,  -0.00198,  -0.00134,  -0.00125,   0.00000,   2.00000
-497455773.63269,-337588070.26985,-108663553.50755,  -0.00360,  -0.00191,  -0.00267,481719067.19611,   0.00357,278451795.71868,  -0.00199,  -0.00134,  -0.00126,   0.00000,   2.00000
-497019340.78942,-338898488.68028,-108759958.40878,  -0.00360,  -0.00192,  -0.00269,481748059.68274,   0.00358,278463679.88528,  -0.00200,  -0.00134,  -0.00127,   0.00000,   2.00000
-496582266.45424,-340182861.91172,-108856468.88724,  -0.00361,  -0.00193,  -0.00270,481727360.89094,   0.00359,278475435.91502,  -0.00201,  -0.00135,  -0.00128,   0.00000,   2.00000
-496129379.96837,-341487914.62670,-108955440.87365,  -0.00362,  -0.00194,  -0.00271,481754161.51599,   0.00360,278487235.40066,  -0.00202,  -0.00135,  -0.00129,   0.00000,   2.00000
-495676595.58741,-342762218.44334,-109055449.44407,  -0.00362,  -0.00195,  -0.00272,481758129.30434,   0.00361,278498996.27030,  -0.00204,  -0.00135,  -0.00130,   0.00000,   2.00000
-495218046.81192,-344063517.06836,-109145770.61811,  -0.00363,  -0.00196,  -0.00273,481775126.10183,   0.00362,278510765.28673,  -0.00205,  -0.00136,  -0.00132,   0.00000,   2.00000
-494754657.76175,-345330918.27407,-109243248.24641,  -0.00364,  -0.00197,  -0.00275,481784009.74777,   0.00364,278522513.65009,  -0.00206,  -0.00136,  -0.00133,   0.00000,   2.00000
-494282124.81509,-346604556.12813,-109340327.60048,  -0.00364,  -0.00198,  -0.00276,481793543.13831,   0.00365,278534243.79687,  -0.00207,  -0.00136,  -0.00134,   0.00000,   2.00000
-493813308.62330,-347868516.74893,-109429204.91588,  -0.00365,  -0.00199,  -0.00277,481804913.28953,   0.00366,278545962.43463,  -0.00208,  -0.00137,  -0.00135,   0.00000,   2.00000
-493335230.01190,-349138646.52861,-109517712.60582,  -0.00365,  -0.00200,  -0.00278,481814576.05483,   0.00367,278557663.50851,  -0.00209,  -0.00137,  -0.00136,  -0.00000,   2.00000
-492842707.70493,-350411425.48075,-109611818.21089,  -0.00366,  -0.00201,  -0.00280,481829464.36006,   0.00368,278569365.89714,  -0.00210,  -0.00137,  -0.00137,   0.00000,   2.00000
-492356037.43602,-351657501.69650,-109701127.23229,  -0.00367,  -0.00202,  -0.00281,481827874.59123,   0.00369,278581010.88248,  -0.00211,  -0.00138,  -0.00138,   0.00000,   2.00000
-491866139.08738,-352907696.06477,-109784920.72602,  -0.00367,  -0.00203,  -0.00282,481857205.83079,   0.00370,278592709.16023,  -0.00212,  -0.00138,  -0.00139,   0.00000,   2.00000
-491360636.24438,-354166039.81978,-109873395.39647,  -0.00368,  -0.00204,  -0.00283,481847715.27615,   0.00371,278604321.95913,  -0.00213,  -0.00139,  -0.00141,   0.00000,   2.00000
-490857300.66414,-355389043.10581,-109964090.95994,  -0.00368,  -0.00205,  -0.00285,481875483.64774,   0.00373,278615982.90525,  -0.00214,  -0.00139,  -0.00142,   0.00000,   2.00000
-490341165.84271,-356640569.11352,-110049937.33107,  -0.00369,  -0.00206,  -0.00286,481874228.34840,   0.00374,278627588.14279,  -0.00215,  -0.00139,  -0.00143,   0.00000,   2.00000
-489831301.28169,-357865978.11443,-110131160.92684,  -0.00370,  -0.00207,  -0.00287,481872243.20216,   0.00375,278639135.55429,  -0.00216,  -0.00140,  -0.00144,   0.00000,   2.00000
-489306786.11382,-359094020.52189,-110217927.37675,  -0.00370,  -0.00208,  -0.00288,481887476.98876,   0.00376,278650686.78843,  -0.00218,  -0.00140,  -0.00145,   0.00000,   2.00000
-488779064.65630,-360325728.01818,-110299076.41297,  -0.00371,  -0.00209,  -0.00289,481917132.10789,   0.00377,278662293.04015,  -0.00219,  -0.00140,  -0.00146,   0.00000,   2.00000
-488244008.58333,-361546893.45240,-110383241.43280,  -0.00371,  -0.00210,  -0.00291,481914161.28349,   0.00378,278673838.32855,  -0.00220,  -0.00141,  -0.00147,   0.00000,   2.00000
-487713230.55999,-362758835.81017,-110459346.87374,  -0.00372,  -0.00211,  -0.00292,481925313.23486,   0.00379,278685373.11032,  -0.00221,  -0.00141,  -0.00148,   0.00000,   2.00000
-487172711.95166,-363976747.78535,-110534960.40785,  -0.00372,  -0.00212,  -0.00293,481935781.28397,   0.00380,278696895.02847,  -0.00222,  -0.00142,  -0.00149,   0.00000,   2.00000
-486619771.30186,-365180758.97157,-110619614.10125,  -0.00373,  -0.00213,  -0.00294,481937920.13512,   0.00381,278708374.90279,  -0.00223,  -0.00142,  -0.00151,   0.00000,   2.00000
-486071263.35986,-366375714.23197,-110696219.24458,  -0.00373,  -0.00214,  -0.00296,481948996.20345,   0.00383,278719844.61401,  -0.00224,  -0.00142,  -0.00152,   0.00000,   2.00000
-485512914.22338,-367576631.65103,-110772276.64437,  -0.00374,  -0.00215,  -0.00297,481959643.61126,   0.00384,278731302.71502,  -0.00225,  -0.00143,  -0.00153,   0.00000,   2.00000
-484947208.75246,-368767447.29332,-110851391.29935,  -0.00374,  -0.00217,  -0.00298,481956681.94089,   0.00385,278742701.32856,  -0.00226,  -0.00143,  -0.00154,   0.00000,   2.00000
-484383442.25859,-369965187.53060,-110918855.05858,  -0.00375,  -0.00218,  -0.00299,481981473.75918,   0.00386,278754138.66560,  -0.00227,  -0.00144,  -0.00155,   0.00000,   2.00000
-483807223.49624,-371149219.39550,-110995402.90201,  -0.00376,  -0.00219,  -0.00300,481983693.63828,   0.00387,278765535.12407,  -0.00228,  -0.00144,  -0.00156,   0.00000,   2.00000
-483235637.30352,-372324382.99714,-111063981.63887,  -0.00376,  -0.00220,  -0.00302,481994675.46840,   0.00388,278776921.83888,  -0.00229,  -0.00145,  -0.00157,  -0.00000,   2.00000
-482641948.68377,-373504389.76447,-111142993.69709,  -0.00377,  -0.00221,  -0.00303,481991773.04343,   0.00389,278788250.09453,  -0.00230,  -0.00145,  -0.00158,  -0.00000,   2.00000
-482060007.76551,-374672823.66540,-111208962.19415,  -0.00377,  -0.00222,  -0.00304,482021754.74335,   0.00390,278799635.97680,  -0.00231,  -0.00145,  -0.00160,   0.00000,   2.00000
-481463581.13043,-375834330.28453,-111283113.04605,  -0.00377,  -0.00223,  -0.00305,481999866.89835,   0.00391,278810896.86062,  -0.00232,  -0.00146,  -0.00161,   0.00000,   2.00000
-480864127.67569,-376998857.52535,-111351535.88044,  -0.00378,  -0.00224,  -0.00307,482029969.72950,   0.00392,278822216.20436,  -0.00233,  -0.00146,  -0.00162,   0.00000,   2.00000
-480262276.44638,-378157513.58403,-111417101.22880,  -0.00378,  -0.00225,  -0.00308,482021962.14046,   0.00394,278833459.84490,  -0.00234,  -0.00147,  -0.00163,   0.00000,   2.00000
-479652374.21640,-379315240.98798,-111482924.89901,  -0.00379,  -0.00226,  -0.00309,482057318.82116,   0.00395,278844780.54267,  -0.00235,  -0.00147,  -0.00164,   0.00000,   2.00000
-479042935.10548,-380452051.29140,-111549714.05658,  -0.00379,  -0.00227,  -0.00310,482035104.58859,   0.00396,278855976.05866,  -0.00236,  -0.00148,  -0.00165,   0.00000,   2.00000
-478420244.79204,-381609752.25971,-111611987.06765,  -0.00380,  -0.00229,  -0.00311,482060790.63039,   0.00397,278867214.92189,  -0.00237,  -0.00148,  -0.00166,   0.00000,   2.00000
-477792971.66449,-382742919.12168,-111681216.36260,  -0.00380,  -0.00230,  -0.00313,482043690.62158,   0.00398,278878347.24883,  -0.00237,  -0.00149,  -0.00167,   0.00000,   2.00000
-477162764.32413,-383878835.22961,-111744669.49454,  -0.00381,  -0.00231,  -0.00314,482073979.75738,   0.00399,278889539.55201,  -0.00238,  -0.00149,  -0.00168,   0.00000,   2.00000
-476530057.42632,-385009341.96455,-111805299.17893,  -0.00381,  -0.00232,  -0.00315,482066024.33556,   0.00400,278900657.72365,  -0.00239,  -0.00150,  -0.00170,   0.00000,   2.00000
-475894415.51618,-386142428.63995,-111860184.10343,  -0.00382,  -0.00233,  -0.00316,482096407.69792,   0.00401,278911836.24421,  -0.00240,  -0.00150,  -0.00171,   0.00000,   2.00000
-475238546.16150,-387265428.08681,-111929185.03649,  -0.00382,  -0.00234,  -0.00317,482080213.71161,   0.00402,278922912.28878,  -0.00241,  -0.00151,  -0.00172,   0.00000,   2.00000
-474597496.95850,-388395591.78408,-111975454.35911,  -0.00382,  -0.00235,  -0.00318,482119003.56853,   0.00403,278934078.22260,  -0.00242,  -0.00151,  -0.00173,   0.00000,   2.00000
-473939152.47136,-389501204.44790,-112039818.26126,  -0.00383,  -0.00236,  -0.00320,482088257.66670,   0.00404,278945091.23392,  -0.00243,  -0.00152,  -0.00174,   0.00000,   2.00000
-473282946.06734,-390613223.62913,-112092418.73660,  -0.00383,  -0.00238,  -0.00321,482113556.01703,   0.00405,278956147.54874,  -0.00244,  -0.00152,  -0.00175,   0.00000,   2.00000
-472610995.82532,-391726699.42606,-112150170.20513,  -0.00384,  -0.00239,  -0.00322,482130816.59751,   0.00406,278967219.06853,  -0.00245,  -0.00153,  -0.00176,   0.00000,   2.00000
-471939537.62053,-392820814.51186,-112209088.39225,  -0.00384,  -0.00240,  -0.00323,482108229.09676,   0.00408,278978167.00582,  -0.00246,  -0.00153,  -0.00177,   0.00000,   2.00000
-471262189.89762,-393924420.36550,-112261209.17983,  -0.00384,  -0.00241,  -0.00324,482115151.24308,   0.00409,278989094.71026,  -0.00247,  -0.00154,  -0.00178,  -0.00000,   2.00000
-470577048.33854,-395026112.33228,-112313449.78522,  -0.00385,  -0.00242,  -0.00326,482151038.32616,   0.00410,279000103.23315,  -0.00248,  -0.00154,  -0.00180,   0.00000,   2.00000
-469889130.60006,-396122928.72928,-112362902.82858,  -0.00385,  -0.00243,  -0.00327,482143318.59514,   0.00411,279011040.50532,  -0.00249,  -0.00155,  -0.00181,  -0.00000,   2.00000
-469201681.64480,-397207692.62260,-112410577.67070,  -0.00385,  -0.00245,  -0.00328,482159109.35912,   0.00412,279021988.75718,  -0.00249,  -0.00155,  -0.00182,   0.00000,   2.00000
-468498196.06680,-398287083.83743,-112466384.01189,  -0.00386,  -0.00246,  -0.00329,482138195.02213,   0.00413,279032820.55947,  -0.00250,  -0.00156,  -0.00183,   0.00000,   2.00000
-467796896.74382,-399372501.50838,-112510369.67267,  -0.00386,  -0.00247,  -0.00330,482163793.18445,   0.00414,279043697.97067,  -0.00251,  -0.00156,  -0.00184,   0.00000,   2.00000
-467096173.58065,-400445937.34522,-112552621.70588,  -0.00386,  -0.00248,  -0.00331,482179536.01625,   0.00415,279054586.66910,  -0.00252,  -0.00157,  -0.00185,   0.00000,   2.00000
-466379141.63081,-401514193.14430,-112603009.13100,  -0.00387,  -0.00249,  -0.00333,482158781.35617,   0.00416,279065360.14353,  -0.00253,  -0.00157,  -0.00186,  -0.00000,   2.00000
-465659422.38297,-402584243.31339,-112647502.15906,  -0.00387,  -0.00250,  -0.00334,482189687.82586,   0.00417,279076198.16109,  -0.00254,  -0.00158,  -0.00187,   0.00000,   2.00000
-464936706.32292,-403649897.53186,-112689240.82533,  -0.00387,  -0.00252,  -0.00335,482182049.42639,   0.00418,279086966.83505,  -0.00255,  -0.00159,  -0.00188,   0.00000,   2.00000
-464206046.02322,-404707119.43986,-112734167.26257,  -0.00388,  -0.00253,  -0.00336,482179586.25316,   0.00419,279097684.59298,  -0.00255,  -0.00159,  -0.00189,   0.00000,   2.00000
-463464005.83251,-405769382.59895,-112778087.04167,  -0.00388,  -0.00254,  -0.00337,482192518.10568,   0.00420,279108405.06496,  -0.00256,  -0.00160,  -0.00191,   0.00000,   2.00000
-462727633.06216,-406823943.57566,-112814342.95654,  -0.00388,  -0.00255,  -0.00338,482202994.78763,   0.00421,279119119.75221,  -0.00257,  -0.00160,  -0.00192,  -0.00000,   2.00000
-461983225.06377,-407870186.09326,-112853806.97746,  -0.00389,  -0.00256,  -0.00339,482200602.52945,   0.00422,279129784.31034,  -0.00258,  -0.00161,  -0.00193,  -0.00000,   2.00000
-461227294.90168,-408921349.70324,-112892240.13589,  -0.00389,  -0.00258,  -0.00341,482213749.24518,   0.00423,279140452.79330,  -0.00259,  -0.00161,  -0.00194,   0.00000,   2.00000
-460477114.39570,-409964913.90221,-112923054.70114,  -0.00389,  -0.00259,  -0.00342,482224188.29886,   0.00424,279151115.83401,  -0.00260,  -0.00162,  -0.00195,   0.00000,   2.00000
-459713965.69951,-410996036.45424,-112963011.69940,  -0.00389,  -0.00260,  -0.00343,482227100.99593,   0.00425,279161747.71334,  -0.00260,  -0.00163,  -0.00196,   0.00000,   2.00000
-458943231.68718,-412031051.59676,-112999135.13858,  -0.00390,  -0.00261,  -0.00344,482196487.69579,   0.00426,279172232.75386,  -0.00261,  -0.00163,  -0.00197,   0.00000,   2.00000
-458174316.12397,-413059513.77079,-113030397.58650,  -0.00390,  -0.00262,  -0.00345,482250758.84653,   0.00427,279182864.85171,  -0.00262,  -0.00164,  -0.00198,   0.00000,   2.00000
-457392754.69939,-414087684.58497,-113063771.21204,  -0.00390,  -0.00264,  -0.00346,482225536.85671,   0.00428,279193369.02663,  -0.00263,  -0.00164,  -0.00199,   0.00000,   2.00000
-456608698.86806,-415116918.87267,-113091192.07715,  -0.00390,  -0.00265,  -0.00347,482256892.13685,   0.00429,279203941.12324,  -0.00264,  -0.00165,  -0.00200,   0.00000,   2.00000
-455811730.22387,-416145873.80229,-113120698.39522,  -0.00391,  -0.00266,  -0.00349,482231852.18831,   0.00430,279214386.41308,  -0.00264,  -0.00166,  -0.00201,   0.00000,   2.00000
-455015844.85111,-417163138.89634,-113148556.04411,  -0.00391,  -0.00267,  -0.00350,482247416.73442,   0.00432,279224845.59793,  -0.00265,  -0.00166,  -0.00203,   0.00000,   2.00000
-454221123.51248,-418168834.93551,-113174798.42716,  -0.00391,  -0.00268,  -0.00351,482262925.06660,   0.00433,279235318.53468,  -0.00266,  -0.00167,  -0.00204,   0.00000,   2.00000
-453404809.21274,-419182652.94495,-113204669.51583,  -0.00391,  -0.00270,  -0.00352,482259198.69412,   0.00434,279245739.01494,  -0.00267,  -0.00167,  -0.00205,   0.00000,   2.00000
-452594485.32777,-420189197.41955,-113226979.36433,  -0.00392,  -0.00271,  -0.00353,482269534.60286,   0.00435,279256155.72334,  -0.00268,  -0.00168,  -0.00206,   0.00000,   2.00000
-451780422.54869,-421192203.84410,-113246567.08622,  -0.00392,  -0.00272,  -0.00354,482262271.46187,   0.00436,279266508.13598,  -0.00268,  -0.00169,  -0.00207,  -0.00000,   2.00000
-450953059.28037,-422182986.89980,-113275263.38418,  -0.00392,  -0.00273,  -0.00355,482265467.01079,   0.00437,279276832.80922,  -0.00269,  -0.00169,  -0.00208,   0.00000,   2.00000
-450122980.83468,-423186882.90054,-113290864.33642,  -0.00392,  -0.00275,  -0.00356,482269159.81363,   0.00438,279287131.45621,  -0.00270,  -0.00170,  -0.00209,   0.00000,   2.00000
-449279503.05326,-424178466.70564,-113315559.32124,  -0.00392,  -0.00276,  -0.00357,482272483.69968,   0.00439,279297403.19136,  -0.00271,  -0.00170,  -0.00210,   0.00000,   2.00000
-448438465.49966,-425174927.56176,-113328304.28596,  -0.00392,  -0.00277,  -0.00358,482298993.57392,   0.00440,279307727.81075,  -0.00271,  -0.00171,  -0.00211,  -0.00000,   2.00000
-447592372.22197,-426151645.75645,-113348677.69309,  -0.00393,  -0.00278,  -0.00360,482280880.82806,   0.00441,279317951.89217,  -0.00272,  -0.00172,  -0.00212,   0.00000,   2.00000
-446738580.62973,-427136949.38309,-113361833.51110,  -0.00393,  -0.00280,  -0.00361,482290088.62745,   0.00442,279328169.77561,  -0.00273,  -0.00172,  -0.00213,   0.00000,   2.00000
-445875973.65150,-428114481.01374,-113378152.22526,  -0.00393,  -0.00281,  -0.00362,482288295.84220,   0.00443,279338343.84813,  -0.00273,  -0.00173,  -0.00214,   0.00000,   2.00000
-445005516.02503,-429100398.02940,-113387212.60949,  -0.00393,  -0.00282,  -0.00363,482297728.42791,   0.00444,279348512.85898,  -0.00274,  -0.00174,  -0.00215,   0.00000,   2.00000
-444131865.44952,-430070303.31975,-113400653.87920,  -0.00393,  -0.00283,  -0.00364,482318475.62430,   0.00445,279358715.90914,  -0.00275,  -0.00174,  -0.00216,   0.00000,   2.00000
-443258630.00145,-431041500.22117,-113405410.70453,  -0.00393,  -0.00285,  -0.00365,482306339.83749,   0.00446,279368839.88539,  -0.00276,  -0.00175,  -0.00217,  -0.00000,   2.00000
-442365841.97876,-432008714.13463,-113417995.74419,  -0.00393,  -0.00286,  -0.00366,482287589.73382,   0.00447,279378862.63726,  -0.00276,  -0.00176,  -0.00218,   0.00000,   2.00000
-441481537.94098,-432972187.25251,-113419859.82091,  -0.00393,  -0.00287,  -0.00367,482336651.71931,   0.00447,279389017.36318,  -0.00277,  -0.00176,  -0.00220,   0.00000,   2.00000
-440577492.47694,-433931679.40027,-113429525.78904,  -0.00393,  -0.00288,  -0.00368,482318127.51942,   0.00448,279399071.76601,  -0.00278,  -0.00177,  -0.00221,   0.00000,   2.00000
-439673546.26983,-434892589.04945,-113430465.52025,  -0.00394,  -0.00290,  -0.00369,482306143.95842,   0.00449,279409048.67368,  -0.00278,  -0.00178,  -0.00222,   0.00000,   2.00000
-438766621.44498,-435837590.29996,-113435839.96847,  -0.00394,  -0.00291,  -0.00370,482326774.94632,   0.00450,279419060.51610,  -0.00279,  -0.00178,  -0.00223,   0.00000,   2.00000
-437840471.66671,-436794358.23104,-113438436.19722,  -0.00394,  -0.00292,  -0.00371,482319972.04517,   0.00451,279429013.10118,  -0.00280,  -0.00179,  -0.00224,   0.00000,   2.00000
-436920580.45131,-437744281.89922,-113433617.94830,  -0.00394,  -0.00293,  -0.00372,482330204.03179,   0.00452,279438965.10740,  -0.00280,  -0.00180,  -0.00225,   0.00000,   2.00000
-435986778.85315,-438681988.39467,-113437841.57175,  -0.00394,  -0.00295,  -0.00373,482334077.98017,   0.00453,279448895.00022,  -0.00281,  -0.00180,  -0.00226,   0.00000,   2.00000
-435049030.41712,-439632136.80167,-113428697.04762,  -0.00394,  -0.00296,  -0.00374,482339199.47288,   0.00454,279458807.05402,  -0.00282,  -0.00181,  -0.00227,   0.00000,   2.00000
-434113035.36777,-440570865.04941,-113418121.16736,  -0.00394,  -0.00297,  -0.00375,482354676.12012,   0.00455,279468736.95039,  -0.00282,  -0.00182,  -0.00228,   0.00000,   2.00000
-433156265.78663,-441505687.85400,-113415213.12079,  -0.00394,  -0.00299,  -0.00376,482336814.56768,   0.00456,279478570.55864,  -0.00283,  -0.00182,  -0.00229,   0.00000,   2.00000
-432205842.63471,-442433837.70998,-113404921.21618,  -0.00394,  -0.00300,  -0.00377,482347007.58918,   0.00457,279488404.43639,  -0.00284,  -0.00183,  -0.00230,   0.00000,   2.00000
-431230685.01401,-443368637.27148,-113397581.31933,  -0.00394,  -0.00301,  -0.00378,482346377.23000,   0.00458,279498201.66142,  -0.00284,  -0.00184,  -0.00231,   0.00000,   2.00000
-430265565.67190,-444286281.11956,-113387531.61143,  -0.00394,  -0.00302,  -0.00379,482339498.51920,   0.00459,279507941.02145,  -0.00285,  -0.00184,  -0.00232,   0.00000,   2.00000
-429283379.73228,-445217137.26968,-113371190.35527,  -0.00394,  -0.00304,  -0.00380,482372737.82298,   0.00460,279517760.29552,  -0.00285,  -0.00185,  -0.00233,   0.00000,   2.00000
-428299575.54853,-446134657.11219,-113356687.33378,  -0.00394,  -0.00305,  -0.00381,482349407.50070,   0.00461,279527465.43122,  -0.00286,  -0.00186,  -0.00234,   0.00000,   2.00000
-427305941.78031,-447044617.35572,-113345233.67001,  -0.00394,  -0.00306,  -0.00382,482348429.31744,   0.00462,279537133.63784,  -0.00287,  -0.00186,  -0.00235,   0.00000,   2.00000
-426315058.53833,-447958202.12259,-113321725.60070,  -0.00394,  -0.00308,  -0.00383,482375892.28287,   0.00463,279546862.46934,  -0.00287,  -0.00187,  -0.00236,   0.00000,   2.00000
-425302330.74538,-448867842.34942,-113305726.57392,  -0.00394,  -0.00309,  -0.00384,482358779.31312,   0.00464,279556499.18269,  -0.00288,  -0.00188,  -0.00237,  -0.00000,   2.00000
-424292374.94508,-449780870.52992,-113277653.81600,  -0.00394,  -0.00310,  -0.00385,482386421.73424,   0.00465,279566197.44448,  -0.00288,  -0.00188,  -0.00238,   0.00000,   2.00000
-423263932.99087,-450679939.96847,-113261782.24198,  -0.00394,  -0.00312,  -0.00386,482352138.87282,   0.00466,279575745.11189,  -0.00289,  -0.00189,  -0.00239,   0.00000,   2.00000
-422238289.04994,-451582338.31826,-113233807.76280,  -0.00394,  -0.00313,  -0.00387,482379824.79883,   0.00467,279585355.05739,  -0.00290,  -0.00190,  -0.00240,   0.00000,   2.00000
-421206846.78378,-452481820.10656,-113202937.60316,  -0.00394,  -0.00314,  -0.00388,482373996.02243,   0.00468,279594912.27114,  -0.00290,  -0.00190,  -0.00241,   0.00000,   2.00000
-420161546.27908,-453383298.36753,-113170313.25634,  -0.00393,  -0.00316,  -0.00389,482390996.00265,   0.00469,279604495.30697,  -0.00291,  -0.00191,  -0.00242,   0.00000,   2.00000
-419105962.63890,-454276976.82713,-113140682.15796,  -0.00393,  -0.00317,  -0.00390,482390598.54792,   0.00469,279614044.61750,  -0.00291,  -0.00192,  -0.00243,  -0.00000,   2.00000
-418060460.74340,-455154570.88108,-113108553.09038,  -0.00393,  -0.00318,  -0.00391,482383297.18251,   0.00470,279623536.70927,  -0.00292,  -0.00193,  -0.00244,   0.00000,   2.00000
-416989153.86356,-456051900.64843,-113068213.29705,  -0.00393,  -0.00320,  -0.00392,482397054.88444,   0.00471,279633044.03492,  -0.00292,  -0.00193,  -0.00245,   0.00000,   2.00000
-415910924.67879,-456931947.25706,-113035650.29133,  -0.00393,  -0.00321,  -0.00393,482379142.51623,   0.00472,279642458.19431,  -0.00293,  -0.00194,  -0.00246,   0.00000,   2.00000
-414839174.39263,-457805521.17266,-112995797.87548,  -0.00393,  -0.00322,  -0.00394,482389450.05448,   0.00473,279651876.26426,  -0.00293,  -0.00195,  -0.00247,   0.00000,   2.00000
-413753301.60844,-458680665.90588,-112954086.46951,  -0.00393,  -0.00324,  -0.00395,482406985.54178,   0.00474,279661323.13927,  -0.00294,  -0.00196,  -0.00248,   0.00000,   2.00000
-412648146.70799,-459556386.21471,-112913646.13760,  -0.00393,  -0.00325,  -0.00396,482385966.33025,   0.00475,279670666.67163,  -0.00294,  -0.00196,  -0.00249,   0.00000,   2.00000
-411541725.33470,-460429781.78181,-112867007.37112,  -0.00392,  -0.00326,  -0.00396,482419495.92510,   0.00476,279680094.34609,  -0.00295,  -0.00197,  -0.00250,  -0.00000,   2.00000
-410432271.51130,-461291106.99909,-112822211.02352,  -0.00392,  -0.00328,  -0.00397,482396448.35668,   0.00477,279689411.93388,  -0.00295,  -0.00198,  -0.00251,   0.00000,   2.00000
-409312698.70673,-462158436.79952,-112769521.26285,  -0.00392,  -0.00329,  -0.00398,482409229.25684,   0.00478,279698742.76323,  -0.00296,  -0.00198,  -0.00252,  -0.00000,   2.00000
-408182213.28783,-463017830.94238,-112719739.80368,  -0.00392,  -0.00330,  -0.00399,482409408.55011,   0.00479,279708043.72407,  -0.00296,  -0.00199,  -0.00253,   0.00000,   2.00000
-407041489.34823,-463882944.86658,-112662015.12976,  -0.00392,  -0.00332,  -0.00400,482422500.45330,   0.00480,279717359.27156,  -0.00297,  -0.00200,  -0.00254,   0.00000,   2.00000
