# sigma_xx, sigma_yy, sigma_xy, epsilon_xx, epsilon_yy, epsilon_xy, vonMises, epsPlastic, hardening, epsilonP__xx, epsilonP__yy, epsilonP__xy, yieldValue, iteration
   0.00000,   0.00000,   0.00000,   0.00000,   0.00000,   0.00000,   0.00000,   0.00000,274640135.82653,   0.00000,   0.00000,   0.00000,-474640135.82653,   0.00000
   0.00000,   0.00000,   0.00000,   0.00000,   0.00000,   0.00000,   0.00000,   0.00000,274640135.82653,   0.00000,   0.00000,   0.00000,-474640135.82653,   0.00000
492833.38125,1343212.54889,241584.99081,  -0.00000,   0.00001,   0.00000,1249085.51922,   0.00000,274640135.82653,   0.00000,   0.00000,   0.00000,-473391050.30731,   0.00000
1009825.26158,2710583.59686,488001.68143,  -0.00000,   0.00001,   0.00001,2518775.81932,   0.00000,274640135.82653,   0.00000,   0.00000,   0.00000,-472121360.00721,   0.00000
1536480.54154,4068291.24520,734418.37206,  -0.00000,   0.00002,   0.00001,3778759.95670,   0.00000,274640135.82653,   0.00000,   0.00000,   0.00000,-470861375.86983,   0.00000
2104205.26993,5457404.94235,990498.46231,  -0.00000,   0.00002,   0.00001,5066627.07276,   0.00000,274640135.82653,   0.00000,   0.00000,   0.00000,-469573508.75377,   0.00000
2664682.44861,6829607.69013,1241746.85275,  -0.00000,   0.00003,   0.00002,6338070.98013,   0.00000,274640135.82653,   0.00000,   0.00000,   0.00000,-468302064.84639,   0.00000
3249318.12636,8225968.93700,1502658.64282,  -0.00000,   0.00003,   0.00002,7633465.28488,   0.00000,274640135.82653,   0.00000,   0.00000,   0.00000,-467006670.54165,   0.00000
3867775.70283,9636825.28332,1763570.43290,  -0.00000,   0.00004,   0.00002,8937871.88098,   0.00000,274640135.82653,   0.00000,   0.00000,   0.00000,-465702263.94555,   0.00000
4478985.72957,11030770.68028,2034145.62260,  -0.00000,   0.00004,   0.00003,10234539.35189,   0.00000,274640135.82653,   0.00000,   0.00000,   0.00000,-464405596.47464,   0.00000
5114354.25540,12448874.57632,2299889.11249,  -0.00000,   0.00005,   0.00003,11546930.88191,   0.00000,274640135.82653,   0.00000,   0.00000,   0.00000,-463093204.94462,   0.00000
5783544.67994,13881473.57181,2575296.00201,  -0.00000,   0.00005,   0.00003,12874665.95519,   0.00000,274640135.82653,   0.00000,   0.00000,   0.00000,-461765469.87134,   0.00000
6469646.05383,15321320.11702,2850702.89153,  -0.00000,   0.00006,   0.00004,14207574.48979,   0.00000,274640135.82653,   0.00000,   0.00000,   0.00000,-460432561.33674,   0.00000
7155747.42772,16761166.66224,3130941.48087,  -0.00000,   0.00006,   0.00004,15543845.64931,   0.00000,274640135.82653,   0.00000,   0.00000,   0.00000,-459096290.17722,   0.00000
7868423.15061,18198597.35754,3411180.07020,   0.00000,   0.00007,   0.00004,16876469.18986,   0.00000,274640135.82653,   0.00000,   0.00000,   0.00000,-457763666.63667,   0.00000
8605257.37257,19660186.55193,3696250.35936,   0.00000,   0.00007,   0.00005,18231270.51497,   0.00000,274640135.82653,   0.00000,   0.00000,   0.00000,-456408865.31156,   0.00000
9342091.59453,21121775.74632,3986152.34833,   0.00000,   0.00008,   0.00005,19589557.26935,   0.00000,274640135.82653,   0.00000,   0.00000,   0.00000,-455050578.55718,   0.00000
10112747.71521,22597860.04015,4280886.03711,   0.00000,   0.00008,   0.00006,20961451.35825,   0.00000,274640135.82653,   0.00000,   0.00000,   0.00000,-453678684.46828,   0.00000
10900314.78524,24081191.88371,4575619.72590,   0.00000,   0.00009,   0.00006,22339135.62896,   0.00000,274640135.82653,   0.00000,   0.00000,   0.00000,-452301000.19757,   0.00000
11704792.80463,25571771.27699,4875185.11450,   0.00000,   0.00009,   0.00006,23725675.25065,   0.00000,274640135.82653,   0.00000,   0.00000,   0.00000,-450914460.57588,   0.00000
12526181.77338,27069598.22000,5174750.50310,   0.00000,   0.00010,   0.00007,25118196.55318,   0.00000,274640135.82653,   0.00000,   0.00000,   0.00000,-449521939.27335,   0.00000
13364481.69148,28574672.71273,5479147.59152,   0.00001,   0.00010,   0.00007,26519780.84754,   0.00000,274640135.82653,   0.00000,   0.00000,   0.00000,-448120354.97899,   0.00000
14219692.55894,30086994.75519,5788376.37975,   0.00001,   0.00011,   0.00008,27930538.80199,   0.00000,274640135.82653,   0.00000,   0.00000,   0.00000,-446709597.02454,   0.00000
15091814.37576,31606564.34737,6097605.16799,   0.00001,   0.00011,   0.00008,29347567.78959,   0.00000,274640135.82653,   0.00000,   0.00000,   0.00000,-445292568.03694,   0.00000
15988094.69165,33150292.43863,6411665.65604,   0.00001,   0.00012,   0.00008,30787650.37358,   0.00000,274640135.82653,   0.00000,   0.00000,   0.00000,-443852485.45295,   0.00000
16894038.40718,34684357.13026,6725726.14409,   0.00001,   0.00012,   0.00009,32220497.79646,   0.00000,274640135.82653,   0.00000,   0.00000,   0.00000,-442419638.03007,   0.00000
17816893.07207,36225669.37161,7049450.03177,   0.00001,   0.00013,   0.00009,33665949.55970,   0.00000,274640135.82653,   0.00000,   0.00000,   0.00000,-440974186.26683,   0.00000
18773569.63567,37781476.71241,7368342.21963,   0.00001,   0.00014,   0.00010,35120807.45988,   0.00000,274640135.82653,   0.00000,   0.00000,   0.00000,-439519328.36665,   0.00000
19730246.19926,39337284.05322,7696897.80713,   0.00001,   0.00014,   0.00010,36582741.01468,   0.00000,274640135.82653,   0.00000,   0.00000,   0.00000,-438057394.81185,   0.00000
20703833.71222,40900338.94374,8025453.39463,   0.00001,   0.00015,   0.00010,38051495.98110,   0.00000,274640135.82653,   0.00000,   0.00000,   0.00000,-436588639.84543,   0.00000
21711243.12389,42477888.93372,8354008.98213,   0.00002,   0.00015,   0.00011,39533147.48968,   0.00000,274640135.82653,   0.00000,   0.00000,   0.00000,-435106988.33685,   0.00000
22718652.53556,44055438.92369,8687396.26944,   0.00002,   0.00016,   0.00011,41018913.00862,   0.00000,274640135.82653,   0.00000,   0.00000,   0.00000,-433621222.81791,   0.00000
23750220.44630,45657147.41275,9025615.25658,   0.00002,   0.00016,   0.00012,42528413.53018,   0.00000,274640135.82653,   0.00000,   0.00000,   0.00000,-432111722.29635,   0.00000
24808362.70604,47256440.05189,9363834.24371,   0.00002,   0.00017,   0.00012,44037657.25785,   0.00000,274640135.82653,   0.00000,   0.00000,   0.00000,-430602478.56868,   0.00000
25866504.96578,48855732.69104,9706884.93065,   0.00002,   0.00017,   0.00013,45551097.55905,   0.00000,274640135.82653,   0.00000,   0.00000,   0.00000,-429089038.26748,   0.00000
26958469.12423,50469520.42963,10049935.61760,   0.00002,   0.00018,   0.00013,47078170.73184,   0.00000,274640135.82653,   0.00000,   0.00000,   0.00000,-427561965.09469,   0.00000
28050433.28268,52083308.16823,10397818.00436,   0.00003,   0.00018,   0.00014,48609487.69463,   0.00000,274640135.82653,   0.00000,   0.00000,   0.00000,-426030648.13190,   0.00000
29176219.33984,53711591.00627,10745700.39113,   0.00003,   0.00019,   0.00014,50154719.15771,   0.00000,274640135.82653,   0.00000,   0.00000,   0.00000,-424485416.66882,   0.00000
30302005.39701,55339873.84432,11098414.47771,   0.00003,   0.00019,   0.00014,51704239.90392,   0.00000,274640135.82653,   0.00000,   0.00000,   0.00000,-422935895.92261,   0.00000
31468860.90261,56999562.73117,11451128.56428,   0.00003,   0.00020,   0.00015,53281451.58629,   0.00000,274640135.82653,   0.00000,   0.00000,   0.00000,-421358684.24023,   0.00000
32628468.85849,58642340.66866,11808674.35068,   0.00003,   0.00020,   0.00015,54849482.06331,   0.00000,274640135.82653,   0.00000,   0.00000,   0.00000,-419790653.76322,   0.00000
33821898.71308,60299613.70560,12171051.83689,   0.00004,   0.00021,   0.00016,56435098.35964,   0.00000,274640135.82653,   0.00000,   0.00000,   0.00000,-418205037.46689,   0.00000
35015328.56767,61956886.74254,12533429.32310,   0.00004,   0.00021,   0.00016,58021968.72738,   0.00000,274640135.82653,   0.00000,   0.00000,   0.00000,-416618167.09915,   0.00000
36242580.32097,63628654.87893,12895806.80931,   0.00004,   0.00022,   0.00017,59623562.57931,   0.00000,274640135.82653,   0.00000,   0.00000,   0.00000,-415016573.24722,   0.00000
37469832.07427,65300423.01532,13263015.99534,   0.00004,   0.00022,   0.00017,61229571.75066,   0.00000,274640135.82653,   0.00000,   0.00000,   0.00000,-413410564.07587,   0.00000
38730905.72629,66986686.25116,13635056.88119,   0.00005,   0.00023,   0.00018,62853707.06362,   0.00000,274640135.82653,   0.00000,   0.00000,   0.00000,-411786428.76291,   0.00000
39991979.37831,68672949.48699,14007097.76703,   0.00005,   0.00023,   0.00018,64479156.24194,   0.00000,274640135.82653,   0.00000,   0.00000,   0.00000,-410160979.58459,   0.00000
41286874.92903,70373707.82228,14379138.65287,   0.00005,   0.00024,   0.00019,66119839.73140,   0.00000,274640135.82653,   0.00000,   0.00000,   0.00000,-408520296.09513,   0.00000
42581770.47976,72074466.15757,14756011.23853,   0.00005,   0.00024,   0.00019,67765013.66289,   0.00000,274640135.82653,   0.00000,   0.00000,   0.00000,-406875122.16364,   0.00000
43903240.37948,73772808.64294,15132883.82419,   0.00006,   0.00025,   0.00020,69412311.43015,   0.00000,274640135.82653,   0.00000,   0.00000,   0.00000,-405227824.39638,   0.00000
45231957.82892,75488062.07768,15514588.10967,   0.00006,   0.00026,   0.00020,71077507.11325,   0.00000,274640135.82653,   0.00000,   0.00000,   0.00000,-403562628.71328,   0.00000
46594497.17708,77217810.61186,15901124.09496,   0.00006,   0.00026,   0.00021,72761594.44892,   0.00000,274640135.82653,   0.00000,   0.00000,   0.00000,-401878541.37760,   0.00000
47957036.52523,78947559.14605,16282828.38044,   0.00006,   0.00027,   0.00021,74443904.85497,   0.00000,274640135.82653,   0.00000,   0.00000,   0.00000,-400196230.97156,   0.00000
49353397.77210,80691802.77968,16674196.06555,   0.00007,   0.00027,   0.00022,76148517.45930,   0.00000,274640135.82653,   0.00000,   0.00000,   0.00000,-398491618.36723,   0.00000
50742511.46925,82419135.46395,17060732.05084,   0.00007,   0.00028,   0.00022,77838089.44597,   0.00000,274640135.82653,   0.00000,   0.00000,   0.00000,-396802046.38056,   0.00000
52155783.66547,84170626.64731,17452099.73595,   0.00007,   0.00028,   0.00023,79552891.34366,   0.00000,274640135.82653,   0.00000,   0.00000,   0.00000,-395087244.48287,   0.00000
53602877.76041,85936612.93011,17848299.12087,   0.00008,   0.00029,   0.00023,81287179.38633,   0.00000,274640135.82653,   0.00000,   0.00000,   0.00000,-393352956.44020,   0.00000
55042724.30562,87685688.26356,18244498.50580,   0.00008,   0.00029,   0.00024,83009682.79534,   0.00000,274640135.82653,   0.00000,   0.00000,   0.00000,-391630453.03119,   0.00000
56506729.34992,89458922.09609,18640697.89072,   0.00008,   0.00030,   0.00024,84754380.17683,   0.00000,274640135.82653,   0.00000,   0.00000,   0.00000,-389885755.64970,   0.00000
57980397.79385,91222492.52898,19041728.97546,   0.00009,   0.00030,   0.00025,86498066.99621,   0.00000,274640135.82653,   0.00000,   0.00000,   0.00000,-388142068.83032,   0.00000
59478224.73685,93010221.46096,19442760.06020,   0.00009,   0.00031,   0.00025,88264038.06455,   0.00000,274640135.82653,   0.00000,   0.00000,   0.00000,-386376097.76198,   0.00000
60985715.07949,94788286.99331,19848622.84476,   0.00009,   0.00031,   0.00026,90029155.37722,   0.00000,274640135.82653,   0.00000,   0.00000,   0.00000,-384610980.44931,   0.00000
62510116.37149,96573600.07537,20254485.62932,   0.00010,   0.00032,   0.00026,91803488.30788,   0.00000,274640135.82653,   0.00000,   0.00000,   0.00000,-382836647.51865,   0.00000
64058676.16257,98383071.65652,20660348.41387,   0.00010,   0.00032,   0.00027,93600232.06647,   0.00000,274640135.82653,   0.00000,   0.00000,   0.00000,-381039903.76006,   0.00000
65599988.40392,100175632.28832,21071042.89825,   0.00010,   0.00033,   0.00027,95388479.45611,   0.00000,274640135.82653,   0.00000,   0.00000,   0.00000,-379251656.37042,   0.00000
67175122.54399,101982688.01956,21481737.38262,   0.00011,   0.00033,   0.00028,97193936.55132,   0.00000,274640135.82653,   0.00000,   0.00000,   0.00000,-377446199.27521,   0.00000
68767167.63341,103796991.30052,21892431.86699,   0.00011,   0.00034,   0.00028,99008834.78715,   0.00000,274640135.82653,   0.00000,   0.00000,   0.00000,-375631301.03938,   0.00000
70359212.72283,105611294.58149,22307958.05118,   0.00011,   0.00034,   0.00029,100828427.50932,   0.00000,274640135.82653,   0.00000,   0.00000,   0.00000,-373811708.31721,   0.00000
71968168.76161,107432845.41218,22723484.23537,   0.00012,   0.00035,   0.00030,102657482.17485,   0.00000,274640135.82653,   0.00000,   0.00000,   0.00000,-371982653.65168,   0.00000
73610946.69910,109268891.34232,23143842.11938,   0.00012,   0.00035,   0.00030,104507357.81173,   0.00000,274640135.82653,   0.00000,   0.00000,   0.00000,-370132778.01480,   0.00000
75253724.63660,111104937.27246,23564200.00338,   0.00013,   0.00036,   0.00031,106358753.13357,   0.00000,274640135.82653,   0.00000,   0.00000,   0.00000,-368281382.69296,   0.00000
76913413.52344,112948230.75232,23984557.88739,   0.00013,   0.00036,   0.00031,108219772.14203,   0.00000,274640135.82653,   0.00000,   0.00000,   0.00000,-366420363.68450,   0.00000
78582765.80993,114781860.83255,24409747.47121,   0.00013,   0.00037,   0.00032,110080688.06250,   0.00000,274640135.82653,   0.00000,   0.00000,   0.00000,-364559447.76403,   0.00000
80276276.59549,116639649.41186,24830105.35521,   0.00014,   0.00037,   0.00032,111961127.34616,   0.00000,274640135.82653,   0.00000,   0.00000,   0.00000,-362679008.48037,   0.00000
81969787.38105,118497437.99117,25260126.63885,   0.00014,   0.00038,   0.00033,113849466.62090,   0.00000,274640135.82653,   0.00000,   0.00000,   0.00000,-360790669.20563,   0.00000
83689872.51560,120352810.72058,25685316.22267,   0.00015,   0.00038,   0.00033,115739746.12162,   0.00000,274640135.82653,   0.00000,   0.00000,   0.00000,-358900389.70491,   0.00000
85417205.19988,122225094.39934,26115337.50631,   0.00015,   0.00039,   0.00034,117647691.16055,   0.00000,274640135.82653,   0.00000,   0.00000,   0.00000,-356992444.66598,   0.00000
87154201.28378,124087714.67846,26545358.78995,   0.00015,   0.00039,   0.00035,119552575.43636,   0.00000,274640135.82653,   0.00000,   0.00000,   0.00000,-355087560.39016,   0.00000
88908108.31705,125957582.50731,26980211.77340,   0.00016,   0.00040,   0.00035,121470611.29632,   0.00000,274640135.82653,   0.00000,   0.00000,   0.00000,-353169524.53021,   0.00000
90678926.29967,127834697.88589,27415064.75686,   0.00016,   0.00040,   0.00036,123398629.80265,   0.00000,274640135.82653,   0.00000,   0.00000,   0.00000,-351241506.02388,   0.00000
92466655.23164,129719060.81419,27849917.74031,   0.00017,   0.00041,   0.00036,125336679.18607,   0.00000,274640135.82653,   0.00000,   0.00000,   0.00000,-349303456.64046,   0.00000
94271295.11298,131610671.29221,28284770.72376,   0.00017,   0.00041,   0.00037,127284807.46557,   0.00000,274640135.82653,   0.00000,   0.00000,   0.00000,-347355328.36096,   0.00000
96075934.99431,133502281.77024,28724455.40703,   0.00018,   0.00042,   0.00037,129237653.15586,   0.00000,274640135.82653,   0.00000,   0.00000,   0.00000,-345402482.67067,   0.00000
97897485.82500,135401139.79799,29164140.09030,   0.00018,   0.00043,   0.00038,131200596.13816,   0.00000,274640135.82653,   0.00000,   0.00000,   0.00000,-343439539.68837,   0.00000
99735947.60505,137307245.37546,29603824.77357,   0.00019,   0.00043,   0.00038,133173683.47533,   0.00000,274640135.82653,   0.00000,   0.00000,   0.00000,-341466452.35120,   0.00000
101591320.33445,139220598.50266,30043509.45684,   0.00019,   0.00044,   0.00039,135156961.99807,   0.00000,274640135.82653,   0.00000,   0.00000,   0.00000,-339483173.82846,   0.00000
103456356.46349,141124288.23022,30488025.83993,   0.00020,   0.00044,   0.00040,137140938.13021,   0.00000,274640135.82653,   0.00000,   0.00000,   0.00000,-337499197.69632,   0.00000
105328640.14225,143044888.90714,30932542.22302,   0.00020,   0.00045,   0.00040,139139158.95218,   0.00000,274640135.82653,   0.00000,   0.00000,   0.00000,-335500976.87435,   0.00000
107210587.22064,144955826.18443,31377058.60610,   0.00021,   0.00045,   0.00041,141134906.13959,   0.00000,274640135.82653,   0.00000,   0.00000,   0.00000,-333505229.68694,   0.00000
109109445.24839,146874011.01144,31826406.68901,   0.00021,   0.00046,   0.00041,143144209.72690,   0.00000,274640135.82653,   0.00000,   0.00000,   0.00000,-331495926.09963,   0.00000
111025214.22549,148799443.38818,32275754.77191,   0.00022,   0.00046,   0.00042,145163891.88063,   0.00000,274640135.82653,   0.00000,   0.00000,   0.00000,-329476243.94590,   0.00000
112965141.70168,150749034.26400,32725102.85481,   0.00022,   0.00047,   0.00043,147206676.56312,   0.00000,274640135.82653,   0.00000,   0.00000,   0.00000,-327433459.26341,   0.00000
114890574.07841,152664803.24110,33174450.93771,   0.00023,   0.00047,   0.00043,149225573.74602,   0.00000,274640135.82653,   0.00000,   0.00000,   0.00000,-325414562.08051,   0.00000
116840164.95423,154604730.71729,33623799.02061,   0.00023,   0.00048,   0.00044,151267591.53474,   0.00000,274640135.82653,   0.00000,   0.00000,   0.00000,-323372544.29179,   0.00000
118806666.77941,156551905.74320,34077978.80333,   0.00024,   0.00048,   0.00044,153323315.51890,   0.00000,274640135.82653,   0.00000,   0.00000,   0.00000,-321316820.30763,   0.00000
120773168.60458,158499080.76911,34532158.58605,   0.00024,   0.00049,   0.00045,155380470.40694,   0.00000,274640135.82653,   0.00000,   0.00000,   0.00000,-319259665.41959,   0.00000
122749333.82939,160436592.39539,34986338.36877,   0.00025,   0.00049,   0.00045,157435529.38893,   0.00000,274640135.82653,   0.00000,   0.00000,   0.00000,-317204606.43760,   0.00000
124749657.55328,162398262.52075,35440518.15149,   0.00025,   0.00050,   0.00046,159513748.85333,   0.00000,274640135.82653,   0.00000,   0.00000,   0.00000,-315126386.97320,   0.00000
126759644.67680,164350269.24647,35894697.93421,   0.00026,   0.00050,   0.00047,161589989.81101,   0.00000,274640135.82653,   0.00000,   0.00000,   0.00000,-313050146.01552,   0.00000
128769631.80032,166302275.97220,36353709.41674,   0.00026,   0.00051,   0.00047,163670885.58476,   0.00000,274640135.82653,   0.00000,   0.00000,   0.00000,-310969250.24177,   0.00000
130796529.87319,168261530.24765,36812720.89928,   0.00027,   0.00051,   0.00048,165762419.68742,   0.00000,274640135.82653,   0.00000,   0.00000,   0.00000,-308877716.13911,   0.00000
132840338.89543,170228032.07282,37271732.38181,   0.00027,   0.00052,   0.00048,167864633.48605,   0.00000,274640135.82653,   0.00000,   0.00000,   0.00000,-306775502.34048,   0.00000
134901058.86701,172201781.44772,37730743.86435,   0.00028,   0.00052,   0.00049,169977568.10473,   0.00000,274640135.82653,   0.00000,   0.00000,   0.00000,-304662567.72180,   0.00000
136961778.83860,174175530.82262,38189755.34688,   0.00028,   0.00053,   0.00050,172091911.80505,   0.00000,274640135.82653,   0.00000,   0.00000,   0.00000,-302548224.02148,   0.00000
139032162.20983,176139616.79789,38653598.52923,   0.00029,   0.00053,   0.00050,174207740.92446,   0.00000,274640135.82653,   0.00000,   0.00000,   0.00000,-300432394.90207,   0.00000
141109793.13077,178120613.72251,39112610.01177,   0.00029,   0.00054,   0.00051,176334207.06539,   0.00000,274640135.82653,   0.00000,   0.00000,   0.00000,-298305928.76114,   0.00000
143197087.45135,180091947.24750,39576453.19412,   0.00030,   0.00054,   0.00051,178462208.71921,   0.00000,274640135.82653,   0.00000,   0.00000,   0.00000,-296177927.10732,   0.00000
145308540.27101,182087439.27157,40040296.37647,   0.00031,   0.00055,   0.00052,180613464.10409,   0.00000,274640135.82653,   0.00000,   0.00000,   0.00000,-294026671.72244,   0.00000
147412745.54095,184066020.34629,40504139.55882,   0.00031,   0.00055,   0.00053,182753648.22131,   0.00000,274640135.82653,   0.00000,   0.00000,   0.00000,-291886487.60522,   0.00000
149533861.76024,186051848.97073,40972814.44098,   0.00032,   0.00055,   0.00053,184907894.43335,   0.00000,274640135.82653,   0.00000,   0.00000,   0.00000,-289732241.39317,   0.00000
151671888.92888,188044925.14489,41436657.62334,   0.00032,   0.00056,   0.00054,187069817.31099,   0.00000,274640135.82653,   0.00000,   0.00000,   0.00000,-287570318.51554,   0.00000
153802668.54781,190021090.36970,41905332.50550,   0.00033,   0.00056,   0.00054,189223929.60638,   0.00000,274640135.82653,   0.00000,   0.00000,   0.00000,-285416206.22014,   0.00000
155957606.66581,192021414.09359,42369175.68785,   0.00034,   0.00057,   0.00055,191398117.86486,   0.00000,274640135.82653,   0.00000,   0.00000,   0.00000,-283242017.96167,   0.00000
158122208.18345,194012074.41784,42837850.57002,   0.00034,   0.00057,   0.00056,193574131.64961,   0.00000,274640135.82653,   0.00000,   0.00000,   0.00000,-281066004.17692,   0.00000
160294057.25081,196019645.69145,43306525.45219,   0.00035,   0.00058,   0.00056,195763805.17961,   0.00000,274640135.82653,   0.00000,   0.00000,   0.00000,-278876330.64691,   0.00000
162458658.76845,198010306.01571,43775200.33435,   0.00035,   0.00058,   0.00057,197942448.33429,   0.00000,274640135.82653,   0.00000,   0.00000,   0.00000,-276697687.49224,   0.00000
164640171.23544,200008213.88969,44243875.21652,   0.00036,   0.00059,   0.00058,200132072.65956,   0.00000,274640135.82653,   0.00000,   0.00000,   0.00000,-274508063.16697,   0.00000
166838594.65179,202013369.31339,44712550.09869,   0.00037,   0.00059,   0.00058,202332715.64084,   0.00000,274640135.82653,   0.00000,   0.00000,   0.00000,-272307420.18569,   0.00000
169046681.46777,204008861.33746,45181224.98085,   0.00037,   0.00060,   0.00059,204532159.55607,   0.00000,274640135.82653,   0.00000,   0.00000,   0.00000,-270107976.27046,   0.00000
171245104.88412,206014016.76117,45654731.56284,   0.00038,   0.00060,   0.00059,206738561.19071,   0.00000,274640135.82653,   0.00000,   0.00000,   0.00000,-267901574.63582,   0.00000
173470102.64946,208016756.33496,46123406.44500,   0.00038,   0.00061,   0.00060,208950389.37837,   0.00000,274640135.82653,   0.00000,   0.00000,   0.00000,-265689746.44816,   0.00000
175702347.96453,210036406.85811,46596913.02699,   0.00039,   0.00061,   0.00061,211178915.50542,   0.00000,274640135.82653,   0.00000,   0.00000,   0.00000,-263461220.32111,   0.00000
177927345.72986,212039146.43191,47065587.90915,   0.00040,   0.00062,   0.00061,213393266.43148,   0.00000,274640135.82653,   0.00000,   0.00000,   0.00000,-261246869.39505,   0.00000
180169254.44456,214049133.55543,47539094.49114,   0.00040,   0.00062,   0.00062,215621927.29605,   0.00000,274640135.82653,   0.00000,   0.00000,   0.00000,-259018208.53047,   0.00000
182428074.10861,216066368.22867,48007769.37330,   0.00041,   0.00063,   0.00062,217858541.32328,   0.00000,274640135.82653,   0.00000,   0.00000,   0.00000,-256781594.50325,   0.00000
184686893.77266,218083602.90192,48481275.95529,   0.00042,   0.00063,   0.00063,220099581.41289,   0.00000,274640135.82653,   0.00000,   0.00000,   0.00000,-254540554.41364,   0.00000
186938465.88699,220083926.62581,48954782.53727,   0.00042,   0.00064,   0.00064,222329677.23005,   0.00000,274640135.82653,   0.00000,   0.00000,   0.00000,-252310458.59648,   0.00000
189206948.95068,222091497.89942,49428289.11925,   0.00043,   0.00064,   0.00064,224570958.85436,   0.00000,274640135.82653,   0.00000,   0.00000,   0.00000,-250069176.97217,   0.00000
191482679.56408,224115980.12239,49901795.70124,   0.00043,   0.00065,   0.00065,226825546.08094,   0.00000,274640135.82653,   0.00000,   0.00000,   0.00000,-247814589.74559,   0.00000
193768073.57712,226130798.94572,50375302.28322,   0.00044,   0.00065,   0.00065,229079218.87816,   0.00000,274640135.82653,   0.00000,   0.00000,   0.00000,-245560916.94837,   0.00000
196070378.53952,228152865.31878,50848808.86520,   0.00045,   0.00066,   0.00066,231344134.81846,   0.00000,274640135.82653,   0.00000,   0.00000,   0.00000,-243296001.00807,   0.00000
198355772.55256,230167684.14212,51322315.44719,   0.00045,   0.00066,   0.00067,233600142.79150,   0.00000,274640135.82653,   0.00000,   0.00000,   0.00000,-241039993.03503,   0.00000
200667740.91459,232180087.11555,51795822.02917,   0.00046,   0.00067,   0.00067,235865434.23942,   0.00000,274640135.82653,   0.00000,   0.00000,   0.00000,-238774701.58711,   0.00000
202970045.87699,234202153.48861,52269328.61115,   0.00047,   0.00067,   0.00068,238133816.42328,   0.00000,274640135.82653,   0.00000,   0.00000,   0.00000,-236506319.40325,   0.00000
205282014.23902,236214556.46204,52742835.19314,   0.00047,   0.00067,   0.00069,240401418.68157,   0.00000,274640135.82653,   0.00000,   0.00000,   0.00000,-234238717.14496,   0.00000
207610893.55041,238234206.98519,53216341.77512,   0.00048,   0.00068,   0.00069,242680326.78396,   0.00000,274640135.82653,   0.00000,   0.00000,   0.00000,-231959809.04257,   0.00000
209922861.91244,240246609.95862,53689848.35710,   0.00049,   0.00068,   0.00070,244950168.54999,   0.00000,274640135.82653,   0.00000,   0.00000,   0.00000,-229689967.27654,   0.00000
212268652.17318,242273508.03149,54163354.93908,   0.00049,   0.00069,   0.00070,247241520.45513,   0.00000,274640135.82653,   0.00000,   0.00000,   0.00000,-227398615.37140,   0.00000
214590283.93484,244276247.60529,54636861.52107,   0.00050,   0.00069,   0.00071,249511774.63562,   0.00000,274640135.82653,   0.00000,   0.00000,   0.00000,-225128361.19091,   0.00000
216936074.19558,246303145.67817,55110368.10305,   0.00051,   0.00070,   0.00072,251805322.40258,   0.00000,274640135.82653,   0.00000,   0.00000,   0.00000,-222834813.42395,   0.00000
219274616.90660,248313132.80169,55583874.68503,   0.00051,   0.00070,   0.00072,254087984.46279,   0.00000,274640135.82653,   0.00000,   0.00000,   0.00000,-220552151.36374,   0.00000
221630070.56698,250330367.47493,56057381.26702,   0.00052,   0.00071,   0.00073,256382008.01670,   0.00000,274640135.82653,   0.00000,   0.00000,   0.00000,-218258127.80983,   0.00000
223985524.22735,252347602.14817,56530887.84900,   0.00053,   0.00071,   0.00073,258677098.44833,   0.00000,274640135.82653,   0.00000,   0.00000,   0.00000,-215963037.37820,   0.00000
226340977.88773,254364836.82142,57004394.43098,   0.00053,   0.00072,   0.00074,260973227.61018,   0.00000,274640135.82653,   0.00000,   0.00000,   0.00000,-213666908.21635,   0.00000
228706094.94773,256372408.09503,57477901.01297,   0.00054,   0.00072,   0.00075,263268844.54013,   0.00000,274640135.82653,   0.00000,   0.00000,   0.00000,-211371291.28640,   0.00000
231078459.55746,258396890.31800,57951407.59495,   0.00055,   0.00073,   0.00075,265577387.88355,   0.00000,274640135.82653,   0.00000,   0.00000,   0.00000,-209062747.94298,   0.00000
233443576.61747,260404461.59161,58424914.17693,   0.00055,   0.00073,   0.00076,267875064.14265,   0.00000,274640135.82653,   0.00000,   0.00000,   0.00000,-206765071.68388,   0.00000
235808693.67748,262412032.86522,58893589.05910,   0.00056,   0.00073,   0.00077,270170577.28021,   0.00000,274640135.82653,   0.00000,   0.00000,   0.00000,-204469558.54632,   0.00000
238190721.68684,264426851.68856,59367095.64108,   0.00057,   0.00074,   0.00077,272480665.89965,   0.00000,274640135.82653,   0.00000,   0.00000,   0.00000,-202159469.92688,   0.00000
240572749.69621,266441670.51189,59840602.22307,   0.00058,   0.00074,   0.00078,274791738.22392,   0.00000,274640135.82653,   0.00000,   0.00000,   0.00000,-199848397.60261,   0.00000
242947530.15585,268439578.38587,60309277.10523,   0.00058,   0.00075,   0.00078,277088801.29438,   0.00000,274640135.82653,   0.00000,   0.00000,   0.00000,-197551334.53215,   0.00000
245339221.56484,270444733.80958,60782783.68722,   0.00059,   0.00075,   0.00079,279400478.86953,   0.00000,274640135.82653,   0.00000,   0.00000,   0.00000,-195239656.95700,   0.00000
247730912.97384,272449889.23328,61251458.56938,   0.00060,   0.00076,   0.00080,281709976.95738,   0.00000,274640135.82653,   0.00000,   0.00000,   0.00000,-192930158.86915,   0.00000
250122604.38283,274455044.65699,61724965.15137,   0.00060,   0.00076,   0.00080,284023576.79270,   0.00000,274640135.82653,   0.00000,   0.00000,   0.00000,-190616559.03383,   0.00000
252514295.79183,276460200.08069,62193640.03353,   0.00061,   0.00077,   0.00081,286334953.59791,   0.00000,274640135.82653,   0.00000,   0.00000,   0.00000,-188305182.22862,   0.00000
254905987.20083,278465355.50439,62662314.91570,   0.00062,   0.00077,   0.00081,288647236.80077,   0.00000,274640135.82653,   0.00000,   0.00000,   0.00000,-185992899.02575,   0.00000
257307342.00946,280460847.52846,63130989.79787,   0.00062,   0.00077,   0.00082,290959250.84393,   0.00000,274640135.82653,   0.00000,   0.00000,   0.00000,-183680884.98260,   0.00000
259708696.81808,282456339.55254,63599664.68003,   0.00063,   0.00078,   0.00083,293272186.10944,   0.00000,274640135.82653,   0.00000,   0.00000,   0.00000,-181367949.71709,   0.00000
262110051.62671,284451831.57661,64068339.56220,   0.00064,   0.00078,   0.00083,295586020.97183,   0.00000,274640135.82653,   0.00000,   0.00000,   0.00000,-179054114.85470,   0.00000
264511406.43534,286447323.60068,64537014.44437,   0.00064,   0.00079,   0.00084,297900734.46925,   0.00000,274640135.82653,   0.00000,   0.00000,   0.00000,-176739401.35728,   0.00000
266905513.69425,288425904.67539,65005689.32653,   0.00065,   0.00079,   0.00085,300204614.24260,   0.00000,274640135.82653,   0.00000,   0.00000,   0.00000,-174435521.58393,   0.00000
269323779.45223,290428644.24919,65469532.50888,   0.00066,   0.00080,   0.00085,302528568.08783,   0.00000,274640135.82653,   0.00000,   0.00000,   0.00000,-172111567.73870,   0.00000
271717886.71113,292407225.32391,65938207.39105,   0.00067,   0.00080,   0.00086,304834157.59745,   0.00000,274640135.82653,   0.00000,   0.00000,   0.00000,-169805978.22908,   0.00000
274128904.91939,294393053.94834,66402050.57340,   0.00067,   0.00080,   0.00086,307148137.21014,   0.00000,274640135.82653,   0.00000,   0.00000,   0.00000,-167491998.61639,   0.00000
276539923.12766,296378882.57278,66865893.75575,   0.00068,   0.00081,   0.00087,309462955.71275,   0.00000,274640135.82653,   0.00000,   0.00000,   0.00000,-165177180.11378,   0.00000
278943693.78619,298347800.24787,67329736.93810,   0.00069,   0.00081,   0.00088,311766959.77952,   0.00000,274640135.82653,   0.00000,   0.00000,   0.00000,-162873176.04701,   0.00000
281354711.99445,300333628.87231,67793580.12045,   0.00069,   0.00082,   0.00088,314083411.62201,   0.00000,274640135.82653,   0.00000,   0.00000,   0.00000,-160556724.20452,   0.00000
283758482.65299,302302546.54739,68257423.30281,   0.00070,   0.00082,   0.00089,316389035.40413,   0.00000,274640135.82653,   0.00000,   0.00000,   0.00000,-158251100.42240,   0.00000
286162253.31153,304271464.22247,68721266.48516,   0.00071,   0.00083,   0.00089,318695448.26070,   0.00000,274640135.82653,   0.00000,   0.00000,   0.00000,-155944687.56583,   0.00000
288566023.97006,306240381.89755,69180277.96769,   0.00072,   0.00083,   0.00090,320999509.17480,   0.00000,274640135.82653,   0.00000,   0.00000,   0.00000,-153640626.65173,   0.00000
290979458.02823,308199636.17300,69639289.45023,   0.00072,   0.00083,   0.00091,323303556.33499,   0.00000,274640135.82653,   0.00000,   0.00000,   0.00000,-151336579.49154,   0.00000
293383228.68677,310168553.84809,70103132.63258,   0.00073,   0.00084,   0.00091,325612264.08188,   0.00000,274640135.82653,   0.00000,   0.00000,   0.00000,-149027871.74465,   0.00000
295779751.79558,312120560.57381,70562144.11511,   0.00074,   0.00084,   0.00092,327907018.09310,   0.00000,274640135.82653,   0.00000,   0.00000,   0.00000,-146733117.73343,   0.00000
298193185.85375,314079814.84926,71016323.89783,   0.00074,   0.00085,   0.00092,330210236.61144,   0.00000,274640135.82653,   0.00000,   0.00000,   0.00000,-144429899.21509,   0.00000
300582461.41284,316014910.62563,71475335.38036,   0.00075,   0.00085,   0.00093,332494918.56406,   0.00000,274640135.82653,   0.00000,   0.00000,   0.00000,-142145217.26247,   0.00000
302995895.47101,317974164.90108,71929515.16308,   0.00076,   0.00086,   0.00094,334799612.96387,   0.00000,274640135.82653,   0.00000,   0.00000,   0.00000,-139840522.86266,   0.00000
305385171.03009,319909260.67745,72388526.64562,   0.00077,   0.00086,   0.00094,337085730.69169,   0.00000,274640135.82653,   0.00000,   0.00000,   0.00000,-137554405.13484,   0.00000
307774446.58918,321844356.45382,72842706.42834,   0.00077,   0.00086,   0.00095,339369431.00173,   0.00000,274640135.82653,   0.00000,   0.00000,   0.00000,-135270704.82480,   0.00000
310180633.09763,323786699.77992,73296886.21105,   0.00078,   0.00087,   0.00095,341664732.10093,   0.00000,274640135.82653,   0.00000,   0.00000,   0.00000,-132975403.72560,   0.00000
312569908.65671,325721795.55629,73746234.29396,   0.00079,   0.00087,   0.00096,343946689.51913,   0.00000,274640135.82653,   0.00000,   0.00000,   0.00000,-130693446.30740,   0.00000
314951936.66608,327639980.38330,74200414.07667,   0.00079,   0.00088,   0.00096,346220936.90558,   0.00000,274640135.82653,   0.00000,   0.00000,   0.00000,-128419198.92095,   0.00000
317341212.22517,329575076.15967,74649762.15958,   0.00080,   0.00088,   0.00097,348504207.41495,   0.00000,274640135.82653,   0.00000,   0.00000,   0.00000,-126135928.41158,   0.00000
319740151.18389,331500508.53641,75099110.24248,   0.00081,   0.00088,   0.00098,350787624.92377,   0.00000,274640135.82653,   0.00000,   0.00000,   0.00000,-123852510.90276,   0.00000
322114931.64353,333401782.41406,75548458.32538,   0.00082,   0.00089,   0.00098,353049279.87248,   0.00000,274640135.82653,   0.00000,   0.00000,   0.00000,-121590855.95405,   0.00000
324480048.70353,335312719.69135,75997806.40828,   0.00082,   0.00089,   0.00099,355312023.59856,   0.00000,274640135.82653,   0.00000,   0.00000,   0.00000,-119328112.22796,   0.00000
326854829.16317,337213993.56901,76442322.79137,   0.00083,   0.00090,   0.00099,357571839.89771,   0.00000,274640135.82653,   0.00000,   0.00000,   0.00000,-117068295.92882,   0.00000
329236857.17254,339132178.39602,76886839.17446,   0.00084,   0.00090,   0.00100,359843699.51135,   0.00000,274640135.82653,   0.00000,   0.00000,   0.00000,-114796436.31518,   0.00000
331594726.68282,341026204.72395,77331355.55754,   0.00084,   0.00091,   0.00101,362093716.57385,   0.00000,274640135.82653,   0.00000,   0.00000,   0.00000,-112546419.25268,   0.00000
333962259.59274,342910567.65225,77775871.94063,   0.00085,   0.00091,   0.00101,364343956.99240,   0.00000,274640135.82653,   0.00000,   0.00000,   0.00000,-110296178.83413,   0.00000
336320129.10302,344804593.98018,78215556.62390,   0.00086,   0.00091,   0.00102,366592050.65159,   0.00000,274640135.82653,   0.00000,   0.00000,   0.00000,-108048085.17494,   0.00000
338670751.06358,346681709.35876,78660073.00698,   0.00086,   0.00092,   0.00102,368832416.68505,   0.00000,274640135.82653,   0.00000,   0.00000,   0.00000,-105807719.14148,   0.00000
341021373.02414,348558824.73734,79099757.69025,   0.00087,   0.00092,   0.00103,371070259.07489,   0.00000,274640135.82653,   0.00000,   0.00000,   0.00000,-103569876.75164,   0.00000
343371994.98470,350435940.11591,79534610.67371,   0.00088,   0.00092,   0.00103,373305571.98870,   0.00000,274640135.82653,   0.00000,   0.00000,   0.00000,-101334563.83783,   0.00000
345715369.39553,352296144.54513,79974295.35698,   0.00089,   0.00093,   0.00104,375533170.44323,   0.00000,274640135.82653,   0.00000,   0.00000,   0.00000,-99106965.38330,   0.00000
348049080.40673,354166012.37398,80409148.34043,   0.00089,   0.00093,   0.00105,377758474.67036,   0.00000,274640135.82653,   0.00000,   0.00000,   0.00000,-96881661.15617,   0.00000
350375543.86821,356018969.25348,80844001.32389,   0.00090,   0.00094,   0.00105,379972954.14258,   0.00000,274640135.82653,   0.00000,   0.00000,   0.00000,-94667181.68395,   0.00000
352702007.32969,357871926.13297,81274022.60752,   0.00091,   0.00094,   0.00106,382184870.22238,   0.00000,274640135.82653,   0.00000,   0.00000,   0.00000,-92455265.60415,   0.00000
355021223.24144,359707972.06311,81708875.59098,   0.00091,   0.00094,   0.00106,384389061.91135,   0.00000,274640135.82653,   0.00000,   0.00000,   0.00000,-90251073.91518,   0.00000
357330775.75356,361553681.39288,82138896.87462,   0.00092,   0.00095,   0.00107,386590850.27979,   0.00000,274640135.82653,   0.00000,   0.00000,   0.00000,-88049285.54674,   0.00000
359633080.71596,363382479.77330,82568918.15825,   0.00093,   0.00095,   0.00107,388781812.08724,   0.00000,274640135.82653,   0.00000,   0.00000,   0.00000,-85858323.73929,   0.00000
361935385.67836,365211278.15371,82994107.74207,   0.00093,   0.00096,   0.00108,390970180.50469,   0.00000,274640135.82653,   0.00000,   0.00000,   0.00000,-83669955.32184,   0.00000
364237690.64076,367040076.53412,83419297.32590,   0.00094,   0.00096,   0.00108,393159027.25886,   0.00000,274640135.82653,   0.00000,   0.00000,   0.00000,-81481108.56767,   0.00000
366515837.10407,368844716.41546,83844486.90972,   0.00095,   0.00096,   0.00109,395325875.23805,   0.00000,274640135.82653,   0.00000,   0.00000,   0.00000,-79314260.58847,   0.00000
368793983.56739,370649356.29679,84269676.49354,   0.00096,   0.00097,   0.00110,397493182.52308,   0.00000,274640135.82653,   0.00000,   0.00000,   0.00000,-77146953.30345,   0.00000
371072130.03071,372453996.17813,84690034.37754,   0.00096,   0.00097,   0.00110,399657869.96245,   0.00000,274640135.82653,   0.00000,   0.00000,   0.00000,-74982265.86408,   0.00000
373350276.49402,374258636.05946,85110392.26155,   0.00097,   0.00097,   0.00111,401823004.54668,   0.00000,274640135.82653,   0.00000,   0.00000,   0.00000,-72817131.27985,   0.00000
375611512.00798,376056028.39107,85530750.14556,   0.00098,   0.00098,   0.00111,403977349.21637,   0.00000,274640135.82653,   0.00000,   0.00000,   0.00000,-70662786.61016,   0.00000
377865499.97222,377836509.77332,85946276.32974,   0.00098,   0.00098,   0.00112,406117802.80915,   0.00000,274640135.82653,   0.00000,   0.00000,   0.00000,-68522333.01738,   0.00000
380102576.98710,379609743.60585,86361802.51393,   0.00099,   0.00099,   0.00112,408247434.13658,   0.00000,274640135.82653,   0.00000,   0.00000,   0.00000,-66392701.68995,   0.00000
382339654.00198,381382977.43838,86777328.69812,   0.00100,   0.00099,   0.00113,410377466.72305,   0.00000,274640135.82653,   0.00000,   0.00000,   0.00000,-64262669.10348,   0.00000
384576731.01686,383156211.27091,87188023.18250,   0.00100,   0.00099,   0.00113,412504830.55975,   0.00000,274640135.82653,   0.00000,   0.00000,   0.00000,-62135305.26678,   0.00000
386789649.53265,384905286.60435,87598717.66687,   0.00101,   0.00100,   0.00114,414610103.28168,   0.00000,274640135.82653,   0.00000,   0.00000,   0.00000,-60030032.54485,   0.00000
389002568.04845,386654361.93780,88009412.15124,   0.00102,   0.00100,   0.00114,416715758.87468,   0.00000,274640135.82653,   0.00000,   0.00000,   0.00000,-57924376.95185,   0.00000
391215486.56425,388403437.27125,88415274.93580,   0.00102,   0.00100,   0.00115,418818731.48469,   0.00000,274640135.82653,   0.00000,   0.00000,   0.00000,-55821404.34184,   0.00000
393411494.13069,390145265.05497,88821137.72036,   0.00103,   0.00101,   0.00115,420910778.45962,   0.00000,274640135.82653,   0.00000,   0.00000,   0.00000,-53729357.36691,   0.00000
395583343.19805,391862934.33962,89227000.50491,   0.00104,   0.00101,   0.00116,422980689.79665,   0.00000,274640135.82653,   0.00000,   0.00000,   0.00000,-51659446.02988,   0.00000
397772103.21477,393587851.17398,89628031.58965,   0.00104,   0.00102,   0.00117,425059204.66013,   0.00000,274640135.82653,   0.00000,   0.00000,   0.00000,-49580931.16640,   0.00000
399927041.33278,395298272.90890,90029062.67439,   0.00105,   0.00102,   0.00117,427115430.06970,   0.00000,274640135.82653,   0.00000,   0.00000,   0.00000,-47524705.75683,   0.00000
402098890.40014,397015942.19354,90425262.05932,   0.00106,   0.00102,   0.00118,429180253.79221,   0.00000,274640135.82653,   0.00000,   0.00000,   0.00000,-45459882.03432,   0.00000
404246580.96842,398709452.97911,90821461.44424,   0.00106,   0.00103,   0.00118,431222919.76374,   0.00000,274640135.82653,   0.00000,   0.00000,   0.00000,-43417216.06279,   0.00000
406377360.58734,400395716.21494,91217660.82917,   0.00107,   0.00103,   0.00119,433254566.45804,   0.00000,274640135.82653,   0.00000,   0.00000,   0.00000,-41385569.36849,   0.00000
408508140.20627,402081979.45078,91613860.21409,   0.00107,   0.00103,   0.00119,435286520.95824,   0.00000,274640135.82653,   0.00000,   0.00000,   0.00000,-39353614.86829,   0.00000
410622008.87583,403760995.13689,92005227.89920,   0.00108,   0.00104,   0.00120,437304368.05581,   0.00000,274640135.82653,   0.00000,   0.00000,   0.00000,-37335767.77072,   0.00000
412728629.99568,405423099.87365,92391763.88449,   0.00109,   0.00104,   0.00120,439308326.17978,   0.00000,274640135.82653,   0.00000,   0.00000,   0.00000,-35331809.64675,   0.00000
414835251.11552,407085204.61041,92778299.86979,   0.00109,   0.00104,   0.00121,441312582.05606,   0.00000,274640135.82653,   0.00000,   0.00000,   0.00000,-33327553.77047,   0.00000
416924961.28601,408740061.79744,93164835.85508,   0.00110,   0.00105,   0.00121,443305748.82386,   0.00000,274640135.82653,   0.00000,   0.00000,   0.00000,-31334387.00267,   0.00000
418997760.50714,410387671.43475,93551371.84037,   0.00111,   0.00105,   0.00122,445287801.79158,   0.00000,274640135.82653,   0.00000,   0.00000,   0.00000,-29352334.03495,   0.00000
421063312.17854,412018370.12270,93933076.12585,   0.00111,   0.00105,   0.00122,447255965.80756,   0.00000,274640135.82653,   0.00000,   0.00000,   0.00000,-27384170.01897,   0.00000
423119200.45031,413658732.21029,94309948.71151,   0.00112,   0.00106,   0.00123,449221050.00693,   0.00000,274640135.82653,   0.00000,   0.00000,   0.00000,-25419085.81960,   0.00000
425160593.62264,415265272.39916,94686821.29717,   0.00112,   0.00106,   0.00123,451164193.49090,   0.00000,274640135.82653,   0.00000,   0.00000,   0.00000,-23475942.33563,   0.00000
427192323.39533,416881475.98766,95063693.88283,   0.00113,   0.00106,   0.00124,453107269.38094,   0.00000,274640135.82653,   0.00000,   0.00000,   0.00000,-21532866.44559,   0.00000
429207142.21867,418490432.02644,95440566.46849,   0.00114,   0.00107,   0.00124,455039158.13559,   0.00000,274640135.82653,   0.00000,   0.00000,   0.00000,-19600977.69094,   0.00000
431214713.49228,420082477.11586,95807775.65451,   0.00114,   0.00107,   0.00125,456954112.93365,   0.00000,274640135.82653,   0.00000,   0.00000,   0.00000,-17686022.89288,   0.00000
433222284.76589,421674522.20528,96179816.54036,   0.00115,   0.00107,   0.00125,458872337.46076,   0.00000,274640135.82653,   0.00000,   0.00000,   0.00000,-15767798.36576,   0.00000
435205697.54042,423242408.79563,96547025.72639,   0.00115,   0.00108,   0.00126,460765246.68861,   0.00000,274640135.82653,   0.00000,   0.00000,   0.00000,-13874889.13792,   0.00000
437179446.91532,424819958.78560,96914234.91241,   0.00116,   0.00108,   0.00126,462657992.85572,   0.00000,274640135.82653,   0.00000,   0.00000,   0.00000,-11982142.97081,   0.00000
439129037.79114,426373350.27649,97276612.39863,   0.00117,   0.00108,   0.00126,464525397.12047,   0.00000,274640135.82653,   0.00000,   0.00000,   0.00000,-10114738.70606,   0.00000
441078628.66696,427926741.76739,97634158.18502,   0.00117,   0.00109,   0.00127,466389964.61244,   0.00000,274640135.82653,   0.00000,   0.00000,   0.00000,-8250171.21409,   0.00000
443004061.04370,429455974.75920,97996535.67123,   0.00118,   0.00109,   0.00127,468235255.51849,   0.00000,274640135.82653,   0.00000,   0.00000,   0.00000,-6404880.30804,   0.00000
444936740.97016,431002118.70037,98349249.75781,   0.00118,   0.00109,   0.00128,470085711.89449,   0.00000,274640135.82653,   0.00000,   0.00000,   0.00000,-4554423.93204,   0.00000
446828351.44818,432516856.59273,98706795.54421,   0.00119,   0.00110,   0.00128,471905400.84819,   0.00000,274640135.82653,   0.00000,   0.00000,   0.00000,-2734734.97833,   0.00000
448729625.32584,434021931.08547,99059509.63079,   0.00120,   0.00110,   0.00129,473722676.39825,   0.00000,274640135.82653,   0.00000,   0.00000,   0.00000,-917459.42828,   0.00000
449683859.57193,434789253.46892,99236584.02697,   0.00120,   0.00110,   0.00129,474640134.96469,   0.00000,274640135.82653,   0.00000,   0.00000,   0.00000,  -0.86184,   0.00000
449787439.41807,434745221.18670,99191858.29877,   0.00120,   0.00110,   0.00129,474640134.96469,   0.00000,274643321.26810,   0.00000,   0.00000,   0.00000,  -0.00000,   2.00000
450000361.16685,434648820.74303,99103661.23684,   0.00121,   0.00111,   0.00130,476434949.83396,   0.00001,274649768.90349,   0.00001,   0.00001,   0.00001,   0.00000,   2.00000
450208710.35982,434558276.33561,99014504.49416,   0.00121,   0.00111,   0.00130,476427047.14340,   0.00001,274656163.50265,   0.00001,   0.00001,   0.00001,   0.00000,   2.00000
450409750.98501,434470903.37990,98928468.75032,   0.00122,   0.00111,   0.00131,476422102.36672,   0.00002,274662515.95465,   0.00002,   0.00001,   0.00002,   0.00000,   2.00000
450609783.05932,434383775.22781,98842756.99145,   0.00122,   0.00112,   0.00131,476428605.16818,   0.00003,274668867.61094,   0.00002,   0.00002,   0.00003,  -0.00000,   2.00000
450808289.36144,434295337.40725,98758729.81389,   0.00123,   0.00112,   0.00131,476409566.69774,   0.00003,274675126.64960,   0.00002,   0.00002,   0.00003,  -0.00000,   2.00000
451002371.65918,434212730.23950,98673712.10717,   0.00123,   0.00112,   0.00132,476401440.18438,   0.00004,274681332.66925,   0.00003,   0.00003,   0.00004,   0.00000,   2.00000
451189294.26127,434133280.84032,98591789.98040,   0.00124,   0.00112,   0.00132,476396262.22176,   0.00004,274687496.51335,   0.00003,   0.00003,   0.00004,   0.00000,   2.00000
451378248.09923,434046897.71255,98512823.11925,   0.00124,   0.00113,   0.00133,476391555.18421,   0.00005,274693620.08078,   0.00004,   0.00003,   0.00005,   0.00000,   2.00000
451562876.26063,433966340.94914,98432835.22386,   0.00125,   0.00113,   0.00133,476383271.50995,   0.00005,274699690.67283,   0.00004,   0.00004,   0.00005,  -0.00000,   2.00000
451743218.39613,433891589.52310,98351827.16630,   0.00125,   0.00113,   0.00134,476374924.54887,   0.00006,274705708.26613,   0.00005,   0.00004,   0.00006,   0.00000,   2.00000
451916539.19207,433819981.60925,98273890.20275,   0.00126,   0.00114,   0.00134,476369517.29659,   0.00007,274711683.66105,   0.00005,   0.00004,   0.00006,  -0.00000,   2.00000
452091997.59828,433741397.10016,98198877.23434,   0.00126,   0.00114,   0.00134,476364613.39606,   0.00007,274717618.86934,   0.00005,   0.00005,   0.00007,   0.00000,   2.00000
452257108.61750,433671560.23353,98125590.65671,   0.00127,   0.00114,   0.00135,476344557.39391,   0.00008,274723459.66339,   0.00006,   0.00005,   0.00007,  -0.00000,   2.00000
452424242.24328,433604549.52072,98048469.65783,   0.00127,   0.00115,   0.00135,476347502.09825,   0.00008,274729288.95429,   0.00006,   0.00006,   0.00008,   0.00000,   2.00000
452584482.21125,433540667.81389,97974396.12262,   0.00128,   0.00115,   0.00136,476341869.53070,   0.00009,274735076.03046,   0.00007,   0.00006,   0.00008,  -0.00000,   2.00000
452743601.61596,433475351.07920,97901893.53657,   0.00128,   0.00115,   0.00136,476322211.06491,   0.00009,274740770.74992,   0.00007,   0.00006,   0.00009,   0.00000,   2.00000
452902017.93160,433410208.90012,97829642.73705,   0.00129,   0.00115,   0.00136,476327997.76002,   0.00010,274746464.77516,   0.00007,   0.00007,   0.00009,   0.00000,   2.00000
453047514.81603,433351156.53888,97763186.26919,   0.00129,   0.00116,   0.00137,476310629.93337,   0.00010,274752075.09866,   0.00008,   0.00007,   0.00010,   0.00000,   2.00000
453197921.24787,433297511.23932,97688759.38177,   0.00130,   0.00116,   0.00137,476310346.53128,   0.00011,274757663.25853,   0.00008,   0.00007,   0.00010,   0.00000,   2.00000
453338452.41508,433242720.72271,97622751.89912,   0.00130,   0.00116,   0.00138,476281874.50824,   0.00011,274763128.33860,   0.00009,   0.00008,   0.00011,  -0.00000,   2.00000
453478395.90162,433188076.04385,97556967.51928,   0.00131,   0.00117,   0.00138,476287409.06648,   0.00012,274768592.75091,   0.00009,   0.00008,   0.00011,   0.00000,   2.00000
453614439.12351,433139158.72784,97490070.36464,   0.00131,   0.00117,   0.00138,476278372.02429,   0.00012,274774004.25376,   0.00009,   0.00008,   0.00012,   0.00000,   2.00000
453746816.11916,433086121.60338,97428782.81299,   0.00132,   0.00117,   0.00139,476261286.47233,   0.00013,274779334.26178,   0.00010,   0.00009,   0.00012,  -0.00000,   2.00000
453881419.38389,433035838.47309,97363592.48703,   0.00132,   0.00117,   0.00139,476263703.80412,   0.00013,274784652.95301,   0.00010,   0.00009,   0.00013,   0.00000,   2.00000
454006119.30054,432994237.73504,97300042.44550,   0.00133,   0.00118,   0.00140,476242906.97652,   0.00014,274789877.20906,   0.00010,   0.00009,   0.00013,  -0.00000,   2.00000
454124272.85882,432955715.39069,97239465.63251,   0.00133,   0.00118,   0.00140,476236576.84992,   0.00014,274795059.24834,   0.00011,   0.00010,   0.00014,   0.00000,   2.00000
454247703.76973,432912672.02208,97177587.19193,   0.00133,   0.00118,   0.00140,476227878.04641,   0.00015,274800190.74960,   0.00011,   0.00010,   0.00014,   0.00000,   2.00000
454358572.71212,432875691.22613,97121434.42180,   0.00134,   0.00119,   0.00141,476209834.89456,   0.00015,274805238.48907,   0.00012,   0.00010,   0.00014,  -0.00000,   2.00000
454471783.35841,432841408.72131,97061350.32222,   0.00134,   0.00119,   0.00141,476211957.79339,   0.00016,274810274.97202,   0.00012,   0.00010,   0.00015,  -0.00000,   2.00000
454584277.21946,432805558.42869,97002711.37625,   0.00135,   0.00119,   0.00141,476191499.65662,   0.00016,274815219.41706,   0.00012,   0.00011,   0.00015,   0.00000,   2.00000
454681321.38202,432782996.25647,96947175.33964,   0.00135,   0.00119,   0.00142,476184194.26173,   0.00016,274820119.27873,   0.00013,   0.00011,   0.00016,   0.00000,   2.00000
454786743.42665,432748610.99076,96892901.22902,   0.00135,   0.00120,   0.00142,476164258.59980,   0.00017,274824929.54971,   0.00013,   0.00011,   0.00016,  -0.00000,   2.00000
454882785.87390,432724535.80893,96838953.19934,   0.00136,   0.00120,   0.00142,476168427.90124,   0.00017,274829736.83303,   0.00013,   0.00012,   0.00017,   0.00000,   2.00000
454969225.29310,432709088.69563,96786572.94557,   0.00136,   0.00120,   0.00143,476147046.73816,   0.00018,274834449.72971,   0.00014,   0.00012,   0.00017,   0.00000,   2.00000
455058358.34080,432686433.54108,96736948.26901,   0.00137,   0.00120,   0.00143,476140831.04238,   0.00018,274839122.88688,   0.00014,   0.00012,   0.00017,   0.00000,   2.00000
455146932.58845,432662172.45325,96688707.21110,   0.00137,   0.00121,   0.00143,476119991.49574,   0.00019,274843704.16375,   0.00014,   0.00013,   0.00018,  -0.00000,   2.00000
455228973.39251,432650798.97552,96636653.28357,   0.00137,   0.00121,   0.00144,476120954.86943,   0.00019,274848271.86021,   0.00015,   0.00013,   0.00018,   0.00000,   2.00000
455310497.35330,432637784.08345,96585981.40046,   0.00138,   0.00121,   0.00144,476100005.10136,   0.00019,274852747.68201,   0.00015,   0.00013,   0.00019,   0.00000,   2.00000
455379778.64673,432630787.72212,96540965.80017,   0.00138,   0.00121,   0.00144,476081216.70941,   0.00020,274857139.74798,   0.00015,   0.00013,   0.00019,   0.00000,   2.00000
455448842.79604,432623805.23818,96496079.54308,   0.00138,   0.00122,   0.00145,476085620.02539,   0.00020,274861531.29393,   0.00016,   0.00014,   0.00019,  -0.00000,   2.00000
455517459.46397,432615172.16095,96452542.02586,   0.00139,   0.00122,   0.00145,476064487.08228,   0.00021,274865831.05313,   0.00016,   0.00014,   0.00020,   0.00000,   2.00000
455573656.59777,432622393.22427,96407922.64938,   0.00139,   0.00122,   0.00145,476053506.30509,   0.00021,274870075.64850,   0.00016,   0.00014,   0.00020,   0.00000,   2.00000
455638441.24905,432617673.58407,96364476.63801,   0.00139,   0.00122,   0.00146,476032923.70746,   0.00021,274874230.99772,   0.00016,   0.00014,   0.00020,   0.00000,   2.00000
455694056.34715,432623215.66525,96321315.16729,   0.00140,   0.00123,   0.00146,476036384.00972,   0.00022,274878383.34976,   0.00017,   0.00015,   0.00021,   0.00000,   2.00000
455743321.68765,432630080.52504,96282231.33026,   0.00140,   0.00123,   0.00146,476003355.65600,   0.00022,274882402.37697,   0.00017,   0.00015,   0.00021,   0.00000,   2.00000
455786480.91141,432639932.54064,96246001.17797,   0.00140,   0.00123,   0.00147,475995726.42917,   0.00022,274886379.34161,   0.00017,   0.00015,   0.00021,   0.00000,   2.00000
455832269.25235,432652338.43632,96205740.79797,   0.00141,   0.00123,   0.00147,475996767.42960,   0.00023,274890345.35022,   0.00018,   0.00015,   0.00022,  -0.00000,   2.00000
455868747.81462,432673308.02876,96166955.40421,   0.00141,   0.00124,   0.00147,475974492.02292,   0.00023,274894217.17461,   0.00018,   0.00016,   0.00022,   0.00000,   2.00000
455902177.72574,432689984.53880,96133597.56860,   0.00141,   0.00124,   0.00147,475955764.39654,   0.00024,274898007.87996,   0.00018,   0.00016,   0.00022,   0.00000,   2.00000
455938266.95676,432709197.49996,96096196.02569,   0.00141,   0.00124,   0.00148,475956620.85452,   0.00024,274901787.68250,   0.00018,   0.00016,   0.00023,   0.00000,   2.00000
455968099.80984,432729717.60099,96062830.22772,   0.00142,   0.00124,   0.00148,475923209.41526,   0.00024,274905434.29986,   0.00019,   0.00016,   0.00023,   0.00000,   2.00000
455985939.73004,432756218.90182,96035036.43458,   0.00142,   0.00124,   0.00148,475903542.48559,   0.00025,274908997.33391,   0.00019,   0.00016,   0.00023,   0.00000,   2.00000
456006481.83377,432785234.73580,96003178.95266,   0.00142,   0.00125,   0.00148,475904173.03341,   0.00025,274912549.53445,   0.00019,   0.00017,   0.00024,   0.00000,   2.00000
456023758.54344,432819774.80079,95970010.14026,   0.00142,   0.00125,   0.00149,475893137.27767,   0.00025,274916049.29405,   0.00019,   0.00017,   0.00024,   0.00000,   2.00000
456035035.91170,432857252.09200,95939661.69201,   0.00143,   0.00125,   0.00149,475884979.79461,   0.00025,274919507.09772,   0.00020,   0.00017,   0.00024,   0.00000,   2.00000
456042871.99259,432898589.47142,95909180.00648,   0.00143,   0.00125,   0.00149,475848315.49113,   0.00026,274922821.37844,   0.00020,   0.00017,   0.00025,  -0.00000,   2.00000
456041991.13688,432940280.77876,95885639.79443,   0.00143,   0.00126,   0.00149,475842900.95746,   0.00026,274926104.21785,   0.00020,   0.00018,   0.00025,   0.00000,   2.00000
456049614.69044,432979788.42319,95856460.18207,   0.00143,   0.00126,   0.00150,475829378.58597,   0.00026,274929326.78353,   0.00020,   0.00018,   0.00025,   0.00000,   2.00000
456045302.19563,433025257.38094,95832823.77232,   0.00144,   0.00126,   0.00150,475809287.75466,   0.00027,274932465.89429,   0.00021,   0.00018,   0.00025,   0.00000,   2.00000
456037775.43000,433076226.43961,95807841.71785,   0.00144,   0.00126,   0.00150,475797847.54245,   0.00027,274935552.71539,   0.00021,   0.00018,   0.00026,  -0.00000,   2.00000
456018337.95370,433133138.25934,95788388.17473,   0.00144,   0.00126,   0.00150,475777626.34344,   0.00027,274938556.14604,   0.00021,   0.00018,   0.00026,  -0.00000,   2.00000
456007436.77826,433187845.27593,95763276.05868,   0.00144,   0.00127,   0.00151,475763830.92961,   0.00027,274941499.39606,   0.00021,   0.00018,   0.00026,   0.00000,   2.00000
455981887.35505,433245922.37132,95747823.08309,   0.00144,   0.00127,   0.00151,475746393.48587,   0.00028,274944369.74339,   0.00021,   0.00019,   0.00026,  -0.00000,   2.00000
455955885.63538,433312055.14743,95726862.27235,   0.00145,   0.00127,   0.00151,475731774.33913,   0.00028,274947177.48601,   0.00022,   0.00019,   0.00027,   0.00000,   2.00000
455929923.85929,433378050.91300,95705937.74835,   0.00145,   0.00127,   0.00151,475734593.81664,   0.00028,274949985.03980,   0.00022,   0.00019,   0.00027,   0.00000,   2.00000
455894589.22166,433450936.37929,95687556.79011,   0.00145,   0.00127,   0.00151,475685650.61787,   0.00029,274952607.86174,   0.00022,   0.00019,   0.00027,   0.00000,   2.00000
455856569.88650,433521103.03658,95673341.53648,   0.00145,   0.00128,   0.00152,475691210.73024,   0.00029,274955240.97049,   0.00022,   0.00019,   0.00027,  -0.00000,   2.00000
455821129.17397,433592101.20572,95656180.82694,   0.00145,   0.00128,   0.00152,475665401.13012,   0.00029,274957772.48941,   0.00022,   0.00019,   0.00028,   0.00000,   2.00000
455770741.26508,433676239.47846,95641937.10241,   0.00145,   0.00128,   0.00152,475655626.62829,   0.00029,274960259.96229,   0.00023,   0.00020,   0.00028,  -0.00000,   2.00000
455720200.90396,433758620.24846,95628880.43212,   0.00146,   0.00128,   0.00152,475632601.03203,   0.00029,274962656.32831,   0.00023,   0.00020,   0.00028,   0.00000,   2.00000
455669502.85535,433839257.41637,95617007.53583,   0.00146,   0.00128,   0.00152,475609483.47120,   0.00030,274964961.60485,   0.00023,   0.00020,   0.00028,   0.00000,   2.00000
455609833.64419,433929977.43002,95605302.00560,   0.00146,   0.00129,   0.00153,475611152.06602,   0.00030,274967264.46181,   0.00023,   0.00020,   0.00028,   0.00000,   2.00000
455544009.40890,434021990.16480,95597505.39990,   0.00146,   0.00129,   0.00153,475576308.39863,   0.00030,274969434.80575,   0.00023,   0.00020,   0.00029,   0.00000,   2.00000
455480978.48488,434116409.48931,95585570.80379,   0.00146,   0.00129,   0.00153,475575598.44690,   0.00030,274971594.74705,   0.00023,   0.00020,   0.00029,   0.00000,   2.00000
455411772.01368,434212135.82006,95577541.00744,   0.00146,   0.00129,   0.00153,475540619.10209,   0.00030,274973622.22916,   0.00024,   0.00020,   0.00029,  -0.00000,   2.00000
455327566.73076,434320952.07988,95572391.68764,   0.00146,   0.00129,   0.00153,475530413.20524,   0.00031,274975606.01414,   0.00024,   0.00021,   0.00029,   0.00000,   2.00000
455252237.98135,434417810.02061,95568253.09010,   0.00146,   0.00130,   0.00153,475507547.81327,   0.00031,274977501.16755,   0.00024,   0.00021,   0.00029,   0.00000,   2.00000
455164613.35228,434530333.41893,95562843.06132,   0.00146,   0.00130,   0.00154,475494313.36009,   0.00031,274979342.31998,   0.00024,   0.00021,   0.00029,   0.00000,   2.00000
455076790.59664,434641126.65173,95558591.09302,   0.00146,   0.00130,   0.00154,475470673.55051,   0.00031,274981092.60674,   0.00024,   0.00021,   0.00030,   0.00000,   2.00000
454982988.53971,434754778.76019,95557055.99617,   0.00146,   0.00130,   0.00154,475460862.68599,   0.00031,274982801.63083,   0.00024,   0.00021,   0.00030,  -0.00000,   2.00000
454885926.22795,434873867.53167,95554090.62482,   0.00146,   0.00130,   0.00154,475448102.92570,   0.00031,274984459.03196,   0.00024,   0.00021,   0.00030,   0.94872,   1.00000
454782596.24811,434994292.49968,95555002.22981,   0.00146,   0.00130,   0.00154,475412674.27326,   0.00032,274985984.26860,   0.00024,   0.00021,   0.00030,   0.80335,   1.00000
454678977.88467,435124239.81553,95549167.41159,   0.00147,   0.00131,   0.00154,475422376.30552,   0.00032,274987538.55224,   0.00025,   0.00021,   0.00030,   0.83407,   1.00000
454563327.47428,435248865.38166,95556659.94780,   0.00147,   0.00131,   0.00154,475367150.03138,   0.00032,274988890.55940,   0.00025,   0.00021,   0.00030,   0.63107,   1.00000
454450095.68388,435385587.33374,95553251.57126,   0.00147,   0.00131,   0.00155,475373783.00348,   0.00032,274990261.31408,   0.00025,   0.00021,   0.00030,   0.64858,   1.00000
454327793.99710,435521081.28640,95557855.04531,   0.00147,   0.00131,   0.00155,475341020.69777,   0.00032,274991510.46521,   0.00025,   0.00022,   0.00030,   0.53856,   1.00000
454199424.70419,435659417.45216,95565151.61335,   0.00147,   0.00131,   0.00155,475330776.59168,   0.00032,274992718.65230,   0.00025,   0.00022,   0.00031,   0.50379,   1.00000
454073466.82733,435798670.62216,95569440.03417,   0.00147,   0.00131,   0.00155,475303633.94339,   0.00032,274993825.84192,   0.00025,   0.00022,   0.00031,   0.42304,   1.00000
453938358.50672,435947863.55903,95573828.01220,   0.00147,   0.00132,   0.00155,475304302.25961,   0.00032,274994931.43505,   0.00025,   0.00022,   0.00031,   0.42178,   1.00000
453796807.05214,436098444.31920,95582070.59925,   0.00147,   0.00132,   0.00155,475268402.82513,   0.00032,274995905.22991,   0.00025,   0.00022,   0.00031,   0.32719,   1.00000
453654888.75443,436247375.62165,95591445.19695,   0.00147,   0.00132,   0.00155,475243963.90120,   0.00033,274996788.51475,   0.00025,   0.00022,   0.00031,   0.26918,   1.00000
453509533.13219,436401746.56828,95599356.94158,   0.00146,   0.00132,   0.00155,475230487.14408,   0.00033,274997620.64810,   0.00025,   0.00022,   0.00031,   0.23889,   1.00000
453351876.77957,436562011.94128,95612665.66776,   0.00146,   0.00132,   0.00155,475208318.07436,   0.00033,274998370.87020,   0.00025,   0.00022,   0.00031,   0.19418,   1.00000
453193449.68988,436730303.24358,95620358.62934,   0.00146,   0.00132,   0.00155,475191825.85847,   0.00033,274999059.68296,   0.00025,   0.00022,   0.00031,   0.16368,   1.00000
453031851.56690,436894377.91068,95633324.36278,   0.00146,   0.00133,   0.00155,475170052.54275,   0.00033,274999668.50999,   0.00025,   0.00022,   0.00031,   0.12787,   1.00000
452863668.78169,437070924.41921,95642214.38572,   0.00146,   0.00133,   0.00156,475167428.68821,   0.00033,275000265.81644,   0.00025,   0.00022,   0.00031,   0.12307,   1.00000
452689163.45852,437239295.74326,95661692.32490,   0.00146,   0.00133,   0.00156,475122952.18842,   0.00033,275000702.63789,   0.00025,   0.00022,   0.00031,   0.06582,   1.00000
452510730.72680,437422730.75193,95672940.43249,   0.00146,   0.00133,   0.00156,475117276.80623,   0.00033,275001117.69221,   0.00025,   0.00022,   0.00031,   0.05943,   1.00000
452322840.71808,437605037.50848,95692169.39719,   0.00146,   0.00133,   0.00156,475083728.45707,   0.00033,275001411.82228,   0.00025,   0.00022,   0.00031,   0.02984,   1.00000
452137497.77427,437789720.95440,95707199.06911,   0.00146,   0.00133,   0.00156,475081320.63865,   0.00033,275001696.33142,   0.00026,   0.00022,   0.00031,   0.02792,   1.00000
451945341.19926,437975914.52528,95726064.22649,   0.00146,   0.00133,   0.00156,475044742.48335,   0.00033,275001849.59426,   0.00026,   0.00022,   0.00031,   0.00810,   1.00000
451749483.66296,438167555.11436,95743440.28654,   0.00146,   0.00133,   0.00156,475030679.78673,   0.00033,275001952.24243,   0.00026,   0.00022,   0.00031,   0.00364,   1.00000
451540954.76067,438365084.42784,95766178.33293,   0.00145,   0.00134,   0.00156,475007988.81682,   0.00033,275001973.73553,   0.00026,   0.00022,   0.00031,   0.00016,   1.00000
451313864.86931,438543857.32104,95785505.13220,   0.00145,   0.00134,   0.00156,474982720.98607,   0.00033,275001973.73553,   0.00026,   0.00022,   0.00031,-19252.74947,   0.00000
451077111.57832,438732293.61387,95795168.53183,   0.00145,   0.00134,   0.00156,474957506.76474,   0.00033,275001973.73553,   0.00026,   0.00022,   0.00031,-44466.97079,   0.00000
450799288.83889,438889323.85789,95804831.93146,   0.00145,   0.00134,   0.00156,474898452.09709,   0.00033,275001973.73553,   0.00026,   0.00022,   0.00031,-103521.63844,   0.00000
450514218.54974,439029443.15256,95814495.33109,   0.00145,   0.00134,   0.00156,474828557.60241,   0.00033,275001973.73553,   0.00026,   0.00022,   0.00031,-173416.13312,   0.00000
450178415.41252,439147819.79806,95814495.33109,   0.00145,   0.00134,   0.00156,474718649.55447,   0.00033,275001973.73553,   0.00026,   0.00022,   0.00031,-283324.18106,   0.00000
449842612.27529,439266196.44355,95814495.33109,   0.00145,   0.00134,   0.00156,474609066.92867,   0.00033,275001973.73553,   0.00026,   0.00022,   0.00031,-392906.80686,   0.00000
449472987.23936,439370077.98960,95804831.93146,   0.00144,   0.00134,   0.00156,474471018.81688,   0.00033,275001973.73553,   0.00026,   0.00022,   0.00031,-530954.91865,   0.00000
449079203.70434,439449801.03657,95795168.53183,   0.00144,   0.00135,   0.00156,474310694.64581,   0.00033,275001973.73553,   0.00026,   0.00022,   0.00031,-691279.08972,   0.00000
448668509.21997,439522276.53381,95780673.43238,   0.00144,   0.00135,   0.00156,474136341.53397,   0.00033,275001973.73553,   0.00026,   0.00022,   0.00031,-865632.20156,   0.00000
448216745.28716,439563345.98225,95761346.63312,   0.00144,   0.00135,   0.00156,473925352.90928,   0.00033,275001973.73553,   0.00026,   0.00022,   0.00031,-1076620.82625,   0.00000
447755317.95472,439614078.83032,95742019.83385,   0.00144,   0.00135,   0.00156,473714496.82706,   0.00033,275001973.73553,   0.00026,   0.00022,   0.00031,-1287476.90847,   0.00000
447269732.12319,439640653.17930,95713029.63495,   0.00143,   0.00135,   0.00156,473475566.58101,   0.00033,275001973.73553,   0.00026,   0.00022,   0.00031,-1526407.15452,   0.00000
446743076.84323,439635821.47949,95684039.43606,   0.00143,   0.00135,   0.00156,473202999.63700,   0.00033,275001973.73553,   0.00026,   0.00022,   0.00031,-1798974.09853,   0.00000
446206758.16364,439640653.17930,95650217.53734,   0.00143,   0.00135,   0.00156,472927728.82500,   0.00033,275001973.73553,   0.00026,   0.00022,   0.00031,-2074244.91053,   0.00000
445622122.48588,439597167.88096,95611563.93881,   0.00143,   0.00135,   0.00156,472604736.05791,   0.00033,275001973.73553,   0.00026,   0.00022,   0.00031,-2397237.67762,   0.00000
445044734.35785,439570593.53197,95568078.64047,   0.00142,   0.00135,   0.00156,472290500.87085,   0.00033,275001973.73553,   0.00026,   0.00022,   0.00031,-2711472.86469,   0.00000
444426276.78139,439512613.13418,95524593.34212,   0.00142,   0.00136,   0.00156,471942731.84747,   0.00033,275001973.73553,   0.00026,   0.00022,   0.00031,-3059241.88806,   0.00000
443773997.30621,439440137.63693,95471444.64415,   0.00142,   0.00136,   0.00155,471566834.09978,   0.00033,275001973.73553,   0.00026,   0.00022,   0.00031,-3435139.63576,   0.00000
443121717.83102,439367662.13969,95418295.94617,   0.00141,   0.00136,   0.00155,471191468.24267,   0.00033,275001973.73553,   0.00026,   0.00022,   0.00031,-3810505.49286,   0.00000
442428368.90741,439263780.59364,95355483.84856,   0.00141,   0.00136,   0.00155,470776780.95603,   0.00033,275001973.73553,   0.00026,   0.00022,   0.00031,-4225192.77950,   0.00000
441718109.03443,439152651.49787,95292671.75095,   0.00141,   0.00136,   0.00155,470351294.49994,   0.00033,275001973.73553,   0.00026,   0.00022,   0.00031,-4650679.23559,   0.00000
440974027.26274,439027027.30265,95229859.65334,   0.00141,   0.00136,   0.00155,469903698.24515,   0.00033,275001973.73553,   0.00026,   0.00022,   0.00031,-5098275.49038,   0.00000
440205786.99198,438877244.60835,95157384.15610,   0.00140,   0.00136,   0.00155,469428217.25888,   0.00033,275001973.73553,   0.00026,   0.00022,   0.00031,-5573756.47665,   0.00000
439420635.77185,438720214.36433,95080076.95904,   0.00140,   0.00136,   0.00155,468939089.02510,   0.00033,275001973.73553,   0.00026,   0.00022,   0.00031,-6062884.71043,   0.00000
438594415.10329,438531778.07150,95002769.76198,   0.00140,   0.00136,   0.00155,468416664.32591,   0.00033,275001973.73553,   0.00026,   0.00022,   0.00031,-6585309.40962,   0.00000
437758531.03509,438353005.17830,94915799.16529,   0.00139,   0.00136,   0.00155,467889033.65513,   0.00033,275001973.73553,   0.00026,   0.00022,   0.00031,-7112940.08040,   0.00000
436898488.46782,438150073.78602,94828828.56860,   0.00139,   0.00136,   0.00155,467339482.18406,   0.00033,275001973.73553,   0.00026,   0.00022,   0.00031,-7662491.55148,   0.00000
435997376.45211,437915736.34494,94737026.27209,   0.00139,   0.00136,   0.00154,466753794.51998,   0.00033,275001973.73553,   0.00026,   0.00022,   0.00031,-8248179.21555,   0.00000
435096264.43639,437681398.90385,94640392.27577,   0.00138,   0.00137,   0.00154,466165889.08554,   0.00033,275001973.73553,   0.00026,   0.00022,   0.00031,-8836084.64999,   0.00000
434144419.57261,437425318.81360,94538926.57963,   0.00138,   0.00137,   0.00154,465541997.41700,   0.00033,275001973.73553,   0.00026,   0.00022,   0.00031,-9459976.31853,   0.00000
433192574.70883,437169238.72334,94437460.88349,   0.00137,   0.00137,   0.00154,464918900.47309,   0.00033,275001973.73553,   0.00026,   0.00022,   0.00031,-10083073.26244,   0.00000
432199660.39661,436881752.58428,94326331.78772,   0.00137,   0.00137,   0.00154,464256866.07010,   0.00033,275001973.73553,   0.00026,   0.00022,   0.00031,-10745107.66543,   0.00000
431189835.13503,436587018.89550,94215202.69195,   0.00137,   0.00137,   0.00154,463584434.10779,   0.00033,275001973.73553,   0.00026,   0.00022,   0.00031,-11417539.62774,   0.00000
430138940.42502,436260879.15791,94099241.89636,   0.00136,   0.00137,   0.00154,462876087.54409,   0.00033,275001973.73553,   0.00026,   0.00022,   0.00031,-12125886.19144,   0.00000
429088045.71501,435934739.42031,93978449.40095,   0.00136,   0.00137,   0.00154,462165673.18145,   0.00033,275001973.73553,   0.00026,   0.00022,   0.00031,-12836300.55408,   0.00000
428003329.10628,435594104.58328,93852825.20573,   0.00135,   0.00137,   0.00153,461430823.81907,   0.00033,275001973.73553,   0.00026,   0.00022,   0.00031,-13571149.91646,   0.00000
426877543.04912,435222063.69743,93722369.31070,   0.00135,   0.00137,   0.00153,460660182.54719,   0.00033,275001973.73553,   0.00026,   0.00022,   0.00031,-14341791.18834,   0.00000
425742093.59232,434859686.21122,93587081.71585,   0.00134,   0.00137,   0.00153,459887844.27716,   0.00033,275001973.73553,   0.00026,   0.00022,   0.00031,-15114129.45837,   0.00000
424575238.08672,434456239.27657,93446962.42118,   0.00134,   0.00137,   0.00153,459079513.56041,   0.00033,275001973.73553,   0.00026,   0.00022,   0.00031,-15922460.17513,   0.00000
423398719.18148,434062455.74156,93306843.12651,   0.00134,   0.00137,   0.00153,458272521.54790,   0.00033,275001973.73553,   0.00026,   0.00022,   0.00031,-16729452.18763,   0.00000
422181130.82781,433637266.15773,93161892.13202,   0.00133,   0.00137,   0.00152,457429916.89341,   0.00033,275001973.73553,   0.00026,   0.00022,   0.00031,-17572056.84213,   0.00000
420939383.97506,433187918.07483,93007277.73791,   0.00133,   0.00137,   0.00152,456559900.89374,   0.00033,275001973.73553,   0.00026,   0.00022,   0.00031,-18442072.84179,   0.00000
419687973.72268,432748233.39156,92852663.34379,   0.00132,   0.00137,   0.00152,455691398.70849,   0.00033,275001973.73553,   0.00026,   0.00022,   0.00031,-19310575.02704,   0.00000
418405157.42149,432267479.25985,92693217.24986,   0.00132,   0.00137,   0.00152,454786987.77235,   0.00033,275001973.73553,   0.00026,   0.00022,   0.00031,-20214985.96318,   0.00000
417095766.77131,431789140.97805,92533771.15592,   0.00131,   0.00137,   0.00152,453873125.99267,   0.00033,275001973.73553,   0.00026,   0.00022,   0.00031,-21128847.74286,   0.00000
415762217.62205,431286644.19717,92364661.66236,   0.00131,   0.00137,   0.00151,452931994.47012,   0.00033,275001973.73553,   0.00026,   0.00022,   0.00031,-22069979.26541,   0.00000
414394846.57408,430769652.31685,92190720.46898,   0.00130,   0.00137,   0.00151,451967084.05092,   0.00033,275001973.73553,   0.00026,   0.00022,   0.00031,-23034889.68461,   0.00000
413027475.52611,430252660.43652,92016779.27560,   0.00130,   0.00137,   0.00151,451003481.33739,   0.00033,275001973.73553,   0.00026,   0.00022,   0.00031,-23998492.39814,   0.00000
411619035.02970,429704262.50738,91838006.38240,   0.00129,   0.00137,   0.00151,450004652.84621,   0.00033,275001973.73553,   0.00026,   0.00022,   0.00031,-24997320.88932,   0.00000
410169525.08486,429124458.52945,91649570.08957,   0.00128,   0.00137,   0.00150,448967700.34382,   0.00033,275001973.73553,   0.00026,   0.00022,   0.00031,-26034273.39171,   0.00000
408727262.68973,428561565.50086,91461133.79674,   0.00128,   0.00138,   0.00150,447943759.99153,   0.00033,275001973.73553,   0.00026,   0.00022,   0.00031,-27058213.74400,   0.00000
407243930.84617,427967266.42348,91272697.50391,   0.00127,   0.00138,   0.00150,446887731.33546,   0.00033,275001973.73553,   0.00026,   0.00022,   0.00031,-28114242.40007,   0.00000
405743688.05326,427365719.79637,91074597.81145,   0.00127,   0.00138,   0.00150,445816332.87035,   0.00033,275001973.73553,   0.00026,   0.00022,   0.00031,-29185640.86519,   0.00000
404202375.81191,426732767.12045,90871666.41917,   0.00126,   0.00138,   0.00149,444710013.50631,   0.00033,275001973.73553,   0.00026,   0.00022,   0.00031,-30291960.22922,   0.00000
402661063.57055,426099814.44453,90668735.02689,   0.00126,   0.00138,   0.00149,443605272.79115,   0.00033,275001973.73553,   0.00026,   0.00022,   0.00031,-31396700.94438,   0.00000
401078681.88076,425435455.71981,90456140.23498,   0.00125,   0.00138,   0.00149,442462748.89071,   0.00033,275001973.73553,   0.00026,   0.00022,   0.00031,-32539224.84482,   0.00000
399486636.79134,424780760.39472,90243545.44307,   0.00124,   0.00138,   0.00149,441322696.57817,   0.00033,275001973.73553,   0.00026,   0.00022,   0.00031,-33679277.15737,   0.00000
397846274.70375,424077748.07147,90026118.95134,   0.00124,   0.00138,   0.00148,440136284.26927,   0.00033,275001973.73553,   0.00026,   0.00022,   0.00031,-34865689.46626,   0.00000
396196249.21654,423384399.14786,89803860.75980,   0.00123,   0.00138,   0.00148,438949549.08048,   0.00033,275001973.73553,   0.00026,   0.00022,   0.00031,-36052424.65505,   0.00000
394522065.23024,422666891.72516,89576770.86844,   0.00123,   0.00138,   0.00148,437739123.13607,   0.00033,275001973.73553,   0.00026,   0.00022,   0.00031,-37262850.59946,   0.00000
392823722.74486,421925225.80338,89344849.27726,   0.00122,   0.00138,   0.00147,436505030.52937,   0.00033,275001973.73553,   0.00026,   0.00022,   0.00031,-38496943.20616,   0.00000
391115716.85985,421193223.28123,89108095.98627,   0.00121,   0.00138,   0.00147,435270840.01065,   0.00033,275001973.73553,   0.00026,   0.00022,   0.00031,-39731133.72488,   0.00000
389366641.52640,420429814.71028,88871342.69528,   0.00121,   0.00138,   0.00147,434005313.71971,   0.00033,275001973.73553,   0.00026,   0.00022,   0.00031,-40996660.01582,   0.00000
387593407.69388,419642247.64024,88624926.00466,   0.00120,   0.00138,   0.00147,432713334.02739,   0.00033,275001973.73553,   0.00026,   0.00022,   0.00031,-42288639.70814,   0.00000
385803262.91199,418847433.02049,88378509.31403,   0.00119,   0.00138,   0.00146,431412686.67656,   0.00033,275001973.73553,   0.00026,   0.00022,   0.00031,-43589287.05897,   0.00000
383996207.18075,418045370.85101,88127260.92359,   0.00119,   0.00138,   0.00146,430100482.13945,   0.00033,275001973.73553,   0.00026,   0.00022,   0.00031,-44901491.59608,   0.00000
382155329.55080,417228813.58208,87871180.83334,   0.00118,   0.00138,   0.00146,428766133.57141,   0.00033,275001973.73553,   0.00026,   0.00022,   0.00031,-46235840.16413,   0.00000
380290293.42176,416388097.81406,87610269.04326,   0.00117,   0.00138,   0.00145,427408564.61059,   0.00033,275001973.73553,   0.00026,   0.00022,   0.00031,-47593409.12494,   0.00000
378401098.79364,415523223.54697,87349357.25319,   0.00117,   0.00137,   0.00145,426030781.92578,   0.00033,275001973.73553,   0.00026,   0.00022,   0.00031,-48971191.80975,   0.00000
376494993.21617,414651101.73016,87078782.06349,   0.00116,   0.00137,   0.00145,424638782.03349,   0.00033,275001973.73553,   0.00026,   0.00022,   0.00031,-50363191.70204,   0.00000
374555065.73999,413764484.81389,86808206.87378,   0.00115,   0.00137,   0.00144,423228019.74394,   0.00033,275001973.73553,   0.00026,   0.00022,   0.00031,-51773953.99159,   0.00000
372615138.26380,412877867.89763,86527968.28445,   0.00115,   0.00137,   0.00144,421813820.44287,   0.00033,275001973.73553,   0.00026,   0.00022,   0.00031,-53188153.29267,   0.00000
370634141.33918,411959844.93256,86247729.69511,   0.00114,   0.00137,   0.00143,420369135.16928,   0.00033,275001973.73553,   0.00026,   0.00022,   0.00031,-54632838.56625,   0.00000
368628985.91547,411017663.46841,85962659.40596,   0.00113,   0.00137,   0.00143,418901612.43283,   0.00033,275001973.73553,   0.00026,   0.00022,   0.00031,-56100361.30270,   0.00000
366597256.14278,410077897.85417,85672757.41699,   0.00112,   0.00137,   0.00143,417424798.55905,   0.00033,275001973.73553,   0.00026,   0.00022,   0.00031,-57577175.17649,   0.00000
364558278.82036,409121221.29057,85378023.72820,   0.00112,   0.00137,   0.00142,415935818.25971,   0.00033,275001973.73553,   0.00026,   0.00022,   0.00031,-59066155.47582,   0.00000
362478232.04951,408133138.67817,85083290.03942,   0.00111,   0.00137,   0.00142,414416756.15248,   0.00033,275001973.73553,   0.00026,   0.00022,   0.00031,-60585217.58305,   0.00000
360381274.32930,407137808.51604,84778892.95100,   0.00110,   0.00137,   0.00142,412884242.63926,   0.00033,275001973.73553,   0.00026,   0.00022,   0.00031,-62117731.09627,   0.00000
358267405.65973,406135230.80419,84474495.86258,   0.00109,   0.00137,   0.00141,411344339.36181,   0.00033,275001973.73553,   0.00026,   0.00022,   0.00031,-63657634.37372,   0.00000
356129378.49108,405108494.59325,84165267.07435,   0.00109,   0.00137,   0.00141,409782096.68090,   0.00033,275001973.73553,   0.00026,   0.00022,   0.00031,-65219877.05464,   0.00000
353974440.37308,404074510.83260,83851206.58630,   0.00108,   0.00137,   0.00140,408209677.05209,   0.00033,275001973.73553,   0.00026,   0.00022,   0.00031,-66792296.68344,   0.00000
351785680.35636,403026031.97249,83532314.39843,   0.00107,   0.00137,   0.00140,406616899.72108,   0.00033,275001973.73553,   0.00026,   0.00022,   0.00031,-68385074.01445,   0.00000
349589672.78992,401960642.16303,83208590.51075,   0.00106,   0.00137,   0.00140,405012365.74410,   0.00033,275001973.73553,   0.00026,   0.00022,   0.00031,-69989607.99143,   0.00000
347352595.77504,400863846.30476,82884866.62307,   0.00105,   0.00137,   0.00139,403378550.30350,   0.00033,275001973.73553,   0.00026,   0.00022,   0.00031,-71623423.43204,   0.00000
345105855.36053,399776713.84613,82556311.03557,   0.00105,   0.00137,   0.00139,401747210.35503,   0.00033,275001973.73553,   0.00026,   0.00022,   0.00031,-73254763.38051,   0.00000
342834956.44694,398665422.88841,82218092.04844,   0.00104,   0.00137,   0.00138,400091149.43495,   0.00033,275001973.73553,   0.00026,   0.00022,   0.00031,-74910824.30059,   0.00000
340539899.03426,397529973.43162,81879873.06131,   0.00103,   0.00137,   0.00138,398416398.29821,   0.00033,275001973.73553,   0.00026,   0.00022,   0.00031,-76585575.43732,   0.00000
338211019.72288,396380028.87537,81536822.37436,   0.00102,   0.00137,   0.00137,396722179.36262,   0.00033,275001973.73553,   0.00026,   0.00022,   0.00031,-78279794.37291,   0.00000
335882140.41149,395230084.31913,81193771.68741,   0.00101,   0.00137,   0.00137,395031885.80755,   0.00033,275001973.73553,   0.00026,   0.00022,   0.00031,-79970087.92798,   0.00000
333512191.65167,394048733.71408,80841057.60083,   0.00100,   0.00136,   0.00136,393307207.54327,   0.00033,275001973.73553,   0.00026,   0.00022,   0.00031,-81694766.19226,   0.00000
331125331.94249,392860135.55930,80488343.51425,   0.00100,   0.00136,   0.00136,391576619.70125,   0.00033,275001973.73553,   0.00026,   0.00022,   0.00031,-83425354.03428,   0.00000
328731224.68358,391654626.45517,80125966.02804,   0.00099,   0.00136,   0.00135,389831977.64407,   0.00033,275001973.73553,   0.00026,   0.00022,   0.00031,-85169996.09146,   0.00000
326303295.52597,390434622.25159,79763588.54183,   0.00098,   0.00136,   0.00135,388071670.14217,   0.00033,275001973.73553,   0.00026,   0.00022,   0.00031,-86930303.59336,   0.00000
323858455.41899,389207370.49829,79401211.05562,   0.00097,   0.00136,   0.00135,386305883.33677,   0.00033,275001973.73553,   0.00026,   0.00022,   0.00031,-88696090.39876,   0.00000
321389456.81294,387955960.24591,79029170.16977,   0.00096,   0.00136,   0.00134,384516428.67794,   0.00033,275001973.73553,   0.00026,   0.00022,   0.00031,-90485545.05759,   0.00000
318903547.25753,386697302.44380,78652297.58411,   0.00095,   0.00136,   0.00134,382718808.59487,   0.00033,275001973.73553,   0.00026,   0.00022,   0.00031,-92283165.14066,   0.00000
316376568.25368,385407238.59289,78275424.99845,   0.00094,   0.00136,   0.00133,380893921.51843,   0.00033,275001973.73553,   0.00026,   0.00022,   0.00031,-94108052.21710,   0.00000
313849589.24983,384117174.74197,77893720.71298,   0.00093,   0.00136,   0.00133,379071030.63542,   0.00033,275001973.73553,   0.00026,   0.00022,   0.00031,-95930943.10011,   0.00000
311298451.74690,382802952.39198,77507184.72769,   0.00093,   0.00136,   0.00132,377227982.88237,   0.00033,275001973.73553,   0.00026,   0.00022,   0.00031,-97773990.85316,   0.00000
308713492.34526,381474234.94254,77115817.04258,   0.00092,   0.00136,   0.00132,375367708.63593,   0.00033,275001973.73553,   0.00026,   0.00022,   0.00031,-99634265.09960,   0.00000
306128532.94361,380145517.49309,76724449.35747,   0.00091,   0.00135,   0.00131,373512820.34847,   0.00033,275001973.73553,   0.00026,   0.00022,   0.00031,-101489153.38706,   0.00000
303519415.04289,378792641.54457,76323418.27273,   0.00090,   0.00135,   0.00131,371635267.62491,   0.00033,275001973.73553,   0.00026,   0.00022,   0.00031,-103366706.11063,   0.00000
300876475.24346,377425270.49660,75922387.18799,   0.00089,   0.00135,   0.00130,369744140.91166,   0.00033,275001973.73553,   0.00026,   0.00022,   0.00031,-105257832.82387,   0.00000
298209376.94494,376033740.94955,75516524.40343,   0.00088,   0.00135,   0.00130,367833733.64264,   0.00033,275001973.73553,   0.00026,   0.00022,   0.00031,-107168240.09289,   0.00000
295542278.64642,374642211.40250,75105829.91906,   0.00087,   0.00135,   0.00129,365926316.70944,   0.00033,275001973.73553,   0.00026,   0.00022,   0.00031,-109075657.02610,   0.00000
292834110.89947,373219275.80664,74695135.43468,   0.00086,   0.00135,   0.00128,363993405.58773,   0.00033,275001973.73553,   0.00026,   0.00022,   0.00031,-111008568.14781,   0.00000
290125943.15251,371796340.21078,74279609.25050,   0.00085,   0.00135,   0.00128,362063804.69633,   0.00033,275001973.73553,   0.00026,   0.00022,   0.00031,-112938169.03921,   0.00000
287383953.50685,370358909.51547,73854419.66667,   0.00084,   0.00135,   0.00127,360115921.43444,   0.00033,275001973.73553,   0.00026,   0.00022,   0.00031,-114886052.30109,   0.00000
284634716.31145,368904567.87081,73434061.78267,   0.00083,   0.00135,   0.00127,358164960.86782,   0.00033,275001973.73553,   0.00026,   0.00022,   0.00031,-116837012.86771,   0.00000
281851657.21735,367435731.12670,73004040.49903,   0.00082,   0.00134,   0.00126,356196256.62464,   0.00033,275001973.73553,   0.00026,   0.00022,   0.00031,-118805717.11090,   0.00000
279044439.62416,365942735.88351,72569187.51558,   0.00081,   0.00134,   0.00126,354209627.89277,   0.00033,275001973.73553,   0.00026,   0.00022,   0.00031,-120792345.84276,   0.00000
276237222.03098,364449740.64032,72134334.53212,   0.00080,   0.00134,   0.00125,352230207.41977,   0.00033,275001973.73553,   0.00026,   0.00022,   0.00031,-122771766.31576,   0.00000
273388934.98936,362925339.34832,71694649.84885,   0.00079,   0.00134,   0.00125,350224082.78339,   0.00033,275001973.73553,   0.00026,   0.00022,   0.00031,-124777890.95214,   0.00000
270540647.94773,361400938.05633,71250133.46577,   0.00078,   0.00134,   0.00124,348222602.40536,   0.00033,275001973.73553,   0.00026,   0.00022,   0.00031,-126779371.33017,   0.00000
267675449.95675,359869289.21460,70805617.08268,   0.00077,   0.00134,   0.00123,346219849.43763,   0.00033,275001973.73553,   0.00026,   0.00022,   0.00031,-128782124.29790,   0.00000
264769182.51734,358306234.32408,70356268.99978,   0.00076,   0.00134,   0.00123,344191287.76925,   0.00033,275001973.73553,   0.00026,   0.00022,   0.00031,-130810685.96628,   0.00000
261855667.52820,356726268.48420,69902089.21706,   0.00075,   0.00133,   0.00122,342155129.02082,   0.00033,275001973.73553,   0.00026,   0.00022,   0.00031,-132846844.71471,   0.00000
258925241.58970,355139055.09459,69443077.73453,   0.00074,   0.00133,   0.00122,340115549.01708,   0.00033,275001973.73553,   0.00026,   0.00022,   0.00031,-134886424.71845,   0.00000
255977904.70185,353544594.15526,68979234.55217,   0.00073,   0.00133,   0.00121,338072873.38625,   0.00033,275001973.73553,   0.00026,   0.00022,   0.00031,-136929100.34928,   0.00000
253006409.31491,351925974.71685,68515391.36982,   0.00072,   0.00133,   0.00120,336017386.73876,   0.00033,275001973.73553,   0.00026,   0.00022,   0.00031,-138984586.99677,   0.00000
250018002.97862,350300107.72871,68046716.48766,   0.00071,   0.00133,   0.00120,333959429.84873,   0.00033,275001973.73553,   0.00026,   0.00022,   0.00031,-141042543.88680,   0.00000
247005438.14325,348650082.24150,67573209.90567,   0.00070,   0.00133,   0.00119,331886299.93940,   0.00033,275001973.73553,   0.00026,   0.00022,   0.00031,-143115673.79613,   0.00000
243975962.35852,346992809.20455,67099703.32369,   0.00069,   0.00133,   0.00119,329814320.26164,   0.00033,275001973.73553,   0.00026,   0.00022,   0.00031,-145187653.47389,   0.00000
240929575.62444,345328288.61789,66621365.04189,   0.00068,   0.00132,   0.00118,327740916.18632,   0.00033,275001973.73553,   0.00026,   0.00022,   0.00031,-147261057.54922,   0.00000
237868693.79090,343629946.13251,66138195.06028,   0.00067,   0.00132,   0.00117,325648631.91535,   0.00033,275001973.73553,   0.00026,   0.00022,   0.00031,-149353341.82018,   0.00000
234781237.60838,341934019.49704,65650193.37884,   0.00066,   0.00132,   0.00117,323560279.72611,   0.00033,275001973.73553,   0.00026,   0.00022,   0.00031,-151441694.00942,   0.00000
231686533.87613,340221181.91222,65162191.69741,   0.00065,   0.00132,   0.00116,321469702.91651,   0.00033,275001973.73553,   0.00026,   0.00022,   0.00031,-153532270.81902,   0.00000
228567671.64481,338484185.82831,64669358.31617,   0.00064,   0.00132,   0.00115,319365871.76574,   0.00033,275001973.73553,   0.00026,   0.00022,   0.00031,-155636101.96979,   0.00000
225439146.01385,336756853.14403,64171693.23510,   0.00062,   0.00131,   0.00115,317275634.02474,   0.00033,275001973.73553,   0.00026,   0.00022,   0.00031,-157726339.71079,   0.00000
222279214.33408,334988451.01132,63674028.15404,   0.00061,   0.00131,   0.00114,315162636.29789,   0.00033,275001973.73553,   0.00026,   0.00022,   0.00031,-159839337.43764,   0.00000
219119282.65432,333220048.87861,63166699.67334,   0.00060,   0.00131,   0.00113,313055935.53254,   0.00033,275001973.73553,   0.00026,   0.00022,   0.00031,-161946038.20299,   0.00000
215925529.07584,331437151.64645,62664202.89246,   0.00059,   0.00131,   0.00113,310948684.26476,   0.00033,275001973.73553,   0.00026,   0.00022,   0.00031,-164053289.47077,   0.00000
212724527.94764,329637343.46493,62152042.71195,   0.00058,   0.00131,   0.00112,308835205.17337,   0.00033,275001973.73553,   0.00026,   0.00022,   0.00031,-166166768.56217,   0.00000
209506615.87008,327830287.73369,61639882.53144,   0.00057,   0.00131,   0.00111,306727127.65837,   0.00033,275001973.73553,   0.00026,   0.00022,   0.00031,-168274846.07716,   0.00000
206264545.29344,325999073.50337,61122890.65111,   0.00056,   0.00130,   0.00111,304608652.52410,   0.00033,275001973.73553,   0.00026,   0.00022,   0.00031,-170393321.21143,   0.00000
203005563.76744,324160611.72332,60601067.07096,   0.00055,   0.00130,   0.00110,302493671.61926,   0.00033,275001973.73553,   0.00026,   0.00022,   0.00031,-172508302.11627,   0.00000
199739334.69172,322305238.99392,60079243.49082,   0.00054,   0.00130,   0.00109,300379728.67190,   0.00033,275001973.73553,   0.00026,   0.00022,   0.00031,-174622245.06363,   0.00000
196456194.66665,320442618.71479,59552588.21086,   0.00052,   0.00130,   0.00109,298270184.76174,   0.00033,275001973.73553,   0.00026,   0.00022,   0.00031,-176731788.97379,   0.00000
193148896.14249,318555839.93658,59025932.93090,   0.00051,   0.00129,   0.00108,296155014.59600,   0.00033,275001973.73553,   0.00026,   0.00022,   0.00031,-178846959.13953,   0.00000
189824686.66898,316661813.60865,58494445.95112,   0.00050,   0.00129,   0.00107,294045382.44970,   0.00033,275001973.73553,   0.00026,   0.00022,   0.00031,-180956591.28583,   0.00000
186483566.24611,314760539.73099,57958127.27153,   0.00049,   0.00129,   0.00107,291941917.92118,   0.00033,275001973.73553,   0.00026,   0.00022,   0.00031,-183060055.81435,   0.00000
183127950.72379,312825443.95462,57416976.89212,   0.00048,   0.00129,   0.00106,289825205.84366,   0.00033,275001973.73553,   0.00026,   0.00022,   0.00031,-185176767.89187,   0.00000
179762671.80184,310900011.57789,56875826.51271,   0.00047,   0.00129,   0.00105,287732162.87463,   0.00033,275001973.73553,   0.00026,   0.00022,   0.00031,-187269810.86090,   0.00000
176390145.33016,308957668.25179,56329844.43348,   0.00046,   0.00128,   0.00105,285640316.23544,   0.00033,275001973.73553,   0.00026,   0.00022,   0.00031,-189361657.50010,   0.00000
172976549.41005,306983918.87689,55783862.35426,   0.00044,   0.00128,   0.00104,283539260.03395,   0.00033,275001973.73553,   0.00026,   0.00022,   0.00031,-191462713.70158,   0.00000
169562953.48994,305010169.50199,55233048.57522,   0.00043,   0.00128,   0.00103,281454156.96944,   0.00033,275001973.73553,   0.00026,   0.00022,   0.00031,-193547816.76609,   0.00000
166125199.07074,303012261.62801,54677403.09636,   0.00042,   0.00128,   0.00102,279365164.98568,   0.00033,275001973.73553,   0.00026,   0.00022,   0.00031,-195636808.74986,   0.00000
162687444.65155,301014353.75404,54121757.61750,   0.00041,   0.00127,   0.00102,277296021.86175,   0.00033,275001973.73553,   0.00026,   0.00022,   0.00031,-197705951.87378,   0.00000
159215868.33364,299001950.78061,53561280.43883,   0.00040,   0.00127,   0.00101,275231604.94318,   0.00033,275001973.73553,   0.00026,   0.00022,   0.00031,-199770368.79235,   0.00000
155753955.41537,296979884.40755,53000803.26015,   0.00038,   0.00127,   0.00100,273180910.99790,   0.00033,275001973.73553,   0.00026,   0.00022,   0.00031,-201821062.73763,   0.00000
152250973.04866,294926411.98568,52435494.38166,   0.00037,   0.00127,   0.00100,271122771.62125,   0.00033,275001973.73553,   0.00026,   0.00022,   0.00031,-203879202.11428,   0.00000
148747990.68194,292872939.56382,51865353.80336,   0.00036,   0.00126,   0.00099,269084200.48542,   0.00033,275001973.73553,   0.00026,   0.00022,   0.00031,-205917773.25011,   0.00000
145228097.36588,290812219.59223,51295213.22505,   0.00035,   0.00126,   0.00098,267062611.92079,   0.00033,275001973.73553,   0.00026,   0.00022,   0.00031,-207939361.81474,   0.00000
141700956.50008,288734588.67128,50720240.94693,   0.00034,   0.00126,   0.00097,265048080.36275,   0.00033,275001973.73553,   0.00026,   0.00022,   0.00031,-209953893.37278,   0.00000
138132746.18585,286625551.70153,50145268.66881,   0.00032,   0.00126,   0.00097,263032567.91334,   0.00033,275001973.73553,   0.00026,   0.00022,   0.00031,-211969405.82219,   0.00000
134581446.82098,284523762.28150,49565464.69087,   0.00031,   0.00125,   0.00096,261045060.13047,   0.00033,275001973.73553,   0.00026,   0.00022,   0.00031,-213956913.60506,   0.00000
130989078.00767,282390566.81267,48985660.71293,   0.00030,   0.00125,   0.00095,259058440.63391,   0.00033,275001973.73553,   0.00026,   0.00022,   0.00031,-215943533.10162,   0.00000
127396709.19436,280257371.34384,48401025.03518,   0.00029,   0.00125,   0.00094,257095753.64601,   0.00033,275001973.73553,   0.00026,   0.00022,   0.00031,-217906220.08952,   0.00000
123804340.38105,278124175.87501,47811557.65760,   0.00028,   0.00125,   0.00093,255157651.07488,   0.00033,275001973.73553,   0.00026,   0.00022,   0.00031,-219844322.66065,   0.00000
120187813.06866,275966821.90709,47222090.28003,   0.00026,   0.00124,   0.00093,253228603.89469,   0.00033,275001973.73553,   0.00026,   0.00022,   0.00031,-221773369.84084,   0.00000
116547127.25719,273785309.44010,46627791.20265,   0.00025,   0.00124,   0.00092,251306963.64001,   0.00033,275001973.73553,   0.00026,   0.00022,   0.00031,-223695010.09552,   0.00000
112906441.44572,271603796.97311,46033492.12526,   0.00024,   0.00124,   0.00091,249415147.98124,   0.00033,275001973.73553,   0.00026,   0.00022,   0.00031,-225586825.75429,   0.00000
109241597.13516,269398126.00703,45434361.34806,   0.00023,   0.00123,   0.00090,247532702.61489,   0.00033,275001973.73553,   0.00026,   0.00022,   0.00031,-227469271.12064,   0.00000
105576752.82461,267192455.04096,44835230.57085,   0.00021,   0.00123,   0.00090,245681787.45354,   0.00033,275001973.73553,   0.00026,   0.00022,   0.00031,-229320186.28199,   0.00000
101887750.01498,264962625.57580,44236099.79365,   0.00020,   0.00123,   0.00089,243844947.39900,   0.00033,275001973.73553,   0.00026,   0.00022,   0.00031,-231157026.33653,   0.00000
98181836.25599,262725548.56092,43627305.61682,   0.00019,   0.00123,   0.00088,242032095.87638,   0.00033,275001973.73553,   0.00026,   0.00022,   0.00031,-232969877.85915,   0.00000
94468674.94727,260471560.59669,43023343.13980,   0.00018,   0.00122,   0.00087,240242347.22406,   0.00033,275001973.73553,   0.00026,   0.00022,   0.00031,-234759626.51147,   0.00000
90755513.63856,258217572.63245,42409717.26314,   0.00016,   0.00122,   0.00086,238482624.08875,   0.00033,275001973.73553,   0.00026,   0.00022,   0.00031,-236519349.64679,   0.00000
87018193.83076,255939426.16914,41800923.08631,   0.00015,   0.00122,   0.00086,236743998.53563,   0.00033,275001973.73553,   0.00026,   0.00022,   0.00031,-238257975.19990,   0.00000
83263963.07361,253654032.15610,41187297.20966,   0.00014,   0.00121,   0.00085,235036584.30798,   0.00033,275001973.73553,   0.00026,   0.00022,   0.00031,-239965389.42755,   0.00000
79502484.76674,251351727.19370,40568839.63319,   0.00013,   0.00121,   0.00084,233351111.48778,   0.00033,275001973.73553,   0.00026,   0.00022,   0.00031,-241650862.24775,   0.00000
75741006.45986,249049422.23130,39950382.05672,   0.00011,   0.00121,   0.00083,231704898.42618,   0.00033,275001973.73553,   0.00026,   0.00022,   0.00031,-243297075.30935,   0.00000
71955369.65390,246722958.76982,39327092.78044,   0.00010,   0.00120,   0.00082,230079578.81016,   0.00033,275001973.73553,   0.00026,   0.00022,   0.00031,-244922394.92537,   0.00000
68145574.34887,244372336.80926,38703803.50415,   0.00009,   0.00120,   0.00082,228479141.87334,   0.00033,275001973.73553,   0.00026,   0.00022,   0.00031,-246522831.86219,   0.00000
64335779.04383,242021714.84871,38080514.22787,   0.00008,   0.00120,   0.00081,226921404.99465,   0.00033,275001973.73553,   0.00026,   0.00022,   0.00031,-248080568.74088,   0.00000
60525983.73879,239671092.88815,37452393.25177,   0.00006,   0.00119,   0.00080,225404844.85431,   0.00033,275001973.73553,   0.00026,   0.00022,   0.00031,-249597128.88122,   0.00000
56692029.93467,237296312.42851,36824272.27567,   0.00005,   0.00119,   0.00079,223916943.50494,   0.00033,275001973.73553,   0.00026,   0.00022,   0.00031,-251085030.23059,   0.00000
52850828.58083,234904621.01951,36191319.59975,   0.00004,   0.00119,   0.00078,222458809.76659,   0.00033,275001973.73553,   0.00026,   0.00022,   0.00031,-252543163.96894,   0.00000
49009627.22699,232512929.61051,35558366.92384,   0.00002,   0.00118,   0.00078,221047565.84545,   0.00033,275001973.73553,   0.00026,   0.00022,   0.00031,-253954407.89008,   0.00000
45151514.92379,230113990.65179,34920582.54811,   0.00001,   0.00118,   0.00077,219680344.97200,   0.00033,275001973.73553,   0.00026,   0.00022,   0.00031,-255321628.76353,   0.00000
41261996.57179,227673982.24464,34287629.87219,  -0.00000,   0.00118,   0.00076,218336062.44529,   0.00033,275001973.73553,   0.00026,   0.00022,   0.00031,-256665911.29024,   0.00000
37396636.71886,225258132.33656,33645013.79664,  -0.00001,   0.00117,   0.00075,217052525.76002,   0.00033,275001973.73553,   0.00026,   0.00022,   0.00031,-257949447.97551,   0.00000
33482959.86778,222793965.43032,33007229.42091,  -0.00003,   0.00117,   0.00074,215793627.83113,   0.00033,275001973.73553,   0.00026,   0.00022,   0.00031,-259208345.90440,   0.00000
29593441.51578,220353957.02316,32359781.64554,  -0.00004,   0.00117,   0.00073,214597466.48323,   0.00033,275001973.73553,   0.00026,   0.00022,   0.00031,-260404507.25230,   0.00000
25672517.11497,217872879.16757,31717165.57000,  -0.00005,   0.00116,   0.00073,213429754.64506,   0.00033,275001973.73553,   0.00026,   0.00022,   0.00031,-261572219.09047,   0.00000
21751592.71416,215391801.31197,31069717.79463,  -0.00007,   0.00116,   0.00072,212314924.61301,   0.00033,275001973.73553,   0.00026,   0.00022,   0.00031,-262687049.12252,   0.00000
17813757.36399,212903475.90665,30422270.01927,  -0.00008,   0.00116,   0.00071,211256130.51976,   0.00033,275001973.73553,   0.00026,   0.00022,   0.00031,-263745843.21577,   0.00000
13868674.46410,210398239.55198,29769990.54409,  -0.00009,   0.00115,   0.00070,210239319.95890,   0.00033,275001973.73553,   0.00026,   0.00022,   0.00031,-264762653.77663,   0.00000
9916344.01449,207876092.24795,29122542.76872,  -0.00011,   0.00115,   0.00069,209269683.07837,   0.00033,275001973.73553,   0.00026,   0.00022,   0.00031,-265732290.65716,   0.00000
5947102.61552,205346697.39419,28465431.59372,  -0.00012,   0.00114,   0.00068,208356086.22383,   0.00033,275001973.73553,   0.00026,   0.00022,   0.00031,-266645887.51171,   0.00000
1994772.16590,202824550.09016,27813152.11854,  -0.00013,   0.00114,   0.00067,207503982.51719,   0.00033,275001973.73553,   0.00026,   0.00022,   0.00031,-267497991.21834,   0.00000
-2005875.28187,200254085.78796,27156040.94355,  -0.00014,   0.00114,   0.00067,206687587.46083,   0.00033,275001973.73553,   0.00026,   0.00022,   0.00031,-268314386.27470,   0.00000
-5982364.23057,197707779.98485,26498929.76855,  -0.00016,   0.00113,   0.00066,205945368.32871,   0.00033,275001973.73553,   0.00026,   0.00022,   0.00031,-269056605.40682,   0.00000
-9990259.22807,195120404.73330,25836986.89374,  -0.00017,   0.00113,   0.00065,205240665.37103,   0.00033,275001973.73553,   0.00026,   0.00022,   0.00031,-269761308.36450,   0.00000
-13998154.22556,192533029.48175,25179875.71874,  -0.00018,   0.00113,   0.00064,204602300.15075,   0.00033,275001973.73553,   0.00026,   0.00022,   0.00031,-270399673.58478,   0.00000
-18006049.22306,189945654.23020,24517932.84393,  -0.00020,   0.00112,   0.00063,204027270.87857,   0.00033,275001973.73553,   0.00026,   0.00022,   0.00031,-270974702.85696,   0.00000
-22021191.77029,187341368.02929,23851158.26930,  -0.00021,   0.00112,   0.00062,203503893.09867,   0.00033,275001973.73553,   0.00026,   0.00022,   0.00031,-271498080.63687,   0.00000
-26060492.81659,184712923.32930,23189215.39448,  -0.00022,   0.00111,   0.00061,203039262.88797,   0.00033,275001973.73553,   0.00026,   0.00022,   0.00031,-271962710.84756,   0.00000
-30099793.86290,182084478.62932,22522440.81986,  -0.00024,   0.00111,   0.00061,202640670.25680,   0.00033,275001973.73553,   0.00026,   0.00022,   0.00031,-272361303.47873,   0.00000
-34146342.45893,179439122.97997,21855666.24523,  -0.00025,   0.00111,   0.00060,202298224.76734,   0.00033,275001973.73553,   0.00026,   0.00022,   0.00031,-272703748.96819,   0.00000
-38209802.00431,176786519.78090,21184059.97078,  -0.00026,   0.00110,   0.00059,202026566.70312,   0.00033,275001973.73553,   0.00026,   0.00022,   0.00031,-272975407.03241,   0.00000
-42263598.15006,174124253.18220,20517285.39615,  -0.00028,   0.00110,   0.00058,201810459.93606,   0.00033,275001973.73553,   0.00026,   0.00022,   0.00031,-273191513.79947,   0.00000
-46334305.24517,171454739.03378,19845679.12171,  -0.00029,   0.00109,   0.00057,201666518.12639,   0.00033,275001973.73553,   0.00026,   0.00022,   0.00031,-273335455.60914,   0.00000
-50412259.89001,168768313.93600,19174072.84726,  -0.00030,   0.00109,   0.00056,201581415.43310,   0.00033,275001973.73553,   0.00026,   0.00022,   0.00031,-273420558.30243,   0.00000
-54497462.08457,166064977.88886,18502466.57282,  -0.00032,   0.00108,   0.00055,201555684.36239,   0.00033,275001973.73553,   0.00026,   0.00022,   0.00031,-273446289.37314,   0.00000
-58599575.22848,163354394.29200,17826028.59855,  -0.00033,   0.00108,   0.00055,201604484.95872,   0.00033,275001973.73553,   0.00026,   0.00022,   0.00031,-273397488.77681,   0.00000
-62692024.97276,160634147.29550,17154422.32411,  -0.00034,   0.00108,   0.00054,201709994.45265,   0.00033,275001973.73553,   0.00026,   0.00022,   0.00031,-273291979.28288,   0.00000
-66801385.66640,157906652.74928,16477984.34985,  -0.00036,   0.00107,   0.00053,201890790.33906,   0.00033,275001973.73553,   0.00026,   0.00022,   0.00031,-273111183.39647,   0.00000
-70917993.90976,155162247.25371,15801546.37559,  -0.00037,   0.00107,   0.00052,202132497.98672,   0.00033,275001973.73553,   0.00026,   0.00022,   0.00031,-272869475.74882,   0.00000
-75034602.15313,152417841.75813,15125108.40132,  -0.00038,   0.00106,   0.00051,202445817.03829,   0.00033,275001973.73553,   0.00026,   0.00022,   0.00031,-272556156.69724,   0.00000
-79158457.94622,149656525.31320,14443838.72725,  -0.00040,   0.00106,   0.00050,202819107.16242,   0.00033,275001973.73553,   0.00026,   0.00022,   0.00031,-272182866.57311,   0.00000
-83289561.28903,146878297.91891,13767400.75298,  -0.00041,   0.00105,   0.00049,203254614.67406,   0.00033,275001973.73553,   0.00026,   0.00022,   0.00031,-271747359.06147,   0.00000
-87420664.63184,144100070.52462,13086131.07891,  -0.00042,   0.00105,   0.00048,203760318.38529,   0.00033,275001973.73553,   0.00026,   0.00022,   0.00031,-271241655.35024,   0.00000
-91559015.52437,141304932.18098,12404861.40483,  -0.00044,   0.00104,   0.00047,204326991.41599,   0.00033,275001973.73553,   0.00026,   0.00022,   0.00031,-270674982.31954,   0.00000
-95714277.36627,138502546.28761,11723591.73075,  -0.00045,   0.00104,   0.00047,204971161.77749,   0.00033,275001973.73553,   0.00026,   0.00022,   0.00031,-270030811.95805,   0.00000
-99859875.80853,135690496.99461,11042322.05667,  -0.00046,   0.00103,   0.00046,205669007.33612,   0.00033,275001973.73553,   0.00026,   0.00022,   0.00031,-269332966.39941,   0.00000
-104029632.74987,132854289.20253,10361052.38260,  -0.00048,   0.00103,   0.00045,206434647.73140,   0.00033,275001973.73553,   0.00026,   0.00022,   0.00031,-268567326.00413,   0.00000
-108199389.69121,130018081.41044,9679782.70852,  -0.00049,   0.00102,   0.00044,207269826.70058,   0.00033,275001973.73553,   0.00026,   0.00022,   0.00031,-267732147.03496,   0.00000
-112359483.23292,127172210.21873,8993681.33462,  -0.00050,   0.00102,   0.00043,208156400.95345,   0.00033,275001973.73553,   0.00026,   0.00022,   0.00031,-266845572.78208,   0.00000
-116536487.72398,124319091.47729,8312411.66055,  -0.00052,   0.00102,   0.00042,209119555.08135,   0.00033,275001973.73553,   0.00026,   0.00022,   0.00031,-265882418.65418,   0.00000
-120720739.76477,121449061.78649,7626310.28665,  -0.00053,   0.00101,   0.00041,210141081.24434,   0.00033,275001973.73553,   0.00026,   0.00022,   0.00031,-264860892.49119,   0.00000
-124904991.80556,118579032.09570,6940208.91276,  -0.00054,   0.00101,   0.00040,211229392.75154,   0.00033,275001973.73553,   0.00026,   0.00022,   0.00031,-263772580.98400,   0.00000
-129079580.44672,115699339.00527,6258939.23868,  -0.00056,   0.00100,   0.00039,212367182.56948,   0.00033,275001973.73553,   0.00026,   0.00022,   0.00031,-262634791.16605,   0.00000
-133278327.58695,112795487.41576,5572837.86479,  -0.00057,   0.00100,   0.00039,213570358.60218,   0.00033,275001973.73553,   0.00026,   0.00022,   0.00031,-261431615.13335,   0.00000
-137477074.72719,109891635.82625,4886736.49089,  -0.00058,   0.00099,   0.00038,214837936.38715,   0.00033,275001973.73553,   0.00026,   0.00022,   0.00031,-260164037.34838,   0.00000
-141683069.41715,106970873.28739,4200635.11700,  -0.00060,   0.00099,   0.00037,216161415.52803,   0.00033,275001973.73553,   0.00026,   0.00022,   0.00031,-258840558.20750,   0.00000
-145896311.65684,104033199.79917,3514533.74311,  -0.00061,   0.00098,   0.00036,217540240.87137,   0.00033,275001973.73553,   0.00026,   0.00022,   0.00031,-257461732.86416,   0.00000
-150092642.94717,101102773.86067,2833264.06903,  -0.00062,   0.00097,   0.00035,218971315.57143,   0.00033,275001973.73553,   0.00026,   0.00022,   0.00031,-256030658.16411,   0.00000
-154305885.18686,98165100.37245,2147162.69513,  -0.00064,   0.00097,   0.00034,220472167.77811,   0.00033,275001973.73553,   0.00026,   0.00022,   0.00031,-254529805.95742,   0.00000
-158526374.97627,95210515.93487,1461061.32124,  -0.00065,   0.00096,   0.00033,222025755.17049,   0.00033,275001973.73553,   0.00026,   0.00022,   0.00031,-252976218.56504,   0.00000
-162737201.36604,92246268.09766,774959.94735,  -0.00067,   0.00096,   0.00032,223621268.84944,   0.00033,275001973.73553,   0.00026,   0.00022,   0.00031,-251380704.88609,   0.00000
-166972186.25490,89257861.76137,88858.57345,  -0.00068,   0.00095,   0.00031,225278229.91853,   0.00033,275001973.73553,   0.00026,   0.00022,   0.00031,-249723743.81700,   0.00000
-171190260.19441,86276702.97480,-597242.80044,  -0.00069,   0.00095,   0.00031,226981444.15236,   0.00033,275001973.73553,   0.00026,   0.00022,   0.00031,-248020529.58317,   0.00000
-175432492.63299,83271385.68916,-1283344.17433,  -0.00071,   0.00094,   0.00030,228744684.78913,   0.00033,275001973.73553,   0.00026,   0.00022,   0.00031,-246257288.94641,   0.00000
-179657814.12221,80273315.95323,-1969445.54823,  -0.00072,   0.00094,   0.00029,230551729.66842,   0.00033,275001973.73553,   0.00026,   0.00022,   0.00031,-244450244.06711,   0.00000
-183890383.16117,77258335.26795,-2650715.22231,  -0.00073,   0.00093,   0.00028,232406254.51119,   0.00033,275001973.73553,   0.00026,   0.00022,   0.00031,-242595719.22434,   0.00000
-188122952.20012,74243354.58267,-3336816.59620,  -0.00075,   0.00093,   0.00027,234313044.71689,   0.00033,275001973.73553,   0.00026,   0.00022,   0.00031,-240688929.01864,   0.00000
-192362768.78879,71211462.94804,-4022917.97009,  -0.00076,   0.00092,   0.00026,236265725.53051,   0.00033,275001973.73553,   0.00026,   0.00022,   0.00031,-238736248.20503,   0.00000
-196609832.92719,68162660.36404,-4704187.64417,  -0.00077,   0.00092,   0.00025,238263325.08757,   0.00033,275001973.73553,   0.00026,   0.00022,   0.00031,-236738648.64796,   0.00000
-200856897.06559,65113857.78005,-5390289.01806,  -0.00079,   0.00091,   0.00024,240310300.75838,   0.00033,275001973.73553,   0.00026,   0.00022,   0.00031,-234691672.97715,   0.00000
-205111208.75371,62048144.24670,-6071558.69214,  -0.00080,   0.00090,   0.00023,242400374.38727,   0.00033,275001973.73553,   0.00026,   0.00022,   0.00031,-232601599.34826,   0.00000
-209355857.04220,58972767.31372,-6752828.36622,  -0.00081,   0.00090,   0.00023,244521488.78669,   0.00033,275001973.73553,   0.00026,   0.00022,   0.00031,-230480484.94884,   0.00000
-213600505.33070,55897390.38074,-7434098.04030,  -0.00083,   0.00089,   0.00022,246688472.37339,   0.00033,275001973.73553,   0.00026,   0.00022,   0.00031,-228313501.36214,   0.00000
-217852401.16891,52805102.49840,-8115367.71438,  -0.00084,   0.00089,   0.00021,248896250.46913,   0.00033,275001973.73553,   0.00026,   0.00022,   0.00031,-226105723.26640,   0.00000
-222104297.00713,49712814.61606,-8796637.38845,  -0.00085,   0.00088,   0.00020,251147874.60111,   0.00033,275001973.73553,   0.00026,   0.00022,   0.00031,-223854099.13442,   0.00000
-226363440.39507,46603615.78436,-9477907.06253,  -0.00087,   0.00088,   0.00019,253438653.56793,   0.00033,275001973.73553,   0.00026,   0.00022,   0.00031,-221563320.16761,   0.00000
-230622583.78301,43494416.95267,-10159176.73661,  -0.00088,   0.00087,   0.00018,255771307.79362,   0.00033,275001973.73553,   0.00026,   0.00022,   0.00031,-219230665.94191,   0.00000
-234879311.32104,40358643.77198,-10835614.71087,  -0.00089,   0.00086,   0.00017,258125460.01365,   0.00033,275001973.73553,   0.00026,   0.00022,   0.00031,-216876513.72188,   0.00000
-239136038.85907,37222870.59130,-11512052.68513,  -0.00091,   0.00086,   0.00016,260519671.18724,   0.00033,275001973.73553,   0.00026,   0.00022,   0.00031,-214482302.54829,   0.00000
-243392766.39710,34087097.41062,-12188490.65939,  -0.00092,   0.00085,   0.00015,262952847.09467,   0.00033,275001973.73553,   0.00026,   0.00022,   0.00031,-212049126.64086,   0.00000
-247656741.48486,30934413.28058,-12864928.63365,  -0.00093,   0.00085,   0.00015,265421240.08257,   0.00033,275001973.73553,   0.00026,   0.00022,   0.00031,-209580733.65296,   0.00000
-251911053.17298,27772065.75090,-13541366.60792,  -0.00095,   0.00084,   0.00014,267911669.22648,   0.00033,275001973.73553,   0.00026,   0.00022,   0.00031,-207090304.50905,   0.00000
-256165364.86110,24609718.22123,-14217804.58218,  -0.00096,   0.00083,   0.00013,270438399.14855,   0.00033,275001973.73553,   0.00026,   0.00022,   0.00031,-204563574.58698,   0.00000
-260426924.09895,21430459.74220,-14889410.85662,  -0.00097,   0.00083,   0.00012,272997435.48257,   0.00033,275001973.73553,   0.00026,   0.00022,   0.00031,-202004538.25296,   0.00000
-264688483.33680,18251201.26317,-15561017.13107,  -0.00098,   0.00082,   0.00011,275591034.14764,   0.00033,275001973.73553,   0.00026,   0.00022,   0.00031,-199410939.58789,   0.00000
-268947626.72474,15045368.43516,-16232623.40551,  -0.00100,   0.00082,   0.00010,278201544.48516,   0.00033,275001973.73553,   0.00026,   0.00022,   0.00031,-196800429.25037,   0.00000
-273216433.51231,11849199.00677,-16899397.98014,  -0.00101,   0.00081,   0.00009,280859017.84911,   0.00033,275001973.73553,   0.00026,   0.00022,   0.00031,-194142955.88642,   0.00000
-277482824.44997,8626455.22939,-17571004.25459,  -0.00102,   0.00080,   0.00008,283533150.31606,   0.00033,275001973.73553,   0.00026,   0.00022,   0.00031,-191468823.41948,   0.00000
-281732304.43828,5410959.00174,-18237778.82922,  -0.00104,   0.00080,   0.00008,286224844.34457,   0.00033,275001973.73553,   0.00026,   0.00022,   0.00031,-188777129.39096,   0.00000
-285981784.42659,2195462.77409,-18904553.40385,  -0.00105,   0.00079,   0.00007,288947071.03652,   0.00033,275001973.73553,   0.00026,   0.00022,   0.00031,-186054902.69901,   0.00000
-290245759.51434,-1053855.35227,-19566496.27866,  -0.00106,   0.00078,   0.00006,291695693.84873,   0.00033,275001973.73553,   0.00026,   0.00022,   0.00031,-183306279.88680,   0.00000
-294509734.60210,-4303173.47863,-20228439.15347,  -0.00108,   0.00078,   0.00005,294473672.59231,   0.00033,275001973.73553,   0.00026,   0.00022,   0.00031,-180528301.14322,   0.00000
-298756798.74050,-7545244.05527,-20890382.02829,  -0.00109,   0.00077,   0.00004,297266861.12939,   0.00033,275001973.73553,   0.00026,   0.00022,   0.00031,-177735112.60614,   0.00000
-303011110.42862,-10804225.58127,-21552324.90310,  -0.00110,   0.00076,   0.00003,300086940.85062,   0.00033,275001973.73553,   0.00026,   0.00022,   0.00031,-174915032.88491,   0.00000
-307272669.66647,-14080118.05662,-22209436.07810,  -0.00112,   0.00076,   0.00002,302932475.86994,   0.00033,275001973.73553,   0.00026,   0.00022,   0.00031,-172069497.86559,   0.00000
-311524565.50468,-17365673.93160,-22866547.25309,  -0.00113,   0.00075,   0.00002,305790654.64395,   0.00033,275001973.73553,   0.00026,   0.00022,   0.00031,-169211319.09158,   0.00000
-315776461.34290,-20651229.80659,-23523658.42809,  -0.00114,   0.00074,   0.00001,308674848.46937,   0.00033,275001973.73553,   0.00026,   0.00022,   0.00031,-166327125.26616,   0.00000
-320028357.18112,-23936785.68157,-24175937.90327,  -0.00115,   0.00074,  -0.00000,311583210.12443,   0.00033,275001973.73553,   0.00026,   0.00022,   0.00031,-163418763.61110,   0.00000
-324270589.61970,-27232004.95619,-24828217.37845,  -0.00117,   0.00073,  -0.00001,314502432.76825,   0.00033,275001973.73553,   0.00026,   0.00022,   0.00031,-160499540.96728,   0.00000
-328520069.60801,-30544135.18016,-25480496.85363,  -0.00118,   0.00072,  -0.00002,317445721.46018,   0.00033,275001973.73553,   0.00026,   0.00022,   0.00031,-157556252.27535,   0.00000
-332776797.14604,-33873176.35349,-26127944.62900,  -0.00119,   0.00072,  -0.00003,320411594.87537,   0.00033,275001973.73553,   0.00026,   0.00022,   0.00031,-154590378.86016,   0.00000
-337016613.73471,-37194969.97710,-26775392.40436,  -0.00121,   0.00071,  -0.00003,323386928.94176,   0.00033,275001973.73553,   0.00026,   0.00022,   0.00031,-151615044.79377,   0.00000
-341246766.92376,-40526427.00034,-27422840.17973,  -0.00122,   0.00070,  -0.00004,326371370.56283,   0.00033,275001973.73553,   0.00026,   0.00022,   0.00031,-148630603.17270,   0.00000
-345493831.06215,-43865131.57330,-28065456.25527,  -0.00123,   0.00070,  -0.00005,329390367.52324,   0.00033,275001973.73553,   0.00026,   0.00022,   0.00031,-145611606.21230,   0.00000
-349714320.85156,-47206251.99617,-28708072.33082,  -0.00124,   0.00069,  -0.00006,332403812.14761,   0.00033,275001973.73553,   0.00026,   0.00022,   0.00031,-142598161.58792,   0.00000
-353958969.14006,-50571530.91812,-29345856.70656,  -0.00126,   0.00068,  -0.00007,335451520.40199,   0.00033,275001973.73553,   0.00026,   0.00022,   0.00031,-139550453.33354,   0.00000
-358186706.47919,-53929562.29035,-29983641.08229,  -0.00127,   0.00068,  -0.00008,338506009.23211,   0.00033,275001973.73553,   0.00026,   0.00022,   0.00031,-136495964.50342,   0.00000
-362421691.36805,-57304504.61193,-30616593.75820,  -0.00128,   0.00067,  -0.00008,341580181.77069,   0.00033,275001973.73553,   0.00026,   0.00022,   0.00031,-133421791.96484,   0.00000
-366647012.85728,-60689110.33315,-31249546.43412,  -0.00129,   0.00066,  -0.00009,344661169.25263,   0.00033,275001973.73553,   0.00026,   0.00022,   0.00031,-130340804.48290,   0.00000
-370855423.39715,-64066468.50464,-31882499.11004,  -0.00131,   0.00065,  -0.00010,347747525.36199,   0.00033,275001973.73553,   0.00026,   0.00022,   0.00031,-127254448.37354,   0.00000
-375087992.43610,-67467985.17521,-32510620.08614,  -0.00132,   0.00065,  -0.00011,350866529.08965,   0.00033,275001973.73553,   0.00026,   0.00022,   0.00031,-124135444.64588,   0.00000
-379293987.12606,-70871917.69569,-33133909.36242,  -0.00133,   0.00064,  -0.00012,353976034.49766,   0.00033,275001973.73553,   0.00026,   0.00022,   0.00031,-121025939.23787,   0.00000
-383516892.76538,-74283097.76590,-33762030.33852,  -0.00134,   0.00063,  -0.00013,357119009.41798,   0.00033,275001973.73553,   0.00026,   0.00022,   0.00031,-117882964.31755,   0.00000
-387713224.05571,-77696693.68601,-34380487.91499,  -0.00136,   0.00062,  -0.00013,360250383.14727,   0.00033,275001973.73553,   0.00026,   0.00022,   0.00031,-114751590.58826,   0.00000
-391926466.29539,-81117537.15585,-34998945.49146,  -0.00137,   0.00062,  -0.00014,363413096.46391,   0.00033,275001973.73553,   0.00026,   0.00022,   0.00031,-111588877.27162,   0.00000
-396130045.13545,-84548044.02532,-35617403.06792,  -0.00138,   0.00061,  -0.00015,366580362.42489,   0.00033,275001973.73553,   0.00026,   0.00022,   0.00031,-108421611.31064,   0.00000
-400323960.57587,-87988214.29442,-36231028.94457,  -0.00139,   0.00060,  -0.00016,369750552.68475,   0.00033,275001973.73553,   0.00026,   0.00022,   0.00031,-105251421.05078,   0.00000
-404517876.01629,-91428384.56352,-36844654.82123,  -0.00141,   0.00059,  -0.00017,372937034.03668,   0.00033,275001973.73553,   0.00026,   0.00022,   0.00031,-102064939.69885,   0.00000
-408702128.05708,-94878218.23225,-37453448.99806,  -0.00142,   0.00059,  -0.00017,376125854.73625,   0.00033,275001973.73553,   0.00026,   0.00022,   0.00031,-98876118.99928,   0.00000
-412886380.09787,-98328051.90099,-38057411.47508,  -0.00143,   0.00058,  -0.00018,379328821.67592,   0.00033,275001973.73553,   0.00026,   0.00022,   0.00031,-95673152.05961,   0.00000
-417068216.28875,-101804459.91871,-38661373.95210,  -0.00144,   0.00057,  -0.00019,382537247.98596,   0.00033,275001973.73553,   0.00026,   0.00022,   0.00031,-92464725.74957,   0.00000
-421242804.92991,-105263956.98708,-39265336.42912,  -0.00146,   0.00056,  -0.00020,385758495.41029,   0.00033,275001973.73553,   0.00026,   0.00022,   0.00031,-89243478.32524,   0.00000
-425414977.72115,-108750028.40443,-39864467.20632,  -0.00147,   0.00056,  -0.00020,388983429.30457,   0.00033,275001973.73553,   0.00026,   0.00022,   0.00031,-86018544.43096,   0.00000
-429570239.56305,-112228852.27206,-40458766.28371,  -0.00148,   0.00055,  -0.00021,392207172.74390,   0.00033,275001973.73553,   0.00026,   0.00022,   0.00031,-82794800.99163,   0.00000
-433749659.90402,-115731834.63877,-41053065.36110,  -0.00149,   0.00054,  -0.00022,395461810.58062,   0.00033,275001973.73553,   0.00026,   0.00022,   0.00031,-79540163.15491,   0.00000
-437895258.34628,-119220321.90604,-41642532.73867,  -0.00150,   0.00053,  -0.00023,398700426.85585,   0.00033,275001973.73553,   0.00026,   0.00022,   0.00031,-76301546.87968,   0.00000
-442048104.33826,-122725720.12266,-42227168.41642,  -0.00152,   0.00053,  -0.00024,401953801.14177,   0.00033,275001973.73553,   0.00026,   0.00022,   0.00031,-73048172.59376,   0.00000
-446191286.93062,-126240781.73891,-42811804.09418,  -0.00153,   0.00052,  -0.00024,405209099.53879,   0.00033,275001973.73553,   0.00026,   0.00022,   0.00031,-69792874.19674,   0.00000
-450334469.52297,-129755843.35516,-43396439.77193,  -0.00154,   0.00051,  -0.00025,408477584.93598,   0.00033,275001973.73553,   0.00026,   0.00022,   0.00031,-66524388.79956,   0.00000
-454467988.71569,-133280568.37104,-43971412.05005,  -0.00155,   0.00050,  -0.00026,411744539.80975,   0.00033,275001973.73553,   0.00026,   0.00022,   0.00031,-63257433.92578,   0.00000
-458601507.90841,-136805293.38693,-44546384.32818,  -0.00156,   0.00049,  -0.00027,415024166.26938,   0.00033,275001973.73553,   0.00026,   0.00022,   0.00031,-59977807.46615,   0.00000
-462732611.25122,-140356592.75180,-45121356.60630,  -0.00158,   0.00049,  -0.00027,418308116.63160,   0.00033,275001973.73553,   0.00026,   0.00022,   0.00031,-56693857.10393,   0.00000
-466839556.09495,-143883733.61759,-45686665.48479,  -0.00159,   0.00048,  -0.00028,421583794.53283,   0.00033,275001973.73553,   0.00026,   0.00022,   0.00031,-53418179.20270,   0.00000
-470960996.03813,-147444696.38210,-46251974.36328,  -0.00160,   0.00047,  -0.00029,424877903.17842,   0.00033,275001973.73553,   0.00026,   0.00022,   0.00031,-50124070.55712,   0.00000
-475065525.03195,-150998411.59688,-46817283.24177,  -0.00161,   0.00046,  -0.00030,428169601.58893,   0.00033,275001973.73553,   0.00026,   0.00022,   0.00031,-46832372.14660,   0.00000
-479177301.57550,-154569037.76102,-47377760.42044,  -0.00162,   0.00045,  -0.00030,431474745.38548,   0.00033,275001973.73553,   0.00026,   0.00022,   0.00031,-43527228.35005,   0.00000
-483255256.22033,-158125168.82571,-47933405.89930,  -0.00164,   0.00045,  -0.00031,434761114.76109,   0.00033,275001973.73553,   0.00026,   0.00022,   0.00031,-40240858.97444,   0.00000
-487357369.36425,-161705458.38948,-48484219.67834,  -0.00165,   0.00044,  -0.00032,438074962.31525,   0.00033,275001973.73553,   0.00026,   0.00022,   0.00031,-36927011.42028,   0.00000
-491432908.15917,-165288163.80315,-49035033.45738,  -0.00166,   0.00043,  -0.00032,441374830.28785,   0.00033,275001973.73553,   0.00026,   0.00022,   0.00031,-33627143.44768,   0.00000
-495508446.95410,-168870869.21683,-49576183.83679,  -0.00167,   0.00042,  -0.00033,444682407.27844,   0.00033,275001973.73553,   0.00026,   0.00022,   0.00031,-30319566.45709,   0.00000
-499591233.29875,-172470485.57987,-50122165.91602,  -0.00168,   0.00041,  -0.00034,448006049.88658,   0.00033,275001973.73553,   0.00026,   0.00022,   0.00031,-26995923.84895,   0.00000
-503640197.74468,-176055606.84345,-50658484.59561,  -0.00169,   0.00040,  -0.00035,451308310.38792,   0.00033,275001973.73553,   0.00026,   0.00022,   0.00031,-23693663.34762,   0.00000
-507696409.74035,-179657639.05640,-51194803.27520,  -0.00170,   0.00039,  -0.00035,454624787.10510,   0.00033,275001973.73553,   0.00026,   0.00022,   0.00031,-20377186.63043,   0.00000
-511742958.33637,-183269334.66897,-51726290.25498,  -0.00172,   0.00039,  -0.00036,457939450.42075,   0.00033,275001973.73553,   0.00026,   0.00022,   0.00031,-17062523.31478,   0.00000
-515796754.48213,-186897941.23090,-52252945.53494,  -0.00173,   0.00038,  -0.00037,461266616.84495,   0.00033,275001973.73553,   0.00026,   0.00022,   0.00031,-13735356.89058,   0.00000
-519833639.67852,-190519300.24311,-52774769.11509,  -0.00174,   0.00037,  -0.00037,464587778.78633,   0.00033,275001973.73553,   0.00026,   0.00022,   0.00031,-10414194.94920,   0.00000
-523853613.92556,-194133411.70559,-53296592.69523,  -0.00175,   0.00036,  -0.00038,467904350.73465,   0.00033,275001973.73553,   0.00026,   0.00022,   0.00031,-7097623.00088,   0.00000
-527888083.27205,-197781345.06679,-53813584.57556,  -0.00176,   0.00035,  -0.00039,471237285.68250,   0.00033,275001973.73553,   0.00026,   0.00022,   0.00031,-3764688.05303,   0.00000
-531881483.17010,-201397872.37918,-54325744.75607,  -0.00177,   0.00034,  -0.00039,474545125.04045,   0.00033,275001973.73553,   0.00026,   0.00022,   0.00031,-456848.69508,   0.00000
-532432916.46778,-201898994.83578,-54395253.15494,  -0.00177,   0.00034,  -0.00039,475001973.36341,   0.00033,275001973.73553,   0.00026,   0.00022,   0.00031,  -0.37212,   0.00000
-532741598.69414,-204098981.76989,-54467099.95697,  -0.00178,   0.00033,  -0.00040,475001973.36341,   0.00034,275013665.52124,   0.00024,   0.00022,   0.00031,   0.00000,   2.00000
-533082529.82360,-206621734.20347,-54551714.05894,  -0.00179,   0.00033,  -0.00041,478333834.22813,   0.00035,275027111.20836,   0.00023,   0.00023,   0.00030,   0.00000,   2.00000
-533412357.34668,-209138257.25626,-54628851.00105,  -0.00181,   0.00032,  -0.00041,478360507.39361,   0.00037,275040584.46513,   0.00021,   0.00023,   0.00030,   0.00000,   2.00000
-533729652.55556,-211631538.34297,-54696381.19467,  -0.00182,   0.00031,  -0.00042,478366631.85053,   0.00038,275054002.14741,   0.00020,   0.00023,   0.00029,   0.00000,   2.00000
-534033193.53041,-214115846.00529,-54762980.81423,  -0.00183,   0.00030,  -0.00043,478380487.66715,   0.00039,275067395.72208,   0.00018,   0.00023,   0.00029,   0.00000,   2.00000
-534323038.51794,-216591190.75836,-54828652.28826,  -0.00184,   0.00029,  -0.00043,478394356.24765,   0.00040,275080765.32121,   0.00017,   0.00023,   0.00028,   0.00000,   2.00000
-534601951.44747,-219045718.82230,-54883008.06129,  -0.00185,   0.00028,  -0.00044,478414521.70189,   0.00041,275094136.36539,   0.00016,   0.00023,   0.00028,   0.00000,   2.00000
-534869244.97490,-221492024.17905,-54931957.72882,  -0.00186,   0.00027,  -0.00044,478426633.25153,   0.00043,275107476.46622,   0.00014,   0.00024,   0.00027,   0.00000,   2.00000
-535123126.77684,-223929506.95641,-54980119.10591,  -0.00187,   0.00026,  -0.00045,478440425.53728,   0.00044,275120792.48097,   0.00013,   0.00024,   0.00026,   0.00000,   2.00000
-535364723.21179,-226345653.60969,-55021705.49342,  -0.00188,   0.00025,  -0.00046,478461988.77177,   0.00045,275134115.59149,   0.00011,   0.00024,   0.00026,   0.00000,   2.00000
-535594048.05827,-228752070.10071,-55059840.13697,  -0.00189,   0.00024,  -0.00046,478459641.56166,   0.00046,275147350.46255,   0.00010,   0.00024,   0.00025,   0.00000,   2.00000
-535811473.72601,-231137336.51857,-55091503.07455,  -0.00190,   0.00024,  -0.00047,478480935.94730,   0.00048,275160591.72585,   0.00008,   0.00024,   0.00025,   0.00000,   2.00000
-536018745.90339,-233516299.74554,-55116096.48819,  -0.00191,   0.00023,  -0.00047,478507245.70352,   0.00049,275173859.07200,   0.00007,   0.00024,   0.00024,   0.00000,   2.00000
-536214049.63281,-235885933.95462,-55137381.84749,  -0.00192,   0.00022,  -0.00048,478504835.93585,   0.00050,275187038.53853,   0.00006,   0.00024,   0.00024,   0.00000,   2.00000
-536397910.71257,-238234515.46874,-55152351.83370,  -0.00193,   0.00021,  -0.00049,478525872.23413,   0.00051,275200223.44139,   0.00004,   0.00025,   0.00023,   0.00000,   2.00000
-536568203.07802,-240573463.15752,-55168679.64467,  -0.00194,   0.00020,  -0.00049,478525024.80215,   0.00052,275213327.39781,   0.00003,   0.00025,   0.00022,   0.00000,   2.00000
-536730483.25371,-242906773.26552,-55173475.27016,  -0.00195,   0.00019,  -0.00050,478549552.08955,   0.00054,275226450.72826,   0.00001,   0.00025,   0.00022,   0.00000,   2.00000
-536879904.63829,-245218425.00900,-55176686.06122,  -0.00197,   0.00018,  -0.00050,478572024.86413,   0.00055,275239585.24940,  -0.00000,   0.00025,   0.00021,   0.00000,   2.00000
-537019754.14812,-247522238.61018,-55172201.11377,  -0.00198,   0.00017,  -0.00051,478567777.39523,   0.00056,275252626.03639,  -0.00001,   0.00025,   0.00021,   0.00000,   2.00000
-537147095.10615,-249804567.48871,-55166228.19864,  -0.00199,   0.00016,  -0.00051,478590005.41676,   0.00057,275265677.43672,  -0.00003,   0.00025,   0.00020,   0.00000,   2.00000
-537263229.29659,-252078716.09572,-55157217.74189,  -0.00200,   0.00015,  -0.00052,478587337.58071,   0.00058,275278642.08611,  -0.00004,   0.00025,   0.00020,   0.00000,   2.00000
-537369898.06008,-254346540.85347,-55141455.72338,  -0.00201,   0.00014,  -0.00053,478613388.59933,   0.00060,275291632.44553,  -0.00006,   0.00025,   0.00019,   0.00000,   2.00000
-537468218.99563,-256594465.59439,-55115168.91431,  -0.00202,   0.00013,  -0.00053,478632028.38504,   0.00061,275304619.49177,  -0.00007,   0.00025,   0.00019,   0.00000,   2.00000
-537553682.60381,-258833831.65843,-55090582.05392,  -0.00203,   0.00012,  -0.00054,478631015.76365,   0.00062,275317526.91709,  -0.00008,   0.00025,   0.00018,  -0.00000,   2.00000
-537628431.51878,-261052111.78158,-55062006.07955,  -0.00204,   0.00011,  -0.00054,478636743.04262,   0.00063,275330381.50499,  -0.00010,   0.00025,   0.00017,   0.00000,   2.00000
-537694072.13067,-263264138.37077,-55026845.35823,  -0.00205,   0.00010,  -0.00055,478662638.10044,   0.00064,275343261.52819,  -0.00011,   0.00025,   0.00017,   0.00000,   2.00000
-537749780.61069,-265469292.08135,-54987013.00628,  -0.00206,   0.00009,  -0.00055,478674248.47631,   0.00066,275356111.57053,  -0.00013,   0.00025,   0.00016,   0.00000,   2.00000
-537795179.55469,-267653687.88476,-54943335.99532,  -0.00207,   0.00008,  -0.00056,478679777.02818,   0.00067,275368908.49844,  -0.00014,   0.00025,   0.00016,   0.00000,   2.00000
-537830823.06077,-269831424.20690,-54895059.93174,  -0.00208,   0.00007,  -0.00056,478691300.26389,   0.00068,275381675.67715,  -0.00015,   0.00025,   0.00015,   0.00000,   2.00000
-537858584.58248,-272003316.45508,-54837638.34636,  -0.00208,   0.00006,  -0.00057,478701177.79842,   0.00069,275394406.90818,  -0.00017,   0.00025,   0.00015,  -0.00000,   2.00000
-537875381.71246,-274154238.49522,-54779246.85400,  -0.00209,   0.00005,  -0.00057,478722473.40335,   0.00070,275407146.26117,  -0.00018,   0.00025,   0.00014,   0.00000,   2.00000
-537881652.12472,-276284857.81953,-54719058.66663,  -0.00210,   0.00004,  -0.00058,478713315.67711,   0.00071,275419777.37138,  -0.00020,   0.00025,   0.00013,   0.00000,   2.00000
-537879367.48517,-278422888.10669,-54651717.45784,  -0.00211,   0.00003,  -0.00058,478745415.09206,   0.00073,275432458.19251,  -0.00021,   0.00025,   0.00013,   0.00000,   2.00000
-537869390.87721,-280541718.08364,-54576213.52337,  -0.00212,   0.00002,  -0.00059,478748867.68109,   0.00074,275445079.32493,  -0.00022,   0.00025,   0.00012,   0.00000,   2.00000
-537848210.42736,-282639926.86664,-54501783.64374,  -0.00213,   0.00001,  -0.00059,478755482.84298,   0.00075,275457653.34002,  -0.00024,   0.00025,   0.00012,   0.00000,   2.00000
-537817748.30543,-284732022.44475,-54423003.50052,  -0.00214,   0.00000,  -0.00060,478766862.21469,   0.00076,275470198.58890,  -0.00025,   0.00025,   0.00011,   0.00000,   2.00000
-537779854.01530,-286818862.11177,-54335321.08406,  -0.00215,  -0.00001,  -0.00060,478776619.50478,   0.00077,275482709.04885,  -0.00026,   0.00025,   0.00011,   0.00000,   2.00000
-537731107.06780,-288885440.97983,-54248826.32964,  -0.00216,  -0.00002,  -0.00060,478783024.79352,   0.00078,275495172.42455,  -0.00028,   0.00025,   0.00010,   0.00000,   2.00000
-537675904.98011,-290946632.28733,-54151646.29346,  -0.00217,  -0.00003,  -0.00061,478807013.34533,   0.00079,275507655.25740,  -0.00029,   0.00025,   0.00010,  -0.00000,   2.00000
-537610685.82013,-293002236.14778,-54052126.82360,  -0.00218,  -0.00004,  -0.00061,478804171.43729,   0.00081,275520056.37597,  -0.00030,   0.00025,   0.00009,   0.00000,   2.00000
-537535807.58797,-295037466.32798,-53952065.62163,  -0.00219,  -0.00005,  -0.00062,478824649.93315,   0.00082,275532464.08598,  -0.00032,   0.00025,   0.00008,   0.00000,   2.00000
-537453422.79472,-297055286.23741,-53845993.75492,  -0.00220,  -0.00006,  -0.00062,478813201.32010,   0.00083,275544758.71169,  -0.00033,   0.00024,   0.00008,   0.00000,   2.00000
-537362378.38146,-299079917.33658,-53733085.53362,  -0.00221,  -0.00007,  -0.00063,478845690.69894,   0.00084,275557105.28874,  -0.00034,   0.00024,   0.00007,   0.00000,   2.00000
-537263633.80711,-301072930.27034,-53617917.17996,  -0.00221,  -0.00008,  -0.00063,478843078.99881,   0.00085,275569372.56655,  -0.00036,   0.00024,   0.00007,   0.00000,   2.00000
-537155344.71253,-303073338.46682,-53497807.29774,  -0.00222,  -0.00009,  -0.00063,478861423.26141,   0.00086,275581639.05090,  -0.00037,   0.00024,   0.00006,   0.00000,   2.00000
-537040732.36634,-305056243.44992,-53370014.18682,  -0.00223,  -0.00010,  -0.00064,478864069.62580,   0.00087,275593846.40257,  -0.00038,   0.00024,   0.00006,  -0.00000,   2.00000
-536915461.13730,-307032764.56579,-53242859.96074,  -0.00224,  -0.00011,  -0.00064,478877034.56689,   0.00089,275606033.35585,  -0.00040,   0.00024,   0.00005,   0.00000,   2.00000
-536784084.42661,-308992092.39264,-53108085.91903,  -0.00225,  -0.00012,  -0.00065,478879540.76133,   0.00090,275618161.35930,  -0.00041,   0.00024,   0.00005,   0.00000,   2.00000
-536642155.32096,-310945191.20272,-52974005.98154,  -0.00226,  -0.00013,  -0.00065,478892463.03635,   0.00091,275630269.36382,  -0.00042,   0.00024,   0.00004,   0.00000,   2.00000
-536495265.42064,-312880372.04052,-52830566.68670,  -0.00227,  -0.00014,  -0.00065,478909029.08474,   0.00092,275642371.02418,  -0.00044,   0.00023,   0.00003,   0.00000,   2.00000
-536338775.88999,-314811451.64839,-52685099.80290,  -0.00228,  -0.00015,  -0.00066,478906160.41303,   0.00093,275654394.72649,  -0.00045,   0.00023,   0.00003,   0.00000,   2.00000
-536175735.12793,-316723844.69819,-52534968.42479,  -0.00228,  -0.00016,  -0.00066,478924184.27508,   0.00094,275666417.98530,  -0.00046,   0.00023,   0.00002,   0.00000,   2.00000
-536004935.64781,-318633358.33830,-52378255.83421,  -0.00229,  -0.00017,  -0.00066,478919712.22422,   0.00095,275678358.14349,  -0.00047,   0.00023,   0.00002,   0.00000,   2.00000
-535824725.77067,-320535638.26097,-52220620.62426,  -0.00230,  -0.00019,  -0.00067,478946768.00137,   0.00096,275690331.33628,  -0.00049,   0.00023,   0.00001,   0.00000,   2.00000
-535638027.00909,-322422944.18450,-52057393.82197,  -0.00231,  -0.00020,  -0.00067,478934795.91053,   0.00097,275702194.63857,  -0.00050,   0.00023,   0.00001,   0.00000,   2.00000
-535443794.10741,-324303996.79185,-51888709.44720,  -0.00232,  -0.00021,  -0.00067,478960220.88802,   0.00099,275714085.35082,  -0.00051,   0.00022,   0.00000,   0.00000,   2.00000
-535239981.91813,-326181551.82137,-51718138.09426,  -0.00233,  -0.00022,  -0.00068,478957483.71813,   0.00100,275725900.61634,  -0.00053,   0.00022,  -0.00000,   0.00000,   2.00000
-535030138.14243,-328040709.65267,-51543134.83206,  -0.00233,  -0.00023,  -0.00068,478975205.89913,   0.00101,275737715.50432,  -0.00054,   0.00022,  -0.00001,   0.00000,   2.00000
-534813378.11648,-329883159.43334,-51365503.82983,  -0.00234,  -0.00024,  -0.00068,478978729.67032,   0.00102,275749478.57132,  -0.00055,   0.00022,  -0.00001,   0.00000,   2.00000
-534589953.93763,-331721947.92516,-51179692.47014,  -0.00235,  -0.00025,  -0.00068,478988474.19495,   0.00103,275761212.67807,  -0.00056,   0.00022,  -0.00002,   0.00000,   2.00000
-534356989.02686,-333557729.14023,-50992091.13415,  -0.00236,  -0.00026,  -0.00069,478985767.42528,   0.00104,275772872.97168,  -0.00058,   0.00021,  -0.00002,   0.00000,   2.00000
-534118373.51093,-335375415.30710,-50800219.77355,  -0.00237,  -0.00027,  -0.00069,479003229.45402,   0.00105,275784532.91602,  -0.00059,   0.00021,  -0.00003,   0.00000,   2.00000
-533871360.61463,-337188554.98791,-50604865.47564,  -0.00237,  -0.00028,  -0.00069,479014598.36919,   0.00106,275796170.53282,  -0.00060,   0.00021,  -0.00003,   0.00000,   2.00000
-533617769.61289,-338985544.16495,-50407038.47860,  -0.00238,  -0.00030,  -0.00069,479017925.42650,   0.00107,275807757.16215,  -0.00061,   0.00021,  -0.00004,   0.00000,   2.00000
-533357532.48124,-340779097.82007,-50201161.12490,  -0.00239,  -0.00031,  -0.00070,479027766.17782,   0.00108,275819316.51196,  -0.00063,   0.00020,  -0.00004,   0.00000,   2.00000
-533090843.21278,-342556747.49480,-49992890.24113,  -0.00240,  -0.00032,  -0.00070,479031002.25546,   0.00109,275830825.21552,  -0.00064,   0.00020,  -0.00005,  -0.00000,   2.00000
-532815820.30838,-344330078.17339,-49781250.09593,  -0.00240,  -0.00033,  -0.00070,479042386.66212,   0.00110,275842312.77843,  -0.00065,   0.00020,  -0.00005,   0.00000,   2.00000
-532532435.70456,-346099050.19530,-49566259.08552,  -0.00241,  -0.00034,  -0.00070,479053839.46403,   0.00111,275853779.58694,  -0.00066,   0.00020,  -0.00006,   0.00000,   2.00000
-532244440.19572,-347853394.97870,-49344323.99233,  -0.00242,  -0.00035,  -0.00071,479055500.00402,   0.00113,275865190.96024,  -0.00067,   0.00019,  -0.00006,   0.00000,   2.00000
-531945171.77336,-349604623.26246,-49125391.54985,  -0.00243,  -0.00036,  -0.00071,479054504.34792,   0.00114,275876537.86475,  -0.00069,   0.00019,  -0.00007,   0.00000,   2.00000
-531644323.52527,-351340304.59962,-48893254.41311,  -0.00243,  -0.00037,  -0.00071,479068530.00627,   0.00115,275887874.17634,  -0.00070,   0.00019,  -0.00007,   0.00000,   2.00000
-531335738.00050,-353059790.85299,-48663533.87556,  -0.00244,  -0.00039,  -0.00071,479073007.95567,   0.00116,275899166.26350,  -0.00071,   0.00018,  -0.00008,   0.00000,   2.00000
-531016579.26074,-354786209.49631,-48429578.33588,  -0.00245,  -0.00040,  -0.00071,479093000.67082,   0.00117,275910469.24426,  -0.00072,   0.00018,  -0.00008,   0.00000,   2.00000
-530695383.45751,-356487618.33572,-48189812.63220,  -0.00245,  -0.00041,  -0.00072,479085967.33699,   0.00118,275921687.74268,  -0.00073,   0.00018,  -0.00009,   0.00000,   2.00000
-530363510.02092,-358195901.56558,-47945877.26242,  -0.00246,  -0.00042,  -0.00072,479106089.25107,   0.00119,275932918.03578,  -0.00075,   0.00018,  -0.00009,  -0.00000,   2.00000
-530027314.56518,-359890276.43144,-47695187.42903,  -0.00247,  -0.00043,  -0.00072,479107609.96558,   0.00120,275944094.62842,  -0.00076,   0.00017,  -0.00010,   0.00000,   2.00000
-529683657.01763,-361568918.93927,-47447046.28962,  -0.00248,  -0.00044,  -0.00072,479111945.14952,   0.00121,275955227.94864,  -0.00077,   0.00017,  -0.00010,   0.00000,   2.00000
-529331870.40372,-363247206.62839,-47192762.11823,  -0.00248,  -0.00046,  -0.00072,479108230.19804,   0.00122,275966290.01846,  -0.00078,   0.00017,  -0.00011,   0.00000,   2.00000
-528977350.13167,-364909434.19203,-46930192.81441,  -0.00249,  -0.00047,  -0.00072,479123444.51979,   0.00123,275977347.74936,  -0.00079,   0.00016,  -0.00011,   0.00000,   2.00000
-528612925.98937,-366566799.73591,-46669245.05460,  -0.00250,  -0.00048,  -0.00073,479136500.66138,   0.00124,275988393.67636,  -0.00081,   0.00016,  -0.00012,  -0.00000,   2.00000
-528241728.27695,-368221280.91121,-46400634.85848,  -0.00250,  -0.00049,  -0.00073,479146790.75001,   0.00125,275999418.21165,  -0.00082,   0.00016,  -0.00012,  -0.00000,   2.00000
-527863330.01156,-369864199.25302,-46131615.03874,  -0.00251,  -0.00050,  -0.00073,479135808.62222,   0.00126,276010347.48045,  -0.00083,   0.00015,  -0.00013,   0.00000,   2.00000
-527482433.08529,-371491280.62810,-45854436.71478,  -0.00252,  -0.00051,  -0.00073,479150899.71775,   0.00127,276021272.96991,  -0.00084,   0.00015,  -0.00013,  -0.00000,   2.00000
-527088831.40183,-373123808.47482,-45577967.53429,  -0.00252,  -0.00053,  -0.00073,479173089.73223,   0.00128,276032219.32531,  -0.00085,   0.00014,  -0.00014,   0.00000,   2.00000
-526692448.80522,-374736020.69998,-45297472.26510,  -0.00253,  -0.00054,  -0.00073,479151642.32984,   0.00129,276043035.26185,  -0.00086,   0.00014,  -0.00014,   0.00000,   2.00000
-526290847.10758,-376342682.61267,-45007906.19868,  -0.00253,  -0.00055,  -0.00073,479175761.18323,   0.00130,276053879.44173,  -0.00087,   0.00014,  -0.00015,   0.00000,   2.00000
-525877662.01414,-377947539.45394,-44721647.62423,  -0.00254,  -0.00056,  -0.00073,479175277.44646,   0.00131,276064666.69077,  -0.00089,   0.00013,  -0.00015,   0.00000,   2.00000
-525462218.82726,-379536726.90361,-44427376.05243,  -0.00255,  -0.00057,  -0.00073,479190299.91012,   0.00132,276075451.02334,  -0.00090,   0.00013,  -0.00015,   0.00000,   2.00000
-525038111.73224,-381126257.87692,-44127122.47577,  -0.00255,  -0.00058,  -0.00073,479187194.08849,   0.00133,276086169.99586,  -0.00091,   0.00013,  -0.00016,   0.00000,   2.00000
-524607109.36330,-382701259.92587,-43829736.78561,  -0.00256,  -0.00060,  -0.00073,479191192.57372,   0.00134,276096848.66007,  -0.00092,   0.00012,  -0.00016,   0.00000,   2.00000
-524174026.64481,-384260819.20478,-43524432.71293,  -0.00257,  -0.00061,  -0.00073,479206096.76644,   0.00135,276107524.86126,  -0.00093,   0.00012,  -0.00017,   0.00000,   2.00000
-523732152.47396,-385820982.91852,-43213177.36628,  -0.00257,  -0.00062,  -0.00073,479203109.07155,   0.00136,276118137.26842,  -0.00094,   0.00011,  -0.00017,   0.00000,   2.00000
-523280325.23071,-387376519.95534,-42903860.22733,  -0.00258,  -0.00063,  -0.00073,479216470.88699,   0.00137,276128742.36336,  -0.00095,   0.00011,  -0.00018,   0.00000,   2.00000
-522824638.82782,-388919886.91375,-42588144.57493,  -0.00258,  -0.00065,  -0.00073,479217783.22763,   0.00138,276139299.12244,  -0.00096,   0.00010,  -0.00018,   0.00000,   2.00000
-522361830.16423,-390460650.07205,-42265073.86252,  -0.00259,  -0.00066,  -0.00073,479228616.08042,   0.00139,276149840.38039,  -0.00097,   0.00010,  -0.00018,   0.00000,   2.00000
-521892347.57000,-391987399.81901,-41945012.74127,  -0.00259,  -0.00067,  -0.00073,479232511.85055,   0.00140,276160342.78506,  -0.00098,   0.00010,  -0.00019,   0.00000,   2.00000
-521419069.30498,-393502301.64194,-41618606.84572,  -0.00260,  -0.00068,  -0.00073,479233780.58855,   0.00141,276170797.76925,  -0.00099,   0.00009,  -0.00019,   0.00000,   2.00000
-520938610.89262,-395014703.24092,-41284906.72916,  -0.00261,  -0.00069,  -0.00073,479244705.57849,   0.00142,276181238.47719,  -0.00101,   0.00009,  -0.00020,   0.00000,   2.00000
-520448168.18168,-396522546.97560,-40953296.82362,  -0.00261,  -0.00071,  -0.00073,479258247.65719,   0.00143,276191673.98188,  -0.00102,   0.00008,  -0.00020,  -0.00000,   2.00000
-519955266.06080,-398019650.53139,-40610726.48139,  -0.00262,  -0.00072,  -0.00073,479258365.47233,   0.00144,276202058.94143,  -0.00103,   0.00008,  -0.00021,   0.00000,   2.00000
-519453760.77233,-399506719.65535,-40272620.17279,  -0.00262,  -0.00073,  -0.00073,479248672.26865,   0.00145,276212360.67352,  -0.00104,   0.00007,  -0.00021,   0.00000,   2.00000
-518947059.77048,-400987752.14496,-39925941.89156,  -0.00263,  -0.00074,  -0.00073,479273260.53012,   0.00146,276222695.53527,  -0.00105,   0.00007,  -0.00021,   0.00000,   2.00000
-518429492.54580,-402468793.91672,-39578076.14502,  -0.00263,  -0.00076,  -0.00073,479272285.29527,   0.00147,276232977.18273,  -0.00106,   0.00006,  -0.00022,   0.00000,   2.00000
-517908983.34317,-403933803.49860,-39227366.29804,  -0.00264,  -0.00077,  -0.00073,479288316.55391,   0.00148,276243263.39440,  -0.00107,   0.00006,  -0.00022,   0.00000,   2.00000
-517382452.69092,-405391154.47479,-38871743.75981,  -0.00264,  -0.00078,  -0.00073,479276284.59462,   0.00149,276253459.89955,  -0.00108,   0.00005,  -0.00022,   0.00000,   2.00000
-516848424.07321,-406845964.14874,-38508976.46810,  -0.00265,  -0.00079,  -0.00073,479287657.82671,   0.00150,276263645.90017,  -0.00109,   0.00005,  -0.00023,   0.00000,   2.00000
-516308017.01609,-408287665.68387,-38149432.11208,  -0.00265,  -0.00081,  -0.00073,479291408.56476,   0.00150,276273796.10338,  -0.00110,   0.00005,  -0.00023,   0.00000,   2.00000
-515762412.82304,-409723072.51803,-37781515.71798,  -0.00266,  -0.00082,  -0.00073,479316246.81521,   0.00151,276283981.41585,  -0.00111,   0.00004,  -0.00024,   0.00000,   2.00000
-515208220.30209,-411154955.30117,-37409947.44107,  -0.00266,  -0.00083,  -0.00073,479291054.28520,   0.00152,276294034.44625,  -0.00112,   0.00004,  -0.00024,   0.00000,   2.00000
-514647528.62498,-412579478.54611,-37034784.71145,  -0.00267,  -0.00084,  -0.00072,479317126.15230,   0.00153,276304127.29464,  -0.00113,   0.00003,  -0.00024,   0.00000,   2.00000
-514081760.97289,-413992092.02042,-36658215.07704,  -0.00267,  -0.00086,  -0.00072,479319759.55041,   0.00154,276314181.73683,  -0.00114,   0.00003,  -0.00025,   0.00000,   2.00000
-513507081.84371,-415401154.90727,-36279316.55009,  -0.00268,  -0.00087,  -0.00072,479332628.47504,   0.00155,276324232.19801,  -0.00115,   0.00002,  -0.00025,   0.00000,   2.00000
-512925997.88588,-416803253.03051,-35895500.24281,  -0.00268,  -0.00088,  -0.00072,479320936.46742,   0.00156,276334197.14979,  -0.00116,   0.00001,  -0.00025,   0.00000,   2.00000
-512343576.78935,-418190657.70315,-35504432.39368,  -0.00268,  -0.00089,  -0.00072,479335706.29753,   0.00157,276344165.15663,  -0.00117,   0.00001,  -0.00026,   0.00000,   2.00000
-511748392.82523,-419577584.38368,-35116979.97864,  -0.00269,  -0.00091,  -0.00072,479336569.74914,   0.00158,276354090.20084,  -0.00118,   0.00000,  -0.00026,  -0.00000,   2.00000
-511151951.84449,-420949866.22369,-34722309.91895,  -0.00269,  -0.00092,  -0.00072,479351350.71604,   0.00159,276364018.81081,  -0.00119,  -0.00000,  -0.00026,  -0.00000,   2.00000
-510544903.08781,-422323497.10129,-34321838.47151,  -0.00270,  -0.00093,  -0.00071,479350248.81033,   0.00160,276373898.48911,  -0.00120,  -0.00001,  -0.00027,  -0.00000,   2.00000
-509932765.41958,-423685644.71001,-33920061.17761,  -0.00270,  -0.00095,  -0.00071,479352967.25959,   0.00161,276383742.33083,  -0.00121,  -0.00001,  -0.00027,   0.00000,   2.00000
-509311493.25353,-425044166.42953,-33516099.32418,  -0.00271,  -0.00096,  -0.00071,479366208.72105,   0.00162,276393585.40466,  -0.00122,  -0.00002,  -0.00027,   0.00000,   2.00000
-508686230.99652,-426392184.01074,-33106126.33663,  -0.00271,  -0.00097,  -0.00071,479367955.10673,   0.00163,276403389.97865,  -0.00123,  -0.00002,  -0.00028,  -0.00000,   2.00000
-508053040.67993,-427733065.14107,-32695947.13363,  -0.00271,  -0.00098,  -0.00071,479357608.00445,   0.00163,276413116.62435,  -0.00124,  -0.00003,  -0.00028,   0.00000,   2.00000
-507413513.90351,-429066153.91210,-32282572.84209,  -0.00272,  -0.00100,  -0.00070,479384051.82145,   0.00164,276422886.93884,  -0.00125,  -0.00003,  -0.00028,  -0.00000,   2.00000
-506769968.43645,-430388929.09789,-31863218.80251,  -0.00272,  -0.00101,  -0.00070,479385863.25022,   0.00165,276432619.91823,  -0.00125,  -0.00004,  -0.00029,   0.00000,   2.00000
-506115187.10229,-431713060.90893,-31438088.85419,  -0.00272,  -0.00102,  -0.00070,479385409.71008,   0.00166,276442308.43926,  -0.00126,  -0.00005,  -0.00029,   0.00000,   2.00000
-505454263.23652,-433025228.65883,-31016467.98137,  -0.00273,  -0.00104,  -0.00070,479389224.49375,   0.00167,276451966.96262,  -0.00127,  -0.00005,  -0.00029,  -0.00000,   2.00000
-504788058.89279,-434330218.29039,-30587063.81341,  -0.00273,  -0.00105,  -0.00069,479414919.35701,   0.00168,276461667.42963,  -0.00128,  -0.00006,  -0.00030,   0.00000,   2.00000
-504114621.91783,-435629277.49040,-30152717.91735,  -0.00274,  -0.00106,  -0.00069,479403969.29252,   0.00169,276471289.91490,  -0.00129,  -0.00006,  -0.00030,   0.00000,   2.00000
-503436044.76463,-436917391.85376,-29717192.04827,  -0.00274,  -0.00107,  -0.00069,479406886.50851,   0.00170,276480880.34938,  -0.00130,  -0.00007,  -0.00030,   0.00000,   2.00000
-502744822.37604,-438206026.70646,-29280625.57671,  -0.00274,  -0.00109,  -0.00068,479407811.88965,   0.00171,276490432.54783,  -0.00131,  -0.00007,  -0.00030,   0.00000,   2.00000
-502052600.41753,-439480220.53053,-28837202.90385,  -0.00275,  -0.00110,  -0.00068,479422797.02973,   0.00172,276499992.74722,  -0.00132,  -0.00008,  -0.00031,   0.00000,   2.00000
-501355235.17329,-440743647.60103,-28392633.45298,  -0.00275,  -0.00111,  -0.00068,479425772.00668,   0.00172,276509521.98814,  -0.00133,  -0.00009,  -0.00031,   0.00000,   2.00000
-500645910.52208,-442008391.93806,-27942299.37188,  -0.00275,  -0.00113,  -0.00068,479426087.63701,   0.00173,276519011.90665,  -0.00134,  -0.00009,  -0.00031,   0.00000,   2.00000
-499931370.56184,-443262389.18546,-27490830.56871,  -0.00276,  -0.00114,  -0.00067,479429153.82554,   0.00174,276528471.85694,  -0.00134,  -0.00010,  -0.00031,   0.00000,   2.00000
-499210642.89336,-444508018.39009,-27036613.66888,  -0.00276,  -0.00115,  -0.00067,479456121.03182,   0.00175,276537979.80366,  -0.00135,  -0.00010,  -0.00032,   0.00000,   2.00000
-498482115.63972,-445748182.77809,-26577391.27082,  -0.00276,  -0.00117,  -0.00067,479445674.59219,   0.00176,276547414.27178,  -0.00136,  -0.00011,  -0.00032,   0.00000,   2.00000
-497748359.95649,-446977756.13813,-26117065.48331,  -0.00276,  -0.00118,  -0.00066,479448817.51811,   0.00177,276556819.90214,  -0.00137,  -0.00012,  -0.00032,   0.00000,   2.00000
-497002148.58594,-448208518.07408,-25650979.07641,  -0.00277,  -0.00119,  -0.00066,479449677.03331,   0.00178,276566189.58819,  -0.00138,  -0.00012,  -0.00032,   0.00000,   2.00000
-496254253.80418,-449424200.48034,-25183004.95967,  -0.00277,  -0.00121,  -0.00065,479465623.56389,   0.00179,276575572.56077,  -0.00139,  -0.00013,  -0.00033,   0.00000,   2.00000
-495496601.65593,-450635783.60482,-24713261.72133,  -0.00277,  -0.00122,  -0.00065,479480160.29109,   0.00180,276584964.37853,  -0.00140,  -0.00014,  -0.00033,  -0.00000,   2.00000
-494730735.93104,-451842084.98890,-24238464.98858,  -0.00277,  -0.00123,  -0.00065,479470098.05542,   0.00180,276594285.70412,  -0.00140,  -0.00014,  -0.00033,  -0.00000,   2.00000
-493959542.61259,-453037933.21345,-23762606.75895,  -0.00278,  -0.00125,  -0.00064,479473442.59548,   0.00181,276603580.38104,  -0.00141,  -0.00015,  -0.00033,   0.00000,   2.00000
-493183761.10226,-454224089.55902,-23280925.58774,  -0.00278,  -0.00126,  -0.00064,479476068.16553,   0.00182,276612846.41456,  -0.00142,  -0.00016,  -0.00034,  -0.00000,   2.00000
-492398064.28104,-455406041.87170,-22797553.14792,  -0.00278,  -0.00127,  -0.00063,479490866.89832,   0.00183,276622123.37453,  -0.00143,  -0.00016,  -0.00034,   0.00000,   2.00000
-491603125.79027,-456584314.71166,-22307750.62238,  -0.00278,  -0.00129,  -0.00063,479505119.36289,   0.00184,276631409.62583,  -0.00144,  -0.00017,  -0.00034,   0.00000,   2.00000
-490807385.65817,-457746236.41283,-21817582.66104,  -0.00279,  -0.00130,  -0.00063,479497179.15597,   0.00185,276640633.93460,  -0.00145,  -0.00018,  -0.00034,   0.00000,   2.00000
-489997641.77357,-458908478.02076,-21326452.42354,  -0.00279,  -0.00131,  -0.00062,479499697.36755,   0.00186,276649830.42254,  -0.00145,  -0.00018,  -0.00034,   0.00000,   2.00000
-489182561.16246,-460062255.68148,-20828282.15460,  -0.00279,  -0.00133,  -0.00062,479526694.08670,   0.00187,276659078.09700,  -0.00146,  -0.00019,  -0.00035,   0.00000,   2.00000
-488362563.07505,-461204621.51617,-20330368.74603,  -0.00279,  -0.00134,  -0.00061,479506326.00512,   0.00187,276668224.80155,  -0.00147,  -0.00020,  -0.00035,   0.00000,   2.00000
-487533076.16126,-462343136.78117,-19826104.60440,  -0.00279,  -0.00136,  -0.00061,479520973.04468,   0.00188,276677383.59848,  -0.00148,  -0.00020,  -0.00035,   0.00000,   2.00000
-486693433.31318,-463477080.16552,-19320311.15925,  -0.00280,  -0.00137,  -0.00060,479536389.17324,   0.00189,276686557.11177,  -0.00149,  -0.00021,  -0.00035,   0.00000,   2.00000
-485852943.12420,-464595230.12649,-18814110.68475,  -0.00280,  -0.00138,  -0.00060,479528506.57369,   0.00190,276695670.80359,  -0.00149,  -0.00022,  -0.00035,  -0.00000,   2.00000
-485002846.89652,-465709387.83549,-18301622.67380,  -0.00280,  -0.00140,  -0.00059,479543434.51271,   0.00191,276704798.24171,  -0.00150,  -0.00022,  -0.00036,   0.00000,   2.00000
-484142825.57468,-466818123.56655,-17788743.13930,  -0.00280,  -0.00141,  -0.00059,479534991.81468,   0.00192,276713864.72399,  -0.00151,  -0.00023,  -0.00036,   0.00000,   2.00000
-483277495.15634,-467917974.01979,-17269083.78511,  -0.00280,  -0.00142,  -0.00058,479562454.35077,   0.00192,276722985.68119,  -0.00152,  -0.00024,  -0.00036,   0.00000,   2.00000
-482402091.15517,-469012416.95891,-16749033.58388,  -0.00281,  -0.00144,  -0.00058,479554207.64732,   0.00193,276732046.82692,  -0.00152,  -0.00024,  -0.00036,  -0.00000,   2.00000
-481521056.98441,-470096787.43435,-16228051.91149,  -0.00281,  -0.00145,  -0.00057,479558239.27044,   0.00194,276741087.92052,  -0.00153,  -0.00025,  -0.00036,  -0.00000,   2.00000
-480630162.71073,-471176799.86663,-15700886.49734,  -0.00281,  -0.00146,  -0.00057,479573714.69855,   0.00195,276750145.84674,  -0.00154,  -0.00026,  -0.00036,  -0.00000,   2.00000
-479738308.48759,-472241625.20411,-15173277.25983,  -0.00281,  -0.00148,  -0.00056,479565949.55024,   0.00196,276759146.48962,  -0.00155,  -0.00026,  -0.00036,  -0.00000,   2.00000
-478831798.81037,-473306773.64725,-14639973.24014,  -0.00281,  -0.00149,  -0.00056,479569424.70542,   0.00197,276768126.20719,  -0.00155,  -0.00027,  -0.00037,  -0.00000,   2.00000
-477919574.28864,-474362163.73335,-14104921.12865,  -0.00281,  -0.00151,  -0.00055,479597800.54535,   0.00198,276777164.84756,  -0.00156,  -0.00028,  -0.00037,  -0.00000,   2.00000
-476996811.36828,-475412260.81814,-13569411.11545,  -0.00281,  -0.00152,  -0.00054,479590057.93383,   0.00198,276786147.08289,  -0.00157,  -0.00029,  -0.00037,   0.00000,   2.00000
-476068671.73853,-476452747.19320,-13028221.25624,  -0.00281,  -0.00153,  -0.00054,479594039.12211,   0.00199,276795110.77999,  -0.00158,  -0.00029,  -0.00037,   0.00000,   2.00000
-475135098.75519,-477483643.96944,-12481375.92715,  -0.00281,  -0.00155,  -0.00053,479598083.04758,   0.00200,276804056.43318,  -0.00158,  -0.00030,  -0.00037,  -0.00000,   2.00000
-474195321.66777,-478504248.71677,-11938473.73413,  -0.00282,  -0.00156,  -0.00053,479602918.08454,   0.00201,276812986.87982,  -0.00159,  -0.00031,  -0.00037,   0.00000,   2.00000
-473245336.01129,-479520042.38960,-11389554.92184,  -0.00282,  -0.00157,  -0.00052,479619192.90061,   0.00202,276821938.89218,  -0.00160,  -0.00032,  -0.00037,   0.00000,   2.00000
-472284709.31043,-480530976.07429,-10835330.34236,  -0.00282,  -0.00159,  -0.00051,479611527.90903,   0.00203,276830836.26831,  -0.00161,  -0.00032,  -0.00037,   0.00000,   2.00000
-471313403.40278,-481536507.42227,-10279957.57506,  -0.00282,  -0.00160,  -0.00051,479628432.94961,   0.00203,276839757.79595,  -0.00161,  -0.00033,  -0.00037,   0.00000,   2.00000
-470346106.42167,-482522801.93788,-9723770.54925,  -0.00282,  -0.00162,  -0.00050,479632863.31061,   0.00204,276848663.83994,  -0.00162,  -0.00034,  -0.00038,   0.00000,   2.00000
-469363158.42013,-483508775.58957,-9161954.59128,  -0.00282,  -0.00163,  -0.00050,479637717.51868,   0.00205,276857556.04318,  -0.00163,  -0.00035,  -0.00038,   0.00000,   2.00000
-468368871.79030,-484489553.39998,-8599588.70346,  -0.00282,  -0.00164,  -0.00049,479630774.34230,   0.00206,276866397.08969,  -0.00163,  -0.00035,  -0.00038,   0.00000,   2.00000
-467369208.22609,-485459987.56008,-8035909.11821,  -0.00282,  -0.00166,  -0.00048,479659837.35168,   0.00207,276875302.16440,  -0.00164,  -0.00036,  -0.00038,   0.00000,   2.00000
-466368483.61723,-486416472.32555,-7466868.00403,  -0.00282,  -0.00167,  -0.00048,479652265.99757,   0.00208,276884154.49617,  -0.00165,  -0.00037,  -0.00038,   0.00000,   2.00000
-465351465.85271,-487372088.11197,-6897025.20584,  -0.00282,  -0.00169,  -0.00047,479657926.61053,   0.00208,276892996.69145,  -0.00165,  -0.00038,  -0.00038,   0.00000,   2.00000
-464328528.11701,-488317984.19693,-6321589.79611,  -0.00282,  -0.00170,  -0.00046,479662875.22717,   0.00209,276901826.74308,  -0.00166,  -0.00038,  -0.00038,   0.00000,   2.00000
-463294734.80585,-489258064.57831,-5745204.90642,  -0.00282,  -0.00171,  -0.00045,479680537.88082,   0.00210,276910685.46590,  -0.00167,  -0.00039,  -0.00038,   0.00000,   2.00000
-462259499.12605,-490184162.10955,-5168222.64375,  -0.00282,  -0.00173,  -0.00045,479673383.13630,   0.00211,276919493.87178,  -0.00167,  -0.00040,  -0.00038,   0.00000,   2.00000
-461213534.47623,-491104577.41564,-4585517.70013,  -0.00282,  -0.00174,  -0.00044,479691025.30412,   0.00212,276928331.42210,  -0.00168,  -0.00041,  -0.00038,   0.00000,   2.00000
-460155546.62160,-492019791.39593,-4002190.96290,  -0.00282,  -0.00176,  -0.00043,479684883.00626,   0.00213,276937122.42914,  -0.00169,  -0.00042,  -0.00038,   0.00000,   2.00000
-459097187.71242,-492920406.52519,-3418004.50084,  -0.00282,  -0.00177,  -0.00043,479701916.58545,   0.00213,276945941.16832,  -0.00169,  -0.00042,  -0.00038,   0.00000,   2.00000
-458022071.23746,-493819791.21483,-2828263.85246,  -0.00282,  -0.00178,  -0.00042,479708419.22295,   0.00214,276954754.22214,  -0.00170,  -0.00043,  -0.00038,   0.00000,   2.00000
-456940720.75178,-494709277.55026,-2233004.52228,  -0.00282,  -0.00180,  -0.00041,479714046.43217,   0.00215,276963559.04475,  -0.00170,  -0.00044,  -0.00038,   0.00000,   2.00000
-455852981.57543,-495588752.30767,-1641850.37494,  -0.00282,  -0.00181,  -0.00040,479719864.78790,   0.00216,276972356.50333,  -0.00171,  -0.00045,  -0.00038,   0.00000,   2.00000
-454752816.24326,-496463028.48955,-1045196.36298,  -0.00282,  -0.00183,  -0.00040,479714194.42139,   0.00217,276981110.19015,  -0.00172,  -0.00046,  -0.00038,  -0.00000,   2.00000
-453652436.45748,-497322719.52211,-447809.04650,  -0.00282,  -0.00184,  -0.00039,479731449.55333,   0.00218,276989893.64413,  -0.00172,  -0.00046,  -0.00038,   0.00000,   2.00000
-452534793.39285,-498180727.66240,155084.64582,  -0.00282,  -0.00186,  -0.00038,479738731.07739,   0.00218,276998675.19112,  -0.00173,  -0.00047,  -0.00038,   0.00000,   2.00000
-451415306.92539,-499025249.61643,758680.44046,  -0.00282,  -0.00187,  -0.00037,479732065.22860,   0.00219,277007410.47723,  -0.00174,  -0.00048,  -0.00038,   0.00000,   2.00000
-450284703.15445,-499863282.53545,1367733.11134,  -0.00282,  -0.00188,  -0.00036,479750934.09413,   0.00220,277016181.49630,  -0.00174,  -0.00049,  -0.00038,  -0.00000,   2.00000
-449143065.82382,-500694778.00305,1972578.37795,  -0.00281,  -0.00190,  -0.00036,479769901.45812,   0.00221,277024988.71573,  -0.00175,  -0.00050,  -0.00038,   0.00000,   2.00000
-447992940.59359,-501517447.58916,2583048.66163,  -0.00281,  -0.00191,  -0.00035,479752255.32318,   0.00222,277033715.13421,  -0.00175,  -0.00050,  -0.00038,   0.00000,   2.00000
-446842729.43079,-502325477.94488,3198906.43917,  -0.00281,  -0.00193,  -0.00034,479769870.58681,   0.00223,277042474.01821,  -0.00176,  -0.00051,  -0.00038,  -0.00000,   2.00000
-445674754.89564,-503131364.67115,3815380.92190,  -0.00281,  -0.00194,  -0.00033,479778014.45758,   0.00223,277051235.22716,  -0.00176,  -0.00052,  -0.00038,  -0.00000,   2.00000
-444500165.52083,-503927201.25747,4432488.88600,  -0.00281,  -0.00196,  -0.00032,479784586.65732,   0.00224,277059993.94102,  -0.00177,  -0.00053,  -0.00038,   0.00000,   2.00000
-443318949.75632,-504713020.61041,5050233.88012,  -0.00281,  -0.00197,  -0.00031,479791209.38188,   0.00225,277068750.54662,  -0.00178,  -0.00054,  -0.00038,   0.00000,   2.00000
-442130940.20318,-505488671.63132,5673415.75342,  -0.00281,  -0.00198,  -0.00031,479798056.27789,   0.00226,277077505.98940,  -0.00178,  -0.00055,  -0.00038,  -0.00000,   2.00000
-440924865.97722,-506261819.71018,6297176.79305,  -0.00281,  -0.00200,  -0.00030,479806808.94031,   0.00227,277086266.65928,  -0.00179,  -0.00055,  -0.00038,   0.00000,   2.00000
-439723313.64183,-507017173.16367,6926376.87729,  -0.00280,  -0.00201,  -0.00029,479811919.71334,   0.00227,277095021.01376,  -0.00179,  -0.00056,  -0.00038,   0.00000,   2.00000
-438503545.55291,-507769907.81307,7556120.27151,  -0.00280,  -0.00203,  -0.00028,479820939.79154,   0.00228,277103781.89921,  -0.00180,  -0.00057,  -0.00038,   0.00000,   2.00000
-437277003.55474,-508512512.39087,8186444.02258,  -0.00280,  -0.00204,  -0.00027,479828037.47979,   0.00229,277112543.33199,  -0.00180,  -0.00058,  -0.00038,   0.00000,   2.00000
-436043675.97954,-509245013.27845,8817350.53255,  -0.00280,  -0.00206,  -0.00026,479835192.56784,   0.00230,277121305.70514,  -0.00181,  -0.00059,  -0.00038,  -0.00000,   2.00000
-434796050.25972,-509971501.04426,9453888.54299,  -0.00280,  -0.00207,  -0.00025,479831877.86660,   0.00231,277130035.55160,  -0.00181,  -0.00060,  -0.00038,   0.00000,   2.00000
-433548845.92087,-510683451.69649,10090722.90379,  -0.00280,  -0.00208,  -0.00024,479850010.96641,   0.00232,277138802.22449,  -0.00182,  -0.00061,  -0.00037,  -0.00000,   2.00000
-432287121.12647,-511389309.50760,10733189.30887,  -0.00279,  -0.00210,  -0.00023,479846969.15231,   0.00232,277147537.60949,  -0.00182,  -0.00061,  -0.00037,   0.00000,   2.00000
-431014450.92539,-512088003.03165,11371030.32809,  -0.00279,  -0.00211,  -0.00023,479867311.27885,   0.00233,277156317.46364,  -0.00183,  -0.00062,  -0.00037,   0.00000,   2.00000
-429734569.63433,-512776097.23983,12014211.23219,  -0.00279,  -0.00213,  -0.00022,479875304.17624,   0.00234,277165102.02212,  -0.00183,  -0.00063,  -0.00037,  -0.00000,   2.00000
-428451669.94088,-513450990.82210,12663113.06697,  -0.00279,  -0.00214,  -0.00021,479870207.36612,   0.00235,277173849.13513,  -0.00184,  -0.00064,  -0.00037,  -0.00000,   2.00000
-427150226.04217,-514122903.28570,13307646.83704,  -0.00279,  -0.00216,  -0.00020,479880200.03095,   0.00236,277182607.95199,  -0.00184,  -0.00065,  -0.00037,   0.00000,   2.00000
-425849130.74873,-514779866.96049,13957131.97004,  -0.00278,  -0.00217,  -0.00019,479899085.68369,   0.00237,277191407.41816,  -0.00185,  -0.00066,  -0.00037,   0.00000,   2.00000
-424532864.79056,-515430317.78302,14612267.94556,  -0.00278,  -0.00218,  -0.00018,479896987.63178,   0.00237,277200179.68604,  -0.00185,  -0.00067,  -0.00037,  -0.00000,   2.00000
-423205758.24743,-516073328.99979,15262582.99412,  -0.00278,  -0.00220,  -0.00017,479917950.70424,   0.00238,277208999.83868,  -0.00186,  -0.00068,  -0.00037,   0.00000,   2.00000
-421867395.92835,-516707232.55161,15919094.42188,  -0.00278,  -0.00221,  -0.00016,479902918.88017,   0.00239,277217751.10138,  -0.00186,  -0.00068,  -0.00036,   0.00000,   2.00000
-420529869.22513,-517326636.49571,16575652.97135,  -0.00277,  -0.00223,  -0.00015,479921633.04376,   0.00240,277226543.43669,  -0.00187,  -0.00069,  -0.00036,  -0.00000,   2.00000
-419173092.55018,-517942086.35749,17232546.42775,  -0.00277,  -0.00224,  -0.00014,479932977.52439,   0.00241,277235353.05678,  -0.00187,  -0.00070,  -0.00036,  -0.00000,   2.00000
-417816855.52260,-518542454.62868,17894210.74108,  -0.00277,  -0.00226,  -0.00013,479952385.62519,   0.00242,277244206.35283,  -0.00188,  -0.00071,  -0.00036,   0.00000,   2.00000
-416449279.95458,-519134252.97711,18557369.65250,  -0.00277,  -0.00227,  -0.00012,479937320.22576,   0.00242,277252991.02464,  -0.00188,  -0.00072,  -0.00036,  -0.00000,   2.00000
-415070504.32161,-519717807.24484,19220325.25983,  -0.00276,  -0.00229,  -0.00011,479959396.71705,   0.00243,277261828.63961,  -0.00189,  -0.00073,  -0.00036,   0.00000,   2.00000
-413675682.74687,-520294181.94409,19888966.28691,  -0.00276,  -0.00230,  -0.00010,479958618.33348,   0.00244,277270644.66181,  -0.00189,  -0.00074,  -0.00035,   0.00000,   2.00000
-412281993.64665,-520856048.97793,20557476.98671,  -0.00276,  -0.00231,  -0.00009,479977762.05060,   0.00245,277279504.42775,  -0.00190,  -0.00075,  -0.00035,   0.00000,   2.00000
-410872573.55078,-521411308.56464,21226893.51833,  -0.00275,  -0.00233,  -0.00008,479976659.28823,   0.00246,277288341.77278,  -0.00190,  -0.00076,  -0.00035,   0.00000,   2.00000
-409455852.32700,-521955985.39388,21896691.11481,  -0.00275,  -0.00234,  -0.00006,479985805.20452,   0.00247,277297190.50297,  -0.00190,  -0.00077,  -0.00035,   0.00000,   2.00000
-408031822.00294,-522490085.92650,22566866.80155,  -0.00275,  -0.00236,  -0.00005,479995032.21072,   0.00247,277306051.03138,  -0.00191,  -0.00078,  -0.00035,   0.00000,   2.00000
-406596136.70483,-523014785.71203,23241400.15618,  -0.00274,  -0.00237,  -0.00004,480018579.35079,   0.00248,277314970.63295,  -0.00191,  -0.00079,  -0.00035,   0.00000,   2.00000
-405148109.13243,-523530643.18468,23917637.94388,  -0.00274,  -0.00239,  -0.00003,480004593.70694,   0.00249,277323825.86901,  -0.00192,  -0.00079,  -0.00034,   0.00000,   2.00000
-403701515.59747,-524032088.14950,24593614.19347,  -0.00274,  -0.00240,  -0.00002,480024077.80911,   0.00250,277332727.22039,  -0.00192,  -0.00080,  -0.00034,   0.00000,   2.00000
-402234375.45266,-524527602.08075,25274439.59559,  -0.00273,  -0.00242,  -0.00001,480038168.47139,   0.00251,277341657.09726,  -0.00193,  -0.00081,  -0.00034,  -0.00000,   2.00000
-400763459.59707,-525010494.84075,25956411.98683,  -0.00273,  -0.00243,   0.00000,480034436.76370,   0.00252,277350556.69150,  -0.00193,  -0.00082,  -0.00034,   0.00000,   2.00000
-399272458.78560,-525488017.44359,26638424.20332,  -0.00273,  -0.00244,   0.00001,480048152.84358,   0.00252,277359484.00186,  -0.00193,  -0.00083,  -0.00033,   0.00000,   2.00000
-397786673.00326,-525949323.20031,27320971.77168,  -0.00272,  -0.00246,   0.00002,480054359.70847,   0.00253,277368414.16808,  -0.00194,  -0.00084,  -0.00033,  -0.00000,   2.00000
-396280728.07188,-526405123.36876,28003528.08181,  -0.00272,  -0.00247,   0.00003,480068372.67103,   0.00254,277377373.31780,  -0.00194,  -0.00085,  -0.00033,   0.00000,   2.00000
-394779372.93464,-526843882.94838,28691367.93079,  -0.00271,  -0.00249,   0.00005,480075513.31960,   0.00255,277386338.65162,  -0.00195,  -0.00086,  -0.00033,  -0.00000,   2.00000
-393257763.28415,-527276959.00059,29379147.72174,  -0.00271,  -0.00250,   0.00006,480089871.71022,   0.00256,277395334.40419,  -0.00195,  -0.00087,  -0.00032,   0.00000,   2.00000
-391719253.65022,-527702472.23522,30067849.32279,  -0.00271,  -0.00252,   0.00007,480090819.72338,   0.00257,277404316.06635,  -0.00195,  -0.00088,  -0.00032,   0.00000,   2.00000
-390186024.88892,-528111955.86604,30757079.65026,  -0.00270,  -0.00253,   0.00008,480097294.74964,   0.00258,277413302.11613,  -0.00196,  -0.00089,  -0.00032,   0.00000,   2.00000
-388632398.39862,-528515430.01996,31446201.39705,  -0.00270,  -0.00255,   0.00009,480112172.77078,   0.00258,277422320.84583,  -0.00196,  -0.00090,  -0.00032,   0.00000,   2.00000
-387080113.00565,-528903490.61804,32139499.64391,  -0.00269,  -0.00256,   0.00010,480133438.69239,   0.00259,277431393.67556,  -0.00196,  -0.00091,  -0.00031,  -0.00000,   2.00000
-385510611.24144,-529283770.50988,32833705.01827,  -0.00269,  -0.00257,   0.00012,480134989.71850,   0.00260,277440454.68639,  -0.00197,  -0.00092,  -0.00031,  -0.00000,   2.00000
-383936707.29788,-529651414.29813,33529188.53544,  -0.00268,  -0.00259,   0.00013,480132318.49609,   0.00261,277449489.79865,  -0.00197,  -0.00093,  -0.00031,   0.00000,   2.00000
-382342223.97651,-530012602.45730,34224451.98732,  -0.00268,  -0.00260,   0.00014,480147931.84074,   0.00262,277458560.69534,  -0.00197,  -0.00094,  -0.00030,   0.00000,   2.00000
-380750044.40934,-530359464.17624,34919056.14378,  -0.00268,  -0.00262,   0.00015,480168544.36699,   0.00263,277467684.21216,  -0.00198,  -0.00095,  -0.00030,   0.00000,   2.00000
-379142544.72614,-530695577.13957,35620494.07697,  -0.00267,  -0.00263,   0.00016,480158008.99509,   0.00264,277476755.47629,  -0.00198,  -0.00096,  -0.00030,  -0.00000,   2.00000
-377524382.12996,-531021866.26341,36320798.25666,  -0.00267,  -0.00265,   0.00018,480183373.93387,   0.00264,277485895.86699,  -0.00198,  -0.00097,  -0.00030,   0.00000,   2.00000
-375898598.22144,-531336854.71779,37021170.41494,  -0.00266,  -0.00266,   0.00019,480195088.46502,   0.00265,277495059.27403,  -0.00199,  -0.00098,  -0.00029,   0.00000,   2.00000
-374268079.27191,-531639144.81233,37722877.15581,  -0.00266,  -0.00268,   0.00020,480193058.75876,   0.00266,277504199.19278,  -0.00199,  -0.00099,  -0.00029,   0.00000,   2.00000
-372616782.88649,-531934375.76061,38424194.90596,  -0.00265,  -0.00269,   0.00021,480209754.02732,   0.00267,277513379.35640,  -0.00199,  -0.00100,  -0.00029,   0.00000,   2.00000
-370968176.87068,-532215369.69494,39124693.28710,  -0.00265,  -0.00271,   0.00023,480230823.55849,   0.00268,277522614.61256,  -0.00200,  -0.00101,  -0.00028,   0.00000,   2.00000
-369303425.23848,-532485097.07199,39832117.98787,  -0.00264,  -0.00272,   0.00024,480221359.81377,   0.00269,277531801.17109,  -0.00200,  -0.00102,  -0.00028,   0.00000,   2.00000
-367628269.05048,-532744683.76169,40538164.35807,  -0.00264,  -0.00273,   0.00025,480247546.88529,   0.00270,277541060.69824,  -0.00200,  -0.00103,  -0.00028,  -0.00000,   2.00000
-365938427.98202,-532995498.29182,41241789.56450,  -0.00263,  -0.00275,   0.00026,480236026.73711,   0.00271,277550264.50243,  -0.00200,  -0.00104,  -0.00027,   0.00000,   2.00000
-364248010.02458,-533232026.81695,41947772.81128,  -0.00262,  -0.00276,   0.00028,480272534.60118,   0.00271,277559576.92440,  -0.00201,  -0.00105,  -0.00027,  -0.00000,   2.00000
-362541791.59235,-533458298.03528,42656052.73259,  -0.00262,  -0.00278,   0.00029,480262562.19410,   0.00272,277568838.79536,  -0.00201,  -0.00106,  -0.00026,  -0.00000,   2.00000
-360837699.52411,-533668989.88952,43368021.58578,  -0.00261,  -0.00279,   0.00030,480285371.91171,   0.00273,277578162.64697,  -0.00201,  -0.00107,  -0.00026,  -0.00000,   2.00000
-359113571.22053,-533873313.19730,44074662.23989,  -0.00261,  -0.00281,   0.00032,480302236.37014,   0.00274,277587528.15802,  -0.00202,  -0.00108,  -0.00026,   0.00000,   2.00000
-357373262.76311,-534067104.82409,44783659.91261,  -0.00260,  -0.00282,   0.00033,480292790.45589,   0.00275,277596844.83172,  -0.00202,  -0.00109,  -0.00025,   0.00000,   2.00000
-355635262.67576,-534245248.56067,45496263.16793,  -0.00260,  -0.00284,   0.00034,480315934.21251,   0.00276,277606225.09521,  -0.00202,  -0.00110,  -0.00025,   0.00000,   2.00000
-353878511.40529,-534413960.80233,46209672.33288,  -0.00259,  -0.00285,   0.00036,480320756.90446,   0.00277,277615605.75766,  -0.00202,  -0.00111,  -0.00025,   0.00000,   2.00000
-352126118.47279,-534570204.43727,46917318.12250,  -0.00259,  -0.00286,   0.00037,480341275.43336,   0.00278,277625041.07568,  -0.00203,  -0.00112,  -0.00024,   0.00000,   2.00000
-350353910.23539,-534715310.64802,47630428.71476,  -0.00258,  -0.00288,   0.00038,480347828.23522,   0.00279,277634482.76797,  -0.00203,  -0.00113,  -0.00024,   0.00000,   2.00000
-348574009.66375,-534848554.85289,48343345.05128,  -0.00257,  -0.00289,   0.00040,480361568.15427,   0.00279,277643955.83489,  -0.00203,  -0.00114,  -0.00023,   0.00000,   2.00000
-346775100.02908,-534971972.99960,49057036.94855,  -0.00257,  -0.00291,   0.00041,480367137.71241,   0.00280,277653431.96515,  -0.00203,  -0.00115,  -0.00023,   0.00000,   2.00000
-344979901.26539,-535081389.94480,49769506.27768,  -0.00256,  -0.00292,   0.00042,480389433.93419,   0.00281,277662969.39956,  -0.00203,  -0.00116,  -0.00022,   0.00000,   2.00000
-343166509.51446,-535177962.12393,50489058.17139,  -0.00255,  -0.00294,   0.00044,480382858.34829,   0.00282,277672467.43918,  -0.00204,  -0.00117,  -0.00022,  -0.00000,   2.00000
-341344521.83792,-535265381.69889,51201980.04056,  -0.00255,  -0.00295,   0.00045,480409621.04384,   0.00283,277682042.72491,  -0.00204,  -0.00118,  -0.00022,   0.00000,   2.00000
-339516700.31184,-535339590.45744,51916380.85719,  -0.00254,  -0.00297,   0.00046,480410010.60351,   0.00284,277691602.82268,  -0.00204,  -0.00119,  -0.00021,  -0.00000,   2.00000
-337678433.69422,-535401143.22717,52633313.38821,  -0.00254,  -0.00298,   0.00048,480440136.38510,   0.00285,277701252.18881,  -0.00204,  -0.00120,  -0.00021,   0.00000,   2.00000
-335823514.80417,-535452930.70664,53348135.47658,  -0.00253,  -0.00299,   0.00049,480431208.24286,   0.00286,277710853.52140,  -0.00204,  -0.00121,  -0.00020,   0.00000,   2.00000
-333971714.49860,-535489063.11072,54066184.49790,  -0.00252,  -0.00301,   0.00051,480455600.91109,   0.00287,277720524.16919,  -0.00205,  -0.00122,  -0.00020,   0.00000,   2.00000
-332101428.83843,-535516507.70468,54780317.30917,  -0.00252,  -0.00302,   0.00052,480460972.37384,   0.00288,277730197.05576,  -0.00205,  -0.00123,  -0.00019,  -0.00000,   2.00000
-330222477.35172,-535529861.03740,55498662.96569,  -0.00251,  -0.00304,   0.00053,480477731.55555,   0.00289,277739912.47999,  -0.00205,  -0.00124,  -0.00019,   0.00000,   2.00000
-328335915.12181,-535530951.20416,56216588.82767,  -0.00250,  -0.00305,   0.00055,480492983.03937,   0.00290,277749665.09156,  -0.00205,  -0.00126,  -0.00018,   0.00000,   2.00000
-326431048.12531,-535519991.46135,56937055.98733,  -0.00249,  -0.00307,   0.00056,480486574.28082,   0.00290,277759378.10124,  -0.00205,  -0.00127,  -0.00018,   0.00000,   2.00000
-324530436.69177,-535498404.18180,57649500.36359,  -0.00249,  -0.00308,   0.00058,480522104.86594,   0.00291,277769200.49356,  -0.00206,  -0.00128,  -0.00017,   0.00000,   2.00000
-322610261.64563,-535462683.48478,58369094.99836,  -0.00248,  -0.00309,   0.00059,480517775.46546,   0.00292,277778990.38789,  -0.00206,  -0.00129,  -0.00017,   0.00000,   2.00000
-320681306.42113,-535415701.51783,59086199.99488,  -0.00247,  -0.00311,   0.00061,480547659.19966,   0.00293,277788869.86636,  -0.00206,  -0.00130,  -0.00016,   0.00000,   2.00000
-318745978.21395,-535355097.23230,59804794.29338,  -0.00247,  -0.00312,   0.00062,480549563.96992,   0.00294,277798738.86654,  -0.00206,  -0.00131,  -0.00016,  -0.00000,   2.00000
-316790683.16155,-535283106.58301,60523931.02860,  -0.00246,  -0.00314,   0.00063,480558181.40527,   0.00295,277808621.51422,  -0.00206,  -0.00132,  -0.00015,  -0.00000,   2.00000
-314840364.37235,-535197515.89266,61241414.00715,  -0.00245,  -0.00315,   0.00065,480581869.61108,   0.00296,277818571.75057,  -0.00206,  -0.00133,  -0.00015,   0.00000,   2.00000
-312871095.62711,-535102472.07432,61954883.36394,  -0.00244,  -0.00317,   0.00066,480588981.57021,   0.00297,277828530.02537,  -0.00206,  -0.00134,  -0.00014,   0.00000,   2.00000
-310894152.08936,-534991535.22462,62674402.34373,  -0.00244,  -0.00318,   0.00068,480593303.14782,   0.00298,277838486.28396,  -0.00207,  -0.00135,  -0.00014,   0.00000,   2.00000
-308908924.63845,-534869184.85444,63391164.63472,  -0.00243,  -0.00319,   0.00069,480624043.20601,   0.00299,277848535.80789,  -0.00207,  -0.00136,  -0.00013,   0.00000,   2.00000
-306917040.97056,-534732979.44898,64109422.96957,  -0.00242,  -0.00321,   0.00071,480626781.86306,   0.00300,277858577.32924,  -0.00207,  -0.00137,  -0.00013,  -0.00000,   2.00000
-304917739.35033,-534584129.04832,64827009.80587,  -0.00241,  -0.00322,   0.00072,480643703.26733,   0.00301,277868662.16566,  -0.00207,  -0.00139,  -0.00012,   0.00000,   2.00000
-302898164.53387,-534423229.33290,65545005.88077,  -0.00241,  -0.00324,   0.00074,480653696.71084,   0.00302,277878765.23981,  -0.00207,  -0.00140,  -0.00011,  -0.00000,   2.00000
-300871235.45497,-534249533.64169,66262271.56675,  -0.00240,  -0.00325,   0.00075,480670988.38342,   0.00303,277888913.02488,  -0.00207,  -0.00141,  -0.00011,   0.00000,   2.00000
-298838551.59718,-534064001.82414,66976548.46239,  -0.00239,  -0.00327,   0.00077,480672292.36824,   0.00304,277899047.21772,  -0.00207,  -0.00142,  -0.00010,   0.00000,   2.00000
-296797038.14323,-533864706.41568,67692299.84155,  -0.00238,  -0.00328,   0.00078,480705914.80742,   0.00305,277909285.68823,  -0.00207,  -0.00143,  -0.00010,   0.00000,   2.00000
-294748614.18301,-533651297.77315,68409535.54660,  -0.00237,  -0.00329,   0.00080,480709533.48801,   0.00306,277919518.70925,  -0.00207,  -0.00144,  -0.00009,   0.00000,   2.00000
-292694041.68509,-533427361.28265,69121494.78956,  -0.00237,  -0.00331,   0.00081,480725243.50937,   0.00307,277929790.46040,  -0.00207,  -0.00145,  -0.00008,  -0.00000,   2.00000
-290617875.17958,-533188482.88559,69838213.00666,  -0.00236,  -0.00332,   0.00083,480738535.49874,   0.00308,277940092.14251,  -0.00207,  -0.00146,  -0.00008,   0.00000,   2.00000
-288534533.80343,-532936626.73678,70554046.73427,  -0.00235,  -0.00334,   0.00084,480756726.14182,   0.00309,277950441.68221,  -0.00208,  -0.00147,  -0.00007,   0.00000,   2.00000
-286445214.07618,-532672790.38674,71266907.02021,  -0.00234,  -0.00335,   0.00086,480758812.57434,   0.00310,277960779.68736,  -0.00208,  -0.00149,  -0.00007,   0.00000,   2.00000
-284348780.75477,-532397366.47138,71976483.30998,  -0.00233,  -0.00337,   0.00088,480791279.29147,   0.00311,277971218.12742,  -0.00208,  -0.00150,  -0.00006,  -0.00000,   2.00000
-282244108.20971,-532105169.70996,72691975.23676,  -0.00232,  -0.00338,   0.00089,480797976.44177,   0.00312,277981661.72361,  -0.00208,  -0.00151,  -0.00005,   0.00000,   2.00000
-280119909.33705,-531802234.50752,73403185.82872,  -0.00231,  -0.00339,   0.00091,480808038.73415,   0.00313,277992122.93522,  -0.00208,  -0.00152,  -0.00005,   0.00000,   2.00000
-277988463.06550,-531484733.89991,74115866.71332,  -0.00231,  -0.00341,   0.00092,480812889.69685,   0.00314,278002582.35972,  -0.00208,  -0.00153,  -0.00004,   0.00000,   2.00000
-275864025.80895,-531155867.09084,74823946.53124,  -0.00230,  -0.00342,   0.00094,480852307.02115,   0.00315,278013168.20392,  -0.00208,  -0.00154,  -0.00003,   0.00000,   2.00000
-273718540.70903,-530812149.63356,75534616.77925,  -0.00229,  -0.00344,   0.00095,480851095.89834,   0.00316,278023729.25842,  -0.00208,  -0.00155,  -0.00003,   0.00000,   2.00000
-271552318.17716,-530454838.63072,76245336.32192,  -0.00228,  -0.00345,   0.00097,480864220.71946,   0.00317,278034319.00670,  -0.00208,  -0.00157,  -0.00002,   0.00000,   2.00000
-269393131.93421,-530084772.92171,76953834.95916,  -0.00227,  -0.00346,   0.00099,480889941.29687,   0.00318,278044984.27819,  -0.00208,  -0.00158,  -0.00001,  -0.00000,   2.00000
-267227153.19353,-529701568.70624,77661215.74919,  -0.00226,  -0.00348,   0.00100,480909563.88923,   0.00319,278055702.13227,  -0.00208,  -0.00159,  -0.00001,   0.00000,   2.00000
-265039752.75860,-529302968.82767,78371137.26468,  -0.00225,  -0.00349,   0.00102,480909271.46341,   0.00320,278066397.92828,  -0.00208,  -0.00160,  -0.00000,   0.00000,   2.00000
-262846708.88964,-528893664.09107,79075510.80737,  -0.00224,  -0.00351,   0.00103,480926865.47001,   0.00321,278077138.71216,  -0.00208,  -0.00161,   0.00001,   0.00000,   2.00000
-260645884.21376,-528468476.85077,79783052.89353,  -0.00223,  -0.00352,   0.00105,480949377.91073,   0.00322,278087942.89515,  -0.00208,  -0.00162,   0.00001,   0.00000,   2.00000
-258439538.00219,-528032633.70863,80485005.79732,  -0.00222,  -0.00353,   0.00107,480967230.72626,   0.00323,278098792.75407,  -0.00208,  -0.00164,   0.00002,   0.00000,   2.00000
-256226638.46799,-527583531.93609,81185722.37676,  -0.00222,  -0.00355,   0.00108,480987624.44094,   0.00324,278109697.75274,  -0.00208,  -0.00165,   0.00003,   0.00000,   2.00000
-253991907.60043,-527118408.10242,81888943.95379,  -0.00221,  -0.00356,   0.00110,480988442.76576,   0.00325,278120583.85652,  -0.00208,  -0.00166,   0.00003,   0.00000,   2.00000
-251765034.19436,-526640983.76461,82589757.54926,  -0.00220,  -0.00358,   0.00112,481014878.29463,   0.00326,278131547.89653,  -0.00208,  -0.00167,   0.00004,   0.00000,   2.00000
-249517332.67312,-526149101.11174,83290335.39047,  -0.00219,  -0.00359,   0.00113,481030099.81657,   0.00327,278142547.27603,  -0.00208,  -0.00168,   0.00005,   0.00000,   2.00000
-247263083.79468,-525644724.11171,83987967.23294,  -0.00218,  -0.00360,   0.00115,481034653.35397,   0.00328,278153541.29153,  -0.00208,  -0.00169,   0.00006,   0.00000,   2.00000
-245002759.27978,-525126057.79211,84685777.64745,  -0.00217,  -0.00362,   0.00117,481072351.29468,   0.00329,278164656.06051,  -0.00208,  -0.00171,   0.00006,   0.00000,   2.00000
-242721308.74794,-524593475.97777,85381711.28586,  -0.00216,  -0.00363,   0.00118,481071775.93832,   0.00330,278175745.49019,  -0.00208,  -0.00172,   0.00007,   0.00000,   2.00000
-240446774.83539,-524046944.71894,86077910.65366,  -0.00215,  -0.00365,   0.00120,481084751.38712,   0.00331,278186861.15941,  -0.00207,  -0.00173,   0.00008,  -0.00000,   2.00000
-238167613.21670,-523488967.86981,86769847.18432,  -0.00214,  -0.00366,   0.00121,481120289.28749,   0.00332,278198089.27376,  -0.00207,  -0.00174,   0.00009,   0.00000,   2.00000
-235866016.59477,-522914003.01372,87464180.41834,  -0.00213,  -0.00367,   0.00123,481122906.21882,   0.00333,278209303.53602,  -0.00207,  -0.00175,   0.00009,   0.00000,   2.00000
-233559431.83954,-522328359.20718,88152715.00621,  -0.00212,  -0.00369,   0.00125,481142253.24423,   0.00335,278220568.05627,  -0.00207,  -0.00177,   0.00010,   0.00000,   2.00000
-231245837.78604,-521726386.80480,88843962.45870,  -0.00211,  -0.00370,   0.00127,481167072.92833,   0.00336,278231903.75182,  -0.00207,  -0.00178,   0.00011,   0.00000,   2.00000
-228925518.55278,-521111696.56958,89532239.22230,  -0.00210,  -0.00371,   0.00128,481172792.47861,   0.00337,278243236.82165,  -0.00207,  -0.00179,   0.00012,   0.00000,   2.00000
-226599323.02447,-520483520.07504,90218915.35759,  -0.00209,  -0.00373,   0.00130,481195208.89678,   0.00338,278254631.58798,  -0.00207,  -0.00180,   0.00013,   0.00000,   2.00000
-224252360.17934,-519839854.28797,90904991.46997,  -0.00208,  -0.00374,   0.00132,481212872.77882,   0.00339,278266069.60482,  -0.00207,  -0.00181,   0.00013,   0.00000,   2.00000
-221914729.32258,-519184705.67450,91588354.95097,  -0.00206,  -0.00376,   0.00133,481240568.44391,   0.00340,278277589.43560,  -0.00207,  -0.00183,   0.00014,   0.00000,   2.00000
-219555224.45693,-518514624.89309,92269776.35852,  -0.00205,  -0.00377,   0.00135,481242027.92363,   0.00341,278289089.20182,  -0.00207,  -0.00184,   0.00015,   0.00000,   2.00000
-217190124.71779,-517830977.04915,92949480.78726,  -0.00204,  -0.00378,   0.00137,481265122.50202,   0.00342,278300652.84759,  -0.00206,  -0.00185,   0.00016,   0.00000,   2.00000
-214819517.08224,-517133785.63780,93627437.01386,  -0.00203,  -0.00380,   0.00138,481288376.11598,   0.00343,278312280.79076,  -0.00206,  -0.00186,   0.00017,   0.00000,   2.00000
-212443489.40107,-516423075.34853,94303613.86902,  -0.00202,  -0.00381,   0.00140,481311788.80077,   0.00344,278323973.44618,  -0.00206,  -0.00188,   0.00018,   0.00000,   2.00000
-210059634.29235,-515696436.56969,94980981.41443,  -0.00201,  -0.00382,   0.00142,481321567.44144,   0.00346,278335677.39545,  -0.00206,  -0.00189,   0.00018,   0.00000,   2.00000
-207671443.77422,-514959293.56679,95652333.20965,  -0.00200,  -0.00384,   0.00144,481342381.94145,   0.00347,278347435.61083,  -0.00206,  -0.00190,   0.00019,   0.00000,   2.00000
-205260030.44625,-514203517.33819,96325845.75531,  -0.00199,  -0.00385,   0.00145,481348045.83041,   0.00348,278359188.68439,  -0.00206,  -0.00191,   0.00020,   0.00000,   2.00000
-202861564.11321,-513439396.28416,96993437.74474,  -0.00198,  -0.00387,   0.00147,481390213.91609,   0.00349,278371079.53992,  -0.00206,  -0.00192,   0.00021,   0.00000,   2.00000
-200439818.47292,-512656456.32422,97663139.78479,  -0.00197,  -0.00388,   0.00149,481396359.28489,   0.00350,278382966.47522,  -0.00205,  -0.00194,   0.00022,   0.00000,   2.00000
-198011152.01253,-511860358.08645,98329809.76006,  -0.00196,  -0.00389,   0.00151,481404075.33496,   0.00351,278394855.52190,  -0.00205,  -0.00195,   0.00023,   0.00000,   2.00000
-195580483.66104,-511053398.22262,98991412.85636,  -0.00194,  -0.00391,   0.00152,481442282.62498,   0.00352,278406866.67404,  -0.00205,  -0.00196,   0.00024,   0.00000,   2.00000
-193141985.78924,-510230194.73444,99654120.50520,  -0.00193,  -0.00392,   0.00154,481453283.20859,   0.00354,278418892.26253,  -0.00205,  -0.00197,   0.00025,   0.00000,   2.00000
-190695613.86397,-509390679.34217,100317902.04058,  -0.00192,  -0.00393,   0.00156,481464451.39232,   0.00355,278430932.80364,  -0.00205,  -0.00199,   0.00026,   0.00000,   2.00000
-188248601.38302,-508543623.05944,100972370.11629,  -0.00191,  -0.00395,   0.00158,481500019.83760,   0.00356,278443084.67633,  -0.00205,  -0.00200,   0.00026,   0.00000,   2.00000
-185778069.15537,-507676991.42743,101628811.98121,  -0.00190,  -0.00396,   0.00160,481507624.77866,   0.00357,278455236.83626,  -0.00204,  -0.00201,   0.00027,   0.00000,   2.00000
-183318763.64365,-506800122.91001,102282228.20208,  -0.00189,  -0.00397,   0.00161,481536810.51093,   0.00358,278467474.71179,  -0.00204,  -0.00202,   0.00028,   0.00000,   2.00000
-180835846.29378,-505903446.14538,102937545.25043,  -0.00187,  -0.00399,   0.00163,481544900.49286,   0.00359,278479714.26850,  -0.00204,  -0.00204,   0.00029,   0.00000,   2.00000
-178349437.83546,-504996407.10798,103586579.89576,  -0.00186,  -0.00400,   0.00165,481567460.59447,   0.00361,278492012.94803,  -0.00204,  -0.00205,   0.00030,   0.00000,   2.00000
