# sigma_xx, sigma_yy, sigma_xy, epsilon_xx, epsilon_yy, epsilon_xy, vonMises, epsPlastic, hardening, epsilonP__xx, epsilonP__yy, epsilonP__xy, yieldValue, iteration
   0.00000,   0.00000,   0.00000,   0.00000,   0.00000,   0.00000,1181185.37500,   0.00000,274640576.00000,   0.00000,   0.00000,   0.00000,-473459392.00000,   0.00000
   0.00000,   0.00000,   0.00000,   0.00000,   0.00000,   0.00000,1181185.37500,   0.00000,274640576.00000,   0.00000,   0.00000,   0.00000,-473459392.00000,   0.00000
-1517817.10304,-1560273.52550,-281273.79881,  -0.00000,  -0.00000,  -0.00000,801457.25000,   0.00000,274640576.00000,   0.00000,   0.00000,   0.00000,-473839104.00000,   0.00000
-3054208.89091,-3128507.63022,-557240.54482,  -0.00001,  -0.00001,  -0.00001,2851513.25000,   0.00000,274640576.00000,   0.00000,   0.00000,   0.00000,-471789056.00000,   0.00000
-4582640.09956,-4678167.05010,-827900.23802,  -0.00001,  -0.00001,  -0.00001,4447460.50000,   0.00000,274640576.00000,   0.00000,   0.00000,   0.00000,-470193120.00000,   0.00000
-6084536.04418,-6201291.20595,-1098559.93122,  -0.00002,  -0.00002,  -0.00001,5973702.00000,   0.00000,274640576.00000,   0.00000,   0.00000,   0.00000,-468666880.00000,   0.00000
-7605006.67362,-7732375.94101,-1363912.57161,  -0.00002,  -0.00002,  -0.00002,7501661.50000,   0.00000,274640576.00000,   0.00000,   0.00000,   0.00000,-467138912.00000,   0.00000
-9106902.61823,-9255500.09685,-1623958.15920,  -0.00002,  -0.00002,  -0.00002,9047474.00000,   0.00000,274640576.00000,   0.00000,   0.00000,   0.00000,-465593104.00000,   0.00000
-10619412.66847,-10768010.14708,-1884003.74678,  -0.00003,  -0.00003,  -0.00002,10622918.00000,   0.00000,274640576.00000,   0.00000,   0.00000,   0.00000,-464017664.00000,   0.00000
-12123962.13949,-12261945.51249,-2138742.28156,  -0.00003,  -0.00003,  -0.00003,12199021.00000,   0.00000,274640576.00000,   0.00000,   0.00000,   0.00000,-462441552.00000,   0.00000
-13609936.92568,-13747920.29868,-2388173.76352,  -0.00004,  -0.00004,  -0.00003,13766118.00000,   0.00000,274640576.00000,   0.00000,   0.00000,   0.00000,-460874464.00000,   0.00000
-15106525.81749,-15223280.97926,-2637605.24549,  -0.00004,  -0.00004,  -0.00003,15336107.00000,   0.00000,274640576.00000,   0.00000,   0.00000,   0.00000,-459304464.00000,   0.00000
-16584540.02447,-16690681.08062,-2881729.67465,  -0.00004,  -0.00004,  -0.00004,16890952.00000,   0.00000,274640576.00000,   0.00000,   0.00000,   0.00000,-457749632.00000,   0.00000
-18073168.33706,-18147467.07637,-3125854.10381,  -0.00005,  -0.00005,  -0.00004,18445694.00000,   0.00000,274640576.00000,   0.00000,   0.00000,   0.00000,-456194880.00000,   0.00000
-19561796.64966,-19604253.07212,-3364671.48016,  -0.00005,  -0.00005,  -0.00004,19997084.00000,   0.00000,274640576.00000,   0.00000,   0.00000,   0.00000,-454643488.00000,   0.00000
-21023889.69821,-21034503.80383,-3598181.80371,  -0.00005,  -0.00005,  -0.00005,21518804.00000,   0.00000,274640576.00000,   0.00000,   0.00000,   0.00000,-453121776.00000,   0.00000
-22496596.85239,-22454140.42992,-3831692.12725,  -0.00006,  -0.00006,  -0.00005,23038634.00000,   0.00000,274640576.00000,   0.00000,   0.00000,   0.00000,-451601936.00000,   0.00000
-23950729.32173,-23865816.47681,-4059895.39799,  -0.00006,  -0.00006,  -0.00005,24540776.00000,   0.00000,274640576.00000,   0.00000,   0.00000,   0.00000,-450099808.00000,   0.00000
-25423436.47590,-25285453.10290,-4282791.61592,  -0.00007,  -0.00007,  -0.00006,26050590.00000,   0.00000,274640576.00000,   0.00000,   0.00000,   0.00000,-448589984.00000,   0.00000
-26869608.36604,-26678554.46496,-4505687.83385,  -0.00007,  -0.00007,  -0.00006,27532236.00000,   0.00000,274640576.00000,   0.00000,   0.00000,   0.00000,-447108336.00000,   0.00000
-28326394.36179,-28061041.72140,-4728584.05178,  -0.00007,  -0.00007,  -0.00006,29011558.00000,   0.00000,274640576.00000,   0.00000,   0.00000,   0.00000,-445629024.00000,   0.00000
-29764605.67271,-29435568.39862,-4940866.16409,  -0.00008,  -0.00008,  -0.00006,30471042.00000,   0.00000,274640576.00000,   0.00000,   0.00000,   0.00000,-444169536.00000,   0.00000
-31194856.40442,-30791520.39102,-5158455.32921,  -0.00008,  -0.00008,  -0.00007,31918794.00000,   0.00000,274640576.00000,   0.00000,   0.00000,   0.00000,-442721776.00000,   0.00000
-32625107.13613,-32147472.38342,-5365430.38872,  -0.00009,  -0.00008,  -0.00007,33360510.00000,   0.00000,274640576.00000,   0.00000,   0.00000,   0.00000,-441280064.00000,   0.00000
-34065971.97345,-33492810.27021,-5577712.50103,  -0.00009,  -0.00009,  -0.00007,34804512.00000,   0.00000,274640576.00000,   0.00000,   0.00000,   0.00000,-439836064.00000,   0.00000
-35480301.54674,-34811612.89295,-5779380.50773,  -0.00009,  -0.00009,  -0.00008,36217744.00000,   0.00000,274640576.00000,   0.00000,   0.00000,   0.00000,-438422832.00000,   0.00000
-36902591.69924,-36148990.20053,-5981048.51442,  -0.00010,  -0.00009,  -0.00008,37643792.00000,   0.00000,274640576.00000,   0.00000,   0.00000,   0.00000,-436996784.00000,   0.00000
-38308960.69331,-37449218.13845,-6182716.52112,  -0.00010,  -0.00010,  -0.00008,39044908.00000,   0.00000,274640576.00000,   0.00000,   0.00000,   0.00000,-435595664.00000,   0.00000
-39715329.68739,-38749446.07636,-6379077.47501,  -0.00011,  -0.00010,  -0.00008,40443884.00000,   0.00000,274640576.00000,   0.00000,   0.00000,   0.00000,-434196688.00000,   0.00000
-41113738.10225,-40031099.32945,-6570131.37609,  -0.00011,  -0.00010,  -0.00009,41828088.00000,   0.00000,274640576.00000,   0.00000,   0.00000,   0.00000,-432812480.00000,   0.00000
-42512146.51711,-41312752.58254,-6761185.27717,  -0.00011,  -0.00011,  -0.00009,43212568.00000,   0.00000,274640576.00000,   0.00000,   0.00000,   0.00000,-431428000.00000,   0.00000
-43884019.66794,-42567870.57160,-6952239.17826,  -0.00012,  -0.00011,  -0.00009,44571532.00000,   0.00000,274640576.00000,   0.00000,   0.00000,   0.00000,-430069040.00000,   0.00000
-45274467.50359,-43830949.13986,-7137986.02653,  -0.00012,  -0.00011,  -0.00009,45941096.00000,   0.00000,274640576.00000,   0.00000,   0.00000,   0.00000,-428699488.00000,   0.00000
-46656954.76003,-45075453.02330,-7323732.87480,  -0.00012,  -0.00011,  -0.00010,47298000.00000,   0.00000,274640576.00000,   0.00000,   0.00000,   0.00000,-427342576.00000,   0.00000
-48020867.33164,-46311996.32752,-7504172.67027,  -0.00013,  -0.00012,  -0.00010,48639188.00000,   0.00000,274640576.00000,   0.00000,   0.00000,   0.00000,-426001392.00000,   0.00000
-49376819.32404,-47529964.94692,-7679305.41293,  -0.00013,  -0.00012,  -0.00010,49965144.00000,   0.00000,274640576.00000,   0.00000,   0.00000,   0.00000,-424675424.00000,   0.00000
-50743385.42206,-48737319.46070,-7854438.15559,  -0.00014,  -0.00012,  -0.00010,51291352.00000,   0.00000,274640576.00000,   0.00000,   0.00000,   0.00000,-423349216.00000,   0.00000
-52091376.83525,-49936713.39527,-8029570.89825,  -0.00014,  -0.00013,  -0.00010,52604340.00000,   0.00000,274640576.00000,   0.00000,   0.00000,   0.00000,-422036240.00000,   0.00000
-53431407.66922,-51117532.64501,-8199396.58810,  -0.00014,  -0.00013,  -0.00011,53902200.00000,   0.00000,274640576.00000,   0.00000,   0.00000,   0.00000,-420738368.00000,   0.00000
-54771438.50320,-52298351.89475,-8369222.27795,  -0.00015,  -0.00013,  -0.00011,55200004.00000,   0.00000,274640576.00000,   0.00000,   0.00000,   0.00000,-419440576.00000,   0.00000
-56103508.75796,-53460596.45967,-8533740.91499,  -0.00015,  -0.00013,  -0.00011,56482996.00000,   0.00000,274640576.00000,   0.00000,   0.00000,   0.00000,-418157584.00000,   0.00000
-57435579.01273,-54622841.02458,-8698259.55203,  -0.00015,  -0.00014,  -0.00011,57766136.00000,   0.00000,274640576.00000,   0.00000,   0.00000,   0.00000,-416874432.00000,   0.00000
-58741114.00345,-55758550.32546,-8857471.13627,  -0.00016,  -0.00014,  -0.00012,59021568.00000,   0.00000,274640576.00000,   0.00000,   0.00000,   0.00000,-415619008.00000,   0.00000
-60065223.67901,-56902220.20554,-9016682.72050,  -0.00016,  -0.00014,  -0.00012,60290620.00000,   0.00000,274640576.00000,   0.00000,   0.00000,   0.00000,-414349952.00000,   0.00000
-61362798.09052,-58019354.82159,-9170587.25193,  -0.00017,  -0.00014,  -0.00012,61532212.00000,   0.00000,274640576.00000,   0.00000,   0.00000,   0.00000,-413108368.00000,   0.00000
-62652411.92282,-59117914.75281,-9324491.78336,  -0.00017,  -0.00015,  -0.00012,62762004.00000,   0.00000,274640576.00000,   0.00000,   0.00000,   0.00000,-411878576.00000,   0.00000
-63960600.43995,-60224435.26324,-9478396.31478,  -0.00017,  -0.00015,  -0.00012,64005780.00000,   0.00000,274640576.00000,   0.00000,   0.00000,   0.00000,-410634800.00000,   0.00000
-65242253.69305,-61304420.50964,-9626993.79340,  -0.00018,  -0.00015,  -0.00013,65222344.00000,   0.00000,274640576.00000,   0.00000,   0.00000,   0.00000,-409418240.00000,   0.00000
-66505332.26131,-62376445.17682,-9775591.27202,  -0.00018,  -0.00015,  -0.00013,66426328.00000,   0.00000,274640576.00000,   0.00000,   0.00000,   0.00000,-408214240.00000,   0.00000
-67779024.93519,-63437855.73838,-9918881.69783,  -0.00018,  -0.00016,  -0.00013,67629704.00000,   0.00000,274640576.00000,   0.00000,   0.00000,   0.00000,-407010880.00000,   0.00000
-69052717.60907,-64499266.29995,-10062172.12364,  -0.00019,  -0.00016,  -0.00013,68833904.00000,   0.00000,274640576.00000,   0.00000,   0.00000,   0.00000,-405806672.00000,   0.00000
-70299875.01891,-65534141.59748,-10205462.54946,  -0.00019,  -0.00016,  -0.00013,70013064.00000,   0.00000,274640576.00000,   0.00000,   0.00000,   0.00000,-404627520.00000,   0.00000
-71557646.53436,-66558402.78939,-10343445.92246,  -0.00020,  -0.00016,  -0.00013,71191616.00000,   0.00000,274640576.00000,   0.00000,   0.00000,   0.00000,-403448960.00000,   0.00000
-72796843.36499,-67574703.40209,-10481429.29546,  -0.00020,  -0.00017,  -0.00014,72357392.00000,   0.00000,274640576.00000,   0.00000,   0.00000,   0.00000,-402283184.00000,   0.00000
-74028079.61641,-68572429.32996,-10619412.66847,  -0.00020,  -0.00017,  -0.00014,73511328.00000,   0.00000,274640576.00000,   0.00000,   0.00000,   0.00000,-401129248.00000,   0.00000
-75259315.86782,-69570155.25783,-10752088.98866,  -0.00021,  -0.00017,  -0.00014,74663408.00000,   0.00000,274640576.00000,   0.00000,   0.00000,   0.00000,-399977168.00000,   0.00000
-76482591.54003,-70549306.50087,-10884765.30886,  -0.00021,  -0.00017,  -0.00014,75803472.00000,   0.00000,274640576.00000,   0.00000,   0.00000,   0.00000,-398837104.00000,   0.00000
-77687292.52740,-71520497.16471,-11012134.57625,  -0.00021,  -0.00017,  -0.00014,76928048.00000,   0.00000,274640576.00000,   0.00000,   0.00000,   0.00000,-397712528.00000,   0.00000
-78902607.62040,-72481073.72292,-11139503.84363,  -0.00022,  -0.00018,  -0.00014,78053976.00000,   0.00000,274640576.00000,   0.00000,   0.00000,   0.00000,-396586592.00000,   0.00000
-80091387.44935,-73415115.01710,-11266873.11102,  -0.00022,  -0.00018,  -0.00015,79154184.00000,   0.00000,274640576.00000,   0.00000,   0.00000,   0.00000,-395486400.00000,   0.00000
-81280167.27830,-74349156.31128,-11388935.32560,  -0.00022,  -0.00018,  -0.00015,80252080.00000,   0.00000,274640576.00000,   0.00000,   0.00000,   0.00000,-394388496.00000,   0.00000
-82468947.10726,-75283197.60546,-11510997.54018,  -0.00023,  -0.00018,  -0.00015,81349896.00000,   0.00000,274640576.00000,   0.00000,   0.00000,   0.00000,-393290688.00000,   0.00000
-83649766.35700,-76198664.21481,-11633059.75476,  -0.00023,  -0.00018,  -0.00015,82435432.00000,   0.00000,274640576.00000,   0.00000,   0.00000,   0.00000,-392205152.00000,   0.00000
-84804050.34270,-77087595.56012,-11749814.91653,  -0.00024,  -0.00019,  -0.00015,83492784.00000,   0.00000,274640576.00000,   0.00000,   0.00000,   0.00000,-391147792.00000,   0.00000
-85968948.43402,-77965912.79982,-11866570.07831,  -0.00024,  -0.00019,  -0.00015,84551384.00000,   0.00000,274640576.00000,   0.00000,   0.00000,   0.00000,-390089184.00000,   0.00000
-87123232.41972,-78854844.14513,-11983325.24008,  -0.00024,  -0.00019,  -0.00016,85608296.00000,   0.00000,274640576.00000,   0.00000,   0.00000,   0.00000,-389032288.00000,   0.00000
-88261595.24700,-79706626.12078,-12100080.40185,  -0.00025,  -0.00019,  -0.00016,86640688.00000,   0.00000,274640576.00000,   0.00000,   0.00000,   0.00000,-387999888.00000,   0.00000
-89399958.07428,-80558408.09644,-12211528.51081,  -0.00025,  -0.00019,  -0.00016,87670736.00000,   0.00000,274640576.00000,   0.00000,   0.00000,   0.00000,-386969840.00000,   0.00000
-90538320.90156,-81410190.07210,-12322976.61978,  -0.00025,  -0.00019,  -0.00016,88700472.00000,   0.00000,274640576.00000,   0.00000,   0.00000,   0.00000,-385940096.00000,   0.00000
-91660762.57042,-82224822.67810,-12429117.67594,  -0.00026,  -0.00020,  -0.00016,89703896.00000,   0.00000,274640576.00000,   0.00000,   0.00000,   0.00000,-384936672.00000,   0.00000
-92772590.13366,-83050069.38972,-12535258.73209,  -0.00026,  -0.00020,  -0.00016,90705496.00000,   0.00000,274640576.00000,   0.00000,   0.00000,   0.00000,-383935072.00000,   0.00000
-93876457.11769,-83856741.41651,-12641399.78825,  -0.00026,  -0.00020,  -0.00016,91695016.00000,   0.00000,274640576.00000,   0.00000,   0.00000,   0.00000,-382945568.00000,   0.00000
-94972363.52250,-84644838.75847,-12747540.84441,  -0.00027,  -0.00020,  -0.00017,92672552.00000,   0.00000,274640576.00000,   0.00000,   0.00000,   0.00000,-381968032.00000,   0.00000
-96060309.34811,-85414361.41560,-12848374.84775,  -0.00027,  -0.00020,  -0.00017,93635992.00000,   0.00000,274640576.00000,   0.00000,   0.00000,   0.00000,-381004576.00000,   0.00000
-97156215.75292,-86202458.75757,-12954515.90391,  -0.00027,  -0.00020,  -0.00017,94613584.00000,   0.00000,274640576.00000,   0.00000,   0.00000,   0.00000,-380026992.00000,   0.00000
-98236200.99932,-86953406.72987,-13050042.85445,  -0.00028,  -0.00020,  -0.00017,95563200.00000,   0.00000,274640576.00000,   0.00000,   0.00000,   0.00000,-379077376.00000,   0.00000
-99297611.56088,-87696394.12297,-13150876.85780,  -0.00028,  -0.00021,  -0.00017,96501552.00000,   0.00000,274640576.00000,   0.00000,   0.00000,   0.00000,-378139024.00000,   0.00000
-100351061.54324,-88420806.83124,-13246403.80834,  -0.00028,  -0.00021,  -0.00017,97426056.00000,   0.00000,274640576.00000,   0.00000,   0.00000,   0.00000,-377214528.00000,   0.00000
-101404511.52559,-89145219.53951,-13347237.81169,  -0.00029,  -0.00021,  -0.00017,98353112.00000,   0.00000,274640576.00000,   0.00000,   0.00000,   0.00000,-376287456.00000,   0.00000
-102457961.50795,-89869632.24778,-13437457.70942,  -0.00029,  -0.00021,  -0.00017,99276176.00000,   0.00000,274640576.00000,   0.00000,   0.00000,   0.00000,-375364400.00000,   0.00000
-103476915.64705,-90548935.00718,-13532984.65996,  -0.00029,  -0.00021,  -0.00018,100164520.00000,   0.00000,274640576.00000,   0.00000,   0.00000,   0.00000,-374476064.00000,   0.00000
-104522405.05019,-91254773.03062,-13623204.55770,  -0.00030,  -0.00021,  -0.00018,101076712.00000,   0.00000,274640576.00000,   0.00000,   0.00000,   0.00000,-373563872.00000,   0.00000
-105533398.61008,-91915501.10519,-13718731.50824,  -0.00030,  -0.00021,  -0.00018,101954328.00000,   0.00000,274640576.00000,   0.00000,   0.00000,   0.00000,-372686240.00000,   0.00000
-106544392.16997,-92576229.17977,-13808951.40597,  -0.00030,  -0.00021,  -0.00018,102830296.00000,   0.00000,274640576.00000,   0.00000,   0.00000,   0.00000,-371810272.00000,   0.00000
-107555385.72987,-93236957.25434,-13893864.25090,  -0.00031,  -0.00021,  -0.00018,103704800.00000,   0.00000,274640576.00000,   0.00000,   0.00000,   0.00000,-370935776.00000,   0.00000
-108558418.71055,-93879110.64409,-13984084.14863,  -0.00031,  -0.00022,  -0.00018,104570456.00000,   0.00000,274640576.00000,   0.00000,   0.00000,   0.00000,-370070112.00000,   0.00000
-109534916.42719,-94494728.76980,-14068996.99355,  -0.00031,  -0.00022,  -0.00018,105409048.00000,   0.00000,274640576.00000,   0.00000,   0.00000,   0.00000,-369231520.00000,   0.00000
-110511414.14383,-95110346.89551,-14153909.83848,  -0.00032,  -0.00022,  -0.00018,106248344.00000,   0.00000,274640576.00000,   0.00000,   0.00000,   0.00000,-368392224.00000,   0.00000
-111479951.28126,-95707390.33639,-14238822.68341,  -0.00032,  -0.00022,  -0.00019,107076624.00000,   0.00000,274640576.00000,   0.00000,   0.00000,   0.00000,-367563952.00000,   0.00000
-112448488.41868,-96304433.77727,-14323735.52833,  -0.00032,  -0.00022,  -0.00019,107905792.00000,   0.00000,274640576.00000,   0.00000,   0.00000,   0.00000,-366734784.00000,   0.00000
-113409064.97690,-96882902.53332,-14403341.32045,  -0.00033,  -0.00022,  -0.00019,108721944.00000,   0.00000,274640576.00000,   0.00000,   0.00000,   0.00000,-365918624.00000,   0.00000
-114351066.85029,-97453410.71016,-14482947.11257,  -0.00033,  -0.00022,  -0.00019,109524832.00000,   0.00000,274640576.00000,   0.00000,   0.00000,   0.00000,-365115744.00000,   0.00000
-115285108.14447,-98005344.20218,-14562552.90468,  -0.00033,  -0.00022,  -0.00019,110316992.00000,   0.00000,274640576.00000,   0.00000,   0.00000,   0.00000,-364323584.00000,   0.00000
-116237724.12347,-98565238.27340,-14642158.69680,  -0.00034,  -0.00022,  -0.00019,111123904.00000,   0.00000,274640576.00000,   0.00000,   0.00000,   0.00000,-363516672.00000,   0.00000
-117145230.15361,-99090636.50138,-14721764.48892,  -0.00034,  -0.00022,  -0.00019,111891976.00000,   0.00000,274640576.00000,   0.00000,   0.00000,   0.00000,-362748608.00000,   0.00000
-118063350.28937,-99605420.62374,-14796063.22823,  -0.00034,  -0.00022,  -0.00019,112661168.00000,   0.00000,274640576.00000,   0.00000,   0.00000,   0.00000,-361979408.00000,   0.00000
-118962895.74029,-100112244.16689,-14875669.02034,  -0.00035,  -0.00022,  -0.00019,113419128.00000,   0.00000,274640576.00000,   0.00000,   0.00000,   0.00000,-361221440.00000,   0.00000
-119881015.87605,-100627028.28925,-14949967.75965,  -0.00035,  -0.00022,  -0.00019,114189952.00000,   0.00000,274640576.00000,   0.00000,   0.00000,   0.00000,-360450624.00000,   0.00000
-120764640.16855,-101096702.46274,-15024266.49896,  -0.00035,  -0.00022,  -0.00020,114924376.00000,   0.00000,274640576.00000,   0.00000,   0.00000,   0.00000,-359716192.00000,   0.00000
-121656225.04027,-101584951.32106,-15098565.23827,  -0.00036,  -0.00022,  -0.00020,115671088.00000,   0.00000,274640576.00000,   0.00000,   0.00000,   0.00000,-358969488.00000,   0.00000
-122513314.06873,-102028090.23051,-15167556.92478,  -0.00036,  -0.00023,  -0.00020,116379328.00000,   0.00000,274640576.00000,   0.00000,   0.00000,   0.00000,-358261248.00000,   0.00000
-123396938.36124,-102497764.40400,-15241855.66408,  -0.00036,  -0.00023,  -0.00020,117115968.00000,   0.00000,274640576.00000,   0.00000,   0.00000,   0.00000,-357524608.00000,   0.00000
-124246066.81049,-102922328.62863,-15310847.35059,  -0.00036,  -0.00023,  -0.00020,117814320.00000,   0.00000,274640576.00000,   0.00000,   0.00000,   0.00000,-356826256.00000,   0.00000
-125103155.83895,-103365467.53808,-15385146.08990,  -0.00037,  -0.00023,  -0.00020,118526768.00000,   0.00000,274640576.00000,   0.00000,   0.00000,   0.00000,-356113808.00000,   0.00000
-125944323.70899,-103771457.07788,-15454137.77640,  -0.00037,  -0.00023,  -0.00020,119215104.00000,   0.00000,274640576.00000,   0.00000,   0.00000,   0.00000,-355425472.00000,   0.00000
-126766916.89421,-104169486.03847,-15523129.46290,  -0.00037,  -0.00023,  -0.00020,119889952.00000,   0.00000,274640576.00000,   0.00000,   0.00000,   0.00000,-354750624.00000,   0.00000
-127608084.76425,-104575475.57827,-15586814.09659,  -0.00038,  -0.00023,  -0.00020,120577616.00000,   0.00000,274640576.00000,   0.00000,   0.00000,   0.00000,-354062960.00000,   0.00000
-128422717.37025,-104954929.85403,-15655805.78310,  -0.00038,  -0.00023,  -0.00020,121242472.00000,   0.00000,274640576.00000,   0.00000,   0.00000,   0.00000,-353398112.00000,   0.00000
-129229389.39704,-105315809.44496,-15724797.46960,  -0.00038,  -0.00023,  -0.00020,121896696.00000,   0.00000,274640576.00000,   0.00000,   0.00000,   0.00000,-352743872.00000,   0.00000
-130036061.42383,-105676689.03589,-15788482.10329,  -0.00039,  -0.00023,  -0.00021,122549568.00000,   0.00000,274640576.00000,   0.00000,   0.00000,   0.00000,-352091008.00000,   0.00000
-130824158.76579,-106029608.04761,-15852166.73699,  -0.00039,  -0.00023,  -0.00021,123188752.00000,   0.00000,274640576.00000,   0.00000,   0.00000,   0.00000,-351451824.00000,   0.00000
-131622870.21337,-106371912.95372,-15921158.42349,  -0.00039,  -0.00023,  -0.00021,123833736.00000,   0.00000,274640576.00000,   0.00000,   0.00000,   0.00000,-350806848.00000,   0.00000
-132395046.39691,-106687682.59579,-15984843.05718,  -0.00039,  -0.00023,  -0.00021,124451800.00000,   0.00000,274640576.00000,   0.00000,   0.00000,   0.00000,-350188768.00000,   0.00000
-133167222.58045,-107003452.23785,-16048527.69087,  -0.00040,  -0.00023,  -0.00021,125070600.00000,   0.00000,274640576.00000,   0.00000,   0.00000,   0.00000,-349569984.00000,   0.00000
-133931438.18478,-107300647.19509,-16106905.27176,  -0.00040,  -0.00023,  -0.00021,125676920.00000,   0.00000,274640576.00000,   0.00000,   0.00000,   0.00000,-348963648.00000,   0.00000
-134695653.78910,-107597842.15233,-16170589.90545,  -0.00040,  -0.00023,  -0.00021,126285872.00000,   0.00000,274640576.00000,   0.00000,   0.00000,   0.00000,-348354704.00000,   0.00000
-135433334.12939,-107868501.84553,-16234274.53915,  -0.00041,  -0.00023,  -0.00021,126870080.00000,   0.00000,274640576.00000,   0.00000,   0.00000,   0.00000,-347770496.00000,   0.00000
-136171014.46968,-108139161.53873,-16292652.12003,  -0.00041,  -0.00023,  -0.00021,127452808.00000,   0.00000,274640576.00000,   0.00000,   0.00000,   0.00000,-347187776.00000,   0.00000
-136900734.23076,-108391246.54710,-16356336.75373,  -0.00041,  -0.00023,  -0.00021,128027336.00000,   0.00000,274640576.00000,   0.00000,   0.00000,   0.00000,-346613248.00000,   0.00000
-137630453.99183,-108643331.55547,-16414714.33461,  -0.00041,  -0.00023,  -0.00021,128600528.00000,   0.00000,274640576.00000,   0.00000,   0.00000,   0.00000,-346040048.00000,   0.00000
-138352213.17370,-108876841.87902,-16473091.91550,  -0.00042,  -0.00023,  -0.00021,129163472.00000,   0.00000,274640576.00000,   0.00000,   0.00000,   0.00000,-345477104.00000,   0.00000
-139055397.67073,-109102391.62335,-16531469.49639,  -0.00042,  -0.00023,  -0.00021,129712624.00000,   0.00000,274640576.00000,   0.00000,   0.00000,   0.00000,-344927952.00000,   0.00000
-139750621.58856,-109309366.68285,-16589847.07727,  -0.00042,  -0.00022,  -0.00022,130251536.00000,   0.00000,274640576.00000,   0.00000,   0.00000,   0.00000,-344389040.00000,   0.00000
-140445845.50639,-109516341.74236,-16648224.65816,  -0.00043,  -0.00022,  -0.00022,130791264.00000,   0.00000,274640576.00000,   0.00000,   0.00000,   0.00000,-343849312.00000,   0.00000
-141133108.84500,-109704742.11704,-16706602.23905,  -0.00043,  -0.00022,  -0.00022,131320904.00000,   0.00000,274640576.00000,   0.00000,   0.00000,   0.00000,-343319680.00000,   0.00000
-141820372.18361,-109893142.49171,-16764979.81993,  -0.00043,  -0.00022,  -0.00022,131851264.00000,   0.00000,274640576.00000,   0.00000,   0.00000,   0.00000,-342789312.00000,   0.00000
-142481100.25819,-110055007.60235,-16823357.40082,  -0.00043,  -0.00022,  -0.00022,132357056.00000,   0.00000,274640576.00000,   0.00000,   0.00000,   0.00000,-342283520.00000,   0.00000
-143133867.75355,-110198298.02816,-16881734.98170,  -0.00044,  -0.00022,  -0.00022,132853016.00000,   0.00000,274640576.00000,   0.00000,   0.00000,   0.00000,-341787552.00000,   0.00000
-143786635.24891,-110341588.45398,-16934805.50978,  -0.00044,  -0.00022,  -0.00022,133347704.00000,   0.00000,274640576.00000,   0.00000,   0.00000,   0.00000,-341292864.00000,   0.00000
-144439402.74428,-110484878.87979,-16993183.09067,  -0.00044,  -0.00022,  -0.00022,133845280.00000,   0.00000,274640576.00000,   0.00000,   0.00000,   0.00000,-340795296.00000,   0.00000
-145084209.66043,-110609594.62077,-17046253.61875,  -0.00044,  -0.00022,  -0.00022,134331024.00000,   0.00000,274640576.00000,   0.00000,   0.00000,   0.00000,-340309552.00000,   0.00000
-145710441.89175,-110726349.78254,-17104631.19963,  -0.00045,  -0.00022,  -0.00022,134804960.00000,   0.00000,274640576.00000,   0.00000,   0.00000,   0.00000,-339835616.00000,   0.00000
-146347288.22869,-110832490.83870,-17157701.72771,  -0.00045,  -0.00022,  -0.00022,135281824.00000,   0.00000,274640576.00000,   0.00000,   0.00000,   0.00000,-339358752.00000,   0.00000
-146965559.88080,-110930671.31564,-17210772.25579,  -0.00045,  -0.00022,  -0.00022,135744992.00000,   0.00000,274640576.00000,   0.00000,   0.00000,   0.00000,-338895584.00000,   0.00000
-147575870.95370,-111010277.10776,-17269149.83668,  -0.00046,  -0.00022,  -0.00022,136200592.00000,   0.00000,274640576.00000,   0.00000,   0.00000,   0.00000,-338439984.00000,   0.00000
-148178221.44739,-111071308.21505,-17322220.36475,  -0.00046,  -0.00022,  -0.00023,136644720.00000,   0.00000,274640576.00000,   0.00000,   0.00000,   0.00000,-337995856.00000,   0.00000
-148761997.25625,-111124378.74313,-17375290.89283,  -0.00046,  -0.00022,  -0.00023,137075056.00000,   0.00000,274640576.00000,   0.00000,   0.00000,   0.00000,-337565520.00000,   0.00000
-149345773.06511,-111177449.27121,-17428361.42091,  -0.00046,  -0.00021,  -0.00023,137506352.00000,   0.00000,274640576.00000,   0.00000,   0.00000,   0.00000,-337134224.00000,   0.00000
-149940162.97959,-111219905.69367,-17481431.94899,  -0.00047,  -0.00021,  -0.00023,137943008.00000,   0.00000,274640576.00000,   0.00000,   0.00000,   0.00000,-336697568.00000,   0.00000
-150515978.20924,-111254401.53692,-17534502.47707,  -0.00047,  -0.00021,  -0.00023,138366000.00000,   0.00000,274640576.00000,   0.00000,   0.00000,   0.00000,-336274576.00000,   0.00000
-151065258.17485,-111262362.11613,-17587573.00515,  -0.00047,  -0.00021,  -0.00023,138765008.00000,   0.00000,274640576.00000,   0.00000,   0.00000,   0.00000,-335875568.00000,   0.00000
-151633112.82529,-111278283.27456,-17640643.53322,  -0.00047,  -0.00021,  -0.00023,139179664.00000,   0.00000,274640576.00000,   0.00000,   0.00000,   0.00000,-335460912.00000,   0.00000
-152193006.89652,-111275629.74815,-17693714.06130,  -0.00048,  -0.00021,  -0.00023,139585392.00000,   0.00000,274640576.00000,   0.00000,   0.00000,   0.00000,-335055184.00000,   0.00000
-152734326.28291,-111265015.64254,-17741477.53657,  -0.00048,  -0.00021,  -0.00023,139975296.00000,   0.00000,274640576.00000,   0.00000,   0.00000,   0.00000,-334665280.00000,   0.00000
-153267685.09010,-111235826.85210,-17794548.06465,  -0.00048,  -0.00021,  -0.00023,140358224.00000,   0.00000,274640576.00000,   0.00000,   0.00000,   0.00000,-334282352.00000,   0.00000
-153801043.89729,-111206638.06165,-17847618.59273,  -0.00048,  -0.00021,  -0.00023,140742352.00000,   0.00000,274640576.00000,   0.00000,   0.00000,   0.00000,-333898224.00000,   0.00000
-154326442.12526,-111158874.58638,-17900689.12081,  -0.00049,  -0.00020,  -0.00023,141117584.00000,   0.00000,274640576.00000,   0.00000,   0.00000,   0.00000,-333522992.00000,   0.00000
-154833265.66841,-111103150.53190,-17948452.59608,  -0.00049,  -0.00020,  -0.00023,141477040.00000,   0.00000,274640576.00000,   0.00000,   0.00000,   0.00000,-333163536.00000,   0.00000
-155350703.31717,-111036812.37180,-18001523.12416,  -0.00049,  -0.00020,  -0.00023,141844720.00000,   0.00000,274640576.00000,   0.00000,   0.00000,   0.00000,-332795856.00000,   0.00000
-155849566.28111,-110962513.63249,-18054593.65223,  -0.00049,  -0.00020,  -0.00023,142198736.00000,   0.00000,274640576.00000,   0.00000,   0.00000,   0.00000,-332441840.00000,   0.00000
-156348429.24505,-110888214.89318,-18102357.12750,  -0.00050,  -0.00020,  -0.00024,142551968.00000,   0.00000,274640576.00000,   0.00000,   0.00000,   0.00000,-332088608.00000,   0.00000
-156839331.62977,-110795341.46905,-18155427.65558,  -0.00050,  -0.00020,  -0.00024,142898560.00000,   0.00000,274640576.00000,   0.00000,   0.00000,   0.00000,-331742016.00000,   0.00000
-157322273.43528,-110683893.36008,-18208498.18366,  -0.00050,  -0.00020,  -0.00024,143236688.00000,   0.00000,274640576.00000,   0.00000,   0.00000,   0.00000,-331403888.00000,   0.00000
-157786640.55597,-110564484.67190,-18256261.65893,  -0.00050,  -0.00020,  -0.00024,143559168.00000,   0.00000,274640576.00000,   0.00000,   0.00000,   0.00000,-331081408.00000,   0.00000
-158269582.36148,-110453036.56294,-18309332.18701,  -0.00050,  -0.00019,  -0.00024,143900064.00000,   0.00000,274640576.00000,   0.00000,   0.00000,   0.00000,-330740512.00000,   0.00000
-158725988.90295,-110315053.18994,-18357095.66228,  -0.00051,  -0.00019,  -0.00024,144215504.00000,   0.00000,274640576.00000,   0.00000,   0.00000,   0.00000,-330425072.00000,   0.00000
-159182395.44443,-110177069.81693,-18410166.19036,  -0.00051,  -0.00019,  -0.00024,144534320.00000,   0.00000,274640576.00000,   0.00000,   0.00000,   0.00000,-330106256.00000,   0.00000
-159630841.40669,-110020511.75910,-18457929.66563,  -0.00051,  -0.00019,  -0.00024,144842944.00000,   0.00000,274640576.00000,   0.00000,   0.00000,   0.00000,-329797632.00000,   0.00000
-160079287.36895,-109863953.70127,-18511000.19371,  -0.00051,  -0.00019,  -0.00024,145155104.00000,   0.00000,274640576.00000,   0.00000,   0.00000,   0.00000,-329485472.00000,   0.00000
-160519772.75200,-109688820.95861,-18558763.66898,  -0.00052,  -0.00019,  -0.00024,145457088.00000,   0.00000,274640576.00000,   0.00000,   0.00000,   0.00000,-329183488.00000,   0.00000
-160941683.45022,-109505727.63674,-18611834.19706,  -0.00052,  -0.00018,  -0.00024,145747504.00000,   0.00000,274640576.00000,   0.00000,   0.00000,   0.00000,-328893072.00000,   0.00000
-161374208.25406,-109312020.20926,-18659597.67233,  -0.00052,  -0.00018,  -0.00024,146043136.00000,   0.00000,274640576.00000,   0.00000,   0.00000,   0.00000,-328597440.00000,   0.00000
-161788158.37307,-109110352.20256,-18707361.14760,  -0.00052,  -0.00018,  -0.00024,146325088.00000,   0.00000,274640576.00000,   0.00000,   0.00000,   0.00000,-328315488.00000,   0.00000
-162202108.49208,-108908684.19586,-18760431.67568,  -0.00053,  -0.00018,  -0.00024,146610752.00000,   0.00000,274640576.00000,   0.00000,   0.00000,   0.00000,-328029824.00000,   0.00000
-162608098.03188,-108688441.50434,-18808195.15095,  -0.00053,  -0.00018,  -0.00024,146886480.00000,   0.00000,274640576.00000,   0.00000,   0.00000,   0.00000,-327754096.00000,   0.00000
-163014087.57168,-108468198.81281,-18861265.67902,  -0.00053,  -0.00018,  -0.00025,147165904.00000,   0.00000,274640576.00000,   0.00000,   0.00000,   0.00000,-327474672.00000,   0.00000
-163412116.53227,-108229381.43646,-18909029.15429,  -0.00053,  -0.00017,  -0.00025,147435696.00000,   0.00000,274640576.00000,   0.00000,   0.00000,   0.00000,-327204880.00000,   0.00000
-163783610.22881,-107964028.79607,-18962099.68237,  -0.00053,  -0.00017,  -0.00025,147684816.00000,   0.00000,274640576.00000,   0.00000,   0.00000,   0.00000,-326955760.00000,   0.00000
-164181639.18940,-107725211.41972,-19009863.15764,  -0.00054,  -0.00017,  -0.00025,147957904.00000,   0.00000,274640576.00000,   0.00000,   0.00000,   0.00000,-326682672.00000,   0.00000
-164553132.88595,-107459858.77932,-19057626.63291,  -0.00054,  -0.00017,  -0.00025,148208320.00000,   0.00000,274640576.00000,   0.00000,   0.00000,   0.00000,-326432256.00000,   0.00000
-164916666.00329,-107175931.45411,-19110697.16099,  -0.00054,  -0.00017,  -0.00025,148453472.00000,   0.00000,274640576.00000,   0.00000,   0.00000,   0.00000,-326187104.00000,   0.00000
-165280199.12062,-106892004.12889,-19158460.63626,  -0.00054,  -0.00016,  -0.00025,148698272.00000,   0.00000,274640576.00000,   0.00000,   0.00000,   0.00000,-325942304.00000,   0.00000
-165643732.23796,-106608076.80367,-19211531.16434,  -0.00055,  -0.00016,  -0.00025,148946944.00000,   0.00000,274640576.00000,   0.00000,   0.00000,   0.00000,-325693632.00000,   0.00000
-165999304.77608,-106305574.79362,-19259294.63961,  -0.00055,  -0.00016,  -0.00025,149186304.00000,   0.00000,274640576.00000,   0.00000,   0.00000,   0.00000,-325454272.00000,   0.00000
-166336302.62938,-105995112.20436,-19307058.11488,  -0.00055,  -0.00016,  -0.00025,149412240.00000,   0.00000,274640576.00000,   0.00000,   0.00000,   0.00000,-325228336.00000,   0.00000
-166683914.58829,-105674035.50949,-19360128.64296,  -0.00055,  -0.00016,  -0.00025,149648464.00000,   0.00000,274640576.00000,   0.00000,   0.00000,   0.00000,-324992112.00000,   0.00000
-167012951.86238,-105344998.23540,-19407892.11823,  -0.00055,  -0.00015,  -0.00025,149869168.00000,   0.00000,274640576.00000,   0.00000,   0.00000,   0.00000,-324771408.00000,   0.00000
-167341989.13646,-105015960.96132,-19460962.64631,  -0.00056,  -0.00015,  -0.00025,150093776.00000,   0.00000,274640576.00000,   0.00000,   0.00000,   0.00000,-324546800.00000,   0.00000
-167681640.51616,-104676309.58162,-19508726.12158,  -0.00056,  -0.00015,  -0.00025,150324848.00000,   0.00000,274640576.00000,   0.00000,   0.00000,   0.00000,-324315728.00000,   0.00000
-168002717.21104,-104328697.62271,-19556489.59685,  -0.00056,  -0.00015,  -0.00025,150542400.00000,   0.00000,274640576.00000,   0.00000,   0.00000,   0.00000,-324098176.00000,   0.00000
-168315833.32670,-103962510.97897,-19609560.12493,  -0.00056,  -0.00014,  -0.00025,150755312.00000,   0.00000,274640576.00000,   0.00000,   0.00000,   0.00000,-323885264.00000,   0.00000
-168610374.75753,-103588363.75601,-19657323.60020,  -0.00057,  -0.00014,  -0.00026,150952736.00000,   0.00000,274640576.00000,   0.00000,   0.00000,   0.00000,-323687840.00000,   0.00000
-168923490.87320,-103222177.11227,-19710394.12828,  -0.00057,  -0.00014,  -0.00026,151169472.00000,   0.00000,274640576.00000,   0.00000,   0.00000,   0.00000,-323471104.00000,   0.00000
-169228646.40965,-102837415.78371,-19758157.60355,  -0.00057,  -0.00014,  -0.00026,151377632.00000,   0.00000,274640576.00000,   0.00000,   0.00000,   0.00000,-323262944.00000,   0.00000
-169507266.68206,-102426119.19110,-19805921.07882,  -0.00057,  -0.00014,  -0.00026,151564000.00000,   0.00000,274640576.00000,   0.00000,   0.00000,   0.00000,-323076576.00000,   0.00000
-169812422.21851,-102041357.86253,-19858991.60690,  -0.00057,  -0.00013,  -0.00026,151778160.00000,   0.00000,274640576.00000,   0.00000,   0.00000,   0.00000,-322862416.00000,   0.00000
-170091042.49092,-101630061.26992,-19906755.08217,  -0.00058,  -0.00013,  -0.00026,151968544.00000,   0.00000,274640576.00000,   0.00000,   0.00000,   0.00000,-322672032.00000,   0.00000
-170361702.18412,-101200189.99249,-19959825.61024,  -0.00058,  -0.00013,  -0.00026,152154672.00000,   0.00000,274640576.00000,   0.00000,   0.00000,   0.00000,-322485904.00000,   0.00000
-170640322.45653,-100788893.39988,-20007589.08552,  -0.00058,  -0.00013,  -0.00026,152348928.00000,   0.00000,274640576.00000,   0.00000,   0.00000,   0.00000,-322291648.00000,   0.00000
-170903021.57052,-100340447.43762,-20060659.61359,  -0.00058,  -0.00012,  -0.00026,152531024.00000,   0.00000,274640576.00000,   0.00000,   0.00000,   0.00000,-322109552.00000,   0.00000
-171173681.26372,-99910576.16019,-20108423.08886,  -0.00058,  -0.00012,  -0.00026,152721360.00000,   0.00000,274640576.00000,   0.00000,   0.00000,   0.00000,-321919216.00000,   0.00000
-171436380.37770,-99462130.19793,-20161493.61694,  -0.00059,  -0.00012,  -0.00026,152907616.00000,   0.00000,274640576.00000,   0.00000,   0.00000,   0.00000,-321732960.00000,   0.00000
-171691118.91248,-98995109.55084,-20209257.09221,  -0.00059,  -0.00012,  -0.00026,153086176.00000,   0.00000,274640576.00000,   0.00000,   0.00000,   0.00000,-321554400.00000,   0.00000
-171935243.34164,-98538703.00936,-20262327.62029,  -0.00059,  -0.00011,  -0.00026,153261440.00000,   0.00000,274640576.00000,   0.00000,   0.00000,   0.00000,-321379136.00000,   0.00000
-172189981.87641,-98071682.36228,-20310091.09556,  -0.00059,  -0.00011,  -0.00026,153444480.00000,   0.00000,274640576.00000,   0.00000,   0.00000,   0.00000,-321196096.00000,   0.00000
-172418185.14715,-97578126.45115,-20363161.62364,  -0.00059,  -0.00011,  -0.00026,153608672.00000,   0.00000,274640576.00000,   0.00000,   0.00000,   0.00000,-321031904.00000,   0.00000
-172664963.10272,-97092531.11923,-20410925.09891,  -0.00060,  -0.00011,  -0.00027,153788832.00000,   0.00000,274640576.00000,   0.00000,   0.00000,   0.00000,-320851744.00000,   0.00000
-172893166.37345,-96598975.20810,-20463995.62699,  -0.00060,  -0.00010,  -0.00027,153958256.00000,   0.00000,274640576.00000,   0.00000,   0.00000,   0.00000,-320682320.00000,   0.00000
-173113409.06498,-96086844.61215,-20511759.10226,  -0.00060,  -0.00010,  -0.00027,154120704.00000,   0.00000,274640576.00000,   0.00000,   0.00000,   0.00000,-320519872.00000,   0.00000
-173341612.33571,-95593288.70102,-20564829.63034,  -0.00060,  -0.00010,  -0.00027,154295872.00000,   0.00000,274640576.00000,   0.00000,   0.00000,   0.00000,-320344704.00000,   0.00000
-173572469.13285,-95070543.99945,-20612593.10561,  -0.00060,  -0.00009,  -0.00027,154472432.00000,   0.00000,274640576.00000,   0.00000,   0.00000,   0.00000,-320168144.00000,   0.00000
-173792711.82438,-94558413.40349,-20665663.63369,  -0.00061,  -0.00009,  -0.00027,154646512.00000,   0.00000,274640576.00000,   0.00000,   0.00000,   0.00000,-319994064.00000,   0.00000
-174004993.93669,-94027708.12271,-20713427.10896,  -0.00061,  -0.00009,  -0.00027,154814464.00000,   0.00000,274640576.00000,   0.00000,   0.00000,   0.00000,-319826112.00000,   0.00000
-174190740.78497,-93470467.57789,-20766497.63703,  -0.00061,  -0.00009,  -0.00027,154965424.00000,   0.00000,274640576.00000,   0.00000,   0.00000,   0.00000,-319675152.00000,   0.00000
-174403022.89728,-92939762.29710,-20814261.11231,  -0.00061,  -0.00008,  -0.00027,155140944.00000,   0.00000,274640576.00000,   0.00000,   0.00000,   0.00000,-319499632.00000,   0.00000
-174607344.43038,-92390482.33149,-20867331.64038,  -0.00061,  -0.00008,  -0.00027,155315472.00000,   0.00000,274640576.00000,   0.00000,   0.00000,   0.00000,-319325104.00000,   0.00000
-174803705.38427,-91822627.68106,-20915095.11565,  -0.00062,  -0.00008,  -0.00027,155484864.00000,   0.00000,274640576.00000,   0.00000,   0.00000,   0.00000,-319155712.00000,   0.00000
-174981491.65333,-91246812.45141,-20968165.64373,  -0.00062,  -0.00007,  -0.00027,155644976.00000,   0.00000,274640576.00000,   0.00000,   0.00000,   0.00000,-318995600.00000,   0.00000
-175177852.60722,-90678957.80097,-21021236.17181,  -0.00062,  -0.00007,  -0.00027,155824848.00000,   0.00000,274640576.00000,   0.00000,   0.00000,   0.00000,-318815728.00000,   0.00000
-175374213.56111,-90111103.15053,-21068999.64708,  -0.00062,  -0.00007,  -0.00027,156006464.00000,   0.00000,274640576.00000,   0.00000,   0.00000,   0.00000,-318634112.00000,   0.00000
-175544039.25096,-89516713.23606,-21122070.17516,  -0.00062,  -0.00006,  -0.00027,156171968.00000,   0.00000,274640576.00000,   0.00000,   0.00000,   0.00000,-318468608.00000,   0.00000
-175732439.62564,-88930283.90079,-21169833.65043,  -0.00063,  -0.00006,  -0.00028,156354560.00000,   0.00000,274640576.00000,   0.00000,   0.00000,   0.00000,-318286016.00000,   0.00000
-175902265.31549,-88335893.98631,-21222904.17851,  -0.00063,  -0.00006,  -0.00028,156527424.00000,   0.00000,274640576.00000,   0.00000,   0.00000,   0.00000,-318113152.00000,   0.00000
-176064130.42613,-87722929.38701,-21270667.65378,  -0.00063,  -0.00006,  -0.00028,156695008.00000,   0.00000,274640576.00000,   0.00000,   0.00000,   0.00000,-317945568.00000,   0.00000
-176244570.22160,-87117925.36692,-21323738.18186,  -0.00063,  -0.00005,  -0.00028,156883488.00000,   0.00000,274640576.00000,   0.00000,   0.00000,   0.00000,-317757088.00000,   0.00000
-176406435.33223,-86504960.76761,-21371501.65713,  -0.00063,  -0.00005,  -0.00028,157057280.00000,   0.00000,274640576.00000,   0.00000,   0.00000,   0.00000,-317583296.00000,   0.00000
-176560339.86366,-85873421.48348,-21424572.18521,  -0.00064,  -0.00005,  -0.00028,157229776.00000,   0.00000,274640576.00000,   0.00000,   0.00000,   0.00000,-317410800.00000,   0.00000
-176714244.39509,-85241882.19935,-21472335.66048,  -0.00064,  -0.00004,  -0.00028,157402912.00000,   0.00000,274640576.00000,   0.00000,   0.00000,   0.00000,-317237664.00000,   0.00000
-176886723.61134,-84618303.49443,-21525406.18855,  -0.00064,  -0.00004,  -0.00028,157596208.00000,   0.00000,274640576.00000,   0.00000,   0.00000,   0.00000,-317044368.00000,   0.00000
-177032667.56356,-83968189.52547,-21573169.66382,  -0.00064,  -0.00004,  -0.00028,157768240.00000,   0.00000,274640576.00000,   0.00000,   0.00000,   0.00000,-316872336.00000,   0.00000
-177178611.51577,-83318075.55651,-21626240.19190,  -0.00064,  -0.00003,  -0.00028,157944768.00000,   0.00000,274640576.00000,   0.00000,   0.00000,   0.00000,-316695808.00000,   0.00000
-177324555.46799,-82667961.58755,-21674003.66717,  -0.00065,  -0.00003,  -0.00028,158121520.00000,   0.00000,274640576.00000,   0.00000,   0.00000,   0.00000,-316519056.00000,   0.00000
-177462538.84099,-81999272.93377,-21727074.19525,  -0.00065,  -0.00003,  -0.00028,158296752.00000,   0.00000,274640576.00000,   0.00000,   0.00000,   0.00000,-316343824.00000,   0.00000
-177608482.79321,-81349158.96481,-21774837.67052,  -0.00065,  -0.00002,  -0.00028,158478096.00000,   0.00000,274640576.00000,   0.00000,   0.00000,   0.00000,-316162480.00000,   0.00000
-177738505.58700,-80661895.62619,-21827908.19860,  -0.00065,  -0.00002,  -0.00028,158652224.00000,   0.00000,274640576.00000,   0.00000,   0.00000,   0.00000,-315988352.00000,   0.00000
-177876488.96000,-79993206.97241,-21875671.67387,  -0.00065,  -0.00002,  -0.00028,158832496.00000,   0.00000,274640576.00000,   0.00000,   0.00000,   0.00000,-315808080.00000,   0.00000
-178006511.75380,-79305943.63379,-21923435.14914,  -0.00066,  -0.00001,  -0.00029,159009456.00000,   0.00000,274640576.00000,   0.00000,   0.00000,   0.00000,-315631120.00000,   0.00000
-178136534.54759,-78618680.29518,-21976505.67722,  -0.00066,  -0.00001,  -0.00029,159191088.00000,   0.00000,274640576.00000,   0.00000,   0.00000,   0.00000,-315449488.00000,   0.00000
-178266557.34138,-77931416.95656,-22024269.15249,  -0.00066,  -0.00001,  -0.00029,159373264.00000,   0.00000,274640576.00000,   0.00000,   0.00000,   0.00000,-315267312.00000,   0.00000
-178388619.55596,-77225578.93312,-22077339.68057,  -0.00066,  -0.00000,  -0.00029,159554736.00000,   0.00000,274640576.00000,   0.00000,   0.00000,   0.00000,-315085840.00000,   0.00000
-178518642.34975,-76538315.59451,-22125103.15584,  -0.00066,  -0.00000,  -0.00029,159742544.00000,   0.00000,274640576.00000,   0.00000,   0.00000,   0.00000,-314898032.00000,   0.00000
-178632743.98512,-75813902.88624,-22172866.63111,  -0.00066,   0.00000,  -0.00029,159922224.00000,   0.00000,274640576.00000,   0.00000,   0.00000,   0.00000,-314718352.00000,   0.00000
-178736231.51487,-75100104.28359,-22220630.10638,  -0.00067,   0.00001,  -0.00029,160094752.00000,   0.00000,274640576.00000,   0.00000,   0.00000,   0.00000,-314545824.00000,   0.00000
-178850333.15024,-74375691.57532,-22273700.63446,  -0.00067,   0.00001,  -0.00029,160282992.00000,   0.00000,274640576.00000,   0.00000,   0.00000,   0.00000,-314357584.00000,   0.00000
-178964434.78561,-73651278.86705,-22321464.10973,  -0.00067,   0.00001,  -0.00029,160472368.00000,   0.00000,274640576.00000,   0.00000,   0.00000,   0.00000,-314168208.00000,   0.00000
-179078536.42098,-72926866.15878,-22369227.58500,  -0.00067,   0.00002,  -0.00029,160665120.00000,   0.00000,274640576.00000,   0.00000,   0.00000,   0.00000,-313975456.00000,   0.00000
-179192638.05634,-72202453.45051,-22416991.06027,  -0.00067,   0.00002,  -0.00029,160861184.00000,   0.00000,274640576.00000,   0.00000,   0.00000,   0.00000,-313779392.00000,   0.00000
-179298779.11250,-71459466.05742,-22470061.58835,  -0.00068,   0.00002,  -0.00029,161058048.00000,   0.00000,274640576.00000,   0.00000,   0.00000,   0.00000,-313582528.00000,   0.00000
-179404920.16866,-70716478.66432,-22517825.06362,  -0.00068,   0.00003,  -0.00029,161256240.00000,   0.00000,274640576.00000,   0.00000,   0.00000,   0.00000,-313384336.00000,   0.00000
-179511061.22481,-69973491.27122,-22565588.53889,  -0.00068,   0.00003,  -0.00029,161458176.00000,   0.00000,274640576.00000,   0.00000,   0.00000,   0.00000,-313182400.00000,   0.00000
-179609241.70176,-69211929.19330,-22613352.01416,  -0.00068,   0.00004,  -0.00029,161659104.00000,   0.00000,274640576.00000,   0.00000,   0.00000,   0.00000,-312981472.00000,   0.00000
-179696808.07309,-68460981.22099,-22661115.48943,  -0.00068,   0.00004,  -0.00029,161852992.00000,   0.00000,274640576.00000,   0.00000,   0.00000,   0.00000,-312787584.00000,   0.00000
-179794988.55003,-67699419.14307,-22708878.96470,  -0.00069,   0.00004,  -0.00030,162061584.00000,   0.00000,274640576.00000,   0.00000,   0.00000,   0.00000,-312578992.00000,   0.00000
-179885208.44777,-66919282.38032,-22756642.43997,  -0.00069,   0.00005,  -0.00030,162269616.00000,   0.00000,274640576.00000,   0.00000,   0.00000,   0.00000,-312370960.00000,   0.00000
-179983388.92471,-66157720.30240,-22804405.91524,  -0.00069,   0.00005,  -0.00030,162486176.00000,   0.00000,274640576.00000,   0.00000,   0.00000,   0.00000,-312154400.00000,   0.00000
-180073608.82244,-65377583.53965,-22852169.39051,  -0.00069,   0.00005,  -0.00030,162702288.00000,   0.00000,274640576.00000,   0.00000,   0.00000,   0.00000,-311938288.00000,   0.00000
-180163828.72018,-64597446.77689,-22899932.86578,  -0.00069,   0.00006,  -0.00030,162922624.00000,   0.00000,274640576.00000,   0.00000,   0.00000,   0.00000,-311717952.00000,   0.00000
-180254048.61791,-63817310.01414,-22942389.28824,  -0.00070,   0.00006,  -0.00030,163144720.00000,   0.00000,274640576.00000,   0.00000,   0.00000,   0.00000,-311495856.00000,   0.00000
-180336307.93643,-63018598.56657,-22990152.76352,  -0.00070,   0.00006,  -0.00030,163368928.00000,   0.00000,274640576.00000,   0.00000,   0.00000,   0.00000,-311271648.00000,   0.00000
-180426527.83417,-62238461.80381,-23037916.23879,  -0.00070,   0.00007,  -0.00030,163601600.00000,   0.00000,274640576.00000,   0.00000,   0.00000,   0.00000,-311038976.00000,   0.00000
-180508787.15269,-61439750.35624,-23085679.71406,  -0.00070,   0.00007,  -0.00030,163834208.00000,   0.00000,274640576.00000,   0.00000,   0.00000,   0.00000,-310806368.00000,   0.00000
-180591046.47121,-60641038.90866,-23128136.13652,  -0.00070,   0.00008,  -0.00030,164068768.00000,   0.00000,274640576.00000,   0.00000,   0.00000,   0.00000,-310571808.00000,   0.00000
-180665345.21052,-59823752.77625,-23175899.61179,  -0.00071,   0.00008,  -0.00030,164305872.00000,   0.00000,274640576.00000,   0.00000,   0.00000,   0.00000,-310334704.00000,   0.00000
-180766179.21387,-59033001.90789,-23218356.03425,  -0.00071,   0.00008,  -0.00030,164564432.00000,   0.00000,274640576.00000,   0.00000,   0.00000,   0.00000,-310076144.00000,   0.00000
-180840477.95318,-58215715.77548,-23266119.50952,  -0.00071,   0.00009,  -0.00030,164810064.00000,   0.00000,274640576.00000,   0.00000,   0.00000,   0.00000,-309830512.00000,   0.00000
-180914776.69249,-57398429.64307,-23308575.93198,  -0.00071,   0.00009,  -0.00030,165057648.00000,   0.00000,274640576.00000,   0.00000,   0.00000,   0.00000,-309582928.00000,   0.00000
-180989075.43179,-56581143.51067,-23356339.40726,  -0.00071,   0.00010,  -0.00030,165311680.00000,   0.00000,274640576.00000,   0.00000,   0.00000,   0.00000,-309328896.00000,   0.00000
-181063374.17110,-55763857.37826,-23398795.82972,  -0.00072,   0.00010,  -0.00030,165567648.00000,   0.00000,274640576.00000,   0.00000,   0.00000,   0.00000,-309072928.00000,   0.00000
-181148287.01603,-54935957.14024,-23441252.25218,  -0.00072,   0.00010,  -0.00030,165839824.00000,   0.00000,274640576.00000,   0.00000,   0.00000,   0.00000,-308800752.00000,   0.00000
-181214625.17613,-54100096.32301,-23483708.67464,  -0.00072,   0.00011,  -0.00031,166100800.00000,   0.00000,274640576.00000,   0.00000,   0.00000,   0.00000,-308539776.00000,   0.00000
-181280963.33623,-53264235.50578,-23526165.09711,  -0.00072,   0.00011,  -0.00031,166365952.00000,   0.00000,274640576.00000,   0.00000,   0.00000,   0.00000,-308274624.00000,   0.00000
-181365876.18115,-52436335.26775,-23568621.51957,  -0.00072,   0.00012,  -0.00031,166650656.00000,   0.00000,274640576.00000,   0.00000,   0.00000,   0.00000,-307989920.00000,   0.00000
-181432214.34125,-51600474.45052,-23611077.94203,  -0.00072,   0.00012,  -0.00031,166924128.00000,   0.00000,274640576.00000,   0.00000,   0.00000,   0.00000,-307716448.00000,   0.00000
-181509166.60696,-50753999.52767,-23653534.36449,  -0.00073,   0.00012,  -0.00031,167214032.00000,   0.00000,274640576.00000,   0.00000,   0.00000,   0.00000,-307426544.00000,   0.00000
-181567544.18785,-49899564.02561,-23695990.78696,  -0.00073,   0.00013,  -0.00031,167492656.00000,   0.00000,274640576.00000,   0.00000,   0.00000,   0.00000,-307147920.00000,   0.00000
-181644496.45356,-49053089.10276,-23738447.20942,  -0.00073,   0.00013,  -0.00031,167790912.00000,   0.00000,274640576.00000,   0.00000,   0.00000,   0.00000,-306849664.00000,   0.00000
-181721448.71928,-48206614.17991,-23780903.63188,  -0.00073,   0.00014,  -0.00031,168093200.00000,   0.00000,274640576.00000,   0.00000,   0.00000,   0.00000,-306547376.00000,   0.00000
-181779826.30016,-47352178.67785,-23818053.00154,  -0.00073,   0.00014,  -0.00031,168381952.00000,   0.00000,274640576.00000,   0.00000,   0.00000,   0.00000,-306258624.00000,   0.00000
-181856778.56587,-46505703.75501,-23860509.42400,  -0.00074,   0.00014,  -0.00031,168692272.00000,   0.00000,274640576.00000,   0.00000,   0.00000,   0.00000,-305948304.00000,   0.00000
-181925770.25238,-45640654.14733,-23897658.79365,  -0.00074,   0.00015,  -0.00031,169001808.00000,   0.00000,274640576.00000,   0.00000,   0.00000,   0.00000,-305638768.00000,   0.00000
-181976187.25405,-44767643.96044,-23940115.21612,  -0.00074,   0.00015,  -0.00031,169302256.00000,   0.00000,274640576.00000,   0.00000,   0.00000,   0.00000,-305338320.00000,   0.00000
-182045178.94055,-43902594.35277,-23977264.58577,  -0.00074,   0.00016,  -0.00031,169619920.00000,   0.00000,274640576.00000,   0.00000,   0.00000,   0.00000,-305020656.00000,   0.00000
-182114170.62705,-43037544.74509,-24014413.95543,  -0.00074,   0.00016,  -0.00031,169941632.00000,   0.00000,274640576.00000,   0.00000,   0.00000,   0.00000,-304698944.00000,   0.00000
-182183162.31356,-42172495.13741,-24051563.32508,  -0.00075,   0.00016,  -0.00031,170267328.00000,   0.00000,274640576.00000,   0.00000,   0.00000,   0.00000,-304373248.00000,   0.00000
-182244193.42085,-41288870.84491,-24088712.69474,  -0.00075,   0.00017,  -0.00031,170594736.00000,   0.00000,274640576.00000,   0.00000,   0.00000,   0.00000,-304045840.00000,   0.00000
-182313185.10735,-40423821.23723,-24125862.06439,  -0.00075,   0.00017,  -0.00031,170928400.00000,   0.00000,274640576.00000,   0.00000,   0.00000,   0.00000,-303712176.00000,   0.00000
-182374216.21464,-39540196.94473,-24163011.43405,  -0.00075,   0.00018,  -0.00031,171263936.00000,   0.00000,274640576.00000,   0.00000,   0.00000,   0.00000,-303376640.00000,   0.00000
-182453822.00676,-38664533.23144,-24200160.80370,  -0.00075,   0.00018,  -0.00031,171618832.00000,   0.00000,274640576.00000,   0.00000,   0.00000,   0.00000,-303021744.00000,   0.00000
-182514853.11405,-37780908.93893,-24232003.12055,  -0.00076,   0.00018,  -0.00032,171960160.00000,   0.00000,274640576.00000,   0.00000,   0.00000,   0.00000,-302680416.00000,   0.00000
-182575884.22134,-36897284.64643,-24269152.49020,  -0.00076,   0.00019,  -0.00032,172307776.00000,   0.00000,274640576.00000,   0.00000,   0.00000,   0.00000,-302332800.00000,   0.00000
-182628954.74941,-35995085.66910,-24300994.80705,  -0.00076,   0.00019,  -0.00032,172655520.00000,   0.00000,274640576.00000,   0.00000,   0.00000,   0.00000,-301985056.00000,   0.00000
-182708560.54153,-35119421.95581,-24338144.17670,  -0.00076,   0.00020,  -0.00032,173026336.00000,   0.00000,274640576.00000,   0.00000,   0.00000,   0.00000,-301614240.00000,   0.00000
-182761631.06961,-34217222.97848,-24369986.49355,  -0.00076,   0.00020,  -0.00032,173382304.00000,   0.00000,274640576.00000,   0.00000,   0.00000,   0.00000,-301258272.00000,   0.00000
-182841236.86173,-33341559.26519,-24401828.81040,  -0.00077,   0.00020,  -0.00032,173758960.00000,   0.00000,274640576.00000,   0.00000,   0.00000,   0.00000,-300881616.00000,   0.00000
-182894307.38981,-32439360.28785,-24433671.12724,  -0.00077,   0.00021,  -0.00032,174123072.00000,   0.00000,274640576.00000,   0.00000,   0.00000,   0.00000,-300517504.00000,   0.00000
-182965952.60271,-31545121.88974,-24465513.44409,  -0.00077,   0.00021,  -0.00032,174506416.00000,   0.00000,274640576.00000,   0.00000,   0.00000,   0.00000,-300134160.00000,   0.00000
-183037597.81562,-30650883.49162,-24497355.76094,  -0.00077,   0.00022,  -0.00032,174893920.00000,   0.00000,274640576.00000,   0.00000,   0.00000,   0.00000,-299746656.00000,   0.00000
-183101282.44931,-29738070.40867,-24529198.07779,  -0.00078,   0.00022,  -0.00032,175284320.00000,   0.00000,274640576.00000,   0.00000,   0.00000,   0.00000,-299356256.00000,   0.00000
-183154352.97739,-28835871.43134,-24555733.34182,  -0.00078,   0.00023,  -0.00032,175662880.00000,   0.00000,274640576.00000,   0.00000,   0.00000,   0.00000,-298977696.00000,   0.00000
-183225998.19029,-27941633.03322,-24587575.65867,  -0.00078,   0.00023,  -0.00032,176062688.00000,   0.00000,274640576.00000,   0.00000,   0.00000,   0.00000,-298577888.00000,   0.00000
-183289682.82399,-27028819.95027,-24614110.92271,  -0.00078,   0.00023,  -0.00032,176463584.00000,   0.00000,274640576.00000,   0.00000,   0.00000,   0.00000,-298176992.00000,   0.00000
-183353367.45768,-26116006.86733,-24640646.18675,  -0.00078,   0.00024,  -0.00032,176868720.00000,   0.00000,274640576.00000,   0.00000,   0.00000,   0.00000,-297771856.00000,   0.00000
-183417052.09138,-25203193.78438,-24672488.50360,  -0.00079,   0.00024,  -0.00032,177280432.00000,   0.00000,274640576.00000,   0.00000,   0.00000,   0.00000,-297360144.00000,   0.00000
-183488697.30428,-24308955.38626,-24699023.76764,  -0.00079,   0.00025,  -0.00032,177694864.00000,   0.00000,274640576.00000,   0.00000,   0.00000,   0.00000,-296945712.00000,   0.00000
-183570956.62280,-23404102.88253,-24720251.97887,  -0.00079,   0.00025,  -0.00032,178125488.00000,   0.00000,274640576.00000,   0.00000,   0.00000,   0.00000,-296515088.00000,   0.00000
-183626680.67729,-22472715.11475,-24746787.24291,  -0.00079,   0.00026,  -0.00032,178547168.00000,   0.00000,274640576.00000,   0.00000,   0.00000,   0.00000,-296093408.00000,   0.00000
-183690365.31098,-21559902.03181,-24773322.50695,  -0.00079,   0.00026,  -0.00032,178973664.00000,   0.00000,274640576.00000,   0.00000,   0.00000,   0.00000,-295666912.00000,   0.00000
-183772624.62950,-20655049.52807,-24794550.71818,  -0.00080,   0.00026,  -0.00032,179417136.00000,   0.00000,274640576.00000,   0.00000,   0.00000,   0.00000,-295223440.00000,   0.00000
-183836309.26320,-19742236.44512,-24821085.98222,  -0.00080,   0.00027,  -0.00032,179852160.00000,   0.00000,274640576.00000,   0.00000,   0.00000,   0.00000,-294788416.00000,   0.00000
-183910608.00250,-18818809.25656,-24842314.19345,  -0.00080,   0.00027,  -0.00032,180303968.00000,   0.00000,274640576.00000,   0.00000,   0.00000,   0.00000,-294336608.00000,   0.00000
-183974292.63620,-17905996.17361,-24863542.40468,  -0.00080,   0.00028,  -0.00032,180745328.00000,   0.00000,274640576.00000,   0.00000,   0.00000,   0.00000,-293895248.00000,   0.00000
-184048591.37551,-16982568.98505,-24884770.61591,  -0.00080,   0.00028,  -0.00032,181205680.00000,   0.00000,274640576.00000,   0.00000,   0.00000,   0.00000,-293434896.00000,   0.00000
-184122890.11482,-16059141.79649,-24905998.82714,  -0.00081,   0.00029,  -0.00032,181670336.00000,   0.00000,274640576.00000,   0.00000,   0.00000,   0.00000,-292970240.00000,   0.00000
-184205149.43334,-15154289.29276,-24921919.98556,  -0.00081,   0.00029,  -0.00032,182136896.00000,   0.00000,274640576.00000,   0.00000,   0.00000,   0.00000,-292503680.00000,   0.00000
-184279448.17265,-14230862.10419,-24943148.19680,  -0.00081,   0.00029,  -0.00032,182609968.00000,   0.00000,274640576.00000,   0.00000,   0.00000,   0.00000,-292030608.00000,   0.00000
-184353746.91196,-13307434.91563,-24959069.35522,  -0.00081,   0.00030,  -0.00032,183084976.00000,   0.00000,274640576.00000,   0.00000,   0.00000,   0.00000,-291555600.00000,   0.00000
-184428045.65127,-12384007.72707,-24974990.51364,  -0.00081,   0.00030,  -0.00032,183564160.00000,   0.00000,274640576.00000,   0.00000,   0.00000,   0.00000,-291076416.00000,   0.00000
-184502344.39058,-11460580.53851,-24990911.67207,  -0.00082,   0.00031,  -0.00032,184047616.00000,   0.00000,274640576.00000,   0.00000,   0.00000,   0.00000,-290592960.00000,   0.00000
-184576643.12989,-10537153.34994,-25006832.83049,  -0.00082,   0.00031,  -0.00033,184535056.00000,   0.00000,274640576.00000,   0.00000,   0.00000,   0.00000,-290105520.00000,   0.00000
-184642981.28999,-9595151.47655,-25022753.98891,  -0.00082,   0.00032,  -0.00033,185027152.00000,   0.00000,274640576.00000,   0.00000,   0.00000,   0.00000,-289613424.00000,   0.00000
-184717280.02929,-8671724.28799,-25038675.14734,  -0.00082,   0.00032,  -0.00033,185522688.00000,   0.00000,274640576.00000,   0.00000,   0.00000,   0.00000,-289117888.00000,   0.00000
-184810153.45343,-7756257.67864,-25049289.25295,  -0.00083,   0.00033,  -0.00033,186034400.00000,   0.00000,274640576.00000,   0.00000,   0.00000,   0.00000,-288606176.00000,   0.00000
-184884452.19274,-6832830.49008,-25059903.35857,  -0.00083,   0.00033,  -0.00033,186535552.00000,   0.00000,274640576.00000,   0.00000,   0.00000,   0.00000,-288105024.00000,   0.00000
-184969365.03767,-5898789.19590,-25070517.46418,  -0.00083,   0.00033,  -0.00033,187055744.00000,   0.00000,274640576.00000,   0.00000,   0.00000,   0.00000,-287584832.00000,   0.00000
-185043663.77698,-4975362.00734,-25081131.56980,  -0.00083,   0.00034,  -0.00033,187564560.00000,   0.00000,274640576.00000,   0.00000,   0.00000,   0.00000,-287076016.00000,   0.00000
-185128576.62190,-4041320.71316,-25091745.67542,  -0.00083,   0.00034,  -0.00033,188092416.00000,   0.00000,274640576.00000,   0.00000,   0.00000,   0.00000,-286548160.00000,   0.00000
-185202875.36121,-3117893.52460,-25102359.78103,  -0.00084,   0.00035,  -0.00033,188608464.00000,   0.00000,274640576.00000,   0.00000,   0.00000,   0.00000,-286032112.00000,   0.00000
-185287788.20614,-2183852.23042,-25107666.83384,  -0.00084,   0.00035,  -0.00033,189141504.00000,   0.00000,274640576.00000,   0.00000,   0.00000,   0.00000,-285499072.00000,   0.00000
-185380661.63027,-1268385.62107,-25112973.88665,  -0.00084,   0.00036,  -0.00033,189676864.00000,   0.00000,274640576.00000,   0.00000,   0.00000,   0.00000,-284963712.00000,   0.00000
-185465574.47520,-334344.32689,-25123587.99226,  -0.00084,   0.00036,  -0.00033,190219040.00000,   0.00000,274640576.00000,   0.00000,   0.00000,   0.00000,-284421536.00000,   0.00000
-185558447.89934,581122.28246,-25128895.04507,  -0.00085,   0.00036,  -0.00033,190761072.00000,   0.00000,274640576.00000,   0.00000,   0.00000,   0.00000,-283879504.00000,   0.00000
-185643360.74426,1515163.57664,-25128895.04507,  -0.00085,   0.00037,  -0.00033,191305808.00000,   0.00000,274640576.00000,   0.00000,   0.00000,   0.00000,-283334768.00000,   0.00000
-185728273.58919,2449204.87081,-25134202.09788,  -0.00085,   0.00037,  -0.00033,191856048.00000,   0.00000,274640576.00000,   0.00000,   0.00000,   0.00000,-282784528.00000,   0.00000
-185821147.01332,3364671.48016,-25134202.09788,  -0.00085,   0.00038,  -0.00033,192405888.00000,   0.00000,274640576.00000,   0.00000,   0.00000,   0.00000,-282234688.00000,   0.00000
-185906059.85825,4298712.77434,-25134202.09788,  -0.00085,   0.00038,  -0.00033,192960432.00000,   0.00000,274640576.00000,   0.00000,   0.00000,   0.00000,-281680144.00000,   0.00000
-185990972.70317,5232754.06852,-25134202.09788,  -0.00086,   0.00039,  -0.00033,193518320.00000,   0.00000,274640576.00000,   0.00000,   0.00000,   0.00000,-281122256.00000,   0.00000
-186102420.81214,6140260.09866,-25134202.09788,  -0.00086,   0.00039,  -0.00033,194091424.00000,   0.00000,274640576.00000,   0.00000,   0.00000,   0.00000,-280549152.00000,   0.00000
-186187333.65706,7074301.39284,-25134202.09788,  -0.00086,   0.00040,  -0.00033,194655360.00000,   0.00000,274640576.00000,   0.00000,   0.00000,   0.00000,-279985216.00000,   0.00000
-186290821.18682,8000382.10780,-25128895.04507,  -0.00086,   0.00040,  -0.00033,195234256.00000,   0.00000,274640576.00000,   0.00000,   0.00000,   0.00000,-279406320.00000,   0.00000
-186375734.03174,8934423.40198,-25128895.04507,  -0.00087,   0.00040,  -0.00033,195804320.00000,   0.00000,274640576.00000,   0.00000,   0.00000,   0.00000,-278836256.00000,   0.00000
-186487182.14071,9841929.43212,-25123587.99226,  -0.00087,   0.00041,  -0.00033,196387088.00000,   0.00000,274640576.00000,   0.00000,   0.00000,   0.00000,-278253488.00000,   0.00000
-186572094.98563,10775970.72630,-25118280.93945,  -0.00087,   0.00041,  -0.00033,196960896.00000,   0.00000,274640576.00000,   0.00000,   0.00000,   0.00000,-277679680.00000,   0.00000
-186675582.51538,11702051.44126,-25107666.83384,  -0.00087,   0.00042,  -0.00033,197549488.00000,   0.00000,274640576.00000,   0.00000,   0.00000,   0.00000,-277091088.00000,   0.00000
-186779070.04514,12628132.15623,-25102359.78103,  -0.00087,   0.00042,  -0.00033,198142944.00000,   0.00000,274640576.00000,   0.00000,   0.00000,   0.00000,-276497632.00000,   0.00000
-186871943.46927,13543598.76558,-25091745.67542,  -0.00088,   0.00043,  -0.00033,198721088.00000,   0.00000,274640576.00000,   0.00000,   0.00000,   0.00000,-275919488.00000,   0.00000
-186975430.99903,14469679.48055,-25081131.56980,  -0.00088,   0.00043,  -0.00033,199318112.00000,   0.00000,274640576.00000,   0.00000,   0.00000,   0.00000,-275322464.00000,   0.00000
-187078918.52878,15395760.19551,-25070517.46418,  -0.00088,   0.00043,  -0.00033,199917936.00000,   0.00000,274640576.00000,   0.00000,   0.00000,   0.00000,-274722640.00000,   0.00000
-187190366.63774,16303266.22565,-25059903.35857,  -0.00088,   0.00044,  -0.00033,200518096.00000,   0.00000,274640576.00000,   0.00000,   0.00000,   0.00000,-274122480.00000,   0.00000
-187293854.16750,17229346.94062,-25043982.20014,  -0.00089,   0.00044,  -0.00033,201121360.00000,   0.00000,274640576.00000,   0.00000,   0.00000,   0.00000,-273519216.00000,   0.00000
-187397341.69725,18155427.65558,-25033368.09453,  -0.00089,   0.00045,  -0.00033,201729344.00000,   0.00000,274640576.00000,   0.00000,   0.00000,   0.00000,-272911232.00000,   0.00000
-187508789.80621,19062933.68572,-25017446.93611,  -0.00089,   0.00045,  -0.00033,202335616.00000,   0.00000,274640576.00000,   0.00000,   0.00000,   0.00000,-272304960.00000,   0.00000
-187612277.33597,19989014.40069,-25001525.77768,  -0.00089,   0.00046,  -0.00033,202947072.00000,   0.00000,274640576.00000,   0.00000,   0.00000,   0.00000,-271693504.00000,   0.00000
-187723725.44493,20896520.43083,-24980297.56645,  -0.00089,   0.00046,  -0.00032,203556480.00000,   0.00000,274640576.00000,   0.00000,   0.00000,   0.00000,-271084096.00000,   0.00000
-187827212.97468,21822601.14579,-24964376.40803,  -0.00090,   0.00047,  -0.00032,204173440.00000,   0.00000,274640576.00000,   0.00000,   0.00000,   0.00000,-270467136.00000,   0.00000
-187957235.76847,22722146.59672,-24943148.19680,  -0.00090,   0.00047,  -0.00032,204801840.00000,   0.00000,274640576.00000,   0.00000,   0.00000,   0.00000,-269838736.00000,   0.00000
-188068683.87744,23629652.62686,-24921919.98556,  -0.00090,   0.00047,  -0.00032,205419040.00000,   0.00000,274640576.00000,   0.00000,   0.00000,   0.00000,-269221536.00000,   0.00000
-188172171.40719,24555733.34182,-24900691.77433,  -0.00090,   0.00048,  -0.00032,206042016.00000,   0.00000,274640576.00000,   0.00000,   0.00000,   0.00000,-268598560.00000,   0.00000
-188283619.51616,25463239.37196,-24874156.51029,  -0.00091,   0.00048,  -0.00032,206662752.00000,   0.00000,274640576.00000,   0.00000,   0.00000,   0.00000,-267977824.00000,   0.00000
-188413642.30995,26362784.82289,-24852928.29906,  -0.00091,   0.00049,  -0.00032,207301376.00000,   0.00000,274640576.00000,   0.00000,   0.00000,   0.00000,-267339200.00000,   0.00000
-188517129.83970,27288865.53786,-24826393.03502,  -0.00091,   0.00049,  -0.00032,207930352.00000,   0.00000,274640576.00000,   0.00000,   0.00000,   0.00000,-266710224.00000,   0.00000
-188647152.63349,28188410.98878,-24799857.77098,  -0.00091,   0.00050,  -0.00032,208572256.00000,   0.00000,274640576.00000,   0.00000,   0.00000,   0.00000,-266068320.00000,   0.00000
-188758600.74246,29095917.01892,-24773322.50695,  -0.00092,   0.00050,  -0.00032,209203280.00000,   0.00000,274640576.00000,   0.00000,   0.00000,   0.00000,-265437296.00000,   0.00000
-188888623.53625,29995462.46985,-24741480.19010,  -0.00092,   0.00050,  -0.00032,209848512.00000,   0.00000,274640576.00000,   0.00000,   0.00000,   0.00000,-264792064.00000,   0.00000
-189000071.64521,30902968.49999,-24709637.87325,  -0.00092,   0.00051,  -0.00032,210482800.00000,   0.00000,274640576.00000,   0.00000,   0.00000,   0.00000,-264157776.00000,   0.00000
-189130094.43900,31802513.95092,-24677795.55640,  -0.00092,   0.00051,  -0.00032,211133136.00000,   0.00000,274640576.00000,   0.00000,   0.00000,   0.00000,-263507440.00000,   0.00000
-189241542.54797,32710019.98105,-24645953.23956,  -0.00092,   0.00052,  -0.00032,211772720.00000,   0.00000,274640576.00000,   0.00000,   0.00000,   0.00000,-262867856.00000,   0.00000
-189379525.92097,33590990.74715,-24614110.92271,  -0.00093,   0.00052,  -0.00032,212424496.00000,   0.00000,274640576.00000,   0.00000,   0.00000,   0.00000,-262216080.00000,   0.00000
-189509548.71476,34490536.19808,-24576961.55306,  -0.00093,   0.00053,  -0.00032,213080560.00000,   0.00000,274640576.00000,   0.00000,   0.00000,   0.00000,-261560016.00000,   0.00000
-189620996.82373,35398042.22822,-24539812.18340,  -0.00093,   0.00053,  -0.00032,213725856.00000,   0.00000,274640576.00000,   0.00000,   0.00000,   0.00000,-260914720.00000,   0.00000
-189758980.19673,36279012.99432,-24502662.81375,  -0.00093,   0.00054,  -0.00032,214383376.00000,   0.00000,274640576.00000,   0.00000,   0.00000,   0.00000,-260257200.00000,   0.00000
-189889002.99052,37178558.44525,-24465513.44409,  -0.00094,   0.00054,  -0.00032,215046992.00000,   0.00000,274640576.00000,   0.00000,   0.00000,   0.00000,-259593584.00000,   0.00000
-190008411.67870,38067489.79056,-24423057.02163,  -0.00094,   0.00054,  -0.00032,215694512.00000,   0.00000,274640576.00000,   0.00000,   0.00000,   0.00000,-258946064.00000,   0.00000
-190146395.05170,38948460.55666,-24380600.59917,  -0.00094,   0.00055,  -0.00032,216357520.00000,   0.00000,274640576.00000,   0.00000,   0.00000,   0.00000,-258283056.00000,   0.00000
-190276417.84550,39848006.00758,-24338144.17670,  -0.00094,   0.00055,  -0.00032,217026656.00000,   0.00000,274640576.00000,   0.00000,   0.00000,   0.00000,-257613920.00000,   0.00000
-190395826.53367,40736937.35290,-24295687.75424,  -0.00095,   0.00056,  -0.00032,217681488.00000,   0.00000,274640576.00000,   0.00000,   0.00000,   0.00000,-256959088.00000,   0.00000
-190533809.90668,41617908.11899,-24247924.27897,  -0.00095,   0.00056,  -0.00032,218350112.00000,   0.00000,274640576.00000,   0.00000,   0.00000,   0.00000,-256290464.00000,   0.00000
-190671793.27968,42498878.88509,-24200160.80370,  -0.00095,   0.00057,  -0.00031,219020848.00000,   0.00000,274640576.00000,   0.00000,   0.00000,   0.00000,-255619728.00000,   0.00000
-190809776.65268,43379849.65119,-24152397.32843,  -0.00095,   0.00057,  -0.00031,219694080.00000,   0.00000,274640576.00000,   0.00000,   0.00000,   0.00000,-254946496.00000,   0.00000
-190937145.92007,44250206.31168,-24104633.85316,  -0.00096,   0.00057,  -0.00031,220352480.00000,   0.00000,274640576.00000,   0.00000,   0.00000,   0.00000,-254288096.00000,   0.00000
-191075129.29307,45131177.07778,-24056870.37789,  -0.00096,   0.00058,  -0.00031,221030240.00000,   0.00000,274640576.00000,   0.00000,   0.00000,   0.00000,-253610336.00000,   0.00000
-191213112.66608,46012147.84388,-24003799.84981,  -0.00096,   0.00058,  -0.00031,221708352.00000,   0.00000,274640576.00000,   0.00000,   0.00000,   0.00000,-252932224.00000,   0.00000
-191359056.61829,46874543.92515,-23950729.32173,  -0.00096,   0.00059,  -0.00031,222384416.00000,   0.00000,274640576.00000,   0.00000,   0.00000,   0.00000,-252256160.00000,   0.00000
-191486425.88568,47744900.58563,-23892351.74085,  -0.00096,   0.00059,  -0.00031,223048048.00000,   0.00000,274640576.00000,   0.00000,   0.00000,   0.00000,-251592528.00000,   0.00000
-191624409.25868,48625871.35173,-23839281.21277,  -0.00097,   0.00059,  -0.00031,223732448.00000,   0.00000,274640576.00000,   0.00000,   0.00000,   0.00000,-250908128.00000,   0.00000
-191770353.21090,49488267.43301,-23780903.63188,  -0.00097,   0.00060,  -0.00031,224412896.00000,   0.00000,274640576.00000,   0.00000,   0.00000,   0.00000,-250227680.00000,   0.00000
-191916297.16311,50350663.51428,-23722526.05100,  -0.00097,   0.00060,  -0.00031,225095024.00000,   0.00000,274640576.00000,   0.00000,   0.00000,   0.00000,-249545552.00000,   0.00000
-192043666.43050,51221020.17476,-23664148.47011,  -0.00097,   0.00061,  -0.00031,225766384.00000,   0.00000,274640576.00000,   0.00000,   0.00000,   0.00000,-248874192.00000,   0.00000
-192197570.96193,52064841.57121,-23600463.83642,  -0.00098,   0.00061,  -0.00031,226446032.00000,   0.00000,274640576.00000,   0.00000,   0.00000,   0.00000,-248194544.00000,   0.00000
-192343514.91414,52927237.65248,-23542086.25553,  -0.00098,   0.00062,  -0.00031,227133584.00000,   0.00000,274640576.00000,   0.00000,   0.00000,   0.00000,-247506992.00000,   0.00000
-192478844.76074,53779019.62813,-23478401.62184,  -0.00098,   0.00062,  -0.00031,227803808.00000,   0.00000,274640576.00000,   0.00000,   0.00000,   0.00000,-246836768.00000,   0.00000
-192624788.71296,54641415.70941,-23409409.93533,  -0.00098,   0.00062,  -0.00030,228491440.00000,   0.00000,274640576.00000,   0.00000,   0.00000,   0.00000,-246149136.00000,   0.00000
-192760118.55956,55493197.68506,-23345725.30164,  -0.00099,   0.00063,  -0.00030,229164992.00000,   0.00000,274640576.00000,   0.00000,   0.00000,   0.00000,-245475584.00000,   0.00000
-192914023.09099,56337019.08151,-23276733.61514,  -0.00099,   0.00063,  -0.00030,229851168.00000,   0.00000,274640576.00000,   0.00000,   0.00000,   0.00000,-244789408.00000,   0.00000
-193049352.93759,57188801.05716,-23207741.92864,  -0.00099,   0.00064,  -0.00030,230526432.00000,   0.00000,274640576.00000,   0.00000,   0.00000,   0.00000,-244114144.00000,   0.00000
-193203257.46901,58032622.45361,-23133443.18933,  -0.00099,   0.00064,  -0.00030,231214208.00000,   0.00000,274640576.00000,   0.00000,   0.00000,   0.00000,-243426368.00000,   0.00000
-193338587.31561,58884404.42927,-23064451.50282,  -0.00099,   0.00064,  -0.00030,231892864.00000,   0.00000,274640576.00000,   0.00000,   0.00000,   0.00000,-242747712.00000,   0.00000
-193500452.42625,59709651.14088,-22990152.76352,  -0.00100,   0.00065,  -0.00030,232579152.00000,   0.00000,274640576.00000,   0.00000,   0.00000,   0.00000,-242061424.00000,   0.00000
-193635782.27285,60561433.11654,-22915854.02421,  -0.00100,   0.00065,  -0.00030,233259520.00000,   0.00000,274640576.00000,   0.00000,   0.00000,   0.00000,-241381056.00000,   0.00000
-193797647.38349,61386679.82816,-22841555.28490,  -0.00100,   0.00066,  -0.00030,233949232.00000,   0.00000,274640576.00000,   0.00000,   0.00000,   0.00000,-240691344.00000,   0.00000
-193940937.80930,62219887.11899,-22761949.49278,  -0.00100,   0.00066,  -0.00030,234626656.00000,   0.00000,274640576.00000,   0.00000,   0.00000,   0.00000,-240013920.00000,   0.00000
-194084228.23511,63053094.40982,-22682343.70066,  -0.00101,   0.00067,  -0.00029,235305904.00000,   0.00000,274640576.00000,   0.00000,   0.00000,   0.00000,-239334672.00000,   0.00000
-194227518.66092,63886301.70065,-22602737.90854,  -0.00101,   0.00067,  -0.00029,235986864.00000,   0.00000,274640576.00000,   0.00000,   0.00000,   0.00000,-238653712.00000,   0.00000
-194370809.08674,64719508.99147,-22523132.11643,  -0.00101,   0.00067,  -0.00029,236669664.00000,   0.00000,274640576.00000,   0.00000,   0.00000,   0.00000,-237970912.00000,   0.00000
-194540634.77659,65526181.01826,-22438219.27150,  -0.00101,   0.00068,  -0.00029,237359984.00000,   0.00000,274640576.00000,   0.00000,   0.00000,   0.00000,-237280592.00000,   0.00000
-194683925.20240,66359388.30909,-22353306.42658,  -0.00102,   0.00068,  -0.00029,238044672.00000,   0.00000,274640576.00000,   0.00000,   0.00000,   0.00000,-236595904.00000,   0.00000
-194835176.20742,67174020.91510,-22268393.58165,  -0.00102,   0.00069,  -0.00029,238726144.00000,   0.00000,274640576.00000,   0.00000,   0.00000,   0.00000,-235914432.00000,   0.00000
-194967852.52762,67996614.10031,-22178173.68392,  -0.00102,   0.00069,  -0.00029,239395488.00000,   0.00000,274640576.00000,   0.00000,   0.00000,   0.00000,-235245088.00000,   0.00000
-195119103.53264,68811246.70631,-22093260.83899,  -0.00102,   0.00069,  -0.00029,240080256.00000,   0.00000,274640576.00000,   0.00000,   0.00000,   0.00000,-234560320.00000,   0.00000
-195270354.53766,69625879.31231,-22003040.94126,  -0.00102,   0.00070,  -0.00029,240765104.00000,   0.00000,274640576.00000,   0.00000,   0.00000,   0.00000,-233875472.00000,   0.00000
-195429566.12190,70421937.23349,-21907513.99072,  -0.00103,   0.00070,  -0.00028,241444912.00000,   0.00000,274640576.00000,   0.00000,   0.00000,   0.00000,-233195664.00000,   0.00000
-195562242.44209,71244530.41870,-21817294.09298,  -0.00103,   0.00071,  -0.00028,242120864.00000,   0.00000,274640576.00000,   0.00000,   0.00000,   0.00000,-232519712.00000,   0.00000
-195721454.02633,72040588.33987,-21721767.14244,  -0.00103,   0.00071,  -0.00028,242803728.00000,   0.00000,274640576.00000,   0.00000,   0.00000,   0.00000,-231836848.00000,   0.00000
-195862090.92574,72844606.84026,-21626240.19190,  -0.00103,   0.00071,  -0.00028,243475840.00000,   0.00000,274640576.00000,   0.00000,   0.00000,   0.00000,-231164736.00000,   0.00000
-196021302.50997,73640664.76143,-21530713.24136,  -0.00104,   0.00072,  -0.00028,244161520.00000,   0.00000,274640576.00000,   0.00000,   0.00000,   0.00000,-230479056.00000,   0.00000
-196161939.40938,74444683.26182,-21429879.23801,  -0.00104,   0.00072,  -0.00028,244835184.00000,   0.00000,274640576.00000,   0.00000,   0.00000,   0.00000,-229805392.00000,   0.00000
-196310536.88800,75230127.07738,-21329045.23466,  -0.00104,   0.00073,  -0.00028,245504768.00000,   0.00000,274640576.00000,   0.00000,   0.00000,   0.00000,-229135808.00000,   0.00000
-196469748.47223,76026184.99855,-21228211.23132,  -0.00104,   0.00073,  -0.00028,246193312.00000,   0.00000,274640576.00000,   0.00000,   0.00000,   0.00000,-228447264.00000,   0.00000
-196618345.95085,76811628.81411,-21127377.22797,  -0.00104,   0.00073,  -0.00027,246865616.00000,   0.00000,274640576.00000,   0.00000,   0.00000,   0.00000,-227774960.00000,   0.00000
-196766943.42947,77597072.62967,-21021236.17181,  -0.00105,   0.00074,  -0.00027,247537712.00000,   0.00000,274640576.00000,   0.00000,   0.00000,   0.00000,-227102864.00000,   0.00000
-196896966.22326,78390477.02444,-20915095.11565,  -0.00105,   0.00074,  -0.00027,248199312.00000,   0.00000,274640576.00000,   0.00000,   0.00000,   0.00000,-226441264.00000,   0.00000
-197053524.28109,79157346.15517,-20808954.05950,  -0.00105,   0.00074,  -0.00027,248868448.00000,   0.00000,274640576.00000,   0.00000,   0.00000,   0.00000,-225772128.00000,   0.00000
-197202121.75971,79942789.97073,-20697505.95053,  -0.00105,   0.00075,  -0.00027,249543280.00000,   0.00000,274640576.00000,   0.00000,   0.00000,   0.00000,-225097296.00000,   0.00000
-197340105.13272,80717619.68067,-20591364.89438,  -0.00106,   0.00075,  -0.00027,250202944.00000,   0.00000,274640576.00000,   0.00000,   0.00000,   0.00000,-224437632.00000,   0.00000
-197496663.19055,81484488.81141,-20479916.78541,  -0.00106,   0.00076,  -0.00027,250874560.00000,   0.00000,274640576.00000,   0.00000,   0.00000,   0.00000,-223766016.00000,   0.00000
-197634646.56355,82259318.52135,-20363161.62364,  -0.00106,   0.00076,  -0.00026,251534208.00000,   0.00000,274640576.00000,   0.00000,   0.00000,   0.00000,-223106368.00000,   0.00000
-197780590.51577,83015573.54646,-20251713.51468,  -0.00106,   0.00076,  -0.00026,252190480.00000,   0.00000,274640576.00000,   0.00000,   0.00000,   0.00000,-222450096.00000,   0.00000
-197937148.57360,83782442.67720,-20134958.35290,  -0.00106,   0.00077,  -0.00026,252864496.00000,   0.00000,274640576.00000,   0.00000,   0.00000,   0.00000,-221776080.00000,   0.00000
-198083092.52581,84538697.70231,-20018203.19113,  -0.00107,   0.00077,  -0.00026,253521760.00000,   0.00000,274640576.00000,   0.00000,   0.00000,   0.00000,-221118816.00000,   0.00000
-198210461.79320,85302913.30664,-19901448.02936,  -0.00107,   0.00077,  -0.00026,254168592.00000,   0.00000,274640576.00000,   0.00000,   0.00000,   0.00000,-220471984.00000,   0.00000
-198356405.74542,86059168.33175,-19779385.81478,  -0.00107,   0.00078,  -0.00026,254827184.00000,   0.00000,274640576.00000,   0.00000,   0.00000,   0.00000,-219813392.00000,   0.00000
-198502349.69763,86815423.35687,-19657323.60020,  -0.00107,   0.00078,  -0.00026,255486912.00000,   0.00000,274640576.00000,   0.00000,   0.00000,   0.00000,-219153664.00000,   0.00000
-198637679.54423,87561064.27637,-19535261.38562,  -0.00107,   0.00079,  -0.00025,256130128.00000,   0.00000,274640576.00000,   0.00000,   0.00000,   0.00000,-218510448.00000,   0.00000
-198791584.07566,88298744.61666,-19413199.17104,  -0.00108,   0.00079,  -0.00025,256786112.00000,   0.00000,274640576.00000,   0.00000,   0.00000,   0.00000,-217854464.00000,   0.00000
-198926913.92226,89044385.53616,-19285829.90365,  -0.00108,   0.00079,  -0.00025,257430304.00000,   0.00000,274640576.00000,   0.00000,   0.00000,   0.00000,-217210272.00000,   0.00000
-199062243.76886,89790026.45566,-19158460.63626,  -0.00108,   0.00080,  -0.00025,258075680.00000,   0.00000,274640576.00000,   0.00000,   0.00000,   0.00000,-216564896.00000,   0.00000
-199197573.61546,90535667.37516,-19031091.36887,  -0.00108,   0.00080,  -0.00025,258722320.00000,   0.00000,274640576.00000,   0.00000,   0.00000,   0.00000,-215918256.00000,   0.00000
-199340864.04127,91262733.60983,-18903722.10149,  -0.00108,   0.00080,  -0.00025,259363936.00000,   0.00000,274640576.00000,   0.00000,   0.00000,   0.00000,-215276640.00000,   0.00000
-199457619.20304,92016335.10854,-18771045.78129,  -0.00109,   0.00081,  -0.00024,259999792.00000,   0.00000,274640576.00000,   0.00000,   0.00000,   0.00000,-214640784.00000,   0.00000
-199600909.62885,92743401.34322,-18638369.46110,  -0.00109,   0.00081,  -0.00024,260642464.00000,   0.00000,274640576.00000,   0.00000,   0.00000,   0.00000,-213998112.00000,   0.00000
-199733585.94905,93459853.47227,-18505693.14090,  -0.00109,   0.00081,  -0.00024,261268336.00000,   0.00000,274640576.00000,   0.00000,   0.00000,   0.00000,-213372240.00000,   0.00000
-199858301.69003,94194880.28616,-18367709.76790,  -0.00109,   0.00082,  -0.00024,261900400.00000,   0.00000,274640576.00000,   0.00000,   0.00000,   0.00000,-212740176.00000,   0.00000
-199990978.01023,94911332.41521,-18229726.39489,  -0.00110,   0.00082,  -0.00024,262527408.00000,   0.00000,274640576.00000,   0.00000,   0.00000,   0.00000,-212113168.00000,   0.00000
-200123654.33042,95627784.54427,-18091743.02189,  -0.00110,   0.00083,  -0.00024,263155344.00000,   0.00000,274640576.00000,   0.00000,   0.00000,   0.00000,-211485232.00000,   0.00000
-200256330.65062,96344236.67333,-17953759.64889,  -0.00110,   0.00083,  -0.00023,263784528.00000,   0.00000,274640576.00000,   0.00000,   0.00000,   0.00000,-210856048.00000,   0.00000
-200370432.28599,97068649.38160,-17810469.22307,  -0.00110,   0.00083,  -0.00023,264402016.00000,   0.00000,274640576.00000,   0.00000,   0.00000,   0.00000,-210238560.00000,   0.00000
-200511069.18539,97766526.82583,-17672485.85007,  -0.00110,   0.00084,  -0.00023,265026736.00000,   0.00000,274640576.00000,   0.00000,   0.00000,   0.00000,-209613840.00000,   0.00000
-200625170.82076,98490939.53409,-17529195.42426,  -0.00110,   0.00084,  -0.00023,265646416.00000,   0.00000,274640576.00000,   0.00000,   0.00000,   0.00000,-208994160.00000,   0.00000
-200747233.03534,99196777.55754,-17380597.94564,  -0.00111,   0.00084,  -0.00023,266259648.00000,   0.00000,274640576.00000,   0.00000,   0.00000,   0.00000,-208380928.00000,   0.00000
-200877255.82913,99884040.89615,-17237307.51983,  -0.00111,   0.00085,  -0.00022,266868512.00000,   0.00000,274640576.00000,   0.00000,   0.00000,   0.00000,-207772064.00000,   0.00000
-200980743.35889,100597839.49880,-17088710.04121,  -0.00111,   0.00085,  -0.00022,267472432.00000,   0.00000,274640576.00000,   0.00000,   0.00000,   0.00000,-207168144.00000,   0.00000
-201110766.15268,101285102.83742,-16940112.56259,  -0.00111,   0.00085,  -0.00022,268082288.00000,   0.00000,274640576.00000,   0.00000,   0.00000,   0.00000,-206558288.00000,   0.00000
-201222214.26164,101980326.75524,-16786208.03116,  -0.00111,   0.00086,  -0.00022,268680704.00000,   0.00000,274640576.00000,   0.00000,   0.00000,   0.00000,-205959872.00000,   0.00000
-201333662.37061,102675550.67307,-16637610.55254,  -0.00112,   0.00086,  -0.00022,269281152.00000,   0.00000,274640576.00000,   0.00000,   0.00000,   0.00000,-205359424.00000,   0.00000
-201445110.47957,103370774.59089,-16483706.02112,  -0.00112,   0.00086,  -0.00021,269881536.00000,   0.00000,274640576.00000,   0.00000,   0.00000,   0.00000,-204759040.00000,   0.00000
-201564519.16775,104047423.82389,-16329801.48969,  -0.00112,   0.00087,  -0.00021,270476448.00000,   0.00000,274640576.00000,   0.00000,   0.00000,   0.00000,-204164128.00000,   0.00000
-201665353.17110,104732033.63610,-16170589.90545,  -0.00112,   0.00087,  -0.00021,271060000.00000,   0.00000,274640576.00000,   0.00000,   0.00000,   0.00000,-203580576.00000,   0.00000
-201766187.17445,105416643.44831,-16016685.37403,  -0.00112,   0.00087,  -0.00021,271645504.00000,   0.00000,274640576.00000,   0.00000,   0.00000,   0.00000,-202995072.00000,   0.00000
-201885595.86262,106093292.68131,-15857473.78979,  -0.00113,   0.00088,  -0.00021,272242336.00000,   0.00000,274640576.00000,   0.00000,   0.00000,   0.00000,-202398240.00000,   0.00000
-201975815.76035,106767288.38790,-15698262.20556,  -0.00113,   0.00088,  -0.00020,272810848.00000,   0.00000,274640576.00000,   0.00000,   0.00000,   0.00000,-201829728.00000,   0.00000
-202084610.34292,107433323.51529,-15533743.56852,  -0.00113,   0.00088,  -0.00020,273390848.00000,   0.00000,274640576.00000,   0.00000,   0.00000,   0.00000,-201249728.00000,   0.00000
-202193404.92548,108099358.64267,-15374531.98428,  -0.00113,   0.00089,  -0.00020,273972608.00000,   0.00000,274640576.00000,   0.00000,   0.00000,   0.00000,-200667968.00000,   0.00000
-202283624.82321,108773354.34926,-15210013.34724,  -0.00113,   0.00089,  -0.00020,274543232.00000,   0.00000,274640576.00000,   0.00000,   0.00000,   0.00000,-200097344.00000,   0.00000
-202373844.72094,109447350.05586,-15045494.71020,  -0.00113,   0.00089,  -0.00020,275114656.00000,   0.00000,274640576.00000,   0.00000,   0.00000,   0.00000,-199525920.00000,   0.00000
-202472025.19789,110102771.07762,-14875669.02034,  -0.00114,   0.00090,  -0.00019,275679648.00000,   0.00000,274640576.00000,   0.00000,   0.00000,   0.00000,-198960928.00000,   0.00000
-202551630.99000,110766152.67860,-14711150.38330,  -0.00114,   0.00090,  -0.00019,276235136.00000,   0.00000,274640576.00000,   0.00000,   0.00000,   0.00000,-198405440.00000,   0.00000
-202657772.04616,111402999.01554,-14541324.69345,  -0.00114,   0.00090,  -0.00019,276795296.00000,   0.00000,274640576.00000,   0.00000,   0.00000,   0.00000,-197845280.00000,   0.00000
-202737377.83828,112066380.61652,-14371499.00360,  -0.00114,   0.00091,  -0.00019,277351872.00000,   0.00000,274640576.00000,   0.00000,   0.00000,   0.00000,-197288704.00000,   0.00000
-202824944.20961,112711187.53267,-14201673.31375,  -0.00114,   0.00091,  -0.00018,277902656.00000,   0.00000,274640576.00000,   0.00000,   0.00000,   0.00000,-196737920.00000,   0.00000
-202893935.89611,113363955.02803,-14026540.57109,  -0.00114,   0.00091,  -0.00018,278442400.00000,   0.00000,274640576.00000,   0.00000,   0.00000,   0.00000,-196198176.00000,   0.00000
-202981502.26744,114008761.94419,-13851407.82843,  -0.00115,   0.00091,  -0.00018,278994208.00000,   0.00000,274640576.00000,   0.00000,   0.00000,   0.00000,-195646368.00000,   0.00000
-203058454.53315,114642954.75472,-13676275.08578,  -0.00115,   0.00092,  -0.00018,279529024.00000,   0.00000,274640576.00000,   0.00000,   0.00000,   0.00000,-195111552.00000,   0.00000
-203127446.21965,115295722.25008,-13501142.34312,  -0.00115,   0.00092,  -0.00018,280071776.00000,   0.00000,274640576.00000,   0.00000,   0.00000,   0.00000,-194568800.00000,   0.00000
-203185823.80054,115937875.63983,-13326009.60046,  -0.00115,   0.00092,  -0.00017,280597536.00000,   0.00000,274640576.00000,   0.00000,   0.00000,   0.00000,-194043040.00000,   0.00000
-203262776.06625,116572068.45037,-13145569.80499,  -0.00115,   0.00093,  -0.00017,281134592.00000,   0.00000,274640576.00000,   0.00000,   0.00000,   0.00000,-193505984.00000,   0.00000
-203329114.22635,117195647.15529,-12965130.00953,  -0.00115,   0.00093,  -0.00017,281654496.00000,   0.00000,274640576.00000,   0.00000,   0.00000,   0.00000,-192986080.00000,   0.00000
-203395452.38645,117819225.86021,-12784690.21406,  -0.00116,   0.00093,  -0.00017,282175328.00000,   0.00000,274640576.00000,   0.00000,   0.00000,   0.00000,-192465248.00000,   0.00000
-203461790.54655,118442804.56513,-12598943.36579,  -0.00116,   0.00094,  -0.00016,282696544.00000,   0.00000,274640576.00000,   0.00000,   0.00000,   0.00000,-191944032.00000,   0.00000
-203509554.02182,119074343.84926,-12418503.57032,  -0.00116,   0.00094,  -0.00016,283208384.00000,   0.00000,274640576.00000,   0.00000,   0.00000,   0.00000,-191432192.00000,   0.00000
-203557317.49709,119705883.13339,-12232756.72205,  -0.00116,   0.00094,  -0.00016,283720576.00000,   0.00000,274640576.00000,   0.00000,   0.00000,   0.00000,-190920000.00000,   0.00000
-203613041.55157,120318847.73269,-12047009.87377,  -0.00116,   0.00094,  -0.00016,284226528.00000,   0.00000,274640576.00000,   0.00000,   0.00000,   0.00000,-190414048.00000,   0.00000
-203668765.60605,120931812.33200,-11855955.97269,  -0.00116,   0.00095,  -0.00015,284732896.00000,   0.00000,274640576.00000,   0.00000,   0.00000,   0.00000,-189907680.00000,   0.00000
-203705914.97571,121552737.51051,-11670209.12442,  -0.00116,   0.00095,  -0.00015,285229952.00000,   0.00000,274640576.00000,   0.00000,   0.00000,   0.00000,-189410624.00000,   0.00000
-203751024.92457,122155088.00420,-11479155.22333,  -0.00117,   0.00095,  -0.00015,285720064.00000,   0.00000,274640576.00000,   0.00000,   0.00000,   0.00000,-188920512.00000,   0.00000
-203796134.87344,122757438.49789,-11288101.32225,  -0.00117,   0.00096,  -0.00015,286211264.00000,   0.00000,274640576.00000,   0.00000,   0.00000,   0.00000,-188429312.00000,   0.00000
-203841244.82231,123359788.99158,-11097047.42117,  -0.00117,   0.00096,  -0.00014,286703488.00000,   0.00000,274640576.00000,   0.00000,   0.00000,   0.00000,-187937088.00000,   0.00000
-203867780.08635,123970100.06448,-10905993.52009,  -0.00117,   0.00096,  -0.00014,287185792.00000,   0.00000,274640576.00000,   0.00000,   0.00000,   0.00000,-187454784.00000,   0.00000
-203894315.35038,124580411.13738,-10709632.56620,  -0.00117,   0.00096,  -0.00014,287668480.00000,   0.00000,274640576.00000,   0.00000,   0.00000,   0.00000,-186972096.00000,   0.00000
-203928811.19364,125172147.52545,-10513271.61231,  -0.00117,   0.00097,  -0.00014,288144864.00000,   0.00000,274640576.00000,   0.00000,   0.00000,   0.00000,-186495712.00000,   0.00000
-203944732.35206,125771844.49274,-10316910.65842,  -0.00117,   0.00097,  -0.00013,288611328.00000,   0.00000,274640576.00000,   0.00000,   0.00000,   0.00000,-186029248.00000,   0.00000
-203960653.51048,126371541.46002,-10120549.70453,  -0.00117,   0.00097,  -0.00013,289078816.00000,   0.00000,274640576.00000,   0.00000,   0.00000,   0.00000,-185561760.00000,   0.00000
-203984535.24812,126952663.74248,-9924188.75064,  -0.00118,   0.00098,  -0.00013,289539936.00000,   0.00000,274640576.00000,   0.00000,   0.00000,   0.00000,-185100640.00000,   0.00000
-204008416.98575,127533786.02494,-9722520.74394,  -0.00118,   0.00098,  -0.00013,290001536.00000,   0.00000,274640576.00000,   0.00000,   0.00000,   0.00000,-184639040.00000,   0.00000
-204013724.03856,128122868.88661,-9520852.73725,  -0.00118,   0.00098,  -0.00012,290453216.00000,   0.00000,274640576.00000,   0.00000,   0.00000,   0.00000,-184187360.00000,   0.00000
-204019031.09137,128711951.74828,-9319184.73055,  -0.00118,   0.00098,  -0.00012,290905920.00000,   0.00000,274640576.00000,   0.00000,   0.00000,   0.00000,-183734656.00000,   0.00000
-204024338.14418,129301034.60994,-9117516.72385,  -0.00118,   0.00099,  -0.00012,291359648.00000,   0.00000,274640576.00000,   0.00000,   0.00000,   0.00000,-183280928.00000,   0.00000
-204019031.09137,129879503.36600,-8910541.66434,  -0.00118,   0.00099,  -0.00012,291795616.00000,   0.00000,274640576.00000,   0.00000,   0.00000,   0.00000,-182844960.00000,   0.00000
-204013724.03856,130457972.12205,-8708873.65765,  -0.00118,   0.00099,  -0.00011,292232992.00000,   0.00000,274640576.00000,   0.00000,   0.00000,   0.00000,-182407584.00000,   0.00000
-204008416.98575,131036440.87810,-8501898.59814,  -0.00118,   0.00099,  -0.00011,292670912.00000,   0.00000,274640576.00000,   0.00000,   0.00000,   0.00000,-181969664.00000,   0.00000
-204011070.51216,131596334.94933,-8294923.53864,  -0.00118,   0.00100,  -0.00011,293102336.00000,   0.00000,274640576.00000,   0.00000,   0.00000,   0.00000,-181538240.00000,   0.00000
-203995149.35373,132164189.59977,-8087948.47913,  -0.00119,   0.00100,  -0.00011,293523808.00000,   0.00000,274640576.00000,   0.00000,   0.00000,   0.00000,-181116768.00000,   0.00000
-203979228.19531,132732044.25021,-7875666.36682,  -0.00119,   0.00100,  -0.00010,293945888.00000,   0.00000,274640576.00000,   0.00000,   0.00000,   0.00000,-180694688.00000,   0.00000
-203944732.35206,133307859.47986,-7668691.30731,  -0.00119,   0.00100,  -0.00010,294358624.00000,   0.00000,274640576.00000,   0.00000,   0.00000,   0.00000,-180281952.00000,   0.00000
-203918197.08802,133865100.02468,-7456409.19500,  -0.00119,   0.00101,  -0.00010,294764416.00000,   0.00000,274640576.00000,   0.00000,   0.00000,   0.00000,-179876160.00000,   0.00000
-203883701.24477,134440915.25433,-7244127.08269,  -0.00119,   0.00101,  -0.00009,295178624.00000,   0.00000,274640576.00000,   0.00000,   0.00000,   0.00000,-179461952.00000,   0.00000
-203865126.55994,134979581.11432,-7031844.97037,  -0.00119,   0.00101,  -0.00009,295578656.00000,   0.00000,274640576.00000,   0.00000,   0.00000,   0.00000,-179061920.00000,   0.00000
-203820016.61108,135544782.23836,-6819562.85806,  -0.00119,   0.00101,  -0.00009,295976512.00000,   0.00000,274640576.00000,   0.00000,   0.00000,   0.00000,-178664064.00000,   0.00000
-203774906.66221,136109983.36239,-6607280.74575,  -0.00119,   0.00102,  -0.00009,296375264.00000,   0.00000,274640576.00000,   0.00000,   0.00000,   0.00000,-178265312.00000,   0.00000
-203737757.29255,136656609.80160,-6389691.58063,  -0.00119,   0.00102,  -0.00008,296766816.00000,   0.00000,274640576.00000,   0.00000,   0.00000,   0.00000,-177873760.00000,   0.00000
-203682033.23807,137211196.82001,-6172102.41551,  -0.00119,   0.00102,  -0.00008,297148864.00000,   0.00000,274640576.00000,   0.00000,   0.00000,   0.00000,-177491712.00000,   0.00000
-203626309.18359,137765783.83843,-5954513.25038,  -0.00120,   0.00102,  -0.00008,297531712.00000,   0.00000,274640576.00000,   0.00000,   0.00000,   0.00000,-177108864.00000,   0.00000
-203578545.70832,138301796.17202,-5736924.08526,  -0.00120,   0.00103,  -0.00007,297907776.00000,   0.00000,274640576.00000,   0.00000,   0.00000,   0.00000,-176732800.00000,   0.00000
-203512207.54822,138845769.08483,-5519334.92014,  -0.00120,   0.00103,  -0.00007,298274240.00000,   0.00000,274640576.00000,   0.00000,   0.00000,   0.00000,-176366336.00000,   0.00000
-203445869.38812,139389741.99763,-5301745.75502,  -0.00120,   0.00103,  -0.00007,298641536.00000,   0.00000,274640576.00000,   0.00000,   0.00000,   0.00000,-175999040.00000,   0.00000
-203379531.22803,139933714.91043,-5078849.53709,  -0.00120,   0.00103,  -0.00007,299009440.00000,   0.00000,274640576.00000,   0.00000,   0.00000,   0.00000,-175631136.00000,   0.00000
-203302578.96231,140467073.71762,-4855953.31916,  -0.00120,   0.00104,  -0.00006,299359904.00000,   0.00000,274640576.00000,   0.00000,   0.00000,   0.00000,-175280672.00000,   0.00000
-203217666.11739,141019007.20963,-4633057.10123,  -0.00120,   0.00104,  -0.00006,299719104.00000,   0.00000,274640576.00000,   0.00000,   0.00000,   0.00000,-174921472.00000,   0.00000
-203140713.85167,141552366.01682,-4410160.88331,  -0.00120,   0.00104,  -0.00006,300071360.00000,   0.00000,274640576.00000,   0.00000,   0.00000,   0.00000,-174569216.00000,   0.00000
-203053147.48034,142075110.71839,-4187264.66538,  -0.00120,   0.00104,  -0.00005,300406112.00000,   0.00000,274640576.00000,   0.00000,   0.00000,   0.00000,-174234464.00000,   0.00000
-202957620.52980,142616430.10479,-3964368.44745,  -0.00120,   0.00104,  -0.00005,300749600.00000,   0.00000,274640576.00000,   0.00000,   0.00000,   0.00000,-173890976.00000,   0.00000
-202870054.15847,143139174.80636,-3741472.22952,  -0.00120,   0.00105,  -0.00005,301086176.00000,   0.00000,274640576.00000,   0.00000,   0.00000,   0.00000,-173554400.00000,   0.00000
-202763913.10232,143669880.08714,-3513268.95878,  -0.00120,   0.00105,  -0.00005,301413024.00000,   0.00000,274640576.00000,   0.00000,   0.00000,   0.00000,-173227552.00000,   0.00000
-202657772.04616,144200585.36792,-3285065.68805,  -0.00120,   0.00105,  -0.00004,301740640.00000,   0.00000,274640576.00000,   0.00000,   0.00000,   0.00000,-172899936.00000,   0.00000
-202533056.30518,144739251.22792,-3056862.41731,  -0.00120,   0.00105,  -0.00004,302058720.00000,   0.00000,274640576.00000,   0.00000,   0.00000,   0.00000,-172581856.00000,   0.00000
-202434875.82823,145251381.82387,-2828659.14657,  -0.00120,   0.00106,  -0.00004,302380192.00000,   0.00000,274640576.00000,   0.00000,   0.00000,   0.00000,-172260384.00000,   0.00000
-202299545.98163,145779433.57825,-2600455.87584,  -0.00120,   0.00106,  -0.00003,302681792.00000,   0.00000,274640576.00000,   0.00000,   0.00000,   0.00000,-171958784.00000,   0.00000
-202182790.81986,146299524.75342,-2372252.60510,  -0.00121,   0.00106,  -0.00003,302994560.00000,   0.00000,274640576.00000,   0.00000,   0.00000,   0.00000,-171646016.00000,   0.00000
-202055421.55247,146809001.82297,-2144049.33436,  -0.00121,   0.00106,  -0.00003,303289984.00000,   0.00000,274640576.00000,   0.00000,   0.00000,   0.00000,-171350592.00000,   0.00000
-201920091.70587,147337053.57735,-1910539.01082,  -0.00121,   0.00106,  -0.00002,303594048.00000,   0.00000,274640576.00000,   0.00000,   0.00000,   0.00000,-171046528.00000,   0.00000
-201792722.43848,147846530.64690,-1682335.74008,  -0.00121,   0.00107,  -0.00002,303891200.00000,   0.00000,274640576.00000,   0.00000,   0.00000,   0.00000,-170749376.00000,   0.00000
-201646778.48627,148363968.29567,-1448825.41654,  -0.00121,   0.00107,  -0.00002,304178816.00000,   0.00000,274640576.00000,   0.00000,   0.00000,   0.00000,-170461760.00000,   0.00000
-201500834.53405,148881405.94443,-1215315.09299,  -0.00121,   0.00107,  -0.00002,304467200.00000,   0.00000,274640576.00000,   0.00000,   0.00000,   0.00000,-170173376.00000,   0.00000
-201344276.47622,149388229.48758,-981804.76945,  -0.00121,   0.00107,  -0.00001,304738176.00000,   0.00000,274640576.00000,   0.00000,   0.00000,   0.00000,-169902400.00000,   0.00000
-201187718.41839,149895053.03073,-748294.44590,  -0.00121,   0.00107,  -0.00001,305010080.00000,   0.00000,274640576.00000,   0.00000,   0.00000,   0.00000,-169630496.00000,   0.00000
-201031160.36056,150401876.57387,-514784.12236,  -0.00121,   0.00108,  -0.00001,305282976.00000,   0.00000,274640576.00000,   0.00000,   0.00000,   0.00000,-169357600.00000,   0.00000
-200856027.61790,150916660.69623,-281273.79882,  -0.00121,   0.00108,  -0.00000,305546432.00000,   0.00000,274640576.00000,   0.00000,   0.00000,   0.00000,-169094144.00000,   0.00000
-200680894.87524,151431444.81859,-42456.42246,  -0.00121,   0.00108,  -0.00000,305810752.00000,   0.00000,274640576.00000,   0.00000,   0.00000,   0.00000,-168829824.00000,   0.00000
-200513722.71180,151927654.25612,191053.90108,  -0.00121,   0.00108,   0.00000,306067904.00000,   0.00000,274640576.00000,   0.00000,   0.00000,   0.00000,-168572672.00000,   0.00000
-200327975.86352,152431824.27287,429871.27743,  -0.00121,   0.00108,   0.00001,306315872.00000,   0.00000,274640576.00000,   0.00000,   0.00000,   0.00000,-168324704.00000,   0.00000
-200142229.01525,152935994.28961,663381.60098,  -0.00121,   0.00109,   0.00001,306564864.00000,   0.00000,274640576.00000,   0.00000,   0.00000,   0.00000,-168075712.00000,   0.00000
-199956482.16698,153440164.30635,902198.97733,  -0.00121,   0.00109,   0.00001,306814656.00000,   0.00000,274640576.00000,   0.00000,   0.00000,   0.00000,-167825920.00000,   0.00000
-199760121.21309,153933720.21748,1141016.35368,  -0.00121,   0.00109,   0.00001,307047072.00000,   0.00000,274640576.00000,   0.00000,   0.00000,   0.00000,-167593504.00000,   0.00000
-199563760.25920,154427276.12861,1379833.73004,  -0.00121,   0.00109,   0.00002,307280384.00000,   0.00000,274640576.00000,   0.00000,   0.00000,   0.00000,-167360192.00000,   0.00000
-199348824.62048,154928792.61895,1613344.05358,  -0.00121,   0.00109,   0.00002,307504448.00000,   0.00000,274640576.00000,   0.00000,   0.00000,   0.00000,-167136128.00000,   0.00000
-199133888.98176,155430309.10929,1857468.48274,  -0.00121,   0.00110,   0.00002,307729728.00000,   0.00000,274640576.00000,   0.00000,   0.00000,   0.00000,-166910848.00000,   0.00000
-198918953.34305,155931825.59963,2096285.85909,  -0.00121,   0.00110,   0.00003,307955840.00000,   0.00000,274640576.00000,   0.00000,   0.00000,   0.00000,-166684736.00000,   0.00000
-198711978.28354,156414767.40514,2335103.23544,  -0.00121,   0.00110,   0.00003,308174848.00000,   0.00000,274640576.00000,   0.00000,   0.00000,   0.00000,-166465728.00000,   0.00000
-198486428.53921,156905669.78987,2573920.61180,  -0.00121,   0.00110,   0.00003,308384640.00000,   0.00000,274640576.00000,   0.00000,   0.00000,   0.00000,-166255936.00000,   0.00000
-198242304.11005,157404532.75380,2812737.98815,  -0.00121,   0.00110,   0.00004,308585344.00000,   0.00000,274640576.00000,   0.00000,   0.00000,   0.00000,-166055232.00000,   0.00000
-198016754.36571,157895435.13853,3056862.41731,  -0.00121,   0.00110,   0.00004,308797280.00000,   0.00000,274640576.00000,   0.00000,   0.00000,   0.00000,-165843296.00000,   0.00000
-197772629.93655,158394298.10246,3295679.79366,  -0.00121,   0.00111,   0.00004,309000096.00000,   0.00000,274640576.00000,   0.00000,   0.00000,   0.00000,-165640480.00000,   0.00000
-197517891.40178,158882546.96078,3539804.22282,  -0.00121,   0.00111,   0.00005,309185728.00000,   0.00000,274640576.00000,   0.00000,   0.00000,   0.00000,-165454848.00000,   0.00000
-197273766.97262,159381409.92472,3778621.59917,  -0.00121,   0.00111,   0.00005,309390688.00000,   0.00000,274640576.00000,   0.00000,   0.00000,   0.00000,-165249888.00000,   0.00000
-197000453.75302,159877619.36225,4022746.02833,  -0.00121,   0.00111,   0.00005,309568544.00000,   0.00000,274640576.00000,   0.00000,   0.00000,   0.00000,-165072032.00000,   0.00000
-196753675.79745,160347293.53574,4261563.40469,  -0.00121,   0.00111,   0.00006,309748704.00000,   0.00000,274640576.00000,   0.00000,   0.00000,   0.00000,-164891872.00000,   0.00000
-196480362.57785,160843502.97328,4505687.83385,  -0.00121,   0.00111,   0.00006,309928832.00000,   0.00000,274640576.00000,   0.00000,   0.00000,   0.00000,-164711744.00000,   0.00000
-196215009.93746,161321137.72598,4744505.21020,  -0.00121,   0.00112,   0.00006,310101248.00000,   0.00000,274640576.00000,   0.00000,   0.00000,   0.00000,-164539328.00000,   0.00000
-195923122.03303,161825307.74272,4988629.63936,  -0.00121,   0.00112,   0.00006,310273632.00000,   0.00000,274640576.00000,   0.00000,   0.00000,   0.00000,-164366944.00000,   0.00000
-195639194.70781,162310903.07464,5232754.06852,  -0.00121,   0.00112,   0.00007,310438336.00000,   0.00000,274640576.00000,   0.00000,   0.00000,   0.00000,-164202240.00000,   0.00000
-195355267.38259,162796498.40656,5476878.49768,  -0.00121,   0.00112,   0.00007,310604512.00000,   0.00000,274640576.00000,   0.00000,   0.00000,   0.00000,-164036064.00000,   0.00000
-195060725.95175,163271479.63286,5721002.92684,  -0.00121,   0.00112,   0.00007,310753376.00000,   0.00000,274640576.00000,   0.00000,   0.00000,   0.00000,-163887200.00000,   0.00000
-194758223.94171,163765035.54399,5959820.30319,  -0.00121,   0.00112,   0.00008,310911616.00000,   0.00000,274640576.00000,   0.00000,   0.00000,   0.00000,-163728960.00000,   0.00000
-194463682.51087,164240016.77029,6203944.73235,  -0.00121,   0.00113,   0.00008,311062720.00000,   0.00000,274640576.00000,   0.00000,   0.00000,   0.00000,-163577856.00000,   0.00000
-194142605.81600,164741533.26063,6448069.16151,  -0.00120,   0.00113,   0.00008,311213728.00000,   0.00000,274640576.00000,   0.00000,   0.00000,   0.00000,-163426848.00000,   0.00000
-193829489.70034,165224475.06614,6692193.59067,  -0.00120,   0.00113,   0.00009,311357408.00000,   0.00000,274640576.00000,   0.00000,   0.00000,   0.00000,-163283168.00000,   0.00000
-193524334.16389,165688842.18682,6936318.01983,  -0.00120,   0.00113,   0.00009,311493536.00000,   0.00000,274640576.00000,   0.00000,   0.00000,   0.00000,-163147040.00000,   0.00000
-193192643.36340,166179744.57155,7180442.44899,  -0.00120,   0.00113,   0.00009,311629760.00000,   0.00000,274640576.00000,   0.00000,   0.00000,   0.00000,-163010816.00000,   0.00000
-192860952.56291,166670646.95627,7419259.82534,  -0.00120,   0.00113,   0.00010,311766592.00000,   0.00000,274640576.00000,   0.00000,   0.00000,   0.00000,-162873984.00000,   0.00000
-192518647.65680,167150935.23538,7663384.25450,  -0.00120,   0.00114,   0.00010,311886784.00000,   0.00000,274640576.00000,   0.00000,   0.00000,   0.00000,-162753792.00000,   0.00000
-192176342.75070,167631223.51449,7907508.68367,  -0.00120,   0.00114,   0.00010,312008128.00000,   0.00000,274640576.00000,   0.00000,   0.00000,   0.00000,-162632448.00000,   0.00000
-191834037.84459,168111511.79360,8151633.11283,  -0.00120,   0.00114,   0.00011,312130720.00000,   0.00000,274640576.00000,   0.00000,   0.00000,   0.00000,-162509856.00000,   0.00000
-191491732.93849,168591800.07271,8395757.54199,  -0.00120,   0.00114,   0.00011,312254336.00000,   0.00000,274640576.00000,   0.00000,   0.00000,   0.00000,-162386240.00000,   0.00000
-191130853.34756,169080048.93103,8639881.97115,  -0.00120,   0.00114,   0.00011,312369696.00000,   0.00000,274640576.00000,   0.00000,   0.00000,   0.00000,-162270880.00000,   0.00000
-190769973.75662,169568297.78935,8884006.40031,  -0.00120,   0.00114,   0.00012,312486208.00000,   0.00000,274640576.00000,   0.00000,   0.00000,   0.00000,-162154368.00000,   0.00000
-190398480.06008,170045932.54205,9122823.77666,  -0.00120,   0.00114,   0.00012,312585088.00000,   0.00000,274640576.00000,   0.00000,   0.00000,   0.00000,-162055488.00000,   0.00000
-190026986.36353,170523567.29476,9366948.20582,  -0.00120,   0.00115,   0.00012,312685696.00000,   0.00000,274640576.00000,   0.00000,   0.00000,   0.00000,-161954880.00000,   0.00000
-189647532.08777,171019776.73229,9611072.63498,  -0.00120,   0.00115,   0.00012,312796000.00000,   0.00000,274640576.00000,   0.00000,   0.00000,   0.00000,-161844576.00000,   0.00000
-189257463.70639,171505372.06420,9855197.06414,  -0.00120,   0.00115,   0.00013,312889312.00000,   0.00000,274640576.00000,   0.00000,   0.00000,   0.00000,-161751264.00000,   0.00000
-188867395.32502,171990967.39612,10094014.44049,  -0.00119,   0.00115,   0.00013,312983360.00000,   0.00000,274640576.00000,   0.00000,   0.00000,   0.00000,-161657216.00000,   0.00000
-188485287.52285,172457988.04321,10338138.86965,  -0.00119,   0.00115,   0.00013,313070272.00000,   0.00000,274640576.00000,   0.00000,   0.00000,   0.00000,-161570304.00000,   0.00000
-188076644.45665,172951543.95434,10576956.24600,  -0.00119,   0.00115,   0.00014,313157280.00000,   0.00000,274640576.00000,   0.00000,   0.00000,   0.00000,-161483296.00000,   0.00000
-187675961.96966,173426525.18064,10821080.67516,  -0.00119,   0.00116,   0.00014,313236928.00000,   0.00000,274640576.00000,   0.00000,   0.00000,   0.00000,-161403648.00000,   0.00000
-187248744.21863,173928041.67098,11059898.05152,  -0.00119,   0.00116,   0.00014,313316896.00000,   0.00000,274640576.00000,   0.00000,   0.00000,   0.00000,-161323680.00000,   0.00000
-186848061.73164,174403022.89728,11304022.48068,  -0.00119,   0.00116,   0.00015,313399008.00000,   0.00000,274640576.00000,   0.00000,   0.00000,   0.00000,-161241568.00000,   0.00000
-186428804.55982,174885964.70279,11542839.85703,  -0.00119,   0.00116,   0.00015,313472288.00000,   0.00000,274640576.00000,   0.00000,   0.00000,   0.00000,-161168288.00000,   0.00000
-185990972.70317,175376867.08752,11781657.23338,  -0.00119,   0.00116,   0.00015,313537408.00000,   0.00000,274640576.00000,   0.00000,   0.00000,   0.00000,-161103168.00000,   0.00000
-185571715.53136,175859808.89303,12025781.66254,  -0.00119,   0.00116,   0.00016,313613600.00000,   0.00000,274640576.00000,   0.00000,   0.00000,   0.00000,-161026976.00000,   0.00000
-185133883.67471,176350711.27775,12264599.03889,  -0.00119,   0.00116,   0.00016,313681056.00000,   0.00000,274640576.00000,   0.00000,   0.00000,   0.00000,-160959520.00000,   0.00000
-184677477.13324,176849574.24169,12503416.41524,  -0.00119,   0.00116,   0.00016,313740480.00000,   0.00000,274640576.00000,   0.00000,   0.00000,   0.00000,-160900096.00000,   0.00000
-184247605.85580,177321901.94159,12742233.79160,  -0.00118,   0.00117,   0.00017,313801120.00000,   0.00000,274640576.00000,   0.00000,   0.00000,   0.00000,-160839456.00000,   0.00000
-183791199.31433,177820764.90552,12981051.16795,  -0.00118,   0.00117,   0.00017,313862816.00000,   0.00000,274640576.00000,   0.00000,   0.00000,   0.00000,-160777760.00000,   0.00000
-183324178.66724,178309013.76384,13219868.54430,  -0.00118,   0.00117,   0.00017,313907264.00000,   0.00000,274640576.00000,   0.00000,   0.00000,   0.00000,-160733312.00000,   0.00000
-182867772.12577,178807876.72778,13458685.92065,  -0.00118,   0.00117,   0.00017,313971360.00000,   0.00000,274640576.00000,   0.00000,   0.00000,   0.00000,-160669216.00000,   0.00000
-182400751.47868,179296125.58610,13692196.24420,  -0.00118,   0.00117,   0.00018,314017600.00000,   0.00000,274640576.00000,   0.00000,   0.00000,   0.00000,-160622976.00000,   0.00000
-181915156.14676,179792335.02363,13931013.62055,  -0.00118,   0.00117,   0.00018,314056384.00000,   0.00000,274640576.00000,   0.00000,   0.00000,   0.00000,-160584192.00000,   0.00000
-181448135.49967,180280583.88195,14164523.94410,  -0.00118,   0.00117,   0.00018,314104896.00000,   0.00000,274640576.00000,   0.00000,   0.00000,   0.00000,-160535680.00000,   0.00000
-180962540.16776,180776793.31948,14403341.32045,  -0.00118,   0.00118,   0.00019,314145984.00000,   0.00000,274640576.00000,   0.00000,   0.00000,   0.00000,-160494592.00000,   0.00000
-180476944.83584,181273002.75701,14636851.64399,  -0.00117,   0.00118,   0.00019,314187648.00000,   0.00000,274640576.00000,   0.00000,   0.00000,   0.00000,-160452928.00000,   0.00000
-179972774.81910,181777172.77376,14870361.96754,  -0.00117,   0.00118,   0.00019,314221344.00000,   0.00000,274640576.00000,   0.00000,   0.00000,   0.00000,-160419232.00000,   0.00000
-179468604.80235,182281342.79050,15103872.29108,  -0.00117,   0.00118,   0.00020,314256192.00000,   0.00000,274640576.00000,   0.00000,   0.00000,   0.00000,-160384384.00000,   0.00000
-178972395.36482,182766938.12242,15337382.61463,  -0.00117,   0.00118,   0.00020,314283008.00000,   0.00000,274640576.00000,   0.00000,   0.00000,   0.00000,-160357568.00000,   0.00000
-178468225.34808,183271108.13916,15570892.93817,  -0.00117,   0.00118,   0.00020,314320288.00000,   0.00000,274640576.00000,   0.00000,   0.00000,   0.00000,-160320288.00000,   0.00000
-177945480.64651,183783238.73512,15804403.26171,  -0.00117,   0.00118,   0.00021,314349728.00000,   0.00000,274640576.00000,   0.00000,   0.00000,   0.00000,-160290848.00000,   0.00000
-177430696.52415,184276794.64625,16032606.53245,  -0.00117,   0.00118,   0.00021,314370400.00000,   0.00000,274640576.00000,   0.00000,   0.00000,   0.00000,-160270176.00000,   0.00000
-176907951.82257,184788925.24220,16266116.85600,  -0.00117,   0.00119,   0.00021,314402208.00000,   0.00000,274640576.00000,   0.00000,   0.00000,   0.00000,-160238368.00000,   0.00000
-176374593.01539,185290441.73254,16494320.12673,  -0.00116,   0.00119,   0.00021,314416064.00000,   0.00000,274640576.00000,   0.00000,   0.00000,   0.00000,-160224512.00000,   0.00000
-175841234.20820,185791958.22288,16722523.39747,  -0.00116,   0.00119,   0.00022,314431424.00000,   0.00000,274640576.00000,   0.00000,   0.00000,   0.00000,-160209152.00000,   0.00000
-175299914.82180,186312049.39805,16950726.66821,  -0.00116,   0.00119,   0.00022,314457440.00000,   0.00000,274640576.00000,   0.00000,   0.00000,   0.00000,-160183136.00000,   0.00000
-174766556.01462,186813565.88839,17178929.93894,  -0.00116,   0.00119,   0.00022,314475296.00000,   0.00000,274640576.00000,   0.00000,   0.00000,   0.00000,-160165280.00000,   0.00000
-174214622.52260,187323042.95794,17407133.20968,  -0.00116,   0.00119,   0.00023,314485504.00000,   0.00000,274640576.00000,   0.00000,   0.00000,   0.00000,-160155072.00000,   0.00000
-173662689.03059,187832520.02749,17630029.42761,  -0.00116,   0.00119,   0.00023,314496192.00000,   0.00000,274640576.00000,   0.00000,   0.00000,   0.00000,-160144384.00000,   0.00000
-173102794.95936,188360571.78187,17858232.69834,  -0.00115,   0.00119,   0.00023,314518688.00000,   0.00000,274640576.00000,   0.00000,   0.00000,   0.00000,-160121888.00000,   0.00000
-172532286.78252,188878009.43063,18081128.91627,  -0.00115,   0.00120,   0.00024,314523264.00000,   0.00000,274640576.00000,   0.00000,   0.00000,   0.00000,-160117312.00000,   0.00000
-171980353.29051,189387486.50018,18304025.13420,  -0.00115,   0.00120,   0.00024,314538112.00000,   0.00000,274640576.00000,   0.00000,   0.00000,   0.00000,-160102464.00000,   0.00000
-171409845.11366,189904924.14895,18526921.35213,  -0.00115,   0.00120,   0.00024,314545696.00000,   0.00000,274640576.00000,   0.00000,   0.00000,   0.00000,-160094880.00000,   0.00000
-170820762.25199,190430322.37692,18744510.51725,  -0.00115,   0.00120,   0.00024,314544896.00000,   0.00000,274640576.00000,   0.00000,   0.00000,   0.00000,-160095680.00000,   0.00000
-170250254.07515,190947760.02569,18967406.73518,  -0.00115,   0.00120,   0.00025,314555264.00000,   0.00000,274640576.00000,   0.00000,   0.00000,   0.00000,-160085312.00000,   0.00000
-169653210.63427,191491732.93849,19184995.90030,  -0.00115,   0.00120,   0.00025,314567232.00000,   0.00000,274640576.00000,   0.00000,   0.00000,   0.00000,-160073344.00000,   0.00000
-169064127.77260,192017131.16646,19407892.11823,  -0.00114,   0.00120,   0.00025,314572224.00000,   0.00000,274640576.00000,   0.00000,   0.00000,   0.00000,-160068352.00000,   0.00000
-168475044.91093,192542529.39444,19625481.28335,  -0.00114,   0.00120,   0.00026,314577696.00000,   0.00000,274640576.00000,   0.00000,   0.00000,   0.00000,-160062880.00000,   0.00000
-167867387.36444,193075888.20163,19837763.39566,  -0.00114,   0.00121,   0.00026,314575328.00000,   0.00000,274640576.00000,   0.00000,   0.00000,   0.00000,-160065248.00000,   0.00000
-167259729.81794,193609247.00881,20055352.56079,  -0.00114,   0.00121,   0.00026,314575616.00000,   0.00000,274640576.00000,   0.00000,   0.00000,   0.00000,-160064960.00000,   0.00000
-166670646.95627,194134645.23679,20267634.67310,  -0.00114,   0.00121,   0.00026,314585280.00000,   0.00000,274640576.00000,   0.00000,   0.00000,   0.00000,-160055296.00000,   0.00000
-166044414.72495,194675964.62319,20479916.78541,  -0.00114,   0.00121,   0.00027,314579456.00000,   0.00000,274640576.00000,   0.00000,   0.00000,   0.00000,-160061120.00000,   0.00000
-165428796.59924,195227898.11520,20692198.89773,  -0.00113,   0.00121,   0.00027,314593728.00000,   0.00000,274640576.00000,   0.00000,   0.00000,   0.00000,-160046848.00000,   0.00000
-164802564.36792,195769217.50160,20904481.01004,  -0.00113,   0.00121,   0.00027,314591584.00000,   0.00000,274640576.00000,   0.00000,   0.00000,   0.00000,-160048992.00000,   0.00000
-164176332.13659,196310536.88800,21116763.12235,  -0.00113,   0.00121,   0.00027,314591296.00000,   0.00000,274640576.00000,   0.00000,   0.00000,   0.00000,-160049280.00000,   0.00000
-163550099.90527,196851856.27440,21323738.18186,  -0.00113,   0.00121,   0.00028,314591968.00000,   0.00000,274640576.00000,   0.00000,   0.00000,   0.00000,-160048608.00000,   0.00000
-162915907.09473,197411750.34562,21530713.24136,  -0.00113,   0.00122,   0.00028,314604320.00000,   0.00000,274640576.00000,   0.00000,   0.00000,   0.00000,-160036256.00000,   0.00000
-162271100.17858,197961030.31123,21737688.30087,  -0.00112,   0.00122,   0.00028,314600384.00000,   0.00000,274640576.00000,   0.00000,   0.00000,   0.00000,-160040192.00000,   0.00000
-161644867.94726,198502349.69763,21944663.36037,  -0.00112,   0.00122,   0.00029,314606656.00000,   0.00000,274640576.00000,   0.00000,   0.00000,   0.00000,-160033920.00000,   0.00000
-160992100.45190,199070204.34807,22146331.36707,  -0.00112,   0.00122,   0.00029,314615520.00000,   0.00000,274640576.00000,   0.00000,   0.00000,   0.00000,-160025056.00000,   0.00000
-160347293.53574,199619484.31368,22347999.37377,  -0.00112,   0.00122,   0.00029,314616480.00000,   0.00000,274640576.00000,   0.00000,   0.00000,   0.00000,-160024096.00000,   0.00000
-159694526.04038,200187338.96412,22549667.38047,  -0.00112,   0.00122,   0.00029,314629152.00000,   0.00000,274640576.00000,   0.00000,   0.00000,   0.00000,-160011424.00000,   0.00000
-159023183.86019,200763154.19377,22751335.38716,  -0.00112,   0.00122,   0.00030,314635904.00000,   0.00000,274640576.00000,   0.00000,   0.00000,   0.00000,-160004672.00000,   0.00000
-158359802.25921,201320394.73859,22947696.34105,  -0.00111,   0.00122,   0.00030,314633312.00000,   0.00000,274640576.00000,   0.00000,   0.00000,   0.00000,-160007264.00000,   0.00000
-157707034.76385,201888249.38903,23144057.29494,  -0.00111,   0.00123,   0.00030,314650752.00000,   0.00000,274640576.00000,   0.00000,   0.00000,   0.00000,-159989824.00000,   0.00000
-157035692.58366,202464064.61867,23340418.24883,  -0.00111,   0.00123,   0.00030,314662144.00000,   0.00000,274640576.00000,   0.00000,   0.00000,   0.00000,-159978432.00000,   0.00000
-156345775.71864,203047840.42754,23536779.20272,  -0.00111,   0.00123,   0.00031,314667296.00000,   0.00000,274640576.00000,   0.00000,   0.00000,   0.00000,-159973280.00000,   0.00000
-155674433.53845,203623655.65719,23727833.10380,  -0.00111,   0.00123,   0.00031,314680928.00000,   0.00000,274640576.00000,   0.00000,   0.00000,   0.00000,-159959648.00000,   0.00000
-155003091.35826,204199470.88684,23918887.00489,  -0.00110,   0.00123,   0.00031,314696256.00000,   0.00000,274640576.00000,   0.00000,   0.00000,   0.00000,-159944320.00000,   0.00000
-154313174.49324,204783246.69570,24109940.90597,  -0.00110,   0.00123,   0.00031,314705408.00000,   0.00000,274640576.00000,   0.00000,   0.00000,   0.00000,-159935168.00000,   0.00000
-153623257.62823,205367022.50456,24300994.80705,  -0.00110,   0.00123,   0.00032,314715968.00000,   0.00000,274640576.00000,   0.00000,   0.00000,   0.00000,-159924608.00000,   0.00000
-152925380.18400,205969372.99825,24486741.65532,  -0.00110,   0.00124,   0.00032,314736896.00000,   0.00000,274640576.00000,   0.00000,   0.00000,   0.00000,-159903680.00000,   0.00000
-152235463.31898,206553148.80711,24672488.50360,  -0.00110,   0.00124,   0.00032,314748768.00000,   0.00000,274640576.00000,   0.00000,   0.00000,   0.00000,-159891808.00000,   0.00000
-151537585.87475,207155499.30080,24858235.35187,  -0.00109,   0.00124,   0.00032,314771776.00000,   0.00000,274640576.00000,   0.00000,   0.00000,   0.00000,-159868800.00000,   0.00000
-150839708.43052,207757849.79448,25038675.14734,  -0.00109,   0.00124,   0.00033,314793888.00000,   0.00000,274640576.00000,   0.00000,   0.00000,   0.00000,-159846688.00000,   0.00000
-150131216.88067,208349586.18256,25219114.94280,  -0.00109,   0.00124,   0.00033,314797504.00000,   0.00000,274640576.00000,   0.00000,   0.00000,   0.00000,-159843072.00000,   0.00000
-149433339.43644,208951936.67625,25399554.73827,  -0.00109,   0.00124,   0.00033,314818144.00000,   0.00000,274640576.00000,   0.00000,   0.00000,   0.00000,-159822432.00000,   0.00000
-148708926.72818,209580822.43397,25574687.48093,  -0.00109,   0.00124,   0.00033,314837440.00000,   0.00000,274640576.00000,   0.00000,   0.00000,   0.00000,-159803136.00000,   0.00000
-147992474.59912,210191133.50687,25755127.27639,  -0.00108,   0.00124,   0.00033,314844608.00000,   0.00000,274640576.00000,   0.00000,   0.00000,   0.00000,-159795968.00000,   0.00000
-147276022.47006,210801444.57977,25924952.96624,  -0.00108,   0.00125,   0.00034,314844992.00000,   0.00000,274640576.00000,   0.00000,   0.00000,   0.00000,-159795584.00000,   0.00000
-146551609.76179,211430330.33750,26100085.70890,  -0.00108,   0.00125,   0.00034,314852768.00000,   0.00000,274640576.00000,   0.00000,   0.00000,   0.00000,-159787808.00000,   0.00000
-145835157.63274,212040641.41040,26269911.39875,  -0.00108,   0.00125,   0.00034,314846080.00000,   0.00000,274640576.00000,   0.00000,   0.00000,   0.00000,-159794496.00000,   0.00000
-145110744.92447,212669527.16813,26439737.08860,  -0.00107,   0.00125,   0.00034,314847744.00000,   0.00000,274640576.00000,   0.00000,   0.00000,   0.00000,-159792832.00000,   0.00000
-144386332.21620,213298412.92586,26609562.77845,  -0.00107,   0.00125,   0.00035,314849696.00000,   0.00000,274640576.00000,   0.00000,   0.00000,   0.00000,-159790880.00000,   0.00000
-143661919.50793,213927298.68359,26774081.41550,  -0.00107,   0.00125,   0.00035,314852992.00000,   0.00000,274640576.00000,   0.00000,   0.00000,   0.00000,-159787584.00000,   0.00000
-142918932.11483,214564145.02053,26938600.05254,  -0.00107,   0.00125,   0.00035,314852608.00000,   0.00000,274640576.00000,   0.00000,   0.00000,   0.00000,-159787968.00000,   0.00000
-142186558.82735,215211605.46308,27097811.63677,  -0.00107,   0.00126,   0.00035,314874944.00000,   0.00000,274640576.00000,   0.00000,   0.00000,   0.00000,-159765632.00000,   0.00000
-141443571.43426,215848451.80002,27257023.22101,  -0.00106,   0.00126,   0.00035,314886080.00000,   0.00000,274640576.00000,   0.00000,   0.00000,   0.00000,-159754496.00000,   0.00000
-140692623.46195,216503872.82179,27416234.80524,  -0.00106,   0.00126,   0.00036,314914656.00000,   0.00000,274640576.00000,   0.00000,   0.00000,   0.00000,-159725920.00000,   0.00000
-139960250.17447,217151333.26434,27575446.38948,  -0.00106,   0.00126,   0.00036,314958080.00000,   0.00000,274640576.00000,   0.00000,   0.00000,   0.00000,-159682496.00000,   0.00000
-139209302.20216,217806754.28611,27729350.92091,  -0.00106,   0.00126,   0.00036,314999488.00000,   0.00000,274640576.00000,   0.00000,   0.00000,   0.00000,-159641088.00000,   0.00000
-138450393.65064,218480749.99270,27877948.39953,  -0.00106,   0.00126,   0.00036,315056896.00000,   0.00000,274640576.00000,   0.00000,   0.00000,   0.00000,-159583680.00000,   0.00000
-137718020.36316,219128210.43526,28031852.93095,  -0.00105,   0.00127,   0.00036,315118720.00000,   0.00000,274640576.00000,   0.00000,   0.00000,   0.00000,-159521856.00000,   0.00000
-136959111.81164,219802206.14185,28180450.40957,  -0.00105,   0.00127,   0.00037,315189792.00000,   0.00000,274640576.00000,   0.00000,   0.00000,   0.00000,-159450784.00000,   0.00000
-136200203.26012,220476201.84845,28329047.88819,  -0.00105,   0.00127,   0.00037,315269408.00000,   0.00000,274640576.00000,   0.00000,   0.00000,   0.00000,-159371168.00000,   0.00000
-135441294.70860,221150197.55504,28472338.31400,  -0.00105,   0.00127,   0.00037,315358880.00000,   0.00000,274640576.00000,   0.00000,   0.00000,   0.00000,-159281696.00000,   0.00000
-134674425.57787,221842767.94646,28615628.73981,  -0.00105,   0.00127,   0.00037,315474368.00000,   0.00000,274640576.00000,   0.00000,   0.00000,   0.00000,-159166208.00000,   0.00000
-133915517.02635,222516763.65306,28753612.11282,  -0.00104,   0.00127,   0.00037,315595808.00000,   0.00000,274640576.00000,   0.00000,   0.00000,   0.00000,-159044768.00000,   0.00000
-133148647.89562,223209334.04448,28891595.48582,  -0.00104,   0.00128,   0.00038,315747360.00000,   0.00000,274640576.00000,   0.00000,   0.00000,   0.00000,-158893216.00000,   0.00000
-132381778.76489,223901904.43590,29029578.85882,  -0.00104,   0.00128,   0.00038,315906336.00000,   0.00000,274640576.00000,   0.00000,   0.00000,   0.00000,-158734240.00000,   0.00000
-131614909.63416,224594474.82732,29162255.17902,  -0.00104,   0.00128,   0.00038,316048224.00000,   0.00000,274640576.00000,   0.00000,   0.00000,   0.00000,-158592352.00000,   0.00000
-130858654.60904,225297659.32436,29294931.49922,  -0.00103,   0.00128,   0.00038,316174432.00000,   0.00000,274640576.00000,   0.00000,   0.00000,   0.00000,-158466144.00000,   0.00000
-130083824.89910,226008804.40061,29427607.81941,  -0.00103,   0.00128,   0.00038,316267936.00000,   0.00000,274640576.00000,   0.00000,   0.00000,   0.00000,-158372640.00000,   0.00000
-129308995.18916,226719949.47686,29554977.08680,  -0.00103,   0.00128,   0.00038,316355936.00000,   0.00000,274640576.00000,   0.00000,   0.00000,   0.00000,-158284640.00000,   0.00000
-128534165.47921,227431094.55311,29682346.35419,  -0.00103,   0.00129,   0.00039,316451360.00000,   0.00000,274640576.00000,   0.00000,   0.00000,   0.00000,-158189216.00000,   0.00000
-127759335.76927,228142239.62936,29804408.56877,  -0.00103,   0.00129,   0.00039,316551296.00000,   0.00000,274640576.00000,   0.00000,   0.00000,   0.00000,-158089280.00000,   0.00000
-126995120.16494,228863998.81122,29926470.78335,  -0.00102,   0.00129,   0.00039,316671360.00000,   0.00000,274640576.00000,   0.00000,   0.00000,   0.00000,-157969216.00000,   0.00000
-126212329.87579,229593718.57230,30043225.94512,  -0.00102,   0.00129,   0.00039,316783680.00000,   0.00000,274640576.00000,   0.00000,   0.00000,   0.00000,-157856896.00000,   0.00000
-125429539.58663,230323438.33337,30159981.10689,  -0.00102,   0.00129,   0.00039,316896320.00000,   0.00000,274640576.00000,   0.00000,   0.00000,   0.00000,-157744256.00000,   0.00000
-124657363.40309,231063772.20007,30276736.26866,  -0.00102,   0.00129,   0.00039,317026944.00000,   0.00000,274640576.00000,   0.00000,   0.00000,   0.00000,-157613632.00000,   0.00000
-123866612.53473,231812066.64597,30388184.37763,  -0.00102,   0.00130,   0.00040,317150208.00000,   0.00000,274640576.00000,   0.00000,   0.00000,   0.00000,-157490368.00000,   0.00000
-123094436.35119,232552400.51266,30499632.48659,  -0.00101,   0.00130,   0.00040,317281184.00000,   0.00000,274640576.00000,   0.00000,   0.00000,   0.00000,-157359392.00000,   0.00000
-122303685.48282,233300694.95857,30605773.54275,  -0.00101,   0.00130,   0.00040,317404992.00000,   0.00000,274640576.00000,   0.00000,   0.00000,   0.00000,-157235584.00000,   0.00000
-121523548.72007,234059603.51008,30711914.59891,  -0.00101,   0.00130,   0.00040,317548032.00000,   0.00000,274640576.00000,   0.00000,   0.00000,   0.00000,-157092544.00000,   0.00000
-120743411.95732,234818512.06160,30812748.60225,  -0.00101,   0.00130,   0.00040,317691040.00000,   0.00000,274640576.00000,   0.00000,   0.00000,   0.00000,-156949536.00000,   0.00000
-119963275.19457,235577420.61312,30913582.60560,  -0.00101,   0.00131,   0.00040,317835520.00000,   0.00000,274640576.00000,   0.00000,   0.00000,   0.00000,-156805056.00000,   0.00000
-119175177.85261,236354903.84947,31009109.55614,  -0.00100,   0.00131,   0.00040,317991296.00000,   0.00000,274640576.00000,   0.00000,   0.00000,   0.00000,-156649280.00000,   0.00000
-118387080.51064,237132387.08582,31104636.50669,  -0.00100,   0.00131,   0.00040,318149056.00000,   0.00000,274640576.00000,   0.00000,   0.00000,   0.00000,-156491520.00000,   0.00000
-117598983.16868,237909870.32216,31200163.45723,  -0.00100,   0.00131,   0.00041,318308448.00000,   0.00000,274640576.00000,   0.00000,   0.00000,   0.00000,-156332128.00000,   0.00000
-116821499.93234,238697967.66413,31290383.35496,  -0.00100,   0.00131,   0.00041,318486144.00000,   0.00000,274640576.00000,   0.00000,   0.00000,   0.00000,-156154432.00000,   0.00000
-116025442.01116,239494025.58530,31380603.25269,  -0.00099,   0.00132,   0.00041,318659296.00000,   0.00000,274640576.00000,   0.00000,   0.00000,   0.00000,-155981280.00000,   0.00000
-115247958.77481,240282122.92726,31465516.09762,  -0.00099,   0.00132,   0.00041,318839456.00000,   0.00000,274640576.00000,   0.00000,   0.00000,   0.00000,-155801120.00000,   0.00000
-114470475.53847,241070220.26923,31545121.88974,  -0.00099,   0.00132,   0.00041,319020128.00000,   0.00000,274640576.00000,   0.00000,   0.00000,   0.00000,-155620448.00000,   0.00000
-113685031.72291,241876892.29602,31630034.73466,  -0.00099,   0.00132,   0.00041,319215968.00000,   0.00000,274640576.00000,   0.00000,   0.00000,   0.00000,-155424608.00000,   0.00000
-112891627.32814,242702139.00763,31704333.47397,  -0.00099,   0.00132,   0.00041,319422432.00000,   0.00000,274640576.00000,   0.00000,   0.00000,   0.00000,-155218144.00000,   0.00000
-112106183.51258,243508811.03442,31783939.26609,  -0.00098,   0.00133,   0.00041,319621280.00000,   0.00000,274640576.00000,   0.00000,   0.00000,   0.00000,-155019296.00000,   0.00000
-111312779.11781,244334057.74604,31852930.95259,  -0.00098,   0.00133,   0.00041,319831008.00000,   0.00000,274640576.00000,   0.00000,   0.00000,   0.00000,-154809568.00000,   0.00000
-110537949.40787,245151343.87845,31921922.63909,  -0.00098,   0.00133,   0.00041,320048928.00000,   0.00000,274640576.00000,   0.00000,   0.00000,   0.00000,-154591648.00000,   0.00000
-109755159.11871,245987204.69568,31990914.32559,  -0.00098,   0.00133,   0.00042,320281056.00000,   0.00000,274640576.00000,   0.00000,   0.00000,   0.00000,-154359520.00000,   0.00000
-108972368.82956,246823065.51291,32054598.95929,  -0.00098,   0.00134,   0.00042,320513888.00000,   0.00000,274640576.00000,   0.00000,   0.00000,   0.00000,-154126688.00000,   0.00000
-108189578.54040,247658926.33015,32118283.59298,  -0.00098,   0.00134,   0.00042,320749120.00000,   0.00000,274640576.00000,   0.00000,   0.00000,   0.00000,-153891456.00000,   0.00000
-107398827.67203,248513361.83221,32176661.17387,  -0.00097,   0.00134,   0.00042,320996768.00000,   0.00000,274640576.00000,   0.00000,   0.00000,   0.00000,-153643808.00000,   0.00000
-106626651.48850,249359836.75506,32235038.75475,  -0.00097,   0.00134,   0.00042,321252832.00000,   0.00000,274640576.00000,   0.00000,   0.00000,   0.00000,-153387744.00000,   0.00000
-105827940.04092,250232846.94194,32288109.28283,  -0.00097,   0.00134,   0.00042,321515520.00000,   0.00000,274640576.00000,   0.00000,   0.00000,   0.00000,-153125056.00000,   0.00000
-105047803.27817,251097896.54962,32341179.81091,  -0.00097,   0.00135,   0.00042,321786528.00000,   0.00000,274640576.00000,   0.00000,   0.00000,   0.00000,-152854048.00000,   0.00000
-104267666.51542,251962946.15730,32388943.28618,  -0.00097,   0.00135,   0.00042,322058048.00000,   0.00000,274640576.00000,   0.00000,   0.00000,   0.00000,-152582528.00000,   0.00000
-103498143.85828,252838609.87059,32431399.70864,  -0.00096,   0.00135,   0.00042,322347840.00000,   0.00000,274640576.00000,   0.00000,   0.00000,   0.00000,-152292736.00000,   0.00000
-102728621.20115,253714273.58388,32473856.13111,  -0.00096,   0.00135,   0.00042,322639840.00000,   0.00000,274640576.00000,   0.00000,   0.00000,   0.00000,-152000736.00000,   0.00000
-101940523.85918,254597897.87638,32516312.55357,  -0.00096,   0.00136,   0.00042,322928320.00000,   0.00000,274640576.00000,   0.00000,   0.00000,   0.00000,-151712256.00000,   0.00000
-101181615.30766,255484175.69529,32553461.92322,  -0.00096,   0.00136,   0.00042,323240256.00000,   0.00000,274640576.00000,   0.00000,   0.00000,   0.00000,-151400320.00000,   0.00000
-100396171.49210,256396988.77824,32585304.24007,  -0.00096,   0.00136,   0.00042,323559104.00000,   0.00000,274640576.00000,   0.00000,   0.00000,   0.00000,-151081472.00000,   0.00000
-99637262.94058,257283266.59714,32617146.55692,  -0.00096,   0.00136,   0.00042,323873472.00000,   0.00000,274640576.00000,   0.00000,   0.00000,   0.00000,-150767104.00000,   0.00000
-98843858.54581,258214654.36492,32648988.87376,  -0.00095,   0.00137,   0.00042,324208224.00000,   0.00000,274640576.00000,   0.00000,   0.00000,   0.00000,-150432352.00000,   0.00000
-98095564.09991,259111546.28944,32670217.08500,  -0.00095,   0.00137,   0.00042,324540480.00000,   0.00000,274640576.00000,   0.00000,   0.00000,   0.00000,-150100096.00000,   0.00000
-97320734.38997,260034973.47800,32696752.34903,  -0.00095,   0.00137,   0.00043,324882688.00000,   0.00000,274640576.00000,   0.00000,   0.00000,   0.00000,-149757888.00000,   0.00000
-96556518.78564,260969014.77218,32712673.50746,  -0.00095,   0.00138,   0.00043,325240832.00000,   0.00000,274640576.00000,   0.00000,   0.00000,   0.00000,-149399744.00000,   0.00000
-95792303.18131,261903056.06636,32733901.71869,  -0.00095,   0.00138,   0.00043,325602240.00000,   0.00000,274640576.00000,   0.00000,   0.00000,   0.00000,-149038336.00000,   0.00000
-95028087.57699,262837097.36054,32744515.82430,  -0.00094,   0.00138,   0.00043,325962208.00000,   0.00000,274640576.00000,   0.00000,   0.00000,   0.00000,-148678368.00000,   0.00000
-94274486.07827,263781752.76033,32755129.92992,  -0.00094,   0.00138,   0.00043,326341056.00000,   0.00000,274640576.00000,   0.00000,   0.00000,   0.00000,-148299520.00000,   0.00000
-93520884.57956,264726408.16012,32765744.03554,  -0.00094,   0.00139,   0.00043,326721408.00000,   0.00000,274640576.00000,   0.00000,   0.00000,   0.00000,-147919168.00000,   0.00000
-92759322.50164,265689638.24475,32765744.03554,  -0.00094,   0.00139,   0.00043,327112576.00000,   0.00000,274640576.00000,   0.00000,   0.00000,   0.00000,-147528000.00000,   0.00000
-92016335.10854,266644907.75015,32771051.08834,  -0.00094,   0.00139,   0.00043,327512192.00000,   0.00000,274640576.00000,   0.00000,   0.00000,   0.00000,-147128384.00000,   0.00000
-91265387.13623,267618751.94039,32765744.03554,  -0.00094,   0.00140,   0.00043,327922240.00000,   0.00000,274640576.00000,   0.00000,   0.00000,   0.00000,-146718336.00000,   0.00000
-90514439.16393,268592596.13063,32760436.98273,  -0.00094,   0.00140,   0.00043,328334144.00000,   0.00000,274640576.00000,   0.00000,   0.00000,   0.00000,-146306432.00000,   0.00000
-89782065.87645,269558479.74165,32755129.92992,  -0.00093,   0.00140,   0.00043,328752928.00000,   0.00000,274640576.00000,   0.00000,   0.00000,   0.00000,-145887648.00000,   0.00000
-89033771.43054,270561512.72233,32744515.82430,  -0.00093,   0.00140,   0.00043,329196288.00000,   0.00000,274640576.00000,   0.00000,   0.00000,   0.00000,-145444288.00000,   0.00000
-88293437.56385,271545971.01818,32728594.66588,  -0.00093,   0.00141,   0.00043,329627744.00000,   0.00000,274640576.00000,   0.00000,   0.00000,   0.00000,-145012832.00000,   0.00000
-87563717.80277,272541043.41965,32712673.50746,  -0.00093,   0.00141,   0.00043,330078464.00000,   0.00000,274640576.00000,   0.00000,   0.00000,   0.00000,-144562112.00000,   0.00000
-86826037.46249,273554690.50595,32691445.29623,  -0.00093,   0.00141,   0.00042,330541760.00000,   0.00000,274640576.00000,   0.00000,   0.00000,   0.00000,-144098816.00000,   0.00000
-86088357.12220,274568337.59224,32670217.08500,  -0.00093,   0.00142,   0.00042,331007072.00000,   0.00000,274640576.00000,   0.00000,   0.00000,   0.00000,-143633504.00000,   0.00000
-85369251.46674,275574024.09933,32643681.82096,  -0.00093,   0.00142,   0.00042,331477568.00000,   0.00000,274640576.00000,   0.00000,   0.00000,   0.00000,-143163008.00000,   0.00000
-84642185.23206,276598285.29124,32611839.50411,  -0.00092,   0.00142,   0.00042,331961088.00000,   0.00000,274640576.00000,   0.00000,   0.00000,   0.00000,-142679488.00000,   0.00000
-83925733.10301,277633160.58876,32579997.18726,  -0.00092,   0.00143,   0.00042,332463840.00000,   0.00000,274640576.00000,   0.00000,   0.00000,   0.00000,-142176736.00000,   0.00000
-83209280.97395,278668035.88629,32542847.81761,  -0.00092,   0.00143,   0.00042,332967104.00000,   0.00000,274640576.00000,   0.00000,   0.00000,   0.00000,-141673472.00000,   0.00000
-82484868.26568,279721485.86865,32500391.39514,  -0.00092,   0.00143,   0.00042,333483328.00000,   0.00000,274640576.00000,   0.00000,   0.00000,   0.00000,-141157248.00000,   0.00000
-81779030.24224,280766975.27179,32457934.97268,  -0.00092,   0.00144,   0.00042,334006368.00000,   0.00000,274640576.00000,   0.00000,   0.00000,   0.00000,-140634208.00000,   0.00000
-81091766.90363,281804504.09572,32415478.55022,  -0.00092,   0.00144,   0.00042,334535904.00000,   0.00000,274640576.00000,   0.00000,   0.00000,   0.00000,-140104672.00000,   0.00000
-80377968.30097,282868568.18369,32362408.02214,  -0.00092,   0.00144,   0.00042,335072288.00000,   0.00000,274640576.00000,   0.00000,   0.00000,   0.00000,-139568288.00000,   0.00000
-79674783.80394,283943246.37727,32309337.49406,  -0.00092,   0.00145,   0.00042,335627968.00000,   0.00000,274640576.00000,   0.00000,   0.00000,   0.00000,-139012608.00000,   0.00000
-78990173.99173,285009963.99165,32256266.96598,  -0.00092,   0.00145,   0.00042,336189952.00000,   0.00000,274640576.00000,   0.00000,   0.00000,   0.00000,-138450624.00000,   0.00000
-78297603.60030,286095256.29085,32197889.38510,  -0.00091,   0.00145,   0.00042,336764896.00000,   0.00000,274640576.00000,   0.00000,   0.00000,   0.00000,-137875680.00000,   0.00000
-77623607.89371,287172588.01084,32134204.75140,  -0.00091,   0.00146,   0.00042,337344448.00000,   0.00000,274640576.00000,   0.00000,   0.00000,   0.00000,-137296128.00000,   0.00000
-76941651.60790,288268494.41565,32065213.06490,  -0.00091,   0.00146,   0.00042,337937088.00000,   0.00000,274640576.00000,   0.00000,   0.00000,   0.00000,-136703488.00000,   0.00000
-76251734.74289,289382975.50530,31996221.37840,  -0.00091,   0.00147,   0.00042,338544096.00000,   0.00000,274640576.00000,   0.00000,   0.00000,   0.00000,-136096480.00000,   0.00000
-75580392.56270,290489496.01573,31921922.63909,  -0.00091,   0.00147,   0.00041,339155680.00000,   0.00000,274640576.00000,   0.00000,   0.00000,   0.00000,-135484896.00000,   0.00000
-74909050.38251,291596016.52616,31847623.89978,  -0.00091,   0.00147,   0.00041,339768704.00000,   0.00000,274640576.00000,   0.00000,   0.00000,   0.00000,-134871872.00000,   0.00000
-74248322.30793,292713151.14221,31768018.10766,  -0.00091,   0.00148,   0.00041,340398944.00000,   0.00000,274640576.00000,   0.00000,   0.00000,   0.00000,-134241632.00000,   0.00000
-73579633.65414,293848860.44309,31683105.26274,  -0.00091,   0.00148,   0.00041,341042176.00000,   0.00000,274640576.00000,   0.00000,   0.00000,   0.00000,-133598400.00000,   0.00000
-72929519.68519,294976609.16475,31598192.41781,  -0.00091,   0.00148,   0.00041,341690976.00000,   0.00000,274640576.00000,   0.00000,   0.00000,   0.00000,-132949600.00000,   0.00000
-72290019.82184,296114971.99203,31507972.52008,  -0.00091,   0.00149,   0.00041,342356960.00000,   0.00000,274640576.00000,   0.00000,   0.00000,   0.00000,-132283616.00000,   0.00000
-71631945.27367,297261295.39852,31412445.56954,  -0.00091,   0.00149,   0.00041,343018496.00000,   0.00000,274640576.00000,   0.00000,   0.00000,   0.00000,-131622080.00000,   0.00000
-71003059.51594,298410272.33141,31311611.56619,  -0.00090,   0.00150,   0.00041,343701568.00000,   0.00000,274640576.00000,   0.00000,   0.00000,   0.00000,-130939008.00000,   0.00000
-70366213.17900,299577823.94914,31210777.56284,  -0.00090,   0.00150,   0.00041,344398720.00000,   0.00000,274640576.00000,   0.00000,   0.00000,   0.00000,-130241856.00000,   0.00000
-69729366.84206,300745375.56686,31109943.55949,  -0.00090,   0.00150,   0.00040,345097504.00000,   0.00000,274640576.00000,   0.00000,   0.00000,   0.00000,-129543072.00000,   0.00000
-69103134.61074,301923541.29020,30998495.45053,  -0.00090,   0.00151,   0.00040,345811936.00000,   0.00000,274640576.00000,   0.00000,   0.00000,   0.00000,-128828640.00000,   0.00000
-68495477.06424,303093746.43432,30887047.34156,  -0.00090,   0.00151,   0.00040,346531968.00000,   0.00000,274640576.00000,   0.00000,   0.00000,   0.00000,-128108608.00000,   0.00000
-67879858.93854,304282526.26328,30775599.23260,  -0.00090,   0.00152,   0.00040,347266496.00000,   0.00000,274640576.00000,   0.00000,   0.00000,   0.00000,-127374080.00000,   0.00000
-67264240.81283,305471306.09223,30653537.01802,  -0.00090,   0.00152,   0.00040,347999776.00000,   0.00000,274640576.00000,   0.00000,   0.00000,   0.00000,-126640800.00000,   0.00000
-66659236.79274,306670700.02680,30531474.80344,  -0.00090,   0.00153,   0.00040,348751744.00000,   0.00000,274640576.00000,   0.00000,   0.00000,   0.00000,-125888832.00000,   0.00000
-66064846.87826,307880708.06699,30409412.58886,  -0.00090,   0.00153,   0.00040,349522496.00000,   0.00000,274640576.00000,   0.00000,   0.00000,   0.00000,-125118080.00000,   0.00000
-65462496.38457,309109290.79200,30276736.26866,  -0.00090,   0.00153,   0.00039,350305408.00000,   0.00000,274640576.00000,   0.00000,   0.00000,   0.00000,-124335168.00000,   0.00000
-64886681.15492,310311338.25297,30144059.94847,  -0.00090,   0.00154,   0.00039,351080928.00000,   0.00000,274640576.00000,   0.00000,   0.00000,   0.00000,-123559648.00000,   0.00000
-64313519.45168,311542574.50439,30006076.57546,  -0.00090,   0.00154,   0.00039,351887104.00000,   0.00000,274640576.00000,   0.00000,   0.00000,   0.00000,-122753472.00000,   0.00000
-63740357.74843,312773810.75580,29868093.20246,  -0.00090,   0.00155,   0.00039,352695104.00000,   0.00000,274640576.00000,   0.00000,   0.00000,   0.00000,-121945472.00000,   0.00000
-63159235.46597,314023621.69205,29724802.77665,  -0.00090,   0.00155,   0.00039,353517056.00000,   0.00000,274640576.00000,   0.00000,   0.00000,   0.00000,-121123520.00000,   0.00000
-62596687.86834,315265472.04908,29576205.29803,  -0.00090,   0.00156,   0.00038,354343456.00000,   0.00000,274640576.00000,   0.00000,   0.00000,   0.00000,-120297120.00000,   0.00000
-62044754.37633,316517936.51173,29422300.76660,  -0.00090,   0.00156,   0.00038,355187584.00000,   0.00000,274640576.00000,   0.00000,   0.00000,   0.00000,-119452992.00000,   0.00000
-61503434.98993,317781015.07999,29268396.23518,  -0.00090,   0.00157,   0.00038,356050784.00000,   0.00000,274640576.00000,   0.00000,   0.00000,   0.00000,-118589792.00000,   0.00000
-60962115.60353,319044093.64825,29109184.65094,  -0.00090,   0.00157,   0.00038,356914752.00000,   0.00000,274640576.00000,   0.00000,   0.00000,   0.00000,-117725824.00000,   0.00000
-60412835.63792,320325746.90134,28949973.06671,  -0.00090,   0.00158,   0.00038,357794112.00000,   0.00000,274640576.00000,   0.00000,   0.00000,   0.00000,-116846464.00000,   0.00000
-59892744.46275,321610053.68084,28780147.37686,  -0.00090,   0.00158,   0.00037,358693312.00000,   0.00000,274640576.00000,   0.00000,   0.00000,   0.00000,-115947264.00000,   0.00000
-59372653.28759,322894360.46033,28610321.68701,  -0.00090,   0.00158,   0.00037,359594560.00000,   0.00000,274640576.00000,   0.00000,   0.00000,   0.00000,-115046016.00000,   0.00000
-58844601.53321,324197241.92466,28435188.94435,  -0.00090,   0.00159,   0.00037,360509792.00000,   0.00000,274640576.00000,   0.00000,   0.00000,   0.00000,-114130784.00000,   0.00000
-58327163.88444,325510737.49459,28260056.20169,  -0.00090,   0.00159,   0.00037,361443712.00000,   0.00000,274640576.00000,   0.00000,   0.00000,   0.00000,-113196864.00000,   0.00000
-57828300.92051,326816272.48532,28079616.40622,  -0.00090,   0.00160,   0.00037,362381632.00000,   0.00000,274640576.00000,   0.00000,   0.00000,   0.00000,-112258944.00000,   0.00000
-57340052.06219,328132421.58166,27893869.55795,  -0.00090,   0.00160,   0.00036,363336512.00000,   0.00000,274640576.00000,   0.00000,   0.00000,   0.00000,-111304064.00000,   0.00000
-56851803.20387,329448570.67800,27702815.65687,  -0.00090,   0.00161,   0.00036,364291648.00000,   0.00000,274640576.00000,   0.00000,   0.00000,   0.00000,-110348928.00000,   0.00000
-56374168.45116,330775333.87996,27511761.75579,  -0.00090,   0.00161,   0.00036,365264864.00000,   0.00000,274640576.00000,   0.00000,   0.00000,   0.00000,-109375712.00000,   0.00000
-55888573.11925,332120671.76674,27315400.80190,  -0.00090,   0.00162,   0.00036,366251328.00000,   0.00000,274640576.00000,   0.00000,   0.00000,   0.00000,-108389248.00000,   0.00000
-55413591.89295,333476623.75914,27113732.79520,  -0.00090,   0.00163,   0.00035,367254400.00000,   0.00000,274640576.00000,   0.00000,   0.00000,   0.00000,-107386176.00000,   0.00000
-54957185.35147,334824615.17233,26912064.78850,  -0.00090,   0.00163,   0.00035,368261664.00000,   0.00000,274640576.00000,   0.00000,   0.00000,   0.00000,-106378912.00000,   0.00000
-54511392.91562,336183220.69114,26705089.72900,  -0.00090,   0.00164,   0.00035,369285184.00000,   0.00000,274640576.00000,   0.00000,   0.00000,   0.00000,-105355392.00000,   0.00000
-54065600.47976,337541826.20994,26492807.61668,  -0.00090,   0.00164,   0.00034,370307904.00000,   0.00000,274640576.00000,   0.00000,   0.00000,   0.00000,-104332672.00000,   0.00000
-53630422.14952,338911045.83436,26275218.45156,  -0.00090,   0.00165,   0.00034,371346624.00000,   0.00000,274640576.00000,   0.00000,   0.00000,   0.00000,-103293952.00000,   0.00000
-53187283.24006,340298840.14361,26057629.28644,  -0.00091,   0.00165,   0.00034,372399040.00000,   0.00000,274640576.00000,   0.00000,   0.00000,   0.00000,-102241536.00000,   0.00000
-52773333.12105,341689287.97926,25834733.06851,  -0.00091,   0.00166,   0.00034,373470848.00000,   0.00000,274640576.00000,   0.00000,   0.00000,   0.00000,-101169728.00000,   0.00000
-52359383.00204,343079735.81491,25606529.79777,  -0.00091,   0.00166,   0.00033,374541600.00000,   0.00000,274640576.00000,   0.00000,   0.00000,   0.00000,-100098976.00000,   0.00000
-51937472.30382,344488758.33539,25378326.52704,  -0.00091,   0.00167,   0.00033,375625856.00000,   0.00000,274640576.00000,   0.00000,   0.00000,   0.00000,-99014720.00000,   0.00000
-51552710.97525,345881859.69744,25139509.15069,  -0.00091,   0.00167,   0.00033,376714720.00000,   0.00000,274640576.00000,   0.00000,   0.00000,   0.00000,-97925856.00000,   0.00000
-51159989.06747,347293535.74433,24900691.77433,  -0.00091,   0.00168,   0.00032,377817248.00000,   0.00000,274640576.00000,   0.00000,   0.00000,   0.00000,-96823328.00000,   0.00000
-50777881.26531,348715825.89683,24661874.39798,  -0.00091,   0.00169,   0.00032,378936960.00000,   0.00000,274640576.00000,   0.00000,   0.00000,   0.00000,-95703616.00000,   0.00000
-50387812.88393,350156690.73415,24412442.91601,  -0.00091,   0.00169,   0.00032,380068448.00000,   0.00000,274640576.00000,   0.00000,   0.00000,   0.00000,-94572128.00000,   0.00000
-50034893.87221,351581634.41305,24163011.43405,  -0.00091,   0.00170,   0.00031,381206944.00000,   0.00000,274640576.00000,   0.00000,   0.00000,   0.00000,-93433632.00000,   0.00000
-49674014.28128,353025152.77678,23908272.89927,  -0.00091,   0.00170,   0.00031,382358816.00000,   0.00000,274640576.00000,   0.00000,   0.00000,   0.00000,-92281760.00000,   0.00000
-49323748.79596,354479285.24613,23653534.36449,  -0.00092,   0.00171,   0.00031,383528096.00000,   0.00000,274640576.00000,   0.00000,   0.00000,   0.00000,-91112480.00000,   0.00000
-48965522.73143,355951992.40030,23388181.72410,  -0.00092,   0.00172,   0.00030,384710080.00000,   0.00000,274640576.00000,   0.00000,   0.00000,   0.00000,-89930496.00000,   0.00000
-48644446.03656,357408778.39605,23122829.08371,  -0.00092,   0.00172,   0.00030,385899936.00000,   0.00000,274640576.00000,   0.00000,   0.00000,   0.00000,-88740640.00000,   0.00000
-48323369.34169,358865564.39180,22852169.39051,  -0.00092,   0.00173,   0.00030,387090240.00000,   0.00000,274640576.00000,   0.00000,   0.00000,   0.00000,-87550336.00000,   0.00000
-48004946.17322,360351539.17799,22581509.69731,  -0.00092,   0.00173,   0.00029,388312352.00000,   0.00000,274640576.00000,   0.00000,   0.00000,   0.00000,-86328224.00000,   0.00000
-47686523.00475,361837513.96418,22300235.89850,  -0.00092,   0.00174,   0.00029,389534624.00000,   0.00000,274640576.00000,   0.00000,   0.00000,   0.00000,-85105952.00000,   0.00000
-47397288.62672,363326142.27678,22018962.09968,  -0.00092,   0.00175,   0.00029,390778688.00000,   0.00000,274640576.00000,   0.00000,   0.00000,   0.00000,-83861888.00000,   0.00000
-47100093.66948,364833345.27420,21732381.24806,  -0.00093,   0.00175,   0.00028,392037920.00000,   0.00000,274640576.00000,   0.00000,   0.00000,   0.00000,-82602656.00000,   0.00000
-46821473.39707,366332587.69241,21445800.39644,  -0.00093,   0.00176,   0.00028,393302432.00000,   0.00000,274640576.00000,   0.00000,   0.00000,   0.00000,-81338144.00000,   0.00000
-46534892.54545,367850404.79545,21148605.43920,  -0.00093,   0.00176,   0.00027,394581216.00000,   0.00000,274640576.00000,   0.00000,   0.00000,   0.00000,-80059360.00000,   0.00000
-46277500.48427,369370875.42490,20851410.48196,  -0.00093,   0.00177,   0.00027,395882304.00000,   0.00000,274640576.00000,   0.00000,   0.00000,   0.00000,-78758272.00000,   0.00000
-46020108.42309,370891346.05434,20548908.47191,  -0.00093,   0.00178,   0.00027,397184960.00000,   0.00000,274640576.00000,   0.00000,   0.00000,   0.00000,-77455616.00000,   0.00000
-45765369.88831,372441005.47422,20246406.46187,  -0.00093,   0.00178,   0.00026,398520640.00000,   0.00000,274640576.00000,   0.00000,   0.00000,   0.00000,-76119936.00000,   0.00000
-45529206.03836,373982704.31490,19938597.39901,  -0.00094,   0.00179,   0.00026,399860992.00000,   0.00000,274640576.00000,   0.00000,   0.00000,   0.00000,-74779584.00000,   0.00000
-45311616.87324,375516442.57636,19620174.23054,  -0.00094,   0.00180,   0.00026,401204960.00000,   0.00000,274640576.00000,   0.00000,   0.00000,   0.00000,-73435616.00000,   0.00000
-45086067.12891,377068755.52265,19307058.11488,  -0.00094,   0.00180,   0.00025,402565632.00000,   0.00000,274640576.00000,   0.00000,   0.00000,   0.00000,-72074944.00000,   0.00000
-44881745.59581,378642296.68017,18983327.89360,  -0.00094,   0.00181,   0.00025,403960448.00000,   0.00000,274640576.00000,   0.00000,   0.00000,   0.00000,-70680128.00000,   0.00000
-44685384.64192,380197263.15287,18659597.67233,  -0.00094,   0.00182,   0.00024,405343232.00000,   0.00000,274640576.00000,   0.00000,   0.00000,   0.00000,-69297344.00000,   0.00000
-44491677.21443,381781418.41600,18330560.39824,  -0.00095,   0.00182,   0.00024,406757632.00000,   0.00000,274640576.00000,   0.00000,   0.00000,   0.00000,-67882944.00000,   0.00000
-44316544.47178,383357613.09993,17996216.07135,  -0.00095,   0.00183,   0.00023,408175616.00000,   0.00000,274640576.00000,   0.00000,   0.00000,   0.00000,-66464960.00000,   0.00000
-44133451.14991,384952382.46868,17656564.69165,  -0.00095,   0.00184,   0.00023,409608192.00000,   0.00000,274640576.00000,   0.00000,   0.00000,   0.00000,-65032384.00000,   0.00000
-43960971.93365,386557765.94305,17316913.31195,  -0.00095,   0.00184,   0.00023,411058464.00000,   0.00000,274640576.00000,   0.00000,   0.00000,   0.00000,-63582112.00000,   0.00000
-43825642.08705,388147228.25899,16971954.87944,  -0.00096,   0.00185,   0.00022,412514720.00000,   0.00000,274640576.00000,   0.00000,   0.00000,   0.00000,-62125856.00000,   0.00000
-43682351.66124,389755265.25977,16621689.39412,  -0.00096,   0.00186,   0.00022,413985184.00000,   0.00000,274640576.00000,   0.00000,   0.00000,   0.00000,-60655392.00000,   0.00000
-43549675.34104,391373916.36615,16266116.85600,  -0.00096,   0.00187,   0.00021,415472224.00000,   0.00000,274640576.00000,   0.00000,   0.00000,   0.00000,-59168352.00000,   0.00000
-43409038.44164,393011142.15737,15910544.31787,  -0.00096,   0.00187,   0.00021,416973984.00000,   0.00000,274640576.00000,   0.00000,   0.00000,   0.00000,-57666592.00000,   0.00000
-43305550.91188,394632446.79016,15549664.72694,  -0.00097,   0.00188,   0.00020,418481472.00000,   0.00000,274640576.00000,   0.00000,   0.00000,   0.00000,-56159104.00000,   0.00000
-43194102.80292,396272326.10778,15183478.08320,  -0.00097,   0.00189,   0.00020,420003168.00000,   0.00000,274640576.00000,   0.00000,   0.00000,   0.00000,-54637408.00000,   0.00000
-43111843.48440,397914858.95180,14817291.43946,  -0.00097,   0.00189,   0.00019,421545376.00000,   0.00000,274640576.00000,   0.00000,   0.00000,   0.00000,-53095200.00000,   0.00000
-43029584.16588,399557391.79583,14440490.69010,  -0.00097,   0.00190,   0.00019,423087776.00000,   0.00000,274640576.00000,   0.00000,   0.00000,   0.00000,-51552800.00000,   0.00000
-42949978.37376,401229113.43029,14063689.94075,  -0.00098,   0.00191,   0.00018,424662976.00000,   0.00000,274640576.00000,   0.00000,   0.00000,   0.00000,-49977600.00000,   0.00000
-42870372.58164,402900835.06476,13681582.13858,  -0.00098,   0.00192,   0.00018,426240096.00000,   0.00000,274640576.00000,   0.00000,   0.00000,   0.00000,-48400480.00000,   0.00000
-42827916.15918,404556635.54080,13299474.33642,  -0.00098,   0.00192,   0.00017,427825536.00000,   0.00000,274640576.00000,   0.00000,   0.00000,   0.00000,-46815040.00000,   0.00000
-42769538.57829,406249585.38650,12906752.42864,  -0.00099,   0.00193,   0.00017,429440384.00000,   0.00000,274640576.00000,   0.00000,   0.00000,   0.00000,-45200192.00000,   0.00000
-42748310.36706,407926614.07377,12514030.52086,  -0.00099,   0.00194,   0.00016,431062080.00000,   0.00000,274640576.00000,   0.00000,   0.00000,   0.00000,-43578496.00000,   0.00000
-42719121.57662,409622217.44587,12116001.56027,  -0.00099,   0.00195,   0.00016,432697184.00000,   0.00000,274640576.00000,   0.00000,   0.00000,   0.00000,-41943392.00000,   0.00000
-42708507.47100,411309860.23876,11717972.59969,  -0.00100,   0.00195,   0.00015,434334368.00000,   0.00000,274640576.00000,   0.00000,   0.00000,   0.00000,-40306208.00000,   0.00000
-42700546.89179,413026691.82210,11309329.53348,  -0.00100,   0.00196,   0.00015,436001280.00000,   0.00000,274640576.00000,   0.00000,   0.00000,   0.00000,-38639296.00000,   0.00000
-42711160.99741,414735562.82622,10900686.46728,  -0.00100,   0.00197,   0.00014,437672416.00000,   0.00000,274640576.00000,   0.00000,   0.00000,   0.00000,-36968160.00000,   0.00000
-42721775.10302,416444433.83034,10486736.34827,  -0.00101,   0.00198,   0.00014,439347072.00000,   0.00000,274640576.00000,   0.00000,   0.00000,   0.00000,-35293504.00000,   0.00000
-42753617.41987,418174533.04569,10067479.17645,  -0.00101,   0.00199,   0.00013,441060000.00000,   0.00000,274640576.00000,   0.00000,   0.00000,   0.00000,-33580576.00000,   0.00000
-42785459.73672,419904632.26104,9648222.00463,  -0.00101,   0.00199,   0.00013,442778944.00000,   0.00000,274640576.00000,   0.00000,   0.00000,   0.00000,-31861632.00000,   0.00000
-42846490.84401,421637385.00280,9223657.78001,  -0.00102,   0.00200,   0.00012,444522624.00000,   0.00000,274640576.00000,   0.00000,   0.00000,   0.00000,-30117952.00000,   0.00000
-42899561.37209,423388712.42938,8793786.50257,  -0.00102,   0.00201,   0.00011,446284576.00000,   0.00000,274640576.00000,   0.00000,   0.00000,   0.00000,-28356000.00000,   0.00000
-42971206.58499,425132079.27675,8358608.17233,  -0.00102,   0.00202,   0.00011,448052352.00000,   0.00000,274640576.00000,   0.00000,   0.00000,   0.00000,-26588224.00000,   0.00000
-43045505.32430,426904634.91457,7923429.84209,  -0.00103,   0.00203,   0.00010,449853344.00000,   0.00000,274640576.00000,   0.00000,   0.00000,   0.00000,-24787232.00000,   0.00000
-43138378.74844,428669229.97317,7482944.45904,  -0.00103,   0.00203,   0.00010,451658368.00000,   0.00000,274640576.00000,   0.00000,   0.00000,   0.00000,-22982208.00000,   0.00000
-43231252.17257,430433825.03178,7037152.02318,  -0.00104,   0.00204,   0.00009,453463776.00000,   0.00000,274640576.00000,   0.00000,   0.00000,   0.00000,-21176800.00000,   0.00000
-43345353.80794,432219648.30161,6586052.53452,  -0.00104,   0.00205,   0.00009,455302880.00000,   0.00000,274640576.00000,   0.00000,   0.00000,   0.00000,-19337696.00000,   0.00000
-43459455.44331,434005471.57144,6134953.04585,  -0.00104,   0.00206,   0.00008,457142016.00000,   0.00000,274640576.00000,   0.00000,   0.00000,   0.00000,-17498560.00000,   0.00000
-43610706.44833,435775373.68286,5678546.50438,  -0.00105,   0.00207,   0.00007,458986336.00000,   0.00000,274640576.00000,   0.00000,   0.00000,   0.00000,-15654240.00000,   0.00000
-43746036.29493,437582425.16392,5216832.91010,  -0.00105,   0.00208,   0.00007,460858528.00000,   0.00000,274640576.00000,   0.00000,   0.00000,   0.00000,-13782048.00000,   0.00000
-43899940.82636,439381516.06578,4749812.26301,  -0.00106,   0.00208,   0.00006,462733376.00000,   0.00000,274640576.00000,   0.00000,   0.00000,   0.00000,-11907200.00000,   0.00000
-44064459.46340,441191221.07324,4282791.61592,  -0.00106,   0.00209,   0.00006,464625152.00000,   0.00000,274640576.00000,   0.00000,   0.00000,   0.00000,-10015424.00000,   0.00000
-44239592.20606,443011540.18633,3810463.91602,  -0.00107,   0.00210,   0.00005,466534368.00000,   0.00000,274640576.00000,   0.00000,   0.00000,   0.00000,-8106208.00000,   0.00000
-44433299.63355,444823898.72020,3332829.16332,  -0.00107,   0.00211,   0.00004,468447232.00000,   0.00000,274640576.00000,   0.00000,   0.00000,   0.00000,-6193344.00000,   0.00000
-44611085.90261,446673406.62373,2849887.35780,  -0.00107,   0.00212,   0.00004,470389664.00000,   0.00000,274640576.00000,   0.00000,   0.00000,   0.00000,-4250912.00000,   0.00000
-44833982.12054,448488418.68401,2366945.55229,  -0.00108,   0.00213,   0.00003,472325248.00000,   0.00000,274640576.00000,   0.00000,   0.00000,   0.00000,-2315328.00000,   0.00000
-45040957.18004,450340580.11394,1878696.69397,  -0.00108,   0.00214,   0.00002,474291456.00000,   0.00000,274640576.00000,   0.00000,   0.00000,   0.00000,-349120.00000,   0.00000
-45084108.08012,450665149.92756,1791456.83077,  -0.00108,   0.00214,   0.00002,474640032.00000,   0.00000,274640576.00000,   0.00000,   0.00000,   0.00000,-544.00000,   0.00000
-45034655.07844,450711950.78721,1370759.94807,  -0.00109,   0.00215,   0.00002,474640032.00000,   0.00001,274647936.00000,  -0.00000,   0.00001,   0.00000,  64.00000,   2.00000
-44965065.09256,450771987.30613,861760.96462,  -0.00109,   0.00215,   0.00001,476637568.00000,   0.00001,274656928.00000,  -0.00001,   0.00002,   0.00000,   0.00000,   2.00000
-44903177.57257,450826289.24615,344345.43184,  -0.00110,   0.00216,   0.00001,476664448.00000,   0.00002,274666016.00000,  -0.00001,   0.00002,   0.00000, 160.00000,   2.00000
-44848842.50102,450874460.63013,-170819.50428,  -0.00110,   0.00217,  -0.00000,476691808.00000,   0.00003,274675200.00000,  -0.00002,   0.00003,   0.00000, -32.00000,   2.00000
-44812077.49486,450911156.13379,-683607.24402,  -0.00111,   0.00218,  -0.00001,476704864.00000,   0.00004,274684384.00000,  -0.00002,   0.00004,   0.00000,   0.00000,   2.00000
-44782644.93601,450941934.15013,-1204605.21628,  -0.00111,   0.00219,  -0.00001,476732000.00000,   0.00005,274693664.00000,  -0.00003,   0.00005,   0.00000,   0.00000,   2.00000
-44752430.10397,450971245.37751,-1723107.82195,  -0.00112,   0.00220,  -0.00002,476742880.00000,   0.00006,274702944.00000,  -0.00003,   0.00006,   0.00000,   0.00000,   2.00000
-44747548.33166,450984721.55100,-2244386.46117,  -0.00112,   0.00221,  -0.00003,476772512.00000,   0.00007,274712320.00000,  -0.00004,   0.00007,   0.00000, 128.00000,   2.00000
-44731575.13651,451002425.23906,-2768358.84310,  -0.00113,   0.00222,  -0.00004,476797664.00000,   0.00007,274721760.00000,  -0.00004,   0.00008,   0.00000, 128.00000,   2.00000
-44740730.05417,451004154.75571,-3289646.27107,  -0.00113,   0.00223,  -0.00004,476827712.00000,   0.00008,274731296.00000,  -0.00005,   0.00009,   0.00000,  96.00000,   2.00000
-44738639.89131,451010266.25359,-3813482.80490,  -0.00114,   0.00224,  -0.00005,476852832.00000,   0.00009,274740928.00000,  -0.00005,   0.00010,   0.00000, -96.00000,   2.00000
-44753481.89956,451004821.34519,-4339828.70209,  -0.00114,   0.00225,  -0.00006,476866400.00000,   0.00010,274750560.00000,  -0.00006,   0.00011,   0.00000,  32.00000,   2.00000
-44775066.47342,450993768.79660,-4863276.30520,  -0.00115,   0.00226,  -0.00006,476894016.00000,   0.00011,274760256.00000,  -0.00007,   0.00012,   0.00000, -64.00000,   2.00000
-44813319.46557,450970988.68826,-5394408.14381,  -0.00115,   0.00227,  -0.00007,476907968.00000,   0.00012,274770016.00000,  -0.00007,   0.00013,   0.00000, -96.00000,   2.00000
-44858100.70650,450942757.45147,-5917197.13374,  -0.00116,   0.00227,  -0.00008,476935488.00000,   0.00013,274779808.00000,  -0.00008,   0.00014,   0.00000, -64.00000,   2.00000
-44909259.07199,450908784.30736,-6447443.45087,  -0.00116,   0.00228,  -0.00008,476963616.00000,   0.00014,274789728.00000,  -0.00008,   0.00015,  -0.00000,   0.00000,   2.00000
-44948641.55922,450879296.34563,-6979788.40601,  -0.00117,   0.00229,  -0.00009,476989376.00000,   0.00014,274799712.00000,  -0.00009,   0.00015,  -0.00000,  96.00000,   2.00000
-45022522.63097,450828026.67756,-7508968.27247,  -0.00118,   0.00230,  -0.00010,477005952.00000,   0.00015,274809696.00000,  -0.00009,   0.00016,  -0.00000,  64.00000,   2.00000
-45084489.03695,450781704.97157,-8034853.43159,  -0.00118,   0.00231,  -0.00011,477031392.00000,   0.00016,274819776.00000,  -0.00010,   0.00017,  -0.00000,  64.00000,   2.00000
-45152497.26297,450729424.14450,-8567904.19816,  -0.00119,   0.00232,  -0.00011,477060096.00000,   0.00017,274829952.00000,  -0.00010,   0.00018,  -0.00000, -32.00000,   2.00000
-45236728.45753,450665973.83979,-9097692.73131,  -0.00119,   0.00233,  -0.00012,477074272.00000,   0.00018,274840160.00000,  -0.00011,   0.00019,  -0.00000,  32.00000,   2.00000
-45326833.45751,450596899.13334,-9629231.81172,  -0.00120,   0.00234,  -0.00013,477102880.00000,   0.00019,274850432.00000,  -0.00011,   0.00020,  -0.00000, 128.00000,   2.00000
-45422724.12515,450522221.18807,-10162449.85155,  -0.00121,   0.00235,  -0.00014,477131552.00000,   0.00020,274860800.00000,  -0.00012,   0.00021,  -0.00000,  32.00000,   2.00000
-45534578.69277,450436471.04052,-10692298.54176,  -0.00121,   0.00236,  -0.00014,477146080.00000,   0.00021,274871168.00000,  -0.00013,   0.00022,  -0.00000, 256.00000,   2.00000
-45651985.76390,450345037.33712,-11223739.30467,  -0.00122,   0.00237,  -0.00015,477174848.00000,   0.00022,274881664.00000,  -0.00013,   0.00023,  -0.00000, -32.00000,   2.00000
-45756910.95285,450258650.11960,-11756802.15012,  -0.00122,   0.00238,  -0.00016,477201152.00000,   0.00023,274892192.00000,  -0.00014,   0.00024,  -0.00001, 128.00000,   2.00000
-45895684.31971,450150863.98567,-12286374.15157,  -0.00123,   0.00239,  -0.00017,477218656.00000,   0.00024,274902784.00000,  -0.00014,   0.00026,  -0.00001, 128.00000,   2.00000
-46021767.09306,450048118.04384,-12817529.87829,  -0.00124,   0.00240,  -0.00017,477245120.00000,   0.00025,274913440.00000,  -0.00015,   0.00027,  -0.00001, 224.00000,   2.00000
-46153179.51073,449939883.13336,-13350164.83170,  -0.00124,   0.00241,  -0.00018,477274496.00000,   0.00026,274924192.00000,  -0.00016,   0.00028,  -0.00001, 256.00000,   2.00000
-46289946.16437,449826655.67635,-13878993.31180,  -0.00125,   0.00242,  -0.00019,477303360.00000,   0.00027,274935040.00000,  -0.00016,   0.00029,  -0.00001,  32.00000,   2.00000
-46442233.67857,449702360.75330,-14409722.52982,  -0.00126,   0.00243,  -0.00020,477318720.00000,   0.00028,274945920.00000,  -0.00017,   0.00030,  -0.00001,  32.00000,   2.00000
-46591898.18864,449577198.71703,-14942465.68193,  -0.00126,   0.00244,  -0.00021,477331680.00000,   0.00029,274956800.00000,  -0.00017,   0.00031,  -0.00001,  32.00000,   2.00000
-46754374.61939,449442563.01038,-15476152.02068,  -0.00127,   0.00245,  -0.00021,477377952.00000,   0.00030,274967840.00000,  -0.00018,   0.00032,  -0.00001, -32.00000,   2.00000
-46914247.03839,449307657.63824,-16006647.30243,  -0.00128,   0.00246,  -0.00022,477390592.00000,   0.00031,274978880.00000,  -0.00019,   0.00033,  -0.00001,  64.00000,   2.00000
-47097131.20601,449157454.01303,-16538591.50644,  -0.00128,   0.00248,  -0.00023,477423168.00000,   0.00032,274990048.00000,  -0.00019,   0.00034,  -0.00001,  64.00000,   2.00000
-47277281.00603,449006947.83234,-17067455.48974,  -0.00129,   0.00249,  -0.00024,477436192.00000,   0.00033,275001216.00000,  -0.00020,   0.00035,  -0.00002,   0.00000,   2.00000
-47462307.97572,448851541.54770,-17597955.85679,  -0.00130,   0.00250,  -0.00025,477466112.00000,   0.00034,275012480.00000,  -0.00020,   0.00036,  -0.00002, -64.00000,   2.00000
-47662569.92759,448685336.97663,-18130670.76435,  -0.00130,   0.00251,  -0.00025,477482112.00000,   0.00035,275023744.00000,  -0.00021,   0.00037,  -0.00002, -32.00000,   2.00000
-47839255.65602,448530875.89761,-18664653.06368,  -0.00131,   0.00252,  -0.00026,477523680.00000,   0.00036,275035168.00000,  -0.00022,   0.00038,  -0.00002,  32.00000,   2.00000
-48049301.08728,448355408.79667,-19195555.39381,  -0.00132,   0.00253,  -0.00027,477542432.00000,   0.00037,275046624.00000,  -0.00022,   0.00039,  -0.00002,-160.00000,   2.00000
-48256612.52342,448179721.85480,-19728972.99661,  -0.00132,   0.00254,  -0.00028,477556064.00000,   0.00038,275058112.00000,  -0.00023,   0.00041,  -0.00002, 128.00000,   2.00000
-48486869.12569,447989486.89328,-20258827.71796,  -0.00133,   0.00255,  -0.00029,477589056.00000,   0.00039,275069664.00000,  -0.00024,   0.00042,  -0.00002,  32.00000,   2.00000
-48703960.22951,447804954.35526,-20790667.66022,  -0.00134,   0.00256,  -0.00030,477617184.00000,   0.00040,275081312.00000,  -0.00024,   0.00043,  -0.00002, 256.00000,   2.00000
-48936442.28206,447609412.90070,-21325004.60465,  -0.00135,   0.00257,  -0.00030,477634272.00000,   0.00041,275092992.00000,  -0.00025,   0.00044,  -0.00003,  64.00000,   2.00000
-49156098.44776,447420168.26979,-21856095.16054,  -0.00135,   0.00258,  -0.00031,477661920.00000,   0.00042,275104704.00000,  -0.00026,   0.00045,  -0.00003,  64.00000,   2.00000
-49398903.59544,447215688.53183,-22388913.59763,  -0.00136,   0.00259,  -0.00032,477695872.00000,   0.00043,275116544.00000,  -0.00026,   0.00046,  -0.00003,  96.00000,   2.00000
-49639439.08929,447010457.20259,-22924358.51438,  -0.00137,   0.00260,  -0.00033,477710688.00000,   0.00045,275128384.00000,  -0.00027,   0.00047,  -0.00003,  32.00000,   2.00000
-49885519.69618,446800968.35997,-23456303.70852,  -0.00137,   0.00262,  -0.00034,477741376.00000,   0.00046,275140320.00000,  -0.00028,   0.00049,  -0.00003, 128.00000,   2.00000
-50147592.73661,446579891.07922,-23990590.33603,  -0.00138,   0.00263,  -0.00035,477759232.00000,   0.00047,275152288.00000,  -0.00028,   0.00050,  -0.00003,  32.00000,   2.00000
-50415321.52724,446353705.56667,-24526372.11609,  -0.00139,   0.00264,  -0.00036,477790912.00000,   0.00048,275164320.00000,  -0.00029,   0.00051,  -0.00004,  96.00000,   2.00000
-50688932.20784,446122638.72491,-25058167.10828,  -0.00140,   0.00265,  -0.00036,477822080.00000,   0.00049,275176448.00000,  -0.00030,   0.00052,  -0.00004,  96.00000,   2.00000
-50961013.08988,445889959.05615,-25591845.40482,  -0.00141,   0.00266,  -0.00037,477837376.00000,   0.00050,275188576.00000,  -0.00030,   0.00053,  -0.00004,  96.00000,   2.00000
-51239295.64614,445652150.60089,-26120931.96083,  -0.00141,   0.00267,  -0.00038,477868448.00000,   0.00051,275200800.00000,  -0.00031,   0.00054,  -0.00004,  64.00000,   2.00000
-51534238.89772,445401925.37892,-26651050.14608,  -0.00142,   0.00268,  -0.00039,477886592.00000,   0.00052,275213056.00000,  -0.00032,   0.00056,  -0.00004, 128.00000,   2.00000
-51835267.19892,445145353.89081,-27180988.58731,  -0.00143,   0.00269,  -0.00040,477918624.00000,   0.00053,275225376.00000,  -0.00032,   0.00057,  -0.00005,  64.00000,   2.00000
-52142577.80707,444883194.87029,-27705165.28270,  -0.00144,   0.00271,  -0.00041,477949536.00000,   0.00055,275237824.00000,  -0.00033,   0.00058,  -0.00005, 128.00000,   2.00000
-52448645.26124,444618736.77533,-28229622.94840,  -0.00144,   0.00272,  -0.00042,477964608.00000,   0.00056,275250272.00000,  -0.00034,   0.00059,  -0.00005, -32.00000,   2.00000
-52761141.70835,444349096.97236,-28748240.11870,  -0.00145,   0.00273,  -0.00043,477995232.00000,   0.00057,275262784.00000,  -0.00035,   0.00060,  -0.00005,  32.00000,   2.00000
-53090511.31649,444067172.14956,-29267533.09233,  -0.00146,   0.00274,  -0.00044,478013248.00000,   0.00058,275275360.00000,  -0.00035,   0.00062,  -0.00006,  32.00000,   2.00000
-53426218.57675,443779628.53506,-29787336.18448,  -0.00147,   0.00275,  -0.00045,478044992.00000,   0.00059,275288000.00000,  -0.00036,   0.00063,  -0.00006, 160.00000,   2.00000
-53761156.96644,443491641.71621,-30304432.54023,  -0.00148,   0.00276,  -0.00045,478058976.00000,   0.00060,275300640.00000,  -0.00037,   0.00064,  -0.00006,   0.00000,   2.00000
-54120482.44130,443188178.92583,-30823628.77719,  -0.00148,   0.00277,  -0.00046,478093696.00000,   0.00062,275313376.00000,  -0.00037,   0.00065,  -0.00006,  64.00000,   2.00000
-54468276.45665,442891226.44073,-31340668.23086,  -0.00149,   0.00279,  -0.00047,478121408.00000,   0.00063,275326176.00000,  -0.00038,   0.00066,  -0.00007, 192.00000,   2.00000
-54814695.00594,442593327.44993,-31861926.99887,  -0.00150,   0.00280,  -0.00048,478136672.00000,   0.00064,275339008.00000,  -0.00039,   0.00068,  -0.00007, 128.00000,   2.00000
-55195259.58548,442273664.84790,-32386857.97783,  -0.00151,   0.00281,  -0.00049,478157568.00000,   0.00065,275351872.00000,  -0.00040,   0.00069,  -0.00007,   0.00000,   2.00000
-55552636.66016,441967445.47948,-32908343.84389,  -0.00152,   0.00282,  -0.00050,478198944.00000,   0.00066,275364832.00000,  -0.00040,   0.00070,  -0.00007,  96.00000,   2.00000
-55936227.37114,441644342.46930,-33428508.76737,  -0.00153,   0.00283,  -0.00051,478202400.00000,   0.00067,275377792.00000,  -0.00041,   0.00071,  -0.00008,  32.00000,   2.00000
-56324083.32652,441315936.40967,-33955436.60124,  -0.00154,   0.00284,  -0.00052,478235328.00000,   0.00069,275390816.00000,  -0.00042,   0.00073,  -0.00008, 128.00000,   2.00000
-56698705.22488,440995324.39782,-34473288.11502,  -0.00154,   0.00286,  -0.00053,478262016.00000,   0.00070,275403904.00000,  -0.00043,   0.00074,  -0.00008, -32.00000,   2.00000
-57088017.15223,440662925.67842,-34998256.88404,  -0.00155,   0.00287,  -0.00054,478281568.00000,   0.00071,275417056.00000,  -0.00043,   0.00075,  -0.00008, 160.00000,   2.00000
-57481639.17841,440326946.59330,-35518747.05741,  -0.00156,   0.00288,  -0.00055,478312960.00000,   0.00072,275430272.00000,  -0.00044,   0.00076,  -0.00009, 192.00000,   2.00000
-57890243.41995,439981118.28601,-36035731.06746,  -0.00157,   0.00289,  -0.00056,478330720.00000,   0.00074,275443520.00000,  -0.00045,   0.00078,  -0.00009, 224.00000,   2.00000
-58284934.59596,439641314.95351,-36553571.87712,  -0.00158,   0.00290,  -0.00057,478360672.00000,   0.00075,275456832.00000,  -0.00046,   0.00079,  -0.00009,  32.00000,   2.00000
-58694305.75646,439290433.45914,-37073051.35196,  -0.00159,   0.00292,  -0.00058,478380064.00000,   0.00076,275470176.00000,  -0.00046,   0.00080,  -0.00010,  32.00000,   2.00000
-59107814.80186,438936417.51349,-37587937.35017,  -0.00160,   0.00293,  -0.00059,478411776.00000,   0.00077,275483616.00000,  -0.00047,   0.00082,  -0.00010,  96.00000,   2.00000
-59518168.98005,438582979.76949,-38099511.07115,  -0.00161,   0.00294,  -0.00060,478427296.00000,   0.00078,275497056.00000,  -0.00048,   0.00083,  -0.00010,  96.00000,   2.00000
-59932183.05628,438225317.19682,-38611645.94926,  -0.00161,   0.00295,  -0.00061,478460448.00000,   0.00080,275510592.00000,  -0.00049,   0.00084,  -0.00010, 160.00000,   2.00000
-60360373.30564,437856735.32664,-39125374.63358,  -0.00162,   0.00296,  -0.00062,478480640.00000,   0.00081,275524160.00000,  -0.00049,   0.00085,  -0.00011, -32.00000,   2.00000
-60774269.83665,437495853.35858,-39634631.93461,  -0.00163,   0.00298,  -0.00063,478509824.00000,   0.00082,275537792.00000,  -0.00050,   0.00087,  -0.00011,  32.00000,   2.00000
-61202046.74452,437124213.37212,-40145418.32919,  -0.00164,   0.00299,  -0.00064,478530016.00000,   0.00083,275551456.00000,  -0.00051,   0.00088,  -0.00011, 256.00000,   2.00000
-61632915.73651,436749723.97022,-40651371.38065,  -0.00165,   0.00300,  -0.00065,478562560.00000,   0.00085,275565216.00000,  -0.00052,   0.00089,  -0.00012,  96.00000,   2.00000
-62077173.30367,436364719.97723,-41158774.77012,  -0.00166,   0.00301,  -0.00066,478582816.00000,   0.00086,275579008.00000,  -0.00053,   0.00091,  -0.00012,  96.00000,   2.00000
-62506312.52241,435987888.43634,-41661521.74295,  -0.00167,   0.00303,  -0.00067,478612448.00000,   0.00087,275592864.00000,  -0.00053,   0.00092,  -0.00012, 160.00000,   2.00000
-62930778.73200,435611087.70417,-42165892.43175,  -0.00168,   0.00304,  -0.00068,478629920.00000,   0.00089,275606752.00000,  -0.00054,   0.00093,  -0.00013,  64.00000,   2.00000
-63386261.57935,435214494.00586,-42666154.73011,  -0.00169,   0.00305,  -0.00069,478652288.00000,   0.00090,275620672.00000,  -0.00055,   0.00095,  -0.00013,  64.00000,   2.00000
-63826129.98872,434826453.93645,-43161661.08791,  -0.00170,   0.00306,  -0.00070,478681856.00000,   0.00091,275634656.00000,  -0.00056,   0.00096,  -0.00014,  64.00000,   2.00000
-64249794.97245,434444426.62433,-43662673.23776,  -0.00171,   0.00308,  -0.00071,478714304.00000,   0.00092,275648736.00000,  -0.00057,   0.00097,  -0.00014, 128.00000,   2.00000
-64715358.90331,434036887.28716,-44155544.39151,  -0.00172,   0.00309,  -0.00072,478722464.00000,   0.00094,275662784.00000,  -0.00058,   0.00099,  -0.00014, 160.00000,   2.00000
-65136194.68628,433654576.51939,-44647811.17654,  -0.00173,   0.00310,  -0.00073,478763392.00000,   0.00095,275676960.00000,  -0.00058,   0.00100,  -0.00015,  32.00000,   2.00000
-65598352.89456,433244182.59592,-45142250.45522,  -0.00174,   0.00311,  -0.00074,478774592.00000,   0.00096,275691136.00000,  -0.00059,   0.00101,  -0.00015, 192.00000,   2.00000
-66044757.42360,432842655.72910,-45631834.78098,  -0.00174,   0.00313,  -0.00075,478804384.00000,   0.00098,275705376.00000,  -0.00060,   0.00103,  -0.00015,  96.00000,   2.00000
-66475617.15966,432449842.73692,-46116579.77989,  -0.00175,   0.00314,  -0.00076,478834144.00000,   0.00099,275719680.00000,  -0.00061,   0.00104,  -0.00016, 192.00000,   2.00000
-66937142.58060,432035967.45217,-46602300.27428,  -0.00176,   0.00315,  -0.00077,478858848.00000,   0.00100,275734016.00000,  -0.00062,   0.00105,  -0.00016,  96.00000,   2.00000
-67376266.75312,431633040.72258,-47089950.67886,  -0.00177,   0.00316,  -0.00078,478873472.00000,   0.00102,275748384.00000,  -0.00063,   0.00107,  -0.00017,  64.00000,   2.00000
-67836143.03091,431218671.63305,-47567052.93894,  -0.00178,   0.00318,  -0.00079,478908608.00000,   0.00103,275762848.00000,  -0.00063,   0.00108,  -0.00017,   0.00000,   2.00000
-68291462.10721,430803056.09852,-48051010.35327,  -0.00179,   0.00319,  -0.00080,478928448.00000,   0.00104,275777312.00000,  -0.00064,   0.00110,  -0.00017, 192.00000,   2.00000
-68732671.34122,430397346.30902,-48525161.05619,  -0.00180,   0.00320,  -0.00081,478956768.00000,   0.00106,275791840.00000,  -0.00065,   0.00111,  -0.00018, 192.00000,   2.00000
-69187722.86273,429979104.91192,-49005919.80967,  -0.00181,   0.00321,  -0.00082,478980160.00000,   0.00107,275806432.00000,  -0.00066,   0.00112,  -0.00018,  32.00000,   2.00000
-69658173.67966,429552634.00317,-49478022.48982,  -0.00182,   0.00323,  -0.00083,478998656.00000,   0.00108,275821024.00000,  -0.00067,   0.00114,  -0.00019, 256.00000,   2.00000
-70114746.88372,429132767.22979,-49950743.33224,  -0.00183,   0.00324,  -0.00084,479030592.00000,   0.00110,275835680.00000,  -0.00068,   0.00115,  -0.00019, 128.00000,   2.00000
-70587163.99823,428702740.89069,-50420078.98373,  -0.00184,   0.00325,  -0.00085,479050976.00000,   0.00111,275850368.00000,  -0.00069,   0.00116,  -0.00020, 192.00000,   2.00000
-71057783.04038,428271813.35119,-50891586.55180,  -0.00185,   0.00327,  -0.00086,479069440.00000,   0.00112,275865056.00000,  -0.00069,   0.00118,  -0.00020, 192.00000,   2.00000
-71533973.53649,427837481.95200,-51358448.38138,  -0.00186,   0.00328,  -0.00087,479103136.00000,   0.00114,275879840.00000,  -0.00070,   0.00119,  -0.00021, 224.00000,   2.00000
-72009294.58455,427401753.40542,-51827635.12941,  -0.00187,   0.00329,  -0.00088,479121888.00000,   0.00115,275894624.00000,  -0.00071,   0.00121,  -0.00021, 192.00000,   2.00000
-72484589.68658,426965731.27892,-52294095.69336,  -0.00188,   0.00330,  -0.00089,479138848.00000,   0.00117,275909440.00000,  -0.00072,   0.00122,  -0.00021,   0.00000,   2.00000
-72984586.73423,426515113.59377,-52755786.08229,  -0.00189,   0.00332,  -0.00091,479176064.00000,   0.00118,275924320.00000,  -0.00073,   0.00123,  -0.00022,  96.00000,   2.00000
-73467182.69989,426073213.40468,-53220357.33788,  -0.00190,   0.00333,  -0.00092,479191424.00000,   0.00119,275939200.00000,  -0.00074,   0.00125,  -0.00022,  96.00000,   2.00000
-73957394.22296,425627139.73952,-53680565.65037,  -0.00191,   0.00334,  -0.00093,479225120.00000,   0.00121,275954144.00000,  -0.00075,   0.00126,  -0.00023,  64.00000,   2.00000
-74477362.25577,425160507.97778,-54144437.68384,  -0.00192,   0.00336,  -0.00094,479234368.00000,   0.00122,275969088.00000,  -0.00076,   0.00128,  -0.00023, 160.00000,   2.00000
-74976271.41214,424707771.36931,-54602830.84687,  -0.00193,   0.00337,  -0.00095,479277920.00000,   0.00124,275984128.00000,  -0.00076,   0.00129,  -0.00024,  64.00000,   2.00000
-75505302.05344,424235944.01934,-55059758.11588,  -0.00194,   0.00338,  -0.00096,479285344.00000,   0.00125,275999104.00000,  -0.00077,   0.00130,  -0.00024,  64.00000,   2.00000
-76023664.38716,423769334.12115,-55517651.37514,  -0.00195,   0.00340,  -0.00097,479317504.00000,   0.00126,276014176.00000,  -0.00078,   0.00132,  -0.00025, 192.00000,   2.00000
-76542436.74531,423302087.87126,-55972760.91219,  -0.00197,   0.00341,  -0.00098,479334496.00000,   0.00128,276029248.00000,  -0.00079,   0.00133,  -0.00025,  64.00000,   2.00000
-77078708.17487,422823850.20831,-56424603.79524,  -0.00198,   0.00342,  -0.00099,479354976.00000,   0.00129,276044352.00000,  -0.00080,   0.00135,  -0.00026,  64.00000,   2.00000
-77602329.80716,422351808.62260,-56876979.83082,  -0.00199,   0.00343,  -0.00100,479386912.00000,   0.00131,276059520.00000,  -0.00081,   0.00136,  -0.00026, 192.00000,   2.00000
-78141506.18823,421869470.59773,-57325698.19629,  -0.00200,   0.00345,  -0.00101,479407360.00000,   0.00132,276074688.00000,  -0.00082,   0.00138,  -0.00027,  96.00000,   2.00000
-78677447.92426,421388454.30744,-57771017.21739,  -0.00201,   0.00346,  -0.00102,479424256.00000,   0.00133,276089888.00000,  -0.00083,   0.00139,  -0.00027, 192.00000,   2.00000
-79226190.14294,420896928.98035,-58217421.61590,  -0.00202,   0.00347,  -0.00104,479446496.00000,   0.00135,276105120.00000,  -0.00084,   0.00140,  -0.00028, 128.00000,   2.00000
-79741181.99914,420427831.90357,-58653945.87816,  -0.00203,   0.00349,  -0.00105,479471072.00000,   0.00136,276120384.00000,  -0.00085,   0.00142,  -0.00028, 160.00000,   2.00000
-80284065.64218,419936667.74146,-59095930.82388,  -0.00204,   0.00350,  -0.00106,479498784.00000,   0.00138,276135744.00000,  -0.00085,   0.00143,  -0.00029, -32.00000,   2.00000
-80802596.45625,419461517.36855,-59529436.09930,  -0.00205,   0.00351,  -0.00107,479509984.00000,   0.00139,276151072.00000,  -0.00086,   0.00145,  -0.00030,  32.00000,   2.00000
-81319439.19740,418985232.77826,-59962160.92995,  -0.00206,   0.00353,  -0.00108,479545504.00000,   0.00140,276166496.00000,  -0.00087,   0.00146,  -0.00030,   0.00000,   2.00000
-81845902.71503,418502360.66731,-60390686.18675,  -0.00207,   0.00354,  -0.00109,479566080.00000,   0.00142,276181952.00000,  -0.00088,   0.00148,  -0.00031,  96.00000,   2.00000
-82346224.64754,418032635.05602,-60820976.58414,  -0.00208,   0.00355,  -0.00110,479581568.00000,   0.00143,276197408.00000,  -0.00089,   0.00149,  -0.00031, 288.00000,   2.00000
-82856350.54579,417555916.56376,-61247223.63412,  -0.00209,   0.00357,  -0.00111,479602240.00000,   0.00145,276212896.00000,  -0.00090,   0.00151,  -0.00032,  96.00000,   2.00000
-83376636.00173,417072337.13060,-61669609.47647,  -0.00210,   0.00358,  -0.00112,479623008.00000,   0.00146,276228416.00000,  -0.00091,   0.00152,  -0.00032, -32.00000,   2.00000
-83878862.21911,416600302.74849,-62087144.74837,  -0.00211,   0.00359,  -0.00114,479653408.00000,   0.00148,276244000.00000,  -0.00092,   0.00153,  -0.00033,  64.00000,   2.00000
-84374518.02190,416129843.08732,-62506632.66284,  -0.00212,   0.00361,  -0.00115,479672928.00000,   0.00149,276259616.00000,  -0.00093,   0.00155,  -0.00033, 128.00000,   2.00000
-84864932.34601,415662198.34657,-62923184.67966,  -0.00214,   0.00362,  -0.00116,479690432.00000,   0.00151,276275232.00000,  -0.00094,   0.00156,  -0.00034,  96.00000,   2.00000
-85368439.40415,415186210.50170,-63336500.17647,  -0.00215,   0.00363,  -0.00117,479711744.00000,   0.00152,276290880.00000,  -0.00095,   0.00158,  -0.00035, 128.00000,   2.00000
-85839382.66503,414731188.48793,-63745982.33226,  -0.00216,   0.00365,  -0.00118,479738496.00000,   0.00154,276306560.00000,  -0.00096,   0.00159,  -0.00035,  32.00000,   2.00000
-86341868.12306,414254142.14297,-64156950.92544,  -0.00217,   0.00366,  -0.00119,479765984.00000,   0.00155,276322304.00000,  -0.00097,   0.00161,  -0.00036, -32.00000,   2.00000
-86824553.73532,413789711.69951,-64565947.90565,  -0.00218,   0.00367,  -0.00120,479779808.00000,   0.00156,276338048.00000,  -0.00098,   0.00162,  -0.00036,   0.00000,   2.00000
-87322972.64020,413315215.54407,-64971992.93632,  -0.00219,   0.00369,  -0.00121,479801824.00000,   0.00158,276353792.00000,  -0.00099,   0.00164,  -0.00037,  64.00000,   2.00000
-87820109.22466,412841619.39452,-65375639.43425,  -0.00220,   0.00370,  -0.00123,479819872.00000,   0.00159,276369536.00000,  -0.00100,   0.00165,  -0.00038,  96.00000,   2.00000
-88315732.82847,412366877.75926,-65781870.61021,  -0.00221,   0.00371,  -0.00124,479840128.00000,   0.00161,276385280.00000,  -0.00101,   0.00167,  -0.00038,  32.00000,   2.00000
-88799302.74420,411900766.89563,-66183952.19135,  -0.00222,   0.00373,  -0.00125,479870976.00000,   0.00162,276401088.00000,  -0.00101,   0.00168,  -0.00039, -64.00000,   2.00000
-89299943.66268,411424115.36223,-66583064.81556,  -0.00223,   0.00374,  -0.00126,479892960.00000,   0.00164,276416928.00000,  -0.00102,   0.00170,  -0.00039,   0.00000,   2.00000
-89800134.29776,410947832.83137,-66979647.32291,  -0.00224,   0.00376,  -0.00127,479911424.00000,   0.00165,276432768.00000,  -0.00103,   0.00171,  -0.00040,  32.00000,   2.00000
-90299846.80482,410471926.69586,-67373634.20782,  -0.00225,   0.00377,  -0.00128,479929824.00000,   0.00167,276448608.00000,  -0.00104,   0.00173,  -0.00041,   0.00000,   2.00000
-90798379.62921,409994695.97826,-67769925.31471,  -0.00227,   0.00378,  -0.00129,479950368.00000,   0.00168,276464480.00000,  -0.00105,   0.00174,  -0.00041, -64.00000,   2.00000
-91313672.25826,409507047.04550,-68162911.20538,  -0.00228,   0.00380,  -0.00131,479972768.00000,   0.00170,276480352.00000,  -0.00106,   0.00175,  -0.00042,-224.00000,   2.00000
-91816546.89084,409028438.98341,-68551278.70825,  -0.00229,   0.00381,  -0.00132,480003968.00000,   0.00171,276496288.00000,  -0.00107,   0.00177,  -0.00043,  32.00000,   2.00000
-92311868.95415,408553545.07823,-68938929.69435,  -0.00230,   0.00382,  -0.00133,480005792.00000,   0.00173,276512160.00000,  -0.00108,   0.00178,  -0.00043,   0.00000,   2.00000
-92811579.77168,408076963.73751,-69321186.48180,  -0.00231,   0.00384,  -0.00134,480041088.00000,   0.00174,276528096.00000,  -0.00109,   0.00180,  -0.00044, 224.00000,   2.00000
-93325954.53082,407588885.92300,-69704634.40062,  -0.00232,   0.00385,  -0.00135,480065984.00000,   0.00176,276544064.00000,  -0.00110,   0.00181,  -0.00045, 128.00000,   2.00000
-93820722.64346,407115338.54383,-70080294.01969,  -0.00233,   0.00386,  -0.00136,480078304.00000,   0.00177,276560000.00000,  -0.00111,   0.00183,  -0.00045, -32.00000,   2.00000
-94311715.26717,406641910.61299,-70457450.24062,  -0.00234,   0.00388,  -0.00137,480099040.00000,   0.00179,276575968.00000,  -0.00112,   0.00184,  -0.00046,-128.00000,   2.00000
-94816527.80683,406159832.64137,-70830460.09571,  -0.00235,   0.00389,  -0.00139,480121504.00000,   0.00180,276591968.00000,  -0.00113,   0.00186,  -0.00047,  64.00000,   2.00000
-95317007.05670,405680186.89459,-71199704.00707,  -0.00237,   0.00390,  -0.00140,480140384.00000,   0.00182,276607968.00000,  -0.00114,   0.00187,  -0.00047,  32.00000,   2.00000
-95784018.14086,405222849.83015,-71563892.76668,  -0.00238,   0.00392,  -0.00141,480167424.00000,   0.00183,276624032.00000,  -0.00115,   0.00189,  -0.00048,  32.00000,   2.00000
-96274119.78965,404747373.46204,-71930369.32566,  -0.00239,   0.00393,  -0.00142,480179424.00000,   0.00185,276640064.00000,  -0.00116,   0.00190,  -0.00049,  32.00000,   2.00000
-96759251.74581,404276911.22992,-72287885.64234,  -0.00240,   0.00395,  -0.00143,480195552.00000,   0.00186,276656064.00000,  -0.00117,   0.00192,  -0.00049,   0.00000,   2.00000
-97226744.85020,403816686.26075,-72644596.47695,  -0.00241,   0.00396,  -0.00144,480228576.00000,   0.00188,276672192.00000,  -0.00118,   0.00193,  -0.00050,  96.00000,   2.00000
-97699910.35959,403351230.86275,-72999283.68488,  -0.00242,   0.00397,  -0.00146,480234080.00000,   0.00189,276688256.00000,  -0.00119,   0.00195,  -0.00051, -32.00000,   2.00000
-98173801.40409,402886363.43184,-73347946.19712,  -0.00243,   0.00399,  -0.00147,480268672.00000,   0.00191,276704384.00000,  -0.00120,   0.00196,  -0.00051,  64.00000,   2.00000
-98626032.92104,402435169.43668,-73694172.51875,  -0.00244,   0.00400,  -0.00148,480281792.00000,   0.00192,276720512.00000,  -0.00121,   0.00198,  -0.00052, 192.00000,   2.00000
