# sigma_xx, sigma_yy, sigma_xy, epsilon_xx, epsilon_yy, epsilon_xy, vonMises, epsPlastic, hardening, epsilonP__xx, epsilonP__yy, epsilonP__xy, yieldValue, iteration
   0.00000,   0.00000,   0.00000,   0.00000,   0.00000,   0.00000,   0.00000,   0.00000,274640135.82653,   0.00000,   0.00000,   0.00000,-474640135.82653,   0.00000
   0.00000,   0.00000,   0.00000,   0.00000,   0.00000,   0.00000,   0.00000,   0.00000,274640135.82653,   0.00000,   0.00000,   0.00000,-474640135.82653,   0.00000
-380774.81109,249473.15209,-551466.96779,  -0.00000,   0.00000,  -0.00001,1102073.88700,   0.00000,274640135.82653,   0.00000,   0.00000,   0.00000,-473538061.93953,   0.00000
-761549.62218,498946.30419,-1109499.01852,  -0.00000,   0.00000,  -0.00001,2214010.34940,   0.00000,274640135.82653,   0.00000,   0.00000,   0.00000,-472426125.47713,   0.00000
-1142324.43327,748419.45628,-1667531.06926,  -0.00001,   0.00001,  -0.00002,3325951.62704,   0.00000,274640135.82653,   0.00000,   0.00000,   0.00000,-471314184.19949,   0.00000
-1532946.86878,974914.81805,-2225563.11999,  -0.00001,   0.00001,  -0.00003,4433313.79735,   0.00000,274640135.82653,   0.00000,   0.00000,   0.00000,-470206822.02918,   0.00000
-1900591.51397,1211257.80424,-2790160.25367,  -0.00001,   0.00001,  -0.00004,5544049.29622,   0.00000,274640135.82653,   0.00000,   0.00000,   0.00000,-469096086.53031,   0.00000
-2291213.94949,1437753.16601,-3354757.38736,  -0.00001,   0.00001,  -0.00004,6661395.27597,   0.00000,274640135.82653,   0.00000,   0.00000,   0.00000,-467978740.55056,   0.00000
-2658858.59468,1674096.15220,-3919354.52104,  -0.00002,   0.00001,  -0.00005,7772215.35219,   0.00000,274640135.82653,   0.00000,   0.00000,   0.00000,-466867920.47434,   0.00000
-3049481.03019,1900591.51397,-4490516.73768,  -0.00002,   0.00001,  -0.00006,8899529.32118,   0.00000,274640135.82653,   0.00000,   0.00000,   0.00000,-465740606.50534,   0.00000
-3426973.29981,2113956.70984,-5055113.87136,  -0.00002,   0.00002,  -0.00007,10005996.24863,   0.00000,274640135.82653,   0.00000,   0.00000,   0.00000,-464634139.57790,   0.00000
-3827443.35975,2317474.28129,-5632841.17095,  -0.00002,   0.00002,  -0.00007,11138972.58445,   0.00000,274640135.82653,   0.00000,   0.00000,   0.00000,-463501163.24208,   0.00000
-4204935.62936,2530839.47716,-6204003.38758,  -0.00002,   0.00002,  -0.00008,12255513.99556,   0.00000,274640135.82653,   0.00000,   0.00000,   0.00000,-462384621.83097,   0.00000
-4582427.89898,2744204.67303,-6781730.68717,  -0.00003,   0.00002,  -0.00009,13382078.99135,   0.00000,274640135.82653,   0.00000,   0.00000,   0.00000,-461258056.83518,   0.00000
-4969767.79302,2934592.07857,-7359457.98675,  -0.00003,   0.00002,  -0.00010,14504465.84188,   0.00000,274640135.82653,   0.00000,   0.00000,   0.00000,-460135669.98465,   0.00000
-5357107.68706,3124979.48412,-7937185.28634,  -0.00003,   0.00002,  -0.00010,15626953.70096,   0.00000,274640135.82653,   0.00000,   0.00000,   0.00000,-459013182.12557,   0.00000
-5744447.58110,3315366.88966,-8514912.58592,  -0.00003,   0.00003,  -0.00011,16749522.26102,   0.00000,274640135.82653,   0.00000,   0.00000,   0.00000,-457890613.56551,   0.00000
-6131787.47513,3505754.29521,-9099204.96845,  -0.00003,   0.00003,  -0.00012,17882177.27993,   0.00000,274640135.82653,   0.00000,   0.00000,   0.00000,-456757958.54660,   0.00000
-6528974.99360,3673163.91043,-9683497.35099,  -0.00004,   0.00003,  -0.00013,19010839.16449,   0.00000,274640135.82653,   0.00000,   0.00000,   0.00000,-455629296.66203,   0.00000
-6916314.88764,3863551.31597,-10267789.73352,  -0.00004,   0.00003,  -0.00013,20143646.53973,   0.00000,274640135.82653,   0.00000,   0.00000,   0.00000,-454496489.28680,   0.00000
-7290524.61578,4040808.55562,-10858647.19901,  -0.00004,   0.00003,  -0.00014,21276046.48839,   0.00000,274640135.82653,   0.00000,   0.00000,   0.00000,-453364089.33814,   0.00000
-7697559.75867,4185240.38051,-11442939.58154,  -0.00004,   0.00003,  -0.00015,22401058.01106,   0.00000,274640135.82653,   0.00000,   0.00000,   0.00000,-452239077.81547,   0.00000
-8104594.90156,4329672.20541,-12033797.04703,  -0.00005,   0.00004,  -0.00016,23536303.30602,   0.00000,274640135.82653,   0.00000,   0.00000,   0.00000,-451103832.52051,   0.00000
-8478804.62970,4506929.44505,-12631219.59546,  -0.00005,   0.00004,  -0.00016,24679121.55288,   0.00000,274640135.82653,   0.00000,   0.00000,   0.00000,-449961014.27365,   0.00000
-8895687.39701,4628383.47963,-13222077.06094,  -0.00005,   0.00004,  -0.00017,25810807.92817,   0.00000,274640135.82653,   0.00000,   0.00000,   0.00000,-448829327.89836,   0.00000
-9279744.74957,4782662.92895,-13819499.60938,  -0.00005,   0.00004,  -0.00018,26950048.73602,   0.00000,274640135.82653,   0.00000,   0.00000,   0.00000,-447690087.09051,   0.00000
-9673649.72656,4913964.58794,-14410357.07486,  -0.00005,   0.00004,  -0.00019,28075571.09430,   0.00000,274640135.82653,   0.00000,   0.00000,   0.00000,-446564564.73222,   0.00000
-10090532.49388,5035418.62251,-15014344.70625,  -0.00006,   0.00004,  -0.00020,29227999.97979,   0.00000,274640135.82653,   0.00000,   0.00000,   0.00000,-445412135.84674,   0.00000
-10484437.47087,5166720.28151,-15611767.25468,  -0.00006,   0.00004,  -0.00020,30363965.71121,   0.00000,274640135.82653,   0.00000,   0.00000,   0.00000,-444276170.11532,   0.00000
-10888190.07228,5275044.15018,-16209189.80311,  -0.00006,   0.00005,  -0.00021,31496475.34889,   0.00000,274640135.82653,   0.00000,   0.00000,   0.00000,-443143660.47764,   0.00000
-11314920.46402,5373520.39443,-16813177.43450,  -0.00006,   0.00005,  -0.00022,32645855.91990,   0.00000,274640135.82653,   0.00000,   0.00000,   0.00000,-441994279.90663,   0.00000
-11718673.06543,5481844.26310,-17417165.06588,  -0.00006,   0.00005,  -0.00023,33788914.93450,   0.00000,274640135.82653,   0.00000,   0.00000,   0.00000,-440851220.89203,   0.00000
-12122425.66685,5590168.13177,-18021152.69726,  -0.00007,   0.00005,  -0.00023,34932154.45756,   0.00000,274640135.82653,   0.00000,   0.00000,   0.00000,-439707981.36897,   0.00000
-12536025.89269,5675514.21012,-18625140.32865,  -0.00007,   0.00005,  -0.00024,36072141.00396,   0.00000,274640135.82653,   0.00000,   0.00000,   0.00000,-438567994.82257,   0.00000
-12949626.11853,5760860.28847,-19235693.04298,  -0.00007,   0.00005,  -0.00025,37222533.16556,   0.00000,274640135.82653,   0.00000,   0.00000,   0.00000,-437417602.66097,   0.00000
-13373073.96879,5823228.57649,-19839680.67437,  -0.00007,   0.00005,  -0.00026,38359644.84588,   0.00000,274640135.82653,   0.00000,   0.00000,   0.00000,-436280490.98065,   0.00000
-13796521.81905,5885596.86452,-20450233.38870,  -0.00007,   0.00005,  -0.00027,39507229.30391,   0.00000,274640135.82653,   0.00000,   0.00000,   0.00000,-435132906.52262,   0.00000
-14219969.66932,5947965.15254,-21060786.10303,  -0.00008,   0.00005,  -0.00027,40655083.87334,   0.00000,274640135.82653,   0.00000,   0.00000,   0.00000,-433985051.95319,   0.00000
-14643417.51958,6010333.44056,-21671338.81737,  -0.00008,   0.00006,  -0.00028,41803186.30359,   0.00000,274640135.82653,   0.00000,   0.00000,   0.00000,-432836949.52294,   0.00000
-15076712.99427,6049723.93826,-22281891.53170,  -0.00008,   0.00006,  -0.00029,42948392.94600,   0.00000,274640135.82653,   0.00000,   0.00000,   0.00000,-431691742.88053,   0.00000
-15510008.46896,6089114.43596,-22899009.32898,  -0.00008,   0.00006,  -0.00030,44104124.28037,   0.00000,274640135.82653,   0.00000,   0.00000,   0.00000,-430536011.54616,   0.00000
-15943303.94365,6128504.93366,-23509562.04332,  -0.00008,   0.00006,  -0.00031,45249913.28881,   0.00000,274640135.82653,   0.00000,   0.00000,   0.00000,-429390222.53772,   0.00000
-16386447.04276,6144917.64103,-24126679.84060,  -0.00009,   0.00006,  -0.00031,46403222.59714,   0.00000,274640135.82653,   0.00000,   0.00000,   0.00000,-428236913.22939,   0.00000
-16829590.14187,6161330.34841,-24743797.63788,  -0.00009,   0.00006,  -0.00032,47556874.63587,   0.00000,274640135.82653,   0.00000,   0.00000,   0.00000,-427083261.19066,   0.00000
-17272733.24098,6177743.05578,-25360915.43517,  -0.00009,   0.00006,  -0.00033,48710845.05365,   0.00000,274640135.82653,   0.00000,   0.00000,   0.00000,-425929290.77288,   0.00000
-17702746.17420,6181025.59726,-25978033.23245,  -0.00009,   0.00006,  -0.00034,49855672.28175,   0.00000,274640135.82653,   0.00000,   0.00000,   0.00000,-424784463.54478,   0.00000
-18145889.27331,6197438.30463,-26595151.02973,  -0.00009,   0.00006,  -0.00035,51010251.35398,   0.00000,274640135.82653,   0.00000,   0.00000,   0.00000,-423629884.47255,   0.00000
-18608727.62127,6167895.43136,-27218833.90997,  -0.00010,   0.00006,  -0.00035,52169906.28771,   0.00000,274640135.82653,   0.00000,   0.00000,   0.00000,-422470229.53882,   0.00000
-19061718.34481,6161330.34841,-27835951.70725,  -0.00010,   0.00007,  -0.00036,53322389.89388,   0.00000,274640135.82653,   0.00000,   0.00000,   0.00000,-421317745.93265,   0.00000
-19534404.31720,6108809.68481,-28459634.58748,  -0.00010,   0.00007,  -0.00037,54480224.56481,   0.00000,274640135.82653,   0.00000,   0.00000,   0.00000,-420159911.26172,   0.00000
-19974264.87484,6089114.43596,-29083317.46772,  -0.00010,   0.00007,  -0.00038,55634451.74786,   0.00000,274640135.82653,   0.00000,   0.00000,   0.00000,-419005684.07867,   0.00000
-20446950.84722,6036593.77236,-29700435.26500,  -0.00010,   0.00007,  -0.00039,56782882.66952,   0.00000,274640135.82653,   0.00000,   0.00000,   0.00000,-417857253.15701,   0.00000
-20919636.81961,5984073.10876,-30324118.14523,  -0.00011,   0.00007,  -0.00039,57942052.04884,   0.00000,274640135.82653,   0.00000,   0.00000,   0.00000,-416698083.77769,   0.00000
-21392322.79200,5931552.44517,-30947801.02547,  -0.00011,   0.00007,  -0.00040,59101638.20358,   0.00000,274640135.82653,   0.00000,   0.00000,   0.00000,-415538497.62295,   0.00000
-21851878.59849,5865901.61567,-31578048.98865,  -0.00011,   0.00007,  -0.00041,60262873.34514,   0.00000,274640135.82653,   0.00000,   0.00000,   0.00000,-414377262.48139,   0.00000
-22334412.19530,5790403.16174,-32201731.86888,  -0.00011,   0.00007,  -0.00042,61420962.17044,   0.00000,274640135.82653,   0.00000,   0.00000,   0.00000,-413219173.65609,   0.00000
-22826793.41653,5691926.91750,-32825414.74912,  -0.00011,   0.00007,  -0.00043,62577252.49607,   0.00000,274640135.82653,   0.00000,   0.00000,   0.00000,-412062883.33046,   0.00000
-23309327.01335,5616428.46357,-33449097.62935,  -0.00012,   0.00007,  -0.00043,63736257.80401,   0.00000,274640135.82653,   0.00000,   0.00000,   0.00000,-410903878.02252,   0.00000
-23811555.85901,5494974.42900,-34079345.59253,  -0.00012,   0.00007,  -0.00044,64901727.36536,   0.00000,274640135.82653,   0.00000,   0.00000,   0.00000,-409738408.46117,   0.00000
-24280959.28992,5406345.80918,-34703028.47276,  -0.00012,   0.00007,  -0.00045,66052746.93070,   0.00000,274640135.82653,   0.00000,   0.00000,   0.00000,-408587388.89582,   0.00000
-24783188.13558,5284891.77461,-35333276.43595,  -0.00012,   0.00007,  -0.00046,67219299.56089,   0.00000,274640135.82653,   0.00000,   0.00000,   0.00000,-407420836.26564,   0.00000
-25295264.60567,5140459.94971,-35956959.31618,  -0.00013,   0.00007,  -0.00047,68374065.29076,   0.00000,274640135.82653,   0.00000,   0.00000,   0.00000,-406266070.53577,   0.00000
-25797493.45133,5019005.91514,-36587207.27936,  -0.00013,   0.00007,  -0.00048,69541714.60703,   0.00000,274640135.82653,   0.00000,   0.00000,   0.00000,-405098421.21950,   0.00000
-26309569.92142,4874574.09024,-37217455.24255,  -0.00013,   0.00007,  -0.00048,70707989.74705,   0.00000,274640135.82653,   0.00000,   0.00000,   0.00000,-403932146.07948,   0.00000
-26831494.01593,4707164.47502,-37847703.20573,  -0.00013,   0.00007,  -0.00049,71873031.36652,   0.00000,274640135.82653,   0.00000,   0.00000,   0.00000,-402767104.46001,   0.00000
-27353418.11044,4539754.85980,-38471386.08596,  -0.00013,   0.00007,  -0.00050,73028345.94482,   0.00000,274640135.82653,   0.00000,   0.00000,   0.00000,-401611789.88171,   0.00000
-27852364.41462,4382192.86901,-39101634.04915,  -0.00014,   0.00007,  -0.00051,74187772.62116,   0.00000,274640135.82653,   0.00000,   0.00000,   0.00000,-400452363.20537,   0.00000
-28384136.13356,4191805.46346,-39731882.01233,  -0.00014,   0.00007,  -0.00052,75353026.07551,   0.00000,274640135.82653,   0.00000,   0.00000,   0.00000,-399287109.75101,   0.00000
-28915907.85250,4001418.05792,-40362129.97551,  -0.00014,   0.00007,  -0.00052,76518953.97698,   0.00000,274640135.82653,   0.00000,   0.00000,   0.00000,-398121181.84955,   0.00000
-29447679.57143,3811030.65237,-40992377.93870,  -0.00014,   0.00007,  -0.00053,77685525.95863,   0.00000,274640135.82653,   0.00000,   0.00000,   0.00000,-396954609.86790,   0.00000
-29989298.91479,3597665.45650,-41622625.90188,  -0.00014,   0.00007,  -0.00054,78851262.96903,   0.00000,274640135.82653,   0.00000,   0.00000,   0.00000,-395788872.85750,   0.00000
-30530918.25815,3384300.26063,-42252873.86506,  -0.00015,   0.00007,  -0.00055,80017699.93026,   0.00000,274640135.82653,   0.00000,   0.00000,   0.00000,-394622435.89627,   0.00000
-31105363.01626,3138109.65002,-42883121.82824,  -0.00015,   0.00007,  -0.00056,81190453.83298,   0.00000,274640135.82653,   0.00000,   0.00000,   0.00000,-393449681.99355,   0.00000
-31656829.98405,2901766.66382,-43513369.79143,  -0.00015,   0.00007,  -0.00057,82357002.86045,   0.00000,274640135.82653,   0.00000,   0.00000,   0.00000,-392283132.96608,   0.00000
-32208296.95183,2665423.67763,-44143617.75461,  -0.00015,   0.00007,  -0.00057,83524275.50494,   0.00000,274640135.82653,   0.00000,   0.00000,   0.00000,-391115860.32159,   0.00000
-32769611.54404,2406102.90111,-44773865.71779,  -0.00015,   0.00007,  -0.00058,84691091.52247,   0.00000,274640135.82653,   0.00000,   0.00000,   0.00000,-389949044.30406,   0.00000
-33330926.13625,2146782.12459,-45404113.68098,  -0.00016,   0.00007,  -0.00059,85858687.18121,   0.00000,274640135.82653,   0.00000,   0.00000,   0.00000,-388781448.64532,   0.00000
-33902088.35289,1864483.55775,-46034361.64416,  -0.00016,   0.00007,  -0.00060,87026002.64224,   0.00000,274640135.82653,   0.00000,   0.00000,   0.00000,-387614133.18429,   0.00000
-34496228.35985,1572337.36648,-46664609.60734,  -0.00016,   0.00007,  -0.00061,88201242.02141,   0.00000,274640135.82653,   0.00000,   0.00000,   0.00000,-386438893.80512,   0.00000
-35067390.57648,1290038.79964,-47294857.57053,  -0.00016,   0.00007,  -0.00061,89370213.35010,   0.00000,274640135.82653,   0.00000,   0.00000,   0.00000,-385269922.47643,   0.00000
-35648400.41754,984762.44247,-47925105.53371,  -0.00016,   0.00007,  -0.00062,90539111.08750,   0.00000,274640135.82653,   0.00000,   0.00000,   0.00000,-384101024.73903,   0.00000
-36252388.04892,669638.46088,-48555353.49689,  -0.00017,   0.00007,  -0.00063,91716013.36669,   0.00000,274640135.82653,   0.00000,   0.00000,   0.00000,-382924122.45984,   0.00000
-36843245.51441,341384.31339,-49185601.46007,  -0.00017,   0.00007,  -0.00064,92885893.23641,   0.00000,274640135.82653,   0.00000,   0.00000,   0.00000,-381754242.59012,   0.00000
-37457080.77022,3282.54147,-49815849.42326,  -0.00017,   0.00007,  -0.00065,94063874.18294,   0.00000,274640135.82653,   0.00000,   0.00000,   0.00000,-380576261.64359,   0.00000
-38047938.23570,-324971.60602,-50439532.30349,  -0.00017,   0.00007,  -0.00066,95225133.06855,   0.00000,274640135.82653,   0.00000,   0.00000,   0.00000,-379415002.75798,   0.00000
-38671621.11593,-686051.16826,-51069780.26667,  -0.00017,   0.00007,  -0.00066,96404365.07002,   0.00000,274640135.82653,   0.00000,   0.00000,   0.00000,-378235770.75651,   0.00000
-39305151.62059,-1070108.52082,-51700028.22986,  -0.00018,   0.00007,  -0.00067,97584107.59651,   0.00000,274640135.82653,   0.00000,   0.00000,   0.00000,-377056028.23002,   0.00000
-39905856.71050,-1421340.45864,-52330276.19304,  -0.00018,   0.00007,  -0.00068,98758043.81993,   0.00000,274640135.82653,   0.00000,   0.00000,   0.00000,-375882092.00660,   0.00000
-40549234.83958,-1828375.60153,-52953959.07327,  -0.00018,   0.00007,  -0.00069,99929022.39278,   0.00000,274640135.82653,   0.00000,   0.00000,   0.00000,-374711113.43375,   0.00000
-41182765.34424,-2212432.95409,-53584207.03646,  -0.00018,   0.00007,  -0.00070,101111832.36874,   0.00000,274640135.82653,   0.00000,   0.00000,   0.00000,-373528303.45779,   0.00000
-41826143.47332,-2619468.09698,-54207889.91669,  -0.00019,   0.00007,  -0.00070,102284953.09758,   0.00000,274640135.82653,   0.00000,   0.00000,   0.00000,-372355182.72895,   0.00000
-42479369.22683,-3049481.03019,-54838137.87987,  -0.00019,   0.00007,  -0.00071,103469416.79659,   0.00000,274640135.82653,   0.00000,   0.00000,   0.00000,-371170719.02994,   0.00000
-43122747.35591,-3456516.17308,-55461820.76011,  -0.00019,   0.00007,  -0.00072,104644660.90533,   0.00000,274640135.82653,   0.00000,   0.00000,   0.00000,-369995474.92120,   0.00000
-43785820.73384,-3909506.89662,-56092068.72329,  -0.00019,   0.00007,  -0.00073,105831289.76986,   0.00000,274640135.82653,   0.00000,   0.00000,   0.00000,-368808846.05667,   0.00000
-44439046.48735,-4339519.82983,-56715751.60352,  -0.00019,   0.00007,  -0.00074,107008623.95837,   0.00000,274640135.82653,   0.00000,   0.00000,   0.00000,-367631511.86815,   0.00000
-45111967.48971,-4815488.34370,-57339434.48375,  -0.00020,   0.00007,  -0.00075,108187220.25232,   0.00000,274640135.82653,   0.00000,   0.00000,   0.00000,-366452915.57421,   0.00000
-45775040.86764,-5268479.06723,-57963117.36399,  -0.00020,   0.00007,  -0.00075,109366884.00589,   0.00000,274640135.82653,   0.00000,   0.00000,   0.00000,-365273251.82064,   0.00000
-46470939.66032,-5754295.20552,-58586800.24422,  -0.00020,   0.00006,  -0.00076,110555380.37342,   0.00000,274640135.82653,   0.00000,   0.00000,   0.00000,-364084755.45311,   0.00000
-47153708.28710,-6253241.50971,-59210483.12445,  -0.00020,   0.00006,  -0.00077,111737888.13156,   0.00000,274640135.82653,   0.00000,   0.00000,   0.00000,-362902247.69497,   0.00000
-47836476.91389,-6752187.81389,-59834166.00469,  -0.00020,   0.00006,  -0.00078,112921662.89848,   0.00000,274640135.82653,   0.00000,   0.00000,   0.00000,-361718472.92805,   0.00000
-48542223.33099,-7260981.74250,-60457848.88492,  -0.00021,   0.00006,  -0.00079,114114239.16326,   0.00000,274640135.82653,   0.00000,   0.00000,   0.00000,-360525896.66327,   0.00000
-49234839.58220,-7782905.83702,-61074966.68220,  -0.00021,   0.00006,  -0.00079,115290535.59283,   0.00000,274640135.82653,   0.00000,   0.00000,   0.00000,-359349600.23370,   0.00000
-49950433.62373,-8314677.55595,-61698649.56244,  -0.00021,   0.00006,  -0.00080,116486170.87956,   0.00000,274640135.82653,   0.00000,   0.00000,   0.00000,-358153964.94697,   0.00000
-50666027.66526,-8846449.27489,-62315767.35972,  -0.00021,   0.00006,  -0.00081,117672665.32777,   0.00000,274640135.82653,   0.00000,   0.00000,   0.00000,-356967470.49876,   0.00000
-51401316.95564,-9424176.57447,-62939450.23995,  -0.00022,   0.00006,  -0.00082,118872278.48095,   0.00000,274640135.82653,   0.00000,   0.00000,   0.00000,-355767857.34558,   0.00000
-52126758.62160,-9978926.08373,-63556568.03724,  -0.00022,   0.00006,  -0.00083,120062154.24073,   0.00000,274640135.82653,   0.00000,   0.00000,   0.00000,-354577981.58580,   0.00000
-52839070.12165,-10546805.75889,-64173685.83452,  -0.00022,   0.00006,  -0.00083,121246463.43191,   0.00000,274640135.82653,   0.00000,   0.00000,   0.00000,-353393672.39462,   0.00000
-53574359.41203,-11124533.05848,-64790803.63180,  -0.00022,   0.00005,  -0.00084,122439871.75580,   0.00000,274640135.82653,   0.00000,   0.00000,   0.00000,-352200264.07073,   0.00000
-54342474.11716,-11735085.77281,-65407921.42909,  -0.00022,   0.00005,  -0.00085,123643405.37780,   0.00000,274640135.82653,   0.00000,   0.00000,   0.00000,-350996730.44873,   0.00000
-55087611.03197,-12335790.86272,-66018474.14342,  -0.00023,   0.00005,  -0.00086,124830221.34594,   0.00000,274640135.82653,   0.00000,   0.00000,   0.00000,-349809914.48059,   0.00000
-55842595.57120,-12959473.74295,-66635591.94070,  -0.00023,   0.00005,  -0.00087,126029992.97248,   0.00000,274640135.82653,   0.00000,   0.00000,   0.00000,-348610142.85405,   0.00000
-56597580.11042,-13583156.62318,-67246144.65504,  -0.00023,   0.00005,  -0.00087,127220856.52900,   0.00000,274640135.82653,   0.00000,   0.00000,   0.00000,-347419279.29753,   0.00000
-57385390.06440,-14239664.91817,-67863262.45232,  -0.00023,   0.00005,  -0.00088,128432743.08418,   0.00000,274640135.82653,   0.00000,   0.00000,   0.00000,-346207392.74235,   0.00000
-58150222.22806,-14886325.58872,-68473815.16665,  -0.00024,   0.00005,  -0.00089,129627921.31325,   0.00000,274640135.82653,   0.00000,   0.00000,   0.00000,-345012214.51328,   0.00000
-58938032.18204,-15542833.88371,-69084367.88099,  -0.00024,   0.00004,  -0.00090,130832553.04219,   0.00000,274640135.82653,   0.00000,   0.00000,   0.00000,-343807582.78434,   0.00000
-59735689.76044,-16222319.96901,-69694920.59532,  -0.00024,   0.00004,  -0.00091,132040185.90503,   0.00000,274640135.82653,   0.00000,   0.00000,   0.00000,-342599949.92150,   0.00000
-60520217.17294,-16914936.22022,-70305473.30966,  -0.00024,   0.00004,  -0.00091,133242991.83208,   0.00000,274640135.82653,   0.00000,   0.00000,   0.00000,-341397143.99445,   0.00000
-61327722.37577,-17617400.09585,-70909460.94104,  -0.00024,   0.00004,  -0.00092,134445090.08782,   0.00000,274640135.82653,   0.00000,   0.00000,   0.00000,-340195045.73871,   0.00000
-62135227.57860,-18319863.97148,-71520013.65537,  -0.00025,   0.00004,  -0.00093,135659249.83168,   0.00000,274640135.82653,   0.00000,   0.00000,   0.00000,-338980885.99485,   0.00000
-62952580.40585,-19045305.63744,-72124001.28676,  -0.00025,   0.00004,  -0.00094,136866411.50012,   0.00000,274640135.82653,   0.00000,   0.00000,   0.00000,-337773724.32641,   0.00000
-63769933.23311,-19770747.30339,-72727988.91814,  -0.00025,   0.00003,  -0.00095,138075300.88403,   0.00000,274640135.82653,   0.00000,   0.00000,   0.00000,-336564834.94250,   0.00000
-64587286.06036,-20496188.96935,-73331976.54952,  -0.00025,   0.00003,  -0.00095,139285872.99787,   0.00000,274640135.82653,   0.00000,   0.00000,   0.00000,-335354262.82866,   0.00000
-65437464.30236,-21254456.05005,-73935964.18091,  -0.00026,   0.00003,  -0.00096,140508207.32379,   0.00000,274640135.82653,   0.00000,   0.00000,   0.00000,-334131928.50274,   0.00000
-66274512.37846,-22025853.29666,-74539951.81229,  -0.00026,   0.00003,  -0.00097,141726178.83098,   0.00000,274640135.82653,   0.00000,   0.00000,   0.00000,-332913956.99555,   0.00000
-67111560.45457,-22797250.54326,-75137374.36073,  -0.00026,   0.00003,  -0.00098,142935622.56631,   0.00000,274640135.82653,   0.00000,   0.00000,   0.00000,-331704513.26022,   0.00000
-67971586.32099,-23578495.41429,-75734796.90916,  -0.00026,   0.00003,  -0.00098,144155099.26894,   0.00000,274640135.82653,   0.00000,   0.00000,   0.00000,-330485036.55759,   0.00000
-68841459.81184,-24382718.07564,-76338784.54054,  -0.00027,   0.00002,  -0.00099,145388966.90828,   0.00000,274640135.82653,   0.00000,   0.00000,   0.00000,-329251168.91825,   0.00000
-69688355.51237,-25177093.11257,-76929642.00603,  -0.00027,   0.00002,  -0.00100,146595743.98170,   0.00000,274640135.82653,   0.00000,   0.00000,   0.00000,-328044391.84483,   0.00000
-70568076.62765,-26004293.56425,-77527064.55446,  -0.00027,   0.00002,  -0.00101,147825373.18440,   0.00000,274640135.82653,   0.00000,   0.00000,   0.00000,-326814762.64213,   0.00000
-71447797.74292,-26831494.01593,-78124487.10289,  -0.00027,   0.00002,  -0.00102,149056942.71359,   0.00000,274640135.82653,   0.00000,   0.00000,   0.00000,-325583193.11294,   0.00000
-72337366.48263,-27681672.25793,-78715344.56838,  -0.00028,   0.00002,  -0.00102,150282622.77861,   0.00000,274640135.82653,   0.00000,   0.00000,   0.00000,-324357513.04792,   0.00000
-73226935.22233,-28531850.49993,-79306202.03386,  -0.00028,   0.00001,  -0.00103,151510301.99224,   0.00000,274640135.82653,   0.00000,   0.00000,   0.00000,-323129833.83428,   0.00000
-74139481.75235,-29391876.36636,-79897059.49935,  -0.00028,   0.00001,  -0.00104,152748378.12310,   0.00000,274640135.82653,   0.00000,   0.00000,   0.00000,-321891757.70343,   0.00000
-75038898.11648,-30265032.39868,-80487916.96483,  -0.00028,   0.00001,  -0.00105,153982687.55280,   0.00000,274640135.82653,   0.00000,   0.00000,   0.00000,-320657448.27373,   0.00000
-75948162.10503,-31161166.22134,-81078774.43031,  -0.00028,   0.00001,  -0.00105,155221813.20037,   0.00000,274640135.82653,   0.00000,   0.00000,   0.00000,-319418322.62616,   0.00000
-76880403.88390,-32067147.66841,-81663066.81285,  -0.00029,   0.00000,  -0.00106,156461281.60228,   0.00000,274640135.82653,   0.00000,   0.00000,   0.00000,-318178854.22425,   0.00000
-77789667.87245,-32963281.49106,-82253924.27833,  -0.00029,   0.00000,  -0.00107,157704571.31214,   0.00000,274640135.82653,   0.00000,   0.00000,   0.00000,-316935564.51439,   0.00000
-78731757.27575,-33892240.72846,-82838216.66087,  -0.00029,  -0.00000,  -0.00108,158951213.68967,   0.00000,274640135.82653,   0.00000,   0.00000,   0.00000,-315688922.13686,   0.00000
-79673846.67905,-34821199.96586,-83422509.04340,  -0.00029,  -0.00000,  -0.00108,160200012.20265,   0.00000,274640135.82653,   0.00000,   0.00000,   0.00000,-314440123.62388,   0.00000
-80625783.70678,-35773136.99359,-84000236.34299,  -0.00030,  -0.00001,  -0.00109,161443848.56652,   0.00000,274640135.82653,   0.00000,   0.00000,   0.00000,-313196287.26001,   0.00000
-81577720.73450,-36725074.02131,-84584528.72552,  -0.00030,  -0.00001,  -0.00110,162700139.05587,   0.00000,274640135.82653,   0.00000,   0.00000,   0.00000,-311939996.77066,   0.00000
-82529657.76223,-37677011.04903,-85162256.02510,  -0.00030,  -0.00001,  -0.00111,163948346.43392,   0.00000,274640135.82653,   0.00000,   0.00000,   0.00000,-310691789.39261,   0.00000
-83491442.41437,-38651925.86708,-85739983.32469,  -0.00030,  -0.00001,  -0.00111,165202062.66414,   0.00000,274640135.82653,   0.00000,   0.00000,   0.00000,-309438073.16239,   0.00000
-84463074.69095,-39649818.47546,-86317710.62427,  -0.00031,  -0.00002,  -0.00112,166461452.03697,   0.00000,274640135.82653,   0.00000,   0.00000,   0.00000,-308178683.78955,   0.00000
-85447837.13342,-40634580.91793,-86888872.84091,  -0.00031,  -0.00002,  -0.00113,167718197.15101,   0.00000,274640135.82653,   0.00000,   0.00000,   0.00000,-306921938.67552,   0.00000
-86429317.03442,-41655451.31663,-87460035.05754,  -0.00031,  -0.00002,  -0.00114,168975514.36871,   0.00000,274640135.82653,   0.00000,   0.00000,   0.00000,-305664621.45782,   0.00000
-87423927.10132,-42663191.54943,-88037762.35713,  -0.00031,  -0.00002,  -0.00114,170250550.65292,   0.00000,274640135.82653,   0.00000,   0.00000,   0.00000,-304389585.17361,   0.00000
-88438232.41707,-43716887.36287,-88608924.57376,  -0.00032,  -0.00003,  -0.00115,171525122.04036,   0.00000,274640135.82653,   0.00000,   0.00000,   0.00000,-303115013.78617,   0.00000
-89442690.10839,-44747605.38599,-89173521.70745,  -0.00032,  -0.00003,  -0.00116,172788158.50949,   0.00000,274640135.82653,   0.00000,   0.00000,   0.00000,-301851977.31704,   0.00000
-90456995.42414,-45801301.19944,-89744683.92408,  -0.00032,  -0.00003,  -0.00117,174067527.11981,   0.00000,274640135.82653,   0.00000,   0.00000,   0.00000,-300572608.70672,   0.00000
-91481148.36431,-46877974.80321,-90309281.05777,  -0.00032,  -0.00003,  -0.00117,175343071.70580,   0.00000,274640135.82653,   0.00000,   0.00000,   0.00000,-299297064.12073,   0.00000
-92505301.30448,-47954648.40698,-90873878.19145,  -0.00033,  -0.00004,  -0.00118,176621077.69487,   0.00000,274640135.82653,   0.00000,   0.00000,   0.00000,-298019058.13166,   0.00000
-93529454.24465,-49031322.01075,-91438475.32514,  -0.00033,  -0.00004,  -0.00119,177901492.04046,   0.00000,274640135.82653,   0.00000,   0.00000,   0.00000,-296738643.78607,   0.00000
-94563454.80925,-50130973.40485,-91996507.37587,  -0.00033,  -0.00004,  -0.00120,179178334.48813,   0.00000,274640135.82653,   0.00000,   0.00000,   0.00000,-295461801.33840,   0.00000
-95620433.16417,-51240472.42337,-92561104.50956,  -0.00034,  -0.00005,  -0.00120,180476844.18812,   0.00000,274640135.82653,   0.00000,   0.00000,   0.00000,-294163291.63841,   0.00000
-96654433.72877,-52340123.81746,-93119136.56029,  -0.00034,  -0.00005,  -0.00121,181758586.79300,   0.00000,274640135.82653,   0.00000,   0.00000,   0.00000,-292881549.03353,   0.00000
-97731107.33254,-53495578.41663,-93677168.61103,  -0.00034,  -0.00005,  -0.00122,183060645.39233,   0.00000,274640135.82653,   0.00000,   0.00000,   0.00000,-291579490.43420,   0.00000
-98797933.31189,-54628055.22548,-94228635.57881,  -0.00034,  -0.00006,  -0.00122,184350818.75713,   0.00000,274640135.82653,   0.00000,   0.00000,   0.00000,-290289317.06939,   0.00000
-99874606.91566,-55783509.82465,-94780102.54660,  -0.00035,  -0.00006,  -0.00123,185648012.31102,   0.00000,274640135.82653,   0.00000,   0.00000,   0.00000,-288992123.51551,   0.00000
-100951280.51943,-56938964.42382,-95338134.59733,  -0.00035,  -0.00006,  -0.00124,186957816.26782,   0.00000,274640135.82653,   0.00000,   0.00000,   0.00000,-287682319.55871,   0.00000
-102037801.74763,-58117396.81331,-95883036.48217,  -0.00035,  -0.00007,  -0.00125,188254730.18981,   0.00000,274640135.82653,   0.00000,   0.00000,   0.00000,-286385405.63671,   0.00000
-103124322.97582,-59295829.20280,-96434503.44995,  -0.00035,  -0.00007,  -0.00125,189564288.50170,   0.00000,274640135.82653,   0.00000,   0.00000,   0.00000,-285075847.32483,   0.00000
-104220691.82844,-60497239.38262,-96985970.41774,  -0.00036,  -0.00007,  -0.00126,190881219.11168,   0.00000,274640135.82653,   0.00000,   0.00000,   0.00000,-283758916.71485,   0.00000
-105317060.68106,-61698649.56244,-97530872.30257,  -0.00036,  -0.00008,  -0.00127,192190788.96951,   0.00000,274640135.82653,   0.00000,   0.00000,   0.00000,-282449346.85702,   0.00000
-106436407.32401,-62909907.36668,-98075774.18741,  -0.00036,  -0.00008,  -0.00127,193512359.22056,   0.00000,274640135.82653,   0.00000,   0.00000,   0.00000,-281127776.60597,   0.00000
-107565601.59138,-64144142.96125,-98614110.98929,  -0.00036,  -0.00008,  -0.00128,194831606.91834,   0.00000,274640135.82653,   0.00000,   0.00000,   0.00000,-279808528.90819,   0.00000
-108681665.69285,-65391508.72171,-99159012.87413,  -0.00037,  -0.00009,  -0.00129,196159183.52997,   0.00000,274640135.82653,   0.00000,   0.00000,   0.00000,-278480952.29656,   0.00000
-109810859.96022,-66625744.31628,-99697349.67601,  -0.00037,  -0.00009,  -0.00130,197483845.13500,   0.00000,274640135.82653,   0.00000,   0.00000,   0.00000,-277156290.69153,   0.00000
-110949901.85201,-67882957.70117,-100235686.47790,  -0.00037,  -0.00009,  -0.00130,198816366.79093,   0.00000,274640135.82653,   0.00000,   0.00000,   0.00000,-275823769.03560,   0.00000
-112098791.36823,-69163148.87639,-100767458.19683,  -0.00038,  -0.00010,  -0.00131,200146987.70355,   0.00000,274640135.82653,   0.00000,   0.00000,   0.00000,-274493148.12298,   0.00000
-113247680.88445,-70443340.05160,-101305794.99872,  -0.00038,  -0.00010,  -0.00132,201490319.34488,   0.00000,274640135.82653,   0.00000,   0.00000,   0.00000,-273149816.48165,   0.00000
-114396570.40067,-71723531.22682,-101837566.71766,  -0.00038,  -0.00010,  -0.00132,202826488.03010,   0.00000,274640135.82653,   0.00000,   0.00000,   0.00000,-271813647.79643,   0.00000
-115578285.33164,-73036547.81678,-102369338.43659,  -0.00038,  -0.00011,  -0.00133,204180515.10814,   0.00000,274640135.82653,   0.00000,   0.00000,   0.00000,-270459620.71839,   0.00000
-116737022.47228,-74339716.78232,-102894545.07258,  -0.00039,  -0.00011,  -0.00134,205517860.38066,   0.00000,274640135.82653,   0.00000,   0.00000,   0.00000,-269122275.44587,   0.00000
-117928585.02767,-75675711.16261,-103426316.79151,  -0.00039,  -0.00011,  -0.00134,206883164.86220,   0.00000,274640135.82653,   0.00000,   0.00000,   0.00000,-267756970.96433,   0.00000
-119097169.79274,-77001857.91847,-103951523.42750,  -0.00039,  -0.00012,  -0.00135,208231785.03139,   0.00000,274640135.82653,   0.00000,   0.00000,   0.00000,-266408350.79514,   0.00000
-120288732.34813,-78337852.29876,-104476730.06348,  -0.00039,  -0.00012,  -0.00136,209592935.61350,   0.00000,274640135.82653,   0.00000,   0.00000,   0.00000,-265047200.21303,   0.00000
-121490142.52795,-79696824.46938,-104995371.61652,  -0.00040,  -0.00013,  -0.00136,210952943.04851,   0.00000,274640135.82653,   0.00000,   0.00000,   0.00000,-263687192.77802,   0.00000
-122691552.70777,-81055796.63999,-105520578.25251,  -0.00040,  -0.00013,  -0.00137,212325634.42338,   0.00000,274640135.82653,   0.00000,   0.00000,   0.00000,-262314501.40315,   0.00000
-123902810.51201,-82437746.60093,-106039219.80554,  -0.00040,  -0.00013,  -0.00138,213697375.81961,   0.00000,274640135.82653,   0.00000,   0.00000,   0.00000,-260942760.00692,   0.00000
-125114068.31625,-83819696.56187,-106557861.35858,  -0.00041,  -0.00014,  -0.00139,215072038.70429,   0.00000,274640135.82653,   0.00000,   0.00000,   0.00000,-259568097.12224,   0.00000
-126325326.12050,-85201646.52280,-107069937.82866,  -0.00041,  -0.00014,  -0.00139,216439824.35437,   0.00000,274640135.82653,   0.00000,   0.00000,   0.00000,-258200311.47216,   0.00000
-127546431.54916,-86606574.27407,-107588579.38170,  -0.00041,  -0.00015,  -0.00140,217826395.67136,   0.00000,274640135.82653,   0.00000,   0.00000,   0.00000,-256813740.15517,   0.00000
-128790514.76815,-88021349.64975,-108100655.85179,  -0.00041,  -0.00015,  -0.00141,219216092.34541,   0.00000,274640135.82653,   0.00000,   0.00000,   0.00000,-255424043.48112,   0.00000
-130021467.82125,-89449255.19134,-108612732.32187,  -0.00042,  -0.00015,  -0.00141,220605087.79366,   0.00000,274640135.82653,   0.00000,   0.00000,   0.00000,-254035048.03287,   0.00000
-131275398.66466,-90887008.35735,-109118243.70901,  -0.00042,  -0.00016,  -0.00142,221997350.56433,   0.00000,274640135.82653,   0.00000,   0.00000,   0.00000,-252642785.26220,   0.00000
-132529329.50808,-92324761.52336,-109623755.09615,  -0.00042,  -0.00016,  -0.00143,223392589.56523,   0.00000,274640135.82653,   0.00000,   0.00000,   0.00000,-251247546.26130,   0.00000
-133760282.56117,-93752667.06495,-110129266.48328,  -0.00043,  -0.00017,  -0.00143,224780689.88150,   0.00000,274640135.82653,   0.00000,   0.00000,   0.00000,-249859445.94503,   0.00000
-135033908.65344,-95236375.81161,-110634777.87042,  -0.00043,  -0.00017,  -0.00144,226194929.02237,   0.00000,274640135.82653,   0.00000,   0.00000,   0.00000,-248445206.80416,   0.00000
-136297687.12128,-96697106.76794,-111140289.25755,  -0.00043,  -0.00017,  -0.00144,227605557.17484,   0.00000,274640135.82653,   0.00000,   0.00000,   0.00000,-247034578.65169,   0.00000
-137571313.21354,-98180815.51460,-111639235.56174,  -0.00043,  -0.00018,  -0.00145,229016226.02366,   0.00000,274640135.82653,   0.00000,   0.00000,   0.00000,-245623909.80287,   0.00000
-138867917.09613,-99674371.88569,-112138181.86593,  -0.00044,  -0.00018,  -0.00146,230440061.39207,   0.00000,274640135.82653,   0.00000,   0.00000,   0.00000,-244200074.43446,   0.00000
-140151390.81282,-101181058.42267,-112637128.17011,  -0.00044,  -0.00019,  -0.00146,231863582.29718,   0.00000,274640135.82653,   0.00000,   0.00000,   0.00000,-242776553.52935,   0.00000
-141425016.90509,-102664767.16933,-113129509.39135,  -0.00044,  -0.00019,  -0.00147,233273618.47719,   0.00000,274640135.82653,   0.00000,   0.00000,   0.00000,-241366517.34934,   0.00000
-142741316.03653,-104204279.12107,-113621890.61259,  -0.00045,  -0.00020,  -0.00148,234710803.39801,   0.00000,274640135.82653,   0.00000,   0.00000,   0.00000,-239929332.42852,   0.00000
-144024789.75322,-105710965.65805,-114114271.83382,  -0.00045,  -0.00020,  -0.00148,236133754.10728,   0.00000,274640135.82653,   0.00000,   0.00000,   0.00000,-238506381.71925,   0.00000
-145341088.88466,-107250477.60978,-114606653.05506,  -0.00045,  -0.00020,  -0.00149,237577041.48328,   0.00000,274640135.82653,   0.00000,   0.00000,   0.00000,-237063094.34325,   0.00000
-146644257.85020,-108803119.72742,-115092469.19335,  -0.00046,  -0.00021,  -0.00150,239010740.08024,   0.00000,274640135.82653,   0.00000,   0.00000,   0.00000,-235629395.74628,   0.00000
-147970404.60606,-110365609.46948,-115578285.33164,  -0.00046,  -0.00021,  -0.00150,240457864.55356,   0.00000,274640135.82653,   0.00000,   0.00000,   0.00000,-234182271.27297,   0.00000
-149296551.36193,-111928099.21153,-116064101.46992,  -0.00046,  -0.00022,  -0.00151,241908055.63055,   0.00000,274640135.82653,   0.00000,   0.00000,   0.00000,-232732080.19598,   0.00000
-150622698.11779,-113490588.95359,-116549917.60821,  -0.00046,  -0.00022,  -0.00152,243361258.48949,   0.00000,274640135.82653,   0.00000,   0.00000,   0.00000,-231278877.33704,   0.00000
-151958692.49808,-115076056.48597,-117029168.66355,  -0.00047,  -0.00023,  -0.00152,244815471.06931,   0.00000,274640135.82653,   0.00000,   0.00000,   0.00000,-229824664.75722,   0.00000
-153294686.87837,-116661524.01836,-117508419.71888,  -0.00047,  -0.00023,  -0.00153,246272748.25031,   0.00000,274640135.82653,   0.00000,   0.00000,   0.00000,-228367387.57621,   0.00000
-154653659.04898,-118256839.17516,-117987670.77422,  -0.00047,  -0.00024,  -0.00153,247743522.10928,   0.00000,274640135.82653,   0.00000,   0.00000,   0.00000,-226896613.71725,   0.00000
-155999501.05370,-119865284.49787,-118466921.82956,  -0.00048,  -0.00024,  -0.00154,249214447.58429,   0.00000,274640135.82653,   0.00000,   0.00000,   0.00000,-225425688.24224,   0.00000
-157345343.05841,-121473729.82058,-118939607.80194,  -0.00048,  -0.00025,  -0.00155,250679056.24469,   0.00000,274640135.82653,   0.00000,   0.00000,   0.00000,-223961079.58184,   0.00000
-158724010.47787,-123115000.55803,-119412293.77433,  -0.00048,  -0.00025,  -0.00155,252165017.27910,   0.00000,274640135.82653,   0.00000,   0.00000,   0.00000,-222475118.54743,   0.00000
-160079700.10701,-124746423.67106,-119884979.74672,  -0.00049,  -0.00026,  -0.00156,253643520.75501,   0.00000,274640135.82653,   0.00000,   0.00000,   0.00000,-220996615.07152,   0.00000
-161458367.52647,-126387694.40852,-120357665.71911,  -0.00049,  -0.00026,  -0.00156,255135661.99110,   0.00000,274640135.82653,   0.00000,   0.00000,   0.00000,-219504473.83543,   0.00000
-162814057.15561,-128019117.52155,-120823786.60854,  -0.00049,  -0.00026,  -0.00157,256610915.53670,   0.00000,274640135.82653,   0.00000,   0.00000,   0.00000,-218029220.28983,   0.00000
-164202572.19950,-129683366.04933,-121289907.49798,  -0.00049,  -0.00027,  -0.00158,258107812.45951,   0.00000,274640135.82653,   0.00000,   0.00000,   0.00000,-216532323.36702,   0.00000
-165591087.24339,-131347614.57711,-121756028.38742,  -0.00050,  -0.00027,  -0.00158,259607783.14783,   0.00000,274640135.82653,   0.00000,   0.00000,   0.00000,-215032352.67870,   0.00000
-166989449.91170,-133034840.89521,-122215584.19391,  -0.00050,  -0.00028,  -0.00159,261109703.82814,   0.00000,274640135.82653,   0.00000,   0.00000,   0.00000,-213530431.99839,   0.00000
-168377964.95559,-134699089.42299,-122681705.08334,  -0.00050,  -0.00028,  -0.00159,262615741.15430,   0.00000,274640135.82653,   0.00000,   0.00000,   0.00000,-212024394.67223,   0.00000
-169776327.62390,-136386315.74110,-123141260.88983,  -0.00051,  -0.00029,  -0.00160,264123779.91923,   0.00000,274640135.82653,   0.00000,   0.00000,   0.00000,-210516355.90730,   0.00000
-171184537.91664,-138096519.84953,-123594251.61337,  -0.00051,  -0.00029,  -0.00161,265634001.91533,   0.00000,274640135.82653,   0.00000,   0.00000,   0.00000,-209006133.91120,   0.00000
-172592748.20937,-139806723.95796,-124053807.41986,  -0.00051,  -0.00030,  -0.00161,267156492.52518,   0.00000,274640135.82653,   0.00000,   0.00000,   0.00000,-207483643.30135,   0.00000
-174023936.29243,-141526775.69081,-124506798.14339,  -0.00052,  -0.00030,  -0.00162,268683718.14351,   0.00000,274640135.82653,   0.00000,   0.00000,   0.00000,-205956417.68302,   0.00000
-175432146.58517,-143236979.79924,-124959788.86693,  -0.00052,  -0.00031,  -0.00162,270203157.09099,   0.00000,274640135.82653,   0.00000,   0.00000,   0.00000,-204436978.73554,   0.00000
-176840356.87791,-144947183.90767,-125412779.59047,  -0.00052,  -0.00031,  -0.00163,271725563.88131,   0.00000,274640135.82653,   0.00000,   0.00000,   0.00000,-202914571.94522,   0.00000
-178281392.58540,-146690213.43085,-125865770.31401,  -0.00053,  -0.00032,  -0.00164,273270405.53212,   0.00000,274640135.82653,   0.00000,   0.00000,   0.00000,-201369730.29441,   0.00000
-179709298.12698,-148446373.11992,-126312195.95460,  -0.00053,  -0.00032,  -0.00164,274806980.52177,   0.00000,274640135.82653,   0.00000,   0.00000,   0.00000,-199833155.30476,   0.00000
-181150333.83447,-150189402.64310,-126758621.59518,  -0.00053,  -0.00033,  -0.00165,276348845.00133,   0.00000,274640135.82653,   0.00000,   0.00000,   0.00000,-198291290.82520,   0.00000
-182578239.37605,-151945562.33218,-127205047.23577,  -0.00053,  -0.00034,  -0.00165,277891500.91583,   0.00000,274640135.82653,   0.00000,   0.00000,   0.00000,-196748634.91070,   0.00000
-184029122.70797,-153711569.64568,-127644907.79341,  -0.00054,  -0.00034,  -0.00166,279439128.95729,   0.00000,274640135.82653,   0.00000,   0.00000,   0.00000,-195201006.86924,   0.00000
-185480006.03988,-155477576.95918,-128091333.43400,  -0.00054,  -0.00035,  -0.00167,280998748.69276,   0.00000,274640135.82653,   0.00000,   0.00000,   0.00000,-193641387.13377,   0.00000
-186940736.99621,-157266562.06301,-128531193.99164,  -0.00054,  -0.00035,  -0.00167,282561298.06050,   0.00000,274640135.82653,   0.00000,   0.00000,   0.00000,-192078837.76603,   0.00000
-188378490.16222,-159045699.54241,-128971054.54927,  -0.00055,  -0.00036,  -0.00168,284115821.60590,   0.00000,274640135.82653,   0.00000,   0.00000,   0.00000,-190524314.22063,   0.00000
-189839221.11856,-160834684.64624,-129404350.02396,  -0.00055,  -0.00036,  -0.00168,285675430.88869,   0.00000,274640135.82653,   0.00000,   0.00000,   0.00000,-188964704.93784,   0.00000
-191299952.07489,-162623669.75007,-129844210.58160,  -0.00055,  -0.00037,  -0.00169,287246908.53355,   0.00000,274640135.82653,   0.00000,   0.00000,   0.00000,-187393227.29298,   0.00000
-192770530.65565,-164435632.64422,-130277506.05629,  -0.00056,  -0.00037,  -0.00169,288821564.91783,   0.00000,274640135.82653,   0.00000,   0.00000,   0.00000,-185818570.90870,   0.00000
-194241109.23642,-166247595.53837,-130710801.53098,  -0.00056,  -0.00038,  -0.00170,290399199.52547,   0.00000,274640135.82653,   0.00000,   0.00000,   0.00000,-184240936.30106,   0.00000
-195711687.81718,-168059558.43252,-131144097.00567,  -0.00056,  -0.00038,  -0.00170,291979764.08039,   0.00000,274640135.82653,   0.00000,   0.00000,   0.00000,-182660371.74614,   0.00000
-197215091.81268,-169904346.74142,-131570827.39740,  -0.00057,  -0.00039,  -0.00171,293574906.97341,   0.00000,274640135.82653,   0.00000,   0.00000,   0.00000,-181065228.85312,   0.00000
-198685670.39345,-171716309.63557,-131997557.78914,  -0.00057,  -0.00039,  -0.00172,295152472.97628,   0.00000,274640135.82653,   0.00000,   0.00000,   0.00000,-179487662.85025,   0.00000
-200166096.59863,-173551250.32005,-132424288.18088,  -0.00057,  -0.00040,  -0.00172,296742316.96785,   0.00000,274640135.82653,   0.00000,   0.00000,   0.00000,-177897818.85868,   0.00000
-201656370.42824,-175409168.79485,-132851018.57262,  -0.00058,  -0.00040,  -0.00173,298344551.34950,   0.00000,274640135.82653,   0.00000,   0.00000,   0.00000,-176295584.47703,   0.00000
-203136796.63343,-177244109.47932,-133277748.96436,  -0.00058,  -0.00041,  -0.00173,299940172.32917,   0.00000,274640135.82653,   0.00000,   0.00000,   0.00000,-174699963.49736,   0.00000
-204650048.25336,-179111875.57855,-133697914.27315,  -0.00058,  -0.00042,  -0.00174,301550740.48398,   0.00000,274640135.82653,   0.00000,   0.00000,   0.00000,-173089395.34255,   0.00000
-206140322.08297,-180969794.05335,-134118079.58194,  -0.00059,  -0.00042,  -0.00174,303152939.82902,   0.00000,274640135.82653,   0.00000,   0.00000,   0.00000,-171487195.99751,   0.00000
-207653573.70290,-182837560.15257,-134538244.89072,  -0.00059,  -0.00043,  -0.00175,304769298.51309,   0.00000,274640135.82653,   0.00000,   0.00000,   0.00000,-169870837.31344,   0.00000
-209143847.53251,-184695478.62737,-134958410.19951,  -0.00059,  -0.00043,  -0.00175,306377158.44176,   0.00000,274640135.82653,   0.00000,   0.00000,   0.00000,-168262977.38477,   0.00000
-210643968.98655,-186576374.89250,-135372010.42535,  -0.00059,  -0.00044,  -0.00176,307988929.72274,   0.00000,274640135.82653,   0.00000,   0.00000,   0.00000,-166651206.10379,   0.00000
-212167068.23091,-188467118.78205,-135792175.73414,  -0.00060,  -0.00044,  -0.00177,309623559.54550,   0.00000,274640135.82653,   0.00000,   0.00000,   0.00000,-165016576.28103,   0.00000
-213667189.68494,-190348015.04717,-136205775.95998,  -0.00060,  -0.00045,  -0.00177,311240983.09446,   0.00000,274640135.82653,   0.00000,   0.00000,   0.00000,-163399152.73207,   0.00000
-215190288.92930,-192238758.93672,-136619376.18582,  -0.00060,  -0.00046,  -0.00178,312872575.74963,   0.00000,274640135.82653,   0.00000,   0.00000,   0.00000,-161767560.07690,   0.00000
-216700258.00776,-194142632.99217,-137026411.32871,  -0.00061,  -0.00046,  -0.00178,314496927.34735,   0.00000,274640135.82653,   0.00000,   0.00000,   0.00000,-160143208.47918,   0.00000
-218233204.87654,-196056354.67204,-137440011.55455,  -0.00061,  -0.00047,  -0.00179,316144096.30709,   0.00000,274640135.82653,   0.00000,   0.00000,   0.00000,-158496039.51944,   0.00000
-219766151.74533,-197970076.35191,-137847046.69744,  -0.00061,  -0.00047,  -0.00179,317785486.75602,   0.00000,274640135.82653,   0.00000,   0.00000,   0.00000,-156854649.07051,   0.00000
-221276120.82379,-199873950.40736,-138254081.84032,  -0.00062,  -0.00048,  -0.00180,319418156.55177,   0.00000,274640135.82653,   0.00000,   0.00000,   0.00000,-155221979.27475,   0.00000
-222809067.69257,-201787672.08724,-138661116.98321,  -0.00062,  -0.00048,  -0.00180,321065006.27117,   0.00000,274640135.82653,   0.00000,   0.00000,   0.00000,-153575129.55536,   0.00000
-224328884.39545,-203714523.93301,-139061587.04315,  -0.00062,  -0.00049,  -0.00181,322704785.70855,   0.00000,274640135.82653,   0.00000,   0.00000,   0.00000,-151935350.11798,   0.00000
-225861831.26424,-205628245.61288,-139468622.18604,  -0.00063,  -0.00050,  -0.00181,324356994.41434,   0.00000,274640135.82653,   0.00000,   0.00000,   0.00000,-150283141.41218,   0.00000
-227404625.75745,-207564945.08308,-139869092.24598,  -0.00063,  -0.00050,  -0.00182,326013696.77268,   0.00000,274640135.82653,   0.00000,   0.00000,   0.00000,-148626439.05385,   0.00000
-228924442.46033,-209491796.92885,-140269562.30592,  -0.00063,  -0.00051,  -0.00182,327661518.72441,   0.00000,274640135.82653,   0.00000,   0.00000,   0.00000,-146978617.10212,   0.00000
-230477084.57796,-211451474.18938,-140670032.36586,  -0.00064,  -0.00051,  -0.00183,329333975.12096,   0.00000,274640135.82653,   0.00000,   0.00000,   0.00000,-145306160.70557,   0.00000
-232019879.07117,-213388173.65957,-141070502.42580,  -0.00064,  -0.00052,  -0.00183,330998638.45378,   0.00000,274640135.82653,   0.00000,   0.00000,   0.00000,-143641497.37275,   0.00000
-233549543.39848,-215338003.29567,-141464407.40279,  -0.00064,  -0.00052,  -0.00184,332656411.66890,   0.00000,274640135.82653,   0.00000,   0.00000,   0.00000,-141983724.15763,   0.00000
-235102185.51611,-217297680.55619,-141864877.46273,  -0.00065,  -0.00053,  -0.00184,334336791.83685,   0.00000,274640135.82653,   0.00000,   0.00000,   0.00000,-140303343.98968,   0.00000
-236654827.63375,-219257357.81672,-142258782.43972,  -0.00065,  -0.00054,  -0.00185,336011410.10578,   0.00000,274640135.82653,   0.00000,   0.00000,   0.00000,-138628725.72075,   0.00000
-238184491.96106,-221207187.45281,-142652687.41671,  -0.00065,  -0.00054,  -0.00185,337676943.41126,   0.00000,274640135.82653,   0.00000,   0.00000,   0.00000,-136963192.41527,   0.00000
-239737134.07869,-223166864.71334,-143046592.39369,  -0.00066,  -0.00055,  -0.00186,339356657.78188,   0.00000,274640135.82653,   0.00000,   0.00000,   0.00000,-135283478.04465,   0.00000
-241299623.82075,-225149519.76418,-143433932.28773,  -0.00066,  -0.00055,  -0.00186,341041345.11540,   0.00000,274640135.82653,   0.00000,   0.00000,   0.00000,-133598790.71113,   0.00000
-242829288.14806,-227099349.40028,-143827837.26472,  -0.00066,  -0.00056,  -0.00187,342714377.64341,   0.00000,274640135.82653,   0.00000,   0.00000,   0.00000,-131925758.18312,   0.00000
-244391777.89011,-229082004.45113,-144215177.15876,  -0.00067,  -0.00057,  -0.00187,344404122.33595,   0.00000,274640135.82653,   0.00000,   0.00000,   0.00000,-130236013.49058,   0.00000
-245931289.84185,-231054811.87755,-144602517.05280,  -0.00067,  -0.00057,  -0.00188,346084644.73283,   0.00000,274640135.82653,   0.00000,   0.00000,   0.00000,-128555491.09370,   0.00000
-247493779.58390,-233037466.92839,-144989856.94684,  -0.00067,  -0.00058,  -0.00188,347779361.52503,   0.00000,274640135.82653,   0.00000,   0.00000,   0.00000,-126860774.30150,   0.00000
-249066116.95039,-235043099.76957,-145377196.84088,  -0.00067,  -0.00058,  -0.00189,349487489.43328,   0.00000,274640135.82653,   0.00000,   0.00000,   0.00000,-125152646.39325,   0.00000
-250605628.90212,-237015907.19599,-145757971.65197,  -0.00068,  -0.00059,  -0.00189,351167139.57744,   0.00000,274640135.82653,   0.00000,   0.00000,   0.00000,-123472996.24909,   0.00000
-252168118.64418,-238998562.24683,-146145311.54601,  -0.00068,  -0.00060,  -0.00190,352869113.52057,   0.00000,274640135.82653,   0.00000,   0.00000,   0.00000,-121771022.30596,   0.00000
-253717478.22034,-240994347.46358,-146526086.35710,  -0.00068,  -0.00060,  -0.00190,354564575.37303,   0.00000,274640135.82653,   0.00000,   0.00000,   0.00000,-120075560.45350,   0.00000
-255289815.58682,-242999980.30475,-146906861.16819,  -0.00069,  -0.00061,  -0.00191,356274245.19004,   0.00000,274640135.82653,   0.00000,   0.00000,   0.00000,-118365890.63649,   0.00000
-256839175.16298,-244995765.52150,-147287635.97928,  -0.00069,  -0.00061,  -0.00191,357974468.11748,   0.00000,274640135.82653,   0.00000,   0.00000,   0.00000,-116665667.70905,   0.00000
-258411512.52946,-247001398.36267,-147668410.79037,  -0.00069,  -0.00062,  -0.00192,359688857.61050,   0.00000,274640135.82653,   0.00000,   0.00000,   0.00000,-114951278.21603,   0.00000
-259960872.10562,-248997183.57941,-148049185.60146,  -0.00070,  -0.00063,  -0.00192,361393707.10212,   0.00000,274640135.82653,   0.00000,   0.00000,   0.00000,-113246428.72441,   0.00000
-261510231.68178,-250992968.79616,-148423395.32960,  -0.00070,  -0.00063,  -0.00193,363092763.74294,   0.00000,274640135.82653,   0.00000,   0.00000,   0.00000,-111547372.08359,   0.00000
-263082569.04826,-252998601.63733,-148804170.14069,  -0.00070,  -0.00064,  -0.00193,364813995.94436,   0.00000,274640135.82653,   0.00000,   0.00000,   0.00000,-109826139.88217,   0.00000
-264641776.24884,-255017364.64440,-149178379.86883,  -0.00071,  -0.00064,  -0.00194,366528913.88456,   0.00000,274640135.82653,   0.00000,   0.00000,   0.00000,-108111221.94197,   0.00000
-266191135.82500,-257013149.86115,-149552589.59697,  -0.00071,  -0.00065,  -0.00194,368234692.65583,   0.00000,274640135.82653,   0.00000,   0.00000,   0.00000,-106405443.17070,   0.00000
-267750343.02558,-259031912.86822,-149926799.32511,  -0.00071,  -0.00066,  -0.00195,369954091.76959,   0.00000,274640135.82653,   0.00000,   0.00000,   0.00000,-104686044.05694,   0.00000
-269309550.22617,-261050675.87529,-150301009.05325,  -0.00072,  -0.00066,  -0.00195,371675704.18179,   0.00000,274640135.82653,   0.00000,   0.00000,   0.00000,-102964431.64474,   0.00000
-270868757.42675,-263069438.88236,-150675218.78139,  -0.00072,  -0.00067,  -0.00196,373399499.27823,   0.00000,274640135.82653,   0.00000,   0.00000,   0.00000,-101240636.54830,   0.00000
-272418117.00291,-265065224.09911,-151049428.50953,  -0.00072,  -0.00067,  -0.00196,375113881.14179,   0.00000,274640135.82653,   0.00000,   0.00000,   0.00000,-99526254.68474,   0.00000
-273977324.20349,-267083987.10618,-151417073.15472,  -0.00073,  -0.00068,  -0.00197,376834001.05287,   0.00000,274640135.82653,   0.00000,   0.00000,   0.00000,-97806134.77366,   0.00000
-275546379.02850,-269125727.90357,-151791282.88286,  -0.00073,  -0.00069,  -0.00197,378575785.36639,   0.00000,274640135.82653,   0.00000,   0.00000,   0.00000,-96064350.46014,   0.00000
-277105586.22908,-271144490.91064,-152158927.52805,  -0.00073,  -0.00069,  -0.00198,380300151.77940,   0.00000,274640135.82653,   0.00000,   0.00000,   0.00000,-94339984.04713,   0.00000
-278664793.42966,-273163253.91771,-152526572.17324,  -0.00074,  -0.00070,  -0.00198,382026588.49786,   0.00000,274640135.82653,   0.00000,   0.00000,   0.00000,-92613547.32867,   0.00000
-280224000.63025,-275182016.92478,-152894216.81843,  -0.00074,  -0.00071,  -0.00199,383755067.58011,   0.00000,274640135.82653,   0.00000,   0.00000,   0.00000,-90885068.24642,   0.00000
-281770077.66493,-277213910.09775,-153261861.46362,  -0.00074,  -0.00071,  -0.00199,385485328.09800,   0.00000,274640135.82653,   0.00000,   0.00000,   0.00000,-89154807.72853,   0.00000
-283329284.86551,-279232673.10482,-153629506.10881,  -0.00074,  -0.00072,  -0.00200,387217834.36653,   0.00000,274640135.82653,   0.00000,   0.00000,   0.00000,-87422301.46000,   0.00000
-284888492.06610,-281251436.11190,-153997150.75400,  -0.00075,  -0.00072,  -0.00200,388952301.73172,   0.00000,274640135.82653,   0.00000,   0.00000,   0.00000,-85687834.09480,   0.00000
-286434569.10078,-283283329.28487,-154364795.39919,  -0.00075,  -0.00073,  -0.00201,390688544.55362,   0.00000,274640135.82653,   0.00000,   0.00000,   0.00000,-83951591.27291,   0.00000
-287980646.13546,-285315222.45784,-154725874.96143,  -0.00075,  -0.00074,  -0.00201,392418979.85038,   0.00000,274640135.82653,   0.00000,   0.00000,   0.00000,-82221155.97615,   0.00000
-289539853.33605,-287333985.46491,-155093519.60662,  -0.00076,  -0.00074,  -0.00202,394159238.55080,   0.00000,274640135.82653,   0.00000,   0.00000,   0.00000,-80480897.27573,   0.00000
-291085930.37073,-289365878.63788,-155454599.16886,  -0.00076,  -0.00075,  -0.00202,395893535.92483,   0.00000,274640135.82653,   0.00000,   0.00000,   0.00000,-78746599.90170,   0.00000
-292632007.40541,-291397771.81085,-155815678.73110,  -0.00076,  -0.00076,  -0.00203,397629746.71329,   0.00000,274640135.82653,   0.00000,   0.00000,   0.00000,-77010389.11324,   0.00000
-294168236.81567,-293406687.19349,-156176758.29334,  -0.00077,  -0.00076,  -0.00203,399355790.35806,   0.00000,274640135.82653,   0.00000,   0.00000,   0.00000,-75284345.46847,   0.00000
-295714313.85036,-295438580.36646,-156544402.93853,  -0.00077,  -0.00077,  -0.00204,401103407.34166,   0.00000,274640135.82653,   0.00000,   0.00000,   0.00000,-73536728.48487,   0.00000
-297260390.88504,-297470473.53943,-156905482.50077,  -0.00077,  -0.00077,  -0.00204,402845162.18047,   0.00000,274640135.82653,   0.00000,   0.00000,   0.00000,-71794973.64606,   0.00000
-298806467.91972,-299502366.71240,-157259996.98006,  -0.00078,  -0.00078,  -0.00204,404581077.85284,   0.00000,274640135.82653,   0.00000,   0.00000,   0.00000,-70059057.97369,   0.00000
-300342697.32998,-301511282.09505,-157621076.54230,  -0.00078,  -0.00079,  -0.00205,406314273.24334,   0.00000,274640135.82653,   0.00000,   0.00000,   0.00000,-68325862.58319,   0.00000
-301865796.57434,-303533327.64359,-157982156.10454,  -0.00078,  -0.00079,  -0.00205,408049256.01964,   0.00000,274640135.82653,   0.00000,   0.00000,   0.00000,-66590879.80689,   0.00000
-303411873.60902,-305565220.81656,-158343235.66678,  -0.00078,  -0.00080,  -0.00206,409798113.59520,   0.00000,274640135.82653,   0.00000,   0.00000,   0.00000,-64842022.23133,   0.00000
-304934972.85338,-307587266.36511,-158704315.22902,  -0.00079,  -0.00080,  -0.00206,411536545.63951,   0.00000,274640135.82653,   0.00000,   0.00000,   0.00000,-63103590.18702,   0.00000
-306458072.09774,-309609311.91366,-159058829.70831,  -0.00079,  -0.00081,  -0.00207,413269085.54776,   0.00000,274640135.82653,   0.00000,   0.00000,   0.00000,-61371050.27877,   0.00000
-308004149.13242,-311641205.08663,-159419909.27055,  -0.00079,  -0.00082,  -0.00207,415023053.33417,   0.00000,274640135.82653,   0.00000,   0.00000,   0.00000,-59617082.49236,   0.00000
-309527248.37678,-313663250.63517,-159774423.74984,  -0.00080,  -0.00082,  -0.00208,416758957.73755,   0.00000,274640135.82653,   0.00000,   0.00000,   0.00000,-57881178.08898,   0.00000
-311050347.62114,-315685296.18372,-160135503.31208,  -0.00080,  -0.00083,  -0.00208,418504052.70206,   0.00000,274640135.82653,   0.00000,   0.00000,   0.00000,-56136083.12447,   0.00000
-312563599.24108,-317684363.94194,-160490017.79137,  -0.00080,  -0.00084,  -0.00209,420230803.10640,   0.00000,274640135.82653,   0.00000,   0.00000,   0.00000,-54409332.72013,   0.00000
-314063720.69511,-319696561.86606,-160844532.27067,  -0.00081,  -0.00084,  -0.00209,421959371.61871,   0.00000,274640135.82653,   0.00000,   0.00000,   0.00000,-52680764.20782,   0.00000
-315586819.93947,-321718607.41460,-161205611.83291,  -0.00081,  -0.00085,  -0.00210,423709215.03578,   0.00000,274640135.82653,   0.00000,   0.00000,   0.00000,-50930920.79075,   0.00000
-317109919.18383,-323740652.96315,-161560126.31220,  -0.00081,  -0.00085,  -0.00210,425453125.70265,   0.00000,274640135.82653,   0.00000,   0.00000,   0.00000,-49187010.12388,   0.00000
-318610040.63786,-325752850.88727,-161914640.79149,  -0.00081,  -0.00086,  -0.00210,427186377.94909,   0.00000,274640135.82653,   0.00000,   0.00000,   0.00000,-47453757.87744,   0.00000
-320110162.09190,-327765048.81139,-162269155.27078,  -0.00082,  -0.00087,  -0.00211,428921154.11884,   0.00000,274640135.82653,   0.00000,   0.00000,   0.00000,-45718981.70769,   0.00000
-321600435.92151,-329754268.94519,-162623669.75007,  -0.00082,  -0.00087,  -0.00211,430644836.86870,   0.00000,274640135.82653,   0.00000,   0.00000,   0.00000,-43995298.95783,   0.00000
-323100557.37554,-331766466.86931,-162978184.22936,  -0.00082,  -0.00088,  -0.00212,432382578.22840,   0.00000,274640135.82653,   0.00000,   0.00000,   0.00000,-42257557.59813,   0.00000
-324600678.82958,-333778664.79343,-163332698.70865,  -0.00083,  -0.00089,  -0.00212,434121789.36271,   0.00000,274640135.82653,   0.00000,   0.00000,   0.00000,-40518346.46382,   0.00000
-326090952.65919,-335767884.92723,-163687213.18794,  -0.00083,  -0.00089,  -0.00213,435849772.02025,   0.00000,274640135.82653,   0.00000,   0.00000,   0.00000,-38790363.80628,   0.00000
-327591074.11322,-337780082.85135,-164041727.66723,  -0.00083,  -0.00090,  -0.00213,437591843.27697,   0.00000,274640135.82653,   0.00000,   0.00000,   0.00000,-37048292.54956,   0.00000
-329058370.15251,-339759455.36072,-164396242.14652,  -0.00083,  -0.00090,  -0.00214,439310344.91032,   0.00000,274640135.82653,   0.00000,   0.00000,   0.00000,-35329790.91621,   0.00000
-330558491.60654,-341771653.28484,-164750756.62581,  -0.00084,  -0.00091,  -0.00214,441055203.57985,   0.00000,274640135.82653,   0.00000,   0.00000,   0.00000,-33584932.24668,   0.00000
-332025787.64583,-343751025.79421,-165105271.10510,  -0.00084,  -0.00092,  -0.00215,442776397.22899,   0.00000,274640135.82653,   0.00000,   0.00000,   0.00000,-31863738.59754,   0.00000
-333502931.30954,-345753376.09391,-165459785.58439,  -0.00084,  -0.00092,  -0.00215,444511709.37535,   0.00000,274640135.82653,   0.00000,   0.00000,   0.00000,-30128426.45118,   0.00000
-334970227.34882,-347732748.60328,-165814300.06368,  -0.00085,  -0.00093,  -0.00216,446235527.63296,   0.00000,274640135.82653,   0.00000,   0.00000,   0.00000,-28404608.19357,   0.00000
-336414545.59778,-349702273.48823,-166168814.54297,  -0.00085,  -0.00094,  -0.00216,447948345.14974,   0.00000,274640135.82653,   0.00000,   0.00000,   0.00000,-26691790.67679,   0.00000
-337881841.63707,-351681645.99760,-166523329.02226,  -0.00085,  -0.00094,  -0.00216,449674698.13853,   0.00000,274640135.82653,   0.00000,   0.00000,   0.00000,-24965437.68799,   0.00000
-339326159.88603,-353651170.88254,-166877843.50155,  -0.00085,  -0.00095,  -0.00217,451390012.79382,   0.00000,274640135.82653,   0.00000,   0.00000,   0.00000,-23250123.03271,   0.00000
-340803303.54974,-355653521.18224,-167232357.98084,  -0.00086,  -0.00095,  -0.00217,453131778.37053,   0.00000,274640135.82653,   0.00000,   0.00000,   0.00000,-21508357.45600,   0.00000
-342237774.17428,-357600068.27686,-167580307.37718,  -0.00086,  -0.00096,  -0.00218,454829341.35083,   0.00000,274640135.82653,   0.00000,   0.00000,   0.00000,-19810794.47570,   0.00000
-343682092.42324,-359569593.16181,-167934821.85647,  -0.00086,  -0.00097,  -0.00218,456548306.32173,   0.00000,274640135.82653,   0.00000,   0.00000,   0.00000,-18091829.50480,   0.00000
-345126410.67220,-361539118.04676,-168289336.33576,  -0.00087,  -0.00097,  -0.00219,458268455.45535,   0.00000,274640135.82653,   0.00000,   0.00000,   0.00000,-16371680.37118,   0.00000
-346547751.13084,-363498795.30728,-168643850.81505,  -0.00087,  -0.00098,  -0.00219,459977470.32259,   0.00000,274640135.82653,   0.00000,   0.00000,   0.00000,-14662665.50394,   0.00000
-347982221.75537,-365445342.40190,-168998365.29435,  -0.00087,  -0.00098,  -0.00220,461686890.84526,   0.00000,274640135.82653,   0.00000,   0.00000,   0.00000,-12953244.98127,   0.00000
-349403562.21401,-367405019.66242,-169352879.77364,  -0.00087,  -0.00099,  -0.00220,463398175.19979,   0.00000,274640135.82653,   0.00000,   0.00000,   0.00000,-11241960.62674,   0.00000
-350815055.04822,-369341719.13262,-169707394.25293,  -0.00088,  -0.00100,  -0.00221,465097486.34406,   0.00000,274640135.82653,   0.00000,   0.00000,   0.00000,-9542649.48247,   0.00000
-352226547.88243,-371278418.60282,-170061908.73222,  -0.00088,  -0.00100,  -0.00221,466797866.18043,   0.00000,274640135.82653,   0.00000,   0.00000,   0.00000,-7842269.64610,   0.00000
-353647888.34107,-373238095.86334,-170416423.21151,  -0.00088,  -0.00101,  -0.00222,468512446.56027,   0.00000,274640135.82653,   0.00000,   0.00000,   0.00000,-6127689.26626,   0.00000
-355036403.38496,-375164947.70911,-170770937.69080,  -0.00088,  -0.00101,  -0.00222,470202628.11552,   0.00000,274640135.82653,   0.00000,   0.00000,   0.00000,-4437507.71101,   0.00000
-356424918.42884,-377091799.55489,-171125452.17009,  -0.00089,  -0.00102,  -0.00222,471893838.71085,   0.00000,274640135.82653,   0.00000,   0.00000,   0.00000,-2746297.11567,   0.00000
-357826563.63863,-379005521.23476,-171479966.64938,  -0.00089,  -0.00103,  -0.00223,473585185.99570,   0.00000,274640135.82653,   0.00000,   0.00000,   0.00000,-1054949.83083,   0.00000
-358691766.29100,-380206168.88710,-171700869.45424,  -0.00089,  -0.00103,  -0.00223,474640134.73993,   0.00000,274640135.82653,   0.00000,   0.00000,   0.00000,  -4.31639,   0.00000
-358773437.54647,-380458496.36102,-171579422.43413,  -0.00089,  -0.00103,  -0.00223,474644223.56907,   0.00000,274644223.95337,  -0.00000,  -0.00000,  -0.00000,  -0.38430,   1.00000
-358974616.62449,-381124335.45898,-171262741.22214,  -0.00089,  -0.00104,  -0.00224,474654981.90250,   0.00001,274654987.00394,  -0.00000,  -0.00000,  -0.00001,  -5.10143,   1.00000
-359187945.08590,-381774319.79682,-170947051.14591,  -0.00090,  -0.00104,  -0.00224,474665735.67450,   0.00002,274665739.52862,  -0.00001,  -0.00001,  -0.00002,  -3.85412,   1.00000
-359381044.54528,-382428016.29461,-170635347.22407,  -0.00090,  -0.00105,  -0.00225,474676529.89481,   0.00003,274676538.77221,  -0.00001,  -0.00001,  -0.00003,  -8.87739,   1.00000
-359576901.25264,-383070613.77348,-170325804.56241,  -0.00090,  -0.00106,  -0.00225,474687200.04770,   0.00004,274687203.23209,  -0.00001,  -0.00002,  -0.00004,  -3.18439,   1.00000
-359771244.83994,-383709880.81431,-170016879.15408,  -0.00090,  -0.00106,  -0.00226,474697859.02418,   0.00005,274697863.07809,  -0.00002,  -0.00002,  -0.00005,  -4.05392,   1.00000
-359959217.97431,-384340566.04117,-169712339.52644,  -0.00091,  -0.00107,  -0.00226,474708557.20552,   0.00006,274708563.18872,  -0.00002,  -0.00002,  -0.00006,  -5.98320,   1.00000
-360150062.61993,-384960410.46637,-169409934.66878,  -0.00091,  -0.00107,  -0.00227,474719124.52456,   0.00007,274719128.63747,  -0.00002,  -0.00003,  -0.00006,  -4.11291,   1.00000
-360320802.08928,-385584096.19219,-169111520.37361,  -0.00091,  -0.00108,  -0.00227,474729737.65185,   0.00008,274729740.65164,  -0.00002,  -0.00003,  -0.00007,  -2.99979,   1.00000
-360495020.80100,-386209836.83517,-168809926.16392,  -0.00091,  -0.00109,  -0.00228,474740295.78447,   0.00009,274740303.44283,  -0.00003,  -0.00003,  -0.00008,  -7.65836,   1.00000
-360662526.92978,-386814346.51469,-168518030.89611,  -0.00092,  -0.00109,  -0.00228,474750816.26637,   0.00010,274750820.82828,  -0.00003,  -0.00004,  -0.00009,  -4.56191,   1.00000
-360833557.21295,-387421043.20724,-168222934.69999,  -0.00092,  -0.00110,  -0.00228,474761281.96004,   0.00011,274761289.15788,  -0.00003,  -0.00004,  -0.00010,  -7.19784,   1.00000
-360984120.78232,-388018934.43744,-167937113.01908,  -0.00092,  -0.00110,  -0.00229,474771710.22683,   0.00012,274771718.78082,  -0.00004,  -0.00004,  -0.00011,  -8.55399,   1.00000
-361133455.58363,-388613798.40594,-167651887.97036,  -0.00092,  -0.00111,  -0.00229,474782139.26761,   0.00013,274782143.75279,  -0.00004,  -0.00005,  -0.00011,  -4.48517,   1.00000
-361281561.60900,-389205639.09223,-167367257.36577,  -0.00093,  -0.00112,  -0.00230,474792556.48754,   0.00014,274792564.11946,  -0.00004,  -0.00005,  -0.00012,  -7.63191,   1.00000
-361428080.65514,-389781921.00020,-167088513.25683,  -0.00093,  -0.00112,  -0.00230,474802891.34611,   0.00015,274802894.34260,  -0.00004,  -0.00005,  -0.00013,  -2.99649,   1.00000
-361573422.94556,-390355305.09120,-166810359.12736,  -0.00093,  -0.00113,  -0.00231,474813214.12027,   0.00016,274813219.90028,  -0.00005,  -0.00006,  -0.00014,  -5.78001,   1.00000
-361703677.86366,-390937963.36748,-166532329.83150,  -0.00093,  -0.00113,  -0.00231,474823539.06772,   0.00017,274823548.34565,  -0.00005,  -0.00006,  -0.00015,  -9.27793,   1.00000
-361832170.54365,-391492771.17106,-166265460.68216,  -0.00093,  -0.00114,  -0.00232,474833697.85864,   0.00018,274833701.06278,  -0.00005,  -0.00006,  -0.00016,  -3.20414,   1.00000
-361959906.26348,-392057260.81221,-165993871.26226,  -0.00094,  -0.00115,  -0.00232,474843928.05872,   0.00019,274843934.87150,  -0.00005,  -0.00007,  -0.00016,  -6.81278,   1.00000
-362086567.49268,-392618935.07661,-165722864.91481,  -0.00094,  -0.00115,  -0.00233,474854158.52819,   0.00020,274854164.04118,  -0.00006,  -0.00007,  -0.00017,  -5.51299,   1.00000
-362192866.23899,-393159901.03434,-165466412.45839,  -0.00094,  -0.00116,  -0.00233,474864264.44346,   0.00020,274864268.39794,  -0.00006,  -0.00007,  -0.00018,  -3.95448,   1.00000
-362303246.50002,-393715813.93906,-165201321.90014,  -0.00094,  -0.00116,  -0.00234,474874401.55718,   0.00021,274874411.01273,  -0.00006,  -0.00008,  -0.00019,  -9.45556,   1.00000
-362407634.38401,-394251401.10036,-164945997.71204,  -0.00095,  -0.00117,  -0.00234,474884501.31344,   0.00022,274884506.26255,  -0.00007,  -0.00008,  -0.00020,  -4.94912,   1.00000
-362515645.26925,-394777378.33563,-164692599.35520,  -0.00095,  -0.00117,  -0.00235,474894464.39457,   0.00023,274894468.34426,  -0.00007,  -0.00008,  -0.00021,  -3.94969,   1.00000
-362603949.42147,-395307556.24782,-164443155.52640,  -0.00095,  -0.00118,  -0.00235,474904475.89963,   0.00024,274904477.13615,  -0.00007,  -0.00009,  -0.00021,  -1.23652,   1.00000
-362691211.34039,-395822945.92740,-164199536.05154,  -0.00095,  -0.00119,  -0.00236,474914390.69595,   0.00025,274914395.71774,  -0.00007,  -0.00009,  -0.00022,  -5.02179,   1.00000
-362777821.46196,-396348018.20374,-163951158.80929,  -0.00095,  -0.00119,  -0.00236,474924389.89668,   0.00026,274924395.90610,  -0.00008,  -0.00009,  -0.00023,  -6.00942,   1.00000
-362849223.02962,-396858245.63491,-163713363.01442,  -0.00096,  -0.00120,  -0.00237,474934222.17036,   0.00027,274934228.48808,  -0.00008,  -0.00010,  -0.00024,  -6.31773,   1.00000
-362933950.91094,-397354056.75855,-163476623.05134,  -0.00096,  -0.00120,  -0.00237,474944039.09223,   0.00028,274944048.05384,  -0.00008,  -0.00010,  -0.00024,  -8.96161,   1.00000
-362999086.51006,-397854182.65321,-163243819.24065,  -0.00096,  -0.00121,  -0.00237,474953909.50627,   0.00029,274953914.42847,  -0.00008,  -0.00011,  -0.00025,  -4.92219,   1.00000
-363068130.60614,-398345149.49169,-163012848.30468,  -0.00096,  -0.00121,  -0.00238,474963643.83038,   0.00030,274963648.34628,  -0.00009,  -0.00011,  -0.00026,  -4.51590,   1.00000
-363122348.75336,-398845712.63924,-162781818.93592,  -0.00096,  -0.00122,  -0.00238,474973380.74817,   0.00030,274973387.29274,  -0.00009,  -0.00011,  -0.00027,  -6.54457,   1.00000
-363171102.29036,-399326623.20053,-162560558.38474,  -0.00097,  -0.00122,  -0.00239,474983070.26775,   0.00031,274983077.98923,  -0.00009,  -0.00012,  -0.00028,  -7.72147,   1.00000
-363219182.41547,-399793320.29474,-162345074.29758,  -0.00097,  -0.00123,  -0.00239,474992673.56487,   0.00032,274992678.40972,  -0.00009,  -0.00012,  -0.00028,  -4.84485,   1.00000
-363266725.18590,-400269769.82221,-162124771.55972,  -0.00097,  -0.00124,  -0.00240,475002356.25359,   0.00033,275002361.15213,  -0.00010,  -0.00012,  -0.00029,  -4.89854,   1.00000
-363304122.00145,-400737330.75630,-161910949.16522,  -0.00097,  -0.00124,  -0.00240,475011826.80019,   0.00034,275011835.14499,  -0.00010,  -0.00013,  -0.00030,  -8.34480,   1.00000
-363336283.33546,-401197452.79171,-161701597.16906,  -0.00097,  -0.00125,  -0.00241,475021345.95685,   0.00035,275021346.90005,  -0.00010,  -0.00013,  -0.00031,  -0.94319,   1.00000
-363363230.30663,-401650150.72105,-161496709.81995,  -0.00097,  -0.00125,  -0.00241,475030889.88189,   0.00036,275030896.45342,  -0.00010,  -0.00013,  -0.00031,  -6.57153,   1.00000
-363394381.72845,-402094238.84498,-161293552.07736,  -0.00098,  -0.00126,  -0.00242,475040309.96083,   0.00037,275040314.26941,  -0.00011,  -0.00014,  -0.00032,  -4.30859,   1.00000
-363410826.55613,-402548098.02274,-161090229.33154,  -0.00098,  -0.00126,  -0.00242,475049733.19343,   0.00037,275049738.32388,  -0.00011,  -0.00014,  -0.00033,  -5.13044,   1.00000
-363422172.54561,-402982825.95716,-160896669.50474,  -0.00098,  -0.00127,  -0.00243,475059105.98516,   0.00038,275059113.53111,  -0.00011,  -0.00014,  -0.00034,  -7.54595,   1.00000
-363433157.93202,-403403855.04679,-160708828.58421,  -0.00098,  -0.00127,  -0.00243,475068391.22822,   0.00039,275068398.58443,  -0.00011,  -0.00015,  -0.00034,  -7.35620,   1.00000
-363434171.70505,-403840042.82089,-160516729.78672,  -0.00098,  -0.00128,  -0.00244,475077643.66347,   0.00040,275077649.28014,  -0.00012,  -0.00015,  -0.00035,  -5.61667,   1.00000
-363430218.20432,-404257294.79634,-160334382.89437,  -0.00098,  -0.00128,  -0.00244,475086844.75149,   0.00041,275086851.02190,  -0.00012,  -0.00015,  -0.00036,  -6.27041,   1.00000
-363425944.76795,-404672690.04436,-160152431.03878,  -0.00099,  -0.00129,  -0.00245,475096045.23712,   0.00042,275096049.41296,  -0.00012,  -0.00016,  -0.00037,  -4.17584,   1.00000
-363402498.97167,-405081029.16988,-159979583.21360,  -0.00099,  -0.00129,  -0.00245,475105208.66585,   0.00042,275105209.23335,  -0.00012,  -0.00016,  -0.00037,  -0.56751,   1.00000
-363383444.72669,-405492844.12613,-159803038.97598,  -0.00099,  -0.00130,  -0.00246,475114325.00634,   0.00043,275114325.16239,  -0.00013,  -0.00016,  -0.00038,  -0.15605,   1.00000
-363364219.56090,-405891253.05310,-159632164.01686,  -0.00099,  -0.00131,  -0.00246,475123342.23441,   0.00044,275123351.24292,  -0.00013,  -0.00017,  -0.00039,  -9.00851,   1.00000
-363340128.78086,-406282634.20228,-159465731.84674,  -0.00099,  -0.00131,  -0.00247,475132405.02474,   0.00045,275132414.84610,  -0.00013,  -0.00017,  -0.00039,  -9.82135,   1.00000
-363301603.87972,-406672430.00748,-159304290.14254,  -0.00099,  -0.00132,  -0.00247,475141394.96348,   0.00046,275141399.48206,  -0.00013,  -0.00017,  -0.00040,  -4.51858,   1.00000
-363263031.24263,-407049020.51998,-159148483.87499,  -0.00100,  -0.00132,  -0.00248,475150285.35670,   0.00047,275150294.43346,  -0.00014,  -0.00018,  -0.00041,  -9.07676,   1.00000
-363224318.35610,-407424004.40119,-158993012.13706,  -0.00100,  -0.00133,  -0.00248,475159186.22317,   0.00047,275159186.48190,  -0.00014,  -0.00018,  -0.00042,  -0.25873,   1.00000
-363171212.67649,-407797511.62396,-158842476.70460,  -0.00100,  -0.00133,  -0.00249,475167991.97508,   0.00048,275168000.15566,  -0.00014,  -0.00018,  -0.00042,  -8.18058,   1.00000
-363118012.90056,-408169430.20088,-158692256.19492,  -0.00100,  -0.00134,  -0.00249,475176808.30483,   0.00049,275176811.15611,  -0.00014,  -0.00019,  -0.00043,  -2.85128,   1.00000
-363046031.07497,-408523215.48757,-158556351.48419,  -0.00100,  -0.00134,  -0.00250,475185496.49035,   0.00050,275185497.30877,  -0.00015,  -0.00019,  -0.00044,  -0.81843,   1.00000
-362992865.73530,-408880634.63420,-158412014.76036,  -0.00100,  -0.00135,  -0.00250,475194212.82815,   0.00051,275194216.42477,  -0.00015,  -0.00019,  -0.00044,  -3.59663,   1.00000
-362920779.52498,-409231424.08085,-158276680.63435,  -0.00100,  -0.00135,  -0.00251,475202889.43840,   0.00051,275202897.75836,  -0.00015,  -0.00020,  -0.00045,  -8.31996,   1.00000
-362834608.50394,-409569591.57896,-158151516.88165,  -0.00100,  -0.00136,  -0.00251,475211413.93552,   0.00052,275211414.24526,  -0.00015,  -0.00020,  -0.00046,  -0.30974,   1.00000
-362762732.46985,-409906161.01751,-158022010.63876,  -0.00101,  -0.00136,  -0.00252,475220001.07437,   0.00053,275220004.03636,  -0.00015,  -0.00020,  -0.00046,  -2.96199,   1.00000
-362676590.73486,-410241533.16206,-157897347.03694,  -0.00101,  -0.00137,  -0.00252,475228514.48232,   0.00054,275228516.33494,  -0.00016,  -0.00021,  -0.00047,  -1.85261,   1.00000
-362576207.35329,-410575711.26641,-157777496.94507,  -0.00101,  -0.00137,  -0.00253,475236943.24518,   0.00055,275236951.51612,  -0.00016,  -0.00021,  -0.00048,  -8.27094,   1.00000
-362485837.83802,-410891754.97897,-157662746.74762,  -0.00101,  -0.00138,  -0.00253,475245410.30352,   0.00055,275245412.52163,  -0.00016,  -0.00021,  -0.00048,  -2.21812,   1.00000
-362381251.54147,-411206713.08722,-157552783.22350,  -0.00101,  -0.00138,  -0.00254,475253792.75748,   0.00056,275253796.61242,  -0.00016,  -0.00022,  -0.00049,  -3.85494,   1.00000
-362262484.00448,-411520602.74143,-157447585.34836,  -0.00101,  -0.00139,  -0.00254,475262100.76727,   0.00057,275262104.03669,  -0.00017,  -0.00022,  -0.00050,  -3.26942,   1.00000
-362144083.83959,-411822016.43062,-157347886.70887,  -0.00101,  -0.00139,  -0.00255,475270319.06800,   0.00058,275270322.60619,  -0.00017,  -0.00022,  -0.00050,  -3.53819,   1.00000
-362025846.96522,-412122219.31828,-157248366.37255,  -0.00101,  -0.00139,  -0.00255,475278537.49704,   0.00058,275278539.73177,  -0.00017,  -0.00023,  -0.00051,  -2.23473,   1.00000
-361907767.30531,-412421208.01507,-157149021.03210,  -0.00101,  -0.00140,  -0.00256,475286745.77404,   0.00059,275286755.46930,  -0.00017,  -0.00023,  -0.00052,  -9.69526,   1.00000
-361775530.59911,-412719235.18390,-157054396.95412,  -0.00102,  -0.00140,  -0.00257,475294889.66514,   0.00060,275294895.01609,  -0.00017,  -0.00023,  -0.00052,  -5.35094,   1.00000
-361639195.91124,-412999634.68539,-156969399.85396,  -0.00102,  -0.00141,  -0.00257,475302985.41233,   0.00061,275302985.43715,  -0.00018,  -0.00024,  -0.00053,  -0.02481,   1.00000
-361503083.18492,-413278911.80076,-156884540.64788,  -0.00102,  -0.00141,  -0.00258,475311071.34490,   0.00061,275311074.80237,  -0.00018,  -0.00024,  -0.00054,  -3.45747,   1.00000
-361353077.94943,-413546233.10922,-156809666.06807,  -0.00102,  -0.00142,  -0.00258,475318991.59521,   0.00062,275319000.99780,  -0.00018,  -0.00024,  -0.00054,  -9.40259,   1.00000
-361203347.86483,-413812512.91840,-156734907.54211,  -0.00102,  -0.00142,  -0.00259,475326922.26384,   0.00063,275326926.30564,  -0.00018,  -0.00024,  -0.00055,  -4.04180,   1.00000
-361039502.39048,-414077980.30895,-156664773.10566,  -0.00102,  -0.00143,  -0.00259,475334767.81974,   0.00064,275334776.50422,  -0.00018,  -0.00025,  -0.00056,  -8.68448,   1.00000
-360871456.90128,-414337091.21143,-156598898.83862,  -0.00102,  -0.00143,  -0.00260,475342664.98843,   0.00064,275342665.49067,  -0.00019,  -0.00025,  -0.00056,  -0.50224,   1.00000
-360708462.37990,-414589470.12144,-156534266.04765,  -0.00102,  -0.00144,  -0.00260,475350420.87167,   0.00065,275350426.88123,  -0.00019,  -0.00025,  -0.00057,  -6.00956,   1.00000
-360526874.59414,-414835798.58672,-156478389.49244,  -0.00102,  -0.00144,  -0.00261,475358151.60142,   0.00066,275358152.90973,  -0.00019,  -0.00026,  -0.00057,  -1.30832,   1.00000
-360345630.65464,-415081150.97266,-156422566.04463,  -0.00102,  -0.00145,  -0.00261,475365873.62635,   0.00066,275365878.75795,  -0.00019,  -0.00026,  -0.00058,  -5.13160,   1.00000
-360164985.60256,-415314577.20324,-156372133.08874,  -0.00102,  -0.00145,  -0.00262,475373514.39981,   0.00067,275373516.47966,  -0.00019,  -0.00026,  -0.00059,  -2.07985,   1.00000
-359965763.07438,-415542006.28472,-156330403.77746,  -0.00102,  -0.00145,  -0.00262,475381109.87584,   0.00068,275381119.44450,  -0.00020,  -0.00027,  -0.00059,  -9.56867,   1.00000
-359771671.40313,-415762944.22711,-156289861.82054,  -0.00102,  -0.00146,  -0.00263,475388593.37196,   0.00069,275388595.22584,  -0.00020,  -0.00027,  -0.00060,  -1.85388,   1.00000
-359558775.72606,-415988857.56769,-156252654.11205,  -0.00103,  -0.00146,  -0.00263,475396123.49130,   0.00069,275396124.56811,  -0.00020,  -0.00027,  -0.00060,  -1.07681,   1.00000
-359351247.23896,-416197381.73752,-156221947.47769,  -0.00103,  -0.00147,  -0.00264,475403430.62872,   0.00070,275403439.08173,  -0.00020,  -0.00027,  -0.00061,  -8.45300,   1.00000
-359139433.46358,-416410673.20728,-156190073.48034,  -0.00103,  -0.00147,  -0.00265,475410880.53074,   0.00071,275410881.16462,  -0.00020,  -0.00028,  -0.00062,  -0.63388,   1.00000
-358923809.10567,-416606894.98523,-156167707.21551,  -0.00103,  -0.00148,  -0.00265,475418268.86987,   0.00071,275418274.90393,  -0.00021,  -0.00028,  -0.00062,  -6.03406,   1.00000
-358684058.31451,-416808167.06413,-156150068.67287,  -0.00103,  -0.00148,  -0.00266,475425481.81472,   0.00072,275425482.80000,  -0.00021,  -0.00028,  -0.00063,  -0.98528,   1.00000
-358459298.56999,-417008390.87282,-156127912.05030,  -0.00103,  -0.00149,  -0.00266,475432756.82594,   0.00073,275432765.20162,  -0.00021,  -0.00029,  -0.00063,  -8.37568,   1.00000
-358216225.07215,-417191874.80746,-156119709.15208,  -0.00103,  -0.00149,  -0.00267,475439918.96262,   0.00073,275439925.85749,  -0.00021,  -0.00029,  -0.00064,  -6.89487,   1.00000
-357973636.27441,-417374622.58135,-156111434.91083,  -0.00103,  -0.00149,  -0.00267,475447083.11030,   0.00074,275447087.58421,  -0.00021,  -0.00029,  -0.00064,  -4.47391,   1.00000
-357717176.59642,-417546038.07372,-156112891.66783,  -0.00103,  -0.00150,  -0.00268,475454085.41635,   0.00075,275454088.86510,  -0.00022,  -0.00030,  -0.00065,  -3.44875,   1.00000
-357461218.27307,-417716756.23925,-156114250.53389,  -0.00103,  -0.00150,  -0.00268,475461089.98869,   0.00075,275461091.51181,  -0.00022,  -0.00030,  -0.00065,  -1.52312,   1.00000
-357205755.24480,-417886772.73542,-156115509.13014,  -0.00103,  -0.00151,  -0.00269,475468088.01259,   0.00076,275468095.56682,  -0.00022,  -0.00030,  -0.00066,  -7.55423,   1.00000
-356931952.67099,-418040165.92501,-156130651.18877,  -0.00103,  -0.00151,  -0.00270,475474970.07466,   0.00076,275474978.69625,  -0.00022,  -0.00030,  -0.00067,  -8.62158,   1.00000
-356663108.48002,-418198273.02592,-156141480.31873,  -0.00103,  -0.00151,  -0.00270,475481816.81581,   0.00077,275481824.37886,  -0.00022,  -0.00031,  -0.00067,  -7.56305,   1.00000
-356390355.07057,-418350359.79016,-156156366.25423,  -0.00103,  -0.00152,  -0.00271,475488703.98732,   0.00078,275488710.89328,  -0.00022,  -0.00031,  -0.00068,  -6.90596,   1.00000
-356103657.82473,-418491243.77992,-156180916.45006,  -0.00103,  -0.00152,  -0.00271,475495435.88610,   0.00078,275495437.77341,  -0.00023,  -0.00031,  -0.00068,  -1.88732,   1.00000
-355802809.52242,-418631695.34585,-156209725.82664,  -0.00103,  -0.00153,  -0.00272,475502089.98647,   0.00079,275502093.94038,  -0.00023,  -0.00031,  -0.00069,  -3.95391,   1.00000
-355498100.15396,-418766144.65658,-156242535.81602,  -0.00103,  -0.00153,  -0.00272,475508784.65499,   0.00080,275508791.60973,  -0.00023,  -0.00032,  -0.00069,  -6.95475,   1.00000
-355198540.78213,-418894625.05443,-156276363.13432,  -0.00103,  -0.00153,  -0.00273,475515358.04420,   0.00080,275515363.82790,  -0.00023,  -0.00032,  -0.00070,  -5.78370,   1.00000
-354895123.35750,-419017143.07586,-156314183.16258,  -0.00103,  -0.00154,  -0.00274,475521971.80249,   0.00081,275521977.59599,  -0.00023,  -0.00032,  -0.00070,  -5.79350,   1.00000
-354577670.71544,-419128535.85555,-156361601.84325,  -0.00103,  -0.00154,  -0.00274,475528427.91712,   0.00081,275528432.58610,  -0.00023,  -0.00033,  -0.00071,  -4.66897,   1.00000
-354245858.45547,-419250237.96193,-156407814.23089,  -0.00103,  -0.00154,  -0.00275,475534901.83893,   0.00082,275534906.57617,  -0.00023,  -0.00033,  -0.00071,  -4.73725,   1.00000
-353914912.03742,-419349936.31276,-156464583.11765,  -0.00103,  -0.00155,  -0.00275,475541202.77373,   0.00083,275541205.97481,  -0.00024,  -0.00033,  -0.00072,  -3.20109,   1.00000
-353584400.51173,-419459800.94884,-156515713.34942,  -0.00103,  -0.00155,  -0.00276,475547596.16242,   0.00083,275547597.18051,  -0.00024,  -0.00033,  -0.00072,  -1.01810,   1.00000
-353250200.89704,-419553021.71238,-156576177.21610,  -0.00103,  -0.00156,  -0.00276,475553941.28295,   0.00084,275553941.81673,  -0.00024,  -0.00034,  -0.00073,  -0.53378,   1.00000
-352901846.19110,-419635162.31679,-156646177.40594,  -0.00103,  -0.00156,  -0.00277,475560126.24810,   0.00084,275560128.54497,  -0.00024,  -0.00034,  -0.00073,  -2.29687,   1.00000
-352539198.54857,-419716908.38490,-156720283.05387,  -0.00103,  -0.00156,  -0.00278,475566239.92837,   0.00085,275566246.62218,  -0.00024,  -0.00034,  -0.00074,  -6.69381,   1.00000
-352177141.21032,-419798141.28602,-156794096.60089,  -0.00103,  -0.00157,  -0.00278,475572365.80927,   0.00085,275572368.32537,  -0.00024,  -0.00034,  -0.00074,  -2.51610,   1.00000
-351815664.13134,-419878850.76327,-156867613.62821,  -0.00103,  -0.00157,  -0.00279,475578488.50290,   0.00086,275578493.73204,  -0.00025,  -0.00035,  -0.00075,  -5.22914,   1.00000
-351439918.42202,-419948465.17011,-156950629.30726,  -0.00103,  -0.00157,  -0.00279,475584456.68273,   0.00087,275584461.86372,  -0.00025,  -0.00035,  -0.00075,  -5.18099,   1.00000
-351060389.67427,-420012163.22676,-157037487.65908,  -0.00103,  -0.00158,  -0.00280,475590473.36672,   0.00087,275590473.37602,  -0.00025,  -0.00035,  -0.00076,  -0.00930,   1.00000
-350670886.95679,-420070180.55582,-157129648.93471,  -0.00103,  -0.00158,  -0.00280,475596283.07493,   0.00088,275596288.70277,  -0.00025,  -0.00035,  -0.00076,  -5.62784,   1.00000
-350277600.12768,-420122283.96390,-157225625.02148,  -0.00103,  -0.00158,  -0.00281,475602141.22457,   0.00088,275602147.77179,  -0.00025,  -0.00036,  -0.00077,  -6.54721,   1.00000
-349884924.70180,-420163255.64795,-157326681.04294,  -0.00103,  -0.00159,  -0.00282,475607912.64379,   0.00089,275607922.02202,  -0.00025,  -0.00036,  -0.00077,  -9.37823,   1.00000
-349477773.34787,-420214443.06043,-157426304.88866,  -0.00102,  -0.00159,  -0.00282,475613717.99402,   0.00089,275613718.35653,  -0.00025,  -0.00036,  -0.00078,  -0.36251,   1.00000
-349066859.87049,-420238402.23820,-157540583.11427,  -0.00102,  -0.00159,  -0.00283,475619379.22380,   0.00090,275619380.41550,  -0.00026,  -0.00036,  -0.00078,  -1.19170,   1.00000
-348645787.95534,-420277987.45538,-157649232.82954,  -0.00102,  -0.00160,  -0.00283,475625024.50681,   0.00090,275625025.63869,  -0.00026,  -0.00036,  -0.00078,  -1.13188,   1.00000
-348220919.92713,-420300987.36407,-157767077.69090,  -0.00102,  -0.00160,  -0.00284,475630618.22941,   0.00091,275630626.14883,  -0.00026,  -0.00037,  -0.00079,  -7.91942,   1.00000
-347781460.15456,-420312858.47401,-157894313.52114,  -0.00102,  -0.00160,  -0.00285,475636064.77110,   0.00091,275636071.09368,  -0.00026,  -0.00037,  -0.00079,  -6.32258,   1.00000
-347342554.87522,-420324260.49579,-158021118.29855,  -0.00102,  -0.00161,  -0.00285,475641517.69679,   0.00092,275641521.45034,  -0.00026,  -0.00037,  -0.00080,  -3.75355,   1.00000
-346904200.70901,-420335190.47172,-158147490.95247,  -0.00102,  -0.00161,  -0.00286,475646970.15925,   0.00092,275646977.24159,  -0.00026,  -0.00037,  -0.00080,  -7.08234,   1.00000
-346451123.88258,-420334952.16754,-158283236.11344,  -0.00102,  -0.00161,  -0.00286,475652273.37967,   0.00093,275652277.86945,  -0.00026,  -0.00038,  -0.00081,  -4.48978,   1.00000
-345998580.53488,-420334239.96462,-158418527.53932,  -0.00102,  -0.00162,  -0.00287,475657576.67044,   0.00093,275657584.23431,  -0.00026,  -0.00038,  -0.00081,  -7.56387,   1.00000
-345527003.78208,-420327486.44850,-158561814.92459,  -0.00102,  -0.00162,  -0.00288,475662860.29443,   0.00094,275662865.42002,  -0.00027,  -0.00038,  -0.00081,  -5.12560,   1.00000
-345060161.37628,-420315083.49252,-158705986.81909,  -0.00102,  -0.00162,  -0.00288,475668019.31410,   0.00094,275668023.01359,  -0.00027,  -0.00038,  -0.00082,  -3.69949,   1.00000
-344574215.79466,-420296586.11448,-158858115.56180,  -0.00102,  -0.00163,  -0.00289,475673150.98496,   0.00095,275673156.04661,  -0.00027,  -0.00038,  -0.00082,  -5.06165,   1.00000
-344088630.76764,-420266955.52845,-159015230.81201,  -0.00101,  -0.00163,  -0.00289,475678199.35185,   0.00095,275678205.73299,  -0.00027,  -0.00039,  -0.00083,  -6.38114,   1.00000
-343588193.52856,-420236672.86148,-159176152.68156,  -0.00101,  -0.00163,  -0.00290,475683183.86768,   0.00096,275683191.38366,  -0.00027,  -0.00039,  -0.00083,  -7.51598,   1.00000
-343083947.40179,-420200389.20634,-159340648.78156,  -0.00101,  -0.00163,  -0.00291,475688218.15098,   0.00096,275688223.99894,  -0.00027,  -0.00039,  -0.00083,  -5.84796,   1.00000
-342584299.83518,-420158463.35092,-159506021.40713,  -0.00101,  -0.00164,  -0.00291,475693132.62592,   0.00097,275693133.25002,  -0.00027,  -0.00039,  -0.00084,  -0.62410,   1.00000
-342065393.56756,-420110314.81032,-159679255.90029,  -0.00101,  -0.00164,  -0.00292,475698017.86825,   0.00097,275698019.41985,  -0.00027,  -0.00040,  -0.00084,  -1.55160,   1.00000
-341551011.75719,-420056509.65815,-159853362.51177,  -0.00101,  -0.00164,  -0.00292,475702776.51972,   0.00097,275702782.37005,  -0.00027,  -0.00040,  -0.00085,  -5.85033,   1.00000
-341017302.65028,-419996429.67875,-160035297.58792,  -0.00101,  -0.00165,  -0.00293,475707516.75807,   0.00098,275707522.78358,  -0.00027,  -0.00040,  -0.00085,  -6.02551,   1.00000
-340484043.79926,-419935818.30780,-160216655.25267,  -0.00101,  -0.00165,  -0.00294,475712265.85743,   0.00098,275712270.68864,  -0.00028,  -0.00040,  -0.00085,  -4.83121,   1.00000
-339935382.10007,-419863713.96259,-160407252.08423,  -0.00100,  -0.00165,  -0.00294,475716858.89171,   0.00099,275716866.08252,  -0.00028,  -0.00040,  -0.00086,  -7.19081,   1.00000
-339386814.32756,-419780397.57679,-160602783.75894,  -0.00100,  -0.00165,  -0.00295,475721370.69061,   0.00099,275721379.13003,  -0.00028,  -0.00040,  -0.00086,  -8.43942,   1.00000
-338819107.93718,-419701334.84355,-160800513.81715,  -0.00100,  -0.00166,  -0.00296,475725952.86851,   0.00100,275725961.29229,  -0.00028,  -0.00041,  -0.00086,  -8.42379,   1.00000
-338255359.91987,-419605885.96759,-161004652.31697,  -0.00100,  -0.00166,  -0.00296,475730325.15684,   0.00100,275730330.33927,  -0.00028,  -0.00041,  -0.00087,  -5.18244,   1.00000
-337688091.68597,-419515011.42586,-161206663.76011,  -0.00100,  -0.00166,  -0.00297,475734835.55247,   0.00100,275734838.80192,  -0.00028,  -0.00041,  -0.00087,  -3.24946,   1.00000
-337109384.48123,-419418026.53341,-161413828.36037,  -0.00100,  -0.00166,  -0.00297,475739148.35688,   0.00101,275739154.77103,  -0.00028,  -0.00041,  -0.00088,  -6.41415,   1.00000
-336526337.92408,-419304206.74400,-161629948.80120,  -0.00100,  -0.00167,  -0.00298,475743424.32295,   0.00101,275743429.87037,  -0.00028,  -0.00041,  -0.00088,  -5.54743,   1.00000
-335928327.96361,-419200052.33594,-161844112.17165,  -0.00099,  -0.00167,  -0.00299,475747730.08108,   0.00102,275747734.78761,  -0.00028,  -0.00042,  -0.00088,  -4.70653,   1.00000
-335329712.93073,-419073858.83307,-162068745.39363,  -0.00099,  -0.00167,  -0.00299,475751861.21819,   0.00102,275751867.68381,  -0.00028,  -0.00042,  -0.00089,  -6.46562,   1.00000
-334716082.99961,-418957276.43038,-162291384.66425,  -0.00099,  -0.00167,  -0.00300,475756027.59222,   0.00102,275756030.97529,  -0.00029,  -0.00042,  -0.00089,  -3.38307,   1.00000
-334097983.36650,-418823733.81436,-162522919.60810,  -0.00099,  -0.00168,  -0.00301,475760145.27929,   0.00103,275760154.42070,  -0.00029,  -0.00042,  -0.00089,  -9.14140,   1.00000
-333468007.08338,-418683865.37459,-162759585.68109,  -0.00099,  -0.00168,  -0.00301,475764085.32169,   0.00103,275764086.23946,  -0.00029,  -0.00042,  -0.00090,  -0.91777,   1.00000
-332838265.94650,-418543310.13566,-162995533.34208,  -0.00099,  -0.00168,  -0.00302,475768027.33783,   0.00104,275768027.74498,  -0.00029,  -0.00042,  -0.00090,  -0.40715,   1.00000
-332188581.73147,-418395884.58556,-163238993.62942,  -0.00098,  -0.00168,  -0.00302,475771942.94281,   0.00104,275771951.90402,  -0.00029,  -0.00043,  -0.00090,  -8.96122,   1.00000
-331538515.20377,-418236990.21304,-163487314.07076,  -0.00098,  -0.00168,  -0.00303,475775789.52031,   0.00104,275775795.37609,  -0.00029,  -0.00043,  -0.00090,  -5.85578,   1.00000
-330892883.49643,-418082984.26055,-163730908.48691,  -0.00098,  -0.00169,  -0.00304,475779601.34486,   0.00105,275779607.15939,  -0.00029,  -0.00043,  -0.00091,  -5.81453,   1.00000
-330226519.61287,-417911213.73284,-163987579.88302,  -0.00098,  -0.00169,  -0.00304,475783301.79691,   0.00105,275783311.64666,  -0.00029,  -0.00043,  -0.00091,  -9.84975,   1.00000
-329544246.54186,-417738004.76855,-164247709.17893,  -0.00098,  -0.00169,  -0.00305,475786953.30482,   0.00105,275786958.28926,  -0.00029,  -0.00043,  -0.00091,  -4.98445,   1.00000
-328878214.31189,-417564715.23834,-164502824.42567,  -0.00097,  -0.00169,  -0.00306,475790679.90649,   0.00106,275790683.99490,  -0.00029,  -0.00043,  -0.00092,  -4.08841,   1.00000
-328175105.67575,-417372748.90112,-164775181.25267,  -0.00097,  -0.00169,  -0.00306,475794227.16581,   0.00106,275794235.31611,  -0.00029,  -0.00043,  -0.00092,  -8.15030,   1.00000
-327475529.71784,-417174757.45185,-165048413.77668,  -0.00097,  -0.00170,  -0.00307,475797659.52359,   0.00106,275797664.64136,  -0.00029,  -0.00044,  -0.00092,  -5.11778,   1.00000
-326776812.53882,-416986759.01430,-165315185.38366,  -0.00097,  -0.00170,  -0.00307,475801187.45122,   0.00107,275801196.29393,  -0.00029,  -0.00044,  -0.00093,  -8.84271,   1.00000
-326060299.44775,-416775421.58420,-165596655.84082,  -0.00097,  -0.00170,  -0.00308,475804486.55454,   0.00107,275804489.10156,  -0.00029,  -0.00044,  -0.00093,  -2.54702,   1.00000
-325340450.71208,-416568404.95864,-165875545.27861,  -0.00096,  -0.00170,  -0.00309,475807925.34603,   0.00107,275807927.37002,  -0.00030,  -0.00044,  -0.00093,  -2.02399,   1.00000
-324619764.57169,-416349631.85023,-166159244.88526,  -0.00096,  -0.00170,  -0.00309,475811277.71858,   0.00108,275811286.26985,  -0.00030,  -0.00044,  -0.00093,  -8.55128,   1.00000
-323886039.74539,-416123856.68789,-166448061.30314,  -0.00096,  -0.00171,  -0.00310,475814453.53757,   0.00108,275814455.33304,  -0.00030,  -0.00044,  -0.00094,  -1.79547,   1.00000
-323131698.42876,-415890534.19896,-166744091.27884,  -0.00096,  -0.00171,  -0.00311,475817603.93960,   0.00108,275817612.12867,  -0.00030,  -0.00044,  -0.00094,  -8.18907,   1.00000
-322377302.15983,-415656241.60026,-167039231.64191,  -0.00095,  -0.00171,  -0.00311,475820778.29649,   0.00108,275820781.39695,  -0.00030,  -0.00045,  -0.00094,  -3.10045,   1.00000
-321609562.89178,-415414720.56618,-167339468.64956,  -0.00095,  -0.00171,  -0.00312,475823756.87872,   0.00109,275823761.55366,  -0.00030,  -0.00045,  -0.00094,  -4.67495,   1.00000
-320837533.00509,-415166490.66894,-167642669.12629,  -0.00095,  -0.00171,  -0.00313,475826794.58171,   0.00109,275826797.76502,  -0.00030,  -0.00045,  -0.00095,  -3.18331,   1.00000
-320064328.77519,-414906272.82273,-167950649.46121,  -0.00095,  -0.00171,  -0.00313,475829753.19926,   0.00109,275829755.50292,  -0.00030,  -0.00045,  -0.00095,  -2.30366,   1.00000
-319274415.16798,-414643928.63738,-168261873.38080,  -0.00094,  -0.00171,  -0.00314,475832655.47763,   0.00110,275832659.48517,  -0.00030,  -0.00045,  -0.00095,  -4.00755,   1.00000
-318484335.45795,-414380507.65220,-168572159.10058,  -0.00094,  -0.00172,  -0.00314,475835575.50833,   0.00110,275835576.78162,  -0.00030,  -0.00045,  -0.00095,  -1.27330,   1.00000
-317676289.46212,-414103839.24412,-168891370.37987,  -0.00094,  -0.00172,  -0.00315,475838342.74511,   0.00110,275838349.41039,  -0.00030,  -0.00045,  -0.00096,  -6.66528,   1.00000
-316866832.94712,-413815014.18707,-169215342.36706,  -0.00094,  -0.00172,  -0.00316,475841043.93627,   0.00110,275841044.16477,  -0.00030,  -0.00045,  -0.00096,  -0.22850,   1.00000
-316036251.19806,-413518090.68393,-169546294.01002,  -0.00093,  -0.00172,  -0.00316,475843728.18130,   0.00111,275843730.61545,  -0.00030,  -0.00046,  -0.00096,  -2.43415,   1.00000
-315209520.28840,-413225692.23188,-169872443.46588,  -0.00093,  -0.00172,  -0.00317,475846386.27283,   0.00111,275846387.26060,  -0.00030,  -0.00046,  -0.00096,  -0.98777,   1.00000
-314364418.90387,-412919727.10569,-170207472.50304,  -0.00093,  -0.00172,  -0.00318,475848894.00723,   0.00111,275848900.43849,  -0.00030,  -0.00046,  -0.00096,  -6.43126,   1.00000
-313518968.07139,-412612506.62153,-170541490.00678,  -0.00093,  -0.00172,  -0.00318,475851422.30839,   0.00111,275851428.21607,  -0.00030,  -0.00046,  -0.00097,  -5.90769,   1.00000
-312652177.47066,-412296930.10641,-170882382.71623,  -0.00092,  -0.00173,  -0.00319,475853943.82983,   0.00111,275853949.47088,  -0.00030,  -0.00046,  -0.00097,  -5.64105,   1.00000
-311787736.33964,-411974650.32113,-171224219.70232,  -0.00092,  -0.00173,  -0.00320,475856345.57510,   0.00112,275856349.44372,  -0.00030,  -0.00046,  -0.00097,  -3.86862,   1.00000
-310921463.89092,-411639892.58917,-171570778.68056,  -0.00092,  -0.00173,  -0.00320,475858672.47569,   0.00112,275858672.67434,  -0.00030,  -0.00046,  -0.00097,  -0.19865,   1.00000
-310033651.60509,-411296574.75783,-171924132.72698,  -0.00091,  -0.00173,  -0.00321,475860988.95796,   0.00112,275860990.76112,  -0.00030,  -0.00046,  -0.00097,  -1.80316,   1.00000
-309132428.87980,-410956137.28911,-172276774.05995,  -0.00091,  -0.00173,  -0.00322,475863212.61364,   0.00112,275863214.27103,  -0.00031,  -0.00046,  -0.00098,  -1.65739,   1.00000
-308229161.11282,-410603028.94444,-172634101.15498,  -0.00091,  -0.00173,  -0.00322,475865353.45778,   0.00113,275865361.85675,  -0.00031,  -0.00046,  -0.00098,  -8.39897,   1.00000
-307321270.65682,-410242685.80444,-172994041.21690,  -0.00090,  -0.00173,  -0.00323,475867561.47561,   0.00113,275867570.87471,  -0.00031,  -0.00046,  -0.00098,  -9.39910,   1.00000
-306398168.75890,-409873801.02777,-173359043.32741,  -0.00090,  -0.00173,  -0.00323,475869585.32857,   0.00113,275869593.82263,  -0.00031,  -0.00047,  -0.00098,  -8.49407,   1.00000
-305470384.32128,-409497592.13394,-173726605.80732,  -0.00090,  -0.00173,  -0.00324,475871671.26137,   0.00113,275871679.02479,  -0.00031,  -0.00047,  -0.00098,  -7.76342,   1.00000
-304527149.70206,-409112659.63046,-174099221.71828,  -0.00089,  -0.00174,  -0.00325,475873573.58863,   0.00113,275873578.59966,  -0.00031,  -0.00047,  -0.00098,  -5.01102,   1.00000
-303583234.12150,-408726122.72465,-174470686.01483,  -0.00089,  -0.00174,  -0.00325,475875494.29022,   0.00113,275875495.20898,  -0.00031,  -0.00047,  -0.00099,  -0.91877,   1.00000
-302617270.29141,-408330419.70712,-174848696.86698,  -0.00089,  -0.00174,  -0.00326,475877407.88605,   0.00114,275877410.86919,  -0.00031,  -0.00047,  -0.00099,  -2.98314,   1.00000
-301652853.46590,-407927481.92988,-175227690.55333,  -0.00088,  -0.00174,  -0.00327,475879203.36617,   0.00114,275879205.80654,  -0.00031,  -0.00047,  -0.00099,  -2.44037,   1.00000
-300670285.90776,-407521037.62920,-175609538.18677,  -0.00088,  -0.00174,  -0.00327,475880951.23397,   0.00114,275880954.43737,  -0.00031,  -0.00047,  -0.00099,  -3.20340,   1.00000
-299681037.96113,-407095596.46405,-175999620.07909,  -0.00088,  -0.00174,  -0.00328,475882671.54844,   0.00114,275882675.52588,  -0.00031,  -0.00047,  -0.00099,  -3.97745,   1.00000
-298695000.79368,-406674220.35985,-176384864.60762,  -0.00087,  -0.00174,  -0.00329,475884366.01681,   0.00114,275884368.20608,  -0.00031,  -0.00047,  -0.00099,  -2.18927,   1.00000
-297688673.96514,-406237658.23269,-176778745.09030,  -0.00087,  -0.00174,  -0.00329,475885916.92402,   0.00114,275885923.42445,  -0.00031,  -0.00047,  -0.00099,  -6.50044,   1.00000
-296663883.78931,-405797276.18371,-177175389.95704,  -0.00087,  -0.00174,  -0.00330,475887433.89439,   0.00115,275887434.00861,  -0.00031,  -0.00047,  -0.00100,  -0.11423,   1.00000
-295632127.62749,-405337595.01233,-177580171.70649,  -0.00086,  -0.00174,  -0.00331,475888912.81995,   0.00115,275888918.79998,  -0.00031,  -0.00047,  -0.00100,  -5.98003,   1.00000
-294603401.90930,-404881830.97703,-177980097.69555,  -0.00086,  -0.00174,  -0.00331,475890367.85997,   0.00115,275890375.68544,  -0.00031,  -0.00047,  -0.00100,  -7.82547,   1.00000
-293556015.79391,-404422039.77247,-178382724.07511,  -0.00086,  -0.00174,  -0.00332,475891780.46383,   0.00115,275891789.09792,  -0.00031,  -0.00047,  -0.00100,  -8.63409,   1.00000
-292505485.43121,-403948649.64199,-178789903.78421,  -0.00085,  -0.00174,  -0.00332,475893122.23190,   0.00115,275893129.92516,  -0.00031,  -0.00048,  -0.00100,  -7.69327,   1.00000
-291433932.43923,-403459407.13296,-179205600.08234,  -0.00085,  -0.00174,  -0.00333,475894326.38279,   0.00115,275894335.92188,  -0.00031,  -0.00048,  -0.00100,  -9.53908,   1.00000
-290363498.31776,-402979738.61762,-179614068.45696,  -0.00085,  -0.00174,  -0.00334,475895645.07195,   0.00115,275895654.73344,  -0.00031,  -0.00048,  -0.00100,  -9.66149,   1.00000
-289287454.12670,-402474601.12041,-180032947.32946,  -0.00084,  -0.00174,  -0.00334,475896805.33257,   0.00115,275896809.15973,  -0.00031,  -0.00048,  -0.00100,  -3.82716,   1.00000
-288180663.21906,-401980306.66330,-180448975.09247,  -0.00084,  -0.00174,  -0.00335,475897896.67431,   0.00116,275897904.54593,  -0.00031,  -0.00048,  -0.00100,  -7.87161,   1.00000
-287084363.35931,-401468517.12440,-180869034.03029,  -0.00083,  -0.00174,  -0.00336,475899034.13767,   0.00116,275899038.95798,  -0.00031,  -0.00048,  -0.00101,  -4.82031,   1.00000
-285966465.96337,-400940341.95179,-181297511.90184,  -0.00083,  -0.00174,  -0.00336,475900040.21359,   0.00116,275900040.64804,  -0.00031,  -0.00048,  -0.00101,  -0.43445,   1.00000
-284833145.98861,-400413317.71087,-181725023.92911,  -0.00083,  -0.00174,  -0.00337,475900949.82126,   0.00116,275900953.97164,  -0.00031,  -0.00048,  -0.00101,  -4.15038,   1.00000
-283712730.56609,-399880556.26867,-182150617.98053,  -0.00082,  -0.00174,  -0.00338,475901997.41102,   0.00116,275901999.49736,  -0.00031,  -0.00048,  -0.00101,  -2.08634,   1.00000
-282556118.37824,-399334456.30057,-182585047.67396,  -0.00082,  -0.00174,  -0.00338,475902797.86652,   0.00116,275902803.40346,  -0.00031,  -0.00048,  -0.00101,  -5.53693,   1.00000
-281395530.43961,-398773999.45916,-183023903.69750,  -0.00081,  -0.00174,  -0.00339,475903534.41293,   0.00116,275903537.57666,  -0.00031,  -0.00048,  -0.00101,  -3.16373,   1.00000
-280233515.69092,-398211071.70900,-183461262.90787,  -0.00081,  -0.00174,  -0.00339,475904294.26441,   0.00116,275904294.65454,  -0.00031,  -0.00048,  -0.00101,  -0.39013,   1.00000
-279070087.42549,-397645676.32111,-183897117.14898,  -0.00081,  -0.00174,  -0.00340,475905067.23963,   0.00116,275905074.73901,  -0.00031,  -0.00048,  -0.00101,  -7.49937,   1.00000
-277865864.80064,-397060367.40075,-184345096.83825,  -0.00080,  -0.00174,  -0.00341,475905658.71912,   0.00116,275905665.11265,  -0.00031,  -0.00048,  -0.00101,  -6.39353,   1.00000
-276678475.04030,-396475184.10162,-184787658.67066,  -0.00080,  -0.00174,  -0.00341,475906332.40317,   0.00116,275906339.58387,  -0.00031,  -0.00048,  -0.00101,  -7.18070,   1.00000
-275471181.95780,-395884634.06395,-185232501.95078,  -0.00079,  -0.00174,  -0.00342,475906972.89437,   0.00116,275906978.06737,  -0.00031,  -0.00048,  -0.00101,  -5.17301,   1.00000
-274241025.99277,-395276471.97035,-185685511.61001,  -0.00079,  -0.00174,  -0.00343,475907482.68183,   0.00116,275907488.95966,  -0.00031,  -0.00048,  -0.00101,  -6.27783,   1.00000
-273028677.40948,-394662263.64180,-186135721.35629,  -0.00078,  -0.00174,  -0.00343,475907938.00878,   0.00116,275907940.92387,  -0.00031,  -0.00048,  -0.00101,  -2.91509,   1.00000
-271777582.64163,-394039450.29752,-186591932.32965,  -0.00078,  -0.00174,  -0.00344,475908290.72579,   0.00117,275908299.26032,  -0.00031,  -0.00048,  -0.00101,  -8.53453,   1.00000
-270521003.08450,-393407865.19099,-187049766.12139,  -0.00078,  -0.00174,  -0.00344,475908726.76320,   0.00117,275908734.18094,  -0.00031,  -0.00048,  -0.00101,  -7.41774,   1.00000
-269263461.70239,-392767127.14416,-187508604.96132,  -0.00077,  -0.00174,  -0.00345,475909048.53649,   0.00117,275909051.23692,  -0.00031,  -0.00048,  -0.00101,  -2.70043,   1.00000
-268004195.77755,-392123522.70187,-187965766.31413,  -0.00077,  -0.00174,  -0.00346,475909386.94409,   0.00117,275909394.12971,  -0.00031,  -0.00048,  -0.00101,  -7.18563,   1.00000
-266725064.64387,-391467533.12066,-188427717.81278,  -0.00076,  -0.00174,  -0.00346,475909551.32217,   0.00117,275909560.65191,  -0.00031,  -0.00048,  -0.00101,  -9.32974,   1.00000
-265421586.63623,-390799437.46423,-188894922.38758,  -0.00076,  -0.00174,  -0.00347,475909747.05083,   0.00117,275909747.40746,  -0.00031,  -0.00048,  -0.00101,  -0.35663,   1.00000
-264116720.95075,-390121826.30185,-189363109.75555,  -0.00075,  -0.00174,  -0.00348,475909808.80580,   0.00117,275909817.10447,  -0.00031,  -0.00048,  -0.00101,  -8.29867,   1.00000
-262806263.28744,-389435194.81498,-189832733.74290,  -0.00075,  -0.00174,  -0.00348,475909965.26933,   0.00117,275909966.16179,  -0.00031,  -0.00048,  -0.00101,  -0.89247,   1.00000
-261473551.44863,-388732730.93935,-190305419.71528,  -0.00074,  -0.00174,  -0.00349,475906172.27214,   0.00117,275909966.16179,  -0.00031,  -0.00048,  -0.00101,-3793.88965,   0.00000
-260140839.60981,-388030267.06372,-190778105.68767,  -0.00074,  -0.00174,  -0.00349,475906589.52340,   0.00117,275909966.16179,  -0.00031,  -0.00048,  -0.00101,-3376.63840,   0.00000
-258785149.98067,-387317955.56366,-191250791.66006,  -0.00073,  -0.00174,  -0.00350,475902735.08731,   0.00117,275909966.16179,  -0.00031,  -0.00048,  -0.00101,-7231.07448,   0.00000
-257419612.72711,-386582666.27328,-191716912.54950,  -0.00073,  -0.00174,  -0.00351,475881475.06810,   0.00117,275909966.16179,  -0.00031,  -0.00048,  -0.00101,-28491.09370,   0.00000
-256054075.47355,-385847376.98290,-192189598.52188,  -0.00072,  -0.00174,  -0.00351,475872482.75558,   0.00117,275909966.16179,  -0.00031,  -0.00048,  -0.00101,-37483.40622,   0.00000
-254655712.80523,-385079262.27777,-192655719.41132,  -0.00072,  -0.00174,  -0.00352,475837803.18987,   0.00117,275909966.16179,  -0.00031,  -0.00048,  -0.00101,-72162.97193,   0.00000
-253257350.13692,-384311147.57264,-193121840.30076,  -0.00071,  -0.00174,  -0.00352,475807583.26040,   0.00117,275909966.16179,  -0.00031,  -0.00048,  -0.00101,-102382.90139,   0.00000
-251826162.05386,-383510207.45277,-193587961.19020,  -0.00071,  -0.00174,  -0.00353,475759905.43263,   0.00117,275909966.16179,  -0.00031,  -0.00048,  -0.00101,-150060.72917,   0.00000
-250394973.97080,-382709267.33289,-194047516.99668,  -0.00070,  -0.00173,  -0.00354,475708803.59506,   0.00117,275909966.16179,  -0.00031,  -0.00048,  -0.00101,-201162.56673,   0.00000
-248930960.47299,-381875501.79826,-194513637.88612,  -0.00070,  -0.00173,  -0.00354,475648559.84541,   0.00117,275909966.16179,  -0.00031,  -0.00048,  -0.00101,-261406.31639,   0.00000
-247466946.97518,-381041736.26363,-194973193.69261,  -0.00069,  -0.00173,  -0.00355,475585006.33727,   0.00117,275909966.16179,  -0.00031,  -0.00048,  -0.00101,-324959.82452,   0.00000
-246002933.47737,-380207970.72900,-195432749.49910,  -0.00069,  -0.00173,  -0.00355,475526178.96900,   0.00117,275909966.16179,  -0.00031,  -0.00048,  -0.00101,-383787.19280,   0.00000
-244506094.56481,-379341379.77963,-195885740.22263,  -0.00068,  -0.00173,  -0.00356,475442428.77914,   0.00117,275909966.16179,  -0.00031,  -0.00048,  -0.00101,-467537.38265,   0.00000
-243009255.65225,-378474788.83025,-196345296.02912,  -0.00068,  -0.00173,  -0.00357,475371657.98381,   0.00117,275909966.16179,  -0.00031,  -0.00048,  -0.00101,-538308.17799,   0.00000
-241479591.32494,-377575372.46613,-196798286.75266,  -0.00067,  -0.00173,  -0.00357,475276241.03068,   0.00117,275909966.16179,  -0.00031,  -0.00048,  -0.00101,-633725.13111,   0.00000
-239949926.99763,-376675956.10200,-197251277.47620,  -0.00067,  -0.00173,  -0.00358,475185831.65017,   0.00117,275909966.16179,  -0.00031,  -0.00048,  -0.00101,-724134.51163,   0.00000
-238410415.04590,-375753561.94755,-197704268.19973,  -0.00066,  -0.00173,  -0.00358,475086976.93466,   0.00117,275909966.16179,  -0.00031,  -0.00048,  -0.00101,-822989.22713,   0.00000
-236847925.30384,-374821320.16867,-198150693.84032,  -0.00066,  -0.00173,  -0.00359,474977264.86678,   0.00117,275909966.16179,  -0.00031,  -0.00048,  -0.00101,-932701.29501,   0.00000
-235275587.93736,-373866100.59948,-198597119.48091,  -0.00065,  -0.00172,  -0.00360,474859289.08118,   0.00117,275909966.16179,  -0.00031,  -0.00048,  -0.00101,-1050677.08061,   0.00000
-233680272.78055,-372901033.40585,-199043545.12150,  -0.00065,  -0.00172,  -0.00360,474738911.35983,   0.00117,275909966.16179,  -0.00031,  -0.00048,  -0.00101,-1171054.80196,   0.00000
-232084957.62374,-371935966.21223,-199489970.76209,  -0.00064,  -0.00172,  -0.00361,474623843.54803,   0.00117,275909966.16179,  -0.00031,  -0.00048,  -0.00101,-1286122.61377,   0.00000
-230479794.84251,-370947921.22828,-199929831.31973,  -0.00064,  -0.00172,  -0.00361,474492473.77264,   0.00117,275909966.16179,  -0.00031,  -0.00048,  -0.00101,-1417492.38915,   0.00000
-228851654.27096,-369950028.61991,-200376256.96031,  -0.00063,  -0.00172,  -0.00362,474367326.39532,   0.00117,275909966.16179,  -0.00031,  -0.00048,  -0.00101,-1542639.76647,   0.00000
-227213666.07497,-368929158.22121,-200809552.43500,  -0.00063,  -0.00172,  -0.00362,474217730.92439,   0.00117,275909966.16179,  -0.00031,  -0.00048,  -0.00101,-1692235.23740,   0.00000
-225575677.87899,-367908287.82251,-201249412.99264,  -0.00062,  -0.00172,  -0.00363,474081967.56030,   0.00117,275909966.16179,  -0.00031,  -0.00048,  -0.00101,-1827998.60150,   0.00000
-223904864.26826,-366854592.00906,-201682708.46733,  -0.00062,  -0.00171,  -0.00364,473922880.83115,   0.00117,275909966.16179,  -0.00031,  -0.00048,  -0.00101,-1987085.33064,   0.00000
-222211072.86721,-365791048.57119,-202116003.94202,  -0.00061,  -0.00171,  -0.00364,473762248.30589,   0.00117,275909966.16179,  -0.00031,  -0.00048,  -0.00101,-2147717.85591,   0.00000
-220530411.63205,-364714374.96742,-202549299.41670,  -0.00060,  -0.00171,  -0.00365,473601396.32964,   0.00117,275909966.16179,  -0.00031,  -0.00048,  -0.00101,-2308569.83216,   0.00000
-218826772.60658,-363627853.73923,-202976029.80844,  -0.00060,  -0.00171,  -0.00365,473430743.39463,   0.00117,275909966.16179,  -0.00031,  -0.00048,  -0.00101,-2479222.76717,   0.00000
-217100155.79077,-362531484.88661,-203402760.20018,  -0.00059,  -0.00171,  -0.00366,473258874.08656,   0.00117,275909966.16179,  -0.00031,  -0.00048,  -0.00101,-2651092.07523,   0.00000
-215386669.14087,-361421985.86809,-203829490.59192,  -0.00059,  -0.00171,  -0.00366,473086857.90974,   0.00117,275909966.16179,  -0.00031,  -0.00048,  -0.00101,-2823108.25206,   0.00000
-213617379.28589,-360269813.81039,-204249655.90071,  -0.00058,  -0.00170,  -0.00367,472885393.95992,   0.00117,275909966.16179,  -0.00031,  -0.00048,  -0.00101,-3024572.20187,   0.00000
-211880914.84566,-359150467.16745,-204669821.20950,  -0.00058,  -0.00170,  -0.00367,472709908.64750,   0.00117,275909966.16179,  -0.00031,  -0.00048,  -0.00101,-3200057.51429,   0.00000
-210101777.36626,-357975317.31943,-205089986.51829,  -0.00057,  -0.00170,  -0.00368,472507716.28679,   0.00117,275909966.16179,  -0.00031,  -0.00048,  -0.00101,-3402249.87501,   0.00000
-208332487.51128,-356823145.26173,-205503586.74412,  -0.00056,  -0.00170,  -0.00369,472316103.24786,   0.00117,275909966.16179,  -0.00031,  -0.00048,  -0.00101,-3593862.91394,   0.00000
-206530372.24156,-355638147.78929,-205917186.96996,  -0.00056,  -0.00170,  -0.00369,472111079.56061,   0.00117,275909966.16179,  -0.00031,  -0.00048,  -0.00101,-3798886.60119,   0.00000
-204718409.34741,-354430172.52652,-206330787.19580,  -0.00055,  -0.00170,  -0.00370,471899538.47517,   0.00117,275909966.16179,  -0.00031,  -0.00048,  -0.00101,-4010427.68663,   0.00000
-202906446.45325,-353222197.26376,-206737822.33869,  -0.00055,  -0.00169,  -0.00370,471685771.83646,   0.00117,275909966.16179,  -0.00031,  -0.00048,  -0.00101,-4224194.32533,   0.00000
-201094483.55910,-352014222.00099,-207144857.48158,  -0.00054,  -0.00169,  -0.00371,471478378.69123,   0.00117,275909966.16179,  -0.00031,  -0.00048,  -0.00101,-4431587.47057,   0.00000
-199249695.25020,-350773421.32347,-207551892.62447,  -0.00053,  -0.00169,  -0.00371,471258210.81409,   0.00117,275909966.16179,  -0.00031,  -0.00048,  -0.00101,-4651755.34770,   0.00000
-197372081.52655,-349499795.23121,-207952362.68441,  -0.00053,  -0.00169,  -0.00372,471016877.39717,   0.00117,275909966.16179,  -0.00031,  -0.00048,  -0.00101,-4893088.76463,   0.00000
-195527293.21765,-348258994.55369,-208346267.66140,  -0.00052,  -0.00169,  -0.00372,470792536.98640,   0.00117,275909966.16179,  -0.00031,  -0.00048,  -0.00101,-5117429.17539,   0.00000
-193639831.86958,-346962390.67110,-208746737.72134,  -0.00052,  -0.00168,  -0.00373,470551960.53142,   0.00117,275909966.16179,  -0.00031,  -0.00048,  -0.00101,-5358005.63037,   0.00000
-191739240.35561,-345678916.95441,-209140642.69833,  -0.00051,  -0.00168,  -0.00373,470315917.50646,   0.00117,275909966.16179,  -0.00031,  -0.00048,  -0.00101,-5594048.65534,   0.00000
-189851779.00753,-344382313.07182,-209527982.59237,  -0.00050,  -0.00168,  -0.00374,470071491.60664,   0.00117,275909966.16179,  -0.00031,  -0.00048,  -0.00101,-5838474.55516,   0.00000
-187931492.24471,-343052883.77448,-209921887.56936,  -0.00050,  -0.00168,  -0.00374,469824098.06093,   0.00117,275909966.16179,  -0.00031,  -0.00048,  -0.00101,-6085868.10087,   0.00000
-185988227.69156,-341713606.85272,-210302662.38045,  -0.00049,  -0.00167,  -0.00375,469560146.56743,   0.00117,275909966.16179,  -0.00031,  -0.00048,  -0.00101,-6349819.59437,   0.00000
-184067940.92874,-340384177.55538,-210690002.27448,  -0.00049,  -0.00167,  -0.00375,469318028.30887,   0.00117,275909966.16179,  -0.00031,  -0.00048,  -0.00101,-6591937.85293,   0.00000
-182114828.75116,-339021922.84329,-211070777.08557,  -0.00048,  -0.00167,  -0.00376,469055832.94151,   0.00117,275909966.16179,  -0.00031,  -0.00048,  -0.00101,-6854133.22028,   0.00000
-180161716.57359,-337659668.13120,-211444986.81371,  -0.00047,  -0.00167,  -0.00376,468791955.47597,   0.00117,275909966.16179,  -0.00031,  -0.00048,  -0.00101,-7118010.68582,   0.00000
-178175778.98127,-336264588.00436,-211819196.54185,  -0.00047,  -0.00166,  -0.00377,468517227.56025,   0.00117,275909966.16179,  -0.00031,  -0.00048,  -0.00101,-7392738.60154,   0.00000
-176189841.38895,-334869507.87753,-212193406.26999,  -0.00046,  -0.00166,  -0.00377,468249898.05578,   0.00117,275909966.16179,  -0.00031,  -0.00048,  -0.00101,-7660068.10601,   0.00000
-174194056.17220,-333451449.96036,-212561050.91518,  -0.00045,  -0.00166,  -0.00378,467968780.13367,   0.00117,275909966.16179,  -0.00031,  -0.00048,  -0.00101,-7941186.02812,   0.00000
-172175293.16513,-332023544.41878,-212928695.56037,  -0.00045,  -0.00166,  -0.00378,467689643.57361,   0.00117,275909966.16179,  -0.00031,  -0.00048,  -0.00101,-8220322.58819,   0.00000
-170156530.15806,-330595638.87719,-213289775.12261,  -0.00044,  -0.00165,  -0.00379,467409134.39821,   0.00117,275909966.16179,  -0.00031,  -0.00048,  -0.00101,-8500831.76358,   0.00000
-168127919.52657,-329144755.54528,-213650854.68486,  -0.00044,  -0.00165,  -0.00379,467124081.56409,   0.00117,275909966.16179,  -0.00031,  -0.00048,  -0.00101,-8785884.59771,   0.00000
-166099308.89507,-327693872.21337,-214011934.24710,  -0.00043,  -0.00165,  -0.00380,466846712.09978,   0.00117,275909966.16179,  -0.00031,  -0.00048,  -0.00101,-9063254.06202,   0.00000
-164037872.84883,-326210163.46671,-214366448.72639,  -0.00042,  -0.00165,  -0.00380,466550743.41350,   0.00117,275909966.16179,  -0.00031,  -0.00048,  -0.00101,-9359222.74830,   0.00000
-161976436.80258,-324726454.72005,-214714398.12273,  -0.00042,  -0.00164,  -0.00381,466253601.25884,   0.00117,275909966.16179,  -0.00031,  -0.00048,  -0.00101,-9656364.90295,   0.00000
-159905153.13191,-323219768.18307,-215062347.51907,  -0.00041,  -0.00164,  -0.00381,465952368.78582,   0.00117,275909966.16179,  -0.00031,  -0.00048,  -0.00101,-9957597.37597,   0.00000
-157810891.67092,-321703234.02166,-215403731.83246,  -0.00040,  -0.00164,  -0.00381,465645011.95399,   0.00117,275909966.16179,  -0.00031,  -0.00048,  -0.00101,-10264954.20780,   0.00000
-155739608.00025,-320196547.48467,-215745116.14585,  -0.00040,  -0.00163,  -0.00382,465350658.27313,   0.00117,275909966.16179,  -0.00031,  -0.00048,  -0.00101,-10559307.88866,   0.00000
-153635498.91483,-318657035.53294,-216086500.45924,  -0.00039,  -0.00163,  -0.00382,465047596.73262,   0.00117,275909966.16179,  -0.00031,  -0.00048,  -0.00101,-10862369.42917,   0.00000
-151498564.41466,-317084698.16646,-216421319.68968,  -0.00038,  -0.00163,  -0.00383,464727024.29449,   0.00117,275909966.16179,  -0.00031,  -0.00048,  -0.00101,-11182941.86731,   0.00000
-149371477.53892,-315535338.59030,-216749573.83717,  -0.00038,  -0.00163,  -0.00383,464417421.86988,   0.00117,275909966.16179,  -0.00031,  -0.00048,  -0.00101,-11492544.29192,   0.00000
-147247673.20465,-313949871.05792,-217077827.98466,  -0.00037,  -0.00162,  -0.00384,464097361.54486,   0.00117,275909966.16179,  -0.00031,  -0.00048,  -0.00101,-11812604.61693,   0.00000
-145087760.91416,-312367686.06701,-217406082.13215,  -0.00036,  -0.00162,  -0.00384,463788222.31348,   0.00117,275909966.16179,  -0.00031,  -0.00048,  -0.00101,-12121743.84831,   0.00000
-142940978.78957,-310772370.91020,-217727771.19670,  -0.00036,  -0.00162,  -0.00384,463471282.94065,   0.00117,275909966.16179,  -0.00031,  -0.00048,  -0.00101,-12438683.22115,   0.00000
-140761371.25023,-309144230.33864,-218042895.17829,  -0.00035,  -0.00161,  -0.00385,463137631.19028,   0.00117,275909966.16179,  -0.00031,  -0.00048,  -0.00101,-12772334.97152,   0.00000
-138581763.71089,-307516089.76709,-218358019.15988,  -0.00034,  -0.00161,  -0.00385,462812707.47867,   0.00117,275909966.16179,  -0.00031,  -0.00048,  -0.00101,-13097258.68312,   0.00000
-136402156.17155,-305887949.19553,-218666578.05852,  -0.00034,  -0.00161,  -0.00386,462487218.12997,   0.00117,275909966.16179,  -0.00031,  -0.00048,  -0.00101,-13422748.03182,   0.00000
-134212701.00778,-304236830.83365,-218975136.95716,  -0.00033,  -0.00160,  -0.00386,462159045.51518,   0.00117,275909966.16179,  -0.00031,  -0.00048,  -0.00101,-13750920.64662,   0.00000
-132000268.05369,-302575864.84735,-219277130.77285,  -0.00032,  -0.00160,  -0.00386,461826276.56714,   0.00117,275909966.16179,  -0.00031,  -0.00048,  -0.00101,-14083689.59466,   0.00000
-129787835.09960,-300914898.86104,-219579124.58855,  -0.00032,  -0.00160,  -0.00387,461502482.21350,   0.00117,275909966.16179,  -0.00031,  -0.00048,  -0.00101,-14407483.94830,   0.00000
-127565554.52108,-299230955.08441,-219874553.32129,  -0.00031,  -0.00159,  -0.00387,461167030.54370,   0.00117,275909966.16179,  -0.00031,  -0.00048,  -0.00101,-14742935.61810,   0.00000
-125333426.31815,-297524033.51746,-220169982.05403,  -0.00030,  -0.00159,  -0.00388,460829442.12954,   0.00117,275909966.16179,  -0.00031,  -0.00048,  -0.00101,-15080524.03226,   0.00000
-123078320.32488,-295807264.32608,-220458845.70382,  -0.00030,  -0.00159,  -0.00388,460487847.04496,   0.00117,275909966.16179,  -0.00031,  -0.00048,  -0.00101,-15422119.11683,   0.00000
-120823214.33162,-294090495.13470,-220741144.27066,  -0.00029,  -0.00158,  -0.00388,460146137.48809,   0.00117,275909966.16179,  -0.00031,  -0.00048,  -0.00101,-15763828.67370,   0.00000
-118558260.71393,-292350748.15300,-221023442.83751,  -0.00028,  -0.00158,  -0.00389,459802687.85744,   0.00117,275909966.16179,  -0.00031,  -0.00048,  -0.00101,-16107278.30435,   0.00000
-116293307.09624,-290611001.17129,-221299176.32140,  -0.00027,  -0.00158,  -0.00389,459459192.08782,   0.00117,275909966.16179,  -0.00031,  -0.00048,  -0.00101,-16450774.07397,   0.00000
-114005375.68823,-288861406.56517,-221574909.80529,  -0.00027,  -0.00157,  -0.00389,459121668.70776,   0.00117,275909966.16179,  -0.00031,  -0.00048,  -0.00101,-16788297.45403,   0.00000
-111730574.44611,-287098681.79314,-221844078.20623,  -0.00026,  -0.00157,  -0.00390,458776698.20891,   0.00117,275909966.16179,  -0.00031,  -0.00048,  -0.00101,-17133267.95288,   0.00000
-109422947.78925,-285303131.60636,-222106681.52423,  -0.00025,  -0.00157,  -0.00390,458417585.46824,   0.00117,275909966.16179,  -0.00031,  -0.00048,  -0.00101,-17492380.69356,   0.00000
-107115321.13239,-283507581.41959,-222369284.84222,  -0.00025,  -0.00156,  -0.00390,458068260.89588,   0.00117,275909966.16179,  -0.00031,  -0.00048,  -0.00101,-17841705.26592,   0.00000
-104807694.47552,-281712031.23281,-222631888.16021,  -0.00024,  -0.00156,  -0.00391,457728746.90193,   0.00117,275909966.16179,  -0.00031,  -0.00048,  -0.00101,-18181219.25987,   0.00000
-102477090.02834,-279906633.42161,-222881361.31231,  -0.00023,  -0.00156,  -0.00391,457376829.10561,   0.00117,275909966.16179,  -0.00031,  -0.00048,  -0.00101,-18533137.05619,   0.00000
-100149768.12262,-278065127.65418,-223130834.46440,  -0.00023,  -0.00155,  -0.00391,457016565.43405,   0.00117,275909966.16179,  -0.00031,  -0.00048,  -0.00101,-18893400.72774,   0.00000
-97809316.05101,-276236752.05266,-223380307.61649,  -0.00022,  -0.00155,  -0.00392,456674022.90590,   0.00117,275909966.16179,  -0.00031,  -0.00048,  -0.00101,-19235943.25589,   0.00000
-95459016.35498,-274385398.66081,-223616650.60269,  -0.00021,  -0.00154,  -0.00392,456311768.22834,   0.00117,275909966.16179,  -0.00031,  -0.00048,  -0.00101,-19598197.93346,   0.00000
-93108716.65894,-272534045.26896,-223852993.58888,  -0.00020,  -0.00154,  -0.00392,455959682.38846,   0.00117,275909966.16179,  -0.00031,  -0.00048,  -0.00101,-19950283.77334,   0.00000
-90725591.54815,-270649866.46236,-224089336.57507,  -0.00020,  -0.00154,  -0.00393,455604769.77376,   0.00117,275909966.16179,  -0.00031,  -0.00048,  -0.00101,-20305196.38804,   0.00000
-88365444.22769,-268775535.28018,-224319114.47832,  -0.00019,  -0.00153,  -0.00393,455253188.77208,   0.00117,275909966.16179,  -0.00031,  -0.00048,  -0.00101,-20656777.38971,   0.00000
-85982319.11691,-266891356.47358,-224542327.29861,  -0.00018,  -0.00153,  -0.00393,454899755.79814,   0.00117,275909966.16179,  -0.00031,  -0.00048,  -0.00101,-21010210.36366,   0.00000
-83589346.38169,-264984199.87666,-224758975.03596,  -0.00018,  -0.00152,  -0.00394,454536840.66450,   0.00117,275909966.16179,  -0.00031,  -0.00048,  -0.00101,-21373125.49729,   0.00000
-81186526.02206,-263054065.48941,-224975622.77330,  -0.00017,  -0.00152,  -0.00394,454174349.97111,   0.00117,275909966.16179,  -0.00031,  -0.00048,  -0.00101,-21735616.19069,   0.00000
-78783705.66242,-261123931.10216,-225185705.42769,  -0.00016,  -0.00152,  -0.00394,453812818.82477,   0.00117,275909966.16179,  -0.00031,  -0.00048,  -0.00101,-22097147.33702,   0.00000
-76380885.30279,-259193796.71492,-225395788.08209,  -0.00015,  -0.00151,  -0.00394,453462011.74133,   0.00117,275909966.16179,  -0.00031,  -0.00048,  -0.00101,-22447954.42047,   0.00000
-73978064.94315,-257263662.32767,-225592740.57058,  -0.00015,  -0.00151,  -0.00395,453102341.55456,   0.00117,275909966.16179,  -0.00031,  -0.00048,  -0.00101,-22807624.60723,   0.00000
-71542419.16877,-255300702.52567,-225796258.14203,  -0.00014,  -0.00150,  -0.00395,452751352.45438,   0.00117,275909966.16179,  -0.00031,  -0.00048,  -0.00101,-23158613.70741,   0.00000
-69119903.56028,-253324612.55777,-225986645.54757,  -0.00013,  -0.00150,  -0.00395,452383730.37038,   0.00117,275909966.16179,  -0.00031,  -0.00048,  -0.00101,-23526235.79141,   0.00000
-66684257.78590,-251361652.75578,-226177032.95312,  -0.00013,  -0.00150,  -0.00395,452035127.14074,   0.00117,275909966.16179,  -0.00031,  -0.00048,  -0.00101,-23874839.02106,   0.00000
-64228916.76267,-249352737.37313,-226360855.27571,  -0.00012,  -0.00149,  -0.00396,451668236.18022,   0.00117,275909966.16179,  -0.00031,  -0.00048,  -0.00101,-24241729.98157,   0.00000
-61783423.36386,-247366799.78081,-226538112.51536,  -0.00011,  -0.00149,  -0.00396,451312426.80143,   0.00117,275909966.16179,  -0.00031,  -0.00048,  -0.00101,-24597539.36036,   0.00000
-59328082.34062,-245357884.39816,-226715369.75500,  -0.00010,  -0.00148,  -0.00396,450958176.18878,   0.00117,275909966.16179,  -0.00031,  -0.00048,  -0.00101,-24951789.97302,   0.00000
-56862893.69297,-243325991.22519,-226886061.91170,  -0.00010,  -0.00148,  -0.00396,450595785.58003,   0.00117,275909966.16179,  -0.00031,  -0.00048,  -0.00101,-25314180.58176,   0.00000
-54384574.87941,-241307228.21812,-227050188.98544,  -0.00009,  -0.00147,  -0.00397,450243083.57612,   0.00117,275909966.16179,  -0.00031,  -0.00048,  -0.00101,-25666882.58567,   0.00000
-51909538.60732,-239252357.25483,-227207750.97624,  -0.00008,  -0.00147,  -0.00397,449874312.98714,   0.00117,275909966.16179,  -0.00031,  -0.00048,  -0.00101,-26035653.17466,   0.00000
-49444349.95967,-237220464.08186,-227365312.96704,  -0.00007,  -0.00146,  -0.00397,449526458.95462,   0.00117,275909966.16179,  -0.00031,  -0.00048,  -0.00101,-26383507.20717,   0.00000
-46946335.89726,-235155745.49414,-227516309.87488,  -0.00007,  -0.00146,  -0.00397,449169785.55352,   0.00117,275909966.16179,  -0.00031,  -0.00048,  -0.00101,-26740180.60828,   0.00000
-44438474.21043,-233068049.11609,-227660741.69978,  -0.00006,  -0.00146,  -0.00397,448805687.30007,   0.00117,275909966.16179,  -0.00031,  -0.00048,  -0.00101,-27104278.86172,   0.00000
-41963437.93834,-231013178.15280,-227805173.52467,  -0.00005,  -0.00145,  -0.00398,448463490.92577,   0.00117,275909966.16179,  -0.00031,  -0.00048,  -0.00101,-27446475.23602,   0.00000
-39455576.25151,-228925481.77476,-227943040.26662,  -0.00005,  -0.00145,  -0.00398,448113066.89164,   0.00117,275909966.16179,  -0.00031,  -0.00048,  -0.00101,-27796899.27015,   0.00000
-36937866.94025,-226814807.60639,-228074341.92562,  -0.00004,  -0.00144,  -0.00398,447755540.57385,   0.00117,275909966.16179,  -0.00031,  -0.00048,  -0.00101,-28154425.58794,   0.00000
-34420157.62900,-224704133.43802,-228199078.50166,  -0.00003,  -0.00144,  -0.00398,447400046.30033,   0.00117,275909966.16179,  -0.00031,  -0.00048,  -0.00101,-28509919.86146,   0.00000
-31902448.31774,-222593459.26965,-228323815.07771,  -0.00002,  -0.00143,  -0.00398,447056631.29295,   0.00117,275909966.16179,  -0.00031,  -0.00048,  -0.00101,-28853334.86884,   0.00000
-29374891.38206,-220459807.31096,-228435421.48786,  -0.00002,  -0.00143,  -0.00398,446696377.15167,   0.00117,275909966.16179,  -0.00031,  -0.00048,  -0.00101,-29213589.01012,   0.00000
-26847334.44637,-218326155.35227,-228547027.89800,  -0.00001,  -0.00142,  -0.00399,446348346.08148,   0.00117,275909966.16179,  -0.00031,  -0.00048,  -0.00101,-29561620.08031,   0.00000
-24309929.88627,-216169525.60325,-228658634.30815,  -0.00000,  -0.00142,  -0.00399,446003905.37601,   0.00117,275909966.16179,  -0.00031,  -0.00048,  -0.00101,-29906060.78578,   0.00000
-21772525.32616,-214012895.85423,-228757110.55240,   0.00001,  -0.00141,  -0.00399,445651666.82144,   0.00117,275909966.16179,  -0.00031,  -0.00048,  -0.00101,-30258299.34035,   0.00000
-19212142.97573,-211846418.48079,-228855586.79665,   0.00001,  -0.00141,  -0.00399,445311830.74810,   0.00117,275909966.16179,  -0.00031,  -0.00048,  -0.00101,-30598135.41370,   0.00000
-16674738.41562,-209689788.73177,-228947497.95794,   0.00002,  -0.00140,  -0.00399,444974384.08035,   0.00117,275909966.16179,  -0.00031,  -0.00048,  -0.00101,-30935582.08145,   0.00000
-14117638.60667,-207487203.40211,-229032844.03629,   0.00003,  -0.00140,  -0.00399,444622479.05878,   0.00117,275909966.16179,  -0.00031,  -0.00048,  -0.00101,-31287487.10302,   0.00000
-11570386.42214,-205307595.86277,-229111625.03169,   0.00004,  -0.00139,  -0.00399,444281447.63805,   0.00117,275909966.16179,  -0.00031,  -0.00048,  -0.00101,-31628518.52375,   0.00000
-8990308.82286,-203095162.90868,-229183840.94414,   0.00004,  -0.00139,  -0.00399,443934996.89074,   0.00117,275909966.16179,  -0.00031,  -0.00048,  -0.00101,-31974969.27106,   0.00000
-6433209.01390,-200892577.57901,-229256056.85658,   0.00005,  -0.00138,  -0.00399,443601001.77968,   0.00117,275909966.16179,  -0.00031,  -0.00048,  -0.00101,-32308964.38211,   0.00000
-3866261.58052,-198667014.45902,-229321707.68608,   0.00006,  -0.00138,  -0.00400,443261512.89677,   0.00117,275909966.16179,  -0.00031,  -0.00048,  -0.00101,-32648453.26502,   0.00000
-1309161.77156,-196464429.12936,-229380793.43263,   0.00007,  -0.00137,  -0.00400,442932757.06921,   0.00117,275909966.16179,  -0.00031,  -0.00048,  -0.00101,-32977209.09259,   0.00000
1290611.07657,-194206040.59462,-229433314.09623,   0.00007,  -0.00137,  -0.00400,442591496.98006,   0.00117,275909966.16179,  -0.00031,  -0.00048,  -0.00101,-33318469.18173,   0.00000
3857558.50995,-191980477.47463,-229485834.75983,   0.00008,  -0.00136,  -0.00400,442270511.65538,   0.00117,275909966.16179,  -0.00031,  -0.00048,  -0.00101,-33639454.50641,   0.00000
6444201.19218,-189708958.77399,-229525225.25753,   0.00009,  -0.00136,  -0.00400,441926494.51574,   0.00117,275909966.16179,  -0.00031,  -0.00048,  -0.00101,-33983471.64605,   0.00000
9020996.24998,-187460417.86367,-229564615.75523,   0.00009,  -0.00135,  -0.00400,441603447.43454,   0.00117,275909966.16179,  -0.00031,  -0.00048,  -0.00101,-34306518.72726,   0.00000
11630616.72254,-185179051.53861,-229597441.16998,   0.00010,  -0.00135,  -0.00400,441276844.98847,   0.00117,275909966.16179,  -0.00031,  -0.00048,  -0.00101,-34633121.17333,   0.00000
14217259.40477,-182907532.83797,-229623701.50177,   0.00011,  -0.00134,  -0.00400,440952234.09053,   0.00117,275909966.16179,  -0.00031,  -0.00048,  -0.00101,-34957732.07127,   0.00000
16803902.08700,-180636014.13733,-229649961.83357,   0.00012,  -0.00134,  -0.00400,440640948.54451,   0.00117,275909966.16179,  -0.00031,  -0.00048,  -0.00101,-35269017.61728,   0.00000
19400392.39365,-178341517.64637,-229663091.99947,   0.00012,  -0.00133,  -0.00400,440315086.09646,   0.00117,275909966.16179,  -0.00031,  -0.00048,  -0.00101,-35594880.06533,   0.00000
22006730.32473,-176024043.36508,-229676222.16537,   0.00013,  -0.00133,  -0.00400,439995425.83947,   0.00117,275909966.16179,  -0.00031,  -0.00048,  -0.00101,-35914540.32232,   0.00000
24603220.63139,-173729546.87412,-229682787.24832,   0.00014,  -0.00132,  -0.00400,439686397.98035,   0.00117,275909966.16179,  -0.00031,  -0.00048,  -0.00101,-36223568.18144,   0.00000
27209558.56247,-171412072.59283,-229676222.16537,   0.00015,  -0.00131,  -0.00400,439363183.04990,   0.00117,275909966.16179,  -0.00031,  -0.00048,  -0.00101,-36546783.11190,   0.00000
29802766.32765,-169081468.14564,-229669657.08242,   0.00015,  -0.00131,  -0.00400,439044755.56556,   0.00117,275909966.16179,  -0.00031,  -0.00048,  -0.00101,-36865210.59624,   0.00000
32409104.25873,-166763993.86436,-229663091.99947,   0.00016,  -0.00130,  -0.00400,438748970.17825,   0.00117,275909966.16179,  -0.00031,  -0.00048,  -0.00101,-37160995.98355,   0.00000
35025289.81423,-164423541.79274,-229643396.75062,   0.00017,  -0.00130,  -0.00400,438439417.98076,   0.00117,275909966.16179,  -0.00031,  -0.00048,  -0.00101,-37470548.18103,   0.00000
37628345.20384,-162069959.55523,-229617136.41882,   0.00018,  -0.00129,  -0.00400,438124498.91540,   0.00117,275909966.16179,  -0.00031,  -0.00048,  -0.00101,-37785467.24639,   0.00000
40254378.38377,-159706529.69330,-229590876.08703,   0.00018,  -0.00129,  -0.00400,437825751.67479,   0.00117,275909966.16179,  -0.00031,  -0.00048,  -0.00101,-38084214.48700,   0.00000
42857433.77337,-157352947.45579,-229558050.67228,   0.00019,  -0.00128,  -0.00400,437528455.20338,   0.00117,275909966.16179,  -0.00031,  -0.00048,  -0.00101,-38381510.95841,   0.00000
45460489.16298,-154999365.21827,-229518660.17458,   0.00020,  -0.00128,  -0.00400,437234779.45010,   0.00117,275909966.16179,  -0.00031,  -0.00048,  -0.00101,-38675186.71169,   0.00000
48096369.96733,-152612957.56601,-229466139.51098,   0.00020,  -0.00127,  -0.00400,436930466.36301,   0.00117,275909966.16179,  -0.00031,  -0.00048,  -0.00101,-38979499.79878,   0.00000
50709272.98136,-150236397.53818,-229413618.84738,   0.00021,  -0.00126,  -0.00400,436637847.12734,   0.00117,275909966.16179,  -0.00031,  -0.00048,  -0.00101,-39272119.03445,   0.00000
53332023.61981,-147836859.72002,-229361098.18378,   0.00022,  -0.00126,  -0.00400,436353091.89914,   0.00117,275909966.16179,  -0.00031,  -0.00048,  -0.00101,-39556874.26265,   0.00000
55931796.46794,-145447169.52628,-229295447.35428,   0.00023,  -0.00125,  -0.00399,436059139.33127,   0.00117,275909966.16179,  -0.00031,  -0.00048,  -0.00101,-39850826.83053,   0.00000
58554547.10640,-143047631.70812,-229223231.44184,   0.00023,  -0.00125,  -0.00399,435771980.18156,   0.00117,275909966.16179,  -0.00031,  -0.00048,  -0.00101,-40137985.98023,   0.00000
61164167.57895,-140634963.72406,-229151015.52939,   0.00024,  -0.00124,  -0.00399,435490106.27157,   0.00117,275909966.16179,  -0.00031,  -0.00048,  -0.00101,-40419859.89023,   0.00000
63796765.84183,-138212448.11558,-229065669.45104,   0.00025,  -0.00124,  -0.00399,435205075.91019,   0.00117,275909966.16179,  -0.00031,  -0.00048,  -0.00101,-40704890.25160,   0.00000
66406386.31439,-135799780.13152,-228980323.37269,   0.00026,  -0.00123,  -0.00399,434931404.43467,   0.00117,275909966.16179,  -0.00031,  -0.00048,  -0.00101,-40978561.72712,   0.00000
69025854.41137,-133364134.35713,-228888412.21139,   0.00026,  -0.00122,  -0.00399,434656013.37821,   0.00117,275909966.16179,  -0.00031,  -0.00048,  -0.00101,-41253952.78358,   0.00000
71645322.50835,-130928488.58275,-228789935.96715,   0.00027,  -0.00122,  -0.00399,434384897.92980,   0.00117,275909966.16179,  -0.00031,  -0.00048,  -0.00101,-41525068.23199,   0.00000
74264790.60533,-128492842.80836,-228684894.63995,   0.00028,  -0.00121,  -0.00399,434118079.50318,   0.00117,275909966.16179,  -0.00031,  -0.00048,  -0.00101,-41791886.65861,   0.00000
76861280.91198,-126067044.65840,-228573288.22980,   0.00028,  -0.00121,  -0.00399,433851904.52748,   0.00117,275909966.16179,  -0.00031,  -0.00048,  -0.00101,-42058061.63431,   0.00000
79490596.63339,-123608421.09369,-228455116.73671,   0.00029,  -0.00120,  -0.00398,433588197.42885,   0.00117,275909966.16179,  -0.00031,  -0.00048,  -0.00101,-42321768.73294,   0.00000
82106782.18889,-121136667.36309,-228330380.16066,   0.00030,  -0.00119,  -0.00398,433319795.68957,   0.00117,275909966.16179,  -0.00031,  -0.00048,  -0.00101,-42590170.47222,   0.00000
84713120.11997,-118687891.42280,-228199078.50166,   0.00030,  -0.00119,  -0.00398,433061206.04455,   0.00117,275909966.16179,  -0.00031,  -0.00048,  -0.00101,-42848760.11724,   0.00000
87329305.67547,-116216137.69219,-228061211.75972,   0.00031,  -0.00118,  -0.00398,432801827.43460,   0.00117,275909966.16179,  -0.00031,  -0.00048,  -0.00101,-43108138.72720,   0.00000
89922513.44065,-113754231.58601,-227923345.01777,   0.00032,  -0.00117,  -0.00398,432553237.94673,   0.00117,275909966.16179,  -0.00031,  -0.00048,  -0.00101,-43356728.21506,   0.00000
92548546.62058,-111259500.06508,-227772348.10992,   0.00033,  -0.00117,  -0.00398,432297978.89372,   0.00117,275909966.16179,  -0.00031,  -0.00048,  -0.00101,-43611987.26807,   0.00000
95151602.01019,-108774616.16857,-227621351.20208,   0.00033,  -0.00116,  -0.00397,432053540.71387,   0.00117,275909966.16179,  -0.00031,  -0.00048,  -0.00101,-43856425.44793,   0.00000
97754657.39979,-106289732.27206,-227457224.12833,   0.00034,  -0.00116,  -0.00397,431803384.67605,   0.00117,275909966.16179,  -0.00031,  -0.00048,  -0.00101,-44106581.48575,   0.00000
100367560.41382,-103781870.58523,-227293097.05459,   0.00035,  -0.00115,  -0.00397,431563567.64376,   0.00117,275909966.16179,  -0.00031,  -0.00048,  -0.00101,-44346398.51803,   0.00000
102957485.63753,-101283856.52282,-227122404.89789,   0.00035,  -0.00114,  -0.00397,431323956.05160,   0.00117,275909966.16179,  -0.00031,  -0.00048,  -0.00101,-44586010.11019,   0.00000
105570388.65156,-98775994.83599,-226945147.65825,   0.00036,  -0.00114,  -0.00396,431093869.61198,   0.00117,275909966.16179,  -0.00031,  -0.00048,  -0.00101,-44816096.54981,   0.00000
108160313.87526,-96277980.77358,-226754760.25270,   0.00037,  -0.00113,  -0.00396,430853482.74206,   0.00117,275909966.16179,  -0.00031,  -0.00048,  -0.00101,-45056483.41974,   0.00000
110737108.93307,-93766836.54527,-226564372.84716,   0.00037,  -0.00112,  -0.00396,430618903.96761,   0.00117,275909966.16179,  -0.00031,  -0.00048,  -0.00101,-45291062.19419,   0.00000
113336881.78120,-91245844.69254,-226367420.35866,   0.00038,  -0.00112,  -0.00396,430394237.24998,   0.00117,275909966.16179,  -0.00031,  -0.00048,  -0.00101,-45515728.91182,   0.00000
115923524.46343,-88711722.67391,-226163902.78722,   0.00039,  -0.00111,  -0.00395,430165249.16503,   0.00117,275909966.16179,  -0.00031,  -0.00048,  -0.00101,-45744716.99676,   0.00000
118500319.52123,-86200578.44560,-225953820.13282,   0.00040,  -0.00111,  -0.00395,429945401.22853,   0.00117,275909966.16179,  -0.00031,  -0.00048,  -0.00101,-45964564.93327,   0.00000
121086962.20346,-83666456.42697,-225737172.39548,   0.00040,  -0.00110,  -0.00395,429726492.54741,   0.00117,275909966.16179,  -0.00031,  -0.00048,  -0.00101,-46183473.61438,   0.00000
123660474.71979,-81119204.24244,-225513959.57519,   0.00041,  -0.00109,  -0.00395,429503335.84292,   0.00117,275909966.16179,  -0.00031,  -0.00048,  -0.00101,-46406630.31887,   0.00000
126224139.61170,-78594929.84823,-225284181.67194,   0.00042,  -0.00109,  -0.00394,429289134.90943,   0.00117,275909966.16179,  -0.00031,  -0.00048,  -0.00101,-46620831.25236,   0.00000
128797652.12803,-76047677.66370,-225047838.68575,   0.00042,  -0.00108,  -0.00394,429076258.83517,   0.00117,275909966.16179,  -0.00031,  -0.00048,  -0.00101,-46833707.32662,   0.00000
131381012.26879,-73477447.68885,-224804930.61660,   0.00043,  -0.00107,  -0.00394,428865034.30396,   0.00117,275909966.16179,  -0.00031,  -0.00048,  -0.00101,-47044931.85784,   0.00000
133931546.99479,-70940043.12874,-224562022.54746,   0.00044,  -0.00107,  -0.00393,428667195.65585,   0.00117,275909966.16179,  -0.00031,  -0.00048,  -0.00101,-47242770.50594,   0.00000
136491929.34522,-68379660.77831,-224305984.31242,   0.00044,  -0.00106,  -0.00393,428460757.13795,   0.00117,275909966.16179,  -0.00031,  -0.00048,  -0.00101,-47449209.02384,   0.00000
139029333.90533,-65829126.05230,-224043380.99443,   0.00045,  -0.00105,  -0.00393,428253568.31185,   0.00117,275909966.16179,  -0.00031,  -0.00048,  -0.00101,-47656397.84995,   0.00000
141599563.88019,-63245765.91155,-223774212.59348,   0.00046,  -0.00105,  -0.00392,428054588.72980,   0.00117,275909966.16179,  -0.00031,  -0.00048,  -0.00101,-47855377.43199,   0.00000
144136968.44029,-60695231.18554,-223505044.19254,   0.00046,  -0.00104,  -0.00392,427868341.57275,   0.00117,275909966.16179,  -0.00031,  -0.00048,  -0.00101,-48041624.58904,   0.00000
146661242.83450,-58131566.29363,-223222745.62570,   0.00047,  -0.00103,  -0.00392,427667662.33148,   0.00117,275909966.16179,  -0.00031,  -0.00048,  -0.00101,-48242303.83031,   0.00000
149185517.22871,-55567901.40173,-222933881.97591,   0.00048,  -0.00103,  -0.00391,427472319.01897,   0.00117,275909966.16179,  -0.00031,  -0.00048,  -0.00101,-48437647.14282,   0.00000
151719639.24734,-52981258.71950,-222645018.32611,   0.00048,  -0.00102,  -0.00391,427289799.46278,   0.00117,275909966.16179,  -0.00031,  -0.00048,  -0.00101,-48620166.69901,   0.00000
154253761.26597,-50394616.03727,-222343024.51042,   0.00049,  -0.00101,  -0.00390,427102635.09708,   0.00117,275909966.16179,  -0.00031,  -0.00048,  -0.00101,-48807331.06471,   0.00000
156764905.49428,-47817820.97946,-222034465.61178,   0.00049,  -0.00101,  -0.00390,426914332.79192,   0.00117,275909966.16179,  -0.00031,  -0.00048,  -0.00101,-48995633.36988,   0.00000
159276049.72258,-45241025.92166,-221725906.71314,   0.00050,  -0.00100,  -0.00390,426741790.14852,   0.00117,275909966.16179,  -0.00031,  -0.00048,  -0.00101,-49168176.01327,   0.00000
161774063.78499,-42651100.69795,-221404217.64860,   0.00051,  -0.00099,  -0.00389,426555141.53135,   0.00117,275909966.16179,  -0.00031,  -0.00048,  -0.00101,-49354824.63045,   0.00000
164272077.84740,-40061175.47425,-221075963.50111,   0.00051,  -0.00098,  -0.00389,426374120.68590,   0.00117,275909966.16179,  -0.00031,  -0.00048,  -0.00101,-49535845.47590,   0.00000
166770091.90981,-37471250.25054,-220747709.35361,   0.00052,  -0.00098,  -0.00388,426208981.08065,   0.00117,275909966.16179,  -0.00031,  -0.00048,  -0.00101,-49700985.08114,   0.00000
169245128.18189,-34891172.65126,-220406325.04022,   0.00053,  -0.00097,  -0.00388,426032055.93391,   0.00117,275909966.16179,  -0.00031,  -0.00048,  -0.00101,-49877910.22789,   0.00000
171730012.07840,-32288117.26166,-220064940.72683,   0.00053,  -0.00096,  -0.00387,425868868.01385,   0.00117,275909966.16179,  -0.00031,  -0.00048,  -0.00101,-50041098.14795,   0.00000
174214895.97491,-29685061.87205,-219710426.24754,   0.00054,  -0.00096,  -0.00387,425701335.50363,   0.00117,275909966.16179,  -0.00031,  -0.00048,  -0.00101,-50208630.65817,   0.00000
176676802.08109,-27091854.10687,-219355911.76825,   0.00054,  -0.00095,  -0.00387,425542255.45960,   0.00117,275909966.16179,  -0.00031,  -0.00048,  -0.00101,-50367710.70220,   0.00000
179125578.02137,-24485516.17579,-218988267.12306,   0.00055,  -0.00094,  -0.00386,425369344.04669,   0.00117,275909966.16179,  -0.00031,  -0.00048,  -0.00101,-50540622.11510,   0.00000
181574353.96166,-21879178.24471,-218614057.39492,   0.00056,  -0.00094,  -0.00386,425202258.20692,   0.00117,275909966.16179,  -0.00031,  -0.00048,  -0.00101,-50707707.95488,   0.00000
184023129.90194,-19272840.31363,-218239847.66678,   0.00056,  -0.00093,  -0.00385,425051169.19982,   0.00117,275909966.16179,  -0.00031,  -0.00048,  -0.00101,-50858796.96197,   0.00000
186448928.05190,-16676350.00698,-217852507.77274,   0.00057,  -0.00092,  -0.00385,424887910.43344,   0.00117,275909966.16179,  -0.00031,  -0.00048,  -0.00101,-51022055.72835,   0.00000
188874726.20186,-14079859.70032,-217465167.87870,   0.00057,  -0.00091,  -0.00384,424740546.70399,   0.00117,275909966.16179,  -0.00031,  -0.00048,  -0.00101,-51169419.45780,   0.00000
191287394.18592,-11470239.22777,-217064697.81876,   0.00058,  -0.00091,  -0.00384,424579550.67620,   0.00117,275909966.16179,  -0.00031,  -0.00048,  -0.00101,-51330415.48559,   0.00000
193700062.16998,-8860618.75521,-216664227.75882,   0.00059,  -0.00090,  -0.00383,424434553.05160,   0.00117,275909966.16179,  -0.00031,  -0.00048,  -0.00101,-51475413.11019,   0.00000
196112730.15404,-6250998.28266,-216250627.53299,   0.00059,  -0.00089,  -0.00383,424285493.47418,   0.00117,275909966.16179,  -0.00031,  -0.00048,  -0.00101,-51624472.68761,   0.00000
198512267.97220,-3628247.64420,-215837027.30715,   0.00060,  -0.00089,  -0.00382,424143140.29041,   0.00117,275909966.16179,  -0.00031,  -0.00048,  -0.00101,-51766825.87139,   0.00000
200878980.37561,-1038322.42050,-215410296.91541,   0.00060,  -0.00088,  -0.00381,423989160.32238,   0.00117,275909966.16179,  -0.00031,  -0.00048,  -0.00101,-51920805.83941,   0.00000
203255540.40345,1574580.59353,-214977001.44072,   0.00061,  -0.00087,  -0.00381,423840282.68279,   0.00117,275909966.16179,  -0.00031,  -0.00048,  -0.00101,-52069683.47901,   0.00000
205632100.43129,4187483.60756,-214543705.96603,   0.00062,  -0.00086,  -0.00380,423707469.84909,   0.00117,275909966.16179,  -0.00031,  -0.00048,  -0.00101,-52202496.31270,   0.00000
207995530.29322,6813516.78749,-214097280.32544,   0.00062,  -0.00086,  -0.00380,423561471.24573,   0.00117,275909966.16179,  -0.00031,  -0.00048,  -0.00101,-52348494.91606,   0.00000
210326134.74041,9406724.55267,-213650854.68486,   0.00063,  -0.00085,  -0.00379,423423136.50606,   0.00117,275909966.16179,  -0.00031,  -0.00048,  -0.00101,-52486829.65574,   0.00000
212666586.81202,12022910.10817,-213191298.87837,   0.00063,  -0.00084,  -0.00379,423280457.86432,   0.00117,275909966.16179,  -0.00031,  -0.00048,  -0.00101,-52629508.29748,   0.00000
215007038.88363,14639095.66368,-212725177.98893,   0.00064,  -0.00083,  -0.00378,423143977.07168,   0.00117,275909966.16179,  -0.00031,  -0.00048,  -0.00101,-52765989.09011,   0.00000
217334360.78935,17268411.38508,-212259057.09949,   0.00064,  -0.00083,  -0.00377,423014332.17274,   0.00117,275909966.16179,  -0.00031,  -0.00048,  -0.00101,-52895633.98905,   0.00000
219628857.28031,19864901.69174,-211779806.04416,   0.00065,  -0.00082,  -0.00377,422871850.98471,   0.00117,275909966.16179,  -0.00031,  -0.00048,  -0.00101,-53038115.17708,   0.00000
221933201.39570,22484369.78872,-211300554.98882,   0.00065,  -0.00081,  -0.00376,422745358.59511,   0.00117,275909966.16179,  -0.00031,  -0.00048,  -0.00101,-53164607.56668,   0.00000
224214567.72076,25093990.26127,-210808173.76758,   0.00066,  -0.00080,  -0.00375,422605845.82834,   0.00117,275909966.16179,  -0.00031,  -0.00048,  -0.00101,-53304120.33345,   0.00000
226495934.04582,27703610.73383,-210309227.46340,   0.00066,  -0.00080,  -0.00375,422472551.13928,   0.00117,275909966.16179,  -0.00031,  -0.00048,  -0.00101,-53437415.02251,   0.00000
228754322.58056,30303383.58196,-209810281.15921,   0.00067,  -0.00079,  -0.00374,422345672.89477,   0.00117,275909966.16179,  -0.00031,  -0.00048,  -0.00101,-53564293.26702,   0.00000
231022558.73973,32926134.22041,-209298204.68912,   0.00068,  -0.00078,  -0.00374,422215689.71630,   0.00117,275909966.16179,  -0.00031,  -0.00048,  -0.00101,-53694276.44549,   0.00000
233257969.48414,35516059.44412,-208786128.21904,   0.00068,  -0.00078,  -0.00373,422091469.83370,   0.00117,275909966.16179,  -0.00031,  -0.00048,  -0.00101,-53818496.32809,   0.00000
235480250.06266,38119114.83372,-208260921.58305,   0.00069,  -0.00077,  -0.00372,421954441.57863,   0.00117,275909966.16179,  -0.00031,  -0.00048,  -0.00101,-53955524.58317,   0.00000
237702530.64117,40722170.22333,-207729149.86411,   0.00069,  -0.00076,  -0.00371,421823688.77937,   0.00117,275909966.16179,  -0.00031,  -0.00048,  -0.00101,-54086277.38243,   0.00000
239911681.05379,43338355.77883,-207197378.14518,   0.00070,  -0.00075,  -0.00371,421699787.20574,   0.00117,275909966.16179,  -0.00031,  -0.00048,  -0.00101,-54210178.95605,   0.00000
242110983.84198,45931563.54401,-206652476.26034,   0.00070,  -0.00074,  -0.00370,421571629.52585,   0.00117,275909966.16179,  -0.00031,  -0.00048,  -0.00101,-54338336.63594,   0.00000
244297156.46427,48537901.47509,-206101009.29256,   0.00070,  -0.00074,  -0.00369,421440666.42798,   0.00117,275909966.16179,  -0.00031,  -0.00048,  -0.00101,-54469299.73381,   0.00000
246483329.08656,51144239.40617,-205549542.32477,   0.00071,  -0.00073,  -0.00369,421325771.10755,   0.00117,275909966.16179,  -0.00031,  -0.00048,  -0.00101,-54584195.05425,   0.00000
248623546.12820,53730882.08840,-204984945.19109,   0.00071,  -0.00072,  -0.00368,421186889.87542,   0.00117,275909966.16179,  -0.00031,  -0.00048,  -0.00101,-54723076.28638,   0.00000
250786740.96017,56327372.39506,-204413782.97445,   0.00072,  -0.00071,  -0.00367,421064826.57939,   0.00117,275909966.16179,  -0.00031,  -0.00048,  -0.00101,-54845139.58241,   0.00000
252903980.21149,58904167.45286,-203842620.75782,   0.00072,  -0.00071,  -0.00366,420937605.66443,   0.00117,275909966.16179,  -0.00031,  -0.00048,  -0.00101,-54972360.49736,   0.00000
255031067.08723,61503940.30099,-203258328.37529,   0.00073,  -0.00070,  -0.00366,420808755.24270,   0.00117,275909966.16179,  -0.00031,  -0.00048,  -0.00101,-55101210.91909,   0.00000
257135176.17265,64093865.52470,-202667470.90980,   0.00073,  -0.00069,  -0.00365,420675702.07332,   0.00117,275909966.16179,  -0.00031,  -0.00048,  -0.00101,-55234264.08847,   0.00000
259239285.25807,66683790.74840,-202076613.44432,   0.00074,  -0.00068,  -0.00364,420558616.39152,   0.00117,275909966.16179,  -0.00031,  -0.00048,  -0.00101,-55351349.77028,   0.00000
261320416.55316,69263868.34768,-201472625.81293,   0.00074,  -0.00068,  -0.00363,420427684.02328,   0.00117,275909966.16179,  -0.00031,  -0.00048,  -0.00101,-55482282.13852,   0.00000
263378570.05793,71834098.32254,-200862073.09860,   0.00075,  -0.00067,  -0.00363,420292236.40032,   0.00117,275909966.16179,  -0.00031,  -0.00048,  -0.00101,-55617729.76147,   0.00000
265436723.56270,74404328.29739,-200251520.38427,   0.00075,  -0.00066,  -0.00362,420172620.96854,   0.00117,275909966.16179,  -0.00031,  -0.00048,  -0.00101,-55737345.19325,   0.00000
267481746.90157,76987688.43815,-199627837.50403,   0.00075,  -0.00065,  -0.00361,420041198.24468,   0.00117,275909966.16179,  -0.00031,  -0.00048,  -0.00101,-55868767.91712,   0.00000
269503792.45011,79561200.95448,-199004154.62380,   0.00076,  -0.00065,  -0.00360,419914508.11540,   0.00117,275909966.16179,  -0.00031,  -0.00048,  -0.00101,-55995458.04640,   0.00000
271493012.58391,82101888.05606,-198367341.57767,   0.00076,  -0.00064,  -0.00359,419771239.59469,   0.00117,275909966.16179,  -0.00031,  -0.00048,  -0.00101,-56138726.56710,   0.00000
273492080.34213,84665552.94797,-197723963.44858,   0.00077,  -0.00063,  -0.00358,419636882.10433,   0.00117,275909966.16179,  -0.00031,  -0.00048,  -0.00101,-56273084.05746,   0.00000
275478017.93445,87242348.00577,-197080585.31950,   0.00077,  -0.00062,  -0.00358,419509580.19062,   0.00117,275909966.16179,  -0.00031,  -0.00048,  -0.00101,-56400385.97118,   0.00000
277454107.90235,89796165.27325,-196424077.02452,   0.00078,  -0.00061,  -0.00357,419377005.17021,   0.00117,275909966.16179,  -0.00031,  -0.00048,  -0.00101,-56532960.99159,   0.00000
279407220.07992,92340134.91631,-195767568.72954,   0.00078,  -0.00061,  -0.00356,419248634.64203,   0.00117,275909966.16179,  -0.00031,  -0.00048,  -0.00101,-56661331.51977,   0.00000
281347202.09159,94897234.72527,-195097930.26866,   0.00078,  -0.00060,  -0.00355,419108898.72732,   0.00117,275909966.16179,  -0.00031,  -0.00048,  -0.00101,-56801067.43447,   0.00000
283264206.31294,97444486.90980,-194428291.80777,   0.00079,  -0.00059,  -0.00354,418973251.32878,   0.00117,275909966.16179,  -0.00031,  -0.00048,  -0.00101,-56936714.83302,   0.00000
285148385.11954,99958913.67958,-193745523.18099,   0.00079,  -0.00058,  -0.00353,418820064.47194,   0.00117,275909966.16179,  -0.00031,  -0.00048,  -0.00101,-57089901.68986,   0.00000
287042411.55057,102496318.23969,-193062754.55421,   0.00079,  -0.00058,  -0.00352,418685720.44800,   0.00117,275909966.16179,  -0.00031,  -0.00048,  -0.00101,-57224245.71380,   0.00000
288913460.19127,105023875.17537,-192366855.76153,   0.00080,  -0.00057,  -0.00351,418536990.29316,   0.00117,275909966.16179,  -0.00031,  -0.00048,  -0.00101,-57372975.86863,   0.00000
290771378.66607,107564562.27695,-191670956.96885,   0.00080,  -0.00056,  -0.00351,418395388.21117,   0.00117,275909966.16179,  -0.00031,  -0.00048,  -0.00101,-57514577.95062,   0.00000
292619449.51644,110082271.58821,-190961928.01027,   0.00080,  -0.00055,  -0.00350,418248023.17269,   0.00117,275909966.16179,  -0.00031,  -0.00048,  -0.00101,-57661942.98911,   0.00000
294421564.78617,112580285.65061,-190252899.05169,   0.00081,  -0.00054,  -0.00349,418091869.63596,   0.00117,275909966.16179,  -0.00031,  -0.00048,  -0.00101,-57818096.52583,   0.00000
296233527.68032,115101277.50335,-189537305.01015,   0.00081,  -0.00054,  -0.00348,417946072.47950,   0.00117,275909966.16179,  -0.00031,  -0.00048,  -0.00101,-57963893.68230,   0.00000
298012665.15972,117589443.94133,-188808580.80272,   0.00081,  -0.00053,  -0.00347,417781908.28786,   0.00117,275909966.16179,  -0.00031,  -0.00048,  -0.00101,-58128057.87394,   0.00000
299801650.26355,120100588.16964,-188079856.59529,   0.00082,  -0.00052,  -0.00346,417637311.09574,   0.00117,275909966.16179,  -0.00031,  -0.00048,  -0.00101,-58272655.06606,   0.00000
301544679.78673,122592037.14910,-187344567.30491,   0.00082,  -0.00051,  -0.00345,417474532.86340,   0.00117,275909966.16179,  -0.00031,  -0.00048,  -0.00101,-58435433.29839,   0.00000
303287709.30990,125083486.12855,-186602712.93158,   0.00082,  -0.00050,  -0.00344,417318519.31154,   0.00117,275909966.16179,  -0.00031,  -0.00048,  -0.00101,-58591446.85025,   0.00000
305007761.04276,127565087.48359,-185847728.39235,   0.00083,  -0.00050,  -0.00343,417147909.69896,   0.00117,275909966.16179,  -0.00031,  -0.00048,  -0.00101,-58762056.46283,   0.00000
306704834.98529,130036841.21419,-185092743.85312,   0.00083,  -0.00049,  -0.00342,416980190.69369,   0.00117,275909966.16179,  -0.00031,  -0.00048,  -0.00101,-58929775.46810,   0.00000
308378931.13749,132498747.32038,-184331194.23095,   0.00083,  -0.00048,  -0.00341,416806464.24339,   0.00117,275909966.16179,  -0.00031,  -0.00048,  -0.00101,-59103501.91840,   0.00000
310062874.91412,134983631.21689,-183563079.52582,   0.00084,  -0.00047,  -0.00340,416644172.92224,   0.00117,275909966.16179,  -0.00031,  -0.00048,  -0.00101,-59265793.23956,   0.00000
311691015.48568,137425842.07422,-182788399.73774,   0.00084,  -0.00046,  -0.00339,416458339.05718,   0.00117,275909966.16179,  -0.00031,  -0.00048,  -0.00101,-59451627.10462,   0.00000
313329003.68166,139891030.72188,-182007154.86671,   0.00084,  -0.00046,  -0.00338,416284110.92967,   0.00117,275909966.16179,  -0.00031,  -0.00048,  -0.00101,-59625855.23213,   0.00000
314934166.46289,142323393.95479,-181225909.99568,   0.00084,  -0.00045,  -0.00337,416107521.67012,   0.00117,275909966.16179,  -0.00031,  -0.00048,  -0.00101,-59802444.49167,   0.00000
316526199.07822,144768887.35360,-180431534.95875,   0.00085,  -0.00044,  -0.00336,415921069.69039,   0.00117,275909966.16179,  -0.00031,  -0.00048,  -0.00101,-59988896.47140,   0.00000
318095253.90323,147204533.12798,-179630594.83887,   0.00085,  -0.00043,  -0.00335,415728461.37189,   0.00117,275909966.16179,  -0.00031,  -0.00048,  -0.00101,-60181504.78991,   0.00000
319631483.31349,149607353.48762,-178823089.63604,   0.00085,  -0.00042,  -0.00334,415524388.20584,   0.00117,275909966.16179,  -0.00031,  -0.00048,  -0.00101,-60385577.95595,   0.00000
321177560.34817,152033151.63758,-178015584.43322,   0.00085,  -0.00042,  -0.00333,415340959.49756,   0.00117,275909966.16179,  -0.00031,  -0.00048,  -0.00101,-60569006.66423,   0.00000
322677681.80221,154439254.53869,-177194949.06449,   0.00086,  -0.00041,  -0.00332,415129400.26431,   0.00117,275909966.16179,  -0.00031,  -0.00048,  -0.00101,-60780565.89748,   0.00000
324177803.25624,156845357.43980,-176374313.69576,   0.00086,  -0.00040,  -0.00331,414933279.50845,   0.00117,275909966.16179,  -0.00031,  -0.00048,  -0.00101,-60976686.65334,   0.00000
325654946.91995,159241612.71648,-175540548.16113,   0.00086,  -0.00039,  -0.00330,414722399.78506,   0.00117,275909966.16179,  -0.00031,  -0.00048,  -0.00101,-61187566.37673,   0.00000
327109112.79334,161628020.36874,-174706782.62650,   0.00086,  -0.00038,  -0.00329,414513413.51338,   0.00117,275909966.16179,  -0.00031,  -0.00048,  -0.00101,-61396552.64841,   0.00000
328540300.87640,164004580.39658,-173866452.00893,   0.00086,  -0.00038,  -0.00327,414297896.33177,   0.00117,275909966.16179,  -0.00031,  -0.00048,  -0.00101,-61612069.83002,   0.00000
329948511.16913,166371292.79999,-173019556.30840,   0.00086,  -0.00037,  -0.00326,414075799.00967,   0.00117,275909966.16179,  -0.00031,  -0.00048,  -0.00101,-61834167.15213,   0.00000
331333743.67155,168728157.57898,-172166095.52492,   0.00087,  -0.00036,  -0.00325,413847075.72586,   0.00117,275909966.16179,  -0.00031,  -0.00048,  -0.00101,-62062890.43594,   0.00000
332705846.00806,171098152.52386,-171306069.65850,   0.00087,  -0.00035,  -0.00324,413617831.68122,   0.00117,275909966.16179,  -0.00031,  -0.00048,  -0.00101,-62292134.48057,   0.00000
334045122.92982,173435322.05400,-170439478.70912,   0.00087,  -0.00034,  -0.00323,413375833.01541,   0.00117,275909966.16179,  -0.00031,  -0.00048,  -0.00101,-62534133.14638,   0.00000
335361422.06126,175762643.95971,-169566322.67679,   0.00087,  -0.00034,  -0.00322,413127091.28484,   0.00117,275909966.16179,  -0.00031,  -0.00048,  -0.00101,-62782874.87695,   0.00000
336687568.81713,178112943.65575,-168686601.56152,   0.00087,  -0.00033,  -0.00321,412892037.17014,   0.00117,275909966.16179,  -0.00031,  -0.00048,  -0.00101,-63017928.99165,   0.00000
337957912.36792,180420570.31261,-167806880.44624,   0.00087,  -0.00032,  -0.00320,412637880.96614,   0.00117,275909966.16179,  -0.00031,  -0.00048,  -0.00101,-63272085.19565,   0.00000
339205278.12839,182718349.34505,-166914029.16506,   0.00088,  -0.00031,  -0.00318,412368847.98095,   0.00117,275909966.16179,  -0.00031,  -0.00048,  -0.00101,-63541118.18084,   0.00000
340462491.51328,185039106.16781,-166021177.88389,   0.00088,  -0.00030,  -0.00317,412121824.63853,   0.00117,275909966.16179,  -0.00031,  -0.00048,  -0.00101,-63788141.52327,   0.00000
341663901.69309,187317189.95140,-165121761.51976,   0.00088,  -0.00030,  -0.00316,411847080.57800,   0.00117,275909966.16179,  -0.00031,  -0.00048,  -0.00101,-64062885.58379,   0.00000
342865311.87291,189595273.73499,-164215780.07269,   0.00088,  -0.00029,  -0.00315,411579657.56852,   0.00117,275909966.16179,  -0.00031,  -0.00048,  -0.00101,-64330308.59327,   0.00000
344030614.09651,191876640.06005,-163303233.54266,   0.00088,  -0.00028,  -0.00314,411298077.28968,   0.00117,275909966.16179,  -0.00031,  -0.00048,  -0.00101,-64611888.87211,   0.00000
345186068.69567,194135028.59479,-162384121.92969,   0.00088,  -0.00027,  -0.00313,411016950.01173,   0.00117,275909966.16179,  -0.00031,  -0.00048,  -0.00101,-64893016.15007,   0.00000
346305415.33862,196396699.67101,-161458445.23376,   0.00088,  -0.00026,  -0.00311,410721745.58419,   0.00117,275909966.16179,  -0.00031,  -0.00048,  -0.00101,-65188220.57760,   0.00000
347414914.35714,198635392.95690,-160526203.45489,   0.00088,  -0.00026,  -0.00310,410426887.52983,   0.00117,275909966.16179,  -0.00031,  -0.00048,  -0.00101,-65483078.63197,   0.00000
348511283.20976,200887216.40869,-159593961.67601,   0.00088,  -0.00025,  -0.00309,410140249.76860,   0.00117,275909966.16179,  -0.00031,  -0.00048,  -0.00101,-65769716.39320,   0.00000
349551848.85731,203096366.82130,-158655154.81419,   0.00088,  -0.00024,  -0.00308,409824710.31446,   0.00117,275909966.16179,  -0.00031,  -0.00048,  -0.00101,-66085255.84734,   0.00000
350569436.71453,205295669.60949,-157703217.78646,   0.00088,  -0.00023,  -0.00306,409494529.10196,   0.00117,275909966.16179,  -0.00031,  -0.00048,  -0.00101,-66415437.05984,   0.00000
351596872.19618,207517950.18801,-156751280.75874,   0.00088,  -0.00022,  -0.00305,409187353.22125,   0.00117,275909966.16179,  -0.00031,  -0.00048,  -0.00101,-66722612.94054,   0.00000
352568504.47275,209697557.72735,-155792778.64806,   0.00088,  -0.00022,  -0.00304,408850866.91861,   0.00117,275909966.16179,  -0.00031,  -0.00048,  -0.00101,-67059099.24318,   0.00000
353540136.74932,211877165.26669,-154834276.53739,   0.00088,  -0.00021,  -0.00303,408529606.08052,   0.00117,275909966.16179,  -0.00031,  -0.00048,  -0.00101,-67380360.08127,   0.00000
354475661.06967,214060055.34751,-153862644.26082,   0.00088,  -0.00020,  -0.00301,408187165.22575,   0.00117,275909966.16179,  -0.00031,  -0.00048,  -0.00101,-67722800.93605,   0.00000
355378359.97527,216210120.01357,-152891011.98424,   0.00088,  -0.00019,  -0.00300,407837199.76385,   0.00117,275909966.16179,  -0.00031,  -0.00048,  -0.00101,-68072766.39795,   0.00000
356281058.88088,218360184.67964,-151912814.62472,   0.00088,  -0.00018,  -0.00299,407495122.78938,   0.00117,275909966.16179,  -0.00031,  -0.00048,  -0.00101,-68414843.37242,   0.00000
357137802.20583,220490554.09686,-150928052.18225,   0.00088,  -0.00017,  -0.00298,407131198.90231,   0.00117,275909966.16179,  -0.00031,  -0.00048,  -0.00101,-68778767.25949,   0.00000
357981415.36488,222634053.67997,-149936724.65682,   0.00088,  -0.00017,  -0.00296,406768762.52029,   0.00117,275909966.16179,  -0.00031,  -0.00048,  -0.00101,-69141203.64150,   0.00000
358792203.10918,224744727.84834,-148938832.04845,   0.00088,  -0.00016,  -0.00295,406391078.57033,   0.00117,275909966.16179,  -0.00031,  -0.00048,  -0.00101,-69518887.59147,   0.00000
359580013.06316,226845554.39229,-147934374.35713,   0.00088,  -0.00015,  -0.00294,406006528.61703,   0.00117,275909966.16179,  -0.00031,  -0.00048,  -0.00101,-69903437.54476,   0.00000
360344845.22682,228936533.31180,-146929916.66580,   0.00088,  -0.00014,  -0.00292,405622293.93565,   0.00117,275909966.16179,  -0.00031,  -0.00048,  -0.00101,-70287672.22614,   0.00000
361063721.80982,231007816.98247,-145918893.89153,   0.00088,  -0.00013,  -0.00291,405216055.12479,   0.00117,275909966.16179,  -0.00031,  -0.00048,  -0.00101,-70693911.03700,   0.00000
361782598.39283,233079100.65314,-144901306.03431,   0.00088,  -0.00013,  -0.00290,404818130.11170,   0.00117,275909966.16179,  -0.00031,  -0.00048,  -0.00101,-71091836.05010,   0.00000
362455519.39518,235130689.07496,-143877153.09414,   0.00088,  -0.00012,  -0.00288,404398236.88773,   0.00117,275909966.16179,  -0.00031,  -0.00048,  -0.00101,-71511729.27406,   0.00000
363118592.77312,237159299.70646,-142853000.15396,   0.00088,  -0.00011,  -0.00287,403984694.81069,   0.00117,275909966.16179,  -0.00031,  -0.00048,  -0.00101,-71925271.35111,   0.00000
363745558.19482,239191192.87943,-141822282.13084,   0.00088,  -0.00010,  -0.00286,403558177.98024,   0.00117,275909966.16179,  -0.00031,  -0.00048,  -0.00101,-72351788.18155,   0.00000
364349545.82621,241213238.42797,-140784999.02477,   0.00088,  -0.00009,  -0.00284,403124958.19458,   0.00117,275909966.16179,  -0.00031,  -0.00048,  -0.00101,-72785007.96721,   0.00000
364943685.83317,243212306.18619,-139741150.83575,   0.00087,  -0.00009,  -0.00283,402691062.67836,   0.00117,275909966.16179,  -0.00031,  -0.00048,  -0.00101,-73218903.48343,   0.00000
365478740.09358,245204808.86147,-138690737.56378,   0.00087,  -0.00008,  -0.00282,402229194.86227,   0.00117,275909966.16179,  -0.00031,  -0.00048,  -0.00101,-73680771.29952,   0.00000
366003946.72956,247174333.74641,-137640324.29180,   0.00087,  -0.00007,  -0.00280,401773363.00036,   0.00117,275909966.16179,  -0.00031,  -0.00048,  -0.00101,-74136603.16143,   0.00000
366516023.19965,249156988.79726,-136583345.93688,   0.00087,  -0.00006,  -0.00279,401320573.61189,   0.00117,275909966.16179,  -0.00031,  -0.00048,  -0.00101,-74589392.54991,   0.00000
366972296.46466,251096970.80893,-135519802.49901,   0.00087,  -0.00005,  -0.00278,400836093.33119,   0.00117,275909966.16179,  -0.00031,  -0.00048,  -0.00101,-75073872.83061,   0.00000
367428569.72967,253036952.82060,-134449693.97819,   0.00087,  -0.00005,  -0.00276,400360597.85547,   0.00117,275909966.16179,  -0.00031,  -0.00048,  -0.00101,-75549368.30633,   0.00000
367838887.41404,254957239.58343,-133379585.45737,   0.00086,  -0.00004,  -0.00275,399869722.80208,   0.00117,275909966.16179,  -0.00031,  -0.00048,  -0.00101,-76040243.35971,   0.00000
368226227.30808,256867678.72183,-132302911.85360,   0.00086,  -0.00003,  -0.00273,399372412.73175,   0.00117,275909966.16179,  -0.00031,  -0.00048,  -0.00101,-76537553.43004,   0.00000
368590589.41179,258768270.23580,-131219673.16688,   0.00086,  -0.00002,  -0.00272,398868774.05300,   0.00117,275909966.16179,  -0.00031,  -0.00048,  -0.00101,-77041192.10879,   0.00000
368931973.72518,260659014.12535,-130129869.39721,   0.00086,  -0.00002,  -0.00271,398358917.38360,   0.00117,275909966.16179,  -0.00031,  -0.00048,  -0.00101,-77551048.77819,   0.00000
369217554.83350,262507084.97572,-129040065.62754,   0.00086,  -0.00001,  -0.00269,397823282.41312,   0.00117,275909966.16179,  -0.00031,  -0.00048,  -0.00101,-78086683.74867,   0.00000
369490005.77592,264368285.99200,-127943696.77491,   0.00085,   0.00000,  -0.00268,397291812.30146,   0.00117,275909966.16179,  -0.00031,  -0.00048,  -0.00101,-78618153.86034,   0.00000
369729631.30359,266196661.59352,-126840762.83934,   0.00085,   0.00001,  -0.00266,396743754.47536,   0.00117,275909966.16179,  -0.00031,  -0.00048,  -0.00101,-79166211.68643,   0.00000
369946279.04093,268015189.57063,-125731263.82082,   0.00085,   0.00002,  -0.00265,396189627.84840,   0.00117,275909966.16179,  -0.00031,  -0.00048,  -0.00101,-79720338.31340,   0.00000
370149796.61238,269846847.71363,-124621764.80230,   0.00085,   0.00002,  -0.00263,395646546.98708,   0.00117,275909966.16179,  -0.00031,  -0.00048,  -0.00101,-80263419.17472,   0.00000
370320488.76907,271645680.44188,-123505700.70083,   0.00084,   0.00003,  -0.00262,395086893.31394,   0.00117,275909966.16179,  -0.00031,  -0.00048,  -0.00101,-80823072.84785,   0.00000
370445225.34512,273424817.92128,-122389636.59936,   0.00084,   0.00004,  -0.00261,394511783.33132,   0.00117,275909966.16179,  -0.00031,  -0.00048,  -0.00101,-81398182.83047,   0.00000
370537136.50642,275171129.98593,-121260442.33200,   0.00084,   0.00005,  -0.00259,393913800.69444,   0.00117,275909966.16179,  -0.00031,  -0.00048,  -0.00101,-81996165.46735,   0.00000
370615917.50181,276930572.21649,-120137813.14758,   0.00083,   0.00006,  -0.00258,393333324.89276,   0.00117,275909966.16179,  -0.00031,  -0.00048,  -0.00101,-82576641.26904,   0.00000
370638895.29214,278647341.40786,-119002053.79726,   0.00083,   0.00006,  -0.00256,392714215.69055,   0.00117,275909966.16179,  -0.00031,  -0.00048,  -0.00101,-83195750.47125,   0.00000
370671720.70689,280387088.38957,-117866294.44694,   0.00083,   0.00007,  -0.00255,392122773.43963,   0.00117,275909966.16179,  -0.00031,  -0.00048,  -0.00101,-83787192.72217,   0.00000
370648742.91656,282084162.33210,-116723970.01367,   0.00082,   0.00008,  -0.00253,391498761.97304,   0.00117,275909966.16179,  -0.00031,  -0.00048,  -0.00101,-84411204.18876,   0.00000
370602787.33591,283771388.65020,-115575080.49745,   0.00082,   0.00009,  -0.00252,390869488.56829,   0.00117,275909966.16179,  -0.00031,  -0.00048,  -0.00101,-85040477.59350,   0.00000
370533853.96494,285448767.34388,-114426190.98123,   0.00082,   0.00009,  -0.00250,390240904.29657,   0.00117,275909966.16179,  -0.00031,  -0.00048,  -0.00101,-85669061.86523,   0.00000
370418965.01332,287106450.78871,-113270736.38206,   0.00081,   0.00010,  -0.00249,389591360.96406,   0.00117,275909966.16179,  -0.00031,  -0.00048,  -0.00101,-86318605.19773,   0.00000
370271250.64695,288731308.81879,-112108716.69994,   0.00081,   0.00011,  -0.00247,388925131.62680,   0.00117,275909966.16179,  -0.00031,  -0.00048,  -0.00101,-86984834.53499,   0.00000
370110406.11468,290369297.01477,-110946697.01782,   0.00081,   0.00012,  -0.00246,388271620.98117,   0.00117,275909966.16179,  -0.00031,  -0.00048,  -0.00101,-87638345.18062,   0.00000
369916736.16766,291974459.79601,-109778112.25275,   0.00080,   0.00013,  -0.00244,387601521.47197,   0.00117,275909966.16179,  -0.00031,  -0.00048,  -0.00101,-88308444.68983,   0.00000
369677110.63999,293559927.32839,-108609527.48769,   0.00080,   0.00013,  -0.00243,386916398.86806,   0.00117,275909966.16179,  -0.00031,  -0.00048,  -0.00101,-88993567.29373,   0.00000
369414507.32200,295135547.23635,-107434377.63967,   0.00079,   0.00014,  -0.00241,386226815.72283,   0.00117,275909966.16179,  -0.00031,  -0.00048,  -0.00101,-89683150.43897,   0.00000
369128926.21368,296701319.51988,-106252662.70870,   0.00079,   0.00015,  -0.00240,385532985.21659,   0.00117,275909966.16179,  -0.00031,  -0.00048,  -0.00101,-90376980.94521,   0.00000
368787541.90029,298224418.76424,-105070947.77773,   0.00078,   0.00016,  -0.00238,384812053.96680,   0.00117,275909966.16179,  -0.00031,  -0.00048,  -0.00101,-91097912.19499,   0.00000
368433027.42100,299760648.17450,-103882667.76381,   0.00078,   0.00016,  -0.00236,384099524.55733,   0.00117,275909966.16179,  -0.00031,  -0.00048,  -0.00101,-91810441.60447,   0.00000
368045687.52696,301264052.17000,-102687822.66695,   0.00078,   0.00017,  -0.00235,383370693.71726,   0.00117,275909966.16179,  -0.00031,  -0.00048,  -0.00101,-92539272.44454,   0.00000
367635369.84259,302757608.54109,-101492977.57008,   0.00077,   0.00018,  -0.00233,382643440.80133,   0.00117,275909966.16179,  -0.00031,  -0.00048,  -0.00101,-93266525.36047,   0.00000
367169248.95316,304208491.87300,-100291567.39026,   0.00077,   0.00019,  -0.00232,381883825.11842,   0.00117,275909966.16179,  -0.00031,  -0.00048,  -0.00101,-94026141.04338,   0.00000
366689997.89782,305672505.37081,-99090157.21044,   0.00076,   0.00019,  -0.00230,381138770.67821,   0.00117,275909966.16179,  -0.00031,  -0.00048,  -0.00101,-94771195.48358,   0.00000
366177921.42773,307103693.45387,-97882181.94768,   0.00076,   0.00020,  -0.00229,380377603.40343,   0.00117,275909966.16179,  -0.00031,  -0.00048,  -0.00101,-95532362.75836,   0.00000
365629737.00142,308538164.07841,-96674206.68491,   0.00075,   0.00021,  -0.00227,379615439.88645,   0.00117,275909966.16179,  -0.00031,  -0.00048,  -0.00101,-96294526.27534,   0.00000
365038879.53594,309916831.49787,-95459666.33919,   0.00074,   0.00022,  -0.00226,378824203.01769,   0.00117,275909966.16179,  -0.00031,  -0.00048,  -0.00101,-97085763.14410,   0.00000
364434891.90456,311308629.08323,-94245125.99347,   0.00074,   0.00022,  -0.00224,378048353.66768,   0.00117,275909966.16179,  -0.00031,  -0.00048,  -0.00101,-97861612.49412,   0.00000
363784948.69252,312680731.41975,-93017455.48186,   0.00073,   0.00023,  -0.00222,377249156.30481,   0.00117,275909966.16179,  -0.00031,  -0.00048,  -0.00101,-98660809.85698,   0.00000
363102180.06574,314020008.34151,-91796350.05319,   0.00073,   0.00024,  -0.00221,376444044.77093,   0.00117,275909966.16179,  -0.00031,  -0.00048,  -0.00101,-99465921.39087,   0.00000
362396433.64864,315349437.63885,-90568679.54157,   0.00072,   0.00025,  -0.00219,375636777.39098,   0.00117,275909966.16179,  -0.00031,  -0.00048,  -0.00101,-100273188.77082,   0.00000
361644731.65088,316659171.68734,-89334443.94701,   0.00072,   0.00025,  -0.00218,374811619.88505,   0.00117,275909966.16179,  -0.00031,  -0.00048,  -0.00101,-101098346.27675,   0.00000
360870051.86280,317959058.11140,-88100208.35244,   0.00071,   0.00026,  -0.00216,373989565.77807,   0.00117,275909966.16179,  -0.00031,  -0.00048,  -0.00101,-101920400.38372,   0.00000
360062546.65997,319226119.12072,-86859407.67492,   0.00070,   0.00027,  -0.00214,373152319.20768,   0.00117,275909966.16179,  -0.00031,  -0.00048,  -0.00101,-102757646.95411,   0.00000
359209085.87650,320473484.88119,-85618606.99741,   0.00070,   0.00028,  -0.00213,372302393.12798,   0.00117,275909966.16179,  -0.00031,  -0.00048,  -0.00101,-103607573.03381,   0.00000
358332647.30269,321711003.01723,-84371241.23694,   0.00069,   0.00028,  -0.00211,371451503.22933,   0.00117,275909966.16179,  -0.00031,  -0.00048,  -0.00101,-104458462.93247,   0.00000
357433230.93857,322938673.52885,-83123875.47647,   0.00068,   0.00029,  -0.00209,370604403.62738,   0.00117,275909966.16179,  -0.00031,  -0.00048,  -0.00101,-105305562.53441,   0.00000
356478011.36937,324123671.00129,-81876509.71601,   0.00068,   0.00030,  -0.00208,369731055.69692,   0.00117,275909966.16179,  -0.00031,  -0.00048,  -0.00101,-106178910.46487,   0.00000
355499814.00985,325298820.84931,-80616013.78964,   0.00067,   0.00031,  -0.00206,368853080.96236,   0.00117,275909966.16179,  -0.00031,  -0.00048,  -0.00101,-107056885.19943,   0.00000
354475661.06967,326454275.44848,-79362082.94622,   0.00066,   0.00031,  -0.00205,367967816.22778,   0.00117,275909966.16179,  -0.00031,  -0.00048,  -0.00101,-107942149.93401,   0.00000
353428530.33918,327599882.42322,-78101587.01986,   0.00066,   0.00032,  -0.00203,367082875.82282,   0.00117,275909966.16179,  -0.00031,  -0.00048,  -0.00101,-108827090.33897,   0.00000
352348574.19393,328712663.98322,-76834526.01054,   0.00065,   0.00033,  -0.00201,366184008.23528,   0.00117,275909966.16179,  -0.00031,  -0.00048,  -0.00101,-109725957.92651,   0.00000
351222662.46804,329805750.29436,-75567465.00123,   0.00064,   0.00033,  -0.00200,365274230.05578,   0.00117,275909966.16179,  -0.00031,  -0.00048,  -0.00101,-110635736.10601,   0.00000
350073772.95182,330888988.98108,-74300403.99191,   0.00064,   0.00034,  -0.00198,364369678.81110,   0.00117,275909966.16179,  -0.00031,  -0.00048,  -0.00101,-111540287.35069,   0.00000
348901905.64527,331962380.04338,-73026777.89964,   0.00063,   0.00035,  -0.00196,363466622.12438,   0.00117,275909966.16179,  -0.00031,  -0.00048,  -0.00101,-112443344.03742,   0.00000
347674235.13366,332993098.06650,-71746586.72443,   0.00062,   0.00036,  -0.00195,362534652.93743,   0.00117,275909966.16179,  -0.00031,  -0.00048,  -0.00101,-113375313.22437,   0.00000
346423586.83172,334013968.46520,-70472960.63216,   0.00061,   0.00036,  -0.00193,361612541.50873,   0.00117,275909966.16179,  -0.00031,  -0.00048,  -0.00101,-114297424.65307,   0.00000
345126982.94913,335015143.61505,-69186204.37400,   0.00061,   0.00037,  -0.00191,360673269.98253,   0.00117,275909966.16179,  -0.00031,  -0.00048,  -0.00101,-115236696.17927,   0.00000
343797553.65179,335983493.35014,-67906013.19878,   0.00060,   0.00038,  -0.00190,359729123.79347,   0.00117,275909966.16179,  -0.00031,  -0.00048,  -0.00101,-116180842.36832,   0.00000
342432016.39822,336955125.62672,-66619256.94062,   0.00059,   0.00038,  -0.00188,358787674.84761,   0.00117,275909966.16179,  -0.00031,  -0.00048,  -0.00101,-117122291.31418,   0.00000
341033653.72991,337893932.48854,-65325935.59950,   0.00058,   0.00039,  -0.00186,357834450.27702,   0.00117,275909966.16179,  -0.00031,  -0.00048,  -0.00101,-118075515.88477,   0.00000
339602465.64685,338799913.93562,-64032614.25839,   0.00057,   0.00040,  -0.00185,356873166.95013,   0.00117,275909966.16179,  -0.00031,  -0.00048,  -0.00101,-119036799.21166,   0.00000
338125321.98314,339686200.13384,-62739292.91727,   0.00056,   0.00040,  -0.00183,355903917.87864,   0.00117,275909966.16179,  -0.00031,  -0.00048,  -0.00101,-120006048.28316,   0.00000
336625200.52911,340562638.70765,-61445971.57616,   0.00056,   0.00041,  -0.00181,354942660.49026,   0.00117,275909966.16179,  -0.00031,  -0.00048,  -0.00101,-120967305.67153,   0.00000
335079123.49442,341419382.03260,-60146085.15209,   0.00055,   0.00042,  -0.00180,353970847.43124,   0.00117,275909966.16179,  -0.00031,  -0.00048,  -0.00101,-121939118.73056,   0.00000
333510068.66941,342266277.73312,-58839633.64508,   0.00054,   0.00043,  -0.00178,353004572.84521,   0.00117,275909966.16179,  -0.00031,  -0.00048,  -0.00101,-122905393.31659,   0.00000
331885210.63933,343070500.39448,-57539747.22101,   0.00053,   0.00043,  -0.00176,352019322.65892,   0.00117,275909966.16179,  -0.00031,  -0.00048,  -0.00101,-123890643.50288,   0.00000
330237374.81893,343864875.43141,-56233295.71400,   0.00052,   0.00044,  -0.00175,351040301.34505,   0.00117,275909966.16179,  -0.00031,  -0.00048,  -0.00101,-124869664.81675,   0.00000
328556713.58377,344626425.05359,-54920279.12403,   0.00051,   0.00045,  -0.00173,350051813.92708,   0.00117,275909966.16179,  -0.00031,  -0.00048,  -0.00101,-125858152.23471,   0.00000
326830096.76797,345368279.42692,-53613827.61702,   0.00050,   0.00045,  -0.00171,349061226.63112,   0.00117,275909966.16179,  -0.00031,  -0.00048,  -0.00101,-126848739.53067,   0.00000
325080502.16184,346100286.17582,-52294245.94410,   0.00049,   0.00046,  -0.00169,348075208.28834,   0.00117,275909966.16179,  -0.00031,  -0.00048,  -0.00101,-127834757.87345,   0.00000
323284951.97506,346812597.67588,-50981229.35414,   0.00048,   0.00047,  -0.00168,347088031.10392,   0.00117,275909966.16179,  -0.00031,  -0.00048,  -0.00101,-128821935.05788,   0.00000
321456576.37354,347492083.76118,-49661647.68122,   0.00047,   0.00047,  -0.00166,346092907.98708,   0.00117,275909966.16179,  -0.00031,  -0.00048,  -0.00101,-129817058.17472,   0.00000
319582245.19136,348151874.59764,-48342066.00831,   0.00046,   0.00048,  -0.00164,345094548.65843,   0.00117,275909966.16179,  -0.00031,  -0.00048,  -0.00101,-130815417.50337,   0.00000
317675088.59444,348778840.01935,-47022484.33540,   0.00045,   0.00049,  -0.00163,344091752.81447,   0.00117,275909966.16179,  -0.00031,  -0.00048,  -0.00101,-131818213.34733,   0.00000
315721976.41687,349386110.19221,-45702902.66248,   0.00044,   0.00049,  -0.00161,343086597.05774,   0.00117,275909966.16179,  -0.00031,  -0.00048,  -0.00101,-132823369.10406,   0.00000
313745886.44897,349983532.74064,-44376755.90662,   0.00043,   0.00050,  -0.00159,342092019.96744,   0.00117,275909966.16179,  -0.00031,  -0.00048,  -0.00101,-133817946.19436,   0.00000
311746818.69075,350571107.66465,-43044044.06780,   0.00042,   0.00051,  -0.00157,341108666.17958,   0.00117,275909966.16179,  -0.00031,  -0.00048,  -0.00101,-134801299.98222,   0.00000
309691947.72746,351116009.54949,-41717897.31194,   0.00041,   0.00051,  -0.00156,340110133.10676,   0.00117,275909966.16179,  -0.00031,  -0.00048,  -0.00101,-135799833.05504,   0.00000
307591121.18351,351641216.18547,-40385185.47312,   0.00040,   0.00052,  -0.00154,339109151.20002,   0.00117,275909966.16179,  -0.00031,  -0.00048,  -0.00101,-136800814.96177,   0.00000
305457469.22482,352133597.40671,-39052473.63431,   0.00039,   0.00052,  -0.00152,338106174.93002,   0.00117,275909966.16179,  -0.00031,  -0.00048,  -0.00101,-137803791.23177,   0.00000
303300839.47580,352616131.00352,-37719761.79550,   0.00038,   0.00053,  -0.00150,337118833.37225,   0.00117,275909966.16179,  -0.00031,  -0.00048,  -0.00101,-138791132.78954,   0.00000
301098254.14614,353078969.35148,-36387049.95668,   0.00037,   0.00054,  -0.00149,336133170.35716,   0.00117,275909966.16179,  -0.00031,  -0.00048,  -0.00101,-139776795.80463,   0.00000
298872691.02615,353531960.07502,-35047773.03492,   0.00036,   0.00054,  -0.00147,335162234.07247,   0.00117,275909966.16179,  -0.00031,  -0.00048,  -0.00101,-140747732.08932,   0.00000
296591324.70108,353942277.75939,-33708496.11315,   0.00035,   0.00055,  -0.00145,334176792.99392,   0.00117,275909966.16179,  -0.00031,  -0.00048,  -0.00101,-141733173.16787,   0.00000
294254155.17095,354309922.40458,-32369219.19139,   0.00034,   0.00056,  -0.00143,333177371.85626,   0.00117,275909966.16179,  -0.00031,  -0.00048,  -0.00101,-142732594.30554,   0.00000
291903855.47491,354690697.21567,-31023377.18668,   0.00032,   0.00056,  -0.00142,332212461.10030,   0.00117,275909966.16179,  -0.00031,  -0.00048,  -0.00101,-143697505.06150,   0.00000
289520730.36412,355038646.61201,-29684100.26491,   0.00031,   0.00057,  -0.00140,331250785.73443,   0.00117,275909966.16179,  -0.00031,  -0.00048,  -0.00101,-144659180.42737,   0.00000
287081802.04827,355343922.96917,-28338258.26020,   0.00030,   0.00058,  -0.00138,330275130.07972,   0.00117,275909966.16179,  -0.00031,  -0.00048,  -0.00101,-145634836.08207,   0.00000
284619895.94208,355639351.70191,-26992416.25549,   0.00029,   0.00058,  -0.00137,329319859.67545,   0.00117,275909966.16179,  -0.00031,  -0.00048,  -0.00101,-146590106.48634,   0.00000
282112034.25525,355915085.18581,-25646574.25077,   0.00028,   0.00059,  -0.00135,328371830.92183,   0.00117,275909966.16179,  -0.00031,  -0.00048,  -0.00101,-147538135.23996,   0.00000
279581194.77809,356180971.04527,-24300732.24606,   0.00027,   0.00059,  -0.00133,327445573.99563,   0.00117,275909966.16179,  -0.00031,  -0.00048,  -0.00101,-148464392.16617,   0.00000
276994552.09586,356404183.86557,-22948325.15839,   0.00025,   0.00060,  -0.00131,326508474.27817,   0.00117,275909966.16179,  -0.00031,  -0.00048,  -0.00101,-149401491.88362,   0.00000
274352106.20856,356584723.64669,-21595918.07073,   0.00024,   0.00061,  -0.00129,325562781.00690,   0.00117,275909966.16179,  -0.00031,  -0.00048,  -0.00101,-150347185.15490,   0.00000
271696530.15535,356778393.59371,-20250076.06602,   0.00023,   0.00061,  -0.00128,324660702.58347,   0.00117,275909966.16179,  -0.00031,  -0.00048,  -0.00101,-151249263.57832,   0.00000
269008128.68740,356939238.12598,-18897668.97835,   0.00022,   0.00062,  -0.00126,323763497.30771,   0.00117,275909966.16179,  -0.00031,  -0.00048,  -0.00101,-152146468.85408,   0.00000
266263924.01438,357057409.61908,-17538696.80774,   0.00020,   0.00062,  -0.00124,322858764.27468,   0.00117,275909966.16179,  -0.00031,  -0.00048,  -0.00101,-153051201.88711,   0.00000
263496741.55103,357165733.48775,-16186289.72008,   0.00019,   0.00063,  -0.00122,321981171.72104,   0.00117,275909966.16179,  -0.00031,  -0.00048,  -0.00101,-153928794.44076,   0.00000
260683603.50703,357254362.10757,-14833882.63241,   0.00018,   0.00064,  -0.00121,321117421.08043,   0.00117,275909966.16179,  -0.00031,  -0.00048,  -0.00101,-154792545.08136,   0.00000
257814662.25795,357300317.68822,-13474910.46180,   0.00016,   0.00064,  -0.00119,320248928.18197,   0.00117,275909966.16179,  -0.00031,  -0.00048,  -0.00101,-155661037.97983,   0.00000
254922743.21856,357336425.64444,-12122503.37414,   0.00015,   0.00065,  -0.00117,319409783.02080,   0.00117,275909966.16179,  -0.00031,  -0.00048,  -0.00101,-156500183.14100,   0.00000
251997998.76441,357339708.18592,-10763531.20352,   0.00014,   0.00065,  -0.00115,318580174.99158,   0.00117,275909966.16179,  -0.00031,  -0.00048,  -0.00101,-157329791.17022,   0.00000
249037146.35404,357346273.26887,-9404559.03291,   0.00012,   0.00066,  -0.00114,317787193.44869,   0.00117,275909966.16179,  -0.00031,  -0.00048,  -0.00101,-158122772.71311,   0.00000
246010643.11417,357287187.52232,-8045586.86230,   0.00011,   0.00066,  -0.00112,316974943.04458,   0.00117,275909966.16179,  -0.00031,  -0.00048,  -0.00101,-158935023.11721,   0.00000
242961162.08398,357218254.15135,-6686614.69168,   0.00010,   0.00067,  -0.00110,316194525.06648,   0.00117,275909966.16179,  -0.00031,  -0.00048,  -0.00101,-159715441.09531,   0.00000
239888703.26346,357139473.15595,-5327642.52107,   0.00008,   0.00068,  -0.00108,315446698.29379,   0.00117,275909966.16179,  -0.00031,  -0.00048,  -0.00101,-160463267.86800,   0.00000
236770288.86230,357040996.91170,-3968670.35046,   0.00007,   0.00068,  -0.00107,314720501.75072,   0.00117,275909966.16179,  -0.00031,  -0.00048,  -0.00101,-161189464.41108,   0.00000
233596071.25606,356899847.62828,-2609698.17984,   0.00005,   0.00069,  -0.00105,313997858.39918,   0.00117,275909966.16179,  -0.00031,  -0.00048,  -0.00101,-161912107.76261,   0.00000
230389028.23507,356725872.93011,-1244160.92628,   0.00004,   0.00069,  -0.00103,313291189.38681,   0.00117,275909966.16179,  -0.00031,  -0.00048,  -0.00101,-162618776.77498,   0.00000
227136029.63343,356532202.98309,114811.24433,   0.00003,   0.00070,  -0.00101,312609529.99619,   0.00117,275909966.16179,  -0.00031,  -0.00048,  -0.00101,-163300436.16560,   0.00000
223860053.24147,356328685.41165,1473783.41495,   0.00001,   0.00070,  -0.00099,311965083.15742,   0.00117,275909966.16179,  -0.00031,  -0.00048,  -0.00101,-163944883.00438,   0.00000
220528273.64443,356082494.80103,2839320.66851,  -0.00000,   0.00071,  -0.00098,311328427.79358,   0.00117,275909966.16179,  -0.00031,  -0.00048,  -0.00101,-164581538.36822,   0.00000
217173516.25707,355826456.56598,4198292.83912,  -0.00002,   0.00071,  -0.00096,310730747.74525,   0.00117,275909966.16179,  -0.00031,  -0.00048,  -0.00101,-165179218.41654,   0.00000
213772803.28907,355550723.08209,5563830.09269,  -0.00003,   0.00072,  -0.00094,310162734.61113,   0.00117,275909966.16179,  -0.00031,  -0.00048,  -0.00101,-165747231.55067,   0.00000
210339264.90631,355242164.18345,6922802.26330,  -0.00005,   0.00072,  -0.00092,309615893.43980,   0.00117,275909966.16179,  -0.00031,  -0.00048,  -0.00101,-166294072.72200,   0.00000
206849923.31848,354890932.24563,8281774.43391,  -0.00006,   0.00073,  -0.00091,309081002.01877,   0.00117,275909966.16179,  -0.00031,  -0.00048,  -0.00101,-166828964.14303,   0.00000
203314626.15000,354520005.05897,9647311.68748,  -0.00008,   0.00073,  -0.00089,308579618.20355,   0.00117,275909966.16179,  -0.00031,  -0.00048,  -0.00101,-167330347.95824,   0.00000
199756351.19119,354139230.24788,11006283.85809,  -0.00009,   0.00074,  -0.00087,308121808.13260,   0.00117,275909966.16179,  -0.00031,  -0.00048,  -0.00101,-167788158.02920,   0.00000
196165250.81764,353725630.02204,12371821.11165,  -0.00011,   0.00075,  -0.00085,307689999.67791,   0.00117,275909966.16179,  -0.00031,  -0.00048,  -0.00101,-168219966.48388,   0.00000
192528194.86344,353292334.54735,13730793.28227,  -0.00012,   0.00075,  -0.00084,307293748.86301,   0.00117,275909966.16179,  -0.00031,  -0.00048,  -0.00101,-168616217.29879,   0.00000
188835335.70416,352816366.03349,15089765.45288,  -0.00014,   0.00076,  -0.00082,306915425.31126,   0.00117,275909966.16179,  -0.00031,  -0.00048,  -0.00101,-168994540.85053,   0.00000
185119498.75456,352330549.89520,16455302.70644,  -0.00016,   0.00076,  -0.00080,306586238.07594,   0.00117,275909966.16179,  -0.00031,  -0.00048,  -0.00101,-169323728.08585,   0.00000
181370836.39021,351811908.34217,17814274.87706,  -0.00017,   0.00077,  -0.00078,306285200.82494,   0.00117,275909966.16179,  -0.00031,  -0.00048,  -0.00101,-169624765.33685,   0.00000
177553240.65489,351263723.91586,19173247.04767,  -0.00019,   0.00077,  -0.00076,306016641.22655,   0.00117,275909966.16179,  -0.00031,  -0.00048,  -0.00101,-169893324.93525,   0.00000
173735644.91957,350715539.48955,20532219.21828,  -0.00021,   0.00078,  -0.00075,305807765.75590,   0.00117,275909966.16179,  -0.00031,  -0.00048,  -0.00101,-170102200.40590,   0.00000
169839268.18885,350114834.39964,21891191.38890,  -0.00022,   0.00078,  -0.00073,305614462.69833,   0.00117,275909966.16179,  -0.00031,  -0.00048,  -0.00101,-170295503.46346,   0.00000
165933043.83370,349491151.51941,23250163.55951,  -0.00024,   0.00078,  -0.00071,305462632.37645,   0.00117,275909966.16179,  -0.00031,  -0.00048,  -0.00101,-170447333.78535,   0.00000
161957886.10759,348837925.76590,24609135.73012,  -0.00026,   0.00079,  -0.00069,305349031.36909,   0.00117,275909966.16179,  -0.00031,  -0.00048,  -0.00101,-170560934.79270,   0.00000
157959750.59114,348174852.38797,25968107.90074,  -0.00027,   0.00079,  -0.00068,305290723.21432,   0.00117,275909966.16179,  -0.00031,  -0.00048,  -0.00101,-170619242.94748,   0.00000
153928789.65995,347478953.59528,27320514.98840,  -0.00029,   0.00080,  -0.00066,305266952.57810,   0.00117,275909966.16179,  -0.00031,  -0.00048,  -0.00101,-170643013.58370,   0.00000
149851873.14811,346763359.55375,28679487.15901,  -0.00031,   0.00080,  -0.00064,305294630.47662,   0.00117,275909966.16179,  -0.00031,  -0.00048,  -0.00101,-170615335.68518,   0.00000
145719153.43120,346005092.47305,30031894.24668,  -0.00032,   0.00081,  -0.00062,305351879.88952,   0.00117,275909966.16179,  -0.00031,  -0.00048,  -0.00101,-170558086.27228,   0.00000
