# sigma_xx, sigma_yy, sigma_xy, epsilon_xx, epsilon_yy, epsilon_xy, vonMises, epsPlastic, hardening, epsilonP__xx, epsilonP__yy, epsilonP__xy, yieldValue, iteration
   0.00000,   0.00000,   0.00000,   0.00000,   0.00000,   0.00000,   0.00000,   0.00000,274640135.82653,   0.00000,   0.00000,   0.00000,-474640135.82653,   0.00000
   0.00000,   0.00000,   0.00000,   0.00000,   0.00000,   0.00000,   0.00000,   0.00000,274640135.82653,   0.00000,   0.00000,   0.00000,-474640135.82653,   0.00000
-2226361.94284,-2944682.80292,-359160.43004,  -0.00000,  -0.00001,  -0.00000,2731099.27094,   0.00000,274640135.82653,   0.00000,   0.00000,   0.00000,-471909036.55559,   0.00000
-4452723.88568,-5889365.60585,-713993.62598,  -0.00001,  -0.00002,  -0.00001,5460496.22568,   0.00000,274640135.82653,   0.00000,   0.00000,   0.00000,-469179639.60085,   0.00000
-6657449.65804,-8812412.23828,-1068826.82193,  -0.00001,  -0.00003,  -0.00001,8169407.98898,   0.00000,274640135.82653,   0.00000,   0.00000,   0.00000,-466470727.83755,   0.00000
-8862175.43040,-11735458.87072,-1419332.78377,  -0.00002,  -0.00004,  -0.00002,10876624.92000,   0.00000,274640135.82653,   0.00000,   0.00000,   0.00000,-463763510.90653,   0.00000
-11045265.03227,-14636869.33268,-1765511.51152,  -0.00002,  -0.00005,  -0.00002,13561667.12336,   0.00000,274640135.82653,   0.00000,   0.00000,   0.00000,-461078468.70317,   0.00000
-13228354.63414,-17538279.79463,-2107363.00518,  -0.00003,  -0.00005,  -0.00003,16245029.27643,   0.00000,274640135.82653,   0.00000,   0.00000,   0.00000,-458395106.55010,   0.00000
-15411444.23602,-20439690.25658,-2449214.49883,  -0.00003,  -0.00006,  -0.00003,18928400.87324,   0.00000,274640135.82653,   0.00000,   0.00000,   0.00000,-455711734.95329,   0.00000
-17572897.66740,-23319464.54805,-2782411.52429,  -0.00003,  -0.00007,  -0.00004,21587937.29718,   0.00000,274640135.82653,   0.00000,   0.00000,   0.00000,-453052198.52935,   0.00000
-19719205.77945,-26192747.98838,-3115608.54975,  -0.00004,  -0.00008,  -0.00004,24238976.59037,   0.00000,274640135.82653,   0.00000,   0.00000,   0.00000,-450401159.23616,   0.00000
-21859023.04036,-29050886.10936,-3448805.57521,  -0.00004,  -0.00009,  -0.00004,26878051.69460,   0.00000,274640135.82653,   0.00000,   0.00000,   0.00000,-447762084.13193,   0.00000
-23998840.30126,-31909024.23035,-3773348.13247,  -0.00005,  -0.00010,  -0.00005,29513811.25595,   0.00000,274640135.82653,   0.00000,   0.00000,   0.00000,-445126324.57058,   0.00000
-26123512.24283,-34760671.50019,-4097890.68974,  -0.00005,  -0.00011,  -0.00005,32141086.97378,   0.00000,274640135.82653,   0.00000,   0.00000,   0.00000,-442499048.85275,   0.00000
-28226548.01391,-37590682.59954,-4418106.01291,  -0.00006,  -0.00012,  -0.00006,34746240.17118,   0.00000,274640135.82653,   0.00000,   0.00000,   0.00000,-439893895.65535,   0.00000
-30344729.10433,-40427184.55004,-4733994.10198,  -0.00006,  -0.00012,  -0.00006,37358265.10840,   0.00000,274640135.82653,   0.00000,   0.00000,   0.00000,-437281870.71813,   0.00000
-32426128.70492,-43235559.47891,-5045554.95695,  -0.00006,  -0.00013,  -0.00007,39939685.58240,   0.00000,274640135.82653,   0.00000,   0.00000,   0.00000,-434700450.24413,   0.00000
-34507528.30552,-46043934.40779,-5357115.81193,  -0.00007,  -0.00014,  -0.00007,42521137.15669,   0.00000,274640135.82653,   0.00000,   0.00000,   0.00000,-432118998.66984,   0.00000
-36588927.90612,-48852309.33666,-5660022.19871,  -0.00007,  -0.00015,  -0.00007,45099353.67992,   0.00000,274640135.82653,   0.00000,   0.00000,   0.00000,-429540782.14661,   0.00000
-38648691.33623,-51639048.09504,-5962928.58549,  -0.00008,  -0.00016,  -0.00008,47657114.38380,   0.00000,274640135.82653,   0.00000,   0.00000,   0.00000,-426983021.44273,   0.00000
-40701963.91519,-54410641.53409,-6261507.73818,  -0.00008,  -0.00017,  -0.00008,50201267.39284,   0.00000,274640135.82653,   0.00000,   0.00000,   0.00000,-424438868.43369,   0.00000
-42746582.02597,-57190889.44133,-6560086.89086,  -0.00008,  -0.00018,  -0.00009,52749002.67681,   0.00000,274640135.82653,   0.00000,   0.00000,   0.00000,-421891133.14972,   0.00000
-44784709.28560,-59955992.02923,-6850011.57535,  -0.00009,  -0.00019,  -0.00009,55281529.18284,   0.00000,274640135.82653,   0.00000,   0.00000,   0.00000,-419358606.64369,   0.00000
-46801200.37474,-62699458.44665,-7139936.25984,  -0.00009,  -0.00019,  -0.00009,57793603.42853,   0.00000,274640135.82653,   0.00000,   0.00000,   0.00000,-416846532.39800,   0.00000
-48817691.46388,-65442924.86407,-7425533.71024,  -0.00009,  -0.00020,  -0.00010,60304117.21238,   0.00000,274640135.82653,   0.00000,   0.00000,   0.00000,-414336018.61415,   0.00000
-50819037.23369,-68179900.43034,-7706803.92653,  -0.00010,  -0.00021,  -0.00010,62804625.22600,   0.00000,274640135.82653,   0.00000,   0.00000,   0.00000,-411835510.60053,   0.00000
-52813892.15234,-70901730.67728,-7983746.90873,  -0.00010,  -0.00022,  -0.00010,65291553.08320,   0.00000,274640135.82653,   0.00000,   0.00000,   0.00000,-409348582.74333,   0.00000
-54793601.75166,-73617070.07307,-8260689.89093,  -0.00011,  -0.00023,  -0.00011,67770084.63752,   0.00000,274640135.82653,   0.00000,   0.00000,   0.00000,-406870051.18901,   0.00000
-56751675.18050,-76310773.29837,-8528978.40494,  -0.00011,  -0.00024,  -0.00011,70225016.59724,   0.00000,274640135.82653,   0.00000,   0.00000,   0.00000,-404415119.22929,   0.00000
-58724893.92867,-79010967.37482,-8797266.91894,  -0.00011,  -0.00024,  -0.00011,72688452.79603,   0.00000,274640135.82653,   0.00000,   0.00000,   0.00000,-401951683.03050,   0.00000
-60667822.03817,-81698179.74898,-9061228.19885,  -0.00012,  -0.00025,  -0.00012,75133508.80075,   0.00000,274640135.82653,   0.00000,   0.00000,   0.00000,-399506627.02578,   0.00000
-62604259.29652,-84370246.80380,-9325189.47876,  -0.00012,  -0.00026,  -0.00012,77566568.16198,   0.00000,274640135.82653,   0.00000,   0.00000,   0.00000,-397073567.66455,   0.00000
-64540696.55487,-87042313.85862,-9580496.29048,  -0.00012,  -0.00027,  -0.00012,79996575.39534,   0.00000,274640135.82653,   0.00000,   0.00000,   0.00000,-394643560.43119,   0.00000
-66455497.64274,-89692744.74295,-9835803.10219,  -0.00013,  -0.00028,  -0.00013,82406156.97645,   0.00000,274640135.82653,   0.00000,   0.00000,   0.00000,-392233978.85008,   0.00000
-68355153.41127,-92336684.77614,-10082455.44572,  -0.00013,  -0.00029,  -0.00013,84804303.09489,   0.00000,274640135.82653,   0.00000,   0.00000,   0.00000,-389835832.73164,   0.00000
-70248318.32865,-94965479.48999,-10329107.78924,  -0.00013,  -0.00030,  -0.00013,87190450.69551,   0.00000,274640135.82653,   0.00000,   0.00000,   0.00000,-387449685.13102,   0.00000
-72147974.09718,-97609419.52318,-10571432.89866,  -0.00014,  -0.00030,  -0.00014,89587234.88965,   0.00000,274640135.82653,   0.00000,   0.00000,   0.00000,-385052900.93688,   0.00000
-74019502.84407,-100216578.06655,-10813758.00809,  -0.00014,  -0.00031,  -0.00014,91951509.62439,   0.00000,274640135.82653,   0.00000,   0.00000,   0.00000,-382688626.20214,   0.00000
-75882377.12278,-102832391.07811,-11047428.64932,  -0.00014,  -0.00032,  -0.00014,94316523.32282,   0.00000,274640135.82653,   0.00000,   0.00000,   0.00000,-380323612.50371,   0.00000
-77738760.55034,-105433058.77033,-11281099.29055,  -0.00015,  -0.00033,  -0.00015,96669535.36324,   0.00000,274640135.82653,   0.00000,   0.00000,   0.00000,-377970600.46329,   0.00000
-79573507.80741,-108012090.29207,-11510442.69768,  -0.00015,  -0.00034,  -0.00015,99000630.08475,   0.00000,274640135.82653,   0.00000,   0.00000,   0.00000,-375639505.74178,   0.00000
-81408255.06449,-110591121.81380,-11735458.87072,  -0.00015,  -0.00034,  -0.00015,101330316.04073,   0.00000,274640135.82653,   0.00000,   0.00000,   0.00000,-373309819.78580,   0.00000
-83227857.00222,-113163662.48439,-11956147.80966,  -0.00016,  -0.00035,  -0.00016,103650229.04126,   0.00000,274640135.82653,   0.00000,   0.00000,   0.00000,-370989906.78527,   0.00000
-85040968.08881,-115721057.83565,-12172509.51451,  -0.00016,  -0.00036,  -0.00016,105956635.73897,   0.00000,274640135.82653,   0.00000,   0.00000,   0.00000,-368683500.08756,   0.00000
-86838933.85606,-118271962.33575,-12384543.98525,  -0.00016,  -0.00037,  -0.00016,108253301.02530,   0.00000,274640135.82653,   0.00000,   0.00000,   0.00000,-366386834.80123,   0.00000
-88615263.45283,-120801230.66538,-12596578.45600,  -0.00017,  -0.00038,  -0.00016,110529592.11288,   0.00000,274640135.82653,   0.00000,   0.00000,   0.00000,-364110543.71365,   0.00000
-90391593.04960,-123330498.99500,-12804285.69265,  -0.00017,  -0.00038,  -0.00017,112804525.60486,   0.00000,274640135.82653,   0.00000,   0.00000,   0.00000,-361835610.22167,   0.00000
-92167922.64636,-125859767.32462,-13007665.69520,  -0.00017,  -0.00039,  -0.00017,115078111.72158,   0.00000,274640135.82653,   0.00000,   0.00000,   0.00000,-359562024.10495,   0.00000
-93907470.75331,-128360908.63262,-13206718.46366,  -0.00018,  -0.00040,  -0.00017,117321523.56973,   0.00000,274640135.82653,   0.00000,   0.00000,   0.00000,-357318612.25680,   0.00000
-95662164.17959,-130868540.79175,-13401443.99802,  -0.00018,  -0.00041,  -0.00017,119571956.96742,   0.00000,274640135.82653,   0.00000,   0.00000,   0.00000,-355068178.85911,   0.00000
-97386566.96719,-133363191.24860,-13596169.53238,  -0.00018,  -0.00042,  -0.00018,121805863.27446,   0.00000,274640135.82653,   0.00000,   0.00000,   0.00000,-352834272.55207,   0.00000
-99119624.22299,-135849187.23726,-13782240.59854,  -0.00019,  -0.00042,  -0.00018,124033187.72378,   0.00000,274640135.82653,   0.00000,   0.00000,   0.00000,-350606948.10275,   0.00000
-100815899.98897,-138307056.20428,-13968311.66471,  -0.00019,  -0.00043,  -0.00018,126231843.57644,   0.00000,274640135.82653,   0.00000,   0.00000,   0.00000,-348408292.25009,   0.00000
-102518666.60609,-140780070.49064,-14150055.49678,  -0.00019,  -0.00044,  -0.00018,128441396.56012,   0.00000,274640135.82653,   0.00000,   0.00000,   0.00000,-346198739.26641,   0.00000
-104199797.05272,-143231448.60652,-14327472.09475,  -0.00019,  -0.00045,  -0.00019,130629196.84841,   0.00000,274640135.82653,   0.00000,   0.00000,   0.00000,-344010938.97812,   0.00000
-105874436.64821,-145667681.40306,-14500561.45862,  -0.00020,  -0.00046,  -0.00019,132803557.49138,   0.00000,274640135.82653,   0.00000,   0.00000,   0.00000,-341836578.33515,   0.00000
-107549076.24370,-148103914.19960,-14673650.82250,  -0.00020,  -0.00046,  -0.00019,134978080.17324,   0.00000,274640135.82653,   0.00000,   0.00000,   0.00000,-339662055.65328,   0.00000
-109193425.20051,-150527165.29385,-14838085.71818,  -0.00020,  -0.00047,  -0.00019,137133370.10955,   0.00000,274640135.82653,   0.00000,   0.00000,   0.00000,-337506765.71698,   0.00000
-110831283.30618,-152935271.06876,-15002520.61386,  -0.00021,  -0.00048,  -0.00020,139276649.20994,   0.00000,274640135.82653,   0.00000,   0.00000,   0.00000,-335363486.61659,   0.00000
-112469141.41185,-155343376.84367,-15162628.27545,  -0.00021,  -0.00049,  -0.00020,141418712.23479,   0.00000,274640135.82653,   0.00000,   0.00000,   0.00000,-333221423.59174,   0.00000
-114091854.19817,-157744991.76744,-15318408.70293,  -0.00021,  -0.00050,  -0.00020,143551300.78280,   0.00000,274640135.82653,   0.00000,   0.00000,   0.00000,-331088835.04373,   0.00000
-115692930.81402,-160124970.52072,-15469861.89632,  -0.00021,  -0.00050,  -0.00020,145662222.86448,   0.00000,274640135.82653,   0.00000,   0.00000,   0.00000,-328977912.96205,   0.00000
-117287516.57872,-162489803.95466,-15616987.85562,  -0.00022,  -0.00051,  -0.00020,147759748.53887,   0.00000,274640135.82653,   0.00000,   0.00000,   0.00000,-326880387.28766,   0.00000
-118873447.87522,-164863291.85679,-15759786.58081,  -0.00022,  -0.00052,  -0.00020,149860089.08226,   0.00000,274640135.82653,   0.00000,   0.00000,   0.00000,-324780046.74427,   0.00000
-120452888.32058,-167221634.43959,-15902585.30601,  -0.00022,  -0.00053,  -0.00021,151948416.01585,   0.00000,274640135.82653,   0.00000,   0.00000,   0.00000,-322691719.81068,   0.00000
-122002038.12726,-169566995.32010,-16041056.79711,  -0.00022,  -0.00053,  -0.00021,154019124.43079,   0.00000,274640135.82653,   0.00000,   0.00000,   0.00000,-320621011.39574,   0.00000
-123559842.40213,-171903701.73241,-16175201.05411,  -0.00023,  -0.00054,  -0.00021,156084702.69943,   0.00000,274640135.82653,   0.00000,   0.00000,   0.00000,-318555433.12710,   0.00000
-125102501.35767,-174233917.29357,-16305018.07702,  -0.00023,  -0.00055,  -0.00021,158140936.35145,   0.00000,274640135.82653,   0.00000,   0.00000,   0.00000,-316499199.47508,   0.00000
-126623524.14272,-176542496.68426,-16430507.86583,  -0.00023,  -0.00056,  -0.00021,160175596.38380,   0.00000,274640135.82653,   0.00000,   0.00000,   0.00000,-314464539.44273,   0.00000
-128129401.60843,-178844585.22379,-16551670.42054,  -0.00023,  -0.00056,  -0.00022,162200964.59609,   0.00000,274640135.82653,   0.00000,   0.00000,   0.00000,-312439171.23043,   0.00000
-129635279.07414,-181146673.76333,-16672832.97525,  -0.00024,  -0.00057,  -0.00022,164226591.84112,   0.00000,274640135.82653,   0.00000,   0.00000,   0.00000,-310413543.98541,   0.00000
-131134665.68871,-183433616.98353,-16789668.29587,  -0.00024,  -0.00058,  -0.00022,166238880.01969,   0.00000,274640135.82653,   0.00000,   0.00000,   0.00000,-308401255.80684,   0.00000
-132603761.66460,-185707578.50144,-16897849.14829,  -0.00024,  -0.00059,  -0.00022,168232430.75896,   0.00000,274640135.82653,   0.00000,   0.00000,   0.00000,-306407705.06756,   0.00000
-134072857.64049,-187981540.01934,-17006030.00071,  -0.00024,  -0.00059,  -0.00022,170226271.35385,   0.00000,274640135.82653,   0.00000,   0.00000,   0.00000,-304413864.47268,   0.00000
-135535462.76523,-190240356.21791,-17114210.85314,  -0.00025,  -0.00060,  -0.00022,172208097.14895,   0.00000,274640135.82653,   0.00000,   0.00000,   0.00000,-302432038.67758,   0.00000
-136982922.57064,-192492681.56533,-17213737.23736,  -0.00025,  -0.00061,  -0.00022,174179452.53950,   0.00000,274640135.82653,   0.00000,   0.00000,   0.00000,-300460683.28703,   0.00000
-138415237.05670,-194738516.06161,-17308936.38750,  -0.00025,  -0.00062,  -0.00023,176141668.71925,   0.00000,274640135.82653,   0.00000,   0.00000,   0.00000,-298498467.10728,   0.00000
-139841060.69162,-196969205.23855,-17404135.53763,  -0.00025,  -0.00062,  -0.00023,178091884.38824,   0.00000,274640135.82653,   0.00000,   0.00000,   0.00000,-296548251.43829,   0.00000
-141251739.00720,-199193403.56434,-17495007.45366,  -0.00025,  -0.00063,  -0.00023,180032988.64733,   0.00000,274640135.82653,   0.00000,   0.00000,   0.00000,-294607147.17920,   0.00000
-142640781.15230,-201395965.71965,-17581552.13560,  -0.00026,  -0.00064,  -0.00023,181952693.05841,   0.00000,274640135.82653,   0.00000,   0.00000,   0.00000,-292687442.76812,   0.00000
-144036314.14854,-203613673.19430,-17663769.58344,  -0.00026,  -0.00065,  -0.00023,183883797.48012,   0.00000,274640135.82653,   0.00000,   0.00000,   0.00000,-290756338.34641,   0.00000
-145403720.12315,-205794599.17912,-17741659.79718,  -0.00026,  -0.00065,  -0.00023,185781210.16973,   0.00000,274640135.82653,   0.00000,   0.00000,   0.00000,-288858925.65680,   0.00000
-146777616.94891,-207990670.48329,-17815222.77683,  -0.00026,  -0.00066,  -0.00023,187690061.99559,   0.00000,274640135.82653,   0.00000,   0.00000,   0.00000,-286950073.83094,   0.00000
-148129877.60418,-210165105.61697,-17888785.75648,  -0.00026,  -0.00067,  -0.00023,189578814.35918,   0.00000,274640135.82653,   0.00000,   0.00000,   0.00000,-285061321.46735,   0.00000
-149466992.94012,-212333049.89950,-17958021.50203,  -0.00027,  -0.00067,  -0.00023,191458599.17148,   0.00000,274640135.82653,   0.00000,   0.00000,   0.00000,-283181536.65505,   0.00000
-150797617.42491,-214485848.86269,-18022930.01348,  -0.00027,  -0.00068,  -0.00023,193325176.37995,   0.00000,274640135.82653,   0.00000,   0.00000,   0.00000,-281314959.44658,   0.00000
-152113096.59036,-216632156.97474,-18083511.29084,  -0.00027,  -0.00069,  -0.00024,195182830.98976,   0.00000,274640135.82653,   0.00000,   0.00000,   0.00000,-279457304.83677,   0.00000
-153413430.43647,-218771974.23565,-18139765.33409,  -0.00027,  -0.00070,  -0.00024,197031600.40340,   0.00000,274640135.82653,   0.00000,   0.00000,   0.00000,-277608535.42313,   0.00000
-154707273.43143,-220896646.17721,-18191692.14326,  -0.00027,  -0.00070,  -0.00024,198867201.65429,   0.00000,274640135.82653,   0.00000,   0.00000,   0.00000,-275772934.17224,   0.00000
-155985971.10706,-223014827.26763,-18243618.95242,  -0.00027,  -0.00071,  -0.00024,200695144.08239,   0.00000,274640135.82653,   0.00000,   0.00000,   0.00000,-273944991.74414,   0.00000
-157264668.78268,-225133008.35805,-18291218.52749,  -0.00028,  -0.00072,  -0.00024,202522308.73130,   0.00000,274640135.82653,   0.00000,   0.00000,   0.00000,-272117827.09523,   0.00000
-158528221.13897,-227244698.59733,-18334490.86845,  -0.00028,  -0.00072,  -0.00024,204340678.21263,   0.00000,274640135.82653,   0.00000,   0.00000,   0.00000,-270299457.61390,   0.00000
-159770137.32477,-229334752.66612,-18373435.97533,  -0.00028,  -0.00073,  -0.00024,206137890.94443,   0.00000,274640135.82653,   0.00000,   0.00000,   0.00000,-268502244.88210,   0.00000
-161005562.65943,-231409661.41557,-18408053.84810,  -0.00028,  -0.00074,  -0.00024,207921978.64134,   0.00000,274640135.82653,   0.00000,   0.00000,   0.00000,-266718157.18519,   0.00000
-162232333.52590,-233493224.63321,-18442671.72088,  -0.00028,  -0.00075,  -0.00024,209710900.32889,   0.00000,274640135.82653,   0.00000,   0.00000,   0.00000,-264929235.49764,   0.00000
-163437468.22187,-235555151.68037,-18468635.12546,  -0.00028,  -0.00075,  -0.00024,211477585.89239,   0.00000,274640135.82653,   0.00000,   0.00000,   0.00000,-263162549.93414,   0.00000
-164642602.91785,-237617078.72753,-18494598.53004,  -0.00029,  -0.00076,  -0.00024,213244739.63851,   0.00000,274640135.82653,   0.00000,   0.00000,   0.00000,-261395396.18802,   0.00000
-165826101.44335,-239657369.60421,-18516234.70052,  -0.00029,  -0.00077,  -0.00024,214990828.37258,   0.00000,274640135.82653,   0.00000,   0.00000,   0.00000,-259649307.45395,   0.00000
-166994454.64950,-241691169.62974,-18533543.63691,  -0.00029,  -0.00077,  -0.00024,216728311.51924,   0.00000,274640135.82653,   0.00000,   0.00000,   0.00000,-257911824.30729,   0.00000
-168162807.85566,-243724969.65527,-18546525.33920,  -0.00029,  -0.00078,  -0.00024,218465183.36813,   0.00000,274640135.82653,   0.00000,   0.00000,   0.00000,-256174952.45840,   0.00000
-169316015.74248,-245752278.82966,-18559507.04149,  -0.00029,  -0.00079,  -0.00024,220194606.95184,   0.00000,274640135.82653,   0.00000,   0.00000,   0.00000,-254445528.87469,   0.00000
-170462732.77815,-247764442.68470,-18568161.50969,  -0.00029,  -0.00079,  -0.00024,221910991.62799,   0.00000,274640135.82653,   0.00000,   0.00000,   0.00000,-252729144.19854,   0.00000
-171579159.17514,-249763624.83746,-18572488.74378,  -0.00029,  -0.00080,  -0.00024,223610946.57342,   0.00000,274640135.82653,   0.00000,   0.00000,   0.00000,-251029189.25311,   0.00000
-172704240.04033,-251754152.52202,-18572488.74378,  -0.00029,  -0.00081,  -0.00024,225305814.98508,   0.00000,274640135.82653,   0.00000,   0.00000,   0.00000,-249334320.84145,   0.00000
-173805521.11798,-253746843.82363,-18568161.50969,  -0.00030,  -0.00082,  -0.00024,226996800.33932,   0.00000,274640135.82653,   0.00000,   0.00000,   0.00000,-247643335.48721,   0.00000
-174900311.34449,-255724389.80590,-18563834.27559,  -0.00030,  -0.00082,  -0.00024,228675872.98096,   0.00000,274640135.82653,   0.00000,   0.00000,   0.00000,-245964262.84557,   0.00000
-175973465.40052,-257680299.61769,-18550852.57330,  -0.00030,  -0.00083,  -0.00024,230333029.41730,   0.00000,274640135.82653,   0.00000,   0.00000,   0.00000,-244307106.40923,   0.00000
-177053110.30769,-259651354.74881,-18537870.87101,  -0.00030,  -0.00084,  -0.00024,232003249.77881,   0.00000,274640135.82653,   0.00000,   0.00000,   0.00000,-242636886.04772,   0.00000
-178111119.04437,-261600773.70946,-18520561.93462,  -0.00030,  -0.00084,  -0.00024,233652653.79936,   0.00000,274640135.82653,   0.00000,   0.00000,   0.00000,-240987482.02717,   0.00000
-179153982.46172,-263543701.81895,-18498925.76414,  -0.00030,  -0.00085,  -0.00024,235293772.18712,   0.00000,274640135.82653,   0.00000,   0.00000,   0.00000,-239346363.63941,   0.00000
-180190355.02792,-265471484.60911,-18477289.59365,  -0.00030,  -0.00086,  -0.00024,236922989.21027,   0.00000,274640135.82653,   0.00000,   0.00000,   0.00000,-237717146.61626,   0.00000
-181211582.27478,-267392776.54812,-18451326.18907,  -0.00030,  -0.00086,  -0.00024,238543959.65507,   0.00000,274640135.82653,   0.00000,   0.00000,   0.00000,-236096176.17146,   0.00000
-182217664.20231,-269307577.63599,-18421035.55039,  -0.00030,  -0.00087,  -0.00024,240156728.87293,   0.00000,274640135.82653,   0.00000,   0.00000,   0.00000,-234483406.95360,   0.00000
-183223746.12983,-271222378.72386,-18386417.67762,  -0.00030,  -0.00088,  -0.00024,241769147.46819,   0.00000,274640135.82653,   0.00000,   0.00000,   0.00000,-232870988.35834,   0.00000
-184214682.73801,-273130688.96058,-18347472.57074,  -0.00031,  -0.00088,  -0.00024,243373434.50891,   0.00000,274640135.82653,   0.00000,   0.00000,   0.00000,-231266701.31762,   0.00000
-185183983.17571,-275017363.02681,-18308527.46387,  -0.00031,  -0.00089,  -0.00024,244958064.56809,   0.00000,274640135.82653,   0.00000,   0.00000,   0.00000,-229682071.25844,   0.00000
-186153283.61341,-276904037.09305,-18260927.88881,  -0.00031,  -0.00090,  -0.00024,246541435.60441,   0.00000,274640135.82653,   0.00000,   0.00000,   0.00000,-228098700.22212,   0.00000
-187100947.88063,-278769074.98880,-18213328.31374,  -0.00031,  -0.00090,  -0.00024,248105178.66930,   0.00000,274640135.82653,   0.00000,   0.00000,   0.00000,-226534957.15723,   0.00000
-188033466.82851,-280627622.03341,-18165728.73868,  -0.00031,  -0.00091,  -0.00024,249661857.99740,   0.00000,274640135.82653,   0.00000,   0.00000,   0.00000,-224978277.82913,   0.00000
-188972476.62753,-282501314.39736,-18109474.69542,  -0.00031,  -0.00092,  -0.00024,251229926.05979,   0.00000,274640135.82653,   0.00000,   0.00000,   0.00000,-223410209.76674,   0.00000
-189883359.40492,-284338225.27148,-18053220.65216,  -0.00031,  -0.00092,  -0.00023,252765851.00721,   0.00000,274640135.82653,   0.00000,   0.00000,   0.00000,-221874284.81932,   0.00000
-190785587.71412,-286183790.61380,-17992639.37480,  -0.00031,  -0.00093,  -0.00023,254306439.19887,   0.00000,274640135.82653,   0.00000,   0.00000,   0.00000,-220333696.62766,   0.00000
-191681325.17217,-288014210.63677,-17927730.86335,  -0.00031,  -0.00094,  -0.00023,255834284.22894,   0.00000,274640135.82653,   0.00000,   0.00000,   0.00000,-218805851.59759,   0.00000
-192561917.31088,-289838139.80861,-17858495.11780,  -0.00031,  -0.00094,  -0.00023,257354286.76905,   0.00000,274640135.82653,   0.00000,   0.00000,   0.00000,-217285849.05747,   0.00000
-193442509.44960,-291662068.98044,-17789259.37225,  -0.00031,  -0.00095,  -0.00023,258875061.86636,   0.00000,274640135.82653,   0.00000,   0.00000,   0.00000,-215765073.96017,   0.00000
-194286320.09849,-293457871.13064,-17715696.39260,  -0.00031,  -0.00096,  -0.00023,260367786.24871,   0.00000,274640135.82653,   0.00000,   0.00000,   0.00000,-214272349.57782,   0.00000
-195151766.91786,-295275309.45133,-17637806.17886,  -0.00031,  -0.00096,  -0.00023,261880695.65454,   0.00000,274640135.82653,   0.00000,   0.00000,   0.00000,-212759440.17199,   0.00000
-195980432.24741,-297064620.75039,-17555588.73102,  -0.00031,  -0.00097,  -0.00023,263365643.22716,   0.00000,274640135.82653,   0.00000,   0.00000,   0.00000,-211274492.59937,   0.00000
-196802606.72582,-298838786.73010,-17473371.28318,  -0.00031,  -0.00098,  -0.00023,264838800.70928,   0.00000,274640135.82653,   0.00000,   0.00000,   0.00000,-209801335.11725,   0.00000
-197616126.73603,-300621607.17802,-17386826.60124,  -0.00031,  -0.00098,  -0.00023,266316938.70753,   0.00000,274640135.82653,   0.00000,   0.00000,   0.00000,-208323197.11900,   0.00000
-198408010.57576,-302382791.45544,-17295954.68520,  -0.00031,  -0.00099,  -0.00022,267774855.59592,   0.00000,274640135.82653,   0.00000,   0.00000,   0.00000,-206865280.23061,   0.00000
-199199894.41549,-304143975.73287,-17200755.53507,  -0.00031,  -0.00100,  -0.00022,269232810.09115,   0.00000,274640135.82653,   0.00000,   0.00000,   0.00000,-205407325.73538,   0.00000
-199976632.93588,-305898669.15915,-17105556.38494,  -0.00031,  -0.00100,  -0.00022,270684066.41953,   0.00000,274640135.82653,   0.00000,   0.00000,   0.00000,-203956069.40700,   0.00000
-200753371.45627,-307653362.58544,-17006030.00071,  -0.00031,  -0.00101,  -0.00022,272135394.70538,   0.00000,274640135.82653,   0.00000,   0.00000,   0.00000,-202504741.12114,   0.00000
-201493328.48683,-309379928.99009,-16902176.38239,  -0.00031,  -0.00101,  -0.00022,273559062.95856,   0.00000,274640135.82653,   0.00000,   0.00000,   0.00000,-201081072.86797,   0.00000
-202233285.51740,-311106495.39474,-16798322.76406,  -0.00031,  -0.00102,  -0.00022,274983664.02667,   0.00000,274640135.82653,   0.00000,   0.00000,   0.00000,-199656471.79986,   0.00000
-202973242.54796,-312833061.79939,-16685814.67755,  -0.00031,  -0.00103,  -0.00022,276407615.75967,   0.00000,274640135.82653,   0.00000,   0.00000,   0.00000,-198232520.06686,   0.00000
-203698054.25919,-314553137.35290,-16573306.59103,  -0.00031,  -0.00103,  -0.00022,277825007.80474,   0.00000,274640135.82653,   0.00000,   0.00000,   0.00000,-196815128.02179,   0.00000
-204401229.79993,-316251576.73592,-16460798.50451,  -0.00031,  -0.00104,  -0.00021,279223181.31364,   0.00000,274640135.82653,   0.00000,   0.00000,   0.00000,-195416954.51289,   0.00000
-205089260.02133,-317943525.26780,-16339635.94980,  -0.00031,  -0.00105,  -0.00021,280613325.80436,   0.00000,274640135.82653,   0.00000,   0.00000,   0.00000,-194026810.02217,   0.00000
-205777290.24274,-319635473.79968,-16218473.39508,  -0.00031,  -0.00105,  -0.00021,282004475.61101,   0.00000,274640135.82653,   0.00000,   0.00000,   0.00000,-192635660.21552,   0.00000
-206450175.14480,-321320931.48041,-16092983.60627,  -0.00031,  -0.00106,  -0.00021,283388435.90908,   0.00000,274640135.82653,   0.00000,   0.00000,   0.00000,-191251699.91745,   0.00000
-207107914.72752,-322999898.31000,-15967493.81746,  -0.00031,  -0.00107,  -0.00021,284765991.35307,   0.00000,274640135.82653,   0.00000,   0.00000,   0.00000,-189874144.47346,   0.00000
-207759163.45910,-324663719.82025,-15837676.79456,  -0.00031,  -0.00107,  -0.00021,286131148.51780,   0.00000,274640135.82653,   0.00000,   0.00000,   0.00000,-188508987.30873,   0.00000
-208395266.87134,-326321050.47935,-15703532.53755,  -0.00031,  -0.00108,  -0.00020,287489227.00237,   0.00000,274640135.82653,   0.00000,   0.00000,   0.00000,-187150908.82416,   0.00000
-209031370.28359,-327978381.13845,-15565061.04646,  -0.00031,  -0.00108,  -0.00020,288847667.81162,   0.00000,274640135.82653,   0.00000,   0.00000,   0.00000,-185792468.01491,   0.00000
-209637183.05715,-329622730.09526,-15426589.55536,  -0.00031,  -0.00109,  -0.00020,290192438.05231,   0.00000,274640135.82653,   0.00000,   0.00000,   0.00000,-184447697.77422,   0.00000
-210236504.97956,-331251933.73274,-15283790.83016,  -0.00031,  -0.00110,  -0.00020,291524897.04728,   0.00000,274640135.82653,   0.00000,   0.00000,   0.00000,-183115238.77925,   0.00000
-210842317.75313,-332896282.68955,-15136664.87086,  -0.00031,  -0.00110,  -0.00020,292870534.60634,   0.00000,274640135.82653,   0.00000,   0.00000,   0.00000,-181769601.22019,   0.00000
-211426494.35620,-334518995.47588,-14989538.91157,  -0.00031,  -0.00111,  -0.00019,294197214.75783,   0.00000,274640135.82653,   0.00000,   0.00000,   0.00000,-180442921.06870,   0.00000
-211995525.63994,-336135217.41106,-14838085.71818,  -0.00031,  -0.00112,  -0.00019,295517057.94678,   0.00000,274640135.82653,   0.00000,   0.00000,   0.00000,-179123077.87975,   0.00000
-212542920.75320,-337729803.17576,-14682305.29069,  -0.00031,  -0.00112,  -0.00019,296817358.97519,   0.00000,274640135.82653,   0.00000,   0.00000,   0.00000,-177822776.85134,   0.00000
-213096806.71760,-339339534.25979,-14526524.86321,  -0.00031,  -0.00113,  -0.00019,298131610.49257,   0.00000,274640135.82653,   0.00000,   0.00000,   0.00000,-176508525.33395,   0.00000
-213629056.51151,-340927629.17335,-14366417.20162,  -0.00031,  -0.00113,  -0.00019,299426378.58142,   0.00000,274640135.82653,   0.00000,   0.00000,   0.00000,-175213757.24511,   0.00000
-214146160.98609,-342509233.23575,-14201982.30594,  -0.00031,  -0.00114,  -0.00018,300714490.20849,   0.00000,274640135.82653,   0.00000,   0.00000,   0.00000,-173925645.61804,   0.00000
-214663265.46067,-344090837.29816,-14037547.41026,  -0.00031,  -0.00115,  -0.00018,302003836.58681,   0.00000,274640135.82653,   0.00000,   0.00000,   0.00000,-172636299.23972,   0.00000
-215165224.61590,-345665950.50942,-13868785.28048,  -0.00030,  -0.00115,  -0.00018,303286598.71091,   0.00000,274640135.82653,   0.00000,   0.00000,   0.00000,-171353537.11562,   0.00000
-215667183.77114,-347241063.72069,-13700023.15070,  -0.00030,  -0.00116,  -0.00018,304570615.93381,   0.00000,274640135.82653,   0.00000,   0.00000,   0.00000,-170069519.89272,   0.00000
-216132361.43656,-348788049.91032,-13522606.55273,  -0.00030,  -0.00117,  -0.00018,305827564.51366,   0.00000,274640135.82653,   0.00000,   0.00000,   0.00000,-168812571.31287,   0.00000
-216597539.10197,-350335036.09995,-13349517.18886,  -0.00030,  -0.00117,  -0.00017,307086394.37666,   0.00000,274640135.82653,   0.00000,   0.00000,   0.00000,-167553741.44986,   0.00000
-217069207.61853,-351897167.60892,-13167773.35679,  -0.00030,  -0.00118,  -0.00017,308358215.22504,   0.00000,274640135.82653,   0.00000,   0.00000,   0.00000,-166281920.60149,   0.00000
-217497603.79412,-353416026.77692,-12986029.52472,  -0.00030,  -0.00118,  -0.00017,309591452.66141,   0.00000,274640135.82653,   0.00000,   0.00000,   0.00000,-165048683.16512,   0.00000
-217932490.82085,-354950031.26427,-12799958.45855,  -0.00030,  -0.00119,  -0.00017,310838330.37312,   0.00000,274640135.82653,   0.00000,   0.00000,   0.00000,-163801805.45341,   0.00000
-218367377.84759,-356484035.75161,-12613887.39239,  -0.00030,  -0.00120,  -0.00016,312086567.77828,   0.00000,274640135.82653,   0.00000,   0.00000,   0.00000,-162553568.04825,   0.00000
-218780628.70384,-357996404.06847,-12423489.09212,  -0.00030,  -0.00120,  -0.00016,313315718.90005,   0.00000,274640135.82653,   0.00000,   0.00000,   0.00000,-161324416.92648,   0.00000
-219178734.24075,-359502281.53418,-12228763.55777,  -0.00030,  -0.00121,  -0.00016,314538679.53368,   0.00000,274640135.82653,   0.00000,   0.00000,   0.00000,-160101456.29285,   0.00000
-219561694.45833,-361001668.14874,-12034038.02341,  -0.00030,  -0.00121,  -0.00016,315756010.76149,   0.00000,274640135.82653,   0.00000,   0.00000,   0.00000,-158884125.06503,   0.00000
-219944654.67590,-362501054.76331,-11834985.25495,  -0.00029,  -0.00122,  -0.00015,316974284.67212,   0.00000,274640135.82653,   0.00000,   0.00000,   0.00000,-157665851.15441,   0.00000
-220312469.57414,-363993950.52673,-11635932.48649,  -0.00029,  -0.00123,  -0.00015,318186987.31063,   0.00000,274640135.82653,   0.00000,   0.00000,   0.00000,-156453148.51590,   0.00000
-220665139.15303,-365480355.43901,-11432552.48394,  -0.00029,  -0.00123,  -0.00015,319393691.43347,   0.00000,274640135.82653,   0.00000,   0.00000,   0.00000,-155246444.39306,   0.00000
-221011317.88078,-366951615.03195,-11224845.24729,  -0.00029,  -0.00124,  -0.00015,320588555.35053,   0.00000,274640135.82653,   0.00000,   0.00000,   0.00000,-154051580.47600,   0.00000
-221342351.28919,-368416383.77374,-11017138.01064,  -0.00029,  -0.00124,  -0.00014,321777953.96677,   0.00000,274640135.82653,   0.00000,   0.00000,   0.00000,-152862181.85976,   0.00000
-221664730.22941,-369889806.98372,-10809430.77399,  -0.00029,  -0.00125,  -0.00014,322974811.77245,   0.00000,274640135.82653,   0.00000,   0.00000,   0.00000,-151665324.05408,   0.00000
-221974127.46733,-371332939.55503,-10593069.06915,  -0.00029,  -0.00126,  -0.00014,324146570.77126,   0.00000,274640135.82653,   0.00000,   0.00000,   0.00000,-150493565.05527,   0.00000
-222274870.23707,-372784726.59453,-10376707.36430,  -0.00028,  -0.00126,  -0.00013,325325870.10270,   0.00000,274640135.82653,   0.00000,   0.00000,   0.00000,-149314265.72383,   0.00000
-222575613.00680,-374236513.63403,-10160345.65946,  -0.00028,  -0.00127,  -0.00013,326506735.12570,   0.00000,274640135.82653,   0.00000,   0.00000,   0.00000,-148133400.70083,   0.00000
-222839574.28671,-375660173.65190,-9939656.72052,  -0.00028,  -0.00127,  -0.00013,327662141.68037,   0.00000,274640135.82653,   0.00000,   0.00000,   0.00000,-146977994.14616,   0.00000
-223110026.41776,-377098978.98911,-9714640.54748,  -0.00028,  -0.00128,  -0.00013,328831694.64225,   0.00000,274640135.82653,   0.00000,   0.00000,   0.00000,-145808441.18428,   0.00000
-223373987.69767,-378522639.00699,-9489624.37444,  -0.00028,  -0.00129,  -0.00012,329989960.79311,   0.00000,274640135.82653,   0.00000,   0.00000,   0.00000,-144650175.03342,   0.00000
-223622803.65824,-379939808.17371,-9264608.20141,  -0.00028,  -0.00129,  -0.00012,331143035.44125,   0.00000,274640135.82653,   0.00000,   0.00000,   0.00000,-143497100.38528,   0.00000
-223856474.29947,-381350486.48929,-9030937.56018,  -0.00027,  -0.00130,  -0.00012,332290253.77398,   0.00000,274640135.82653,   0.00000,   0.00000,   0.00000,-142349882.05255,   0.00000
-224074999.62137,-382754673.95373,-8801594.15304,  -0.00027,  -0.00130,  -0.00011,333432746.81169,   0.00000,274640135.82653,   0.00000,   0.00000,   0.00000,-141207389.01484,   0.00000
-224293524.94326,-384158861.41816,-8563596.27771,  -0.00027,  -0.00131,  -0.00011,334576264.12453,   0.00000,274640135.82653,   0.00000,   0.00000,   0.00000,-140063871.70200,   0.00000
-224490414.09467,-385541412.71212,-8329925.63648,  -0.00027,  -0.00132,  -0.00011,335702157.46907,   0.00000,274640135.82653,   0.00000,   0.00000,   0.00000,-138937978.35746,   0.00000
-224693794.09722,-386939109.32541,-8087600.52706,  -0.00027,  -0.00132,  -0.00011,336842079.79300,   0.00000,274640135.82653,   0.00000,   0.00000,   0.00000,-137798056.03353,   0.00000
-224860392.60995,-388308678.91707,-7845275.41763,  -0.00027,  -0.00133,  -0.00010,337957437.15890,   0.00000,274640135.82653,   0.00000,   0.00000,   0.00000,-136682698.66763,   0.00000
-225026991.12268,-389678248.50873,-7602950.30821,  -0.00026,  -0.00133,  -0.00010,339074586.02326,   0.00000,274640135.82653,   0.00000,   0.00000,   0.00000,-135565549.80326,   0.00000
-225193589.63541,-391047818.10039,-7356297.96469,  -0.00026,  -0.00134,  -0.00010,340193227.93975,   0.00000,274640135.82653,   0.00000,   0.00000,   0.00000,-134446907.88677,   0.00000
-225345042.82880,-392410896.84090,-7109645.62116,  -0.00026,  -0.00135,  -0.00009,341307033.49692,   0.00000,274640135.82653,   0.00000,   0.00000,   0.00000,-133333102.32961,   0.00000
-225481350.70285,-393767484.73027,-6858666.04354,  -0.00026,  -0.00135,  -0.00009,342415786.91035,   0.00000,274640135.82653,   0.00000,   0.00000,   0.00000,-132224348.91618,   0.00000
-225611167.72576,-395108927.30030,-6607686.46593,  -0.00026,  -0.00136,  -0.00009,343513408.07773,   0.00000,274640135.82653,   0.00000,   0.00000,   0.00000,-131126727.74880,   0.00000
-225717184.96113,-396452533.48738,-6352379.65421,  -0.00025,  -0.00136,  -0.00008,344612488.52541,   0.00000,274640135.82653,   0.00000,   0.00000,   0.00000,-130027647.30112,   0.00000
-225831856.66470,-397787485.20627,-6092745.60840,  -0.00025,  -0.00137,  -0.00008,345706796.54352,   0.00000,274640135.82653,   0.00000,   0.00000,   0.00000,-128933339.28301,   0.00000
-225916237.72959,-399109455.22286,-5837438.79668,  -0.00025,  -0.00138,  -0.00008,346790173.19850,   0.00000,274640135.82653,   0.00000,   0.00000,   0.00000,-127849962.62803,   0.00000
-226000618.79448,-400431425.23946,-5573477.51677,  -0.00025,  -0.00138,  -0.00007,347875045.21136,   0.00000,274640135.82653,   0.00000,   0.00000,   0.00000,-126765090.61517,   0.00000
-226069854.54003,-401746904.40491,-5309516.23686,  -0.00025,  -0.00139,  -0.00007,348955388.23460,   0.00000,274640135.82653,   0.00000,   0.00000,   0.00000,-125684747.59193,   0.00000
-226139090.28558,-403062383.57036,-5045554.95695,  -0.00024,  -0.00139,  -0.00007,350037691.29929,   0.00000,274640135.82653,   0.00000,   0.00000,   0.00000,-124602444.52723,   0.00000
-226193180.71179,-404371371.88466,-4781593.67705,  -0.00024,  -0.00140,  -0.00006,351115515.91933,   0.00000,274640135.82653,   0.00000,   0.00000,   0.00000,-123524619.90720,   0.00000
-226232125.81866,-405673869.34782,-4508977.92894,  -0.00024,  -0.00140,  -0.00006,352188577.06961,   0.00000,274640135.82653,   0.00000,   0.00000,   0.00000,-122451558.75692,   0.00000
-226264580.07439,-406961221.49164,-4240689.41494,  -0.00024,  -0.00141,  -0.00006,353250812.37979,   0.00000,274640135.82653,   0.00000,   0.00000,   0.00000,-121389323.44674,   0.00000
-226288379.86192,-408257228.10365,-3968073.66683,  -0.00023,  -0.00142,  -0.00005,354321556.31685,   0.00000,274640135.82653,   0.00000,   0.00000,   0.00000,-120318579.50968,   0.00000
-226290543.47897,-409531598.54518,-3691130.68463,  -0.00023,  -0.00142,  -0.00005,355374852.24137,   0.00000,274640135.82653,   0.00000,   0.00000,   0.00000,-119265283.58516,   0.00000
-226292707.09601,-410805968.98671,-3414187.70243,  -0.00023,  -0.00143,  -0.00004,356430229.72211,   0.00000,274640135.82653,   0.00000,   0.00000,   0.00000,-118209906.10442,   0.00000
-226279725.39372,-412073848.57710,-3137244.72023,  -0.00023,  -0.00143,  -0.00004,357481384.71918,   0.00000,274640135.82653,   0.00000,   0.00000,   0.00000,-117158751.10735,   0.00000
-226266743.69143,-413341728.16748,-2855974.50394,  -0.00022,  -0.00144,  -0.00004,358534526.16458,   0.00000,274640135.82653,   0.00000,   0.00000,   0.00000,-116105609.66195,   0.00000
-226223471.35046,-414596626.05557,-2574704.28764,  -0.00022,  -0.00145,  -0.00003,359577280.53444,   0.00000,274640135.82653,   0.00000,   0.00000,   0.00000,-115062855.29209,   0.00000
-226195344.32884,-415858014.79481,-2289106.83725,  -0.00022,  -0.00145,  -0.00003,360628334.22659,   0.00000,274640135.82653,   0.00000,   0.00000,   0.00000,-114011801.59994,   0.00000
-226130435.81738,-417091276.51242,-2003509.38685,  -0.00022,  -0.00146,  -0.00003,361656075.52194,   0.00000,274640135.82653,   0.00000,   0.00000,   0.00000,-112984060.30459,   0.00000
-226072018.15707,-418339683.54937,-1717911.93646,  -0.00021,  -0.00146,  -0.00002,362699056.18138,   0.00000,274640135.82653,   0.00000,   0.00000,   0.00000,-111941079.64515,   0.00000
-225991964.32628,-419566454.41583,-1427987.25197,  -0.00021,  -0.00147,  -0.00002,363724961.82563,   0.00000,274640135.82653,   0.00000,   0.00000,   0.00000,-110915174.00090,   0.00000
-225911910.49549,-420793225.28230,-1138062.56748,  -0.00021,  -0.00147,  -0.00001,364753086.15465,   0.00000,274640135.82653,   0.00000,   0.00000,   0.00000,-109887049.67188,   0.00000
-225816711.34536,-422013505.29762,-843810.64889,  -0.00020,  -0.00148,  -0.00001,365777281.84787,   0.00000,274640135.82653,   0.00000,   0.00000,   0.00000,-108862853.97866,   0.00000
-225712857.72703,-423242439.78113,-553885.96440,  -0.00020,  -0.00149,  -0.00001,366810736.96092,   0.00000,274640135.82653,   0.00000,   0.00000,   0.00000,-107829398.86561,   0.00000
-225596022.40642,-424441083.62596,-255306.81172,  -0.00020,  -0.00149,  -0.00000,367820301.40817,   0.00000,274640135.82653,   0.00000,   0.00000,   0.00000,-106819834.41836,   0.00000
-225470532.61761,-425648381.93899,43272.34097,  -0.00020,  -0.00150,   0.00000,368839184.95738,   0.00000,274640135.82653,   0.00000,   0.00000,   0.00000,-105800950.86914,   0.00000
-225329897.50946,-426849189.40087,341851.49365,  -0.00019,  -0.00150,   0.00000,369854376.33134,   0.00000,274640135.82653,   0.00000,   0.00000,   0.00000,-104785759.49519,   0.00000
-225189262.40131,-428049996.86276,640430.64634,  -0.00019,  -0.00151,   0.00001,370871906.59968,   0.00000,274640135.82653,   0.00000,   0.00000,   0.00000,-103768229.22685,   0.00000
-225026991.12268,-429229168.15415,943337.03312,  -0.00019,  -0.00151,   0.00001,371872756.42414,   0.00000,274640135.82653,   0.00000,   0.00000,   0.00000,-102767379.40239,   0.00000
-224871210.69519,-430423484.76489,1246243.41990,  -0.00018,  -0.00152,   0.00002,372889054.37668,   0.00000,274640135.82653,   0.00000,   0.00000,   0.00000,-101751081.44985,   0.00000
-224693794.09722,-431596165.20514,1553477.04078,  -0.00018,  -0.00153,   0.00002,373888768.11237,   0.00000,274640135.82653,   0.00000,   0.00000,   0.00000,-100751367.71416,   0.00000
-224501232.17991,-432762354.79425,1856383.42756,  -0.00018,  -0.00153,   0.00002,374884936.43152,   0.00000,274640135.82653,   0.00000,   0.00000,   0.00000,-99755199.39501,   0.00000
-224308670.26260,-433928544.38336,2167944.28253,  -0.00017,  -0.00154,   0.00003,375883660.66278,   0.00000,274640135.82653,   0.00000,   0.00000,   0.00000,-98756475.16374,   0.00000
-224100963.02595,-435088243.12132,2475177.90341,  -0.00017,  -0.00154,   0.00003,376878901.19209,   0.00000,274640135.82653,   0.00000,   0.00000,   0.00000,-97761234.63444,   0.00000
-223878110.46996,-436241451.00814,2786738.75839,  -0.00017,  -0.00155,   0.00004,377870874.64322,   0.00000,274640135.82653,   0.00000,   0.00000,   0.00000,-96769261.18331,   0.00000
-223655257.91397,-437394658.89495,3098299.61336,  -0.00016,  -0.00155,   0.00004,378865339.08308,   0.00000,274640135.82653,   0.00000,   0.00000,   0.00000,-95774796.74345,   0.00000
-223417260.03864,-438541375.93063,3409860.46834,  -0.00016,  -0.00156,   0.00004,379856524.63469,   0.00000,274640135.82653,   0.00000,   0.00000,   0.00000,-94783611.19184,   0.00000
-223157625.99283,-439666456.79581,3725748.55741,  -0.00016,  -0.00157,   0.00005,380831511.49799,   0.00000,274640135.82653,   0.00000,   0.00000,   0.00000,-93808624.32854,   0.00000
-222904482.79816,-440806682.98034,4041636.64648,  -0.00015,  -0.00157,   0.00005,381822156.25640,   0.00000,274640135.82653,   0.00000,   0.00000,   0.00000,-92817979.57013,   0.00000
-222644848.75235,-441931763.84553,4361851.96965,  -0.00015,  -0.00158,   0.00006,382802376.04950,   0.00000,274640135.82653,   0.00000,   0.00000,   0.00000,-91837759.77703,   0.00000
-222354924.06786,-443043863.00842,4677740.05872,  -0.00015,  -0.00158,   0.00006,383773678.15530,   0.00000,274640135.82653,   0.00000,   0.00000,   0.00000,-90866457.67122,   0.00000
-222064999.38337,-444155962.17132,4997955.38189,  -0.00014,  -0.00159,   0.00006,384747745.79167,   0.00000,274640135.82653,   0.00000,   0.00000,   0.00000,-89892390.03486,   0.00000
-221775074.69888,-445268061.33422,5318170.70506,  -0.00014,  -0.00159,   0.00007,385724411.28032,   0.00000,274640135.82653,   0.00000,   0.00000,   0.00000,-88915724.54621,   0.00000
-221470004.69505,-446373669.64597,5642713.26232,  -0.00014,  -0.00160,   0.00007,386698277.54915,   0.00000,274640135.82653,   0.00000,   0.00000,   0.00000,-87941858.27738,   0.00000
-221149789.37188,-447472787.10657,5967255.81959,  -0.00013,  -0.00160,   0.00008,387669235.75122,   0.00000,274640135.82653,   0.00000,   0.00000,   0.00000,-86970900.07531,   0.00000
-220829574.04871,-448571904.56718,6291798.37685,  -0.00013,  -0.00161,   0.00008,388642859.07015,   0.00000,274640135.82653,   0.00000,   0.00000,   0.00000,-85997276.75638,   0.00000
-220487722.55506,-449649385.85730,6616340.93412,  -0.00013,  -0.00162,   0.00009,389600519.59087,   0.00000,274640135.82653,   0.00000,   0.00000,   0.00000,-85039616.23566,   0.00000
-220137216.59321,-450735521.61562,6945210.72548,  -0.00012,  -0.00162,   0.00009,390568751.03293,   0.00000,274640135.82653,   0.00000,   0.00000,   0.00000,-84071384.79360,   0.00000
-219780219.78022,-451806512.05459,7269753.28275,  -0.00012,  -0.00163,   0.00009,391526350.02316,   0.00000,274640135.82653,   0.00000,   0.00000,   0.00000,-83113785.80337,   0.00000
-219414568.49903,-452886156.96176,7598623.07411,  -0.00012,  -0.00163,   0.00010,392494612.12369,   0.00000,274640135.82653,   0.00000,   0.00000,   0.00000,-82145523.70284,   0.00000
-219042426.36670,-453950656.54959,7931820.09957,  -0.00011,  -0.00164,   0.00010,393452755.96864,   0.00000,274640135.82653,   0.00000,   0.00000,   0.00000,-81187379.85789,   0.00000
-218639993.59569,-455002174.43513,8260689.89093,  -0.00011,  -0.00164,   0.00011,394402674.97587,   0.00000,274640135.82653,   0.00000,   0.00000,   0.00000,-80237460.85066,   0.00000
-218252706.14402,-456060183.17182,8593886.91639,  -0.00010,  -0.00165,   0.00011,395361012.17635,   0.00000,274640135.82653,   0.00000,   0.00000,   0.00000,-79279123.65018,   0.00000
-217850273.37301,-457111701.05736,8927083.94185,  -0.00010,  -0.00166,   0.00012,396316815.56302,   0.00000,274640135.82653,   0.00000,   0.00000,   0.00000,-78323320.26351,   0.00000
-217426204.43152,-458141582.77242,9260280.96731,  -0.00010,  -0.00166,   0.00012,397257016.57118,   0.00000,274640135.82653,   0.00000,   0.00000,   0.00000,-77383119.25535,   0.00000
-216993481.02183,-459180118.95567,9593477.99277,  -0.00009,  -0.00167,   0.00012,398207941.25921,   0.00000,274640135.82653,   0.00000,   0.00000,   0.00000,-76432194.56732,   0.00000
-216560757.61215,-460218655.13891,9931002.25233,  -0.00009,  -0.00167,   0.00013,399162054.89563,   0.00000,274640135.82653,   0.00000,   0.00000,   0.00000,-75478080.93090,   0.00000
-216121543.35131,-461242046.00283,10268526.51188,  -0.00008,  -0.00168,   0.00013,400105900.44506,   0.00000,274640135.82653,   0.00000,   0.00000,   0.00000,-74534235.38147,   0.00000
-215667183.77114,-462258946.01559,10606050.77144,  -0.00008,  -0.00168,   0.00014,401047437.60049,   0.00000,274640135.82653,   0.00000,   0.00000,   0.00000,-73592698.22604,   0.00000
-215197678.87163,-463269355.17721,10943575.03099,  -0.00008,  -0.00169,   0.00014,401986731.14287,   0.00000,274640135.82653,   0.00000,   0.00000,   0.00000,-72653404.68366,   0.00000
-214719519.50393,-464288418.80702,11281099.29055,  -0.00007,  -0.00169,   0.00015,402936981.79796,   0.00000,274640135.82653,   0.00000,   0.00000,   0.00000,-71703154.02857,   0.00000
-214228378.43393,-465277191.79816,11622950.78420,  -0.00007,  -0.00170,   0.00015,403864289.04720,   0.00000,274640135.82653,   0.00000,   0.00000,   0.00000,-70775846.77933,   0.00000
-213743728.21508,-466281110.10864,11960475.04376,  -0.00006,  -0.00170,   0.00016,404807301.08825,   0.00000,274640135.82653,   0.00000,   0.00000,   0.00000,-69832834.73828,   0.00000
-213243932.67689,-467278537.56796,12302326.53741,  -0.00006,  -0.00171,   0.00016,405748610.84588,   0.00000,274640135.82653,   0.00000,   0.00000,   0.00000,-68891524.98065,   0.00000
-212728991.81936,-468269474.17615,12644178.03107,  -0.00005,  -0.00172,   0.00016,406687911.03088,   0.00000,274640135.82653,   0.00000,   0.00000,   0.00000,-67952224.79565,   0.00000
-212207560.11069,-469245265.46499,12986029.52472,  -0.00005,  -0.00172,   0.00017,407617082.24764,   0.00000,274640135.82653,   0.00000,   0.00000,   0.00000,-67023053.57889,   0.00000
-211670983.08268,-470214565.90269,13332208.25247,  -0.00005,  -0.00173,   0.00017,408544742.92602,   0.00000,274640135.82653,   0.00000,   0.00000,   0.00000,-66095392.90051,   0.00000
-211125751.58647,-471192520.80859,13674059.74612,  -0.00004,  -0.00173,   0.00018,409483258.85326,   0.00000,274640135.82653,   0.00000,   0.00000,   0.00000,-65156876.97327,   0.00000
-210574029.23912,-472155330.39514,14020238.47387,  -0.00004,  -0.00174,   0.00018,410412144.95078,   0.00000,274640135.82653,   0.00000,   0.00000,   0.00000,-64227990.87575,   0.00000
-210022306.89177,-473118139.98170,14366417.20162,  -0.00003,  -0.00174,   0.00019,411344092.47030,   0.00000,274640135.82653,   0.00000,   0.00000,   0.00000,-63296043.35623,   0.00000
-209433803.05459,-474052822.54662,14708268.69527,  -0.00003,  -0.00175,   0.00019,412255879.83152,   0.00000,274640135.82653,   0.00000,   0.00000,   0.00000,-62384255.99501,   0.00000
-208866935.38790,-475009141.28203,15054447.42302,  -0.00002,  -0.00175,   0.00020,413189165.56542,   0.00000,274640135.82653,   0.00000,   0.00000,   0.00000,-61450970.26111,   0.00000
-208269777.08254,-475952478.31515,15404953.38487,  -0.00002,  -0.00176,   0.00020,414116508.80656,   0.00000,274640135.82653,   0.00000,   0.00000,   0.00000,-60523627.01997,   0.00000
-207666127.92602,-476880670.02893,15751132.11262,  -0.00001,  -0.00176,   0.00020,415033403.95183,   0.00000,274640135.82653,   0.00000,   0.00000,   0.00000,-59606731.87470,   0.00000
-207062478.76951,-477808861.74271,16097310.84037,  -0.00001,  -0.00177,   0.00021,415953436.61572,   0.00000,274640135.82653,   0.00000,   0.00000,   0.00000,-58686699.21081,   0.00000
-206450175.14480,-478745707.92468,16447816.80222,  -0.00001,  -0.00178,   0.00021,416885577.17367,   0.00000,274640135.82653,   0.00000,   0.00000,   0.00000,-57754558.65285,   0.00000
-205816235.34961,-479660917.93617,16793995.52997,  -0.00000,  -0.00178,   0.00022,417802620.15990,   0.00000,274640135.82653,   0.00000,   0.00000,   0.00000,-56837515.66663,   0.00000
-205175804.70327,-480560982.62832,17144501.49181,   0.00000,  -0.00179,   0.00022,418710262.99194,   0.00000,274640135.82653,   0.00000,   0.00000,   0.00000,-55929872.83459,   0.00000
-204526719.58874,-481469701.78866,17495007.45366,   0.00001,  -0.00179,   0.00023,419629669.98939,   0.00000,274640135.82653,   0.00000,   0.00000,   0.00000,-55010465.83714,   0.00000
-203877634.47421,-482378420.94901,17841186.18141,   0.00001,  -0.00180,   0.00023,420551760.45839,   0.00000,274640135.82653,   0.00000,   0.00000,   0.00000,-54088375.36814,   0.00000
-203206913.18919,-483265503.93886,18191692.14326,   0.00002,  -0.00180,   0.00024,421459984.51577,   0.00000,274640135.82653,   0.00000,   0.00000,   0.00000,-53180151.31076,   0.00000
-202527537.43598,-484161241.39692,18542198.10510,   0.00002,  -0.00181,   0.00024,422380120.83966,   0.00000,274640135.82653,   0.00000,   0.00000,   0.00000,-52260014.98687,   0.00000
-201841670.83163,-485041833.53563,18892704.06695,   0.00003,  -0.00181,   0.00025,423290431.09965,   0.00000,274640135.82653,   0.00000,   0.00000,   0.00000,-51349704.72688,   0.00000
-201155804.22727,-485922425.67435,19243210.02880,   0.00003,  -0.00182,   0.00025,424204017.44397,   0.00000,274640135.82653,   0.00000,   0.00000,   0.00000,-50436118.38256,   0.00000
-200454792.30358,-486796526.96191,19593715.99064,   0.00004,  -0.00182,   0.00025,425116486.19215,   0.00000,274640135.82653,   0.00000,   0.00000,   0.00000,-49523649.63438,   0.00000
-199732144.20940,-487648992.07900,19948549.18659,   0.00004,  -0.00183,   0.00026,426015403.40768,   0.00000,274640135.82653,   0.00000,   0.00000,   0.00000,-48624732.41885,   0.00000
-199015986.96637,-488516602.51542,20299055.14843,   0.00005,  -0.00183,   0.00026,426930175.93291,   0.00000,274640135.82653,   0.00000,   0.00000,   0.00000,-47709959.89362,   0.00000
-198278193.55285,-489362576.78136,20649561.11028,   0.00005,  -0.00184,   0.00027,427830876.63029,   0.00000,274640135.82653,   0.00000,   0.00000,   0.00000,-46809259.19624,   0.00000
-197546890.99048,-490223696.36664,21004394.30623,   0.00006,  -0.00185,   0.00027,428748683.09162,   0.00000,274640135.82653,   0.00000,   0.00000,   0.00000,-45891452.73491,   0.00000
-196793952.25763,-491063179.78143,21354900.26807,   0.00006,  -0.00185,   0.00028,429651879.45733,   0.00000,274640135.82653,   0.00000,   0.00000,   0.00000,-44988256.36919,   0.00000
-196041013.52477,-491902663.19622,21705406.22992,   0.00007,  -0.00186,   0.00028,430558458.71804,   0.00000,274640135.82653,   0.00000,   0.00000,   0.00000,-44081677.10849,   0.00000
-195266438.62143,-492720510.44053,22060239.42586,   0.00007,  -0.00186,   0.00029,431451812.65328,   0.00000,274640135.82653,   0.00000,   0.00000,   0.00000,-43188323.17325,   0.00000
-194483209.24990,-493547012.15304,22410745.38771,   0.00008,  -0.00187,   0.00029,432356900.68809,   0.00000,274640135.82653,   0.00000,   0.00000,   0.00000,-42283235.13844,   0.00000
-193693489.02722,-494358368.54620,22765578.58365,   0.00008,  -0.00187,   0.00030,433253022.74125,   0.00000,274640135.82653,   0.00000,   0.00000,   0.00000,-41387113.08528,   0.00000
-192910259.65568,-495184870.25870,23116084.54550,   0.00009,  -0.00188,   0.00030,434164994.22285,   0.00000,274640135.82653,   0.00000,   0.00000,   0.00000,-40475141.60368,   0.00000
-192105394.11366,-495989735.80072,23466590.50735,   0.00009,  -0.00188,   0.00031,435063259.08427,   0.00000,274640135.82653,   0.00000,   0.00000,   0.00000,-39576876.74226,   0.00000
-191285383.25231,-496788110.49160,23821423.70329,   0.00010,  -0.00189,   0.00031,435961696.87597,   0.00000,274640135.82653,   0.00000,   0.00000,   0.00000,-38678438.95056,   0.00000
-190458881.53980,-497571339.86313,24171929.66514,   0.00010,  -0.00189,   0.00031,436849847.75687,   0.00000,274640135.82653,   0.00000,   0.00000,   0.00000,-37790288.06966,   0.00000
-189623725.35911,-498363223.70286,24526762.86108,   0.00011,  -0.00190,   0.00032,437751362.29073,   0.00000,274640135.82653,   0.00000,   0.00000,   0.00000,-36888773.53580,   0.00000
-188782078.32726,-499139962.22325,24877268.82293,   0.00011,  -0.00190,   0.00032,438642600.59113,   0.00000,274640135.82653,   0.00000,   0.00000,   0.00000,-35997535.23540,   0.00000
-187931776.82723,-499925355.21183,25227774.78477,   0.00012,  -0.00191,   0.00033,439546556.23829,   0.00000,274640135.82653,   0.00000,   0.00000,   0.00000,-35093579.58824,   0.00000
-187074984.47605,-500695602.88107,25582607.98072,   0.00013,  -0.00191,   0.00033,440441737.25731,   0.00000,274640135.82653,   0.00000,   0.00000,   0.00000,-34198398.56922,   0.00000
-186196555.95438,-501444214.37983,25933113.94256,   0.00013,  -0.00192,   0.00034,441322842.21393,   0.00000,274640135.82653,   0.00000,   0.00000,   0.00000,-33317293.61260,   0.00000
-185324618.28386,-502207971.19793,26283619.90441,   0.00014,  -0.00192,   0.00034,442220585.16228,   0.00000,274640135.82653,   0.00000,   0.00000,   0.00000,-32419550.66425,   0.00000
-184431044.44286,-502950091.84554,26638453.10036,   0.00014,  -0.00193,   0.00035,443105874.31308,   0.00000,274640135.82653,   0.00000,   0.00000,   0.00000,-31534261.51345,   0.00000
-183543961.45300,-503707357.81250,26988959.06220,   0.00015,  -0.00193,   0.00035,444007044.95330,   0.00000,274640135.82653,   0.00000,   0.00000,   0.00000,-30633090.87323,   0.00000
-182635242.29266,-504442987.60897,27339465.02405,   0.00015,  -0.00194,   0.00036,444895078.92734,   0.00000,274640135.82653,   0.00000,   0.00000,   0.00000,-29745056.89919,   0.00000
-181720032.28117,-505163472.08609,27689970.98590,   0.00016,  -0.00194,   0.00036,445773692.23317,   0.00000,274640135.82653,   0.00000,   0.00000,   0.00000,-28866443.59336,   0.00000
-180796167.80148,-505892611.03142,28040476.94774,   0.00016,  -0.00195,   0.00036,446665364.49191,   0.00000,274640135.82653,   0.00000,   0.00000,   0.00000,-27974771.33462,   0.00000
-179865812.47066,-506606604.65740,28390982.90959,   0.00017,  -0.00195,   0.00037,447547648.36858,   0.00000,274640135.82653,   0.00000,   0.00000,   0.00000,-27092487.45795,   0.00000
-178926802.67163,-507329252.75158,28741488.87144,   0.00018,  -0.00196,   0.00037,448443073.15732,   0.00000,274640135.82653,   0.00000,   0.00000,   0.00000,-26197062.66921,   0.00000
-177981302.02147,-508036755.52642,29091994.83328,   0.00018,  -0.00196,   0.00038,449329142.27975,   0.00000,274640135.82653,   0.00000,   0.00000,   0.00000,-25310993.54678,   0.00000
-177014165.20082,-508722622.13077,29438173.56103,   0.00019,  -0.00197,   0.00038,450201542.49173,   0.00000,274640135.82653,   0.00000,   0.00000,   0.00000,-24438593.33480,   0.00000
-176038373.91197,-509417143.20332,29788679.52288,   0.00019,  -0.00197,   0.00039,451088090.76472,   0.00000,274640135.82653,   0.00000,   0.00000,   0.00000,-23552045.06181,   0.00000
-175056091.77198,-510096518.95653,30134858.25063,   0.00020,  -0.00198,   0.00039,451964511.80196,   0.00000,274640135.82653,   0.00000,   0.00000,   0.00000,-22675624.02457,   0.00000
-174073809.63199,-510775894.70974,30485364.21248,   0.00020,  -0.00198,   0.00040,452845528.02199,   0.00000,274640135.82653,   0.00000,   0.00000,   0.00000,-21794607.80454,   0.00000
-173076382.17266,-511448779.61180,30831542.94023,   0.00021,  -0.00199,   0.00040,453726058.22321,   0.00000,274640135.82653,   0.00000,   0.00000,   0.00000,-20914077.60332,   0.00000
-172078954.71333,-512121664.51387,31177721.66798,   0.00022,  -0.00199,   0.00041,454610334.45062,   0.00000,274640135.82653,   0.00000,   0.00000,   0.00000,-20029801.37591,   0.00000
-171059891.08352,-512772913.24545,31528227.62982,   0.00022,  -0.00200,   0.00041,455482991.57907,   0.00000,274640135.82653,   0.00000,   0.00000,   0.00000,-19157144.24746,   0.00000
-170040827.45370,-513424161.97703,31874406.35757,   0.00023,  -0.00200,   0.00041,456358540.08400,   0.00000,274640135.82653,   0.00000,   0.00000,   0.00000,-18281595.74253,   0.00000
-169006618.50455,-514068919.85746,32216257.85123,   0.00023,  -0.00201,   0.00042,457233751.43155,   0.00000,274640135.82653,   0.00000,   0.00000,   0.00000,-17406384.39497,   0.00000
-167972409.55540,-514713677.73790,32562436.57898,   0.00024,  -0.00201,   0.00042,458113676.47063,   0.00000,274640135.82653,   0.00000,   0.00000,   0.00000,-16526459.35590,   0.00000
-166916564.43576,-515336799.44784,32908615.30673,   0.00025,  -0.00202,   0.00043,458981305.87340,   0.00000,274640135.82653,   0.00000,   0.00000,   0.00000,-15658829.95313,   0.00000
-165860719.31612,-515959921.15779,33250466.80038,   0.00025,  -0.00202,   0.00043,459851840.72593,   0.00000,274640135.82653,   0.00000,   0.00000,   0.00000,-14788295.10060,   0.00000
-164789728.87715,-516576552.01660,33596645.52813,   0.00026,  -0.00203,   0.00044,460724085.17233,   0.00000,274640135.82653,   0.00000,   0.00000,   0.00000,-13916050.65420,   0.00000
-163718738.43817,-517193182.87540,33938497.02178,   0.00026,  -0.00203,   0.00044,461599245.05970,   0.00000,274640135.82653,   0.00000,   0.00000,   0.00000,-13040890.76683,   0.00000
-162626111.82871,-517788177.56372,34280348.51543,   0.00027,  -0.00204,   0.00045,462462320.50649,   0.00000,274640135.82653,   0.00000,   0.00000,   0.00000,-12177815.32004,   0.00000
-161533485.21925,-518383172.25204,34622200.00909,   0.00028,  -0.00204,   0.00045,463329288.76631,   0.00000,274640135.82653,   0.00000,   0.00000,   0.00000,-11310847.06022,   0.00000
-160425713.29045,-518971676.08922,34964051.50274,   0.00028,  -0.00205,   0.00045,464197224.72879,   0.00000,274640135.82653,   0.00000,   0.00000,   0.00000,-10442911.09774,   0.00000
-159311450.51051,-519545034.60705,35305902.99639,   0.00029,  -0.00205,   0.00046,465056156.32846,   0.00000,274640135.82653,   0.00000,   0.00000,   0.00000,-9583979.49807,   0.00000
-158203678.58171,-520133538.44423,35643427.25595,   0.00029,  -0.00206,   0.00046,465930922.25710,   0.00000,274640135.82653,   0.00000,   0.00000,   0.00000,-8709213.56943,   0.00000
-157074270.48242,-520700406.11092,35980951.51551,   0.00030,  -0.00206,   0.00047,466793840.53110,   0.00000,274640135.82653,   0.00000,   0.00000,   0.00000,-7846295.29543,   0.00000
-155923226.21265,-521245637.60713,36322803.00916,   0.00031,  -0.00207,   0.00047,467646024.02605,   0.00000,274640135.82653,   0.00000,   0.00000,   0.00000,-6994111.80048,   0.00000
-154778672.79403,-521806014.42267,36660327.26871,   0.00031,  -0.00207,   0.00048,468514088.00336,   0.00000,274640135.82653,   0.00000,   0.00000,   0.00000,-6126047.82317,   0.00000
-153627628.52426,-522351245.91888,36993524.29417,   0.00032,  -0.00208,   0.00048,469372188.89799,   0.00000,274640135.82653,   0.00000,   0.00000,   0.00000,-5267946.92854,   0.00000
-152461438.93515,-522889986.56394,37331048.55373,   0.00033,  -0.00208,   0.00049,470232591.61085,   0.00000,274640135.82653,   0.00000,   0.00000,   0.00000,-4407544.21568,   0.00000
-151288758.49490,-523413581.88966,37668572.81329,   0.00033,  -0.00209,   0.00049,471084110.64629,   0.00000,274640135.82653,   0.00000,   0.00000,   0.00000,-3556025.18024,   0.00000
-150107423.58645,-523945831.68358,38001769.83875,   0.00034,  -0.00209,   0.00049,471948850.82401,   0.00000,274640135.82653,   0.00000,   0.00000,   0.00000,-2691285.00252,   0.00000
-148919597.82686,-524462936.15815,38334966.86420,   0.00035,  -0.00210,   0.00050,472804735.11400,   0.00000,274640135.82653,   0.00000,   0.00000,   0.00000,-1835400.71253,   0.00000
-147710135.89679,-524958404.46224,38668163.88966,   0.00035,  -0.00210,   0.00050,473649252.18426,   0.00000,274640135.82653,   0.00000,   0.00000,   0.00000,-990883.64227,   0.00000
-146500673.96671,-525453872.76634,39001360.91512,   0.00036,  -0.00211,   0.00051,474497831.22671,   0.00000,274640135.82653,   0.00000,   0.00000,   0.00000,-142304.59982,   0.00000
-146298158.85304,-525536835.12954,39056427.63655,   0.00036,  -0.00211,   0.00051,474640135.88407,   0.00000,274640135.82653,   0.00000,   0.00000,   0.00000,   0.05754,   0.00000
-145146424.27321,-525187744.53647,39266500.99892,   0.00036,  -0.00211,   0.00051,474640135.88407,   0.00000,274643131.83814,   0.00000,  -0.00000,   0.00000,   0.00000,   2.00000
-143750229.79360,-524761798.11496,39518272.39634,   0.00037,  -0.00211,   0.00052,475496095.27860,   0.00001,274646737.92222,   0.00000,  -0.00001,   0.00000,   0.00000,   2.00000
-142337188.52648,-524327388.11863,39770623.06253,   0.00038,  -0.00212,   0.00052,475488352.22576,   0.00001,274650298.90756,   0.00000,  -0.00001,   0.00000,   0.00000,   2.00000
-140929869.73765,-523891217.76706,40021000.85194,   0.00038,  -0.00212,   0.00052,475508644.85411,   0.00001,274653933.60709,   0.00000,  -0.00001,   0.00000,  -0.00000,   2.00000
-139516294.48593,-523449011.35472,40272923.14606,   0.00039,  -0.00213,   0.00053,475490554.94990,   0.00002,274657479.15204,   0.00000,  -0.00002,   0.00000,   0.00000,   2.00000
-138108734.66406,-523006297.72848,40518645.06969,   0.00040,  -0.00213,   0.00053,475509698.54838,   0.00002,274661093.67463,   0.00001,  -0.00002,   0.00001,   0.00000,   2.00000
-136669459.95000,-522550790.63417,40765174.20930,   0.00040,  -0.00214,   0.00054,475499919.14033,   0.00002,274664654.26441,   0.00001,  -0.00003,   0.00001,   0.00000,   2.00000
-135242551.28295,-522094658.01651,41011885.86656,   0.00041,  -0.00214,   0.00054,475496909.42931,   0.00003,274668189.78371,   0.00001,  -0.00003,   0.00001,   0.00000,   2.00000
-133806868.16564,-521632725.01052,41256804.37054,   0.00042,  -0.00215,   0.00055,475514997.95860,   0.00003,274671790.00278,   0.00001,  -0.00003,   0.00001,   0.00000,   2.00000
-132368794.98734,-521166036.47103,41502120.85969,   0.00042,  -0.00215,   0.00055,475509816.82545,   0.00003,274675355.72102,   0.00001,  -0.00004,   0.00001,   0.00000,   2.00000
-130913720.57419,-520691512.68234,41743830.81096,   0.00043,  -0.00215,   0.00055,475501380.70364,   0.00004,274678873.18658,   0.00001,  -0.00004,   0.00001,  -0.00000,   2.00000
-129460455.78762,-520213738.44768,41984741.12708,   0.00044,  -0.00216,   0.00056,475508952.47461,   0.00004,274682410.73223,   0.00001,  -0.00004,   0.00001,   0.00000,   2.00000
-127994241.32256,-519728404.01907,42225045.31150,   0.00044,  -0.00216,   0.00056,475514507.22041,   0.00004,274685959.70853,   0.00001,  -0.00005,   0.00001,   0.00000,   2.00000
-126530076.40328,-519241034.13137,42460335.17083,   0.00045,  -0.00217,   0.00057,475520992.99164,   0.00004,274689524.03495,   0.00001,  -0.00005,   0.00001,  -0.00000,   2.00000
-125048560.48550,-518744317.30193,42696247.98945,   0.00046,  -0.00217,   0.00057,475513958.17312,   0.00005,274693045.92655,   0.00002,  -0.00006,   0.00002,   0.00000,   2.00000
-123583731.51046,-518248762.32483,42931170.88640,   0.00046,  -0.00218,   0.00057,475523546.56802,   0.00005,274696596.51984,   0.00002,  -0.00006,   0.00002,   0.00000,   2.00000
-122086627.07782,-517739249.71296,43166906.71108,   0.00047,  -0.00218,   0.00058,475514701.67198,   0.00005,274700096.90997,   0.00002,  -0.00006,   0.00002,  -0.00000,   2.00000
-120606248.26312,-517230932.51372,43401651.77483,   0.00048,  -0.00219,   0.00058,475524263.72508,   0.00006,274703626.00611,   0.00002,  -0.00007,   0.00002,   0.00000,   2.00000
-119113098.05392,-516716040.71639,43631570.75639,   0.00049,  -0.00219,   0.00059,475528922.27780,   0.00006,274707162.72008,   0.00002,  -0.00007,   0.00002,  -0.00000,   2.00000
-117602387.89324,-516191410.84893,43862122.12860,   0.00049,  -0.00219,   0.00059,475522194.29099,   0.00006,274710658.21136,   0.00002,  -0.00007,   0.00002,   0.00000,   2.00000
-116093601.33919,-515663426.65410,44091866.66274,   0.00050,  -0.00220,   0.00059,475529949.88170,   0.00007,274714174.73969,   0.00002,  -0.00008,   0.00002,  -0.00000,   2.00000
-114582221.47053,-515131491.30628,44317872.99456,   0.00051,  -0.00220,   0.00060,475523847.76937,   0.00007,274717652.70478,   0.00002,  -0.00008,   0.00002,   0.00000,   2.00000
-113057879.29463,-514591488.65270,44543249.33811,   0.00051,  -0.00221,   0.00060,475529907.49746,   0.00007,274721144.50385,   0.00002,  -0.00009,   0.00002,  -0.00000,   2.00000
-111535499.13292,-514048123.82208,44767820.92626,   0.00052,  -0.00221,   0.00061,475537701.42912,   0.00008,274724657.53787,   0.00003,  -0.00009,   0.00002,   0.00000,   2.00000
-110010271.83215,-513499448.74436,44992868.43838,   0.00053,  -0.00221,   0.00061,475532880.66525,   0.00008,274728137.42000,   0.00003,  -0.00009,   0.00003,   0.00000,   2.00000
-108467378.84428,-512941843.79087,45214361.85120,   0.00053,  -0.00222,   0.00061,475525261.73821,   0.00008,274731572.19866,   0.00003,  -0.00010,   0.00003,  -0.00000,   2.00000
-106931366.50531,-512382866.00544,45433762.68981,   0.00054,  -0.00222,   0.00062,475545666.48578,   0.00009,274735082.81907,   0.00003,  -0.00010,   0.00003,   0.00000,   2.00000
-105377633.94186,-511814827.10492,45649615.60615,   0.00055,  -0.00223,   0.00062,475538196.52686,   0.00009,274738548.78019,   0.00003,  -0.00010,   0.00003,   0.00000,   2.00000
-103820778.03207,-511239982.63510,45870156.26376,   0.00056,  -0.00223,   0.00063,475534744.64266,   0.00009,274741987.55180,   0.00003,  -0.00011,   0.00003,   0.00000,   2.00000
-102266078.77391,-510663014.01165,46085697.70194,   0.00056,  -0.00223,   0.00063,475541350.48950,   0.00010,274745442.66105,   0.00003,  -0.00011,   0.00003,   0.00000,   2.00000
-100713411.52140,-510082658.41096,46300437.46809,   0.00057,  -0.00224,   0.00063,475549205.94328,   0.00010,274748919.44544,   0.00003,  -0.00011,   0.00003,  -0.00000,   2.00000
-99127863.83026,-509487843.27185,46511777.61441,   0.00058,  -0.00224,   0.00064,475540606.91323,   0.00010,274752346.64917,   0.00004,  -0.00012,   0.00003,   0.00000,   2.00000
-97559366.00856,-508894683.86117,46722174.65678,   0.00058,  -0.00225,   0.00064,475549858.63097,   0.00011,274755801.70179,   0.00004,  -0.00012,   0.00003,   0.00000,   2.00000
-95972748.65917,-508290684.11645,46933222.23645,   0.00059,  -0.00225,   0.00065,475543993.43917,   0.00011,274759218.99501,   0.00004,  -0.00012,   0.00004,  -0.00000,   2.00000
-94388208.54550,-507683207.04716,47143461.08870,   0.00060,  -0.00225,   0.00065,475551947.39264,   0.00011,274762658.57644,   0.00004,  -0.00013,   0.00004,   0.00000,   2.00000
-92800609.25528,-507071303.92838,47350036.26342,   0.00061,  -0.00226,   0.00065,475546115.41134,   0.00011,274766060.50538,   0.00004,  -0.00013,   0.00004,   0.00000,   2.00000
-91200080.65403,-506450632.06639,47555931.87940,   0.00061,  -0.00226,   0.00066,475552908.95571,   0.00012,274769479.75914,   0.00004,  -0.00014,   0.00004,  -0.00000,   2.00000
-89596309.28665,-505824102.06378,47762353.89083,   0.00062,  -0.00227,   0.00066,475548440.05280,   0.00012,274772867.29641,   0.00004,  -0.00014,   0.00004,  -0.00000,   2.00000
-87979734.35039,-505190009.29482,47963901.32626,   0.00063,  -0.00227,   0.00066,475554061.38780,   0.00012,274776267.12457,   0.00004,  -0.00014,   0.00004,   0.00000,   2.00000
-86359858.17753,-504549951.86880,48165982.43399,   0.00064,  -0.00227,   0.00067,475549663.48279,   0.00013,274779635.55725,   0.00005,  -0.00015,   0.00004,   0.00000,   2.00000
-84742121.52239,-503906355.58147,48367254.22780,   0.00064,  -0.00228,   0.00067,475557695.92213,   0.00013,274783026.84440,   0.00005,  -0.00015,   0.00004,  -0.00000,   2.00000
-83111600.25750,-503255073.86041,48563642.78296,   0.00065,  -0.00228,   0.00068,475563472.58939,   0.00013,274786431.08077,   0.00005,  -0.00015,   0.00004,   0.00000,   2.00000
-81487186.23056,-502600758.62255,48761829.21303,   0.00066,  -0.00228,   0.00068,475547652.81212,   0.00014,274789753.92782,   0.00005,  -0.00016,   0.00005,   0.00000,   2.00000
-79840406.07680,-501934264.92650,48958045.24555,   0.00067,  -0.00229,   0.00068,475566326.47104,   0.00014,274793146.32482,   0.00005,  -0.00016,   0.00005,  -0.00000,   2.00000
-78205356.68352,-501268597.56064,49150539.34200,   0.00067,  -0.00229,   0.00069,475561587.14636,   0.00014,274796505.67455,   0.00005,  -0.00016,   0.00005,   0.00000,   2.00000
-76551738.94120,-500591082.96808,49343678.85926,   0.00068,  -0.00230,   0.00069,475556502.13217,   0.00015,274799830.57338,   0.00005,  -0.00017,   0.00005,   0.00000,   2.00000
-74900331.99424,-499909965.53961,49536006.20826,   0.00069,  -0.00230,   0.00069,475564626.37700,   0.00015,274803178.93387,   0.00005,  -0.00017,   0.00005,   0.00000,   2.00000
-73230373.56309,-499218168.25426,49724797.71381,   0.00070,  -0.00230,   0.00070,475558357.61913,   0.00015,274806487.63431,   0.00006,  -0.00017,   0.00005,  -0.00000,   2.00000
-71562656.00614,-498522723.89171,49912775.62193,   0.00070,  -0.00231,   0.00070,475566536.56843,   0.00015,274809820.11834,   0.00006,  -0.00018,   0.00005,  -0.00000,   2.00000
-69891408.75478,-497822271.48328,50097146.46832,   0.00071,  -0.00231,   0.00070,475561036.53822,   0.00016,274813116.28033,   0.00006,  -0.00018,   0.00005,   0.00000,   2.00000
-68207257.13094,-497110921.07594,50284941.59463,   0.00072,  -0.00231,   0.00071,475569992.14670,   0.00016,274816439.70633,   0.00006,  -0.00018,   0.00005,   0.00000,   2.00000
-66519519.89573,-496394448.91266,50469126.87115,   0.00073,  -0.00232,   0.00071,475564583.26124,   0.00016,274819727.18001,   0.00006,  -0.00019,   0.00006,   0.00000,   2.00000
-64834130.63500,-495675690.41750,50648330.85179,   0.00073,  -0.00232,   0.00071,475571428.22855,   0.00017,274823032.67129,   0.00006,  -0.00019,   0.00006,  -0.00000,   2.00000
-63145024.68210,-494950394.75054,50828110.55735,   0.00074,  -0.00232,   0.00072,475567390.49381,   0.00017,274826308.22372,   0.00006,  -0.00019,   0.00006,   0.00000,   2.00000
-61443117.91066,-494215389.81794,51007126.86444,   0.00075,  -0.00233,   0.00072,475575186.93361,   0.00017,274829606.04255,   0.00006,  -0.00020,   0.00006,   0.00000,   2.00000
-59737450.04398,-493473726.72637,51186713.00798,   0.00076,  -0.00233,   0.00072,475571254.72609,   0.00018,274832874.36141,   0.00007,  -0.00020,   0.00006,   0.00000,   2.00000
-58028011.42691,-492726747.91300,51362709.30171,   0.00076,  -0.00233,   0.00073,475565920.73136,   0.00018,274836107.07409,   0.00007,  -0.00020,   0.00006,   0.00000,   2.00000
-56305793.99962,-491969877.08420,51537923.93675,   0.00077,  -0.00234,   0.00073,475573890.40897,   0.00018,274839362.99993,   0.00007,  -0.00021,   0.00006,   0.00000,   2.00000
-54579750.24269,-491207576.91034,51709552.26318,   0.00078,  -0.00234,   0.00074,475568641.01970,   0.00018,274842583.67524,   0.00007,  -0.00021,   0.00006,   0.00000,   2.00000
-52856081.72094,-490441533.56034,51880362.50492,   0.00079,  -0.00234,   0.00074,475576964.24816,   0.00019,274845829.16945,   0.00007,  -0.00021,   0.00006,   0.00000,   2.00000
-51113372.87862,-489662300.75178,52051774.26495,   0.00079,  -0.00234,   0.00074,475572977.82681,   0.00019,274849044.97536,   0.00007,  -0.00022,   0.00006,   0.00000,   2.00000
-49373096.95776,-488880676.99392,52218200.99987,   0.00080,  -0.00235,   0.00074,475579955.68386,   0.00019,274852279.68520,   0.00007,  -0.00022,   0.00007,   0.00000,   2.00000
-47622453.87802,-488088822.47635,52386614.53155,   0.00081,  -0.00235,   0.00075,475564109.74820,   0.00020,274855432.15719,   0.00008,  -0.00022,   0.00007,   0.00000,   2.00000
-45880668.08955,-487297834.40574,52548642.30690,   0.00082,  -0.00235,   0.00075,475583151.27366,   0.00020,274858657.22827,   0.00008,  -0.00023,   0.00007,  -0.00000,   2.00000
-44119734.20051,-486491916.21240,52715414.65367,   0.00083,  -0.00236,   0.00075,475580889.58690,   0.00020,274861860.20597,   0.00008,  -0.00023,   0.00007,   0.00000,   2.00000
-42354746.23580,-485681648.00518,52874457.26931,   0.00083,  -0.00236,   0.00076,475574399.74772,   0.00021,274865022.37968,   0.00008,  -0.00023,   0.00007,   0.00000,   2.00000
-40585671.85088,-484862755.56723,53038239.26613,   0.00084,  -0.00236,   0.00076,475572229.92727,   0.00021,274868163.05057,   0.00008,  -0.00024,   0.00007,   0.00000,   2.00000
-38803934.57337,-484034827.79598,53197023.37289,   0.00085,  -0.00237,   0.00076,475579352.23487,   0.00021,274871323.57728,   0.00008,  -0.00024,   0.00007,   0.00000,   2.00000
-37018067.29789,-483199559.26596,53356386.71624,   0.00086,  -0.00237,   0.00077,475575855.12326,   0.00021,274874456.66019,   0.00008,  -0.00024,   0.00007,   0.00000,   2.00000
-35234695.47012,-482361820.82019,53510764.51472,   0.00087,  -0.00237,   0.00077,475582912.27766,   0.00022,274877609.33074,   0.00008,  -0.00025,   0.00007,  -0.00000,   2.00000
-33447134.87936,-481516690.69417,53665729.47901,   0.00087,  -0.00237,   0.00077,475579437.72377,   0.00022,274880734.61653,   0.00009,  -0.00025,   0.00008,   0.00000,   2.00000
-31640225.66017,-480657341.18052,53821244.37309,   0.00088,  -0.00238,   0.00078,475576278.20977,   0.00022,274883834.01416,   0.00009,  -0.00025,   0.00008,  -0.00000,   2.00000
-29835842.98445,-479795464.52025,53971768.42525,   0.00089,  -0.00238,   0.00078,475583395.43492,   0.00023,274886953.40845,   0.00009,  -0.00025,   0.00008,  -0.00000,   2.00000
-28027149.25931,-478927435.20468,54118730.47702,   0.00090,  -0.00238,   0.00078,475578567.26622,   0.00023,274890039.42156,   0.00009,  -0.00026,   0.00008,  -0.00000,   2.00000
-26221095.29783,-478054069.44510,54269003.52790,   0.00090,  -0.00238,   0.00079,475588620.25995,   0.00023,274893158.58511,   0.00009,  -0.00026,   0.00008,   0.00000,   2.00000
-24388622.04610,-477163809.83685,54417080.77388,   0.00091,  -0.00239,   0.00079,475572401.90937,   0.00023,274896193.42651,   0.00009,  -0.00026,   0.00008,   0.00000,   2.00000
-22580846.70927,-476280298.81454,54562947.55235,   0.00092,  -0.00239,   0.00079,475592416.70146,   0.00024,274899306.16458,   0.00009,  -0.00027,   0.00008,   0.00000,   2.00000
-20731412.14949,-475372659.56467,54706550.26300,   0.00093,  -0.00239,   0.00079,475576907.56172,   0.00024,274902337.65091,   0.00010,  -0.00027,   0.00008,  -0.00000,   2.00000
-18899741.04234,-474468012.98196,54849370.13947,   0.00094,  -0.00239,   0.00080,475585037.76541,   0.00024,274905393.93691,   0.00010,  -0.00027,   0.00008,   0.00000,   2.00000
-17063562.47676,-473556923.33817,54988630.42978,   0.00094,  -0.00240,   0.00080,475580365.67490,   0.00024,274908417.57950,   0.00010,  -0.00028,   0.00009,   0.00000,   2.00000
-15207824.10047,-472630769.76985,55128391.50180,   0.00095,  -0.00240,   0.00080,475577897.06993,   0.00025,274911418.56635,   0.00010,  -0.00028,   0.00009,  -0.00000,   2.00000
-13354785.13096,-471700560.72301,55267297.50792,   0.00096,  -0.00240,   0.00081,475586631.13522,   0.00025,274914447.19989,   0.00010,  -0.00028,   0.00009,   0.00000,   2.00000
-11482082.65632,-470756501.04369,55402543.12563,   0.00097,  -0.00240,   0.00081,475582878.22388,   0.00025,274917447.34785,   0.00010,  -0.00028,   0.00009,   0.00000,   2.00000
-9619944.43729,-469811517.61811,55538454.31492,   0.00098,  -0.00241,   0.00081,475579123.22888,   0.00026,274920419.06533,   0.00010,  -0.00029,   0.00009,   0.00000,   2.00000
-7745474.93589,-468855187.68897,55673404.57780,   0.00099,  -0.00241,   0.00081,475588730.55330,   0.00026,274923422.49239,   0.00011,  -0.00029,   0.00009,   0.00000,   2.00000
-5866343.85955,-467892039.58690,55804782.10606,   0.00099,  -0.00241,   0.00082,475584332.68624,   0.00026,274926394.53226,   0.00011,  -0.00029,   0.00009,   0.00000,   2.00000
-3982504.37176,-466922014.86773,55932590.92308,   0.00100,  -0.00241,   0.00082,475579939.70080,   0.00026,274929335.29720,   0.00011,  -0.00030,   0.00009,  -0.00000,   2.00000
-2101582.08046,-465946457.71363,56063674.75674,   0.00101,  -0.00242,   0.00082,475590286.79723,   0.00027,274932311.23901,   0.00011,  -0.00030,   0.00009,   0.00000,   2.00000
-200861.40830,-464956501.22147,56191059.19031,   0.00102,  -0.00242,   0.00083,475586996.58040,   0.00027,274935260.80358,   0.00011,  -0.00030,   0.00009,   0.00000,   2.00000
1689605.48834,-463966977.39115,56315000.52354,   0.00103,  -0.00242,   0.00083,475581653.73988,   0.00027,274938174.79698,   0.00011,  -0.00031,   0.00010,   0.00000,   2.00000
3599805.38968,-462961427.31517,56439369.19268,   0.00103,  -0.00242,   0.00083,475580011.92368,   0.00027,274941070.03544,   0.00011,  -0.00031,   0.00010,   0.00000,   2.00000
5522148.24719,-461944111.29800,56562716.92613,   0.00104,  -0.00242,   0.00083,475590124.72317,   0.00028,274943999.63244,   0.00012,  -0.00031,   0.00010,   0.00000,   2.00000
7441948.68197,-460922672.95390,56684055.20722,   0.00105,  -0.00243,   0.00084,475573238.53012,   0.00028,274946841.51581,   0.00012,  -0.00031,   0.00010,   0.00000,   2.00000
9366201.95329,-459893879.50149,56802932.59113,   0.00106,  -0.00243,   0.00084,475594984.96794,   0.00028,274949770.55191,   0.00012,  -0.00032,   0.00010,   0.00000,   2.00000
11287898.14246,-458859464.60668,56923944.14059,   0.00107,  -0.00243,   0.00084,475579647.73187,   0.00029,274952618.74354,   0.00012,  -0.00032,   0.00010,   0.00000,   2.00000
13221817.77670,-457814544.38334,57039777.28872,   0.00107,  -0.00243,   0.00084,475588402.62273,   0.00029,274955495.36251,   0.00012,  -0.00032,   0.00010,   0.00000,   2.00000
15168311.97512,-456756086.46860,57157576.00749,   0.00108,  -0.00243,   0.00085,475574483.73107,   0.00029,274958297.65942,   0.00012,  -0.00032,   0.00010,   0.00000,   2.00000
17126975.50926,-455686936.93694,57270171.66909,   0.00109,  -0.00243,   0.00085,475583427.34297,   0.00029,274961129.44419,   0.00012,  -0.00033,   0.00010,  -0.00000,   2.00000
19067659.14201,-454621320.49917,57382057.66420,   0.00110,  -0.00244,   0.00085,475591053.90309,   0.00030,274963984.61448,   0.00013,  -0.00033,   0.00011,   0.00000,   2.00000
21036034.83044,-453534005.44540,57495708.84961,   0.00111,  -0.00244,   0.00085,475578847.75667,   0.00030,274966773.15412,   0.00013,  -0.00033,   0.00011,   0.00000,   2.00000
23001554.55499,-452443753.33754,57604327.49281,   0.00112,  -0.00244,   0.00086,475586434.68590,   0.00030,274969585.08863,   0.00013,  -0.00034,   0.00011,   0.00000,   2.00000
24971960.64893,-451344296.83872,57713466.71390,   0.00112,  -0.00244,   0.00086,475584232.39209,   0.00030,274972375.87851,   0.00013,  -0.00034,   0.00011,   0.00000,   2.00000
26947492.41634,-450236990.73055,57818996.84582,   0.00113,  -0.00244,   0.00086,475580484.38122,   0.00031,274975138.56166,   0.00013,  -0.00034,   0.00011,   0.00000,   2.00000
28919917.07246,-449125336.99983,57923623.27165,   0.00114,  -0.00244,   0.00086,475589657.05202,   0.00031,274977931.94906,   0.00013,  -0.00034,   0.00011,   0.00000,   2.00000
30920248.57275,-447991226.66932,58029956.94476,   0.00115,  -0.00244,   0.00087,475578051.51916,   0.00031,274980661.43849,   0.00013,  -0.00035,   0.00011,   0.00000,   2.00000
32902781.22565,-446862204.05529,58131474.32029,   0.00116,  -0.00245,   0.00087,475583921.18584,   0.00031,274983406.74546,   0.00014,  -0.00035,   0.00011,   0.00000,   2.00000
34905158.48884,-445715551.56876,58233262.51171,   0.00117,  -0.00245,   0.00087,475583766.16879,   0.00032,274986140.38316,   0.00014,  -0.00035,   0.00011,   0.00000,   2.00000
36904560.84696,-444565888.32609,58330006.36226,   0.00117,  -0.00245,   0.00087,475591489.92928,   0.00032,274988898.26748,   0.00014,  -0.00035,   0.00011,   0.00000,   2.00000
38917192.39547,-443401394.55128,58428658.40622,   0.00118,  -0.00245,   0.00087,475578416.56015,   0.00032,274991585.50819,   0.00014,  -0.00036,   0.00012,   0.00000,   2.00000
40926579.64215,-442232439.98464,58526382.30887,   0.00119,  -0.00245,   0.00088,475587753.58097,   0.00032,274994304.54463,   0.00014,  -0.00036,   0.00012,  -0.00000,   2.00000
42964363.55840,-441041519.44815,58621615.50405,   0.00120,  -0.00245,   0.00088,475575291.03826,   0.00033,274996955.79229,   0.00014,  -0.00036,   0.00012,   0.00000,   2.00000
44984064.59575,-439854382.12283,58716172.90385,   0.00121,  -0.00245,   0.00088,475582626.11227,   0.00033,274999629.85225,   0.00014,  -0.00036,   0.00012,  -0.00000,   2.00000
47023873.47381,-438650390.93841,58806810.42355,   0.00122,  -0.00245,   0.00088,475581474.75673,   0.00033,275002287.87470,   0.00015,  -0.00037,   0.00012,  -0.00000,   2.00000
49060316.88514,-437441863.28359,58896504.54541,   0.00122,  -0.00246,   0.00089,475590961.54328,   0.00033,275004978.52171,   0.00015,  -0.00037,   0.00012,   0.00000,   2.00000
51110279.92341,-436217803.41928,58988060.87435,   0.00123,  -0.00246,   0.00089,475578375.27274,   0.00034,275007600.73000,   0.00015,  -0.00037,   0.00012,  -0.00000,   2.00000
53157133.72191,-434990571.78211,59074545.55082,   0.00124,  -0.00246,   0.00089,475586287.11800,   0.00034,275010248.51361,   0.00015,  -0.00037,   0.00012,  -0.00000,   2.00000
55217619.60701,-433747570.20687,59162879.05353,   0.00125,  -0.00246,   0.00089,475573834.32258,   0.00034,275012828.54917,   0.00015,  -0.00038,   0.00012,   0.00000,   2.00000
57274974.12556,-432501355.50195,59246135.88727,   0.00126,  -0.00246,   0.00089,475581772.18391,   0.00034,275015434.45500,   0.00015,  -0.00038,   0.00012,   0.00000,   2.00000
59352110.89544,-431236249.88140,59329518.65705,   0.00127,  -0.00246,   0.00090,475582865.32949,   0.00034,275018034.77009,   0.00016,  -0.00038,   0.00012,   0.00000,   2.00000
61419718.88819,-429969365.45046,59413642.53403,   0.00127,  -0.00246,   0.00090,475579129.17551,   0.00035,275020607.35105,   0.00016,  -0.00038,   0.00013,  -0.00000,   2.00000
63498745.59302,-428690598.53360,59492358.75386,   0.00128,  -0.00246,   0.00090,475589678.34106,   0.00035,275023217.81959,   0.00016,  -0.00039,   0.00013,   0.00000,   2.00000
65577007.79287,-427404175.95661,59573213.08356,   0.00129,  -0.00246,   0.00090,475575071.70144,   0.00035,275025750.57034,   0.00016,  -0.00039,   0.00013,   0.00000,   2.00000
67666621.32644,-426105758.04035,59648640.78546,   0.00130,  -0.00246,   0.00090,475585752.43225,   0.00035,275028321.99129,   0.00016,  -0.00039,   0.00013,  -0.00000,   2.00000
69770160.53601,-424790727.15732,59725855.92410,   0.00131,  -0.00246,   0.00091,475573913.45409,   0.00036,275030828.47920,   0.00016,  -0.00039,   0.00013,   0.00000,   2.00000
71870048.16211,-423470960.14426,59802079.44394,   0.00132,  -0.00246,   0.00091,475583710.24117,   0.00036,275033369.69796,   0.00016,  -0.00040,   0.00013,   0.00000,   2.00000
73975454.46086,-422141801.73719,59874577.93740,   0.00133,  -0.00246,   0.00091,475581145.06626,   0.00036,275035888.66168,   0.00017,  -0.00040,   0.00013,   0.00000,   2.00000
76086032.51209,-420801802.59040,59947460.19895,   0.00133,  -0.00246,   0.00091,475580261.60707,   0.00036,275038393.17756,   0.00017,  -0.00040,   0.00013,   0.00000,   2.00000
78216253.89760,-419441970.96574,60020343.01018,   0.00134,  -0.00246,   0.00091,475582350.97456,   0.00037,275040896.97935,   0.00017,  -0.00040,   0.00013,  -0.00000,   2.00000
80337549.45118,-418081417.67722,60089848.13017,   0.00135,  -0.00246,   0.00091,475577090.05203,   0.00037,275043366.20039,   0.00017,  -0.00040,   0.00013,   0.00000,   2.00000
82469467.63300,-416707120.64420,60157960.74034,   0.00136,  -0.00246,   0.00092,475590013.31538,   0.00037,275045884.73848,   0.00017,  -0.00041,   0.00013,   0.00000,   2.00000
84601541.90982,-415325742.85723,60224068.08209,   0.00137,  -0.00246,   0.00092,475574149.30099,   0.00037,275048319.70065,   0.00017,  -0.00041,   0.00014,   0.93953,   1.00000
86753195.63134,-413924110.47421,60290121.53351,   0.00138,  -0.00246,   0.00092,475576660.24161,   0.00037,275050756.13428,   0.00017,  -0.00041,   0.00014,   0.92247,   1.00000
88886569.40146,-412526696.18154,60355550.24822,   0.00138,  -0.00246,   0.00092,475583600.84498,   0.00038,275053214.44539,   0.00018,  -0.00041,   0.00014,   0.92086,   1.00000
91048998.97331,-411103735.45177,60418145.29013,   0.00139,  -0.00246,   0.00092,475574167.95715,   0.00038,275055618.97956,   0.00018,  -0.00042,   0.00014,   0.86343,   1.00000
93207436.04569,-409675867.25025,60479699.24045,   0.00140,  -0.00246,   0.00093,475584333.28443,   0.00038,275058060.41961,   0.00018,  -0.00042,   0.00014,   0.87216,   1.00000
95371448.86915,-408237875.07323,60537452.87484,   0.00141,  -0.00246,   0.00093,475582420.68711,   0.00038,275060482.81811,   0.00018,  -0.00042,   0.00014,   0.84099,   1.00000
97526367.72515,-406797557.92563,60595944.83322,   0.00142,  -0.00246,   0.00093,475578848.83802,   0.00039,275062878.55944,   0.00018,  -0.00042,   0.00014,   0.80555,   1.00000
99700706.41729,-405336437.26265,60654300.79839,   0.00143,  -0.00246,   0.00093,475582018.96610,   0.00039,275065278.91294,   0.00018,  -0.00043,   0.00014,   0.79151,   1.00000
101880636.82130,-403864968.25920,60708831.19103,   0.00144,  -0.00246,   0.00093,475580295.67223,   0.00039,275067661.21375,   0.00018,  -0.00043,   0.00014,   0.76286,   1.00000
104065710.86191,-402381739.42556,60763638.40499,   0.00144,  -0.00246,   0.00093,475580291.48440,   0.00039,275070033.47418,   0.00019,  -0.00043,   0.00014,   0.73988,   1.00000
106255921.50077,-400886680.48968,60818711.68203,   0.00145,  -0.00246,   0.00093,475580358.95341,   0.00039,275072396.05251,   0.00019,  -0.00043,   0.00014,   0.71751,   1.00000
108451729.91331,-399381047.79471,60869932.87084,   0.00146,  -0.00246,   0.00094,475578835.84320,   0.00040,275074741.60712,   0.00019,  -0.00043,   0.00015,   0.69120,   1.00000
110666742.95540,-397854032.39917,60920927.00382,   0.00147,  -0.00246,   0.00094,475582718.25022,   0.00040,275077095.24348,   0.00019,  -0.00044,   0.00015,   0.67985,   1.00000
112873247.90199,-396325667.06644,60968522.34562,   0.00148,  -0.00246,   0.00094,475577721.44964,   0.00040,275079415.75502,   0.00019,  -0.00044,   0.00015,   0.64537,   1.00000
115084862.83661,-394785182.24083,61016349.13016,   0.00149,  -0.00246,   0.00094,475578066.95345,   0.00040,275081728.03037,   0.00019,  -0.00044,   0.00015,   0.62553,   1.00000
117292075.57853,-393239687.74773,61063084.54931,   0.00149,  -0.00246,   0.00094,475588606.33133,   0.00041,275084079.37279,   0.00019,  -0.00044,   0.00015,   0.63123,   1.00000
119513889.89869,-391674775.36168,61111346.03472,   0.00150,  -0.00246,   0.00094,475579001.88455,   0.00041,275086376.14268,   0.00020,  -0.00044,   0.00015,   0.58742,   1.00000
121755210.54069,-390089279.82431,61155187.91336,   0.00151,  -0.00246,   0.00095,475581850.15436,   0.00041,275088676.35716,   0.00020,  -0.00045,   0.00015,   0.57430,   1.00000
123988150.95791,-388502204.44118,61195618.67478,   0.00152,  -0.00246,   0.00095,475576962.00236,   0.00041,275090944.05545,   0.00020,  -0.00045,   0.00015,   0.54392,   1.00000
126215997.63621,-386908763.39713,61239042.50918,   0.00153,  -0.00246,   0.00095,475589338.13367,   0.00041,275093259.55711,   0.00020,  -0.00045,   0.00015,   0.55240,   1.00000
128459032.24293,-385296683.68976,61279828.54350,   0.00154,  -0.00246,   0.00095,475578512.42174,   0.00042,275095514.83310,   0.00020,  -0.00045,   0.00015,   0.51017,   1.00000
130721410.78274,-383663602.04146,61316129.54689,   0.00155,  -0.00245,   0.00095,475581877.55122,   0.00042,275097776.09143,   0.00020,  -0.00045,   0.00015,   0.49896,   1.00000
132965254.89415,-382035048.44349,61351831.74674,   0.00155,  -0.00245,   0.00095,475588640.92093,   0.00042,275100059.09183,   0.00020,  -0.00046,   0.00015,   0.49469,   1.00000
135223787.72299,-380386174.65918,61388961.16177,   0.00156,  -0.00245,   0.00095,475579833.37153,   0.00042,275102291.29487,   0.00021,  -0.00046,   0.00016,   0.45969,   1.00000
137487264.93906,-378724470.52259,61426216.94004,   0.00157,  -0.00245,   0.00095,475580977.29092,   0.00042,275104519.20673,   0.00021,  -0.00046,   0.00016,   0.44487,   1.00000
139760108.25717,-377049112.61000,61457646.60382,   0.00158,  -0.00245,   0.00096,475594652.64187,   0.00043,275106801.17670,   0.00021,  -0.00046,   0.00016,   0.45314,   1.00000
142033960.74358,-375362796.75273,61491017.38453,   0.00159,  -0.00245,   0.00096,475581925.59431,   0.00043,275109014.00960,   0.00021,  -0.00046,   0.00016,   0.41348,   1.00000
144313263.31387,-373664699.37162,61520376.72601,   0.00160,  -0.00245,   0.00096,475581651.31257,   0.00043,275111215.98687,   0.00021,  -0.00047,   0.00016,   0.39708,   1.00000
146587553.84086,-371961419.10878,61548565.57428,   0.00161,  -0.00245,   0.00096,475592791.69663,   0.00043,275113460.33299,   0.00021,  -0.00047,   0.00016,   0.39986,   1.00000
148876539.25450,-370237047.71525,61578087.04796,   0.00161,  -0.00244,   0.00096,475584732.38844,   0.00043,275115657.36116,   0.00021,  -0.00047,   0.00016,   0.37116,   1.00000
151170908.24608,-368500671.87530,61603562.87722,   0.00162,  -0.00244,   0.00096,475584729.80096,   0.00044,275117844.82194,   0.00022,  -0.00047,   0.00016,   0.35615,   1.00000
153459490.06781,-366757842.39819,61631951.68328,   0.00163,  -0.00244,   0.00096,475597717.27033,   0.00044,275120083.33391,   0.00022,  -0.00047,   0.00016,   0.36084,   1.00000
155763970.68718,-364996014.16690,61653411.61588,   0.00164,  -0.00244,   0.00096,475586692.92889,   0.00044,275122260.63576,   0.00022,  -0.00048,   0.00016,   0.33001,   1.00000
158072516.34651,-363219494.37856,61679002.26628,   0.00165,  -0.00244,   0.00097,475590335.55066,   0.00044,275124445.42450,   0.00022,  -0.00048,   0.00016,   0.32098,   1.00000
160386334.10612,-361430678.47084,61700498.57334,   0.00166,  -0.00244,   0.00097,475590716.89365,   0.00044,275126622.42984,   0.00022,  -0.00048,   0.00016,   0.30764,   1.00000
162704760.37822,-359628269.78676,61721994.76267,   0.00166,  -0.00243,   0.00097,475592877.45077,   0.00045,275128799.98035,   0.00022,  -0.00048,   0.00016,   0.29689,   1.00000
165028397.02724,-357813418.06342,61739373.61903,   0.00167,  -0.00243,   0.00097,475593454.59678,   0.00045,275130970.66374,   0.00022,  -0.00048,   0.00017,   0.28434,   1.00000
167356563.22877,-355984837.72628,61756728.98157,   0.00168,  -0.00243,   0.00097,475595814.81896,   0.00045,275133142.82746,   0.00023,  -0.00049,   0.00017,   0.27421,   1.00000
169689213.89849,-354142464.67176,61774046.94335,   0.00169,  -0.00243,   0.00097,475598281.18088,   0.00045,275135316.94833,   0.00023,  -0.00049,   0.00017,   0.26434,   1.00000
172013847.32748,-352297548.78058,61787874.86939,   0.00170,  -0.00243,   0.00097,475594056.04950,   0.00045,275137461.71665,   0.00023,  -0.00049,   0.00017,   0.24738,   1.00000
174356028.62995,-350428621.97550,61800982.88734,   0.00171,  -0.00243,   0.00097,475601763.03208,   0.00046,275139633.04617,   0.00023,  -0.00049,   0.00017,   0.24355,   1.00000
176689521.43391,-348555863.07981,61814694.06181,   0.00172,  -0.00242,   0.00097,475599327.67657,   0.00046,275141783.36616,   0.00023,  -0.00049,   0.00017,   0.22930,   1.00000
179040375.97355,-346658926.81181,61827642.80000,   0.00172,  -0.00242,   0.00097,475607363.73496,   0.00046,275143961.74869,   0.00023,  -0.00049,   0.00017,   0.22563,   1.00000
181393414.61549,-344750419.80008,61838253.40754,   0.00173,  -0.00242,   0.00097,475594306.92769,   0.00046,275146069.34823,   0.00023,  -0.00050,   0.00017,   0.20233,   1.00000
183740499.95134,-342836590.59044,61847579.08523,   0.00174,  -0.00242,   0.00098,475606335.58668,   0.00046,275148223.87390,   0.00024,  -0.00050,   0.00017,   0.20239,   1.00000
186105364.50135,-340899500.40551,61851978.53273,   0.00175,  -0.00241,   0.00098,475613177.99759,   0.00047,275150400.83296,   0.00024,  -0.00050,   0.00017,   0.19753,   1.00000
188471754.49696,-338949342.30158,61858111.08430,   0.00176,  -0.00241,   0.00098,475602105.85057,   0.00047,275152516.22030,   0.00024,  -0.00050,   0.00017,   0.17813,   1.00000
190831966.98055,-336993858.41539,61862935.89924,   0.00177,  -0.00241,   0.00098,475614347.61237,   0.00047,275154679.48704,   0.00024,  -0.00050,   0.00017,   0.17775,   1.00000
193206511.10157,-335014860.20204,61868751.86128,   0.00177,  -0.00241,   0.00098,475608957.83494,   0.00047,275156807.81175,   0.00024,  -0.00051,   0.00017,   0.16396,   1.00000
195573085.49016,-333032790.26638,61871014.99417,   0.00178,  -0.00240,   0.00098,475605219.80974,   0.00047,275158909.06851,   0.00024,  -0.00051,   0.00018,   0.15216,   1.00000
197956276.78331,-331025859.36102,61872354.08052,   0.00179,  -0.00240,   0.00098,475614518.97314,   0.00048,275161044.46611,   0.00025,  -0.00051,   0.00018,   0.14941,   1.00000
200343310.32480,-329004288.52928,61873482.47626,   0.00180,  -0.00240,   0.00098,475618366.59350,   0.00048,275163188.28681,   0.00025,  -0.00051,   0.00018,   0.14301,   1.00000
202722343.48028,-326979499.78152,61871037.15330,   0.00181,  -0.00240,   0.00098,475614827.65696,   0.00048,275165305.84492,   0.00025,  -0.00051,   0.00018,   0.13238,   1.00000
205117648.77998,-324929627.09610,61867604.81846,   0.00182,  -0.00239,   0.00098,475624659.59762,   0.00048,275167459.94369,   0.00025,  -0.00051,   0.00018,   0.12977,   1.00000
207504158.70249,-322875327.25071,61864689.32694,   0.00183,  -0.00239,   0.00098,475622947.94493,   0.00048,275169596.26515,   0.00025,  -0.00052,   0.00018,   0.12081,   1.00000
209894314.33607,-320806204.85661,61861518.63723,   0.00183,  -0.00239,   0.00098,475627160.09787,   0.00049,275171742.66049,   0.00025,  -0.00052,   0.00018,   0.11528,   1.00000
212288823.69106,-318723305.20442,61853973.24557,   0.00184,  -0.00238,   0.00099,475629812.74357,   0.00049,275173891.75378,   0.00025,  -0.00052,   0.00018,   0.10911,   1.00000
214697257.03085,-316615776.56463,61847236.73663,   0.00185,  -0.00238,   0.00099,475625861.84852,   0.00049,275176012.53428,   0.00026,  -0.00052,   0.00018,   0.10017,   1.00000
217098652.37840,-314502933.92719,61839102.92300,   0.00186,  -0.00238,   0.00099,475638888.44347,   0.00049,275178184.78427,   0.00026,  -0.00052,   0.00018,   0.09899,   1.00000
219502463.85354,-312376766.21249,61828433.59316,   0.00187,  -0.00237,   0.00099,475627403.65278,   0.00049,275180293.21486,   0.00026,  -0.00052,   0.00018,   0.08774,   1.00000
221921726.32912,-310224998.33925,61816625.70274,   0.00188,  -0.00237,   0.00099,475638449.69719,   0.00050,275182443.85887,   0.00026,  -0.00053,   0.00018,   0.08577,   1.00000
224332071.59188,-308068478.99669,61805279.62356,   0.00188,  -0.00237,   0.00099,475637190.61368,   0.00050,275184578.74194,   0.00026,  -0.00053,   0.00018,   0.07935,   1.00000
226746396.31131,-305897784.38027,61789469.53913,   0.00189,  -0.00236,   0.00099,475640562.51129,   0.00050,275186719.66228,   0.00026,  -0.00053,   0.00019,   0.07486,   1.00000
229162959.28571,-303710750.31715,61777392.22867,   0.00190,  -0.00236,   0.00099,475647443.94134,   0.00050,275188883.05596,   0.00027,  -0.00053,   0.00019,   0.07166,   1.00000
231583334.01628,-301509436.66621,61760818.12578,   0.00191,  -0.00236,   0.00099,475651099.72254,   0.00050,275191053.65722,   0.00027,  -0.00053,   0.00019,   0.06760,   1.00000
234007439.27420,-299293784.78741,61739734.47964,   0.00192,  -0.00235,   0.00099,475654892.77583,   0.00051,275193232.06150,   0.00027,  -0.00054,   0.00019,   0.06378,   1.00000
236421689.75906,-297072195.00893,61723191.25062,   0.00193,  -0.00235,   0.00099,475655599.96267,   0.00051,275195403.72190,   0.00027,  -0.00054,   0.00019,   0.05941,   1.00000
238861852.94032,-294815358.12771,61702282.97761,   0.00193,  -0.00235,   0.00099,475658269.77147,   0.00051,275197577.87327,   0.00027,  -0.00054,   0.00019,   0.05580,   1.00000
241292901.26769,-292553463.37586,61681775.92068,   0.00194,  -0.00234,   0.00099,475657539.01973,   0.00051,275199738.51245,   0.00027,  -0.00054,   0.00019,   0.05171,   1.00000
243715968.98806,-290286410.97831,61659790.38005,   0.00195,  -0.00234,   0.00099,475671348.55270,   0.00051,275201953.98869,   0.00028,  -0.00054,   0.00019,   0.05110,   1.00000
246152950.06274,-287994305.15481,61634231.19498,   0.00196,  -0.00233,   0.00099,475667962.54897,   0.00052,275204143.24965,   0.00028,  -0.00054,   0.00019,   0.04700,   1.00000
248580775.74857,-285697070.18471,61609060.04077,   0.00197,  -0.00233,   0.00099,475667370.20173,   0.00052,275206319.52355,   0.00028,  -0.00055,   0.00019,   0.04388,   1.00000
251022397.54898,-283373589.92480,61582493.26800,   0.00198,  -0.00233,   0.00099,475680595.08016,   0.00052,275208547.76923,   0.00028,  -0.00055,   0.00019,   0.04362,   1.00000
253465323.98440,-281034230.75930,61557275.06553,   0.00198,  -0.00232,   0.00099,475672586.56582,   0.00052,275210727.96578,   0.00028,  -0.00055,   0.00019,   0.03978,   1.00000
255900679.32769,-278690759.12112,61526425.22752,   0.00199,  -0.00232,   0.00099,475685143.69378,   0.00052,275212956.94381,   0.00028,  -0.00055,   0.00020,   0.03985,   1.00000
258348614.81611,-276320678.46877,61495991.79358,   0.00200,  -0.00231,   0.00100,475684394.09384,   0.00053,275215171.93610,   0.00029,  -0.00055,   0.00020,   0.03795,   1.00000
260787838.97616,-273945567.03108,61464017.64548,   0.00201,  -0.00231,   0.00100,475698837.72210,   0.00053,275217444.37199,   0.00029,  -0.00055,   0.00020,   0.03882,   1.00000
263228260.49805,-271554237.58290,61433337.34348,   0.00202,  -0.00230,   0.00100,475691307.50687,   0.00053,275219670.72149,   0.00029,  -0.00056,   0.00020,   0.03652,   1.00000
265682422.81642,-269137341.14296,61397012.46409,   0.00202,  -0.00230,   0.00100,475704065.99881,   0.00053,275221946.50398,   0.00029,  -0.00056,   0.00020,   0.03773,   1.00000
268126115.65061,-266714088.07994,61365104.96628,   0.00203,  -0.00230,   0.00100,475705895.36940,   0.00053,275224220.11848,   0.00029,  -0.00056,   0.00020,   0.03758,   1.00000
270572223.35592,-264275777.65721,61328451.00498,   0.00204,  -0.00229,   0.00100,475711720.96637,   0.00054,275226510.32893,   0.00029,  -0.00056,   0.00020,   0.03842,   1.00000
273009728.45522,-261832943.62432,61287989.79846,   0.00205,  -0.00229,   0.00100,475710276.61096,   0.00054,275228782.88433,   0.00030,  -0.00056,   0.00020,   0.03847,   1.00000
275469005.64060,-259351353.89901,61250936.87474,   0.00206,  -0.00228,   0.00100,475719995.20669,   0.00054,275231090.28492,   0.00030,  -0.00056,   0.00020,   0.04070,   1.00000
277919513.90136,-256865101.11834,61210038.33133,   0.00206,  -0.00228,   0.00100,475718859.79727,   0.00054,275233381.35998,   0.00030,  -0.00057,   0.00020,   0.04152,   1.00000
280360469.11772,-254374075.53791,61167538.64260,   0.00207,  -0.00227,   0.00100,475733968.21055,   0.00054,275235732.45951,   0.00030,  -0.00057,   0.00020,   0.04559,   1.00000
282812905.94823,-251855543.38305,61125222.18967,   0.00208,  -0.00227,   0.00100,475735210.85479,   0.00055,275238078.15127,   0.00030,  -0.00057,   0.00020,   0.04764,   1.00000
285255499.40034,-249331398.54602,61083151.71788,   0.00209,  -0.00226,   0.00100,475735949.77746,   0.00055,275240416.07524,   0.00031,  -0.00057,   0.00020,   0.04996,   1.00000
287699784.24517,-246791961.35772,61036226.75584,   0.00210,  -0.00226,   0.00100,475742760.90237,   0.00055,275242774.75840,   0.00031,  -0.00057,   0.00021,   0.05394,   1.00000
290155175.20063,-244224726.21050,60989408.06064,   0.00211,  -0.00225,   0.00100,475744635.30211,   0.00055,275245130.89826,   0.00031,  -0.00058,   0.00021,   0.05733,   1.00000
292600388.58636,-241652893.07245,60940939.72999,   0.00211,  -0.00225,   0.00100,475760266.91814,   0.00056,275247549.06406,   0.00031,  -0.00058,   0.00021,   0.06451,   1.00000
295056398.20125,-239053128.85557,60892525.81286,   0.00212,  -0.00224,   0.00100,475762619.02501,   0.00056,275249966.59438,   0.00031,  -0.00058,   0.00021,   0.06906,   1.00000
297502225.16150,-236447610.27620,60844300.63787,   0.00213,  -0.00224,   0.00100,475763910.57799,   0.00056,275252378.49265,   0.00031,  -0.00058,   0.00021,   0.07372,   1.00000
299938575.66674,-233838509.36607,60790297.97682,   0.00214,  -0.00223,   0.00100,475778102.60983,   0.00056,275254845.29512,   0.00032,  -0.00058,   0.00021,   0.08277,   1.00000
302395858.10482,-231189380.06827,60737111.51220,   0.00215,  -0.00223,   0.00100,475774553.22315,   0.00056,275257283.46624,   0.00032,  -0.00058,   0.00021,   0.08690,   1.00000
304832256.63790,-228546368.52016,60683262.76728,   0.00215,  -0.00222,   0.00100,475782588.53248,   0.00057,275259747.46736,   0.00032,  -0.00059,   0.00021,   0.09533,   1.00000
307268311.65781,-225887094.93298,60628542.16208,   0.00216,  -0.00222,   0.00100,475792309.14688,   0.00057,275262245.04556,   0.00032,  -0.00059,   0.00021,   0.10520,   1.00000
309714333.66589,-223199473.69528,60573730.28054,   0.00217,  -0.00221,   0.00100,475795924.56932,   0.00057,275264747.37621,   0.00032,  -0.00059,   0.00021,   0.11340,   1.00000
312150215.80682,-220508471.96043,60513090.60356,   0.00218,  -0.00220,   0.00100,475810696.34641,   0.00057,275267306.70903,   0.00033,  -0.00059,   0.00021,   0.12727,   1.00000
314585956.95551,-217799465.08097,60453371.44454,   0.00218,  -0.00220,   0.00100,475806441.01655,   0.00058,275269833.54793,   0.00033,  -0.00059,   0.00022,   0.13300,   1.00000
317020744.36735,-215074156.07025,60392707.34537,   0.00219,  -0.00219,   0.00100,475816866.47352,   0.00058,275272396.82345,   0.00033,  -0.00060,   0.00022,   0.14658,   1.00000
319454404.52407,-212332561.72519,60331080.27686,   0.00220,  -0.00219,   0.00100,475827486.95062,   0.00058,275274997.23243,   0.00033,  -0.00060,   0.00022,   0.16141,   1.00000
321886761.45424,-209574701.58278,60268472.21880,   0.00221,  -0.00218,   0.00100,475838303.74851,   0.00058,275277635.47238,   0.00034,  -0.00060,   0.00022,   0.17756,   1.00000
324319645.02942,-206799289.98698,60202582.12216,   0.00222,  -0.00217,   0.00100,475833166.86250,   0.00059,275280236.61773,   0.00034,  -0.00060,   0.00022,   0.18427,   1.00000
326739459.36611,-204019335.25580,60139050.14799,   0.00222,  -0.00217,   0.00100,475851820.45759,   0.00059,275282912.19793,   0.00034,  -0.00060,   0.00022,   0.20783,   1.00000
329168996.35126,-201211358.96046,60071108.91724,   0.00223,  -0.00216,   0.00100,475855655.95333,   0.00059,275285592.44480,   0.00034,  -0.00061,   0.00022,   0.22211,   1.00000
331587312.05503,-198397469.02577,60003215.18810,   0.00224,  -0.00216,   0.00100,475858464.85857,   0.00059,275288272.50282,   0.00034,  -0.00061,   0.00022,   0.23617,   1.00000
334004688.88633,-195568070.53495,59930144.14740,   0.00225,  -0.00215,   0.00100,475868443.92853,   0.00060,275290985.87507,   0.00035,  -0.00061,   0.00022,   0.25713,   1.00000
336418718.03238,-192721773.36320,59860114.74428,   0.00226,  -0.00214,   0.00100,475881895.42469,   0.00060,275293748.58644,   0.00035,  -0.00061,   0.00022,   0.28280,   1.00000
338831571.64249,-189856819.37493,59790801.30634,   0.00226,  -0.00214,   0.00100,475879481.61457,   0.00060,275296486.18897,   0.00035,  -0.00061,   0.00022,   0.29425,   1.00000
341232720.19457,-186989201.65898,59715563.95653,   0.00227,  -0.00213,   0.00100,475895498.18576,   0.00060,275299284.89757,   0.00035,  -0.00061,   0.00023,   0.32543,   1.00000
343641399.09655,-184092607.65322,59639884.95653,   0.00228,  -0.00212,   0.00100,475902394.08700,   0.00061,275302101.74631,   0.00036,  -0.00062,   0.00023,   0.34852,   1.00000
346028109.20667,-181203058.08898,59563522.43510,   0.00229,  -0.00212,   0.00100,475911247.51049,   0.00061,275304945.74860,   0.00036,  -0.00062,   0.00023,   0.37502,   1.00000
348422024.92234,-178284505.03375,59486675.48409,   0.00229,  -0.00211,   0.00100,475918547.70979,   0.00061,275307809.46822,   0.00036,  -0.00062,   0.00023,   0.40103,   1.00000
350812680.78810,-175349933.67265,59408650.47981,   0.00230,  -0.00210,   0.00100,475931425.69115,   0.00061,275310718.78238,   0.00036,  -0.00062,   0.00023,   0.43606,   1.00000
353211148.68948,-172386930.06501,59325949.41493,   0.00231,  -0.00210,   0.00100,475937776.45696,   0.00062,275313642.96032,   0.00037,  -0.00062,   0.00023,   0.46373,   1.00000
355587276.05720,-169431208.21676,59242549.47278,   0.00232,  -0.00209,   0.00100,475946955.36579,   0.00062,275316595.07350,   0.00037,  -0.00063,   0.00023,   0.49682,   1.00000
357968551.20274,-166445780.32820,59162674.55819,   0.00232,  -0.00208,   0.00100,475956957.75697,   0.00062,275319578.76048,   0.00037,  -0.00063,   0.00023,   0.53306,   1.00000
360328563.75733,-163468413.89031,59077979.93823,   0.00233,  -0.00208,   0.00100,475964567.49218,   0.00062,275322582.67199,   0.00037,  -0.00063,   0.00023,   0.56676,   1.00000
362694526.78173,-160461968.81614,58992646.95980,   0.00234,  -0.00207,   0.00100,475973378.18334,   0.00063,275325612.24021,   0.00038,  -0.00063,   0.00023,   0.60426,   1.00000
365056117.22846,-157439771.01568,58906037.42285,   0.00235,  -0.00206,   0.00100,475987366.60658,   0.00063,275328691.37143,   0.00038,  -0.00063,   0.00024,   0.65368,   1.00000
367406212.26347,-154412429.69728,58815196.43385,   0.00235,  -0.00206,   0.00100,475990420.55767,   0.00063,275331768.89569,   0.00038,  -0.00064,   0.00024,   0.68314,   1.00000
369750431.04016,-151368878.05364,58727181.81703,   0.00236,  -0.00205,   0.00100,476006303.09320,   0.00064,275334904.41147,   0.00038,  -0.00064,   0.00024,   0.74121,   1.00000
372100814.69805,-148296825.73529,58634290.08109,   0.00237,  -0.00204,   0.00100,476014645.68966,   0.00064,275338062.50772,   0.00039,  -0.00064,   0.00024,   0.78544,   1.00000
374427063.90621,-145232109.31055,58544817.08432,   0.00238,  -0.00203,   0.00100,476025874.65782,   0.00064,275341256.42501,   0.00039,  -0.00064,   0.00024,   0.83821,   1.00000
376759091.32220,-142138918.26615,58450422.57683,   0.00238,  -0.00203,   0.00100,476034665.30585,   0.00064,275344474.58859,   0.00039,  -0.00065,   0.00024,   0.88737,   1.00000
379077861.25528,-139040128.97676,58355863.68892,   0.00239,  -0.00202,   0.00100,476040007.91398,   0.00065,275347700.82356,   0.00040,  -0.00065,   0.00024,   0.92912,   1.00000
381398555.85108,-135916280.49788,58258709.31873,   0.00240,  -0.00201,   0.00100,476065091.61460,   0.00065,275351026.55056,   0.00040,  -0.00065,   0.00024,  -0.00000,   2.00000
383698161.74909,-132796659.24786,58162585.66385,   0.00241,  -0.00200,   0.00100,476060880.57557,   0.00065,275354315.42184,   0.00040,  -0.00065,   0.00024,  -0.00000,   2.00000
386000409.72772,-129652727.57559,58059707.23441,   0.00241,  -0.00200,   0.00100,476084788.69865,   0.00066,275357697.79892,   0.00040,  -0.00065,   0.00025,   0.00000,   2.00000
388297303.43935,-126489051.55360,57961254.73804,   0.00242,  -0.00199,   0.00100,476088225.24620,   0.00066,275361078.34623,   0.00041,  -0.00066,   0.00025,  -0.00000,   2.00000
390571953.43813,-123334360.52263,57857963.16555,   0.00243,  -0.00198,   0.00100,476096689.25948,   0.00066,275364480.28683,   0.00041,  -0.00066,   0.00025,  -0.00000,   2.00000
392855488.03857,-120140828.75618,57756598.84111,   0.00244,  -0.00197,   0.00100,476120549.96316,   0.00067,275367974.58358,   0.00041,  -0.00066,   0.00025,   0.00000,   2.00000
395126043.38034,-116942511.35720,57650858.01899,   0.00244,  -0.00196,   0.00100,476125409.49736,   0.00067,275371472.87825,   0.00042,  -0.00066,   0.00025,   0.00000,   2.00000
397382344.18709,-113738966.81188,57544871.51614,   0.00245,  -0.00196,   0.00100,476131878.91029,   0.00067,275374982.52812,   0.00042,  -0.00066,   0.00025,   0.00000,   2.00000
399631301.67062,-110520817.94216,57437385.70968,   0.00246,  -0.00195,   0.00100,476148641.79032,   0.00068,275378550.88442,   0.00042,  -0.00067,   0.00025,   0.00000,   2.00000
401872662.75861,-107288192.07759,57328384.72174,   0.00246,  -0.00194,   0.00100,476165640.29169,   0.00068,275382178.61966,   0.00043,  -0.00067,   0.00025,   0.00000,   2.00000
404099391.93915,-104050544.73146,57219112.10496,   0.00247,  -0.00193,   0.00100,476172523.42803,   0.00068,275385818.73218,   0.00043,  -0.00067,   0.00026,  -0.00000,   2.00000
406327422.36505,-100784444.67318,57108720.10868,   0.00248,  -0.00192,   0.00100,476186399.85721,   0.00069,275389503.26002,   0.00043,  -0.00067,   0.00026,   0.00000,   2.00000
408531257.61225,-97527653.96601,56997613.49937,   0.00249,  -0.00192,   0.00100,476197022.10541,   0.00069,275393216.92147,   0.00044,  -0.00068,   0.00026,  -0.00000,   2.00000
410737185.36548,-94242963.57660,56881213.60861,   0.00249,  -0.00191,   0.00100,476209828.95031,   0.00069,275396969.50063,   0.00044,  -0.00068,   0.00026,  -0.00000,   2.00000
412933094.06786,-90943959.53719,56767356.47428,   0.00250,  -0.00190,   0.00100,476229408.63894,   0.00070,275400791.78990,   0.00044,  -0.00068,   0.00026,   0.00000,   2.00000
415114910.13934,-87640653.21392,56649035.44461,   0.00251,  -0.00189,   0.00100,476235543.46912,   0.00070,275404621.61154,   0.00045,  -0.00068,   0.00026,   0.00000,   2.00000
417287587.10070,-84323678.56776,56529103.35403,   0.00251,  -0.00188,   0.00100,476253909.42800,   0.00070,275408514.92012,   0.00045,  -0.00068,   0.00026,  -0.00000,   2.00000
419443374.63344,-81001810.75663,56412966.40797,   0.00252,  -0.00187,   0.00100,476263374.60047,   0.00071,275412430.48722,   0.00045,  -0.00069,   0.00026,   0.00000,   2.00000
421590914.07847,-77666903.59371,56291055.98868,   0.00253,  -0.00186,   0.00100,476280543.45045,   0.00071,275416403.35608,   0.00046,  -0.00069,   0.00027,   0.00000,   2.00000
423737508.18446,-74304268.16527,56167838.01823,   0.00253,  -0.00186,   0.00100,476296664.97890,   0.00071,275420428.28712,   0.00046,  -0.00069,   0.00027,   0.00000,   2.00000
425859133.15502,-70951885.53893,56043908.11389,   0.00254,  -0.00185,   0.00100,476307924.02712,   0.00072,275424482.68303,   0.00047,  -0.00069,   0.00027,   0.00000,   2.00000
427973431.00664,-67580751.34701,55919931.24485,   0.00255,  -0.00184,   0.00100,476313682.06538,   0.00072,275428541.16627,   0.00047,  -0.00070,   0.00027,   0.00000,   2.00000
430068541.23905,-64211362.96469,55793951.48937,   0.00256,  -0.00183,   0.00100,476335804.56932,   0.00073,275432678.26987,   0.00047,  -0.00070,   0.00027,  -0.00000,   2.00000
432162965.96238,-60815006.23261,55662446.26500,   0.00256,  -0.00182,   0.00100,476351412.05637,   0.00073,275436863.70914,   0.00048,  -0.00070,   0.00027,   0.00000,   2.00000
434239421.47040,-57414453.89962,55534676.76246,   0.00257,  -0.00181,   0.00100,476361954.48480,   0.00073,275441074.04629,   0.00048,  -0.00070,   0.00027,  -0.00000,   2.00000
436304688.26223,-54001556.25288,55405180.52653,   0.00258,  -0.00180,   0.00100,476382083.44658,   0.00074,275445352.62368,   0.00049,  -0.00071,   0.00028,   0.00000,   2.00000
438359804.37857,-50576780.49657,55269805.82338,   0.00258,  -0.00179,   0.00100,476400948.66655,   0.00074,275449693.16643,   0.00049,  -0.00071,   0.00028,   0.00000,   2.00000
440396491.51667,-47148186.17629,55138146.82584,   0.00259,  -0.00178,   0.00100,476411945.07189,   0.00075,275454059.48365,   0.00049,  -0.00071,   0.00028,   0.00000,   2.00000
442425661.60072,-43701597.70718,55002161.18399,   0.00260,  -0.00177,   0.00100,476417895.16380,   0.00075,275458428.43338,   0.00050,  -0.00071,   0.00028,  -0.00000,   2.00000
444433049.04964,-40257876.27671,54868301.73542,   0.00260,  -0.00177,   0.00100,476442397.29936,   0.00075,275462883.93289,   0.00050,  -0.00072,   0.00028,   0.00000,   2.00000
446437644.64228,-36788111.62945,54728753.57288,   0.00261,  -0.00176,   0.00099,476460043.27034,   0.00076,275467394.27707,   0.00051,  -0.00072,   0.00028,   0.00000,   2.00000
448416319.23086,-33330078.20142,54588519.15545,   0.00262,  -0.00175,   0.00099,476472079.45309,   0.00076,275471933.68586,   0.00051,  -0.00072,   0.00028,   0.00000,   2.00000
450384029.51983,-29853946.41225,54452185.17239,   0.00262,  -0.00174,   0.00099,476481887.00954,   0.00077,275476491.80087,   0.00052,  -0.00072,   0.00029,   0.00000,   2.00000
452332017.81539,-26381966.51825,54309691.08750,   0.00263,  -0.00173,   0.00099,476503792.12474,   0.00077,275481122.95391,   0.00052,  -0.00073,   0.00029,  -0.00000,   2.00000
454274750.81324,-22884364.14943,54165584.61615,   0.00264,  -0.00172,   0.00099,476523972.84083,   0.00077,275485818.75897,   0.00052,  -0.00073,   0.00029,   0.00000,   2.00000
456199155.60583,-19384151.65157,54020988.11088,   0.00264,  -0.00171,   0.00099,476534703.70907,   0.00078,275490536.17894,   0.00053,  -0.00073,   0.00029,  -0.00000,   2.00000
458109776.88525,-15873625.46630,53874555.71500,   0.00265,  -0.00170,   0.00099,476557006.35399,   0.00078,275495326.94285,   0.00053,  -0.00073,   0.00029,   0.00000,   2.00000
460001795.15279,-12360757.45915,53727623.06783,   0.00266,  -0.00169,   0.00099,476568016.54571,   0.00079,275500139.78018,   0.00054,  -0.00074,   0.00029,   0.00000,   2.00000
461879590.50909,-8837991.22895,53578840.26948,   0.00266,  -0.00168,   0.00099,476590678.39229,   0.00079,275505026.64160,   0.00054,  -0.00074,   0.00030,  -0.00000,   2.00000
463738506.11643,-5313162.12049,53429547.51767,   0.00267,  -0.00167,   0.00099,476601970.10575,   0.00080,275509936.02149,   0.00055,  -0.00074,   0.00030,   0.00000,   2.00000
465582758.87070,-1778864.36830,53278391.24435,   0.00267,  -0.00166,   0.00099,476624991.55102,   0.00080,275514920.07832,   0.00055,  -0.00074,   0.00030,  -0.00000,   2.00000
467420842.91616,1779550.06670,53121332.06107,   0.00268,  -0.00165,   0.00099,476645786.96429,   0.00081,275519968.20168,   0.00056,  -0.00074,   0.00030,  -0.00000,   2.00000
469226554.84304,5317251.44579,52969132.78065,   0.00269,  -0.00164,   0.00099,476648386.56467,   0.00081,275524998.75218,   0.00056,  -0.00075,   0.00030,   0.00000,   2.00000
471021057.83435,8871073.79329,52813697.84529,   0.00269,  -0.00163,   0.00099,476683648.82102,   0.00082,275530157.14219,   0.00057,  -0.00075,   0.00030,   0.00000,   2.00000
472797275.90590,12426080.28133,52653578.85908,   0.00270,  -0.00162,   0.00099,476694279.95927,   0.00082,275535332.82818,   0.00057,  -0.00075,   0.00031,   0.00000,   2.00000
474559533.49391,15997409.97756,52497163.35644,   0.00271,  -0.00161,   0.00099,476707180.39078,   0.00083,275540535.62372,   0.00058,  -0.00075,   0.00031,   0.00000,   2.00000
476298592.85648,19561728.42614,52338762.62090,   0.00271,  -0.00160,   0.00099,476732042.19180,   0.00083,275545818.26669,   0.00058,  -0.00076,   0.00031,   0.00000,   2.00000
478025976.45015,23141915.15386,52175724.05500,   0.00272,  -0.00159,   0.00099,476742542.72938,   0.00083,275551116.44464,   0.00059,  -0.00076,   0.00031,  -0.00000,   2.00000
479728515.18789,26714644.79057,52014874.70052,   0.00273,  -0.00158,   0.00099,476769015.57779,   0.00084,275556500.55681,   0.00059,  -0.00076,   0.00031,   0.00000,   2.00000
481418938.51893,30302939.21148,51849359.96302,   0.00273,  -0.00157,   0.00099,476779986.00893,   0.00084,275561901.38202,   0.00060,  -0.00076,   0.00032,   0.00000,   2.00000
483084241.12064,33883242.43024,51686047.99801,   0.00274,  -0.00155,   0.00099,476806637.92966,   0.00085,275567387.81537,   0.00061,  -0.00077,   0.00032,   0.00000,   2.00000
484736986.07703,37478791.24909,51518043.97534,   0.00274,  -0.00154,   0.00099,476818079.83323,   0.00085,275572892.11831,   0.00061,  -0.00077,   0.00032,   0.00000,   2.00000
486370892.54827,41080913.04152,51352265.97423,   0.00275,  -0.00153,   0.00099,476844827.59478,   0.00086,275578481.27716,   0.00062,  -0.00077,   0.00032,   0.00000,   2.00000
487981953.32044,44674165.64558,51180387.23149,   0.00276,  -0.00152,   0.00099,476869009.06904,   0.00087,275584143.28000,   0.00062,  -0.00077,   0.00032,   0.00000,   2.00000
489573790.87386,48275706.09872,51013470.79730,   0.00276,  -0.00151,   0.00099,476871870.20848,   0.00087,275589784.03287,   0.00063,  -0.00078,   0.00032,   0.00000,   2.00000
491145773.21626,51874262.77909,50839101.51240,   0.00277,  -0.00150,   0.00099,476908292.79413,   0.00088,275595550.34943,   0.00063,  -0.00078,   0.00033,   0.00000,   2.00000
492699599.33655,55480910.61089,50665514.52186,   0.00277,  -0.00149,   0.00099,476910163.90380,   0.00088,275601290.24750,   0.00064,  -0.00078,   0.00033,   0.00000,   2.00000
494236557.04176,59098902.43180,50492780.73028,   0.00278,  -0.00148,   0.00099,476949949.01736,   0.00089,275607169.03756,   0.00065,  -0.00078,   0.00033,  -0.00000,   2.00000
495744171.87539,62694576.82568,50316715.41268,   0.00279,  -0.00147,   0.00099,476950144.82441,   0.00089,275613013.27025,   0.00065,  -0.00079,   0.00033,   0.00000,   2.00000
497239023.79393,66310071.85773,50138667.97896,   0.00279,  -0.00146,   0.00099,476977026.92446,   0.00090,275618938.95764,   0.00066,  -0.00079,   0.00033,  -0.00000,   2.00000
498707488.51979,69914771.22263,49962909.15626,   0.00280,  -0.00145,   0.00099,477004542.32974,   0.00090,275624948.09253,   0.00066,  -0.00079,   0.00034,  -0.00000,   2.00000
500161167.67495,73532884.27879,49782340.11884,   0.00280,  -0.00143,   0.00099,477018355.98412,   0.00091,275630980.50911,   0.00067,  -0.00079,   0.00034,  -0.00000,   2.00000
501595275.21794,77154755.87573,49599828.91577,   0.00281,  -0.00142,   0.00099,477045468.04635,   0.00091,275637093.33143,   0.00068,  -0.00080,   0.00034,  -0.00000,   2.00000
503001413.06524,80759399.95635,49416838.83781,   0.00281,  -0.00141,   0.00098,477059537.08670,   0.00092,275643229.54580,   0.00068,  -0.00080,   0.00034,   0.00000,   2.00000
504391906.94602,84382186.62787,49235987.54278,   0.00282,  -0.00140,   0.00098,477089124.40648,   0.00093,275649455.58171,   0.00069,  -0.00080,   0.00034,   0.00000,   2.00000
505755728.84726,87987457.29798,49050498.93074,   0.00283,  -0.00139,   0.00098,477101967.85126,   0.00093,275655698.63558,   0.00070,  -0.00080,   0.00035,  -0.00000,   2.00000
507097032.75843,91590026.20992,48864455.64530,   0.00283,  -0.00138,   0.00098,477117115.55113,   0.00094,275661968.30182,   0.00070,  -0.00081,   0.00035,  -0.00000,   2.00000
508423251.27827,95209936.47977,48676362.51880,   0.00284,  -0.00137,   0.00098,477146077.10783,   0.00094,275668323.29890,   0.00071,  -0.00081,   0.00035,  -0.00000,   2.00000
509720021.47342,98811540.33099,48492011.15107,   0.00284,  -0.00135,   0.00098,477161705.06132,   0.00095,275674705.83429,   0.00072,  -0.00081,   0.00035,  -0.00000,   2.00000
510997483.40962,102415027.07403,48301566.84609,   0.00285,  -0.00134,   0.00098,477188460.15240,   0.00095,275681162.96817,   0.00072,  -0.00081,   0.00036,   0.00000,   2.00000
512254033.61903,106019882.03262,48109216.89739,   0.00285,  -0.00133,   0.00098,477216757.56232,   0.00096,275687700.47332,   0.00073,  -0.00081,   0.00036,   0.00000,   2.00000
513490209.69336,109630934.32583,47917510.13799,   0.00286,  -0.00132,   0.00098,477221653.96395,   0.00097,275694218.05369,   0.00074,  -0.00082,   0.00036,  -0.00000,   2.00000
514702243.40625,113232625.78353,47722708.80597,   0.00286,  -0.00131,   0.00098,477261315.05013,   0.00097,275700863.14724,   0.00074,  -0.00082,   0.00036,   0.00000,   2.00000
515888958.42743,116825357.91948,47528723.80643,   0.00287,  -0.00130,   0.00098,477264881.25924,   0.00098,275707481.78409,   0.00075,  -0.00082,   0.00036,  -0.00000,   2.00000
517052802.13687,120418089.20503,47337022.33466,   0.00288,  -0.00128,   0.00098,477295026.06396,   0.00099,275714186.25524,   0.00076,  -0.00082,   0.00037,   0.00000,   2.00000
518191816.91624,123996035.52487,47139454.50390,   0.00288,  -0.00127,   0.00098,477320881.09757,   0.00099,275720957.61966,   0.00076,  -0.00083,   0.00037,  -0.00000,   2.00000
519311704.48809,127583894.71499,46941163.24507,   0.00289,  -0.00126,   0.00098,477339285.40049,   0.00100,275727763.74698,   0.00077,  -0.00083,   0.00037,   0.00000,   2.00000
520409526.50561,131170901.94823,46741001.33069,   0.00289,  -0.00125,   0.00098,477368671.24144,   0.00100,275734650.23866,   0.00078,  -0.00083,   0.00037,   0.00000,   2.00000
521479295.48340,134737798.06816,46540552.26713,   0.00290,  -0.00124,   0.00098,477383346.69570,   0.00101,275741554.68125,   0.00079,  -0.00083,   0.00038,   0.00000,   2.00000
522529380.76022,138313868.83301,46339366.14098,   0.00290,  -0.00122,   0.00098,477402380.84637,   0.00102,275748494.90081,   0.00079,  -0.00083,   0.00038,   0.00000,   2.00000
523553015.82139,141873506.92274,46136576.78068,   0.00291,  -0.00121,   0.00098,477429836.30318,   0.00102,275755505.56856,   0.00080,  -0.00084,   0.00038,   0.00000,   2.00000
524551378.67140,145426923.82674,45937480.09064,   0.00291,  -0.00120,   0.00098,477448132.54561,   0.00103,275762547.79223,   0.00081,  -0.00084,   0.00038,   0.00000,   2.00000
525532276.13970,148992781.70076,45732106.71165,   0.00292,  -0.00119,   0.00098,477479344.61830,   0.00104,275769674.65442,   0.00082,  -0.00084,   0.00038,   0.00000,   2.00000
526485183.71251,152537563.45804,45526513.88694,   0.00292,  -0.00117,   0.00098,477494226.16919,   0.00104,275776817.65124,   0.00082,  -0.00084,   0.00039,   0.00000,   2.00000
527411675.04483,156064808.25522,45319402.28501,   0.00293,  -0.00116,   0.00098,477521766.55853,   0.00105,275784028.82223,   0.00083,  -0.00084,   0.00039,   0.00000,   2.00000
528317550.93807,159599675.25906,45111557.54264,   0.00293,  -0.00115,   0.00098,477541956.17921,   0.00106,275791277.01167,   0.00084,  -0.00085,   0.00039,   0.00000,   2.00000
529200315.25952,163130799.98106,44901933.96635,   0.00294,  -0.00114,   0.00098,477572493.41165,   0.00106,275798604.26075,   0.00085,  -0.00085,   0.00039,  -0.00000,   2.00000
530055369.72833,166640149.98534,44692167.66350,   0.00294,  -0.00112,   0.00098,477587384.54113,   0.00107,275805945.53273,   0.00086,  -0.00085,   0.00040,   0.00000,   2.00000
530889314.18162,170156322.66505,44481664.02750,   0.00295,  -0.00111,   0.00098,477608185.87861,   0.00108,275813324.65135,   0.00086,  -0.00085,   0.00040,   0.00000,   2.00000
531695449.86212,173653192.58838,44273917.31734,   0.00295,  -0.00110,   0.00098,477637193.36425,   0.00108,275820774.67342,   0.00087,  -0.00085,   0.00040,   0.00000,   2.00000
532478493.22017,177142406.58030,44061557.66324,   0.00296,  -0.00109,   0.00098,477654003.40466,   0.00109,275828245.06427,   0.00088,  -0.00085,   0.00040,  -0.00000,   2.00000
533238093.29844,180626331.24323,43847489.20416,   0.00296,  -0.00107,   0.00098,477685033.73410,   0.00110,275835793.25209,   0.00089,  -0.00086,   0.00041,   0.00000,   2.00000
533970391.09049,184087670.72466,43633370.30349,   0.00297,  -0.00106,   0.00098,477699922.99634,   0.00110,275843352.95820,   0.00090,  -0.00086,   0.00041,   0.00000,   2.00000
534681917.73071,187557227.39466,43417235.03995,   0.00297,  -0.00105,   0.00098,477734518.51627,   0.00111,275851003.53375,   0.00091,  -0.00086,   0.00041,  -0.00000,   2.00000
535366232.46854,191003809.49198,43201082.83594,   0.00298,  -0.00103,   0.00097,477749490.50998,   0.00112,275858664.84465,   0.00091,  -0.00086,   0.00041,   0.00000,   2.00000
536026933.82206,194443852.46444,42983290.23691,   0.00298,  -0.00102,   0.00097,477780884.83122,   0.00113,275866402.70731,   0.00092,  -0.00086,   0.00042,   0.00000,   2.00000
536663097.02865,197874581.19768,42765160.00718,   0.00299,  -0.00101,   0.00097,477799478.94550,   0.00113,275874164.83674,   0.00093,  -0.00086,   0.00042,  -0.00000,   2.00000
537273428.33868,201295433.35224,42550891.80805,   0.00299,  -0.00100,   0.00097,477819319.50349,   0.00114,275881955.82746,   0.00094,  -0.00086,   0.00042,  -0.00000,   2.00000
537859069.70477,204695353.77411,42331194.66606,   0.00300,  -0.00098,   0.00097,477846015.20682,   0.00115,275889802.67718,   0.00095,  -0.00087,   0.00042,   0.00000,   2.00000
538422350.80130,208099165.24893,42110812.13521,   0.00300,  -0.00097,   0.00097,477868731.50336,   0.00116,275897688.75531,   0.00096,  -0.00087,   0.00043,  -0.00000,   2.00000
538959722.03989,211481096.16401,41889257.19659,   0.00301,  -0.00096,   0.00097,477896674.29628,   0.00116,275905634.36068,   0.00097,  -0.00087,   0.00043,  -0.00000,   2.00000
539472610.82900,214852698.77450,41667429.64381,   0.00301,  -0.00094,   0.00097,477915653.14537,   0.00117,275913603.22350,   0.00097,  -0.00087,   0.00043,  -0.00000,   2.00000
539959883.24687,218202008.86679,41444489.03312,   0.00301,  -0.00093,   0.00097,477943495.90324,   0.00118,275921630.07283,   0.00098,  -0.00087,   0.00043,  -0.00000,   2.00000
540424498.05958,221554155.40655,41220897.67569,   0.00302,  -0.00092,   0.00097,477966834.46676,   0.00118,275929696.35003,   0.00099,  -0.00087,   0.00044,   0.00000,   2.00000
540863024.67295,224881879.92737,40997486.90478,   0.00302,  -0.00090,   0.00097,477981738.84098,   0.00119,275937768.41506,   0.00100,  -0.00087,   0.00044,   0.00000,   2.00000
541277796.98082,228200063.89638,40772614.10726,   0.00303,  -0.00089,   0.00097,478013949.43930,   0.00120,275945913.93710,   0.00101,  -0.00087,   0.00044,  -0.00000,   2.00000
541667531.18257,231507886.83307,40550503.49806,   0.00303,  -0.00088,   0.00097,478047413.06857,   0.00121,275954136.96596,   0.00102,  -0.00087,   0.00044,   0.00000,   2.00000
542032877.34907,234791314.77193,40324426.69537,   0.00304,  -0.00086,   0.00097,478061154.60489,   0.00122,275962359.71154,   0.00103,  -0.00087,   0.00045,  -0.00000,   2.00000
542374076.01965,238063125.85957,40098185.90958,   0.00304,  -0.00085,   0.00097,478080538.51019,   0.00122,275970603.97621,   0.00104,  -0.00088,   0.00045,  -0.00000,   2.00000
542691625.60962,241324233.02783,39870569.26796,   0.00305,  -0.00084,   0.00097,478113021.17805,   0.00123,275978920.24087,   0.00105,  -0.00088,   0.00045,   0.00000,   2.00000
542985039.24516,244573263.44782,39642816.07498,   0.00305,  -0.00082,   0.00097,478132621.39906,   0.00124,275987257.79701,   0.00106,  -0.00088,   0.00045,   0.00000,   2.00000
543253454.47296,247797087.46990,39415395.89755,   0.00305,  -0.00081,   0.00097,478147344.03651,   0.00125,275995597.54297,   0.00107,  -0.00088,   0.00046,   0.00000,   2.00000
543498849.12669,251010259.17196,39185461.74830,   0.00306,  -0.00080,   0.00097,478192957.61514,   0.00125,276004058.24945,   0.00107,  -0.00088,   0.00046,  -0.00000,   2.00000
543719916.78314,254210088.52535,38956647.79158,   0.00306,  -0.00078,   0.00097,478199707.94663,   0.00126,276012489.39263,   0.00108,  -0.00088,   0.00046,   0.00000,   2.00000
543917545.76104,257397826.65430,38726563.47625,   0.00307,  -0.00077,   0.00097,478232508.89268,   0.00127,276020990.87234,   0.00109,  -0.00088,   0.00046,  -0.00000,   2.00000
544090834.47148,260559929.43761,38496901.62442,   0.00307,  -0.00075,   0.00097,478247152.69382,   0.00128,276029492.62720,   0.00110,  -0.00088,   0.00047,  -0.00000,   2.00000
544240913.02248,263709491.12323,38266021.71304,   0.00307,  -0.00074,   0.00097,478279975.29146,   0.00129,276038063.75924,   0.00111,  -0.00088,   0.00047,   0.00000,   2.00000
544367480.09142,266833647.13560,38034441.64397,   0.00308,  -0.00073,   0.00097,478307489.30745,   0.00129,276046683.40769,   0.00112,  -0.00088,   0.00047,   0.00000,   2.00000
544470309.09524,269944250.74589,37804040.69625,   0.00308,  -0.00071,   0.00097,478314381.25102,   0.00130,276055272.87681,   0.00113,  -0.00088,   0.00048,   0.00000,   2.00000
544550215.03048,273041626.58990,37572489.75520,   0.00309,  -0.00070,   0.00097,478347289.13074,   0.00131,276063930.61018,   0.00114,  -0.00088,   0.00048,   0.00000,   2.00000
544607237.03275,276125430.07933,37339817.17472,   0.00309,  -0.00068,   0.00097,478380310.28732,   0.00132,276072656.27726,   0.00115,  -0.00088,   0.00048,  -0.00000,   2.00000
544641091.32219,279183156.00365,37107706.06518,   0.00309,  -0.00067,   0.00097,478394725.81957,   0.00133,276081379.32127,   0.00116,  -0.00088,   0.00048,   0.00000,   2.00000
544652344.87955,282226908.04855,36874527.03292,   0.00310,  -0.00066,   0.00097,478427750.21922,   0.00133,276090169.38432,   0.00117,  -0.00088,   0.00049,   0.00000,   2.00000
544640902.62767,285244529.48840,36641958.15933,   0.00310,  -0.00064,   0.00097,478442027.32190,   0.00134,276098955.78674,   0.00118,  -0.00088,   0.00049,   0.00000,   2.00000
544606782.03402,288248090.69745,36409501.70211,   0.00311,  -0.00063,   0.00096,478462092.25334,   0.00135,276107760.03818,   0.00119,  -0.00088,   0.00049,   0.00000,   2.00000
544550425.99454,291237058.23212,36176047.34960,   0.00311,  -0.00061,   0.00096,478495177.24445,   0.00136,276116630.26864,   0.00120,  -0.00088,   0.00049,  -0.00000,   2.00000
544472006.80689,294199796.57158,35943264.30346,   0.00311,  -0.00060,   0.00096,478509309.82436,   0.00137,276125495.64578,   0.00121,  -0.00088,   0.00050,   0.00000,   2.00000
544371674.31490,297147582.81201,35709537.33860,   0.00312,  -0.00059,   0.00096,478542385.48997,   0.00138,276134426.14900,   0.00122,  -0.00088,   0.00050,  -0.00000,   2.00000
544250612.48382,300080640.59758,35470676.99394,   0.00312,  -0.00057,   0.00096,478574588.05695,   0.00138,276143417.87945,   0.00123,  -0.00088,   0.00050,   0.00000,   2.00000
544106627.59595,302987513.42690,35237897.23392,   0.00312,  -0.00056,   0.00096,478576667.32949,   0.00139,276152359.60401,   0.00124,  -0.00087,   0.00050,  -0.00000,   2.00000
543941570.18968,305878064.74746,35003159.76780,   0.00313,  -0.00054,   0.00096,478622686.11303,   0.00140,276161412.78977,   0.00125,  -0.00087,   0.00051,   0.00000,   2.00000
543755180.39525,308743151.70989,34770290.68043,   0.00313,  -0.00053,   0.00096,478623673.09088,   0.00141,276170411.85129,   0.00126,  -0.00087,   0.00051,   0.00000,   2.00000
543548725.23151,311592955.54224,34532379.02016,   0.00314,  -0.00051,   0.00096,478655829.25748,   0.00142,276179470.86221,   0.00127,  -0.00087,   0.00051,   0.00000,   2.00000
543320168.09979,314426100.43978,34297927.11301,   0.00314,  -0.00050,   0.00096,478689956.20562,   0.00143,276188596.42855,   0.00128,  -0.00087,   0.00052,   0.00000,   2.00000
543071382.33686,317232886.88017,34064323.59456,   0.00314,  -0.00048,   0.00096,478703680.17451,   0.00143,276197714.03981,   0.00129,  -0.00087,   0.00052,   0.00000,   2.00000
542803003.74275,320023831.34089,33825760.09957,   0.00315,  -0.00047,   0.00096,478735910.60471,   0.00144,276206890.66423,   0.00130,  -0.00087,   0.00052,   0.00000,   2.00000
542513850.35797,322787919.71472,33592339.78461,   0.00315,  -0.00046,   0.00096,478750412.97653,   0.00145,276216061.93736,   0.00131,  -0.00087,   0.00052,   0.00000,   2.00000
542205302.00019,325525876.42837,33359828.36014,   0.00315,  -0.00044,   0.00096,478763824.44376,   0.00146,276225224.07839,   0.00132,  -0.00087,   0.00053,   0.00000,   2.00000
541876339.26262,328258492.23706,33121870.49716,   0.00316,  -0.00043,   0.00096,478802897.52594,   0.00147,276234469.13135,   0.00133,  -0.00086,   0.00053,  -0.00000,   2.00000
541528893.84867,330963339.90490,32883866.32602,   0.00316,  -0.00041,   0.00096,478829113.10946,   0.00148,276243750.47286,   0.00134,  -0.00086,   0.00053,   0.00000,   2.00000
541161737.52014,333641494.15225,32651093.45765,   0.00316,  -0.00040,   0.00096,478843296.74485,   0.00149,276253024.98110,   0.00135,  -0.00086,   0.00053,   0.00000,   2.00000
540775539.63558,336304749.82165,32414517.01146,   0.00317,  -0.00038,   0.00096,478862704.86817,   0.00149,276262311.32980,   0.00136,  -0.00086,   0.00054,  -0.00000,   2.00000
540370770.24277,338939737.50859,32182204.70970,   0.00317,  -0.00037,   0.00096,478889443.02831,   0.00150,276271635.59432,   0.00137,  -0.00086,   0.00054,  -0.00000,   2.00000
539947316.42296,341559767.22569,31946123.67470,   0.00317,  -0.00035,   0.00096,478908852.67394,   0.00151,276280971.53002,   0.00138,  -0.00085,   0.00054,  -0.00000,   2.00000
539506852.83691,344152075.26715,31710130.44667,   0.00318,  -0.00034,   0.00096,478934535.27801,   0.00152,276290341.34951,   0.00139,  -0.00085,   0.00055,   0.00000,   2.00000
539047795.25237,346726860.25475,31473691.30825,   0.00318,  -0.00032,   0.00096,478967493.32657,   0.00153,276299770.46726,   0.00140,  -0.00085,   0.00055,   0.00000,   2.00000
538570842.44195,349277906.37336,31239335.00981,   0.00318,  -0.00031,   0.00096,478967685.78549,   0.00154,276309143.39628,   0.00141,  -0.00085,   0.00055,   0.00000,   2.00000
538075520.25412,351808655.98772,31007848.23943,   0.00319,  -0.00029,   0.00096,479014070.41893,   0.00155,276318622.64817,   0.00142,  -0.00085,   0.00055,  -0.00000,   2.00000
537564536.00279,354314388.84546,30773255.63626,   0.00319,  -0.00028,   0.00096,479025933.43742,   0.00156,276328086.78407,   0.00143,  -0.00084,   0.00056,   0.00000,   2.00000
537035001.00810,356804493.61971,30539257.31290,   0.00319,  -0.00026,   0.00096,479046181.28189,   0.00156,276337565.27898,   0.00145,  -0.00084,   0.00056,   0.00000,   2.00000
536491113.88336,359267513.41750,30301266.94609,   0.00320,  -0.00025,   0.00096,479070499.18947,   0.00157,276347072.36757,   0.00146,  -0.00084,   0.00056,   0.00000,   2.00000
535928118.54017,361714320.91739,30068169.34931,   0.00320,  -0.00023,   0.00095,479091559.91216,   0.00158,276356596.64216,   0.00147,  -0.00084,   0.00056,   0.00000,   2.00000
535350422.02405,364133530.24439,29835366.98675,   0.00320,  -0.00022,   0.00095,479116524.08645,   0.00159,276366151.70458,   0.00148,  -0.00083,   0.00057,   0.00000,   2.00000
534758396.85791,366525261.16369,29602892.72388,   0.00320,  -0.00020,   0.00095,479141327.85765,   0.00160,276375736.98311,   0.00149,  -0.00083,   0.00057,   0.00000,   2.00000
534149765.01154,368902038.16568,29366862.02878,   0.00321,  -0.00019,   0.00095,479160662.69155,   0.00161,276385333.50897,   0.00150,  -0.00083,   0.00057,   0.00000,   2.00000
533522830.27165,371262634.39408,29135791.11785,   0.00321,  -0.00017,   0.00095,479181663.97543,   0.00162,276394947.09165,   0.00151,  -0.00082,   0.00057,  -0.00000,   2.00000
532885878.96181,373587253.13773,28901445.04871,   0.00321,  -0.00016,   0.00095,479197361.44515,   0.00163,276404559.72249,   0.00152,  -0.00082,   0.00058,   0.00000,   2.00000
532231135.54353,375895925.47038,28672091.27162,   0.00322,  -0.00014,   0.00095,479218187.22245,   0.00164,276414189.14802,   0.00153,  -0.00082,   0.00058,   0.00000,   2.00000
531561646.54916,378186998.26311,28438355.73910,   0.00322,  -0.00013,   0.00095,479249928.29189,   0.00164,276423872.68957,   0.00154,  -0.00081,   0.00058,   0.00000,   2.00000
530879541.67052,380450897.60474,28205115.26170,   0.00322,  -0.00011,   0.00095,479274202.48140,   0.00165,276433584.75740,   0.00155,  -0.00081,   0.00058,   0.00000,   2.00000
530183078.22531,382690056.39160,27977494.53326,   0.00323,  -0.00010,   0.00095,479286705.88735,   0.00166,276443285.39148,   0.00156,  -0.00081,   0.00059,  -0.00000,   2.00000
529472621.81053,384911629.16108,27745563.95147,   0.00323,  -0.00008,   0.00095,479318303.20767,   0.00167,276453039.66921,   0.00157,  -0.00080,   0.00059,   0.00000,   2.00000
528749139.73253,387109281.78960,27515034.86412,   0.00323,  -0.00007,   0.00095,479329912.68926,   0.00168,276462779.78195,   0.00158,  -0.00080,   0.00059,  -0.00000,   2.00000
528012889.80859,389283245.89312,27285911.76460,   0.00323,  -0.00005,   0.00095,479341388.04119,   0.00169,276472505.67214,   0.00159,  -0.00080,   0.00059,   0.00000,   2.00000
527264753.83270,391436627.78825,27051743.31864,   0.00324,  -0.00004,   0.00095,479385130.82988,   0.00170,276482326.49948,   0.00160,  -0.00079,   0.00060,   0.00000,   2.00000
526502069.47557,393569090.55796,26824107.13441,   0.00324,  -0.00002,   0.00095,479384962.50641,   0.00171,276492094.07394,   0.00161,  -0.00079,   0.00060,  -0.00000,   2.00000
525730390.85593,395672072.02825,26596299.86309,   0.00324,  -0.00001,   0.00095,479420647.65462,   0.00172,276501929.55925,   0.00162,  -0.00078,   0.00060,   0.00000,   2.00000
524944619.26208,397760786.08849,26365140.41011,   0.00324,   0.00001,   0.00095,479439754.36849,   0.00173,276511777.10301,   0.00163,  -0.00078,   0.00061,   0.00000,   2.00000
524146510.03491,399825996.68231,26139729.78875,   0.00325,   0.00002,   0.00095,479451572.91482,   0.00174,276521612.56632,   0.00164,  -0.00077,   0.00061,   0.00000,   2.00000
523339550.73877,401865805.51113,25910761.58418,   0.00325,   0.00004,   0.00095,479473996.17352,   0.00175,276531471.77360,   0.00165,  -0.00077,   0.00061,  -0.00000,   2.00000
522521565.52193,403883147.96251,25683310.20191,   0.00325,   0.00005,   0.00095,479484849.94320,   0.00175,276541316.31064,   0.00166,  -0.00077,   0.00061,   0.00000,   2.00000
521692955.98984,405879334.48896,25455290.18943,   0.00325,   0.00007,   0.00095,479528745.76859,   0.00176,276551256.53571,   0.00167,  -0.00076,   0.00061,   0.00000,   2.00000
520851999.21295,407856742.53153,25229573.29381,   0.00326,   0.00008,   0.00095,479527397.66046,   0.00177,276561141.80480,   0.00168,  -0.00076,   0.00062,  -0.00000,   2.00000
520000971.97993,409812953.98209,25003340.18658,   0.00326,   0.00010,   0.00094,479571181.28541,   0.00178,276571122.47009,   0.00169,  -0.00075,   0.00062,  -0.00000,   2.00000
519141403.98479,411743231.36403,24779968.59613,   0.00326,   0.00011,   0.00094,479560672.92299,   0.00179,276581018.53170,   0.00170,  -0.00075,   0.00062,   0.00000,   2.00000
518273113.34294,413653026.80922,24551874.81269,   0.00326,   0.00013,   0.00094,479603545.29931,   0.00180,276591007.28499,   0.00171,  -0.00074,   0.00062,   0.00000,   2.00000
517390917.74457,415548227.77421,24329090.36121,   0.00327,   0.00015,   0.00094,479623801.11862,   0.00181,276601013.79355,   0.00172,  -0.00074,   0.00063,   0.00000,   2.00000
516505624.43805,417411791.85496,24103467.89335,   0.00327,   0.00016,   0.00094,479636246.61306,   0.00182,276611012.61858,   0.00173,  -0.00073,   0.00063,   0.00000,   2.00000
515607544.71361,419261633.25466,23878913.80935,   0.00327,   0.00018,   0.00094,479655705.66588,   0.00183,276621027.17364,   0.00174,  -0.00073,   0.00063,   0.00000,   2.00000
514705572.39176,421079319.03271,23660085.85232,   0.00327,   0.00019,   0.00094,479669086.00413,   0.00184,276631037.83822,   0.00175,  -0.00072,   0.00063,   0.00000,   2.00000
513788911.95413,422891726.75355,23433246.51840,   0.00328,   0.00021,   0.00094,479696519.44152,   0.00185,276641090.93497,   0.00176,  -0.00071,   0.00064,  -0.00000,   2.00000
512868912.51566,424672386.05916,23212187.82238,   0.00328,   0.00022,   0.00094,479709651.74763,   0.00186,276651139.81096,   0.00177,  -0.00071,   0.00064,  -0.00000,   2.00000
511942918.16488,426429193.97199,22992091.19840,   0.00328,   0.00024,   0.00094,479731313.24608,   0.00187,276661212.76131,   0.00178,  -0.00070,   0.00064,   0.00000,   2.00000
511005718.20954,428173455.19476,22768842.16251,   0.00328,   0.00025,   0.00094,479749954.94658,   0.00188,276671300.06586,   0.00179,  -0.00070,   0.00064,   0.00000,   2.00000
510062324.24983,429893575.79175,22550870.26373,   0.00329,   0.00027,   0.00094,479772095.53873,   0.00189,276681413.44791,   0.00180,  -0.00069,   0.00065,  -0.00000,   2.00000
509111837.68459,431594680.23413,22330290.42319,   0.00329,   0.00029,   0.00094,479781133.89325,   0.00190,276691510.41239,   0.00181,  -0.00069,   0.00065,   0.00000,   2.00000
508156326.51794,433272612.89102,22110746.13985,   0.00329,   0.00030,   0.00094,479802398.43166,   0.00190,276701631.21042,   0.00182,  -0.00068,   0.00065,   0.00000,   2.00000
507192201.87657,434934064.36257,21891724.82626,   0.00329,   0.00032,   0.00094,479833231.68087,   0.00191,276711807.13275,   0.00183,  -0.00067,   0.00065,   0.00000,   2.00000
506227466.76891,436566260.68984,21674298.74363,   0.00329,   0.00033,   0.00094,479844595.73990,   0.00192,276721975.09268,   0.00184,  -0.00067,   0.00065,   0.00000,   2.00000
505252502.57962,438186719.46626,21453787.38743,   0.00330,   0.00035,   0.00094,479863043.39150,   0.00193,276732158.39912,   0.00185,  -0.00066,   0.00066,  -0.00000,   2.00000
504270090.34246,439788146.16568,21239267.43109,   0.00330,   0.00036,   0.00093,479872902.85323,   0.00194,276742329.53070,   0.00186,  -0.00065,   0.00066,   0.00000,   2.00000
503291271.82342,441357751.31638,21021479.53183,   0.00330,   0.00038,   0.00093,479894764.85719,   0.00195,276752527.79263,   0.00187,  -0.00065,   0.00066,  -0.00000,   2.00000
502298106.51161,442921664.10500,20804400.01425,   0.00330,   0.00039,   0.00093,479923555.74513,   0.00196,276762775.71307,   0.00188,  -0.00064,   0.00066,   0.00000,   2.00000
501305587.77513,444457645.70573,20588976.69788,   0.00330,   0.00041,   0.00093,479934212.40016,   0.00197,276773014.88611,   0.00189,  -0.00063,   0.00067,   0.00000,   2.00000
500306978.95676,445976103.06166,20375288.03342,   0.00331,   0.00043,   0.00093,479943108.05936,   0.00198,276783240.02900,   0.00190,  -0.00063,   0.00067,   0.00000,   2.00000
499306062.88685,447473725.18053,20158484.57867,   0.00331,   0.00044,   0.00093,479962822.83066,   0.00199,276793486.42660,   0.00191,  -0.00062,   0.00067,   0.00000,   2.00000
498298444.93018,448956009.57844,19942375.64917,   0.00331,   0.00046,   0.00093,479993045.74616,   0.00200,276803788.13620,   0.00192,  -0.00061,   0.00067,  -0.00000,   2.00000
497288698.13090,450415126.92838,19732799.34424,   0.00331,   0.00047,   0.00093,479992218.75631,   0.00201,276814045.38440,   0.00193,  -0.00061,   0.00067,   0.00000,   2.00000
496273752.79698,451860190.08294,19515363.89767,   0.00331,   0.00049,   0.00093,480021220.56961,   0.00202,276824354.56796,   0.00194,  -0.00060,   0.00068,   0.00000,   2.00000
495256217.93875,453284156.56430,19303445.55157,   0.00332,   0.00050,   0.00093,480041669.30375,   0.00203,276834688.33349,   0.00195,  -0.00059,   0.00068,   0.00000,   2.00000
494237617.88704,454686380.72812,19093775.79380,   0.00332,   0.00052,   0.00093,480039935.73210,   0.00204,276844975.73083,   0.00196,  -0.00059,   0.00068,   0.00000,   2.00000
493213811.47474,456074487.13172,18880569.94780,   0.00332,   0.00053,   0.00093,480069273.11094,   0.00205,276855316.93789,   0.00197,  -0.00058,   0.00068,  -0.00000,   2.00000
492188571.91255,457442652.30314,18668626.36102,   0.00332,   0.00055,   0.00093,480088862.93595,   0.00206,276865680.80445,   0.00197,  -0.00057,   0.00068,   0.00000,   2.00000
491162115.08980,458791113.48595,18457952.55085,   0.00332,   0.00057,   0.00093,480108338.02634,   0.00207,276876067.19787,   0.00198,  -0.00056,   0.00069,   0.00000,   2.00000
490131050.46457,460124254.02600,18249064.03519,   0.00333,   0.00058,   0.00092,480116512.82773,   0.00208,276886440.16892,   0.00199,  -0.00056,   0.00069,  -0.00000,   2.00000
489103786.98719,461433434.79662,18037643.73705,   0.00333,   0.00060,   0.00092,480124888.07342,   0.00209,276896800.75110,   0.00200,  -0.00055,   0.00069,  -0.00000,   2.00000
488071695.80703,462728773.28425,17827064.69444,   0.00333,   0.00061,   0.00092,480154394.30938,   0.00210,276907216.87180,   0.00201,  -0.00054,   0.00069,   0.00000,   2.00000
487039131.57582,464005284.65633,17617802.37030,   0.00333,   0.00063,   0.00092,480173455.56379,   0.00211,276917655.23054,   0.00202,  -0.00053,   0.00069,   0.00000,   2.00000
486002456.15215,465267382.09033,17410342.26235,   0.00333,   0.00064,   0.00092,480181338.13728,   0.00212,276928080.33582,   0.00203,  -0.00053,   0.00069,   0.00000,   2.00000
484965636.40687,466511063.30170,17204196.86341,   0.00334,   0.00066,   0.00092,480200207.55728,   0.00213,276938527.63495,   0.00204,  -0.00052,   0.00070,   0.00000,   2.00000
483929323.80554,467737006.06187,16995098.37410,   0.00334,   0.00068,   0.00092,480218509.14163,   0.00214,276948995.51471,   0.00205,  -0.00051,   0.00070,   0.00000,   2.00000
482893412.85152,468944424.57926,16788260.76234,   0.00334,   0.00069,   0.00092,480215591.11928,   0.00215,276959416.50718,   0.00206,  -0.00050,   0.00070,  -0.00000,   2.00000
481853633.06295,470138870.43616,16582326.68747,   0.00334,   0.00071,   0.00092,480244720.90935,   0.00216,276969893.28708,   0.00206,  -0.00049,   0.00070,   0.00000,   2.00000
480814804.28183,471316181.17346,16373471.86141,   0.00334,   0.00072,   0.00092,480262765.52909,   0.00217,276980390.57085,   0.00207,  -0.00048,   0.00070,   0.00000,   2.00000
479780408.34289,472471137.98008,16170712.49740,   0.00334,   0.00074,   0.00092,480270908.31889,   0.00218,276990877.03180,   0.00208,  -0.00048,   0.00071,  -0.00000,   2.00000
478743071.91433,473614038.96840,15964603.46908,   0.00335,   0.00075,   0.00091,480299401.78034,   0.00219,277001417.80525,   0.00209,  -0.00047,   0.00071,   0.00000,   2.00000
477707074.26661,474740220.37412,15756462.92259,   0.00335,   0.00077,   0.00091,480295579.65438,   0.00220,277011910.02439,   0.00210,  -0.00046,   0.00071,   0.00000,   2.00000
476667519.89659,475853739.60050,15553592.81997,   0.00335,   0.00078,   0.00091,480324843.59139,   0.00221,277022459.50908,   0.00211,  -0.00045,   0.00071,   0.00000,   2.00000
475633845.56716,476946815.75366,15348247.75449,   0.00335,   0.00080,   0.00091,480331648.07401,   0.00222,277032994.79809,   0.00212,  -0.00044,   0.00071,   0.00000,   2.00000
474601552.20407,478023695.17684,15144318.62728,   0.00335,   0.00082,   0.00091,480349514.44135,   0.00223,277043551.41206,   0.00213,  -0.00043,   0.00071,   0.00000,   2.00000
473570785.37461,479084593.98707,14941806.05404,   0.00335,   0.00083,   0.00091,480367290.98136,   0.00224,277054129.24029,   0.00213,  -0.00042,   0.00072,   0.00000,   2.00000
472537510.28672,480134343.16597,14736826.52049,   0.00336,   0.00085,   0.00091,480373879.39287,   0.00225,277064692.84603,   0.00214,  -0.00042,   0.00072,   0.00000,   2.00000
471505981.21487,481168461.67015,14533287.96851,   0.00336,   0.00086,   0.00091,480391512.00656,   0.00226,277075277.66120,   0.00215,  -0.00041,   0.00072,   0.00000,   2.00000
470480547.36737,482183111.73541,14331581.44936,   0.00336,   0.00088,   0.00091,480398098.03387,   0.00227,277085848.70428,   0.00216,  -0.00040,   0.00072,  -0.00000,   2.00000
469452904.09340,483186662.70656,14130921.19009,   0.00336,   0.00089,   0.00091,480426458.17233,   0.00228,277096475.51987,   0.00217,  -0.00039,   0.00072,   0.00000,   2.00000
468431976.79610,484171651.63125,13927804.02407,   0.00336,   0.00091,   0.00090,480432442.89455,   0.00229,277107086.95321,   0.00218,  -0.00038,   0.00072,   0.00000,   2.00000
467409081.38122,485145833.17949,13725775.22027,   0.00336,   0.00092,   0.00090,480460701.26997,   0.00230,277117754.12670,   0.00218,  -0.00037,   0.00072,   0.00000,   2.00000
466387863.21144,486105777.52313,13525945.21393,   0.00337,   0.00094,   0.00090,480456330.05521,   0.00231,277128373.29208,   0.00219,  -0.00036,   0.00073,   0.00000,   2.00000
465378574.55384,487043744.73497,13323307.64084,   0.00337,   0.00096,   0.00090,480472457.68951,   0.00232,277139009.98407,   0.00220,  -0.00035,   0.00073,   0.00000,   2.00000
464362645.88604,487975644.40501,13122137.20312,   0.00337,   0.00097,   0.00090,480490005.45036,   0.00233,277149668.88519,   0.00221,  -0.00034,   0.00073,   0.00000,   2.00000
463353549.94229,488889883.04818,12922807.89854,   0.00337,   0.00099,   0.00090,480495799.61368,   0.00234,277160312.72696,   0.00222,  -0.00033,   0.00073,   0.00000,   2.00000
462343333.47373,489794434.31424,12720317.34699,   0.00337,   0.00100,   0.00090,480523396.46565,   0.00235,277171011.10117,   0.00222,  -0.00032,   0.00073,  -0.00000,   2.00000
461340136.28973,490681799.39219,12519687.67245,   0.00337,   0.00102,   0.00090,480529001.74029,   0.00236,277181694.05201,   0.00223,  -0.00032,   0.00073,   0.00000,   2.00000
460334648.92265,491560033.63619,12320877.43397,   0.00338,   0.00103,   0.00090,480535277.20194,   0.00237,277192363.95929,   0.00224,  -0.00031,   0.00073,   0.00000,   2.00000
459341890.12412,492417761.25158,12119301.42879,   0.00338,   0.00105,   0.00089,480550636.79303,   0.00238,277203049.90245,   0.00225,  -0.00030,   0.00074,   0.00000,   2.00000
458348052.70128,493266089.85278,11918913.38013,   0.00338,   0.00106,   0.00089,480578324.49775,   0.00239,277213791.24518,   0.00225,  -0.00029,   0.00074,   0.00000,   2.00000
457356190.79707,494102417.51495,11720679.46639,   0.00338,   0.00108,   0.00089,480573195.89066,   0.00240,277224483.54807,   0.00226,  -0.00028,   0.00074,   0.00000,   2.00000
456371993.34506,494923167.88876,11519991.73301,   0.00338,   0.00109,   0.00089,480577887.58765,   0.00241,277235158.35417,   0.00227,  -0.00027,   0.00074,  -0.00000,   2.00000
455392404.22001,495730799.44567,11320224.30380,   0.00338,   0.00111,   0.00089,480615622.60875,   0.00242,277245921.06137,   0.00228,  -0.00026,   0.00074,   0.00000,   2.00000
454414835.12152,496527166.15203,11122592.33058,   0.00338,   0.00113,   0.00089,480610237.19577,   0.00243,277256634.26044,   0.00229,  -0.00025,   0.00074,   0.00000,   2.00000
453440978.77189,497311905.11004,10922194.97842,   0.00339,   0.00114,   0.00089,480625987.62152,   0.00244,277267365.54600,   0.00229,  -0.00024,   0.00074,   0.00000,   2.00000
452470622.66005,498084867.37880,10723345.33644,   0.00339,   0.00116,   0.00088,480641982.79721,   0.00245,277278115.78503,   0.00230,  -0.00023,   0.00074,  -0.00000,   2.00000
451503840.70945,498846223.80211,10526037.66735,   0.00339,   0.00117,   0.00088,480657916.76382,   0.00246,277288884.86311,   0.00231,  -0.00022,   0.00075,   0.00000,   2.00000
450550773.23001,499589245.63806,10326016.61732,   0.00339,   0.00119,   0.00088,480672173.40990,   0.00247,277299667.45566,   0.00231,  -0.00021,   0.00075,   0.00000,   2.00000
449595641.18932,500325231.44614,10127816.31918,   0.00339,   0.00120,   0.00088,480677825.85053,   0.00248,277310436.24986,   0.00232,  -0.00020,   0.00075,   0.00000,   2.00000
448648572.65719,501047455.37824,9927167.06222,   0.00339,   0.00122,   0.00088,480681769.61723,   0.00249,277321185.92937,   0.00233,  -0.00019,   0.00075,   0.00000,   2.00000
447705268.57333,501758879.47622,9728091.74423,   0.00340,   0.00123,   0.00088,480697336.14316,   0.00250,277331953.73194,   0.00234,  -0.00018,   0.00075,   0.00000,   2.00000
446765789.31246,502459661.97091,9530583.48231,   0.00340,   0.00125,   0.00088,480712847.67896,   0.00251,277342739.54292,   0.00234,  -0.00017,   0.00075,   0.00000,   2.00000
445830423.60670,503150226.03319,9330350.25491,   0.00340,   0.00126,   0.00087,480728051.02498,   0.00252,277353542.42745,   0.00235,  -0.00016,   0.00075,   0.00000,   2.00000
444903019.06783,503827590.89083,9131967.75064,   0.00340,   0.00128,   0.00087,480731912.63834,   0.00253,277364326.21900,   0.00236,  -0.00015,   0.00075,  -0.00000,   2.00000
443983809.82338,504492282.87644,8931130.42979,   0.00340,   0.00129,   0.00087,480735386.21407,   0.00254,277375089.79989,   0.00236,  -0.00014,   0.00075,   0.00000,   2.00000
443064548.40436,505149859.89884,8731636.60117,   0.00340,   0.00131,   0.00087,480762148.02157,   0.00255,277385907.71951,   0.00237,  -0.00013,   0.00076,  -0.00000,   2.00000
442153328.62376,505794864.76687,8533982.93976,   0.00340,   0.00132,   0.00087,480765737.81852,   0.00256,277396705.86900,   0.00238,  -0.00012,   0.00076,   0.00000,   2.00000
441246368.71307,506430504.58829,8333622.07947,   0.00341,   0.00134,   0.00087,480780585.75666,   0.00257,277407520.35950,   0.00239,  -0.00010,   0.00076,   0.00000,   2.00000
440347477.85894,507053995.24386,8135103.03995,   0.00341,   0.00135,   0.00086,480783980.86333,   0.00258,277418314.59420,   0.00239,  -0.00009,   0.00076,   0.00000,   2.00000
439452881.12003,507668454.62063,7933888.45101,   0.00341,   0.00137,   0.00086,480798683.15250,   0.00259,277429124.85798,   0.00240,  -0.00008,   0.00076,   0.00000,   2.00000
438572683.96624,508267211.28267,7734328.59988,   0.00341,   0.00138,   0.00086,480811667.90564,   0.00260,277439945.62543,   0.00241,  -0.00007,   0.00076,   0.00000,   2.00000
437690281.02031,508861061.08759,7536561.12902,   0.00341,   0.00140,   0.00086,480816662.80976,   0.00261,277450751.41219,   0.00241,  -0.00006,   0.00076,   0.00000,   2.00000
436812229.20550,509446327.88001,7336100.03446,   0.00341,   0.00141,   0.00086,480831186.90317,   0.00262,277461572.82364,   0.00242,  -0.00005,   0.00076,   0.00000,   2.00000
435948736.82108,510016484.69301,7137295.10303,   0.00341,   0.00143,   0.00086,480843861.07686,   0.00263,277472403.89245,   0.00243,  -0.00004,   0.00076,   0.00000,   2.00000
435089618.81872,510578434.22691,6935813.83272,   0.00342,   0.00144,   0.00085,480858234.52987,   0.00264,277483250.09067,   0.00243,  -0.00003,   0.00076,   0.00000,   2.00000
434232101.70872,511133547.68767,6736328.27514,   0.00342,   0.00146,   0.00085,480851348.78736,   0.00265,277494043.33017,   0.00244,  -0.00002,   0.00076,   0.00000,   2.00000
433385521.52436,511676785.92901,6534012.49791,   0.00342,   0.00147,   0.00085,480875250.45204,   0.00266,277504882.44813,   0.00245,  -0.00001,   0.00076,  -0.00000,   2.00000
432547053.52891,512209646.47436,6333529.05220,   0.00342,   0.00149,   0.00085,480877859.53120,   0.00267,277515699.06876,   0.00245,   0.00000,   0.00077,   0.00000,   2.00000
431712963.86348,512734874.11629,6130387.42535,   0.00342,   0.00150,   0.00085,480891981.87672,   0.00268,277526530.22830,   0.00246,   0.00001,   0.00077,  -0.00000,   2.00000
430886967.60431,513250071.46871,5929075.55056,   0.00342,   0.00152,   0.00084,480894429.47188,   0.00269,277537338.44243,   0.00246,   0.00002,   0.00077,  -0.00000,   2.00000
430071930.19575,513753897.85821,5729266.93670,   0.00343,   0.00153,   0.00084,480918139.97548,   0.00270,277548192.02697,   0.00247,   0.00003,   0.00077,   0.00000,   2.00000
429258342.67338,514252100.81093,5527097.41994,   0.00343,   0.00155,   0.00084,480910726.14750,   0.00271,277558990.96385,   0.00248,   0.00005,   0.00077,  -0.00000,   2.00000
428455787.88010,514739228.70499,5326449.65379,   0.00343,   0.00156,   0.00084,480934268.29006,   0.00272,277569834.83667,   0.00248,   0.00006,   0.00077,   0.00000,   2.00000
427650767.02419,515223228.38653,5123276.26375,   0.00343,   0.00158,   0.00084,480938627.90222,   0.00273,277580661.95802,   0.00249,   0.00007,   0.00077,   0.00000,   2.00000
426864563.52819,515692158.50244,4917649.55178,   0.00343,   0.00159,   0.00083,480938170.18019,   0.00274,277591456.80624,   0.00250,   0.00008,   0.00077,   0.00000,   2.00000
426078783.29101,516156465.18069,4713563.31143,   0.00343,   0.00161,   0.00083,480963878.93369,   0.00276,277602303.68359,   0.00250,   0.00009,   0.00077,   0.00000,   2.00000
425311712.69222,516606008.22658,4511313.06829,   0.00344,   0.00162,   0.00083,480963329.95267,   0.00277,277613117.88921,   0.00251,   0.00010,   0.00077,   0.00000,   2.00000
424538196.20140,517055080.80572,4306402.69853,   0.00344,   0.00164,   0.00083,480979404.36109,   0.00278,277623953.11743,   0.00251,   0.00011,   0.00077,   0.00000,   2.00000
423783390.97629,517489757.71176,4103321.41461,   0.00344,   0.00165,   0.00082,480978651.12624,   0.00279,277634755.04327,   0.00252,   0.00012,   0.00077,   0.00000,   2.00000
423032837.61821,517918327.53088,3897612.97271,   0.00344,   0.00167,   0.00082,480992108.33160,   0.00280,277645569.54554,   0.00253,   0.00013,   0.00077,   0.00000,   2.00000
422286530.22187,518340864.61565,3689301.57680,   0.00344,   0.00168,   0.00082,481005553.99736,   0.00281,277656396.57075,   0.00253,   0.00014,   0.00077,  -0.00000,   2.00000
421548076.98828,518755330.32501,3482804.82076,   0.00344,   0.00169,   0.00082,481007113.30594,   0.00282,277667197.75954,   0.00254,   0.00016,   0.00077,  -0.00000,   2.00000
420824596.97856,519158200.46585,3278022.74649,   0.00345,   0.00171,   0.00082,481017877.46972,   0.00283,277678002.79407,   0.00254,   0.00017,   0.00077,   0.00000,   2.00000
420105283.44059,519555445.08989,3070630.24929,   0.00345,   0.00172,   0.00081,481031135.20669,   0.00284,277688819.71954,   0.00255,   0.00018,   0.00077,  -0.00000,   2.00000
419393783.67717,519945189.74773,2860735.98823,   0.00345,   0.00174,   0.00081,481032380.52173,   0.00285,277699609.72037,   0.00255,   0.00019,   0.00077,  -0.00000,   2.00000
418689979.62929,520327491.73783,2652641.49848,   0.00345,   0.00175,   0.00081,481033618.13930,   0.00286,277710372.82505,   0.00256,   0.00020,   0.00077,   0.00000,   2.00000
417997485.24348,520700761.36899,2446193.41178,   0.00345,   0.00177,   0.00081,481056016.48792,   0.00287,277721177.39340,   0.00257,   0.00021,   0.00077,  -0.00000,   2.00000
417301732.90225,521072475.06629,2237200.83570,   0.00345,   0.00178,   0.00080,481059877.97415,   0.00288,277731963.49506,   0.00257,   0.00022,   0.00077,   0.00000,   2.00000
416631960.51768,521428060.98378,2025659.18714,   0.00346,   0.00179,   0.00080,481067251.89204,   0.00289,277742742.35715,   0.00258,   0.00023,   0.00077,   0.00000,   2.00000
415958717.66054,521782283.74194,1815892.94119,   0.00346,   0.00181,   0.00080,481071059.01101,   0.00290,277753502.53346,   0.00258,   0.00025,   0.00077,   0.00000,   2.00000
415296850.59126,522128011.24829,1603515.45443,   0.00346,   0.00182,   0.00080,481093146.04634,   0.00291,277764303.13457,   0.00259,   0.00026,   0.00077,   0.00000,   2.00000
414646025.02768,522465313.24324,1392965.77135,   0.00346,   0.00184,   0.00079,481081948.26457,   0.00292,277775036.31247,   0.00259,   0.00027,   0.00078,   0.00000,   2.00000
413999058.06202,522797977.86992,1179843.41862,   0.00346,   0.00185,   0.00079,481094732.00936,   0.00293,277785779.86135,   0.00260,   0.00028,   0.00078,   0.00000,   2.00000
413363412.84424,523122473.25949,968441.02298,   0.00347,   0.00186,   0.00079,481116647.75497,   0.00294,277796563.25610,   0.00261,   0.00029,   0.00078,   0.00000,   2.00000
412738652.88839,523439019.98451,754526.17954,   0.00347,   0.00188,   0.00079,481105201.77801,   0.00295,277807278.28499,   0.00261,   0.00030,   0.00078,   0.00000,   2.00000
412117625.35309,523751231.18470,538063.09822,   0.00347,   0.00189,   0.00078,481117845.97193,   0.00296,277818003.17512,   0.00262,   0.00031,   0.00078,   0.00000,   2.00000
411507890.28554,524055624.80155,323358.75081,   0.00347,   0.00191,   0.00078,481139557.54557,   0.00297,277828767.21864,   0.00262,   0.00032,   0.00078,   0.00000,   2.00000
410908835.13539,524352460.72017,110418.88029,   0.00347,   0.00192,   0.00078,481127927.55860,   0.00298,277839462.16037,   0.00263,   0.00034,   0.00078,   0.00000,   2.00000
410313386.95310,524645252.04053,-109372.88341,   0.00348,   0.00193,   0.00077,481140431.84628,   0.00299,277850166.44892,   0.00263,   0.00035,   0.00078,   0.00000,   2.00000
409732666.30924,524928898.87374,-327377.87153,   0.00348,   0.00195,   0.00077,481149803.60339,   0.00300,277860869.79808,   0.00264,   0.00036,   0.00078,   0.00000,   2.00000
409155472.71547,525208695.29866,-543608.48359,   0.00348,   0.00196,   0.00077,481162232.09622,   0.00301,277871582.12400,   0.00264,   0.00037,   0.00078,   0.00000,   2.00000
408596403.40179,525477962.57146,-762398.71920,   0.00348,   0.00198,   0.00077,481159324.66837,   0.00302,277882253.49238,   0.00265,   0.00038,   0.00078,   0.00000,   2.00000
408040727.15371,525743577.77576,-983706.11069,   0.00348,   0.00199,   0.00076,481171646.43365,   0.00303,277892933.45864,   0.00265,   0.00039,   0.00078,  -0.00000,   2.00000
407488450.37846,526005610.92403,-1203216.94783,   0.00349,   0.00200,   0.00076,481183939.07126,   0.00304,277903621.89741,   0.00266,   0.00040,   0.00078,   0.00000,   2.00000
406954161.59683,526257480.67396,-1425290.86458,   0.00349,   0.00202,   0.00076,481180827.09206,   0.00305,277914268.60547,   0.00266,   0.00042,   0.00077,   0.00000,   2.00000
406423156.75174,526505982.75733,-1645568.28047,   0.00349,   0.00203,   0.00075,481192991.81320,   0.00306,277924923.33765,   0.00267,   0.00043,   0.00077,   0.00000,   2.00000
405906620.68832,526746150.41507,-1868369.83053,   0.00349,   0.00204,   0.00075,481201907.38904,   0.00307,277935575.40491,   0.00267,   0.00044,   0.00077,   0.00000,   2.00000
405396624.94173,526981517.75700,-2093723.84458,   0.00349,   0.00206,   0.00075,481201854.60081,   0.00308,277946195.61711,   0.00268,   0.00045,   0.00077,   0.00000,   2.00000
404901035.41070,527208841.51117,-2317279.40409,   0.00350,   0.00207,   0.00074,481210569.30459,   0.00309,277956812.47385,   0.00268,   0.00046,   0.00077,  -0.00000,   2.00000
404400568.74438,527436462.81261,-2543380.79300,   0.00350,   0.00208,   0.00074,481213741.57973,   0.00310,277967408.01512,   0.00269,   0.00047,   0.00077,  -0.00000,   2.00000
403925693.56530,527651243.31707,-2772001.51107,   0.00350,   0.00210,   0.00074,481219063.04057,   0.00311,277977989.09150,   0.00269,   0.00048,   0.00077,   0.00000,   2.00000
403453768.12399,527863196.62190,-2998786.70203,   0.00350,   0.00211,   0.00073,481230934.43162,   0.00312,277988577.05526,   0.00270,   0.00050,   0.00077,   0.00000,   2.00000
402988050.71729,528070786.66535,-3228139.42293,   0.00351,   0.00212,   0.00073,481230646.79013,   0.00313,277999132.26246,   0.00270,   0.00051,   0.00077,   0.00000,   2.00000
402533210.83395,528272312.80030,-3455580.80957,   0.00351,   0.00214,   0.00073,481251279.30487,   0.00314,278009722.85685,   0.00271,   0.00052,   0.00077,  -0.00000,   2.00000
402095780.29957,528464847.01201,-3685629.73061,   0.00351,   0.00215,   0.00072,481247496.66335,   0.00315,278020269.06973,   0.00271,   0.00053,   0.00077,  -0.00000,   2.00000
401652978.82717,528658070.35396,-3918216.34540,   0.00351,   0.00216,   0.00072,481250506.00890,   0.00316,278030793.22404,   0.00272,   0.00054,   0.00077,   0.00000,   2.00000
401232313.48395,528840708.83230,-4148893.19961,   0.00352,   0.00218,   0.00072,481267527.09381,   0.00317,278041340.86604,   0.00272,   0.00055,   0.00077,   0.00000,   2.00000
400817486.97688,529019413.94737,-4382150.53813,   0.00352,   0.00219,   0.00071,481267030.73923,   0.00318,278051854.79123,   0.00273,   0.00056,   0.00077,   0.00000,   2.00000
400408436.90701,529194235.86251,-4617981.18989,   0.00352,   0.00220,   0.00071,481266488.86057,   0.00319,278062334.91599,   0.00273,   0.00057,   0.00077,   0.00000,   2.00000
400013300.96680,529362089.18294,-4851982.04294,   0.00352,   0.00221,   0.00071,481274526.11016,   0.00320,278072809.20689,   0.00274,   0.00059,   0.00077,   0.00000,   2.00000
399631902.11146,529522942.57917,-5088462.84546,   0.00353,   0.00223,   0.00070,481282631.93390,   0.00321,278083277.79870,   0.00274,   0.00060,   0.00077,   0.00000,   2.00000
399252774.77362,529681549.21654,-5327361.32253,   0.00353,   0.00224,   0.00070,481294235.52707,   0.00322,278093752.11328,   0.00274,   0.00061,   0.00077,   0.00000,   2.00000
398890653.62127,529832066.64490,-5564583.19070,   0.00353,   0.00225,   0.00070,481289853.14922,   0.00323,278104179.83571,   0.00275,   0.00062,   0.00077,   0.00000,   2.00000
398530669.34364,529980461.74619,-5804224.95279,   0.00353,   0.00227,   0.00069,481301373.54874,   0.00324,278114612.99916,   0.00275,   0.00063,   0.00077,  -0.00000,   2.00000
398184206.44901,530122136.67621,-6046319.85522,   0.00354,   0.00228,   0.00069,481309319.39959,   0.00325,278125039.81436,   0.00276,   0.00064,   0.00077,  -0.00000,   2.00000
397843124.07422,530260601.92657,-6286696.39664,   0.00354,   0.00229,   0.00068,481308352.86681,   0.00326,278135431.16932,   0.00276,   0.00065,   0.00077,  -0.00000,   2.00000
397515442.98162,530392492.31974,-6529533.19379,   0.00354,   0.00230,   0.00068,481316193.84813,   0.00327,278145815.82463,   0.00277,   0.00067,   0.00077,   0.00000,   2.00000
397201076.96615,530517891.80820,-6774814.89583,   0.00354,   0.00232,   0.00068,481323995.06324,   0.00328,278156193.56679,   0.00277,   0.00068,   0.00077,  -0.00000,   2.00000
396891857.11685,530640303.25558,-7018385.91050,   0.00355,   0.00233,   0.00067,481322893.85760,   0.00329,278166535.30652,   0.00278,   0.00069,   0.00076,  -0.00000,   2.00000
396595831.07051,530756355.01717,-7264409.24312,   0.00355,   0.00234,   0.00067,481330597.72739,   0.00330,278176869.81345,   0.00278,   0.00070,   0.00076,   0.00000,   2.00000
396312911.14072,530866123.27205,-7512869.78279,   0.00355,   0.00235,   0.00067,481338266.42416,   0.00331,278187196.89251,   0.00278,   0.00071,   0.00076,   0.00000,   2.00000
396031724.02484,530974427.25697,-7759393.14249,   0.00356,   0.00237,   0.00066,481349358.45110,   0.00332,278197527.74465,   0.00279,   0.00072,   0.00076,   0.00000,   2.00000
395766724.61039,531075231.94669,-8008598.06794,   0.00356,   0.00238,   0.00066,481344662.12237,   0.00333,278207810.63871,   0.00279,   0.00073,   0.00076,   0.00000,   2.00000
395506328.48623,531173117.99503,-8260408.41194,   0.00356,   0.00239,   0.00065,481343572.57932,   0.00334,278218057.48614,   0.00280,   0.00074,   0.00076,  -0.00000,   2.00000
395255622.67772,531266242.26958,-8514379.90978,   0.00356,   0.00240,   0.00065,481363406.32981,   0.00335,278228336.71105,   0.00280,   0.00076,   0.00076,   0.00000,   2.00000
395021050.79178,531352310.25308,-8766726.83723,   0.00357,   0.00241,   0.00064,481358363.30893,   0.00336,278238566.76499,   0.00281,   0.00077,   0.00076,  -0.00000,   2.00000
394796010.22603,531433748.08052,-9021223.84670,   0.00357,   0.00243,   0.00064,481378132.21198,   0.00337,278248828.83989,   0.00281,   0.00078,   0.00076,  -0.00000,   2.00000
394578403.52428,531511163.63384,-9278601.48062,   0.00357,   0.00244,   0.00064,481364643.81667,   0.00338,278259014.05985,   0.00282,   0.00079,   0.00076,   0.00000,   2.00000
394370408.01527,531584310.70597,-9533800.25103,   0.00358,   0.00245,   0.00063,481384095.81848,   0.00339,278269230.28868,   0.00282,   0.00080,   0.00076,  -0.00000,   2.00000
394169695.16331,531653523.72428,-9791914.17725,   0.00358,   0.00246,   0.00063,481370539.27110,   0.00340,278279369.45309,   0.00282,   0.00081,   0.00075,  -0.00000,   2.00000
393986638.57584,531715120.93670,-10051917.40450,   0.00358,   0.00247,   0.00062,481398777.48033,   0.00341,278289568.31792,   0.00283,   0.00082,   0.00075,   0.00000,   2.00000
393810656.24829,531772885.83872,-10314833.69356,   0.00359,   0.00249,   0.00062,481385186.35699,   0.00342,278299689.86310,   0.00283,   0.00083,   0.00075,  -0.00000,   2.00000
393635646.69197,531829721.98880,-10575743.60351,   0.00359,   0.00250,   0.00061,481395917.87197,   0.00343,278309813.87645,   0.00284,   0.00084,   0.00075,   0.00000,   2.00000
393484379.51730,531876511.21332,-10839148.39328,   0.00359,   0.00251,   0.00061,481399416.51243,   0.00344,278319916.50322,   0.00284,   0.00086,   0.00075,   0.00000,   2.00000
393333682.34095,531922145.38364,-11104833.40515,   0.00360,   0.00252,   0.00061,481410397.99895,   0.00345,278330022.29199,   0.00285,   0.00087,   0.00075,  -0.00000,   2.00000
393198394.05767,531961297.18179,-11368943.88653,   0.00360,   0.00253,   0.00060,481404971.16513,   0.00346,278340077.44641,   0.00285,   0.00088,   0.00075,   0.00000,   2.00000
393075055.60030,531994961.87435,-11635445.59811,   0.00360,   0.00254,   0.00060,481412126.95009,   0.00347,278350123.19412,   0.00285,   0.00089,   0.00075,   0.00000,   2.00000
392960470.49852,532024448.75290,-11903963.60237,   0.00361,   0.00255,   0.00059,481431618.67609,   0.00348,278360199.84415,   0.00286,   0.00090,   0.00075,   0.00000,   2.00000
392852367.86359,532050354.51665,-12175464.49908,   0.00361,   0.00257,   0.00059,481417880.77234,   0.00349,278370198.58066,   0.00286,   0.00091,   0.00074,   0.00000,   2.00000
392755992.44946,532070854.72076,-12449318.28685,   0.00362,   0.00258,   0.00058,481424986.71631,   0.00350,278380187.74441,   0.00287,   0.00092,   0.00074,   0.00000,   2.00000
392671518.16111,532086367.86387,-12721227.09788,   0.00362,   0.00259,   0.00058,481431739.13624,   0.00351,278390166.11570,   0.00287,   0.00093,   0.00074,  -0.00000,   2.00000
392598594.66315,532096554.45223,-12995494.00593,   0.00362,   0.00260,   0.00057,481438814.40499,   0.00352,278400134.70080,   0.00287,   0.00094,   0.00074,   0.00000,   2.00000
392528982.67725,532104945.23983,-13268100.82120,   0.00363,   0.00261,   0.00057,481436966.61084,   0.00353,278410064.33394,   0.00288,   0.00095,   0.00074,   0.00000,   2.00000
392478945.26994,532104546.22298,-13547072.47752,   0.00363,   0.00262,   0.00056,481452918.94741,   0.00354,278420013.20447,   0.00288,   0.00097,   0.00074,  -0.00000,   2.00000
392432038.72475,532102418.17954,-13824368.76490,   0.00363,   0.00263,   0.00056,481451052.81278,   0.00355,278429922.96559,   0.00289,   0.00098,   0.00074,   0.00000,   2.00000
392399462.64173,532093787.00717,-14104431.55079,   0.00364,   0.00264,   0.00055,481445728.23363,   0.00356,278439782.33906,   0.00289,   0.00099,   0.00074,  -0.00000,   2.00000
392374929.45833,532081227.94759,-14386389.01053,   0.00364,   0.00265,   0.00055,481465059.43811,   0.00357,278449672.05119,   0.00289,   0.00100,   0.00073,   0.00000,   2.00000
392364844.15113,532062650.04072,-14666821.53977,   0.00365,   0.00266,   0.00054,481459338.56406,   0.00357,278459509.98436,   0.00290,   0.00101,   0.00073,   0.00000,   2.00000
392354192.63268,532043292.17238,-14949450.71825,   0.00365,   0.00268,   0.00054,481470103.20994,   0.00358,278469350.22682,   0.00290,   0.00102,   0.00073,   0.00000,   2.00000
392365997.08545,532014404.96830,-15234541.66762,   0.00365,   0.00269,   0.00053,481473299.21295,   0.00359,278479167.85676,   0.00291,   0.00103,   0.00073,   0.00000,   2.00000
392380129.41439,531983492.29186,-15522266.49835,   0.00366,   0.00270,   0.00053,481471726.24695,   0.00360,278488947.36476,   0.00291,   0.00104,   0.00073,   0.00000,   2.00000
392404991.49983,531947456.08339,-15812289.27651,   0.00366,   0.00271,   0.00052,481478686.87409,   0.00361,278498716.69766,   0.00291,   0.00105,   0.00073,   0.00000,   2.00000
392440826.83091,531906795.96279,-16100318.04452,   0.00367,   0.00272,   0.00052,481485217.54006,   0.00362,278508474.40136,   0.00292,   0.00106,   0.00073,   0.00000,   2.00000
392487214.22158,531861050.70924,-16390649.70414,   0.00367,   0.00273,   0.00051,481492176.54765,   0.00363,278518221.84353,   0.00292,   0.00107,   0.00072,  -0.00000,   2.00000
392547140.01189,531808934.79674,-16683775.46879,   0.00368,   0.00274,   0.00051,481486806.64473,   0.00364,278527918.68982,   0.00293,   0.00108,   0.00072,  -0.00000,   2.00000
392617762.37487,531752267.63360,-16974904.94612,   0.00368,   0.00275,   0.00050,481493287.76732,   0.00365,278537603.75068,   0.00293,   0.00109,   0.00072,   0.00000,   2.00000
392695198.35259,531691338.93932,-17272086.33439,   0.00368,   0.00276,   0.00049,481513028.78751,   0.00366,278547320.33955,   0.00293,   0.00111,   0.00072,   0.00000,   2.00000
392786261.16789,531624577.04383,-17567771.68966,   0.00369,   0.00277,   0.00049,481507225.10321,   0.00367,278556984.82385,   0.00294,   0.00112,   0.00072,   0.00000,   2.00000
392887393.14067,531552779.56233,-17865728.00986,   0.00369,   0.00278,   0.00048,481514191.19409,   0.00368,278566639.01943,   0.00294,   0.00113,   0.00072,   0.00000,   2.00000
392993173.38680,531477723.16052,-18166873.01750,   0.00370,   0.00279,   0.00048,481500277.97430,   0.00369,278576214.78817,   0.00295,   0.00114,   0.00071,  -0.00000,   2.00000
393114587.32730,531396403.67408,-18465049.70560,   0.00370,   0.00280,   0.00047,481527605.72852,   0.00370,278585846.89855,   0.00295,   0.00115,   0.00071,   0.00000,   2.00000
393240484.11639,531311831.07783,-18766450.15529,   0.00371,   0.00281,   0.00047,481513709.42397,   0.00371,278595400.60039,   0.00295,   0.00116,   0.00071,   0.00000,   2.00000
393384526.10605,531219121.91600,-19069705.00114,   0.00371,   0.00282,   0.00046,481529239.40484,   0.00371,278604972.06150,   0.00296,   0.00117,   0.00071,  -0.00000,   2.00000
393529763.59587,531124488.12615,-19375606.09234,   0.00372,   0.00283,   0.00046,481527664.33669,   0.00372,278614505.42703,   0.00296,   0.00118,   0.00071,  -0.00000,   2.00000
393692947.02709,531021705.87042,-19683320.28025,   0.00372,   0.00284,   0.00045,481543245.12079,   0.00373,278624056.66315,   0.00297,   0.00119,   0.00071,   0.00000,   2.00000
393857571.13196,530917595.06530,-19989396.36210,   0.00373,   0.00285,   0.00044,481541165.38727,   0.00374,278633568.11345,   0.00297,   0.00120,   0.00070,   0.00000,   2.00000
394043049.81547,530803968.51212,-20297888.74441,   0.00373,   0.00286,   0.00044,481544476.21419,   0.00375,278643057.35262,   0.00297,   0.00121,   0.00070,   0.00000,   2.00000
394229363.56744,530688412.49508,-20609034.28056,   0.00374,   0.00287,   0.00043,481542927.51322,   0.00376,278652508.63933,   0.00298,   0.00122,   0.00070,   0.00000,   2.00000
394424852.51735,530567792.64278,-20922387.73335,   0.00374,   0.00288,   0.00043,481549970.04462,   0.00377,278661950.05972,   0.00298,   0.00123,   0.00070,   0.00000,   2.00000
394637770.24445,530438981.68210,-21237485.92702,   0.00375,   0.00289,   0.00042,481565649.63254,   0.00378,278671409.66972,   0.00299,   0.00124,   0.00070,   0.00000,   2.00000
394863170.67509,530304349.36155,-21551143.69981,   0.00375,   0.00289,   0.00041,481559908.33338,   0.00379,278680817.53918,   0.00299,   0.00125,   0.00069,  -0.00000,   2.00000
395089053.56233,530167764.08686,-21867461.35017,   0.00376,   0.00290,   0.00041,481558401.95652,   0.00380,278690187.67571,   0.00299,   0.00126,   0.00069,  -0.00000,   2.00000
395332046.02776,530022948.13483,-22185495.69692,   0.00376,   0.00291,   0.00040,481574138.00585,   0.00381,278699576.24399,   0.00300,   0.00127,   0.00069,  -0.00000,   2.00000
395575352.94776,529876156.22104,-22506175.06392,   0.00377,   0.00292,   0.00039,481572684.72004,   0.00382,278708927.24453,   0.00300,   0.00128,   0.00069,   0.00000,   2.00000
395835562.10676,529721094.15349,-22828527.72947,   0.00378,   0.00293,   0.00039,481588500.40927,   0.00382,278718296.90369,   0.00301,   0.00129,   0.00069,  -0.00000,   2.00000
396107828.76587,529560141.76548,-23149454.95692,   0.00378,   0.00294,   0.00038,481582852.16392,   0.00383,278727615.24172,   0.00301,   0.00130,   0.00068,  -0.00000,   2.00000
396388427.01978,529394037.21769,-23472541.92482,   0.00379,   0.00295,   0.00038,481590087.07270,   0.00384,278736924.31619,   0.00302,   0.00131,   0.00068,  -0.00000,   2.00000
396680403.98146,529221294.73158,-23798489.67365,   0.00379,   0.00296,   0.00037,481585100.55151,   0.00385,278746184.36368,   0.00302,   0.00132,   0.00068,  -0.00000,   2.00000
396977358.61425,529044829.33662,-24125846.00755,   0.00380,   0.00297,   0.00036,481604635.83356,   0.00386,278755475.26720,   0.00302,   0.00133,   0.00068,   0.00000,   2.00000
397286034.06846,528862394.25530,-24451795.12544,   0.00380,   0.00297,   0.00036,481599075.40267,   0.00387,278764715.27904,   0.00303,   0.00134,   0.00067,   0.00000,   2.00000
397602656.46301,528674728.51531,-24779879.56048,   0.00381,   0.00298,   0.00035,481606417.76427,   0.00388,278773946.47968,   0.00303,   0.00135,   0.00067,   0.00000,   2.00000
397929758.30462,528479543.18123,-25115093.49807,   0.00382,   0.00299,   0.00034,481602246.95012,   0.00389,278783131.47251,   0.00304,   0.00136,   0.00067,  -0.00000,   2.00000
398270705.60453,528278932.10340,-25442568.98531,   0.00382,   0.00300,   0.00034,481629218.71582,   0.00390,278792371.44291,   0.00304,   0.00137,   0.00067,   0.00000,   2.00000
398613689.52161,528073907.56433,-25777738.66283,   0.00383,   0.00301,   0.00033,481616476.96027,   0.00390,278801537.30088,   0.00304,   0.00138,   0.00067,   0.00000,   2.00000
398975573.16856,527858807.05182,-26115210.00557,   0.00383,   0.00302,   0.00032,481620468.02932,   0.00391,278810683.51978,   0.00305,   0.00139,   0.00066,   0.00000,   2.00000
399334042.82816,527643883.72685,-26450266.36720,   0.00384,   0.00303,   0.00032,481630784.89991,   0.00392,278819830.73629,   0.00305,   0.00140,   0.00066,  -0.00000,   2.00000
399711217.85043,527418804.85428,-26787628.18653,   0.00385,   0.00303,   0.00031,481634881.34033,   0.00393,278828958.66421,   0.00306,   0.00141,   0.00066,   0.00000,   2.00000
400095575.32751,527188312.46868,-27127051.06977,   0.00385,   0.00304,   0.00030,481642510.50401,   0.00394,278838078.80781,   0.00306,   0.00142,   0.00066,   0.00000,   2.00000
400498330.36724,526947559.37280,-27468750.04141,   0.00386,   0.00305,   0.00030,481646758.17281,   0.00395,278847180.13424,   0.00306,   0.00143,   0.00065,   0.00000,   2.00000
400900486.67829,526705371.18124,-27808830.00553,   0.00386,   0.00306,   0.00029,481644984.57457,   0.00396,278856243.23617,   0.00307,   0.00144,   0.00065,   0.00000,   2.00000
401317607.85447,526454458.24884,-28150350.18853,   0.00387,   0.00306,   0.00028,481661501.14446,   0.00397,278865327.41741,   0.00307,   0.00145,   0.00065,  -0.00000,   2.00000
401733391.45525,526201243.58347,-28494512.19532,   0.00388,   0.00307,   0.00028,481660546.35866,   0.00398,278874376.07573,   0.00308,   0.00146,   0.00065,   0.00000,   2.00000
402167145.37127,525937556.27658,-28840926.36025,   0.00388,   0.00308,   0.00027,481665031.40646,   0.00398,278883406.86112,   0.00308,   0.00147,   0.00064,  -0.00000,   2.00000
402607407.39286,525668259.20326,-29189337.03875,   0.00389,   0.00309,   0.00026,481672954.47887,   0.00399,278892430.95410,   0.00308,   0.00148,   0.00064,   0.00000,   2.00000
403057964.77157,525392493.44766,-29536368.90558,   0.00390,   0.00310,   0.00025,481667987.68240,   0.00400,278901406.64447,   0.00309,   0.00149,   0.00064,   0.00000,   2.00000
403518916.22769,525108625.40899,-29888096.22415,   0.00390,   0.00310,   0.00025,481697766.15569,   0.00401,278910446.42329,   0.00309,   0.00150,   0.00063,   0.00000,   2.00000
403985219.68263,524819730.29880,-30239986.88602,   0.00391,   0.00311,   0.00024,481671985.96015,   0.00402,278919370.47377,   0.00310,   0.00151,   0.00063,  -0.00000,   2.00000
404462301.02558,524523557.39114,-30592266.65846,   0.00392,   0.00312,   0.00023,481701057.32206,   0.00403,278928356.41933,   0.00310,   0.00152,   0.00063,   0.00000,   2.00000
404949272.03824,524220743.53461,-30943173.57874,   0.00393,   0.00312,   0.00022,481696330.89161,   0.00404,278937294.81840,   0.00311,   0.00153,   0.00063,   0.00000,   2.00000
405449300.50791,523907892.86639,-31299586.41673,   0.00393,   0.00313,   0.00022,481714310.03916,   0.00404,278946259.12140,   0.00311,   0.00154,   0.00062,   0.00000,   2.00000
405951079.86910,523591586.42081,-31655304.21542,   0.00394,   0.00314,   0.00021,481700838.21641,   0.00405,278955147.74826,   0.00311,   0.00155,   0.00062,   0.00000,   2.00000
406466345.43911,523266064.62733,-32012244.94935,   0.00395,   0.00315,   0.00020,481718101.52434,   0.00406,278964060.09628,   0.00312,   0.00156,   0.00062,   0.00000,   2.00000
406987062.48983,522934590.35347,-32371086.78148,   0.00395,   0.00315,   0.00019,481726569.83299,   0.00407,278972967.71134,   0.00312,   0.00157,   0.00062,   0.00000,   2.00000
407513854.32520,522598093.37171,-32727584.97963,   0.00396,   0.00316,   0.00019,481734217.44853,   0.00408,278981867.95078,   0.00313,   0.00158,   0.00061,   0.00000,   2.00000
408052556.35203,522251789.00676,-33087938.91646,   0.00397,   0.00317,   0.00018,481718689.75931,   0.00409,278990686.13886,   0.00313,   0.00159,   0.00061,   0.00000,   2.00000
408600095.53049,521896988.70395,-33452670.71075,   0.00398,   0.00317,   0.00017,481749220.58462,   0.00410,278999570.95734,   0.00314,   0.00160,   0.00061,   0.00000,   2.00000
409156677.16779,521535119.14998,-33816005.10997,   0.00398,   0.00318,   0.00016,481745048.32317,   0.00410,279008410.36965,   0.00314,   0.00160,   0.00060,  -0.00000,   2.00000
409718872.06906,521168083.39067,-34176958.27702,   0.00399,   0.00319,   0.00016,481752928.54343,   0.00411,279017243.34374,   0.00314,   0.00161,   0.00060,  -0.00000,   2.00000
410292769.40201,520790473.29306,-34543215.36800,   0.00400,   0.00319,   0.00015,481771736.03797,   0.00412,279026105.04509,   0.00315,   0.00162,   0.00060,   0.00000,   2.00000
