# sigma_xx, sigma_yy, sigma_xy, epsilon_xx, epsilon_yy, epsilon_xy, vonMises, epsPlastic, hardening, epsilonP__xx, epsilonP__yy, epsilonP__xy, yieldValue, iteration
   0.00000,   0.00000,   0.00000,   0.00000,   0.00000,   0.00000,   0.00000,   0.00000,274640135.82653,   0.00000,   0.00000,   0.00000,-474640135.82653,   0.00000
   0.00000,   0.00000,   0.00000,   0.00000,   0.00000,   0.00000,   0.00000,   0.00000,274640135.82653,   0.00000,   0.00000,   0.00000,-474640135.82653,   0.00000
-1850439.07348,-222252.46632,334627.30883,  -0.00001,   0.00000,   0.00000,1843416.00922,   0.00000,274640135.82653,   0.00000,   0.00000,   0.00000,-472796719.81731,   0.00000
-3683397.61591,-437013.27646,674249.05511,  -0.00002,   0.00001,   0.00001,3675940.73742,   0.00000,274640135.82653,   0.00000,   0.00000,   0.00000,-470964195.08911,   0.00000
-5498875.62727,-644282.43044,1018865.23884,  -0.00002,   0.00001,   0.00001,5497650.69691,   0.00000,274640135.82653,   0.00000,   0.00000,   0.00000,-469142485.12962,   0.00000
-7296873.10758,-844059.92825,1363481.42257,  -0.00003,   0.00001,   0.00002,7305822.39641,   0.00000,274640135.82653,   0.00000,   0.00000,   0.00000,-467334313.43012,   0.00000
-9069898.40066,-1018865.23884,1713092.04374,  -0.00004,   0.00001,   0.00002,9102977.10773,   0.00000,274640135.82653,   0.00000,   0.00000,   0.00000,-465537158.71880,   0.00000
-10832934.81885,-1203659.42432,2067697.10235,  -0.00005,   0.00002,   0.00003,10889821.97433,   0.00000,274640135.82653,   0.00000,   0.00000,   0.00000,-463750313.85220,   0.00000
-12588479.58087,-1370973.07873,2427296.59841,  -0.00005,   0.00002,   0.00003,12679362.17098,   0.00000,274640135.82653,   0.00000,   0.00000,   0.00000,-461960773.65555,   0.00000
-14309063.28077,-1523303.42082,2786896.09447,  -0.00006,   0.00002,   0.00004,14442059.05558,   0.00000,274640135.82653,   0.00000,   0.00000,   0.00000,-460198076.77095,   0.00000
-16029646.98068,-1675633.76290,3151490.02798,  -0.00007,   0.00002,   0.00004,16207812.35496,   0.00000,274640135.82653,   0.00000,   0.00000,   0.00000,-458432323.47157,   0.00000
-17715269.61846,-1812980.79264,3521078.39893,  -0.00008,   0.00003,   0.00005,17949769.15531,   0.00000,274640135.82653,   0.00000,   0.00000,   0.00000,-456690366.67122,   0.00000
-19393400.60008,-1932847.29133,3890666.76989,  -0.00008,   0.00003,   0.00005,19691807.11388,   0.00000,274640135.82653,   0.00000,   0.00000,   0.00000,-454948328.71265,   0.00000
-21061542.70681,-2062702.66491,4265249.57828,  -0.00009,   0.00003,   0.00006,21423741.15558,   0.00000,274640135.82653,   0.00000,   0.00000,   0.00000,-453216394.67095,   0.00000
-22704712.62631,-2167585.85126,4644826.82412,  -0.00010,   0.00003,   0.00006,23145436.67116,   0.00000,274640135.82653,   0.00000,   0.00000,   0.00000,-451494699.15537,   0.00000
-24330402.01476,-2264977.38144,5029398.50741,  -0.00011,   0.00004,   0.00007,24857098.03119,   0.00000,274640135.82653,   0.00000,   0.00000,   0.00000,-449783037.79534,   0.00000
-25938610.87214,-2354877.25546,5413970.19070,  -0.00011,   0.00004,   0.00007,26555751.83950,   0.00000,274640135.82653,   0.00000,   0.00000,   0.00000,-448084383.98703,   0.00000
-27536830.85464,-2454766.00436,5803536.31143,  -0.00012,   0.00004,   0.00008,28244460.59951,   0.00000,274640135.82653,   0.00000,   0.00000,   0.00000,-446395675.22702,   0.00000
-29102586.99374,-2512202.03498,6198096.86961,  -0.00013,   0.00005,   0.00008,29923391.60154,   0.00000,274640135.82653,   0.00000,   0.00000,   0.00000,-444716744.22499,   0.00000
-30658354.25795,-2579626.94050,6597651.86524,  -0.00013,   0.00005,   0.00009,31592547.77265,   0.00000,274640135.82653,   0.00000,   0.00000,   0.00000,-443047588.05388,   0.00000
-32214121.52215,-2647051.84601,6997206.86086,  -0.00014,   0.00005,   0.00009,33262092.09653,   0.00000,274640135.82653,   0.00000,   0.00000,   0.00000,-441378043.73000,   0.00000
-33734927.72425,-2699493.43918,7401756.29393,  -0.00015,   0.00005,   0.00010,34908786.65937,   0.00000,274640135.82653,   0.00000,   0.00000,   0.00000,-439731349.16716,   0.00000
-35230761.73911,-2726962.84513,7811300.16444,  -0.00015,   0.00006,   0.00010,36546123.61914,   0.00000,274640135.82653,   0.00000,   0.00000,   0.00000,-438094012.20739,   0.00000
-36734087.41015,-2771912.78214,8220844.03496,  -0.00016,   0.00006,   0.00011,38183763.85110,   0.00000,274640135.82653,   0.00000,   0.00000,   0.00000,-436456371.97542,   0.00000
-38212440.89395,-2791890.53192,8640376.78036,  -0.00017,   0.00006,   0.00011,39815432.59344,   0.00000,274640135.82653,   0.00000,   0.00000,   0.00000,-434824703.23309,   0.00000
-39655833.31564,-2796884.96937,9054915.08832,  -0.00017,   0.00006,   0.00012,41418224.72188,   0.00000,274640135.82653,   0.00000,   0.00000,   0.00000,-433221911.10465,   0.00000
-41106717.39350,-2819359.93787,9479442.27117,  -0.00018,   0.00007,   0.00012,43027849.70748,   0.00000,274640135.82653,   0.00000,   0.00000,   0.00000,-431612286.11905,   0.00000
-42532629.28413,-2816862.71915,9903969.45402,  -0.00019,   0.00007,   0.00013,44625290.18909,   0.00000,274640135.82653,   0.00000,   0.00000,   0.00000,-430014845.63743,   0.00000
-43941060.64371,-2806873.84426,10333491.07432,  -0.00019,   0.00007,   0.00013,46213650.04856,   0.00000,274640135.82653,   0.00000,   0.00000,   0.00000,-428426485.77797,   0.00000
-45332011.47222,-2789393.31320,10768007.13206,  -0.00020,   0.00008,   0.00014,47793023.57340,   0.00000,274640135.82653,   0.00000,   0.00000,   0.00000,-426847112.25313,   0.00000
-46705481.76968,-2764421.12597,11207517.62724,  -0.00021,   0.00008,   0.00015,49363506.61259,   0.00000,274640135.82653,   0.00000,   0.00000,   0.00000,-425276629.21394,   0.00000
-48061471.53608,-2731957.28258,11647028.12243,  -0.00021,   0.00008,   0.00015,50921768.84090,   0.00000,274640135.82653,   0.00000,   0.00000,   0.00000,-423718366.98562,   0.00000
-49399980.77142,-2692001.78301,12091533.05506,  -0.00022,   0.00008,   0.00016,52471284.07389,   0.00000,274640135.82653,   0.00000,   0.00000,   0.00000,-422168851.75264,   0.00000
-50721009.47570,-2644554.62728,12536037.98769,  -0.00023,   0.00009,   0.00016,54008672.78861,   0.00000,274640135.82653,   0.00000,   0.00000,   0.00000,-420631463.03792,   0.00000
-52024557.64892,-2589615.81539,12990531.79521,  -0.00023,   0.00009,   0.00017,55540965.42488,   0.00000,274640135.82653,   0.00000,   0.00000,   0.00000,-419099170.40165,   0.00000
-53310625.29108,-2527185.34732,13445025.60273,  -0.00024,   0.00009,   0.00017,57061280.60242,   0.00000,274640135.82653,   0.00000,   0.00000,   0.00000,-417578855.22411,   0.00000
-54579212.40219,-2457263.22309,13899519.41026,  -0.00024,   0.00010,   0.00018,58569642.28265,   0.00000,274640135.82653,   0.00000,   0.00000,   0.00000,-416070493.54388,   0.00000
-55847799.51329,-2387341.09885,14364002.09267,  -0.00025,   0.00010,   0.00019,60085955.34145,   0.00000,274640135.82653,   0.00000,   0.00000,   0.00000,-414554180.48507,   0.00000
-57081425.56228,-2302435.66228,14828484.77508,  -0.00026,   0.00010,   0.00019,61577722.64794,   0.00000,274640135.82653,   0.00000,   0.00000,   0.00000,-413062413.17859,   0.00000
-58315051.61127,-2217530.22571,15297961.89494,  -0.00026,   0.00010,   0.00020,63074005.81525,   0.00000,274640135.82653,   0.00000,   0.00000,   0.00000,-411566130.01128,   0.00000
-59513716.59814,-2117641.47681,15767439.01480,  -0.00027,   0.00011,   0.00020,64545910.43046,   0.00000,274640135.82653,   0.00000,   0.00000,   0.00000,-410094225.39607,   0.00000
-60712381.58501,-2017752.72790,16246905.00955,  -0.00027,   0.00011,   0.00021,66026114.51087,   0.00000,274640135.82653,   0.00000,   0.00000,   0.00000,-408614021.31566,   0.00000
-61868593.85360,-1885400.13560,16721376.56685,  -0.00028,   0.00011,   0.00022,67479210.77430,   0.00000,274640135.82653,   0.00000,   0.00000,   0.00000,-407160925.05223,   0.00000
-63032297.77835,-1770528.07436,17205836.99904,  -0.00028,   0.00011,   0.00022,68940027.27433,   0.00000,274640135.82653,   0.00000,   0.00000,   0.00000,-405700108.55220,   0.00000
-64178521.17204,-1648164.35695,17690297.43124,  -0.00029,   0.00012,   0.00023,70389361.01512,   0.00000,274640135.82653,   0.00000,   0.00000,   0.00000,-404250774.81141,   0.00000
-65289783.50362,-1510817.32720,18179752.30087,  -0.00029,   0.00012,   0.00024,71818574.50481,   0.00000,274640135.82653,   0.00000,   0.00000,   0.00000,-402821561.32172,   0.00000
-66408537.49137,-1390950.82851,18674201.60796,  -0.00030,   0.00012,   0.00024,73251860.06369,   0.00000,274640135.82653,   0.00000,   0.00000,   0.00000,-401388275.76284,   0.00000
-67502319.29189,-1246112.14260,19173645.35249,  -0.00030,   0.00013,   0.00025,74678554.31007,   0.00000,274640135.82653,   0.00000,   0.00000,   0.00000,-399961581.51646,   0.00000
-68578620.56135,-1093781.80052,19673089.09702,  -0.00031,   0.00013,   0.00026,76094052.41875,   0.00000,274640135.82653,   0.00000,   0.00000,   0.00000,-398546083.40778,   0.00000
-69637441.29975,-933959.80227,20172532.84155,  -0.00032,   0.00013,   0.00026,77498388.27041,   0.00000,274640135.82653,   0.00000,   0.00000,   0.00000,-397141747.55612,   0.00000
-70678781.50710,-766646.14785,20681965.46097,  -0.00032,   0.00013,   0.00027,78899451.02504,   0.00000,274640135.82653,   0.00000,   0.00000,   0.00000,-395740684.80149,   0.00000
-71710132.83955,-609321.36833,21191398.08039,  -0.00033,   0.00014,   0.00028,80288517.02414,   0.00000,274640135.82653,   0.00000,   0.00000,   0.00000,-394351618.80239,   0.00000
-72716511.98478,-427024.40157,21705825.13725,  -0.00033,   0.00014,   0.00028,81671600.17242,   0.00000,274640135.82653,   0.00000,   0.00000,   0.00000,-392968535.65411,   0.00000
-73705410.59895,-237235.77865,22225246.63156,  -0.00033,   0.00014,   0.00029,83047835.82611,   0.00000,274640135.82653,   0.00000,   0.00000,   0.00000,-391592300.00042,   0.00000
-74684320.33822,-57436.03062,22744668.12587,  -0.00034,   0.00015,   0.00030,84412210.11701,   0.00000,274640135.82653,   0.00000,   0.00000,   0.00000,-390227925.70952,   0.00000
-75645749.54644,129855.37358,23269084.05763,  -0.00034,   0.00015,   0.00030,85769867.15958,   0.00000,274640135.82653,   0.00000,   0.00000,   0.00000,-388870268.66695,   0.00000
-76582206.56744,342118.96500,23793499.98939,  -0.00035,   0.00015,   0.00031,87117986.42420,   0.00000,274640135.82653,   0.00000,   0.00000,   0.00000,-387522149.40233,   0.00000
-77526155.24460,536902.02537,24322910.35859,  -0.00035,   0.00015,   0.00032,88470497.14735,   0.00000,274640135.82653,   0.00000,   0.00000,   0.00000,-386169638.67918,   0.00000
-78435142.85964,746668.39807,24857315.16523,  -0.00036,   0.00016,   0.00032,89804524.06896,   0.00000,274640135.82653,   0.00000,   0.00000,   0.00000,-384835611.75757,   0.00000
-79326649.94363,963926.42694,25396714.40933,  -0.00036,   0.00016,   0.00033,91132271.49612,   0.00000,274640135.82653,   0.00000,   0.00000,   0.00000,-383507864.33041,   0.00000
-80218157.02761,1181184.45581,25936113.65342,  -0.00037,   0.00016,   0.00034,92461593.80039,   0.00000,274640135.82653,   0.00000,   0.00000,   0.00000,-382178542.02614,   0.00000
-81074703.04948,1413425.79702,26480507.33496,  -0.00037,   0.00016,   0.00034,93772864.57164,   0.00000,274640135.82653,   0.00000,   0.00000,   0.00000,-380867271.25489,   0.00000
-81938740.72751,1628186.60717,27029895.45394,  -0.00038,   0.00017,   0.00035,95088724.50849,   0.00000,274640135.82653,   0.00000,   0.00000,   0.00000,-379551411.31804,   0.00000
-82760325.68727,1875411.26071,27579283.57292,  -0.00038,   0.00017,   0.00036,96383862.59732,   0.00000,274640135.82653,   0.00000,   0.00000,   0.00000,-378256273.22921,   0.00000
-83589402.30318,2105155.38319,28133666.12935,  -0.00038,   0.00017,   0.00037,97683663.15030,   0.00000,274640135.82653,   0.00000,   0.00000,   0.00000,-376956472.67623,   0.00000
-84393506.73188,2359871.69290,28693043.12322,  -0.00039,   0.00018,   0.00037,98979103.81250,   0.00000,274640135.82653,   0.00000,   0.00000,   0.00000,-375661032.01403,   0.00000
-85170141.75462,2612090.78389,29252420.11709,  -0.00039,   0.00018,   0.00038,100251486.04996,   0.00000,274640135.82653,   0.00000,   0.00000,   0.00000,-374388649.77656,   0.00000
-85946776.77736,2864309.87488,29816791.54841,  -0.00040,   0.00018,   0.00039,101530064.93467,   0.00000,274640135.82653,   0.00000,   0.00000,   0.00000,-373110070.89186,   0.00000
-86705931.26905,3124020.62203,30381162.97973,  -0.00040,   0.00018,   0.00039,102798805.10697,   0.00000,274640135.82653,   0.00000,   0.00000,   0.00000,-371841330.71956,   0.00000
-87447605.22968,3391223.02536,30950528.84849,  -0.00040,   0.00019,   0.00040,104062212.61526,   0.00000,274640135.82653,   0.00000,   0.00000,   0.00000,-370577923.21126,   0.00000
-88179290.31541,3648436.55379,31524889.15470,  -0.00041,   0.00019,   0.00041,105318900.41460,   0.00000,274640135.82653,   0.00000,   0.00000,   0.00000,-369321235.41193,   0.00000
-88886003.21392,3930622.26945,32104243.89836,  -0.00041,   0.00019,   0.00042,106572023.02340,   0.00000,274640135.82653,   0.00000,   0.00000,   0.00000,-368068112.80313,   0.00000
-89582727.23754,4202819.11022,32683598.64201,  -0.00042,   0.00019,   0.00042,107814106.52760,   0.00000,274640135.82653,   0.00000,   0.00000,   0.00000,-366826029.29893,   0.00000
-90261970.73010,4482507.60715,33267947.82311,  -0.00042,   0.00020,   0.00043,109051296.47119,   0.00000,274640135.82653,   0.00000,   0.00000,   0.00000,-365588839.35534,   0.00000
-90923733.69160,4769687.76026,33852297.00421,  -0.00042,   0.00020,   0.00044,110279132.78060,   0.00000,274640135.82653,   0.00000,   0.00000,   0.00000,-364361003.04593,   0.00000
-91568016.12204,5064359.56953,34441640.62276,  -0.00043,   0.00020,   0.00045,111502298.18012,   0.00000,274640135.82653,   0.00000,   0.00000,   0.00000,-363137837.64641,   0.00000
-92194818.02143,5366523.03497,35035978.67875,  -0.00043,   0.00020,   0.00046,112720934.43562,   0.00000,274640135.82653,   0.00000,   0.00000,   0.00000,-361919201.39091,   0.00000
-92804139.38975,5676178.15658,35635311.17218,  -0.00043,   0.00021,   0.00046,113935184.74202,   0.00000,274640135.82653,   0.00000,   0.00000,   0.00000,-360704951.08451,   0.00000
-93420952.41425,5968352.74713,36234643.66562,  -0.00044,   0.00021,   0.00047,115149958.69388,   0.00000,274640135.82653,   0.00000,   0.00000,   0.00000,-359490177.13265,   0.00000
-94002804.37663,6275510.65001,36833976.15905,  -0.00044,   0.00021,   0.00048,116344532.59024,   0.00000,274640135.82653,   0.00000,   0.00000,   0.00000,-358295603.23629,   0.00000
-94584656.33900,6582668.55290,37438303.08993,  -0.00044,   0.00021,   0.00049,117546109.24091,   0.00000,274640135.82653,   0.00000,   0.00000,   0.00000,-357094026.58562,   0.00000
-95131547.23926,6904809.76812,38047624.45826,  -0.00045,   0.00022,   0.00049,118732548.59327,   0.00000,274640135.82653,   0.00000,   0.00000,   0.00000,-355907587.23325,   0.00000
-95685929.79569,7209470.45228,38661940.26403,  -0.00045,   0.00022,   0.00050,119924373.60090,   0.00000,274640135.82653,   0.00000,   0.00000,   0.00000,-354715762.22563,   0.00000
-96197859.63383,7546594.97984,39276256.06980,  -0.00045,   0.00022,   0.00051,121098383.35455,   0.00000,274640135.82653,   0.00000,   0.00000,   0.00000,-353541752.47198,   0.00000
-96717281.12814,7866238.97634,39895566.31302,  -0.00046,   0.00022,   0.00052,122277880.52325,   0.00000,274640135.82653,   0.00000,   0.00000,   0.00000,-352362255.30328,   0.00000
-97219222.09140,8193374.62901,40514876.55624,  -0.00046,   0.00023,   0.00053,123448887.02092,   0.00000,274640135.82653,   0.00000,   0.00000,   0.00000,-351191248.80561,   0.00000
-97711174.17976,8510521.40678,41139181.23690,  -0.00046,   0.00023,   0.00053,124614494.63151,   0.00000,274640135.82653,   0.00000,   0.00000,   0.00000,-350025641.19501,   0.00000
-98160673.54983,8860132.02795,41768480.35500,  -0.00046,   0.00023,   0.00054,125767858.18489,   0.00000,274640135.82653,   0.00000,   0.00000,   0.00000,-348872277.64164,   0.00000
-98617664.57608,9192262.11807,42397779.47311,  -0.00047,   0.00023,   0.00055,126921928.69750,   0.00000,274640135.82653,   0.00000,   0.00000,   0.00000,-347718207.12903,   0.00000
-99057175.07126,9531883.86435,43032073.02866,  -0.00047,   0.00024,   0.00056,128072870.50443,   0.00000,274640135.82653,   0.00000,   0.00000,   0.00000,-346567265.32210,   0.00000
-99496685.56645,9871505.61063,43666366.58422,  -0.00047,   0.00024,   0.00057,129226444.13408,   0.00000,274640135.82653,   0.00000,   0.00000,   0.00000,-345413691.69245,   0.00000
-99901234.99952,10226110.66924,44305654.57721,  -0.00047,   0.00024,   0.00058,130366423.06014,   0.00000,274640135.82653,   0.00000,   0.00000,   0.00000,-344273712.76639,   0.00000
-100295795.55770,10570726.85297,44949937.00766,  -0.00048,   0.00024,   0.00058,131501622.96744,   0.00000,274640135.82653,   0.00000,   0.00000,   0.00000,-343138512.85909,   0.00000
-100672875.58482,10922834.69286,45594219.43810,  -0.00048,   0.00025,   0.00059,132629061.34336,   0.00000,274640135.82653,   0.00000,   0.00000,   0.00000,-342011074.48317,   0.00000
-101049955.61194,11274942.53275,46243496.30599,  -0.00048,   0.00025,   0.00060,133764468.94658,   0.00000,274640135.82653,   0.00000,   0.00000,   0.00000,-340875666.87995,   0.00000
-101392074.57694,11642033.68498,46897767.61132,  -0.00048,   0.00025,   0.00061,134886995.30989,   0.00000,274640135.82653,   0.00000,   0.00000,   0.00000,-339753140.51664,   0.00000
-101741685.19811,11991644.30615,47552038.91666,  -0.00049,   0.00025,   0.00062,136010328.12075,   0.00000,274640135.82653,   0.00000,   0.00000,   0.00000,-338629807.70578,   0.00000
-102073815.28822,12348746.58349,48206310.22199,  -0.00049,   0.00026,   0.00063,137126160.97280,   0.00000,274640135.82653,   0.00000,   0.00000,   0.00000,-337513974.85373,   0.00000
-102370984.31622,12720832.17317,48865575.96477,  -0.00049,   0.00026,   0.00064,138229575.90561,   0.00000,274640135.82653,   0.00000,   0.00000,   0.00000,-336410559.92092,   0.00000
-102668153.34421,13092917.76284,49529836.14499,  -0.00049,   0.00026,   0.00064,139341357.46756,   0.00000,274640135.82653,   0.00000,   0.00000,   0.00000,-335298778.35896,   0.00000
-102955333.49732,13455014.47763,50199090.76266,  -0.00049,   0.00026,   0.00065,140449100.22170,   0.00000,274640135.82653,   0.00000,   0.00000,   0.00000,-334191035.60482,   0.00000
-103225033.11936,13824602.84858,50863350.94289,  -0.00050,   0.00026,   0.00066,141544387.38692,   0.00000,274640135.82653,   0.00000,   0.00000,   0.00000,-333095748.43961,   0.00000
-103477252.21035,14201682.87570,51537599.99800,  -0.00050,   0.00027,   0.00067,142643448.08966,   0.00000,274640135.82653,   0.00000,   0.00000,   0.00000,-331996687.73687,   0.00000
-103719482.42645,14568774.02793,52211849.05312,  -0.00050,   0.00027,   0.00068,143733355.41164,   0.00000,274640135.82653,   0.00000,   0.00000,   0.00000,-330906780.41489,   0.00000
-103954220.98638,14953345.71121,52891092.54568,  -0.00050,   0.00027,   0.00069,144834212.20630,   0.00000,274640135.82653,   0.00000,   0.00000,   0.00000,-329805923.62023,   0.00000
-104161490.14036,15335420.17578,53570336.03824,  -0.00050,   0.00027,   0.00070,145916051.43854,   0.00000,274640135.82653,   0.00000,   0.00000,   0.00000,-328724084.38799,   0.00000
-104358770.41945,15707505.76545,54254573.96824,  -0.00051,   0.00027,   0.00071,146994459.34557,   0.00000,274640135.82653,   0.00000,   0.00000,   0.00000,-327645676.48096,   0.00000
-104548559.04237,16097071.88619,54938811.89825,  -0.00051,   0.00028,   0.00071,148078566.13980,   0.00000,274640135.82653,   0.00000,   0.00000,   0.00000,-326561569.68673,   0.00000
-104728358.79040,16476649.13203,55628044.26570,  -0.00051,   0.00028,   0.00072,149159376.00430,   0.00000,274640135.82653,   0.00000,   0.00000,   0.00000,-325480759.82223,   0.00000
-104873197.47631,16871209.69021,56317276.63315,  -0.00051,   0.00028,   0.00073,150224065.69171,   0.00000,274640135.82653,   0.00000,   0.00000,   0.00000,-324416070.13482,   0.00000
-105025527.81839,17248289.71733,57011503.43805,  -0.00051,   0.00028,   0.00074,151295440.43371,   0.00000,274640135.82653,   0.00000,   0.00000,   0.00000,-323344695.39282,   0.00000
-105160377.62942,17632861.40062,57710724.68039,  -0.00051,   0.00029,   0.00075,152366283.72877,   0.00000,274640135.82653,   0.00000,   0.00000,   0.00000,-322273852.09776,   0.00000
-105295227.44044,18017433.08390,58409945.92273,  -0.00051,   0.00029,   0.00076,153440633.07748,   0.00000,274640135.82653,   0.00000,   0.00000,   0.00000,-321199502.74905,   0.00000
-105395116.18934,18416988.07953,59109167.16507,  -0.00052,   0.00029,   0.00077,154499377.00143,   0.00000,274640135.82653,   0.00000,   0.00000,   0.00000,-320140758.82510,   0.00000
-105485016.06336,18806554.20026,59813382.84486,  -0.00052,   0.00029,   0.00078,155555479.07008,   0.00000,274640135.82653,   0.00000,   0.00000,   0.00000,-319084656.75645,   0.00000
-105574915.93737,19196120.32099,60522592.96209,  -0.00052,   0.00029,   0.00079,156620993.08949,   0.00000,274640135.82653,   0.00000,   0.00000,   0.00000,-318019142.73704,   0.00000
-105637346.40544,19583189.22300,61231803.07932,  -0.00052,   0.00030,   0.00080,157668854.00876,   0.00000,274640135.82653,   0.00000,   0.00000,   0.00000,-316971281.81777,   0.00000
-105692285.21734,19987738.65607,61946007.63400,  -0.00052,   0.00030,   0.00081,158728832.32516,   0.00000,274640135.82653,   0.00000,   0.00000,   0.00000,-315911303.50137,   0.00000
-105737235.15435,20382299.21425,62660212.18867,  -0.00052,   0.00030,   0.00081,159780710.84752,   0.00000,274640135.82653,   0.00000,   0.00000,   0.00000,-314859424.97901,   0.00000
-105772196.21646,20766870.89754,63379411.18080,  -0.00052,   0.00030,   0.00082,160830430.10444,   0.00000,274640135.82653,   0.00000,   0.00000,   0.00000,-313809705.72209,   0.00000
-105782185.09135,21176414.76805,64098610.17292,  -0.00052,   0.00030,   0.00083,161877404.63077,   0.00000,274640135.82653,   0.00000,   0.00000,   0.00000,-312762731.19576,   0.00000
-105782185.09135,21575969.76368,64822803.60249,  -0.00052,   0.00030,   0.00084,162922478.44196,   0.00000,274640135.82653,   0.00000,   0.00000,   0.00000,-311717657.38457,   0.00000
-105772196.21646,21965535.88441,65546997.03206,  -0.00052,   0.00031,   0.00085,163959786.80905,   0.00000,274640135.82653,   0.00000,   0.00000,   0.00000,-310680349.01748,   0.00000
-105754715.68541,22372582.53620,66276184.89907,  -0.00052,   0.00031,   0.00086,165009686.07518,   0.00000,274640135.82653,   0.00000,   0.00000,   0.00000,-309630449.75135,   0.00000
-105727246.27946,22769640.31310,67005372.76608,  -0.00053,   0.00031,   0.00087,166051914.87444,   0.00000,274640135.82653,   0.00000,   0.00000,   0.00000,-308588220.95209,   0.00000
-105672307.46756,23164200.87128,67739555.07054,  -0.00053,   0.00031,   0.00088,167083731.36753,   0.00000,274640135.82653,   0.00000,   0.00000,   0.00000,-307556404.45900,   0.00000
-105617368.65566,23558761.42946,68473737.37500,  -0.00053,   0.00031,   0.00089,168119648.83113,   0.00000,274640135.82653,   0.00000,   0.00000,   0.00000,-306520486.99540,   0.00000
-105544949.31270,23960813.64380,69212914.11690,  -0.00053,   0.00031,   0.00090,169156975.08256,   0.00000,274640135.82653,   0.00000,   0.00000,   0.00000,-305483160.74397,   0.00000
-105472529.96975,24362865.85815,69952090.85881,  -0.00053,   0.00032,   0.00091,170198419.37271,   0.00000,274640135.82653,   0.00000,   0.00000,   0.00000,-304441716.45382,   0.00000
-105372641.22084,24762420.85377,70696262.03815,  -0.00053,   0.00032,   0.00092,171230070.63972,   0.00000,274640135.82653,   0.00000,   0.00000,   0.00000,-303410065.18681,   0.00000
-105272752.47193,25161975.84940,71440433.21750,  -0.00053,   0.00032,   0.00093,172265940.89336,   0.00000,274640135.82653,   0.00000,   0.00000,   0.00000,-302374194.93317,   0.00000
-105145394.31708,25559033.62630,72189598.83430,  -0.00053,   0.00032,   0.00094,173292375.35038,   0.00000,274640135.82653,   0.00000,   0.00000,   0.00000,-301347760.47615,   0.00000
-105018036.16222,25956091.40320,72938764.45109,  -0.00053,   0.00032,   0.00095,174323132.21391,   0.00000,274640135.82653,   0.00000,   0.00000,   0.00000,-300317003.61262,   0.00000
-104873197.47631,26360640.83627,73687930.06789,  -0.00053,   0.00032,   0.00096,175349732.64678,   0.00000,274640135.82653,   0.00000,   0.00000,   0.00000,-299290403.17975,   0.00000
-104718369.91551,26755201.39445,74442090.12213,  -0.00053,   0.00033,   0.00097,176375772.77353,   0.00000,274640135.82653,   0.00000,   0.00000,   0.00000,-298264363.05300,   0.00000
-104563542.35470,27149761.95263,75201244.61381,  -0.00053,   0.00033,   0.00098,177412515.96801,   0.00000,274640135.82653,   0.00000,   0.00000,   0.00000,-297227619.85852,   0.00000
-104373753.73178,27559305.82314,75960399.10550,  -0.00053,   0.00033,   0.00099,178437133.75113,   0.00000,274640135.82653,   0.00000,   0.00000,   0.00000,-296203002.07540,   0.00000
-104191456.76503,27951369.16260,76719553.59718,  -0.00053,   0.00033,   0.00100,179463373.10148,   0.00000,274640135.82653,   0.00000,   0.00000,   0.00000,-295176762.72505,   0.00000
-103991679.26722,28350924.15822,77483702.52631,  -0.00053,   0.00033,   0.00101,180492318.23263,   0.00000,274640135.82653,   0.00000,   0.00000,   0.00000,-294147817.59390,   0.00000
-103781912.89451,28740490.27895,78247851.45544,  -0.00053,   0.00033,   0.00102,181514801.20468,   0.00000,274640135.82653,   0.00000,   0.00000,   0.00000,-293125334.62185,   0.00000
-103554665.99075,29137548.05585,79016994.82202,  -0.00053,   0.00033,   0.00103,182540272.33459,   0.00000,274640135.82653,   0.00000,   0.00000,   0.00000,-292099863.49194,   0.00000
-103327419.08699,29534605.83275,79786138.18859,  -0.00053,   0.00034,   0.00104,183570331.51485,   0.00000,274640135.82653,   0.00000,   0.00000,   0.00000,-291069804.31168,   0.00000
-103072702.77728,29929166.39093,80560275.99261,  -0.00053,   0.00034,   0.00105,184592771.62032,   0.00000,274640135.82653,   0.00000,   0.00000,   0.00000,-290047364.20621,   0.00000
-102817986.46757,30323726.94911,81334413.79663,  -0.00053,   0.00034,   0.00106,185619912.47535,   0.00000,274640135.82653,   0.00000,   0.00000,   0.00000,-289020223.35118,   0.00000
-102545789.62680,30725779.16346,82108551.60065,  -0.00053,   0.00034,   0.00107,186643924.35725,   0.00000,274640135.82653,   0.00000,   0.00000,   0.00000,-287996211.46928,   0.00000
-102263603.91114,31117842.50291,82887683.84212,  -0.00053,   0.00034,   0.00108,187668569.35926,   0.00000,274640135.82653,   0.00000,   0.00000,   0.00000,-286971566.46727,   0.00000
-101988909.85165,31492425.31131,83666816.08359,  -0.00053,   0.00034,   0.00109,188694984.17154,   0.00000,274640135.82653,   0.00000,   0.00000,   0.00000,-285945151.65499,   0.00000
-101689243.60494,31891980.30693,84450942.76250,  -0.00052,   0.00034,   0.00110,189728113.96243,   0.00000,274640135.82653,   0.00000,   0.00000,   0.00000,-284912021.86410,   0.00000
-101362107.95227,32289038.08383,85235069.44141,  -0.00052,   0.00034,   0.00111,190747988.35343,   0.00000,274640135.82653,   0.00000,   0.00000,   0.00000,-283892147.47310,   0.00000
-101042463.95577,32668615.32968,86019196.12032,  -0.00052,   0.00035,   0.00112,191769762.05936,   0.00000,274640135.82653,   0.00000,   0.00000,   0.00000,-282870373.76717,   0.00000
-100722819.95927,33048192.57552,86808317.23668,  -0.00052,   0.00035,   0.00113,192803082.10247,   0.00000,274640135.82653,   0.00000,   0.00000,   0.00000,-281837053.72406,   0.00000
-100368214.90065,33442753.13370,87597438.35303,  -0.00052,   0.00035,   0.00114,193826518.69891,   0.00000,274640135.82653,   0.00000,   0.00000,   0.00000,-280813617.12762,   0.00000
-100021101.49821,33819833.16082,88391553.90684,  -0.00052,   0.00035,   0.00115,194858664.75824,   0.00000,274640135.82653,   0.00000,   0.00000,   0.00000,-279781471.06828,   0.00000
-99663999.22087,34186924.31305,89185669.46064,  -0.00052,   0.00035,   0.00116,195885464.09626,   0.00000,274640135.82653,   0.00000,   0.00000,   0.00000,-278754671.73026,   0.00000
-99281924.75630,34578987.65250,89979785.01444,  -0.00052,   0.00035,   0.00117,196913078.67785,   0.00000,274640135.82653,   0.00000,   0.00000,   0.00000,-277727057.14868,   0.00000
-98907341.94791,34953570.46090,90778895.00569,  -0.00052,   0.00035,   0.00118,197949494.72126,   0.00000,274640135.82653,   0.00000,   0.00000,   0.00000,-276690641.10527,   0.00000
-98505289.73356,35325656.05057,91578004.99693,  -0.00052,   0.00035,   0.00119,198973744.65703,   0.00000,274640135.82653,   0.00000,   0.00000,   0.00000,-275666391.16950,   0.00000
-98103237.51921,35697741.64025,92377114.98818,  -0.00052,   0.00035,   0.00120,200003080.27032,   0.00000,274640135.82653,   0.00000,   0.00000,   0.00000,-274637055.55621,   0.00000
-97683704.77381,36077318.88609,93181219.41687,  -0.00051,   0.00035,   0.00121,201037469.74008,   0.00000,274640135.82653,   0.00000,   0.00000,   0.00000,-273602666.08645,   0.00000
-97271663.68457,36439415.60087,93985323.84557,  -0.00051,   0.00036,   0.00122,202073881.14142,   0.00000,274640135.82653,   0.00000,   0.00000,   0.00000,-272566254.68511,   0.00000
-96824661.53322,36816495.62799,94789428.27426,  -0.00051,   0.00036,   0.00123,203101751.09302,   0.00000,274640135.82653,   0.00000,   0.00000,   0.00000,-271538384.73351,   0.00000
-96385151.03803,37176095.12406,95598527.14040,  -0.00051,   0.00036,   0.00124,204138722.70364,   0.00000,274640135.82653,   0.00000,   0.00000,   0.00000,-270501413.12289,   0.00000
-95928160.01179,37543186.27628,96407626.00654,  -0.00051,   0.00036,   0.00125,205174176.14343,   0.00000,274640135.82653,   0.00000,   0.00000,   0.00000,-269465959.68310,   0.00000
-95471168.98554,37910277.42851,97221719.31012,  -0.00051,   0.00036,   0.00126,206221870.47373,   0.00000,274640135.82653,   0.00000,   0.00000,   0.00000,-268418265.35280,   0.00000
-94986708.55335,38274871.36202,98035812.61370,  -0.00051,   0.00036,   0.00127,207258549.38951,   0.00000,274640135.82653,   0.00000,   0.00000,   0.00000,-267381586.43702,   0.00000
-94509739.77732,38621984.76447,98849905.91728,  -0.00051,   0.00036,   0.00129,208297417.28900,   0.00000,274640135.82653,   0.00000,   0.00000,   0.00000,-266342718.53753,   0.00000
-94015290.47024,38976589.82308,99663999.22087,  -0.00050,   0.00036,   0.00130,209335097.46884,   0.00000,274640135.82653,   0.00000,   0.00000,   0.00000,-265305038.35769,   0.00000
-93520841.16315,39331194.88170,100483086.96190,  -0.00050,   0.00036,   0.00131,210385192.79681,   0.00000,274640135.82653,   0.00000,   0.00000,   0.00000,-264254943.02972,   0.00000
-93016402.98118,39675811.06543,101302174.70292,  -0.00050,   0.00036,   0.00132,211431109.90710,   0.00000,274640135.82653,   0.00000,   0.00000,   0.00000,-263209025.91943,   0.00000
-92494484.26815,40027918.90532,102121262.44395,  -0.00050,   0.00036,   0.00133,212476074.78687,   0.00000,274640135.82653,   0.00000,   0.00000,   0.00000,-262164061.03966,   0.00000
-91962576.68022,40370037.87032,102940350.18498,  -0.00050,   0.00036,   0.00134,213517060.81522,   0.00000,274640135.82653,   0.00000,   0.00000,   0.00000,-261123075.01131,   0.00000
-91430669.09230,40712156.83532,103764432.36346,  -0.00050,   0.00036,   0.00135,214570638.66155,   0.00000,274640135.82653,   0.00000,   0.00000,   0.00000,-260069497.16498,   0.00000
-90888772.62948,41044286.92544,104588514.54193,  -0.00049,   0.00036,   0.00136,215620359.57599,   0.00000,274640135.82653,   0.00000,   0.00000,   0.00000,-259019776.25054,   0.00000
-90329395.63561,41383908.67172,105417591.15785,  -0.00049,   0.00036,   0.00137,216676756.13404,   0.00000,274640135.82653,   0.00000,   0.00000,   0.00000,-257963379.69249,   0.00000
-89752538.11068,41731022.07416,106246667.77377,  -0.00049,   0.00036,   0.00138,217732690.90529,   0.00000,274640135.82653,   0.00000,   0.00000,   0.00000,-256907444.92124,   0.00000
-89183172.24192,42060654.94555,107070749.95224,  -0.00049,   0.00037,   0.00139,218783628.33220,   0.00000,274640135.82653,   0.00000,   0.00000,   0.00000,-255856507.49433,   0.00000
-88603817.49826,42380298.94205,107904821.00560,  -0.00049,   0.00037,   0.00140,219845704.24600,   0.00000,274640135.82653,   0.00000,   0.00000,   0.00000,-254794431.58053,   0.00000
-88024462.75461,42699942.93855,108733897.62152,  -0.00048,   0.00037,   0.00141,220905889.87828,   0.00000,274640135.82653,   0.00000,   0.00000,   0.00000,-253734245.94825,   0.00000
-87410146.94884,43034570.24739,109567968.67489,  -0.00048,   0.00037,   0.00142,221967532.34161,   0.00000,274640135.82653,   0.00000,   0.00000,   0.00000,-252672603.48492,   0.00000
-86803322.79923,43351717.02516,110402039.72825,  -0.00048,   0.00037,   0.00144,223031595.14591,   0.00000,274640135.82653,   0.00000,   0.00000,   0.00000,-251608540.68062,   0.00000
-86196498.64963,43668863.80294,111236110.78162,  -0.00048,   0.00037,   0.00145,224101151.78324,   0.00000,274640135.82653,   0.00000,   0.00000,   0.00000,-250538984.04329,   0.00000
-85562205.09408,43983513.36199,112070181.83498,  -0.00048,   0.00037,   0.00146,225162038.87165,   0.00000,274640135.82653,   0.00000,   0.00000,   0.00000,-249478096.95488,   0.00000
-84927911.53852,44298162.92105,112909247.32579,  -0.00047,   0.00037,   0.00147,226235987.97137,   0.00000,274640135.82653,   0.00000,   0.00000,   0.00000,-248404147.85516,   0.00000
-84301109.63914,44595331.94904,113748312.81660,  -0.00047,   0.00037,   0.00148,227312324.10922,   0.00000,274640135.82653,   0.00000,   0.00000,   0.00000,-247327811.71731,   0.00000
-83656827.20870,44899992.63320,114587378.30741,  -0.00047,   0.00037,   0.00149,228388850.00055,   0.00000,274640135.82653,   0.00000,   0.00000,   0.00000,-246251285.82598,   0.00000
-83002555.90336,45194664.44248,115426443.79822,  -0.00047,   0.00037,   0.00150,229462516.38599,   0.00000,274640135.82653,   0.00000,   0.00000,   0.00000,-245177619.44054,   0.00000
-82330804.06697,45496827.90792,116270503.72647,  -0.00046,   0.00037,   0.00151,230544145.84321,   0.00000,274640135.82653,   0.00000,   0.00000,   0.00000,-244095989.98332,   0.00000
-81666543.88675,45781510.84230,117109569.21728,  -0.00046,   0.00037,   0.00152,231620686.67670,   0.00000,274640135.82653,   0.00000,   0.00000,   0.00000,-243019449.14983,   0.00000
-80984803.17546,46073685.43285,117953629.14554,  -0.00046,   0.00037,   0.00153,232705322.38626,   0.00000,274640135.82653,   0.00000,   0.00000,   0.00000,-241934813.44027,   0.00000
-80285581.93312,46373351.67957,118797689.07379,  -0.00046,   0.00037,   0.00154,233790604.44325,   0.00000,274640135.82653,   0.00000,   0.00000,   0.00000,-240849531.38328,   0.00000
-79601344.00312,46638056.86417,119641749.00205,  -0.00045,   0.00037,   0.00156,234875240.57690,   0.00000,274640135.82653,   0.00000,   0.00000,   0.00000,-239764895.24963,   0.00000
-78892133.88588,46927734.23599,120490803.36775,  -0.00045,   0.00037,   0.00157,235971420.32568,   0.00000,274640135.82653,   0.00000,   0.00000,   0.00000,-238668715.50085,   0.00000
-78190415.42482,47199931.07676,121334863.29600,  -0.00045,   0.00037,   0.00158,237062447.32149,   0.00000,274640135.82653,   0.00000,   0.00000,   0.00000,-237577688.50504,   0.00000
-77478708.08887,47462139.04264,122183917.66170,  -0.00045,   0.00037,   0.00159,238158853.01888,   0.00000,274640135.82653,   0.00000,   0.00000,   0.00000,-236481282.80765,   0.00000
-76749520.22185,47731838.66469,123032972.02740,  -0.00044,   0.00037,   0.00160,239256242.57500,   0.00000,274640135.82653,   0.00000,   0.00000,   0.00000,-235383893.25153,   0.00000
-76002851.82378,48009029.94290,123882026.39310,  -0.00044,   0.00037,   0.00161,240354723.31566,   0.00000,274640135.82653,   0.00000,   0.00000,   0.00000,-234285412.51087,   0.00000
-75263675.08188,48268740.69006,124731080.75880,  -0.00044,   0.00037,   0.00162,241455798.13357,   0.00000,274640135.82653,   0.00000,   0.00000,   0.00000,-233184337.69296,   0.00000
-74531989.99614,48510970.90615,125580135.12451,  -0.00043,   0.00037,   0.00163,242559398.99948,   0.00000,274640135.82653,   0.00000,   0.00000,   0.00000,-232080736.82705,   0.00000
-73782824.37935,48760692.77842,126434183.92765,  -0.00043,   0.00037,   0.00164,243671952.75998,   0.00000,274640135.82653,   0.00000,   0.00000,   0.00000,-230968183.06655,   0.00000
-73016178.23149,49017906.30685,127283238.29335,  -0.00043,   0.00037,   0.00165,244778033.85313,   0.00000,274640135.82653,   0.00000,   0.00000,   0.00000,-229862101.97340,   0.00000
-72239543.20875,49265130.96039,128137287.09650,  -0.00042,   0.00037,   0.00167,245890195.65977,   0.00000,274640135.82653,   0.00000,   0.00000,   0.00000,-228749940.16676,   0.00000
-71470399.84218,49494875.08288,128986341.46220,  -0.00042,   0.00036,   0.00168,246997182.32561,   0.00000,274640135.82653,   0.00000,   0.00000,   0.00000,-227642953.50092,   0.00000
-70701256.47560,49724619.20536,129840390.26534,  -0.00042,   0.00036,   0.00169,248117672.30632,   0.00000,274640135.82653,   0.00000,   0.00000,   0.00000,-226522463.52021,   0.00000
-69914632.57797,49961854.98401,130694439.06849,  -0.00042,   0.00036,   0.00170,249239677.31153,   0.00000,274640135.82653,   0.00000,   0.00000,   0.00000,-225400458.51500,   0.00000
-69118019.80544,50189101.88777,131548487.87163,  -0.00041,   0.00036,   0.00171,250360204.37035,   0.00000,274640135.82653,   0.00000,   0.00000,   0.00000,-224279931.45618,   0.00000
-68328898.68909,50398868.26047,132402536.67478,  -0.00041,   0.00036,   0.00172,251483356.57686,   0.00000,274640135.82653,   0.00000,   0.00000,   0.00000,-223156779.24967,   0.00000
-67522297.04167,50616126.28935,133261579.91537,  -0.00041,   0.00036,   0.00173,252616143.58024,   0.00000,274640135.82653,   0.00000,   0.00000,   0.00000,-222023992.24629,   0.00000
-66698214.86320,50840875.97438,134115628.71851,  -0.00040,   0.00036,   0.00174,253742877.34839,   0.00000,274640135.82653,   0.00000,   0.00000,   0.00000,-220897258.47814,   0.00000
-65881624.34089,51048145.12836,134969677.52166,  -0.00040,   0.00036,   0.00175,254872277.46146,   0.00000,274640135.82653,   0.00000,   0.00000,   0.00000,-219767858.36507,   0.00000
-65047553.28753,51262905.93851,135828720.76225,  -0.00040,   0.00036,   0.00177,256011563.15954,   0.00000,274640135.82653,   0.00000,   0.00000,   0.00000,-218628572.66699,   0.00000
-64220973.89033,51460186.21760,136682769.56540,  -0.00039,   0.00036,   0.00178,257145573.58945,   0.00000,274640135.82653,   0.00000,   0.00000,   0.00000,-217494562.23708,   0.00000
-63384405.61824,51647477.62180,137536818.36854,  -0.00039,   0.00036,   0.00179,258278568.04589,   0.00000,274640135.82653,   0.00000,   0.00000,   0.00000,-216361567.78064,   0.00000
-62547837.34616,51834769.02600,138395861.60913,  -0.00039,   0.00036,   0.00180,259425271.45630,   0.00000,274640135.82653,   0.00000,   0.00000,   0.00000,-215214864.37023,   0.00000
-61693788.54301,52029552.08636,139254904.84972,  -0.00038,   0.00036,   0.00181,260574142.21986,   0.00000,274640135.82653,   0.00000,   0.00000,   0.00000,-214065993.60667,   0.00000
-60847231.39603,52206854.61567,140108953.65287,  -0.00038,   0.00036,   0.00182,261717673.23165,   0.00000,274640135.82653,   0.00000,   0.00000,   0.00000,-212922462.59488,   0.00000
-59990685.37416,52374168.27009,140967996.89346,  -0.00038,   0.00036,   0.00183,262868458.60341,   0.00000,274640135.82653,   0.00000,   0.00000,   0.00000,-211771677.22312,   0.00000
-59116658.82124,52548973.58067,141822045.69661,  -0.00037,   0.00035,   0.00184,264013582.32836,   0.00000,274640135.82653,   0.00000,   0.00000,   0.00000,-210626553.49817,   0.00000
-58242632.26831,52723778.89126,142681088.93720,  -0.00037,   0.00035,   0.00185,265172495.10609,   0.00000,274640135.82653,   0.00000,   0.00000,   0.00000,-209467640.72044,   0.00000
-57376097.37155,52881103.67079,143540132.17779,  -0.00036,   0.00035,   0.00187,266334090.31742,   0.00000,274640135.82653,   0.00000,   0.00000,   0.00000,-208306045.50910,   0.00000
-56492081.94374,53045920.10648,144394180.98093,  -0.00036,   0.00035,   0.00188,267490070.71512,   0.00000,274640135.82653,   0.00000,   0.00000,   0.00000,-207150065.11141,   0.00000
-55598077.64103,53200747.66729,145253224.22152,  -0.00036,   0.00035,   0.00189,268653722.34411,   0.00000,274640135.82653,   0.00000,   0.00000,   0.00000,-205986413.48242,   0.00000
-54711564.99449,53338094.69703,146107273.02467,  -0.00035,   0.00035,   0.00190,269812016.07206,   0.00000,274640135.82653,   0.00000,   0.00000,   0.00000,-204828119.75447,   0.00000
-53807571.81689,53482933.38294,146966316.26526,  -0.00035,   0.00035,   0.00191,270981106.49415,   0.00000,274640135.82653,   0.00000,   0.00000,   0.00000,-203659029.33238,   0.00000
-52903578.63929,53627772.06886,147825359.50585,  -0.00035,   0.00035,   0.00192,272155908.19585,   0.00000,274640135.82653,   0.00000,   0.00000,   0.00000,-202484227.63068,   0.00000
-51989596.58680,53762621.87988,148679408.30900,  -0.00034,   0.00035,   0.00193,273322399.47172,   0.00000,274640135.82653,   0.00000,   0.00000,   0.00000,-201317736.35481,   0.00000
-51083106.19048,53879991.15985,149533457.11214,  -0.00034,   0.00034,   0.00194,274491637.18252,   0.00000,274640135.82653,   0.00000,   0.00000,   0.00000,-200148498.64401,   0.00000
-50159135.26310,54004852.09598,150392500.35273,  -0.00033,   0.00034,   0.00196,275671928.32865,   0.00000,274640135.82653,   0.00000,   0.00000,   0.00000,-198968207.49788,   0.00000
-49235164.33572,54129713.03211,151246549.15588,  -0.00033,   0.00034,   0.00197,276849721.78308,   0.00000,274640135.82653,   0.00000,   0.00000,   0.00000,-197790414.04345,   0.00000
-48318685.06451,54237093.43718,152100597.95902,  -0.00033,   0.00034,   0.00198,278030211.24684,   0.00000,274640135.82653,   0.00000,   0.00000,   0.00000,-196609924.57969,   0.00000
-47374736.38735,54341976.62354,152954646.76217,  -0.00032,   0.00034,   0.00199,279208210.45745,   0.00000,274640135.82653,   0.00000,   0.00000,   0.00000,-195431925.36908,   0.00000
-46448268.24125,54439368.15372,153813690.00276,  -0.00032,   0.00034,   0.00200,280402664.92897,   0.00000,274640135.82653,   0.00000,   0.00000,   0.00000,-194237470.89756,   0.00000
-45504319.56409,54544251.34007,154667738.80590,  -0.00031,   0.00034,   0.00201,281591984.57804,   0.00000,274640135.82653,   0.00000,   0.00000,   0.00000,-193048151.24849,   0.00000
-44550382.01203,54639145.65153,155516793.17161,  -0.00031,   0.00034,   0.00202,282773383.58069,   0.00000,274640135.82653,   0.00000,   0.00000,   0.00000,-191866752.24584,   0.00000
-43603936.11615,54716559.43193,156370841.97475,  -0.00031,   0.00033,   0.00203,283965813.33416,   0.00000,274640135.82653,   0.00000,   0.00000,   0.00000,-190674322.49237,   0.00000
-42640009.68921,54801464.86850,157224890.77790,  -0.00030,   0.00033,   0.00204,285161541.60645,   0.00000,274640135.82653,   0.00000,   0.00000,   0.00000,-189478594.22008,   0.00000
-41676083.26227,54886370.30507,158073945.14360,  -0.00030,   0.00033,   0.00205,286354631.35757,   0.00000,274640135.82653,   0.00000,   0.00000,   0.00000,-188285504.46896,   0.00000
-40719648.49149,54953795.21058,158927993.94674,  -0.00029,   0.00033,   0.00207,287558742.49512,   0.00000,274640135.82653,   0.00000,   0.00000,   0.00000,-187081393.33141,   0.00000
-39753224.84583,55011231.24121,159777048.31244,  -0.00029,   0.00033,   0.00208,288755162.36979,   0.00000,274640135.82653,   0.00000,   0.00000,   0.00000,-185884973.45674,   0.00000
-38786801.20016,55068667.27183,160626102.67814,  -0.00028,   0.00033,   0.00209,289957145.27663,   0.00000,274640135.82653,   0.00000,   0.00000,   0.00000,-184682990.54990,   0.00000
-37810388.67961,55116114.42756,161475157.04384,  -0.00028,   0.00032,   0.00210,291159839.77484,   0.00000,274640135.82653,   0.00000,   0.00000,   0.00000,-183480296.05169,   0.00000
-36833976.15905,55163561.58329,162324211.40954,  -0.00028,   0.00032,   0.00211,292368094.13415,   0.00000,274640135.82653,   0.00000,   0.00000,   0.00000,-182272041.69238,   0.00000
-35840083.10744,55218500.39518,163173265.77524,  -0.00027,   0.00032,   0.00212,293579927.74975,   0.00000,274640135.82653,   0.00000,   0.00000,   0.00000,-181060208.07678,   0.00000
-34853681.71199,55255958.67602,164017325.70350,  -0.00027,   0.00032,   0.00213,294786232.86588,   0.00000,274640135.82653,   0.00000,   0.00000,   0.00000,-179853902.96065,   0.00000
-33857291.44166,55283428.08197,164866380.06920,  -0.00026,   0.00032,   0.00214,296001842.17685,   0.00000,274640135.82653,   0.00000,   0.00000,   0.00000,-178638293.64968,   0.00000
-32860901.17132,55310897.48792,165710439.99745,  -0.00026,   0.00032,   0.00215,297214652.92816,   0.00000,274640135.82653,   0.00000,   0.00000,   0.00000,-177425482.89837,   0.00000
-31864510.90098,55338366.89387,166554499.92571,  -0.00025,   0.00031,   0.00217,298432934.23662,   0.00000,274640135.82653,   0.00000,   0.00000,   0.00000,-176207201.58991,   0.00000
-30858131.75576,55355847.42493,167398559.85396,  -0.00025,   0.00031,   0.00218,299652308.01117,   0.00000,274640135.82653,   0.00000,   0.00000,   0.00000,-174987827.81536,   0.00000
-29841763.73564,55363339.08110,168237625.34477,  -0.00024,   0.00031,   0.00219,300864530.32300,   0.00000,274640135.82653,   0.00000,   0.00000,   0.00000,-173775605.50353,   0.00000
-28842876.24658,55363339.08110,169081685.27303,  -0.00024,   0.00031,   0.00220,302092200.57194,   0.00000,274640135.82653,   0.00000,   0.00000,   0.00000,-172547935.25459,   0.00000
-27833999.88263,55353350.20621,169920750.76384,  -0.00023,   0.00031,   0.00221,303312734.14101,   0.00000,274640135.82653,   0.00000,   0.00000,   0.00000,-171327401.68551,   0.00000
-26807642.98762,55350852.98749,170759816.25465,  -0.00023,   0.00030,   0.00222,304537250.75416,   0.00000,274640135.82653,   0.00000,   0.00000,   0.00000,-170102885.07237,   0.00000
-25781286.09261,55348355.76876,171593887.30801,  -0.00023,   0.00030,   0.00223,305758815.86333,   0.00000,274640135.82653,   0.00000,   0.00000,   0.00000,-168881319.96320,   0.00000
-24762420.85377,55328378.01898,172432952.79882,  -0.00022,   0.00030,   0.00224,306991597.79247,   0.00000,274640135.82653,   0.00000,   0.00000,   0.00000,-167648538.03406,   0.00000
-23733566.74004,55298411.39431,173267023.85218,  -0.00022,   0.00030,   0.00225,308217471.42913,   0.00000,274640135.82653,   0.00000,   0.00000,   0.00000,-166422664.39740,   0.00000
-22704712.62631,55268444.76964,174101094.90555,  -0.00021,   0.00030,   0.00226,309448756.43704,   0.00000,274640135.82653,   0.00000,   0.00000,   0.00000,-165191379.38949,   0.00000
-21675858.51258,55238478.14497,174935165.95891,  -0.00021,   0.00029,   0.00227,310685388.47839,   0.00000,274640135.82653,   0.00000,   0.00000,   0.00000,-163954747.34814,   0.00000
-20637015.52396,55198522.64540,175764242.57483,  -0.00020,   0.00029,   0.00228,311915217.62238,   0.00000,274640135.82653,   0.00000,   0.00000,   0.00000,-162724918.20415,   0.00000
-19588183.66045,55148578.27095,176593319.19075,  -0.00020,   0.00029,   0.00230,313146809.42431,   0.00000,274640135.82653,   0.00000,   0.00000,   0.00000,-161493326.40222,   0.00000
-18556832.32799,55091142.24033,177422395.80667,  -0.00019,   0.00029,   0.00231,314384838.48628,   0.00000,274640135.82653,   0.00000,   0.00000,   0.00000,-160255297.34025,   0.00000
-17508000.46448,55041197.86588,178251472.42259,  -0.00019,   0.00028,   0.00232,315627133.05899,   0.00000,274640135.82653,   0.00000,   0.00000,   0.00000,-159013002.76754,   0.00000
-16449179.72608,54981264.61653,179075554.60106,  -0.00018,   0.00028,   0.00233,316862863.77986,   0.00000,274640135.82653,   0.00000,   0.00000,   0.00000,-157777272.04667,   0.00000
-15415331.17490,54896359.17996,179899636.77954,  -0.00018,   0.00028,   0.00234,318102383.17833,   0.00000,274640135.82653,   0.00000,   0.00000,   0.00000,-156537752.64820,   0.00000
-14364002.09267,54818945.39956,180718724.52057,  -0.00017,   0.00028,   0.00235,319337803.82895,   0.00000,274640135.82653,   0.00000,   0.00000,   0.00000,-155302331.99758,   0.00000
-13295192.47938,54749023.27533,181542806.69904,  -0.00017,   0.00028,   0.00236,320586163.90553,   0.00000,274640135.82653,   0.00000,   0.00000,   0.00000,-154053971.92100,   0.00000
-12233874.52225,54661620.62003,182361894.44007,  -0.00016,   0.00027,   0.00237,321828938.24794,   0.00000,274640135.82653,   0.00000,   0.00000,   0.00000,-152811197.57859,   0.00000
-11180048.22129,54556737.43368,183175987.74365,  -0.00016,   0.00027,   0.00238,323066100.80683,   0.00000,274640135.82653,   0.00000,   0.00000,   0.00000,-151574035.01970,   0.00000
-10101249.73311,54476826.43456,183995075.48468,  -0.00015,   0.00027,   0.00239,324318681.70192,   0.00000,274640135.82653,   0.00000,   0.00000,   0.00000,-150321454.12461,   0.00000
-9054915.08832,54354462.71715,184809168.78826,  -0.00015,   0.00026,   0.00240,325563911.93393,   0.00000,274640135.82653,   0.00000,   0.00000,   0.00000,-149076223.89259,   0.00000
-7973619.38141,54247082.31207,185618267.65440,  -0.00014,   0.00026,   0.00241,326804672.53909,   0.00000,274640135.82653,   0.00000,   0.00000,   0.00000,-147835463.28744,   0.00000
-6909804.20557,54132210.25083,186432360.95798,  -0.00014,   0.00026,   0.00242,328059689.98332,   0.00000,274640135.82653,   0.00000,   0.00000,   0.00000,-146580445.84321,   0.00000
-5836000.15483,54007349.31470,187236465.38668,  -0.00013,   0.00026,   0.00243,329300047.81089,   0.00000,274640135.82653,   0.00000,   0.00000,   0.00000,-145340088.01564,   0.00000
-4762196.10409,53882488.37857,188045564.25281,  -0.00013,   0.00025,   0.00244,330554084.45111,   0.00000,274640135.82653,   0.00000,   0.00000,   0.00000,-144086051.37542,   0.00000
-3678403.17846,53747638.56755,188849668.68151,  -0.00012,   0.00025,   0.00246,331802104.98039,   0.00000,274640135.82653,   0.00000,   0.00000,   0.00000,-142838030.84614,   0.00000
-2594610.25283,53612788.75652,189653773.11020,  -0.00012,   0.00025,   0.00247,333055293.27247,   0.00000,274640135.82653,   0.00000,   0.00000,   0.00000,-141584842.55406,   0.00000
-1518308.98337,53460458.41444,190452883.10145,  -0.00011,   0.00025,   0.00248,334302852.83748,   0.00000,274640135.82653,   0.00000,   0.00000,   0.00000,-140337282.98905,   0.00000
-442007.71391,53308128.07236,191251993.09269,  -0.00011,   0.00024,   0.00249,335555493.29284,   0.00000,274640135.82653,   0.00000,   0.00000,   0.00000,-139084642.53369,   0.00000
644282.43044,53145808.85539,192046108.64649,  -0.00010,   0.00024,   0.00250,336802278.38693,   0.00000,274640135.82653,   0.00000,   0.00000,   0.00000,-137837857.43959,   0.00000
1730572.57479,52983489.63842,192845218.63774,  -0.00010,   0.00024,   0.00251,338062698.82365,   0.00000,274640135.82653,   0.00000,   0.00000,   0.00000,-136577437.00288,   0.00000
2834343.25021,52828662.07761,193634339.75410,  -0.00009,   0.00023,   0.00252,339310976.94123,   0.00000,274640135.82653,   0.00000,   0.00000,   0.00000,-135329158.88530,   0.00000
3930622.26945,52656353.98575,194423460.87046,  -0.00008,   0.00023,   0.00253,340562205.15411,   0.00000,274640135.82653,   0.00000,   0.00000,   0.00000,-134077930.67242,   0.00000
5019409.63252,52466565.36283,195212581.98681,  -0.00008,   0.00023,   0.00254,341816383.85007,   0.00000,274640135.82653,   0.00000,   0.00000,   0.00000,-132823751.97646,   0.00000
6108196.99560,52276776.73991,195996708.66572,  -0.00007,   0.00023,   0.00255,343067025.56442,   0.00000,274640135.82653,   0.00000,   0.00000,   0.00000,-131573110.26211,   0.00000
7214464.88973,52094479.77315,196780835.34463,  -0.00007,   0.00022,   0.00256,344322727.98641,   0.00000,274640135.82653,   0.00000,   0.00000,   0.00000,-130317407.84012,   0.00000
8313241.12769,51894702.27534,197564962.02355,  -0.00006,   0.00022,   0.00257,345581393.57773,   0.00000,274640135.82653,   0.00000,   0.00000,   0.00000,-129058742.24880,   0.00000
9404525.70949,51677444.24647,198339099.82757,  -0.00006,   0.00022,   0.00258,346825888.67597,   0.00000,274640135.82653,   0.00000,   0.00000,   0.00000,-127814247.15055,   0.00000
10503301.94746,51477666.74866,199118232.06903,  -0.00005,   0.00021,   0.00259,348085901.86212,   0.00000,274640135.82653,   0.00000,   0.00000,   0.00000,-126554233.96441,   0.00000
11604575.40414,51250419.84490,199892369.87305,  -0.00005,   0.00021,   0.00260,349338533.43627,   0.00000,274640135.82653,   0.00000,   0.00000,   0.00000,-125301602.39026,   0.00000
12713340.51700,51040653.47220,200661513.23963,  -0.00004,   0.00021,   0.00261,350589516.11967,   0.00000,274640135.82653,   0.00000,   0.00000,   0.00000,-124050619.70686,   0.00000
13832094.50475,50820898.22460,201430656.60620,  -0.00004,   0.00020,   0.00262,351843799.61867,   0.00000,274640135.82653,   0.00000,   0.00000,   0.00000,-122796336.20786,   0.00000
14925876.30526,50576170.78978,202194805.53533,  -0.00003,   0.00020,   0.00263,353092134.32538,   0.00000,274640135.82653,   0.00000,   0.00000,   0.00000,-121548001.50115,   0.00000
16037138.63684,50338935.01113,202958954.46447,  -0.00003,   0.00020,   0.00264,354345759.54290,   0.00000,274640135.82653,   0.00000,   0.00000,   0.00000,-120294376.28363,   0.00000
17140909.31225,50084218.70142,203723103.39360,  -0.00002,   0.00019,   0.00265,355602389.26813,   0.00000,274640135.82653,   0.00000,   0.00000,   0.00000,-119037746.55840,   0.00000
18269652.17489,49854474.57894,204477263.44783,  -0.00001,   0.00019,   0.00266,356849097.96378,   0.00000,274640135.82653,   0.00000,   0.00000,   0.00000,-117791037.86275,   0.00000
19365931.19413,49582277.73817,205236417.93952,  -0.00001,   0.00019,   0.00267,358105007.39801,   0.00000,274640135.82653,   0.00000,   0.00000,   0.00000,-116535128.42852,   0.00000
20479690.74443,49317572.55357,205985583.55631,  -0.00000,   0.00018,   0.00268,359349153.27646,   0.00000,274640135.82653,   0.00000,   0.00000,   0.00000,-115290982.55007,   0.00000
21610930.82579,49060359.02514,206739743.61055,   0.00000,   0.00018,   0.00269,360607370.83166,   0.00000,274640135.82653,   0.00000,   0.00000,   0.00000,-114032764.99487,   0.00000
22724690.37609,48795653.84054,207483914.78990,   0.00001,   0.00018,   0.00270,361852574.88488,   0.00000,274640135.82653,   0.00000,   0.00000,   0.00000,-112787560.94165,   0.00000
23840947.14512,48503479.24999,208228085.96925,   0.00001,   0.00017,   0.00271,363099733.86692,   0.00000,274640135.82653,   0.00000,   0.00000,   0.00000,-111540401.95961,   0.00000
24964695.57031,48228785.19049,208972257.14860,   0.00002,   0.00017,   0.00272,364353465.16701,   0.00000,274640135.82653,   0.00000,   0.00000,   0.00000,-110286670.65952,   0.00000
26080952.33933,47936610.59994,209711433.89050,   0.00003,   0.00017,   0.00273,365601639.44874,   0.00000,274640135.82653,   0.00000,   0.00000,   0.00000,-109038496.37779,   0.00000
27197209.10836,47644436.00939,210445616.19496,   0.00003,   0.00016,   0.00274,366845958.00414,   0.00000,274640135.82653,   0.00000,   0.00000,   0.00000,-107794177.82239,   0.00000
28323454.75227,47342272.54395,211179798.49942,   0.00004,   0.00016,   0.00275,368094191.78687,   0.00000,274640135.82653,   0.00000,   0.00000,   0.00000,-106545944.03966,   0.00000
29449700.39618,47040109.07851,211908986.36643,   0.00004,   0.00016,   0.00275,369338591.41055,   0.00000,274640135.82653,   0.00000,   0.00000,   0.00000,-105301544.41598,   0.00000
30568454.38393,46720465.08201,212633179.79600,   0.00005,   0.00015,   0.00276,370577478.14151,   0.00000,274640135.82653,   0.00000,   0.00000,   0.00000,-104062657.68502,   0.00000
31687208.37168,46400821.08552,213357373.22557,   0.00005,   0.00015,   0.00277,371821071.23533,   0.00000,274640135.82653,   0.00000,   0.00000,   0.00000,-102819064.59119,   0.00000
32815951.23431,46071188.21413,214076572.21769,   0.00006,   0.00015,   0.00278,373060192.85172,   0.00000,274640135.82653,   0.00000,   0.00000,   0.00000,-101579942.97481,   0.00000
33952185.75312,45759035.87380,214795771.20982,   0.00007,   0.00014,   0.00279,374305611.74594,   0.00000,274640135.82653,   0.00000,   0.00000,   0.00000,-100334524.08059,   0.00000
35073436.95959,45411922.47135,215509975.76449,   0.00007,   0.00014,   0.00280,375543986.03190,   0.00000,274640135.82653,   0.00000,   0.00000,   0.00000,-99096149.79463,   0.00000
36202179.82222,45082289.59996,216219185.88172,   0.00008,   0.00013,   0.00281,376779965.67576,   0.00000,274640135.82653,   0.00000,   0.00000,   0.00000,-97860170.15077,   0.00000
37315939.37252,44717695.66645,216928395.99896,   0.00008,   0.00013,   0.00282,378017533.70531,   0.00000,274640135.82653,   0.00000,   0.00000,   0.00000,-96622602.12122,   0.00000
38454671.11005,44378073.92017,217632611.67874,   0.00009,   0.00013,   0.00283,379253862.12441,   0.00000,274640135.82653,   0.00000,   0.00000,   0.00000,-95386273.70212,   0.00000
39585911.19141,44020971.64283,218331832.92108,   0.00009,   0.00012,   0.00284,380484753.74877,   0.00000,274640135.82653,   0.00000,   0.00000,   0.00000,-94155382.07776,   0.00000
40717151.27277,43663869.36549,219031054.16343,   0.00010,   0.00012,   0.00285,381720263.52481,   0.00000,274640135.82653,   0.00000,   0.00000,   0.00000,-92919872.30172,   0.00000
41840899.69796,43289286.55710,219725280.96832,   0.00011,   0.00012,   0.00286,382950333.34774,   0.00000,274640135.82653,   0.00000,   0.00000,   0.00000,-91689802.47878,   0.00000
42964648.12315,42914703.74870,220414513.33577,   0.00011,   0.00011,   0.00287,384176379.68445,   0.00000,274640135.82653,   0.00000,   0.00000,   0.00000,-90463756.14208,   0.00000
44105877.07940,42547612.59647,221103745.70322,   0.00012,   0.00011,   0.00287,385408389.95978,   0.00000,274640135.82653,   0.00000,   0.00000,   0.00000,-89231745.86675,   0.00000
45239614.37948,42163040.91318,221787983.63323,   0.00012,   0.00010,   0.00288,386635014.02298,   0.00000,274640135.82653,   0.00000,   0.00000,   0.00000,-88005121.80355,   0.00000
46373351.67957,41778469.22990,222467227.12579,   0.00013,   0.00010,   0.00289,387857605.34772,   0.00000,274640135.82653,   0.00000,   0.00000,   0.00000,-86782530.47881,   0.00000
47499597.32348,41376417.01555,223141476.18090,   0.00014,   0.00010,   0.00290,389074814.99140,   0.00000,274640135.82653,   0.00000,   0.00000,   0.00000,-85565320.83513,   0.00000
48643323.49845,40981856.45737,223815725.23602,   0.00014,   0.00009,   0.00291,390298127.54767,   0.00000,274640135.82653,   0.00000,   0.00000,   0.00000,-84342008.27886,   0.00000
49769569.14237,40579804.24302,224484979.85369,   0.00015,   0.00009,   0.00292,391515784.72865,   0.00000,274640135.82653,   0.00000,   0.00000,   0.00000,-83124351.09787,   0.00000
50905803.66117,40167763.15379,225149240.03391,   0.00015,   0.00008,   0.00293,392729701.75694,   0.00000,274640135.82653,   0.00000,   0.00000,   0.00000,-81910434.06959,   0.00000
52042038.17998,39755722.06455,225813500.21414,   0.00016,   0.00008,   0.00294,393948134.91896,   0.00000,274640135.82653,   0.00000,   0.00000,   0.00000,-80692000.90757,   0.00000
53178272.69878,39343680.97531,226467771.51947,   0.00017,   0.00008,   0.00294,395153868.17671,   0.00000,274640135.82653,   0.00000,   0.00000,   0.00000,-79486267.64982,   0.00000
54324496.09248,38921651.01119,227127037.26225,   0.00017,   0.00007,   0.00295,396373207.82496,   0.00000,274640135.82653,   0.00000,   0.00000,   0.00000,-78266928.00157,   0.00000
55453238.95511,38492129.39089,227776314.13014,   0.00018,   0.00007,   0.00296,397578093.36379,   0.00000,274640135.82653,   0.00000,   0.00000,   0.00000,-77062042.46274,   0.00000
56591970.69264,38052618.89570,228420596.56058,   0.00018,   0.00006,   0.00297,398779496.78694,   0.00000,274640135.82653,   0.00000,   0.00000,   0.00000,-75860639.03958,   0.00000
57730702.43017,37613108.40052,229064878.99102,   0.00019,   0.00006,   0.00298,399985381.13236,   0.00000,274640135.82653,   0.00000,   0.00000,   0.00000,-74654754.69416,   0.00000
58869434.16770,37173597.90533,229704166.98402,   0.00020,   0.00005,   0.00299,401187127.13054,   0.00000,274640135.82653,   0.00000,   0.00000,   0.00000,-73453008.69599,   0.00000
60000674.24906,36716606.87909,230338460.53957,   0.00020,   0.00005,   0.00299,402383633.08340,   0.00000,274640135.82653,   0.00000,   0.00000,   0.00000,-72256502.74313,   0.00000
61139405.98658,36277096.38390,230967759.65768,   0.00021,   0.00005,   0.00300,403577021.85144,   0.00000,274640135.82653,   0.00000,   0.00000,   0.00000,-71063113.97509,   0.00000
62280634.94283,35810116.48277,231597058.77579,   0.00021,   0.00004,   0.00301,404774700.34608,   0.00000,274640135.82653,   0.00000,   0.00000,   0.00000,-69865435.48045,   0.00000
63411875.02419,35353125.45652,232221363.45645,   0.00022,   0.00004,   0.00302,405967223.23013,   0.00000,274640135.82653,   0.00000,   0.00000,   0.00000,-68672912.59640,   0.00000
64553103.98044,34886145.55539,232840673.69967,   0.00023,   0.00003,   0.00303,407156573.55672,   0.00000,274640135.82653,   0.00000,   0.00000,   0.00000,-67483562.26981,   0.00000
65694332.93669,34419165.65425,233454989.50544,   0.00023,   0.00003,   0.00303,408341739.95734,   0.00000,274640135.82653,   0.00000,   0.00000,   0.00000,-66298395.86919,   0.00000
66828070.23677,33934705.22206,234064310.87376,   0.00024,   0.00002,   0.00304,409521756.68756,   0.00000,274640135.82653,   0.00000,   0.00000,   0.00000,-65118379.13897,   0.00000
67961807.53686,33450244.78987,234668637.80465,   0.00024,   0.00002,   0.00305,410697572.14886,   0.00000,274640135.82653,   0.00000,   0.00000,   0.00000,-63942563.67766,   0.00000
69113025.36800,32973276.01384,235272964.73553,   0.00025,   0.00002,   0.00306,411879919.57769,   0.00000,274640135.82653,   0.00000,   0.00000,   0.00000,-62760216.24884,   0.00000
70239271.01191,32471335.05059,235872297.22896,   0.00026,   0.00001,   0.00307,413054962.06887,   0.00000,274640135.82653,   0.00000,   0.00000,   0.00000,-61585173.75766,   0.00000
71390488.84305,31994366.27456,236466635.28495,   0.00026,   0.00001,   0.00307,414228869.98730,   0.00000,274640135.82653,   0.00000,   0.00000,   0.00000,-60411265.83923,   0.00000
72526723.36186,31482436.43642,237055978.90350,   0.00027,   0.00000,   0.00308,415396873.90384,   0.00000,274640135.82653,   0.00000,   0.00000,   0.00000,-59243261.92269,   0.00000
73670449.53683,30987987.12933,237640328.08460,   0.00027,  -0.00000,   0.00309,416561481.81954,   0.00000,274640135.82653,   0.00000,   0.00000,   0.00000,-58078654.00699,   0.00000
74806684.05563,30476057.29119,238219682.82825,   0.00028,  -0.00001,   0.00310,417721042.22645,   0.00000,274640135.82653,   0.00000,   0.00000,   0.00000,-56919093.60008,   0.00000
75942918.57444,29964127.45305,238799037.57190,   0.00029,  -0.00001,   0.00310,418884892.97193,   0.00000,274640135.82653,   0.00000,   0.00000,   0.00000,-55755242.85460,   0.00000
77079153.09324,29452197.61491,239368403.44067,   0.00029,  -0.00002,   0.00311,420035921.12369,   0.00000,274640135.82653,   0.00000,   0.00000,   0.00000,-54604214.70284,   0.00000
78225376.48694,28930278.90187,239937769.30943,   0.00030,  -0.00002,   0.00312,421192934.44745,   0.00000,274640135.82653,   0.00000,   0.00000,   0.00000,-53447201.37908,   0.00000
79371599.88063,28408360.18884,240502140.74075,   0.00031,  -0.00003,   0.00313,422345720.82680,   0.00000,274640135.82653,   0.00000,   0.00000,   0.00000,-52294414.99973,   0.00000
80500342.74327,27878949.81964,241061517.73462,   0.00031,  -0.00003,   0.00313,423491726.01904,   0.00000,274640135.82653,   0.00000,   0.00000,   0.00000,-51148409.80749,   0.00000
81646566.13696,27357031.10660,241615900.29105,   0.00032,  -0.00003,   0.00314,424635951.23792,   0.00000,274640135.82653,   0.00000,   0.00000,   0.00000,-50004184.58861,   0.00000
82785297.87449,26817631.86251,242165288.41003,   0.00032,  -0.00004,   0.00315,425775252.93633,   0.00000,274640135.82653,   0.00000,   0.00000,   0.00000,-48864882.89020,   0.00000
83924029.61202,26278232.61842,242709682.09157,   0.00033,  -0.00004,   0.00316,426910274.44467,   0.00000,274640135.82653,   0.00000,   0.00000,   0.00000,-47729861.38186,   0.00000
85072750.22444,25728844.49944,243249081.33566,   0.00034,  -0.00005,   0.00316,428043069.58563,   0.00000,274640135.82653,   0.00000,   0.00000,   0.00000,-46597066.24089,   0.00000
86211481.96196,25189445.25535,243788480.57975,   0.00034,  -0.00005,   0.00317,429178026.18406,   0.00000,274640135.82653,   0.00000,   0.00000,   0.00000,-45462109.64247,   0.00000
87360202.57438,24640057.13636,244317890.94896,   0.00035,  -0.00006,   0.00318,430302303.66555,   0.00000,274640135.82653,   0.00000,   0.00000,   0.00000,-44337832.16098,   0.00000
88491442.65574,24083177.36121,244847301.31816,   0.00036,  -0.00006,   0.00318,431428073.53605,   0.00000,274640135.82653,   0.00000,   0.00000,   0.00000,-43212062.29048,   0.00000
89640163.26816,23533789.24223,245366722.81247,   0.00036,  -0.00007,   0.00319,432543768.17617,   0.00000,274640135.82653,   0.00000,   0.00000,   0.00000,-42096367.65036,   0.00000
90781392.22441,22966920.59219,245886144.30678,   0.00037,  -0.00007,   0.00320,433663186.67300,   0.00000,274640135.82653,   0.00000,   0.00000,   0.00000,-40976949.15353,   0.00000
91922621.18066,22400051.94215,246395576.92620,   0.00037,  -0.00008,   0.00320,434769824.28523,   0.00000,274640135.82653,   0.00000,   0.00000,   0.00000,-39870311.54130,   0.00000
93063850.13691,21833183.29211,246905009.54562,   0.00038,  -0.00008,   0.00321,435880647.89943,   0.00000,274640135.82653,   0.00000,   0.00000,   0.00000,-38759487.92710,   0.00000
94205079.09316,21266314.64207,247409447.72759,   0.00039,  -0.00009,   0.00322,436987142.47349,   0.00000,274640135.82653,   0.00000,   0.00000,   0.00000,-37652993.35304,   0.00000
95338816.39324,20681965.46097,247903897.03468,   0.00039,  -0.00009,   0.00322,438080433.24691,   0.00000,274640135.82653,   0.00000,   0.00000,   0.00000,-36559702.57962,   0.00000
96490034.22438,20105107.93604,248398346.34176,   0.00040,  -0.00010,   0.00323,439180845.33922,   0.00000,274640135.82653,   0.00000,   0.00000,   0.00000,-35459290.48731,   0.00000
97623771.52446,19520758.75494,248887801.21140,   0.00041,  -0.00010,   0.00324,440273986.82172,   0.00000,274640135.82653,   0.00000,   0.00000,   0.00000,-34366149.00481,   0.00000
98774989.35561,18943901.23001,249372261.64359,   0.00041,  -0.00011,   0.00324,441365790.36598,   0.00000,274640135.82653,   0.00000,   0.00000,   0.00000,-33274345.46055,   0.00000
99908726.65569,18359552.04891,249846733.20090,   0.00042,  -0.00011,   0.00325,442441767.49003,   0.00000,274640135.82653,   0.00000,   0.00000,   0.00000,-32198368.33650,   0.00000
101052452.83066,17765213.99292,250321204.75820,   0.00043,  -0.00012,   0.00325,443524632.07476,   0.00000,274640135.82653,   0.00000,   0.00000,   0.00000,-31115503.75177,   0.00000
102196179.00563,17170875.93693,250790681.87806,   0.00043,  -0.00012,   0.00326,444603192.09768,   0.00000,274640135.82653,   0.00000,   0.00000,   0.00000,-30036943.72885,   0.00000
103339905.18061,16576537.88094,251255164.56047,   0.00044,  -0.00013,   0.00327,445677431.46018,   0.00000,274640135.82653,   0.00000,   0.00000,   0.00000,-28962704.36635,   0.00000
104483631.35558,15982199.82494,251714652.80544,   0.00044,  -0.00013,   0.00327,446747334.59599,   0.00000,274640135.82653,   0.00000,   0.00000,   0.00000,-27892801.23054,   0.00000
105619865.87438,15370381.23790,252164152.17551,   0.00045,  -0.00014,   0.00328,447804271.98624,   0.00000,274640135.82653,   0.00000,   0.00000,   0.00000,-26835863.84029,   0.00000
106763592.04935,14776043.18191,252613651.54559,   0.00046,  -0.00014,   0.00328,448865484.78872,   0.00000,274640135.82653,   0.00000,   0.00000,   0.00000,-25774651.03781,   0.00000
107917307.09922,14171716.25103,253058156.47822,   0.00046,  -0.00015,   0.00329,449925439.31048,   0.00000,274640135.82653,   0.00000,   0.00000,   0.00000,-24714696.51605,   0.00000
109053541.61802,13559897.66398,253497666.97341,   0.00047,  -0.00015,   0.00330,450977818.06064,   0.00000,274640135.82653,   0.00000,   0.00000,   0.00000,-23662317.76588,   0.00000
110199765.01172,12938090.20204,253927188.59370,   0.00048,  -0.00016,   0.00330,452020640.24562,   0.00000,274640135.82653,   0.00000,   0.00000,   0.00000,-22619495.58091,   0.00000
111335999.53052,12326271.61499,254356710.21400,   0.00048,  -0.00016,   0.00331,453064335.48152,   0.00000,274640135.82653,   0.00000,   0.00000,   0.00000,-21575800.34501,   0.00000
112482222.92422,11704464.15305,254781237.39685,   0.00049,  -0.00017,   0.00331,454106967.13156,   0.00000,274640135.82653,   0.00000,   0.00000,   0.00000,-20533168.69497,   0.00000
113635937.97408,11100137.22217,255195775.70481,   0.00050,  -0.00017,   0.00332,455136920.88585,   0.00000,274640135.82653,   0.00000,   0.00000,   0.00000,-19503214.94068,   0.00000
114782161.36778,10478329.76023,255610314.01277,   0.00050,  -0.00018,   0.00332,456170924.67028,   0.00000,274640135.82653,   0.00000,   0.00000,   0.00000,-18469211.15625,   0.00000
115928384.76147,9856522.29829,256014863.44584,   0.00051,  -0.00018,   0.00333,457192215.19115,   0.00000,274640135.82653,   0.00000,   0.00000,   0.00000,-17447920.63538,   0.00000
117067116.49900,9217234.30529,256419412.87891,   0.00051,  -0.00019,   0.00333,458217609.91357,   0.00000,274640135.82653,   0.00000,   0.00000,   0.00000,-16422525.91296,   0.00000
118213339.89269,8595426.84335,256813973.43708,   0.00052,  -0.00019,   0.00334,459230260.14613,   0.00000,274640135.82653,   0.00000,   0.00000,   0.00000,-15409875.68040,   0.00000
119359563.28639,7973619.38141,257203539.55782,   0.00053,  -0.00020,   0.00334,460238566.95195,   0.00000,274640135.82653,   0.00000,   0.00000,   0.00000,-14401568.87457,   0.00000
120498295.02392,7334331.38842,257588111.24111,   0.00053,  -0.00020,   0.00335,461242628.39792,   0.00000,274640135.82653,   0.00000,   0.00000,   0.00000,-13397507.42861,   0.00000
121654507.29250,6702535.05159,257972682.92439,   0.00054,  -0.00021,   0.00335,462254329.26801,   0.00000,274640135.82653,   0.00000,   0.00000,   0.00000,-12385806.55852,   0.00000
122793239.03003,6063247.05859,258347265.73279,   0.00055,  -0.00021,   0.00336,463249766.22319,   0.00000,274640135.82653,   0.00000,   0.00000,   0.00000,-11390369.60334,   0.00000
123949451.29862,5431450.72176,258716854.10374,   0.00055,  -0.00022,   0.00336,464244519.18086,   0.00000,274640135.82653,   0.00000,   0.00000,   0.00000,-10395616.64567,   0.00000
125088183.03614,4792162.72876,259076453.59980,   0.00056,  -0.00022,   0.00337,465222959.30006,   0.00000,274640135.82653,   0.00000,   0.00000,   0.00000,-9417176.52647,   0.00000
126244395.30473,4160366.39193,259436053.09586,   0.00057,  -0.00023,   0.00337,466209105.43752,   0.00000,274640135.82653,   0.00000,   0.00000,   0.00000,-8431030.38900,   0.00000
127393115.91715,3511089.52404,259790658.15448,   0.00057,  -0.00023,   0.00338,467191184.94574,   0.00000,274640135.82653,   0.00000,   0.00000,   0.00000,-7448950.88079,   0.00000
128549328.18573,2879293.18721,260140268.77565,   0.00058,  -0.00024,   0.00338,468168737.97532,   0.00000,274640135.82653,   0.00000,   0.00000,   0.00000,-6471397.85121,   0.00000
129698048.79815,2230016.31932,260479890.52193,   0.00059,  -0.00024,   0.00339,469133934.14715,   0.00000,274640135.82653,   0.00000,   0.00000,   0.00000,-5506201.67938,   0.00000
130846769.41057,1580739.45144,260819512.26821,   0.00059,  -0.00025,   0.00339,470103174.94288,   0.00000,274640135.82653,   0.00000,   0.00000,   0.00000,-4536960.88365,   0.00000
131995490.02299,931462.58355,261149145.13960,   0.00060,  -0.00025,   0.00339,471059822.28400,   0.00000,274640135.82653,   0.00000,   0.00000,   0.00000,-3580313.54253,   0.00000
133151702.29157,299666.24672,261473783.57354,   0.00061,  -0.00026,   0.00340,472011846.29300,   0.00000,274640135.82653,   0.00000,   0.00000,   0.00000,-2628289.53353,   0.00000
134300422.90399,-349610.62117,261793427.57004,   0.00061,  -0.00026,   0.00340,472959908.26990,   0.00000,274640135.82653,   0.00000,   0.00000,   0.00000,-1680227.55663,   0.00000
135449143.51641,-998887.48906,262108077.12910,   0.00062,  -0.00027,   0.00341,473903681.14137,   0.00000,274640135.82653,   0.00000,   0.00000,   0.00000,-736454.68516,   0.00000
136343776.04856,-1521572.14133,262350822.06124,   0.00062,  -0.00027,   0.00341,474640136.15460,   0.00000,274640135.82653,   0.00000,   0.00000,   0.00000,   0.32807,   0.00000
136536744.75509,-1660121.80309,262305460.68564,   0.00062,  -0.00027,   0.00341,474640136.15460,   0.00000,274641096.39504,   0.00000,  -0.00000,   0.00000,   0.03060,   1.00000
137453626.13859,-2275114.55201,262092211.72005,   0.00063,  -0.00028,   0.00342,475580284.49439,   0.00000,274645530.83513,   0.00000,  -0.00000,   0.00001,   0.65427,   1.00000
138355702.45916,-2896818.11562,261878491.25387,   0.00064,  -0.00028,   0.00342,475568207.56688,   0.00001,274649886.97599,   0.00000,  -0.00000,   0.00001,   0.63345,   1.00000
139271368.74156,-3509540.28781,261660771.01617,   0.00064,  -0.00029,   0.00342,475580590.71238,   0.00001,274654280.66764,   0.00000,  -0.00000,   0.00002,   0.64671,   1.00000
140164705.10382,-4146469.56937,261442319.33833,   0.00065,  -0.00029,   0.00343,475568929.17605,   0.00002,274658598.23617,   0.00001,  -0.00000,   0.00003,   0.62638,   1.00000
141079224.24811,-4756944.11402,261220108.98313,   0.00066,  -0.00030,   0.00343,475580857.46596,   0.00002,274662951.38972,   0.00001,  -0.00000,   0.00003,   0.63901,   1.00000
141987808.43113,-5384058.09087,260994891.66129,   0.00066,  -0.00031,   0.00343,475573287.38706,   0.00002,274667247.93306,   0.00001,  -0.00000,   0.00004,   0.62455,   1.00000
142903478.65505,-5992649.08220,260767692.19613,   0.00067,  -0.00031,   0.00344,475572880.69229,   0.00003,274671521.94545,   0.00001,  -0.00000,   0.00005,   0.62023,   1.00000
143796974.85519,-6625574.44992,260539718.01416,   0.00068,  -0.00032,   0.00344,475561134.87846,   0.00003,274675720.04027,   0.00001,  -0.00001,   0.00005,   0.60022,   1.00000
144711633.04873,-7232042.61282,260307983.83875,   0.00068,  -0.00032,   0.00344,475572983.43833,   0.00004,274679953.91178,   0.00001,  -0.00001,   0.00006,   0.61268,   1.00000
145618137.05154,-7854915.72608,260073645.15061,   0.00069,  -0.00033,   0.00345,475573653.13692,   0.00004,274684170.64514,   0.00001,  -0.00001,   0.00007,   0.60974,   1.00000
146526478.02089,-8477092.98582,259836500.96897,   0.00070,  -0.00033,   0.00345,475565541.21321,   0.00004,274688328.89420,   0.00001,  -0.00001,   0.00007,   0.59491,   1.00000
147442018.88697,-9080828.14266,259597400.02584,   0.00070,  -0.00034,   0.00345,475564943.40169,   0.00005,274692464.38891,   0.00001,  -0.00001,   0.00008,   0.59055,   1.00000
148365646.04598,-9693336.08134,259353286.88607,   0.00071,  -0.00034,   0.00346,475569929.87557,   0.00005,274696603.58297,   0.00002,  -0.00001,   0.00009,   0.59373,   1.00000
149272587.94711,-10312534.45087,259109195.35032,   0.00072,  -0.00035,   0.00346,475565689.82716,   0.00006,274700702.94402,   0.00002,  -0.00001,   0.00009,   0.58430,   1.00000
150186792.65252,-10913332.89187,258863166.00427,   0.00072,  -0.00035,   0.00346,475564996.72545,   0.00006,274704779.39132,   0.00002,  -0.00001,   0.00010,   0.57988,   1.00000
151095282.86103,-11531007.58216,258613880.06152,   0.00073,  -0.00036,   0.00347,475557528.90256,   0.00006,274708801.09261,   0.00002,  -0.00001,   0.00010,   0.56630,   1.00000
152017123.74178,-12139623.21894,258360404.37198,   0.00074,  -0.00036,   0.00347,475570087.09227,   0.00007,274712862.74869,   0.00002,  -0.00001,   0.00011,   0.57969,   1.00000
152932525.46608,-12738011.30238,258106832.05155,   0.00074,  -0.00037,   0.00347,475556773.96171,   0.00007,274716842.17023,   0.00002,  -0.00001,   0.00012,   0.55849,   1.00000
153855959.85123,-13345199.02234,257848065.72084,   0.00075,  -0.00037,   0.00347,475561961.02989,   0.00007,274720826.98992,   0.00002,  -0.00001,   0.00012,   0.56203,   1.00000
154762893.39425,-13959201.63561,257589356.87799,   0.00076,  -0.00038,   0.00348,475557468.28294,   0.00008,274724771.54922,   0.00002,  -0.00001,   0.00013,   0.55259,   1.00000
155693299.28923,-14547162.71240,257326273.86381,   0.00076,  -0.00038,   0.00348,475561114.40745,   0.00008,274728714.40453,   0.00003,  -0.00001,   0.00013,   0.55427,   1.00000
156615589.26765,-15151671.16218,257060354.94146,   0.00077,  -0.00039,   0.00348,475561924.79295,   0.00008,274732642.20176,   0.00003,  -0.00001,   0.00014,   0.55204,   1.00000
157531695.73993,-15746117.58133,256794369.60860,   0.00078,  -0.00039,   0.00348,475548346.10449,   0.00009,274736487.18990,   0.00003,  -0.00002,   0.00015,   0.53095,   1.00000
158455780.80573,-16349380.89954,256523033.00212,   0.00078,  -0.00040,   0.00349,475553707.50578,   0.00009,274740339.04517,   0.00003,  -0.00002,   0.00015,   0.53480,   1.00000
159387293.32760,-16934398.86596,256249757.32917,   0.00079,  -0.00040,   0.00349,475552756.26051,   0.00009,274744167.97752,   0.00003,  -0.00002,   0.00016,   0.53053,   1.00000
160318485.12446,-17518611.04583,255974066.17691,   0.00080,  -0.00041,   0.00349,475552663.90881,   0.00010,274747978.14691,   0.00003,  -0.00002,   0.00016,   0.52741,   1.00000
161241588.18663,-18119422.71410,255695443.68448,   0.00080,  -0.00042,   0.00349,475553513.35201,   0.00010,274751774.08835,   0.00003,  -0.00002,   0.00017,   0.52539,   1.00000
162174720.71277,-18702547.61128,255414230.92519,   0.00081,  -0.00042,   0.00349,475544422.57215,   0.00011,274755509.02896,   0.00003,  -0.00002,   0.00017,   0.51066,   1.00000
163105016.43665,-19284377.18264,255131238.41381,   0.00082,  -0.00043,   0.00350,475552342.77476,   0.00011,274759263.41598,   0.00004,  -0.00002,   0.00018,   0.51801,   1.00000
164037605.54020,-19865981.94064,254845121.99474,   0.00082,  -0.00043,   0.00350,475544182.64505,   0.00011,274762961.39603,   0.00004,  -0.00002,   0.00018,   0.50456,   1.00000
164985840.20436,-20439028.61160,254553958.79803,   0.00083,  -0.00044,   0.00350,475548866.21355,   0.00012,274766663.74543,   0.00004,  -0.00002,   0.00019,   0.50788,   1.00000
165917890.27357,-21019159.53276,254262892.93894,   0.00084,  -0.00044,   0.00350,475543943.75398,   0.00012,274770325.19821,   0.00004,  -0.00002,   0.00020,   0.49869,   1.00000
166852308.50650,-21599132.48463,253968636.65557,   0.00084,  -0.00045,   0.00350,475535777.21009,   0.00012,274773930.67428,   0.00004,  -0.00002,   0.00020,   0.48548,   1.00000
167791723.42175,-22160442.09130,253673173.38792,   0.00085,  -0.00045,   0.00350,475542524.97966,   0.00013,274777550.68687,   0.00004,  -0.00002,   0.00021,   0.49147,   1.00000
168741541.77460,-22731190.10858,253371284.50722,   0.00086,  -0.00046,   0.00350,475540368.41752,   0.00013,274781143.22966,   0.00004,  -0.00002,   0.00021,   0.48609,   1.00000
169683149.40913,-23291729.01244,253070090.42748,   0.00086,  -0.00046,   0.00351,475534176.99843,   0.00013,274784689.43623,   0.00004,  -0.00002,   0.00022,   0.47564,   1.00000
170632500.32237,-23861123.64193,252763125.54850,   0.00087,  -0.00047,   0.00351,475540086.91205,   0.00013,274788246.51631,   0.00005,  -0.00003,   0.00022,   0.48059,   1.00000
171576381.63590,-24420964.28730,252456120.52964,   0.00088,  -0.00047,   0.00351,475525828.45902,   0.00014,274791719.45413,   0.00005,  -0.00003,   0.00023,   0.46008,   1.00000
172533174.53215,-24971675.54573,252144662.91678,   0.00088,  -0.00048,   0.00351,475538591.36315,   0.00014,274795235.87683,   0.00005,  -0.00003,   0.00023,   0.47379,   1.00000
173492448.73406,-25522392.86991,251829862.34401,   0.00089,  -0.00048,   0.00351,475530491.48254,   0.00014,274798697.35371,   0.00005,  -0.00003,   0.00024,   0.46118,   1.00000
174451526.80303,-26072499.30533,251512475.66844,   0.00090,  -0.00049,   0.00351,475530320.03523,   0.00015,274802141.47622,   0.00005,  -0.00003,   0.00024,   0.45862,   1.00000
175394722.52074,-26629908.73383,251195208.93401,   0.00090,  -0.00049,   0.00351,475525004.62342,   0.00015,274805544.12068,   0.00005,  -0.00003,   0.00025,   0.44955,   1.00000
176361379.01730,-27161458.80151,250873290.80777,   0.00091,  -0.00050,   0.00351,475528672.74341,   0.00015,274808947.76366,   0.00005,  -0.00003,   0.00025,   0.45196,   1.00000
177319948.32536,-27709800.61989,250548106.62480,   0.00092,  -0.00050,   0.00351,475529726.11177,   0.00016,274812340.09878,   0.00005,  -0.00003,   0.00026,   0.45099,   1.00000
178289037.28095,-28240893.65931,250220137.97744,   0.00092,  -0.00051,   0.00351,475520372.03476,   0.00016,274815672.19804,   0.00006,  -0.00003,   0.00026,   0.43720,   1.00000
179257982.02609,-28771450.34708,249889534.59607,   0.00093,  -0.00051,   0.00352,475520142.23160,   0.00016,274818987.29233,   0.00006,  -0.00003,   0.00027,   0.43483,   1.00000
180226790.23094,-29301478.26081,249556285.74865,   0.00094,  -0.00052,   0.00352,475519913.91556,   0.00017,274822285.47162,   0.00006,  -0.00003,   0.00027,   0.43246,   1.00000
181195469.34357,-29830984.86518,249220380.55295,   0.00094,  -0.00052,   0.00352,475519687.45529,   0.00017,274825566.82714,   0.00006,  -0.00003,   0.00028,   0.43011,   1.00000
182190343.85244,-30335384.60711,248878840.14192,   0.00095,  -0.00053,   0.00352,475515601.28125,   0.00017,274828813.27276,   0.00006,  -0.00003,   0.00028,   0.42324,   1.00000
183158745.82736,-30863897.92725,248537581.12025,   0.00096,  -0.00053,   0.00352,475519244.72646,   0.00017,274832061.35124,   0.00006,  -0.00004,   0.00029,   0.42569,   1.00000
184137846.66309,-31375308.55613,248193456.96142,   0.00096,  -0.00054,   0.00352,475509802.06934,   0.00018,274835249.49245,   0.00006,  -0.00004,   0.00029,   0.41220,   1.00000
185132344.85314,-31878264.02584,247843797.75791,   0.00097,  -0.00054,   0.00352,475514967.87740,   0.00018,274838446.69793,   0.00006,  -0.00004,   0.00029,   0.41674,   1.00000
186119243.88242,-32371442.63635,247494989.42976,   0.00098,  -0.00055,   0.00352,475507889.74118,   0.00018,274841595.33598,   0.00007,  -0.00004,   0.00030,   0.40633,   1.00000
187100915.82351,-32882270.21097,247141786.53876,   0.00098,  -0.00055,   0.00352,475501229.39378,   0.00019,274844697.61309,   0.00007,  -0.00004,   0.00030,   0.39645,   1.00000
188103095.50440,-33366565.21787,246784666.37659,   0.00099,  -0.00056,   0.00352,475512810.17272,   0.00019,274847839.52766,   0.00007,  -0.00004,   0.00031,   0.40889,   1.00000
189108043.36644,-33851212.76485,246423829.84903,   0.00100,  -0.00056,   0.00352,475504824.65695,   0.00019,274850928.87972,   0.00007,  -0.00004,   0.00031,   0.39753,   1.00000
190097510.70598,-34343499.07629,246063098.86619,   0.00100,  -0.00057,   0.00352,475499018.21857,   0.00019,274853976.17623,   0.00007,  -0.00004,   0.00032,   0.38883,   1.00000
191102288.73369,-34827343.45671,245696689.29577,   0.00101,  -0.00057,   0.00352,475504338.89305,   0.00020,274857033.93278,   0.00007,  -0.00004,   0.00032,   0.39367,   1.00000
192115033.04877,-35293492.84246,245328255.15965,   0.00102,  -0.00058,   0.00351,475502607.24007,   0.00020,274860068.93899,   0.00007,  -0.00004,   0.00033,   0.39009,   1.00000
193107244.23097,-35785446.97792,244958135.88246,   0.00102,  -0.00058,   0.00351,475490503.52299,   0.00020,274863032.55705,   0.00007,  -0.00004,   0.00033,   0.37392,   1.00000
194122792.61072,-36251654.21383,244583050.02056,   0.00103,  -0.00059,   0.00351,475494363.31674,   0.00021,274866000.16309,   0.00008,  -0.00004,   0.00033,   0.37711,   1.00000
195143411.50263,-36699412.55486,244206949.98343,   0.00104,  -0.00059,   0.00351,475500257.91564,   0.00021,274868981.29682,   0.00008,  -0.00004,   0.00034,   0.38285,   1.00000
196158833.37701,-37164958.48994,243826155.42697,   0.00104,  -0.00060,   0.00351,475493901.31178,   0.00021,274871918.31820,   0.00008,  -0.00005,   0.00034,   0.37375,   1.00000
197185270.48585,-37613702.86449,243442247.16234,   0.00105,  -0.00060,   0.00351,475484395.04518,   0.00021,274874796.63637,   0.00008,  -0.00005,   0.00035,   0.36113,   1.00000
198208679.39680,-38061315.35819,243056508.62935,   0.00106,  -0.00061,   0.00351,475491803.71617,   0.00022,274877696.02227,   0.00008,  -0.00005,   0.00035,   0.36864,   1.00000
199243159.10722,-38492179.31120,242667630.59053,   0.00106,  -0.00061,   0.00351,475482270.59919,   0.00022,274880536.76381,   0.00008,  -0.00005,   0.00035,   0.35611,   1.00000
200281612.67785,-38931075.28210,242273086.07106,   0.00107,  -0.00062,   0.00351,475497183.29421,   0.00022,274883434.00190,   0.00008,  -0.00005,   0.00036,   0.37272,   1.00000
201316010.57633,-39361388.91104,241878353.33862,   0.00108,  -0.00062,   0.00351,475481829.02975,   0.00022,274886245.26690,   0.00008,  -0.00005,   0.00036,   0.35313,   1.00000
202353406.63056,-39792294.86478,241479560.29410,   0.00108,  -0.00063,   0.00351,475473953.15446,   0.00023,274889006.10893,   0.00009,  -0.00005,   0.00037,   0.34271,   1.00000
203395905.66769,-40204814.61887,241079784.23344,   0.00109,  -0.00063,   0.00350,475479605.32514,   0.00023,274891780.31405,   0.00009,  -0.00005,   0.00037,   0.34828,   1.00000
204453434.55505,-40608929.86564,240674000.83240,   0.00110,  -0.00064,   0.00350,475485353.18552,   0.00023,274894568.26176,   0.00009,  -0.00005,   0.00037,   0.35410,   1.00000
205498934.06441,-41021865.44904,240267122.23491,   0.00110,  -0.00064,   0.00350,475471553.33555,   0.00023,274897278.08335,   0.00009,  -0.00005,   0.00038,   0.33671,   1.00000
206559418.19869,-41426386.45648,239854166.45989,   0.00111,  -0.00064,   0.00350,475477379.47341,   0.00024,274900002.32161,   0.00009,  -0.00005,   0.00038,   0.34258,   1.00000
207628039.60324,-41813425.05851,239439048.84018,   0.00112,  -0.00065,   0.00350,475475472.24570,   0.00024,274902704.58768,   0.00009,  -0.00005,   0.00039,   0.33942,   1.00000
208681663.67719,-42208473.88464,239023972.82435,   0.00112,  -0.00065,   0.00350,475469151.91372,   0.00024,274905364.27174,   0.00009,  -0.00005,   0.00039,   0.33101,   1.00000
209758424.90065,-42577860.14095,238603647.68572,   0.00113,  -0.00066,   0.00350,475473294.22876,   0.00024,274908030.69472,   0.00009,  -0.00006,   0.00039,   0.33507,   1.00000
210835140.11469,-42947073.14835,238180252.51249,   0.00114,  -0.00066,   0.00349,475473113.05002,   0.00025,274910683.52630,   0.00009,  -0.00006,   0.00040,   0.33403,   1.00000
211900068.96158,-43325259.67178,237755659.19520,   0.00114,  -0.00067,   0.00349,475459204.19161,   0.00025,274913258.39656,   0.00010,  -0.00006,   0.00040,   0.31687,   1.00000
212979845.49793,-43695036.06899,237324834.60816,   0.00115,  -0.00067,   0.00349,475465226.66126,   0.00025,274915849.23529,   0.00010,  -0.00006,   0.00040,   0.32310,   1.00000
214067834.76376,-44047408.81569,236891788.87428,   0.00116,  -0.00068,   0.00349,475463247.45081,   0.00025,274918418.40480,   0.00010,  -0.00006,   0.00041,   0.32005,   1.00000
215155785.87421,-44399639.09116,236455600.46859,   0.00117,  -0.00068,   0.00349,475463086.95708,   0.00026,274920974.54579,   0.00010,  -0.00006,   0.00041,   0.31914,   1.00000
216251974.64696,-44734496.42234,236017177.94837,   0.00117,  -0.00069,   0.00348,475461080.90324,   0.00026,274923509.05688,   0.00010,  -0.00006,   0.00041,   0.31614,   1.00000
217348130.56088,-45069235.13816,235575589.51309,   0.00118,  -0.00069,   0.00348,475460920.81084,   0.00026,274926030.70496,   0.00010,  -0.00006,   0.00042,   0.31530,   1.00000
218462136.33003,-45396493.88277,235126314.97412,   0.00119,  -0.00069,   0.00348,475459797.41415,   0.00026,274928535.02870,   0.00010,  -0.00006,   0.00042,   0.31340,   1.00000
219566488.68808,-45713774.72812,234679264.42523,   0.00119,  -0.00070,   0.00348,475458797.27479,   0.00027,274931022.69059,   0.00010,  -0.00006,   0.00043,   0.31164,   1.00000
220674016.41874,-46031902.71898,234227661.51920,   0.00120,  -0.00070,   0.00347,475451269.81406,   0.00027,274933463.15234,   0.00011,  -0.00006,   0.00043,   0.30225,   1.00000
221796124.31332,-46341611.60107,233769597.92543,   0.00121,  -0.00071,   0.00347,475457680.51329,   0.00027,274935922.01753,   0.00011,  -0.00006,   0.00043,   0.30926,   1.00000
222911888.86767,-46642339.79950,233312427.66340,   0.00121,  -0.00071,   0.00347,475449168.44358,   0.00027,274938329.20625,   0.00011,  -0.00006,   0.00043,   0.29875,   1.00000
224027622.11014,-46942994.33400,232851987.56658,   0.00122,  -0.00072,   0.00347,475449051.69676,   0.00027,274940724.34220,   0.00011,  -0.00007,   0.00044,   0.29811,   1.00000
225166198.39327,-47218013.53748,232385970.78057,   0.00123,  -0.00072,   0.00346,475453632.82508,   0.00028,274943129.50518,   0.00011,  -0.00007,   0.00044,   0.30312,   1.00000
226304685.21490,-47492971.66784,231916633.95310,   0.00123,  -0.00072,   0.00346,475453624.12776,   0.00028,274945523.12463,   0.00011,  -0.00007,   0.00044,   0.30271,   1.00000
227440251.34197,-47760001.68592,231446760.91564,   0.00124,  -0.00073,   0.00346,475437654.16352,   0.00028,274947830.42424,   0.00011,  -0.00007,   0.00045,   0.28362,   1.00000
228581839.56682,-48035814.96866,230969297.88490,   0.00125,  -0.00073,   0.00345,475446282.57676,   0.00028,274950167.14157,   0.00011,  -0.00007,   0.00045,   0.29331,   1.00000
229736817.57409,-48276198.46649,230491842.58886,   0.00125,  -0.00074,   0.00345,475449607.40885,   0.00028,274952508.26334,   0.00011,  -0.00007,   0.00045,   0.29698,   1.00000
230894997.92360,-48517530.42656,230009536.37239,   0.00126,  -0.00074,   0.00345,475442373.04463,   0.00029,274954804.27611,   0.00012,  -0.00007,   0.00046,   0.28813,   1.00000
232038736.10601,-48767243.63319,229527121.13872,   0.00127,  -0.00074,   0.00344,475435577.10205,   0.00029,274957057.45903,   0.00012,  -0.00007,   0.00046,   0.27983,   1.00000
233205156.48449,-48991326.99232,229038958.10607,   0.00127,  -0.00075,   0.00344,475440385.80210,   0.00029,274959322.39405,   0.00012,  -0.00007,   0.00046,   0.28526,   1.00000
234371471.45032,-49215398.24439,228547349.09425,   0.00128,  -0.00075,   0.00344,475440448.50791,   0.00029,274961576.78478,   0.00012,  -0.00007,   0.00047,   0.28511,   1.00000
235537674.26481,-49439455.22067,228052275.66820,   0.00129,  -0.00076,   0.00343,475440537.00187,   0.00030,274963820.80303,   0.00012,  -0.00007,   0.00047,   0.28498,   1.00000
236729761.99887,-49638855.02568,227549813.41768,   0.00130,  -0.00076,   0.00343,475438390.24454,   0.00030,274966044.01948,   0.00012,  -0.00007,   0.00047,   0.28231,   1.00000
237912585.29372,-49828531.50235,227049716.96163,   0.00130,  -0.00076,   0.00343,475436687.97693,   0.00030,274968248.61760,   0.00012,  -0.00007,   0.00048,   0.28015,   1.00000
239098651.13207,-50019214.36489,226544533.44329,   0.00131,  -0.00077,   0.00342,475429653.91190,   0.00030,274970409.71540,   0.00012,  -0.00007,   0.00048,   0.27168,   1.00000
240281213.94209,-50208915.76453,226037393.34858,   0.00132,  -0.00077,   0.00342,475436922.86440,   0.00030,274972594.51007,   0.00012,  -0.00008,   0.00048,   0.28021,   1.00000
241489584.62647,-50373967.20979,225522710.06680,   0.00132,  -0.00078,   0.00342,475434999.48920,   0.00031,274974759.83116,   0.00013,  -0.00008,   0.00048,   0.27786,   1.00000
242692191.54448,-50530352.61739,225008808.35084,   0.00133,  -0.00078,   0.00341,475426021.75415,   0.00031,274976872.74350,   0.00013,  -0.00008,   0.00049,   0.26710,   1.00000
243905268.45553,-50677279.59550,224489546.56738,   0.00134,  -0.00078,   0.00341,475440461.34508,   0.00031,274979043.13315,   0.00013,  -0.00008,   0.00049,   0.28455,   1.00000
245107558.54239,-50833740.15378,223968422.68403,   0.00134,  -0.00079,   0.00340,475426482.12452,   0.00031,274981137.68642,   0.00013,  -0.00008,   0.00049,   0.26752,   1.00000
246332145.72404,-50964549.51224,223441243.08573,   0.00135,  -0.00079,   0.00340,475431849.19246,   0.00031,274983247.32137,   0.00013,  -0.00008,   0.00050,   0.27405,   1.00000
247565023.74658,-51078231.10375,222911388.86965,   0.00136,  -0.00079,   0.00340,475430064.12825,   0.00032,274985338.48581,   0.00013,  -0.00008,   0.00050,   0.27198,   1.00000
248783787.57984,-51200493.57698,222381280.54788,   0.00136,  -0.00080,   0.00339,475423086.98703,   0.00032,274987386.97688,   0.00013,  -0.00008,   0.00050,   0.26354,   1.00000
250024746.95818,-51297106.76135,221845040.35181,   0.00137,  -0.00080,   0.00339,475428587.17325,   0.00032,274989451.37816,   0.00013,  -0.00008,   0.00050,   0.27037,   1.00000
251265449.85471,-51393776.16134,221305072.88419,   0.00138,  -0.00081,   0.00338,475428979.87440,   0.00032,274991507.71476,   0.00013,  -0.00008,   0.00051,   0.27097,   1.00000
252505883.91185,-51490497.14639,220761358.68820,   0.00139,  -0.00081,   0.00338,475429405.74064,   0.00032,274993556.18057,   0.00014,  -0.00008,   0.00051,   0.27160,   1.00000
253758072.64598,-51571112.90122,220213117.67903,   0.00139,  -0.00081,   0.00337,475420759.94639,   0.00032,274995554.37775,   0.00014,  -0.00008,   0.00051,   0.26108,   1.00000
255015061.78158,-51633627.10171,219663851.96597,   0.00140,  -0.00082,   0.00337,475425998.50797,   0.00033,274997567.48400,   0.00014,  -0.00008,   0.00051,   0.26775,   1.00000
256271752.14051,-51696210.37542,219110784.20699,   0.00141,  -0.00082,   0.00336,475426483.59264,   0.00033,274999573.19620,   0.00014,  -0.00008,   0.00052,   0.26854,   1.00000
257536718.53571,-51741706.79735,218554896.78690,   0.00141,  -0.00082,   0.00336,475424830.11271,   0.00033,275001561.54660,   0.00014,  -0.00009,   0.00052,   0.26668,   1.00000
258827046.13330,-51762532.51172,217990838.20486,   0.00142,  -0.00083,   0.00336,475423930.87813,   0.00033,275003536.13811,   0.00014,  -0.00009,   0.00052,   0.26587,   1.00000
260099910.81574,-51791034.14873,217428231.59736,   0.00143,  -0.00083,   0.00335,475423797.73065,   0.00033,275005500.62257,   0.00014,  -0.00009,   0.00052,   0.26595,   1.00000
261372426.26606,-51819613.93601,216861745.50469,   0.00143,  -0.00083,   0.00335,475424387.02259,   0.00034,275007458.42538,   0.00014,  -0.00009,   0.00053,   0.26694,   1.00000
262666663.16083,-51822500.29542,216288829.65795,   0.00144,  -0.00084,   0.00334,475430554.40835,   0.00034,275009435.63798,   0.00014,  -0.00009,   0.00053,   0.27523,   1.00000
263959189.33212,-51817941.11679,215714617.10783,   0.00145,  -0.00084,   0.00334,475414545.61793,   0.00034,275011328.54298,   0.00015,  -0.00009,   0.00053,   0.25501,   1.00000
265261163.29720,-51803835.56605,215134804.31791,   0.00145,  -0.00084,   0.00333,475429807.98879,   0.00034,275013283.65012,   0.00015,  -0.00009,   0.00053,   0.27504,   1.00000
266557951.11307,-51781304.45305,214555559.40661,   0.00146,  -0.00085,   0.00333,475420583.16991,   0.00034,275015186.26261,   0.00015,  -0.00009,   0.00054,   0.26333,   1.00000
267867624.72322,-51750216.75947,213968773.06176,   0.00147,  -0.00085,   0.00332,475429192.09037,   0.00034,275017119.93061,   0.00015,  -0.00009,   0.00054,   0.27501,   1.00000
269189009.77489,-51703058.06061,213377000.29289,   0.00148,  -0.00085,   0.00331,475421138.57781,   0.00035,275019006.68130,   0.00015,  -0.00009,   0.00054,   0.26478,   1.00000
270514946.34587,-51637847.02141,212784125.34880,   0.00148,  -0.00085,   0.00331,475426556.71530,   0.00035,275020909.64555,   0.00015,  -0.00009,   0.00054,   0.27242,   1.00000
271827150.64959,-51581397.53915,212190769.51412,   0.00149,  -0.00086,   0.00330,475419494.23113,   0.00035,275022770.47812,   0.00015,  -0.00009,   0.00055,   0.26340,   1.00000
273160680.17358,-51499224.75788,211590745.81097,   0.00150,  -0.00086,   0.00330,475426180.28206,   0.00035,275024653.55617,   0.00015,  -0.00009,   0.00055,   0.27282,   1.00000
274502305.33605,-51400003.96436,210987599.29782,   0.00150,  -0.00086,   0.00329,475424974.89964,   0.00035,275026521.93230,   0.00015,  -0.00009,   0.00055,   0.27170,   1.00000
275843325.53455,-51300882.18544,210380323.21213,   0.00151,  -0.00087,   0.00329,475426008.18422,   0.00035,275028386.12491,   0.00016,  -0.00010,   0.00055,   0.27361,   1.00000
277205429.67340,-51176018.42245,209766263.78492,   0.00152,  -0.00087,   0.00328,475433024.71860,   0.00036,275030274.06140,   0.00016,  -0.00010,   0.00055,   0.28394,   1.00000
278553837.11940,-51059945.43218,209151630.60873,   0.00153,  -0.00087,   0.00328,475426061.82660,   0.00036,275032120.41143,   0.00016,  -0.00010,   0.00056,   0.27473,   1.00000
279910278.34184,-50926822.01058,208533778.76222,   0.00153,  -0.00087,   0.00327,475425007.02785,   0.00036,275033952.93385,   0.00016,  -0.00010,   0.00056,   0.27380,   1.00000
281274735.85546,-50776653.05328,207912681.67300,   0.00154,  -0.00088,   0.00326,475423987.46226,   0.00036,275035771.85627,   0.00016,  -0.00010,   0.00056,   0.27296,   1.00000
282656394.06901,-50599760.02531,207286796.05190,   0.00155,  -0.00088,   0.00326,475437848.20331,   0.00036,275037646.61948,   0.00016,  -0.00010,   0.00056,   0.29349,   1.00000
284028088.39764,-50432658.24245,206658155.13067,   0.00155,  -0.00088,   0.00325,475424356.36927,   0.00036,275039449.42999,   0.00016,  -0.00010,   0.00057,   0.27463,   1.00000
285399014.81424,-50265653.71970,206025231.03328,   0.00156,  -0.00089,   0.00325,475425665.35430,   0.00037,275041249.63534,   0.00016,  -0.00010,   0.00057,   0.27708,   1.00000
286795658.71319,-50054765.50195,205388432.68625,   0.00157,  -0.00089,   0.00324,475437518.81040,   0.00037,275043096.37501,   0.00016,  -0.00010,   0.00057,   0.29517,   1.00000
288191410.27183,-49843984.93810,204747304.66984,   0.00157,  -0.00089,   0.00323,475439017.68246,   0.00037,275044941.16587,   0.00017,  -0.00010,   0.00057,   0.29815,   1.00000
289586037.37879,-49625848.99193,204104238.67539,   0.00158,  -0.00089,   0.00323,475423428.29233,   0.00037,275046704.40694,   0.00017,  -0.00010,   0.00057,   0.27570,   1.00000
290988678.45202,-49398124.37760,203455343.94886,   0.00159,  -0.00089,   0.00322,475439869.87637,   0.00037,275048535.69710,   0.00017,  -0.00010,   0.00058,   0.30103,   1.00000
292399090.73090,-49153349.93157,202802996.12119,   0.00160,  -0.00090,   0.00322,475439320.24380,   0.00037,275050355.55967,   0.00017,  -0.00010,   0.00058,   0.30096,   1.00000
293804769.31025,-48900280.62324,202150855.66137,   0.00160,  -0.00090,   0.00321,475430197.41741,   0.00038,275052124.13238,   0.00017,  -0.00010,   0.00058,   0.28774,   1.00000
295218220.40489,-48637630.29812,201492874.38933,   0.00161,  -0.00090,   0.00320,475446828.53180,   0.00038,275053961.55769,   0.00017,  -0.00010,   0.00058,   0.31442,   1.00000
296651829.52875,-48341710.88118,200830009.86147,   0.00162,  -0.00090,   0.00320,475437911.21051,   0.00038,275055748.56626,   0.00017,  -0.00011,   0.00059,   0.30118,   1.00000
298080620.79075,-48044978.12355,200164962.69091,   0.00162,  -0.00091,   0.00319,475446057.34660,   0.00038,275057564.81366,   0.00017,  -0.00011,   0.00059,   0.31502,   1.00000
299511991.69466,-47749270.68396,199493093.22978,   0.00163,  -0.00091,   0.00318,475441638.63138,   0.00038,275059351.69208,   0.00017,  -0.00011,   0.00059,   0.30873,   1.00000
300956008.95827,-47418436.92730,198820860.39336,   0.00164,  -0.00091,   0.00318,475445522.55367,   0.00038,275061147.95872,   0.00018,  -0.00011,   0.00059,   0.31597,   1.00000
302411004.31473,-47078945.10652,198140360.39308,   0.00165,  -0.00091,   0.00317,475456368.48058,   0.00039,275062985.93605,   0.00018,  -0.00011,   0.00059,   0.33506,   1.00000
303852539.49634,-46748331.05222,197459006.38146,   0.00165,  -0.00091,   0.00316,475449618.34020,   0.00039,275064783.60016,   0.00018,  -0.00011,   0.00060,   0.32456,   1.00000
305306620.55214,-46382603.22687,196777261.60980,   0.00166,  -0.00092,   0.00316,475453624.54170,   0.00039,275066591.14576,   0.00018,  -0.00011,   0.00060,   0.33235,   1.00000
306763127.11877,-46017883.71477,196088505.36841,   0.00167,  -0.00092,   0.00315,475449573.85487,   0.00039,275068371.07488,   0.00018,  -0.00011,   0.00060,   0.32639,   1.00000
308235298.86268,-45626440.79213,195394691.75763,   0.00167,  -0.00092,   0.00314,475464840.79320,   0.00039,275070213.27652,   0.00018,  -0.00011,   0.00060,   0.35416,   1.00000
309702843.91483,-45226727.11901,194700844.35577,   0.00168,  -0.00092,   0.00314,475456020.41176,   0.00039,275072005.53228,   0.00018,  -0.00011,   0.00060,   0.33955,   1.00000
311189617.93000,-44801179.02430,193999450.80232,   0.00169,  -0.00092,   0.00313,475465330.63338,   0.00040,275073832.29137,   0.00018,  -0.00011,   0.00061,   0.35739,   1.00000
312662996.33828,-44384531.27083,193297101.10942,   0.00169,  -0.00093,   0.00312,475458674.19235,   0.00040,275075619.24008,   0.00019,  -0.00011,   0.00061,   0.34640,   1.00000
314155416.91929,-43942036.94889,192587139.10751,   0.00170,  -0.00093,   0.00311,475468205.96199,   0.00040,275077441.71968,   0.00019,  -0.00011,   0.00061,   0.36504,   1.00000
315639482.71831,-43490414.23973,191879559.82473,   0.00171,  -0.00093,   0.00311,475465553.97192,   0.00040,275079242.99806,   0.00019,  -0.00011,   0.00061,   0.36125,   1.00000
317133614.99144,-43030130.28057,191163472.93088,   0.00172,  -0.00093,   0.00310,475477382.17885,   0.00040,275081090.36475,   0.00019,  -0.00012,   0.00062,   0.38494,   1.00000
318634800.79192,-42552783.59474,190443446.59834,   0.00172,  -0.00093,   0.00309,475478047.62246,   0.00040,275082931.79169,   0.00019,  -0.00012,   0.00062,   0.38750,   1.00000
320147998.05041,-42040361.75744,189722853.85049,   0.00173,  -0.00093,   0.00309,475482718.65519,   0.00041,275084785.87258,   0.00019,  -0.00012,   0.00062,   0.39810,   1.00000
321642845.93700,-41554871.95011,188997800.82926,   0.00174,  -0.00093,   0.00308,475472264.75328,   0.00041,275086582.42152,   0.00019,  -0.00012,   0.00062,   0.37863,   1.00000
323161142.54461,-41025521.21686,188268381.40352,   0.00174,  -0.00094,   0.00307,475486386.60687,   0.00041,275088435.63358,   0.00019,  -0.00012,   0.00062,   0.40826,   1.00000
324686285.56150,-40479115.21250,187534905.43050,   0.00175,  -0.00094,   0.00306,475487364.90655,   0.00041,275090284.29822,   0.00020,  -0.00012,   0.00063,   0.41170,   1.00000
326205650.17493,-39932048.55620,186799189.43360,   0.00176,  -0.00094,   0.00306,475496334.31020,   0.00041,275092165.45714,   0.00020,  -0.00012,   0.00063,   0.43196,   1.00000
327735559.01880,-39368719.38824,186056713.49808,   0.00177,  -0.00094,   0.00305,475491588.86148,   0.00041,275094015.41072,   0.00020,  -0.00012,   0.00063,   0.42332,   1.00000
329268355.18862,-38787540.61257,185312772.96723,   0.00177,  -0.00094,   0.00304,475498664.84792,   0.00042,275095889.04871,   0.00020,  -0.00012,   0.00063,   0.44004,   1.00000
330799007.78550,-38206510.85735,184563894.36950,   0.00178,  -0.00094,   0.00303,475501944.14944,   0.00042,275097768.66919,   0.00020,  -0.00012,   0.00063,   0.44873,   1.00000
332352327.08315,-37581671.51249,183810523.61433,   0.00179,  -0.00094,   0.00303,475516868.94592,   0.00042,275099708.11199,   0.00020,  -0.00012,   0.00064,   0.48425,   1.00000
333892242.14157,-36965769.70230,183055964.52316,   0.00179,  -0.00094,   0.00302,475510673.78734,   0.00042,275101609.35827,   0.00020,  -0.00012,   0.00064,   0.47158,   1.00000
335438617.56536,-36332814.48943,182297170.90633,   0.00180,  -0.00094,   0.00301,475512229.31835,   0.00042,275103508.44396,   0.00020,  -0.00012,   0.00064,   0.47682,   1.00000
336991382.48040,-35682805.25137,181534105.86491,   0.00181,  -0.00094,   0.00300,475513883.96020,   0.00042,275105405.82830,   0.00021,  -0.00013,   0.00064,   0.48237,   1.00000
338557538.26036,-35006253.15645,180765724.94829,   0.00182,  -0.00095,   0.00299,475531219.45017,   0.00043,275107373.98371,   0.00021,  -0.00013,   0.00064,   0.52608,   1.00000
340119037.90998,-34321415.31336,179996812.08534,   0.00182,  -0.00095,   0.00299,475523268.65981,   0.00043,275109295.69273,   0.00021,  -0.00013,   0.00065,   0.50832,   1.00000
341674169.17346,-33636051.23071,179225658.75685,   0.00183,  -0.00095,   0.00298,475532735.22575,   0.00043,275111251.65028,   0.00021,  -0.00013,   0.00065,   0.53365,   1.00000
343249947.29216,-32925614.36767,178443493.96592,   0.00184,  -0.00095,   0.00297,475539122.00328,   0.00043,275113227.43708,   0.00021,  -0.00013,   0.00065,   0.55191,   1.00000
344817228.71667,-32206173.88672,177663573.01946,   0.00184,  -0.00095,   0.00296,475536942.60338,   0.00043,275115183.39944,   0.00021,  -0.00013,   0.00065,   0.54817,   1.00000
346397259.78035,-31460281.36004,176878300.74827,   0.00185,  -0.00095,   0.00295,475554840.31103,   0.00044,275117212.27539,   0.00021,  -0.00013,   0.00065,   0.59782,   1.00000
347983107.46193,-30697374.37497,176088571.90846,   0.00186,  -0.00095,   0.00295,475557287.96031,   0.00044,275119242.39297,   0.00022,  -0.00013,   0.00066,   0.60671,   1.00000
349564234.76260,-29926170.39658,175298157.85469,   0.00187,  -0.00095,   0.00294,475549666.80114,   0.00044,275121227.30622,   0.00022,  -0.00013,   0.00066,   0.58785,   1.00000
351152785.99675,-29146493.33042,174498760.44729,   0.00187,  -0.00095,   0.00293,475564203.23939,   0.00044,275123269.38958,   0.00022,  -0.00013,   0.00066,   0.63061,   1.00000
352741481.90454,-28340593.59680,173702226.77624,   0.00188,  -0.00095,   0.00292,475560431.78775,   0.00044,275125283.95675,   0.00022,  -0.00013,   0.00066,   0.62207,   1.00000
354337329.29622,-27526262.58696,172896679.43438,   0.00189,  -0.00095,   0.00291,475575231.65216,   0.00045,275127356.69441,   0.00022,  -0.00013,   0.00067,   0.66744,   1.00000
355934781.49702,-26694306.48401,172089526.66950,   0.00190,  -0.00095,   0.00290,475583644.09075,   0.00045,275129457.86489,   0.00022,  -0.00014,   0.00067,   0.69518,   1.00000
357537570.81424,-25845370.18983,171277760.80303,   0.00190,  -0.00095,   0.00290,475586727.97651,   0.00045,275131562.77351,   0.00023,  -0.00014,   0.00067,   0.70713,   1.00000
359131724.21450,-24987516.80527,170468182.18001,   0.00191,  -0.00095,   0.00289,475584866.23469,   0.00045,275133648.63584,   0.00023,  -0.00014,   0.00067,   0.70376,   1.00000
360741148.54664,-24104037.11747,169650147.71439,   0.00192,  -0.00095,   0.00288,475598530.64020,   0.00045,275135786.95005,   0.00023,  -0.00014,   0.00067,   0.74966,   1.00000
362346985.60877,-23220890.62523,168826827.72950,   0.00192,  -0.00095,   0.00287,475603594.65533,   0.00045,275137937.88276,   0.00023,  -0.00014,   0.00068,   0.76876,   1.00000
363962642.07629,-22302921.33300,168002451.20010,   0.00193,  -0.00095,   0.00286,475610826.54198,   0.00046,275140111.30739,   0.00023,  -0.00014,   0.00068,   0.79560,   1.00000
365574544.33196,-21385319.99957,167172761.09653,   0.00194,  -0.00095,   0.00285,475616083.97091,   0.00046,275142298.02399,   0.00023,  -0.00014,   0.00068,   0.81622,   1.00000
367196055.69518,-20432934.48537,166341980.34702,   0.00195,  -0.00095,   0.00285,475623548.80268,   0.00046,275144508.07445,   0.00023,  -0.00014,   0.00068,   0.84509,   1.00000
368813639.74663,-19480954.35482,165505858.63347,   0.00195,  -0.00095,   0.00284,475629004.95284,   0.00046,275146732.10372,   0.00024,  -0.00014,   0.00069,   0.86735,   1.00000
370435819.33420,-18512073.72844,164664922.37628,   0.00196,  -0.00095,   0.00283,475633027.94510,   0.00046,275148963.44346,   0.00024,  -0.00014,   0.00069,   0.88484,   1.00000
372058688.66503,-17525779.67437,163822311.70224,   0.00197,  -0.00095,   0.00282,475642357.16775,   0.00047,275151226.37505,   0.00024,  -0.00014,   0.00069,   0.92234,   1.00000
373682158.47456,-16522106.92299,162978032.64892,   0.00197,  -0.00095,   0.00281,475651773.43062,   0.00047,275153521.10851,   0.00024,  -0.00015,   0.00069,   0.96121,   1.00000
375309922.78430,-15501589.96197,162128879.24717,   0.00198,  -0.00095,   0.00280,475656165.44638,   0.00047,275155824.42869,   0.00024,  -0.00015,   0.00069,   0.98145,   1.00000
376933326.32561,-14481568.08078,161274328.72025,   0.00199,  -0.00095,   0.00279,475662113.02998,   0.00047,275158143.40971,   0.00025,  -0.00015,   0.00070,   0.00000,   2.00000
378565560.64285,-13426904.90523,160418578.33874,   0.00200,  -0.00095,   0.00278,475670428.26561,   0.00048,275160488.77404,   0.00025,  -0.00015,   0.00070,   0.00000,   2.00000
380197969.71932,-12354981.56179,159561137.52870,   0.00200,  -0.00095,   0.00278,475680265.36520,   0.00048,275162867.32251,   0.00025,  -0.00015,   0.00070,   0.00000,   2.00000
381825740.02825,-11283633.59777,158698276.39494,   0.00201,  -0.00095,   0.00277,475686522.77258,   0.00048,275165262.48889,   0.00025,  -0.00015,   0.00070,   0.00000,   2.00000
383474795.96950,-10169703.06735,157827109.02520,   0.00202,  -0.00095,   0.00276,475701363.44728,   0.00048,275167713.38434,   0.00025,  -0.00015,   0.00071,  -0.00000,   2.00000
385106121.53041,-9064431.58982,156957550.87216,   0.00202,  -0.00094,   0.00275,475701810.30853,   0.00048,275170153.92492,   0.00025,  -0.00015,   0.00071,  -0.00000,   2.00000
386737212.24146,-7942023.68032,156086305.23363,   0.00203,  -0.00094,   0.00274,475712045.90468,   0.00049,275172628.85668,   0.00026,  -0.00015,   0.00071,  -0.00000,   2.00000
388371717.44761,-6802929.04755,155210024.31442,   0.00204,  -0.00094,   0.00273,475717486.08759,   0.00049,275175116.07591,   0.00026,  -0.00015,   0.00071,  -0.00000,   2.00000
390017896.98337,-5629799.20936,154329069.13306,   0.00205,  -0.00094,   0.00272,475721897.28138,   0.00049,275177610.78672,   0.00026,  -0.00016,   0.00072,   0.00000,   2.00000
391651296.50508,-4456635.46628,153449390.20765,   0.00205,  -0.00094,   0.00271,475738548.23959,   0.00049,275180168.75446,   0.00026,  -0.00016,   0.00072,   0.00000,   2.00000
393300107.44407,-3258879.93743,152557478.32758,   0.00206,  -0.00094,   0.00270,475750974.66121,   0.00050,275182770.33634,   0.00026,  -0.00016,   0.00072,  -0.00000,   2.00000
394935659.05427,-2052179.26905,151671002.39880,   0.00207,  -0.00094,   0.00269,475755321.53128,   0.00050,275185378.46873,   0.00027,  -0.00016,   0.00072,  -0.00000,   2.00000
396573996.47793,-828936.09004,150779397.70194,   0.00208,  -0.00094,   0.00269,475761483.02378,   0.00050,275188001.35278,   0.00027,  -0.00016,   0.00073,   0.00000,   2.00000
398206670.61323,393438.16340,149882299.25430,   0.00208,  -0.00094,   0.00268,475768849.51294,   0.00050,275190644.37612,   0.00027,  -0.00016,   0.00073,  -0.00000,   2.00000
399854779.53319,1658312.51120,148980122.56071,   0.00209,  -0.00093,   0.00267,475790539.54134,   0.00051,275193372.52004,   0.00027,  -0.00016,   0.00073,   0.00000,   2.00000
401493162.12240,2931667.41779,148079945.42341,   0.00210,  -0.00093,   0.00266,475790395.72443,   0.00051,275196086.04536,   0.00028,  -0.00016,   0.00073,  -0.00000,   2.00000
403133776.80765,4221434.05093,147174562.24497,   0.00210,  -0.00093,   0.00265,475797177.08388,   0.00051,275198816.46754,   0.00028,  -0.00016,   0.00074,   0.00000,   2.00000
404772772.75757,5527869.61898,146267475.28173,   0.00211,  -0.00093,   0.00264,475808747.17472,   0.00051,275201585.40469,   0.00028,  -0.00016,   0.00074,   0.00000,   2.00000
406405527.96060,6833235.32767,145354873.33257,   0.00212,  -0.00093,   0.00263,475816720.05511,   0.00052,275204376.30091,   0.00028,  -0.00017,   0.00074,  -0.00000,   2.00000
408048890.61126,8181016.89834,144440742.50824,   0.00213,  -0.00093,   0.00262,475843981.96499,   0.00052,275207276.44485,   0.00029,  -0.00017,   0.00074,   0.00000,   2.00000
409689589.51230,9536627.96882,143521438.55710,   0.00213,  -0.00092,   0.00261,475835176.30118,   0.00052,275210121.74237,   0.00029,  -0.00017,   0.00075,   0.00000,   2.00000
411316338.51263,10891518.01799,142603796.93444,   0.00214,  -0.00092,   0.00260,475852548.39250,   0.00052,275213031.05083,   0.00029,  -0.00017,   0.00075,  -0.00000,   2.00000
412952602.90264,12280006.21167,141681115.20668,   0.00215,  -0.00092,   0.00259,475859475.80705,   0.00053,275215956.68335,   0.00029,  -0.00017,   0.00075,   0.00000,   2.00000
414578370.87016,13667403.03977,140756543.96557,   0.00215,  -0.00092,   0.00258,475872521.19684,   0.00053,275218926.20175,   0.00030,  -0.00017,   0.00075,  -0.00000,   2.00000
416213286.02241,15088314.33399,139826877.80307,   0.00216,  -0.00092,   0.00257,475879857.67122,   0.00053,275221913.49935,   0.00030,  -0.00017,   0.00076,   0.00000,   2.00000
417844964.73166,16516007.38810,138891729.59640,   0.00217,  -0.00091,   0.00256,475905145.18683,   0.00053,275224999.52959,   0.00030,  -0.00017,   0.00076,   0.00000,   2.00000
419474245.11757,17969292.70096,137958733.56488,   0.00218,  -0.00091,   0.00255,475905316.77903,   0.00054,275228070.30580,   0.00030,  -0.00018,   0.00076,   0.00000,   2.00000
421096173.31612,19421053.44479,137020227.38876,   0.00218,  -0.00091,   0.00254,475914428.12213,   0.00054,275231166.22546,   0.00031,  -0.00018,   0.00076,   0.00000,   2.00000
422722885.72940,20906289.50896,136080243.47163,   0.00219,  -0.00091,   0.00254,475926898.76178,   0.00054,275234302.23333,   0.00031,  -0.00018,   0.00077,   0.00000,   2.00000
424338389.03518,22390026.01980,135138486.38901,   0.00220,  -0.00090,   0.00253,475940547.94388,   0.00055,275237483.38381,   0.00031,  -0.00018,   0.00077,   0.00000,   2.00000
425950492.13359,23889649.22654,134195132.59125,   0.00221,  -0.00090,   0.00252,475953783.58151,   0.00055,275240707.51317,   0.00031,  -0.00018,   0.00077,   0.00000,   2.00000
427570424.88043,25422415.04734,133246540.20126,   0.00221,  -0.00090,   0.00251,475962557.33865,   0.00055,275243954.24120,   0.00032,  -0.00018,   0.00077,   0.00000,   2.00000
429178777.50499,26953456.35367,132296239.69093,   0.00222,  -0.00090,   0.00250,475976520.20567,   0.00056,275247246.73770,   0.00032,  -0.00018,   0.00078,   0.00000,   2.00000
430791005.49232,28517610.65829,131344459.71572,   0.00223,  -0.00089,   0.00249,475989879.44218,   0.00056,275250581.96183,   0.00032,  -0.00018,   0.00078,  -0.00000,   2.00000
432394953.45548,30079796.87807,130387211.02976,   0.00223,  -0.00089,   0.00248,475999917.82054,   0.00056,275253944.73198,   0.00033,  -0.00019,   0.00078,  -0.00000,   2.00000
434002371.84639,31674944.90238,129428475.02387,   0.00224,  -0.00089,   0.00247,476013668.64341,   0.00056,275257351.47196,   0.00033,  -0.00019,   0.00079,   0.00000,   2.00000
435597715.19772,33268040.24025,128468132.00836,   0.00225,  -0.00089,   0.00246,476028047.75145,   0.00057,275260804.71074,   0.00033,  -0.00019,   0.00079,  -0.00000,   2.00000
437188554.96949,34876471.17640,127506276.22162,   0.00226,  -0.00088,   0.00245,476042298.45498,   0.00057,275264303.55087,   0.00033,  -0.00019,   0.00079,   0.00000,   2.00000
438782305.78077,36517601.03029,126542953.58428,   0.00226,  -0.00088,   0.00244,476056587.48262,   0.00057,275267847.82388,   0.00034,  -0.00019,   0.00079,   0.00000,   2.00000
440360682.07232,38148857.91516,125577680.63186,   0.00227,  -0.00088,   0.00243,476054671.12740,   0.00058,275271364.80358,   0.00034,  -0.00019,   0.00080,   0.00000,   2.00000
441948005.03354,39820182.80902,124607484.17740,   0.00228,  -0.00087,   0.00242,476081892.57883,   0.00058,275274984.71792,   0.00034,  -0.00019,   0.00080,   0.00000,   2.00000
443522626.56837,41489003.15187,123635824.07978,   0.00228,  -0.00087,   0.00241,476096797.33075,   0.00058,275278651.94713,   0.00035,  -0.00020,   0.00080,   0.00000,   2.00000
445102759.74685,43190174.10157,122658767.41810,   0.00229,  -0.00087,   0.00240,476107999.50107,   0.00059,275282349.61990,   0.00035,  -0.00020,   0.00081,  -0.00000,   2.00000
446660405.57689,44881248.09684,121687669.09301,   0.00230,  -0.00086,   0.00239,476114192.22547,   0.00059,275286055.22461,   0.00035,  -0.00020,   0.00081,  -0.00000,   2.00000
448221953.07178,46594427.47555,120707809.20747,   0.00231,  -0.00086,   0.00238,476138354.93172,   0.00059,275289848.63229,   0.00036,  -0.00020,   0.00081,   0.00000,   2.00000
449779006.55715,48332347.47095,119729895.28178,   0.00231,  -0.00086,   0.00237,476141166.04982,   0.00060,275293634.28736,   0.00036,  -0.00020,   0.00081,   0.00000,   2.00000
451335947.39276,50092015.39155,118747236.06051,   0.00232,  -0.00085,   0.00236,476169640.34158,   0.00060,275297526.19531,   0.00036,  -0.00020,   0.00082,   0.00000,   2.00000
452873642.87957,51841369.04988,117766654.74782,   0.00233,  -0.00085,   0.00235,476172237.38809,   0.00060,275301408.81126,   0.00037,  -0.00020,   0.00082,   0.00000,   2.00000
454421322.72612,53629729.80076,116777300.49801,   0.00233,  -0.00085,   0.00234,476197666.93599,   0.00061,275305383.35680,   0.00037,  -0.00021,   0.00082,   0.00000,   2.00000
455946310.84110,55407553.59885,115794108.58225,   0.00234,  -0.00084,   0.00233,476204082.79863,   0.00061,275309364.99964,   0.00038,  -0.00021,   0.00083,   0.00000,   2.00000
457475130.75237,57217013.60735,114805473.54801,   0.00235,  -0.00084,   0.00232,476216979.27742,   0.00062,275313382.29794,   0.00038,  -0.00021,   0.00083,  -0.00000,   2.00000
458990077.28949,59022986.97823,113815695.73118,   0.00236,  -0.00084,   0.00231,476232839.46045,   0.00062,275317448.10323,   0.00038,  -0.00021,   0.00083,   0.00000,   2.00000
460510463.32854,60867229.78338,112821299.44532,   0.00236,  -0.00083,   0.00230,476262944.33115,   0.00062,275321624.93736,   0.00039,  -0.00021,   0.00084,   0.00000,   2.00000
462018226.02512,62718183.29413,111828952.15531,   0.00237,  -0.00083,   0.00229,476266561.60181,   0.00063,275325795.14529,   0.00039,  -0.00021,   0.00084,  -0.00000,   2.00000
463511747.20754,64565296.87921,110835581.68117,   0.00238,  -0.00082,   0.00228,476282732.70307,   0.00063,275330014.09004,   0.00039,  -0.00021,   0.00084,   0.00000,   2.00000
465004671.89645,66443316.54875,109840912.68660,   0.00238,  -0.00082,   0.00227,476300299.26523,   0.00064,275334287.51515,   0.00040,  -0.00022,   0.00084,  -0.00000,   2.00000
466493083.24470,68334838.90308,108840962.70539,   0.00239,  -0.00082,   0.00226,476313994.15339,   0.00064,275338597.96785,   0.00040,  -0.00022,   0.00085,   0.00000,   2.00000
467963655.91766,70221970.55826,107844275.45824,   0.00240,  -0.00081,   0.00225,476333924.50405,   0.00064,275342972.58723,   0.00041,  -0.00022,   0.00085,  -0.00000,   2.00000
469431214.79761,72133116.03708,106845321.65889,   0.00241,  -0.00081,   0.00224,476335366.11772,   0.00065,275347329.69517,   0.00041,  -0.00022,   0.00085,   0.00000,   2.00000
470895448.37373,74063892.25308,105842176.13337,   0.00241,  -0.00080,   0.00223,476366281.41707,   0.00065,275351798.59752,   0.00042,  -0.00022,   0.00086,   0.00000,   2.00000
472351224.04500,76007461.10273,104838027.81651,   0.00242,  -0.00080,   0.00222,476384080.37244,   0.00066,275356321.02775,   0.00042,  -0.00022,   0.00086,   0.00000,   2.00000
473790594.30335,77956923.45448,103840242.85553,   0.00243,  -0.00079,   0.00221,476391827.25576,   0.00066,275360852.59530,   0.00042,  -0.00023,   0.00086,   0.00000,   2.00000
475229010.34605,79925669.95198,102834193.56627,   0.00243,  -0.00079,   0.00220,476420038.67717,   0.00066,275365482.61154,   0.00043,  -0.00023,   0.00087,  -0.00000,   2.00000
476653923.45234,81900360.02235,101830309.17861,   0.00244,  -0.00079,   0.00219,476424757.88150,   0.00067,275370107.78942,   0.00043,  -0.00023,   0.00087,  -0.00000,   2.00000
478063439.62925,83869987.73266,100825809.01854,   0.00245,  -0.00078,   0.00218,476441893.12017,   0.00067,275374782.28028,   0.00044,  -0.00023,   0.00087,   0.00000,   2.00000
479474524.60555,85875449.55416,99817197.35481,   0.00246,  -0.00078,   0.00217,476475088.43937,   0.00068,275379575.59710,   0.00044,  -0.00023,   0.00088,  -0.00000,   2.00000
480874806.22925,87886850.14770,98806503.75629,   0.00246,  -0.00077,   0.00216,476477066.46686,   0.00068,275384351.03993,   0.00045,  -0.00023,   0.00088,   0.00000,   2.00000
482268669.09498,89927115.34419,97799058.33521,   0.00247,  -0.00077,   0.00215,476500308.13013,   0.00069,275389201.04052,   0.00045,  -0.00024,   0.00088,  -0.00000,   2.00000
483646524.97082,91961691.64803,96791166.78806,   0.00248,  -0.00076,   0.00214,476517981.72102,   0.00069,275394100.88440,   0.00046,  -0.00024,   0.00088,   0.00000,   2.00000
485014451.18789,94007780.61959,95782591.04179,   0.00248,  -0.00076,   0.00213,476537087.49857,   0.00069,275399056.36586,   0.00046,  -0.00024,   0.00089,  -0.00000,   2.00000
486372269.11286,96065220.45927,94773372.01117,   0.00249,  -0.00075,   0.00212,476556355.32274,   0.00070,275404067.72911,   0.00047,  -0.00024,   0.00089,   0.00000,   2.00000
487715900.06372,98127887.69528,93766444.83817,   0.00250,  -0.00075,   0.00211,476561953.93334,   0.00070,275409075.41045,   0.00047,  -0.00024,   0.00089,  -0.00000,   2.00000
489053012.84265,100207552.23126,92756065.66449,   0.00251,  -0.00074,   0.00210,476595281.06195,   0.00071,275414199.11383,   0.00048,  -0.00024,   0.00090,   0.00000,   2.00000
490378580.07238,102292571.05391,91743630.69040,   0.00251,  -0.00074,   0.00209,476598247.24145,   0.00071,275419306.98913,   0.00048,  -0.00025,   0.00090,   0.00000,   2.00000
491700005.76818,104411008.38895,90731918.70035,   0.00252,  -0.00073,   0.00208,476636597.10556,   0.00072,275424551.46033,   0.00049,  -0.00025,   0.00090,   0.00000,   2.00000
493000991.10876,106516960.64666,89722921.98319,   0.00253,  -0.00073,   0.00207,476641057.26040,   0.00072,275429785.72922,   0.00049,  -0.00025,   0.00091,   0.00000,   2.00000
494290918.95497,108633323.20279,88713520.55066,   0.00253,  -0.00072,   0.00206,476661174.20432,   0.00073,275435077.06297,   0.00050,  -0.00025,   0.00091,   0.00000,   2.00000
495578643.24430,110782685.83141,87700629.58780,   0.00254,  -0.00071,   0.00205,476697374.35291,   0.00073,275440493.93261,   0.00050,  -0.00025,   0.00091,  -0.00000,   2.00000
496845804.81190,112919262.42232,86690546.20177,   0.00255,  -0.00071,   0.00204,476702058.42818,   0.00074,275445900.36143,   0.00051,  -0.00025,   0.00092,   0.00000,   2.00000
498098070.96390,115060250.35803,85682907.52239,   0.00255,  -0.00070,   0.00203,476708581.37864,   0.00074,275451304.22255,   0.00051,  -0.00026,   0.00092,  -0.00000,   2.00000
499347306.36313,117233527.53812,84671946.79553,   0.00256,  -0.00070,   0.00202,476745416.12462,   0.00075,275456834.93034,   0.00052,  -0.00026,   0.00092,   0.00000,   2.00000
500579140.67293,119399117.85957,83661202.84580,   0.00257,  -0.00069,   0.00201,476764346.02470,   0.00075,275462415.12033,   0.00052,  -0.00026,   0.00093,  -0.00000,   2.00000
501798385.14153,121585439.56336,82657064.10709,   0.00258,  -0.00069,   0.00200,476776067.10331,   0.00076,275468013.59846,   0.00053,  -0.00026,   0.00093,   0.00000,   2.00000
503005818.82569,123769418.65422,81646115.19558,   0.00258,  -0.00068,   0.00199,476806663.09835,   0.00076,275473710.49339,   0.00054,  -0.00026,   0.00093,  -0.00000,   2.00000
504202955.77577,125974244.33128,80637315.40922,   0.00259,  -0.00067,   0.00198,476816169.04504,   0.00077,275479415.34165,   0.00054,  -0.00026,   0.00094,   0.00000,   2.00000
505379816.52497,128170346.15469,79633464.04057,   0.00260,  -0.00067,   0.00197,476837904.33996,   0.00077,275485179.94353,   0.00055,  -0.00027,   0.00094,   0.00000,   2.00000
506551558.41883,130392498.84883,78624703.94543,   0.00260,  -0.00066,   0.00196,476859440.51788,   0.00078,275491002.86557,   0.00055,  -0.00027,   0.00094,  -0.00000,   2.00000
507707776.48838,132622543.48516,77620592.27530,   0.00261,  -0.00065,   0.00195,476883813.16840,   0.00078,275496895.59204,   0.00056,  -0.00027,   0.00095,   0.00000,   2.00000
508846036.34874,134843751.25020,76617078.82865,   0.00262,  -0.00065,   0.00194,476903297.24887,   0.00079,275502836.91445,   0.00056,  -0.00027,   0.00095,   0.00000,   2.00000
509975921.62574,137089900.12930,75613340.08371,   0.00262,  -0.00064,   0.00193,476927985.87414,   0.00080,275508848.27447,   0.00057,  -0.00027,   0.00095,  -0.00000,   2.00000
511089811.12738,139339055.99126,74612298.03389,   0.00263,  -0.00064,   0.00192,476935956.85929,   0.00080,275514858.66081,   0.00058,  -0.00027,   0.00095,   0.00000,   2.00000
512188029.91856,141583545.06180,73609598.96609,   0.00264,  -0.00063,   0.00191,476970049.74780,   0.00081,275520977.86520,   0.00058,  -0.00027,   0.00096,   0.00000,   2.00000
513274755.14643,143847712.76466,72609207.16420,   0.00264,  -0.00062,   0.00191,476980965.58627,   0.00081,275527107.62441,   0.00059,  -0.00028,   0.00096,   0.00000,   2.00000
514345278.67321,146118578.19306,71613830.36069,   0.00265,  -0.00062,   0.00190,477005961.57161,   0.00082,275533306.78653,   0.00060,  -0.00028,   0.00096,  -0.00000,   2.00000
515404180.06771,148396863.11343,70614293.79891,   0.00266,  -0.00061,   0.00189,477026585.94046,   0.00082,275539556.42169,   0.00060,  -0.00028,   0.00097,   0.00000,   2.00000
516442278.76376,150664622.09678,69620382.33936,   0.00267,  -0.00060,   0.00188,477048852.48236,   0.00083,275545862.97513,   0.00061,  -0.00028,   0.00097,   0.00000,   2.00000
517470519.95617,152955738.98478,68626582.22205,   0.00267,  -0.00060,   0.00187,477074945.01766,   0.00084,275552241.81134,   0.00062,  -0.00028,   0.00097,  -0.00000,   2.00000
518484334.86429,155253144.49554,67633418.40768,   0.00268,  -0.00059,   0.00186,477098279.55249,   0.00084,275558680.78775,   0.00062,  -0.00028,   0.00098,   0.00000,   2.00000
519481542.33288,157552500.80553,66643168.03269,   0.00269,  -0.00058,   0.00185,477107186.08956,   0.00085,275565119.36228,   0.00063,  -0.00029,   0.00098,   0.00000,   2.00000
520461923.22215,159857304.35176,65658309.94019,   0.00269,  -0.00058,   0.00184,477132799.89222,   0.00085,275571626.78958,   0.00064,  -0.00029,   0.00098,   0.00000,   2.00000
521429739.96639,162168307.84269,64669559.18755,   0.00270,  -0.00057,   0.00183,477154414.48394,   0.00086,275578185.85098,   0.00064,  -0.00029,   0.00099,   0.00000,   2.00000
522376605.86237,164467700.18933,63686832.78098,   0.00271,  -0.00056,   0.00182,477176911.59683,   0.00087,275584799.76549,   0.00065,  -0.00029,   0.00099,   0.00000,   2.00000
523312406.34063,166789012.45920,62704527.41104,   0.00271,  -0.00055,   0.00181,477204181.26596,   0.00087,275591487.64403,   0.00066,  -0.00029,   0.00099,   0.00000,   2.00000
524233036.26235,169115343.82911,61723189.30092,   0.00272,  -0.00055,   0.00180,477228309.77629,   0.00088,275598235.85210,   0.00066,  -0.00029,   0.00099,   0.00000,   2.00000
525136678.75011,171442807.51398,60744930.21017,   0.00273,  -0.00054,   0.00179,477237881.27247,   0.00088,275604983.91228,   0.00067,  -0.00030,   0.00100,   0.00000,   2.00000
526024552.56923,173777993.76937,59770428.51802,   0.00273,  -0.00053,   0.00178,477278835.69173,   0.00089,275611860.63947,   0.00068,  -0.00030,   0.00100,  -0.00000,   2.00000
526895337.25771,176114003.82887,58799069.68914,   0.00274,  -0.00052,   0.00177,477288628.89061,   0.00090,275618737.13539,   0.00069,  -0.00030,   0.00100,   0.00000,   2.00000
527750545.01967,178454192.56713,57828892.54698,   0.00275,  -0.00052,   0.00176,477313226.30864,   0.00090,275625673.89138,   0.00069,  -0.00030,   0.00101,   0.00000,   2.00000
528586712.96217,180781972.61613,56860463.09436,   0.00275,  -0.00051,   0.00175,477334150.24520,   0.00091,275632655.38131,   0.00070,  -0.00030,   0.00101,   0.00000,   2.00000
529410448.34100,183129876.80415,55892849.27807,   0.00276,  -0.00050,   0.00174,477362806.76842,   0.00092,275639712.60679,   0.00071,  -0.00030,   0.00101,  -0.00000,   2.00000
530214983.53270,185477557.66381,54933242.58277,   0.00277,  -0.00049,   0.00173,477374773.74027,   0.00092,275646776.92494,   0.00072,  -0.00030,   0.00102,   0.00000,   2.00000
531004867.37613,187831657.14803,53973187.29080,   0.00277,  -0.00049,   0.00172,477414672.78644,   0.00093,275653961.66769,   0.00072,  -0.00031,   0.00102,   0.00000,   2.00000
531777343.63799,190185716.33151,53016447.94282,   0.00278,  -0.00048,   0.00171,477425127.37163,   0.00094,275661146.33420,   0.00073,  -0.00031,   0.00102,  -0.00000,   2.00000
532533620.15908,192542605.66312,52061238.27339,   0.00279,  -0.00047,   0.00170,477450490.13499,   0.00094,275668391.17006,   0.00074,  -0.00031,   0.00102,  -0.00000,   2.00000
533268974.19792,194885474.91565,51112908.03028,   0.00279,  -0.00046,   0.00169,477473390.77494,   0.00095,275675685.71748,   0.00075,  -0.00031,   0.00103,  -0.00000,   2.00000
533989784.26747,197244105.11159,50167466.23142,   0.00280,  -0.00045,   0.00168,477488243.32548,   0.00096,275682996.93280,   0.00076,  -0.00031,   0.00103,   0.00000,   2.00000
534695250.25636,199607627.29654,49222007.66529,   0.00281,  -0.00045,   0.00167,477528820.64966,   0.00096,275690428.12218,   0.00076,  -0.00031,   0.00103,   0.00000,   2.00000
535383108.75560,201970387.28123,48280005.03077,   0.00281,  -0.00044,   0.00166,477539797.39482,   0.00097,275697859.27357,   0.00077,  -0.00031,   0.00104,   0.00000,   2.00000
536050181.52323,204318425.50374,47345122.87446,   0.00282,  -0.00043,   0.00165,477562759.60639,   0.00098,275705338.43082,   0.00078,  -0.00031,   0.00104,   0.00000,   2.00000
536703197.32845,206683939.73177,46411625.00051,   0.00283,  -0.00042,   0.00164,477593217.39176,   0.00098,275712895.01201,   0.00079,  -0.00032,   0.00104,  -0.00000,   2.00000
537339449.60005,209050663.96527,45480066.45864,   0.00283,  -0.00041,   0.00163,477619413.07616,   0.00099,275720511.24838,   0.00080,  -0.00032,   0.00104,   0.00000,   2.00000
537954166.05218,211399789.40450,44557380.71249,   0.00284,  -0.00040,   0.00162,477627493.22836,   0.00100,275728114.41866,   0.00081,  -0.00032,   0.00105,   0.00000,   2.00000
538555228.08374,213767812.38728,43634716.38506,   0.00285,  -0.00040,   0.00162,477673426.30409,   0.00101,275735855.04352,   0.00081,  -0.00032,   0.00105,   0.00000,   2.00000
539136430.97705,216118494.21448,42716153.73459,   0.00285,  -0.00039,   0.00161,477680179.42271,   0.00101,275743576.39269,   0.00082,  -0.00032,   0.00105,   0.00000,   2.00000
539702823.06182,218485269.32169,41799275.26208,   0.00286,  -0.00038,   0.00160,477711539.94573,   0.00102,275751375.95013,   0.00083,  -0.00032,   0.00105,   0.00000,   2.00000
540248049.78933,220834087.69086,40891380.04687,   0.00287,  -0.00037,   0.00159,477719621.86658,   0.00103,275759160.99624,   0.00084,  -0.00032,   0.00106,   0.00000,   2.00000
540778922.32478,223200379.47516,39983856.76635,   0.00287,  -0.00036,   0.00158,477766282.86790,   0.00103,275767083.72825,   0.00085,  -0.00032,   0.00106,   0.00000,   2.00000
541288832.34210,225548500.51899,39085378.91797,   0.00288,  -0.00035,   0.00157,477774380.81451,   0.00104,275774991.10155,   0.00086,  -0.00032,   0.00106,  -0.00000,   2.00000
541785412.06537,227913796.81786,38182595.28840,   0.00289,  -0.00034,   0.00156,477820210.73572,   0.00105,275783031.36125,   0.00087,  -0.00032,   0.00106,  -0.00000,   2.00000
542260610.21250,230259070.76424,37290247.19124,   0.00289,  -0.00034,   0.00155,477813323.48681,   0.00106,275790996.59873,   0.00087,  -0.00033,   0.00107,  -0.00000,   2.00000
542718002.11115,232604604.36530,36403947.97566,   0.00290,  -0.00033,   0.00154,477856554.68942,   0.00106,275799083.55219,   0.00088,  -0.00033,   0.00107,  -0.00000,   2.00000
543159545.04734,234949421.76366,35515317.50730,   0.00291,  -0.00032,   0.00153,477882624.71542,   0.00107,275807224.05378,   0.00089,  -0.00033,   0.00107,   0.00000,   2.00000
543580932.10959,237290549.02773,34640304.23392,   0.00291,  -0.00031,   0.00152,477897108.91364,   0.00108,275815372.41033,   0.00090,  -0.00033,   0.00107,   0.00000,   2.00000
543986404.84321,239630559.50546,33763030.44818,   0.00292,  -0.00030,   0.00151,477923368.35165,   0.00109,275823574.26081,   0.00091,  -0.00033,   0.00107,   0.00000,   2.00000
544373482.96734,241968320.25826,32893354.33906,   0.00293,  -0.00029,   0.00150,477951906.50030,   0.00109,275831837.92058,   0.00092,  -0.00033,   0.00108,   0.00000,   2.00000
544743348.62801,244304028.90360,32026433.63708,   0.00293,  -0.00028,   0.00149,477979486.03935,   0.00110,275840159.06527,   0.00093,  -0.00033,   0.00108,   0.00000,   2.00000
545095580.67869,246636385.52860,31163441.60787,   0.00294,  -0.00027,   0.00149,477992105.22497,   0.00111,275848479.28136,   0.00094,  -0.00033,   0.00108,   0.00000,   2.00000
545428516.28680,248950949.80432,30308613.42973,   0.00294,  -0.00026,   0.00148,478015069.58964,   0.00112,275856838.50443,   0.00095,  -0.00033,   0.00108,   0.00000,   2.00000
545745253.43943,251277850.40204,29456272.89016,   0.00295,  -0.00025,   0.00147,478048567.30532,   0.00113,275865276.77558,   0.00096,  -0.00033,   0.00108,   0.00000,   2.00000
546042906.96062,253586616.57900,28612198.80821,   0.00296,  -0.00024,   0.00146,478071543.91220,   0.00113,275873753.03625,   0.00097,  -0.00033,   0.00109,  -0.00000,   2.00000
546324197.36758,255907125.71534,27770733.13767,   0.00296,  -0.00023,   0.00145,478105368.41598,   0.00114,275882308.37167,   0.00098,  -0.00033,   0.00109,  -0.00000,   2.00000
546587317.75887,258208905.38689,26933681.13677,   0.00297,  -0.00022,   0.00144,478112406.36387,   0.00115,275890839.66577,   0.00099,  -0.00033,   0.00109,   0.00000,   2.00000
546832407.77625,260506912.40792,26104638.14812,   0.00298,  -0.00021,   0.00143,478141278.53817,   0.00116,275899430.39558,   0.00100,  -0.00033,   0.00109,   0.00000,   2.00000
547060911.93827,262815852.67927,25278358.95514,   0.00298,  -0.00020,   0.00142,478175541.79238,   0.00116,275908100.42076,   0.00101,  -0.00033,   0.00109,   0.00000,   2.00000
547270920.92933,265105914.31107,24460563.53428,   0.00299,  -0.00019,   0.00141,478198489.63270,   0.00117,275916806.10581,   0.00102,  -0.00033,   0.00110,  -0.00000,   2.00000
547464230.90598,267377502.74461,23642276.68209,   0.00299,  -0.00018,   0.00140,478204674.92876,   0.00118,275925483.59372,   0.00103,  -0.00033,   0.00110,   0.00000,   2.00000
547639221.36672,269658680.03379,22836779.59864,   0.00300,  -0.00017,   0.00140,478240704.80893,   0.00119,275934245.91590,   0.00104,  -0.00033,   0.00110,  -0.00000,   2.00000
547798048.26487,271935743.01620,22029650.58284,   0.00301,  -0.00016,   0.00139,478268431.31391,   0.00120,275943060.93192,   0.00105,  -0.00033,   0.00110,  -0.00000,   2.00000
547938336.31974,274207444.76162,21235769.27116,   0.00301,  -0.00015,   0.00138,478298348.02250,   0.00121,275951936.40953,   0.00106,  -0.00033,   0.00110,   0.00000,   2.00000
548062475.62879,276460406.59397,20440665.19997,   0.00302,  -0.00014,   0.00137,478319764.59596,   0.00121,275960839.91929,   0.00107,  -0.00033,   0.00110,   0.00000,   2.00000
548168951.99891,278708155.97104,19654674.43271,   0.00303,  -0.00013,   0.00136,478333895.90702,   0.00122,275969743.83813,   0.00108,  -0.00033,   0.00110,   0.00000,   2.00000
548258720.38289,280950800.51762,18872154.38881,   0.00303,  -0.00012,   0.00135,478362500.13097,   0.00123,275978702.29545,   0.00109,  -0.00033,   0.00111,   0.00000,   2.00000
548330985.27682,283188048.79959,18098755.23729,   0.00304,  -0.00011,   0.00134,478376700.96103,   0.00124,275987660.97882,   0.00110,  -0.00033,   0.00111,   0.00000,   2.00000
548386791.98792,285419530.41687,17328260.21402,   0.00304,  -0.00010,   0.00133,478420492.41282,   0.00125,275996730.15717,   0.00111,  -0.00033,   0.00111,   0.00000,   2.00000
548425253.35700,287645359.24818,16566922.21875,   0.00305,  -0.00009,   0.00133,478434816.99264,   0.00126,276005799.26033,   0.00112,  -0.00033,   0.00111,   0.00000,   2.00000
548447203.52500,289865299.10170,15809198.12956,   0.00306,  -0.00008,   0.00132,478463695.28274,   0.00126,276014922.26919,   0.00113,  -0.00033,   0.00111,   0.00000,   2.00000
548452675.91779,292065199.84565,15060342.83405,   0.00306,  -0.00007,   0.00131,478486166.43197,   0.00127,276024075.08790,   0.00114,  -0.00033,   0.00111,  -0.00000,   2.00000
548441749.97164,294259586.57996,14315690.54677,   0.00307,  -0.00006,   0.00130,478499999.49387,   0.00128,276033225.50408,   0.00115,  -0.00033,   0.00111,   0.00000,   2.00000
548414763.04958,296447020.24085,13574258.33847,   0.00307,  -0.00005,   0.00129,478543981.79908,   0.00129,276042484.70760,   0.00116,  -0.00033,   0.00111,  -0.00000,   2.00000
548370982.75709,298628437.01629,12842033.33526,   0.00308,  -0.00004,   0.00128,478558429.34532,   0.00130,276051743.09048,   0.00117,  -0.00033,   0.00112,   0.00000,   2.00000
548310959.68428,300804011.80034,12114031.98335,   0.00309,  -0.00003,   0.00127,478572485.54411,   0.00131,276060999.19089,   0.00118,  -0.00033,   0.00112,   0.00000,   2.00000
548234649.80143,302971663.24645,11394382.05269,   0.00309,  -0.00002,   0.00127,478617004.68463,   0.00132,276070364.65278,   0.00119,  -0.00033,   0.00112,   0.00000,   2.00000
548143225.58041,305119980.04783,10679165.91679,   0.00310,  -0.00001,   0.00126,478623863.51990,   0.00132,276079700.96998,   0.00120,  -0.00033,   0.00112,   0.00000,   2.00000
548035692.11776,307261097.22699,9972775.49064,   0.00310,   0.00000,   0.00125,478653311.91850,   0.00133,276089090.79859,   0.00121,  -0.00033,   0.00112,   0.00000,   2.00000
547912515.58616,309395013.29245,9270273.86730,   0.00311,   0.00001,   0.00124,478682495.65911,   0.00134,276098532.73880,   0.00122,  -0.00033,   0.00112,   0.00000,   2.00000
547773243.15171,311522564.33500,8576975.90513,   0.00312,   0.00002,   0.00123,478697054.21374,   0.00135,276107973.22573,   0.00123,  -0.00032,   0.00112,   0.00000,   2.00000
547618482.52424,313642599.23159,7887604.06871,   0.00312,   0.00004,   0.00122,478726335.87678,   0.00136,276117465.65588,   0.00124,  -0.00032,   0.00112,  -0.00000,   2.00000
547449644.49060,315742048.82746,7202338.05228,   0.00313,   0.00005,   0.00122,478748039.20881,   0.00137,276126982.31625,   0.00125,  -0.00032,   0.00112,   0.00000,   2.00000
547265347.74390,317833661.27568,6526037.88595,   0.00313,   0.00006,   0.00121,478777556.49002,   0.00138,276136551.24331,   0.00126,  -0.00032,   0.00112,  -0.00000,   2.00000
547065483.92597,319918753.16095,5858928.77623,   0.00314,   0.00007,   0.00120,478792155.03332,   0.00139,276146118.27824,   0.00127,  -0.00032,   0.00112,  -0.00000,   2.00000
546850884.23940,321994315.03298,5195638.35612,   0.00315,   0.00008,   0.00119,478836450.40261,   0.00139,276155790.24613,   0.00129,  -0.00032,   0.00112,  -0.00000,   2.00000
546622431.16328,324052290.94336,4536836.39733,   0.00315,   0.00009,   0.00118,478828189.54385,   0.00140,276165377.85783,   0.00130,  -0.00032,   0.00112,   0.00000,   2.00000
546377705.69461,326112895.22914,3886834.00900,   0.00316,   0.00010,   0.00117,478880539.63897,   0.00141,276175098.73780,   0.00131,  -0.00032,   0.00112,  -0.00000,   2.00000
546119575.83116,328154243.64881,3246071.93344,   0.00316,   0.00011,   0.00117,478887295.64671,   0.00142,276184789.05886,   0.00132,  -0.00031,   0.00112,   0.00000,   2.00000
545846955.16253,330187165.39958,2609380.60067,   0.00317,   0.00013,   0.00116,478916734.44362,   0.00143,276194529.98650,   0.00133,  -0.00031,   0.00112,  -0.00000,   2.00000
545561812.10042,332199223.86703,1976838.14184,   0.00318,   0.00014,   0.00115,478938108.04826,   0.00144,276204292.58462,   0.00134,  -0.00031,   0.00113,   0.00000,   2.00000
545262043.47623,334204609.12044,1353441.07588,   0.00318,   0.00015,   0.00114,478952755.04388,   0.00145,276214052.83053,   0.00135,  -0.00031,   0.00113,   0.00000,   2.00000
544946551.23598,336211407.61189,739080.17813,   0.00319,   0.00016,   0.00113,479005342.95600,   0.00146,276223945.18398,   0.00136,  -0.00031,   0.00113,  -0.00000,   2.00000
544620736.53656,338187147.94432,128883.14866,   0.00319,   0.00017,   0.00113,479003556.06704,   0.00147,276233776.55549,   0.00137,  -0.00031,   0.00113,  -0.00000,   2.00000
544278592.12075,340168167.12254,-477178.79851,   0.00320,   0.00018,   0.00112,479026568.04586,   0.00148,276243634.89449,   0.00138,  -0.00030,   0.00113,   0.00000,   2.00000
543925363.12901,342126043.71923,-1074095.99042,   0.00320,   0.00019,   0.00111,479062519.86583,   0.00149,276253565.78898,   0.00140,  -0.00030,   0.00113,   0.00000,   2.00000
543558186.33308,344077110.16863,-1661937.20976,   0.00321,   0.00021,   0.00110,479077245.57373,   0.00150,276263494.10340,   0.00141,  -0.00030,   0.00112,  -0.00000,   2.00000
543177080.82822,346021297.62984,-2245706.14633,   0.00321,   0.00022,   0.00110,479092051.55724,   0.00150,276273420.19876,   0.00142,  -0.00030,   0.00112,   0.00000,   2.00000
542785577.20445,347942187.07838,-2825268.34118,   0.00322,   0.00023,   0.00109,479127800.64500,   0.00151,276283417.66907,   0.00143,  -0.00029,   0.00112,   0.00000,   2.00000
542380529.14478,349856279.42562,-3395790.88705,   0.00323,   0.00024,   0.00108,479142538.63917,   0.00152,276293412.59004,   0.00144,  -0.00029,   0.00112,   0.00000,   2.00000
541962651.64059,351761075.93788,-3957177.25334,   0.00323,   0.00025,   0.00107,479171996.16042,   0.00153,276303456.43768,   0.00145,  -0.00029,   0.00112,   0.00000,   2.00000
541534498.36607,353644971.83911,-4514489.05243,   0.00324,   0.00027,   0.00106,479192840.13851,   0.00154,276313519.05790,   0.00146,  -0.00029,   0.00112,   0.00000,   2.00000
541093056.93461,355522011.26014,-5067795.64014,   0.00324,   0.00028,   0.00106,479207717.34962,   0.00155,276323579.65039,   0.00147,  -0.00028,   0.00112,   0.00000,   2.00000
540639476.97774,357389735.22144,-5606993.31480,   0.00325,   0.00029,   0.00105,479236962.23957,   0.00156,276333688.18841,   0.00149,  -0.00028,   0.00112,   0.00000,   2.00000
540173326.48223,359247676.23214,-6146997.08633,   0.00325,   0.00030,   0.00104,479266753.18589,   0.00157,276343846.33297,   0.00150,  -0.00028,   0.00112,  -0.00000,   2.00000
539697367.26355,361087774.39230,-6673264.52281,   0.00326,   0.00031,   0.00103,479272424.21257,   0.00158,276353970.52443,   0.00151,  -0.00028,   0.00112,   0.00000,   2.00000
539209935.34827,362915235.47613,-7200095.83142,   0.00326,   0.00033,   0.00103,479316792.08512,   0.00159,276364194.70919,   0.00152,  -0.00027,   0.00112,   0.00000,   2.00000
538712323.41720,364727986.76514,-7713532.16718,   0.00327,   0.00034,   0.00102,479307713.40765,   0.00160,276374334.21761,   0.00153,  -0.00027,   0.00112,   0.00000,   2.00000
538203883.90793,366528139.29461,-8222560.71485,   0.00328,   0.00035,   0.00101,479351764.14177,   0.00161,276384572.51739,   0.00154,  -0.00027,   0.00112,   0.00000,   2.00000
537682975.53248,368321420.63387,-8727748.12322,   0.00328,   0.00036,   0.00100,479366800.68482,   0.00162,276394809.41583,   0.00155,  -0.00026,   0.00112,   0.00000,   2.00000
537153944.05260,370094287.25711,-9224035.77797,   0.00329,   0.00038,   0.00100,479386876.83296,   0.00163,276405062.42925,   0.00156,  -0.00026,   0.00112,  -0.00000,   2.00000
536614028.76745,371857539.41693,-9711244.76999,   0.00329,   0.00039,   0.00099,479416093.37917,   0.00164,276415362.85276,   0.00158,  -0.00026,   0.00112,   0.00000,   2.00000
536063040.19307,373610862.19799,-10194344.11703,   0.00330,   0.00040,   0.00098,479445647.58277,   0.00165,276425711.65952,   0.00159,  -0.00025,   0.00112,   0.00000,   2.00000
535503191.99228,375346846.11093,-10673940.92095,   0.00330,   0.00041,   0.00098,479451396.28367,   0.00166,276436027.57039,   0.00160,  -0.00025,   0.00111,  -0.00000,   2.00000
534932947.66063,377073142.21611,-11144469.79352,   0.00331,   0.00043,   0.00097,479480580.67535,   0.00167,276446390.73587,   0.00161,  -0.00025,   0.00111,   0.00000,   2.00000
534351320.06069,378792923.71322,-11606364.13750,   0.00331,   0.00044,   0.00096,479495368.83395,   0.00168,276456752.03053,   0.00162,  -0.00024,   0.00111,  -0.00000,   2.00000
533762466.36421,380492380.06863,-12064478.26112,   0.00332,   0.00045,   0.00095,479515389.95021,   0.00169,276467129.48368,   0.00163,  -0.00024,   0.00111,   0.00000,   2.00000
533167079.28402,382171974.95841,-12513876.18546,   0.00332,   0.00046,   0.00095,479534897.70452,   0.00170,276477521.49985,   0.00164,  -0.00024,   0.00111,   0.00000,   2.00000
532562058.43154,383841971.48039,-12954298.99545,   0.00333,   0.00048,   0.00094,479563908.05179,   0.00170,276487960.28249,   0.00165,  -0.00023,   0.00111,  -0.00000,   2.00000
531945772.64092,385505407.14786,-13391187.69433,   0.00333,   0.00049,   0.00093,479579033.00949,   0.00171,276498398.77155,   0.00167,  -0.00023,   0.00111,   0.00000,   2.00000
531319625.15871,387158765.07992,-13824067.92810,   0.00334,   0.00050,   0.00093,479608534.54113,   0.00172,276508885.62552,   0.00168,  -0.00022,   0.00111,  -0.00000,   2.00000
530687763.93490,388792469.29517,-14248331.48065,   0.00334,   0.00051,   0.00092,479627834.80049,   0.00173,276519386.44280,   0.00169,  -0.00022,   0.00110,   0.00000,   2.00000
530049006.66696,390410275.66130,-14664545.69316,   0.00335,   0.00053,   0.00091,479632720.11843,   0.00174,276529852.89998,   0.00170,  -0.00022,   0.00110,  -0.00000,   2.00000
529400912.41116,392018150.00300,-15076827.93885,   0.00335,   0.00054,   0.00091,479662080.65822,   0.00175,276540367.56849,   0.00171,  -0.00021,   0.00110,   0.00000,   2.00000
528744152.39622,393616384.21926,-15480230.84147,   0.00336,   0.00055,   0.00090,479691012.73485,   0.00176,276550928.88010,   0.00172,  -0.00021,   0.00110,   0.00000,   2.00000
528082567.59466,395195406.92640,-15875178.13484,   0.00337,   0.00057,   0.00089,479709960.10598,   0.00177,276561503.38044,   0.00173,  -0.00020,   0.00110,   0.00000,   2.00000
527414209.61051,396758728.86036,-16267228.02530,   0.00337,   0.00058,   0.00088,479715103.80404,   0.00178,276572045.08961,   0.00174,  -0.00020,   0.00110,   0.00000,   2.00000
526733404.77035,398321556.98227,-16655003.94494,   0.00338,   0.00059,   0.00088,479754483.94506,   0.00179,276582668.61507,   0.00176,  -0.00019,   0.00109,  -0.00000,   2.00000
526050381.97211,399859878.90812,-17035417.09806,   0.00338,   0.00060,   0.00087,479749015.82102,   0.00180,276593224.25481,   0.00177,  -0.00019,   0.00109,   0.00000,   2.00000
525361337.48148,401385010.65887,-17406477.65071,   0.00339,   0.00062,   0.00086,479791804.08256,   0.00181,276603873.30550,   0.00178,  -0.00018,   0.00109,  -0.00000,   2.00000
524662243.33313,402904118.75768,-17774368.16782,   0.00339,   0.00063,   0.00086,479807018.78684,   0.00182,276614523.68449,   0.00179,  -0.00018,   0.00109,  -0.00000,   2.00000
523957633.29194,404408547.29860,-18134632.21436,   0.00340,   0.00064,   0.00085,479811464.14205,   0.00183,276625139.85741,   0.00180,  -0.00017,   0.00109,   0.00000,   2.00000
523247609.50993,405899705.60132,-18485592.51475,   0.00340,   0.00066,   0.00085,479854141.19949,   0.00184,276635849.05070,   0.00181,  -0.00017,   0.00109,  -0.00000,   2.00000
522531760.75855,407376020.74780,-18833983.17534,   0.00341,   0.00067,   0.00084,479859058.29708,   0.00185,276646525.88300,   0.00182,  -0.00016,   0.00108,   0.00000,   2.00000
521808249.76668,408842566.52970,-19178680.81822,   0.00341,   0.00068,   0.00083,479888268.46521,   0.00186,276657251.12911,   0.00183,  -0.00016,   0.00108,   0.00000,   2.00000
521080468.35243,410295520.64765,-19511010.09154,   0.00341,   0.00070,   0.00083,479891910.48076,   0.00187,276667940.23126,   0.00184,  -0.00015,   0.00108,   0.00000,   2.00000
520349345.25486,411730079.34298,-19840251.93852,   0.00342,   0.00071,   0.00082,479910567.86791,   0.00188,276678643.24515,   0.00186,  -0.00015,   0.00108,   0.00000,   2.00000
519611015.70568,413155052.99218,-20165897.76626,   0.00342,   0.00072,   0.00081,479939660.00702,   0.00189,276689394.70541,   0.00187,  -0.00014,   0.00108,  -0.00000,   2.00000
518868161.64438,414566459.10958,-20484264.05466,   0.00343,   0.00074,   0.00081,479943715.26973,   0.00190,276700112.11541,   0.00188,  -0.00014,   0.00107,   0.00000,   2.00000
518121361.19257,415964762.94940,-20793452.20511,   0.00343,   0.00075,   0.00080,479985965.13805,   0.00191,276710921.54043,   0.00189,  -0.00013,   0.00107,   0.00000,   2.00000
517363116.86704,417361800.92843,-21100576.64032,   0.00344,   0.00076,   0.00079,479987432.47899,   0.00192,276721688.60111,   0.00190,  -0.00013,   0.00107,   0.00000,   2.00000
516609611.07930,418728924.18191,-21399685.35679,   0.00344,   0.00078,   0.00079,480008286.81562,   0.00193,276732477.53524,   0.00191,  -0.00012,   0.00107,   0.00000,   2.00000
515847188.79768,420090924.76490,-21696087.61357,   0.00345,   0.00079,   0.00078,480023478.36421,   0.00194,276743269.83620,   0.00192,  -0.00012,   0.00106,   0.00000,   2.00000
515079113.75109,421444114.86916,-21984130.31757,   0.00345,   0.00080,   0.00078,480051799.35915,   0.00195,276754108.69283,   0.00193,  -0.00011,   0.00106,   0.00000,   2.00000
514309782.22016,422780353.65889,-22264455.82723,   0.00346,   0.00082,   0.00077,480069314.99041,   0.00196,276764958.74788,   0.00194,  -0.00010,   0.00106,   0.00000,   2.00000
513536023.99954,424103518.66066,-22542804.57850,   0.00346,   0.00083,   0.00076,480073726.69200,   0.00197,276775777.34528,   0.00195,  -0.00010,   0.00106,   0.00000,   2.00000
512757043.62688,425418096.20646,-22812901.65061,   0.00347,   0.00084,   0.00076,480101920.93551,   0.00198,276786642.53298,   0.00196,  -0.00009,   0.00105,   0.00000,   2.00000
511976522.31777,426715533.25593,-23080331.47097,   0.00347,   0.00086,   0.00075,480119918.79795,   0.00199,276797521.06484,   0.00197,  -0.00009,   0.00105,  -0.00000,   2.00000
511193434.78999,428001624.54437,-23336079.09569,   0.00348,   0.00087,   0.00075,480122745.67878,   0.00201,276808363.60236,   0.00199,  -0.00008,   0.00105,   0.00000,   2.00000
510403959.54954,429278074.30200,-23593546.36157,   0.00348,   0.00089,   0.00074,480152286.87648,   0.00202,276819257.60029,   0.00200,  -0.00007,   0.00105,  -0.00000,   2.00000
509614978.42855,430539080.12013,-23838622.09543,   0.00349,   0.00090,   0.00073,480168595.17511,   0.00203,276830159.94333,   0.00201,  -0.00007,   0.00104,   0.00000,   2.00000
508821338.66125,431787282.51044,-24086943.79766,   0.00349,   0.00091,   0.00073,480173503.58437,   0.00204,276841033.77902,   0.00202,  -0.00006,   0.00104,  -0.00000,   2.00000
508027064.88031,433023588.47534,-24321470.35881,   0.00350,   0.00093,   0.00072,480214222.68411,   0.00205,276851995.81332,   0.00203,  -0.00005,   0.00104,   0.00000,   2.00000
507226097.54720,434252451.23953,-24555244.68017,   0.00350,   0.00094,   0.00072,480204860.16482,   0.00206,276862883.19797,   0.00204,  -0.00005,   0.00104,  -0.00000,   2.00000
506428472.68212,435461365.60266,-24780908.25918,   0.00350,   0.00095,   0.00071,480235034.63033,   0.00207,276873824.84668,   0.00205,  -0.00004,   0.00103,   0.00000,   2.00000
505622874.40033,436666159.28750,-25004391.53777,   0.00351,   0.00097,   0.00071,480250257.97187,   0.00208,276884772.20391,   0.00206,  -0.00003,   0.00103,   0.00000,   2.00000
504817830.25758,437855698.89974,-25220668.70367,   0.00351,   0.00098,   0.00070,480266884.05969,   0.00209,276895730.01868,   0.00207,  -0.00003,   0.00103,   0.00000,   2.00000
504013499.48421,439030193.11028,-25429802.61360,   0.00352,   0.00099,   0.00069,480283398.35378,   0.00210,276906698.10659,   0.00208,  -0.00002,   0.00103,   0.00000,   2.00000
503201366.17058,440200804.47657,-25636883.02177,   0.00352,   0.00101,   0.00069,480298627.11123,   0.00211,276917672.44355,   0.00209,  -0.00001,   0.00102,   0.00000,   2.00000
502390179.58358,441356571.57698,-25836894.80115,   0.00353,   0.00102,   0.00068,480315053.67855,   0.00212,276928657.09680,   0.00210,  -0.00001,   0.00102,  -0.00000,   2.00000
501575815.81586,442501502.21161,-26035659.04563,   0.00353,   0.00104,   0.00068,480318904.90272,   0.00213,276939611.61258,   0.00211,   0.00000,   0.00102,   0.00000,   2.00000
500766107.56731,443627389.98057,-26226569.22092,   0.00354,   0.00105,   0.00067,480348402.34164,   0.00214,276950619.18145,   0.00212,   0.00001,   0.00101,   0.00000,   2.00000
499949683.03252,444750514.63842,-26410669.47220,   0.00354,   0.00106,   0.00067,480362790.23640,   0.00215,276961630.95090,   0.00213,   0.00002,   0.00101,   0.00000,   2.00000
499134847.38318,445856368.15399,-26594431.47762,   0.00354,   0.00108,   0.00066,480355023.99889,   0.00216,276972575.70975,   0.00214,   0.00002,   0.00101,   0.00000,   2.00000
498316001.28910,446957256.83352,-26768926.54602,   0.00355,   0.00109,   0.00066,480407285.73886,   0.00217,276983647.40288,   0.00215,   0.00003,   0.00100,  -0.00000,   2.00000
497499786.38741,448042023.94830,-26938287.36584,   0.00355,   0.00111,   0.00065,480398585.36326,   0.00218,276994649.28966,   0.00216,   0.00004,   0.00100,   0.00000,   2.00000
496684487.79652,449112306.18923,-27105811.21961,   0.00356,   0.00112,   0.00065,480415296.14089,   0.00219,277005663.73074,   0.00217,   0.00004,   0.00100,   0.00000,   2.00000
495862689.21750,450180298.11186,-27266719.16747,   0.00356,   0.00113,   0.00064,480429634.59125,   0.00220,277016683.18213,   0.00218,   0.00005,   0.00100,   0.00000,   2.00000
495041992.20146,451233973.50894,-27425860.42997,   0.00357,   0.00115,   0.00064,480446287.88265,   0.00221,277027715.29292,   0.00219,   0.00006,   0.00099,   0.00000,   2.00000
494223404.38151,452274315.51690,-27578360.18795,   0.00357,   0.00116,   0.00063,480461997.41799,   0.00222,277038757.16510,   0.00220,   0.00007,   0.00099,  -0.00000,   2.00000
493407041.85528,453301515.06023,-27724279.57123,   0.00357,   0.00118,   0.00063,480477613.71470,   0.00223,277049808.64384,   0.00221,   0.00008,   0.00099,   0.00000,   2.00000
492583448.03351,454325968.14129,-27868653.73170,   0.00358,   0.00119,   0.00062,480492811.54851,   0.00224,277060868.51507,   0.00222,   0.00008,   0.00098,  -0.00000,   2.00000
491766925.09102,455331148.25424,-28007340.73889,   0.00358,   0.00120,   0.00062,480496547.46953,   0.00225,277071900.15200,   0.00223,   0.00009,   0.00098,   0.00000,   2.00000
490944116.26701,456334607.74633,-28139655.27123,   0.00359,   0.00122,   0.00061,480510827.62413,   0.00226,277082937.65180,   0.00224,   0.00010,   0.00098,   0.00000,   2.00000
490127140.21646,457319898.95958,-28269555.07853,   0.00359,   0.00123,   0.00061,480540020.15115,   0.00227,277094029.04778,   0.00225,   0.00011,   0.00097,   0.00000,   2.00000
489308656.28933,458297460.92099,-28393992.12995,   0.00359,   0.00125,   0.00060,480542438.31752,   0.00228,277105088.41288,   0.00226,   0.00011,   0.00097,   0.00000,   2.00000
488487756.35645,459266577.79593,-28517908.84505,   0.00360,   0.00126,   0.00060,480545705.31588,   0.00229,277116118.78891,   0.00227,   0.00012,   0.00097,  -0.00000,   2.00000
487674008.35896,460218819.15994,-28634600.59833,   0.00360,   0.00127,   0.00059,480573709.00019,   0.00231,277127199.73838,   0.00228,   0.00013,   0.00096,   0.00000,   2.00000
486854130.73852,461169788.20927,-28745105.58622,   0.00361,   0.00129,   0.00059,480587977.68412,   0.00232,277138287.18532,   0.00229,   0.00014,   0.00096,   0.00000,   2.00000
486036628.09120,462106739.26517,-28856083.27186,   0.00361,   0.00130,   0.00058,480579176.41537,   0.00233,277149307.42407,   0.00230,   0.00015,   0.00096,  -0.00000,   2.00000
485221950.71208,463033116.89699,-28959088.09954,   0.00361,   0.00132,   0.00058,480618938.01624,   0.00234,277160416.34004,   0.00231,   0.00016,   0.00095,   0.00000,   2.00000
484410640.95417,463946801.15238,-29057766.23883,   0.00362,   0.00133,   0.00057,480609077.03562,   0.00235,277171454.92021,   0.00232,   0.00016,   0.00095,   0.00000,   2.00000
483596910.00896,464853982.09031,-29154380.94147,   0.00362,   0.00134,   0.00057,480636901.49713,   0.00236,277182544.18560,   0.00233,   0.00017,   0.00095,   0.00000,   2.00000
482781848.38813,465754552.05704,-29245862.19910,   0.00363,   0.00136,   0.00056,480639046.70850,   0.00237,277193601.93210,   0.00234,   0.00018,   0.00094,  -0.00000,   2.00000
481974830.73439,466639164.31491,-29330414.28184,   0.00363,   0.00137,   0.00056,480666456.36805,   0.00238,277204709.22349,   0.00235,   0.00019,   0.00094,   0.00000,   2.00000
481170339.04317,467511027.51430,-29415724.89846,   0.00363,   0.00139,   0.00056,480657234.41669,   0.00239,277215748.92372,   0.00236,   0.00020,   0.00094,  -0.00000,   2.00000
480359805.93853,468382379.36718,-29495125.82862,   0.00364,   0.00140,   0.00055,480671388.69686,   0.00240,277226796.13372,   0.00237,   0.00021,   0.00093,   0.00000,   2.00000
479556731.24179,469237293.41277,-29572596.84727,   0.00364,   0.00141,   0.00055,480699455.65631,   0.00241,277237895.45232,   0.00237,   0.00021,   0.00093,   0.00000,   2.00000
478752397.93491,470086360.20827,-29645126.68747,   0.00365,   0.00143,   0.00054,480701399.51681,   0.00242,277248963.33573,   0.00238,   0.00022,   0.00093,   0.00000,   2.00000
477946784.58287,470929673.13557,-29712761.76731,   0.00365,   0.00144,   0.00054,480703311.79476,   0.00243,277259999.92498,   0.00239,   0.00023,   0.00092,  -0.00000,   2.00000
477149867.41077,471757850.23282,-29773697.69057,   0.00365,   0.00146,   0.00053,480730187.35355,   0.00244,277271085.19199,   0.00240,   0.00024,   0.00092,   0.00000,   2.00000
476350767.58555,472579669.76888,-29834731.24762,   0.00366,   0.00147,   0.00053,480732955.93923,   0.00245,277282142.11756,   0.00241,   0.00025,   0.00092,   0.00000,   2.00000
475554565.25841,473390479.04212,-29894939.32722,   0.00366,   0.00148,   0.00053,480748152.37093,   0.00246,277293210.63643,   0.00242,   0.00026,   0.00091,   0.00000,   2.00000
474758016.78324,474197004.63174,-29945495.07406,   0.00366,   0.00150,   0.00052,480748991.16812,   0.00247,277304244.94639,   0.00243,   0.00027,   0.00091,   0.00000,   2.00000
473964443.13040,474992743.56300,-29995323.12119,   0.00367,   0.00151,   0.00052,480764076.23028,   0.00248,277315290.79114,   0.00244,   0.00028,   0.00091,   0.00000,   2.00000
473178637.47049,475772753.94632,-30045364.31200,   0.00367,   0.00153,   0.00051,480766656.84948,   0.00249,277326308.35532,   0.00245,   0.00028,   0.00090,  -0.00000,   2.00000
472392088.44599,476548352.52348,-30088882.39207,   0.00368,   0.00154,   0.00051,480793081.11788,   0.00250,277337373.93583,   0.00246,   0.00029,   0.00090,   0.00000,   2.00000
471604249.51074,477319258.40758,-30127789.26968,   0.00368,   0.00156,   0.00051,480794737.45977,   0.00251,277348408.42288,   0.00246,   0.00030,   0.00090,   0.00000,   2.00000
470825213.27560,478075864.56445,-30162143.18893,   0.00368,   0.00157,   0.00050,480796143.65477,   0.00252,277359411.22475,   0.00247,   0.00031,   0.00089,  -0.00000,   2.00000
470044624.54218,478827329.46795,-30194992.88764,   0.00369,   0.00158,   0.00050,480823426.95836,   0.00254,277370465.14480,   0.00248,   0.00032,   0.00089,   0.00000,   2.00000
469267434.46321,479569591.26480,-30224276.67208,   0.00369,   0.00160,   0.00049,480812434.72926,   0.00255,277381447.97973,   0.00249,   0.00033,   0.00089,   0.00000,   2.00000
468488759.51980,480306820.49767,-30252101.02119,   0.00369,   0.00161,   0.00049,480839673.72776,   0.00256,277392482.07080,   0.00250,   0.00034,   0.00088,   0.00000,   2.00000
467719941.34752,481031360.01295,-30270614.09217,   0.00370,   0.00163,   0.00049,480839839.47361,   0.00257,277403480.91631,   0.00251,   0.00035,   0.00088,   0.00000,   2.00000
466953521.07918,481745364.55424,-30293596.15443,   0.00370,   0.00164,   0.00048,480855333.88895,   0.00258,277414493.68391,   0.00252,   0.00036,   0.00088,   0.00000,   2.00000
466186608.64160,482456535.42008,-30307287.91233,   0.00370,   0.00165,   0.00048,480855782.97499,   0.00259,277425472.38668,   0.00252,   0.00037,   0.00087,   0.00000,   2.00000
465427770.78995,483153670.94266,-30321570.99295,   0.00371,   0.00167,   0.00048,480857559.46216,   0.00260,277436421.47880,   0.00253,   0.00038,   0.00087,   0.00000,   2.00000
464667605.92441,483846228.80493,-30334535.75775,   0.00371,   0.00168,   0.00047,480884595.09142,   0.00261,277447421.74280,   0.00254,   0.00039,   0.00087,  -0.00000,   2.00000
463911583.13656,484531707.98937,-30339261.00436,   0.00371,   0.00170,   0.00047,480872258.48488,   0.00262,277458347.45769,   0.00255,   0.00040,   0.00086,  -0.00000,   2.00000
463154277.94778,485212692.87512,-30342751.44128,   0.00372,   0.00171,   0.00047,480899253.23079,   0.00263,277469324.44280,   0.00256,   0.00040,   0.00086,   0.00000,   2.00000
462406047.71624,485881192.84937,-30342061.66366,   0.00372,   0.00172,   0.00046,480899822.02028,   0.00264,277480268.28567,   0.00257,   0.00041,   0.00086,   0.00000,   2.00000
461661293.52354,486540929.15797,-30341152.68868,   0.00373,   0.00174,   0.00046,480913984.60407,   0.00265,277491222.55383,   0.00257,   0.00042,   0.00085,   0.00000,   2.00000
460919633.62581,487193287.07181,-30337018.42027,   0.00373,   0.00175,   0.00046,480902362.94907,   0.00266,277502105.02927,   0.00258,   0.00043,   0.00085,  -0.00000,   2.00000
460176781.36326,487841483.79519,-30331735.70521,   0.00373,   0.00177,   0.00045,480929200.05845,   0.00267,277513038.73472,   0.00259,   0.00044,   0.00085,  -0.00000,   2.00000
459437851.77290,488483498.82421,-30318387.34846,   0.00374,   0.00178,   0.00045,480916560.54158,   0.00268,277523897.59379,   0.00260,   0.00045,   0.00084,   0.00000,   2.00000
458708565.88455,489112484.70736,-30304042.67308,   0.00374,   0.00179,   0.00045,480942408.49973,   0.00269,277534804.70341,   0.00261,   0.00046,   0.00084,  -0.00000,   2.00000
457976657.58008,489737961.97468,-30290509.26418,   0.00374,   0.00181,   0.00044,480944406.83701,   0.00270,277545683.91573,   0.00261,   0.00047,   0.00084,   0.00000,   2.00000
457253863.02238,490352088.57132,-30272975.33067,   0.00375,   0.00182,   0.00044,480944409.65125,   0.00271,277556528.98995,   0.00262,   0.00048,   0.00083,   0.00000,   2.00000
456524594.71877,490968049.06800,-30250429.50628,   0.00375,   0.00183,   0.00044,480958284.42035,   0.00272,277567384.38055,   0.00263,   0.00049,   0.00083,   0.00000,   2.00000
455810746.05849,491568222.26521,-30223076.88078,   0.00375,   0.00185,   0.00043,480970004.79747,   0.00273,277578243.18372,   0.00264,   0.00050,   0.00083,  -0.00000,   2.00000
455098768.88884,492161228.52745,-30197621.35011,   0.00375,   0.00186,   0.00043,480958909.07983,   0.00274,277589032.66065,   0.00264,   0.00051,   0.00082,   0.00000,   2.00000
454380209.58777,492756264.92483,-30167220.52983,   0.00376,   0.00188,   0.00043,480972732.04627,   0.00275,277599832.64125,   0.00265,   0.00052,   0.00082,   0.00000,   2.00000
453676301.17767,493334998.38804,-30136978.48759,   0.00376,   0.00189,   0.00043,480985102.64733,   0.00276,277610638.48252,   0.00266,   0.00053,   0.00082,   0.00000,   2.00000
452971259.40201,493912881.99062,-30097923.12561,   0.00376,   0.00190,   0.00042,480984975.91237,   0.00277,277621410.30295,   0.00267,   0.00054,   0.00081,  -0.00000,   2.00000
452273541.01084,494478469.76297,-30064869.77678,   0.00377,   0.00192,   0.00042,480986352.98676,   0.00278,277632153.09313,   0.00267,   0.00055,   0.00081,   0.00000,   2.00000
451574584.23224,495043403.80074,-30023024.49865,   0.00377,   0.00193,   0.00042,480986140.67802,   0.00279,277642861.89898,   0.00268,   0.00056,   0.00081,   0.00000,   2.00000
450885792.66321,495596539.89742,-29980485.55344,   0.00377,   0.00194,   0.00041,481011146.35566,   0.00280,277653617.37675,   0.00269,   0.00057,   0.00080,   0.00000,   2.00000
450199411.35046,496144392.73623,-29935089.05601,   0.00378,   0.00196,   0.00041,480998769.55334,   0.00281,277664300.04721,   0.00270,   0.00058,   0.00080,  -0.00000,   2.00000
449509912.71602,496689907.01796,-29890766.78771,   0.00378,   0.00197,   0.00041,481000344.88499,   0.00282,277674954.78659,   0.00270,   0.00059,   0.00080,  -0.00000,   2.00000
448831557.35903,497224904.46842,-29840903.80436,   0.00378,   0.00199,   0.00041,481024190.69697,   0.00283,277685652.80348,   0.00271,   0.00060,   0.00079,   0.00000,   2.00000
448155447.11556,497754974.45522,-29788239.42610,   0.00379,   0.00200,   0.00040,481011674.05057,   0.00284,277696277.84567,   0.00272,   0.00061,   0.00079,   0.00000,   2.00000
447483731.02388,498279353.11292,-29730968.75376,   0.00379,   0.00201,   0.00040,481023785.82622,   0.00285,277706908.84229,   0.00272,   0.00062,   0.00079,   0.00000,   2.00000
446815559.66114,498797151.72315,-29674017.45271,   0.00379,   0.00203,   0.00040,481036803.71065,   0.00286,277717548.71808,   0.00273,   0.00063,   0.00078,  -0.00000,   2.00000
446149464.24787,499310357.73171,-29614315.86101,   0.00380,   0.00204,   0.00040,481024154.72820,   0.00287,277728115.46230,   0.00274,   0.00064,   0.00078,  -0.00000,   2.00000
445491432.68389,499813571.34092,-29555923.29624,   0.00380,   0.00205,   0.00039,481023845.53945,   0.00288,277738648.76674,   0.00275,   0.00065,   0.00078,   0.00000,   2.00000
444833207.34856,500315062.80952,-29492012.28409,   0.00380,   0.00207,   0.00039,481048938.08040,   0.00289,277749229.95798,   0.00275,   0.00066,   0.00077,   0.00000,   2.00000
444188397.15833,500804222.45462,-29425528.06716,   0.00380,   0.00208,   0.00039,481034385.36420,   0.00290,277759732.12727,   0.00276,   0.00067,   0.00077,   0.00000,   2.00000
443535510.99045,501295374.02720,-29359318.02105,   0.00381,   0.00209,   0.00039,481048873.41385,   0.00291,277770248.46500,   0.00277,   0.00068,   0.00077,  -0.00000,   2.00000
442891466.79619,501777939.73297,-29289586.03499,   0.00381,   0.00211,   0.00038,481047415.16095,   0.00292,277780727.92814,   0.00277,   0.00069,   0.00077,  -0.00000,   2.00000
442256217.00212,502252091.78006,-29216361.31390,   0.00381,   0.00212,   0.00038,481045847.61760,   0.00293,277791170.26970,   0.00278,   0.00070,   0.00076,   0.00000,   2.00000
441624400.38460,502720442.73819,-29143600.32678,   0.00382,   0.00213,   0.00038,481058385.47765,   0.00294,277801620.75555,   0.00279,   0.00071,   0.00076,   0.00000,   2.00000
440994154.48946,503185142.96623,-29068191.12691,   0.00382,   0.00215,   0.00038,481045316.01735,   0.00295,277811997.47175,   0.00279,   0.00072,   0.00076,   0.00000,   2.00000
440368126.02576,503645142.93596,-28988374.24594,   0.00382,   0.00216,   0.00038,481056832.83549,   0.00296,277822379.31056,   0.00280,   0.00073,   0.00075,   0.00000,   2.00000
439746304.60275,504100503.28822,-28904187.11663,   0.00382,   0.00217,   0.00037,481068331.65039,   0.00297,277832766.20221,   0.00281,   0.00074,   0.00075,   0.00000,   2.00000
439129517.77690,504548227.50593,-28823270.88197,   0.00383,   0.00219,   0.00037,481042704.60597,   0.00298,277843039.35025,   0.00281,   0.00075,   0.00075,  -0.00000,   2.00000
438518927.17651,504989365.79301,-28741126.02769,   0.00383,   0.00220,   0.00037,481079584.55083,   0.00299,277853399.18116,   0.00282,   0.00076,   0.00074,  -0.00000,   2.00000
437910396.07559,505428299.73284,-28651494.02036,   0.00383,   0.00221,   0.00037,481065411.92883,   0.00300,277863681.99193,   0.00283,   0.00077,   0.00074,  -0.00000,   2.00000
437302239.71020,505863201.73398,-28564205.71603,   0.00384,   0.00223,   0.00037,481052959.68843,   0.00301,277873893.57803,   0.00283,   0.00078,   0.00074,   0.00000,   2.00000
436710010.76875,506286241.86529,-28472757.16315,   0.00384,   0.00224,   0.00037,481061985.30857,   0.00302,277884102.86603,   0.00284,   0.00079,   0.00074,   0.00000,   2.00000
436113583.42092,506708688.96114,-28382713.54001,   0.00384,   0.00225,   0.00036,481062790.48458,   0.00303,277894283.60598,   0.00285,   0.00080,   0.00073,   0.00000,   2.00000
435521197.15395,507127060.24157,-28288380.25259,   0.00384,   0.00226,   0.00036,481073900.67099,   0.00304,277904468.89105,   0.00285,   0.00081,   0.00073,  -0.00000,   2.00000
434937237.79754,507538312.52576,-28190731.19046,   0.00385,   0.00228,   0.00036,481071546.89044,   0.00305,277914615.54678,   0.00286,   0.00082,   0.00073,   0.00000,   2.00000
434353329.69679,507946047.59698,-28095459.90672,   0.00385,   0.00229,   0.00036,481058826.45665,   0.00306,277924690.52155,   0.00286,   0.00083,   0.00072,   0.00000,   2.00000
433773375.81221,508349928.57813,-27995936.49817,   0.00385,   0.00230,   0.00036,481069760.62943,   0.00307,277934769.83466,   0.00287,   0.00084,   0.00072,   0.00000,   2.00000
433201735.05710,508746986.11732,-27893126.52036,   0.00385,   0.00232,   0.00036,481067194.11104,   0.00308,277944810.17173,   0.00288,   0.00085,   0.00072,  -0.00000,   2.00000
432637588.93190,509136424.94106,-27791948.07961,   0.00386,   0.00233,   0.00035,481065407.88464,   0.00309,277954814.14967,   0.00288,   0.00086,   0.00072,  -0.00000,   2.00000
432078054.55601,509523201.32341,-27681667.48226,   0.00386,   0.00234,   0.00035,481075300.86603,   0.00310,277964819.29174,   0.00289,   0.00087,   0.00071,   0.00000,   2.00000
431517482.35863,509905992.17631,-27578724.16314,   0.00386,   0.00235,   0.00035,481063195.47783,   0.00311,277974755.12242,   0.00289,   0.00088,   0.00071,  -0.00000,   2.00000
430965812.64263,510283291.95619,-27467606.63281,   0.00387,   0.00237,   0.00035,481059469.11574,   0.00312,277984648.66868,   0.00290,   0.00089,   0.00071,  -0.00000,   2.00000
430417149.22134,510656267.59072,-27357251.47670,   0.00387,   0.00238,   0.00035,481070928.37303,   0.00313,277994548.78710,   0.00291,   0.00090,   0.00070,   0.00000,   2.00000
429868758.53310,511027346.33293,-27244412.82343,   0.00387,   0.00239,   0.00035,481056941.44295,   0.00314,278004373.83830,   0.00291,   0.00091,   0.00070,  -0.00000,   2.00000
429327655.75919,511391347.81926,-27133256.54966,   0.00387,   0.00240,   0.00035,481054735.01796,   0.00315,278014161.84280,   0.00292,   0.00091,   0.00070,   0.00000,   2.00000
428790226.21048,511752131.31264,-27017958.56288,   0.00388,   0.00242,   0.00034,481065172.86091,   0.00316,278023953.48156,   0.00292,   0.00092,   0.00070,   0.00000,   2.00000
428260748.27304,512106933.09444,-26899455.31845,   0.00388,   0.00243,   0.00034,481062007.89508,   0.00317,278033705.04728,   0.00293,   0.00093,   0.00069,   0.00000,   2.00000
427739162.79132,512455864.08297,-26777765.49980,   0.00388,   0.00244,   0.00034,481058759.20478,   0.00318,278043416.35837,   0.00293,   0.00094,   0.00069,  -0.00000,   2.00000
427216748.49614,512802423.15947,-26658530.50222,   0.00388,   0.00245,   0.00034,481045331.71740,   0.00318,278053054.89696,   0.00294,   0.00095,   0.00069,   0.00000,   2.00000
426697866.14166,513146012.95238,-26535204.43737,   0.00389,   0.00247,   0.00034,481055543.34782,   0.00319,278062696.78410,   0.00294,   0.00096,   0.00069,  -0.00000,   2.00000
426186048.96058,513483065.64453,-26413612.32960,   0.00389,   0.00248,   0.00034,481052939.07302,   0.00320,278072300.83537,   0.00295,   0.00097,   0.00068,  -0.00000,   2.00000
425674638.45789,513819732.80072,-26284636.10472,   0.00389,   0.00249,   0.00034,481037711.43964,   0.00321,278081826.60989,   0.00296,   0.00098,   0.00068,   0.00000,   2.00000
425177554.57075,514144882.97514,-26161620.57773,   0.00389,   0.00250,   0.00034,481046628.38080,   0.00322,278091351.87285,   0.00296,   0.00099,   0.00068,   0.00000,   2.00000
424676470.59994,514472481.89716,-26030329.81595,   0.00390,   0.00251,   0.00034,481044948.59698,   0.00323,278100842.59364,   0.00297,   0.00100,   0.00068,   0.00000,   2.00000
424174183.70559,514798099.33502,-25901501.23307,   0.00390,   0.00253,   0.00034,481031232.10557,   0.00324,278110260.23398,   0.00297,   0.00101,   0.00067,   0.00000,   2.00000
423691824.79247,515111598.16350,-25769687.43169,   0.00390,   0.00254,   0.00034,481024589.25768,   0.00325,278119627.63711,   0.00298,   0.00102,   0.00067,   0.00000,   2.00000
423200341.83354,515429391.18050,-25633671.81439,   0.00390,   0.00255,   0.00034,481037271.21079,   0.00326,278129007.14572,   0.00298,   0.00103,   0.00067,  -0.00000,   2.00000
422728056.51172,515734397.15908,-25499621.39293,   0.00390,   0.00256,   0.00033,481031290.48601,   0.00327,278138338.62331,   0.00299,   0.00104,   0.00067,   0.00000,   2.00000
422246728.11093,516042862.15719,-25363777.38058,   0.00391,   0.00257,   0.00033,481005727.69013,   0.00328,278147559.31818,   0.00299,   0.00105,   0.00066,  -0.00000,   2.00000
421776821.49488,516344690.40486,-25223255.44815,   0.00391,   0.00259,   0.00033,481026139.77902,   0.00328,278156817.36341,   0.00300,   0.00106,   0.00066,   0.00000,   2.00000
421317747.62666,516638291.37303,-25085378.87094,   0.00391,   0.00260,   0.00033,481009095.12516,   0.00329,278165992.11819,   0.00300,   0.00107,   0.00066,   0.00000,   2.00000
420854115.25820,516934671.48988,-24939259.58686,   0.00391,   0.00261,   0.00033,481007094.44505,   0.00330,278175132.25614,   0.00301,   0.00108,   0.00066,   0.00000,   2.00000
420396394.04564,517224608.32773,-24799865.12081,   0.00392,   0.00262,   0.00033,481004411.59084,   0.00331,278184235.69136,   0.00301,   0.00109,   0.00065,   0.00000,   2.00000
419938172.07570,517514892.64319,-24653057.77392,   0.00392,   0.00263,   0.00033,480988608.81888,   0.00332,278193260.31224,   0.00302,   0.00110,   0.00065,   0.00000,   2.00000
419494807.71314,517795553.07097,-24507400.27081,   0.00392,   0.00264,   0.00033,480995681.40266,   0.00333,278202279.91116,   0.00302,   0.00111,   0.00065,   0.00000,   2.00000
419045988.94762,518078275.25006,-24358430.07667,   0.00392,   0.00266,   0.00033,480994325.54172,   0.00334,278211267.41444,   0.00303,   0.00111,   0.00065,   0.00000,   2.00000
418607728.67897,518353267.58296,-24212085.83903,   0.00393,   0.00267,   0.00033,480976816.28176,   0.00334,278220170.87269,   0.00303,   0.00112,   0.00065,   0.00000,   2.00000
418176458.99915,518623878.66548,-24062597.76604,   0.00393,   0.00268,   0.00033,480972205.83758,   0.00335,278229032.03811,   0.00304,   0.00113,   0.00064,   0.00000,   2.00000
417748008.15287,518892538.30879,-23909162.72532,   0.00393,   0.00269,   0.00033,480981340.28940,   0.00336,278237895.28960,   0.00304,   0.00114,   0.00064,  -0.00000,   2.00000
417322086.26895,519158689.58270,-23754051.85111,   0.00393,   0.00270,   0.00033,480952208.32583,   0.00337,278246637.36803,   0.00305,   0.00115,   0.00064,   0.00000,   2.00000
416898289.62730,519422139.64739,-23599935.01298,   0.00393,   0.00271,   0.00033,480961960.80772,   0.00338,278255383.90524,   0.00305,   0.00116,   0.00064,   0.00000,   2.00000
416485409.23309,519679104.80807,-23443489.81287,   0.00394,   0.00272,   0.00033,480943294.62611,   0.00339,278264043.27120,   0.00305,   0.00117,   0.00064,   0.00000,   2.00000
416075185.73100,519934288.27073,-23283120.78204,   0.00394,   0.00273,   0.00033,480952185.53083,   0.00340,278272704.51132,   0.00306,   0.00118,   0.00063,   0.00000,   2.00000
415666576.61731,520186443.75675,-23125959.12996,   0.00394,   0.00274,   0.00033,480923521.94175,   0.00340,278281246.61437,   0.00306,   0.00119,   0.00063,   0.00000,   2.00000
415261160.83424,520437662.89099,-22959942.65977,   0.00394,   0.00275,   0.00033,480931566.90736,   0.00341,278289788.22434,   0.00307,   0.00120,   0.00063,  -0.00000,   2.00000
414865243.29919,520681111.78964,-22801453.26903,   0.00394,   0.00277,   0.00033,480914034.45930,   0.00342,278298246.87305,   0.00307,   0.00121,   0.00063,  -0.00000,   2.00000
414472425.40955,520923719.61171,-22634106.91748,   0.00395,   0.00278,   0.00033,480921971.73173,   0.00343,278306704.89342,   0.00308,   0.00121,   0.00063,   0.00000,   2.00000
414089595.03878,521159512.64067,-22469344.96411,   0.00395,   0.00279,   0.00033,480903566.32881,   0.00344,278315077.31265,   0.00308,   0.00122,   0.00062,   0.00000,   2.00000
413704543.72296,521395625.18729,-22302021.75221,   0.00395,   0.00280,   0.00033,480887696.32891,   0.00344,278323372.59110,   0.00308,   0.00123,   0.00062,   0.00000,   2.00000
413321312.96234,521629443.10633,-22135723.89798,   0.00395,   0.00281,   0.00033,480896867.78709,   0.00345,278331671.72713,   0.00309,   0.00124,   0.00062,   0.00000,   2.00000
412949083.57198,521858165.72297,-21962102.00667,   0.00395,   0.00282,   0.00033,480876840.73813,   0.00346,278339880.45999,   0.00309,   0.00125,   0.00062,   0.00000,   2.00000
412582607.29088,522082531.82330,-21790283.22442,   0.00396,   0.00283,   0.00033,480871981.09904,   0.00347,278348047.97583,   0.00310,   0.00126,   0.00062,  -0.00000,   2.00000
412213093.37195,522306631.53754,-21620805.29679,   0.00396,   0.00284,   0.00033,480856578.96683,   0.00348,278356140.42848,   0.00310,   0.00127,   0.00061,   0.00000,   2.00000
411859164.91848,522523936.08027,-21442669.83253,   0.00396,   0.00285,   0.00033,480860680.17601,   0.00348,278364220.87032,   0.00311,   0.00127,   0.00061,  -0.00000,   2.00000
411502064.13397,522741070.24175,-21266882.03682,   0.00396,   0.00286,   0.00033,480845172.60867,   0.00349,278372226.10288,   0.00311,   0.00128,   0.00061,   0.00000,   2.00000
411142304.57202,522958776.87401,-21088476.82839,   0.00396,   0.00287,   0.00034,480828934.26646,   0.00350,278380154.02296,   0.00311,   0.00129,   0.00061,   0.00000,   2.00000
410800947.09877,523166275.34548,-20912021.15948,   0.00397,   0.00288,   0.00034,480820199.08829,   0.00351,278388028.99003,   0.00312,   0.00130,   0.00061,   0.00000,   2.00000
410453331.83379,523377252.45526,-20727268.25268,   0.00397,   0.00289,   0.00034,480817107.06586,   0.00351,278395869.41408,   0.00312,   0.00131,   0.00061,   0.00000,   2.00000
410115181.19283,523582139.65066,-20545005.94051,   0.00397,   0.00290,   0.00034,480797808.19319,   0.00352,278403623.04347,   0.00312,   0.00132,   0.00060,  -0.00000,   2.00000
409778504.15485,523785127.33392,-20363794.04889,   0.00397,   0.00291,   0.00034,480806312.06128,   0.00353,278411379.91308,   0.00313,   0.00132,   0.00060,   0.00000,   2.00000
409452243.71915,523983569.91971,-20175150.83099,   0.00397,   0.00292,   0.00034,480785595.51035,   0.00354,278419045.59707,   0.00313,   0.00133,   0.00060,   0.00000,   2.00000
409126359.62367,524180109.59234,-19989473.82011,   0.00398,   0.00293,   0.00034,480755653.26151,   0.00354,278426590.60436,   0.00314,   0.00134,   0.00060,   0.00000,   2.00000
408810781.67684,524370905.92970,-19804332.80395,   0.00398,   0.00294,   0.00034,480774282.55119,   0.00355,278434172.12034,   0.00314,   0.00135,   0.00060,   0.00000,   2.00000
408492532.22148,524563274.43125,-19611543.49033,   0.00398,   0.00295,   0.00034,480756974.77426,   0.00356,278441673.97307,   0.00314,   0.00136,   0.00060,   0.00000,   2.00000
408174494.78659,524753867.21236,-19421667.71836,   0.00398,   0.00296,   0.00034,480726845.65974,   0.00356,278449055.01295,   0.00315,   0.00136,   0.00060,   0.00000,   2.00000
407871152.65461,524937502.68664,-19228071.42584,   0.00398,   0.00297,   0.00034,480730658.29360,   0.00357,278456425.17844,   0.00315,   0.00137,   0.00059,   0.00000,   2.00000
407564443.76670,525122112.83108,-19031742.95394,   0.00398,   0.00297,   0.00035,480713767.89682,   0.00358,278463717.64329,   0.00315,   0.00138,   0.00059,   0.00000,   2.00000
407275799.76797,525297254.68723,-18837304.17257,   0.00399,   0.00298,   0.00035,480704032.08758,   0.00359,278470955.67588,   0.00316,   0.00139,   0.00059,   0.00000,   2.00000
406970710.22318,525479313.73220,-18639923.96580,   0.00399,   0.00299,   0.00035,480690705.28738,   0.00359,278478127.94233,   0.00316,   0.00140,   0.00059,   0.00000,   2.00000
406684126.18463,525652632.26339,-18439465.08616,   0.00399,   0.00300,   0.00035,480680226.06747,   0.00360,278485243.74874,   0.00316,   0.00140,   0.00059,   0.00000,   2.00000
406402538.83089,525822502.38246,-18240702.17538,   0.00399,   0.00301,   0.00035,480673953.27723,   0.00361,278492316.85039,   0.00317,   0.00141,   0.00059,   0.00000,   2.00000
406121645.89321,525992224.25290,-18034809.99214,   0.00399,   0.00302,   0.00035,480642162.53710,   0.00361,278499264.90149,   0.00317,   0.00142,   0.00059,  -0.00000,   2.00000
405841785.42136,526160443.28676,-17829986.06185,   0.00400,   0.00303,   0.00035,480649753.79699,   0.00362,278506215.59288,   0.00317,   0.00143,   0.00058,   0.00000,   2.00000
405570717.55614,526323424.63642,-17627446.29323,   0.00400,   0.00304,   0.00035,480629242.02654,   0.00363,278513078.03662,   0.00318,   0.00143,   0.00058,   0.00000,   2.00000
405296271.00089,526488205.17752,-17417099.34042,   0.00400,   0.00305,   0.00036,480611309.73971,   0.00363,278519860.86491,   0.00318,   0.00144,   0.00058,   0.00000,   2.00000
405039665.41838,526643948.84117,-17208575.88978,   0.00400,   0.00305,   0.00036,480600858.12585,   0.00364,278526588.42793,   0.00318,   0.00145,   0.00058,   0.00000,   2.00000
