# sigma_xx, sigma_yy, sigma_xy, epsilon_xx, epsilon_yy, epsilon_xy, vonMises, epsPlastic, hardening, epsilonP__xx, epsilonP__yy, epsilonP__xy, yieldValue, iteration
   0.00000,   0.00000,   0.00000,   0.00000,   0.00000,   0.00000,   0.00000,   0.00000,274640135.82653,   0.00000,   0.00000,   0.00000,-474640135.82653,   0.00000
   0.00000,   0.00000,   0.00000,   0.00000,   0.00000,   0.00000,   0.00000,   0.00000,274640135.82653,   0.00000,   0.00000,   0.00000,-474640135.82653,   0.00000
1383730.14111,-1355081.48394,63027.04576,   0.00001,  -0.00001,   0.00000,2374434.51163,   0.00000,274640135.82653,   0.00000,   0.00000,   0.00000,-472265701.31490,   0.00000
2796108.93938,-2681514.31072,126054.09153,   0.00002,  -0.00002,   0.00000,4749128.26072,   0.00000,274640135.82653,   0.00000,   0.00000,   0.00000,-469891007.56581,   0.00000
4188433.67764,-4016541.73465,183351.40586,   0.00003,  -0.00003,   0.00000,7113329.46385,   0.00000,274640135.82653,   0.00000,   0.00000,   0.00000,-467526806.36268,   0.00000
5580758.41590,-5351569.15857,246378.45163,   0.00004,  -0.00004,   0.00000,9477978.61360,   0.00000,274640135.82653,   0.00000,   0.00000,   0.00000,-465162157.21293,   0.00000
6981677.75131,-6666542.52249,309405.49739,   0.00004,  -0.00004,   0.00000,11832897.37639,   0.00000,274640135.82653,   0.00000,   0.00000,   0.00000,-462807238.45014,   0.00000
8391191.68387,-7961461.82638,366702.81172,   0.00005,  -0.00005,   0.00000,14177677.43369,   0.00000,274640135.82653,   0.00000,   0.00000,   0.00000,-460462458.39284,   0.00000
9800705.61643,-9256381.13028,424000.12605,   0.00006,  -0.00006,   0.00001,16522494.27480,   0.00000,274640135.82653,   0.00000,   0.00000,   0.00000,-458117641.55173,   0.00000
11210219.54898,-10551300.43417,487027.17182,   0.00007,  -0.00007,   0.00001,18867775.27906,   0.00000,274640135.82653,   0.00000,   0.00000,   0.00000,-455772360.54747,   0.00000
12628328.07869,-11826165.67805,544324.48615,   0.00008,  -0.00008,   0.00001,21202981.68282,   0.00000,274640135.82653,   0.00000,   0.00000,   0.00000,-453437154.14371,   0.00000
14034977.14553,-13089571.45906,601621.80048,   0.00009,  -0.00009,   0.00001,23518400.18162,   0.00000,274640135.82653,   0.00000,   0.00000,   0.00000,-451121735.64491,   0.00000
15453085.67524,-14364436.70294,658919.11481,   0.00010,  -0.00010,   0.00001,25853670.78242,   0.00000,274640135.82653,   0.00000,   0.00000,   0.00000,-448786465.04411,   0.00000
16868329.33923,-15607788.42394,716216.42915,   0.00011,  -0.00010,   0.00001,28159542.03277,   0.00000,274640135.82653,   0.00000,   0.00000,   0.00000,-446480593.79376,   0.00000
18274978.40607,-16871194.20495,773513.74348,   0.00012,  -0.00011,   0.00001,30475034.20766,   0.00000,274640135.82653,   0.00000,   0.00000,   0.00000,-444165101.61887,   0.00000
19718870.72723,-18085897.26878,825081.32638,   0.00012,  -0.00012,   0.00001,32781233.81736,   0.00000,274640135.82653,   0.00000,   0.00000,   0.00000,-441858902.00917,   0.00000
21114060.33121,-19337843.58693,882378.64071,   0.00013,  -0.00013,   0.00001,35076942.72067,   0.00000,274640135.82653,   0.00000,   0.00000,   0.00000,-439563193.10586,   0.00000
22546493.18950,-20541087.18789,933946.22361,   0.00014,  -0.00014,   0.00001,37363442.92269,   0.00000,274640135.82653,   0.00000,   0.00000,   0.00000,-437276692.90384,   0.00000
23970331.45064,-21764384.84887,991243.53794,   0.00015,  -0.00015,   0.00001,39659960.25722,   0.00000,274640135.82653,   0.00000,   0.00000,   0.00000,-434980175.56931,   0.00000
25402764.30893,-22967628.44984,1042811.12084,   0.00016,  -0.00015,   0.00001,41946585.18273,   0.00000,274640135.82653,   0.00000,   0.00000,   0.00000,-432693550.64380,   0.00000
26823737.70435,-24159412.58793,1094378.70373,   0.00017,  -0.00016,   0.00001,44213446.61545,   0.00000,274640135.82653,   0.00000,   0.00000,   0.00000,-430426689.21108,   0.00000
28244711.09978,-25351196.72603,1145946.28663,   0.00018,  -0.00017,   0.00001,46480358.07508,   0.00000,274640135.82653,   0.00000,   0.00000,   0.00000,-428159777.75145,   0.00000
29685738.55522,-26534386.26698,1197513.86953,   0.00019,  -0.00018,   0.00002,48757683.49688,   0.00000,274640135.82653,   0.00000,   0.00000,   0.00000,-425882452.32965,   0.00000
31115306.54779,-27706116.34506,1249081.45243,   0.00020,  -0.00019,   0.00002,51015253.61340,   0.00000,274640135.82653,   0.00000,   0.00000,   0.00000,-423624882.21313,   0.00000
32553469.13752,-28857792.36313,1294919.30389,   0.00020,  -0.00019,   0.00002,53263047.54745,   0.00000,274640135.82653,   0.00000,   0.00000,   0.00000,-421377088.27908,   0.00000
33962983.07008,-30038117.03836,1346486.88679,   0.00021,  -0.00020,   0.00002,55510321.88222,   0.00000,274640135.82653,   0.00000,   0.00000,   0.00000,-419129813.94431,   0.00000
35409740.25695,-31169738.99641,1392324.73826,   0.00022,  -0.00021,   0.00002,57748856.26953,   0.00000,274640135.82653,   0.00000,   0.00000,   0.00000,-416891279.55700,   0.00000
36827848.78666,-32330009.61162,1438162.58972,   0.00023,  -0.00022,   0.00002,59986411.86046,   0.00000,274640135.82653,   0.00000,   0.00000,   0.00000,-414653723.96607,   0.00000
38283200.57068,-33441577.50966,1484000.44119,   0.00024,  -0.00023,   0.00002,62215753.17715,   0.00000,274640135.82653,   0.00000,   0.00000,   0.00000,-412424382.64938,   0.00000
39709903.69754,-34581794.06486,1529838.29265,   0.00025,  -0.00023,   0.00002,64444067.68680,   0.00000,274640135.82653,   0.00000,   0.00000,   0.00000,-410196068.13973,   0.00000
41125147.36153,-35710551.15719,1575676.14412,   0.00026,  -0.00024,   0.00002,66652615.50826,   0.00000,274640135.82653,   0.00000,   0.00000,   0.00000,-407987520.31827,   0.00000
42569039.68269,-36810659.59236,1615784.26415,   0.00027,  -0.00025,   0.00002,68861996.08223,   0.00000,274640135.82653,   0.00000,   0.00000,   0.00000,-405778139.74430,   0.00000
44012932.00384,-37910768.02753,1661622.11562,   0.00027,  -0.00026,   0.00002,71071875.84120,   0.00000,274640135.82653,   0.00000,   0.00000,   0.00000,-403568259.98533,   0.00000
45436770.26499,-39019471.05984,1701730.23565,   0.00028,  -0.00027,   0.00002,73270905.64266,   0.00000,274640135.82653,   0.00000,   0.00000,   0.00000,-401369230.18387,   0.00000
46869203.12328,-40108120.03214,1741838.35568,   0.00029,  -0.00027,   0.00002,75460725.68678,   0.00000,274640135.82653,   0.00000,   0.00000,   0.00000,-399179410.13975,   0.00000
48310230.57872,-41176714.94443,1781946.47571,   0.00030,  -0.00028,   0.00002,77641373.15472,   0.00000,274640135.82653,   0.00000,   0.00000,   0.00000,-396998762.67181,   0.00000
49751258.03416,-42245309.85671,1822054.59575,   0.00031,  -0.00029,   0.00002,79822119.99900,   0.00000,274640135.82653,   0.00000,   0.00000,   0.00000,-394818015.82753,   0.00000
51192285.48960,-43313904.76900,1862162.71578,   0.00032,  -0.00030,   0.00002,82002958.29133,   0.00000,274640135.82653,   0.00000,   0.00000,   0.00000,-392637177.53519,   0.00000
52621853.48217,-44371040.21842,1902270.83581,   0.00033,  -0.00030,   0.00002,84164071.63503,   0.00000,274640135.82653,   0.00000,   0.00000,   0.00000,-390476064.19150,   0.00000
54071475.53476,-45419581.07069,1936649.22441,   0.00033,  -0.00031,   0.00003,86335499.12094,   0.00000,274640135.82653,   0.00000,   0.00000,   0.00000,-388304636.70559,   0.00000
55501043.52734,-46476716.52010,1971027.61301,   0.00034,  -0.00032,   0.00003,88496396.12582,   0.00000,274640135.82653,   0.00000,   0.00000,   0.00000,-386143739.70071,   0.00000
56939206.11706,-47513797.90951,2005406.00161,   0.00035,  -0.00033,   0.00003,90648205.04177,   0.00000,274640135.82653,   0.00000,   0.00000,   0.00000,-383991930.78476,   0.00000
58365909.24392,-48539419.83604,2039784.39021,   0.00036,  -0.00033,   0.00003,92780300.57004,   0.00000,274640135.82653,   0.00000,   0.00000,   0.00000,-381859835.25649,   0.00000
59812666.43079,-49556447.16543,2074162.77881,   0.00037,  -0.00034,   0.00003,94923159.54877,   0.00000,274640135.82653,   0.00000,   0.00000,   0.00000,-379716976.27776,   0.00000
61239369.55765,-50582069.09197,2102811.43597,   0.00038,  -0.00035,   0.00003,97055064.61469,   0.00000,274640135.82653,   0.00000,   0.00000,   0.00000,-377585071.21184,   0.00000
62674667.28166,-51587636.95849,2137189.82457,   0.00039,  -0.00036,   0.00003,99178318.84583,   0.00000,274640135.82653,   0.00000,   0.00000,   0.00000,-375461816.98070,   0.00000
64109965.00567,-52593204.82501,2165838.48174,   0.00039,  -0.00036,   0.00003,101301302.54171,   0.00000,274640135.82653,   0.00000,   0.00000,   0.00000,-373338833.28482,   0.00000
65533803.26681,-53587313.22866,2194487.13890,   0.00040,  -0.00037,   0.00003,103404580.52626,   0.00000,274640135.82653,   0.00000,   0.00000,   0.00000,-371235555.30027,   0.00000
66977695.58796,-54572827.03516,2223135.79607,   0.00041,  -0.00038,   0.00003,105518691.95419,   0.00000,274640135.82653,   0.00000,   0.00000,   0.00000,-369121443.87234,   0.00000
68401533.84910,-55566935.43882,2246054.72180,   0.00042,  -0.00039,   0.00003,107621800.98717,   0.00000,274640135.82653,   0.00000,   0.00000,   0.00000,-367018334.83936,   0.00000
69833966.70740,-56540989.78246,2274703.37897,   0.00043,  -0.00039,   0.00003,109716319.91699,   0.00000,274640135.82653,   0.00000,   0.00000,   0.00000,-364923815.90954,   0.00000
71254940.10282,-57503584.66323,2297622.30470,   0.00044,  -0.00040,   0.00003,111790788.63582,   0.00000,274640135.82653,   0.00000,   0.00000,   0.00000,-362849347.19071,   0.00000
72695967.55826,-58457584.94685,2320541.23043,   0.00044,  -0.00041,   0.00003,113876153.65250,   0.00000,274640135.82653,   0.00000,   0.00000,   0.00000,-360763982.17403,   0.00000
74116940.95369,-59420179.82762,2343460.15616,   0.00045,  -0.00041,   0.00003,115950834.76772,   0.00000,274640135.82653,   0.00000,   0.00000,   0.00000,-358689301.05881,   0.00000
75537914.34911,-60382774.70839,2366379.08190,   0.00046,  -0.00042,   0.00003,118025607.81313,   0.00000,274640135.82653,   0.00000,   0.00000,   0.00000,-356614528.01340,   0.00000
76967482.34168,-61325315.52915,2383568.27620,   0.00047,  -0.00043,   0.00003,120091161.19031,   0.00000,274640135.82653,   0.00000,   0.00000,   0.00000,-354548974.63622,   0.00000
78385590.87139,-62256396.88704,2406487.20193,   0.00048,  -0.00044,   0.00003,122137372.68783,   0.00000,274640135.82653,   0.00000,   0.00000,   0.00000,-352502763.13870,   0.00000
79803699.40110,-63187478.24493,2423676.39623,   0.00049,  -0.00044,   0.00003,124183352.29267,   0.00000,274640135.82653,   0.00000,   0.00000,   0.00000,-350456783.53385,   0.00000
81221807.93081,-64118559.60282,2440865.59053,   0.00049,  -0.00045,   0.00003,126229436.25178,   0.00000,274640135.82653,   0.00000,   0.00000,   0.00000,-348410699.57475,   0.00000
82648511.05767,-65029586.90069,2458054.78483,   0.00050,  -0.00046,   0.00003,128266707.23354,   0.00000,274640135.82653,   0.00000,   0.00000,   0.00000,-346373428.59299,   0.00000
84075214.18452,-65940614.19856,2469514.24769,   0.00051,  -0.00046,   0.00003,130303772.02951,   0.00000,274640135.82653,   0.00000,   0.00000,   0.00000,-344336363.79702,   0.00000
85490457.84851,-66840182.03357,2486703.44199,   0.00052,  -0.00047,   0.00003,132321491.69421,   0.00000,274640135.82653,   0.00000,   0.00000,   0.00000,-342318644.13231,   0.00000
86905701.51251,-67739749.86857,2498162.90486,   0.00053,  -0.00048,   0.00003,134339002.54187,   0.00000,274640135.82653,   0.00000,   0.00000,   0.00000,-340301133.28466,   0.00000
88300891.11648,-68647912.30073,2509622.36773,   0.00054,  -0.00048,   0.00003,136345699.15454,   0.00000,274640135.82653,   0.00000,   0.00000,   0.00000,-338294436.67199,   0.00000
89724729.37762,-69527426.07572,2521081.83059,   0.00054,  -0.00049,   0.00003,138354570.17518,   0.00000,274640135.82653,   0.00000,   0.00000,   0.00000,-336285565.65135,   0.00000
91128513.57875,-70415534.44786,2526811.56203,   0.00055,  -0.00050,   0.00003,140352309.54903,   0.00000,274640135.82653,   0.00000,   0.00000,   0.00000,-334287826.27750,   0.00000
92532297.77987,-71303642.82000,2538271.02489,   0.00056,  -0.00050,   0.00003,142350461.82371,   0.00000,274640135.82653,   0.00000,   0.00000,   0.00000,-332289674.00282,   0.00000
93924622.51813,-72180291.72928,2544000.75632,   0.00057,  -0.00051,   0.00003,144328623.98971,   0.00000,274640135.82653,   0.00000,   0.00000,   0.00000,-330311511.83682,   0.00000
95325541.85354,-73036886.57853,2549730.48776,   0.00058,  -0.00052,   0.00003,146298085.75587,   0.00000,274640135.82653,   0.00000,   0.00000,   0.00000,-328342050.07066,   0.00000
96726461.18895,-73893481.42779,2555460.21919,   0.00058,  -0.00052,   0.00003,148267666.69066,   0.00000,274640135.82653,   0.00000,   0.00000,   0.00000,-326372469.13587,   0.00000
98127380.52436,-74750076.27705,2555460.21919,   0.00059,  -0.00053,   0.00003,150237069.39985,   0.00000,274640135.82653,   0.00000,   0.00000,   0.00000,-324403066.42668,   0.00000
99508245.79975,-75615265.72346,2561189.95062,   0.00060,  -0.00054,   0.00003,152195863.68323,   0.00000,274640135.82653,   0.00000,   0.00000,   0.00000,-322444272.14330,   0.00000
100917759.73231,-76451806.51270,2561189.95062,   0.00061,  -0.00054,   0.00003,154156728.91925,   0.00000,274640135.82653,   0.00000,   0.00000,   0.00000,-320483406.90728,   0.00000
102287165.54483,-77305536.49624,2561189.95062,   0.00062,  -0.00055,   0.00003,156095654.96573,   0.00000,274640135.82653,   0.00000,   0.00000,   0.00000,-318544480.86080,   0.00000
103685220.01452,-78130617.82262,2561189.95062,   0.00062,  -0.00056,   0.00003,158036981.97416,   0.00000,274640135.82653,   0.00000,   0.00000,   0.00000,-316603153.85236,   0.00000
105063220.42420,-78964293.74614,2555460.21919,   0.00063,  -0.00056,   0.00003,159967103.19006,   0.00000,274640135.82653,   0.00000,   0.00000,   0.00000,-314673032.63647,   0.00000
106449815.43103,-79777915.60965,2555460.21919,   0.00064,  -0.00057,   0.00003,161888895.68848,   0.00000,274640135.82653,   0.00000,   0.00000,   0.00000,-312751240.13805,   0.00000
107807761.78069,-80620186.13033,2549730.48776,   0.00065,  -0.00058,   0.00003,163808159.47193,   0.00000,274640135.82653,   0.00000,   0.00000,   0.00000,-310831976.35459,   0.00000
109202951.38466,-81413753.93382,2544000.75632,   0.00066,  -0.00058,   0.00003,165721217.57077,   0.00000,274640135.82653,   0.00000,   0.00000,   0.00000,-308918918.25576,   0.00000
110569492.33147,-82235970.39448,2538271.02489,   0.00066,  -0.00059,   0.00003,167631994.01800,   0.00000,274640135.82653,   0.00000,   0.00000,   0.00000,-307008141.80853,   0.00000
111924573.81541,-83046727.39227,2526811.56203,   0.00067,  -0.00060,   0.00003,169522839.32993,   0.00000,274640135.82653,   0.00000,   0.00000,   0.00000,-305117296.49660,   0.00000
113279655.29936,-83857484.39006,2521081.83059,   0.00068,  -0.00060,   0.00003,171414038.16414,   0.00000,274640135.82653,   0.00000,   0.00000,   0.00000,-303226097.66239,   0.00000
114643331.38045,-84648187.32784,2509622.36773,   0.00069,  -0.00061,   0.00003,173296433.46521,   0.00000,274640135.82653,   0.00000,   0.00000,   0.00000,-301343702.36132,   0.00000
116007007.46154,-85438890.26562,2498162.90486,   0.00069,  -0.00061,   0.00003,175178943.32439,   0.00000,274640135.82653,   0.00000,   0.00000,   0.00000,-299461192.50214,   0.00000
117350629.48262,-86238187.80054,2486703.44199,   0.00070,  -0.00062,   0.00003,177050422.14281,   0.00000,274640135.82653,   0.00000,   0.00000,   0.00000,-297589713.68372,   0.00000
118702846.10085,-87017431.27545,2469514.24769,   0.00071,  -0.00063,   0.00003,178913138.90505,   0.00000,274640135.82653,   0.00000,   0.00000,   0.00000,-295726996.92148,   0.00000
120055062.71907,-87796674.75036,2452325.05339,   0.00072,  -0.00063,   0.00003,180775969.55869,   0.00000,274640135.82653,   0.00000,   0.00000,   0.00000,-293864166.26784,   0.00000
121395819.87443,-88564458.76241,2440865.59053,   0.00073,  -0.00064,   0.00003,182619377.38519,   0.00000,274640135.82653,   0.00000,   0.00000,   0.00000,-292020758.44134,   0.00000
122736577.02979,-89332242.77445,2423676.39623,   0.00073,  -0.00065,   0.00003,184462660.87871,   0.00000,274640135.82653,   0.00000,   0.00000,   0.00000,-290177474.94782,   0.00000
124077334.18515,-90100026.78649,2400757.47050,   0.00074,  -0.00065,   0.00003,186305828.48745,   0.00000,274640135.82653,   0.00000,   0.00000,   0.00000,-288334307.33907,   0.00000
125398037.28050,-90876405.39569,2383568.27620,   0.00075,  -0.00066,   0.00003,188138129.77797,   0.00000,274640135.82653,   0.00000,   0.00000,   0.00000,-286502006.04856,   0.00000
126727334.97299,-91632729.94487,2360649.35046,   0.00076,  -0.00066,   0.00003,189961744.26654,   0.00000,274640135.82653,   0.00000,   0.00000,   0.00000,-284678391.55999,   0.00000
128036578.60547,-92397649.09119,2337730.42473,   0.00076,  -0.00067,   0.00003,191774254.86758,   0.00000,274640135.82653,   0.00000,   0.00000,   0.00000,-282865880.95895,   0.00000
129354416.83510,-93142514.17750,2314811.49900,   0.00077,  -0.00068,   0.00003,193578314.28873,   0.00000,274640135.82653,   0.00000,   0.00000,   0.00000,-281061821.53779,   0.00000
130663660.46757,-93907433.32383,2291892.57327,   0.00078,  -0.00068,   0.00003,195391006.69725,   0.00000,274640135.82653,   0.00000,   0.00000,   0.00000,-279249129.12928,   0.00000
131981498.69720,-94652298.41014,2263243.91610,   0.00079,  -0.00069,   0.00003,197195062.33945,   0.00000,274640135.82653,   0.00000,   0.00000,   0.00000,-277445073.48708,   0.00000
133287877.46396,-95385704.03359,2234595.25893,   0.00079,  -0.00069,   0.00003,198979469.02077,   0.00000,274640135.82653,   0.00000,   0.00000,   0.00000,-275660666.80576,   0.00000
134574202.17071,-96127704.25418,2211676.33320,   0.00080,  -0.00070,   0.00003,200752920.42254,   0.00000,274640135.82653,   0.00000,   0.00000,   0.00000,-273887215.40399,   0.00000
135880580.93747,-96861109.87763,2177297.94460,   0.00081,  -0.00071,   0.00003,202537336.41497,   0.00000,274640135.82653,   0.00000,   0.00000,   0.00000,-272102799.41156,   0.00000
137146851.58420,-97611704.69537,2148649.28744,   0.00081,  -0.00071,   0.00003,204299515.05330,   0.00000,274640135.82653,   0.00000,   0.00000,   0.00000,-270340620.77323,   0.00000
138441770.88809,-98333650.85595,2120000.63027,   0.00082,  -0.00072,   0.00003,206064550.05094,   0.00000,274640135.82653,   0.00000,   0.00000,   0.00000,-268575585.77559,   0.00000
139716636.13197,-99064191.61368,2085622.24167,   0.00083,  -0.00072,   0.00003,207818231.98629,   0.00000,274640135.82653,   0.00000,   0.00000,   0.00000,-266821903.84024,   0.00000
140991501.37585,-99794732.37141,2051243.85307,   0.00084,  -0.00073,   0.00003,209572001.99401,   0.00000,274640135.82653,   0.00000,   0.00000,   0.00000,-265068133.83252,   0.00000
142254907.15686,-100513813.66627,2016865.46447,   0.00084,  -0.00073,   0.00003,211306109.27734,   0.00000,274640135.82653,   0.00000,   0.00000,   0.00000,-263334026.54919,   0.00000
143518312.93788,-101232894.96113,1976757.34444,   0.00085,  -0.00074,   0.00003,213040142.17556,   0.00000,274640135.82653,   0.00000,   0.00000,   0.00000,-261599993.65097,   0.00000
144781718.71889,-101951976.25599,1942378.95584,   0.00086,  -0.00075,   0.00003,214774422.11505,   0.00000,274640135.82653,   0.00000,   0.00000,   0.00000,-259865713.71148,   0.00000
146033665.03704,-102659598.08799,1902270.83581,   0.00086,  -0.00075,   0.00002,216488885.78112,   0.00000,274640135.82653,   0.00000,   0.00000,   0.00000,-258151250.04540,   0.00000
147285611.35518,-103367219.91998,1862162.71578,   0.00087,  -0.00076,   0.00002,218203438.55264,   0.00000,274640135.82653,   0.00000,   0.00000,   0.00000,-256436697.27389,   0.00000
148517503.61331,-104083436.34913,1822054.59575,   0.00088,  -0.00076,   0.00002,219906758.38794,   0.00000,274640135.82653,   0.00000,   0.00000,   0.00000,-254733377.43859,   0.00000
149749395.87144,-104799652.77828,1781946.47571,   0.00089,  -0.00077,   0.00002,221610152.01727,   0.00000,274640135.82653,   0.00000,   0.00000,   0.00000,-253029983.80926,   0.00000
150989882.72672,-105495815.14740,1736108.62425,   0.00089,  -0.00077,   0.00002,223305070.86982,   0.00000,274640135.82653,   0.00000,   0.00000,   0.00000,-251335064.95671,   0.00000
152210315.52199,-106200572.11368,1696000.50422,   0.00090,  -0.00078,   0.00002,224988874.19547,   0.00000,274640135.82653,   0.00000,   0.00000,   0.00000,-249651261.63106,   0.00000
153430748.31725,-106905329.07996,1650162.65275,   0.00091,  -0.00079,   0.00002,226672622.22216,   0.00000,274640135.82653,   0.00000,   0.00000,   0.00000,-247967513.60437,   0.00000
154639721.64965,-107598626.58338,1604324.80129,   0.00091,  -0.00079,   0.00002,228336705.75151,   0.00000,274640135.82653,   0.00000,   0.00000,   0.00000,-246303430.07502,   0.00000
155848694.98204,-108291924.08679,1552757.21839,   0.00092,  -0.00080,   0.00002,230000749.47918,   0.00000,274640135.82653,   0.00000,   0.00000,   0.00000,-244639386.34735,   0.00000
157037614.25443,-108993816.18735,1506919.36692,   0.00093,  -0.00080,   0.00002,231653632.68960,   0.00000,274640135.82653,   0.00000,   0.00000,   0.00000,-242986503.13693,   0.00000
158226533.52681,-109695708.28791,1455351.78402,   0.00093,  -0.00081,   0.00002,233306472.56411,   0.00000,274640135.82653,   0.00000,   0.00000,   0.00000,-241333663.26242,   0.00000
159424047.39634,-110377546.32846,1403784.20113,   0.00094,  -0.00081,   0.00002,234951008.99833,   0.00000,274640135.82653,   0.00000,   0.00000,   0.00000,-239689126.82820,   0.00000
160601507.20585,-111067978.96616,1352216.61823,   0.00095,  -0.00082,   0.00002,236584256.36977,   0.00000,274640135.82653,   0.00000,   0.00000,   0.00000,-238055879.45676,   0.00000
161778967.01537,-111758411.60385,1300649.03533,   0.00095,  -0.00082,   0.00002,238217573.19951,   0.00000,274640135.82653,   0.00000,   0.00000,   0.00000,-236422562.62702,   0.00000
162944967.36202,-112437384.77868,1249081.45243,   0.00096,  -0.00083,   0.00002,239831220.84277,   0.00000,274640135.82653,   0.00000,   0.00000,   0.00000,-234808914.98375,   0.00000
164102373.11152,-113136412.01353,1191784.13810,   0.00097,  -0.00083,   0.00002,241453207.32838,   0.00000,274640135.82653,   0.00000,   0.00000,   0.00000,-233186928.49815,   0.00000
165268373.45817,-113815385.18836,1140216.55520,   0.00097,  -0.00084,   0.00001,243066988.78510,   0.00000,274640135.82653,   0.00000,   0.00000,   0.00000,-231573147.04143,   0.00000
166394265.68478,-114511547.55749,1082919.24087,   0.00098,  -0.00085,   0.00001,244657984.10698,   0.00000,274640135.82653,   0.00000,   0.00000,   0.00000,-229982151.71955,   0.00000
167548806.56856,-115179061.26945,1025621.92654,   0.00099,  -0.00085,   0.00001,246252083.63759,   0.00000,274640135.82653,   0.00000,   0.00000,   0.00000,-228388052.18894,   0.00000
168674698.79518,-115875223.63858,962594.88077,   0.00099,  -0.00086,   0.00001,247843135.22612,   0.00000,274640135.82653,   0.00000,   0.00000,   0.00000,-226797000.60041,   0.00000
169809185.61895,-116551331.94769,905297.56644,   0.00100,  -0.00086,   0.00001,249425976.89744,   0.00000,274640135.82653,   0.00000,   0.00000,   0.00000,-225214158.92909,   0.00000
170923618.38270,-117236034.85396,842270.52068,   0.00101,  -0.00087,   0.00001,250997423.75228,   0.00000,274640135.82653,   0.00000,   0.00000,   0.00000,-223642712.07425,   0.00000
172026591.68358,-117909278.29735,779243.47491,   0.00101,  -0.00087,   0.00001,252549201.32405,   0.00000,274640135.82653,   0.00000,   0.00000,   0.00000,-222090934.50248,   0.00000
173141024.44733,-118593981.20362,721946.16058,   0.00102,  -0.00088,   0.00001,254120825.08534,   0.00000,274640135.82653,   0.00000,   0.00000,   0.00000,-220519310.74119,   0.00000
174223943.68820,-119275819.24416,653189.38338,   0.00103,  -0.00088,   0.00001,255661274.33600,   0.00000,274640135.82653,   0.00000,   0.00000,   0.00000,-218978861.49053,   0.00000
175326916.98908,-119949062.68756,590162.33762,   0.00103,  -0.00089,   0.00001,257213237.78533,   0.00000,274640135.82653,   0.00000,   0.00000,   0.00000,-217426898.04119,   0.00000
176389782.16994,-120639495.32526,527135.29185,   0.00104,  -0.00089,   0.00001,258742441.44061,   0.00000,274640135.82653,   0.00000,   0.00000,   0.00000,-215897694.38591,   0.00000
177481296.00795,-121301279.30579,458378.51465,   0.00104,  -0.00090,   0.00001,260274757.48732,   0.00000,274640135.82653,   0.00000,   0.00000,   0.00000,-214365378.33921,   0.00000
178524107.12879,-122000306.54063,389621.73746,   0.00105,  -0.00090,   0.00001,261792633.26541,   0.00000,274640135.82653,   0.00000,   0.00000,   0.00000,-212847502.56112,   0.00000
179595566.90679,-122670685.11831,320864.96026,   0.00106,  -0.00091,   0.00000,263313662.27297,   0.00000,274640135.82653,   0.00000,   0.00000,   0.00000,-211326473.55356,   0.00000
180646972.62478,-123349658.29314,252108.18306,   0.00106,  -0.00091,   0.00000,264823337.22710,   0.00000,274640135.82653,   0.00000,   0.00000,   0.00000,-209816798.59943,   0.00000
181686918.87989,-124017172.00511,183351.40586,   0.00107,  -0.00092,   0.00000,266313338.32017,   0.00000,274640135.82653,   0.00000,   0.00000,   0.00000,-208326797.50636,   0.00000
182718270.53786,-124704739.77708,114594.62866,   0.00107,  -0.00092,   0.00000,267811710.51123,   0.00000,274640135.82653,   0.00000,   0.00000,   0.00000,-206828425.31530,   0.00000
183738162.73297,-125380848.08620,40108.12003,   0.00108,  -0.00093,   0.00000,269290402.73754,   0.00000,274640135.82653,   0.00000,   0.00000,   0.00000,-205349733.08899,   0.00000
184758054.92807,-126056956.39531,-28648.65717,   0.00109,  -0.00093,  -0.00000,270769155.65190,   0.00000,274640135.82653,   0.00000,   0.00000,   0.00000,-203870980.17463,   0.00000
185757893.06316,-126741659.30157,-103135.16580,   0.00109,  -0.00094,  -0.00000,272236548.87534,   0.00000,274640135.82653,   0.00000,   0.00000,   0.00000,-202403586.95119,   0.00000
186757731.19824,-127426362.20784,-177621.67443,   0.00110,  -0.00094,  -0.00000,273704002.34012,   0.00000,274640135.82653,   0.00000,   0.00000,   0.00000,-200936133.48641,   0.00000
187757569.33333,-128111065.11410,-252108.18306,   0.00110,  -0.00095,  -0.00000,275171515.08244,   0.00000,274640135.82653,   0.00000,   0.00000,   0.00000,-199468620.74409,   0.00000
188745948.00555,-128784308.55750,-326594.69169,   0.00111,  -0.00095,  -0.00000,276619354.74285,   0.00000,274640135.82653,   0.00000,   0.00000,   0.00000,-198020781.08368,   0.00000
189714272.61776,-129466146.59804,-406810.93175,   0.00112,  -0.00096,  -0.00001,278055858.89476,   0.00000,274640135.82653,   0.00000,   0.00000,   0.00000,-196584276.93177,   0.00000
190682597.22996,-130147984.63859,-481297.44039,   0.00112,  -0.00096,  -0.00001,279492399.66171,   0.00000,274640135.82653,   0.00000,   0.00000,   0.00000,-195147736.16482,   0.00000
191630867.78215,-130838417.27629,-561513.68045,   0.00113,  -0.00097,  -0.00001,280917614.71478,   0.00000,274640135.82653,   0.00000,   0.00000,   0.00000,-193722521.11175,   0.00000
192579138.33434,-131528849.91398,-636000.18908,   0.00113,  -0.00097,  -0.00001,282342857.09498,   0.00000,274640135.82653,   0.00000,   0.00000,   0.00000,-192297278.73155,   0.00000
193507354.82651,-132227877.14883,-716216.42915,   0.00114,  -0.00098,  -0.00001,283756785.83349,   0.00000,274640135.82653,   0.00000,   0.00000,   0.00000,-190883349.99304,   0.00000
194444165.91583,-132906850.32366,-796432.66921,   0.00114,  -0.00098,  -0.00001,285162460.87508,   0.00000,274640135.82653,   0.00000,   0.00000,   0.00000,-189477674.95145,   0.00000
195360922.94514,-133594418.09564,-876648.90927,   0.00115,  -0.00099,  -0.00001,286556788.64704,   0.00000,274640135.82653,   0.00000,   0.00000,   0.00000,-188083347.17949,   0.00000
196257625.91443,-134290580.46477,-962594.88077,   0.00115,  -0.00099,  -0.00001,287939830.52459,   0.00000,274640135.82653,   0.00000,   0.00000,   0.00000,-186700305.30194,   0.00000
197174382.94374,-134978148.23675,-1042811.12084,   0.00116,  -0.00100,  -0.00001,289334293.24094,   0.00000,274640135.82653,   0.00000,   0.00000,   0.00000,-185305842.58559,   0.00000
198051031.85301,-135682905.20303,-1123027.36090,   0.00117,  -0.00100,  -0.00001,290706011.17625,   0.00000,274640135.82653,   0.00000,   0.00000,   0.00000,-183934124.65028,   0.00000
198927680.76228,-136387662.16930,-1208973.33240,   0.00117,  -0.00101,  -0.00002,292077871.01209,   0.00000,274640135.82653,   0.00000,   0.00000,   0.00000,-182562264.81444,   0.00000
199804329.67156,-137092419.13558,-1294919.30389,   0.00118,  -0.00101,  -0.00002,293449809.84215,   0.00000,274640135.82653,   0.00000,   0.00000,   0.00000,-181190325.98438,   0.00000
200669519.11797,-137785716.63900,-1375135.54396,   0.00118,  -0.00102,  -0.00002,294802011.70501,   0.00000,274640135.82653,   0.00000,   0.00000,   0.00000,-179838124.12152,   0.00000
201514654.50436,-138487608.73956,-1461081.51546,   0.00119,  -0.00102,  -0.00002,296142973.34275,   0.00000,274640135.82653,   0.00000,   0.00000,   0.00000,-178497162.48378,   0.00000
202359789.89075,-139189500.84012,-1547027.48695,   0.00119,  -0.00103,  -0.00002,297484015.93345,   0.00000,274640135.82653,   0.00000,   0.00000,   0.00000,-177156119.89308,   0.00000
203184871.21712,-139899987.53783,-1632973.45845,   0.00120,  -0.00103,  -0.00002,298813753.30246,   0.00000,274640135.82653,   0.00000,   0.00000,   0.00000,-175826382.52407,   0.00000
204009952.54350,-140610474.23555,-1718919.42995,   0.00120,  -0.00104,  -0.00002,300143576.35885,   0.00000,274640135.82653,   0.00000,   0.00000,   0.00000,-174496559.46768,   0.00000
204814979.80986,-141329555.53041,-1804865.40145,   0.00121,  -0.00104,  -0.00002,301462106.90696,   0.00000,274640135.82653,   0.00000,   0.00000,   0.00000,-173178028.91957,   0.00000
205620007.07622,-142048636.82527,-1896541.10438,   0.00121,  -0.00105,  -0.00002,302780836.32820,   0.00000,274640135.82653,   0.00000,   0.00000,   0.00000,-171859299.49833,   0.00000
206413574.87971,-142756258.65727,-1982487.07587,   0.00122,  -0.00105,  -0.00003,304079814.73843,   0.00000,274640135.82653,   0.00000,   0.00000,   0.00000,-170560321.08810,   0.00000
207178494.02604,-143492529.14643,-2074162.77881,   0.00122,  -0.00106,  -0.00003,305376008.96924,   0.00000,274640135.82653,   0.00000,   0.00000,   0.00000,-169264126.85729,   0.00000
207952007.76952,-144208745.57557,-2160108.75030,   0.00123,  -0.00106,  -0.00003,306663816.29670,   0.00000,274640135.82653,   0.00000,   0.00000,   0.00000,-167976319.52983,   0.00000
208705467.45298,-144933556.60187,-2251784.45323,   0.00123,  -0.00107,  -0.00003,307940489.79295,   0.00000,274640135.82653,   0.00000,   0.00000,   0.00000,-166699646.03358,   0.00000
209450332.53929,-145678421.68818,-2343460.15616,   0.00124,  -0.00107,  -0.00003,309225667.80472,   0.00000,274640135.82653,   0.00000,   0.00000,   0.00000,-165414468.02181,   0.00000
210183738.16273,-146411827.31162,-2429406.12766,   0.00124,  -0.00108,  -0.00003,310491091.95399,   0.00000,274640135.82653,   0.00000,   0.00000,   0.00000,-164149043.87254,   0.00000
210917143.78618,-147145232.93507,-2521081.83059,   0.00125,  -0.00108,  -0.00003,311756765.65496,   0.00000,274640135.82653,   0.00000,   0.00000,   0.00000,-162883370.17157,   0.00000
211639089.94676,-147867179.09565,-2612757.53352,   0.00125,  -0.00109,  -0.00003,313002814.31607,   0.00000,274640135.82653,   0.00000,   0.00000,   0.00000,-161637321.51046,   0.00000
212332387.45017,-148617773.91339,-2704433.23645,   0.00126,  -0.00109,  -0.00004,314246072.55018,   0.00000,274640135.82653,   0.00000,   0.00000,   0.00000,-160394063.27635,   0.00000
213025684.95358,-149368368.73114,-2796108.93938,   0.00126,  -0.00110,  -0.00004,315489470.12903,   0.00000,274640135.82653,   0.00000,   0.00000,   0.00000,-159150665.69750,   0.00000
213698928.39698,-150127558.14603,-2887784.64231,   0.00127,  -0.00110,  -0.00004,316721694.72897,   0.00000,274640135.82653,   0.00000,   0.00000,   0.00000,-157918441.09756,   0.00000
214380766.43753,-150866693.50091,-2979460.34524,   0.00127,  -0.00110,  -0.00004,317945626.10721,   0.00000,274640135.82653,   0.00000,   0.00000,   0.00000,-156694509.71932,   0.00000
215033955.82091,-151634477.51295,-3071136.04818,   0.00127,  -0.00111,  -0.00004,319166843.66478,   0.00000,274640135.82653,   0.00000,   0.00000,   0.00000,-155473292.16175,   0.00000
215675685.74142,-152390802.06213,-3168541.48254,   0.00128,  -0.00111,  -0.00004,320368643.40005,   0.00000,274640135.82653,   0.00000,   0.00000,   0.00000,-154271492.42648,   0.00000
216317415.66193,-153147126.61131,-3260217.18547,   0.00128,  -0.00112,  -0.00004,321570434.58760,   0.00000,274640135.82653,   0.00000,   0.00000,   0.00000,-153069701.23893,   0.00000
216930496.92528,-153932099.81765,-3351892.88840,   0.00129,  -0.00112,  -0.00004,322769583.93647,   0.00000,274640135.82653,   0.00000,   0.00000,   0.00000,-151870551.89006,   0.00000
217552172.78578,-154697018.96398,-3443568.59133,   0.00129,  -0.00113,  -0.00004,323960433.77731,   0.00000,274640135.82653,   0.00000,   0.00000,   0.00000,-150679702.04922,   0.00000
218153794.58626,-155470532.70746,-3540974.02569,   0.00130,  -0.00113,  -0.00005,325140380.11351,   0.00000,274640135.82653,   0.00000,   0.00000,   0.00000,-149499755.71302,   0.00000
218735362.32673,-156252641.04808,-3632649.72863,   0.00130,  -0.00114,  -0.00005,326309075.95870,   0.00000,274640135.82653,   0.00000,   0.00000,   0.00000,-148331059.86783,   0.00000
219316930.06720,-157034749.38871,-3724325.43156,   0.00130,  -0.00114,  -0.00005,327477967.62414,   0.00000,274640135.82653,   0.00000,   0.00000,   0.00000,-147162168.20239,   0.00000
219878443.74765,-157825452.32649,-3821730.86592,   0.00131,  -0.00115,  -0.00005,328636022.29320,   0.00000,274640135.82653,   0.00000,   0.00000,   0.00000,-146004113.53333,   0.00000
220439957.42810,-158616155.26426,-3913406.56885,   0.00131,  -0.00115,  -0.00005,329794090.77256,   0.00000,274640135.82653,   0.00000,   0.00000,   0.00000,-144846045.05397,   0.00000
220981417.04853,-159415452.79919,-4010812.00321,   0.00132,  -0.00116,  -0.00005,330941363.03841,   0.00000,274640135.82653,   0.00000,   0.00000,   0.00000,-143698772.78812,   0.00000
221502822.60895,-160223344.93126,-4102487.70614,   0.00132,  -0.00116,  -0.00005,332077453.39145,   0.00000,274640135.82653,   0.00000,   0.00000,   0.00000,-142562682.43508,   0.00000
222024228.16937,-161031237.06334,-4199893.14051,   0.00132,  -0.00117,  -0.00005,333214001.25396,   0.00000,274640135.82653,   0.00000,   0.00000,   0.00000,-141426134.57257,   0.00000
222525579.66977,-161847723.79257,-4291568.84344,   0.00133,  -0.00117,  -0.00006,334339394.25199,   0.00000,274640135.82653,   0.00000,   0.00000,   0.00000,-140300741.57454,   0.00000
223006877.11015,-162672805.11894,-4383244.54637,   0.00133,  -0.00118,  -0.00006,335453873.91156,   0.00000,274640135.82653,   0.00000,   0.00000,   0.00000,-139186261.91497,   0.00000
223496769.14769,-163477832.38530,-4480649.98073,   0.00134,  -0.00118,  -0.00006,336560252.46452,   0.00000,274640135.82653,   0.00000,   0.00000,   0.00000,-138079883.36201,   0.00000
223958012.52806,-164311508.30883,-4572325.68366,   0.00134,  -0.00118,  -0.00006,337664123.73991,   0.00000,274640135.82653,   0.00000,   0.00000,   0.00000,-136976012.08661,   0.00000
224399201.84841,-165153778.82950,-4669731.11803,   0.00134,  -0.00119,  -0.00006,338757387.77125,   0.00000,274640135.82653,   0.00000,   0.00000,   0.00000,-135882748.05528,   0.00000
224840391.16877,-165996049.35018,-4761406.82096,   0.00135,  -0.00119,  -0.00006,339850731.28345,   0.00000,274640135.82653,   0.00000,   0.00000,   0.00000,-134789404.54308,   0.00000
225270121.02625,-166826860.40799,-4858812.25532,   0.00135,  -0.00120,  -0.00006,340924859.73437,   0.00000,274640135.82653,   0.00000,   0.00000,   0.00000,-133715276.09216,   0.00000
225691256.28659,-167677725.52581,-4950487.95825,   0.00135,  -0.00120,  -0.00006,342007721.14091,   0.00000,274640135.82653,   0.00000,   0.00000,   0.00000,-132632414.68562,   0.00000
226092337.48691,-168537185.24078,-5042163.66118,   0.00136,  -0.00121,  -0.00007,343079822.03402,   0.00000,274640135.82653,   0.00000,   0.00000,   0.00000,-131560313.79251,   0.00000
226481959.22437,-169385185.49289,-5139569.09555,   0.00136,  -0.00121,  -0.00007,344132755.05834,   0.00000,274640135.82653,   0.00000,   0.00000,   0.00000,-130507380.76819,   0.00000
226842932.30466,-170261834.40217,-5231244.79848,   0.00136,  -0.00122,  -0.00007,345183429.11030,   0.00000,274640135.82653,   0.00000,   0.00000,   0.00000,-129456706.71623,   0.00000
227203905.38494,-171138483.31144,-5322920.50141,   0.00137,  -0.00122,  -0.00007,346234497.57400,   0.00000,274640135.82653,   0.00000,   0.00000,   0.00000,-128405638.25253,   0.00000
227553419.00237,-172003672.75785,-5414596.20434,   0.00137,  -0.00123,  -0.00007,347266179.34236,   0.00000,274640135.82653,   0.00000,   0.00000,   0.00000,-127373956.48417,   0.00000
227894338.02264,-172888916.26427,-5506271.90727,   0.00137,  -0.00123,  -0.00007,348307003.78296,   0.00000,274640135.82653,   0.00000,   0.00000,   0.00000,-126333132.04357,   0.00000
228215202.98290,-173782754.36785,-5597947.61020,   0.00138,  -0.00124,  -0.00007,349337232.77590,   0.00000,274640135.82653,   0.00000,   0.00000,   0.00000,-125302903.05063,   0.00000
228516013.88314,-174685187.06857,-5695353.04456,   0.00138,  -0.00124,  -0.00007,350357184.81925,   0.00000,274640135.82653,   0.00000,   0.00000,   0.00000,-124282951.00728,   0.00000
228825419.38053,-175567565.70928,-5787028.74750,   0.00138,  -0.00125,  -0.00008,351368515.43924,   0.00000,274640135.82653,   0.00000,   0.00000,   0.00000,-123271620.38729,   0.00000
229086122.16074,-176487187.60430,-5872974.71899,   0.00139,  -0.00125,  -0.00008,352366882.19893,   0.00000,274640135.82653,   0.00000,   0.00000,   0.00000,-122273253.62760,   0.00000
229366879.00096,-177398214.90217,-5964650.42192,   0.00139,  -0.00125,  -0.00008,353376991.17167,   0.00000,274640135.82653,   0.00000,   0.00000,   0.00000,-121263144.65486,   0.00000
229607527.72116,-178326431.39434,-6056326.12485,   0.00139,  -0.00126,  -0.00008,354365716.76482,   0.00000,274640135.82653,   0.00000,   0.00000,   0.00000,-120274419.06171,   0.00000
229856771.03850,-179234593.82650,-6148001.82778,   0.00140,  -0.00126,  -0.00008,355346103.94822,   0.00000,274640135.82653,   0.00000,   0.00000,   0.00000,-119294031.87831,   0.00000
230077365.69868,-180171404.91582,-6233947.79928,   0.00140,  -0.00127,  -0.00008,356324680.43757,   0.00000,274640135.82653,   0.00000,   0.00000,   0.00000,-118315455.38896,   0.00000
230297960.35885,-181108216.00515,-6325623.50221,   0.00140,  -0.00127,  -0.00008,357304113.79986,   0.00000,274640135.82653,   0.00000,   0.00000,   0.00000,-117336022.02667,   0.00000
230478446.89900,-182062216.28877,-6411569.47371,   0.00140,  -0.00128,  -0.00008,358262064.14233,   0.00000,274640135.82653,   0.00000,   0.00000,   0.00000,-116378071.68420,   0.00000
230658933.43914,-183016216.57239,-6503245.17664,   0.00141,  -0.00128,  -0.00008,359220936.21320,   0.00000,274640135.82653,   0.00000,   0.00000,   0.00000,-115419199.61332,   0.00000
230839419.97929,-183970216.85601,-6589191.14814,   0.00141,  -0.00129,  -0.00009,360180106.30640,   0.00000,274640135.82653,   0.00000,   0.00000,   0.00000,-114460029.52013,   0.00000
230999852.45942,-184932811.73678,-6675137.11964,   0.00141,  -0.00129,  -0.00009,361129064.58210,   0.00000,274640135.82653,   0.00000,   0.00000,   0.00000,-113511071.24443,   0.00000
231140230.87953,-185904001.21470,-6761083.09113,   0.00141,  -0.00130,  -0.00009,362067858.96371,   0.00000,274640135.82653,   0.00000,   0.00000,   0.00000,-112572276.86282,   0.00000
231260555.23962,-186883785.28977,-6847029.06263,   0.00142,  -0.00130,  -0.00009,362996538.53215,   0.00000,274640135.82653,   0.00000,   0.00000,   0.00000,-111643597.29438,   0.00000
231372285.00257,-187883623.42486,-6932975.03413,   0.00142,  -0.00131,  -0.00009,363934955.60802,   0.00000,274640135.82653,   0.00000,   0.00000,   0.00000,-110705180.21851,   0.00000
231452501.24264,-188880596.69423,-7018921.00563,   0.00142,  -0.00131,  -0.00009,364843558.85279,   0.00000,274640135.82653,   0.00000,   0.00000,   0.00000,-109796576.97374,   0.00000
231552771.54272,-189868975.36645,-7104866.97712,   0.00142,  -0.00132,  -0.00009,365763637.74463,   0.00000,274640135.82653,   0.00000,   0.00000,   0.00000,-108876498.08190,   0.00000
231604339.12561,-190894597.29299,-7185083.21719,   0.00143,  -0.00132,  -0.00009,366671802.14556,   0.00000,274640135.82653,   0.00000,   0.00000,   0.00000,-107968333.68097,   0.00000
231664501.30566,-191900165.15951,-7271029.18868,   0.00143,  -0.00132,  -0.00009,367571998.67779,   0.00000,274640135.82653,   0.00000,   0.00000,   0.00000,-107068137.14874,   0.00000
231696014.82855,-192934381.68319,-7351245.42875,   0.00143,  -0.00133,  -0.00010,368471123.30598,   0.00000,274640135.82653,   0.00000,   0.00000,   0.00000,-106169012.52055,   0.00000
231716068.88856,-193957138.74401,-7431461.66881,   0.00143,  -0.00133,  -0.00010,369351287.85639,   0.00000,274640135.82653,   0.00000,   0.00000,   0.00000,-105288847.97014,   0.00000
231727528.35143,-194999949.86485,-7511677.90888,   0.00143,  -0.00134,  -0.00010,370241488.98929,   0.00000,274640135.82653,   0.00000,   0.00000,   0.00000,-104398646.83724,   0.00000
231727528.35143,-196031301.52282,-7591894.14894,   0.00144,  -0.00134,  -0.00010,371112756.61757,   0.00000,274640135.82653,   0.00000,   0.00000,   0.00000,-103527379.20896,   0.00000
231698879.69426,-197091301.83795,-7672110.38901,   0.00144,  -0.00135,  -0.00010,371983561.16710,   0.00000,274640135.82653,   0.00000,   0.00000,   0.00000,-102656574.65943,   0.00000
231670231.03710,-198151302.15309,-7752326.62907,   0.00144,  -0.00135,  -0.00010,372855317.98319,   0.00000,274640135.82653,   0.00000,   0.00000,   0.00000,-101784817.84334,   0.00000
231601474.25990,-199228491.66252,-7826813.13770,   0.00144,  -0.00136,  -0.00010,373706601.71420,   0.00000,274640135.82653,   0.00000,   0.00000,   0.00000,-100933534.11233,   0.00000
231532717.48270,-200305681.17196,-7901299.64633,   0.00144,  -0.00136,  -0.00010,374558907.87960,   0.00000,274640135.82653,   0.00000,   0.00000,   0.00000,-100081227.94693,   0.00000
231463960.70550,-201382870.68139,-7981515.88640,   0.00145,  -0.00137,  -0.00010,375412594.83807,   0.00000,274640135.82653,   0.00000,   0.00000,   0.00000,-99227540.98846,   0.00000
231355095.80827,-202477249.38513,-8056002.39503,   0.00145,  -0.00137,  -0.00010,376246007.06091,   0.00000,274640135.82653,   0.00000,   0.00000,   0.00000,-98394128.76562,   0.00000
231246230.91104,-203571628.08886,-8124759.17223,   0.00145,  -0.00138,  -0.00011,377080142.57463,   0.00000,274640135.82653,   0.00000,   0.00000,   0.00000,-97559993.25189,   0.00000
231108717.35665,-204694655.44976,-8199245.68086,   0.00145,  -0.00138,  -0.00011,377914730.28699,   0.00000,274640135.82653,   0.00000,   0.00000,   0.00000,-96725405.53954,   0.00000
230979798.39940,-205797628.75065,-8268002.45805,   0.00145,  -0.00139,  -0.00011,378740683.92748,   0.00000,274640135.82653,   0.00000,   0.00000,   0.00000,-95899451.89905,   0.00000
230802176.72497,-206937845.30585,-8342488.96669,   0.00145,  -0.00139,  -0.00011,379556864.13323,   0.00000,274640135.82653,   0.00000,   0.00000,   0.00000,-95083271.69330,   0.00000
230633149.64769,-208058007.80103,-8411245.74388,   0.00146,  -0.00140,  -0.00011,380364437.27038,   0.00000,274640135.82653,   0.00000,   0.00000,   0.00000,-94275698.55614,   0.00000
230435473.91325,-209206818.95338,-8480002.52108,   0.00146,  -0.00140,  -0.00011,381172407.88637,   0.00000,274640135.82653,   0.00000,   0.00000,   0.00000,-93467727.94016,   0.00000
230237798.17880,-210355630.10573,-8548759.29828,   0.00146,  -0.00141,  -0.00011,381981669.44774,   0.00000,274640135.82653,   0.00000,   0.00000,   0.00000,-92658466.37879,   0.00000
230000014.32433,-211521630.45238,-8611786.34404,   0.00146,  -0.00141,  -0.00011,382771306.87198,   0.00000,274640135.82653,   0.00000,   0.00000,   0.00000,-91868828.95455,   0.00000
229762230.46985,-212687630.79903,-8674813.38981,   0.00146,  -0.00142,  -0.00011,383562318.86508,   0.00000,274640135.82653,   0.00000,   0.00000,   0.00000,-91077816.96144,   0.00000
229524446.61538,-213853631.14567,-8743570.16701,   0.00146,  -0.00142,  -0.00011,384355087.84388,   0.00000,274640135.82653,   0.00000,   0.00000,   0.00000,-90285047.98264,   0.00000
229246554.64087,-215036820.68662,-8806597.21277,   0.00146,  -0.00143,  -0.00011,385128466.60882,   0.00000,274640135.82653,   0.00000,   0.00000,   0.00000,-89511669.21771,   0.00000
228960068.06921,-216240064.28759,-8863894.52710,   0.00146,  -0.00143,  -0.00012,385912585.81510,   0.00000,274640135.82653,   0.00000,   0.00000,   0.00000,-88727550.01143,   0.00000
228662122.03469,-217431848.42568,-8926921.57287,   0.00146,  -0.00144,  -0.00012,386678771.60307,   0.00000,274640135.82653,   0.00000,   0.00000,   0.00000,-87961364.22346,   0.00000
228335527.34299,-218652281.22095,-8984218.88720,   0.00147,  -0.00144,  -0.00012,387445693.78753,   0.00000,274640135.82653,   0.00000,   0.00000,   0.00000,-87194442.03900,   0.00000
227997473.18844,-219861254.55335,-9041516.20153,   0.00147,  -0.00144,  -0.00012,388194379.87940,   0.00000,274640135.82653,   0.00000,   0.00000,   0.00000,-86445755.94713,   0.00000
227650824.43673,-221090281.94576,-9098813.51586,   0.00147,  -0.00145,  -0.00012,388954445.68699,   0.00000,274640135.82653,   0.00000,   0.00000,   0.00000,-85685690.13954,   0.00000
227284121.62501,-222327903.93532,-9156110.83020,   0.00147,  -0.00145,  -0.00012,389706138.34837,   0.00000,274640135.82653,   0.00000,   0.00000,   0.00000,-84933997.47816,   0.00000
226897364.75327,-223574120.52204,-9207678.41309,   0.00147,  -0.00146,  -0.00012,390449131.51131,   0.00000,274640135.82653,   0.00000,   0.00000,   0.00000,-84191004.31522,   0.00000
226490553.82152,-224828931.70590,-9259245.99599,   0.00147,  -0.00146,  -0.00012,391183907.73242,   0.00000,274640135.82653,   0.00000,   0.00000,   0.00000,-83456228.09411,   0.00000
226075148.29261,-226103796.94978,-9310813.57889,   0.00147,  -0.00147,  -0.00012,391930380.09840,   0.00000,274640135.82653,   0.00000,   0.00000,   0.00000,-82709755.72813,   0.00000
225648283.30084,-227367202.73079,-9362381.16179,   0.00147,  -0.00147,  -0.00012,392658852.12537,   0.00000,274640135.82653,   0.00000,   0.00000,   0.00000,-81981283.70116,   0.00000
225192769.65190,-228659257.16897,-9408219.01325,   0.00147,  -0.00148,  -0.00012,393388859.24234,   0.00000,274640135.82653,   0.00000,   0.00000,   0.00000,-81251276.58419,   0.00000
224725796.54010,-229939852.14428,-9459786.59615,   0.00147,  -0.00148,  -0.00012,394101380.80383,   0.00000,274640135.82653,   0.00000,   0.00000,   0.00000,-80538755.02270,   0.00000
224250228.83115,-231240501.17961,-9499894.71618,   0.00147,  -0.00149,  -0.00012,394825042.03765,   0.00000,274640135.82653,   0.00000,   0.00000,   0.00000,-79815093.78888,   0.00000
223754607.06218,-232549744.81209,-9545732.56765,   0.00147,  -0.00149,  -0.00012,395541335.13113,   0.00000,274640135.82653,   0.00000,   0.00000,   0.00000,-79098800.69540,   0.00000
223238931.23320,-233867583.04171,-9591570.41912,   0.00147,  -0.00150,  -0.00012,396249934.73003,   0.00000,274640135.82653,   0.00000,   0.00000,   0.00000,-78390201.09650,   0.00000
222703201.34420,-235194015.86849,-9631678.53915,   0.00147,  -0.00150,  -0.00013,396950511.97178,   0.00000,274640135.82653,   0.00000,   0.00000,   0.00000,-77689623.85475,   0.00000
222138822.79803,-236549097.35243,-9671786.65918,   0.00147,  -0.00151,  -0.00013,397653744.41050,   0.00000,274640135.82653,   0.00000,   0.00000,   0.00000,-76986391.41603,   0.00000
221583038.84901,-237884124.77636,-9706165.04778,   0.00147,  -0.00151,  -0.00013,398348611.27895,   0.00000,274640135.82653,   0.00000,   0.00000,   0.00000,-76291524.54758,   0.00000
220998606.24283,-239247800.85745,-9740543.43638,   0.00147,  -0.00152,  -0.00013,399046312.18928,   0.00000,274640135.82653,   0.00000,   0.00000,   0.00000,-75593823.63724,   0.00000
220394119.57663,-240620071.53570,-9780651.55641,   0.00147,  -0.00152,  -0.00013,399737187.44068,   0.00000,274640135.82653,   0.00000,   0.00000,   0.00000,-74902948.38585,   0.00000
219769578.85042,-242000936.81109,-9809300.21358,   0.00147,  -0.00153,  -0.00013,400420069.77917,   0.00000,274640135.82653,   0.00000,   0.00000,   0.00000,-74220066.04736,   0.00000
219145038.12420,-243381802.08648,-9843678.60217,   0.00147,  -0.00153,  -0.00013,401105793.58016,   0.00000,274640135.82653,   0.00000,   0.00000,   0.00000,-73534342.24637,   0.00000
218500443.33797,-244771261.95902,-9872327.25934,   0.00147,  -0.00154,  -0.00013,401784061.66857,   0.00000,274640135.82653,   0.00000,   0.00000,   0.00000,-72856074.15796,   0.00000
217835794.49172,-246169316.42872,-9900975.91651,   0.00147,  -0.00154,  -0.00013,402455391.70056,   0.00000,274640135.82653,   0.00000,   0.00000,   0.00000,-72184744.12597,   0.00000
217142496.98831,-247596019.55557,-9923894.84224,   0.00147,  -0.00155,  -0.00013,403129906.97201,   0.00000,274640135.82653,   0.00000,   0.00000,   0.00000,-71510228.85451,   0.00000
216437740.02203,-249011263.21956,-9952543.49940,   0.00147,  -0.00156,  -0.00013,403787690.41867,   0.00000,274640135.82653,   0.00000,   0.00000,   0.00000,-70852445.40786,   0.00000
215724388.45860,-250446560.94357,-9975462.42514,   0.00147,  -0.00156,  -0.00013,404458220.85501,   0.00000,274640135.82653,   0.00000,   0.00000,   0.00000,-70181914.97152,   0.00000
214990982.83516,-251890453.26473,-9992651.61944,   0.00147,  -0.00157,  -0.00013,405121782.33178,   0.00000,274640135.82653,   0.00000,   0.00000,   0.00000,-69518353.49475,   0.00000
214237523.15170,-253342940.18304,-10015570.54517,   0.00147,  -0.00157,  -0.00013,405779325.05190,   0.00000,274640135.82653,   0.00000,   0.00000,   0.00000,-68860810.77463,   0.00000
213464009.40822,-254804021.69849,-10032759.73947,   0.00147,  -0.00158,  -0.00013,406430104.29276,   0.00000,274640135.82653,   0.00000,   0.00000,   0.00000,-68210031.53377,   0.00000
212661847.00758,-256293751.87112,-10044219.20234,   0.00147,  -0.00158,  -0.00013,407084892.97493,   0.00000,274640135.82653,   0.00000,   0.00000,   0.00000,-67555242.85160,   0.00000
211868279.20408,-257763427.98372,-10061408.39663,   0.00147,  -0.00159,  -0.00013,407732439.57802,   0.00000,274640135.82653,   0.00000,   0.00000,   0.00000,-66907696.24851,   0.00000
211046062.74342,-259261752.75349,-10072867.85950,   0.00147,  -0.00159,  -0.00013,408384202.90168,   0.00000,274640135.82653,   0.00000,   0.00000,   0.00000,-66255932.92484,   0.00000
210203792.22275,-260768672.12042,-10078597.59093,   0.00146,  -0.00160,  -0.00013,409029623.35884,   0.00000,274640135.82653,   0.00000,   0.00000,   0.00000,-65610512.46769,   0.00000
209341467.64206,-262284186.08449,-10090057.05380,   0.00146,  -0.00160,  -0.00013,409669657.83764,   0.00000,274640135.82653,   0.00000,   0.00000,   0.00000,-64970477.98889,   0.00000
208479143.06137,-263799700.04856,-10095786.78523,   0.00146,  -0.00161,  -0.00013,410312496.73355,   0.00000,274640135.82653,   0.00000,   0.00000,   0.00000,-64327639.09298,   0.00000
207576710.36064,-265332403.20693,-10095786.78523,   0.00146,  -0.00161,  -0.00013,410940357.00808,   0.00000,274640135.82653,   0.00000,   0.00000,   0.00000,-63699778.81845,   0.00000
206665683.06277,-266885160.42532,-10101516.51667,   0.00146,  -0.00162,  -0.00013,411582943.39960,   0.00000,274640135.82653,   0.00000,   0.00000,   0.00000,-63057192.42693,   0.00000
205743196.30203,-268426458.18084,-10101516.51667,   0.00146,  -0.00162,  -0.00013,412208764.65943,   0.00000,274640135.82653,   0.00000,   0.00000,   0.00000,-62431371.16710,   0.00000
204812114.94414,-269987809.99638,-10095786.78523,   0.00146,  -0.00163,  -0.00013,412848603.09981,   0.00000,274640135.82653,   0.00000,   0.00000,   0.00000,-61791532.72672,   0.00000
203840925.46622,-271566351.00621,-10095786.78523,   0.00146,  -0.00163,  -0.00013,413474929.03535,   0.00000,274640135.82653,   0.00000,   0.00000,   0.00000,-61165206.79118,   0.00000
202869735.98830,-273144892.01605,-10090057.05380,   0.00146,  -0.00164,  -0.00013,414104481.62066,   0.00000,274640135.82653,   0.00000,   0.00000,   0.00000,-60535654.20587,   0.00000
201869897.85321,-274752081.68305,-10078597.59093,   0.00145,  -0.00164,  -0.00013,414739763.10568,   0.00000,274640135.82653,   0.00000,   0.00000,   0.00000,-59900372.72085,   0.00000
200858600.25526,-276347811.88719,-10067138.12807,   0.00145,  -0.00165,  -0.00013,415359081.90489,   0.00000,274640135.82653,   0.00000,   0.00000,   0.00000,-59281053.92164,   0.00000
199818654.00014,-277972190.74849,-10055678.66520,   0.00145,  -0.00165,  -0.00013,415984870.32707,   0.00000,274640135.82653,   0.00000,   0.00000,   0.00000,-58655265.49946,   0.00000
198787302.34217,-279576515.54977,-10044219.20234,   0.00145,  -0.00166,  -0.00013,416603336.47482,   0.00000,274640135.82653,   0.00000,   0.00000,   0.00000,-58036799.35171,   0.00000
197707247.96702,-281218083.60538,-10027030.00804,   0.00145,  -0.00167,  -0.00013,417219658.96383,   0.00000,274640135.82653,   0.00000,   0.00000,   0.00000,-57420476.86270,   0.00000
196618598.99472,-282879705.72099,-10009840.81374,   0.00145,  -0.00167,  -0.00013,417851413.23405,   0.00000,274640135.82653,   0.00000,   0.00000,   0.00000,-56788722.59248,   0.00000
195518490.55955,-284529868.37374,-9986921.88800,   0.00144,  -0.00168,  -0.00013,418467193.88430,   0.00000,274640135.82653,   0.00000,   0.00000,   0.00000,-56172941.94223,   0.00000
194398328.06437,-286188625.62365,-9964002.96227,   0.00144,  -0.00168,  -0.00013,419078839.58504,   0.00000,274640135.82653,   0.00000,   0.00000,   0.00000,-55561296.24149,   0.00000
193269570.97203,-287867436.93356,-9935354.30511,   0.00144,  -0.00169,  -0.00013,419705775.67968,   0.00000,274640135.82653,   0.00000,   0.00000,   0.00000,-54934360.14684,   0.00000
192100705.75967,-289563437.43778,-9912435.37937,   0.00144,  -0.00169,  -0.00013,420321038.34282,   0.00000,274640135.82653,   0.00000,   0.00000,   0.00000,-54319097.48371,   0.00000
190931840.54730,-291259437.94200,-9878056.99077,   0.00144,  -0.00170,  -0.00013,420939967.83134,   0.00000,274640135.82653,   0.00000,   0.00000,   0.00000,-53700167.99519,   0.00000
189742921.27492,-292964033.04336,-9849408.33361,   0.00143,  -0.00170,  -0.00013,421555672.26959,   0.00000,274640135.82653,   0.00000,   0.00000,   0.00000,-53084463.55693,   0.00000
188533947.94253,-294677222.74188,-9815029.94501,   0.00143,  -0.00171,  -0.00013,422167478.30735,   0.00000,274640135.82653,   0.00000,   0.00000,   0.00000,-52472657.51918,   0.00000
187324974.61013,-296390412.44039,-9774921.82498,   0.00143,  -0.00171,  -0.00013,422783510.17324,   0.00000,274640135.82653,   0.00000,   0.00000,   0.00000,-51856625.65329,   0.00000
186067298.56055,-298140845.39322,-9734813.70494,   0.00143,  -0.00172,  -0.00013,423400005.63521,   0.00000,274640135.82653,   0.00000,   0.00000,   0.00000,-51240130.19132,   0.00000
184809622.51097,-299891278.34606,-9694705.58491,   0.00143,  -0.00172,  -0.00013,424021380.70536,   0.00000,274640135.82653,   0.00000,   0.00000,   0.00000,-50618755.12117,   0.00000
183531892.40137,-301650305.89604,-9654597.46488,   0.00142,  -0.00173,  -0.00013,424639785.95603,   0.00000,274640135.82653,   0.00000,   0.00000,   0.00000,-50000349.87050,   0.00000
182234108.23176,-303417928.04317,-9603029.88198,   0.00142,  -0.00174,  -0.00012,425254581.80748,   0.00000,274640135.82653,   0.00000,   0.00000,   0.00000,-49385554.01905,   0.00000
180916270.00213,-305194144.78745,-9557192.03052,   0.00142,  -0.00174,  -0.00012,425867078.82154,   0.00000,274640135.82653,   0.00000,   0.00000,   0.00000,-48773057.00499,   0.00000
179598431.77251,-306970361.53173,-9505624.44762,   0.00142,  -0.00175,  -0.00012,426484308.94257,   0.00000,274640135.82653,   0.00000,   0.00000,   0.00000,-48155826.88396,   0.00000
178251944.88571,-308775226.93318,-9454056.86472,   0.00141,  -0.00175,  -0.00012,427111014.76097,   0.00000,274640135.82653,   0.00000,   0.00000,   0.00000,-47529121.06556,   0.00000
176885403.93890,-310588686.93177,-9396759.55039,   0.00141,  -0.00176,  -0.00012,427735059.57959,   0.00000,274640135.82653,   0.00000,   0.00000,   0.00000,-46905076.24694,   0.00000
175498808.93208,-312410741.52752,-9339462.23606,   0.00141,  -0.00176,  -0.00012,428356969.19578,   0.00000,274640135.82653,   0.00000,   0.00000,   0.00000,-46283166.63075,   0.00000
174092159.86524,-314241390.72041,-9276435.19029,   0.00140,  -0.00177,  -0.00012,428976515.61307,   0.00000,274640135.82653,   0.00000,   0.00000,   0.00000,-45663620.21345,   0.00000
172665456.73838,-316080634.51046,-9213408.14453,   0.00140,  -0.00177,  -0.00012,429594221.62783,   0.00000,274640135.82653,   0.00000,   0.00000,   0.00000,-45045914.19869,   0.00000
171238753.61152,-317919878.30050,-9150381.09876,   0.00140,  -0.00178,  -0.00012,430217563.43541,   0.00000,274640135.82653,   0.00000,   0.00000,   0.00000,-44422572.39112,   0.00000
169783401.82750,-319787770.74772,-9081624.32156,   0.00140,  -0.00179,  -0.00012,430851140.34576,   0.00000,274640135.82653,   0.00000,   0.00000,   0.00000,-43788995.48077,   0.00000
168307995.98346,-321664257.79208,-9007137.81293,   0.00139,  -0.00179,  -0.00012,431482941.09516,   0.00000,274640135.82653,   0.00000,   0.00000,   0.00000,-43157194.73137,   0.00000
166812536.07940,-323549339.43359,-8938381.03573,   0.00139,  -0.00180,  -0.00012,432113835.77190,   0.00000,274640135.82653,   0.00000,   0.00000,   0.00000,-42526300.05463,   0.00000
165297022.11533,-325443015.67225,-8858164.79567,   0.00139,  -0.00180,  -0.00012,432742908.17937,   0.00000,274640135.82653,   0.00000,   0.00000,   0.00000,-41897227.64716,   0.00000
163781508.15126,-327336691.91091,-8783678.28704,   0.00138,  -0.00181,  -0.00011,433378412.44188,   0.00000,274640135.82653,   0.00000,   0.00000,   0.00000,-41261723.38465,   0.00000
162245940.12717,-329238962.74672,-8703462.04698,   0.00138,  -0.00181,  -0.00011,434012644.36699,   0.00000,274640135.82653,   0.00000,   0.00000,   0.00000,-40627491.45954,   0.00000
160681723.44592,-331169882.23969,-8617516.07548,   0.00138,  -0.00182,  -0.00011,434658301.81166,   0.00000,274640135.82653,   0.00000,   0.00000,   0.00000,-39981834.01487,   0.00000
159097452.70465,-333109396.32982,-8531570.10398,   0.00137,  -0.00183,  -0.00011,435303444.59205,   0.00000,274640135.82653,   0.00000,   0.00000,   0.00000,-39336691.23448,   0.00000
157493127.90336,-335057505.01710,-8439894.40105,   0.00137,  -0.00183,  -0.00011,435947894.76520,   0.00000,274640135.82653,   0.00000,   0.00000,   0.00000,-38692241.06133,   0.00000
155888803.10208,-337005613.70437,-8353948.42955,   0.00137,  -0.00184,  -0.00011,436599209.48509,   0.00000,274640135.82653,   0.00000,   0.00000,   0.00000,-38040926.34144,   0.00000
154244370.18076,-338970911.58595,-8256542.99519,   0.00136,  -0.00184,  -0.00011,437243034.14432,   0.00000,274640135.82653,   0.00000,   0.00000,   0.00000,-37397101.68221,   0.00000
152599937.25944,-340936209.46752,-8159137.56082,   0.00136,  -0.00185,  -0.00011,437893592.70157,   0.00000,274640135.82653,   0.00000,   0.00000,   0.00000,-36746543.12496,   0.00000
150926855.68096,-342930156.00626,-8061732.12646,   0.00136,  -0.00185,  -0.00010,438557125.58692,   0.00000,274640135.82653,   0.00000,   0.00000,   0.00000,-36083010.23961,   0.00000
149242314.63961,-344912643.08214,-7958596.96066,   0.00135,  -0.00186,  -0.00010,439207899.33206,   0.00000,274640135.82653,   0.00000,   0.00000,   0.00000,-35432236.49447,   0.00000
147549179.00111,-346915184.21803,-7855461.79487,   0.00135,  -0.00187,  -0.00010,439878484.03775,   0.00000,274640135.82653,   0.00000,   0.00000,   0.00000,-34761651.78878,   0.00000
145835989.30259,-348926319.95107,-7746596.89764,   0.00134,  -0.00187,  -0.00010,440549380.75626,   0.00000,274640135.82653,   0.00000,   0.00000,   0.00000,-34090755.07027,   0.00000
144082691.48404,-350954644.87841,-7637732.00041,   0.00134,  -0.00188,  -0.00010,441214776.97404,   0.00000,274640135.82653,   0.00000,   0.00000,   0.00000,-33425358.85249,   0.00000
142320799.06835,-353003023.86576,-7523137.37174,   0.00134,  -0.00188,  -0.00010,441900226.20914,   0.00000,274640135.82653,   0.00000,   0.00000,   0.00000,-32739909.61739,   0.00000
140567501.24980,-355031348.79310,-7408542.74308,   0.00133,  -0.00189,  -0.00010,442579947.71045,   0.00000,274640135.82653,   0.00000,   0.00000,   0.00000,-32060188.11608,   0.00000
138765500.71407,-357096916.97476,-7288218.38298,   0.00133,  -0.00190,  -0.00009,443267593.18763,   0.00000,274640135.82653,   0.00000,   0.00000,   0.00000,-31372542.63890,   0.00000
136972094.77549,-359142431.09640,-7167894.02289,   0.00132,  -0.00190,  -0.00009,443949623.02633,   0.00000,274640135.82653,   0.00000,   0.00000,   0.00000,-30690512.80020,   0.00000
135129986.11973,-361225188.47235,-7047569.66279,   0.00132,  -0.00191,  -0.00009,444640427.03563,   0.00000,274640135.82653,   0.00000,   0.00000,   0.00000,-29999708.79090,   0.00000
133287877.46396,-363307945.84831,-6915785.83983,   0.00131,  -0.00191,  -0.00009,445338467.95963,   0.00000,274640135.82653,   0.00000,   0.00000,   0.00000,-29301667.86690,   0.00000
131445768.80820,-365390703.22426,-6789731.74830,   0.00131,  -0.00192,  -0.00009,446044526.26686,   0.00000,274640135.82653,   0.00000,   0.00000,   0.00000,-28595609.55967,   0.00000
129554957.43526,-367510703.85453,-6657947.92534,   0.00131,  -0.00192,  -0.00009,446759916.34245,   0.00000,274640135.82653,   0.00000,   0.00000,   0.00000,-27880219.48408,   0.00000
127672740.65946,-369610650.42479,-6520434.37094,   0.00130,  -0.00193,  -0.00008,447469680.00609,   0.00000,274640135.82653,   0.00000,   0.00000,   0.00000,-27170455.82044,   0.00000
125741821.16649,-371747840.24936,-6382920.81654,   0.00130,  -0.00194,  -0.00008,448189622.59566,   0.00000,274640135.82653,   0.00000,   0.00000,   0.00000,-26450513.23087,   0.00000
123810901.67351,-373885030.07393,-6245407.26215,   0.00129,  -0.00194,  -0.00008,448917824.45998,   0.00000,274640135.82653,   0.00000,   0.00000,   0.00000,-25722311.36655,   0.00000
121859928.12052,-376030814.49565,-6102163.97632,   0.00129,  -0.00195,  -0.00008,449648543.61259,   0.00000,274640135.82653,   0.00000,   0.00000,   0.00000,-24991592.21394,   0.00000
119908954.56753,-378176598.91737,-5953190.95906,   0.00128,  -0.00195,  -0.00008,450387365.96407,   0.00000,274640135.82653,   0.00000,   0.00000,   0.00000,-24252769.86246,   0.00000
117917872.89450,-380339572.53339,-5804217.94179,   0.00128,  -0.00196,  -0.00008,451123835.98224,   0.00000,274640135.82653,   0.00000,   0.00000,   0.00000,-23516299.84429,   0.00000
115926791.22148,-382502546.14941,-5649515.19310,   0.00127,  -0.00197,  -0.00007,451868634.23852,   0.00000,274640135.82653,   0.00000,   0.00000,   0.00000,-22771501.58801,   0.00000
113915655.48844,-384674114.36257,-5494812.44440,   0.00127,  -0.00197,  -0.00007,452616762.39887,   0.00000,274640135.82653,   0.00000,   0.00000,   0.00000,-22023373.42766,   0.00000
111875871.09823,-386874331.23291,-5340109.69571,   0.00126,  -0.00198,  -0.00007,453382191.78505,   0.00000,274640135.82653,   0.00000,   0.00000,   0.00000,-21257944.04148,   0.00000
109836086.70803,-389074548.10324,-5179677.21558,   0.00126,  -0.00198,  -0.00007,454156231.81302,   0.00000,274640135.82653,   0.00000,   0.00000,   0.00000,-20483904.01351,   0.00000
107756194.19779,-391291954.16788,-5013515.00402,   0.00125,  -0.00199,  -0.00007,454928926.95886,   0.00000,274640135.82653,   0.00000,   0.00000,   0.00000,-19711208.86767,   0.00000
105676301.68755,-393509360.23251,-4847352.79246,   0.00125,  -0.00200,  -0.00006,455710655.66327,   0.00000,274640135.82653,   0.00000,   0.00000,   0.00000,-18929480.16326,   0.00000
103576355.11729,-395735360.89430,-4681190.58089,   0.00124,  -0.00200,  -0.00006,456496554.32407,   0.00000,274640135.82653,   0.00000,   0.00000,   0.00000,-18143581.50246,   0.00000
101456354.48702,-397969956.15323,-4509298.63790,   0.00124,  -0.00201,  -0.00006,457286627.98696,   0.00000,274640135.82653,   0.00000,   0.00000,   0.00000,-17353507.83957,   0.00000
99336353.85675,-400204551.41216,-4331676.96347,   0.00123,  -0.00201,  -0.00006,458085740.20447,   0.00000,274640135.82653,   0.00000,   0.00000,   0.00000,-16554395.62206,   0.00000
97167650.50930,-402476389.92541,-4154055.28904,   0.00123,  -0.00202,  -0.00005,458898954.53514,   0.00000,274640135.82653,   0.00000,   0.00000,   0.00000,-15741181.29139,   0.00000
95007541.75900,-404728174.37865,-3976433.61462,   0.00122,  -0.00203,  -0.00005,459707508.23557,   0.00000,274640135.82653,   0.00000,   0.00000,   0.00000,-14932627.59096,   0.00000
92818784.35153,-407008607.48905,-3793082.20875,   0.00122,  -0.00203,  -0.00005,460535058.25761,   0.00000,274640135.82653,   0.00000,   0.00000,   0.00000,-14105077.56892,   0.00000
90609972.88405,-409297635.19659,-3604001.07146,   0.00121,  -0.00204,  -0.00005,461367679.25529,   0.00000,274640135.82653,   0.00000,   0.00000,   0.00000,-13272456.57124,   0.00000
88401161.41656,-411586662.90414,-3414919.93417,   0.00120,  -0.00205,  -0.00004,462209985.26549,   0.00000,274640135.82653,   0.00000,   0.00000,   0.00000,-12430150.56103,   0.00000
86172295.88906,-413884285.20884,-3220109.06544,   0.00120,  -0.00205,  -0.00004,463057590.92974,   0.00000,274640135.82653,   0.00000,   0.00000,   0.00000,-11582544.89679,   0.00000
83923376.30154,-416190502.11069,-3025298.19671,   0.00119,  -0.00206,  -0.00004,463910806.67117,   0.00000,274640135.82653,   0.00000,   0.00000,   0.00000,-10729329.15535,   0.00000
81654402.65401,-418505313.60969,-2824757.59655,   0.00119,  -0.00206,  -0.00004,464769704.42262,   0.00000,274640135.82653,   0.00000,   0.00000,   0.00000,-9870431.40391,   0.00000
79365374.94646,-420828719.70584,-2624216.99639,   0.00118,  -0.00207,  -0.00003,465634580.69807,   0.00000,274640135.82653,   0.00000,   0.00000,   0.00000,-9005555.12846,   0.00000
77067752.64176,-423172179.86200,-2423676.39623,   0.00118,  -0.00208,  -0.00003,466524044.19356,   0.00000,274640135.82653,   0.00000,   0.00000,   0.00000,-8116091.63297,   0.00000
74730022.21703,-425532829.21246,-2217406.06463,   0.00117,  -0.00208,  -0.00003,467415867.73259,   0.00000,274640135.82653,   0.00000,   0.00000,   0.00000,-7224268.09394,   0.00000
72420940.44947,-427864829.90576,-2005406.00161,   0.00116,  -0.00209,  -0.00003,468307103.95273,   0.00000,274640135.82653,   0.00000,   0.00000,   0.00000,-6333031.87380,   0.00000
70063155.96472,-430234073.85337,-1793405.93858,   0.00116,  -0.00209,  -0.00002,469215739.35719,   0.00000,274640135.82653,   0.00000,   0.00000,   0.00000,-5424396.46934,   0.00000
67685317.41996,-432611912.39814,-1575676.14412,   0.00115,  -0.00210,  -0.00002,470131143.21354,   0.00000,274640135.82653,   0.00000,   0.00000,   0.00000,-4508992.61299,   0.00000
65307478.87520,-434989750.94290,-1357946.34966,   0.00115,  -0.00211,  -0.00002,471057073.23837,   0.00000,274640135.82653,   0.00000,   0.00000,   0.00000,-3583062.58816,   0.00000
62909586.27042,-437376184.08481,-1134486.82377,   0.00114,  -0.00211,  -0.00001,471989998.21572,   0.00000,274640135.82653,   0.00000,   0.00000,   0.00000,-2650137.61081,   0.00000
60491639.60562,-439771211.82387,-911027.29787,   0.00113,  -0.00212,  -0.00001,472930152.11340,   0.00000,274640135.82653,   0.00000,   0.00000,   0.00000,-1709983.71313,   0.00000
58073692.94083,-442166239.56294,-681838.04055,   0.00113,  -0.00213,  -0.00001,473880953.78009,   0.00000,274640135.82653,   0.00000,   0.00000,   0.00000,-759182.04643,   0.00000
56140713.93219,-444072278.09759,-502234.88063,   0.00112,  -0.00213,  -0.00001,474640136.71951,   0.00000,274640135.82653,   0.00000,   0.00000,   0.00000,   0.89298,   0.00000
55567030.05500,-444411140.56879,-452443.01809,   0.00112,  -0.00213,  -0.00001,474640136.71951,   0.00000,274641104.22761,   0.00000,  -0.00000,  -0.00000,   0.19719,   1.00000
52930155.84730,-445961683.85228,-217071.30357,   0.00111,  -0.00214,  -0.00000,475607136.88670,   0.00000,274645538.95560,   0.00000,  -0.00001,  -0.00000,   0.00000,   2.00000
50276457.14971,-447510516.43253,23527.90328,   0.00111,  -0.00214,   0.00000,475619687.99898,   0.00001,274650007.29526,   0.00001,  -0.00001,  -0.00000,   0.00000,   2.00000
47614300.33995,-449052703.81389,257889.16042,   0.00110,  -0.00215,   0.00000,475650473.41049,   0.00001,274654592.54888,   0.00001,  -0.00001,  -0.00000,   0.00000,   2.00000
44916031.85383,-450603828.74651,503172.57088,   0.00109,  -0.00216,   0.00001,475660694.08097,   0.00002,274659199.71265,   0.00001,  -0.00002,   0.00000,  -0.00000,   2.00000
42231905.85407,-452134912.88767,747927.94380,   0.00109,  -0.00216,   0.00001,475661794.83028,   0.00002,274663786.89241,   0.00001,  -0.00002,   0.00000,   0.00000,   2.00000
39539871.90884,-453658700.13125,992094.71395,   0.00108,  -0.00217,   0.00001,475693055.81602,   0.00003,274668492.02852,   0.00002,  -0.00003,   0.00000,   0.00000,   2.00000
36811916.64514,-455190606.88823,1241416.35346,   0.00107,  -0.00217,   0.00002,475704148.40865,   0.00003,274673222.15233,   0.00002,  -0.00003,   0.00000,  -0.00000,   2.00000
34087392.21743,-456708434.63648,1490139.14424,   0.00107,  -0.00218,   0.00002,475720725.20212,   0.00003,274678002.08221,   0.00002,  -0.00004,   0.00000,   0.00000,   2.00000
31346754.94165,-458222910.32419,1743976.54180,   0.00106,  -0.00219,   0.00002,475734942.14811,   0.00004,274682820.66287,   0.00002,  -0.00004,   0.00000,   0.00000,   2.00000
28590108.16696,-459733754.98666,2002904.43804,   0.00105,  -0.00219,   0.00003,475749433.64371,   0.00004,274687678.81710,   0.00003,  -0.00005,   0.00000,  -0.00000,   2.00000
25817570.92432,-461240762.34855,2261182.03551,   0.00105,  -0.00220,   0.00003,475764119.74465,   0.00005,274692577.09387,   0.00003,  -0.00005,   0.00000,   0.00000,   2.00000
23048991.25046,-462733099.45380,2518785.94045,   0.00104,  -0.00221,   0.00003,475781219.34367,   0.00005,274697526.15348,   0.00003,  -0.00006,   0.00000,  -0.00000,   2.00000
20264735.96665,-464221166.36933,2781431.37095,   0.00103,  -0.00221,   0.00004,475796343.86749,   0.00006,274702516.61132,   0.00003,  -0.00006,   0.00000,   0.00000,   2.00000
17454494.90498,-465710251.78201,3048989.16013,   0.00102,  -0.00222,   0.00004,475827256.97118,   0.00006,274707619.72911,   0.00004,  -0.00007,   0.00000,   0.00000,   2.00000
14659077.42928,-467178626.81836,3315909.03488,   0.00102,  -0.00223,   0.00004,475829326.25609,   0.00007,274712703.98946,   0.00004,  -0.00007,   0.00000,   0.00000,   2.00000
11828545.86487,-468652456.75948,3582103.09845,   0.00101,  -0.00223,   0.00005,475843168.21959,   0.00007,274717822.70235,   0.00004,  -0.00008,   0.00000,   0.00000,   2.00000
8992470.57541,-470115889.29001,3858826.30694,   0.00100,  -0.00224,   0.00005,475876868.26057,   0.00008,274723065.38956,   0.00004,  -0.00008,   0.00000,   0.00000,   2.00000
6171443.78449,-471558601.01020,4129155.69137,   0.00099,  -0.00224,   0.00005,475879032.78071,   0.00008,274728288.68994,   0.00005,  -0.00009,   0.00000,   0.00000,   2.00000
3305594.08157,-473010897.46894,4404267.18431,   0.00099,  -0.00225,   0.00006,475909623.57635,   0.00009,274733620.89501,   0.00005,  -0.00009,   0.00000,   0.00000,   2.00000
454925.91497,-474441970.34544,4684402.16440,   0.00098,  -0.00226,   0.00006,475912357.39224,   0.00009,274738935.62802,   0.00005,  -0.00010,   0.00000,  -0.00000,   2.00000
-2420226.52554,-475872005.50513,4963510.67173,   0.00097,  -0.00226,   0.00007,475944957.39409,   0.00009,274744367.40628,   0.00006,  -0.00010,   0.00000,   0.00000,   2.00000
-5280048.31497,-477280765.63086,5247617.34470,   0.00096,  -0.00227,   0.00007,475947814.16871,   0.00010,274749781.58230,   0.00006,  -0.00011,   0.00000,   0.00000,   2.00000
-8163901.39313,-478687952.93893,5530630.90499,   0.00096,  -0.00228,   0.00007,475980850.96605,   0.00010,274755313.78129,   0.00006,  -0.00011,   0.00000,   0.00000,   2.00000
-11061814.06064,-480088353.91608,5812716.41011,   0.00095,  -0.00228,   0.00008,475998433.52453,   0.00011,274760893.72299,   0.00006,  -0.00012,   0.00000,   0.00000,   2.00000
-13964097.15137,-481476847.96790,6099781.12691,   0.00094,  -0.00229,   0.00008,476000557.57520,   0.00012,274766451.68608,   0.00007,  -0.00012,   0.00000,   0.00000,   2.00000
-16869711.96929,-482853017.41960,6391352.51938,   0.00093,  -0.00229,   0.00009,476035630.11640,   0.00012,274772135.28897,   0.00007,  -0.00013,   0.00000,   0.00000,   2.00000
-19788904.72160,-484221744.05985,6681913.34094,   0.00093,  -0.00230,   0.00009,476053850.89420,   0.00013,274777868.17711,   0.00007,  -0.00014,   0.00000,  -0.00000,   2.00000
-22712234.15485,-485578123.91527,6977400.93852,   0.00092,  -0.00231,   0.00009,476056536.43317,   0.00013,274783580.51444,   0.00007,  -0.00014,   0.00000,  -0.00000,   2.00000
-25658071.86289,-486930932.85442,7271578.33195,   0.00091,  -0.00231,   0.00010,476091227.37065,   0.00014,274789415.11903,   0.00008,  -0.00015,   0.00000,   0.00000,   2.00000
-28596957.19116,-488266104.46495,7570372.19038,   0.00090,  -0.00232,   0.00010,476111046.01634,   0.00014,274795304.78722,   0.00008,  -0.00015,   0.00000,   0.00000,   2.00000
-31548716.30968,-489592902.96521,7868048.68350,   0.00089,  -0.00233,   0.00011,476130163.49686,   0.00015,274801245.89355,   0.00008,  -0.00016,   0.00000,   0.00000,   2.00000
-34484246.78197,-490898095.12966,8164873.22714,   0.00089,  -0.00233,   0.00011,476133693.89750,   0.00015,274807168.73827,   0.00008,  -0.00017,   0.00000,   0.00000,   2.00000
-37441246.30353,-492198077.19473,8471666.02733,   0.00088,  -0.00234,   0.00011,476169832.46301,   0.00016,274813218.07256,   0.00009,  -0.00017,   0.00000,  -0.00000,   2.00000
-40410562.79153,-493489345.66174,8771542.13676,   0.00087,  -0.00234,   0.00012,476189270.15675,   0.00016,274819318.82700,   0.00009,  -0.00018,   0.00000,  -0.00000,   2.00000
-43383361.95509,-494767194.38141,9076237.02456,   0.00086,  -0.00235,   0.00012,476193302.50069,   0.00017,274825402.32048,   0.00009,  -0.00018,   0.00001,   0.00000,   2.00000
-46356716.33379,-496030464.16244,9385057.86393,   0.00085,  -0.00236,   0.00013,476230051.70830,   0.00017,274831613.24799,   0.00010,  -0.00019,   0.00001,   0.00000,   2.00000
-49341808.13389,-497284076.99413,9692589.10756,   0.00084,  -0.00236,   0.00013,476250419.44504,   0.00018,274837878.22536,   0.00010,  -0.00020,   0.00001,   0.00000,   2.00000
-52310071.44969,-498515484.63618,10004880.39673,   0.00084,  -0.00237,   0.00014,476254795.65161,   0.00019,274844126.29017,   0.00010,  -0.00020,   0.00001,  -0.00000,   2.00000
-55318050.09649,-499748750.63620,10315451.73339,   0.00083,  -0.00238,   0.00014,476292111.98122,   0.00019,274850502.40993,   0.00010,  -0.00021,   0.00001,  -0.00000,   2.00000
-58317106.05239,-500963378.05221,10624656.41825,   0.00082,  -0.00238,   0.00015,476312856.94545,   0.00020,274856932.70036,   0.00011,  -0.00022,   0.00001,   0.00000,   2.00000
-61299012.01197,-502155670.42329,10938580.29525,   0.00081,  -0.00239,   0.00015,476317494.39998,   0.00020,274863345.98006,   0.00011,  -0.00022,   0.00001,   0.00000,   2.00000
-64299708.45864,-503340319.31912,11256370.72234,   0.00080,  -0.00240,   0.00015,476355593.54224,   0.00021,274869888.93587,   0.00011,  -0.00023,   0.00001,   0.00000,   2.00000
-67303035.89863,-504510866.13557,11573109.59710,   0.00079,  -0.00240,   0.00016,476360661.82039,   0.00022,274876415.87313,   0.00011,  -0.00024,   0.00001,   0.00000,   2.00000
-70324488.71364,-505673470.37654,11887920.36988,   0.00078,  -0.00241,   0.00016,476398949.07710,   0.00022,274883071.97390,   0.00012,  -0.00024,   0.00001,   0.00000,   2.00000
-73328317.52084,-506813492.35130,12207378.91382,   0.00077,  -0.00241,   0.00017,476404012.13744,   0.00023,274889711.18420,   0.00012,  -0.00025,   0.00001,   0.00000,   2.00000
-76349620.11030,-507944624.68654,12530516.23625,   0.00077,  -0.00242,   0.00017,476443154.06156,   0.00023,274896482.00264,   0.00012,  -0.00026,   0.00001,   0.00000,   2.00000
-79353118.67553,-509053624.30317,12852550.19995,   0.00076,  -0.00243,   0.00018,476447892.75944,   0.00024,274903233.65726,   0.00013,  -0.00027,   0.00001,  -0.00000,   2.00000
-82373485.26572,-510153726.75783,13172473.39249,   0.00075,  -0.00243,   0.00018,476486976.24122,   0.00025,274910115.35997,   0.00013,  -0.00027,   0.00001,  -0.00000,   2.00000
-85395701.10184,-511238479.89319,13496937.27104,   0.00074,  -0.00244,   0.00019,476493554.07989,   0.00025,274916984.97374,   0.00013,  -0.00028,   0.00001,  -0.00000,   2.00000
-88407040.07320,-512303838.05209,13819750.67642,   0.00073,  -0.00245,   0.00019,476515109.26683,   0.00026,274923907.38239,   0.00013,  -0.00029,   0.00001,  -0.00000,   2.00000
-91427151.27691,-513356370.55482,14146543.69528,   0.00072,  -0.00245,   0.00020,476538616.24660,   0.00027,274930890.47325,   0.00014,  -0.00029,   0.00001,   0.00000,   2.00000
-94455808.43303,-514396327.38394,14471574.62917,   0.00071,  -0.00246,   0.00020,476561887.69951,   0.00027,274937932.60966,   0.00014,  -0.00030,   0.00001,   0.00000,   2.00000
-97472869.67943,-515416079.50632,14800562.89412,   0.00070,  -0.00246,   0.00021,476584270.81120,   0.00028,274945029.42420,   0.00014,  -0.00031,   0.00001,   0.00000,   2.00000
-100498020.55487,-516422953.98964,15127719.42811,   0.00069,  -0.00247,   0.00021,476607871.11240,   0.00028,274952185.57563,   0.00014,  -0.00032,   0.00002,  -0.00000,   2.00000
-103511149.19173,-517409511.07577,15458770.41886,   0.00068,  -0.00248,   0.00022,476630410.58605,   0.00029,274959395.96250,   0.00015,  -0.00032,   0.00002,   0.00000,   2.00000
-106531905.24418,-518382898.63729,15787919.01339,   0.00067,  -0.00248,   0.00022,476654334.89717,   0.00030,274966665.94303,   0.00015,  -0.00033,   0.00002,   0.00000,   2.00000
-109560005.85261,-519342870.29979,16115136.95300,   0.00067,  -0.00249,   0.00023,476678505.00104,   0.00030,274973995.94202,   0.00015,  -0.00034,   0.00002,  -0.00000,   2.00000
-112569098.33303,-520280131.41787,16446789.61731,   0.00066,  -0.00250,   0.00023,476684436.74048,   0.00031,274981307.46331,   0.00015,  -0.00035,   0.00002,   0.00000,   2.00000
-115591295.58709,-521205239.87572,16781494.67967,   0.00065,  -0.00250,   0.00024,476726349.39062,   0.00032,274988754.01050,   0.00016,  -0.00036,   0.00002,  -0.00000,   2.00000
-118600520.46492,-522110983.91029,17108552.61525,   0.00064,  -0.00251,   0.00024,476748132.19737,   0.00033,274996248.67979,   0.00016,  -0.00036,   0.00002,  -0.00000,   2.00000
-121609985.27883,-522999499.74512,17445593.55573,   0.00063,  -0.00251,   0.00025,476757185.45643,   0.00033,275003736.81884,   0.00016,  -0.00037,   0.00002,   0.00000,   2.00000
-124625778.06513,-523874581.64237,17774837.23681,   0.00062,  -0.00252,   0.00025,476781489.16612,   0.00034,275011283.04490,   0.00016,  -0.00038,   0.00002,   0.00000,   2.00000
-127627745.90155,-524728204.44444,18113427.68212,   0.00061,  -0.00253,   0.00026,476805314.75823,   0.00035,275018884.78919,   0.00017,  -0.00039,   0.00002,   0.00000,   2.00000
-130641206.44295,-525569950.84959,18443435.68530,   0.00060,  -0.00253,   0.00026,476846938.23649,   0.00035,275026616.69362,   0.00017,  -0.00040,   0.00002,   0.00000,   2.00000
-133634852.31709,-526389069.33063,18777761.64875,   0.00059,  -0.00254,   0.00027,476853300.31526,   0.00036,275034328.78147,   0.00017,  -0.00040,   0.00003,  -0.00000,   2.00000
-136628208.92064,-527191198.61820,19116265.04387,   0.00058,  -0.00255,   0.00028,476862444.35542,   0.00037,275042032.78774,   0.00017,  -0.00041,   0.00003,  -0.00000,   2.00000
-139612687.93848,-527975662.47798,19446188.53286,   0.00057,  -0.00255,   0.00028,476901472.54495,   0.00037,275049854.37656,   0.00018,  -0.00042,   0.00003,   0.00000,   2.00000
-142601659.82978,-528743804.87147,19785168.56058,   0.00056,  -0.00256,   0.00029,476928696.36914,   0.00038,275057742.87101,   0.00018,  -0.00043,   0.00003,  -0.00000,   2.00000
-145590139.17935,-529496183.05580,20116890.60244,   0.00055,  -0.00256,   0.00029,476936924.79881,   0.00039,275065617.96601,   0.00018,  -0.00044,   0.00003,   0.00000,   2.00000
-148568440.51303,-530229107.44964,20451275.02283,   0.00054,  -0.00257,   0.00030,476977651.36387,   0.00040,275073615.60613,   0.00018,  -0.00045,   0.00003,   0.00000,   2.00000
-151545673.10282,-530944591.57734,20789721.82880,   0.00053,  -0.00258,   0.00030,476987587.85093,   0.00040,275081606.09697,   0.00018,  -0.00046,   0.00003,  -0.00000,   2.00000
-154507482.48752,-531639965.14898,21125872.64971,   0.00052,  -0.00258,   0.00031,477010556.40323,   0.00041,275089643.71891,   0.00019,  -0.00046,   0.00003,   0.00000,   2.00000
-157472887.95047,-532320005.05221,21459538.25970,   0.00051,  -0.00259,   0.00031,477037064.91062,   0.00042,275097742.63390,   0.00019,  -0.00047,   0.00003,   0.00000,   2.00000
-160422285.16733,-532979138.66036,21796538.62624,   0.00050,  -0.00259,   0.00032,477060879.94662,   0.00043,275105891.08460,   0.00019,  -0.00048,   0.00004,  -0.00000,   2.00000
-163374779.85241,-533622760.58213,22130977.49147,   0.00049,  -0.00260,   0.00032,477087662.68947,   0.00043,275114100.78313,   0.00019,  -0.00049,   0.00004,   0.00000,   2.00000
-166310845.37874,-534245499.68632,22468687.73598,   0.00048,  -0.00261,   0.00033,477111581.66013,   0.00044,275122359.31262,   0.00019,  -0.00050,   0.00004,   0.00000,   2.00000
-169245522.42915,-534852338.92875,22799002.73622,   0.00047,  -0.00261,   0.00034,477120580.56203,   0.00045,275130604.54229,   0.00020,  -0.00051,   0.00004,   0.00000,   2.00000
-172186272.62911,-535442665.99954,23137089.05263,   0.00046,  -0.00262,   0.00034,477166632.81872,   0.00046,275138988.99062,   0.00020,  -0.00052,   0.00004,   0.00000,   2.00000
-175106364.67959,-536012862.75080,23467950.04725,   0.00045,  -0.00262,   0.00035,477171865.99326,   0.00046,275147343.67992,   0.00020,  -0.00053,   0.00004,   0.00000,   2.00000
-178009110.23042,-536561412.40710,23807653.04099,   0.00044,  -0.00263,   0.00035,477196710.70685,   0.00047,275155749.23673,   0.00020,  -0.00054,   0.00004,  -0.00000,   2.00000
-180913838.53721,-537095031.25369,24138922.74976,   0.00043,  -0.00264,   0.00036,477223306.78150,   0.00048,275164212.22864,   0.00020,  -0.00055,   0.00005,   0.00000,   2.00000
-183797409.80945,-537607084.26507,24474293.89917,   0.00042,  -0.00264,   0.00037,477230105.99693,   0.00049,275172651.26174,   0.00021,  -0.00055,   0.00005,  -0.00000,   2.00000
-186685900.26757,-538104102.25212,24805858.79730,   0.00041,  -0.00265,   0.00037,477274983.56117,   0.00049,275181221.58255,   0.00021,  -0.00056,   0.00005,   0.00000,   2.00000
-189571635.66915,-538583109.40560,25141222.18543,   0.00040,  -0.00265,   0.00038,477286506.11907,   0.00050,275189786.24589,   0.00021,  -0.00057,   0.00005,   0.00000,   2.00000
-192439858.18507,-539043573.28619,25468314.01131,   0.00039,  -0.00266,   0.00038,477308879.17207,   0.00051,275198389.28221,   0.00021,  -0.00058,   0.00005,   0.00000,   2.00000
-195292824.69834,-539483417.36488,25803061.97028,   0.00038,  -0.00267,   0.00039,477351223.26078,   0.00052,275207111.22244,   0.00021,  -0.00059,   0.00005,  -0.00000,   2.00000
-198140197.93687,-539906602.41174,26131287.91279,   0.00037,  -0.00267,   0.00040,477343838.41230,   0.00053,275215749.86621,   0.00021,  -0.00060,   0.00006,   0.00000,   2.00000
-200990466.64326,-540313259.42576,26461136.89809,   0.00035,  -0.00268,   0.00040,477390272.56387,   0.00053,275224522.87846,   0.00022,  -0.00061,   0.00006,  -0.00000,   2.00000
-203803627.40905,-540696726.12495,26794240.53481,   0.00034,  -0.00268,   0.00041,477409483.69717,   0.00054,275233319.59404,   0.00022,  -0.00062,   0.00006,   0.00000,   2.00000
-206632356.47632,-541067237.97375,27119412.60533,   0.00033,  -0.00269,   0.00041,477424709.32787,   0.00055,275242123.52970,   0.00022,  -0.00063,   0.00006,   0.00000,   2.00000
-209442018.73895,-541417608.46943,27447503.01783,   0.00032,  -0.00270,   0.00042,477448992.92340,   0.00056,275250970.89989,   0.00022,  -0.00064,   0.00006,   0.00000,   2.00000
-212232516.43644,-541748010.66147,27778475.14207,   0.00031,  -0.00270,   0.00043,477473221.12230,   0.00057,275259861.08143,   0.00022,  -0.00065,   0.00006,   0.00000,   2.00000
-215022130.35543,-542062170.85743,28106298.38083,   0.00030,  -0.00271,   0.00043,477501863.98417,   0.00057,275268811.17997,   0.00022,  -0.00066,   0.00007,  -0.00000,   2.00000
-217790268.23030,-542357075.52244,28432466.56339,   0.00029,  -0.00271,   0.00044,477507796.00066,   0.00058,275277730.19055,   0.00022,  -0.00067,   0.00007,   0.00000,   2.00000
-220539312.65569,-542633564.05936,28755836.14854,   0.00028,  -0.00272,   0.00044,477530875.00598,   0.00059,275286686.50264,   0.00022,  -0.00068,   0.00007,  -0.00000,   2.00000
-223286623.44341,-542892770.59416,29081640.72486,   0.00027,  -0.00273,   0.00045,477560666.72194,   0.00060,275295706.28831,   0.00023,  -0.00069,   0.00007,   0.00000,   2.00000
-226032259.57113,-543135744.28272,29404192.55301,   0.00026,  -0.00273,   0.00046,477589622.24581,   0.00061,275304785.55279,   0.00023,  -0.00070,   0.00007,   0.00000,   2.00000
-228758234.05232,-543360503.87814,29723879.42737,   0.00025,  -0.00274,   0.00046,477612824.36272,   0.00062,275313901.04345,   0.00023,  -0.00071,   0.00008,   0.00000,   2.00000
-231462283.91900,-543565556.72459,30047544.92086,   0.00024,  -0.00274,   0.00047,477619689.16428,   0.00062,275322988.06438,   0.00023,  -0.00072,   0.00008,   0.00000,   2.00000
-234166326.23831,-543756247.39852,30361028.54705,   0.00022,  -0.00275,   0.00048,477664978.27999,   0.00063,275332197.80458,   0.00023,  -0.00073,   0.00008,   0.00000,   2.00000
-236847901.01316,-543926228.48742,30684119.38969,   0.00021,  -0.00275,   0.00048,477672968.53083,   0.00064,275341382.87740,   0.00023,  -0.00074,   0.00008,  -0.00000,   2.00000
-239525889.87120,-544080940.15377,30999460.29955,   0.00020,  -0.00276,   0.00049,477683794.59503,   0.00065,275350554.45587,   0.00023,  -0.00075,   0.00009,  -0.00000,   2.00000
-242184727.66269,-544217368.41178,31316229.86528,   0.00019,  -0.00277,   0.00049,477725198.10794,   0.00066,275359832.12185,   0.00023,  -0.00076,   0.00009,   0.00000,   2.00000
-244822086.47758,-544336086.44939,31631342.05046,   0.00018,  -0.00277,   0.00050,477730842.71856,   0.00067,275369075.57017,   0.00023,  -0.00077,   0.00009,   0.00000,   2.00000
-247455975.12195,-544437644.80663,31948632.17960,   0.00017,  -0.00278,   0.00051,477761329.71359,   0.00068,275378381.62022,   0.00023,  -0.00078,   0.00009,   0.00000,   2.00000
-250070000.82876,-544523522.78585,32257329.23558,   0.00016,  -0.00278,   0.00051,477783053.34554,   0.00068,275387715.71792,   0.00023,  -0.00079,   0.00009,   0.00000,   2.00000
-252680129.62385,-544592287.16114,32568168.47575,   0.00015,  -0.00279,   0.00052,477813712.33964,   0.00069,275397112.13227,   0.00023,  -0.00080,   0.00010,   0.00000,   2.00000
-255268256.24398,-544642568.54032,32882964.19285,   0.00014,  -0.00279,   0.00053,477820484.16294,   0.00070,275406478.04467,   0.00023,  -0.00081,   0.00010,  -0.00000,   2.00000
-257836393.64818,-544677728.60750,33189141.43348,   0.00012,  -0.00280,   0.00053,477842004.83166,   0.00071,275415870.59454,   0.00024,  -0.00082,   0.00010,   0.00000,   2.00000
-260400208.47283,-544695958.35211,33497389.08305,   0.00011,  -0.00281,   0.00054,477872782.03026,   0.00072,275425325.08772,   0.00024,  -0.00083,   0.00010,  -0.00000,   2.00000
-262943270.02515,-544698008.19849,33802616.29484,   0.00010,  -0.00281,   0.00055,477895473.04542,   0.00073,275434809.97940,   0.00024,  -0.00085,   0.00011,   0.00000,   2.00000
-265465110.96360,-544683699.54620,34106226.22071,   0.00009,  -0.00282,   0.00055,477900799.92595,   0.00074,275444258.51115,   0.00024,  -0.00086,   0.00011,  -0.00000,   2.00000
-267982222.70643,-544652661.52352,34411836.92843,   0.00008,  -0.00282,   0.00056,477931688.77917,   0.00075,275453768.64176,   0.00024,  -0.00087,   0.00011,  -0.00000,   2.00000
-270478463.43709,-544605985.13598,34714401.50413,   0.00007,  -0.00283,   0.00057,477954204.28930,   0.00075,275463307.94959,   0.00024,  -0.00088,   0.00012,  -0.00000,   2.00000
-272970008.58245,-544543644.11739,35014745.48149,   0.00006,  -0.00283,   0.00057,477966781.16393,   0.00076,275472838.26662,   0.00024,  -0.00089,   0.00012,  -0.00000,   2.00000
-275440671.80197,-544466428.41958,35310600.94769,   0.00004,  -0.00284,   0.00058,478006418.61554,   0.00077,275482462.51471,   0.00024,  -0.00090,   0.00012,   0.00000,   2.00000
-277890303.14962,-544373691.55387,35604880.02480,   0.00003,  -0.00284,   0.00059,478011577.03881,   0.00078,275492049.26343,   0.00024,  -0.00091,   0.00012,  -0.00000,   2.00000
-280334548.17799,-544264083.51203,35902536.94336,   0.00002,  -0.00285,   0.00059,478025523.55726,   0.00079,275501632.00499,   0.00024,  -0.00092,   0.00013,   0.00000,   2.00000
-282757553.86871,-544140186.01337,36195647.75204,   0.00001,  -0.00285,   0.00060,478064949.43796,   0.00080,275511307.00988,   0.00024,  -0.00093,   0.00013,   0.00000,   2.00000
-285159742.04921,-544001297.92984,36487200.02604,  -0.00000,  -0.00286,   0.00061,478069961.06943,   0.00081,275520943.95519,   0.00024,  -0.00094,   0.00013,   0.00000,   2.00000
-287540256.19877,-543846650.87981,36781289.71606,  -0.00001,  -0.00287,   0.00061,478093308.63167,   0.00082,275530612.15946,   0.00023,  -0.00095,   0.00014,  -0.00000,   2.00000
-289916728.19567,-543678508.12310,37067550.27623,  -0.00002,  -0.00287,   0.00062,478104717.34214,   0.00082,275540266.50509,   0.00023,  -0.00096,   0.00014,  -0.00000,   2.00000
-292271438.48658,-543494901.49140,37356353.57377,  -0.00004,  -0.00288,   0.00063,478127994.48449,   0.00083,275549951.62458,   0.00023,  -0.00097,   0.00014,   0.00000,   2.00000
-294620706.91968,-543296947.11410,37641367.98058,  -0.00005,  -0.00288,   0.00063,478157950.88646,   0.00084,275559692.16665,   0.00023,  -0.00098,   0.00014,   0.00000,   2.00000
-296948783.55532,-543085388.50652,37923323.37946,  -0.00006,  -0.00289,   0.00064,478179854.79357,   0.00085,275569457.75461,   0.00023,  -0.00099,   0.00015,   0.00000,   2.00000
-299255778.70105,-542858334.00135,38209366.31314,  -0.00007,  -0.00289,   0.00065,478185939.02177,   0.00086,275579189.44895,   0.00023,  -0.00101,   0.00015,  -0.00000,   2.00000
-301542519.60587,-542619733.15884,38486775.46440,  -0.00008,  -0.00290,   0.00065,478206204.91331,   0.00087,275588940.23725,   0.00023,  -0.00102,   0.00015,   0.00000,   2.00000
-303822746.81028,-542365698.63526,38765946.16849,  -0.00009,  -0.00290,   0.00066,478237548.82412,   0.00088,275598750.99440,   0.00023,  -0.00103,   0.00016,   0.00000,   2.00000
-306066710.63074,-542099979.85151,39042860.38112,  -0.00011,  -0.00291,   0.00067,478250653.43597,   0.00089,275608554.04986,   0.00023,  -0.00104,   0.00016,  -0.00000,   2.00000
-308321072.60975,-541818908.33502,39316735.98718,  -0.00012,  -0.00291,   0.00067,478272095.28080,   0.00090,275618380.06172,   0.00023,  -0.00105,   0.00016,   0.00000,   2.00000
-310540556.13393,-541525940.47449,39590016.41862,  -0.00013,  -0.00292,   0.00068,478267953.63846,   0.00091,275628134.88579,   0.00023,  -0.00106,   0.00017,   0.00000,   2.00000
-312751964.58379,-541218689.69196,39863372.77062,  -0.00014,  -0.00292,   0.00069,478316295.69077,   0.00091,275638011.95681,   0.00023,  -0.00107,   0.00017,   0.00000,   2.00000
-314944589.14523,-540900390.75864,40129771.16970,  -0.00015,  -0.00293,   0.00070,478319181.95315,   0.00092,275647843.70491,   0.00022,  -0.00108,   0.00017,   0.00000,   2.00000
-317115480.98378,-540568744.62314,40398728.17307,  -0.00017,  -0.00293,   0.00070,478341776.59974,   0.00093,275657702.76644,   0.00022,  -0.00109,   0.00018,  -0.00000,   2.00000
-319267115.65595,-540224835.66242,40666332.99295,  -0.00018,  -0.00294,   0.00071,478345886.89945,   0.00094,275667521.52674,   0.00022,  -0.00110,   0.00018,  -0.00000,   2.00000
-321410969.45088,-539868889.85346,40928376.26925,  -0.00019,  -0.00294,   0.00072,478392717.48805,   0.00095,275677456.05915,   0.00022,  -0.00111,   0.00018,   0.00000,   2.00000
-323537360.81548,-539500113.27645,41190788.86705,  -0.00020,  -0.00295,   0.00072,478379910.85726,   0.00096,275687288.58579,   0.00022,  -0.00112,   0.00019,   0.00000,   2.00000
-325640399.41288,-539119630.86390,41454072.48743,  -0.00021,  -0.00295,   0.00073,478419102.53544,   0.00097,275697208.90935,   0.00022,  -0.00113,   0.00019,   0.00000,   2.00000
-327739811.38533,-538727416.93884,41709586.68000,  -0.00023,  -0.00296,   0.00074,478430718.28352,   0.00098,275707116.38139,   0.00022,  -0.00115,   0.00019,   0.00000,   2.00000
-329803428.52330,-538324874.57111,41968626.67266,  -0.00024,  -0.00296,   0.00074,478443696.75732,   0.00099,275717016.33341,   0.00021,  -0.00116,   0.00020,   0.00000,   2.00000
-331863651.55254,-537910867.22407,42219928.41542,  -0.00025,  -0.00297,   0.00075,478455219.28928,   0.00100,275726903.54758,   0.00021,  -0.00117,   0.00020,   0.00000,   2.00000
-333902441.14720,-537485033.42774,42473841.69723,  -0.00026,  -0.00297,   0.00076,478477261.21393,   0.00101,275736816.21968,   0.00021,  -0.00118,   0.00021,   0.00000,   2.00000
-335920853.26002,-537049338.79237,42724812.72624,  -0.00027,  -0.00298,   0.00076,478497680.48893,   0.00102,275746748.48061,   0.00021,  -0.00119,   0.00021,   0.00000,   2.00000
-337932775.27982,-536601813.92020,42971862.95143,  -0.00029,  -0.00298,   0.00077,478527558.75017,   0.00102,275756734.19204,   0.00021,  -0.00120,   0.00021,  -0.00000,   2.00000
-339912878.60263,-536145927.84628,43218764.43133,  -0.00030,  -0.00299,   0.00078,478521548.25529,   0.00103,275766644.58291,   0.00020,  -0.00121,   0.00022,   0.00000,   2.00000
-341888902.70692,-535677333.60587,43463518.49942,  -0.00031,  -0.00299,   0.00079,478534603.33398,   0.00104,275776548.45820,   0.00020,  -0.00122,   0.00022,   0.00000,   2.00000
-343841393.68851,-535199079.98446,43709139.56501,  -0.00032,  -0.00300,   0.00079,478572969.93434,   0.00105,275786536.49693,   0.00020,  -0.00123,   0.00022,  -0.00000,   2.00000
-345777364.95696,-534712515.83272,43948121.90524,  -0.00033,  -0.00300,   0.00080,478574744.28891,   0.00106,275796477.73769,   0.00020,  -0.00124,   0.00023,   0.00000,   2.00000
-347708266.29815,-534211687.43884,44190505.43681,  -0.00035,  -0.00301,   0.00081,478589474.98650,   0.00107,275806418.70937,   0.00019,  -0.00125,   0.00023,   0.00000,   2.00000
-349604447.58197,-533708027.15912,44423772.98478,  -0.00036,  -0.00301,   0.00081,478614461.07515,   0.00108,275816396.14115,   0.00019,  -0.00126,   0.00024,   0.00000,   2.00000
-351495711.61231,-533190352.04888,44660471.05633,  -0.00037,  -0.00301,   0.00082,478629166.37781,   0.00109,275826373.38270,   0.00019,  -0.00127,   0.00024,   0.00000,   2.00000
-353371069.98867,-532664954.12435,44890631.59265,  -0.00038,  -0.00302,   0.00083,478630686.56191,   0.00110,275836303.87687,   0.00019,  -0.00128,   0.00024,   0.00000,   2.00000
-355225753.57651,-532129818.54025,45123523.18822,  -0.00039,  -0.00302,   0.00083,478651889.21791,   0.00111,275846257.76288,   0.00018,  -0.00130,   0.00025,   0.00000,   2.00000
-357060987.10805,-531586987.35673,45353616.15573,  -0.00041,  -0.00303,   0.00084,478671378.54181,   0.00112,275856229.02027,   0.00018,  -0.00131,   0.00025,   0.00000,   2.00000
-358879785.96891,-531035128.55113,45582767.89358,  -0.00042,  -0.00303,   0.00085,478674258.05454,   0.00113,275866159.16928,   0.00018,  -0.00132,   0.00026,   0.00000,   2.00000
-360680561.21810,-530477808.76727,45803653.22821,  -0.00043,  -0.00304,   0.00086,478691866.47283,   0.00114,275876100.47401,   0.00018,  -0.00133,   0.00026,   0.00000,   2.00000
-362473750.37572,-529908554.20004,46026174.94866,  -0.00044,  -0.00304,   0.00086,478723069.54478,   0.00114,275886100.73206,   0.00017,  -0.00134,   0.00026,   0.00000,   2.00000
-364250857.16066,-529330642.91917,46247824.77549,  -0.00045,  -0.00305,   0.00087,478725850.99099,   0.00115,275896060.03851,   0.00017,  -0.00135,   0.00027,   0.00000,   2.00000
-365996529.05409,-528749059.79667,46467957.60470,  -0.00047,  -0.00305,   0.00088,478734425.59128,   0.00116,275905999.26999,   0.00017,  -0.00136,   0.00027,   0.00000,   2.00000
-367735912.20520,-528157819.86226,46684204.61499,  -0.00048,  -0.00305,   0.00088,478763848.35149,   0.00117,275915991.55029,   0.00016,  -0.00137,   0.00028,   0.00000,   2.00000
-369459783.52764,-527558376.05011,46899661.33678,  -0.00049,  -0.00306,   0.00089,478766386.13146,   0.00118,275925942.84381,   0.00016,  -0.00138,   0.00028,  -0.00000,   2.00000
-371168340.89153,-526950832.58222,47114348.43862,  -0.00050,  -0.00306,   0.00090,478768838.18397,   0.00119,275935853.30872,   0.00016,  -0.00139,   0.00029,   0.00000,   2.00000
-372855144.62766,-526339167.52849,47324509.92274,  -0.00052,  -0.00307,   0.00091,478803814.67010,   0.00120,275945836.66227,   0.00015,  -0.00140,   0.00029,   0.00000,   2.00000
-374539009.70752,-525716345.01405,47532702.16473,  -0.00053,  -0.00307,   0.00091,478816932.43670,   0.00121,275955816.52528,   0.00015,  -0.00141,   0.00029,   0.00000,   2.00000
-376195990.51042,-525089174.63585,47741465.03935,  -0.00054,  -0.00308,   0.00092,478808436.03315,   0.00122,275965718.18751,   0.00015,  -0.00142,   0.00030,  -0.00000,   2.00000
-377834948.14299,-524456499.82378,47947651.15483,  -0.00055,  -0.00308,   0.00093,478826807.41529,   0.00123,275975635.49540,   0.00014,  -0.00143,   0.00030,   0.00000,   2.00000
-379467767.25457,-523815001.98097,48149987.26512,  -0.00056,  -0.00308,   0.00093,478856064.12078,   0.00124,275985606.13764,   0.00014,  -0.00144,   0.00031,   0.00000,   2.00000
-381086180.87607,-523166122.91498,48351700.68559,  -0.00058,  -0.00309,   0.00094,478858218.04851,   0.00125,275995536.27398,   0.00014,  -0.00145,   0.00031,  -0.00000,   2.00000
-382675200.88078,-522515799.14939,48552209.25654,  -0.00059,  -0.00309,   0.00095,478865351.88379,   0.00126,276005443.66432,   0.00013,  -0.00146,   0.00032,   0.00000,   2.00000
-384258244.47300,-521857045.18433,48748891.37081,  -0.00060,  -0.00310,   0.00096,478894483.66323,   0.00126,276015404.40961,   0.00013,  -0.00147,   0.00032,   0.00000,   2.00000
-385828777.14736,-521193204.77167,48939550.63948,  -0.00061,  -0.00310,   0.00096,478894660.35129,   0.00127,276025318.62392,   0.00013,  -0.00148,   0.00033,   0.00000,   2.00000
-387372967.15115,-520524223.59235,49136556.64136,  -0.00063,  -0.00310,   0.00097,478887038.11483,   0.00128,276035160.10332,   0.00012,  -0.00149,   0.00033,   0.00000,   2.00000
-388907576.30544,-519849582.28299,49327805.05267,  -0.00064,  -0.00311,   0.00098,478932083.43134,   0.00129,276045110.33351,   0.00012,  -0.00150,   0.00034,   0.00000,   2.00000
-390432681.01050,-519165753.95387,49520530.34499,  -0.00065,  -0.00311,   0.00098,478917822.29575,   0.00130,276054965.36791,   0.00011,  -0.00151,   0.00034,  -0.00000,   2.00000
-391938346.02409,-518482327.83319,49703415.03438,  -0.00066,  -0.00312,   0.00099,478949670.38642,   0.00131,276064883.96436,   0.00011,  -0.00152,   0.00034,   0.00000,   2.00000
-393429662.30533,-517790461.51641,49891383.77832,  -0.00068,  -0.00312,   0.00100,478953074.29053,   0.00132,276074768.62956,   0.00010,  -0.00153,   0.00035,   0.00000,   2.00000
-394909608.40956,-517094124.70796,50073475.71708,  -0.00069,  -0.00312,   0.00100,478952824.23714,   0.00133,276084607.22181,   0.00010,  -0.00154,   0.00035,   0.00000,   2.00000
-396367608.07116,-516394913.00793,50256749.06087,  -0.00070,  -0.00313,   0.00101,478987916.28093,   0.00134,276094520.97032,   0.00010,  -0.00155,   0.00036,   0.00000,   2.00000
-397818609.09604,-515688691.38794,50436174.31421,  -0.00071,  -0.00313,   0.00102,478971665.54509,   0.00135,276104334.43980,   0.00009,  -0.00156,   0.00036,   0.00000,   2.00000
-399249288.42620,-514981945.54472,50611342.05535,  -0.00072,  -0.00314,   0.00103,479004713.93488,   0.00136,276114216.41105,   0.00009,  -0.00157,   0.00037,   0.00000,   2.00000
-400667887.89686,-514269169.20552,50786239.20319,  -0.00074,  -0.00314,   0.00103,479006022.06452,   0.00137,276124058.65303,   0.00008,  -0.00158,   0.00037,   0.00000,   2.00000
-402074566.40726,-513550407.05723,50960879.35205,  -0.00075,  -0.00314,   0.00104,479007275.13911,   0.00137,276133861.39554,   0.00008,  -0.00159,   0.00038,   0.00000,   2.00000
-403454929.22437,-512832844.71301,51134779.16080,  -0.00076,  -0.00315,   0.00105,479012427.39250,   0.00138,276143638.39469,   0.00007,  -0.00160,   0.00038,  -0.00000,   2.00000
-404830083.28639,-512108398.66343,51304983.03980,  -0.00077,  -0.00315,   0.00105,479041024.11383,   0.00139,276153469.46846,   0.00007,  -0.00161,   0.00039,  -0.00000,   2.00000
-406193816.23349,-511378213.45685,51474996.89211,  -0.00079,  -0.00315,   0.00106,479042120.13666,   0.00140,276163261.28448,   0.00007,  -0.00162,   0.00039,   0.00000,   2.00000
-407543578.90741,-510647494.26830,51637386.64702,  -0.00080,  -0.00316,   0.00107,479056972.91805,   0.00141,276173060.80474,   0.00006,  -0.00163,   0.00040,   0.00000,   2.00000
-408880717.99135,-509909169.07702,51805116.27843,  -0.00081,  -0.00316,   0.00107,479059821.56706,   0.00142,276182827.60849,   0.00006,  -0.00164,   0.00040,   0.00000,   2.00000
-410204166.91559,-509170557.16710,51965256.41399,  -0.00082,  -0.00316,   0.00108,479074508.73260,   0.00143,276192602.04523,   0.00005,  -0.00165,   0.00041,   0.00000,   2.00000
-411506873.91365,-508430762.03392,52126877.26914,  -0.00084,  -0.00317,   0.00109,479063307.25522,   0.00144,276202296.90328,   0.00005,  -0.00166,   0.00041,  -0.00000,   2.00000
-412798791.03744,-507686029.29602,52288310.05453,  -0.00085,  -0.00317,   0.00110,479109149.56129,   0.00145,276212105.27391,   0.00004,  -0.00167,   0.00042,   0.00000,   2.00000
-414087748.53266,-506936524.89018,52440799.96955,  -0.00086,  -0.00317,   0.00110,479090641.03515,   0.00146,276221809.68134,   0.00004,  -0.00168,   0.00042,   0.00000,   2.00000
-415350676.30772,-506187560.40626,52598320.95816,  -0.00087,  -0.00318,   0.00111,479096555.39040,   0.00147,276231493.25604,   0.00003,  -0.00168,   0.00043,   0.00000,   2.00000
-416608859.83029,-505432532.85742,52752233.97047,  -0.00088,  -0.00318,   0.00112,479124867.57565,   0.00147,276241231.61642,   0.00003,  -0.00169,   0.00043,   0.00000,   2.00000
-417849046.14809,-504678751.76752,52902336.41160,  -0.00090,  -0.00318,   0.00112,479111316.92482,   0.00148,276250883.89277,   0.00002,  -0.00170,   0.00044,  -0.00000,   2.00000
-419073463.68047,-503921504.69052,53055935.55409,  -0.00091,  -0.00319,   0.00113,479129128.28822,   0.00149,276260556.15549,   0.00002,  -0.00171,   0.00044,   0.00000,   2.00000
-420294916.74322,-503160481.03383,53200508.91404,  -0.00092,  -0.00319,   0.00114,479155439.30660,   0.00150,276270276.91840,   0.00001,  -0.00172,   0.00045,  -0.00000,   2.00000
-421501933.45984,-502395095.24232,53348862.93312,  -0.00093,  -0.00319,   0.00114,479128180.98579,   0.00151,276279866.42028,   0.00001,  -0.00173,   0.00045,   0.00000,   2.00000
-422692261.29283,-501634419.51414,53487849.25956,  -0.00095,  -0.00320,   0.00115,479157271.05127,   0.00152,276289514.39920,  -0.00000,  -0.00174,   0.00045,  -0.00000,   2.00000
-423871823.50387,-500866779.54774,53632464.10800,  -0.00096,  -0.00320,   0.00116,479159520.58172,   0.00153,276299130.85633,  -0.00001,  -0.00175,   0.00046,   0.00000,   2.00000
-425039497.62629,-500100225.03550,53769781.09806,  -0.00097,  -0.00320,   0.00116,479173143.24500,   0.00154,276308754.15961,  -0.00001,  -0.00176,   0.00046,   0.00000,   2.00000
-426187578.31876,-499331348.03657,53914431.69692,  -0.00098,  -0.00321,   0.00117,479162740.80030,   0.00155,276318304.16486,  -0.00002,  -0.00177,   0.00047,  -0.00000,   2.00000
-427334876.67746,-498561197.08745,54044699.23264,  -0.00099,  -0.00321,   0.00118,479186791.08710,   0.00156,276327896.45172,  -0.00002,  -0.00177,   0.00047,  -0.00000,   2.00000
-428462965.46623,-497788806.85729,54182385.54687,  -0.00101,  -0.00321,   0.00118,479176236.93560,   0.00156,276337415.44959,  -0.00003,  -0.00178,   0.00048,  -0.00000,   2.00000
-429586987.23073,-497011217.57212,54316592.03582,  -0.00102,  -0.00322,   0.00119,479204133.70916,   0.00157,276346990.04504,  -0.00003,  -0.00179,   0.00048,   0.00000,   2.00000
-430695595.84908,-496235540.18441,54447370.47721,  -0.00103,  -0.00322,   0.00120,479189535.75687,   0.00158,276356478.30206,  -0.00004,  -0.00180,   0.00049,   0.00000,   2.00000
-431791488.11329,-495459450.93718,54576440.28925,  -0.00104,  -0.00322,   0.00120,479204585.67471,   0.00159,276365979.69842,  -0.00004,  -0.00181,   0.00049,  -0.00000,   2.00000
-432874791.19036,-494683057.76880,54703821.51284,  -0.00105,  -0.00322,   0.00121,479219575.85534,   0.00160,276375494.14179,  -0.00005,  -0.00182,   0.00050,   0.00000,   2.00000
-433950319.74379,-493902004.20347,54831572.11550,  -0.00107,  -0.00323,   0.00122,479219475.27714,   0.00161,276384971.44402,  -0.00006,  -0.00183,   0.00051,   0.00000,   2.00000
-435019919.64445,-493118313.11700,54954275.02882,  -0.00108,  -0.00323,   0.00122,479217367.95754,   0.00162,276394405.19730,  -0.00006,  -0.00183,   0.00051,   0.00000,   2.00000
-436064044.44858,-492343808.73468,55075077.28928,  -0.00109,  -0.00323,   0.00123,479234212.64833,   0.00163,276403858.90484,  -0.00007,  -0.00184,   0.00052,   0.00000,   2.00000
-437105654.85803,-491560089.11563,55198374.59063,  -0.00110,  -0.00324,   0.00124,479218958.19860,   0.00163,276413225.82147,  -0.00007,  -0.00185,   0.00052,   0.00000,   2.00000
-438138912.13650,-490776368.22441,55316247.99217,  -0.00112,  -0.00324,   0.00124,479261479.01138,   0.00164,276422698.59375,  -0.00008,  -0.00186,   0.00053,   0.00000,   2.00000
-439163267.34464,-489990114.10325,55433011.72394,  -0.00113,  -0.00324,   0.00125,479231301.61963,   0.00165,276432035.23057,  -0.00008,  -0.00187,   0.00053,   0.00000,   2.00000
-440162911.94891,-489213615.83333,55547990.03583,  -0.00114,  -0.00324,   0.00126,479247548.10864,   0.00166,276441390.78471,  -0.00009,  -0.00188,   0.00054,  -0.00000,   2.00000
-441164041.02385,-488427802.56622,55661698.05230,  -0.00115,  -0.00325,   0.00126,479260142.54101,   0.00167,276450753.14648,  -0.00010,  -0.00188,   0.00054,   0.00000,   2.00000
-442150373.01641,-487642206.47823,55777758.67866,  -0.00116,  -0.00325,   0.00127,479246560.41395,   0.00168,276460035.56884,  -0.00010,  -0.00189,   0.00055,   0.00000,   2.00000
-443135244.89460,-486854256.78258,55885078.85024,  -0.00118,  -0.00325,   0.00128,479271946.00087,   0.00169,276469367.76888,  -0.00011,  -0.00190,   0.00055,   0.00000,   2.00000
-444100846.88347,-486071587.05303,55992783.65811,  -0.00119,  -0.00325,   0.00128,479272980.96017,   0.00170,276478668.93700,  -0.00011,  -0.00191,   0.00056,   0.00000,   2.00000
-445060203.01858,-485284382.72375,56101101.01589,  -0.00120,  -0.00326,   0.00129,479272368.49551,   0.00170,276487933.88219,  -0.00012,  -0.00192,   0.00056,   0.00000,   2.00000
-446002585.69307,-484504640.63657,56204428.76166,  -0.00121,  -0.00326,   0.00130,479271105.11342,   0.00171,276497160.72223,  -0.00013,  -0.00192,   0.00057,   0.00000,   2.00000
-446946822.44281,-483715529.10802,56306567.02445,  -0.00122,  -0.00326,   0.00130,479283659.85070,   0.00172,276506395.50917,  -0.00013,  -0.00193,   0.00057,   0.00000,   2.00000
-447872535.82040,-482931958.49503,56409195.07628,  -0.00124,  -0.00326,   0.00131,479284256.32259,   0.00173,276515598.76422,  -0.00014,  -0.00194,   0.00058,   0.00000,   2.00000
-448794393.80170,-482145879.11621,56507100.25504,  -0.00125,  -0.00327,   0.00132,479281419.67711,   0.00174,276524759.32771,  -0.00015,  -0.00195,   0.00058,   0.00000,   2.00000
-449698158.38144,-481365455.62383,56605564.49375,  -0.00126,  -0.00327,   0.00132,479281742.92996,   0.00175,276533887.99968,  -0.00015,  -0.00196,   0.00059,   0.00000,   2.00000
-450604038.96909,-480575612.24776,56702874.38407,  -0.00127,  -0.00327,   0.00133,479294252.42860,   0.00176,276543025.34391,  -0.00016,  -0.00196,   0.00059,   0.00000,   2.00000
-451492107.08825,-479791537.07024,56800773.12355,  -0.00128,  -0.00327,   0.00133,479294431.23616,   0.00176,276552130.67885,  -0.00016,  -0.00197,   0.00060,   0.00000,   2.00000
-452371972.88308,-479010479.17557,56891977.77308,  -0.00129,  -0.00328,   0.00134,479305889.94660,   0.00177,276561241.51951,  -0.00017,  -0.00198,   0.00060,   0.00000,   2.00000
-453246708.95683,-478224844.12863,56983982.70758,  -0.00131,  -0.00328,   0.00135,479304895.08915,   0.00178,276570316.77918,  -0.00018,  -0.00199,   0.00061,   0.00000,   2.00000
-454113409.91381,-477442306.61890,57069346.19166,  -0.00132,  -0.00328,   0.00135,479316255.51630,   0.00179,276579397.52105,  -0.00018,  -0.00199,   0.00061,  -0.00000,   2.00000
-454967905.37447,-476660036.55339,57157484.42854,  -0.00133,  -0.00328,   0.00136,479301619.45901,   0.00180,276588397.92855,  -0.00019,  -0.00200,   0.00062,   0.00000,   2.00000
-455812733.32046,-475878908.63307,57244429.88888,  -0.00134,  -0.00328,   0.00137,479314847.20298,   0.00181,276597410.53135,  -0.00020,  -0.00201,   0.00062,   0.00000,   2.00000
-456652877.74430,-475093143.10831,57332232.35528,  -0.00135,  -0.00329,   0.00137,479313700.40806,   0.00182,276606387.89698,  -0.00020,  -0.00201,   0.00063,   0.00000,   2.00000
-457478375.10665,-474315519.74816,57415403.57188,  -0.00137,  -0.00329,   0.00138,479311087.05512,   0.00182,276615325.39764,  -0.00021,  -0.00202,   0.00063,  -0.00000,   2.00000
-458296525.51610,-473541199.26974,57492047.04634,  -0.00138,  -0.00329,   0.00138,479322011.44860,   0.00183,276624267.96444,  -0.00022,  -0.00203,   0.00064,   0.00000,   2.00000
-459108405.76908,-472760163.57416,57575037.70288,  -0.00139,  -0.00329,   0.00139,479322788.41001,   0.00184,276633182.22748,  -0.00022,  -0.00204,   0.00064,   0.00000,   2.00000
-459917979.16846,-471976437.27946,57653541.71644,  -0.00140,  -0.00329,   0.00140,479319421.00461,   0.00185,276642054.66792,  -0.00023,  -0.00204,   0.00065,   0.00000,   2.00000
-460713546.29672,-471200983.29130,57727536.57553,  -0.00141,  -0.00330,   0.00140,479316415.96189,   0.00186,276650886.71122,  -0.00023,  -0.00205,   0.00065,  -0.00000,   2.00000
-461500203.84259,-470426926.12787,57800490.47940,  -0.00142,  -0.00330,   0.00141,479329155.58031,   0.00187,276659730.59489,  -0.00024,  -0.00206,   0.00066,   0.00000,   2.00000
-462282937.61390,-469648088.35309,57874442.45794,  -0.00144,  -0.00330,   0.00141,479327724.23425,   0.00187,276668539.59904,  -0.00025,  -0.00206,   0.00066,  -0.00000,   2.00000
-463050196.96679,-468875609.84353,57949355.46487,  -0.00145,  -0.00330,   0.00142,479326506.08998,   0.00188,276677314.67161,  -0.00025,  -0.00207,   0.00067,  -0.00000,   2.00000
-463810883.05794,-468106662.92532,58017854.32133,  -0.00146,  -0.00330,   0.00143,479336955.65943,   0.00189,276686094.49146,  -0.00026,  -0.00208,   0.00067,   0.00000,   2.00000
-464574869.97608,-467328491.18743,58084030.28138,  -0.00147,  -0.00330,   0.00143,479319253.41704,   0.00190,276694786.18974,  -0.00027,  -0.00208,   0.00068,   0.00000,   2.00000
-465325447.10947,-466558283.51619,58147225.47152,  -0.00148,  -0.00331,   0.00144,479345745.02387,   0.00191,276703536.02161,  -0.00027,  -0.00209,   0.00068,   0.00000,   2.00000
-466066057.02790,-465788061.95762,58213525.73339,  -0.00149,  -0.00331,   0.00144,479330171.05635,   0.00191,276712205.07078,  -0.00028,  -0.00210,   0.00069,   0.00000,   2.00000
-466798441.94026,-465019445.07940,58278885.86529,  -0.00150,  -0.00331,   0.00145,479342475.96201,   0.00192,276720885.71607,  -0.00029,  -0.00210,   0.00069,   0.00000,   2.00000
-467525238.32066,-464254770.47613,58336583.33870,  -0.00152,  -0.00331,   0.00145,479322541.68249,   0.00193,276729471.54039,  -0.00029,  -0.00211,   0.00070,   0.00000,   2.00000
-468241993.37767,-463489715.62115,58398802.47979,  -0.00153,  -0.00331,   0.00146,479336777.38910,   0.00194,276738075.77075,  -0.00030,  -0.00212,   0.00070,   0.00000,   2.00000
-468957745.08984,-462721631.22059,58456751.87911,  -0.00154,  -0.00331,   0.00147,479332894.70828,   0.00195,276746638.60215,  -0.00031,  -0.00212,   0.00071,   0.00000,   2.00000
-469665591.85772,-461955227.57840,58513838.70776,  -0.00155,  -0.00332,   0.00147,479344972.32254,   0.00196,276755212.92446,  -0.00031,  -0.00213,   0.00071,  -0.00000,   2.00000
-470361473.49893,-461197423.20269,58566740.05044,  -0.00156,  -0.00332,   0.00148,479340747.06125,   0.00196,276763744.94058,  -0.00032,  -0.00214,   0.00072,  -0.00000,   2.00000
-471048447.08927,-460439354.50114,58622893.50795,  -0.00157,  -0.00332,   0.00148,479324671.99604,   0.00197,276772195.80406,  -0.00033,  -0.00214,   0.00072,   0.00000,   2.00000
-471740935.94209,-459673223.02312,58672776.77696,  -0.00158,  -0.00332,   0.00149,479334785.81474,   0.00198,276780652.24555,  -0.00033,  -0.00215,   0.00073,  -0.00000,   2.00000
-472414905.99358,-458920680.73965,58721941.15981,  -0.00160,  -0.00332,   0.00149,479346159.45098,   0.00199,276789118.46440,  -0.00034,  -0.00215,   0.00073,   0.00000,   2.00000
-473088447.18503,-458164900.80845,58766951.16224,  -0.00161,  -0.00332,   0.00150,479342047.67116,   0.00199,276797543.36754,  -0.00035,  -0.00216,   0.00074,   0.00000,   2.00000
-473753537.65064,-457408685.91069,58815294.65455,  -0.00162,  -0.00332,   0.00150,479325773.38606,   0.00200,276805887.06163,  -0.00035,  -0.00217,   0.00074,   0.00000,   2.00000
-474413478.40953,-456656247.26744,58857501.72681,  -0.00163,  -0.00332,   0.00151,479335237.62223,   0.00201,276814234.78121,  -0.00036,  -0.00217,   0.00075,   0.00000,   2.00000
-475060393.17841,-455910466.67274,58901090.28152,  -0.00164,  -0.00333,   0.00152,479332458.84653,   0.00202,276822546.18038,  -0.00037,  -0.00218,   0.00075,   0.00000,   2.00000
-475710984.94256,-455154444.01384,58943869.11522,  -0.00165,  -0.00333,   0.00152,479344631.44406,   0.00203,276830870.80911,  -0.00037,  -0.00218,   0.00075,  -0.00000,   2.00000
-476345043.47072,-454411920.90584,58984753.77586,  -0.00166,  -0.00333,   0.00153,479325261.77904,   0.00203,276839104.53836,  -0.00038,  -0.00219,   0.00076,   0.00000,   2.00000
-476984954.16308,-453661051.51307,59019459.50172,  -0.00167,  -0.00333,   0.00153,479335260.53426,   0.00204,276847344.64605,  -0.00039,  -0.00220,   0.00076,   0.00000,   2.00000
-477612271.18892,-452916855.80646,59055629.13719,  -0.00168,  -0.00333,   0.00154,479332193.36024,   0.00205,276855548.04442,  -0.00039,  -0.00220,   0.00077,   0.00000,   2.00000
-478232026.44011,-452171903.09330,59095245.53226,  -0.00170,  -0.00333,   0.00154,479315484.28231,   0.00206,276863669.90786,  -0.00040,  -0.00221,   0.00077,   0.00000,   2.00000
-478848052.86010,-451433460.26119,59124737.84625,  -0.00171,  -0.00333,   0.00155,479352426.18886,   0.00206,276871887.62339,  -0.00041,  -0.00221,   0.00078,   0.00000,   2.00000
-479455968.08757,-450691457.84157,59161819.65025,  -0.00172,  -0.00333,   0.00155,479307729.72975,   0.00207,276879931.41975,  -0.00041,  -0.00222,   0.00078,   0.00000,   2.00000
-480060252.71388,-449956076.96513,59188801.87432,  -0.00173,  -0.00333,   0.00156,479344522.94559,   0.00208,276888070.95323,  -0.00042,  -0.00222,   0.00079,   0.00000,   2.00000
-480659535.75231,-449221725.64524,59213930.77859,  -0.00174,  -0.00334,   0.00156,479325500.24884,   0.00209,276896121.60048,  -0.00043,  -0.00223,   0.00079,   0.00000,   2.00000
-481251819.04169,-448486360.66079,59242606.64839,  -0.00175,  -0.00334,   0.00157,479308505.45387,   0.00210,276904090.43516,  -0.00043,  -0.00223,   0.00080,   0.00000,   2.00000
-481843234.75642,-447748102.91122,59268585.99176,  -0.00176,  -0.00334,   0.00157,479333908.23684,   0.00210,276912117.83170,  -0.00044,  -0.00224,   0.00080,   0.00000,   2.00000
-482419804.56816,-447023253.44615,59292916.27631,  -0.00177,  -0.00334,   0.00158,479313474.52642,   0.00211,276920052.16587,  -0.00045,  -0.00225,   0.00081,   0.00000,   2.00000
-482997775.23176,-446297497.19847,59309202.74487,  -0.00178,  -0.00334,   0.00158,479336638.22363,   0.00212,276928037.79688,  -0.00045,  -0.00225,   0.00081,  -0.00000,   2.00000
-483568635.12121,-445567408.74016,59333204.15134,  -0.00179,  -0.00334,   0.00159,479291574.96847,   0.00212,276935849.19781,  -0.00046,  -0.00226,   0.00082,   0.00000,   2.00000
-484136156.24934,-444844326.53004,59347215.70548,  -0.00180,  -0.00334,   0.00159,479327900.40122,   0.00213,276943755.90236,  -0.00047,  -0.00226,   0.00082,   0.00000,   2.00000
-484697285.68187,-444119929.81855,59364871.26703,  -0.00181,  -0.00334,   0.00160,479310623.37401,   0.00214,276951580.48882,  -0.00047,  -0.00227,   0.00082,   0.00000,   2.00000
-485249566.12094,-443404105.84954,59378834.69217,  -0.00182,  -0.00334,   0.00160,479304301.28500,   0.00215,276959359.43564,  -0.00048,  -0.00227,   0.00083,   0.00000,   2.00000
-485801236.02950,-442685471.43574,59390202.81096,  -0.00184,  -0.00334,   0.00161,479329422.65152,   0.00215,276967196.90359,  -0.00049,  -0.00228,   0.00083,  -0.00000,   2.00000
-486343892.34389,-441972006.87369,59402023.84649,  -0.00185,  -0.00334,   0.00161,479295135.56167,   0.00216,276974896.25907,  -0.00049,  -0.00228,   0.00084,  -0.00000,   2.00000
-486880960.23651,-441260440.37237,59413430.27111,  -0.00186,  -0.00334,   0.00161,479305414.12190,   0.00217,276982605.39070,  -0.00050,  -0.00229,   0.00084,   0.00000,   2.00000
-487419354.77534,-440544497.40347,59420968.29406,  -0.00187,  -0.00335,   0.00162,479300444.35557,   0.00218,276990273.84934,  -0.00051,  -0.00229,   0.00085,   0.00000,   2.00000
-487947246.06804,-439835143.25150,59430290.60381,  -0.00188,  -0.00335,   0.00162,479295890.55446,   0.00218,276997903.17642,  -0.00051,  -0.00230,   0.00085,   0.00000,   2.00000
-488476574.29225,-439121301.46342,59435756.12736,  -0.00189,  -0.00335,   0.00163,479290849.90135,   0.00219,277005491.91063,  -0.00052,  -0.00230,   0.00086,   0.00000,   2.00000
-488997982.21121,-438419617.50232,59433557.76960,  -0.00190,  -0.00335,   0.00163,479311841.66288,   0.00220,277013126.30213,  -0.00053,  -0.00231,   0.00086,   0.00000,   2.00000
-489513882.86415,-437716111.35907,59435132.29353,  -0.00191,  -0.00335,   0.00164,479294088.74966,   0.00220,277020678.00958,  -0.00053,  -0.00231,   0.00086,   0.00000,   2.00000
-490026555.96752,-437012607.08847,59435075.90341,  -0.00192,  -0.00335,   0.00164,479274105.32107,   0.00221,277028139.92954,  -0.00054,  -0.00231,   0.00087,   0.00000,   2.00000
-490534040.07943,-436310972.65143,59434696.05870,  -0.00193,  -0.00335,   0.00165,479284000.15139,   0.00222,277035611.32662,  -0.00055,  -0.00232,   0.00087,   0.00000,   2.00000
-491033838.88765,-435617743.99157,59430803.27768,  -0.00194,  -0.00335,   0.00165,479276825.38020,   0.00223,277043035.61417,  -0.00055,  -0.00232,   0.00088,   0.00000,   2.00000
-491530805.67426,-434928278.02152,59421237.00332,  -0.00195,  -0.00335,   0.00165,479284453.14977,   0.00223,277050461.96826,  -0.00056,  -0.00233,   0.00088,  -0.00000,   2.00000
-492027399.21385,-434232066.59600,59413303.84424,  -0.00196,  -0.00335,   0.00166,479281337.84032,   0.00224,277057854.85197,  -0.00057,  -0.00233,   0.00089,   0.00000,   2.00000
-492516565.72987,-433544207.35328,59401913.98143,  -0.00197,  -0.00335,   0.00166,479273972.39339,   0.00225,277065200.26531,  -0.00057,  -0.00234,   0.00089,   0.00000,   2.00000
-493005440.88499,-432849497.02879,59392163.60415,  -0.00198,  -0.00335,   0.00167,479270793.33330,   0.00225,277072512.30133,  -0.00058,  -0.00234,   0.00089,  -0.00000,   2.00000
-493487064.56491,-432163092.61537,59378974.36344,  -0.00199,  -0.00335,   0.00167,479263280.84070,   0.00226,277079776.67585,  -0.00059,  -0.00235,   0.00090,   0.00000,   2.00000
-493959388.87754,-431483094.60498,59367759.88120,  -0.00200,  -0.00335,   0.00167,479257786.20708,   0.00227,277087000.25051,  -0.00059,  -0.00235,   0.00090,  -0.00000,   2.00000
-494431451.78522,-430808663.55225,59345544.84467,  -0.00201,  -0.00335,   0.00168,479262933.00652,   0.00227,277094218.39199,  -0.00060,  -0.00235,   0.00091,   0.00000,   2.00000
-494901222.62641,-430125314.62375,59330411.82633,  -0.00202,  -0.00335,   0.00168,479261753.72037,   0.00228,277101410.23673,  -0.00061,  -0.00236,   0.00091,   0.00000,   2.00000
-495370871.99529,-429443116.65267,59308361.11233,  -0.00203,  -0.00335,   0.00169,479239114.25717,   0.00229,277108504.62616,  -0.00061,  -0.00236,   0.00092,   0.00000,   2.00000
-495827007.61577,-428776201.59172,59286490.97482,  -0.00204,  -0.00335,   0.00169,479245995.80332,   0.00229,277115599.82553,  -0.00062,  -0.00237,   0.00092,  -0.00000,   2.00000
-496283224.48609,-428102073.99264,59266312.06188,  -0.00205,  -0.00335,   0.00169,479242545.85659,   0.00230,277122661.59669,  -0.00063,  -0.00237,   0.00092,   0.00000,   2.00000
-496737198.18343,-427431589.72220,59240573.75775,  -0.00206,  -0.00335,   0.00170,479249602.14424,   0.00231,277129724.91275,  -0.00063,  -0.00238,   0.00093,   0.00000,   2.00000
-497189165.51293,-426760131.21272,59213359.45520,  -0.00207,  -0.00335,   0.00170,479228904.09986,   0.00231,277136697.60165,  -0.00064,  -0.00238,   0.00093,  -0.00000,   2.00000
-497634484.46702,-426101411.84075,59178786.85499,  -0.00208,  -0.00335,   0.00170,479248426.03487,   0.00232,277143713.49970,  -0.00065,  -0.00238,   0.00094,   0.00000,   2.00000
-498075761.43423,-425439754.10530,59148174.37246,  -0.00209,  -0.00335,   0.00171,479229758.41829,   0.00233,277150645.63077,  -0.00065,  -0.00239,   0.00094,   0.00000,   2.00000
-498515277.81635,-424776906.90967,59116106.72289,  -0.00210,  -0.00335,   0.00171,479208880.64848,   0.00233,277157486.92044,  -0.00066,  -0.00239,   0.00094,   0.00000,   2.00000
-498946146.58062,-424125046.03094,59082115.94110,  -0.00211,  -0.00335,   0.00172,479230263.81239,   0.00234,277164378.11845,  -0.00066,  -0.00240,   0.00095,   0.00000,   2.00000
-499379555.14743,-423467444.50897,59044472.11045,  -0.00212,  -0.00335,   0.00172,479224512.69737,   0.00235,277171228.86895,  -0.00067,  -0.00240,   0.00095,  -0.00000,   2.00000
-499807274.25733,-422812876.02254,59007615.55025,  -0.00213,  -0.00335,   0.00172,479188306.86936,   0.00235,277177938.01059,  -0.00068,  -0.00240,   0.00096,   0.00000,   2.00000
-500230607.14145,-422164964.21925,58966663.37881,  -0.00214,  -0.00335,   0.00173,479224672.97068,   0.00236,277184747.38846,  -0.00068,  -0.00241,   0.00096,   0.00000,   2.00000
-500652512.54076,-421515544.86505,58924297.75804,  -0.00215,  -0.00335,   0.00173,479203612.33434,   0.00237,277191465.62299,  -0.00069,  -0.00241,   0.00096,  -0.00000,   2.00000
-501068654.79598,-420873990.61150,58878718.71678,  -0.00216,  -0.00335,   0.00173,479194861.80609,   0.00237,277198133.93513,  -0.00070,  -0.00241,   0.00097,  -0.00000,   2.00000
-501485283.10989,-420224594.41562,58834916.82756,  -0.00216,  -0.00335,   0.00174,479191051.70896,   0.00238,277204768.98460,  -0.00070,  -0.00242,   0.00097,   0.00000,   2.00000
-501891911.91463,-419592550.53587,58786118.71285,  -0.00217,  -0.00335,   0.00174,479194521.22373,   0.00238,277211395.04092,  -0.00071,  -0.00242,   0.00097,   0.00000,   2.00000
-502299123.88313,-418952574.05783,58739111.23452,  -0.00218,  -0.00335,   0.00174,479190652.23395,   0.00239,277217987.74929,  -0.00071,  -0.00242,   0.00098,   0.00000,   2.00000
-502707434.26869,-418312512.05852,58685301.13632,  -0.00219,  -0.00335,   0.00174,479167229.58202,   0.00240,277224482.04453,  -0.00072,  -0.00243,   0.00098,   0.00000,   2.00000
-503107638.58179,-417683710.74630,58629737.64642,  -0.00220,  -0.00335,   0.00175,479187867.68688,   0.00240,277231025.02243,  -0.00073,  -0.00243,   0.00099,  -0.00000,   2.00000
-503504650.09535,-417051142.57531,58578201.57704,  -0.00221,  -0.00335,   0.00175,479168583.62952,   0.00241,277237483.52028,  -0.00073,  -0.00244,   0.00099,   0.00000,   2.00000
-503898649.21426,-416427995.68223,58518103.35021,  -0.00222,  -0.00335,   0.00175,479157240.28624,   0.00242,277243884.20148,  -0.00074,  -0.00244,   0.00099,   0.00000,   2.00000
-504289064.20404,-415806408.93700,58458065.82175,  -0.00223,  -0.00335,   0.00176,479165406.33116,   0.00242,277250292.31510,  -0.00075,  -0.00244,   0.00100,   0.00000,   2.00000
-504680205.60460,-415176579.43957,58399845.39181,  -0.00224,  -0.00335,   0.00176,479161374.03781,   0.00243,277256667.20940,  -0.00075,  -0.00245,   0.00100,   0.00000,   2.00000
-505068490.91694,-414556074.06270,58333088.47488,  -0.00225,  -0.00335,   0.00176,479149894.37135,   0.00243,277262984.07183,  -0.00076,  -0.00245,   0.00100,   0.00000,   2.00000
-505449585.60889,-413941349.02526,58268638.63683,  -0.00226,  -0.00335,   0.00176,479142510.53554,   0.00244,277269256.75096,  -0.00076,  -0.00245,   0.00101,   0.00000,   2.00000
-505827254.79087,-413328142.95970,58204273.39485,  -0.00227,  -0.00335,   0.00177,479150485.18905,   0.00245,277275536.66088,  -0.00077,  -0.00246,   0.00101,  -0.00000,   2.00000
-506202330.10168,-412724151.29631,58131401.63072,  -0.00227,  -0.00335,   0.00177,479138789.04682,   0.00245,277281758.03696,  -0.00078,  -0.00246,   0.00101,   0.00000,   2.00000
-506578287.23332,-412111648.15780,58060384.49290,  -0.00228,  -0.00335,   0.00177,479134581.01064,   0.00246,277287946.12193,  -0.00078,  -0.00246,   0.00102,   0.00000,   2.00000
-506949525.42674,-411506553.22627,57986287.04226,  -0.00229,  -0.00335,   0.00177,479124862.96592,   0.00246,277294082.57944,  -0.00079,  -0.00246,   0.00102,  -0.00000,   2.00000
-507317471.27112,-410902919.12236,57912318.96120,  -0.00230,  -0.00335,   0.00178,479132647.29331,   0.00247,277300226.05852,  -0.00079,  -0.00247,   0.00102,   0.00000,   2.00000
-507685031.86893,-410296533.39113,57836995.86159,  -0.00231,  -0.00335,   0.00178,479110792.99529,   0.00247,277306277.49594,  -0.00080,  -0.00247,   0.00103,   0.00000,   2.00000
-508043895.94071,-409707592.86004,57756898.13970,  -0.00232,  -0.00335,   0.00178,479112862.09697,   0.00248,277312317.06801,  -0.00081,  -0.00247,   0.00103,  -0.00000,   2.00000
-508405994.39231,-409111587.66226,57673253.08078,  -0.00233,  -0.00335,   0.00178,479106409.26600,   0.00249,277318316.33982,  -0.00081,  -0.00248,   0.00103,   0.00000,   2.00000
-508764922.70953,-408516983.74008,57589778.80696,  -0.00234,  -0.00335,   0.00179,479114008.22903,   0.00249,277324322.44207,  -0.00082,  -0.00248,   0.00104,   0.00000,   2.00000
-509116103.12064,-407933732.58234,57505473.56402,  -0.00234,  -0.00335,   0.00179,479088364.20387,   0.00250,277330224.10172,  -0.00082,  -0.00248,   0.00104,   0.00000,   2.00000
-509473955.88375,-407339125.33389,57415413.72892,  -0.00235,  -0.00335,   0.00179,479097404.23352,   0.00250,277336137.72951,  -0.00083,  -0.00249,   0.00104,   0.00000,   2.00000
-509817878.45024,-406764410.92830,57328272.55672,  -0.00236,  -0.00334,   0.00179,479085585.06109,   0.00251,277341993.41754,  -0.00083,  -0.00249,   0.00105,  -0.00000,   2.00000
-510165156.45992,-406182357.50617,57237581.36145,  -0.00237,  -0.00334,   0.00179,479078986.30855,   0.00251,277347808.84275,  -0.00084,  -0.00249,   0.00105,   0.00000,   2.00000
-510511647.69599,-405603296.19812,57141674.67989,  -0.00238,  -0.00334,   0.00180,479084262.28563,   0.00252,277353623.87092,  -0.00085,  -0.00249,   0.00105,   0.00000,   2.00000
-510858158.47243,-405020861.40921,57044429.46621,  -0.00239,  -0.00334,   0.00180,479062053.56756,   0.00252,277359346.45867,  -0.00085,  -0.00250,   0.00106,   0.00000,   2.00000
-511194399.20669,-404454221.27543,56947943.46365,  -0.00239,  -0.00334,   0.00180,479065455.12909,   0.00253,277365062.64129,  -0.00086,  -0.00250,   0.00106,   0.00000,   2.00000
-511534038.13320,-403880022.35345,56847914.87556,  -0.00240,  -0.00334,   0.00180,479058774.93683,   0.00254,277370738.67843,  -0.00086,  -0.00250,   0.00106,  -0.00000,   2.00000
-511868945.42782,-403319249.94103,56741057.88807,  -0.00241,  -0.00334,   0.00180,479075664.16384,   0.00254,277376453.62869,  -0.00087,  -0.00250,   0.00107,   0.00000,   2.00000
-512198709.89335,-402757227.18654,56640481.25158,  -0.00242,  -0.00334,   0.00181,479039664.85069,   0.00255,277382030.08855,  -0.00087,  -0.00251,   0.00107,   0.00000,   2.00000
-512530082.85738,-402199688.52692,56529296.33344,  -0.00243,  -0.00334,   0.00181,479042586.35966,   0.00255,277387598.94963,  -0.00088,  -0.00251,   0.00107,   0.00000,   2.00000
-512860515.52098,-401631113.85182,56425442.38173,  -0.00243,  -0.00334,   0.00181,479039893.84564,   0.00256,277393141.48709,  -0.00088,  -0.00251,   0.00108,   0.00000,   2.00000
-513185438.73459,-401081623.63562,56311541.36151,  -0.00244,  -0.00334,   0.00181,479038785.20175,   0.00256,277398662.99048,  -0.00089,  -0.00251,   0.00108,   0.00000,   2.00000
-513513821.52051,-400524245.03775,56194119.13219,  -0.00245,  -0.00334,   0.00181,479031988.74691,   0.00257,277404144.46236,  -0.00090,  -0.00252,   0.00108,   0.00000,   2.00000
-513829412.98628,-399986663.31838,56079731.80175,  -0.00246,  -0.00334,   0.00181,479019030.58040,   0.00257,277409565.28335,  -0.00090,  -0.00252,   0.00108,   0.00000,   2.00000
-514151579.20479,-399437132.26749,55959641.76417,  -0.00247,  -0.00334,   0.00181,479027891.15135,   0.00258,277414998.93030,  -0.00091,  -0.00252,   0.00109,   0.00000,   2.00000
-514465084.96365,-398896615.89236,55844192.30223,  -0.00247,  -0.00334,   0.00182,479003143.63160,   0.00258,277420332.48692,  -0.00091,  -0.00252,   0.00109,   0.00000,   2.00000
-514783340.75604,-398356466.03870,55716006.83455,  -0.00248,  -0.00334,   0.00182,479021585.93653,   0.00259,277425711.29798,  -0.00092,  -0.00253,   0.00109,   0.00000,   2.00000
-515093084.40149,-397825245.81476,55592478.53905,  -0.00249,  -0.00334,   0.00182,478996709.03571,   0.00259,277430989.66935,  -0.00092,  -0.00253,   0.00110,   0.00000,   2.00000
-515404237.18644,-397284237.31544,55470847.19329,  -0.00250,  -0.00333,   0.00182,478991726.30138,   0.00260,277436234.81499,  -0.00093,  -0.00253,   0.00110,   0.00000,   2.00000
-515713273.46374,-396758342.78952,55337079.69869,  -0.00251,  -0.00333,   0.00182,479005861.68485,   0.00260,277441511.00892,  -0.00093,  -0.00253,   0.00110,   0.00000,   2.00000
-516020814.84741,-396226454.42398,55207382.99954,  -0.00251,  -0.00333,   0.00182,478985070.41343,   0.00261,277446700.77214,  -0.00094,  -0.00254,   0.00110,   0.00000,   2.00000
-516325163.17351,-395701026.85303,55074725.89975,  -0.00252,  -0.00333,   0.00182,478973731.33205,   0.00261,277451836.12557,  -0.00094,  -0.00254,   0.00111,   0.00000,   2.00000
-516625364.85998,-395189151.73755,54935422.04070,  -0.00253,  -0.00333,   0.00182,478989662.49272,   0.00262,277457008.89924,  -0.00095,  -0.00254,   0.00111,   0.00000,   2.00000
-516926347.03863,-394672650.04392,54794732.46315,  -0.00254,  -0.00333,   0.00182,478966760.50294,   0.00262,277462088.34761,  -0.00095,  -0.00254,   0.00111,  -0.00000,   2.00000
-517224944.85190,-394157127.66189,54654414.92970,  -0.00254,  -0.00333,   0.00182,478973103.37058,   0.00263,277467173.17502,  -0.00096,  -0.00255,   0.00111,   0.00000,   2.00000
-517524351.42308,-393636858.65598,54512681.35560,  -0.00255,  -0.00333,   0.00183,478950145.81802,   0.00263,277472164.76148,  -0.00096,  -0.00255,   0.00112,   0.00000,   2.00000
-517816953.15364,-393133973.59812,54366464.61910,  -0.00256,  -0.00333,   0.00183,478949959.98548,   0.00264,277477139.98279,  -0.00097,  -0.00255,   0.00112,   0.00000,   2.00000
-518109387.87528,-392633533.28704,54215186.33112,  -0.00257,  -0.00333,   0.00183,478954195.79223,   0.00264,277482113.76141,  -0.00097,  -0.00255,   0.00112,  -0.00000,   2.00000
-518400621.35047,-392126632.23219,54067937.93906,  -0.00257,  -0.00333,   0.00183,478933070.89728,   0.00265,277487000.72779,  -0.00098,  -0.00255,   0.00112,   0.00000,   2.00000
-518687916.16780,-391633326.98891,53914114.20170,  -0.00258,  -0.00333,   0.00183,478948604.62341,   0.00265,277491924.58053,  -0.00098,  -0.00256,   0.00113,   0.00000,   2.00000
-518978846.19732,-391131197.62159,53756746.69273,  -0.00259,  -0.00333,   0.00183,478941432.12426,   0.00266,277496808.72728,  -0.00099,  -0.00256,   0.00113,   0.00000,   2.00000
-519260572.70417,-390650177.62717,53597047.14385,  -0.00259,  -0.00332,   0.00183,478925017.36437,   0.00266,277501622.06128,  -0.00099,  -0.00256,   0.00113,  -0.00000,   2.00000
-519543887.02598,-390158728.22280,53439256.97972,  -0.00260,  -0.00332,   0.00183,478919668.13900,   0.00266,277506402.15199,  -0.00100,  -0.00256,   0.00113,   0.00000,   2.00000
-519829193.20799,-389671073.57258,53270960.32379,  -0.00261,  -0.00332,   0.00183,478921791.22102,   0.00267,277511174.25690,  -0.00100,  -0.00256,   0.00114,   0.00000,   2.00000
-520103924.47622,-389197807.40619,53109183.88994,  -0.00262,  -0.00332,   0.00183,478924955.66296,   0.00267,277515941.88699,  -0.00101,  -0.00257,   0.00114,   0.00000,   2.00000
-520381876.77373,-388720638.21475,52940455.25130,  -0.00262,  -0.00332,   0.00183,478899760.30156,   0.00268,277520609.39859,  -0.00101,  -0.00257,   0.00114,  -0.00000,   2.00000
-520659786.07151,-388245702.73717,52766702.10553,  -0.00263,  -0.00332,   0.00183,478903677.36808,   0.00268,277525275.29846,  -0.00102,  -0.00257,   0.00114,   0.00000,   2.00000
-520935576.64063,-387771536.05995,52593405.48012,  -0.00264,  -0.00332,   0.00183,478909497.61626,   0.00269,277529946.02011,  -0.00102,  -0.00257,   0.00115,   0.00000,   2.00000
-521206346.64149,-387306921.05778,52419219.59186,  -0.00264,  -0.00332,   0.00183,478881354.63156,   0.00269,277534506.89243,  -0.00103,  -0.00257,   0.00115,   0.00000,   2.00000
-521477138.31789,-386844469.59842,52240013.79395,  -0.00265,  -0.00332,   0.00183,478885145.75826,   0.00270,277539066.03585,  -0.00103,  -0.00257,   0.00115,  -0.00000,   2.00000
-521745891.99236,-386382737.58194,52061273.97931,  -0.00266,  -0.00332,   0.00183,478890821.71863,   0.00270,277543629.82572,  -0.00104,  -0.00258,   0.00115,  -0.00000,   2.00000
-522014277.67243,-385928203.90590,51874096.49936,  -0.00266,  -0.00332,   0.00183,478876692.22556,   0.00270,277548131.32439,  -0.00104,  -0.00258,   0.00116,   0.00000,   2.00000
-522280650.07629,-385474350.97968,51687404.64846,  -0.00267,  -0.00332,   0.00183,478882302.01491,   0.00271,277552637.40010,  -0.00105,  -0.00258,   0.00116,  -0.00000,   2.00000
-522544665.91347,-385026203.55660,51497751.83968,  -0.00268,  -0.00331,   0.00183,478869968.45871,   0.00271,277557087.40216,  -0.00105,  -0.00258,   0.00116,   0.00000,   2.00000
-522804347.02850,-384582320.15935,51310612.49039,  -0.00268,  -0.00331,   0.00183,478859410.31955,   0.00272,277561487.50066,  -0.00106,  -0.00258,   0.00116,  -0.00000,   2.00000
-523066139.68964,-384141864.49005,51112988.84711,  -0.00269,  -0.00331,   0.00183,478861191.55865,   0.00272,277565879.51651,  -0.00106,  -0.00259,   0.00116,  -0.00000,   2.00000
-523329572.74103,-383690399.83567,50917256.76946,  -0.00270,  -0.00331,   0.00183,478855578.23967,   0.00272,277570238.53179,  -0.00107,  -0.00259,   0.00117,   0.00000,   2.00000
-523584843.72695,-383259736.53301,50719165.54620,  -0.00270,  -0.00331,   0.00183,478838041.21309,   0.00273,277574524.26775,  -0.00107,  -0.00259,   0.00117,  -0.00000,   2.00000
-523842523.09074,-382827459.84437,50514088.91279,  -0.00271,  -0.00331,   0.00183,478857688.74542,   0.00273,277578862.67269,  -0.00107,  -0.00259,   0.00117,  -0.00000,   2.00000
-524093753.58325,-382402877.05506,50313517.40448,  -0.00272,  -0.00331,   0.00183,478830809.49812,   0.00274,277583096.23455,  -0.00108,  -0.00259,   0.00117,   0.00000,   2.00000
-524349358.60911,-381978016.68750,50100482.51114,  -0.00272,  -0.00331,   0.00183,478848617.46992,   0.00274,277587376.40035,  -0.00108,  -0.00259,   0.00117,  -0.00000,   2.00000
-524598609.13805,-381560771.56070,49891940.02175,  -0.00273,  -0.00331,   0.00182,478821639.71738,   0.00274,277591551.51509,  -0.00109,  -0.00260,   0.00118,  -0.00000,   2.00000
-524850214.90550,-381141862.29577,49676451.82092,  -0.00274,  -0.00331,   0.00182,478841225.63083,   0.00275,277595779.44300,  -0.00109,  -0.00260,   0.00118,  -0.00000,   2.00000
-525095579.93982,-380730507.38922,49465428.07443,  -0.00274,  -0.00331,   0.00182,478814142.53277,   0.00275,277599902.08816,  -0.00110,  -0.00260,   0.00118,  -0.00000,   2.00000
-525343064.54291,-380322298.14530,49243925.31162,  -0.00275,  -0.00331,   0.00182,478815730.00702,   0.00276,277604016.78429,  -0.00110,  -0.00260,   0.00118,  -0.00000,   2.00000
-525588732.64295,-379914560.83062,49022968.56071,  -0.00276,  -0.00331,   0.00182,478820880.21992,   0.00276,277608135.62197,  -0.00110,  -0.00260,   0.00118,   0.00000,   2.00000
-525832399.46137,-379512092.82125,48798992.13791,  -0.00276,  -0.00330,   0.00182,478808061.94512,   0.00276,277612197.73901,  -0.00111,  -0.00260,   0.00119,   0.00000,   2.00000
-526070616.36771,-379126728.83107,48570686.42561,  -0.00277,  -0.00330,   0.00182,478806105.60577,   0.00277,277616240.03124,  -0.00111,  -0.00260,   0.00119,   0.00000,   2.00000
-526310580.06981,-378729888.07049,48344233.73604,  -0.00277,  -0.00330,   0.00182,478800217.80010,   0.00277,277620249.29616,  -0.00112,  -0.00261,   0.00119,   0.00000,   2.00000
-526552615.28955,-378336042.41283,48107310.25089,  -0.00278,  -0.00330,   0.00182,478801770.97792,   0.00278,277624250.81314,  -0.00112,  -0.00261,   0.00119,   0.00000,   2.00000
-526790807.11015,-377946044.91247,47872864.51854,  -0.00279,  -0.00330,   0.00182,478790561.84035,   0.00278,277628201.37513,  -0.00113,  -0.00261,   0.00119,   0.00000,   2.00000
-527023666.34910,-377573107.02903,47634093.16318,  -0.00279,  -0.00330,   0.00181,478788428.09468,   0.00278,277632131.83032,  -0.00113,  -0.00261,   0.00119,  -0.00000,   2.00000
-527260158.79017,-377189808.30642,47391640.18851,  -0.00280,  -0.00330,   0.00181,478780768.75214,   0.00279,277636023.55273,  -0.00113,  -0.00261,   0.00120,   0.00000,   2.00000
-527491487.15720,-376818862.90408,47148508.15133,  -0.00280,  -0.00330,   0.00181,478796524.28248,   0.00279,277639955.97538,  -0.00114,  -0.00261,   0.00120,   0.00000,   2.00000
-527721005.70464,-376452927.81780,46902311.73334,  -0.00281,  -0.00330,   0.00181,478783470.87804,   0.00279,277643831.31559,  -0.00114,  -0.00261,   0.00120,   0.00000,   2.00000
-527952152.05379,-376079919.88850,46654275.07951,  -0.00282,  -0.00330,   0.00181,478759534.48618,   0.00280,277647612.89239,  -0.00115,  -0.00262,   0.00120,  -0.00000,   2.00000
-528180055.79254,-375720504.41479,46400057.86858,  -0.00282,  -0.00330,   0.00181,478773455.03165,   0.00280,277651429.28827,  -0.00115,  -0.00262,   0.00120,   0.00000,   2.00000
-528406195.92200,-375365984.86937,46142752.42623,  -0.00283,  -0.00330,   0.00180,478760290.26309,   0.00281,277655188.54795,  -0.00115,  -0.00262,   0.00120,   0.00000,   2.00000
-528630680.15656,-375011728.23729,45886042.41719,  -0.00283,  -0.00329,   0.00180,478765031.48653,   0.00281,277658951.57494,  -0.00116,  -0.00262,   0.00121,   0.00000,   2.00000
-528857159.81613,-374660142.48166,45618866.11603,  -0.00284,  -0.00329,   0.00180,478766486.55106,   0.00281,277662707.19111,  -0.00116,  -0.00262,   0.00121,   0.00000,   2.00000
-529076703.42589,-374324292.15960,45352927.00310,  -0.00284,  -0.00329,   0.00180,478765679.19327,   0.00282,277666447.70593,  -0.00117,  -0.00262,   0.00121,   0.00000,   2.00000
-529296130.82779,-373979870.30641,45090595.14591,  -0.00285,  -0.00329,   0.00180,478743294.48919,   0.00282,277670100.02181,  -0.00117,  -0.00262,   0.00121,   0.00000,   2.00000
-529517533.96740,-373638023.38295,44817779.78759,  -0.00286,  -0.00329,   0.00180,478744685.69530,   0.00282,277673745.05357,  -0.00117,  -0.00262,   0.00121,   0.00000,   2.00000
-529733941.63768,-373308554.96162,44544410.28593,  -0.00286,  -0.00329,   0.00179,478760052.91965,   0.00283,277677430.20453,  -0.00118,  -0.00263,   0.00121,  -0.00000,   2.00000
-529948699.21677,-372983769.44166,44267898.83734,  -0.00287,  -0.00329,   0.00179,478746749.70168,   0.00283,277681058.05684,  -0.00118,  -0.00263,   0.00122,   0.00000,   2.00000
-530161825.67614,-372663626.15830,43988229.99526,  -0.00287,  -0.00329,   0.00179,478733390.07615,   0.00283,277684628.59180,  -0.00119,  -0.00263,   0.00122,   0.00000,   2.00000
-530376894.67130,-372341444.52556,43701885.59413,  -0.00288,  -0.00329,   0.00179,478752731.82224,   0.00284,277688252.96537,  -0.00119,  -0.00263,   0.00122,   0.00000,   2.00000
-530586809.27818,-372026024.01499,43419670.17877,  -0.00288,  -0.00329,   0.00178,478724579.94053,   0.00284,277691769.81516,  -0.00119,  -0.00263,   0.00122,  -0.00000,   2.00000
-530798615.95203,-371712972.45868,43126971.25550,  -0.00289,  -0.00329,   0.00178,478725952.36921,   0.00284,277695279.67858,  -0.00120,  -0.00263,   0.00122,   0.00000,   2.00000
-531008812.60850,-371400007.14264,42834913.59561,  -0.00289,  -0.00329,   0.00178,478730458.77280,   0.00285,277698793.22233,  -0.00120,  -0.00263,   0.00122,   0.00000,   2.00000
-531214106.15440,-371103836.88345,42538540.78362,  -0.00290,  -0.00329,   0.00178,478727669.07365,   0.00285,277702285.61577,  -0.00121,  -0.00263,   0.00122,   0.00000,   2.00000
-531417835.67904,-370807726.40981,42242818.34910,  -0.00290,  -0.00329,   0.00177,478732130.69004,   0.00285,277705781.55123,  -0.00121,  -0.00264,   0.00123,   0.00000,   2.00000
-531623377.03298,-370513858.70643,41936625.42901,  -0.00291,  -0.00329,   0.00177,478733571.82884,   0.00286,277709270.74484,  -0.00121,  -0.00264,   0.00123,  -0.00000,   2.00000
-531825651.83407,-370223293.61431,41632777.73885,  -0.00291,  -0.00328,   0.00177,478721631.37541,   0.00286,277712707.78527,  -0.00122,  -0.00264,   0.00123,   0.00000,   2.00000
-532026372.67093,-369937091.11626,41325683.58545,  -0.00292,  -0.00328,   0.00177,478708124.33265,   0.00286,277716087.51364,  -0.00122,  -0.00264,   0.00123,   0.00000,   2.00000
-532227183.94315,-369651951.96360,41013674.57495,  -0.00292,  -0.00328,   0.00176,478711012.74287,   0.00287,277719465.78751,  -0.00122,  -0.00264,   0.00123,  -0.00000,   2.00000
-532423159.08327,-369379195.07084,40701275.02949,  -0.00293,  -0.00328,   0.00176,478725978.26812,   0.00287,277722883.59175,  -0.00123,  -0.00264,   0.00123,  -0.00000,   2.00000
-532617612.58889,-369110712.78048,40385605.27962,  -0.00294,  -0.00328,   0.00176,478712457.56936,   0.00287,277726244.04410,  -0.00123,  -0.00264,   0.00123,  -0.00000,   2.00000
-532813752.63611,-368844258.61623,40059457.64036,  -0.00294,  -0.00328,   0.00176,478713913.38120,   0.00288,277729598.18296,  -0.00124,  -0.00264,   0.00123,   0.00000,   2.00000
-533005133.34886,-368579939.74441,39741179.97200,  -0.00295,  -0.00328,   0.00175,478703242.91061,   0.00288,277732904.85557,  -0.00124,  -0.00264,   0.00124,   0.00000,   2.00000
-533198164.96308,-368317592.78221,39412410.22605,  -0.00295,  -0.00328,   0.00175,478704690.96655,   0.00288,277736205.36575,  -0.00124,  -0.00265,   0.00124,   0.00000,   2.00000
-533386425.55538,-368071846.89808,39079313.90115,  -0.00296,  -0.00328,   0.00175,478701654.38880,   0.00289,277739484.45375,  -0.00125,  -0.00265,   0.00124,  -0.00000,   2.00000
-533577889.98656,-367810275.70763,38746346.56660,  -0.00296,  -0.00328,   0.00174,478711904.69434,   0.00289,277742787.37408,  -0.00125,  -0.00265,   0.00124,   0.00000,   2.00000
-533763073.47574,-367568506.16401,38410601.88144,  -0.00296,  -0.00328,   0.00174,478692374.50948,   0.00289,277746012.83276,  -0.00125,  -0.00265,   0.00124,   0.00000,   2.00000
-533949754.28306,-367324358.00889,38068420.00664,  -0.00297,  -0.00328,   0.00174,478711745.38013,   0.00290,277749293.23858,  -0.00126,  -0.00265,   0.00124,   0.00000,   2.00000
-534128677.66673,-367098980.10549,37729030.58014,  -0.00297,  -0.00328,   0.00173,478693536.92858,   0.00290,277752500.70460,  -0.00126,  -0.00265,   0.00124,   0.00000,   2.00000
-534312280.19582,-366858658.15922,37384192.32531,  -0.00298,  -0.00328,   0.00173,478702415.04299,   0.00290,277755727.53370,  -0.00126,  -0.00265,   0.00124,  -0.00000,   2.00000
-534492648.16733,-366635795.34624,37029418.13757,  -0.00298,  -0.00328,   0.00173,478697975.43179,   0.00290,277758928.36175,  -0.00127,  -0.00265,   0.00125,  -0.00000,   2.00000
-534669954.09746,-366411765.43650,36680966.88663,  -0.00299,  -0.00328,   0.00172,478703550.80271,   0.00291,277762137.31666,  -0.00127,  -0.00265,   0.00125,   0.00000,   2.00000
-534844038.53935,-366205140.21267,36322569.12706,  -0.00299,  -0.00328,   0.00172,478699100.22107,   0.00291,277765320.25464,  -0.00127,  -0.00265,   0.00125,  -0.00000,   2.00000
-535021212.65895,-365986604.17481,35960219.86889,  -0.00300,  -0.00328,   0.00172,478691564.87049,   0.00291,277768466.81942,  -0.00128,  -0.00266,   0.00125,   0.00000,   2.00000
-535193609.06126,-365780389.20095,35597688.73521,  -0.00300,  -0.00328,   0.00171,478706247.04639,   0.00292,277771652.58478,  -0.00128,  -0.00266,   0.00125,   0.00000,   2.00000
-535364478.96756,-365577979.04807,35231718.13207,  -0.00301,  -0.00328,   0.00171,478692661.49777,   0.00292,277774781.37466,  -0.00128,  -0.00266,   0.00125,   0.00000,   2.00000
-535533781.26802,-365375276.63662,34866482.15686,  -0.00301,  -0.00328,   0.00171,478696856.29544,   0.00292,277777913.79619,  -0.00129,  -0.00266,   0.00125,  -0.00000,   2.00000
-535701146.43693,-365186660.10222,34489876.88177,  -0.00302,  -0.00328,   0.00170,478709002.87837,   0.00293,277781076.80420,  -0.00129,  -0.00266,   0.00125,  -0.00000,   2.00000
-535868735.97418,-364988244.94903,34116291.36626,  -0.00302,  -0.00328,   0.00170,478686252.22991,   0.00293,277784151.77675,  -0.00129,  -0.00266,   0.00125,   0.00000,   2.00000
-536029779.15700,-364815630.08948,33736107.14798,  -0.00303,  -0.00328,   0.00169,478710049.65768,   0.00293,277787297.07611,  -0.00130,  -0.00266,   0.00125,  -0.00000,   2.00000
-536192441.30971,-364634008.59100,33353278.95241,  -0.00303,  -0.00328,   0.00169,478686073.11457,   0.00293,277790350.19398,  -0.00130,  -0.00266,   0.00126,   0.00000,   2.00000
-536354845.09478,-364452846.78415,32965581.82367,  -0.00303,  -0.00328,   0.00169,478689049.62892,   0.00294,277793403.00947,  -0.00131,  -0.00266,   0.00126,   0.00000,   2.00000
-536512473.89325,-364283950.84393,32577818.42176,  -0.00304,  -0.00327,   0.00168,478703638.12023,   0.00294,277796494.94110,  -0.00131,  -0.00266,   0.00126,  -0.00000,   2.00000
-536669813.76880,-364115468.45193,32185205.03042,  -0.00304,  -0.00327,   0.00168,478706685.29007,   0.00294,277799586.64771,  -0.00131,  -0.00266,   0.00126,   0.00000,   2.00000
-536822404.76813,-363963194.70317,31788232.52833,  -0.00305,  -0.00327,   0.00167,478703548.43340,   0.00295,277802657.08110,  -0.00132,  -0.00267,   0.00126,   0.00000,   2.00000
-536977807.38126,-363798572.98154,31387217.15408,  -0.00305,  -0.00327,   0.00167,478696238.71227,   0.00295,277805692.17765,  -0.00132,  -0.00267,   0.00126,  -0.00000,   2.00000
-537127169.20114,-363649324.51197,30987462.18597,  -0.00306,  -0.00327,   0.00166,478694202.69617,   0.00295,277808709.93861,  -0.00132,  -0.00267,   0.00126,   0.00000,   2.00000
-537274259.12818,-363509938.98448,30580836.42487,  -0.00306,  -0.00327,   0.00166,478724266.56388,   0.00295,277811819.42053,  -0.00133,  -0.00267,   0.00126,  -0.00000,   2.00000
-537422854.29563,-363361241.11432,30171389.67983,  -0.00307,  -0.00327,   0.00166,478700452.51119,   0.00296,277814837.34704,  -0.00133,  -0.00267,   0.00126,   0.00000,   2.00000
-537566651.33543,-363228635.87496,29757562.68907,  -0.00307,  -0.00327,   0.00165,478697316.78621,   0.00296,277817834.22421,  -0.00133,  -0.00267,   0.00126,   0.00000,   2.00000
-537711188.24593,-363093093.15647,29337707.59857,  -0.00307,  -0.00327,   0.00165,478717094.77639,   0.00296,277820887.94771,  -0.00134,  -0.00267,   0.00126,   0.00000,   2.00000
-537849704.29146,-362972847.93444,28919133.27644,  -0.00308,  -0.00327,   0.00164,478715083.48077,   0.00297,277823924.29123,  -0.00134,  -0.00267,   0.00127,   0.00000,   2.00000
-537990854.72157,-362840010.10826,28496465.42197,  -0.00308,  -0.00327,   0.00164,478707945.64029,   0.00297,277826925.94570,  -0.00134,  -0.00267,   0.00127,  -0.00000,   2.00000
-538122879.80606,-362735204.24284,28074348.70122,  -0.00309,  -0.00327,   0.00163,478716219.60261,   0.00297,277829945.29295,  -0.00135,  -0.00267,   0.00127,  -0.00000,   2.00000
-538258640.74629,-362618435.43557,27642466.87054,  -0.00309,  -0.00327,   0.00163,478708109.06828,   0.00297,277832926.67287,  -0.00135,  -0.00267,   0.00127,   0.00000,   2.00000
-538389551.78143,-362513784.21683,27210739.73616,  -0.00310,  -0.00327,   0.00162,478722696.78752,   0.00298,277835947.25229,  -0.00135,  -0.00268,   0.00127,   0.00000,   2.00000
-538519853.30119,-362409160.97445,26774215.00559,  -0.00310,  -0.00327,   0.00162,478726006.95921,   0.00298,277838968.61000,  -0.00136,  -0.00268,   0.00127,  -0.00000,   2.00000
-538649499.45188,-362304536.64528,26332901.07394,  -0.00310,  -0.00328,   0.00161,478729359.53163,   0.00298,277841990.88956,  -0.00136,  -0.00268,   0.00127,   0.00000,   2.00000
-538773149.47815,-362215117.90673,25892866.66146,  -0.00311,  -0.00328,   0.00161,478727333.06198,   0.00299,277844995.79615,  -0.00136,  -0.00268,   0.00127,   0.00000,   2.00000
-538897155.89868,-362126281.04227,25442383.51956,  -0.00311,  -0.00328,   0.00160,478729788.18192,   0.00299,277847998.59873,  -0.00137,  -0.00268,   0.00127,   0.00000,   2.00000
-539019377.16164,-362036700.54765,24992792.33876,  -0.00312,  -0.00328,   0.00160,478734130.71539,   0.00299,277851005.71932,  -0.00137,  -0.00268,   0.00127,   0.00000,   2.00000
-539135614.01275,-361962283.24272,24544476.80651,  -0.00312,  -0.00328,   0.00159,478732096.53927,   0.00299,277853995.47015,  -0.00137,  -0.00268,   0.00127,   0.00000,   2.00000
-539253154.31281,-361885205.03949,24084733.15109,  -0.00312,  -0.00328,   0.00159,478751362.03982,   0.00300,277857040.18983,  -0.00138,  -0.00268,   0.00127,   0.00000,   2.00000
-539367804.26660,-361810450.57487,23626882.18700,  -0.00313,  -0.00328,   0.00158,478739086.07858,   0.00300,277860032.66953,  -0.00138,  -0.00268,   0.00127,  -0.00000,   2.00000
-539478480.48104,-361748280.10013,23163686.31582,  -0.00313,  -0.00328,   0.00158,478752920.38674,   0.00300,277863061.64392,  -0.00138,  -0.00268,   0.00128,  -0.00000,   2.00000
-539587216.69302,-361688967.09573,22696678.82097,  -0.00314,  -0.00328,   0.00157,478739810.98637,   0.00301,277866035.58115,  -0.00139,  -0.00268,   0.00128,  -0.00000,   2.00000
-539692041.01186,-361638479.48709,22229126.75892,  -0.00314,  -0.00328,   0.00157,478771207.78727,   0.00301,277869105.61770,  -0.00139,  -0.00268,   0.00128,   0.00000,   2.00000
-539798017.23385,-361577989.76499,21758295.60515,  -0.00314,  -0.00328,   0.00156,478747879.07156,   0.00301,277872085.83936,  -0.00139,  -0.00269,   0.00128,   0.00000,   2.00000
-539896765.66192,-361542777.57950,21281651.14580,  -0.00315,  -0.00328,   0.00155,478772123.07335,   0.00301,277875137.82889,  -0.00140,  -0.00269,   0.00128,  -0.00000,   2.00000
-539997625.00597,-361494351.06542,20800825.74179,  -0.00315,  -0.00328,   0.00155,478765572.58560,   0.00302,277878156.95062,  -0.00140,  -0.00269,   0.00128,  -0.00000,   2.00000
-540093458.34443,-361457806.54691,20320461.04576,  -0.00316,  -0.00328,   0.00154,478780367.62815,   0.00302,277881215.66763,  -0.00140,  -0.00269,   0.00128,   0.00000,   2.00000
-540187217.56805,-361423938.52389,19836212.46755,  -0.00316,  -0.00328,   0.00154,478767451.81034,   0.00302,277884219.89379,  -0.00141,  -0.00269,   0.00128,  -0.00000,   2.00000
-540277737.56037,-361399280.70095,19345978.94249,  -0.00316,  -0.00328,   0.00153,478798274.83022,   0.00303,277887318.06274,  -0.00141,  -0.00269,   0.00128,   0.00000,   2.00000
-540366105.06577,-361377214.15402,18851855.36612,  -0.00317,  -0.00328,   0.00153,478785480.58912,   0.00303,277890362.00156,  -0.00141,  -0.00269,   0.00128,   0.00000,   2.00000
-540452519.83905,-361354119.12693,18358746.60228,  -0.00317,  -0.00328,   0.00152,478790066.98692,   0.00303,277893410.81922,  -0.00142,  -0.00269,   0.00128,  -0.00000,   2.00000
-540534594.20922,-361343266.84159,17860515.85491,  -0.00318,  -0.00328,   0.00151,478804301.07098,   0.00304,277896497.15816,  -0.00142,  -0.00269,   0.00128,   0.00000,   2.00000
-540615413.70182,-361331784.75251,17357636.87389,  -0.00318,  -0.00328,   0.00151,478808324.53546,   0.00304,277899586.29441,  -0.00142,  -0.00269,   0.00128,   0.00000,   2.00000
-540691105.01518,-361332033.12627,16855388.18091,  -0.00318,  -0.00328,   0.00150,478823295.47859,   0.00304,277902715.27735,  -0.00143,  -0.00269,   0.00128,   0.00000,   2.00000
-540764530.93854,-361334717.55159,16349185.55321,  -0.00319,  -0.00328,   0.00150,478810671.08350,   0.00304,277905790.49163,  -0.00143,  -0.00270,   0.00128,   0.00000,   2.00000
-540837559.17863,-361333540.99533,15837699.92329,  -0.00319,  -0.00329,   0.00149,478831531.17033,   0.00305,277908925.55153,  -0.00143,  -0.00270,   0.00128,  -0.00000,   2.00000
-540905092.58694,-361347555.71233,15321855.31911,  -0.00319,  -0.00329,   0.00148,478829294.63592,   0.00305,277912041.98930,  -0.00144,  -0.00270,   0.00128,   0.00000,   2.00000
-540970572.25438,-361360376.57545,14807110.24255,  -0.00320,  -0.00329,   0.00148,478834074.63078,   0.00305,277915163.64216,  -0.00144,  -0.00270,   0.00128,  -0.00000,   2.00000
-541031453.92055,-361385184.36063,14287408.23317,  -0.00320,  -0.00329,   0.00147,478848629.95026,   0.00306,277918323.55418,  -0.00145,  -0.00270,   0.00128,   0.00000,   2.00000
-541090832.09027,-361409103.70064,13763134.58937,  -0.00321,  -0.00329,   0.00146,478852980.13556,   0.00306,277921487.05058,  -0.00145,  -0.00270,   0.00129,   0.00000,   2.00000
-541148112.42908,-361431769.40899,13240002.53219,  -0.00321,  -0.00329,   0.00146,478857859.24269,   0.00306,277924655.92104,  -0.00145,  -0.00270,   0.00129,   0.00000,   2.00000
-541201200.78084,-361466638.91267,12706289.43733,  -0.00321,  -0.00329,   0.00145,478872114.87473,   0.00307,277927861.84265,  -0.00146,  -0.00270,   0.00129,   0.00000,   2.00000
-541251634.86999,-361499879.56806,12179462.29016,  -0.00322,  -0.00329,   0.00144,478877535.03014,   0.00307,277931074.80124,  -0.00146,  -0.00270,   0.00129,  -0.00000,   2.00000
-541297772.31943,-361545225.39997,11642106.07558,  -0.00322,  -0.00329,   0.00144,478891935.80701,   0.00307,277934325.11946,  -0.00146,  -0.00270,   0.00129,   0.00000,   2.00000
-541340828.88931,-361592358.17851,11106417.77831,  -0.00322,  -0.00329,   0.00143,478880221.75257,   0.00307,277937524.33437,  -0.00147,  -0.00270,   0.00129,   0.00000,   2.00000
-541383079.88671,-361635241.90106,10565781.54927,  -0.00323,  -0.00329,   0.00142,478901594.40976,   0.00308,277940784.54944,  -0.00147,  -0.00271,   0.00129,   0.00000,   2.00000
-541420394.89007,-361689801.45466,10020414.42577,  -0.00323,  -0.00330,   0.00142,478916615.71991,   0.00308,277944084.03466,  -0.00147,  -0.00271,   0.00129,  -0.00000,   2.00000
-541454594.28435,-361746093.76537,9476693.33037,  -0.00324,  -0.00330,   0.00141,478905002.40597,   0.00308,277947332.60255,  -0.00148,  -0.00271,   0.00129,  -0.00000,   2.00000
-541483800.23571,-361813981.81071,8928274.47404,  -0.00324,  -0.00330,   0.00140,478920076.40030,   0.00309,277950620.62665,  -0.00148,  -0.00271,   0.00129,   0.00000,   2.00000
-541512029.22741,-361877438.88148,8375067.49070,  -0.00324,  -0.00330,   0.00140,478941707.52462,   0.00309,277953970.14305,  -0.00149,  -0.00271,   0.00129,   0.00000,   2.00000
-541537426.57962,-361942771.85524,7817774.05932,  -0.00325,  -0.00330,   0.00139,478929916.29432,   0.00309,277957267.98416,  -0.00149,  -0.00271,   0.00129,   0.00000,   2.00000
-541558262.07348,-362016201.89586,7261294.56663,  -0.00325,  -0.00330,   0.00138,478962231.30710,   0.00310,277960663.35039,  -0.00149,  -0.00271,   0.00129,  -0.00000,   2.00000
-541573030.24268,-362104220.41353,6700544.24238,  -0.00325,  -0.00330,   0.00138,478960862.39809,   0.00310,277964042.05122,  -0.00150,  -0.00271,   0.00129,   0.00000,   2.00000
-541586401.10081,-362187464.81357,6140883.34599,  -0.00326,  -0.00330,   0.00137,478982977.47220,   0.00310,277967483.49444,  -0.00150,  -0.00271,   0.00129,  -0.00000,   2.00000
-541597057.89417,-362272592.83376,5571392.65708,  -0.00326,  -0.00331,   0.00136,478971207.45969,   0.00311,277970873.01642,  -0.00150,  -0.00271,   0.00129,  -0.00000,   2.00000
-541601966.51011,-362368728.03922,5008861.36747,  -0.00327,  -0.00331,   0.00135,478987127.68101,   0.00311,277974304.28546,  -0.00151,  -0.00271,   0.00129,  -0.00000,   2.00000
-541605845.91561,-362460266.06768,4436096.55151,  -0.00327,  -0.00331,   0.00135,479008992.16847,   0.00311,277977797.23673,  -0.00151,  -0.00272,   0.00129,   0.00000,   2.00000
-541606467.13764,-362553323.62220,3864919.56148,  -0.00327,  -0.00331,   0.00134,478997773.05163,   0.00312,277981239.97542,  -0.00152,  -0.00272,   0.00129,  -0.00000,   2.00000
-541602569.60147,-362654350.12612,3289217.88825,  -0.00328,  -0.00331,   0.00133,479030241.56158,   0.00312,277984780.11523,  -0.00152,  -0.00272,   0.00129,   0.00000,   2.00000
-541592307.18133,-362769671.13797,2709307.07185,  -0.00328,  -0.00331,   0.00133,479029332.69841,   0.00312,277988304.62989,  -0.00152,  -0.00272,   0.00129,  -0.00000,   2.00000
-541580537.94712,-362880003.01690,2130778.83662,  -0.00328,  -0.00331,   0.00132,479051742.67513,   0.00313,277991892.27835,  -0.00153,  -0.00272,   0.00129,   0.00000,   2.00000
-541565550.35039,-362991815.01940,1548095.71287,  -0.00329,  -0.00332,   0.00131,479040617.62953,   0.00313,277995429.71114,  -0.00153,  -0.00272,   0.00129,  -0.00000,   2.00000
-541545870.51841,-363111375.48376,961123.06124,  -0.00329,  -0.00332,   0.00130,479073369.92071,   0.00313,277999065.08525,  -0.00154,  -0.00272,   0.00129,   0.00000,   2.00000
-541523749.84815,-363229090.29835,375695.53815,  -0.00330,  -0.00332,   0.00130,479079181.84149,   0.00314,278002707.20748,  -0.00154,  -0.00272,   0.00129,  -0.00000,   2.00000
-541495973.41933,-363357681.72578,-213893.77763,  -0.00330,  -0.00332,   0.00129,479095350.13362,   0.00314,278006390.94539,  -0.00154,  -0.00272,   0.00129,   0.00000,   2.00000
-541465715.05767,-363484358.52717,-807617.75520,  -0.00330,  -0.00332,   0.00128,479101266.19764,   0.00314,278010081.60283,  -0.00155,  -0.00273,   0.00129,   0.00000,   2.00000
-541429745.45023,-363621825.94474,-1399708.87452,  -0.00331,  -0.00333,   0.00127,479117553.05663,   0.00315,278013814.08394,  -0.00155,  -0.00273,   0.00129,   0.00000,   2.00000
-541391237.98187,-363757299.52565,-1995899.33179,  -0.00331,  -0.00333,   0.00126,479123587.57903,   0.00315,278017553.70387,  -0.00156,  -0.00273,   0.00129,   0.00000,   2.00000
-541350247.20277,-363890812.01255,-2590457.29268,  -0.00332,  -0.00333,   0.00126,479129588.81982,   0.00315,278021300.34424,  -0.00156,  -0.00273,   0.00129,  -0.00000,   2.00000
-541303285.97989,-364034896.14103,-3194725.96694,  -0.00332,  -0.00333,   0.00125,479146190.25977,   0.00316,278025089.66639,  -0.00157,  -0.00273,   0.00129,   0.00000,   2.00000
-541251460.52687,-364186367.31919,-3797058.37163,  -0.00332,  -0.00333,   0.00124,479179441.83216,   0.00316,278028977.57873,  -0.00157,  -0.00273,   0.00129,   0.00000,   2.00000
-541196192.51667,-364339022.20673,-4397845.32782,  -0.00333,  -0.00333,   0.00123,479168905.97778,   0.00317,278032816.26281,  -0.00157,  -0.00273,   0.00129,   0.00000,   2.00000
-541139161.20787,-364486234.64318,-5002435.37552,  -0.00333,  -0.00334,   0.00122,479191985.46729,   0.00317,278036719.12266,  -0.00158,  -0.00273,   0.00129,   0.00000,   2.00000
-541076120.73725,-364643884.64213,-5610847.00399,  -0.00333,  -0.00334,   0.00122,479208828.25287,   0.00317,278040664.90054,  -0.00158,  -0.00273,   0.00129,   0.00000,   2.00000
-541010284.73163,-364799242.08197,-6223187.89214,  -0.00334,  -0.00334,   0.00121,479215379.65463,   0.00318,278044618.82020,  -0.00159,  -0.00274,   0.00129,   0.00000,   2.00000
-540938608.86673,-364965083.10209,-6833554.80205,  -0.00334,  -0.00334,   0.00120,479232152.78324,   0.00318,278048615.22853,  -0.00159,  -0.00274,   0.00129,   0.00000,   2.00000
-540864085.56807,-365128549.84812,-7447812.91282,  -0.00335,  -0.00334,   0.00119,479238825.63208,   0.00318,278052620.00614,  -0.00160,  -0.00274,   0.00129,   0.00000,   2.00000
-540783712.03358,-365302433.01360,-8060028.91691,  -0.00335,  -0.00335,   0.00118,479255687.61306,   0.00319,278056667.37836,  -0.00160,  -0.00274,   0.00129,   0.00000,   2.00000
-540701413.06131,-365470577.87866,-8675742.57918,  -0.00335,  -0.00335,   0.00118,479279209.45742,   0.00319,278060779.62748,  -0.00161,  -0.00274,   0.00129,   0.00000,   2.00000
-540616174.94263,-365636241.71428,-9295263.88792,  -0.00336,  -0.00335,   0.00117,479286116.08997,   0.00320,278064900.65765,  -0.00161,  -0.00274,   0.00129,  -0.00000,   2.00000
-540521761.90442,-365824827.63505,-9912361.38501,  -0.00336,  -0.00335,   0.00116,479313598.17719,   0.00320,278069099.55515,  -0.00162,  -0.00274,   0.00129,   0.00000,   2.00000
-540427660.52341,-365998217.83776,-10533481.05443,  -0.00337,  -0.00336,   0.00115,479310230.49921,   0.00320,278073272.38280,  -0.00162,  -0.00274,   0.00129,  -0.00000,   2.00000
-540327218.22715,-366181585.77587,-11158062.17902,  -0.00337,  -0.00336,   0.00114,479327768.64983,   0.00321,278077489.49821,  -0.00163,  -0.00275,   0.00129,   0.00000,   2.00000
-540221876.14764,-366371836.05990,-11779869.76308,  -0.00337,  -0.00336,   0.00113,479361704.52418,   0.00321,278081805.84221,  -0.00163,  -0.00275,   0.00129,   0.00000,   2.00000
-540113460.83078,-366559365.36676,-12405344.74835,  -0.00338,  -0.00336,   0.00112,479369012.07949,   0.00322,278086131.58665,  -0.00164,  -0.00275,   0.00129,   0.00000,   2.00000
-540002457.74012,-366744476.18933,-13028768.02763,  -0.00338,  -0.00336,   0.00112,479375912.77868,   0.00322,278090465.35657,  -0.00164,  -0.00275,   0.00128,   0.00000,   2.00000
-539885014.73053,-366939369.22713,-13655483.90095,  -0.00339,  -0.00337,   0.00111,479393770.87628,   0.00322,278094843.91770,  -0.00164,  -0.00275,   0.00128,  -0.00000,   2.00000
-539765460.07722,-367128105.44649,-14285220.87688,  -0.00339,  -0.00337,   0.00110,479417953.41306,   0.00323,278099288.39521,  -0.00165,  -0.00275,   0.00128,  -0.00000,   2.00000
-539638921.84208,-367330207.08363,-14913049.94671,  -0.00339,  -0.00337,   0.00109,479418820.88162,   0.00323,278103720.19938,  -0.00165,  -0.00275,   0.00128,  -0.00000,   2.00000
-539510250.46344,-367526059.25828,-15543808.12164,  -0.00340,  -0.00337,   0.00108,479443117.19834,   0.00324,278108218.10500,  -0.00166,  -0.00275,   0.00128,   0.00000,   2.00000
-539376084.89400,-367728130.32194,-16177007.17990,  -0.00340,  -0.00338,   0.00107,479478017.93310,   0.00324,278112817.47209,  -0.00167,  -0.00276,   0.00128,   0.00000,   2.00000
-539234892.50345,-367943439.36864,-16808227.66136,  -0.00341,  -0.00338,   0.00106,479479132.16359,   0.00325,278117404.45594,  -0.00167,  -0.00276,   0.00128,   0.00000,   2.00000
-539094879.03712,-368139855.05404,-17442645.55689,  -0.00341,  -0.00338,   0.00105,479493177.00437,   0.00325,278122022.61162,  -0.00168,  -0.00276,   0.00128,   0.00000,   2.00000
-538948940.82043,-368346155.23692,-18074344.27920,  -0.00341,  -0.00339,   0.00104,479511005.54409,   0.00326,278126684.50154,  -0.00168,  -0.00276,   0.00128,   0.00000,   2.00000
-538796342.93401,-368561809.75830,-18708971.39466,  -0.00342,  -0.00339,   0.00104,479529552.61926,   0.00326,278131392.36030,  -0.00169,  -0.00276,   0.00128,  -0.00000,   2.00000
-538642333.74741,-368771424.87300,-19340504.35818,  -0.00342,  -0.00339,   0.00103,479553630.91855,   0.00326,278136164.62390,  -0.00169,  -0.00276,   0.00128,   0.00000,   2.00000
-538481636.34704,-368990300.03833,-19974868.13422,  -0.00343,  -0.00339,   0.00102,479572360.77380,   0.00327,278140983.09544,  -0.00170,  -0.00276,   0.00128,  -0.00000,   2.00000
-538317575.47027,-369205921.28969,-20612537.99378,  -0.00343,  -0.00340,   0.00101,479580656.07295,   0.00327,278145812.64010,  -0.00170,  -0.00277,   0.00128,   0.00000,   2.00000
-538148786.82048,-369427845.14764,-21246405.79684,  -0.00344,  -0.00340,   0.00100,479615436.29010,   0.00328,278150742.04766,  -0.00171,  -0.00277,   0.00127,   0.00000,   2.00000
-537976619.31800,-369646443.73194,-21883515.61854,  -0.00344,  -0.00340,   0.00099,479623898.48373,   0.00328,278155682.72493,  -0.00171,  -0.00277,   0.00127,   0.00000,   2.00000
-537801033.70006,-369861689.90739,-22523842.16074,  -0.00344,  -0.00341,   0.00098,479632422.36335,   0.00329,278160634.87996,  -0.00172,  -0.00277,   0.00127,  -0.00000,   2.00000
-537620776.03334,-370083145.89517,-23160157.36341,  -0.00345,  -0.00341,   0.00097,479667365.27614,   0.00329,278165687.05066,  -0.00172,  -0.00277,   0.00127,   0.00000,   2.00000
-537434663.96633,-370314153.38738,-23793350.00230,  -0.00345,  -0.00341,   0.00096,479685788.79633,   0.00330,278170783.46223,  -0.00173,  -0.00277,   0.00127,  -0.00000,   2.00000
-537247536.60497,-370528703.00130,-24435969.21350,  -0.00346,  -0.00341,   0.00095,479684819.92587,   0.00330,278175859.05319,  -0.00174,  -0.00278,   0.00127,  -0.00000,   2.00000
-537053420.22905,-370762356.27507,-25068064.77221,  -0.00346,  -0.00342,   0.00094,479729626.96639,   0.00331,278181067.26942,  -0.00174,  -0.00278,   0.00127,   0.00000,   2.00000
-536854836.84284,-370991794.85013,-25708884.39001,  -0.00347,  -0.00342,   0.00093,479739465.86192,   0.00331,278186290.48009,  -0.00175,  -0.00278,   0.00127,   0.00000,   2.00000
-536653811.48729,-371218312.79691,-26347079.26847,  -0.00347,  -0.00342,   0.00092,479747542.96179,   0.00332,278191522.76177,  -0.00175,  -0.00278,   0.00127,   0.00000,   2.00000
-536448301.33808,-371450829.94124,-26980857.23759,  -0.00348,  -0.00343,   0.00091,479782803.05458,   0.00332,278196855.16717,  -0.00176,  -0.00278,   0.00126,   0.00000,   2.00000
-536239327.71988,-371679706.82877,-27617621.16777,  -0.00348,  -0.00343,   0.00090,479791940.75760,   0.00333,278202199.85034,  -0.00177,  -0.00278,   0.00126,  -0.00000,   2.00000
-536023440.49264,-371917193.24883,-28256608.43631,  -0.00348,  -0.00343,   0.00089,479811785.32577,   0.00333,278207592.63004,  -0.00177,  -0.00279,   0.00126,  -0.00000,   2.00000
-535806572.62255,-372148266.46766,-28891710.87450,  -0.00349,  -0.00344,   0.00088,479836595.11005,   0.00334,278213050.01925,  -0.00178,  -0.00279,   0.00126,   0.00000,   2.00000
-535584187.93774,-372384444.05219,-29527747.18978,  -0.00349,  -0.00344,   0.00087,479873149.30889,   0.00334,278218611.13403,  -0.00178,  -0.00279,   0.00126,   0.00000,   2.00000
-535359516.94980,-372617605.95566,-30160993.34589,  -0.00350,  -0.00344,   0.00086,479881572.90051,   0.00335,278224181.40896,  -0.00179,  -0.00279,   0.00126,   0.00000,   2.00000
-535131356.44852,-372846974.55064,-30797076.89670,  -0.00350,  -0.00345,   0.00085,479891091.56368,   0.00335,278229764.53075,  -0.00180,  -0.00279,   0.00125,   0.00000,   2.00000
-534897510.77621,-373085560.20769,-31429529.44986,  -0.00351,  -0.00345,   0.00084,479910227.19842,   0.00336,278235392.63918,  -0.00180,  -0.00280,   0.00125,   0.00000,   2.00000
-534659680.56539,-373325617.21911,-32061353.22795,  -0.00351,  -0.00345,   0.00083,479963557.81096,   0.00337,278241180.11469,  -0.00181,  -0.00280,   0.00125,   0.00000,   2.00000
-534416868.56025,-373565176.47727,-32697212.41692,  -0.00352,  -0.00346,   0.00082,479956892.61991,   0.00337,278246925.51192,  -0.00181,  -0.00280,   0.00125,   0.00000,   2.00000
-534174718.46255,-373799080.77304,-33323221.41738,  -0.00352,  -0.00346,   0.00081,479980821.38820,   0.00338,278252731.46602,  -0.00182,  -0.00280,   0.00125,   0.00000,   2.00000
-533924306.59845,-374040349.88248,-33956665.56146,  -0.00353,  -0.00346,   0.00080,480002606.34448,   0.00338,278258590.59107,  -0.00183,  -0.00280,   0.00125,  -0.00000,   2.00000
-533673320.32381,-374275060.85777,-34585767.93525,  -0.00353,  -0.00347,   0.00079,480027826.14037,   0.00339,278264514.25354,  -0.00183,  -0.00281,   0.00124,   0.00000,   2.00000
-533416984.42162,-374514470.91471,-35215163.87491,  -0.00354,  -0.00347,   0.00078,480065064.60717,   0.00339,278270542.47216,  -0.00184,  -0.00281,   0.00124,   0.00000,   2.00000
-533158607.33758,-374750754.92600,-35841543.52755,  -0.00354,  -0.00348,   0.00077,480073968.57310,   0.00340,278276580.05386,  -0.00185,  -0.00281,   0.00124,   0.00000,   2.00000
-532893315.41683,-374995094.18142,-36469542.42193,  -0.00355,  -0.00348,   0.00076,480094924.80996,   0.00340,278282667.30678,  -0.00185,  -0.00281,   0.00124,  -0.00000,   2.00000
-532627670.27757,-375232817.72022,-37093005.81228,  -0.00355,  -0.00348,   0.00075,480120324.16128,   0.00341,278288818.98507,  -0.00186,  -0.00281,   0.00124,  -0.00000,   2.00000
-532356638.68466,-375479505.64247,-37712420.27242,  -0.00356,  -0.00349,   0.00074,480140093.39146,   0.00342,278295015.98778,  -0.00187,  -0.00282,   0.00123,   0.00000,   2.00000
-532082342.00546,-375717563.30483,-38338386.27809,  -0.00356,  -0.00349,   0.00073,480168287.22381,   0.00342,278301286.45148,  -0.00187,  -0.00282,   0.00123,   0.00000,   2.00000
-531807704.22983,-375953476.85652,-38955649.89905,  -0.00357,  -0.00349,   0.00072,480176039.39440,   0.00343,278307561.71274,  -0.00188,  -0.00282,   0.00123,   0.00000,   2.00000
-531526358.38606,-376192786.23534,-39578324.53373,  -0.00357,  -0.00350,   0.00071,480215155.91382,   0.00343,278313946.76987,  -0.00189,  -0.00282,   0.00123,   0.00000,   2.00000
-531241482.41153,-376437483.37865,-40195153.51114,  -0.00358,  -0.00350,   0.00070,480251594.17440,   0.00344,278320432.26196,  -0.00190,  -0.00282,   0.00122,   0.00000,   2.00000
-530958321.42287,-376666950.66774,-40809866.88306,  -0.00358,  -0.00351,   0.00069,480250106.45246,   0.00345,278326891.00296,  -0.00190,  -0.00283,   0.00122,  -0.00000,   2.00000
-530664862.36234,-376916233.51968,-41424768.57908,  -0.00359,  -0.00351,   0.00068,480282505.07490,   0.00345,278333436.43252,  -0.00191,  -0.00283,   0.00122,   0.00000,   2.00000
-530375000.42058,-377146811.83376,-42035884.42066,  -0.00359,  -0.00351,   0.00067,480297411.23869,   0.00346,278340009.82527,  -0.00192,  -0.00283,   0.00122,   0.00000,   2.00000
-530080188.44484,-377381662.60526,-42646500.03808,  -0.00360,  -0.00352,   0.00066,480335481.62094,   0.00347,278346688.62604,  -0.00192,  -0.00283,   0.00121,   0.00000,   2.00000
-529780308.71024,-377625312.86238,-43252707.83097,  -0.00360,  -0.00352,   0.00065,480355812.81675,   0.00347,278353413.06468,  -0.00193,  -0.00284,   0.00121,   0.00000,   2.00000
-529479036.98223,-377861126.65391,-43859439.12047,  -0.00361,  -0.00353,   0.00064,480383215.87370,   0.00348,278360206.73332,  -0.00194,  -0.00284,   0.00121,   0.00000,   2.00000
-529176248.31113,-378093757.01339,-44462872.26171,  -0.00362,  -0.00353,   0.00063,480392798.59241,   0.00349,278367009.78665,  -0.00195,  -0.00284,   0.00120,  -0.00000,   2.00000
-528868674.43590,-378330508.26155,-45065552.29716,  -0.00362,  -0.00353,   0.00062,480431148.21752,   0.00349,278373918.48806,  -0.00195,  -0.00284,   0.00120,   0.00000,   2.00000
-528559666.46598,-378564062.53222,-45664898.84559,  -0.00363,  -0.00354,   0.00061,480440830.51193,   0.00350,278380836.55935,  -0.00196,  -0.00285,   0.00120,   0.00000,   2.00000
-528247962.64235,-378798200.13535,-46261532.21472,  -0.00363,  -0.00354,   0.00059,480495582.73328,   0.00351,278387914.85159,  -0.00197,  -0.00285,   0.00120,   0.00000,   2.00000
-527932910.12192,-379032619.24590,-46856646.43772,  -0.00364,  -0.00355,   0.00058,480489141.45175,   0.00351,278394948.00714,  -0.00198,  -0.00285,   0.00119,  -0.00000,   2.00000
-527615303.70055,-379267549.62557,-47448882.65056,  -0.00364,  -0.00355,   0.00057,480544006.14333,   0.00352,278402141.41757,  -0.00198,  -0.00285,   0.00119,   0.00000,   2.00000
-527294382.73912,-379502751.43028,-48039612.69520,  -0.00365,  -0.00356,   0.00056,480537684.77088,   0.00353,278409289.74244,  -0.00199,  -0.00286,   0.00119,   0.00000,   2.00000
-526974527.88564,-379726541.12048,-48628600.34874,  -0.00366,  -0.00356,   0.00055,480581734.42151,   0.00353,278416561.85237,  -0.00200,  -0.00286,   0.00118,   0.00000,   2.00000
-526650041.16524,-379959048.64621,-49212846.65432,  -0.00366,  -0.00356,   0.00054,480602624.63693,   0.00354,278423879.75969,  -0.00201,  -0.00286,   0.00118,   0.00000,   2.00000
-526326605.23459,-380184922.12517,-49791701.52246,  -0.00367,  -0.00357,   0.00053,480628810.16294,   0.00355,278431261.08886,  -0.00201,  -0.00287,   0.00118,  -0.00000,   2.00000
-525996672.51225,-380418161.73030,-50371268.39061,  -0.00367,  -0.00357,   0.00052,480651574.45398,   0.00355,278438694.16331,  -0.00202,  -0.00287,   0.00117,   0.00000,   2.00000
-525665924.20103,-380643399.38801,-50950845.98791,  -0.00368,  -0.00358,   0.00051,480679663.33299,   0.00356,278446196.71820,  -0.00203,  -0.00287,   0.00117,  -0.00000,   2.00000
-525336431.18880,-380862034.89990,-51524911.70410,  -0.00369,  -0.00358,   0.00049,480705970.59074,   0.00357,278453762.60513,  -0.00204,  -0.00287,   0.00116,   0.00000,   2.00000
-525004817.34979,-381085912.81654,-52092057.19990,  -0.00369,  -0.00359,   0.00048,480743253.97312,   0.00358,278461428.33548,  -0.00205,  -0.00288,   0.00116,   0.00000,   2.00000
-524670300.91811,-381305290.64976,-52661183.86899,  -0.00370,  -0.00359,   0.00047,480755368.68533,   0.00358,278469109.36399,  -0.00205,  -0.00288,   0.00116,   0.00000,   2.00000
-524331489.79739,-381533343.85800,-53225387.64930,  -0.00370,  -0.00360,   0.00046,480776611.75750,   0.00359,278476836.16600,  -0.00206,  -0.00288,   0.00115,   0.00000,   2.00000
-523994486.54836,-381749909.02569,-53787320.99119,  -0.00371,  -0.00360,   0.00045,480821055.96189,   0.00360,278484686.38258,  -0.00207,  -0.00289,   0.00115,  -0.00000,   2.00000
-523656776.18209,-381963419.85161,-54345732.24924,  -0.00372,  -0.00360,   0.00044,480831430.07187,   0.00361,278492545.53054,  -0.00208,  -0.00289,   0.00115,  -0.00000,   2.00000
-523315180.55737,-382180701.96749,-54902443.31156,  -0.00372,  -0.00361,   0.00043,480870864.51331,   0.00361,278500510.91637,  -0.00209,  -0.00289,   0.00114,   0.00000,   2.00000
-522972967.36800,-382394926.05412,-55455614.41206,  -0.00373,  -0.00361,   0.00042,480881329.55962,   0.00362,278508485.18505,  -0.00210,  -0.00289,   0.00114,   0.00000,   2.00000
-522632629.85591,-382602673.20931,-56003070.99466,  -0.00374,  -0.00362,   0.00040,480907841.71035,   0.00363,278516522.10789,  -0.00210,  -0.00290,   0.00113,  -0.00000,   2.00000
-522288589.36420,-382814178.04218,-56548701.18166,  -0.00374,  -0.00362,   0.00039,480947424.94433,   0.00364,278524665.26595,  -0.00211,  -0.00290,   0.00113,   0.00000,   2.00000
-521944367.89871,-383017703.77021,-57093968.84073,  -0.00375,  -0.00363,   0.00038,480976084.84687,   0.00365,278532877.79230,  -0.00212,  -0.00290,   0.00112,   0.00000,   2.00000
-521596262.39523,-383229944.45042,-57634116.79432,  -0.00376,  -0.00363,   0.00037,480997763.98982,   0.00365,278541136.01744,  -0.00213,  -0.00291,   0.00112,   0.00000,   2.00000
-521250348.52478,-383435741.77129,-58168440.77392,  -0.00376,  -0.00364,   0.00036,481024435.70080,   0.00366,278549456.56220,  -0.00214,  -0.00291,   0.00111,   0.00000,   2.00000
-520906716.92215,-383635166.46212,-58696938.85495,  -0.00377,  -0.00364,   0.00035,481051106.51293,   0.00367,278557839.25894,  -0.00215,  -0.00291,   0.00111,   0.00000,   2.00000
-520557080.77804,-383841765.72418,-59225705.90559,  -0.00378,  -0.00365,   0.00034,481074990.57553,   0.00368,278566274.54971,  -0.00216,  -0.00292,   0.00111,   0.00000,   2.00000
-520210196.76465,-384036943.48288,-59751657.19569,  -0.00378,  -0.00365,   0.00032,481119851.96812,   0.00369,278574832.66085,  -0.00217,  -0.00292,   0.00110,   0.00000,   2.00000
-519859704.32204,-384240881.51052,-60272407.52590,  -0.00379,  -0.00366,   0.00031,481141784.93813,   0.00369,278583436.27646,  -0.00217,  -0.00292,   0.00110,   0.00000,   2.00000
-519515252.63351,-384426892.41908,-60788883.49703,  -0.00380,  -0.00366,   0.00030,481157512.93906,   0.00370,278592064.57074,  -0.00218,  -0.00293,   0.00109,  -0.00000,   2.00000
-519161471.60975,-384631678.11042,-61303876.79916,  -0.00380,  -0.00367,   0.00029,481192763.03865,   0.00371,278600782.80998,  -0.00219,  -0.00293,   0.00109,   0.00000,   2.00000
-518813869.00384,-384818562.66265,-61814584.15977,  -0.00381,  -0.00367,   0.00028,481208538.72368,   0.00372,278609525.52734,  -0.00220,  -0.00293,   0.00108,   0.00000,   2.00000
-518465632.94397,-385010842.69496,-62317653.77997,  -0.00382,  -0.00368,   0.00026,481246498.01285,   0.00373,278618366.97568,  -0.00221,  -0.00294,   0.00107,  -0.00000,   2.00000
-518117876.27481,-385195242.55336,-62820121.62529,  -0.00383,  -0.00368,   0.00025,481275641.99074,   0.00374,278627277.34783,  -0.00222,  -0.00294,   0.00107,  -0.00000,   2.00000
-517769655.24243,-385385057.65156,-63314886.15263,  -0.00383,  -0.00369,   0.00024,481313705.54206,   0.00375,278636286.27663,  -0.00223,  -0.00294,   0.00106,   0.00000,   2.00000
-517422603.22903,-385558893.83362,-63813199.83179,  -0.00384,  -0.00369,   0.00023,481315954.91388,   0.00375,278645273.47435,  -0.00224,  -0.00295,   0.00106,  -0.00000,   2.00000
-517074682.24565,-385746325.02950,-64299524.07573,  -0.00385,  -0.00370,   0.00022,481381061.55639,   0.00376,278654449.72364,  -0.00225,  -0.00295,   0.00105,   0.00000,   2.00000
-516730490.36041,-385919559.39218,-64784091.63352,  -0.00386,  -0.00370,   0.00021,481381117.81003,   0.00377,278663596.28816,  -0.00226,  -0.00296,   0.00105,   0.00000,   2.00000
-516380682.07068,-386099966.60713,-65268717.58580,  -0.00386,  -0.00371,   0.00019,481405770.86780,   0.00378,278672795.77143,  -0.00227,  -0.00296,   0.00104,   0.00000,   2.00000
-516037176.10560,-386270927.01068,-65744768.81762,  -0.00387,  -0.00371,   0.00018,481448653.45859,   0.00379,278682109.20307,  -0.00228,  -0.00296,   0.00104,   0.00000,   2.00000
-515688129.75875,-386449049.94210,-66220845.67459,  -0.00388,  -0.00372,   0.00017,481473467.55464,   0.00380,278691475.55510,  -0.00229,  -0.00297,   0.00103,   0.00000,   2.00000
-515349007.11937,-386606303.85380,-66690105.52025,  -0.00389,  -0.00372,   0.00016,481505235.12836,   0.00381,278700918.11503,  -0.00229,  -0.00297,   0.00102,   0.00000,   2.00000
-515006971.56033,-386772625.24821,-67154067.51427,  -0.00389,  -0.00373,   0.00015,481527749.64410,   0.00382,278710405.50290,  -0.00230,  -0.00297,   0.00102,   0.00000,   2.00000
-514665159.53029,-386944554.13792,-67610146.36408,  -0.00390,  -0.00374,   0.00013,481566082.01132,   0.00383,278719990.60064,  -0.00231,  -0.00298,   0.00101,   0.00000,   2.00000
-514324749.83431,-387100715.33096,-68069944.10790,  -0.00391,  -0.00374,   0.00012,481568746.15539,   0.00384,278729553.50714,  -0.00232,  -0.00298,   0.00101,   0.00000,   2.00000
-513985200.06085,-387257316.77229,-68524467.37387,  -0.00392,  -0.00375,   0.00011,481625328.02710,   0.00384,278739275.31136,  -0.00233,  -0.00299,   0.00100,   0.00000,   2.00000
-513645555.84929,-387424862.22433,-68968385.90853,  -0.00393,  -0.00375,   0.00010,481645585.68239,   0.00385,278749033.38879,  -0.00234,  -0.00299,   0.00099,   0.00000,   2.00000
-513313760.47146,-387569939.63432,-69410778.65706,  -0.00393,  -0.00376,   0.00008,481679847.28238,   0.00386,278758874.82057,  -0.00235,  -0.00299,   0.00099,  -0.00000,   2.00000
-512976662.85241,-387722310.88775,-69853142.33744,  -0.00394,  -0.00376,   0.00007,481705132.22515,   0.00387,278768769.15893,  -0.00236,  -0.00300,   0.00098,   0.00000,   2.00000
-512646264.36533,-387870936.42695,-70284157.70244,  -0.00395,  -0.00377,   0.00006,481729941.44915,   0.00388,278778714.59487,  -0.00237,  -0.00300,   0.00097,   0.00000,   2.00000
-512317272.09687,-388012064.02764,-70714399.87396,  -0.00396,  -0.00377,   0.00005,481759778.41140,   0.00389,278788727.92188,  -0.00238,  -0.00301,   0.00097,  -0.00000,   2.00000
-511986350.69748,-388157130.48290,-71141893.96334,  -0.00397,  -0.00378,   0.00004,481800912.75865,   0.00390,278798846.84716,  -0.00239,  -0.00301,   0.00096,   0.00000,   2.00000
-511659046.58426,-388301965.13502,-71560791.91947,  -0.00397,  -0.00378,   0.00002,481810091.72589,   0.00391,278808963.60853,  -0.00240,  -0.00301,   0.00095,   0.00000,   2.00000
-511336633.96302,-388435990.73035,-71976169.32815,  -0.00398,  -0.00379,   0.00001,481855703.58391,   0.00392,278819200.71215,  -0.00241,  -0.00302,   0.00095,   0.00000,   2.00000
-511009081.76242,-388577363.60203,-72391513.51153,  -0.00399,  -0.00380,  -0.00000,481881338.72827,   0.00393,278829490.59671,  -0.00242,  -0.00302,   0.00094,   0.00000,   2.00000
-510692039.09109,-388703907.20974,-72797554.49225,  -0.00400,  -0.00380,  -0.00001,481894955.50581,   0.00394,278839792.74458,  -0.00243,  -0.00303,   0.00093,   0.00000,   2.00000
