# sigma_xx, sigma_yy, sigma_xy, epsilon_xx, epsilon_yy, epsilon_xy, vonMises, epsPlastic, hardening, epsilonP__xx, epsilonP__yy, epsilonP__xy, yieldValue, iteration
   0.00000,   0.00000,   0.00000,   0.00000,   0.00000,   0.00000,   0.00000,   0.00000,274640135.82653,   0.00000,   0.00000,   0.00000,-474640135.82653,   0.00000
   0.00000,   0.00000,   0.00000,   0.00000,   0.00000,   0.00000,   0.00000,   0.00000,274640135.82653,   0.00000,   0.00000,   0.00000,-474640135.82653,   0.00000
803898.90971,-803898.90971,-1172352.57666,   0.00001,  -0.00001,  -0.00002,2462111.30194,   0.00000,274640135.82653,   0.00000,   0.00000,   0.00000,-472178024.52459,   0.00000
1620358.73989,-1578489.00501,-2336331.20635,   0.00001,  -0.00001,  -0.00003,4904104.29714,   0.00000,274640135.82653,   0.00000,   0.00000,   0.00000,-469736031.52939,   0.00000
2424257.64960,-2382387.91472,-3500309.83604,   0.00002,  -0.00002,  -0.00005,7354238.66211,   0.00000,274640135.82653,   0.00000,   0.00000,   0.00000,-467285897.16442,   0.00000
3211408.66536,-3169538.93048,-4664288.46573,   0.00002,  -0.00002,  -0.00006,9787980.79835,   0.00000,274640135.82653,   0.00000,   0.00000,   0.00000,-464852155.02818,   0.00000
3985998.76066,-3985998.76066,-5828267.09541,   0.00003,  -0.00003,  -0.00008,12229908.02771,   0.00000,274640135.82653,   0.00000,   0.00000,   0.00000,-462410227.79882,   0.00000
4760588.85595,-4802458.59083,-6983871.77812,   0.00003,  -0.00003,  -0.00009,14659902.47787,   0.00000,274640135.82653,   0.00000,   0.00000,   0.00000,-459980233.34866,   0.00000
5505870.13683,-5631479.34147,-8139476.46084,   0.00004,  -0.00004,  -0.00011,17081791.20113,   0.00000,274640135.82653,   0.00000,   0.00000,   0.00000,-457558344.62540,   0.00000
6251151.41771,-6460500.09211,-9295081.14355,   0.00004,  -0.00004,  -0.00012,19503746.31174,   0.00000,274640135.82653,   0.00000,   0.00000,   0.00000,-455136389.51479,   0.00000
6996432.69859,-7289520.84275,-10450685.82626,   0.00005,  -0.00005,  -0.00014,21925745.80993,   0.00000,274640135.82653,   0.00000,   0.00000,   0.00000,-452714390.01660,   0.00000
7712405.16505,-8131102.51386,-11597916.56199,   0.00005,  -0.00005,  -0.00015,24327790.36993,   0.00000,274640135.82653,   0.00000,   0.00000,   0.00000,-450312345.45660,   0.00000
8428377.63151,-8972684.18496,-12745147.29773,   0.00006,  -0.00006,  -0.00017,26729910.59813,   0.00000,274640135.82653,   0.00000,   0.00000,   0.00000,-447910225.22840,   0.00000
9144350.09798,-9814265.85607,-13892378.03346,   0.00006,  -0.00006,  -0.00018,29132087.77661,   0.00000,274640135.82653,   0.00000,   0.00000,   0.00000,-445508048.04992,   0.00000
9860322.56444,-10655847.52717,-15031234.82222,   0.00007,  -0.00007,  -0.00020,31522328.62995,   0.00000,274640135.82653,   0.00000,   0.00000,   0.00000,-443117807.19658,   0.00000
10546986.21648,-11509990.11874,-16178465.55796,   0.00007,  -0.00007,  -0.00021,33916702.98464,   0.00000,274640135.82653,   0.00000,   0.00000,   0.00000,-440723432.84189,   0.00000
11191780.13365,-12406002.44519,-17317322.34671,   0.00008,  -0.00008,  -0.00023,36299849.18308,   0.00000,274640135.82653,   0.00000,   0.00000,   0.00000,-438340286.64345,   0.00000
11878443.78569,-13260145.03676,-18456179.13547,   0.00008,  -0.00008,  -0.00024,38682430.19017,   0.00000,274640135.82653,   0.00000,   0.00000,   0.00000,-435957705.63636,   0.00000
12523237.70286,-14156157.36321,-19586661.97726,   0.00008,  -0.00009,  -0.00025,41053881.42072,   0.00000,274640135.82653,   0.00000,   0.00000,   0.00000,-433586254.40581,   0.00000
13180592.54049,-15022860.87524,-20717144.81904,   0.00009,  -0.00009,  -0.00027,43416872.81396,   0.00000,274640135.82653,   0.00000,   0.00000,   0.00000,-431223263.01257,   0.00000
13796077.64324,-15931434.12216,-21847627.66082,   0.00009,  -0.00010,  -0.00028,45780892.92338,   0.00000,274640135.82653,   0.00000,   0.00000,   0.00000,-428859242.90315,   0.00000
14411562.74598,-16840007.36907,-22978110.50260,   0.00010,  -0.00010,  -0.00030,48145098.38627,   0.00000,274640135.82653,   0.00000,   0.00000,   0.00000,-426495037.44026,   0.00000
15039608.76920,-17719271.80157,-24100219.39741,   0.00010,  -0.00011,  -0.00031,50488761.77615,   0.00000,274640135.82653,   0.00000,   0.00000,   0.00000,-424151374.05038,   0.00000
15655093.87195,-18627845.04849,-25222328.29222,   0.00011,  -0.00012,  -0.00033,52841241.20038,   0.00000,274640135.82653,   0.00000,   0.00000,   0.00000,-421798894.62615,   0.00000
16241270.16028,-19548979.21586,-26344437.18702,   0.00011,  -0.00012,  -0.00034,55186319.04473,   0.00000,274640135.82653,   0.00000,   0.00000,   0.00000,-419453816.78180,   0.00000
16827446.44861,-20470113.38324,-27458172.13485,   0.00012,  -0.00013,  -0.00036,57519578.26357,   0.00000,274640135.82653,   0.00000,   0.00000,   0.00000,-417120557.56296,   0.00000
17401061.81648,-21420556.36504,-28571907.08268,   0.00012,  -0.00013,  -0.00037,59861834.55094,   0.00000,274640135.82653,   0.00000,   0.00000,   0.00000,-414778301.27559,   0.00000
17987238.10481,-22341690.53242,-29685642.03051,   0.00013,  -0.00014,  -0.00039,62195411.45492,   0.00000,274640135.82653,   0.00000,   0.00000,   0.00000,-412444724.37160,   0.00000
18544105.57872,-23275385.62026,-30791003.03137,   0.00013,  -0.00014,  -0.00040,64509737.55060,   0.00000,274640135.82653,   0.00000,   0.00000,   0.00000,-410130398.27593,   0.00000
19100973.05264,-24209080.70810,-31896364.03222,   0.00013,  -0.00015,  -0.00041,66824231.18863,   0.00000,274640135.82653,   0.00000,   0.00000,   0.00000,-407815904.63790,   0.00000
19615970.79167,-25184645.53082,-33001725.03308,   0.00014,  -0.00015,  -0.00043,69140549.00867,   0.00000,274640135.82653,   0.00000,   0.00000,   0.00000,-405499586.81786,   0.00000
20160277.34512,-26147649.43308,-34107086.03393,   0.00014,  -0.00016,  -0.00044,71464397.92778,   0.00000,274640135.82653,   0.00000,   0.00000,   0.00000,-403175737.89875,   0.00000
20687836.00462,-27093905.44139,-35204073.08781,   0.00015,  -0.00016,  -0.00046,73760157.46345,   0.00000,274640135.82653,   0.00000,   0.00000,   0.00000,-400879978.36308,   0.00000
21202833.74366,-28069470.26411,-36301060.14169,   0.00015,  -0.00017,  -0.00047,76065159.78543,   0.00000,274640135.82653,   0.00000,   0.00000,   0.00000,-398574976.04110,   0.00000
21688522.66827,-29057596.00730,-37389673.24859,   0.00016,  -0.00017,  -0.00049,78351229.90646,   0.00000,274640135.82653,   0.00000,   0.00000,   0.00000,-396288905.92007,   0.00000
22174211.59289,-30045721.75049,-38478286.35549,   0.00016,  -0.00018,  -0.00050,80637564.50561,   0.00000,274640135.82653,   0.00000,   0.00000,   0.00000,-394002571.32092,   0.00000
22689209.33193,-31021286.57321,-39566899.46239,   0.00016,  -0.00019,  -0.00051,82931221.53189,   0.00000,274640135.82653,   0.00000,   0.00000,   0.00000,-391708914.29464,   0.00000
23145589.44213,-32021973.23687,-40647138.62232,   0.00017,  -0.00019,  -0.00053,85198956.33644,   0.00000,274640135.82653,   0.00000,   0.00000,   0.00000,-389441179.49009,   0.00000
23631278.36675,-33010098.98005,-41727377.78224,   0.00017,  -0.00020,  -0.00054,87473978.75698,   0.00000,274640135.82653,   0.00000,   0.00000,   0.00000,-387166157.06955,   0.00000
24087658.47695,-34010785.64371,-42807616.94217,   0.00018,  -0.00020,  -0.00056,89742215.40014,   0.00000,274640135.82653,   0.00000,   0.00000,   0.00000,-384897920.42639,   0.00000
24531477.66668,-35040781.12177,-43887856.10210,   0.00018,  -0.00021,  -0.00057,92020017.48186,   0.00000,274640135.82653,   0.00000,   0.00000,   0.00000,-382620118.34467,   0.00000
24987857.77688,-36041467.78543,-44959721.31504,   0.00018,  -0.00021,  -0.00058,94276768.76982,   0.00000,274640135.82653,   0.00000,   0.00000,   0.00000,-380363367.05671,   0.00000
25431676.96662,-37071463.26349,-46023212.58102,   0.00019,  -0.00022,  -0.00060,96531141.86138,   0.00000,274640135.82653,   0.00000,   0.00000,   0.00000,-378108993.96515,   0.00000
25846187.34194,-38114019.66203,-47095077.79397,   0.00019,  -0.00022,  -0.00061,98790915.80055,   0.00000,274640135.82653,   0.00000,   0.00000,   0.00000,-375849220.02598,   0.00000
26273258.63773,-39127267.24614,-48158569.05994,   0.00020,  -0.00023,  -0.00063,101029556.54384,   0.00000,274640135.82653,   0.00000,   0.00000,   0.00000,-373610579.28269,   0.00000
26687769.01305,-40169823.64468,-49213686.37894,   0.00020,  -0.00023,  -0.00064,103265945.51097,   0.00000,274640135.82653,   0.00000,   0.00000,   0.00000,-371374190.31556,   0.00000
27102279.38837,-41212380.04321,-50268803.69794,   0.00020,  -0.00024,  -0.00065,105502611.96163,   0.00000,274640135.82653,   0.00000,   0.00000,   0.00000,-369137523.86490,   0.00000
27487480.94927,-42267497.36221,-51323921.01693,   0.00021,  -0.00025,  -0.00067,107732838.89499,   0.00000,274640135.82653,   0.00000,   0.00000,   0.00000,-366907296.93154,   0.00000
27860121.58971,-43351923.49562,-52379038.33593,   0.00021,  -0.00025,  -0.00068,109972980.66566,   0.00000,274640135.82653,   0.00000,   0.00000,   0.00000,-364667155.16087,   0.00000
28245323.15061,-44407040.81462,-53425781.70795,   0.00022,  -0.00026,  -0.00069,112191876.82306,   0.00000,274640135.82653,   0.00000,   0.00000,   0.00000,-362448259.00346,   0.00000
28630524.71152,-45462158.13361,-54472525.07997,   0.00022,  -0.00026,  -0.00071,114411049.18263,   0.00000,274640135.82653,   0.00000,   0.00000,   0.00000,-360229086.64390,   0.00000
29003165.35196,-46546584.26703,-55510894.50502,   0.00022,  -0.00027,  -0.00072,116628232.48968,   0.00000,274640135.82653,   0.00000,   0.00000,   0.00000,-358011903.33685,   0.00000
29359058.09844,-47614262.50649,-56549263.93006,   0.00023,  -0.00027,  -0.00074,118829457.36981,   0.00000,274640135.82653,   0.00000,   0.00000,   0.00000,-355810678.45672,   0.00000
29702389.92447,-48711249.56037,-57579259.40813,   0.00023,  -0.00028,  -0.00075,121028805.12950,   0.00000,274640135.82653,   0.00000,   0.00000,   0.00000,-353611330.69703,   0.00000
30045721.75049,-49808236.61425,-58609254.88620,   0.00023,  -0.00029,  -0.00076,123228505.31946,   0.00000,274640135.82653,   0.00000,   0.00000,   0.00000,-351411630.50707,   0.00000
30389053.57651,-50905223.66812,-59639250.36427,   0.00024,  -0.00029,  -0.00078,125428539.39749,   0.00000,274640135.82653,   0.00000,   0.00000,   0.00000,-349211596.42904,   0.00000
30703076.58812,-52014771.64247,-60669245.84234,   0.00024,  -0.00030,  -0.00079,127622494.37963,   0.00000,274640135.82653,   0.00000,   0.00000,   0.00000,-347017641.44690,   0.00000
31046408.41414,-53111758.69634,-61690867.37343,   0.00024,  -0.00030,  -0.00080,129811236.38258,   0.00000,274640135.82653,   0.00000,   0.00000,   0.00000,-344828899.44395,   0.00000
31360431.42575,-54221306.67069,-62704114.95754,   0.00025,  -0.00031,  -0.00082,131982000.37798,   0.00000,274640135.82653,   0.00000,   0.00000,   0.00000,-342658135.44855,   0.00000
31674454.43735,-55330854.64503,-63717362.54166,   0.00025,  -0.00031,  -0.00083,134153106.71723,   0.00000,274640135.82653,   0.00000,   0.00000,   0.00000,-340487029.10930,   0.00000
31975916.52850,-56469711.43379,-64730610.12578,   0.00026,  -0.00032,  -0.00084,136334566.37337,   0.00000,274640135.82653,   0.00000,   0.00000,   0.00000,-338305569.45316,   0.00000
32260630.72569,-57591820.32859,-65735483.76292,   0.00026,  -0.00032,  -0.00085,138488179.96008,   0.00000,274640135.82653,   0.00000,   0.00000,   0.00000,-336151955.86645,   0.00000
32562092.81683,-58730677.11735,-66740357.40006,   0.00026,  -0.00033,  -0.00087,140658458.68780,   0.00000,274640135.82653,   0.00000,   0.00000,   0.00000,-333981677.13873,   0.00000
32834246.09355,-59882094.82658,-67745231.03720,   0.00027,  -0.00034,  -0.00088,142822916.29964,   0.00000,274640135.82653,   0.00000,   0.00000,   0.00000,-331817219.52689,   0.00000
33106399.37028,-61033512.53580,-68741730.72736,   0.00027,  -0.00034,  -0.00089,144975859.37970,   0.00000,274640135.82653,   0.00000,   0.00000,   0.00000,-329664276.44683,   0.00000
33378552.64700,-62184930.24502,-69729856.47055,   0.00027,  -0.00035,  -0.00091,147117282.95693,   0.00000,274640135.82653,   0.00000,   0.00000,   0.00000,-327522852.86959,   0.00000
33650705.92373,-63336347.95424,-70726356.16071,   0.00028,  -0.00035,  -0.00092,149270989.03656,   0.00000,274640135.82653,   0.00000,   0.00000,   0.00000,-325369146.78997,   0.00000
33893550.38604,-64500326.58393,-71706107.95692,   0.00028,  -0.00036,  -0.00093,151395203.72582,   0.00000,274640135.82653,   0.00000,   0.00000,   0.00000,-323244932.10071,   0.00000
34165703.66276,-65651744.29316,-72694233.70011,   0.00028,  -0.00037,  -0.00095,153537746.87584,   0.00000,274640135.82653,   0.00000,   0.00000,   0.00000,-321102388.95069,   0.00000
34395987.20461,-66845031.73726,-73673985.49632,   0.00029,  -0.00037,  -0.00096,155673091.69153,   0.00000,274640135.82653,   0.00000,   0.00000,   0.00000,-318967044.13500,   0.00000
34638831.66692,-68009010.36695,-74645363.34556,   0.00029,  -0.00038,  -0.00097,157786620.53307,   0.00000,274640135.82653,   0.00000,   0.00000,   0.00000,-316853515.29346,   0.00000
34869115.20876,-69202297.81105,-75616741.19479,   0.00029,  -0.00038,  -0.00098,159910946.34082,   0.00000,274640135.82653,   0.00000,   0.00000,   0.00000,-314729189.48571,   0.00000
35111959.67107,-70366276.44074,-76588119.04403,   0.00030,  -0.00039,  -0.00100,162025246.08460,   0.00000,274640135.82653,   0.00000,   0.00000,   0.00000,-312614889.74193,   0.00000
35342243.21292,-71559563.88484,-77551122.94629,   0.00030,  -0.00039,  -0.00101,164138511.20450,   0.00000,274640135.82653,   0.00000,   0.00000,   0.00000,-310501624.62203,   0.00000
35543217.94034,-72765412.24941,-78514126.84855,   0.00030,  -0.00040,  -0.00102,166246343.75484,   0.00000,274640135.82653,   0.00000,   0.00000,   0.00000,-308393792.07169,   0.00000
35773501.48219,-73958699.69351,-79468756.80383,   0.00031,  -0.00041,  -0.00103,168348579.57701,   0.00000,274640135.82653,   0.00000,   0.00000,   0.00000,-306291556.24952,   0.00000
35974476.20962,-75164548.05808,-80423386.75912,   0.00031,  -0.00041,  -0.00105,170445419.07213,   0.00000,274640135.82653,   0.00000,   0.00000,   0.00000,-304194716.75440,   0.00000
36162890.01658,-76399705.23707,-81369642.76742,   0.00031,  -0.00042,  -0.00106,172541473.28901,   0.00000,274640135.82653,   0.00000,   0.00000,   0.00000,-302098662.53752,   0.00000
36363864.74401,-77605553.60163,-82315898.77573,   0.00032,  -0.00042,  -0.00107,174627351.91618,   0.00000,274640135.82653,   0.00000,   0.00000,   0.00000,-300012783.91035,   0.00000
36564839.47144,-78811401.96620,-83262154.78404,   0.00032,  -0.00043,  -0.00108,176713638.64939,   0.00000,274640135.82653,   0.00000,   0.00000,   0.00000,-297926497.17714,   0.00000
36753253.27840,-80046559.14519,-84191662.89839,   0.00032,  -0.00044,  -0.00109,178787396.15713,   0.00000,274640135.82653,   0.00000,   0.00000,   0.00000,-295852739.66940,   0.00000
36912358.27095,-81294277.24464,-85129544.95972,   0.00033,  -0.00044,  -0.00111,180867806.61033,   0.00000,274640135.82653,   0.00000,   0.00000,   0.00000,-293772329.21620,   0.00000
37113332.99838,-82500125.60920,-86059053.07408,   0.00033,  -0.00045,  -0.00112,182931699.53276,   0.00000,274640135.82653,   0.00000,   0.00000,   0.00000,-291708436.29377,   0.00000
37272437.99092,-83747843.70865,-86988561.18843,   0.00033,  -0.00045,  -0.00113,185001220.54743,   0.00000,274640135.82653,   0.00000,   0.00000,   0.00000,-289638915.27909,   0.00000
37460851.79789,-84983000.88764,-87909695.35581,   0.00034,  -0.00046,  -0.00114,187064975.53400,   0.00000,274640135.82653,   0.00000,   0.00000,   0.00000,-287575160.29253,   0.00000
37619956.79043,-86230718.98709,-88822455.57621,   0.00034,  -0.00047,  -0.00115,189111818.27694,   0.00000,274640135.82653,   0.00000,   0.00000,   0.00000,-285528317.54959,   0.00000
37766500.86252,-87507745.90095,-89743589.74359,   0.00034,  -0.00047,  -0.00117,191181880.00254,   0.00000,274640135.82653,   0.00000,   0.00000,   0.00000,-283458255.82399,   0.00000
37925605.85506,-88755464.00040,-90647976.01702,   0.00035,  -0.00048,  -0.00118,193217896.12380,   0.00000,274640135.82653,   0.00000,   0.00000,   0.00000,-281422239.70273,   0.00000
38084710.84761,-90003182.09985,-91560736.23742,   0.00035,  -0.00048,  -0.00119,195266147.64238,   0.00000,274640135.82653,   0.00000,   0.00000,   0.00000,-279373988.18415,   0.00000
38231254.91969,-91280209.01372,-92456748.56387,   0.00035,  -0.00049,  -0.00120,197302340.11602,   0.00000,274640135.82653,   0.00000,   0.00000,   0.00000,-277337795.71051,   0.00000
38390359.91224,-92527927.11317,-93361134.83729,   0.00036,  -0.00050,  -0.00121,199339714.92952,   0.00000,274640135.82653,   0.00000,   0.00000,   0.00000,-275300420.89701,   0.00000
38507595.16991,-93817514.94750,-94248773.21677,   0.00036,  -0.00050,  -0.00123,201359731.92457,   0.00000,274640135.82653,   0.00000,   0.00000,   0.00000,-273280403.90196,   0.00000
38654139.24199,-95094541.86136,-95144785.54322,   0.00036,  -0.00051,  -0.00124,203397400.87528,   0.00000,274640135.82653,   0.00000,   0.00000,   0.00000,-271242734.95125,   0.00000
38800683.31407,-96371568.77523,-96024049.97572,   0.00036,  -0.00051,  -0.00125,205412048.17532,   0.00000,274640135.82653,   0.00000,   0.00000,   0.00000,-269228087.65121,   0.00000
38917918.57174,-97661156.60956,-96911688.35519,   0.00037,  -0.00052,  -0.00126,207433605.89930,   0.00000,274640135.82653,   0.00000,   0.00000,   0.00000,-267206529.92723,   0.00000
39035153.82941,-98950744.44389,-97790952.78769,   0.00037,  -0.00053,  -0.00127,209443935.05842,   0.00000,274640135.82653,   0.00000,   0.00000,   0.00000,-265196200.76811,   0.00000
39181697.90149,-100227771.35775,-98661843.27321,   0.00037,  -0.00053,  -0.00128,211448300.57171,   0.00000,274640135.82653,   0.00000,   0.00000,   0.00000,-263191835.25482,   0.00000
39298933.15916,-101517359.19208,-99532733.75873,   0.00038,  -0.00054,  -0.00129,213447884.84926,   0.00000,274640135.82653,   0.00000,   0.00000,   0.00000,-261192250.97727,   0.00000
39403607.49636,-102836255.84083,-100395250.29728,   0.00038,  -0.00054,  -0.00131,215447622.65431,   0.00000,274640135.82653,   0.00000,   0.00000,   0.00000,-259192513.17222,   0.00000
39520842.75402,-104125843.67516,-101257766.83582,   0.00038,  -0.00055,  -0.00132,217436509.03494,   0.00000,274640135.82653,   0.00000,   0.00000,   0.00000,-257203626.79159,   0.00000
39625517.09123,-105444740.32390,-102111909.42739,   0.00039,  -0.00056,  -0.00133,219425621.49241,   0.00000,274640135.82653,   0.00000,   0.00000,   0.00000,-255214514.33412,   0.00000
39742752.34889,-106734328.15823,-102966052.01896,   0.00039,  -0.00056,  -0.00134,221403800.21103,   0.00000,274640135.82653,   0.00000,   0.00000,   0.00000,-253236335.61550,   0.00000
39847426.68609,-108053224.80698,-103811820.66355,   0.00039,  -0.00057,  -0.00135,223382277.91575,   0.00000,274640135.82653,   0.00000,   0.00000,   0.00000,-251257857.91078,   0.00000
39952101.02330,-109372121.45573,-104657589.30814,   0.00040,  -0.00058,  -0.00136,225361288.54089,   0.00000,274640135.82653,   0.00000,   0.00000,   0.00000,-249278847.28564,   0.00000
40056775.36050,-110691018.10447,-105494984.00576,   0.00040,  -0.00058,  -0.00137,227329159.89606,   0.00000,274640135.82653,   0.00000,   0.00000,   0.00000,-247310975.93047,   0.00000
40161449.69770,-112009914.75322,-106332378.70338,   0.00040,  -0.00059,  -0.00138,229297553.15748,   0.00000,274640135.82653,   0.00000,   0.00000,   0.00000,-245342582.66905,   0.00000
40266124.03490,-113328811.40197,-107161399.45402,   0.00040,  -0.00059,  -0.00139,231254813.60190,   0.00000,274640135.82653,   0.00000,   0.00000,   0.00000,-243385322.22463,   0.00000
40341489.55769,-114660268.97118,-107990420.20466,   0.00041,  -0.00060,  -0.00140,233207572.07174,   0.00000,274640135.82653,   0.00000,   0.00000,   0.00000,-241432563.75479,   0.00000
40446163.89489,-115979165.61992,-108811067.00832,   0.00041,  -0.00061,  -0.00141,235154239.34778,   0.00000,274640135.82653,   0.00000,   0.00000,   0.00000,-239485896.47875,   0.00000
40538277.31163,-117327371.08309,-109623339.86501,   0.00041,  -0.00061,  -0.00143,237101546.53092,   0.00000,274640135.82653,   0.00000,   0.00000,   0.00000,-237538589.29561,   0.00000
40613642.83441,-118658828.65230,-110443986.66868,   0.00042,  -0.00062,  -0.00144,239044296.02327,   0.00000,274640135.82653,   0.00000,   0.00000,   0.00000,-235595839.80325,   0.00000
40705756.25115,-120007034.11546,-111247885.57839,   0.00042,  -0.00063,  -0.00145,240981119.68634,   0.00000,274640135.82653,   0.00000,   0.00000,   0.00000,-233659016.14019,   0.00000
40781121.77394,-121338491.68467,-112051784.48810,   0.00042,  -0.00063,  -0.00146,242901742.44664,   0.00000,274640135.82653,   0.00000,   0.00000,   0.00000,-231738393.37989,   0.00000
40873235.19067,-122686697.14783,-112855683.39781,   0.00043,  -0.00064,  -0.00147,244839672.16293,   0.00000,274640135.82653,   0.00000,   0.00000,   0.00000,-229800463.66360,   0.00000
40936039.79300,-124047463.53146,-113651208.36055,   0.00043,  -0.00064,  -0.00148,246761698.71215,   0.00000,274640135.82653,   0.00000,   0.00000,   0.00000,-227878437.11438,   0.00000
41028153.20973,-125395668.99462,-114438359.37631,   0.00043,  -0.00065,  -0.00149,248677602.86761,   0.00000,274640135.82653,   0.00000,   0.00000,   0.00000,-225962532.95892,   0.00000
41120266.62647,-126743874.45779,-115225510.39207,   0.00043,  -0.00066,  -0.00150,250594059.55912,   0.00000,274640135.82653,   0.00000,   0.00000,   0.00000,-224046076.26741,   0.00000
41183071.22879,-128104640.84141,-116004287.46085,   0.00044,  -0.00066,  -0.00151,252494695.06775,   0.00000,274640135.82653,   0.00000,   0.00000,   0.00000,-222145440.75878,   0.00000
41275184.64553,-129452846.30458,-116783064.52964,   0.00044,  -0.00067,  -0.00152,254400713.24741,   0.00000,274640135.82653,   0.00000,   0.00000,   0.00000,-220239422.57912,   0.00000
41337989.24785,-130813612.68820,-117553467.65144,   0.00044,  -0.00068,  -0.00153,256290958.88269,   0.00000,274640135.82653,   0.00000,   0.00000,   0.00000,-218349176.94384,   0.00000
41430102.66459,-132161818.15137,-118323870.77325,   0.00045,  -0.00068,  -0.00154,258186545.85884,   0.00000,274640135.82653,   0.00000,   0.00000,   0.00000,-216453589.96769,   0.00000
41492907.26691,-133522584.53499,-119085899.94808,   0.00045,  -0.00069,  -0.00155,260066408.54183,   0.00000,274640135.82653,   0.00000,   0.00000,   0.00000,-214573727.28470,   0.00000
41572459.76318,-134900098.81257,-119847929.12291,   0.00045,  -0.00069,  -0.00156,261963763.42061,   0.00000,274640135.82653,   0.00000,   0.00000,   0.00000,-212676372.40592,   0.00000
41635264.36551,-136260865.19620,-120601584.35077,   0.00046,  -0.00070,  -0.00157,263833284.88207,   0.00000,274640135.82653,   0.00000,   0.00000,   0.00000,-210806850.94446,   0.00000
41714816.86178,-137638379.47378,-121346865.63165,   0.00046,  -0.00071,  -0.00158,265708853.14335,   0.00000,274640135.82653,   0.00000,   0.00000,   0.00000,-208931282.68318,   0.00000
41777621.46410,-138999145.85741,-122092146.91253,   0.00046,  -0.00071,  -0.00159,267568052.87044,   0.00000,274640135.82653,   0.00000,   0.00000,   0.00000,-207072082.95609,   0.00000
41857173.96037,-140376660.13499,-122837428.19340,   0.00046,  -0.00072,  -0.00160,269444801.95647,   0.00000,274640135.82653,   0.00000,   0.00000,   0.00000,-205195333.87006,   0.00000
41919978.56270,-141737426.51862,-123574335.52731,   0.00047,  -0.00073,  -0.00161,271293681.76029,   0.00000,274640135.82653,   0.00000,   0.00000,   0.00000,-203346454.06624,   0.00000
41999531.05897,-143114940.79619,-124302868.91423,   0.00047,  -0.00073,  -0.00162,273148708.49076,   0.00000,274640135.82653,   0.00000,   0.00000,   0.00000,-201491427.33577,   0.00000
42049774.74083,-144505015.99424,-125031402.30116,   0.00047,  -0.00074,  -0.00163,274999711.37969,   0.00000,274640135.82653,   0.00000,   0.00000,   0.00000,-199640424.44684,   0.00000
42129327.23710,-145882530.27182,-125751561.74111,   0.00048,  -0.00075,  -0.00163,276844525.95083,   0.00000,274640135.82653,   0.00000,   0.00000,   0.00000,-197795609.87570,   0.00000
42208879.73337,-147260044.54940,-126463347.23409,   0.00048,  -0.00075,  -0.00164,278678535.84354,   0.00000,274640135.82653,   0.00000,   0.00000,   0.00000,-195961599.98299,   0.00000
42259123.41523,-148650119.74744,-127175132.72706,   0.00048,  -0.00076,  -0.00165,280508571.20823,   0.00000,274640135.82653,   0.00000,   0.00000,   0.00000,-194131564.61830,   0.00000
42338675.91150,-150027634.02502,-127886918.22003,   0.00049,  -0.00077,  -0.00166,282343792.88253,   0.00000,274640135.82653,   0.00000,   0.00000,   0.00000,-192296342.94400,   0.00000
42418228.40778,-151405148.30260,-128590329.76603,   0.00049,  -0.00077,  -0.00167,284168228.21106,   0.00000,274640135.82653,   0.00000,   0.00000,   0.00000,-190471907.61547,   0.00000
42497780.90405,-152782662.58018,-129285367.36505,   0.00049,  -0.00078,  -0.00168,285981898.25805,   0.00000,274640135.82653,   0.00000,   0.00000,   0.00000,-188658237.56848,   0.00000
42577333.40032,-154160176.85776,-129972031.01710,   0.00049,  -0.00078,  -0.00169,287784824.54006,   0.00000,274640135.82653,   0.00000,   0.00000,   0.00000,-186855311.28647,   0.00000
42627577.08218,-155550252.05580,-130667068.61612,   0.00050,  -0.00079,  -0.00170,289595183.08213,   0.00000,274640135.82653,   0.00000,   0.00000,   0.00000,-185044952.74440,   0.00000
42707129.57846,-156927766.33338,-131345358.32119,   0.00050,  -0.00080,  -0.00171,291388000.21971,   0.00000,274640135.82653,   0.00000,   0.00000,   0.00000,-183252135.60682,   0.00000
42786682.07473,-158305280.61096,-132023648.02626,   0.00050,  -0.00080,  -0.00172,293181429.59440,   0.00000,274640135.82653,   0.00000,   0.00000,   0.00000,-181458706.23213,   0.00000
42853673.65054,-159712103.70296,-132693563.78435,   0.00051,  -0.00081,  -0.00173,294976930.27435,   0.00000,274640135.82653,   0.00000,   0.00000,   0.00000,-179663205.55218,   0.00000
42933226.14681,-161089617.98054,-133363479.54245,   0.00051,  -0.00082,  -0.00173,296760302.18706,   0.00000,274640135.82653,   0.00000,   0.00000,   0.00000,-177879833.63946,   0.00000
43029526.53704,-162483880.15207,-134025021.35356,   0.00051,  -0.00082,  -0.00174,298550288.80004,   0.00000,274640135.82653,   0.00000,   0.00000,   0.00000,-176089847.02649,   0.00000
43109079.03331,-163861394.42965,-134686563.16468,   0.00052,  -0.00083,  -0.00175,300323615.41152,   0.00000,274640135.82653,   0.00000,   0.00000,   0.00000,-174316520.41501,   0.00000
43188631.52959,-165238908.70723,-135339731.02882,   0.00052,  -0.00084,  -0.00176,302086288.28784,   0.00000,274640135.82653,   0.00000,   0.00000,   0.00000,-172553847.53869,   0.00000
43255623.10539,-166645731.79923,-135984524.94599,   0.00052,  -0.00084,  -0.00177,303851257.85213,   0.00000,274640135.82653,   0.00000,   0.00000,   0.00000,-170788877.97440,   0.00000
43364484.41608,-168010685.15634,-136629318.86315,   0.00052,  -0.00085,  -0.00178,305608373.40067,   0.00000,274640135.82653,   0.00000,   0.00000,   0.00000,-169031762.42586,   0.00000
43431475.99189,-169417508.24834,-137265738.83334,   0.00053,  -0.00086,  -0.00178,307363444.18684,   0.00000,274640135.82653,   0.00000,   0.00000,   0.00000,-167276691.63969,   0.00000
43540337.30258,-170782461.60545,-137902158.80353,   0.00053,  -0.00086,  -0.00179,309110582.73073,   0.00000,274640135.82653,   0.00000,   0.00000,   0.00000,-165529553.09580,   0.00000
43607328.87839,-172189284.69745,-138530204.82674,   0.00053,  -0.00087,  -0.00180,310855781.04916,   0.00000,274640135.82653,   0.00000,   0.00000,   0.00000,-163784354.77737,   0.00000
43703629.26862,-173583546.86898,-139149876.90298,   0.00054,  -0.00088,  -0.00181,312594866.65763,   0.00000,274640135.82653,   0.00000,   0.00000,   0.00000,-162045269.16890,   0.00000
43783181.76489,-174961061.14656,-139769548.97922,   0.00054,  -0.00088,  -0.00182,314317152.45991,   0.00000,274640135.82653,   0.00000,   0.00000,   0.00000,-160322983.36662,   0.00000
43879482.15512,-176355323.31809,-140380847.10848,   0.00054,  -0.00089,  -0.00182,316046414.28753,   0.00000,274640135.82653,   0.00000,   0.00000,   0.00000,-158593721.53900,   0.00000
43988343.46581,-177720276.67521,-140992145.23774,   0.00055,  -0.00089,  -0.00183,317763192.84937,   0.00000,274640135.82653,   0.00000,   0.00000,   0.00000,-156876942.97716,   0.00000
44084643.85604,-179114538.84674,-141595069.42002,   0.00055,  -0.00090,  -0.00184,319482652.98271,   0.00000,274640135.82653,   0.00000,   0.00000,   0.00000,-155157482.84382,   0.00000
44180944.24626,-180508801.01827,-142189619.65533,   0.00055,  -0.00091,  -0.00185,321191681.34694,   0.00000,274640135.82653,   0.00000,   0.00000,   0.00000,-153448454.47959,   0.00000
44289805.55695,-181873754.37539,-142784169.89064,   0.00056,  -0.00091,  -0.00186,322888154.22394,   0.00000,274640135.82653,   0.00000,   0.00000,   0.00000,-151751981.60259,   0.00000
44386105.94718,-183268016.54692,-143370346.17897,   0.00056,  -0.00092,  -0.00186,324587452.59145,   0.00000,274640135.82653,   0.00000,   0.00000,   0.00000,-150052683.23508,   0.00000
44511715.15182,-184649717.79799,-143956522.46730,   0.00056,  -0.00093,  -0.00187,326291783.21367,   0.00000,274640135.82653,   0.00000,   0.00000,   0.00000,-148348352.61286,   0.00000
44620576.46251,-186014671.15510,-144534324.80866,   0.00057,  -0.00093,  -0.00188,327968060.53318,   0.00000,274640135.82653,   0.00000,   0.00000,   0.00000,-146672075.29335,   0.00000
44716876.85274,-187408933.32663,-145103753.20303,   0.00057,  -0.00094,  -0.00189,329647307.19298,   0.00000,274640135.82653,   0.00000,   0.00000,   0.00000,-144992828.63355,   0.00000
44842486.05738,-188790634.57770,-145673181.59741,   0.00057,  -0.00095,  -0.00189,331331587.94327,   0.00000,274640135.82653,   0.00000,   0.00000,   0.00000,-143308547.88326,   0.00000
44980656.18249,-190143027.01435,-146234236.04482,   0.00058,  -0.00095,  -0.00190,332992107.49093,   0.00000,274640135.82653,   0.00000,   0.00000,   0.00000,-141648028.33560,   0.00000
45076956.57271,-191537289.18589,-146786916.54524,   0.00058,  -0.00096,  -0.00191,334651430.35075,   0.00000,274640135.82653,   0.00000,   0.00000,   0.00000,-139988705.47578,   0.00000
45202565.77735,-192918990.43695,-147339597.04567,   0.00058,  -0.00097,  -0.00192,336315793.19404,   0.00000,274640135.82653,   0.00000,   0.00000,   0.00000,-138324342.63249,   0.00000
45340735.90246,-194271382.87360,-147892277.54610,   0.00059,  -0.00097,  -0.00192,337967361.25459,   0.00000,274640135.82653,   0.00000,   0.00000,   0.00000,-136672774.57193,   0.00000
45466345.10710,-195653084.12467,-148428210.15257,   0.00059,  -0.00098,  -0.00193,339611173.57393,   0.00000,274640135.82653,   0.00000,   0.00000,   0.00000,-135028962.25260,   0.00000
45604515.23221,-197005476.56132,-148964142.75905,   0.00059,  -0.00099,  -0.00194,341242166.71625,   0.00000,274640135.82653,   0.00000,   0.00000,   0.00000,-133397969.11028,   0.00000
45730124.43685,-198387177.81239,-149500075.36552,   0.00059,  -0.00099,  -0.00194,342887451.69852,   0.00000,274640135.82653,   0.00000,   0.00000,   0.00000,-131752684.12801,   0.00000
45897603.37638,-199727009.32858,-150019260.07805,   0.00060,  -0.00100,  -0.00195,344502241.63543,   0.00000,274640135.82653,   0.00000,   0.00000,   0.00000,-130137894.19110,   0.00000
46023212.58102,-201108710.57964,-150538444.79057,   0.00060,  -0.00100,  -0.00196,346127127.78122,   0.00000,274640135.82653,   0.00000,   0.00000,   0.00000,-128513008.04531,   0.00000
46190691.52054,-202448542.09583,-151057629.50309,   0.00060,  -0.00101,  -0.00196,347743371.79864,   0.00000,274640135.82653,   0.00000,   0.00000,   0.00000,-126896764.02789,   0.00000
46316300.72518,-203830243.34690,-151568440.26864,   0.00061,  -0.00102,  -0.00197,349358851.21157,   0.00000,274640135.82653,   0.00000,   0.00000,   0.00000,-125281284.61496,   0.00000
46483779.66471,-205170074.86309,-152070877.08721,   0.00061,  -0.00102,  -0.00198,350954750.52945,   0.00000,274640135.82653,   0.00000,   0.00000,   0.00000,-123685385.29708,   0.00000
46638697.68377,-206539215.19369,-152564939.95880,   0.00061,  -0.00103,  -0.00198,352554277.04911,   0.00000,274640135.82653,   0.00000,   0.00000,   0.00000,-122085858.77742,   0.00000
46806176.62329,-207879046.70988,-153059002.83039,   0.00062,  -0.00104,  -0.00199,354140811.89547,   0.00000,274640135.82653,   0.00000,   0.00000,   0.00000,-120499323.93106,   0.00000
46973655.56281,-209218878.22606,-153553065.70199,   0.00062,  -0.00104,  -0.00200,355728085.48886,   0.00000,274640135.82653,   0.00000,   0.00000,   0.00000,-118912050.33767,   0.00000
47128573.58187,-210588018.55667,-154030380.67963,   0.00063,  -0.00105,  -0.00200,357308275.09649,   0.00000,274640135.82653,   0.00000,   0.00000,   0.00000,-117331860.73004,   0.00000
47296052.52140,-211927850.07285,-154507695.65727,   0.00063,  -0.00106,  -0.00201,358875417.10231,   0.00000,274640135.82653,   0.00000,   0.00000,   0.00000,-115764718.72421,   0.00000
47492840.27534,-213255120.66858,-154985010.63491,   0.00063,  -0.00106,  -0.00201,360447594.41160,   0.00000,274640135.82653,   0.00000,   0.00000,   0.00000,-114192541.41493,   0.00000
47660319.21486,-214594952.18476,-155453951.66558,   0.00064,  -0.00107,  -0.00202,362005465.04051,   0.00000,274640135.82653,   0.00000,   0.00000,   0.00000,-112634670.78602,   0.00000
47857106.96880,-215922222.78049,-155914518.74927,   0.00064,  -0.00108,  -0.00203,363557606.66074,   0.00000,274640135.82653,   0.00000,   0.00000,   0.00000,-111082529.16579,   0.00000
48053894.72274,-217249493.37621,-156366711.88598,   0.00064,  -0.00108,  -0.00203,365099779.80220,   0.00000,274640135.82653,   0.00000,   0.00000,   0.00000,-109540356.02433,   0.00000
48250682.47668,-218576763.97193,-156818905.02269,   0.00065,  -0.00109,  -0.00204,366642762.18227,   0.00000,274640135.82653,   0.00000,   0.00000,   0.00000,-107997373.64426,   0.00000
48447470.23062,-219904034.56765,-157262724.21243,   0.00065,  -0.00110,  -0.00204,368175812.94720,   0.00000,274640135.82653,   0.00000,   0.00000,   0.00000,-106464322.87933,   0.00000
48644257.98456,-221231305.16338,-157706543.40217,   0.00065,  -0.00110,  -0.00205,369709681.23295,   0.00000,274640135.82653,   0.00000,   0.00000,   0.00000,-104930454.59358,   0.00000
48841045.73850,-222558575.75910,-158141988.64493,   0.00066,  -0.00111,  -0.00206,371233655.11307,   0.00000,274640135.82653,   0.00000,   0.00000,   0.00000,-103406480.71346,   0.00000
49079703.22732,-223843976.61994,-158569059.94071,   0.00066,  -0.00111,  -0.00206,372737950.02801,   0.00000,274640135.82653,   0.00000,   0.00000,   0.00000,-101902185.79852,   0.00000
49276490.98126,-225171247.21566,-158987757.28952,   0.00066,  -0.00112,  -0.00207,374242211.63920,   0.00000,274640135.82653,   0.00000,   0.00000,   0.00000,-100397924.18733,   0.00000
49515148.47008,-226456648.07650,-159406454.63833,   0.00067,  -0.00113,  -0.00207,375737476.54272,   0.00000,274640135.82653,   0.00000,   0.00000,   0.00000,-98902659.28381,   0.00000
49741245.03844,-227771357.75176,-159825151.98714,   0.00067,  -0.00113,  -0.00208,377247732.14939,   0.00000,274640135.82653,   0.00000,   0.00000,   0.00000,-97392403.67714,   0.00000
49979902.52726,-229056758.61260,-160227101.44199,   0.00067,  -0.00114,  -0.00208,378723376.49124,   0.00000,274640135.82653,   0.00000,   0.00000,   0.00000,-95916759.33529,   0.00000
50205999.09561,-230371468.28786,-160629050.89685,   0.00068,  -0.00115,  -0.00209,380214099.48985,   0.00000,274640135.82653,   0.00000,   0.00000,   0.00000,-94426036.33668,   0.00000
50444656.58443,-231656869.14870,-161031000.35171,   0.00068,  -0.00115,  -0.00209,381691457.63843,   0.00000,274640135.82653,   0.00000,   0.00000,   0.00000,-92948678.18810,   0.00000
50683314.07326,-232942270.00955,-161416201.91261,   0.00068,  -0.00116,  -0.00210,383148478.31377,   0.00000,274640135.82653,   0.00000,   0.00000,   0.00000,-91491657.51276,   0.00000
50921971.56208,-234227670.87039,-161809777.42049,   0.00069,  -0.00117,  -0.00210,384616947.09263,   0.00000,274640135.82653,   0.00000,   0.00000,   0.00000,-90023188.73390,   0.00000
51189937.86531,-235500510.81077,-162186605.03442,   0.00069,  -0.00117,  -0.00211,386069477.43147,   0.00000,274640135.82653,   0.00000,   0.00000,   0.00000,-88570658.39506,   0.00000
51457904.16855,-236773350.75114,-162563432.64834,   0.00070,  -0.00118,  -0.00211,387522908.77212,   0.00000,274640135.82653,   0.00000,   0.00000,   0.00000,-87117227.05441,   0.00000
51696561.65737,-238058751.61199,-162931886.31530,   0.00070,  -0.00118,  -0.00212,388962364.98126,   0.00000,274640135.82653,   0.00000,   0.00000,   0.00000,-85677770.84526,   0.00000
51977088.88107,-239302282.73795,-163291966.03527,   0.00070,  -0.00119,  -0.00212,390382165.09780,   0.00000,274640135.82653,   0.00000,   0.00000,   0.00000,-84257970.72873,   0.00000
52245055.18431,-240575122.67832,-163652045.75525,   0.00071,  -0.00120,  -0.00213,391817268.94413,   0.00000,274640135.82653,   0.00000,   0.00000,   0.00000,-82822866.88240,   0.00000
52554891.22243,-241806092.88382,-164003751.52825,   0.00071,  -0.00120,  -0.00213,393232739.73766,   0.00000,274640135.82653,   0.00000,   0.00000,   0.00000,-81407396.08887,   0.00000
52822857.52567,-243078932.82420,-164355457.30124,   0.00071,  -0.00121,  -0.00214,394659213.41113,   0.00000,274640135.82653,   0.00000,   0.00000,   0.00000,-79980922.41540,   0.00000
53103384.74937,-244322463.95016,-164690415.18029,   0.00072,  -0.00122,  -0.00214,396051239.39377,   0.00000,274640135.82653,   0.00000,   0.00000,   0.00000,-78588896.43275,   0.00000
53413220.78749,-245553434.15566,-165033747.00631,   0.00072,  -0.00122,  -0.00215,397459021.69537,   0.00000,274640135.82653,   0.00000,   0.00000,   0.00000,-77181114.13116,   0.00000
53723056.82560,-246784404.36115,-165360330.93838,   0.00073,  -0.00123,  -0.00215,398846886.40367,   0.00000,274640135.82653,   0.00000,   0.00000,   0.00000,-75793249.42286,   0.00000
54032892.86372,-248015374.56665,-165686914.87046,   0.00073,  -0.00123,  -0.00215,400235716.76331,   0.00000,274640135.82653,   0.00000,   0.00000,   0.00000,-74404419.06322,   0.00000
54342728.90184,-249246344.77215,-166005124.85555,   0.00073,  -0.00124,  -0.00216,401615118.67137,   0.00000,274640135.82653,   0.00000,   0.00000,   0.00000,-73025017.15516,   0.00000
54665125.86042,-250448006.16323,-166323334.84064,   0.00074,  -0.00125,  -0.00216,402980901.15093,   0.00000,274640135.82653,   0.00000,   0.00000,   0.00000,-71659234.67560,   0.00000
54974961.89854,-251678976.36872,-166633170.87876,   0.00074,  -0.00125,  -0.00217,404351872.29642,   0.00000,274640135.82653,   0.00000,   0.00000,   0.00000,-70288263.53011,   0.00000
55297358.85712,-252880637.75980,-166934632.96990,   0.00074,  -0.00126,  -0.00217,405698855.40754,   0.00000,274640135.82653,   0.00000,   0.00000,   0.00000,-68941280.41899,   0.00000
55649064.63012,-254069738.23042,-167227721.11407,   0.00075,  -0.00126,  -0.00217,407040938.59100,   0.00000,274640135.82653,   0.00000,   0.00000,   0.00000,-67599197.23553,   0.00000
56000770.40312,-255258838.70103,-167520809.25824,   0.00075,  -0.00127,  -0.00218,408384031.57299,   0.00000,274640135.82653,   0.00000,   0.00000,   0.00000,-66256104.25354,   0.00000
56323167.36170,-256460500.09211,-167813897.40240,   0.00076,  -0.00128,  -0.00218,409723647.64760,   0.00000,274640135.82653,   0.00000,   0.00000,   0.00000,-64916488.17893,   0.00000
56674873.13470,-257649600.56273,-168090237.65262,   0.00076,  -0.00128,  -0.00219,411048172.75157,   0.00000,274640135.82653,   0.00000,   0.00000,   0.00000,-63591963.07496,   0.00000
57026578.90770,-258838701.03335,-168366577.90283,   0.00076,  -0.00129,  -0.00219,412373742.04418,   0.00000,274640135.82653,   0.00000,   0.00000,   0.00000,-62266393.78235,   0.00000
57390845.60117,-259998492.68954,-168634544.20607,   0.00077,  -0.00129,  -0.00219,413675340.34421,   0.00000,274640135.82653,   0.00000,   0.00000,   0.00000,-60964795.48232,   0.00000
57771860.18858,-261175032.23970,-168902510.50930,   0.00077,  -0.00130,  -0.00220,414997261.32999,   0.00000,274640135.82653,   0.00000,   0.00000,   0.00000,-59642874.49654,   0.00000
58136126.88204,-262334823.89590,-169162102.86556,   0.00078,  -0.00131,  -0.00220,416290704.70361,   0.00000,274640135.82653,   0.00000,   0.00000,   0.00000,-58349431.12292,   0.00000
58529702.38992,-263482054.63163,-169413321.27485,   0.00078,  -0.00131,  -0.00220,417579532.17748,   0.00000,274640135.82653,   0.00000,   0.00000,   0.00000,-57060603.64905,   0.00000
58893969.08339,-264641846.28783,-169664539.68413,   0.00078,  -0.00132,  -0.00221,418864874.62326,   0.00000,274640135.82653,   0.00000,   0.00000,   0.00000,-55775261.20327,   0.00000
59287544.59127,-265789077.02356,-169907384.14644,   0.00079,  -0.00132,  -0.00221,420145672.03182,   0.00000,274640135.82653,   0.00000,   0.00000,   0.00000,-54494463.79471,   0.00000
59693681.01961,-266906998.94488,-170141854.66178,   0.00079,  -0.00133,  -0.00221,421402533.23823,   0.00000,274640135.82653,   0.00000,   0.00000,   0.00000,-53237602.58830,   0.00000
60087256.52749,-268054229.68062,-170376325.17711,   0.00080,  -0.00134,  -0.00221,422675369.81865,   0.00000,274640135.82653,   0.00000,   0.00000,   0.00000,-51964766.00787,   0.00000
60522701.77025,-269159590.68147,-170602421.74547,   0.00080,  -0.00134,  -0.00222,423928894.08138,   0.00000,274640135.82653,   0.00000,   0.00000,   0.00000,-50711241.74515,   0.00000
60928838.19860,-270277512.60279,-170820144.36685,   0.00080,  -0.00135,  -0.00222,425168810.17027,   0.00000,274640135.82653,   0.00000,   0.00000,   0.00000,-49471325.65625,   0.00000
61334974.62694,-271395434.52411,-171037866.98823,   0.00081,  -0.00135,  -0.00222,426409836.79445,   0.00000,274640135.82653,   0.00000,   0.00000,   0.00000,-48230299.03208,   0.00000
61770419.86970,-272500795.52496,-171247215.66263,   0.00081,  -0.00136,  -0.00223,427646563.76923,   0.00000,274640135.82653,   0.00000,   0.00000,   0.00000,-46993572.05730,   0.00000
62218426.03293,-273576847.71140,-171448190.39006,   0.00082,  -0.00137,  -0.00223,428859406.99657,   0.00000,274640135.82653,   0.00000,   0.00000,   0.00000,-45780728.82996,   0.00000
62666432.19615,-274652899.89784,-171649165.11749,   0.00082,  -0.00137,  -0.00223,430073391.56474,   0.00000,274640135.82653,   0.00000,   0.00000,   0.00000,-44566744.26179,   0.00000
63072568.62450,-275770821.81916,-171841765.89794,   0.00082,  -0.00138,  -0.00223,431288820.49538,   0.00000,274640135.82653,   0.00000,   0.00000,   0.00000,-43351315.33115,   0.00000
63549883.60214,-276834313.08513,-172034366.67839,   0.00083,  -0.00138,  -0.00224,432499806.86250,   0.00000,274640135.82653,   0.00000,   0.00000,   0.00000,-42140328.96403,   0.00000
64010450.68583,-277881056.45715,-172210219.56489,   0.00083,  -0.00139,  -0.00224,433672215.11573,   0.00000,274640135.82653,   0.00000,   0.00000,   0.00000,-40967920.71080,   0.00000
64458456.84905,-278957108.64359,-172386072.45139,   0.00084,  -0.00139,  -0.00224,434860874.07128,   0.00000,274640135.82653,   0.00000,   0.00000,   0.00000,-39779261.75525,   0.00000
64948332.74716,-279991291.09514,-172561925.33789,   0.00084,  -0.00140,  -0.00224,436040400.40468,   0.00000,274640135.82653,   0.00000,   0.00000,   0.00000,-38599735.42185,   0.00000
65396338.91038,-281067343.28158,-172729404.27741,   0.00085,  -0.00141,  -0.00225,437221510.38829,   0.00000,274640135.82653,   0.00000,   0.00000,   0.00000,-37418625.43824,   0.00000
65886214.80849,-282101525.73314,-172888509.26996,   0.00085,  -0.00141,  -0.00225,438383594.30729,   0.00000,274640135.82653,   0.00000,   0.00000,   0.00000,-36256541.51924,   0.00000
66388651.62706,-283106399.37028,-173039240.31553,   0.00085,  -0.00142,  -0.00225,439521870.46537,   0.00000,274640135.82653,   0.00000,   0.00000,   0.00000,-35118265.36116,   0.00000
66878527.52516,-284140581.82184,-173189971.36110,   0.00086,  -0.00142,  -0.00225,440676536.63946,   0.00000,274640135.82653,   0.00000,   0.00000,   0.00000,-33963599.18707,   0.00000
67380964.34373,-285145455.45898,-173332328.45970,   0.00086,  -0.00143,  -0.00225,441807411.84326,   0.00000,274640135.82653,   0.00000,   0.00000,   0.00000,-32832723.98327,   0.00000
67883401.16230,-286150329.09612,-173474685.55829,   0.00087,  -0.00143,  -0.00226,442939526.53447,   0.00000,274640135.82653,   0.00000,   0.00000,   0.00000,-31700609.29206,   0.00000
68385837.98087,-287155202.73326,-173600294.76293,   0.00087,  -0.00144,  -0.00226,444053228.21475,   0.00000,274640135.82653,   0.00000,   0.00000,   0.00000,-30586907.61178,   0.00000
68888274.79944,-288160076.37040,-173734277.91455,   0.00088,  -0.00145,  -0.00226,445178023.39440,   0.00000,274640135.82653,   0.00000,   0.00000,   0.00000,-29462112.43213,   0.00000
69420020.43243,-289152389.08707,-173851513.17222,   0.00088,  -0.00145,  -0.00226,446289428.51800,   0.00000,274640135.82653,   0.00000,   0.00000,   0.00000,-28350707.30853,   0.00000
69935018.17146,-290127953.90980,-173968748.42989,   0.00088,  -0.00146,  -0.00226,447381958.09179,   0.00000,274640135.82653,   0.00000,   0.00000,   0.00000,-27258177.73474,   0.00000
70479324.72492,-291090957.81206,-174077609.74058,   0.00089,  -0.00146,  -0.00226,448470977.55899,   0.00000,274640135.82653,   0.00000,   0.00000,   0.00000,-26169158.26754,   0.00000
71023631.27837,-292053961.71431,-174186471.05127,   0.00089,  -0.00147,  -0.00226,449561325.88898,   0.00000,274640135.82653,   0.00000,   0.00000,   0.00000,-25078809.93755,   0.00000
71580498.75228,-292987656.80216,-174286958.41498,   0.00090,  -0.00147,  -0.00227,450627971.90458,   0.00000,274640135.82653,   0.00000,   0.00000,   0.00000,-24012163.92194,   0.00000
72124805.30573,-293950660.70442,-174379071.83172,   0.00090,  -0.00148,  -0.00227,451701554.92363,   0.00000,274640135.82653,   0.00000,   0.00000,   0.00000,-22938580.90290,   0.00000
72681672.77965,-294884355.79226,-174471185.24846,   0.00091,  -0.00148,  -0.00227,452761173.85504,   0.00000,274640135.82653,   0.00000,   0.00000,   0.00000,-21878961.97149,   0.00000
73238540.25356,-295818050.88010,-174554924.71822,   0.00091,  -0.00149,  -0.00227,453812461.77494,   0.00000,274640135.82653,   0.00000,   0.00000,   0.00000,-20827674.05158,   0.00000
73807968.64794,-296722437.15353,-174630290.24100,   0.00091,  -0.00149,  -0.00227,454840099.47871,   0.00000,274640135.82653,   0.00000,   0.00000,   0.00000,-19800036.34782,   0.00000
74406705.85674,-297614262.50649,-174705655.76379,   0.00092,  -0.00150,  -0.00227,455874217.82811,   0.00000,274640135.82653,   0.00000,   0.00000,   0.00000,-18765917.99842,   0.00000
74963573.33065,-298547957.59433,-174772647.33960,   0.00092,  -0.00150,  -0.00227,456910359.69472,   0.00000,274640135.82653,   0.00000,   0.00000,   0.00000,-17729776.13181,   0.00000
75562310.53945,-299439782.94729,-174839638.91541,   0.00093,  -0.00151,  -0.00227,457937666.34851,   0.00000,274640135.82653,   0.00000,   0.00000,   0.00000,-16702469.47802,   0.00000
76144299.85429,-300314860.40630,-174889882.59726,   0.00093,  -0.00151,  -0.00227,458926625.58114,   0.00000,274640135.82653,   0.00000,   0.00000,   0.00000,-15713510.24539,   0.00000
76755597.98355,-301177376.94485,-174948500.22610,   0.00094,  -0.00152,  -0.00227,459931752.61749,   0.00000,274640135.82653,   0.00000,   0.00000,   0.00000,-14708383.20904,   0.00000
77354335.19235,-302069202.29781,-174990369.96098,   0.00094,  -0.00153,  -0.00227,460934645.27301,   0.00000,274640135.82653,   0.00000,   0.00000,   0.00000,-13705490.55352,   0.00000
77978194.24207,-302902410.02194,-175032239.69586,   0.00095,  -0.00153,  -0.00228,461908114.82186,   0.00000,274640135.82653,   0.00000,   0.00000,   0.00000,-12732021.00467,   0.00000
78589492.37133,-303764926.56049,-175065735.48376,   0.00095,  -0.00154,  -0.00228,462888977.53079,   0.00000,274640135.82653,   0.00000,   0.00000,   0.00000,-11751158.29574,   0.00000
79213351.42106,-304598134.28461,-175099231.27167,   0.00095,  -0.00154,  -0.00228,463855839.54726,   0.00000,274640135.82653,   0.00000,   0.00000,   0.00000,-10784296.27927,   0.00000
79837210.47078,-305431342.00874,-175124353.11260,   0.00096,  -0.00155,  -0.00228,464814681.73097,   0.00000,274640135.82653,   0.00000,   0.00000,   0.00000,-9825454.09556,   0.00000
80461069.52051,-306264549.73287,-175141101.00655,   0.00096,  -0.00155,  -0.00228,465765549.54671,   0.00000,274640135.82653,   0.00000,   0.00000,   0.00000,-8874586.27982,   0.00000
81114237.38465,-307085196.53654,-175157848.90050,   0.00097,  -0.00156,  -0.00228,466723296.03514,   0.00000,274640135.82653,   0.00000,   0.00000,   0.00000,-7916839.79139,   0.00000
81750657.35484,-307889095.44625,-175166222.84748,   0.00097,  -0.00156,  -0.00228,467652240.34290,   0.00000,274640135.82653,   0.00000,   0.00000,   0.00000,-6987895.48363,   0.00000
82387077.32503,-308692994.35596,-175174596.79445,   0.00098,  -0.00157,  -0.00228,468582678.89093,   0.00000,274640135.82653,   0.00000,   0.00000,   0.00000,-6057456.93559,   0.00000
83065367.03010,-309455023.53079,-175166222.84748,   0.00098,  -0.00157,  -0.00228,469485759.93009,   0.00000,274640135.82653,   0.00000,   0.00000,   0.00000,-5154375.89644,   0.00000
83701787.00028,-310258922.44050,-175166222.84748,   0.00099,  -0.00157,  -0.00228,470409854.51199,   0.00000,274640135.82653,   0.00000,   0.00000,   0.00000,-4230281.31454,   0.00000
84380076.70535,-311020951.61533,-175149474.95352,   0.00099,  -0.00158,  -0.00228,471306712.42013,   0.00000,274640135.82653,   0.00000,   0.00000,   0.00000,-3333423.40640,   0.00000
85058366.41042,-311782980.79017,-175132727.05957,   0.00099,  -0.00158,  -0.00228,472205167.36834,   0.00000,274640135.82653,   0.00000,   0.00000,   0.00000,-2434968.45819,   0.00000
85749217.03596,-312515701.15058,-175115979.16562,   0.00100,  -0.00159,  -0.00228,473089618.20191,   0.00000,274640135.82653,   0.00000,   0.00000,   0.00000,-1550517.62462,   0.00000
86398197.92661,-313290291.24588,-175082483.37772,   0.00100,  -0.00159,  -0.00228,473967087.19336,   0.00000,274640135.82653,   0.00000,   0.00000,   0.00000,-673048.63316,   0.00000
86947080.78791,-313839174.10717,-175062880.41838,   0.00101,  -0.00160,  -0.00228,474640135.66960,   0.00000,274640135.82653,   0.00000,   0.00000,   0.00000,  -3.44956,   0.00000
87059150.76423,-313875515.29770,-174987247.77704,   0.00101,  -0.00160,  -0.00228,474641423.91540,   0.00000,274641433.49036,   0.00000,  -0.00000,  -0.00000,  -9.57496,   1.00000
87556275.04019,-314071124.26913,-174627609.76333,   0.00101,  -0.00160,  -0.00228,474647317.92378,   0.00001,274647323.19080,   0.00000,  -0.00000,  -0.00001,  -5.26702,   1.00000
88068250.64837,-314245809.63139,-174273781.31640,   0.00102,  -0.00161,  -0.00227,474653112.21346,   0.00001,274653113.26976,   0.00000,  -0.00001,  -0.00001,  -1.05631,   1.00000
88581087.50806,-314424881.07713,-173915020.07116,   0.00102,  -0.00161,  -0.00227,474658841.09426,   0.00002,274658847.60296,   0.00001,  -0.00001,  -0.00001,  -6.50870,   1.00000
89092700.59715,-314602586.04326,-173556307.28214,   0.00103,  -0.00162,  -0.00227,474664582.46059,   0.00002,274664589.19766,   0.00001,  -0.00001,  -0.00002,  -6.73707,   1.00000
89605184.54903,-314784648.11806,-173192634.65049,   0.00103,  -0.00162,  -0.00227,474670271.20753,   0.00003,274670275.47028,   0.00001,  -0.00001,  -0.00002,  -4.26274,   1.00000
90132584.49103,-314945846.46258,-172834718.03423,   0.00104,  -0.00163,  -0.00227,474675859.27806,   0.00003,274675862.45798,   0.00001,  -0.00002,  -0.00002,  -3.17992,   1.00000
90688788.65238,-315095248.91237,-172469689.62695,   0.00104,  -0.00163,  -0.00227,474681430.25446,   0.00004,274681434.09258,   0.00001,  -0.00002,  -0.00003,  -3.83812,   1.00000
91234075.88985,-315245699.09952,-172107426.06580,   0.00105,  -0.00163,  -0.00227,474686797.54213,   0.00004,274686805.37156,   0.00002,  -0.00002,  -0.00003,  -7.82944,   1.00000
91778125.98638,-315394811.23098,-171745167.54430,   0.00105,  -0.00164,  -0.00227,474692177.94910,   0.00005,274692184.47942,   0.00002,  -0.00003,  -0.00004,  -6.53032,   1.00000
92323059.11861,-315548264.11604,-171377833.79105,   0.00105,  -0.00164,  -0.00227,474697504.75347,   0.00005,274697509.71994,   0.00002,  -0.00003,  -0.00004,  -4.96647,   1.00000
92868876.55923,-315706022.75718,-171005401.93780,   0.00106,  -0.00165,  -0.00227,474702777.71539,   0.00006,274702781.49016,   0.00002,  -0.00003,  -0.00004,  -3.77478,   1.00000
93457576.32742,-315826726.66938,-170636489.25109,   0.00106,  -0.00165,  -0.00227,474707988.82834,   0.00006,274707995.03718,   0.00002,  -0.00003,  -0.00005,  -6.20883,   1.00000
94019254.91212,-315968006.95981,-170264558.30354,   0.00107,  -0.00166,  -0.00226,474713110.99411,   0.00007,274713115.59389,   0.00002,  -0.00004,  -0.00005,  -4.59979,   1.00000
94595984.58965,-316088536.93744,-169898242.00343,   0.00107,  -0.00166,  -0.00226,474718135.06585,   0.00007,274718137.90504,   0.00003,  -0.00004,  -0.00005,  -2.83919,   1.00000
95185119.63820,-316216435.03663,-169518953.18196,   0.00108,  -0.00166,  -0.00226,474723252.48724,   0.00008,274723255.22234,   0.00003,  -0.00004,  -0.00006,  -2.73510,   1.00000
95777808.41331,-316320533.08208,-169153017.32600,   0.00108,  -0.00167,  -0.00226,474728117.41037,   0.00008,274728127.36947,   0.00003,  -0.00004,  -0.00006,  -9.95911,   1.00000
96355043.98839,-316448306.43490,-168776232.41934,   0.00109,  -0.00167,  -0.00226,474733046.58841,   0.00008,274733054.25455,   0.00003,  -0.00005,  -0.00006,  -7.66614,   1.00000
96977357.45952,-316544590.40173,-168397639.41822,   0.00109,  -0.00168,  -0.00226,474737862.77542,   0.00009,274737864.25765,   0.00003,  -0.00005,  -0.00007,  -1.48222,   1.00000
97570575.19735,-316655895.43790,-168021125.70263,   0.00110,  -0.00168,  -0.00226,474742632.55427,   0.00009,274742642.39340,   0.00003,  -0.00005,  -0.00007,  -9.83913,   1.00000
98164711.47498,-316771445.22150,-167639322.37479,   0.00110,  -0.00168,  -0.00225,474747368.42788,   0.00010,274747369.51147,   0.00004,  -0.00005,  -0.00007,  -1.08359,   1.00000
98801768.61594,-316849850.57838,-167260828.65691,   0.00111,  -0.00169,  -0.00225,474752037.72602,   0.00010,274752041.13699,   0.00004,  -0.00005,  -0.00008,  -3.41097,   1.00000
99411960.44683,-316948926.72528,-166879164.33632,   0.00111,  -0.00169,  -0.00225,474756612.03214,   0.00011,274756620.90191,   0.00004,  -0.00006,  -0.00008,  -8.86977,   1.00000
100037372.33808,-317027345.78132,-166502958.02887,   0.00111,  -0.00170,  -0.00225,474761099.46564,   0.00011,274761103.55317,   0.00004,  -0.00006,  -0.00008,  -4.08753,   1.00000
100674908.72185,-317112777.70816,-166113619.36108,   0.00112,  -0.00170,  -0.00225,474765683.88412,   0.00011,274765685.21110,   0.00004,  -0.00006,  -0.00009,  -1.32698,   1.00000
101302161.26054,-317199573.54112,-165726600.85975,   0.00112,  -0.00170,  -0.00224,474770068.95859,   0.00012,274770068.95976,   0.00004,  -0.00006,  -0.00009,  -0.00117,   1.00000
101944687.65917,-317265713.65076,-165344974.57123,   0.00113,  -0.00171,  -0.00224,474774355.17435,   0.00012,274774356.21631,   0.00005,  -0.00007,  -0.00009,  -1.04196,   1.00000
102588157.16374,-317336028.98566,-164957883.26092,   0.00113,  -0.00171,  -0.00224,474778594.13384,   0.00013,274778594.69802,   0.00005,  -0.00007,  -0.00010,  -0.56418,   1.00000
103257985.84290,-317388387.77687,-164568421.70552,   0.00114,  -0.00172,  -0.00224,474782879.06752,   0.00013,274782886.38093,   0.00005,  -0.00007,  -0.00010,  -7.31341,   1.00000
103901084.40968,-317461468.73086,-164175676.97481,   0.00114,  -0.00172,  -0.00224,474787077.60437,   0.00013,274787087.00425,   0.00005,  -0.00007,  -0.00010,  -9.39988,   1.00000
104559536.30231,-317513913.32789,-163788257.52251,   0.00115,  -0.00172,  -0.00223,474791184.88281,   0.00014,274791191.63676,   0.00005,  -0.00007,  -0.00010,  -6.75396,   1.00000
105235603.98439,-317551218.53537,-163400750.70340,   0.00115,  -0.00173,  -0.00223,474795133.72518,   0.00014,274795142.42612,   0.00005,  -0.00008,  -0.00011,  -8.70094,   1.00000
105893709.31650,-317606426.71168,-163007605.33088,   0.00116,  -0.00173,  -0.00223,474799200.47927,   0.00014,274799210.04494,   0.00005,  -0.00008,  -0.00011,  -9.56567,   1.00000
106569480.15184,-317646465.93785,-162614318.69621,   0.00116,  -0.00173,  -0.00223,474803117.20207,   0.00015,274803124.38841,   0.00006,  -0.00008,  -0.00011,  -7.18635,   1.00000
107246218.27800,-317690562.90532,-162215408.27011,   0.00116,  -0.00174,  -0.00222,474806984.56210,   0.00015,274806992.14832,   0.00006,  -0.00008,  -0.00011,  -7.58622,   1.00000
107938412.27017,-317714039.77305,-161821714.02118,   0.00117,  -0.00174,  -0.00222,474810764.73436,   0.00016,274810764.82157,   0.00006,  -0.00008,  -0.00012,  -0.08721,   1.00000
108631581.34759,-317741548.32254,-161422341.92519,   0.00117,  -0.00174,  -0.00222,474814486.16110,   0.00016,274814491.59573,   0.00006,  -0.00009,  -0.00012,  -5.43463,   1.00000
109340249.44470,-317748447.27674,-161028139.17211,   0.00118,  -0.00175,  -0.00222,474818118.01680,   0.00016,274818123.65030,   0.00006,  -0.00009,  -0.00012,  -5.63350,   1.00000
110003341.06396,-317790019.41282,-160630602.47712,   0.00118,  -0.00175,  -0.00221,474821826.30152,   0.00017,274821828.05338,   0.00006,  -0.00009,  -0.00012,  -1.75186,   1.00000
110730884.50823,-317785702.27429,-160230306.90988,   0.00119,  -0.00175,  -0.00221,474825259.44620,   0.00017,274825263.54969,   0.00006,  -0.00009,  -0.00013,  -4.10349,   1.00000
111437982.44333,-317793850.96679,-159829902.52612,   0.00119,  -0.00176,  -0.00221,474828868.59636,   0.00017,274828873.14454,   0.00007,  -0.00009,  -0.00013,  -4.54818,   1.00000
112135540.85103,-317803635.44955,-159431369.63362,   0.00120,  -0.00176,  -0.00220,474832283.69839,   0.00018,274832286.72533,   0.00007,  -0.00010,  -0.00013,  -3.02694,   1.00000
112861553.85098,-317800484.85180,-159024737.70197,   0.00120,  -0.00176,  -0.00220,474835694.37038,   0.00018,274835701.46429,   0.00007,  -0.00010,  -0.00013,  -7.09391,   1.00000
113575809.56057,-317793649.29843,-158625458.40266,   0.00121,  -0.00177,  -0.00220,474838969.76174,   0.00018,274838976.60877,   0.00007,  -0.00010,  -0.00014,  -6.84703,   1.00000
114291133.51568,-317790762.54571,-158220334.27180,   0.00121,  -0.00177,  -0.00219,474842206.38343,   0.00018,274842207.76552,   0.00007,  -0.00010,  -0.00014,  -1.38209,   1.00000
115005201.84543,-317786485.40863,-157814926.55964,   0.00121,  -0.00177,  -0.00219,474845447.27008,   0.00019,274845450.89242,   0.00007,  -0.00010,  -0.00014,  -3.62234,   1.00000
115737334.94173,-317766909.33847,-157408915.24097,   0.00122,  -0.00177,  -0.00219,474848538.35877,   0.00019,274848545.08085,   0.00007,  -0.00010,  -0.00014,  -6.72208,   1.00000
116468213.98031,-317745944.11502,-157002600.17965,   0.00122,  -0.00178,  -0.00218,474851641.95713,   0.00019,274851651.47444,   0.00007,  -0.00011,  -0.00014,  -9.51731,   1.00000
117217216.64899,-317709657.15371,-156595605.63238,   0.00123,  -0.00178,  -0.00218,474854604.01247,   0.00020,274854609.64379,   0.00008,  -0.00011,  -0.00015,  -5.63132,   1.00000
117964964.96214,-317671975.37123,-156188284.32119,   0.00123,  -0.00178,  -0.00218,474857579.50831,   0.00020,274857580.31158,   0.00008,  -0.00011,  -0.00015,  -0.80327,   1.00000
118713800.51172,-317638120.94417,-155774975.88517,   0.00124,  -0.00179,  -0.00217,474860506.01165,   0.00020,274860508.94552,   0.00008,  -0.00011,  -0.00015,  -2.93387,   1.00000
119451257.36259,-317600769.77690,-155368897.94658,   0.00124,  -0.00179,  -0.00217,474863292.41684,   0.00020,274863297.48787,   0.00008,  -0.00011,  -0.00015,  -5.07103,   1.00000
120217071.50950,-317550112.44784,-154954438.91439,   0.00125,  -0.00179,  -0.00217,474866083.42960,   0.00021,274866091.93904,   0.00008,  -0.00011,  -0.00015,  -8.50944,   1.00000
120954436.29621,-317515188.76080,-154541989.37215,   0.00125,  -0.00179,  -0.00216,474868845.95949,   0.00021,274868851.40770,   0.00008,  -0.00011,  -0.00015,  -5.44821,   1.00000
121707764.37139,-317459685.21502,-154134372.25702,   0.00125,  -0.00180,  -0.00216,474871513.51061,   0.00021,274871518.35899,   0.00008,  -0.00012,  -0.00016,  -4.84838,   1.00000
122464631.39271,-317413121.58804,-153714936.61823,   0.00126,  -0.00180,  -0.00216,474874090.52458,   0.00021,274874090.59944,   0.00008,  -0.00012,  -0.00016,  -0.07486,   1.00000
123235122.25306,-317340789.54115,-153306012.53198,   0.00126,  -0.00180,  -0.00215,474876619.23250,   0.00022,274876624.57529,   0.00008,  -0.00012,  -0.00016,  -5.34279,   1.00000
124006787.84306,-317272202.33666,-152890952.64407,   0.00127,  -0.00180,  -0.00215,474879111.66065,   0.00022,274879118.15701,   0.00008,  -0.00012,  -0.00016,  -6.49636,   1.00000
124779625.26583,-317207316.09111,-152469730.61624,   0.00127,  -0.00181,  -0.00215,474881566.87662,   0.00022,274881571.79765,   0.00009,  -0.00012,  -0.00016,  -4.92103,   1.00000
125539078.68680,-317133996.14693,-152061399.90123,   0.00128,  -0.00181,  -0.00214,474883932.66773,   0.00022,274883937.84350,   0.00009,  -0.00012,  -0.00016,  -5.17577,   1.00000
126329207.31634,-317052166.03168,-151638677.93795,   0.00128,  -0.00181,  -0.00214,474886259.39226,   0.00022,274886260.56901,   0.00009,  -0.00012,  -0.00017,  -1.17675,   1.00000
127108435.24914,-316967023.99362,-151223007.95592,   0.00128,  -0.00181,  -0.00213,474888434.75281,   0.00023,274888442.89370,   0.00009,  -0.00012,  -0.00017,  -8.14089,   1.00000
127869126.64511,-316899677.05917,-150801867.35982,   0.00129,  -0.00182,  -0.00213,474890738.38777,   0.00023,274890743.05146,   0.00009,  -0.00013,  -0.00017,  -4.66369,   1.00000
128665832.94762,-316797563.81349,-150384563.29612,   0.00129,  -0.00182,  -0.00212,474892794.28456,   0.00023,274892795.35511,   0.00009,  -0.00013,  -0.00017,  -1.07055,   1.00000
129461366.18181,-316694020.36767,-149966812.73253,   0.00130,  -0.00182,  -0.00212,474894854.85965,   0.00023,274894861.44236,   0.00009,  -0.00013,  -0.00017,  -6.58271,   1.00000
130228800.54819,-316606501.64950,-149551053.42896,   0.00130,  -0.00182,  -0.00212,474896888.89238,   0.00023,274896890.64105,   0.00009,  -0.00013,  -0.00017,  -1.74866,   1.00000
130999963.14627,-316527589.52446,-149123086.00117,   0.00131,  -0.00183,  -0.00211,474898823.09026,   0.00024,274898829.78828,   0.00009,  -0.00013,  -0.00017,  -6.69802,   1.00000
131811917.61319,-316405567.44362,-148703128.15538,   0.00131,  -0.00183,  -0.00211,474900779.41820,   0.00024,274900780.89871,   0.00009,  -0.00013,  -0.00017,  -1.48051,   1.00000
132598271.39892,-316304578.36941,-148279227.99742,   0.00131,  -0.00183,  -0.00210,474902639.04227,   0.00024,274902643.62170,   0.00009,  -0.00013,  -0.00018,  -4.57943,   1.00000
133401019.07506,-316182948.25800,-147859825.03958,   0.00132,  -0.00183,  -0.00210,474904411.17489,   0.00024,274904416.15350,   0.00009,  -0.00013,  -0.00018,  -4.97861,   1.00000
134178272.76135,-316082390.88894,-147436452.80038,   0.00132,  -0.00183,  -0.00209,474906094.73255,   0.00024,274906100.06735,   0.00010,  -0.00013,  -0.00018,  -5.33480,   1.00000
134998804.51296,-315943624.49969,-147015082.57661,   0.00133,  -0.00184,  -0.00209,474907744.93359,   0.00024,274907745.62547,   0.00010,  -0.00013,  -0.00018,  -0.69188,   1.00000
135793896.19214,-315825919.11810,-146589695.67571,   0.00133,  -0.00184,  -0.00209,474909298.85635,   0.00025,274909302.90573,   0.00010,  -0.00014,  -0.00018,  -4.04938,   1.00000
136585430.99684,-315701891.18396,-146169809.37764,   0.00133,  -0.00184,  -0.00208,474910920.54414,   0.00025,274910924.63470,   0.00010,  -0.00014,  -0.00018,  -4.09055,   1.00000
137398457.27970,-315566980.64987,-145742315.43402,   0.00134,  -0.00184,  -0.00208,474912348.93739,   0.00025,274912356.09636,   0.00010,  -0.00014,  -0.00018,  -7.15897,   1.00000
138183698.31541,-315448291.14976,-145316777.63693,   0.00134,  -0.00184,  -0.00207,474913747.91232,   0.00025,274913749.28563,   0.00010,  -0.00014,  -0.00018,  -1.37331,   1.00000
138994553.15184,-315310485.11238,-144888260.39505,   0.00135,  -0.00184,  -0.00207,474915204.86386,   0.00025,274915209.35271,   0.00010,  -0.00014,  -0.00018,  -4.48884,   1.00000
139795378.28476,-315169700.03959,-144466546.66457,   0.00135,  -0.00185,  -0.00206,474916523.58000,   0.00025,274916527.36269,   0.00010,  -0.00014,  -0.00018,  -3.78269,   1.00000
140597639.11598,-315032319.03530,-144038261.37533,   0.00135,  -0.00185,  -0.00206,474917804.13396,   0.00025,274917809.89612,   0.00010,  -0.00014,  -0.00019,  -5.76216,   1.00000
141416607.35909,-314874242.45387,-143614254.65059,   0.00136,  -0.00185,  -0.00205,474918998.27968,   0.00025,274919003.55882,   0.00010,  -0.00014,  -0.00019,  -5.27914,   1.00000
142210448.25375,-314737301.17278,-143186116.30314,   0.00136,  -0.00185,  -0.00205,474920103.52263,   0.00026,274920108.73106,   0.00010,  -0.00014,  -0.00019,  -5.20843,   1.00000
143047633.75846,-314561851.96896,-142759713.62887,   0.00137,  -0.00185,  -0.00204,474921172.76350,   0.00026,274921179.10902,   0.00010,  -0.00014,  -0.00019,  -6.34552,   1.00000
143857250.29723,-314402775.42966,-142335252.84154,   0.00137,  -0.00185,  -0.00204,474922209.44538,   0.00026,274922210.04908,   0.00010,  -0.00014,  -0.00019,  -0.60370,   1.00000
144668358.85166,-314247005.58083,-141904114.04301,   0.00137,  -0.00185,  -0.00203,474923199.98899,   0.00026,274923206.73685,   0.00010,  -0.00014,  -0.00019,  -6.74786,   1.00000
145451979.15797,-314107671.64778,-141474931.75945,   0.00138,  -0.00186,  -0.00203,474924161.40670,   0.00026,274924163.32482,   0.00010,  -0.00014,  -0.00019,  -1.91812,   1.00000
146272936.31243,-313933041.83563,-141048461.34400,   0.00138,  -0.00186,  -0.00202,474924878.09226,   0.00026,274924880.55937,   0.00010,  -0.00014,  -0.00019,  -2.46711,   1.00000
147075005.83184,-313776266.36533,-140616712.07483,   0.00138,  -0.00186,  -0.00202,474925707.90007,   0.00026,274925714.97693,   0.00010,  -0.00014,  -0.00019,  -7.07686,   1.00000
147894045.17800,-313598751.58024,-140189074.29233,   0.00139,  -0.00186,  -0.00201,474926460.81114,   0.00026,274926461.38098,   0.00010,  -0.00014,  -0.00019,  -0.56984,   1.00000
148712107.90630,-313419787.79559,-139760853.94765,   0.00139,  -0.00186,  -0.00201,474927216.11940,   0.00026,274927222.45477,   0.00010,  -0.00015,  -0.00019,  -6.33537,   1.00000
149523371.83499,-313242698.57305,-139333015.57609,   0.00140,  -0.00186,  -0.00200,474927783.05353,   0.00026,274927792.61063,   0.00010,  -0.00015,  -0.00019,  -9.55710,   1.00000
150333709.67889,-313064182.08526,-138904586.57691,   0.00140,  -0.00186,  -0.00200,474928372.22817,   0.00026,274928377.25012,   0.00010,  -0.00015,  -0.00019,  -5.02195,   1.00000
151145646.50367,-312888844.33510,-138469328.50340,   0.00140,  -0.00186,  -0.00199,474928928.19423,   0.00026,274928929.20131,   0.00010,  -0.00015,  -0.00019,  -1.00707,   1.00000
151948429.65657,-312710757.94743,-138040596.02623,   0.00141,  -0.00187,  -0.00199,474929332.08195,   0.00026,274929337.74350,   0.00011,  -0.00015,  -0.00019,  -5.66155,   1.00000
152768406.08979,-312511899.69970,-137615839.77854,   0.00141,  -0.00187,  -0.00198,474929653.97857,   0.00026,274929658.85926,   0.00011,  -0.00015,  -0.00019,  -4.88070,   1.00000
153569395.38902,-312330972.86791,-137185905.43747,   0.00141,  -0.00187,  -0.00198,474930092.14983,   0.00026,274930096.30956,   0.00011,  -0.00015,  -0.00019,  -4.15974,   1.00000
154363966.00417,-312151930.91571,-136756174.39571,   0.00142,  -0.00187,  -0.00197,474930337.76860,   0.00026,274930343.07016,   0.00011,  -0.00015,  -0.00019,  -5.30155,   1.00000
155201990.44262,-311933950.85203,-136327810.36880,   0.00142,  -0.00187,  -0.00197,474930556.21873,   0.00026,274930559.82158,   0.00011,  -0.00015,  -0.00019,  -3.60285,   1.00000
156015546.57046,-311737188.51541,-135895037.12812,   0.00142,  -0.00187,  -0.00196,474930686.18052,   0.00027,274930688.01089,   0.00011,  -0.00015,  -0.00019,  -1.83037,   1.00000
156799579.36006,-311552665.84194,-135470507.94866,   0.00143,  -0.00187,  -0.00195,474930809.91323,   0.00027,274930819.46071,   0.00011,  -0.00015,  -0.00019,  -9.54748,   1.00000
157603478.26977,-311351691.11451,-135043436.65288,   0.00143,  -0.00187,  -0.00195,474930553.61440,   0.00027,274930819.46071,   0.00011,  -0.00015,  -0.00019,-265.84631,   0.00000
158407377.17949,-311150716.38708,-134607991.41012,   0.00143,  -0.00187,  -0.00194,474925434.56618,   0.00027,274930819.46071,   0.00011,  -0.00015,  -0.00019,-5384.89453,   0.00000
159211276.08920,-310949741.65966,-134180920.11433,   0.00144,  -0.00187,  -0.00194,474929716.28398,   0.00027,274930819.46071,   0.00011,  -0.00015,  -0.00019,-1103.17673,   0.00000
159998427.10496,-310732019.03828,-133745474.87157,   0.00144,  -0.00187,  -0.00193,474904279.59201,   0.00027,274930819.46071,   0.00011,  -0.00015,  -0.00019,-26539.86871,   0.00000
160785578.12072,-310514296.41690,-133310029.62881,   0.00144,  -0.00187,  -0.00193,474881083.08706,   0.00027,274930819.46071,   0.00011,  -0.00015,  -0.00019,-49736.37366,   0.00000
161585290.05694,-310267264.98110,-132866210.43907,   0.00145,  -0.00187,  -0.00192,474837337.74641,   0.00027,274930819.46071,   0.00011,  -0.00015,  -0.00019,-93481.71430,   0.00000
162355693.17875,-310032794.46577,-132430765.19631,   0.00145,  -0.00187,  -0.00191,474793656.98889,   0.00027,274930819.46071,   0.00011,  -0.00015,  -0.00019,-137162.47183,   0.00000
163126096.30056,-309798323.95043,-131986946.00658,   0.00145,  -0.00187,  -0.00191,474745171.42534,   0.00027,274930819.46071,   0.00011,  -0.00015,  -0.00019,-185648.03537,   0.00000
163909060.34283,-309534544.62068,-131534752.86986,   0.00146,  -0.00188,  -0.00190,474676210.02746,   0.00027,274930819.46071,   0.00011,  -0.00015,  -0.00019,-254609.43325,   0.00000
164662715.57068,-309283326.21140,-131090933.68013,   0.00146,  -0.00188,  -0.00190,474607118.38908,   0.00027,274930819.46071,   0.00011,  -0.00015,  -0.00019,-323701.07164,   0.00000
165428931.71900,-309002798.98770,-130638740.54341,   0.00146,  -0.00188,  -0.00189,474517550.52785,   0.00027,274930819.46071,   0.00011,  -0.00015,  -0.00019,-413268.93287,   0.00000
166195147.86732,-308722271.76400,-130186547.40670,   0.00146,  -0.00188,  -0.00189,474430209.03031,   0.00027,274930819.46071,   0.00011,  -0.00015,  -0.00019,-500610.43040,   0.00000
166932055.20122,-308454305.46076,-129734354.26999,   0.00147,  -0.00188,  -0.00188,474335628.84393,   0.00027,274930819.46071,   0.00011,  -0.00015,  -0.00019,-595190.61678,   0.00000
167681523.45559,-308157030.34310,-129282161.13327,   0.00147,  -0.00188,  -0.00187,474227498.70882,   0.00027,274930819.46071,   0.00011,  -0.00015,  -0.00019,-703320.75190,   0.00000
168401682.89554,-307872316.14591,-128821594.04959,   0.00147,  -0.00188,  -0.00187,474105173.23422,   0.00027,274930819.46071,   0.00011,  -0.00015,  -0.00019,-825646.22649,   0.00000
169121842.33549,-307587601.94873,-128361026.96590,   0.00148,  -0.00188,  -0.00186,473984991.40781,   0.00027,274930819.46071,   0.00011,  -0.00015,  -0.00019,-945828.05290,   0.00000
169854562.69591,-307273578.93712,-127900459.88221,   0.00148,  -0.00188,  -0.00186,473851271.04826,   0.00027,274930819.46071,   0.00011,  -0.00015,  -0.00019,-1079548.41245,   0.00000
170557974.24191,-306972116.84598,-127439892.79852,   0.00148,  -0.00188,  -0.00185,473710063.56831,   0.00027,274930819.46071,   0.00011,  -0.00015,  -0.00019,-1220755.89240,   0.00000
171273946.70837,-306641345.94042,-126970951.76785,   0.00148,  -0.00188,  -0.00184,473548541.52758,   0.00027,274930819.46071,   0.00011,  -0.00015,  -0.00019,-1382277.93314,   0.00000
171989919.17483,-306310575.03486,-126502010.73719,   0.00149,  -0.00188,  -0.00184,473389171.69729,   0.00027,274930819.46071,   0.00011,  -0.00015,  -0.00019,-1541647.76342,   0.00000
172676582.82688,-305992365.04977,-126033069.70652,   0.00149,  -0.00188,  -0.00183,473222199.04858,   0.00027,274930819.46071,   0.00011,  -0.00015,  -0.00019,-1708620.41214,   0.00000
173375807.39939,-305644846.25025,-125564128.67586,   0.00149,  -0.00188,  -0.00183,473041663.97603,   0.00027,274930819.46071,   0.00011,  -0.00015,  -0.00019,-1889155.48468,   0.00000
174045723.15748,-305309888.37121,-125095187.64519,   0.00149,  -0.00188,  -0.00182,472853402.13570,   0.00027,274930819.46071,   0.00011,  -0.00015,  -0.00019,-2077417.32502,   0.00000
174728199.83604,-304945621.67774,-124617872.66755,   0.00150,  -0.00188,  -0.00181,472644917.55075,   0.00027,274930819.46071,   0.00011,  -0.00015,  -0.00019,-2285901.90996,   0.00000
175381367.70018,-304593915.90475,-124140557.68991,   0.00150,  -0.00188,  -0.00181,472428628.99890,   0.00027,274930819.46071,   0.00011,  -0.00015,  -0.00019,-2502190.46181,   0.00000
176034535.56432,-304242210.13175,-123663242.71227,   0.00150,  -0.00187,  -0.00180,472214367.73052,   0.00027,274930819.46071,   0.00011,  -0.00015,  -0.00019,-2716451.73019,   0.00000
176687703.42846,-303890504.35875,-123185927.73462,   0.00150,  -0.00187,  -0.00179,472002136.50642,   0.00027,274930819.46071,   0.00011,  -0.00015,  -0.00019,-2928682.95430,   0.00000
177324123.39865,-303522050.69180,-122708612.75698,   0.00150,  -0.00187,  -0.00179,471766332.52126,   0.00027,274930819.46071,   0.00011,  -0.00015,  -0.00019,-3164486.93945,   0.00000
177973104.28930,-303124288.21043,-122222923.83236,   0.00151,  -0.00187,  -0.00178,471510402.68709,   0.00027,274930819.46071,   0.00011,  -0.00015,  -0.00019,-3420416.77363,   0.00000
178580215.44507,-302768395.46394,-121745608.85472,   0.00151,  -0.00187,  -0.00178,471268521.92604,   0.00027,274930819.46071,   0.00011,  -0.00015,  -0.00019,-3662297.53468,   0.00000
179212448.44177,-302353885.08862,-121259919.93011,   0.00151,  -0.00187,  -0.00177,470990932.06946,   0.00027,274930819.46071,   0.00011,  -0.00015,  -0.00019,-3939887.39125,   0.00000
179832120.51801,-301968683.52772,-120774231.00549,   0.00151,  -0.00187,  -0.00176,470730911.15327,   0.00027,274930819.46071,   0.00011,  -0.00015,  -0.00019,-4199908.30744,   0.00000
180435044.70030,-301566734.07286,-120288542.08087,   0.00151,  -0.00187,  -0.00176,470447135.88856,   0.00027,274930819.46071,   0.00011,  -0.00015,  -0.00019,-4483683.57215,   0.00000
181008660.06816,-301177345.53847,-119802853.15625,   0.00152,  -0.00187,  -0.00175,470155088.36682,   0.00027,274930819.46071,   0.00011,  -0.00015,  -0.00019,-4775731.09390,   0.00000
181582275.43603,-300787957.00408,-119308790.28466,   0.00152,  -0.00187,  -0.00174,469858533.82197,   0.00027,274930819.46071,   0.00011,  -0.00015,  -0.00019,-5072285.63874,   0.00000
182168451.72436,-300369259.65527,-118823101.36004,   0.00152,  -0.00187,  -0.00174,469554712.65546,   0.00027,274930819.46071,   0.00011,  -0.00015,  -0.00019,-5376106.80525,   0.00000
182725319.19828,-299963123.22692,-118329038.48845,   0.00152,  -0.00187,  -0.00173,469236144.23903,   0.00027,274930819.46071,   0.00011,  -0.00015,  -0.00019,-5694675.22168,   0.00000
183294747.59266,-299527677.98416,-117834975.61685,   0.00152,  -0.00187,  -0.00173,468903922.93372,   0.00027,274930819.46071,   0.00011,  -0.00015,  -0.00019,-6026896.52699,   0.00000
183834867.17262,-299104793.66187,-117340912.74526,   0.00153,  -0.00187,  -0.00172,468563224.55468,   0.00027,274930819.46071,   0.00011,  -0.00015,  -0.00019,-6367594.90604,   0.00000
184374986.75258,-298681909.33957,-116846849.87367,   0.00153,  -0.00187,  -0.00171,468224359.42683,   0.00027,274930819.46071,   0.00011,  -0.00015,  -0.00019,-6706460.03389,   0.00000
184898358.43859,-298242277.12332,-116352787.00207,   0.00153,  -0.00186,  -0.00171,467861389.09246,   0.00027,274930819.46071,   0.00011,  -0.00015,  -0.00019,-7069430.36825,   0.00000
185421730.12460,-297802644.90707,-115858724.13048,   0.00153,  -0.00186,  -0.00170,467500210.52597,   0.00027,274930819.46071,   0.00011,  -0.00015,  -0.00019,-7430608.93474,   0.00000
185915792.99620,-297375573.61129,-115356287.31191,   0.00153,  -0.00186,  -0.00169,467124125.38730,   0.00027,274930819.46071,   0.00011,  -0.00015,  -0.00019,-7806694.07341,   0.00000
186409855.86779,-296948502.31550,-114862224.44031,   0.00153,  -0.00186,  -0.00169,466756003.40970,   0.00027,274930819.46071,   0.00011,  -0.00015,  -0.00019,-8174816.05102,   0.00000
186887170.84543,-296504683.12577,-114359787.62174,   0.00153,  -0.00186,  -0.00168,466357423.21592,   0.00027,274930819.46071,   0.00011,  -0.00015,  -0.00019,-8573396.24480,   0.00000
187377046.74354,-296031555.12161,-113857350.80317,   0.00154,  -0.00186,  -0.00167,465945111.37192,   0.00027,274930819.46071,   0.00011,  -0.00015,  -0.00019,-8985708.08880,   0.00000
187825052.90676,-295600296.85234,-113363287.93158,   0.00154,  -0.00186,  -0.00167,465545521.45428,   0.00027,274930819.46071,   0.00011,  -0.00015,  -0.00019,-9385298.00643,   0.00000
188285619.99045,-295139729.76865,-112860851.11301,   0.00154,  -0.00186,  -0.00166,465126022.63071,   0.00027,274930819.46071,   0.00011,  -0.00015,  -0.00019,-9804796.83000,   0.00000
188716878.25973,-294691723.60543,-112358414.29444,   0.00154,  -0.00186,  -0.00165,464697551.12084,   0.00027,274930819.46071,   0.00011,  -0.00015,  -0.00019,-10233268.33987,   0.00000
189160697.44946,-294214408.62779,-111855977.47587,   0.00154,  -0.00185,  -0.00165,464255284.87108,   0.00027,274930819.46071,   0.00011,  -0.00015,  -0.00019,-10675534.58964,   0.00000
189575207.82478,-293749654.57061,-111353540.65730,   0.00154,  -0.00185,  -0.00164,463803949.79624,   0.00027,274930819.46071,   0.00011,  -0.00015,  -0.00019,-11126869.66447,   0.00000
189989718.20010,-293284900.51343,-110851103.83873,   0.00154,  -0.00185,  -0.00163,463354230.75506,   0.00027,274930819.46071,   0.00011,  -0.00015,  -0.00019,-11576588.70565,   0.00000
190387480.68147,-292803398.56230,-110340293.07318,   0.00154,  -0.00185,  -0.00163,462873919.35985,   0.00027,274930819.46071,   0.00011,  -0.00015,  -0.00019,-12056900.10086,   0.00000
190785243.16284,-292321896.61117,-109837856.25461,   0.00154,  -0.00185,  -0.00162,462401198.49938,   0.00027,274930819.46071,   0.00011,  -0.00015,  -0.00019,-12529620.96133,   0.00000
191153696.82979,-291852955.58051,-109335419.43604,   0.00154,  -0.00185,  -0.00161,461919210.15742,   0.00027,274930819.46071,   0.00011,  -0.00015,  -0.00019,-13011609.30330,   0.00000
191522150.49674,-291384014.54984,-108824608.67050,   0.00155,  -0.00185,  -0.00161,461432830.98399,   0.00027,274930819.46071,   0.00011,  -0.00015,  -0.00019,-13497988.47673,   0.00000
191873856.26974,-290898325.62522,-108322171.85193,   0.00155,  -0.00184,  -0.00160,460927624.29220,   0.00027,274930819.46071,   0.00011,  -0.00015,  -0.00019,-14003195.16851,   0.00000
192225562.04274,-290412636.70060,-107811361.08638,   0.00155,  -0.00184,  -0.00159,460418035.38744,   0.00027,274930819.46071,   0.00011,  -0.00015,  -0.00019,-14512784.07328,   0.00000
192560519.92179,-289910199.88203,-107308924.26781,   0.00155,  -0.00184,  -0.00159,459889500.13090,   0.00027,274930819.46071,   0.00011,  -0.00015,  -0.00019,-15041319.32982,   0.00000
192853608.06595,-289449632.79835,-106798113.50226,   0.00155,  -0.00184,  -0.00158,459360992.30628,   0.00027,274930819.46071,   0.00011,  -0.00015,  -0.00019,-15569827.15444,   0.00000
193159257.13058,-288959756.90024,-106295676.68369,   0.00155,  -0.00184,  -0.00158,458824372.01123,   0.00027,274930819.46071,   0.00011,  -0.00015,  -0.00019,-16106447.44948,   0.00000
193448158.30126,-288453133.10818,-105784865.91815,   0.00155,  -0.00184,  -0.00157,458256959.44311,   0.00027,274930819.46071,   0.00011,  -0.00015,  -0.00019,-16673860.01760,   0.00000
193724498.55147,-287975818.13054,-105282429.09958,   0.00155,  -0.00184,  -0.00156,457712129.79403,   0.00027,274930819.46071,   0.00011,  -0.00015,  -0.00019,-17218689.66668,   0.00000
193984090.90773,-287481755.25895,-104771618.33403,   0.00155,  -0.00183,  -0.00156,457136467.70251,   0.00027,274930819.46071,   0.00011,  -0.00015,  -0.00019,-17794351.75820,   0.00000
194243683.26400,-286987692.38735,-104260807.56849,   0.00155,  -0.00183,  -0.00155,456562195.62622,   0.00027,274930819.46071,   0.00011,  -0.00015,  -0.00019,-18368623.83450,   0.00000
194486527.72630,-286476881.62181,-103758370.74992,   0.00155,  -0.00183,  -0.00154,455968535.81503,   0.00027,274930819.46071,   0.00011,  -0.00015,  -0.00019,-18962283.64568,   0.00000
194716811.26815,-285995379.67068,-103247559.98437,   0.00155,  -0.00183,  -0.00154,455385856.25652,   0.00027,274930819.46071,   0.00011,  -0.00015,  -0.00019,-19544963.20419,   0.00000
194930346.91604,-285497129.82559,-102736749.21882,   0.00155,  -0.00183,  -0.00153,454777995.03500,   0.00027,274930819.46071,   0.00011,  -0.00015,  -0.00019,-20152824.42572,   0.00000
195127134.66998,-284982132.08656,-102234312.40025,   0.00155,  -0.00182,  -0.00152,454150553.29171,   0.00027,274930819.46071,   0.00011,  -0.00015,  -0.00019,-20780266.16900,   0.00000
195311361.50346,-284496443.16194,-101723501.63471,   0.00155,  -0.00182,  -0.00152,453534071.61476,   0.00027,274930819.46071,   0.00011,  -0.00015,  -0.00019,-21396747.84596,   0.00000
195478840.44298,-283994006.34337,-101212690.86916,   0.00155,  -0.00182,  -0.00151,452892280.93618,   0.00027,274930819.46071,   0.00011,  -0.00015,  -0.00019,-22038538.52453,   0.00000
195646319.38250,-283491569.52480,-100710254.05059,   0.00155,  -0.00182,  -0.00150,452257338.52073,   0.00027,274930819.46071,   0.00011,  -0.00015,  -0.00019,-22673480.93998,   0.00000
195797050.42807,-282972384.81228,-100199443.28504,   0.00155,  -0.00182,  -0.00150,451591407.27590,   0.00027,274930819.46071,   0.00011,  -0.00015,  -0.00019,-23339412.18482,   0.00000
195905911.73877,-282495069.83464,-99688632.51950,   0.00155,  -0.00181,  -0.00149,450930721.19069,   0.00027,274930819.46071,   0.00011,  -0.00015,  -0.00019,-24000098.27002,   0.00000
196027333.96992,-281988446.04258,-99186195.70093,   0.00155,  -0.00181,  -0.00148,450261420.62782,   0.00027,274930819.46071,   0.00011,  -0.00015,  -0.00019,-24669398.83290,   0.00000
196119447.38666,-281494383.17099,-98675384.93538,   0.00155,  -0.00181,  -0.00148,449576404.01431,   0.00027,274930819.46071,   0.00011,  -0.00015,  -0.00019,-25354415.44640,   0.00000
196224121.72386,-280971011.48498,-98172948.11681,   0.00155,  -0.00181,  -0.00147,448882711.21255,   0.00027,274930819.46071,   0.00011,  -0.00015,  -0.00019,-26048108.24816,   0.00000
196286926.32618,-280489509.53385,-97662137.35126,   0.00155,  -0.00181,  -0.00146,448188604.62344,   0.00027,274930819.46071,   0.00011,  -0.00015,  -0.00019,-26742214.83727,   0.00000
196332983.03455,-279991259.68876,-97159700.53269,   0.00155,  -0.00180,  -0.00146,447474342.49401,   0.00027,274930819.46071,   0.00011,  -0.00015,  -0.00019,-27456476.96670,   0.00000
196379039.74292,-279493009.84368,-96657263.71412,   0.00154,  -0.00180,  -0.00145,446761142.64324,   0.00027,274930819.46071,   0.00011,  -0.00015,  -0.00019,-28169676.81747,   0.00000
196437657.37175,-278965451.18418,-96146452.94858,   0.00154,  -0.00180,  -0.00144,446028269.45178,   0.00027,274930819.46071,   0.00011,  -0.00015,  -0.00019,-28902550.00893,   0.00000
196425096.45129,-278492323.18003,-95644016.13001,   0.00154,  -0.00180,  -0.00144,445294293.12773,   0.00027,274930819.46071,   0.00011,  -0.00015,  -0.00019,-29636526.33299,   0.00000
196425096.45129,-277989886.36146,-95141579.31144,   0.00154,  -0.00180,  -0.00143,444545999.88956,   0.00027,274930819.46071,   0.00011,  -0.00015,  -0.00019,-30384819.57115,   0.00000
196425096.45129,-277487449.54289,-94639142.49287,   0.00154,  -0.00179,  -0.00142,443798720.23875,   0.00027,274930819.46071,   0.00011,  -0.00015,  -0.00019,-31132099.22196,   0.00000
196379039.74292,-276980825.75083,-94136705.67430,   0.00154,  -0.00179,  -0.00142,443014098.80244,   0.00027,274930819.46071,   0.00011,  -0.00015,  -0.00019,-31916720.65827,   0.00000
196320422.11409,-276503510.77319,-93634268.85573,   0.00154,  -0.00179,  -0.00141,442245762.52624,   0.00027,274930819.46071,   0.00011,  -0.00015,  -0.00019,-32685056.93448,   0.00000
196274365.40572,-275996886.98113,-93131832.03716,   0.00154,  -0.00179,  -0.00140,441463063.46133,   0.00027,274930819.46071,   0.00011,  -0.00015,  -0.00019,-33467755.99939,   0.00000
196198999.88293,-275502824.10954,-92629395.21859,   0.00154,  -0.00178,  -0.00140,440669770.66540,   0.00027,274930819.46071,   0.00011,  -0.00015,  -0.00019,-34261048.79532,   0.00000
196094325.54573,-275021322.15841,-92126958.40002,   0.00153,  -0.00178,  -0.00139,439865845.71260,   0.00027,274930819.46071,   0.00011,  -0.00015,  -0.00019,-35064973.74812,   0.00000
196002212.12899,-274510511.39286,-91632895.52842,   0.00153,  -0.00178,  -0.00138,439052750.97539,   0.00027,274930819.46071,   0.00011,  -0.00015,  -0.00019,-35878068.48532,   0.00000
195868228.97737,-274041570.36220,-91130458.70985,   0.00153,  -0.00178,  -0.00138,438239048.89494,   0.00027,274930819.46071,   0.00011,  -0.00015,  -0.00019,-36691770.56578,   0.00000
195717497.93180,-273555881.43758,-90628021.89128,   0.00153,  -0.00177,  -0.00137,437399299.24618,   0.00027,274930819.46071,   0.00011,  -0.00015,  -0.00019,-37531520.21453,   0.00000
195566766.88623,-273070192.51296,-90133959.01969,   0.00153,  -0.00177,  -0.00136,436565615.61562,   0.00027,274930819.46071,   0.00011,  -0.00015,  -0.00019,-38365203.84509,   0.00000
195386727.02624,-272597064.50881,-89639896.14810,   0.00153,  -0.00177,  -0.00136,435721142.30607,   0.00027,274930819.46071,   0.00011,  -0.00015,  -0.00019,-39209677.15464,   0.00000
195189939.27230,-272107188.61070,-89137459.32953,   0.00152,  -0.00177,  -0.00135,434845351.90616,   0.00027,274930819.46071,   0.00011,  -0.00015,  -0.00019,-40085467.55455,   0.00000
194993151.51836,-271617312.71260,-88643396.45793,   0.00152,  -0.00176,  -0.00135,433975534.70656,   0.00027,274930819.46071,   0.00011,  -0.00015,  -0.00019,-40955284.75415,   0.00000
194754494.02954,-271169306.54937,-88149333.58634,   0.00152,  -0.00176,  -0.00134,433110219.09865,   0.00027,274930819.46071,   0.00011,  -0.00015,  -0.00019,-41820600.36206,   0.00000
194528397.46119,-270691991.57173,-87655270.71474,   0.00152,  -0.00176,  -0.00133,432230344.25887,   0.00027,274930819.46071,   0.00011,  -0.00015,  -0.00019,-42700475.20185,   0.00000
194285552.99888,-270197928.70014,-87169581.79013,   0.00152,  -0.00176,  -0.00133,431329292.70220,   0.00027,274930819.46071,   0.00011,  -0.00015,  -0.00019,-43601526.75852,   0.00000
194000838.80169,-269745735.56342,-86675518.91853,   0.00151,  -0.00175,  -0.00132,430427604.84463,   0.00027,274930819.46071,   0.00011,  -0.00015,  -0.00019,-44503214.61609,   0.00000
193716124.60450,-269293542.42671,-86181456.04694,   0.00151,  -0.00175,  -0.00131,429526693.51688,   0.00027,274930819.46071,   0.00011,  -0.00015,  -0.00019,-45404125.94384,   0.00000
193385353.69894,-268837162.31651,-85695767.12232,   0.00151,  -0.00175,  -0.00131,428592788.20076,   0.00027,274930819.46071,   0.00011,  -0.00015,  -0.00019,-46338031.25995,   0.00000
193083891.60780,-268368221.28584,-85210078.19770,   0.00151,  -0.00174,  -0.00130,427671303.95158,   0.00027,274930819.46071,   0.00011,  -0.00015,  -0.00019,-47259515.50913,   0.00000
192723811.88782,-267924402.09611,-84724389.27309,   0.00151,  -0.00174,  -0.00129,426727115.83628,   0.00027,274930819.46071,   0.00011,  -0.00015,  -0.00019,-48203703.62444,   0.00000
192363732.16785,-267480582.90637,-84230326.40149,   0.00150,  -0.00174,  -0.00129,425778668.50381,   0.00027,274930819.46071,   0.00011,  -0.00015,  -0.00019,-49152150.95690,   0.00000
191986904.55392,-267020015.82268,-83753011.42385,   0.00150,  -0.00174,  -0.00128,424813732.62827,   0.00027,274930819.46071,   0.00011,  -0.00015,  -0.00019,-50117086.83244,   0.00000
191597516.01953,-266588757.55341,-83267322.49923,   0.00150,  -0.00173,  -0.00128,423859951.55624,   0.00027,274930819.46071,   0.00011,  -0.00015,  -0.00019,-51070867.90447,   0.00000
191191379.59118,-266140751.39018,-82781633.57461,   0.00149,  -0.00173,  -0.00127,422879719.51381,   0.00027,274930819.46071,   0.00011,  -0.00015,  -0.00019,-52051099.94690,   0.00000
190755934.34842,-265705306.14742,-82304318.59697,   0.00149,  -0.00173,  -0.00126,421893354.67468,   0.00027,274930819.46071,   0.00011,  -0.00015,  -0.00019,-53037464.78603,   0.00000
190320489.10566,-265269860.90466,-81818629.67236,   0.00149,  -0.00173,  -0.00126,420902770.04856,   0.00027,274930819.46071,   0.00011,  -0.00015,  -0.00019,-54028049.41216,   0.00000
189855735.04848,-264846976.58236,-81341314.69471,   0.00149,  -0.00172,  -0.00125,419906021.60344,   0.00027,274930819.46071,   0.00011,  -0.00015,  -0.00019,-55024797.85728,   0.00000
189361672.17689,-264436653.18053,-80863999.71707,   0.00148,  -0.00172,  -0.00124,418898212.71617,   0.00027,274930819.46071,   0.00011,  -0.00015,  -0.00019,-56032606.74454,   0.00000
188867609.30530,-264026329.77870,-80386684.73943,   0.00148,  -0.00172,  -0.00124,417891081.03698,   0.00027,274930819.46071,   0.00011,  -0.00015,  -0.00019,-57039738.42374,   0.00000
188356798.53975,-263599258.48292,-79917743.70877,   0.00148,  -0.00171,  -0.00123,416862210.24780,   0.00027,274930819.46071,   0.00011,  -0.00015,  -0.00019,-58068609.21291,   0.00000
187804118.03932,-263214056.92201,-79440428.73112,   0.00147,  -0.00171,  -0.00123,415832965.84159,   0.00027,274930819.46071,   0.00011,  -0.00015,  -0.00019,-59097853.61912,   0.00000
187234689.64494,-262812107.46716,-78971487.70046,   0.00147,  -0.00171,  -0.00122,414781947.32074,   0.00027,274930819.46071,   0.00011,  -0.00015,  -0.00019,-60148872.13998,   0.00000
186665261.25056,-262410158.01230,-78494172.72282,   0.00147,  -0.00171,  -0.00121,413726814.38392,   0.00027,274930819.46071,   0.00011,  -0.00015,  -0.00019,-61204005.07679,   0.00000
186095832.85618,-262008208.55744,-78025231.69215,   0.00146,  -0.00170,  -0.00121,412677121.35084,   0.00027,274930819.46071,   0.00011,  -0.00015,  -0.00019,-62253698.10988,   0.00000
185467786.83297,-261631380.94352,-77556290.66149,   0.00146,  -0.00170,  -0.00120,411604673.56468,   0.00027,274930819.46071,   0.00011,  -0.00015,  -0.00019,-63326145.89603,   0.00000
184839740.80976,-261254553.32959,-77095723.57780,   0.00146,  -0.00170,  -0.00120,410537631.79863,   0.00027,274930819.46071,   0.00011,  -0.00015,  -0.00019,-64393187.66209,   0.00000
184182385.97213,-260890286.63613,-76626782.54713,   0.00145,  -0.00169,  -0.00119,409454856.90566,   0.00027,274930819.46071,   0.00011,  -0.00015,  -0.00019,-65475962.55505,   0.00000
183537592.05497,-260496711.12825,-76166215.46344,   0.00145,  -0.00169,  -0.00118,408361849.88164,   0.00027,274930819.46071,   0.00011,  -0.00015,  -0.00019,-66568969.57907,   0.00000
182850928.40292,-260145005.35525,-75697274.43278,   0.00145,  -0.00169,  -0.00118,407268797.78266,   0.00027,274930819.46071,   0.00011,  -0.00015,  -0.00019,-67662021.67805,   0.00000
182147516.85692,-259776551.68830,-75236707.34909,   0.00144,  -0.00168,  -0.00117,406153806.98705,   0.00027,274930819.46071,   0.00011,  -0.00015,  -0.00019,-68777012.47366,   0.00000
181402235.57604,-259449967.75622,-74776140.26540,   0.00144,  -0.00168,  -0.00117,405043546.38826,   0.00027,274930819.46071,   0.00011,  -0.00015,  -0.00019,-69887273.07246,   0.00000
180669515.21563,-259094075.00974,-74323947.12869,   0.00143,  -0.00168,  -0.00116,403922965.07009,   0.00027,274930819.46071,   0.00011,  -0.00015,  -0.00019,-71007854.39062,   0.00000
179907486.04080,-258750743.18371,-73863380.04500,   0.00143,  -0.00168,  -0.00115,402786845.71871,   0.00027,274930819.46071,   0.00011,  -0.00015,  -0.00019,-72143973.74200,   0.00000
179145456.86597,-258407411.35769,-73411186.90828,   0.00142,  -0.00167,  -0.00115,401656079.02206,   0.00027,274930819.46071,   0.00011,  -0.00015,  -0.00019,-73274740.43866,   0.00000
178324810.06230,-258089201.37260,-72958993.77157,   0.00142,  -0.00167,  -0.00114,400502841.28740,   0.00027,274930819.46071,   0.00011,  -0.00015,  -0.00019,-74427978.17331,   0.00000
177504163.25864,-257770991.38750,-72506800.63486,   0.00142,  -0.00167,  -0.00114,399350403.19066,   0.00027,274930819.46071,   0.00011,  -0.00015,  -0.00019,-75580416.27006,   0.00000
176683516.45497,-257452781.40241,-72054607.49814,   0.00141,  -0.00166,  -0.00113,398198771.67459,   0.00027,274930819.46071,   0.00011,  -0.00015,  -0.00019,-76732047.78612,   0.00000
175804252.02247,-257159693.25824,-71610788.30841,   0.00141,  -0.00166,  -0.00112,397029375.98609,   0.00027,274930819.46071,   0.00011,  -0.00015,  -0.00019,-77901443.47462,   0.00000
174954296.40439,-256854044.19361,-71158595.17169,   0.00140,  -0.00166,  -0.00112,395867858.54615,   0.00027,274930819.46071,   0.00011,  -0.00015,  -0.00019,-79062960.91456,   0.00000
174045723.15748,-256573516.96991,-70714775.98196,   0.00140,  -0.00165,  -0.00111,394688668.81422,   0.00027,274930819.46071,   0.00011,  -0.00015,  -0.00019,-80242150.64649,   0.00000
173149710.83103,-256263680.93179,-70270956.79222,   0.00139,  -0.00165,  -0.00111,393494473.76157,   0.00027,274930819.46071,   0.00011,  -0.00015,  -0.00019,-81436345.69914,   0.00000
172182519.95528,-256008275.54902,-69835511.54946,   0.00139,  -0.00165,  -0.00110,392298615.03872,   0.00027,274930819.46071,   0.00011,  -0.00015,  -0.00019,-82632204.42200,   0.00000
171244637.89395,-255740309.24578,-69391692.35972,   0.00138,  -0.00164,  -0.00110,391110737.94755,   0.00027,274930819.46071,   0.00011,  -0.00015,  -0.00019,-83820081.51316,   0.00000
170260699.12425,-255468155.96906,-68956247.11696,   0.00138,  -0.00164,  -0.00109,389889424.41306,   0.00027,274930819.46071,   0.00011,  -0.00015,  -0.00019,-85041395.04765,   0.00000
169264199.43409,-255225311.50675,-68520801.87420,   0.00137,  -0.00164,  -0.00108,388685139.59211,   0.00027,274930819.46071,   0.00011,  -0.00015,  -0.00019,-86245679.86861,   0.00000
168267699.74392,-254982467.04444,-68085356.63144,   0.00137,  -0.00164,  -0.00108,387481919.37776,   0.00027,274930819.46071,   0.00011,  -0.00015,  -0.00019,-87448900.08296,   0.00000
167225143.34539,-254735435.60864,-67649911.38868,   0.00136,  -0.00163,  -0.00107,386240976.57953,   0.00027,274930819.46071,   0.00011,  -0.00015,  -0.00019,-88689842.88119,   0.00000
166170026.02639,-254517712.98726,-67222840.09290,   0.00136,  -0.00163,  -0.00107,385021674.00760,   0.00027,274930819.46071,   0.00011,  -0.00015,  -0.00019,-89909145.45311,   0.00000
165098160.81344,-254283242.47193,-66787394.85013,   0.00135,  -0.00163,  -0.00106,383771721.33499,   0.00027,274930819.46071,   0.00011,  -0.00015,  -0.00019,-91159098.12573,   0.00000
164013734.68003,-254078080.77101,-66360323.55435,   0.00135,  -0.00162,  -0.00106,382543525.42721,   0.00027,274930819.46071,   0.00011,  -0.00015,  -0.00019,-92387294.03351,   0.00000
162912560.65266,-253856171.17614,-65933252.25857,   0.00134,  -0.00162,  -0.00105,381289126.78777,   0.00027,274930819.46071,   0.00011,  -0.00015,  -0.00019,-93641692.67294,   0.00000
161769516.89042,-253676131.31616,-65514554.90976,   0.00134,  -0.00162,  -0.00104,380045381.65752,   0.00027,274930819.46071,   0.00011,  -0.00015,  -0.00019,-94885437.80320,   0.00000
160609725.23422,-253479343.56222,-65087483.61397,   0.00133,  -0.00161,  -0.00104,378771238.01078,   0.00027,274930819.46071,   0.00011,  -0.00015,  -0.00019,-96159581.44993,   0.00000
159449933.57802,-253282555.80828,-64668786.26516,   0.00133,  -0.00161,  -0.00103,377502817.00398,   0.00027,274930819.46071,   0.00011,  -0.00015,  -0.00019,-97428002.45674,   0.00000
158248272.18694,-253127637.78922,-64250088.91636,   0.00132,  -0.00161,  -0.00103,376241079.31363,   0.00027,274930819.46071,   0.00011,  -0.00015,  -0.00019,-98689740.14708,   0.00000
157059171.71632,-252943410.95574,-63831391.56755,   0.00131,  -0.00160,  -0.00102,374964498.09322,   0.00027,274930819.46071,   0.00011,  -0.00015,  -0.00019,-99966321.36749,   0.00000
155828201.51083,-252801053.85715,-63421068.16571,   0.00131,  -0.00160,  -0.00102,373699117.52883,   0.00027,274930819.46071,   0.00011,  -0.00015,  -0.00019,-101231701.93189,   0.00000
154567922.49091,-252671257.67902,-63002370.81691,   0.00130,  -0.00160,  -0.00101,372420158.79718,   0.00027,274930819.46071,   0.00011,  -0.00015,  -0.00019,-102510660.66353,   0.00000
153290895.57705,-252524713.60693,-62592047.41507,   0.00130,  -0.00160,  -0.00101,371119741.25888,   0.00027,274930819.46071,   0.00011,  -0.00015,  -0.00019,-103811078.20184,   0.00000
152001307.74272,-252407478.34927,-62181724.01324,   0.00129,  -0.00159,  -0.00100,369837666.92840,   0.00027,274930819.46071,   0.00011,  -0.00015,  -0.00019,-105093152.53232,   0.00000
150694972.01444,-252273495.19765,-61779774.55839,   0.00128,  -0.00159,  -0.00100,368534204.52099,   0.00027,274930819.46071,   0.00011,  -0.00015,  -0.00019,-106396614.93972,   0.00000
149376075.36569,-252168820.86045,-61369451.15655,   0.00128,  -0.00159,  -0.00099,367245072.80738,   0.00027,274930819.46071,   0.00011,  -0.00015,  -0.00019,-107685746.65333,   0.00000
147998561.08811,-252089268.36417,-60967501.70170,   0.00127,  -0.00158,  -0.00099,365940611.41588,   0.00027,274930819.46071,   0.00011,  -0.00015,  -0.00019,-108990208.04484,   0.00000
146621046.81053,-252009715.86790,-60565552.24684,   0.00126,  -0.00158,  -0.00098,364638334.46787,   0.00027,274930819.46071,   0.00011,  -0.00015,  -0.00019,-110292484.99284,   0.00000
145256093.45341,-251900854.55721,-60163602.79199,   0.00126,  -0.00158,  -0.00098,363321461.77358,   0.00027,274930819.46071,   0.00011,  -0.00015,  -0.00019,-111609357.68713,   0.00000
143849270.36142,-251833862.98140,-59770027.28411,   0.00125,  -0.00157,  -0.00097,362017117.07383,   0.00027,274930819.46071,   0.00011,  -0.00015,  -0.00019,-112913702.38688,   0.00000
142413138.45501,-251779432.32606,-59368077.82925,   0.00124,  -0.00157,  -0.00096,360700415.43978,   0.00027,274930819.46071,   0.00011,  -0.00015,  -0.00019,-114230404.02094,   0.00000
140947697.73418,-251737562.59117,-58974502.32137,   0.00124,  -0.00157,  -0.00096,359379826.32378,   0.00027,274930819.46071,   0.00011,  -0.00015,  -0.00019,-115550993.13694,   0.00000
139482257.01335,-251695692.85629,-58580926.81349,   0.00123,  -0.00156,  -0.00095,358061838.37860,   0.00027,274930819.46071,   0.00011,  -0.00015,  -0.00019,-116868981.08211,   0.00000
137987507.47810,-251666384.04188,-58195725.25259,   0.00122,  -0.00156,  -0.00095,356740193.19348,   0.00027,274930819.46071,   0.00011,  -0.00015,  -0.00019,-118190626.26723,   0.00000
136492757.94285,-251637075.22746,-57802149.74471,   0.00122,  -0.00156,  -0.00094,355417211.94066,   0.00027,274930819.46071,   0.00011,  -0.00015,  -0.00019,-119513607.52005,   0.00000
134956138.67273,-251649636.14792,-57416948.18380,   0.00121,  -0.00156,  -0.00094,354108005.76658,   0.00027,274930819.46071,   0.00011,  -0.00015,  -0.00019,-120822813.69414,   0.00000
133402771.50865,-251645449.17444,-57031746.62290,   0.00120,  -0.00155,  -0.00093,352774421.21330,   0.00027,274930819.46071,   0.00011,  -0.00015,  -0.00019,-122156398.24742,   0.00000
131807534.60969,-251683131.93583,-56646545.06200,   0.00120,  -0.00155,  -0.00093,351451065.45094,   0.00027,274930819.46071,   0.00011,  -0.00015,  -0.00019,-123479754.00977,   0.00000
130224858.63119,-251691505.88281,-56269717.44807,   0.00119,  -0.00155,  -0.00092,350117783.06219,   0.00027,274930819.46071,   0.00011,  -0.00015,  -0.00019,-124813036.39852,   0.00000
128629621.73223,-251729188.64420,-55884515.88716,   0.00118,  -0.00154,  -0.00092,348801134.83837,   0.00027,274930819.46071,   0.00011,  -0.00015,  -0.00019,-126129684.62234,   0.00000
126988328.12490,-251762684.43210,-55507688.27324,   0.00117,  -0.00154,  -0.00091,347454626.54137,   0.00027,274930819.46071,   0.00011,  -0.00015,  -0.00019,-127476192.91934,   0.00000
125334473.59711,-251825489.03442,-55130860.65931,   0.00117,  -0.00154,  -0.00091,346129249.98744,   0.00027,274930819.46071,   0.00011,  -0.00015,  -0.00019,-128801569.47328,   0.00000
123651310.25490,-251900854.55721,-54762406.99236,   0.00116,  -0.00153,  -0.00091,344801858.22226,   0.00027,274930819.46071,   0.00011,  -0.00015,  -0.00019,-130128961.23845,   0.00000
121968146.91269,-251976220.08000,-54385579.37843,   0.00115,  -0.00153,  -0.00090,343474439.67393,   0.00027,274930819.46071,   0.00011,  -0.00015,  -0.00019,-131456379.78678,   0.00000
120255674.75607,-252064146.52324,-54017125.71148,   0.00114,  -0.00153,  -0.00090,342145371.01338,   0.00027,274930819.46071,   0.00011,  -0.00015,  -0.00019,-132785448.44734,   0.00000
118530641.67898,-252181381.78091,-53648672.04453,   0.00114,  -0.00153,  -0.00089,340838265.70995,   0.00027,274930819.46071,   0.00011,  -0.00015,  -0.00019,-134092553.75077,   0.00000
116759551.89352,-252294430.06509,-53280218.37758,   0.00113,  -0.00152,  -0.00089,339498751.11841,   0.00027,274930819.46071,   0.00011,  -0.00015,  -0.00019,-135432068.34230,   0.00000
115005210.00201,-252424226.24322,-52920138.65760,   0.00112,  -0.00152,  -0.00088,338195080.82970,   0.00027,274930819.46071,   0.00011,  -0.00015,  -0.00019,-136735738.63101,   0.00000
113204811.40213,-252549835.44786,-52551684.99065,   0.00111,  -0.00152,  -0.00088,336855523.90739,   0.00027,274930819.46071,   0.00011,  -0.00015,  -0.00019,-138075295.55333,   0.00000
111391851.88179,-252704753.46692,-52191605.27067,   0.00111,  -0.00151,  -0.00087,335542811.78508,   0.00027,274930819.46071,   0.00011,  -0.00015,  -0.00019,-139388007.67564,   0.00000
109549583.54704,-252872232.40644,-51831525.55070,   0.00110,  -0.00151,  -0.00087,334226040.35446,   0.00027,274930819.46071,   0.00011,  -0.00015,  -0.00019,-140704779.10625,   0.00000
107707315.21228,-253039711.34597,-51479819.77770,   0.00109,  -0.00151,  -0.00086,332918465.62257,   0.00027,274930819.46071,   0.00011,  -0.00015,  -0.00019,-142012353.83814,   0.00000
105835738.06310,-253219751.20596,-51119740.05772,   0.00108,  -0.00151,  -0.00086,331603420.64568,   0.00027,274930819.46071,   0.00011,  -0.00015,  -0.00019,-143327398.81504,   0.00000
103951599.99347,-253429099.88036,-50768034.28473,   0.00107,  -0.00150,  -0.00085,330316188.12926,   0.00027,274930819.46071,   0.00011,  -0.00015,  -0.00019,-144614631.33145,   0.00000
102021405.21546,-253634261.58128,-50416328.51173,   0.00106,  -0.00150,  -0.00085,328998857.27633,   0.00027,274930819.46071,   0.00011,  -0.00015,  -0.00019,-145931962.18438,   0.00000
100107958.33141,-253856171.17614,-50064622.73873,   0.00106,  -0.00150,  -0.00084,327714786.54720,   0.00027,274930819.46071,   0.00011,  -0.00015,  -0.00019,-147216032.91351,   0.00000
98135893.81852,-254103202.61194,-49712916.96573,   0.00105,  -0.00149,  -0.00084,326419758.10818,   0.00027,274930819.46071,   0.00011,  -0.00015,  -0.00019,-148511061.35254,   0.00000
96163829.30563,-254350234.04774,-49369585.13971,   0.00104,  -0.00149,  -0.00083,325135177.93108,   0.00027,274930819.46071,   0.00011,  -0.00015,  -0.00019,-149795641.52963,   0.00000
94191764.79274,-254597265.48354,-49026253.31368,   0.00103,  -0.00149,  -0.00083,323857287.14312,   0.00027,274930819.46071,   0.00011,  -0.00015,  -0.00019,-151073532.31760,   0.00000
92190391.46544,-254856857.83980,-48682921.48766,   0.00102,  -0.00149,  -0.00083,322577929.02204,   0.00027,274930819.46071,   0.00011,  -0.00015,  -0.00019,-152352890.43867,   0.00000
90147148.40325,-255158319.93094,-48339589.66164,   0.00101,  -0.00148,  -0.00082,321316385.06980,   0.00027,274930819.46071,   0.00011,  -0.00015,  -0.00019,-153614434.39091,   0.00000
88116466.26153,-255430473.20766,-47996257.83561,   0.00100,  -0.00148,  -0.00082,320043420.87090,   0.00027,274930819.46071,   0.00011,  -0.00015,  -0.00019,-154887398.58981,   0.00000
86043914.38493,-255744496.21927,-47661299.95657,   0.00100,  -0.00148,  -0.00081,318792814.57851,   0.00027,274930819.46071,   0.00011,  -0.00015,  -0.00019,-156138004.88220,   0.00000
83942053.69391,-256071080.15134,-47317968.13054,   0.00099,  -0.00148,  -0.00081,317538610.48975,   0.00027,274930819.46071,   0.00011,  -0.00015,  -0.00019,-157392208.97097,   0.00000
81840193.00290,-256397664.08341,-46983010.25150,   0.00098,  -0.00147,  -0.00080,316296417.00332,   0.00027,274930819.46071,   0.00011,  -0.00015,  -0.00019,-158634402.45740,   0.00000
79725771.39141,-256753556.82990,-46656426.31943,   0.00097,  -0.00147,  -0.00080,315085590.42777,   0.00027,274930819.46071,   0.00011,  -0.00015,  -0.00019,-159845229.03295,   0.00000
77552732.15110,-257134571.41731,-46321468.44038,   0.00096,  -0.00147,  -0.00080,313864840.24401,   0.00027,274930819.46071,   0.00011,  -0.00015,  -0.00019,-161065979.21670,   0.00000
75421562.64566,-257473716.26985,-45994884.50831,   0.00095,  -0.00147,  -0.00079,312644822.29165,   0.00027,274930819.46071,   0.00011,  -0.00015,  -0.00019,-162285997.16906,   0.00000
73219214.59093,-257867291.77773,-45659926.62926,   0.00094,  -0.00146,  -0.00079,311435259.44587,   0.00027,274930819.46071,   0.00011,  -0.00015,  -0.00019,-163495560.01484,   0.00000
71004305.61574,-258290176.10003,-45333342.69719,   0.00093,  -0.00146,  -0.00078,310258725.85216,   0.00027,274930819.46071,   0.00011,  -0.00015,  -0.00019,-164672093.60855,   0.00000
68801957.56100,-258683751.60791,-45006758.76512,   0.00092,  -0.00146,  -0.00078,309072428.75035,   0.00027,274930819.46071,   0.00011,  -0.00015,  -0.00019,-165858390.71036,   0.00000
66557739.77139,-259119196.85067,-44688548.78003,   0.00091,  -0.00146,  -0.00077,307912776.85404,   0.00027,274930819.46071,   0.00011,  -0.00015,  -0.00019,-167018042.60668,   0.00000
64284213.16736,-259567203.01389,-44361964.84796,   0.00090,  -0.00145,  -0.00077,306753350.63910,   0.00027,274930819.46071,   0.00011,  -0.00015,  -0.00019,-168177468.82161,   0.00000
62010686.56333,-260015209.17712,-44043754.86286,   0.00089,  -0.00145,  -0.00077,305608430.70294,   0.00027,274930819.46071,   0.00011,  -0.00015,  -0.00019,-169322388.75777,   0.00000
59737159.95930,-260463215.34034,-43725544.87777,   0.00089,  -0.00145,  -0.00076,304474493.85508,   0.00027,274930819.46071,   0.00011,  -0.00015,  -0.00019,-170456325.60564,   0.00000
57421763.62039,-260953091.23845,-43407334.89267,   0.00088,  -0.00145,  -0.00076,303365706.12503,   0.00027,274930819.46071,   0.00011,  -0.00015,  -0.00019,-171565113.33569,   0.00000
55077058.46706,-261455528.05702,-43089124.90758,   0.00087,  -0.00144,  -0.00075,302262625.84414,   0.00027,274930819.46071,   0.00011,  -0.00015,  -0.00019,-172668193.61657,   0.00000
52732353.31374,-261957964.87559,-42770914.92249,   0.00086,  -0.00144,  -0.00075,301171695.04263,   0.00027,274930819.46071,   0.00011,  -0.00015,  -0.00019,-173759124.41808,   0.00000
50358339.34599,-262472962.61462,-42461078.88437,   0.00085,  -0.00144,  -0.00075,300090903.93738,   0.00027,274930819.46071,   0.00011,  -0.00015,  -0.00019,-174839915.52334,   0.00000
47971764.45779,-263017269.16807,-42142868.89927,   0.00084,  -0.00144,  -0.00074,299039864.81382,   0.00027,274930819.46071,   0.00011,  -0.00015,  -0.00019,-175890954.64689,   0.00000
45568441.67563,-263544827.82757,-41833032.86115,   0.00083,  -0.00144,  -0.00074,297979351.93947,   0.00027,274930819.46071,   0.00011,  -0.00015,  -0.00019,-176951467.52124,   0.00000
43152557.97300,-264101695.30149,-41523196.82304,   0.00082,  -0.00143,  -0.00073,296952925.66535,   0.00027,274930819.46071,   0.00011,  -0.00015,  -0.00019,-177977893.79536,   0.00000
40694804.53550,-264700432.51028,-41221734.73189,   0.00081,  -0.00143,  -0.00073,295959478.12445,   0.00027,274930819.46071,   0.00011,  -0.00015,  -0.00019,-178971341.33626,   0.00000
38249612.01845,-265269860.90466,-40911898.69378,   0.00080,  -0.00143,  -0.00073,294955846.77698,   0.00027,274930819.46071,   0.00011,  -0.00015,  -0.00019,-179974972.68374,   0.00000
35762549.76653,-265881159.03392,-40602062.65566,   0.00079,  -0.00143,  -0.00072,293982858.94358,   0.00027,274930819.46071,   0.00011,  -0.00015,  -0.00019,-180947960.51713,   0.00000
33275487.51461,-266492457.16318,-40300600.56452,   0.00078,  -0.00142,  -0.00072,293028274.13555,   0.00027,274930819.46071,   0.00011,  -0.00015,  -0.00019,-181902545.32516,   0.00000
30746555.52781,-267145625.02732,-39999138.47337,   0.00077,  -0.00142,  -0.00071,292105694.36047,   0.00027,274930819.46071,   0.00011,  -0.00015,  -0.00019,-182825125.10024,   0.00000
28230184.46147,-267769484.07705,-39697676.38223,   0.00076,  -0.00142,  -0.00071,291177503.21189,   0.00027,274930819.46071,   0.00011,  -0.00015,  -0.00019,-183753316.24882,   0.00000
25671943.66025,-268435212.86165,-39396214.29109,   0.00075,  -0.00142,  -0.00071,290282536.43269,   0.00027,274930819.46071,   0.00011,  -0.00015,  -0.00019,-184648283.02802,   0.00000
23113702.85903,-269100941.64626,-39094752.19995,   0.00074,  -0.00142,  -0.00070,289404005.16887,   0.00027,274930819.46071,   0.00011,  -0.00015,  -0.00019,-185526814.29185,   0.00000
20513592.32293,-269808540.16574,-38793290.10881,   0.00073,  -0.00141,  -0.00070,288560143.27513,   0.00027,274930819.46071,   0.00011,  -0.00015,  -0.00019,-186370676.18558,   0.00000
17913481.78683,-270516138.68523,-38500201.96464,   0.00071,  -0.00141,  -0.00069,287736957.47371,   0.00027,274930819.46071,   0.00011,  -0.00015,  -0.00019,-187193861.98700,   0.00000
15313371.25073,-271223737.20472,-38198739.87350,   0.00070,  -0.00141,  -0.00069,286927858.39990,   0.00027,274930819.46071,   0.00011,  -0.00015,  -0.00019,-188002961.06082,   0.00000
12683951.90021,-271943896.64467,-37905651.72933,   0.00069,  -0.00141,  -0.00069,286136687.89892,   0.00027,274930819.46071,   0.00011,  -0.00015,  -0.00019,-188794131.56179,   0.00000
10012662.81482,-272705925.81950,-37612563.58517,   0.00068,  -0.00141,  -0.00068,285382905.40060,   0.00027,274930819.46071,   0.00011,  -0.00015,  -0.00019,-189547914.06011,   0.00000
7341373.72942,-273467954.99433,-37319475.44100,   0.00067,  -0.00141,  -0.00068,284647990.29542,   0.00027,274930819.46071,   0.00011,  -0.00015,  -0.00019,-190282829.16529,   0.00000
4670084.64402,-274229984.16916,-37026387.29683,   0.00066,  -0.00140,  -0.00067,283932089.08957,   0.00027,274930819.46071,   0.00011,  -0.00015,  -0.00019,-190998730.37115,   0.00000
1969486.74421,-275004574.26446,-36733299.15267,   0.00065,  -0.00140,  -0.00067,283233152.02839,   0.00027,274930819.46071,   0.00011,  -0.00015,  -0.00019,-191697667.43232,   0.00000
-743672.07607,-275808473.17417,-36440211.00850,   0.00064,  -0.00140,  -0.00067,282576401.70052,   0.00027,274930819.46071,   0.00011,  -0.00015,  -0.00019,-192354417.76020,   0.00000
-3456830.89635,-276612372.08388,-36155496.81131,   0.00063,  -0.00140,  -0.00066,281942922.81347,   0.00027,274930819.46071,   0.00011,  -0.00015,  -0.00019,-192987896.64724,   0.00000
-6211859.45151,-277458140.72847,-35862408.66715,   0.00062,  -0.00140,  -0.00066,281347495.36240,   0.00027,274930819.46071,   0.00011,  -0.00015,  -0.00019,-193583324.09832,   0.00000
-8996196.82108,-278316470.29353,-35577694.46996,   0.00061,  -0.00140,  -0.00066,280774850.15574,   0.00027,274930819.46071,   0.00011,  -0.00015,  -0.00019,-194155969.30498,   0.00000
-11780534.19066,-279174799.85859,-35284606.32579,   0.00060,  -0.00139,  -0.00065,280220505.88366,   0.00027,274930819.46071,   0.00011,  -0.00015,  -0.00019,-194710313.57705,   0.00000
-14564871.56024,-280033129.42365,-34999892.12860,   0.00059,  -0.00139,  -0.00065,279690936.28994,   0.00027,274930819.46071,   0.00011,  -0.00015,  -0.00019,-195239883.17078,   0.00000
-17391078.66469,-280933328.72358,-34715177.93141,   0.00057,  -0.00139,  -0.00064,279205447.51472,   0.00027,274930819.46071,   0.00011,  -0.00015,  -0.00019,-195725371.94599,   0.00000
-20217285.76915,-281833528.02352,-34430463.73422,   0.00056,  -0.00139,  -0.00064,278742421.75445,   0.00027,274930819.46071,   0.00011,  -0.00015,  -0.00019,-196188397.70626,   0.00000
-23056053.79407,-282763036.13788,-34145749.53703,   0.00055,  -0.00139,  -0.00064,278325193.04697,   0.00027,274930819.46071,   0.00011,  -0.00015,  -0.00019,-196605626.41374,   0.00000
-25911569.71294,-283675796.35828,-33861035.33984,   0.00054,  -0.00139,  -0.00063,277907522.12587,   0.00027,274930819.46071,   0.00011,  -0.00015,  -0.00019,-197023297.33485,   0.00000
-28779646.55228,-284617865.39310,-33576321.14265,   0.00053,  -0.00139,  -0.00063,277536490.95667,   0.00027,274930819.46071,   0.00011,  -0.00015,  -0.00019,-197394328.50404,   0.00000
-31660284.31208,-285589243.24233,-33299980.89244,   0.00052,  -0.00138,  -0.00063,277215473.96066,   0.00027,274930819.46071,   0.00011,  -0.00015,  -0.00019,-197715345.50005,   0.00000
-34570230.88630,-286573182.01203,-33015266.69525,   0.00051,  -0.00138,  -0.00062,276915893.27616,   0.00027,274930819.46071,   0.00011,  -0.00015,  -0.00019,-198014926.18456,   0.00000
-37480177.46052,-287557120.78173,-32730552.49806,   0.00050,  -0.00138,  -0.00062,276640627.34584,   0.00027,274930819.46071,   0.00011,  -0.00015,  -0.00019,-198290192.11487,   0.00000
-40419432.84915,-288553620.47190,-32454212.24785,   0.00048,  -0.00138,  -0.00062,276393879.14917,   0.00027,274930819.46071,   0.00011,  -0.00015,  -0.00019,-198536940.31154,   0.00000
-43371249.15825,-289579428.97648,-32169498.05066,   0.00047,  -0.00138,  -0.00061,276192902.13389,   0.00027,274930819.46071,   0.00011,  -0.00015,  -0.00019,-198737917.32682,   0.00000
-46323065.46735,-290605237.48106,-31893157.80044,   0.00046,  -0.00138,  -0.00061,276019973.09647,   0.00027,274930819.46071,   0.00011,  -0.00015,  -0.00019,-198910846.36424,   0.00000
-49316751.51133,-291672915.72052,-31608443.60325,   0.00045,  -0.00138,  -0.00060,275895183.28239,   0.00027,274930819.46071,   0.00011,  -0.00015,  -0.00019,-199035636.17832,   0.00000
-52310437.55531,-292740593.95998,-31332103.35304,   0.00044,  -0.00138,  -0.00060,275799113.07072,   0.00027,274930819.46071,   0.00011,  -0.00015,  -0.00019,-199131706.38999,   0.00000
-55304123.59929,-293808272.19944,-31047389.15585,   0.00043,  -0.00138,  -0.00060,275726057.92685,   0.00027,274930819.46071,   0.00011,  -0.00015,  -0.00019,-199204761.53387,   0.00000
-58310370.56374,-294905259.25332,-30771048.90564,   0.00042,  -0.00138,  -0.00059,275705909.72003,   0.00027,274930819.46071,   0.00011,  -0.00015,  -0.00019,-199224909.74068,   0.00000
-61345926.34260,-296014807.22766,-30494708.65542,   0.00040,  -0.00137,  -0.00059,275714649.56417,   0.00027,274930819.46071,   0.00011,  -0.00015,  -0.00019,-199216169.89654,   0.00000
-64381482.12146,-297124355.20200,-30209994.45823,   0.00039,  -0.00137,  -0.00059,275747135.30257,   0.00027,274930819.46071,   0.00011,  -0.00015,  -0.00019,-199183684.15814,   0.00000
-67458907.63520,-298275772.91123,-29933654.20802,   0.00038,  -0.00137,  -0.00058,275836643.81881,   0.00027,274930819.46071,   0.00011,  -0.00015,  -0.00019,-199094175.64191,   0.00000
-70536333.14894,-299427190.62045,-29657313.95781,   0.00037,  -0.00137,  -0.00058,275953237.92098,   0.00027,274930819.46071,   0.00011,  -0.00015,  -0.00019,-198977581.53973,   0.00000
-73613758.66268,-300578608.32967,-29372599.76062,   0.00036,  -0.00137,  -0.00058,276094210.31090,   0.00027,274930819.46071,   0.00011,  -0.00015,  -0.00019,-198836609.14982,   0.00000
-76703745.09689,-301759334.85331,-29096259.51040,   0.00035,  -0.00137,  -0.00057,276289461.49699,   0.00027,274930819.46071,   0.00011,  -0.00015,  -0.00019,-198641357.96372,   0.00000
-79793731.53109,-302940061.37695,-28819919.26019,   0.00033,  -0.00137,  -0.00057,276511782.18965,   0.00027,274930819.46071,   0.00011,  -0.00015,  -0.00019,-198419037.27107,   0.00000
-82925587.70018,-304162657.63547,-28535205.06300,   0.00032,  -0.00137,  -0.00056,276787792.43020,   0.00027,274930819.46071,   0.00011,  -0.00015,  -0.00019,-198143027.03051,   0.00000
-86057443.86927,-305385253.89399,-28258864.81279,   0.00031,  -0.00137,  -0.00056,277093942.40446,   0.00027,274930819.46071,   0.00011,  -0.00015,  -0.00019,-197836877.05625,   0.00000
-89218608.85277,-306620411.07298,-27982524.56257,   0.00030,  -0.00137,  -0.00056,277432613.75165,   0.00027,274930819.46071,   0.00011,  -0.00015,  -0.00019,-197498205.70906,   0.00000
-92363025.94232,-307872316.14591,-27706184.31236,   0.00029,  -0.00137,  -0.00055,277818593.39255,   0.00027,274930819.46071,   0.00011,  -0.00015,  -0.00019,-197112226.06816,   0.00000
-95549312.76675,-309166090.95373,-27421470.11517,   0.00027,  -0.00137,  -0.00055,278259854.29851,   0.00027,274930819.46071,   0.00011,  -0.00015,  -0.00019,-196670965.16220,   0.00000
-98723038.67072,-310430556.94713,-27145129.86496,   0.00026,  -0.00137,  -0.00055,278706468.16854,   0.00027,274930819.46071,   0.00011,  -0.00015,  -0.00019,-196224351.29218,   0.00000
-101909325.49515,-311724331.75495,-26860415.66777,   0.00025,  -0.00137,  -0.00054,279203150.10922,   0.00027,274930819.46071,   0.00011,  -0.00015,  -0.00019,-195727669.35150,   0.00000
-105124921.13400,-313030667.48323,-26584075.41755,   0.00024,  -0.00137,  -0.00054,279736059.15961,   0.00027,274930819.46071,   0.00011,  -0.00015,  -0.00019,-195194760.30110,   0.00000
-108323768.87890,-314353751.10547,-26299361.22036,   0.00023,  -0.00137,  -0.00054,280312871.37597,   0.00027,274930819.46071,   0.00011,  -0.00015,  -0.00019,-194617948.08474,   0.00000
-111564486.35867,-315718704.46258,-26023020.97015,   0.00021,  -0.00137,  -0.00053,280951121.59956,   0.00027,274930819.46071,   0.00011,  -0.00015,  -0.00019,-193979697.86115,   0.00000
-114792642.91799,-317054349.00528,-25738306.77296,   0.00020,  -0.00137,  -0.00053,281589569.63446,   0.00027,274930819.46071,   0.00011,  -0.00015,  -0.00019,-193341249.82626,   0.00000
-118062669.21218,-318431863.28286,-25453592.57577,   0.00019,  -0.00137,  -0.00052,282287771.25295,   0.00027,274930819.46071,   0.00011,  -0.00015,  -0.00019,-192643048.20776,   0.00000
-121315947.61242,-319826125.45439,-25177252.32556,   0.00018,  -0.00137,  -0.00052,283033535.63059,   0.00027,274930819.46071,   0.00011,  -0.00015,  -0.00019,-191897283.83012,   0.00000
-124585973.90661,-321203639.73197,-24892538.12837,   0.00017,  -0.00137,  -0.00052,283786698.34294,   0.00027,274930819.46071,   0.00011,  -0.00015,  -0.00019,-191144121.11777,   0.00000
-127851813.22732,-322627210.71792,-24607823.93118,   0.00015,  -0.00137,  -0.00051,284609494.48370,   0.00027,274930819.46071,   0.00011,  -0.00015,  -0.00019,-190321324.97702,   0.00000
-131134400.44198,-324034033.80992,-24323109.73399,   0.00014,  -0.00137,  -0.00051,285441970.11186,   0.00027,274930819.46071,   0.00011,  -0.00015,  -0.00019,-189488849.34885,   0.00000
-134429548.57710,-325470165.71633,-24038395.53680,   0.00013,  -0.00137,  -0.00051,286326488.87144,   0.00027,274930819.46071,   0.00011,  -0.00015,  -0.00019,-188604330.58927,   0.00000
-137766566.44710,-326948167.35762,-23753681.33961,   0.00012,  -0.00137,  -0.00050,287271503.42081,   0.00027,274930819.46071,   0.00011,  -0.00015,  -0.00019,-187659316.03990,   0.00000
-141074275.50269,-328413608.07845,-23460593.19544,   0.00010,  -0.00137,  -0.00050,288232433.38332,   0.00027,274930819.46071,   0.00011,  -0.00015,  -0.00019,-186698386.07739,   0.00000
-144411293.37269,-329891609.71975,-23175878.99825,   0.00009,  -0.00137,  -0.00049,289230679.36624,   0.00027,274930819.46071,   0.00011,  -0.00015,  -0.00019,-185700140.09447,   0.00000
-147731563.34874,-331386359.25499,-22891164.80106,   0.00008,  -0.00137,  -0.00049,290271123.71437,   0.00027,274930819.46071,   0.00011,  -0.00015,  -0.00019,-184659695.74634,   0.00000
-151081142.13921,-332893669.71070,-22598076.65690,   0.00007,  -0.00137,  -0.00049,291344761.78321,   0.00027,274930819.46071,   0.00011,  -0.00015,  -0.00019,-183586057.67751,   0.00000
-154443281.85014,-334430288.98083,-22304988.51273,   0.00006,  -0.00137,  -0.00048,292469437.12773,   0.00027,274930819.46071,   0.00011,  -0.00015,  -0.00019,-182461382.33298,   0.00000
-157805421.56107,-335966908.25096,-22020274.31554,   0.00004,  -0.00137,  -0.00048,293621512.10267,   0.00027,274930819.46071,   0.00011,  -0.00015,  -0.00019,-181309307.35804,   0.00000
-161180122.19247,-337532836.33550,-21727186.17138,   0.00003,  -0.00137,  -0.00048,294822108.13797,   0.00027,274930819.46071,   0.00011,  -0.00015,  -0.00019,-180108711.32274,   0.00000
-164542261.90340,-339069455.60563,-21434098.02721,   0.00002,  -0.00137,  -0.00047,296022394.73391,   0.00027,274930819.46071,   0.00011,  -0.00015,  -0.00019,-178908424.72680,   0.00000
-167929523.45526,-340664692.50459,-21132635.93607,   0.00001,  -0.00137,  -0.00047,297295918.23913,   0.00027,274930819.46071,   0.00011,  -0.00015,  -0.00019,-177634901.22158,   0.00000
-171346093.82154,-342272490.32401,-20839547.79190,  -0.00001,  -0.00137,  -0.00046,298606342.05827,   0.00027,274930819.46071,   0.00011,  -0.00015,  -0.00019,-176324477.40244,   0.00000
-174733355.37340,-343867727.22297,-20538085.70076,  -0.00002,  -0.00137,  -0.00046,299928385.47893,   0.00027,274930819.46071,   0.00011,  -0.00015,  -0.00019,-175002433.98178,   0.00000
-178162486.66014,-345504833.85681,-20244997.55659,  -0.00003,  -0.00137,  -0.00046,301312199.05029,   0.00027,274930819.46071,   0.00011,  -0.00015,  -0.00019,-173618620.41043,   0.00000
-181562309.13246,-347129379.57019,-19943535.46545,  -0.00004,  -0.00137,  -0.00045,302706624.23607,   0.00027,274930819.46071,   0.00011,  -0.00015,  -0.00019,-172224195.22464,   0.00000
-184991440.41920,-348766486.20403,-19642073.37431,  -0.00006,  -0.00137,  -0.00045,304135682.57272,   0.00027,274930819.46071,   0.00011,  -0.00015,  -0.00019,-170795136.88799,   0.00000
-188403823.81199,-350420340.73182,-19340611.28317,  -0.00007,  -0.00137,  -0.00044,305601147.94390,   0.00027,274930819.46071,   0.00011,  -0.00015,  -0.00019,-169329671.51681,   0.00000
-191858076.93966,-352116064.99450,-19030775.24505,  -0.00008,  -0.00138,  -0.00044,307124478.09328,   0.00027,274930819.46071,   0.00011,  -0.00015,  -0.00019,-167806341.36743,   0.00000
-195312330.06733,-353811789.25717,-18729313.15391,  -0.00009,  -0.00138,  -0.00044,308671743.18721,   0.00027,274930819.46071,   0.00011,  -0.00015,  -0.00019,-166259076.27350,   0.00000
-198737274.38058,-355494952.59938,-18419477.11579,  -0.00011,  -0.00138,  -0.00043,310227173.25834,   0.00027,274930819.46071,   0.00011,  -0.00015,  -0.00019,-164703646.20237,   0.00000
-202204088.42871,-357219985.67647,-18109641.07767,  -0.00012,  -0.00138,  -0.00043,311841541.92737,   0.00027,274930819.46071,   0.00011,  -0.00015,  -0.00019,-163089277.53334,   0.00000
-205670902.47685,-358945018.75356,-17799805.03955,  -0.00013,  -0.00138,  -0.00042,313477271.65675,   0.00027,274930819.46071,   0.00011,  -0.00015,  -0.00019,-161453547.80396,   0.00000
-209150277.44545,-360699360.64507,-17489969.00143,  -0.00014,  -0.00138,  -0.00042,315158996.41129,   0.00027,274930819.46071,   0.00011,  -0.00015,  -0.00019,-159771823.04942,   0.00000
-212600343.59963,-362441141.61611,-17171759.01634,  -0.00015,  -0.00138,  -0.00042,316846940.83357,   0.00027,274930819.46071,   0.00011,  -0.00015,  -0.00019,-158083878.62715,   0.00000
-216092279.48869,-364224792.32204,-16861922.97822,  -0.00017,  -0.00138,  -0.00041,318594382.11785,   0.00027,274930819.46071,   0.00011,  -0.00015,  -0.00019,-156336437.34286,   0.00000
-219584215.37775,-366008443.02796,-16543712.99313,  -0.00018,  -0.00138,  -0.00041,320360444.72700,   0.00027,274930819.46071,   0.00011,  -0.00015,  -0.00019,-154570374.73371,   0.00000
-223046842.45240,-367779532.81342,-16225503.00803,  -0.00019,  -0.00139,  -0.00040,322132606.25926,   0.00027,274930819.46071,   0.00011,  -0.00015,  -0.00019,-152798213.20146,   0.00000
-226551339.26192,-369592492.33376,-15898919.07596,  -0.00020,  -0.00139,  -0.00040,323961066.29476,   0.00027,274930819.46071,   0.00011,  -0.00015,  -0.00019,-150969753.16595,   0.00000
-230039088.17750,-371422199.74805,-15580709.09087,  -0.00022,  -0.00139,  -0.00040,325820631.45789,   0.00027,274930819.46071,   0.00011,  -0.00015,  -0.00019,-149110188.00283,   0.00000
-233556145.90749,-373264468.08281,-15254125.15880,  -0.00023,  -0.00139,  -0.00039,327711291.92897,   0.00027,274930819.46071,   0.00011,  -0.00015,  -0.00019,-147219527.53175,   0.00000
-237043894.82306,-375094175.49710,-14927541.22673,  -0.00024,  -0.00139,  -0.00039,329606065.99498,   0.00027,274930819.46071,   0.00011,  -0.00015,  -0.00019,-145324753.46574,   0.00000
-240573513.47351,-376965752.64627,-14592583.34768,  -0.00025,  -0.00139,  -0.00038,331556403.86839,   0.00027,274930819.46071,   0.00011,  -0.00015,  -0.00019,-143374415.59232,   0.00000
-244073823.30955,-378824768.87498,-14265999.41561,  -0.00027,  -0.00139,  -0.00038,333510994.20024,   0.00027,274930819.46071,   0.00011,  -0.00015,  -0.00019,-141419825.26048,   0.00000
-247586694.06605,-380713093.91811,-13931041.53656,  -0.00028,  -0.00140,  -0.00037,335506119.77026,   0.00027,274930819.46071,   0.00011,  -0.00015,  -0.00019,-139424699.69046,   0.00000
-251099564.82256,-382601418.96124,-13596083.65752,  -0.00029,  -0.00140,  -0.00037,337517922.36270,   0.00027,274930819.46071,   0.00011,  -0.00015,  -0.00019,-137412897.09801,   0.00000
-254624996.49952,-384519052.81878,-13252751.83149,  -0.00030,  -0.00140,  -0.00037,339569631.50195,   0.00027,274930819.46071,   0.00011,  -0.00015,  -0.00019,-135361187.95876,   0.00000
-258150428.17649,-386436686.67632,-12909420.00547,  -0.00032,  -0.00140,  -0.00036,341637409.57792,   0.00027,274930819.46071,   0.00011,  -0.00015,  -0.00019,-133293409.88279,   0.00000
-261688420.77392,-388383629.34828,-12566088.17945,  -0.00033,  -0.00140,  -0.00036,343745391.54830,   0.00027,274930819.46071,   0.00011,  -0.00015,  -0.00019,-131185427.91241,   0.00000
-265197104.55694,-390318011.09977,-12222756.35343,  -0.00034,  -0.00141,  -0.00035,345853487.72683,   0.00027,274930819.46071,   0.00011,  -0.00015,  -0.00019,-129077331.73389,   0.00000
-268747658.07483,-392294262.58615,-11871050.58043,  -0.00035,  -0.00141,  -0.00035,348015363.68118,   0.00027,274930819.46071,   0.00011,  -0.00015,  -0.00019,-126915455.77953,   0.00000
-272268902.77831,-394257953.15206,-11519344.80743,  -0.00036,  -0.00141,  -0.00034,350176519.26107,   0.00027,274930819.46071,   0.00011,  -0.00015,  -0.00019,-124754300.19964,   0.00000
-275790147.48179,-396221643.71797,-11167639.03443,  -0.00038,  -0.00141,  -0.00034,352351982.15272,   0.00027,274930819.46071,   0.00011,  -0.00015,  -0.00019,-122578837.30799,   0.00000
-279323953.10573,-398214643.09830,-10815933.26143,  -0.00039,  -0.00141,  -0.00033,354565702.93623,   0.00027,274930819.46071,   0.00011,  -0.00015,  -0.00019,-120365116.52449,   0.00000
-282857758.72967,-400207642.47863,-10455853.54145,  -0.00040,  -0.00142,  -0.00033,356792385.86848,   0.00027,274930819.46071,   0.00011,  -0.00015,  -0.00019,-118138433.59223,   0.00000
-286404125.27408,-402229950.67337,-10095773.82148,  -0.00041,  -0.00142,  -0.00032,359056698.80708,   0.00027,274930819.46071,   0.00011,  -0.00015,  -0.00019,-115874120.65364,   0.00000
-289963052.73895,-404281567.68253,-9727320.15453,  -0.00043,  -0.00142,  -0.00032,361357582.82121,   0.00027,274930819.46071,   0.00011,  -0.00015,  -0.00019,-113573236.63950,   0.00000
-293492671.38941,-406320623.77123,-9358866.48758,  -0.00044,  -0.00142,  -0.00031,363655107.61668,   0.00027,274930819.46071,   0.00011,  -0.00015,  -0.00019,-111275711.84403,   0.00000
-297022290.03986,-408359679.85993,-8990412.82062,  -0.00045,  -0.00143,  -0.00031,365965058.73094,   0.00027,274930819.46071,   0.00011,  -0.00015,  -0.00019,-108965760.72977,   0.00000
-300564469.61078,-410428044.76304,-8613585.20670,  -0.00046,  -0.00143,  -0.00031,368310567.70499,   0.00027,274930819.46071,   0.00011,  -0.00015,  -0.00019,-106620251.75573,   0.00000
-304106649.18170,-412496409.66615,-8245131.53975,  -0.00047,  -0.00143,  -0.00030,370668568.53968,   0.00027,274930819.46071,   0.00011,  -0.00015,  -0.00019,-104262250.92103,   0.00000
-307632080.85867,-414581522.46322,-7859929.97884,  -0.00049,  -0.00143,  -0.00030,373044360.63055,   0.00027,274930819.46071,   0.00011,  -0.00015,  -0.00019,-101886458.83016,   0.00000
-311186821.35005,-416679196.18075,-7483102.36491,  -0.00050,  -0.00144,  -0.00029,375448673.17999,   0.00027,274930819.46071,   0.00011,  -0.00015,  -0.00019,-99482146.28073,   0.00000
-314724813.94748,-418793617.79223,-7097900.80401,  -0.00051,  -0.00144,  -0.00029,377870612.72769,   0.00027,274930819.46071,   0.00011,  -0.00015,  -0.00019,-97060206.73302,   0.00000
-318262806.54491,-420908039.40372,-6704325.29613,  -0.00052,  -0.00144,  -0.00028,380302855.20833,   0.00027,274930819.46071,   0.00011,  -0.00015,  -0.00019,-94627964.25238,   0.00000
-321784051.24839,-423039208.90915,-6319123.73523,  -0.00053,  -0.00144,  -0.00028,382752754.93058,   0.00027,274930819.46071,   0.00011,  -0.00015,  -0.00019,-92178064.53013,   0.00000
-325334604.76628,-425182939.33505,-5917174.28037,  -0.00055,  -0.00145,  -0.00027,385229090.66228,   0.00027,274930819.46071,   0.00011,  -0.00015,  -0.00019,-89701728.79844,   0.00000
-328855849.46976,-427314108.84048,-5523598.77249,  -0.00056,  -0.00145,  -0.00026,387698727.77927,   0.00027,274930819.46071,   0.00011,  -0.00015,  -0.00019,-87232091.68145,   0.00000
-332389655.09371,-429474587.16033,-5121649.31763,  -0.00057,  -0.00145,  -0.00026,390201342.65186,   0.00027,274930819.46071,   0.00011,  -0.00015,  -0.00019,-84729476.80885,   0.00000
-335906712.82370,-431651813.37414,-4719699.86278,  -0.00058,  -0.00146,  -0.00025,392719610.78445,   0.00027,274930819.46071,   0.00011,  -0.00015,  -0.00019,-82211208.67626,   0.00000
-339423770.55369,-433829039.58794,-4309376.46095,  -0.00059,  -0.00146,  -0.00025,395246701.93501,   0.00027,274930819.46071,   0.00011,  -0.00015,  -0.00019,-79684117.52571,   0.00000
-342940828.28368,-436006265.80175,-3899053.05911,  -0.00060,  -0.00146,  -0.00024,397782771.66769,   0.00027,274930819.46071,   0.00011,  -0.00015,  -0.00019,-77148047.79303,   0.00000
-346470446.93413,-438212800.82997,-3480355.71031,  -0.00062,  -0.00147,  -0.00024,400350825.00449,   0.00027,274930819.46071,   0.00011,  -0.00015,  -0.00019,-74579994.45622,   0.00000
-349983317.69063,-440436083.75214,-3061658.36150,  -0.00063,  -0.00147,  -0.00023,402933128.40494,   0.00027,274930819.46071,   0.00011,  -0.00015,  -0.00019,-71997691.05578,   0.00000
-353496188.44714,-442659366.67431,-2642961.01269,  -0.00064,  -0.00147,  -0.00023,405523645.40198,   0.00027,274930819.46071,   0.00011,  -0.00015,  -0.00019,-69407174.05874,   0.00000
-357009059.20364,-444882649.59648,-2215889.71690,  -0.00065,  -0.00148,  -0.00022,408122082.93439,   0.00027,274930819.46071,   0.00011,  -0.00015,  -0.00019,-66808736.52632,   0.00000
-360505182.06619,-447122680.41261,-1780444.47414,  -0.00066,  -0.00148,  -0.00022,410733665.86565,   0.00027,274930819.46071,   0.00011,  -0.00015,  -0.00019,-64197153.59506,   0.00000
-364001304.92874,-449362711.22873,-1353373.17836,  -0.00067,  -0.00148,  -0.00021,413352970.00985,   0.00027,274930819.46071,   0.00011,  -0.00015,  -0.00019,-61577849.45086,   0.00000
-367509988.71175,-451632050.85927,-909553.98862,  -0.00069,  -0.00149,  -0.00020,416002756.14289,   0.00027,274930819.46071,   0.00011,  -0.00015,  -0.00019,-58928063.31782,   0.00000
-371018672.49477,-453901390.48982,-474108.74586,  -0.00070,  -0.00149,  -0.00020,418659898.51264,   0.00027,274930819.46071,   0.00011,  -0.00015,  -0.00019,-56270920.94807,   0.00000
-374481299.56941,-456174917.09385,-30289.55613,  -0.00071,  -0.00149,  -0.00019,421310842.11170,   0.00027,274930819.46071,   0.00011,  -0.00015,  -0.00019,-53619977.34901,   0.00000
-377973235.45847,-458461004.61834,421903.58059,  -0.00072,  -0.00150,  -0.00019,423986797.24652,   0.00027,274930819.46071,   0.00011,  -0.00015,  -0.00019,-50944022.21419,   0.00000
-381448423.45358,-460763840.03679,874096.71730,  -0.00073,  -0.00150,  -0.00018,426674193.98111,   0.00027,274930819.46071,   0.00011,  -0.00015,  -0.00019,-48256625.47960,   0.00000
-384923611.44869,-463066675.45523,1334663.80099,  -0.00074,  -0.00150,  -0.00018,429368116.52996,   0.00027,274930819.46071,   0.00011,  -0.00015,  -0.00019,-45562702.93076,   0.00000
-388411360.36427,-465398819.68809,1795230.88468,  -0.00075,  -0.00151,  -0.00017,432091340.02188,   0.00027,274930819.46071,   0.00011,  -0.00015,  -0.00019,-42839479.43883,   0.00000
-391869800.46543,-467718403.00049,2255797.96837,  -0.00077,  -0.00151,  -0.00016,434802246.58775,   0.00027,274930819.46071,   0.00011,  -0.00015,  -0.00019,-40128572.87296,   0.00000
-395298931.75217,-470025425.39243,2724738.99903,  -0.00078,  -0.00151,  -0.00016,437500708.58639,   0.00027,274930819.46071,   0.00011,  -0.00015,  -0.00019,-37430110.87433,   0.00000
-398769932.77379,-472374317.51924,3202053.97668,  -0.00079,  -0.00152,  -0.00015,440246566.98716,   0.00027,274930819.46071,   0.00011,  -0.00015,  -0.00019,-34684252.47356,   0.00000
-402194877.08704,-474727396.61955,3679368.95432,  -0.00080,  -0.00152,  -0.00015,442983641.44818,   0.00027,274930819.46071,   0.00011,  -0.00015,  -0.00019,-31947178.01254,   0.00000
-405649130.21471,-477093036.64031,4156683.93196,  -0.00081,  -0.00153,  -0.00014,445744816.20532,   0.00027,274930819.46071,   0.00011,  -0.00015,  -0.00019,-29186003.25539,   0.00000
-409074074.52796,-479446115.74062,4642372.85658,  -0.00082,  -0.00153,  -0.00013,448492870.78422,   0.00027,274930819.46071,   0.00011,  -0.00015,  -0.00019,-26437948.67649,   0.00000
-412482270.94726,-481815942.73487,5136435.72817,  -0.00083,  -0.00154,  -0.00013,451250308.80587,   0.00027,274930819.46071,   0.00011,  -0.00015,  -0.00019,-23680510.65484,   0.00000
-415903028.28703,-484215078.54354,5630498.59976,  -0.00084,  -0.00154,  -0.00012,454035418.51071,   0.00027,274930819.46071,   0.00011,  -0.00015,  -0.00019,-20895400.95000,   0.00000
-419311224.70633,-486584905.53780,6124561.47136,  -0.00085,  -0.00154,  -0.00011,456802792.85150,   0.00027,274930819.46071,   0.00011,  -0.00015,  -0.00019,-18128026.60921,   0.00000
-422715234.15214,-489000789.24042,6635372.23690,  -0.00086,  -0.00155,  -0.00011,459601939.10804,   0.00027,274930819.46071,   0.00011,  -0.00015,  -0.00019,-15328880.35267,   0.00000
-426106682.67749,-491387364.12863,7137809.05547,  -0.00087,  -0.00155,  -0.00010,462382798.08352,   0.00027,274930819.46071,   0.00011,  -0.00015,  -0.00019,-12548021.37719,   0.00000
-429493944.22935,-493819995.72521,7648619.82102,  -0.00089,  -0.00156,  -0.00009,465194628.90266,   0.00027,274930819.46071,   0.00011,  -0.00015,  -0.00019,-9736190.55805,   0.00000
-432868644.86074,-496223318.50737,8167804.53354,  -0.00090,  -0.00156,  -0.00009,467988749.00595,   0.00027,274930819.46071,   0.00011,  -0.00015,  -0.00019,-6942070.45477,   0.00000
-436239158.51865,-498672697.99790,8686989.24607,  -0.00091,  -0.00157,  -0.00008,470813016.33368,   0.00027,274930819.46071,   0.00011,  -0.00015,  -0.00019,-4117803.12703,   0.00000
-439597111.25609,-501092768.67401,9214547.90556,  -0.00092,  -0.00157,  -0.00007,473619439.15024,   0.00027,274930819.46071,   0.00011,  -0.00015,  -0.00019,-1311380.31048,   0.00000
-441154627.58785,-502228701.63777,9464375.08660,  -0.00092,  -0.00157,  -0.00007,474930817.63909,   0.00027,274930819.46071,   0.00011,  -0.00015,  -0.00019,  -7.18914,   0.00000
-441569460.72894,-501932914.14530,9713819.58256,  -0.00093,  -0.00157,  -0.00007,474936909.07555,   0.00027,274936914.65048,   0.00010,  -0.00015,  -0.00019,  -5.57492,   1.00000
-442330597.21715,-501384888.89794,10177109.04931,  -0.00094,  -0.00158,  -0.00006,474948425.99340,   0.00028,274948432.60351,   0.00010,  -0.00016,  -0.00019,  -6.61012,   1.00000
-443071130.12640,-500844356.86112,10637518.12173,  -0.00095,  -0.00158,  -0.00005,474959883.90031,   0.00029,274959885.39983,   0.00009,  -0.00017,  -0.00019,  -1.49952,   1.00000
-443790866.31135,-500310771.10706,11103405.39728,  -0.00096,  -0.00159,  -0.00005,474971269.66467,   0.00030,274971275.23840,   0.00008,  -0.00018,  -0.00019,  -5.57373,   1.00000
-444493737.32635,-499782044.13874,11573566.85625,  -0.00097,  -0.00159,  -0.00004,474982765.86350,   0.00031,274982770.72258,   0.00008,  -0.00019,  -0.00019,  -4.85908,   1.00000
-445188246.87391,-499253159.52443,12040285.06879,  -0.00098,  -0.00160,  -0.00003,474994272.60596,   0.00032,274994279.12701,   0.00007,  -0.00019,  -0.00019,  -6.52106,   1.00000
-445854706.10149,-498737204.25082,12511784.26469,  -0.00099,  -0.00160,  -0.00002,475005813.09086,   0.00033,275005814.63618,   0.00007,  -0.00020,  -0.00019,  -1.54533,   1.00000
-446501293.67642,-498228367.01971,12988738.60846,  -0.00100,  -0.00161,  -0.00002,475017286.55826,   0.00034,275017287.16027,   0.00006,  -0.00021,  -0.00019,  -0.60202,   1.00000
-447132265.37848,-497725462.97984,13461456.94579,  -0.00101,  -0.00161,  -0.00001,475028860.08281,   0.00035,275028862.43243,   0.00005,  -0.00022,  -0.00018,  -2.34962,   1.00000
-447755657.25908,-497222643.51068,13930684.12701,  -0.00102,  -0.00162,  -0.00000,475040446.86613,   0.00037,275040450.49632,   0.00005,  -0.00023,  -0.00018,  -3.63018,   1.00000
-448340073.24763,-496740238.79259,14413624.29621,  -0.00103,  -0.00162,   0.00001,475051985.33019,   0.00038,275051989.11215,   0.00004,  -0.00024,  -0.00018,  -3.78196,   1.00000
-448917402.63076,-496257951.10522,14893009.55868,  -0.00104,  -0.00163,   0.00001,475063535.93601,   0.00039,275063540.63098,   0.00004,  -0.00025,  -0.00018,  -4.69497,   1.00000
-449479832.39263,-495782017.18965,15368012.93559,  -0.00105,  -0.00163,   0.00002,475075191.70277,   0.00040,275075194.38855,   0.00003,  -0.00025,  -0.00018,  -2.68578,   1.00000
-450023706.45307,-495313390.72310,15848540.75991,  -0.00106,  -0.00164,   0.00003,475086783.84373,   0.00041,275086784.98137,   0.00002,  -0.00026,  -0.00018,  -1.13764,   1.00000
-450549245.33734,-494852035.31251,16334593.84539,  -0.00107,  -0.00164,   0.00004,475098311.01738,   0.00042,275098312.58092,   0.00002,  -0.00027,  -0.00018,  -1.56355,   1.00000
-451060412.07914,-494397246.50328,16816145.90968,  -0.00108,  -0.00165,   0.00004,475109940.16778,   0.00043,275109942.33556,   0.00001,  -0.00028,  -0.00017,  -2.16778,   1.00000
-451553633.74063,-493949748.73036,17303249.41573,  -0.00109,  -0.00165,   0.00005,475121502.15678,   0.00044,275121509.12727,   0.00000,  -0.00029,  -0.00017,  -6.97049,   1.00000
-452021199.62249,-493515939.53491,17794931.45681,  -0.00110,  -0.00166,   0.00006,475133096.31981,   0.00045,275133101.96008,  -0.00000,  -0.00030,  -0.00017,  -5.64027,   1.00000
-452482896.97424,-493082421.29020,18282977.42616,  -0.00111,  -0.00167,   0.00007,475144699.64195,   0.00046,275144708.02590,  -0.00001,  -0.00030,  -0.00017,  -8.38395,   1.00000
-452927222.39097,-492656156.87839,18776604.52685,  -0.00112,  -0.00167,   0.00008,475156243.35256,   0.00047,275156251.36121,  -0.00001,  -0.00031,  -0.00017,  -8.00865,   1.00000
-453350071.64528,-492243357.89270,19264491.91965,  -0.00112,  -0.00168,   0.00009,475167982.11733,   0.00048,275167985.37786,  -0.00002,  -0.00032,  -0.00017,  -3.26052,   1.00000
-453763893.80966,-491831190.34146,19759049.17004,  -0.00113,  -0.00168,   0.00009,475179560.97030,   0.00049,275179568.10195,  -0.00003,  -0.00033,  -0.00016,  -7.13164,   1.00000
-454152940.30622,-491432875.23138,20258114.34076,  -0.00114,  -0.00169,   0.00010,475191174.56812,   0.00050,275191176.88532,  -0.00003,  -0.00034,  -0.00016,  -2.31721,   1.00000
-454535872.46069,-491033745.40157,20761744.97338,  -0.00115,  -0.00169,   0.00011,475202795.41052,   0.00051,275202803.94456,  -0.00004,  -0.00035,  -0.00016,  -8.53404,   1.00000
-454884890.78429,-490657567.84254,21262599.82051,  -0.00116,  -0.00170,   0.00012,475214365.35298,   0.00052,275214372.12178,  -0.00005,  -0.00035,  -0.00016,  -6.76881,   1.00000
-455239684.92614,-490273752.33169,21758685.64925,  -0.00117,  -0.00170,   0.00013,475226025.82514,   0.00054,275226034.72365,  -0.00005,  -0.00036,  -0.00016,  -8.89850,   1.00000
-455558819.10743,-489910609.41166,22268592.33692,  -0.00118,  -0.00171,   0.00014,475237640.34732,   0.00055,275237647.57227,  -0.00006,  -0.00037,  -0.00015,  -7.22495,   1.00000
-455873537.10583,-489547728.82573,22774733.47909,  -0.00119,  -0.00172,   0.00014,475249272.87165,   0.00056,275249274.61400,  -0.00007,  -0.00038,  -0.00015,  -1.74236,   1.00000
-456172385.34666,-489191805.16677,23286534.54756,  -0.00120,  -0.00172,   0.00015,475260836.60862,   0.00057,275260840.04506,  -0.00007,  -0.00039,  -0.00015,  -3.43644,   1.00000
-456448770.93095,-488851008.98232,23794470.39685,  -0.00120,  -0.00173,   0.00016,475272424.73498,   0.00058,275272427.01029,  -0.00008,  -0.00039,  -0.00015,  -2.27531,   1.00000
-456719967.88987,-488509143.11898,24306904.86671,  -0.00121,  -0.00173,   0.00017,475284029.49557,   0.00059,275284033.68687,  -0.00009,  -0.00040,  -0.00014,  -4.19129,   1.00000
-456967789.15007,-488181127.47787,24823692.95419,  -0.00122,  -0.00174,   0.00018,475295666.10013,   0.00060,275295667.31407,  -0.00009,  -0.00041,  -0.00014,  -1.21393,   1.00000
-457201594.84184,-487861202.90123,25337931.12087,  -0.00123,  -0.00175,   0.00019,475307231.01454,   0.00061,275307234.49593,  -0.00010,  -0.00042,  -0.00014,  -3.48139,   1.00000
-457421323.11262,-487545772.62422,25863454.64384,  -0.00124,  -0.00175,   0.00020,475318913.68686,   0.00062,275318915.96282,  -0.00011,  -0.00043,  -0.00014,  -2.27597,   1.00000
-457618389.29445,-487247676.89843,26379500.71543,  -0.00125,  -0.00176,   0.00021,475330438.69253,   0.00063,275330444.02366,  -0.00011,  -0.00043,  -0.00014,  -5.33114,   1.00000
-457819708.15943,-486938894.68410,26906872.39920,  -0.00125,  -0.00177,   0.00022,475342075.80071,   0.00064,275342080.64577,  -0.00012,  -0.00044,  -0.00013,  -4.84506,   1.00000
-457989401.77414,-486653184.63986,27431623.82252,  -0.00126,  -0.00177,   0.00023,475353652.88329,   0.00065,275353657.64253,  -0.00013,  -0.00045,  -0.00013,  -4.75924,   1.00000
-458144469.78449,-486373874.17398,27962141.88158,  -0.00127,  -0.00178,   0.00024,475365169.22095,   0.00066,275365174.70266,  -0.00013,  -0.00046,  -0.00013,  -5.48171,   1.00000
-458287280.51374,-486100260.30167,28495471.36693,  -0.00128,  -0.00178,   0.00025,475376801.97989,   0.00067,275376802.03602,  -0.00014,  -0.00047,  -0.00012,  -0.05613,   1.00000
-458417058.24785,-485834438.62725,29026332.73025,  -0.00128,  -0.00179,   0.00026,475388357.94871,   0.00068,275388363.79245,  -0.00015,  -0.00047,  -0.00012,  -5.84374,   1.00000
-458532485.70411,-485574809.05616,29562996.12690,  -0.00129,  -0.00180,   0.00026,475399856.60925,   0.00070,275399866.36503,  -0.00015,  -0.00048,  -0.00012,  -9.75578,   1.00000
-458635906.45689,-485320771.24670,30102341.42619,  -0.00130,  -0.00180,   0.00027,475411470.97010,   0.00071,275411480.25653,  -0.00016,  -0.00049,  -0.00012,  -9.28643,   1.00000
-458716533.70912,-485082245.59589,30640802.39767,  -0.00131,  -0.00181,   0.00028,475422941.53900,   0.00072,275422946.73823,  -0.00017,  -0.00050,  -0.00011,  -5.19923,   1.00000
-458785395.53505,-484849190.77145,31181884.70569,  -0.00131,  -0.00182,   0.00029,475434515.98138,   0.00073,275434525.15819,  -0.00017,  -0.00051,  -0.00011,  -9.17681,   1.00000
-458840288.25843,-484621989.66167,31728790.02777,  -0.00132,  -0.00182,   0.00030,475446041.00767,   0.00074,275446045.57202,  -0.00018,  -0.00051,  -0.00011,  -4.56435,   1.00000
-458882864.68772,-484402238.28901,32273339.56955,  -0.00133,  -0.00183,   0.00031,475457496.03631,   0.00075,275457501.31215,  -0.00019,  -0.00052,  -0.00011,  -5.27584,   1.00000
-458912266.36865,-484186085.11312,32828551.99251,  -0.00134,  -0.00184,   0.00032,475469074.76210,   0.00076,275469077.43922,  -0.00019,  -0.00053,  -0.00010,  -2.67712,   1.00000
-458919410.44783,-483985053.84500,33383060.33565,  -0.00134,  -0.00184,   0.00033,475480502.44689,   0.00077,275480506.93654,  -0.00020,  -0.00054,  -0.00010,  -4.48966,   1.00000
-458916893.68568,-483790994.11754,33931766.32573,  -0.00135,  -0.00185,   0.00034,475492035.03715,   0.00078,275492043.08164,  -0.00021,  -0.00054,  -0.00010,  -8.04448,   1.00000
-458899071.35484,-483600501.54032,34494538.28932,  -0.00136,  -0.00186,   0.00036,475503523.89039,   0.00079,275503530.34510,  -0.00021,  -0.00055,  -0.00009,  -6.45471,   1.00000
-458869402.17946,-483417108.95168,35054998.11091,  -0.00136,  -0.00186,   0.00037,475514950.73597,   0.00080,275514954.15726,  -0.00022,  -0.00056,  -0.00009,  -3.42130,   1.00000
-458818459.71727,-483246464.29404,35619465.97903,  -0.00137,  -0.00187,   0.00038,475526408.19275,   0.00081,275526410.66661,  -0.00023,  -0.00057,  -0.00009,  -2.47386,   1.00000
-458766011.15570,-483075029.80096,36179869.13442,  -0.00138,  -0.00188,   0.00039,475537886.70300,   0.00082,275537886.95083,  -0.00023,  -0.00057,  -0.00008,  -0.24783,   1.00000
-458690007.48613,-482916326.03159,36748049.61519,  -0.00138,  -0.00189,   0.00040,475549224.75432,   0.00083,275549225.24111,  -0.00024,  -0.00058,  -0.00008,  -0.48679,   1.00000
-458603077.65627,-482762379.03425,37318329.88101,  -0.00139,  -0.00189,   0.00041,475560677.39056,   0.00084,275560680.55469,  -0.00024,  -0.00059,  -0.00008,  -3.16414,   1.00000
-458502821.25153,-482613174.00507,37894531.37259,  -0.00140,  -0.00190,   0.00042,475572073.91543,   0.00085,275572081.92694,  -0.00025,  -0.00060,  -0.00007,  -8.01151,   1.00000
-458381580.04312,-482476274.94153,38474608.83924,  -0.00140,  -0.00191,   0.00043,475583513.31734,   0.00086,275583518.38471,  -0.00026,  -0.00061,  -0.00007,  -5.06738,   1.00000
-458249046.99283,-482345914.02674,39052473.79234,  -0.00141,  -0.00191,   0.00044,475594892.26903,   0.00088,275594893.22808,  -0.00026,  -0.00061,  -0.00007,  -0.95904,   1.00000
-458103311.13889,-482219934.24027,39636304.35426,  -0.00141,  -0.00192,   0.00045,475606213.11233,   0.00089,275606215.36654,  -0.00027,  -0.00062,  -0.00006,  -2.25422,   1.00000
-457956584.00942,-482092713.18511,40215986.70358,  -0.00142,  -0.00193,   0.00046,475617558.12554,   0.00090,275617559.67316,  -0.00028,  -0.00063,  -0.00006,  -1.54762,   1.00000
-457776776.32665,-481982939.12619,40809649.77365,  -0.00143,  -0.00194,   0.00047,475628864.74546,   0.00091,275628866.44947,  -0.00028,  -0.00063,  -0.00006,  -1.70401,   1.00000
-457588522.44536,-481879470.87876,41396903.67775,  -0.00143,  -0.00194,   0.00049,475640280.20582,   0.00092,275640285.33229,  -0.00029,  -0.00064,  -0.00005,  -5.12647,   1.00000
-457387183.68754,-481779936.59952,41990134.08520,  -0.00144,  -0.00195,   0.00050,475651646.51720,   0.00093,275651653.32884,  -0.00030,  -0.00065,  -0.00005,  -6.81164,   1.00000
-457164566.12416,-481694023.83710,42583378.25221,  -0.00144,  -0.00196,   0.00051,475662870.12746,   0.00094,275662877.84748,  -0.00030,  -0.00066,  -0.00004,  -7.72002,   1.00000
-456937066.57563,-481601913.03904,43188593.14945,  -0.00145,  -0.00196,   0.00052,475674136.13420,   0.00095,275674145.76340,  -0.00031,  -0.00066,  -0.00004,  -9.62920,   1.00000
-456691061.24214,-481523451.65709,43789388.08763,  -0.00145,  -0.00197,   0.00053,475685437.33358,   0.00096,275685444.00503,  -0.00032,  -0.00067,  -0.00004,  -6.67145,   1.00000
-456431987.55017,-481448402.41444,44396193.25316,  -0.00146,  -0.00198,   0.00054,475696687.13967,   0.00097,275696693.44779,  -0.00032,  -0.00068,  -0.00003,  -6.30813,   1.00000
-456162042.46996,-481379009.88361,45000951.50528,  -0.00146,  -0.00199,   0.00056,475707877.48928,   0.00098,275707884.53306,  -0.00033,  -0.00069,  -0.00003,  -7.04378,   1.00000
-455879703.02891,-481310748.06809,45615144.17762,  -0.00147,  -0.00200,   0.00057,475719206.12976,   0.00099,275719211.39650,  -0.00033,  -0.00069,  -0.00003,  -5.26675,   1.00000
-455576071.99583,-481255438.90766,46229558.05114,  -0.00147,  -0.00200,   0.00058,475730394.74264,   0.00100,275730396.94295,  -0.00034,  -0.00070,  -0.00002,  -2.20031,   1.00000
-455254212.36698,-481213305.56564,46839500.25977,  -0.00148,  -0.00201,   0.00059,475741605.57938,   0.00101,275741615.05633,  -0.00035,  -0.00071,  -0.00002,  -9.47696,   1.00000
-454927509.81314,-481164011.54549,47461201.17428,  -0.00148,  -0.00202,   0.00060,475752873.30500,   0.00102,275752881.58861,  -0.00035,  -0.00072,  -0.00001,  -8.28362,   1.00000
-454579486.29613,-481127304.90373,48083261.54870,  -0.00149,  -0.00203,   0.00062,475764006.52265,   0.00103,275764007.79563,  -0.00036,  -0.00072,  -0.00001,  -1.27299,   1.00000
-454228914.81337,-481085689.45406,48708984.66286,  -0.00149,  -0.00203,   0.00063,475775170.17781,   0.00104,275775173.18917,  -0.00036,  -0.00073,  -0.00000,  -3.01136,   1.00000
-453847167.76669,-481061701.53281,49340581.95775,  -0.00150,  -0.00204,   0.00064,475786297.29490,   0.00105,275786300.34993,  -0.00037,  -0.00074,  -0.00000,  -3.05504,   1.00000
-453465367.81363,-481035163.49435,49967762.61496,  -0.00150,  -0.00205,   0.00065,475797449.42713,   0.00106,275797456.83297,  -0.00038,  -0.00074,   0.00000,  -7.40584,   1.00000
-453049876.48909,-481023270.94821,50608825.40940,  -0.00151,  -0.00206,   0.00067,475808579.07040,   0.00107,275808587.87194,  -0.00038,  -0.00075,   0.00001,  -8.80154,   1.00000
-452641701.93279,-481000753.27771,51248106.75178,  -0.00151,  -0.00207,   0.00068,475819651.46964,   0.00108,275819658.84370,  -0.00039,  -0.00076,   0.00001,  -7.37407,   1.00000
-452215490.01396,-480990703.43710,51882745.80334,  -0.00151,  -0.00207,   0.00069,475830765.59928,   0.00109,275830766.82870,  -0.00039,  -0.00077,   0.00002,  -1.22942,   1.00000
-451766197.93390,-480987469.25876,52528673.33078,  -0.00152,  -0.00208,   0.00070,475841935.42015,   0.00110,275841936.35167,  -0.00040,  -0.00077,   0.00002,  -0.93151,   1.00000
-451302493.59881,-480987847.48464,53178073.37894,  -0.00152,  -0.00209,   0.00072,475852873.96501,   0.00111,275852877.93600,  -0.00041,  -0.00078,   0.00003,  -3.97099,   1.00000
-450829127.61448,-480990257.47620,53828094.84836,  -0.00153,  -0.00210,   0.00073,475863954.62212,   0.00112,275863955.38703,  -0.00041,  -0.00079,   0.00003,  -0.76491,   1.00000
-450335181.37154,-481001772.71968,54481296.66783,  -0.00153,  -0.00211,   0.00074,475875083.86391,   0.00113,275875085.17837,  -0.00042,  -0.00079,   0.00003,  -1.31446,   1.00000
-449837599.74670,-481009353.18159,55135513.55507,  -0.00153,  -0.00211,   0.00076,475886063.74643,   0.00114,275886072.37130,  -0.00042,  -0.00080,   0.00004,  -8.62487,   1.00000
-449319391.94093,-481025812.50612,55792884.81561,  -0.00154,  -0.00212,   0.00077,475897111.43937,   0.00115,275897113.22312,  -0.00043,  -0.00081,   0.00004,  -1.78375,   1.00000
-448776488.21904,-481050131.20256,56459064.83314,  -0.00154,  -0.00213,   0.00078,475908031.63565,   0.00116,275908032.40990,  -0.00044,  -0.00082,   0.00005,  -0.77425,   1.00000
-448226845.39465,-481078821.12045,57117627.39821,  -0.00154,  -0.00214,   0.00080,475919073.75613,   0.00118,275919078.94494,  -0.00044,  -0.00082,   0.00005,  -5.18881,   1.00000
-447660801.91138,-481104962.97373,57790164.28966,  -0.00155,  -0.00215,   0.00081,475930094.34518,   0.00119,275930103.02176,  -0.00045,  -0.00083,   0.00006,  -8.67658,   1.00000
-447083835.69524,-481134477.43422,58460836.35963,  -0.00155,  -0.00215,   0.00082,475941069.90567,   0.00120,275941078.93855,  -0.00045,  -0.00084,   0.00006,  -9.03288,   1.00000
-446493080.48669,-481164187.09966,59137568.40129,  -0.00155,  -0.00216,   0.00084,475952016.21699,   0.00121,275952020.63402,  -0.00046,  -0.00084,   0.00007,  -4.41703,   1.00000
-445872965.75157,-481211862.97970,59812212.40948,  -0.00155,  -0.00217,   0.00085,475962919.16371,   0.00122,275962923.18740,  -0.00046,  -0.00085,   0.00007,  -4.02369,   1.00000
-445250441.18751,-481252417.75227,60490028.69554,  -0.00156,  -0.00218,   0.00086,475973869.40681,   0.00123,275973877.81493,  -0.00047,  -0.00086,   0.00008,  -8.40812,   1.00000
-444613959.95840,-481292712.21116,61173904.31706,  -0.00156,  -0.00219,   0.00088,475984799.38998,   0.00124,275984800.38133,  -0.00047,  -0.00087,   0.00008,  -0.99135,   1.00000
-443963403.39146,-481332570.23562,61863818.44132,  -0.00156,  -0.00220,   0.00089,475995689.86705,   0.00125,275995691.88793,  -0.00048,  -0.00087,   0.00009,  -2.02088,   1.00000
-443283196.10088,-481389774.82301,62551630.46799,  -0.00156,  -0.00220,   0.00091,476006542.72640,   0.00126,276006547.34632,  -0.00049,  -0.00088,   0.00009,  -4.61991,   1.00000
-442600549.10076,-481439372.57984,63242481.66890,  -0.00157,  -0.00221,   0.00092,476017456.96426,   0.00127,276017458.12020,  -0.00049,  -0.00089,   0.00010,  -1.15594,   1.00000
-441891820.36524,-481494779.97109,63942403.24574,  -0.00157,  -0.00222,   0.00093,476028247.08818,   0.00128,276028255.35301,  -0.00050,  -0.00089,   0.00010,  -8.26483,   1.00000
-441173896.97672,-481550175.93938,64641861.96642,  -0.00157,  -0.00223,   0.00095,476039202.76310,   0.00129,276039204.09330,  -0.00050,  -0.00090,   0.00011,  -1.33020,   1.00000
-440444643.78550,-481607721.63298,65339522.73346,  -0.00157,  -0.00224,   0.00096,476050102.47869,   0.00130,276050110.61502,  -0.00051,  -0.00091,   0.00011,  -8.13633,   1.00000
-439688906.14977,-481670507.05433,66046320.62821,  -0.00157,  -0.00225,   0.00098,476060902.18732,   0.00131,276060905.86284,  -0.00051,  -0.00091,   0.00012,  -3.67552,   1.00000
-438930634.02883,-481725053.19926,66755962.50456,  -0.00157,  -0.00226,   0.00099,476071760.27379,   0.00132,276071760.89126,  -0.00052,  -0.00092,   0.00012,  -0.61747,   1.00000
-438142126.72542,-481795787.74475,67463456.16550,  -0.00158,  -0.00226,   0.00101,476082584.18431,   0.00133,276082585.71937,  -0.00052,  -0.00093,   0.00013,  -1.53506,   1.00000
-437338879.46450,-481864529.00178,68176940.76220,  -0.00158,  -0.00227,   0.00102,476093386.20602,   0.00134,276093386.99056,  -0.00053,  -0.00093,   0.00013,  -0.78453,   1.00000
-436533082.36995,-481924645.34402,68893163.11950,  -0.00158,  -0.00228,   0.00103,476104241.38536,   0.00135,276104250.64269,  -0.00053,  -0.00094,   0.00014,  -9.25733,   1.00000
-435703205.10398,-481992643.32662,69610882.06418,  -0.00158,  -0.00229,   0.00105,476114982.25762,   0.00136,276114990.79852,  -0.00054,  -0.00095,   0.00014,  -8.54090,   1.00000
-434854995.08809,-482054496.35614,70342258.34964,  -0.00158,  -0.00230,   0.00106,476125717.11080,   0.00137,276125726.83558,  -0.00054,  -0.00095,   0.00015,  -9.72477,   1.00000
-433991835.04860,-482128958.93901,71060434.61568,  -0.00158,  -0.00231,   0.00108,476136503.97734,   0.00138,276136505.48806,  -0.00055,  -0.00096,   0.00016,  -1.51072,   1.00000
-433110154.31234,-482196850.46086,71792230.56237,  -0.00158,  -0.00232,   0.00109,476147276.75181,   0.00139,276147282.11297,  -0.00055,  -0.00097,   0.00016,  -5.36115,   1.00000
-432210227.15330,-482273324.92774,72518432.29577,  -0.00158,  -0.00233,   0.00111,476158110.44618,   0.00140,276158120.28760,  -0.00056,  -0.00097,   0.00017,  -9.84142,   1.00000
-431301139.42259,-482338863.08886,73254384.65287,  -0.00158,  -0.00234,   0.00112,476168840.94580,   0.00141,276168844.15385,  -0.00056,  -0.00098,   0.00017,  -3.20805,   1.00000
-430370329.27765,-482408856.25690,73992308.16438,  -0.00158,  -0.00234,   0.00114,476179642.15870,   0.00142,276179649.26016,  -0.00057,  -0.00099,   0.00018,  -7.10146,   1.00000
-429414343.16455,-482485359.87811,74731877.84144,  -0.00158,  -0.00235,   0.00115,476190326.87646,   0.00143,276190336.37742,  -0.00057,  -0.00099,   0.00018,  -9.50096,   1.00000
-428455666.33307,-482552033.90124,75473849.10176,  -0.00158,  -0.00236,   0.00117,476201087.67653,   0.00144,276201094.24635,  -0.00058,  -0.00100,   0.00019,  -6.56981,   1.00000
-427481155.22975,-482614887.70653,76221639.83921,  -0.00158,  -0.00237,   0.00119,476211836.60638,   0.00145,276211838.79318,  -0.00058,  -0.00101,   0.00019,  -2.18681,   1.00000
-426474961.33255,-482691478.73222,76967093.54501,  -0.00158,  -0.00238,   0.00120,476222560.38823,   0.00146,276222565.96596,  -0.00059,  -0.00102,   0.00020,  -5.57773,   1.00000
-425452735.53441,-482763764.67248,77718337.31587,  -0.00158,  -0.00239,   0.00122,476233281.30559,   0.00147,276233282.03287,  -0.00059,  -0.00102,   0.00021,  -0.72728,   1.00000
-424431298.26273,-482829820.60567,78464257.60959,  -0.00158,  -0.00240,   0.00123,476244048.96874,   0.00148,276244053.59849,  -0.00059,  -0.00103,   0.00021,  -4.62975,   1.00000
-423376576.21173,-482893038.48962,79227041.52711,  -0.00158,  -0.00241,   0.00125,476254745.82591,   0.00149,276254750.21712,  -0.00060,  -0.00104,   0.00022,  -4.39120,   1.00000
-422308993.31661,-482955603.72500,79987995.35089,  -0.00158,  -0.00242,   0.00126,476265413.79834,   0.00150,276265419.52332,  -0.00060,  -0.00104,   0.00022,  -5.72497,   1.00000
-421222791.41732,-483025145.69595,80742906.55222,  -0.00158,  -0.00243,   0.00128,476276161.55408,   0.00151,276276161.61023,  -0.00061,  -0.00105,   0.00023,  -0.05615,   1.00000
-420120026.93942,-483089508.61928,81503515.09593,  -0.00158,  -0.00243,   0.00130,476286890.34792,   0.00152,276286897.51053,  -0.00061,  -0.00106,   0.00024,  -7.16261,   1.00000
-419000586.77668,-483148533.48273,82269782.45957,  -0.00158,  -0.00244,   0.00131,476297626.92459,   0.00153,276297628.34694,  -0.00062,  -0.00106,   0.00024,  -1.42235,   1.00000
-417864320.28798,-483202015.71181,83041660.28159,  -0.00158,  -0.00245,   0.00133,476308354.24907,   0.00154,276308355.46121,  -0.00062,  -0.00107,   0.00025,  -1.21213,   1.00000
-416700663.12201,-483259646.24313,83815375.92377,  -0.00158,  -0.00246,   0.00134,476318974.01580,   0.00155,276318974.60189,  -0.00062,  -0.00108,   0.00025,  -0.58609,   1.00000
-415532393.91721,-483317982.61215,84579089.58149,  -0.00158,  -0.00247,   0.00136,476329750.86182,   0.00156,276329756.83284,  -0.00063,  -0.00108,   0.00026,  -5.97102,   1.00000
-414329001.60510,-483371144.29533,85359512.93324,  -0.00158,  -0.00248,   0.00138,476340466.92724,   0.00157,276340475.08094,  -0.00063,  -0.00109,   0.00027,  -8.15370,   1.00000
-413126476.54948,-483417114.04407,86134268.64776,  -0.00157,  -0.00249,   0.00139,476351256.37978,   0.00158,276351257.22280,  -0.00064,  -0.00110,   0.00027,  -0.84301,   1.00000
-411895829.77826,-483466444.72875,86910925.50877,  -0.00157,  -0.00250,   0.00141,476361934.10500,   0.00159,276361934.60964,  -0.00064,  -0.00110,   0.00028,  -0.50464,   1.00000
-410647654.26509,-483509058.12324,87693066.80443,  -0.00157,  -0.00251,   0.00143,476372613.19592,   0.00160,276372614.67619,  -0.00065,  -0.00111,   0.00029,  -1.48027,   1.00000
-409381812.98700,-483544759.06150,88480639.10701,  -0.00157,  -0.00252,   0.00144,476383294.40249,   0.00161,276383298.77932,  -0.00065,  -0.00112,   0.00029,  -4.37683,   1.00000
-408093146.24530,-483581015.22136,89268893.54100,  -0.00157,  -0.00253,   0.00146,476394083.07706,   0.00162,276394091.42256,  -0.00065,  -0.00112,   0.00030,  -8.34551,   1.00000
-406790482.92285,-483614658.31115,90055167.99396,  -0.00157,  -0.00254,   0.00147,476404863.71816,   0.00163,276404867.90759,  -0.00066,  -0.00113,   0.00030,  -4.18943,   1.00000
-405458641.16051,-483650473.26891,90843350.78152,  -0.00156,  -0.00255,   0.00149,476415542.81988,   0.00164,276415544.82186,  -0.00066,  -0.00114,   0.00031,  -2.00198,   1.00000
-404123856.96529,-483673660.05407,91632954.71928,  -0.00156,  -0.00255,   0.00151,476426312.62011,   0.00165,276426314.46324,  -0.00067,  -0.00114,   0.00032,  -1.84313,   1.00000
-402755574.42162,-483693773.84179,92431719.17208,  -0.00156,  -0.00256,   0.00153,476437009.45719,   0.00166,276437010.11777,  -0.00067,  -0.00115,   0.00032,  -0.66058,   1.00000
-401388210.38741,-483705882.30178,93224532.90306,  -0.00156,  -0.00257,   0.00154,476447770.65839,   0.00167,276447777.09957,  -0.00067,  -0.00116,   0.00033,  -6.44118,   1.00000
-399982274.62213,-483722084.51305,94021545.39138,  -0.00155,  -0.00258,   0.00156,476458569.45007,   0.00168,276458577.46868,  -0.00068,  -0.00116,   0.00034,  -8.01861,   1.00000
-398557791.62119,-483729697.83758,94823664.64763,  -0.00155,  -0.00259,   0.00158,476469386.05947,   0.00169,276469391.98981,  -0.00068,  -0.00117,   0.00034,  -5.93035,   1.00000
-397118575.51335,-483733521.43073,95623663.10555,  -0.00155,  -0.00260,   0.00159,476480189.14963,   0.00170,276480197.24845,  -0.00068,  -0.00118,   0.00035,  -8.09882,   1.00000
-395668932.08213,-483725805.97633,96426621.25722,  -0.00154,  -0.00261,   0.00161,476490887.60698,   0.00171,276490887.62793,  -0.00069,  -0.00118,   0.00036,  -0.02095,   1.00000
-394191673.12697,-483724331.77089,97224429.64134,  -0.00154,  -0.00262,   0.00163,476501804.60738,   0.00172,276501807.81381,  -0.00069,  -0.00119,   0.00036,  -3.20642,   1.00000
-392683591.17811,-483710098.57128,98036335.29278,  -0.00154,  -0.00263,   0.00164,476512552.57045,   0.00173,276512557.22467,  -0.00069,  -0.00120,   0.00037,  -4.65422,   1.00000
-391176531.27561,-483687191.16794,98842015.01607,  -0.00153,  -0.00264,   0.00166,476523379.96634,   0.00174,276523384.39725,  -0.00070,  -0.00120,   0.00038,  -4.43091,   1.00000
-389629769.15371,-483666358.69860,99651392.89592,  -0.00153,  -0.00265,   0.00168,476534250.79282,   0.00175,276534257.31611,  -0.00070,  -0.00121,   0.00038,  -6.52329,   1.00000
-388071659.06329,-483633024.71702,100463766.62465,  -0.00153,  -0.00266,   0.00170,476545013.71704,   0.00176,276545019.46124,  -0.00070,  -0.00121,   0.00039,  -5.74420,   1.00000
-386494108.22350,-483602441.53746,101268596.17747,  -0.00152,  -0.00267,   0.00171,476555881.81346,   0.00177,276555886.96915,  -0.00071,  -0.00122,   0.00040,  -5.15569,   1.00000
-384892935.06338,-483556123.02552,102085190.52041,  -0.00152,  -0.00268,   0.00173,476566803.80486,   0.00178,276566806.93930,  -0.00071,  -0.00123,   0.00040,  -3.13444,   1.00000
-383280167.32449,-483509874.05038,102892428.47016,  -0.00152,  -0.00269,   0.00175,476577690.46493,   0.00179,276577699.58793,  -0.00071,  -0.00123,   0.00041,  -9.12300,   1.00000
-381647614.57991,-483452859.36372,103704336.98009,  -0.00151,  -0.00270,   0.00177,476588613.93127,   0.00180,276588619.95657,  -0.00072,  -0.00124,   0.00042,  -6.02530,   1.00000
-379995152.60181,-483384858.21580,104520833.21597,  -0.00151,  -0.00271,   0.00178,476599567.68606,   0.00181,276599569.74333,  -0.00072,  -0.00125,   0.00043,  -2.05727,   1.00000
-378309489.51753,-483314628.39795,105339008.51881,  -0.00150,  -0.00272,   0.00180,476610438.07711,   0.00182,276610440.64775,  -0.00072,  -0.00125,   0.00043,  -2.57064,   1.00000
-376617606.79337,-483237160.21904,106151992.26520,  -0.00150,  -0.00273,   0.00182,476621535.76357,   0.00183,276621535.88104,  -0.00073,  -0.00126,   0.00044,  -0.11747,   1.00000
-374895479.73865,-483149240.58789,106972179.78084,  -0.00149,  -0.00274,   0.00184,476632442.05022,   0.00184,276632444.36364,  -0.00073,  -0.00127,   0.00045,  -2.31342,   1.00000
-373149717.33079,-483057113.34606,107791095.66459,  -0.00149,  -0.00275,   0.00186,476643495.61521,   0.00185,276643499.10763,  -0.00073,  -0.00127,   0.00046,  -3.49242,   1.00000
-371387645.21341,-482958457.23263,108607421.58807,  -0.00148,  -0.00275,   0.00187,476654556.60697,   0.00186,276654561.66545,  -0.00074,  -0.00128,   0.00046,  -5.05848,   1.00000
-369612197.76090,-482845400.83168,109426854.28224,  -0.00148,  -0.00276,   0.00189,476665519.38663,   0.00187,276665521.30451,  -0.00074,  -0.00129,   0.00047,  -1.91787,   1.00000
-367813105.06304,-482727615.86460,110244759.62329,  -0.00147,  -0.00277,   0.00191,476676629.54753,   0.00188,276676631.97515,  -0.00074,  -0.00129,   0.00048,  -2.42762,   1.00000
-365979259.72877,-482605704.12144,111064140.50628,  -0.00147,  -0.00278,   0.00193,476687671.10774,   0.00189,276687673.07086,  -0.00074,  -0.00130,   0.00048,  -1.96312,   1.00000
-364142825.07553,-482467960.64591,111883417.45964,  -0.00146,  -0.00279,   0.00195,476698837.01676,   0.00190,276698837.33095,  -0.00075,  -0.00131,   0.00049,  -0.31419,   1.00000
-362271193.39855,-482325583.65581,112704096.90492,  -0.00146,  -0.00280,   0.00196,476709934.65119,   0.00191,276709934.70221,  -0.00075,  -0.00132,   0.00050,  -0.05101,   1.00000
-360378476.84281,-482169713.48043,113528687.83257,  -0.00145,  -0.00281,   0.00198,476721072.67089,   0.00192,276721078.17362,  -0.00075,  -0.00132,   0.00051,  -5.50272,   1.00000
-358485024.14425,-482011460.30777,114340326.65348,  -0.00145,  -0.00282,   0.00200,476732421.08669,   0.00193,276732430.45801,  -0.00075,  -0.00133,   0.00051,  -9.37133,   1.00000
-356558175.27060,-481839974.82463,115159241.72460,  -0.00144,  -0.00283,   0.00202,476743604.42397,   0.00194,276743605.90643,  -0.00076,  -0.00134,   0.00052,  -1.48247,   1.00000
-354591003.90466,-481656654.55041,115986051.12378,  -0.00143,  -0.00284,   0.00204,476754746.60908,   0.00195,276754752.78664,  -0.00076,  -0.00134,   0.00053,  -6.17756,   1.00000
-352623471.44647,-481470655.30918,116799642.70423,  -0.00143,  -0.00285,   0.00206,476766106.46269,   0.00197,276766112.88097,  -0.00076,  -0.00135,   0.00054,  -6.41829,   1.00000
-350636586.28668,-481262298.56659,117622910.95740,  -0.00142,  -0.00286,   0.00208,476777404.80520,   0.00198,276777411.50502,  -0.00076,  -0.00136,   0.00055,  -6.69982,   1.00000
-348610994.15329,-481055231.25778,118441139.22641,  -0.00142,  -0.00287,   0.00209,476788767.41945,   0.00199,276788768.92468,  -0.00077,  -0.00136,   0.00055,  -1.50523,   1.00000
-346589243.81696,-480829485.36609,119258218.00331,  -0.00141,  -0.00288,   0.00211,476800102.63534,   0.00200,276800112.41902,  -0.00077,  -0.00137,   0.00056,  -9.78367,   1.00000
-344528596.50526,-480604589.79722,120070143.61793,  -0.00140,  -0.00289,   0.00213,476811512.98234,   0.00201,276811517.59633,  -0.00077,  -0.00138,   0.00057,  -4.61399,   1.00000
-342447777.44878,-480356288.68790,120891606.92373,  -0.00140,  -0.00290,   0.00215,476822863.11660,   0.00202,276822866.61412,  -0.00077,  -0.00138,   0.00058,  -3.49752,   1.00000
-340343573.11772,-480100388.24236,121710016.73660,  -0.00139,  -0.00291,   0.00217,476834387.90157,   0.00203,276834393.76935,  -0.00078,  -0.00139,   0.00059,  -5.86778,   1.00000
-338225755.26251,-479841220.35321,122518598.96304,  -0.00138,  -0.00292,   0.00219,476845908.43217,   0.00204,276845914.70200,  -0.00078,  -0.00140,   0.00059,  -6.26982,   1.00000
-336086028.37627,-479566085.86049,123330291.89909,  -0.00137,  -0.00293,   0.00221,476857495.20819,   0.00205,276857499.92008,  -0.00078,  -0.00140,   0.00060,  -4.71189,   1.00000
-333928448.78300,-479281122.92543,124138566.39273,  -0.00137,  -0.00294,   0.00222,476869114.94449,   0.00206,276869115.78214,  -0.00078,  -0.00141,   0.00061,  -0.83765,   1.00000
-331749850.19726,-478971666.19332,124956180.06656,  -0.00136,  -0.00295,   0.00224,476880679.44091,   0.00207,276880681.73027,  -0.00078,  -0.00142,   0.00062,  -2.28936,   1.00000
-329531640.08623,-478661104.41483,125767920.72442,  -0.00135,  -0.00296,   0.00226,476892320.72269,   0.00208,276892323.87457,  -0.00079,  -0.00142,   0.00063,  -3.15188,   1.00000
-327316085.90566,-478339251.13628,126571938.03732,  -0.00134,  -0.00297,   0.00228,476904072.48085,   0.00210,276904076.21146,  -0.00079,  -0.00143,   0.00063,  -3.73062,   1.00000
-325061551.52865,-478007615.99318,127376435.39269,  -0.00134,  -0.00298,   0.00230,476915783.77370,   0.00211,276915789.56110,  -0.00079,  -0.00144,   0.00064,  -5.78739,   1.00000
-322784742.22667,-477658661.49821,128183534.47326,  -0.00133,  -0.00299,   0.00232,476927577.65172,   0.00212,276927577.77099,  -0.00079,  -0.00144,   0.00065,  -0.11926,   1.00000
-320489670.48053,-477298711.59430,128986832.92631,  -0.00132,  -0.00300,   0.00234,476939400.11257,   0.00213,276939405.39429,  -0.00079,  -0.00145,   0.00066,  -5.28173,   1.00000
-318176304.80571,-476927641.61554,129786300.40368,  -0.00131,  -0.00301,   0.00236,476951268.92091,   0.00214,276951273.36965,  -0.00080,  -0.00146,   0.00067,  -4.44874,   1.00000
-315844601.08781,-476545302.61195,130581897.76156,  -0.00131,  -0.00302,   0.00238,476963177.34508,   0.00215,276963182.78544,  -0.00080,  -0.00147,   0.00068,  -5.44035,   1.00000
-313490514.40750,-476144910.39326,131379790.53878,  -0.00130,  -0.00303,   0.00239,476975170.74920,   0.00216,276975173.37191,  -0.00080,  -0.00147,   0.00069,  -2.62270,   1.00000
-311100274.14623,-475739509.22804,132171495.42500,  -0.00129,  -0.00304,   0.00241,476987087.95941,   0.00217,276987097.49253,  -0.00080,  -0.00148,   0.00069,  -9.53312,   1.00000
-308709401.13011,-475315694.35488,132961310.67360,  -0.00128,  -0.00305,   0.00243,476999172.64316,   0.00218,276999178.33305,  -0.00080,  -0.00149,   0.00070,  -5.68989,   1.00000
-306274081.67043,-474872920.17631,133757134.87689,  -0.00127,  -0.00306,   0.00245,477011267.44985,   0.00220,277011274.51001,  -0.00080,  -0.00149,   0.00071,  -7.06016,   1.00000
-303846299.34768,-474425108.06788,134538621.39699,  -0.00126,  -0.00307,   0.00247,477023443.16675,   0.00221,277023450.91873,  -0.00081,  -0.00150,   0.00072,  -7.75198,   1.00000
-301373167.48469,-473949142.67723,135332758.21669,  -0.00125,  -0.00308,   0.00249,477035520.59418,   0.00222,277035525.21066,  -0.00081,  -0.00151,   0.00073,  -4.61648,   1.00000
-298885945.03895,-473476057.32448,136109622.55336,  -0.00124,  -0.00309,   0.00251,477047727.39158,   0.00223,277047732.51631,  -0.00081,  -0.00151,   0.00074,  -5.12473,   1.00000
-296398759.73884,-472984315.59173,136884276.46979,  -0.00124,  -0.00310,   0.00253,477060099.44992,   0.00224,277060102.39985,  -0.00081,  -0.00152,   0.00075,  -2.94993,   1.00000
-293870329.41545,-472478970.83754,137658428.72256,  -0.00123,  -0.00311,   0.00255,477072454.23273,   0.00225,277072456.70651,  -0.00081,  -0.00153,   0.00076,  -2.47379,   1.00000
-291319403.49484,-471953731.23798,138434061.07431,  -0.00122,  -0.00312,   0.00257,477084906.08823,   0.00227,277084908.37945,  -0.00081,  -0.00154,   0.00077,  -2.29122,   1.00000
-288730699.02516,-471420995.26025,139202942.15930,  -0.00121,  -0.00313,   0.00259,477097301.55651,   0.00228,277097308.05698,  -0.00081,  -0.00154,   0.00078,  -6.50047,   1.00000
-286142554.38252,-470869195.97718,139969261.50528,  -0.00120,  -0.00314,   0.00260,477109871.13116,   0.00229,277109876.66180,  -0.00081,  -0.00155,   0.00078,  -5.53064,   1.00000
-283538001.40060,-470302017.41206,140731933.49939,  -0.00119,  -0.00315,   0.00262,477122335.53654,   0.00230,277122339.60278,  -0.00082,  -0.00156,   0.00079,  -4.06624,   1.00000
-280912586.32092,-469723239.55615,141488745.68302,  -0.00118,  -0.00315,   0.00264,477135021.05666,   0.00231,277135029.47261,  -0.00082,  -0.00157,   0.00080,  -8.41595,   1.00000
-278245051.71240,-469128949.70063,142244471.00903,  -0.00117,  -0.00316,   0.00266,477147712.95515,   0.00232,277147716.40749,  -0.00082,  -0.00157,   0.00081,  -3.45234,   1.00000
-275580483.29298,-468513420.59521,142998573.90482,  -0.00116,  -0.00317,   0.00268,477160402.36945,   0.00234,277160409.95381,  -0.00082,  -0.00158,   0.00082,  -7.58436,   1.00000
-272875520.45905,-467890941.12774,143744312.40720,  -0.00115,  -0.00318,   0.00270,477173218.47014,   0.00235,277173228.24173,  -0.00082,  -0.00159,   0.00083,  -9.77160,   1.00000
-270149650.49807,-467244892.26871,144492079.83799,  -0.00114,  -0.00319,   0.00272,477185982.69412,   0.00236,277185990.45478,  -0.00082,  -0.00159,   0.00084,  -7.76067,   1.00000
-267431422.14563,-466595964.96144,145223913.88522,  -0.00113,  -0.00320,   0.00274,477199007.84107,   0.00237,277199009.21115,  -0.00082,  -0.00160,   0.00085,  -1.37008,   1.00000
-264667973.23600,-465920811.18922,145961392.13186,  -0.00112,  -0.00321,   0.00276,477211908.43205,   0.00239,277211910.11978,  -0.00082,  -0.00161,   0.00086,  -1.68774,   1.00000
-261888479.13042,-465240243.95761,146686403.29301,  -0.00111,  -0.00322,   0.00278,477225002.39590,   0.00240,277225007.60050,  -0.00082,  -0.00162,   0.00087,  -5.20459,   1.00000
-259087627.23362,-464535342.70328,147413289.74571,  -0.00110,  -0.00323,   0.00280,477238051.16505,   0.00241,277238053.53141,  -0.00082,  -0.00162,   0.00088,  -2.36636,   1.00000
-256264624.17991,-463808166.87819,148140446.85949,  -0.00108,  -0.00324,   0.00282,477251216.53020,   0.00242,277251220.36538,  -0.00082,  -0.00163,   0.00089,  -3.83518,   1.00000
-253426514.11786,-463073007.36200,148856401.42159,  -0.00107,  -0.00325,   0.00284,477264407.74475,   0.00243,277264417.66966,  -0.00082,  -0.00164,   0.00090,  -9.92491,   1.00000
-250569851.34696,-462322541.87404,149566820.59528,  -0.00106,  -0.00326,   0.00285,477277690.66459,   0.00245,277277692.38693,  -0.00082,  -0.00165,   0.00091,  -1.72234,   1.00000
-247694675.55423,-461556621.38575,150271631.23333,  -0.00105,  -0.00327,   0.00287,477291042.15297,   0.00246,277291046.03597,  -0.00082,  -0.00165,   0.00092,  -3.88300,   1.00000
-244801045.56364,-460775130.15093,150970771.36524,  -0.00104,  -0.00328,   0.00289,477304473.33314,   0.00247,277304479.94014,  -0.00082,  -0.00166,   0.00093,  -6.60700,   1.00000
-241885692.09954,-459970654.20616,151669749.68953,  -0.00103,  -0.00329,   0.00291,477318038.25944,   0.00249,277318043.18254,  -0.00082,  -0.00167,   0.00094,  -4.92310,   1.00000
-238930075.99481,-459153840.80977,152360617.19748,  -0.00102,  -0.00330,   0.00293,477331584.63028,   0.00250,277331585.62448,  -0.00082,  -0.00168,   0.00095,  -0.99420,   1.00000
-235977528.46812,-458314803.09328,153049580.52645,  -0.00101,  -0.00331,   0.00295,477345137.69391,   0.00251,277345144.47252,  -0.00083,  -0.00169,   0.00096,  -6.77861,   1.00000
-233010779.19282,-457469725.64768,153725222.76493,  -0.00099,  -0.00332,   0.00297,477358909.22481,   0.00252,277358915.37525,  -0.00083,  -0.00169,   0.00097,  -6.15044,   1.00000
-230025910.58690,-456608476.23143,154394858.65168,  -0.00098,  -0.00333,   0.00299,477372764.94905,   0.00254,277372773.55912,  -0.00083,  -0.00170,   0.00098,  -8.61007,   1.00000
-226995988.87210,-455723685.38653,155063484.84479,  -0.00097,  -0.00334,   0.00301,477386489.92843,   0.00255,277386491.47311,  -0.00083,  -0.00171,   0.00099,  -1.54468,   1.00000
-223970614.77726,-454819352.71213,155728212.59391,  -0.00096,  -0.00335,   0.00303,477400396.35377,   0.00256,277400403.73494,  -0.00083,  -0.00172,   0.00100,  -7.38117,   1.00000
-220901283.26938,-453893736.34408,156389756.93562,  -0.00095,  -0.00336,   0.00305,477414348.58962,   0.00258,277414355.89791,  -0.00083,  -0.00172,   0.00101,  -7.30829,   1.00000
-217843071.07306,-452963447.00512,157036444.08387,  -0.00093,  -0.00337,   0.00307,477428396.58883,   0.00259,277428404.58442,  -0.00082,  -0.00173,   0.00103,  -7.99559,   1.00000
-214766996.53046,-452016372.07541,157676795.97850,  -0.00092,  -0.00338,   0.00309,477442541.86220,   0.00260,277442547.52455,  -0.00082,  -0.00174,   0.00104,  -5.66235,   1.00000
-211643958.25136,-451039815.41270,158319040.10089,  -0.00091,  -0.00339,   0.00311,477456787.22196,   0.00262,277456787.23365,  -0.00082,  -0.00175,   0.00105,  -0.01169,   1.00000
-208532542.39207,-450058741.68484,158946398.58182,  -0.00090,  -0.00340,   0.00312,477471121.05395,   0.00263,277471124.68579,  -0.00082,  -0.00176,   0.00106,  -3.63183,   1.00000
-205377102.70857,-449055103.21456,159570057.67107,  -0.00088,  -0.00341,   0.00314,477485511.71816,   0.00264,277485512.58768,  -0.00082,  -0.00176,   0.00107,  -0.86952,   1.00000
-202227953.67988,-448036208.49775,160186328.25512,  -0.00087,  -0.00342,   0.00316,477499867.05252,   0.00266,277499871.94510,  -0.00082,  -0.00177,   0.00108,  -4.89258,   1.00000
-199031871.57175,-446986715.45349,160803949.15827,  -0.00086,  -0.00343,   0.00318,477514332.08179,   0.00267,277514338.32914,  -0.00082,  -0.00178,   0.00109,  -6.24736,   1.00000
-195853870.20812,-445943902.80130,161399197.83048,  -0.00084,  -0.00343,   0.00320,477529021.99005,   0.00269,277529030.25877,  -0.00082,  -0.00179,   0.00110,  -8.26872,   1.00000
-192625797.85423,-444866416.50827,161997798.46314,  -0.00083,  -0.00344,   0.00322,477543650.61023,   0.00270,277543654.83441,  -0.00082,  -0.00180,   0.00111,  -4.22418,   1.00000
-189407579.67397,-443777235.53521,162586755.83405,  -0.00082,  -0.00345,   0.00324,477558429.34454,   0.00271,277558431.57839,  -0.00082,  -0.00180,   0.00113,  -2.23385,   1.00000
-186138927.47228,-442652638.16886,163178773.73443,  -0.00080,  -0.00346,   0.00326,477573143.80027,   0.00273,277573146.40403,  -0.00082,  -0.00181,   0.00114,  -2.60376,   1.00000
-182889517.19766,-441535251.53404,163748373.63901,  -0.00079,  -0.00347,   0.00328,477588080.33437,   0.00274,277588088.27893,  -0.00082,  -0.00182,   0.00115,  -7.94456,   1.00000
-179596126.83881,-440393266.60361,164313365.31502,  -0.00078,  -0.00348,   0.00330,477603097.91798,   0.00276,277603098.61539,  -0.00082,  -0.00183,   0.00116,  -0.69742,   1.00000
-176306653.01641,-439228273.58676,164876152.71469,  -0.00076,  -0.00349,   0.00331,477618134.69715,   0.00277,277618136.90628,  -0.00082,  -0.00184,   0.00117,  -2.20912,   1.00000
-173000621.11397,-438045107.10909,165431652.22531,  -0.00075,  -0.00350,   0.00333,477633279.65733,   0.00278,277633288.94366,  -0.00082,  -0.00185,   0.00118,  -9.28633,   1.00000
-169652989.07535,-436844049.21687,165976993.08545,  -0.00073,  -0.00351,   0.00335,477648456.53475,   0.00280,277648462.89098,  -0.00081,  -0.00185,   0.00119,  -6.35623,   1.00000
-166316683.59618,-435631679.64213,166512569.40360,  -0.00072,  -0.00352,   0.00337,477663784.08972,   0.00281,277663792.99953,  -0.00081,  -0.00186,   0.00121,  -8.90981,   1.00000
-162964272.64781,-434400910.01412,167040690.85084,  -0.00071,  -0.00353,   0.00339,477679237.19008,   0.00283,277679240.73552,  -0.00081,  -0.00187,   0.00122,  -3.54544,   1.00000
-159598071.58365,-433159130.30888,167556213.00196,  -0.00069,  -0.00354,   0.00341,477694743.83093,   0.00284,277694752.46279,  -0.00081,  -0.00188,   0.00123,  -8.63187,   1.00000
-156180482.88899,-431878918.87676,168073758.66085,  -0.00068,  -0.00355,   0.00343,477710216.29959,   0.00286,277710223.50094,  -0.00081,  -0.00189,   0.00124,  -7.20134,   1.00000
-152775081.02267,-430587632.22161,168581444.55288,  -0.00066,  -0.00356,   0.00345,477725846.42898,   0.00287,277725853.31987,  -0.00081,  -0.00190,   0.00125,  -6.89089,   1.00000
-149356102.92902,-429285041.99302,169076347.39160,  -0.00065,  -0.00357,   0.00347,477741546.84845,   0.00289,277741551.11736,  -0.00081,  -0.00190,   0.00127,  -4.26891,   1.00000
-145921708.85721,-427963598.48454,169563455.47391,  -0.00063,  -0.00358,   0.00348,477757368.77714,   0.00290,277757373.90901,  -0.00080,  -0.00191,   0.00128,  -5.13187,   1.00000
-142472101.26756,-426623250.08788,170042695.17965,  -0.00062,  -0.00358,   0.00350,477773315.30487,   0.00292,277773323.20733,  -0.00080,  -0.00192,   0.00129,  -7.90245,   1.00000
-139009295.51640,-425271396.90629,170509025.84354,  -0.00060,  -0.00359,   0.00352,477789338.16245,   0.00293,277789343.77926,  -0.00080,  -0.00193,   0.00130,  -5.61681,   1.00000
-135552989.35906,-423903838.41828,170968122.33387,  -0.00059,  -0.00360,   0.00354,477805338.20235,   0.00295,277805340.83703,  -0.00080,  -0.00194,   0.00132,  -2.63468,   1.00000
-132051805.64351,-422501112.32864,171425920.21408,  -0.00057,  -0.00361,   0.00356,477821486.42249,   0.00296,277821495.44886,  -0.00080,  -0.00195,   0.00133,  -9.02638,   1.00000
-128537718.75809,-421086609.26844,171870610.42468,  -0.00056,  -0.00362,   0.00358,477837718.97689,   0.00298,277837725.57122,  -0.00079,  -0.00196,   0.00134,  -6.59433,   1.00000
-125039268.83163,-419669319.93456,172300597.16554,  -0.00054,  -0.00363,   0.00359,477854056.46432,   0.00299,277854058.36861,  -0.00079,  -0.00196,   0.00135,  -1.90429,   1.00000
-121498065.88774,-418223699.75461,172723996.46626,  -0.00053,  -0.00364,   0.00361,477870494.26401,   0.00301,277870498.57884,  -0.00079,  -0.00197,   0.00137,  -4.31484,   1.00000
-117962059.13938,-416754801.06196,173145023.23183,  -0.00051,  -0.00365,   0.00363,477886968.14723,   0.00303,277886975.62508,  -0.00079,  -0.00198,   0.00138,  -7.47785,   1.00000
-114384945.74950,-415264516.26592,173554253.63484,  -0.00050,  -0.00366,   0.00365,477903506.97933,   0.00304,277903507.78540,  -0.00079,  -0.00199,   0.00139,  -0.80607,   1.00000
-110824158.60938,-413771695.22228,173948798.56855,  -0.00048,  -0.00367,   0.00367,477920143.42308,   0.00306,277920143.82782,  -0.00078,  -0.00200,   0.00141,  -0.40473,   1.00000
-107248563.00159,-412252142.80044,174339817.39116,  -0.00047,  -0.00368,   0.00369,477936972.18748,   0.00307,277936977.18105,  -0.00078,  -0.00201,   0.00142,  -4.99357,   1.00000
-103652201.02675,-410714199.39409,174720011.08995,  -0.00045,  -0.00368,   0.00370,477953709.50261,   0.00309,277953710.59466,  -0.00078,  -0.00202,   0.00143,  -1.09205,   1.00000
-100052748.10680,-409170525.07894,175084323.61618,  -0.00043,  -0.00369,   0.00372,477970706.89222,   0.00311,277970709.04866,  -0.00078,  -0.00203,   0.00145,  -2.15644,   1.00000
-96430216.83465,-407593449.94022,175447407.80929,  -0.00042,  -0.00370,   0.00374,477987720.67474,   0.00312,277987727.72171,  -0.00077,  -0.00204,   0.00146,  -7.04697,   1.00000
-92796043.06804,-406004101.70347,175796997.66232,  -0.00040,  -0.00371,   0.00376,478004827.65649,   0.00314,278004832.26524,  -0.00077,  -0.00205,   0.00147,  -4.60875,   1.00000
-89168736.95874,-404398768.64809,176139387.99164,  -0.00038,  -0.00372,   0.00377,478021916.14308,   0.00316,278021917.65878,  -0.00077,  -0.00205,   0.00149,  -1.51570,   1.00000
-85510733.42009,-402777514.29150,176466727.31687,  -0.00037,  -0.00373,   0.00379,478039254.08535,   0.00317,278039255.82809,  -0.00076,  -0.00206,   0.00150,  -1.74274,   1.00000
-81859750.07680,-401140249.34865,176786887.46998,  -0.00035,  -0.00374,   0.00381,478056574.59832,   0.00319,278056575.46488,  -0.00076,  -0.00207,   0.00151,  -0.86656,   1.00000
-78196826.83179,-399483404.66247,177098261.95971,  -0.00034,  -0.00375,   0.00383,478074034.93410,   0.00320,278074043.70408,  -0.00076,  -0.00208,   0.00153,  -8.76999,   1.00000
-74522955.70757,-397814198.48752,177396031.55979,  -0.00032,  -0.00376,   0.00385,478091595.39926,   0.00322,278091601.77846,  -0.00076,  -0.00209,   0.00154,  -6.37920,   1.00000
-70827074.59740,-396117835.69791,177687358.33366,  -0.00030,  -0.00376,   0.00386,478109128.43248,   0.00324,278109130.26618,  -0.00075,  -0.00210,   0.00155,  -1.83369,   1.00000
-67131279.06637,-394416583.98237,177962542.62995,  -0.00029,  -0.00377,   0.00388,478126929.08853,   0.00326,278126932.02986,  -0.00075,  -0.00211,   0.00157,  -2.94133,   1.00000
-63413606.51599,-392687881.52023,178231169.63754,  -0.00027,  -0.00378,   0.00390,478144698.25879,   0.00327,278144707.09747,  -0.00075,  -0.00212,   0.00158,  -8.83869,   1.00000
-59702675.00625,-390935984.64689,178497397.82035,  -0.00025,  -0.00379,   0.00391,478162516.87164,   0.00329,278162525.81667,  -0.00074,  -0.00213,   0.00159,  -8.94504,   1.00000
-55993257.66312,-389186774.26849,178742723.44113,  -0.00023,  -0.00380,   0.00393,478180549.98924,   0.00331,278180558.65307,  -0.00074,  -0.00214,   0.00161,  -8.66383,   1.00000
-52261955.68100,-387409788.82647,178981383.39280,  -0.00022,  -0.00381,   0.00395,478198567.62619,   0.00332,278198567.71969,  -0.00073,  -0.00215,   0.00162,  -0.09350,   1.00000
-48520776.61739,-385620183.37895,179206193.67439,  -0.00020,  -0.00382,   0.00397,478216666.76275,   0.00334,278216673.90080,  -0.00073,  -0.00216,   0.00164,  -7.13805,   1.00000
-44769736.06232,-383810924.46156,179421859.04340,  -0.00018,  -0.00382,   0.00398,478234933.60995,   0.00336,278234939.02598,  -0.00073,  -0.00217,   0.00165,  -5.41603,   1.00000
-40996984.91128,-381973357.04619,179630602.90807,  -0.00016,  -0.00383,   0.00400,478253178.57070,   0.00338,278253185.94985,  -0.00072,  -0.00218,   0.00166,  -7.37916,   1.00000
