# sigma_xx, sigma_yy, sigma_xy, epsilon_xx, epsilon_yy, epsilon_xy, vonMises, epsPlastic, hardening, epsilonP__xx, epsilonP__yy, epsilonP__xy, yieldValue, iteration
   0.00000,   0.00000,   0.00000,   0.00000,   0.00000,   0.00000,1181185.37500,   0.00000,274640576.00000,   0.00000,   0.00000,   0.00000,-473459392.00000,   0.00000
   0.00000,   0.00000,   0.00000,   0.00000,   0.00000,   0.00000,1181185.37500,   0.00000,274640576.00000,   0.00000,   0.00000,   0.00000,-473459392.00000,   0.00000
3088760.24192,2644866.55446,-801474.71347,   0.00001,   0.00001,  -0.00001,4235826.00000,   0.00000,274640576.00000,   0.00000,   0.00000,   0.00000,-470404736.00000,   0.00000
6165190.10364,5302063.48913,-1596784.23684,   0.00002,   0.00001,  -0.00002,7097274.50000,   0.00000,274640576.00000,   0.00000,   0.00000,   0.00000,-467543296.00000,   0.00000
9232372.18020,7937682.25843,-2392093.76021,   0.00003,   0.00002,  -0.00003,10258121.00000,   0.00000,274640576.00000,   0.00000,   0.00000,   0.00000,-464382448.00000,   0.00000
12277976.09139,10564053.24258,-3181238.09348,   0.00004,   0.00002,  -0.00004,13484518.00000,   0.00000,274640576.00000,   0.00000,   0.00000,   0.00000,-461156064.00000,   0.00000
15302001.83723,13181176.44158,-3970382.42674,   0.00004,   0.00003,  -0.00005,16628471.00000,   0.00000,274640576.00000,   0.00000,   0.00000,   0.00000,-458012112.00000,   0.00000
18326027.58306,15798299.64057,-4753361.56990,   0.00005,   0.00004,  -0.00006,19715676.00000,   0.00000,274640576.00000,   0.00000,   0.00000,   0.00000,-454924896.00000,   0.00000
21350053.32889,18415422.83956,-5536340.71307,   0.00006,   0.00004,  -0.00007,22792592.00000,   0.00000,274640576.00000,   0.00000,   0.00000,   0.00000,-451847984.00000,   0.00000
24352500.90937,21023298.25340,-6306989.47602,   0.00007,   0.00005,  -0.00008,25857626.00000,   0.00000,274640576.00000,   0.00000,   0.00000,   0.00000,-448782944.00000,   0.00000
27354948.48984,23631173.66724,-7083803.42908,   0.00008,   0.00005,  -0.00009,28943944.00000,   0.00000,274640576.00000,   0.00000,   0.00000,   0.00000,-445696640.00000,   0.00000
30335817.90495,26229801.29592,-7854452.19203,   0.00009,   0.00006,  -0.00010,32025546.00000,   0.00000,274640576.00000,   0.00000,   0.00000,   0.00000,-442615024.00000,   0.00000
33285861.36954,28797602.97409,-8618935.76488,   0.00010,   0.00007,  -0.00011,35085388.00000,   0.00000,274640576.00000,   0.00000,   0.00000,   0.00000,-439555184.00000,   0.00000
36245152.61928,31386982.81762,-9377254.14763,   0.00010,   0.00007,  -0.00012,38159792.00000,   0.00000,274640576.00000,   0.00000,   0.00000,   0.00000,-436480784.00000,   0.00000
39204443.86903,33976362.66114,-10135572.53038,   0.00011,   0.00008,  -0.00013,41238284.00000,   0.00000,274640576.00000,   0.00000,   0.00000,   0.00000,-433402288.00000,   0.00000
42132909.16825,36534916.55415,-10893890.91313,   0.00012,   0.00008,  -0.00014,44292248.00000,   0.00000,274640576.00000,   0.00000,   0.00000,   0.00000,-430348320.00000,   0.00000
45049044.08727,39105800.82737,-11646044.10577,   0.00013,   0.00009,  -0.00015,47341904.00000,   0.00000,274640576.00000,   0.00000,   0.00000,   0.00000,-427298672.00000,   0.00000
47955931.22114,41655106.93522,-12392032.10831,   0.00014,   0.00010,  -0.00016,50377180.00000,   0.00000,274640576.00000,   0.00000,   0.00000,   0.00000,-424263392.00000,   0.00000
50872066.14016,44225991.20844,-13131854.92075,   0.00015,   0.00010,  -0.00017,53423068.00000,   0.00000,274640576.00000,   0.00000,   0.00000,   0.00000,-421217504.00000,   0.00000
53757375.10866,46766049.53114,-13877842.92329,   0.00015,   0.00011,  -0.00018,56448080.00000,   0.00000,274640576.00000,   0.00000,   0.00000,   0.00000,-418192496.00000,   0.00000
56630353.69696,49318438.23404,-14611500.54562,   0.00016,   0.00011,  -0.00019,59462780.00000,   0.00000,274640576.00000,   0.00000,   0.00000,   0.00000,-415177792.00000,   0.00000
59494084.50010,51849248.77159,-15345158.16795,   0.00017,   0.00012,  -0.00020,62464764.00000,   0.00000,274640576.00000,   0.00000,   0.00000,   0.00000,-412175808.00000,   0.00000
62345484.92303,54392389.68934,-16072650.60018,   0.00018,   0.00013,  -0.00021,65458824.00000,   0.00000,274640576.00000,   0.00000,   0.00000,   0.00000,-409181760.00000,   0.00000
65187637.56080,56913952.44172,-16800143.03241,   0.00019,   0.00013,  -0.00022,68438032.00000,   0.00000,274640576.00000,   0.00000,   0.00000,   0.00000,-406202544.00000,   0.00000
68017459.81837,59447845.57432,-17521470.27454,   0.00019,   0.00014,  -0.00023,71407760.00000,   0.00000,274640576.00000,   0.00000,   0.00000,   0.00000,-403232816.00000,   0.00000
70838034.29079,61960160.54155,-18236632.32656,   0.00020,   0.00014,  -0.00024,74357120.00000,   0.00000,274640576.00000,   0.00000,   0.00000,   0.00000,-400283456.00000,   0.00000
73637030.59784,64463227.72363,-18951794.37858,   0.00021,   0.00015,  -0.00025,77288792.00000,   0.00000,274640576.00000,   0.00000,   0.00000,   0.00000,-397351776.00000,   0.00000
76445274.69005,66987873.07107,-19660791.24050,   0.00022,   0.00016,  -0.00026,80226192.00000,   0.00000,274640576.00000,   0.00000,   0.00000,   0.00000,-394414384.00000,   0.00000
79222692.83173,69481692.46799,-20369788.10242,   0.00022,   0.00016,  -0.00026,83133984.00000,   0.00000,274640576.00000,   0.00000,   0.00000,   0.00000,-391506592.00000,   0.00000
82009358.75858,71997090.03027,-21072619.77423,   0.00023,   0.00017,  -0.00027,86048720.00000,   0.00000,274640576.00000,   0.00000,   0.00000,   0.00000,-388591856.00000,   0.00000
84765198.73490,74481661.64204,-21769286.25594,   0.00024,   0.00017,  -0.00028,88930560.00000,   0.00000,274640576.00000,   0.00000,   0.00000,   0.00000,-385710016.00000,   0.00000
87508708.33102,76978563.63401,-22465952.73765,   0.00025,   0.00018,  -0.00029,91810272.00000,   0.00000,274640576.00000,   0.00000,   0.00000,   0.00000,-382830304.00000,   0.00000
90242970.14198,79453887.46062,-23156454.02926,   0.00026,   0.00019,  -0.00030,94672960.00000,   0.00000,274640576.00000,   0.00000,   0.00000,   0.00000,-379967616.00000,   0.00000
92986479.73810,81950789.45259,-23840790.13076,   0.00026,   0.00019,  -0.00031,97544928.00000,   0.00000,274640576.00000,   0.00000,   0.00000,   0.00000,-377095648.00000,   0.00000
95699163.38370,84416865.49405,-24525126.23227,   0.00027,   0.00020,  -0.00032,100390456.00000,   0.00000,274640576.00000,   0.00000,   0.00000,   0.00000,-374250112.00000,   0.00000
98399516.64910,86895271.91571,-25203297.14367,   0.00028,   0.00020,  -0.00033,103231168.00000,   0.00000,274640576.00000,   0.00000,   0.00000,   0.00000,-371409408.00000,   0.00000
101099869.91449,89373678.33737,-25881468.05507,   0.00029,   0.00021,  -0.00034,106073632.00000,   0.00000,274640576.00000,   0.00000,   0.00000,   0.00000,-368566944.00000,   0.00000
103778645.01452,91842836.97388,-26553473.77636,   0.00029,   0.00022,  -0.00035,108898904.00000,   0.00000,274640576.00000,   0.00000,   0.00000,   0.00000,-365741664.00000,   0.00000
106448172.32939,94290417.44502,-27219314.30756,   0.00030,   0.00022,  -0.00035,111708736.00000,   0.00000,274640576.00000,   0.00000,   0.00000,   0.00000,-362931840.00000,   0.00000
109126947.42942,96759576.08153,-27885154.83875,   0.00031,   0.00023,  -0.00036,114533368.00000,   0.00000,274640576.00000,   0.00000,   0.00000,   0.00000,-360107200.00000,   0.00000
111762566.19873,99210239.14772,-28544830.17984,   0.00032,   0.00023,  -0.00037,117324928.00000,   0.00000,274640576.00000,   0.00000,   0.00000,   0.00000,-357315648.00000,   0.00000
114398184.96803,101660902.21392,-29204505.52093,   0.00032,   0.00024,  -0.00038,120117320.00000,   0.00000,274640576.00000,   0.00000,   0.00000,   0.00000,-354523264.00000,   0.00000
117033803.73734,104111565.28012,-29858015.67191,   0.00033,   0.00025,  -0.00039,122905416.00000,   0.00000,274640576.00000,   0.00000,   0.00000,   0.00000,-351735168.00000,   0.00000
119647844.34128,106552980.56116,-30505360.63280,   0.00034,   0.00025,  -0.00040,125674160.00000,   0.00000,274640576.00000,   0.00000,   0.00000,   0.00000,-348966416.00000,   0.00000
122261884.94522,108994395.84220,-31146540.40357,   0.00034,   0.00026,  -0.00040,128438608.00000,   0.00000,274640576.00000,   0.00000,   0.00000,   0.00000,-346201968.00000,   0.00000
124854347.38380,111426563.33808,-31787720.17435,   0.00035,   0.00026,  -0.00041,131188776.00000,   0.00000,274640576.00000,   0.00000,   0.00000,   0.00000,-343451808.00000,   0.00000
127434479.44217,113871061.21417,-32428899.94513,   0.00036,   0.00027,  -0.00042,133938200.00000,   0.00000,274640576.00000,   0.00000,   0.00000,   0.00000,-340702368.00000,   0.00000
130005363.71539,116293980.92490,-33057749.33570,   0.00036,   0.00028,  -0.00043,136667184.00000,   0.00000,274640576.00000,   0.00000,   0.00000,   0.00000,-337973392.00000,   0.00000
132554669.82324,118707652.85048,-33686598.72627,   0.00037,   0.00028,  -0.00044,139382368.00000,   0.00000,274640576.00000,   0.00000,   0.00000,   0.00000,-335258208.00000,   0.00000
135113223.71625,121142902.94141,-34315448.11684,   0.00038,   0.00029,  -0.00045,142110720.00000,   0.00000,274640576.00000,   0.00000,   0.00000,   0.00000,-332529856.00000,   0.00000
137650199.44390,123568905.24719,-34938132.31731,   0.00039,   0.00029,  -0.00045,144818400.00000,   0.00000,274640576.00000,   0.00000,   0.00000,   0.00000,-329822176.00000,   0.00000
140177927.38639,125973329.38761,-35554651.32767,   0.00039,   0.00030,  -0.00046,147505936.00000,   0.00000,274640576.00000,   0.00000,   0.00000,   0.00000,-327134640.00000,   0.00000
142693324.94867,128390083.90824,-36165005.14793,   0.00040,   0.00031,  -0.00047,150183792.00000,   0.00000,274640576.00000,   0.00000,   0.00000,   0.00000,-324456784.00000,   0.00000
145208722.51096,130806838.42886,-36775358.96819,   0.00041,   0.00031,  -0.00048,152859024.00000,   0.00000,274640576.00000,   0.00000,   0.00000,   0.00000,-321781552.00000,   0.00000
147702541.90788,133214345.16433,-37379547.59835,   0.00041,   0.00032,  -0.00049,155514576.00000,   0.00000,274640576.00000,   0.00000,   0.00000,   0.00000,-319126000.00000,   0.00000
150174783.13944,135612604.11465,-37983736.22851,   0.00042,   0.00032,  -0.00049,158158560.00000,   0.00000,274640576.00000,   0.00000,   0.00000,   0.00000,-316482016.00000,   0.00000
152647024.37100,138010863.06496,-38581759.66856,   0.00043,   0.00033,  -0.00050,160804208.00000,   0.00000,274640576.00000,   0.00000,   0.00000,   0.00000,-313836368.00000,   0.00000
155128513.38771,140430700.18064,-39173617.91851,   0.00043,   0.00034,  -0.00051,163466576.00000,   0.00000,274640576.00000,   0.00000,   0.00000,   0.00000,-311174000.00000,   0.00000
157579176.45391,142819711.34580,-39765476.16846,   0.00044,   0.00034,  -0.00052,166108272.00000,   0.00000,274640576.00000,   0.00000,   0.00000,   0.00000,-308532304.00000,   0.00000
160017509.13989,145221052.89117,-40351169.22830,   0.00044,   0.00035,  -0.00052,168748432.00000,   0.00000,274640576.00000,   0.00000,   0.00000,   0.00000,-305892144.00000,   0.00000
162446594.04073,147600816.27117,-40930697.09805,   0.00045,   0.00035,  -0.00053,171371440.00000,   0.00000,274640576.00000,   0.00000,   0.00000,   0.00000,-303269136.00000,   0.00000
164863348.56135,149992910.03138,-41510224.96779,   0.00046,   0.00036,  -0.00054,173989648.00000,   0.00000,274640576.00000,   0.00000,   0.00000,   0.00000,-300650928.00000,   0.00000
167258524.91662,152375756.00644,-42083587.64743,   0.00046,   0.00037,  -0.00055,176582160.00000,   0.00000,274640576.00000,   0.00000,   0.00000,   0.00000,-298058416.00000,   0.00000
169675279.43724,154767849.76665,-42650785.13696,   0.00047,   0.00037,  -0.00055,179176608.00000,   0.00000,274640576.00000,   0.00000,   0.00000,   0.00000,-295463968.00000,   0.00000
172048877.62714,157141447.95655,-43217982.62649,   0.00048,   0.00038,  -0.00056,181732720.00000,   0.00000,274640576.00000,   0.00000,   0.00000,   0.00000,-292907856.00000,   0.00000
174431723.60220,159536624.31181,-43779014.92593,   0.00048,   0.00039,  -0.00057,184288864.00000,   0.00000,274640576.00000,   0.00000,   0.00000,   0.00000,-290351712.00000,   0.00000
176783743.62673,161900974.71656,-44340047.22536,   0.00049,   0.00039,  -0.00058,186809936.00000,   0.00000,274640576.00000,   0.00000,   0.00000,   0.00000,-287830640.00000,   0.00000
179145011.43643,164286903.28666,-44894914.33468,   0.00049,   0.00040,  -0.00058,189334304.00000,   0.00000,274640576.00000,   0.00000,   0.00000,   0.00000,-285306272.00000,   0.00000
181497031.46097,166651253.69141,-45443616.25391,   0.00050,   0.00040,  -0.00059,191841792.00000,   0.00000,274640576.00000,   0.00000,   0.00000,   0.00000,-282798784.00000,   0.00000
183815142.93993,169018686.69120,-45992318.17313,   0.00051,   0.00041,  -0.00060,194353168.00000,   0.00000,274640576.00000,   0.00000,   0.00000,   0.00000,-280287408.00000,   0.00000
186133254.41890,171386119.69100,-46534854.90225,   0.00051,   0.00042,  -0.00060,196929216.00000,   0.00000,274640576.00000,   0.00000,   0.00000,   0.00000,-277711360.00000,   0.00000
188460613.68302,173775130.85616,-47071226.44127,   0.00052,   0.00042,  -0.00061,199594960.00000,   0.00000,274640576.00000,   0.00000,   0.00000,   0.00000,-275045616.00000,   0.00000
190757146.99663,176133316.07080,-47601432.79018,   0.00052,   0.00043,  -0.00062,202152096.00000,   0.00000,274640576.00000,   0.00000,   0.00000,   0.00000,-272488480.00000,   0.00000
193053680.31023,178491501.28544,-48137804.32920,   0.00053,   0.00044,  -0.00063,204591312.00000,   0.00000,274640576.00000,   0.00000,   0.00000,   0.00000,-270049264.00000,   0.00000
195337883.24363,180862016.88029,-48661845.48801,   0.00054,   0.00044,  -0.00063,206999264.00000,   0.00000,274640576.00000,   0.00000,   0.00000,   0.00000,-267641312.00000,   0.00000
197600508.01166,183223284.68998,-49185886.64681,   0.00054,   0.00045,  -0.00064,209405632.00000,   0.00000,274640576.00000,   0.00000,   0.00000,   0.00000,-265234944.00000,   0.00000
199863132.77970,185584552.49968,-49703762.61552,   0.00055,   0.00045,  -0.00065,211661728.00000,   0.00000,274640576.00000,   0.00000,   0.00000,   0.00000,-262978848.00000,   0.00000
202104179.38237,187936572.52421,-50215473.39412,   0.00055,   0.00046,  -0.00065,213832448.00000,   0.00000,274640576.00000,   0.00000,   0.00000,   0.00000,-260808128.00000,   0.00000
204345225.98504,190288592.54875,-50727184.17272,   0.00056,   0.00047,  -0.00066,216183920.00000,   0.00000,274640576.00000,   0.00000,   0.00000,   0.00000,-258456656.00000,   0.00000
206573942.20751,192652942.95350,-51232729.76122,   0.00056,   0.00047,  -0.00067,218637312.00000,   0.00000,274640576.00000,   0.00000,   0.00000,   0.00000,-256003264.00000,   0.00000
208781080.26461,195008045.57309,-51738275.34972,   0.00057,   0.00048,  -0.00067,221111712.00000,   0.00000,274640576.00000,   0.00000,   0.00000,   0.00000,-253528864.00000,   0.00000
210978970.53656,197341570.02731,-52237655.74811,   0.00058,   0.00049,  -0.00068,223576208.00000,   0.00000,274640576.00000,   0.00000,   0.00000,   0.00000,-251064368.00000,   0.00000
213186108.59366,199696672.64690,-52730870.95641,   0.00058,   0.00049,  -0.00069,226047536.00000,   0.00000,274640576.00000,   0.00000,   0.00000,   0.00000,-248593040.00000,   0.00000
215380916.27055,202064105.64670,-53217920.97459,   0.00059,   0.00050,  -0.00069,228506304.00000,   0.00000,274640576.00000,   0.00000,   0.00000,   0.00000,-246134272.00000,   0.00000
217544897.99693,204400712.69598,-53704970.99278,   0.00059,   0.00051,  -0.00070,230927584.00000,   0.00000,274640576.00000,   0.00000,   0.00000,   0.00000,-243712992.00000,   0.00000
219718127.50846,206758897.91062,-54192021.01097,   0.00060,   0.00051,  -0.00070,233353648.00000,   0.00000,274640576.00000,   0.00000,   0.00000,   0.00000,-241286928.00000,   0.00000
221860531.06948,209086257.17474,-54666740.64895,   0.00060,   0.00052,  -0.00071,235734320.00000,   0.00000,274640576.00000,   0.00000,   0.00000,   0.00000,-238906256.00000,   0.00000
223990604.25028,211425946.81907,-55141460.28693,   0.00061,   0.00053,  -0.00072,238106752.00000,   0.00000,274640576.00000,   0.00000,   0.00000,   0.00000,-236533824.00000,   0.00000
226151503.38161,213796462.41392,-55616179.92491,   0.00061,   0.00053,  -0.00072,240501648.00000,   0.00000,274640576.00000,   0.00000,   0.00000,   0.00000,-234138928.00000,   0.00000
228259998.39705,216126904.27309,-56084734.37278,   0.00062,   0.00054,  -0.00073,242845232.00000,   0.00000,274640576.00000,   0.00000,   0.00000,   0.00000,-231795344.00000,   0.00000
230377741.19765,218478924.29763,-56547123.63056,   0.00062,   0.00054,  -0.00074,245195312.00000,   0.00000,274640576.00000,   0.00000,   0.00000,   0.00000,-229445264.00000,   0.00000
232464658.04773,220800118.37165,-57003347.69823,   0.00063,   0.00055,  -0.00074,247511920.00000,   0.00000,274640576.00000,   0.00000,   0.00000,   0.00000,-227128656.00000,   0.00000
234560822.68297,223142890.61103,-57459571.76590,   0.00063,   0.00056,  -0.00075,249842000.00000,   0.00000,274640576.00000,   0.00000,   0.00000,   0.00000,-224798576.00000,   0.00000
236635409.15284,225476415.06526,-57909630.64346,   0.00064,   0.00056,  -0.00075,252154464.00000,   0.00000,274640576.00000,   0.00000,   0.00000,   0.00000,-222486112.00000,   0.00000
238719243.40787,227831517.68485,-58359689.52103,   0.00064,   0.00057,  -0.00076,254482464.00000,   0.00000,274640576.00000,   0.00000,   0.00000,   0.00000,-220158112.00000,   0.00000
240772251.71238,230155794.35392,-58803583.20849,   0.00065,   0.00058,  -0.00076,256780464.00000,   0.00000,274640576.00000,   0.00000,   0.00000,   0.00000,-217860112.00000,   0.00000
242812929.63669,232492401.40320,-59241311.70585,   0.00065,   0.00058,  -0.00077,259076384.00000,   0.00000,274640576.00000,   0.00000,   0.00000,   0.00000,-215564192.00000,   0.00000
244853607.56099,234829008.45248,-59679040.20320,   0.00066,   0.00059,  -0.00078,261375088.00000,   0.00000,274640576.00000,   0.00000,   0.00000,   0.00000,-213265488.00000,   0.00000
246894285.48529,237165615.50175,-60110603.51046,   0.00066,   0.00060,  -0.00078,263672608.00000,   0.00000,274640576.00000,   0.00000,   0.00000,   0.00000,-210967968.00000,   0.00000
248901054.86403,239505305.14608,-60542166.81771,   0.00067,   0.00060,  -0.00079,265957440.00000,   0.00000,274640576.00000,   0.00000,   0.00000,   0.00000,-208683136.00000,   0.00000
250929402.40812,241854242.57557,-60967564.93486,   0.00067,   0.00061,  -0.00079,268254784.00000,   0.00000,274640576.00000,   0.00000,   0.00000,   0.00000,-206385792.00000,   0.00000
252914593.62149,244184684.43474,-61386797.86191,   0.00067,   0.00062,  -0.00080,270520512.00000,   0.00000,274640576.00000,   0.00000,   0.00000,   0.00000,-204120064.00000,   0.00000
254899784.83487,246515126.29392,-61806030.78896,   0.00068,   0.00062,  -0.00080,272787200.00000,   0.00000,274640576.00000,   0.00000,   0.00000,   0.00000,-201853376.00000,   0.00000
256884976.04824,248845568.15309,-62219098.52590,   0.00068,   0.00063,  -0.00081,275050048.00000,   0.00000,274640576.00000,   0.00000,   0.00000,   0.00000,-199590528.00000,   0.00000
258857836.88140,251188340.39248,-62626001.07274,   0.00069,   0.00064,  -0.00081,277307744.00000,   0.00000,274640576.00000,   0.00000,   0.00000,   0.00000,-197332832.00000,   0.00000
260799871.76405,253500286.68134,-63032903.61958,   0.00069,   0.00064,  -0.00082,279536064.00000,   0.00000,274640576.00000,   0.00000,   0.00000,   0.00000,-195104512.00000,   0.00000
262751154.43185,255833811.13557,-63433640.97632,   0.00070,   0.00065,  -0.00082,281772576.00000,   0.00000,274640576.00000,   0.00000,   0.00000,   0.00000,-192868000.00000,   0.00000
264690106.71944,258179665.97000,-63828213.14295,   0.00070,   0.00066,  -0.00083,284002880.00000,   0.00000,274640576.00000,   0.00000,   0.00000,   0.00000,-190637696.00000,   0.00000
266619811.22188,260503942.63907,-64222785.30959,   0.00071,   0.00067,  -0.00083,286218016.00000,   0.00000,274640576.00000,   0.00000,   0.00000,   0.00000,-188422560.00000,   0.00000
268537185.34411,262840549.68835,-64617357.47622,   0.00071,   0.00067,  -0.00084,288433408.00000,   0.00000,274640576.00000,   0.00000,   0.00000,   0.00000,-186207168.00000,   0.00000
270454559.46634,265177156.73763,-64999599.26264,   0.00071,   0.00068,  -0.00084,290645248.00000,   0.00000,274640576.00000,   0.00000,   0.00000,   0.00000,-183995328.00000,   0.00000
272350355.42321,267504516.00175,-65381841.04907,   0.00072,   0.00069,  -0.00085,292855104.00000,   0.00000,274640576.00000,   0.00000,   0.00000,   0.00000,-181785472.00000,   0.00000
274233820.99987,269844205.64608,-65764082.83549,   0.00072,   0.00069,  -0.00085,295087968.00000,   0.00000,274640576.00000,   0.00000,   0.00000,   0.00000,-179552608.00000,   0.00000
276108038.79138,272162317.12505,-66140159.43182,   0.00073,   0.00070,  -0.00086,297332352.00000,   0.00000,274640576.00000,   0.00000,   0.00000,   0.00000,-177308224.00000,   0.00000
277969926.20267,274492758.98422,-66510070.83803,   0.00073,   0.00071,  -0.00086,299584352.00000,   0.00000,274640576.00000,   0.00000,   0.00000,   0.00000,-175056224.00000,   0.00000
279831813.61397,276823200.84340,-66879982.24425,   0.00073,   0.00071,  -0.00087,301796704.00000,   0.00000,274640576.00000,   0.00000,   0.00000,   0.00000,-172843872.00000,   0.00000
281681370.64506,279165973.08278,-67243728.46037,   0.00074,   0.00072,  -0.00087,303931040.00000,   0.00000,274640576.00000,   0.00000,   0.00000,   0.00000,-170709536.00000,   0.00000
283509349.51079,281499497.53701,-67601309.48638,   0.00074,   0.00073,  -0.00088,306008864.00000,   0.00000,274640576.00000,   0.00000,   0.00000,   0.00000,-168631712.00000,   0.00000
285337328.37652,283833021.99123,-67958890.51239,   0.00074,   0.00074,  -0.00088,308097984.00000,   0.00000,274640576.00000,   0.00000,   0.00000,   0.00000,-166542592.00000,   0.00000
287165307.24225,286166546.44546,-68310306.34830,   0.00075,   0.00074,  -0.00089,310209632.00000,   0.00000,274640576.00000,   0.00000,   0.00000,   0.00000,-164430944.00000,   0.00000
288971707.94261,288490823.11453,-68661722.18420,   0.00075,   0.00075,  -0.00089,312328832.00000,   0.00000,274640576.00000,   0.00000,   0.00000,   0.00000,-162311744.00000,   0.00000
290765778.26277,290827430.16381,-69006972.83001,   0.00076,   0.00076,  -0.00090,314458368.00000,   0.00000,274640576.00000,   0.00000,   0.00000,   0.00000,-160182208.00000,   0.00000
292559848.58293,293164037.21309,-69346058.28571,   0.00076,   0.00076,  -0.00090,316592800.00000,   0.00000,274640576.00000,   0.00000,   0.00000,   0.00000,-158047776.00000,   0.00000
294332340.73773,295491396.47721,-69685143.74141,   0.00076,   0.00077,  -0.00091,318718624.00000,   0.00000,274640576.00000,   0.00000,   0.00000,   0.00000,-155921952.00000,   0.00000
296083254.72716,297809507.95618,-70024229.19711,   0.00077,   0.00078,  -0.00091,320833760.00000,   0.00000,274640576.00000,   0.00000,   0.00000,   0.00000,-153806816.00000,   0.00000
297843416.50175,300149197.60051,-70350984.27260,   0.00077,   0.00078,  -0.00091,322956960.00000,   0.00000,274640576.00000,   0.00000,   0.00000,   0.00000,-151683616.00000,   0.00000
299603578.27634,302488887.24484,-70683904.53820,   0.00077,   0.00079,  -0.00092,325084544.00000,   0.00000,274640576.00000,   0.00000,   0.00000,   0.00000,-149556032.00000,   0.00000
301342161.88556,304819329.10401,-71004494.42359,   0.00078,   0.00080,  -0.00092,327188608.00000,   0.00000,274640576.00000,   0.00000,   0.00000,   0.00000,-147451968.00000,   0.00000
303068415.11458,307162101.34340,-71325084.30897,   0.00078,   0.00081,  -0.00093,329290336.00000,   0.00000,274640576.00000,   0.00000,   0.00000,   0.00000,-145350240.00000,   0.00000
304794668.34360,309504873.58278,-71639509.00426,   0.00078,   0.00081,  -0.00093,331384000.00000,   0.00000,274640576.00000,   0.00000,   0.00000,   0.00000,-143256576.00000,   0.00000
306499343.40725,311838398.03700,-71953933.69955,   0.00079,   0.00082,  -0.00094,333458784.00000,   0.00000,274640576.00000,   0.00000,   0.00000,   0.00000,-141181792.00000,   0.00000
308182440.30555,314162674.70607,-72268358.39483,   0.00079,   0.00083,  -0.00094,335514688.00000,   0.00000,274640576.00000,   0.00000,   0.00000,   0.00000,-139125888.00000,   0.00000
309874784.98900,316508529.54051,-72570452.70991,   0.00079,   0.00084,  -0.00094,337572864.00000,   0.00000,274640576.00000,   0.00000,   0.00000,   0.00000,-137067712.00000,   0.00000
311557881.88729,318832806.20958,-72872547.02499,   0.00080,   0.00084,  -0.00095,339613504.00000,   0.00000,274640576.00000,   0.00000,   0.00000,   0.00000,-135027072.00000,   0.00000
313228648.40537,321169413.25886,-73174641.34007,   0.00080,   0.00085,  -0.00095,341652928.00000,   0.00000,274640576.00000,   0.00000,   0.00000,   0.00000,-132987648.00000,   0.00000
314887084.54325,323518350.68834,-73470570.46504,   0.00080,   0.00086,  -0.00096,343689440.00000,   0.00000,274640576.00000,   0.00000,   0.00000,   0.00000,-130951136.00000,   0.00000
316536272.89597,325845709.95247,-73760334.39991,   0.00080,   0.00087,  -0.00096,345710080.00000,   0.00000,274640576.00000,   0.00000,   0.00000,   0.00000,-128930496.00000,   0.00000
318173130.86849,328185399.59680,-74050098.33478,   0.00081,   0.00087,  -0.00096,347735712.00000,   0.00000,274640576.00000,   0.00000,   0.00000,   0.00000,-126904864.00000,   0.00000
319809988.84101,330525089.24113,-74339862.26965,   0.00081,   0.00088,  -0.00097,349767392.00000,   0.00000,274640576.00000,   0.00000,   0.00000,   0.00000,-124873184.00000,   0.00000
321434516.43331,332877109.26566,-74617295.82432,   0.00081,   0.00089,  -0.00097,351799520.00000,   0.00000,274640576.00000,   0.00000,   0.00000,   0.00000,-122841056.00000,   0.00000
323037465.86026,335219881.50505,-74894729.37898,   0.00082,   0.00090,  -0.00097,353826144.00000,   0.00000,274640576.00000,   0.00000,   0.00000,   0.00000,-120814432.00000,   0.00000
324640415.28721,337562653.74443,-75172162.93364,   0.00082,   0.00090,  -0.00098,355861696.00000,   0.00000,274640576.00000,   0.00000,   0.00000,   0.00000,-118778880.00000,   0.00000
326221786.54879,339896178.19866,-75443431.29820,   0.00082,   0.00091,  -0.00098,357887712.00000,   0.00000,274640576.00000,   0.00000,   0.00000,   0.00000,-116752864.00000,   0.00000
327803157.81037,342229702.65288,-75714699.66276,   0.00082,   0.00092,  -0.00098,359921664.00000,   0.00000,274640576.00000,   0.00000,   0.00000,   0.00000,-114718912.00000,   0.00000
329372198.69175,344575557.48732,-75979802.83722,   0.00083,   0.00093,  -0.00099,361959104.00000,   0.00000,274640576.00000,   0.00000,   0.00000,   0.00000,-112681472.00000,   0.00000
330941239.57312,346921412.32175,-76238740.82157,   0.00083,   0.00093,  -0.00099,363997824.00000,   0.00000,274640576.00000,   0.00000,   0.00000,   0.00000,-110642752.00000,   0.00000
332488702.28914,349258019.37103,-76497678.80593,   0.00083,   0.00094,  -0.00099,366026112.00000,   0.00000,274640576.00000,   0.00000,   0.00000,   0.00000,-108614464.00000,   0.00000
334045412.79030,351616204.58567,-76756616.79028,   0.00083,   0.00095,  -0.00100,368071200.00000,   0.00000,274640576.00000,   0.00000,   0.00000,   0.00000,-106569376.00000,   0.00000
335580545.12611,353965142.01515,-77003224.39442,   0.00084,   0.00096,  -0.00100,370094656.00000,   0.00000,274640576.00000,   0.00000,   0.00000,   0.00000,-104545920.00000,   0.00000
337094099.29655,356304831.65948,-77255997.18867,   0.00084,   0.00096,  -0.00100,372106624.00000,   0.00000,274640576.00000,   0.00000,   0.00000,   0.00000,-102533952.00000,   0.00000
338616901.25215,358666099.46918,-77502604.79282,   0.00084,   0.00097,  -0.00101,374127424.00000,   0.00000,274640576.00000,   0.00000,   0.00000,   0.00000,-100513152.00000,   0.00000
340108877.25723,360996541.32835,-77743047.20686,   0.00084,   0.00098,  -0.00101,376111744.00000,   0.00000,274640576.00000,   0.00000,   0.00000,   0.00000,-98528832.00000,   0.00000
341610101.04747,363348561.35289,-77983489.62090,   0.00085,   0.00099,  -0.00101,378107072.00000,   0.00000,274640576.00000,   0.00000,   0.00000,   0.00000,-96533504.00000,   0.00000
343098994.45749,365712911.75763,-78217766.84484,   0.00085,   0.00099,  -0.00102,380094880.00000,   0.00000,274640576.00000,   0.00000,   0.00000,   0.00000,-94545696.00000,   0.00000
344578640.08237,368055683.99702,-78445878.87868,   0.00085,   0.00100,  -0.00102,382059072.00000,   0.00000,274640576.00000,   0.00000,   0.00000,   0.00000,-92581504.00000,   0.00000
346045955.32703,370410786.61661,-78680156.10261,   0.00085,   0.00101,  -0.00102,384023744.00000,   0.00000,274640576.00000,   0.00000,   0.00000,   0.00000,-90616832.00000,   0.00000
347491692.40634,372756641.45104,-78902102.94634,   0.00085,   0.00102,  -0.00103,385962848.00000,   0.00000,274640576.00000,   0.00000,   0.00000,   0.00000,-88677728.00000,   0.00000
348937429.48564,375102496.28547,-79130214.98018,   0.00086,   0.00103,  -0.00103,387902336.00000,   0.00000,274640576.00000,   0.00000,   0.00000,   0.00000,-86738240.00000,   0.00000
350392414.35010,377469929.28527,-79345996.63381,   0.00086,   0.00103,  -0.00103,389846176.00000,   0.00000,274640576.00000,   0.00000,   0.00000,   0.00000,-84794400.00000,   0.00000
351825821.04919,379828114.49991,-79561778.28743,   0.00086,   0.00104,  -0.00103,391774848.00000,   0.00000,274640576.00000,   0.00000,   0.00000,   0.00000,-82865728.00000,   0.00000
353237649.58292,382177051.92940,-79777559.94106,   0.00086,   0.00105,  -0.00104,393689408.00000,   0.00000,274640576.00000,   0.00000,   0.00000,   0.00000,-80951168.00000,   0.00000
354649478.11666,384525989.35888,-79987176.40458,   0.00086,   0.00106,  -0.00104,395600832.00000,   0.00000,274640576.00000,   0.00000,   0.00000,   0.00000,-79039744.00000,   0.00000
356048976.27018,386887257.16858,-80196792.86811,   0.00087,   0.00107,  -0.00104,397515488.00000,   0.00000,274640576.00000,   0.00000,   0.00000,   0.00000,-77125088.00000,   0.00000
357426896.25835,389239277.19311,-80400244.14153,   0.00087,   0.00107,  -0.00105,399415776.00000,   0.00000,274640576.00000,   0.00000,   0.00000,   0.00000,-75224800.00000,   0.00000
358835642.19703,391622123.16817,-80603695.41495,   0.00087,   0.00108,  -0.00105,401348608.00000,   0.00000,274640576.00000,   0.00000,   0.00000,   0.00000,-73291968.00000,   0.00000
360191984.01983,393964895.40755,-80800981.49826,   0.00087,   0.00109,  -0.00105,403240032.00000,   0.00000,274640576.00000,   0.00000,   0.00000,   0.00000,-71400544.00000,   0.00000
361557573.62778,396329245.81229,-80998267.58158,   0.00087,   0.00110,  -0.00105,405151776.00000,   0.00000,274640576.00000,   0.00000,   0.00000,   0.00000,-69488800.00000,   0.00000
362901585.07038,398684348.43188,-81189388.47479,   0.00087,   0.00111,  -0.00106,407051232.00000,   0.00000,274640576.00000,   0.00000,   0.00000,   0.00000,-67589344.00000,   0.00000
364245596.51297,401039451.05147,-81380509.36801,   0.00088,   0.00111,  -0.00106,408955840.00000,   0.00000,274640576.00000,   0.00000,   0.00000,   0.00000,-65684736.00000,   0.00000
365598855.74072,403416131.83643,-81565465.07112,   0.00088,   0.00112,  -0.00106,410876512.00000,   0.00000,274640576.00000,   0.00000,   0.00000,   0.00000,-63764064.00000,   0.00000
366930536.80310,405783564.83622,-81750420.77422,   0.00088,   0.00113,  -0.00106,412787968.00000,   0.00000,274640576.00000,   0.00000,   0.00000,   0.00000,-61852608.00000,   0.00000
368240639.70013,408141750.05086,-81929211.28723,   0.00088,   0.00114,  -0.00107,414685376.00000,   0.00000,274640576.00000,   0.00000,   0.00000,   0.00000,-59955200.00000,   0.00000
369538412.21694,410512265.64571,-82108001.80024,   0.00088,   0.00115,  -0.00107,416587488.00000,   0.00000,274640576.00000,   0.00000,   0.00000,   0.00000,-58053088.00000,   0.00000
370848515.11396,412870450.86035,-82280627.12314,   0.00088,   0.00116,  -0.00107,418486368.00000,   0.00000,274640576.00000,   0.00000,   0.00000,   0.00000,-56154208.00000,   0.00000
372124709.46542,415231718.67005,-82453252.44604,   0.00088,   0.00116,  -0.00107,420374912.00000,   0.00000,274640576.00000,   0.00000,   0.00000,   0.00000,-54265664.00000,   0.00000
373410151.60202,417614564.64510,-82625877.76894,   0.00088,   0.00117,  -0.00107,422280352.00000,   0.00000,274640576.00000,   0.00000,   0.00000,   0.00000,-52360224.00000,   0.00000
374686345.95348,419975832.45479,-82792337.90174,   0.00089,   0.00118,  -0.00108,424167648.00000,   0.00000,274640576.00000,   0.00000,   0.00000,   0.00000,-50472928.00000,   0.00000
375950209.92472,422349430.64469,-82952632.84443,   0.00089,   0.00119,  -0.00108,426054240.00000,   0.00000,274640576.00000,   0.00000,   0.00000,   0.00000,-48586336.00000,   0.00000
377192495.73061,424713781.04944,-83119092.97723,   0.00089,   0.00120,  -0.00108,427932224.00000,   0.00000,274640576.00000,   0.00000,   0.00000,   0.00000,-46708352.00000,   0.00000
378444029.32164,427099709.61955,-83273222.72982,   0.00089,   0.00121,  -0.00108,429820320.00000,   0.00000,274640576.00000,   0.00000,   0.00000,   0.00000,-44820256.00000,   0.00000
379686315.12753,429464060.02429,-83433517.67252,   0.00089,   0.00121,  -0.00108,431698720.00000,   0.00000,274640576.00000,   0.00000,   0.00000,   0.00000,-42941856.00000,   0.00000
380916270.55320,431840740.80924,-83581482.23500,   0.00089,   0.00122,  -0.00109,433575360.00000,   0.00000,274640576.00000,   0.00000,   0.00000,   0.00000,-41065216.00000,   0.00000
382124647.81352,434208173.80904,-83735611.98760,   0.00089,   0.00123,  -0.00109,435446720.00000,   0.00000,274640576.00000,   0.00000,   0.00000,   0.00000,-39193856.00000,   0.00000
383342272.85898,436597184.97420,-83883576.55008,   0.00089,   0.00124,  -0.00109,437336288.00000,   0.00000,274640576.00000,   0.00000,   0.00000,   0.00000,-37304288.00000,   0.00000
384529071.95393,438955370.18884,-84025375.92247,   0.00089,   0.00125,  -0.00109,439200992.00000,   0.00000,274640576.00000,   0.00000,   0.00000,   0.00000,-35439584.00000,   0.00000
385725118.83404,441335133.56884,-84167175.29485,   0.00089,   0.00126,  -0.00109,441091008.00000,   0.00000,274640576.00000,   0.00000,   0.00000,   0.00000,-33549568.00000,   0.00000
386908835.33394,443727227.32905,-84308974.66723,   0.00090,   0.00126,  -0.00110,442992384.00000,   0.00000,274640576.00000,   0.00000,   0.00000,   0.00000,-31648192.00000,   0.00000
388083304.04868,446097742.92390,-84444608.84951,   0.00090,   0.00127,  -0.00110,444879328.00000,   0.00000,274640576.00000,   0.00000,   0.00000,   0.00000,-29761248.00000,   0.00000
389245442.38322,448480588.89896,-84580243.03179,   0.00090,   0.00128,  -0.00110,446761664.00000,   0.00000,274640576.00000,   0.00000,   0.00000,   0.00000,-27878912.00000,   0.00000
390386002.55239,450854187.08886,-84709712.02397,   0.00090,   0.00129,  -0.00110,448598272.00000,   0.00000,274640576.00000,   0.00000,   0.00000,   0.00000,-26042304.00000,   0.00000
391526562.72156,453227785.27876,-84839181.01615,   0.00090,   0.00130,  -0.00110,450396128.00000,   0.00000,274640576.00000,   0.00000,   0.00000,   0.00000,-24244448.00000,   0.00000
392667122.89073,455601383.46866,-84968650.00832,   0.00090,   0.00131,  -0.00110,452211488.00000,   0.00000,274640576.00000,   0.00000,   0.00000,   0.00000,-22429088.00000,   0.00000
393795352.67970,457987312.03877,-85091953.81040,   0.00090,   0.00132,  -0.00111,454089792.00000,   0.00000,274640576.00000,   0.00000,   0.00000,   0.00000,-20550784.00000,   0.00000
394923582.46867,460373240.60887,-85215257.61247,   0.00090,   0.00132,  -0.00111,455971392.00000,   0.00000,274640576.00000,   0.00000,   0.00000,   0.00000,-18669184.00000,   0.00000
396030234.09227,462749921.39383,-85332396.22444,   0.00090,   0.00133,  -0.00111,457818304.00000,   0.00000,274640576.00000,   0.00000,   0.00000,   0.00000,-16822272.00000,   0.00000
397124555.33566,465138932.55899,-85455700.02651,   0.00090,   0.00134,  -0.00111,459665568.00000,   0.00000,274640576.00000,   0.00000,   0.00000,   0.00000,-14975008.00000,   0.00000
398218876.57906,467527943.72414,-85566673.44838,   0.00090,   0.00135,  -0.00111,461505440.00000,   0.00000,274640576.00000,   0.00000,   0.00000,   0.00000,-13135136.00000,   0.00000
399313197.82245,469916954.88930,-85677646.87024,   0.00090,   0.00136,  -0.00111,463345760.00000,   0.00000,274640576.00000,   0.00000,   0.00000,   0.00000,-11294816.00000,   0.00000
400385940.90049,472296718.26931,-85788620.29211,   0.00090,   0.00137,  -0.00112,465173696.00000,   0.00000,274640576.00000,   0.00000,   0.00000,   0.00000,-9466880.00000,   0.00000
401446353.59831,474688812.02952,-85899593.71397,   0.00090,   0.00138,  -0.00112,467005824.00000,   0.00000,274640576.00000,   0.00000,   0.00000,   0.00000,-7634752.00000,   0.00000
402497518.51098,477059327.62437,-86004401.94573,   0.00090,   0.00139,  -0.00112,468820576.00000,   0.00000,274640576.00000,   0.00000,   0.00000,   0.00000,-5820000.00000,   0.00000
403536353.04345,479442173.59942,-86109210.17750,   0.00090,   0.00139,  -0.00112,470640608.00000,   0.00000,274640576.00000,   0.00000,   0.00000,   0.00000,-3999968.00000,   0.00000
404584435.36106,481846597.73984,-86207853.21915,   0.00090,   0.00140,  -0.00112,472476384.00000,   0.00000,274640576.00000,   0.00000,   0.00000,   0.00000,-2164192.00000,   0.00000
405623269.89353,484229443.71490,-86306496.26081,   0.00090,   0.00141,  -0.00112,474300320.00000,   0.00000,274640576.00000,   0.00000,   0.00000,   0.00000,-340256.00000,   0.00000
405813734.53115,484673861.20269,-86324799.16893,   0.00090,   0.00141,  -0.00112,474639808.00000,   0.00000,274640576.00000,   0.00000,   0.00000,   0.00000,-768.00000,   0.00000
405434553.38463,485119029.86428,-86090336.63149,   0.00090,   0.00142,  -0.00112,474639808.00000,   0.00000,274645888.00000,   0.00000,   0.00000,  -0.00000,  64.00000,   2.00000
404960471.86470,485667120.91348,-85800445.56931,   0.00090,   0.00143,  -0.00112,476464224.00000,   0.00001,274652384.00000,   0.00001,   0.00001,  -0.00001,  64.00000,   2.00000
404486909.76486,486210335.37484,-85511320.15140,   0.00090,   0.00144,  -0.00113,476473056.00000,   0.00002,274658880.00000,   0.00001,   0.00002,  -0.00001,   0.00000,   2.00000
404016650.40168,486752175.58667,-85217533.38454,   0.00090,   0.00145,  -0.00113,476478624.00000,   0.00002,274665376.00000,   0.00001,   0.00002,  -0.00002,  96.00000,   2.00000
403529271.75029,487294741.36059,-84929288.58299,   0.00090,   0.00146,  -0.00113,476493952.00000,   0.00003,274671904.00000,   0.00002,   0.00003,  -0.00002,   0.00000,   2.00000
403036703.96772,487842975.58453,-84633546.91067,   0.00090,   0.00147,  -0.00113,476483328.00000,   0.00003,274678336.00000,   0.00002,   0.00003,  -0.00003,  32.00000,   2.00000
402542032.96591,488382958.37774,-84344031.40610,   0.00090,   0.00147,  -0.00113,476495328.00000,   0.00004,274684832.00000,   0.00002,   0.00004,  -0.00003,   0.00000,   2.00000
402039260.58292,488925064.94029,-84052392.66058,   0.00090,   0.00148,  -0.00113,476488160.00000,   0.00005,274691264.00000,   0.00002,   0.00004,  -0.00004, -64.00000,   2.00000
401533515.13395,489467605.40353,-83758244.63172,   0.00090,   0.00149,  -0.00113,476512896.00000,   0.00005,274697760.00000,   0.00003,   0.00005,  -0.00004, 160.00000,   2.00000
401028160.68171,490004976.52510,-83464809.01238,   0.00090,   0.00150,  -0.00113,476521984.00000,   0.00006,274704256.00000,   0.00003,   0.00005,  -0.00005, 128.00000,   2.00000
400514640.83395,490544487.20440,-83169235.50832,   0.00090,   0.00151,  -0.00113,476514528.00000,   0.00006,274710720.00000,   0.00003,   0.00006,  -0.00005,   0.00000,   2.00000
399990498.04877,491083029.17370,-82877033.30854,   0.00090,   0.00152,  -0.00114,476510432.00000,   0.00007,274717152.00000,   0.00004,   0.00007,  -0.00006, 192.00000,   2.00000
399469514.12070,491619949.18964,-82580088.37040,   0.00090,   0.00153,  -0.00114,476515936.00000,   0.00008,274723552.00000,   0.00004,   0.00007,  -0.00006,  96.00000,   2.00000
398945236.93027,492156604.61998,-82280610.97118,   0.00090,   0.00154,  -0.00114,476540864.00000,   0.00008,274730048.00000,   0.00004,   0.00008,  -0.00007,  32.00000,   2.00000
398410228.06716,492692211.93068,-81984499.02957,   0.00090,   0.00155,  -0.00114,476536736.00000,   0.00009,274736480.00000,   0.00005,   0.00008,  -0.00007,  96.00000,   2.00000
397875773.77234,493222786.30973,-81689162.16209,   0.00090,   0.00156,  -0.00114,476545504.00000,   0.00009,274742944.00000,   0.00005,   0.00009,  -0.00008, -32.00000,   2.00000
397332960.40514,493755470.18335,-81391632.65843,   0.00090,   0.00157,  -0.00114,476538176.00000,   0.00010,274749344.00000,   0.00005,   0.00009,  -0.00008,  32.00000,   2.00000
396786994.30282,494287768.78634,-81091657.81511,   0.00090,   0.00157,  -0.00114,476563136.00000,   0.00010,274755808.00000,   0.00005,   0.00010,  -0.00009,  32.00000,   2.00000
396233710.84650,494814109.96503,-80798226.62050,   0.00089,   0.00158,  -0.00114,476542784.00000,   0.00011,274762176.00000,   0.00006,   0.00011,  -0.00009,   0.00000,   2.00000
395668252.81953,495347095.26869,-80499342.32100,   0.00089,   0.00159,  -0.00114,476551936.00000,   0.00012,274768576.00000,   0.00006,   0.00011,  -0.00010, -64.00000,   2.00000
395112688.57257,495868172.40637,-80204391.82377,   0.00089,   0.00160,  -0.00114,476576064.00000,   0.00012,274775040.00000,   0.00006,   0.00012,  -0.00010, -96.00000,   2.00000
394547243.86764,496398880.54254,-79898470.77175,   0.00089,   0.00161,  -0.00114,476582432.00000,   0.00013,274781472.00000,   0.00006,   0.00012,  -0.00010,   0.00000,   2.00000
393971883.58541,496920524.08264,-79604617.44715,   0.00089,   0.00162,  -0.00114,476565408.00000,   0.00013,274787840.00000,   0.00007,   0.00013,  -0.00011, 128.00000,   2.00000
393395898.28254,497444785.53792,-79302894.29842,   0.00089,   0.00163,  -0.00114,476587360.00000,   0.00014,274794272.00000,   0.00007,   0.00013,  -0.00011,  64.00000,   2.00000
392808669.76618,497967663.43903,-79004471.28549,   0.00089,   0.00164,  -0.00115,476583616.00000,   0.00015,274800672.00000,   0.00007,   0.00014,  -0.00012,   0.00000,   2.00000
392222131.79081,498485665.95946,-78706963.47887,   0.00089,   0.00165,  -0.00115,476592256.00000,   0.00015,274807072.00000,   0.00008,   0.00015,  -0.00012,   0.00000,   2.00000
391638504.04168,499001860.98518,-78404784.07761,   0.00089,   0.00166,  -0.00115,476597856.00000,   0.00016,274813440.00000,   0.00008,   0.00015,  -0.00013,   0.00000,   2.00000
391037682.71759,499518128.98260,-78108309.89771,   0.00089,   0.00167,  -0.00115,476613696.00000,   0.00016,274819872.00000,   0.00008,   0.00016,  -0.00013,  32.00000,   2.00000
390431399.20103,500032144.17345,-77812622.42099,   0.00089,   0.00168,  -0.00115,476590688.00000,   0.00017,274826208.00000,   0.00008,   0.00016,  -0.00014, 128.00000,   2.00000
389836545.49411,500545362.66243,-77506781.87538,   0.00088,   0.00169,  -0.00115,476625120.00000,   0.00018,274832640.00000,   0.00009,   0.00017,  -0.00014,  32.00000,   2.00000
389215833.25119,501058117.39976,-77212013.85538,   0.00088,   0.00170,  -0.00115,476612608.00000,   0.00018,274838976.00000,   0.00009,   0.00017,  -0.00014,  32.00000,   2.00000
388606495.62901,501570055.25307,-76907051.18004,   0.00088,   0.00170,  -0.00115,476647232.00000,   0.00019,274845440.00000,   0.00009,   0.00018,  -0.00015,  32.00000,   2.00000
387989286.73190,502077411.84847,-76608333.52934,   0.00088,   0.00171,  -0.00115,476627264.00000,   0.00019,274851808.00000,   0.00009,   0.00019,  -0.00015, -64.00000,   2.00000
387362798.93656,502587458.93702,-76307062.49987,   0.00088,   0.00172,  -0.00115,476620896.00000,   0.00020,274858112.00000,   0.00010,   0.00019,  -0.00016, -32.00000,   2.00000
386731009.14399,503094400.89310,-76009010.28728,   0.00088,   0.00173,  -0.00115,476649440.00000,   0.00020,274864512.00000,   0.00010,   0.00020,  -0.00016,  64.00000,   2.00000
386102059.01300,503600642.05790,-75706071.83601,   0.00088,   0.00174,  -0.00115,476655456.00000,   0.00021,274870880.00000,   0.00010,   0.00020,  -0.00017,  64.00000,   2.00000
385461480.42450,504106792.07515,-75406092.57006,   0.00088,   0.00175,  -0.00115,476652224.00000,   0.00022,274877248.00000,   0.00010,   0.00021,  -0.00017,  64.00000,   2.00000
384811398.37186,504615829.56002,-75103418.81986,   0.00087,   0.00176,  -0.00115,476646144.00000,   0.00022,274883552.00000,   0.00011,   0.00022,  -0.00018,  32.00000,   2.00000
384168338.58958,505118150.84053,-74801760.97957,   0.00087,   0.00177,  -0.00115,476687008.00000,   0.00023,274889984.00000,   0.00011,   0.00022,  -0.00018,  32.00000,   2.00000
383519247.91354,505619278.49593,-74500508.73734,   0.00087,   0.00178,  -0.00115,476664256.00000,   0.00023,274896288.00000,   0.00011,   0.00023,  -0.00018,  64.00000,   2.00000
382854839.50900,506123459.83935,-74199179.79945,   0.00087,   0.00179,  -0.00115,476678176.00000,   0.00024,274902656.00000,   0.00011,   0.00023,  -0.00019, -32.00000,   2.00000
382191108.57393,506623105.62511,-73898708.16100,   0.00087,   0.00180,  -0.00115,476687392.00000,   0.00024,274908992.00000,   0.00012,   0.00024,  -0.00019,   0.00000,   2.00000
381528000.62268,507117735.97461,-73599133.58797,   0.00087,   0.00181,  -0.00115,476696864.00000,   0.00025,274915360.00000,   0.00012,   0.00025,  -0.00020, 128.00000,   2.00000
380855202.32696,507613434.28643,-73297026.82486,   0.00087,   0.00182,  -0.00115,476691200.00000,   0.00026,274921696.00000,   0.00012,   0.00025,  -0.00020,-160.00000,   2.00000
380183349.35338,508103737.54547,-72995975.56217,   0.00086,   0.00183,  -0.00115,476700320.00000,   0.00026,274928032.00000,   0.00012,   0.00026,  -0.00020, -96.00000,   2.00000
379499851.08510,508591718.85569,-72698106.65369,   0.00086,   0.00184,  -0.00115,476697824.00000,   0.00027,274934336.00000,   0.00013,   0.00026,  -0.00021,  32.00000,   2.00000
378813853.03696,509077231.82199,-72398295.01959,   0.00086,   0.00185,  -0.00115,476724256.00000,   0.00027,274940736.00000,   0.00013,   0.00027,  -0.00021, 128.00000,   2.00000
378130971.73881,509559643.29190,-72093902.65960,   0.00086,   0.00186,  -0.00115,476730784.00000,   0.00028,274947104.00000,   0.00013,   0.00028,  -0.00022, 128.00000,   2.00000
377437747.35516,510032967.07289,-71801256.37433,   0.00086,   0.00187,  -0.00115,476714272.00000,   0.00029,274953408.00000,   0.00013,   0.00028,  -0.00022,   0.00000,   2.00000
376744351.96666,510506846.60115,-71500983.40426,   0.00086,   0.00188,  -0.00115,476737696.00000,   0.00029,274959776.00000,   0.00014,   0.00029,  -0.00023,   0.00000,   2.00000
376039492.49230,510978580.54712,-71203769.52999,   0.00085,   0.00189,  -0.00116,476735104.00000,   0.00030,274966144.00000,   0.00014,   0.00029,  -0.00023, 192.00000,   2.00000
375332217.65840,511447676.32560,-70904480.01383,   0.00085,   0.00190,  -0.00116,476761600.00000,   0.00030,274972544.00000,   0.00014,   0.00030,  -0.00023,  64.00000,   2.00000
374631615.05478,511911220.57021,-70603363.26186,   0.00085,   0.00191,  -0.00116,476750848.00000,   0.00031,274978912.00000,   0.00014,   0.00031,  -0.00024,  96.00000,   2.00000
373917268.17784,512370022.29823,-70310769.97330,   0.00085,   0.00191,  -0.00116,476751168.00000,   0.00031,274985248.00000,   0.00015,   0.00031,  -0.00024,  32.00000,   2.00000
373202699.12336,512829797.41197,-70010342.51890,   0.00085,   0.00192,  -0.00116,476774720.00000,   0.00032,274991648.00000,   0.00015,   0.00032,  -0.00025,   0.00000,   2.00000
372489377.60378,513284829.28550,-69710712.11932,   0.00084,   0.00193,  -0.00116,476783744.00000,   0.00033,274998048.00000,   0.00015,   0.00033,  -0.00025, -64.00000,   2.00000
371767448.05989,513735371.68276,-69416687.57225,   0.00084,   0.00194,  -0.00116,476764032.00000,   0.00033,275004384.00000,   0.00015,   0.00033,  -0.00025,  32.00000,   2.00000
371043396.69253,514184432.63199,-69120478.68712,   0.00084,   0.00195,  -0.00116,476790304.00000,   0.00034,275010784.00000,   0.00015,   0.00034,  -0.00026,   0.00000,   2.00000
370309400.93218,514635291.18991,-68821238.59342,   0.00084,   0.00196,  -0.00116,476785088.00000,   0.00034,275017120.00000,   0.00016,   0.00034,  -0.00026,  64.00000,   2.00000
369574606.50457,515078885.36170,-68528396.02251,   0.00084,   0.00197,  -0.00116,476796960.00000,   0.00035,275023520.00000,   0.00016,   0.00035,  -0.00027,  96.00000,   2.00000
368842746.76227,515520876.75692,-68230508.50169,   0.00083,   0.00198,  -0.00116,476803488.00000,   0.00036,275029888.00000,   0.00016,   0.00036,  -0.00027,   0.00000,   2.00000
368109019.47518,515961832.56565,-67930522.03970,   0.00083,   0.00199,  -0.00116,476829824.00000,   0.00036,275036352.00000,   0.00016,   0.00036,  -0.00027,  96.00000,   2.00000
367366164.54329,516398624.26913,-67635968.84135,   0.00083,   0.00200,  -0.00116,476810528.00000,   0.00037,275042688.00000,   0.00016,   0.00037,  -0.00028, 160.00000,   2.00000
366611076.34295,516834335.08447,-67343992.20019,   0.00083,   0.00201,  -0.00116,476808256.00000,   0.00037,275049024.00000,   0.00017,   0.00037,  -0.00028,  96.00000,   2.00000
365867326.69445,517265549.21376,-67048021.59779,   0.00082,   0.00202,  -0.00116,476846144.00000,   0.00038,275055456.00000,   0.00017,   0.00038,  -0.00028, -64.00000,   2.00000
365113205.50966,517698577.95271,-66748951.23622,   0.00082,   0.00203,  -0.00116,476841472.00000,   0.00038,275061856.00000,   0.00017,   0.00039,  -0.00029,  32.00000,   2.00000
364348062.00862,518125003.19852,-66461030.42885,   0.00082,   0.00204,  -0.00116,476824736.00000,   0.00039,275068192.00000,   0.00017,   0.00039,  -0.00029,  32.00000,   2.00000
363596169.92722,518549589.73303,-66163453.23966,   0.00082,   0.00205,  -0.00116,476860320.00000,   0.00040,275074624.00000,   0.00017,   0.00040,  -0.00030, -64.00000,   2.00000
362818340.29241,518976030.85440,-65870298.68450,   0.00082,   0.00206,  -0.00116,476846976.00000,   0.00040,275080960.00000,   0.00018,   0.00041,  -0.00030, -32.00000,   2.00000
362055315.89268,519395415.06235,-65576127.02081,   0.00081,   0.00207,  -0.00116,476867712.00000,   0.00041,275087360.00000,   0.00018,   0.00041,  -0.00030,  32.00000,   2.00000
361279776.92675,519813532.65926,-65284529.61014,   0.00081,   0.00208,  -0.00116,476866080.00000,   0.00041,275093728.00000,   0.00018,   0.00042,  -0.00031,   0.00000,   2.00000
360505375.93026,520227466.77378,-64993716.74446,   0.00081,   0.00209,  -0.00116,476875648.00000,   0.00042,275100128.00000,   0.00018,   0.00043,  -0.00031, -64.00000,   2.00000
359732252.21359,520637484.79794,-64703738.27128,   0.00081,   0.00210,  -0.00116,476885344.00000,   0.00043,275106528.00000,   0.00018,   0.00043,  -0.00031,   0.00000,   2.00000
358946770.76424,521046730.92552,-64416401.97711,   0.00080,   0.00211,  -0.00116,476883904.00000,   0.00043,275112896.00000,   0.00019,   0.00044,  -0.00032,  64.00000,   2.00000
358177764.02291,521451654.32805,-64122412.72037,   0.00080,   0.00212,  -0.00116,476902848.00000,   0.00044,275119296.00000,   0.00019,   0.00045,  -0.00032,  64.00000,   2.00000
357382096.60232,521858364.41358,-63832835.12724,   0.00080,   0.00213,  -0.00115,476890688.00000,   0.00044,275125632.00000,   0.00019,   0.00045,  -0.00033,-128.00000,   2.00000
356595973.01382,522257084.11683,-63545398.50812,   0.00080,   0.00214,  -0.00115,476932000.00000,   0.00045,275132064.00000,   0.00019,   0.00046,  -0.00033,  32.00000,   2.00000
355800191.40850,522652566.06723,-63257253.32912,   0.00079,   0.00215,  -0.00115,476910272.00000,   0.00045,275138432.00000,   0.00019,   0.00046,  -0.00033, -32.00000,   2.00000
355003585.14406,523039591.56512,-62969263.24296,   0.00079,   0.00216,  -0.00115,476917856.00000,   0.00046,275144832.00000,   0.00020,   0.00047,  -0.00034, -96.00000,   2.00000
354189587.30340,523420035.16065,-62679491.33572,   0.00079,   0.00217,  -0.00115,476928640.00000,   0.00047,275151296.00000,   0.00020,   0.00048,  -0.00034, -64.00000,   2.00000
353380580.17441,523783934.44881,-62390308.09876,   0.00079,   0.00218,  -0.00115,476910912.00000,   0.00047,275157728.00000,   0.00020,   0.00048,  -0.00034,-128.00000,   2.00000
352575876.33930,524135794.33911,-62095093.69801,   0.00078,   0.00219,  -0.00115,476923616.00000,   0.00048,275164288.00000,   0.00020,   0.00049,  -0.00035,   0.00000,   2.00000
351788007.31192,524473744.68793,-61798145.28615,   0.00078,   0.00220,  -0.00115,476898912.00000,   0.00048,275170848.00000,   0.00020,   0.00050,  -0.00035, -96.00000,   2.00000
351017655.65721,524810330.98808,-61488492.19927,   0.00078,   0.00221,  -0.00115,476907712.00000,   0.00049,275177504.00000,   0.00020,   0.00050,  -0.00035,-128.00000,   2.00000
350253202.46185,525142707.14870,-61185222.09694,   0.00078,   0.00222,  -0.00115,476882336.00000,   0.00050,275184128.00000,   0.00021,   0.00051,  -0.00036, -32.00000,   2.00000
349502649.59839,525483222.95038,-60871826.82692,   0.00077,   0.00223,  -0.00115,476902848.00000,   0.00050,275190784.00000,   0.00021,   0.00052,  -0.00036,  32.00000,   2.00000
348744613.26106,525826688.47531,-60569040.88245,   0.00077,   0.00224,  -0.00115,476891680.00000,   0.00051,275197312.00000,   0.00021,   0.00052,  -0.00037, 128.00000,   2.00000
347984986.32028,526181458.92607,-60260366.16733,   0.00077,   0.00225,  -0.00115,476924096.00000,   0.00051,275203904.00000,   0.00021,   0.00053,  -0.00037,  96.00000,   2.00000
347218054.57480,526535960.17853,-59964516.14927,   0.00076,   0.00226,  -0.00115,476930880.00000,   0.00052,275210400.00000,   0.00021,   0.00054,  -0.00037,  64.00000,   2.00000
346440583.41134,526896384.83265,-59665228.54206,   0.00076,   0.00227,  -0.00115,476967712.00000,   0.00053,275216896.00000,   0.00021,   0.00054,  -0.00038,  96.00000,   2.00000
345654699.83053,527251079.07475,-59374139.99983,   0.00076,   0.00228,  -0.00115,476972096.00000,   0.00053,275223328.00000,   0.00021,   0.00055,  -0.00038, -32.00000,   2.00000
344844324.14978,527603097.72758,-59087215.08667,   0.00076,   0.00229,  -0.00115,476998688.00000,   0.00054,275229792.00000,   0.00022,   0.00056,  -0.00038,   0.00000,   2.00000
344031594.77017,527943131.75417,-58807536.56148,   0.00075,   0.00230,  -0.00115,476998336.00000,   0.00054,275236224.00000,   0.00022,   0.00056,  -0.00039,  32.00000,   2.00000
343215145.28279,528274601.32600,-58528878.89040,   0.00075,   0.00231,  -0.00115,477030656.00000,   0.00055,275242720.00000,   0.00022,   0.00057,  -0.00039, 128.00000,   2.00000
342401567.97358,528594917.05782,-58255587.20210,   0.00075,   0.00232,  -0.00115,477025600.00000,   0.00056,275249184.00000,   0.00022,   0.00058,  -0.00039,  64.00000,   2.00000
341572513.14052,528911719.95984,-57983187.76298,   0.00074,   0.00233,  -0.00115,477043936.00000,   0.00056,275255712.00000,   0.00022,   0.00058,  -0.00040,  32.00000,   2.00000
340747509.46690,529220568.92700,-57714594.33343,   0.00074,   0.00234,  -0.00115,477036096.00000,   0.00057,275262176.00000,   0.00022,   0.00059,  -0.00040,-352.00000,   1.00000
339922776.08916,529527701.05775,-57444554.83518,   0.00074,   0.00234,  -0.00115,477063136.00000,   0.00057,275268704.00000,   0.00022,   0.00060,  -0.00040, 224.00000,   1.00000
339101754.87911,529829012.97386,-57177669.22355,   0.00073,   0.00235,  -0.00115,477055200.00000,   0.00058,275275200.00000,   0.00023,   0.00061,  -0.00041, 416.00000,   1.00000
338265136.41641,530130973.61552,-56910361.80751,   0.00073,   0.00236,  -0.00115,477072256.00000,   0.00059,275281728.00000,   0.00023,   0.00061,  -0.00041, 480.00000,   1.00000
337432198.94363,530428235.98194,-56646160.91011,   0.00073,   0.00237,  -0.00115,477063584.00000,   0.00059,275288192.00000,   0.00023,   0.00062,  -0.00041, 608.00000,   1.00000
336601921.74168,530724691.29560,-56376768.43681,   0.00073,   0.00238,  -0.00115,477070848.00000,   0.00060,275294688.00000,   0.00023,   0.00063,  -0.00042, 544.00000,   1.00000
335771684.31446,531015719.96036,-56113985.72328,   0.00072,   0.00239,  -0.00115,477082304.00000,   0.00060,275301152.00000,   0.00023,   0.00063,  -0.00042, 640.00000,   1.00000
334940508.68843,531304797.11734,-55849514.57056,   0.00072,   0.00240,  -0.00115,477110048.00000,   0.00061,275307744.00000,   0.00023,   0.00064,  -0.00042, 576.00000,   1.00000
334099227.71615,531593618.72110,-55583885.08381,   0.00072,   0.00241,  -0.00115,477088864.00000,   0.00062,275314208.00000,   0.00023,   0.00065,  -0.00043, 640.00000,   1.00000
333257825.40056,531876225.86210,-55324944.15832,   0.00071,   0.00242,  -0.00115,477100800.00000,   0.00062,275320704.00000,   0.00023,   0.00065,  -0.00043, 448.00000,   1.00000
332418171.67815,532155762.40475,-55066946.95914,   0.00071,   0.00243,  -0.00115,477109856.00000,   0.00063,275327200.00000,   0.00024,   0.00066,  -0.00043, 672.00000,   1.00000
331581204.34161,532433759.21389,-54803965.95730,   0.00071,   0.00244,  -0.00115,477117440.00000,   0.00063,275333696.00000,   0.00024,   0.00067,  -0.00044, 576.00000,   1.00000
330746435.76174,532704165.11373,-54550155.28542,   0.00070,   0.00245,  -0.00115,477110944.00000,   0.00064,275340128.00000,   0.00024,   0.00067,  -0.00044, 480.00000,   1.00000
329896206.60355,532974676.20601,-54296224.71577,   0.00070,   0.00246,  -0.00115,477128064.00000,   0.00065,275346624.00000,   0.00024,   0.00068,  -0.00044, 640.00000,   1.00000
329064027.98534,533241444.30824,-54035962.21622,   0.00070,   0.00247,  -0.00115,477145856.00000,   0.00065,275353184.00000,   0.00024,   0.00069,  -0.00044, 608.00000,   1.00000
328217084.79179,533504328.81227,-53783826.50012,   0.00069,   0.00248,  -0.00115,477147104.00000,   0.00066,275359680.00000,   0.00024,   0.00069,  -0.00045, 704.00000,   1.00000
327373629.40935,533761691.49061,-53534868.68723,   0.00069,   0.00249,  -0.00115,477138592.00000,   0.00066,275366144.00000,   0.00024,   0.00070,  -0.00045, 544.00000,   1.00000
326516276.80562,534021417.50474,-53279897.58246,   0.00069,   0.00250,  -0.00115,477153536.00000,   0.00067,275372672.00000,   0.00024,   0.00071,  -0.00045, 768.00000,   1.00000
325676559.44638,534271368.09806,-53032650.11135,   0.00068,   0.00251,  -0.00115,477157216.00000,   0.00068,275379168.00000,   0.00024,   0.00072,  -0.00046, 640.00000,   1.00000
324838857.22160,534517829.26464,-52786245.25658,   0.00068,   0.00252,  -0.00115,477166304.00000,   0.00068,275385664.00000,   0.00025,   0.00072,  -0.00046, 672.00000,   1.00000
323988788.01360,534764554.52427,-52536013.79056,   0.00068,   0.00253,  -0.00115,477163616.00000,   0.00069,275392128.00000,   0.00025,   0.00073,  -0.00046, 512.00000,   1.00000
323137941.17834,535006976.38518,-52290212.28282,   0.00068,   0.00254,  -0.00115,477192864.00000,   0.00069,275398688.00000,   0.00025,   0.00074,  -0.00047, 928.00000,   1.00000
322290569.73550,535243739.20080,-52047408.25844,   0.00067,   0.00255,  -0.00114,477184448.00000,   0.00070,275405216.00000,   0.00025,   0.00074,  -0.00047, 672.00000,   1.00000
321447144.42123,535475809.92126,-51807665.02447,   0.00067,   0.00256,  -0.00114,477175136.00000,   0.00071,275411648.00000,   0.00025,   0.00075,  -0.00047, 704.00000,   1.00000
320605442.34580,535707860.12789,-51560509.65420,   0.00067,   0.00257,  -0.00114,477200416.00000,   0.00071,275418176.00000,   0.00025,   0.00076,  -0.00047, 864.00000,   1.00000
319764646.23681,535933857.35702,-51319985.28666,   0.00066,   0.00258,  -0.00114,477211776.00000,   0.00072,275424736.00000,   0.00025,   0.00076,  -0.00048, 992.00000,   1.00000
318911869.50376,536156414.70663,-51083610.48308,   0.00066,   0.00259,  -0.00114,477193024.00000,   0.00072,275431200.00000,   0.00025,   0.00077,  -0.00048, 704.00000,   1.00000
318075120.03196,536374141.09875,-50844402.98992,   0.00066,   0.00260,  -0.00114,477229856.00000,   0.00073,275437760.00000,   0.00025,   0.00078,  -0.00048,  64.00000,   2.00000
317227488.75426,536590621.34756,-50609531.29124,   0.00065,   0.00261,  -0.00114,477210272.00000,   0.00074,275444256.00000,   0.00025,   0.00079,  -0.00049, 992.00000,   1.00000
316381016.00102,536801237.96680,-50375082.22350,   0.00065,   0.00262,  -0.00114,477220384.00000,   0.00074,275450752.00000,   0.00026,   0.00079,  -0.00049,   0.00000,   2.00000
315554506.40013,537010031.37029,-50134351.29509,   0.00065,   0.00263,  -0.00114,477236032.00000,   0.00075,275457312.00000,   0.00026,   0.00080,  -0.00049,  32.00000,   2.00000
314713349.96088,537214605.13817,-49901376.36249,   0.00064,   0.00264,  -0.00114,477237472.00000,   0.00075,275463840.00000,   0.00026,   0.00081,  -0.00049,   0.00000,   2.00000
313874631.21243,537415605.31454,-49669049.92499,   0.00064,   0.00265,  -0.00114,477246368.00000,   0.00076,275470368.00000,   0.00026,   0.00081,  -0.00050,  64.00000,   2.00000
313022626.85650,537611176.80501,-49446591.96607,   0.00064,   0.00266,  -0.00114,477229696.00000,   0.00077,275476832.00000,   0.00026,   0.00082,  -0.00050, -64.00000,   2.00000
312190272.08718,537804052.30019,-49217687.64419,   0.00063,   0.00267,  -0.00114,477246176.00000,   0.00077,275483360.00000,   0.00026,   0.00083,  -0.00050, -64.00000,   2.00000
311359119.90621,537994569.13569,-48987240.93923,   0.00063,   0.00268,  -0.00114,477273600.00000,   0.00078,275489920.00000,   0.00026,   0.00083,  -0.00050,  96.00000,   2.00000
310515606.60063,538181810.79154,-48760692.74314,   0.00062,   0.00268,  -0.00114,477254912.00000,   0.00078,275496416.00000,   0.00026,   0.00084,  -0.00051,  32.00000,   2.00000
309690721.98770,538364276.97083,-48533641.99125,   0.00062,   0.00269,  -0.00114,477273120.00000,   0.00079,275502976.00000,   0.00026,   0.00085,  -0.00051,  96.00000,   2.00000
308852297.91783,538541556.84334,-48316368.54402,   0.00062,   0.00270,  -0.00114,477256224.00000,   0.00080,275509440.00000,   0.00026,   0.00086,  -0.00051,   0.00000,   2.00000
308032564.71289,538717539.44373,-48090534.86525,   0.00061,   0.00271,  -0.00114,477290880.00000,   0.00080,275516032.00000,   0.00026,   0.00086,  -0.00052, 128.00000,   2.00000
307200049.55150,538890206.28458,-47868501.77578,   0.00061,   0.00272,  -0.00114,477272128.00000,   0.00081,275522496.00000,   0.00026,   0.00087,  -0.00052,-224.00000,   2.00000
306384307.20621,539057670.35660,-47649830.31886,   0.00061,   0.00273,  -0.00114,477310272.00000,   0.00081,275529120.00000,   0.00026,   0.00088,  -0.00052,-224.00000,   2.00000
305556825.14509,539224335.28283,-47429021.93788,   0.00060,   0.00274,  -0.00114,477289728.00000,   0.00082,275535616.00000,   0.00027,   0.00088,  -0.00052,-128.00000,   2.00000
304731676.53778,539384754.20929,-47216834.90642,   0.00060,   0.00275,  -0.00114,477282080.00000,   0.00083,275542080.00000,   0.00027,   0.00089,  -0.00053,  32.00000,   2.00000
303907955.93895,539543194.29647,-47003135.38562,   0.00060,   0.00276,  -0.00114,477309248.00000,   0.00083,275548640.00000,   0.00027,   0.00090,  -0.00053,  96.00000,   2.00000
303086457.07456,539698421.12411,-46790008.60350,   0.00059,   0.00277,  -0.00114,477318080.00000,   0.00084,275555200.00000,   0.00027,   0.00091,  -0.00053,-192.00000,   2.00000
302269283.35917,539852123.73963,-46573661.06403,   0.00059,   0.00278,  -0.00114,477306336.00000,   0.00084,275561696.00000,   0.00027,   0.00091,  -0.00053,-128.00000,   2.00000
301469841.29890,540000056.19061,-46362860.06430,   0.00059,   0.00279,  -0.00114,477325696.00000,   0.00085,275568224.00000,   0.00027,   0.00092,  -0.00054, -96.00000,   2.00000
300655985.14161,540146236.36026,-46153704.16294,   0.00058,   0.00280,  -0.00114,477325312.00000,   0.00086,275574752.00000,   0.00027,   0.00093,  -0.00054, -32.00000,   2.00000
299845061.37584,540288928.08235,-45947240.20043,   0.00058,   0.00281,  -0.00114,477315456.00000,   0.00086,275581216.00000,   0.00027,   0.00093,  -0.00054,  32.00000,   2.00000
299035335.58616,540429890.05302,-45739365.05720,   0.00058,   0.00282,  -0.00114,477342240.00000,   0.00087,275587776.00000,   0.00027,   0.00094,  -0.00054, -96.00000,   2.00000
298227428.10093,540565602.27618,-45540152.12807,   0.00057,   0.00283,  -0.00114,477334080.00000,   0.00087,275594240.00000,   0.00027,   0.00095,  -0.00055, 224.00000,   2.00000
297422294.54447,540700745.68578,-45335639.16145,   0.00057,   0.00284,  -0.00114,477340736.00000,   0.00088,275600736.00000,   0.00027,   0.00096,  -0.00055, -64.00000,   2.00000
296619080.26678,540833728.90180,-45131855.84214,   0.00057,   0.00284,  -0.00114,477348992.00000,   0.00089,275607264.00000,   0.00027,   0.00096,  -0.00055,  32.00000,   2.00000
295817222.67282,540961291.89994,-44936738.44476,   0.00056,   0.00285,  -0.00114,477340640.00000,   0.00089,275613696.00000,   0.00027,   0.00097,  -0.00055,-160.00000,   2.00000
295017465.81533,541089611.50751,-44734427.69493,   0.00056,   0.00286,  -0.00114,477365376.00000,   0.00090,275620224.00000,   0.00027,   0.00098,  -0.00056, -96.00000,   2.00000
294219131.55585,541212962.54830,-44540875.56483,   0.00056,   0.00287,  -0.00114,477356928.00000,   0.00090,275626688.00000,   0.00027,   0.00098,  -0.00056,  64.00000,   2.00000
293423998.81531,541335232.93377,-44344164.25181,   0.00055,   0.00288,  -0.00114,477344896.00000,   0.00091,275633120.00000,   0.00027,   0.00099,  -0.00056,  32.00000,   2.00000
292628924.41793,541453909.31072,-44152284.83923,   0.00055,   0.00289,  -0.00114,477373280.00000,   0.00092,275639584.00000,   0.00027,   0.00100,  -0.00056, -64.00000,   2.00000
291836178.92457,541569615.90734,-43963283.11359,   0.00055,   0.00290,  -0.00114,477362912.00000,   0.00092,275646016.00000,   0.00027,   0.00100,  -0.00057,-160.00000,   2.00000
291062309.84707,541682821.78163,-43774337.98820,   0.00054,   0.00291,  -0.00114,477379840.00000,   0.00093,275652480.00000,   0.00027,   0.00101,  -0.00057,  64.00000,   2.00000
290273178.74253,541793772.22063,-43587273.50650,   0.00054,   0.00292,  -0.00114,477379712.00000,   0.00093,275658944.00000,   0.00027,   0.00102,  -0.00057,-224.00000,   2.00000
289486247.13297,541902531.01719,-43401286.98056,   0.00054,   0.00293,  -0.00114,477388000.00000,   0.00094,275665376.00000,   0.00028,   0.00103,  -0.00057,   0.00000,   2.00000
288700927.61865,542005650.22939,-43224229.23917,   0.00053,   0.00294,  -0.00114,477380032.00000,   0.00095,275671808.00000,   0.00028,   0.00103,  -0.00058,-128.00000,   2.00000
287936124.47252,542107890.30822,-43041427.70823,   0.00053,   0.00295,  -0.00114,477395232.00000,   0.00095,275678240.00000,   0.00028,   0.00104,  -0.00058, -64.00000,   2.00000
287156826.42572,542207576.78793,-42860610.23408,   0.00053,   0.00295,  -0.00114,477395712.00000,   0.00096,275684640.00000,   0.00028,   0.00105,  -0.00058, -32.00000,   2.00000
286396954.81404,542301346.82818,-42687852.83858,   0.00052,   0.00296,  -0.00114,477396544.00000,   0.00096,275691072.00000,   0.00028,   0.00105,  -0.00058, -64.00000,   2.00000
285622631.76099,542393040.34396,-42515090.33854,   0.00052,   0.00297,  -0.00114,477415648.00000,   0.00097,275697504.00000,   0.00028,   0.00106,  -0.00058, -64.00000,   2.00000
284869860.67280,542482707.07282,-42338280.96238,   0.00052,   0.00298,  -0.00114,477412992.00000,   0.00098,275703936.00000,   0.00028,   0.00107,  -0.00059, -32.00000,   2.00000
284119557.66328,542566705.94431,-42170063.66911,   0.00051,   0.00299,  -0.00114,477405344.00000,   0.00098,275710304.00000,   0.00028,   0.00108,  -0.00059,   0.00000,   2.00000
283372247.50540,542648620.19421,-42000602.97687,   0.00051,   0.00300,  -0.00114,477433120.00000,   0.00099,275716768.00000,   0.00028,   0.00108,  -0.00059, -32.00000,   2.00000
282610747.86496,542727441.26841,-41834178.98786,   0.00051,   0.00301,  -0.00114,477415008.00000,   0.00099,275723136.00000,   0.00028,   0.00109,  -0.00059, -64.00000,   2.00000
281868511.69335,542801302.14167,-41674899.77666,   0.00050,   0.00302,  -0.00114,477415168.00000,   0.00100,275729504.00000,   0.00028,   0.00110,  -0.00060, -32.00000,   2.00000
281146576.93408,542875527.74949,-41506925.70127,   0.00050,   0.00303,  -0.00114,477448736.00000,   0.00101,275735968.00000,   0.00028,   0.00110,  -0.00060, -96.00000,   2.00000
280409118.61962,542947850.50110,-41341398.11301,   0.00049,   0.00303,  -0.00114,477429536.00000,   0.00101,275742336.00000,   0.00028,   0.00111,  -0.00060,-128.00000,   2.00000
279672212.22509,543017227.20792,-41181544.08387,   0.00049,   0.00304,  -0.00114,477438496.00000,   0.00102,275748704.00000,   0.00028,   0.00112,  -0.00060,-128.00000,   2.00000
278936341.63141,543085226.11418,-41023174.04994,   0.00049,   0.00305,  -0.00114,477426880.00000,   0.00102,275755008.00000,   0.00028,   0.00113,  -0.00060,   0.00000,   2.00000
278219492.38527,543155024.58712,-40855891.76061,   0.00048,   0.00306,  -0.00114,477458752.00000,   0.00103,275761408.00000,   0.00028,   0.00113,  -0.00061, 128.00000,   2.00000
277502668.17185,543221344.90521,-40698177.60247,   0.00048,   0.00307,  -0.00114,477429504.00000,   0.00103,275767712.00000,   0.00028,   0.00114,  -0.00061,  96.00000,   2.00000
276769382.46807,543287609.52470,-40539510.49642,   0.00048,   0.00308,  -0.00114,477446432.00000,   0.00104,275774016.00000,   0.00028,   0.00115,  -0.00061,  32.00000,   2.00000
276055054.25347,543352479.77637,-40382202.64697,   0.00048,   0.00309,  -0.00114,477442688.00000,   0.00105,275780320.00000,   0.00028,   0.00115,  -0.00061,   0.00000,   2.00000
275341935.74082,543414415.87263,-40231448.73769,   0.00047,   0.00310,  -0.00114,477451328.00000,   0.00105,275786624.00000,   0.00028,   0.00116,  -0.00062, -96.00000,   2.00000
274649731.98030,543476903.84305,-40074676.52059,   0.00047,   0.00310,  -0.00114,477465472.00000,   0.00106,275792928.00000,   0.00028,   0.00117,  -0.00062,  96.00000,   2.00000
273942571.58536,543536453.99193,-39921362.77850,   0.00047,   0.00311,  -0.00114,477447136.00000,   0.00106,275799200.00000,   0.00028,   0.00117,  -0.00062,-128.00000,   2.00000
273255391.74112,543592286.04676,-39774230.57587,   0.00046,   0.00312,  -0.00114,477465376.00000,   0.00107,275805472.00000,   0.00028,   0.00118,  -0.00062, -96.00000,   2.00000
272553400.94626,543644840.41642,-39630573.96401,   0.00046,   0.00313,  -0.00114,477447520.00000,   0.00108,275811680.00000,   0.00028,   0.00119,  -0.00062,-128.00000,   2.00000
271872423.01264,543695997.28088,-39485324.34723,   0.00046,   0.00314,  -0.00114,477483168.00000,   0.00108,275817984.00000,   0.00028,   0.00119,  -0.00063, 128.00000,   2.00000
271193697.62387,543743964.75540,-39342649.12019,   0.00045,   0.00315,  -0.00114,477473600.00000,   0.00109,275824256.00000,   0.00028,   0.00120,  -0.00063, -32.00000,   2.00000
270516956.36182,543789188.29947,-39202467.25543,   0.00045,   0.00316,  -0.00114,477463424.00000,   0.00109,275830432.00000,   0.00028,   0.00121,  -0.00063,  32.00000,   2.00000
269842274.81500,543832596.34438,-39062965.52620,   0.00045,   0.00316,  -0.00114,477471616.00000,   0.00110,275836640.00000,   0.00028,   0.00122,  -0.00063,-192.00000,   2.00000
269187047.36158,543874507.72888,-38923320.89707,   0.00044,   0.00317,  -0.00114,477487552.00000,   0.00110,275842880.00000,   0.00028,   0.00122,  -0.00063, -96.00000,   2.00000
268532288.68363,543912946.53758,-38791950.84329,   0.00044,   0.00318,  -0.00114,477477920.00000,   0.00111,275849088.00000,   0.00028,   0.00123,  -0.00064,   0.00000,   2.00000
267879509.09233,543951583.83635,-38655019.12378,   0.00044,   0.00319,  -0.00114,477483872.00000,   0.00112,275855264.00000,   0.00028,   0.00124,  -0.00064, -32.00000,   2.00000
267227265.13261,543987262.95813,-38524527.32943,   0.00043,   0.00320,  -0.00114,477492544.00000,   0.00112,275861472.00000,   0.00028,   0.00124,  -0.00064, -96.00000,   2.00000
266575938.71838,544021597.78238,-38396144.23777,   0.00043,   0.00321,  -0.00114,477480544.00000,   0.00113,275867584.00000,   0.00028,   0.00125,  -0.00064,   0.00000,   2.00000
265925881.15392,544054857.55179,-38268118.57128,   0.00043,   0.00321,  -0.00114,477487424.00000,   0.00113,275873728.00000,   0.00028,   0.00126,  -0.00064,   0.00000,   2.00000
265295078.02913,544087625.44214,-38139743.58939,   0.00042,   0.00322,  -0.00114,477502240.00000,   0.00114,275879904.00000,   0.00028,   0.00126,  -0.00064, -32.00000,   2.00000
264665158.30896,544118925.34184,-38013403.10816,   0.00042,   0.00323,  -0.00114,477490176.00000,   0.00114,275886016.00000,   0.00028,   0.00127,  -0.00065,   0.00000,   2.00000
264036150.94243,544147908.24984,-37893433.68890,   0.00042,   0.00324,  -0.00114,477498624.00000,   0.00115,275892128.00000,   0.00028,   0.00128,  -0.00065,  96.00000,   2.00000
263408653.71590,544176668.24625,-37769410.82804,   0.00042,   0.00325,  -0.00114,477485376.00000,   0.00116,275898176.00000,   0.00028,   0.00128,  -0.00065,-160.00000,   2.00000
262800055.44676,544203371.20436,-37651042.79398,   0.00041,   0.00325,  -0.00114,477501216.00000,   0.00116,275904256.00000,   0.00028,   0.00129,  -0.00065,-128.00000,   2.00000
262193295.60253,544229552.00418,-37533027.24836,   0.00041,   0.00326,  -0.00114,477508000.00000,   0.00117,275910368.00000,   0.00028,   0.00130,  -0.00065,  64.00000,   2.00000
261587486.48359,544253935.73408,-37416967.37713,   0.00041,   0.00327,  -0.00114,477496320.00000,   0.00117,275916384.00000,   0.00028,   0.00130,  -0.00066, -32.00000,   2.00000
260983460.75266,544277418.45410,-37301228.93719,   0.00040,   0.00328,  -0.00114,477503232.00000,   0.00118,275922432.00000,   0.00028,   0.00131,  -0.00066, -32.00000,   2.00000
260380493.10013,544299296.85418,-37187450.38147,   0.00040,   0.00329,  -0.00114,477491520.00000,   0.00118,275928384.00000,   0.00028,   0.00132,  -0.00066, -32.00000,   2.00000
259797419.01299,544320978.93630,-37073325.28325,   0.00040,   0.00329,  -0.00114,477506016.00000,   0.00119,275934400.00000,   0.00028,   0.00132,  -0.00066,  32.00000,   2.00000
259214688.15602,544339450.24185,-36967170.25009,   0.00039,   0.00330,  -0.00114,477495776.00000,   0.00119,275940352.00000,   0.00028,   0.00133,  -0.00066,  32.00000,   2.00000
258634340.54759,544358459.45341,-36855284.12802,   0.00039,   0.00331,  -0.00114,477501216.00000,   0.00120,275946304.00000,   0.00028,   0.00134,  -0.00066, -64.00000,   2.00000
258073334.41299,544375879.50288,-36749096.57057,   0.00039,   0.00332,  -0.00114,477517024.00000,   0.00121,275952288.00000,   0.00028,   0.00134,  -0.00067,   0.00000,   2.00000
257513246.17904,544391813.32236,-36644839.04816,   0.00039,   0.00333,  -0.00114,477505152.00000,   0.00121,275958208.00000,   0.00028,   0.00135,  -0.00067, 128.00000,   2.00000
256954829.56215,544406666.45698,-36540870.23264,   0.00038,   0.00333,  -0.00115,477512128.00000,   0.00122,275964128.00000,   0.00028,   0.00136,  -0.00067,   0.00000,   2.00000
256397388.42957,544420366.27881,-36438842.50109,   0.00038,   0.00334,  -0.00115,477500000.00000,   0.00122,275969984.00000,   0.00028,   0.00136,  -0.00067,  64.00000,   2.00000
255859126.32665,544432206.28093,-36342472.31232,   0.00038,   0.00335,  -0.00115,477515936.00000,   0.00123,275975904.00000,   0.00028,   0.00137,  -0.00067, -96.00000,   2.00000
255323162.49196,544444777.82955,-36240364.41322,   0.00037,   0.00336,  -0.00115,477521184.00000,   0.00123,275981792.00000,   0.00027,   0.00138,  -0.00068, -32.00000,   2.00000
254787384.60369,544454632.13145,-36146207.02006,   0.00037,   0.00336,  -0.00115,477510496.00000,   0.00124,275987648.00000,   0.00027,   0.00138,  -0.00068,   0.00000,   2.00000
254253793.20321,544465043.93550,-36046291.21649,   0.00037,   0.00337,  -0.00115,477515808.00000,   0.00124,275993472.00000,   0.00027,   0.00139,  -0.00068, -32.00000,   2.00000
253738580.08072,544473727.59430,-35953684.82962,   0.00037,   0.00338,  -0.00115,477512352.00000,   0.00125,275999296.00000,   0.00027,   0.00140,  -0.00068,  32.00000,   2.00000
253223920.39716,544481119.39494,-35862947.35930,   0.00036,   0.00339,  -0.00115,477500224.00000,   0.00125,276005024.00000,   0.00027,   0.00140,  -0.00068,  64.00000,   2.00000
252730087.05567,544489138.90900,-35770265.33810,   0.00036,   0.00339,  -0.00115,477533024.00000,   0.00126,276010880.00000,   0.00027,   0.00141,  -0.00068,  32.00000,   2.00000
252217301.44910,544494292.96101,-35681644.27009,   0.00036,   0.00340,  -0.00115,477494688.00000,   0.00127,276016544.00000,   0.00027,   0.00142,  -0.00069,-224.00000,   2.00000
251724953.84048,544499012.94298,-35597147.82292,   0.00036,   0.00341,  -0.00115,477528256.00000,   0.00127,276022336.00000,   0.00027,   0.00142,  -0.00069, -64.00000,   2.00000
251251984.15111,544505244.79664,-35507853.56642,   0.00035,   0.00342,  -0.00115,477521984.00000,   0.00128,276028096.00000,   0.00027,   0.00143,  -0.00069,  64.00000,   2.00000
250760258.95064,544507444.14860,-35427027.01219,   0.00035,   0.00342,  -0.00115,477503808.00000,   0.00128,276033728.00000,   0.00027,   0.00144,  -0.00069, -64.00000,   2.00000
250288394.44447,544510170.39999,-35345848.16469,   0.00035,   0.00343,  -0.00115,477517312.00000,   0.00129,276039424.00000,   0.00027,   0.00144,  -0.00069, -96.00000,   2.00000
249835276.21481,544513172.66339,-35265901.38566,   0.00035,   0.00344,  -0.00115,477512064.00000,   0.00129,276045088.00000,   0.00027,   0.00145,  -0.00069, -32.00000,   2.00000
249383368.95200,544515269.59930,-35186180.97565,   0.00034,   0.00345,  -0.00115,477518336.00000,   0.00130,276050720.00000,   0.00027,   0.00145,  -0.00070, -64.00000,   2.00000
248932889.59054,544517042.01157,-35106729.50000,   0.00034,   0.00345,  -0.00115,477524544.00000,   0.00130,276056384.00000,   0.00027,   0.00146,  -0.00070, -64.00000,   2.00000
248482509.41341,544517706.60278,-35029076.53156,   0.00034,   0.00346,  -0.00115,477512064.00000,   0.00131,276061984.00000,   0.00027,   0.00147,  -0.00070, -64.00000,   2.00000
248050108.47316,544517052.67852,-34958660.34124,   0.00034,   0.00347,  -0.00115,477508000.00000,   0.00131,276067520.00000,   0.00027,   0.00147,  -0.00070,  32.00000,   2.00000
247619547.35792,544517432.91856,-34882433.44812,   0.00033,   0.00347,  -0.00116,477512768.00000,   0.00132,276073088.00000,   0.00027,   0.00148,  -0.00070,  32.00000,   2.00000
247189657.96972,544515783.75934,-34812481.33976,   0.00033,   0.00348,  -0.00116,477520160.00000,   0.00132,276078624.00000,   0.00027,   0.00149,  -0.00070, -64.00000,   2.00000
246778216.04115,544514353.68646,-34743701.23749,   0.00033,   0.00349,  -0.00116,477514752.00000,   0.00133,276084160.00000,   0.00027,   0.00149,  -0.00070, -96.00000,   2.00000
246368031.31964,544512644.18422,-34675153.04435,   0.00033,   0.00350,  -0.00116,477520512.00000,   0.00133,276089664.00000,   0.00027,   0.00150,  -0.00071,  64.00000,   2.00000
245976249.48000,544511295.49474,-34607776.11090,   0.00033,   0.00350,  -0.00116,477514912.00000,   0.00134,276095168.00000,   0.00027,   0.00150,  -0.00071,  32.00000,   2.00000
245565501.74930,544507146.34055,-34548820.31057,   0.00032,   0.00351,  -0.00116,477496608.00000,   0.00134,276100544.00000,   0.00027,   0.00151,  -0.00071, 992.00000,   1.00000
245193259.47778,544505846.79690,-34482802.48334,   0.00032,   0.00352,  -0.00116,477516096.00000,   0.00135,276105984.00000,   0.00027,   0.00152,  -0.00071, 992.00000,   1.00000
244803042.65596,544501544.53500,-34417475.06849,   0.00032,   0.00352,  -0.00116,477515008.00000,   0.00135,276111392.00000,   0.00027,   0.00152,  -0.00071,  64.00000,   2.00000
244431029.91636,544497435.91553,-34359430.62098,   0.00032,   0.00353,  -0.00116,477509312.00000,   0.00136,276116768.00000,   0.00027,   0.00153,  -0.00071, -96.00000,   2.00000
244077617.08045,544494786.91983,-34302586.80380,   0.00031,   0.00354,  -0.00116,477503488.00000,   0.00136,276122112.00000,   0.00027,   0.00153,  -0.00072, 800.00000,   1.00000
243724884.34552,544490940.57402,-34245861.86808,   0.00031,   0.00354,  -0.00116,477510016.00000,   0.00137,276127456.00000,   0.00027,   0.00154,  -0.00072, 832.00000,   1.00000
243373174.88754,544486828.59774,-34189323.57242,   0.00031,   0.00355,  -0.00116,477515712.00000,   0.00137,276132800.00000,   0.00027,   0.00155,  -0.00072, 928.00000,   1.00000
243020959.64591,544481741.01605,-34134460.88492,   0.00031,   0.00356,  -0.00116,477502720.00000,   0.00138,276138080.00000,   0.00026,   0.00155,  -0.00072, 832.00000,   1.00000
242686367.79603,544475817.74624,-34086759.00373,   0.00031,   0.00356,  -0.00116,477497824.00000,   0.00138,276143296.00000,   0.00026,   0.00156,  -0.00072, 864.00000,   1.00000
242371971.34243,544472722.94328,-34032625.43896,   0.00031,   0.00357,  -0.00116,477508896.00000,   0.00139,276148576.00000,   0.00026,   0.00156,  -0.00072, 928.00000,   1.00000
242056314.72355,544467079.84593,-33986181.80492,   0.00030,   0.00358,  -0.00117,477497248.00000,   0.00139,276153760.00000,   0.00026,   0.00157,  -0.00072, 736.00000,   1.00000
241742187.90012,544462954.00959,-33933865.16004,   0.00030,   0.00358,  -0.00117,477501184.00000,   0.00140,276158944.00000,   0.00026,   0.00158,  -0.00073, 800.00000,   1.00000
241447072.55464,544458589.06557,-33887206.17835,   0.00030,   0.00359,  -0.00117,477514976.00000,   0.00140,276164160.00000,   0.00026,   0.00158,  -0.00073, 736.00000,   1.00000
241149642.48493,544452752.01996,-33843659.44607,   0.00030,   0.00359,  -0.00117,477482976.00000,   0.00141,276169248.00000,   0.00026,   0.00159,  -0.00073, 640.00000,   1.00000
240854664.39789,544447466.47633,-33798781.75943,   0.00030,   0.00360,  -0.00117,477507008.00000,   0.00141,276174400.00000,   0.00026,   0.00159,  -0.00073, 576.00000,   1.00000
240575491.89031,544440809.70180,-33762501.35596,   0.00029,   0.00361,  -0.00117,477483136.00000,   0.00142,276179456.00000,   0.00026,   0.00160,  -0.00073, 416.00000,   1.00000
240316412.12508,544437191.28744,-33719764.26036,   0.00029,   0.00361,  -0.00117,477493856.00000,   0.00142,276184512.00000,   0.00026,   0.00160,  -0.00073, 448.00000,   1.00000
240038776.03456,544430351.46415,-33683746.98407,   0.00029,   0.00362,  -0.00117,477493632.00000,   0.00143,276189568.00000,   0.00026,   0.00161,  -0.00073, 384.00000,   1.00000
239798303.73030,544427401.17398,-33642196.51750,   0.00029,   0.00363,  -0.00117,477492544.00000,   0.00143,276194592.00000,   0.00026,   0.00162,  -0.00073, 448.00000,   1.00000
239537597.64185,544420695.34129,-33608833.49969,   0.00029,   0.00363,  -0.00117,477473440.00000,   0.00144,276199520.00000,   0.00026,   0.00162,  -0.00074, 384.00000,   1.00000
239315168.86534,544417227.86348,-33574515.89450,   0.00029,   0.00364,  -0.00117,477492128.00000,   0.00144,276204512.00000,   0.00026,   0.00163,  -0.00074, 384.00000,   1.00000
239074523.66696,544411849.26594,-33540830.06595,   0.00029,   0.00364,  -0.00117,477490656.00000,   0.00144,276209472.00000,   0.00026,   0.00163,  -0.00074, 288.00000,   1.00000
238851693.19220,544407509.24513,-33508193.11222,   0.00028,   0.00365,  -0.00118,477483744.00000,   0.00145,276214400.00000,   0.00026,   0.00164,  -0.00074, 320.00000,   1.00000
238646575.09475,544404096.73789,-33476590.94069,   0.00028,   0.00366,  -0.00118,477476896.00000,   0.00145,276219264.00000,   0.00026,   0.00164,  -0.00074, 288.00000,   1.00000
238441502.77885,544399185.63490,-33451137.90724,   0.00028,   0.00366,  -0.00118,477483200.00000,   0.00146,276224160.00000,   0.00026,   0.00165,  -0.00074, 192.00000,   1.00000
238235855.73215,544395138.16771,-33421187.82805,   0.00028,   0.00367,  -0.00118,477468096.00000,   0.00146,276228960.00000,   0.00026,   0.00165,  -0.00074, 288.00000,   1.00000
238047363.12353,544390694.72294,-33398314.74960,   0.00028,   0.00367,  -0.00118,477462304.00000,   0.00147,276233728.00000,   0.00026,   0.00166,  -0.00075, 192.00000,   1.00000
237878670.49630,544389228.86932,-33368933.60114,   0.00028,   0.00368,  -0.00118,477472768.00000,   0.00147,276238496.00000,   0.00026,   0.00167,  -0.00075, 224.00000,   1.00000
237691104.33865,544384587.36799,-33346218.86902,   0.00028,   0.00368,  -0.00118,477472192.00000,   0.00148,276243264.00000,   0.00026,   0.00167,  -0.00075, 256.00000,   1.00000
237539980.05094,544382741.68181,-33323986.31153,   0.00027,   0.00369,  -0.00118,477471776.00000,   0.00148,276248000.00000,   0.00026,   0.00168,  -0.00075,  32.00000,   1.00000
237387482.54825,544380102.18934,-33303268.01698,   0.00027,   0.00369,  -0.00118,477457984.00000,   0.00149,276252672.00000,   0.00026,   0.00168,  -0.00075, -32.00000,   1.00000
237233731.80945,544377030.78774,-33284083.04907,   0.00027,   0.00370,  -0.00118,477443808.00000,   0.00149,276257280.00000,   0.00025,   0.00169,  -0.00075, -64.00000,   1.00000
237100437.18806,544374809.19389,-33269032.80617,   0.00027,   0.00371,  -0.00118,477475328.00000,   0.00149,276261984.00000,   0.00025,   0.00169,  -0.00075,-160.00000,   1.00000
236964519.14234,544372765.18318,-33250884.61994,   0.00027,   0.00371,  -0.00119,477441312.00000,   0.00150,276266528.00000,   0.00025,   0.00170,  -0.00075,-160.00000,   1.00000
236847836.72386,544372535.90262,-33232278.89222,   0.00027,   0.00372,  -0.00119,477452576.00000,   0.00150,276271104.00000,   0.00025,   0.00170,  -0.00075, -96.00000,   1.00000
236729158.53742,544370148.16075,-33221223.61097,   0.00027,   0.00372,  -0.00119,477439840.00000,   0.00151,276275648.00000,   0.00025,   0.00171,  -0.00076,-160.00000,   1.00000
236629654.37084,544369536.10704,-33209688.75675,   0.00027,   0.00373,  -0.00119,477451136.00000,   0.00151,276280160.00000,   0.00025,   0.00171,  -0.00076,-128.00000,   1.00000
236528670.09213,544368367.14746,-33199644.24826,   0.00027,   0.00373,  -0.00119,477436896.00000,   0.00151,276284640.00000,   0.00025,   0.00172,  -0.00076,-160.00000,   1.00000
236447271.45556,544370250.07390,-33183054.74800,   0.00027,   0.00374,  -0.00119,477446976.00000,   0.00152,276289120.00000,   0.00025,   0.00172,  -0.00076,-288.00000,   1.00000
236363327.98393,544368749.02631,-33180070.08973,   0.00027,   0.00374,  -0.00119,477435232.00000,   0.00152,276293568.00000,   0.00025,   0.00173,  -0.00076,-288.00000,   1.00000
236297259.99897,544369994.45091,-33171989.52344,   0.00026,   0.00375,  -0.00119,477426240.00000,   0.00153,276297920.00000,   0.00025,   0.00173,  -0.00076,-288.00000,   1.00000
236231293.71934,544371045.80350,-33163921.30948,   0.00026,   0.00375,  -0.00119,477430816.00000,   0.00153,276302304.00000,   0.00025,   0.00174,  -0.00076,-256.00000,   1.00000
236182641.99602,544373405.97487,-33156818.14989,   0.00026,   0.00376,  -0.00120,477423040.00000,   0.00154,276306656.00000,   0.00025,   0.00174,  -0.00076,-352.00000,   1.00000
236133585.77389,544374281.81123,-33155784.78877,   0.00026,   0.00376,  -0.00120,477428768.00000,   0.00154,276310976.00000,   0.00025,   0.00175,  -0.00077,-384.00000,   1.00000
236102292.62084,544377855.46529,-33149643.22019,   0.00026,   0.00377,  -0.00120,477419680.00000,   0.00154,276315264.00000,   0.00025,   0.00175,  -0.00077,-544.00000,   1.00000
236087674.31446,544381193.07091,-33150502.89077,   0.00026,   0.00377,  -0.00120,477413184.00000,   0.00155,276319488.00000,   0.00025,   0.00176,  -0.00077,-416.00000,   1.00000
236073031.77727,544384354.32200,-33151350.51329,   0.00026,   0.00378,  -0.00120,477417600.00000,   0.00155,276323744.00000,   0.00025,   0.00176,  -0.00077,-384.00000,   1.00000
236057218.39669,544388511.62689,-33147604.12588,   0.00026,   0.00378,  -0.00120,477401696.00000,   0.00156,276327904.00000,   0.00025,   0.00177,  -0.00077,-384.00000,   1.00000
236059848.31510,544393113.58228,-33149411.31724,   0.00026,   0.00379,  -0.00120,477413760.00000,   0.00156,276332096.00000,   0.00025,   0.00177,  -0.00077,-352.00000,   1.00000
236060614.76581,544396885.10813,-33152645.73325,   0.00026,   0.00379,  -0.00120,477399424.00000,   0.00156,276336224.00000,   0.00025,   0.00177,  -0.00077,-448.00000,   1.00000
236078520.70625,544401948.88031,-33156811.82074,   0.00026,   0.00380,  -0.00120,477391392.00000,   0.00157,276340288.00000,   0.00025,   0.00178,  -0.00077,-640.00000,   1.00000
236114759.41993,544407373.98584,-33166505.04875,   0.00026,   0.00380,  -0.00121,477403424.00000,   0.00157,276344416.00000,   0.00025,   0.00178,  -0.00077,-576.00000,   1.00000
236149616.54825,544413535.15002,-33171563.10365,   0.00026,   0.00381,  -0.00121,477387616.00000,   0.00157,276348448.00000,   0.00025,   0.00179,  -0.00078,-736.00000,   1.00000
236201626.58558,544421232.10525,-33177563.96090,   0.00026,   0.00381,  -0.00121,477379264.00000,   0.00158,276352416.00000,   0.00025,   0.00179,  -0.00078,-384.00000,   1.00000
236252889.77674,544427156.57494,-33189578.06319,   0.00026,   0.00381,  -0.00121,477384832.00000,   0.00158,276356416.00000,   0.00025,   0.00180,  -0.00078,-480.00000,   1.00000
236323398.37729,544436216.70166,-33194987.81883,   0.00026,   0.00382,  -0.00121,477394304.00000,   0.00159,276360416.00000,   0.00024,   0.00180,  -0.00078,-704.00000,   1.00000
236389747.79075,544442762.89582,-33209341.28882,   0.00026,   0.00382,  -0.00121,477361984.00000,   0.00159,276364288.00000,   0.00024,   0.00181,  -0.00078,-640.00000,   1.00000
236474873.96750,544451223.67319,-33223151.97178,   0.00026,   0.00383,  -0.00121,477372416.00000,   0.00159,276368160.00000,   0.00024,   0.00181,  -0.00078,-544.00000,   1.00000
236560249.82433,544460904.58030,-33230860.38394,   0.00026,   0.00383,  -0.00121,477375200.00000,   0.00160,276372064.00000,   0.00024,   0.00182,  -0.00078,-608.00000,   1.00000
236660287.44033,544469730.00577,-33246984.68653,   0.00026,   0.00384,  -0.00121,477349568.00000,   0.00160,276375840.00000,   0.00024,   0.00182,  -0.00078,-768.00000,   1.00000
236780735.48910,544480943.90363,-33261099.12668,   0.00026,   0.00384,  -0.00122,477378752.00000,   0.00160,276379712.00000,   0.00024,   0.00182,  -0.00078,-544.00000,   1.00000
236897343.84142,544490718.67044,-33278065.22947,   0.00026,   0.00384,  -0.00122,477345344.00000,   0.00161,276383424.00000,   0.00024,   0.00183,  -0.00078,-768.00000,   1.00000
237013742.06346,544500597.93952,-33294996.57638,   0.00026,   0.00385,  -0.00122,477348960.00000,   0.00161,276387168.00000,   0.00024,   0.00183,  -0.00079,-832.00000,   1.00000
237146570.05741,544510393.02807,-33318886.52684,   0.00026,   0.00385,  -0.00122,477341760.00000,   0.00161,276390848.00000,   0.00024,   0.00184,  -0.00079,-640.00000,   1.00000
237298317.61995,544522902.31067,-33336112.36161,   0.00026,   0.00386,  -0.00122,477351264.00000,   0.00162,276394560.00000,   0.00024,   0.00184,  -0.00079,-800.00000,   1.00000
237448126.66177,544535102.86834,-33354770.47978,   0.00026,   0.00386,  -0.00122,477335968.00000,   0.00162,276398176.00000,   0.00024,   0.00184,  -0.00079,-640.00000,   1.00000
237614094.16061,544546605.03750,-33380342.02467,   0.00026,   0.00386,  -0.00122,477329184.00000,   0.00162,276401760.00000,   0.00024,   0.00185,  -0.00079,-896.00000,   1.00000
237799102.63785,544561347.45735,-33399280.28934,   0.00026,   0.00387,  -0.00122,477338112.00000,   0.00163,276405376.00000,   0.00024,   0.00185,  -0.00079,-768.00000,   1.00000
237981991.30603,544575385.03588,-33419622.70296,   0.00026,   0.00387,  -0.00123,477323072.00000,   0.00163,276408928.00000,   0.00024,   0.00186,  -0.00079,-832.00000,   1.00000
238162226.87797,544587186.38817,-33447414.98961,   0.00026,   0.00387,  -0.00123,477309344.00000,   0.00163,276412384.00000,   0.00024,   0.00186,  -0.00079,-896.00000,   1.00000
238360973.18793,544600827.59581,-33474624.88345,   0.00026,   0.00388,  -0.00123,477319392.00000,   0.00164,276415872.00000,   0.00024,   0.00186,  -0.00079,-768.00000,   1.00000
238576884.06365,544616738.56856,-33496634.80436,   0.00026,   0.00388,  -0.00123,477309824.00000,   0.00164,276419328.00000,   0.00024,   0.00187,  -0.00079,-832.00000,   1.00000
238791814.60400,544631118.36155,-33524636.08955,   0.00026,   0.00388,  -0.00123,477314624.00000,   0.00164,276422784.00000,   0.00024,   0.00187,  -0.00079,-896.00000,   1.00000
239023428.47131,544646479.91607,-33553500.84740,   0.00026,   0.00389,  -0.00123,477306176.00000,   0.00165,276426176.00000,   0.00024,   0.00188,  -0.00080,-896.00000,   1.00000
239271613.72617,544662570.23230,-33583210.93102,   0.00026,   0.00389,  -0.00123,477297888.00000,   0.00165,276429536.00000,   0.00024,   0.00188,  -0.00080,-864.00000,   1.00000
239500957.67302,544678188.74706,-33613466.99331,   0.00027,   0.00389,  -0.00123,477294496.00000,   0.00165,276432864.00000,   0.00024,   0.00188,  -0.00080, 192.00000,   2.00000
239764868.70322,544693941.69518,-33643877.79857,   0.00027,   0.00390,  -0.00124,477293824.00000,   0.00166,276436160.00000,   0.00024,   0.00189,  -0.00080,-928.00000,   1.00000
240027040.89534,544710150.94256,-33675765.23014,   0.00027,   0.00390,  -0.00124,477277440.00000,   0.00166,276439424.00000,   0.00024,   0.00189,  -0.00080,-928.00000,   1.00000
240307401.69708,544727747.50708,-33707026.27271,   0.00027,   0.00390,  -0.00124,477287680.00000,   0.00166,276442688.00000,   0.00024,   0.00189,  -0.00080,-992.00000,   1.00000
240585567.72798,544744548.59735,-33739678.32657,   0.00027,   0.00391,  -0.00124,477272384.00000,   0.00167,276445856.00000,   0.00024,   0.00190,  -0.00080,-864.00000,   1.00000
240880342.65763,544762228.96094,-33773187.41127,   0.00027,   0.00391,  -0.00124,477263744.00000,   0.00167,276449024.00000,   0.00024,   0.00190,  -0.00080,-832.00000,   1.00000
241192679.29887,544779749.26014,-33812110.63618,   0.00027,   0.00391,  -0.00124,477275264.00000,   0.00167,276452192.00000,   0.00024,   0.00191,  -0.00080,-928.00000,   1.00000
241503300.19233,544797805.73993,-33846356.99253,   0.00027,   0.00392,  -0.00124,477258688.00000,   0.00167,276455296.00000,   0.00024,   0.00191,  -0.00080,-832.00000,   1.00000
241812178.08643,544816240.86170,-33882082.04191,   0.00027,   0.00392,  -0.00124,477243264.00000,   0.00168,276458304.00000,   0.00024,   0.00191,  -0.00080,  32.00000,   2.00000
242156459.72122,544833758.80079,-33922507.71863,   0.00028,   0.00392,  -0.00125,477262464.00000,   0.00168,276461408.00000,   0.00024,   0.00192,  -0.00081,-992.00000,   1.00000
242481195.71157,544852647.16498,-33958977.29786,   0.00028,   0.00393,  -0.00125,477237920.00000,   0.00168,276464384.00000,   0.00024,   0.00192,  -0.00081,  96.00000,   2.00000
242841650.67128,544871596.24115,-34000213.04786,   0.00028,   0.00393,  -0.00125,477257280.00000,   0.00169,276467424.00000,   0.00024,   0.00192,  -0.00081, 160.00000,   2.00000
243200405.82969,544891091.99922,-34036780.78203,   0.00028,   0.00393,  -0.00125,477240608.00000,   0.00169,276470368.00000,   0.00023,   0.00193,  -0.00081,  32.00000,   2.00000
243556419.86014,544908236.53959,-34080796.13230,   0.00028,   0.00393,  -0.00125,477226496.00000,   0.00169,276473280.00000,   0.00023,   0.00193,  -0.00081,  32.00000,   2.00000
243930916.61444,544928008.35704,-34118095.39734,   0.00028,   0.00394,  -0.00125,477235168.00000,   0.00169,276476192.00000,   0.00023,   0.00193,  -0.00081,  32.00000,   2.00000
244319896.26875,544946294.66442,-34163788.58854,   0.00028,   0.00394,  -0.00125,477209248.00000,   0.00170,276479008.00000,   0.00023,   0.00194,  -0.00081, 192.00000,   2.00000
244709443.97666,544964619.49111,-34207850.96757,   0.00028,   0.00394,  -0.00126,477231136.00000,   0.00170,276481888.00000,   0.00023,   0.00194,  -0.00081,  32.00000,   2.00000
245114136.21656,544983139.88399,-34248115.05017,   0.00029,   0.00394,  -0.00126,477202528.00000,   0.00170,276484640.00000,   0.00023,   0.00194,  -0.00081,-992.00000,   1.00000
245536970.99287,545003577.67061,-34293928.75943,   0.00029,   0.00395,  -0.00126,477212960.00000,   0.00170,276487424.00000,   0.00023,   0.00194,  -0.00081,  64.00000,   2.00000
245958473.99808,545022319.71910,-34339532.05342,   0.00029,   0.00395,  -0.00126,477217184.00000,   0.00171,276490208.00000,   0.00023,   0.00195,  -0.00081, 192.00000,   2.00000
246395590.24955,545042360.31591,-34381427.63290,   0.00029,   0.00395,  -0.00126,477188544.00000,   0.00171,276492896.00000,   0.00023,   0.00195,  -0.00081, -96.00000,   2.00000
246831212.57585,545060273.68314,-34429247.45895,   0.00029,   0.00395,  -0.00126,477193024.00000,   0.00171,276495552.00000,   0.00023,   0.00195,  -0.00081,-128.00000,   2.00000
247283302.37177,545078698.37731,-34477907.32268,   0.00030,   0.00395,  -0.00126,477184256.00000,   0.00171,276498176.00000,   0.00023,   0.00196,  -0.00082,  64.00000,   2.00000
247734464.30645,545096543.02586,-34526438.38104,   0.00030,   0.00396,  -0.00126,477187360.00000,   0.00172,276500800.00000,   0.00023,   0.00196,  -0.00082,  96.00000,   2.00000
248201924.39503,545114432.25432,-34575779.96467,   0.00030,   0.00396,  -0.00127,477178912.00000,   0.00172,276503392.00000,   0.00023,   0.00196,  -0.00082, -32.00000,   2.00000
248686969.99265,545133063.91101,-34624417.91247,   0.00030,   0.00396,  -0.00127,477189024.00000,   0.00172,276506016.00000,   0.00023,   0.00197,  -0.00082,-192.00000,   2.00000
249168793.47741,545150501.69049,-34669866.12054,   0.00030,   0.00396,  -0.00127,477153280.00000,   0.00172,276508480.00000,   0.00023,   0.00197,  -0.00082,-960.00000,   1.00000
249668403.36191,545169229.29982,-34720815.38150,   0.00031,   0.00397,  -0.00127,477163840.00000,   0.00173,276510976.00000,   0.00023,   0.00197,  -0.00082, -32.00000,   2.00000
250166537.31977,545186074.77824,-34771543.77154,   0.00031,   0.00397,  -0.00127,477167968.00000,   0.00173,276513472.00000,   0.00023,   0.00197,  -0.00082,-128.00000,   2.00000
250681014.86762,545203040.55620,-34823098.82272,   0.00031,   0.00397,  -0.00127,477159456.00000,   0.00173,276515936.00000,   0.00023,   0.00198,  -0.00082, 160.00000,   2.00000
251211781.42723,545219984.39565,-34875472.21035,   0.00031,   0.00397,  -0.00127,477151072.00000,   0.00173,276518368.00000,   0.00023,   0.00198,  -0.00082, 192.00000,   2.00000
251740285.81591,545235407.13037,-34929234.67753,   0.00031,   0.00397,  -0.00128,477135392.00000,   0.00174,276520704.00000,   0.00023,   0.00198,  -0.00082,  32.00000,   2.00000
252286186.76982,545251339.73103,-34982275.82702,   0.00032,   0.00397,  -0.00128,477145472.00000,   0.00174,276523072.00000,   0.00023,   0.00199,  -0.00082,-128.00000,   2.00000
252829955.33901,545266008.63127,-35036731.48303,   0.00032,   0.00398,  -0.00128,477129920.00000,   0.00174,276525376.00000,   0.00023,   0.00199,  -0.00082,  64.00000,   2.00000
253390927.15259,545280782.19359,-35090436.34194,   0.00032,   0.00398,  -0.00128,477140160.00000,   0.00174,276527712.00000,   0.00023,   0.00199,  -0.00082, -64.00000,   2.00000
253949784.78804,545294256.69536,-35145560.03416,   0.00032,   0.00398,  -0.00128,477124448.00000,   0.00174,276529984.00000,   0.00023,   0.00199,  -0.00082, -64.00000,   2.00000
254524424.80560,545306259.82060,-35201410.78349,   0.00033,   0.00398,  -0.00128,477115936.00000,   0.00175,276532192.00000,   0.00023,   0.00200,  -0.00082,-960.00000,   1.00000
255116164.93308,545320129.62241,-35258237.88549,   0.00033,   0.00398,  -0.00128,477106656.00000,   0.00175,276534368.00000,   0.00023,   0.00200,  -0.00083,  64.00000,   2.00000
255706311.31418,545332024.73836,-35314846.06810,   0.00033,   0.00398,  -0.00129,477110528.00000,   0.00175,276536576.00000,   0.00023,   0.00200,  -0.00083,  32.00000,   2.00000
256313458.65632,545343753.74726,-35370684.62405,   0.00033,   0.00398,  -0.00129,477120960.00000,   0.00175,276538784.00000,   0.00023,   0.00200,  -0.00083,-160.00000,   2.00000
256935833.71463,545354272.51250,-35428883.43962,   0.00034,   0.00399,  -0.00129,477094048.00000,   0.00175,276540864.00000,   0.00023,   0.00201,  -0.00083, -64.00000,   2.00000
257538884.44508,545363207.19522,-35487584.48370,   0.00034,   0.00399,  -0.00129,477089408.00000,   0.00176,276542944.00000,   0.00023,   0.00201,  -0.00083,  32.00000,   2.00000
258176823.28111,545373605.77771,-35540401.00058,   0.00034,   0.00399,  -0.00129,477087392.00000,   0.00176,276545024.00000,   0.00023,   0.00201,  -0.00083, -64.00000,   2.00000
258812474.31303,545380387.10866,-35599048.22554,   0.00034,   0.00399,  -0.00129,477091456.00000,   0.00176,276547072.00000,   0.00023,   0.00201,  -0.00083,-896.00000,   1.00000
259465117.58628,545388502.84673,-35658653.70075,   0.00035,   0.00399,  -0.00129,477082400.00000,   0.00176,276549088.00000,   0.00023,   0.00201,  -0.00083, -64.00000,   2.00000
260114858.06117,545392745.44474,-35719523.46375,   0.00035,   0.00399,  -0.00129,477067616.00000,   0.00176,276551072.00000,   0.00023,   0.00202,  -0.00083,-960.00000,   1.00000
260782378.67705,545398883.31259,-35779782.96863,   0.00035,   0.00399,  -0.00130,477077152.00000,   0.00177,276553056.00000,   0.00023,   0.00202,  -0.00083,   0.00000,   2.00000
261447592.50338,545402437.04213,-35841410.46870,   0.00036,   0.00399,  -0.00130,477062240.00000,   0.00177,276554944.00000,   0.00023,   0.00202,  -0.00083,  32.00000,   2.00000
262129594.54447,545405431.71098,-35902246.35780,   0.00036,   0.00399,  -0.00130,477072832.00000,   0.00177,276556896.00000,   0.00023,   0.00202,  -0.00083,  32.00000,   2.00000
262827755.53521,545407335.58311,-35963875.20572,   0.00036,   0.00399,  -0.00130,477064768.00000,   0.00177,276558816.00000,   0.00023,   0.00203,  -0.00083, 160.00000,   2.00000
263524199.68821,545407742.50331,-36026965.57979,   0.00037,   0.00400,  -0.00130,477048992.00000,   0.00177,276560672.00000,   0.00023,   0.00203,  -0.00083,  64.00000,   2.00000
264237065.94490,545407405.56606,-36084723.44483,   0.00037,   0.00400,  -0.00130,477039392.00000,   0.00177,276562464.00000,   0.00023,   0.00203,  -0.00083,-928.00000,   1.00000
264949223.75768,545406900.88303,-36148586.07266,   0.00037,   0.00400,  -0.00130,477042432.00000,   0.00178,276564256.00000,   0.00023,   0.00203,  -0.00083, 128.00000,   2.00000
265677270.09724,545404106.01652,-36213160.84001,   0.00038,   0.00400,  -0.00131,477035296.00000,   0.00178,276566048.00000,   0.00023,   0.00203,  -0.00083, -96.00000,   2.00000
266403940.78975,545399350.23438,-36277540.66621,   0.00038,   0.00400,  -0.00131,477037824.00000,   0.00178,276567808.00000,   0.00023,   0.00204,  -0.00084,-992.00000,   1.00000
267148737.18386,545397434.04866,-36336862.44726,   0.00038,   0.00400,  -0.00131,477027232.00000,   0.00178,276569536.00000,   0.00023,   0.00204,  -0.00084, -32.00000,   2.00000
267909044.50759,545391996.27985,-36402965.16861,   0.00039,   0.00400,  -0.00131,477021344.00000,   0.00178,276571232.00000,   0.00023,   0.00204,  -0.00084, 128.00000,   2.00000
268667944.46649,545384359.07822,-36468842.03126,   0.00039,   0.00400,  -0.00131,477023872.00000,   0.00178,276572928.00000,   0.00023,   0.00204,  -0.00084,-992.00000,   1.00000
269426751.91710,545378111.94982,-36530237.24970,   0.00039,   0.00400,  -0.00131,477005280.00000,   0.00179,276574560.00000,   0.00023,   0.00204,  -0.00084,-960.00000,   1.00000
270201423.02211,545369169.85175,-36598448.72870,   0.00040,   0.00400,  -0.00131,476998400.00000,   0.00179,276576128.00000,   0.00023,   0.00204,  -0.00084,-928.00000,   1.00000
270993499.74313,545361014.39829,-36659754.54756,   0.00040,   0.00400,  -0.00131,477007424.00000,   0.00179,276577760.00000,   0.00023,   0.00205,  -0.00084,-928.00000,   1.00000
271783350.48689,545349513.79524,-36728497.47303,   0.00040,   0.00400,  -0.00132,476992864.00000,   0.00179,276579328.00000,   0.00023,   0.00205,  -0.00084,-864.00000,   1.00000
272589793.35862,545337604.34942,-36791850.81473,   0.00041,   0.00400,  -0.00132,476983776.00000,   0.00179,276580832.00000,   0.00023,   0.00205,  -0.00084,-960.00000,   1.00000
273411575.47561,545322521.52200,-36860238.50158,   0.00041,   0.00400,  -0.00132,476996096.00000,   0.00179,276582368.00000,   0.00023,   0.00205,  -0.00084,-992.00000,   1.00000
274232054.37464,545306851.47557,-36922225.61232,   0.00041,   0.00400,  -0.00132,476997952.00000,   0.00179,276583936.00000,   0.00023,   0.00205,  -0.00084,-960.00000,   1.00000
275049429.21492,545286222.59533,-36993149.66806,   0.00042,   0.00400,  -0.00132,476965600.00000,   0.00180,276585376.00000,   0.00023,   0.00206,  -0.00084,-928.00000,   1.00000
275883063.14168,545265013.00026,-37056938.98107,   0.00042,   0.00400,  -0.00132,476975520.00000,   0.00180,276586816.00000,   0.00023,   0.00206,  -0.00084,-800.00000,   1.00000
276714460.30342,545240621.71366,-37121987.48869,   0.00043,   0.00400,  -0.00132,476960576.00000,   0.00180,276588224.00000,   0.00023,   0.00206,  -0.00084,-896.00000,   1.00000
277561284.02466,545213575.77744,-37192076.89037,   0.00043,   0.00400,  -0.00133,476973376.00000,   0.00180,276589664.00000,   0.00023,   0.00206,  -0.00084,  32.00000,   2.00000
278423603.89139,545183342.32726,-37256579.29753,   0.00043,   0.00400,  -0.00133,476965632.00000,   0.00180,276591072.00000,   0.00023,   0.00206,  -0.00084,-928.00000,   1.00000
279284760.25341,545152191.31460,-37320891.00984,   0.00044,   0.00400,  -0.00133,476967776.00000,   0.00180,276592448.00000,   0.00023,   0.00206,  -0.00084,-896.00000,   1.00000
280162050.68321,545118066.39356,-37387602.18706,   0.00044,   0.00400,  -0.00133,476941856.00000,   0.00180,276593760.00000,   0.00023,   0.00206,  -0.00084,-896.00000,   1.00000
281037842.80801,545082809.05413,-37452436.47355,   0.00045,   0.00400,  -0.00133,476963104.00000,   0.00180,276595136.00000,   0.00023,   0.00207,  -0.00084,-896.00000,   1.00000
281912658.81403,545044941.21897,-37520510.34110,   0.00045,   0.00400,  -0.00133,476928736.00000,   0.00181,276596384.00000,   0.00023,   0.00207,  -0.00084,-896.00000,   1.00000
282821258.07943,545006033.02941,-37587008.30607,   0.00045,   0.00400,  -0.00133,476948128.00000,   0.00181,276597696.00000,   0.00023,   0.00207,  -0.00084, -32.00000,   2.00000
283710165.78842,544963456.75925,-37653967.29838,   0.00046,   0.00400,  -0.00133,476943424.00000,   0.00181,276598976.00000,   0.00023,   0.00207,  -0.00084,-896.00000,   1.00000
284633272.05334,544918760.89534,-37722759.98899,   0.00046,   0.00400,  -0.00134,476924800.00000,   0.00181,276600192.00000,   0.00023,   0.00207,  -0.00085,-768.00000,   1.00000
285537259.27095,544872836.53835,-37790479.91237,   0.00047,   0.00400,  -0.00134,476937856.00000,   0.00181,276601440.00000,   0.00023,   0.00207,  -0.00085,-736.00000,   1.00000
286457572.69222,544823546.22504,-37860667.07757,   0.00047,   0.00399,  -0.00134,476912192.00000,   0.00181,276602592.00000,   0.00023,   0.00207,  -0.00085,-992.00000,   1.00000
287394318.87193,544773701.34333,-37923905.62883,   0.00048,   0.00399,  -0.00134,476921888.00000,   0.00181,276603776.00000,   0.00023,   0.00208,  -0.00085,-992.00000,   1.00000
288329025.18362,544719453.56869,-37994676.45203,   0.00048,   0.00399,  -0.00134,476907936.00000,   0.00181,276604928.00000,   0.00023,   0.00208,  -0.00085,-928.00000,   1.00000
289279122.32113,544662522.51158,-38064459.19425,   0.00048,   0.00399,  -0.00134,476919520.00000,   0.00182,276606080.00000,   0.00023,   0.00208,  -0.00085,-992.00000,   1.00000
290228826.66438,544604640.83643,-38129698.26985,   0.00049,   0.00399,  -0.00134,476902528.00000,   0.00182,276607168.00000,   0.00023,   0.00208,  -0.00085,-800.00000,   1.00000
291192923.28579,544542049.16978,-38199921.27619,   0.00049,   0.00399,  -0.00134,476915840.00000,   0.00182,276608320.00000,   0.00023,   0.00208,  -0.00085,-768.00000,   1.00000
292157210.10104,544477777.89974,-38267271.28869,   0.00050,   0.00399,  -0.00135,476880576.00000,   0.00182,276609344.00000,   0.00023,   0.00208,  -0.00085,-800.00000,   1.00000
293136027.38922,544411013.82700,-38331858.00563,   0.00050,   0.00399,  -0.00135,476910816.00000,   0.00182,276610432.00000,   0.00023,   0.00208,  -0.00085,-608.00000,   1.00000
294113398.33685,544338724.64860,-38405594.18686,   0.00051,   0.00399,  -0.00135,476878880.00000,   0.00182,276611424.00000,   0.00023,   0.00208,  -0.00085,-736.00000,   1.00000
295106653.14037,544265019.25714,-38472231.87152,   0.00051,   0.00399,  -0.00135,476889216.00000,   0.00182,276612448.00000,   0.00023,   0.00209,  -0.00085,-800.00000,   1.00000
296098062.63417,544188824.78826,-38538602.34206,   0.00052,   0.00399,  -0.00135,476892416.00000,   0.00182,276613504.00000,   0.00023,   0.00209,  -0.00085,-800.00000,   1.00000
297088366.43233,544109472.80445,-38606419.96462,   0.00052,   0.00398,  -0.00135,476877312.00000,   0.00182,276614464.00000,   0.00023,   0.00209,  -0.00085,-800.00000,   1.00000
298094372.71936,544026145.32115,-38674868.43178,   0.00053,   0.00398,  -0.00135,476870944.00000,   0.00182,276615392.00000,   0.00023,   0.00209,  -0.00085,-832.00000,   1.00000
299115317.15138,543939622.85487,-38742244.53376,   0.00053,   0.00398,  -0.00135,476882784.00000,   0.00182,276616384.00000,   0.00023,   0.00209,  -0.00085,-608.00000,   1.00000
300134995.03259,543849371.99299,-38811043.72554,   0.00054,   0.00398,  -0.00136,476868128.00000,   0.00183,276617312.00000,   0.00023,   0.00209,  -0.00085,-800.00000,   1.00000
301152742.52728,543756465.78735,-38879582.10734,   0.00054,   0.00398,  -0.00136,476871392.00000,   0.00183,276618240.00000,   0.00023,   0.00209,  -0.00085,-736.00000,   1.00000
302187057.03407,543658571.35045,-38950471.10998,   0.00055,   0.00398,  -0.00136,476846976.00000,   0.00183,276619104.00000,   0.00023,   0.00209,  -0.00085,-576.00000,   1.00000
303219079.68951,543560006.23373,-39013323.00731,   0.00055,   0.00398,  -0.00136,476867360.00000,   0.00183,276620000.00000,   0.00023,   0.00209,  -0.00085,-768.00000,   1.00000
304265634.69614,543454935.70971,-39082788.31369,   0.00056,   0.00397,  -0.00136,476863168.00000,   0.00183,276620896.00000,   0.00023,   0.00210,  -0.00085,-864.00000,   1.00000
305311305.77859,543346488.93470,-39153730.94428,   0.00056,   0.00397,  -0.00136,476848128.00000,   0.00183,276621728.00000,   0.00023,   0.00210,  -0.00085,-608.00000,   1.00000
306371811.40331,543235058.69597,-39217464.55150,   0.00057,   0.00397,  -0.00136,476859712.00000,   0.00183,276622592.00000,   0.00023,   0.00210,  -0.00085,-832.00000,   1.00000
307430547.88965,543118325.21279,-39288685.67441,   0.00057,   0.00397,  -0.00136,476846336.00000,   0.00183,276623392.00000,   0.00023,   0.00210,  -0.00085,-768.00000,   1.00000
308505263.72870,542997802.70684,-39354425.76307,   0.00058,   0.00397,  -0.00136,476839680.00000,   0.00183,276624192.00000,   0.00023,   0.00210,  -0.00085,-640.00000,   1.00000
309577758.63506,542874150.43497,-39419877.56374,   0.00058,   0.00397,  -0.00137,476843264.00000,   0.00183,276624992.00000,   0.00023,   0.00210,  -0.00085,-608.00000,   1.00000
310648294.82598,542744509.09797,-39492765.18137,   0.00059,   0.00396,  -0.00137,476830432.00000,   0.00183,276625728.00000,   0.00023,   0.00210,  -0.00085,-576.00000,   1.00000
311733438.40355,542611694.15503,-39558420.39616,   0.00059,   0.00396,  -0.00137,476842112.00000,   0.00183,276626528.00000,   0.00023,   0.00210,  -0.00085,-704.00000,   1.00000
312817641.98057,542474713.72368,-39625504.17663,   0.00060,   0.00396,  -0.00137,476827680.00000,   0.00184,276627264.00000,   0.00023,   0.00210,  -0.00085,-640.00000,   1.00000
313899523.94435,542334400.03014,-39692278.19374,   0.00060,   0.00396,  -0.00137,476831392.00000,   0.00184,276628000.00000,   0.00023,   0.00210,  -0.00085,-544.00000,   1.00000
314996355.63569,542187976.37508,-39759543.15656,   0.00061,   0.00396,  -0.00137,476826720.00000,   0.00184,276628704.00000,   0.00023,   0.00210,  -0.00085,-608.00000,   1.00000
316106742.08007,542036580.42205,-39825578.21121,   0.00061,   0.00395,  -0.00137,476839968.00000,   0.00184,276629472.00000,   0.00023,   0.00210,  -0.00085,-480.00000,   1.00000
317217207.80355,541882577.62954,-39887014.69615,   0.00062,   0.00395,  -0.00137,476824128.00000,   0.00184,276630176.00000,   0.00023,   0.00211,  -0.00086,-608.00000,   1.00000
318325896.99196,541722247.42329,-39955868.63264,   0.00062,   0.00395,  -0.00137,476811488.00000,   0.00184,276630848.00000,   0.00023,   0.00211,  -0.00086,-704.00000,   1.00000
319432319.90675,541558626.33725,-40024407.70600,   0.00063,   0.00395,  -0.00138,476815104.00000,   0.00184,276631488.00000,   0.00023,   0.00211,  -0.00086,-448.00000,   1.00000
320552925.74575,541391353.40764,-40085651.16986,   0.00064,   0.00395,  -0.00138,476827136.00000,   0.00184,276632192.00000,   0.00023,   0.00211,  -0.00086,-608.00000,   1.00000
321689599.13213,541215490.68723,-40155169.16750,   0.00064,   0.00394,  -0.00138,476805632.00000,   0.00184,276632832.00000,   0.00023,   0.00211,  -0.00086,-544.00000,   1.00000
322807316.68273,541040514.15635,-40217507.87173,   0.00065,   0.00394,  -0.00138,476816384.00000,   0.00184,276633472.00000,   0.00023,   0.00211,  -0.00086,-512.00000,   1.00000
323957639.06194,540856538.15534,-40281141.15041,   0.00065,   0.00394,  -0.00138,476803296.00000,   0.00184,276634080.00000,   0.00023,   0.00211,  -0.00086,-608.00000,   1.00000
325087219.58814,540670215.79183,-40349637.50700,   0.00066,   0.00394,  -0.00138,476816864.00000,   0.00184,276634752.00000,   0.00023,   0.00211,  -0.00086,-736.00000,   1.00000
326235120.12388,540478873.28527,-40414402.76890,   0.00066,   0.00393,  -0.00138,476792160.00000,   0.00184,276635328.00000,   0.00023,   0.00211,  -0.00086,-480.00000,   1.00000
327380441.92761,540283580.52694,-40478784.76414,   0.00067,   0.00393,  -0.00138,476796256.00000,   0.00184,276635904.00000,   0.00023,   0.00211,  -0.00086,-640.00000,   1.00000
328539115.53364,540083339.71435,-40541895.00451,   0.00068,   0.00393,  -0.00138,476809376.00000,   0.00184,276636512.00000,   0.00023,   0.00211,  -0.00086,-512.00000,   1.00000
329682262.98724,539880844.62907,-40607430.45131,   0.00068,   0.00393,  -0.00139,476784864.00000,   0.00184,276637056.00000,   0.00023,   0.00211,  -0.00086,-448.00000,   1.00000
330853583.83658,539670501.87869,-40670628.95425,   0.00069,   0.00392,  -0.00139,476808640.00000,   0.00184,276637664.00000,   0.00023,   0.00211,  -0.00086,-448.00000,   1.00000
332010514.15029,539459675.98501,-40730252.55685,   0.00069,   0.00392,  -0.00139,476782528.00000,   0.00185,276638176.00000,   0.00023,   0.00211,  -0.00086,-576.00000,   1.00000
333181760.71297,539240704.17814,-40796350.72027,   0.00070,   0.00392,  -0.00139,476779328.00000,   0.00185,276638688.00000,   0.00023,   0.00211,  -0.00086,-608.00000,   1.00000
334350964.73136,539018630.24724,-40862112.24835,   0.00070,   0.00392,  -0.00139,476782496.00000,   0.00185,276639200.00000,   0.00023,   0.00212,  -0.00086,-544.00000,   1.00000
335534605.18870,538793572.22167,-40920555.82568,   0.00071,   0.00391,  -0.00139,476793632.00000,   0.00185,276639744.00000,   0.00023,   0.00212,  -0.00086,-352.00000,   1.00000
336717753.85231,538562956.61112,-40986507.56884,   0.00072,   0.00391,  -0.00139,476779936.00000,   0.00185,276640224.00000,   0.00023,   0.00212,  -0.00086,-544.00000,   1.00000
337902827.52416,538331004.89335,-41048038.04675,   0.00072,   0.00391,  -0.00139,476762528.00000,   0.00185,276640672.00000,   0.00023,   0.00212,  -0.00086,-448.00000,   1.00000
339085992.07638,538096227.46953,-41109282.26336,   0.00073,   0.00390,  -0.00139,476765440.00000,   0.00185,276641120.00000,   0.00023,   0.00212,  -0.00086,-544.00000,   1.00000
340280501.34670,537853565.69057,-41175155.81880,   0.00073,   0.00390,  -0.00139,476781088.00000,   0.00185,276641632.00000,   0.00023,   0.00212,  -0.00086,-384.00000,   1.00000
341474828.52897,537606255.27950,-41236402.72685,   0.00074,   0.00390,  -0.00140,476767008.00000,   0.00185,276642080.00000,   0.00023,   0.00212,  -0.00086,-320.00000,   1.00000
342682096.24988,537348706.27325,-41297855.64804,   0.00075,   0.00390,  -0.00140,476765856.00000,   0.00185,276642496.00000,   0.00023,   0.00212,  -0.00086,-256.00000,   1.00000
343870892.03271,537087951.50584,-41359829.43144,   0.00075,   0.00389,  -0.00140,476760928.00000,   0.00185,276642912.00000,   0.00023,   0.00212,  -0.00086,-448.00000,   1.00000
345072264.57896,536821260.10382,-41420378.21513,   0.00076,   0.00389,  -0.00140,476774368.00000,   0.00185,276643392.00000,   0.00023,   0.00212,  -0.00086,-544.00000,   1.00000
346290203.70960,536549602.43663,-41481509.20003,   0.00076,   0.00389,  -0.00140,476767904.00000,   0.00185,276643840.00000,   0.00023,   0.00212,  -0.00086,-416.00000,   1.00000
347496506.04438,536280269.48576,-41539431.66817,   0.00077,   0.00388,  -0.00140,476739104.00000,   0.00185,276644160.00000,   0.00023,   0.00212,  -0.00086,-288.00000,   1.00000
348714146.44319,536003349.50383,-41601982.34710,   0.00078,   0.00388,  -0.00140,476754208.00000,   0.00185,276644576.00000,   0.00024,   0.00212,  -0.00086,-256.00000,   1.00000
349927734.10339,535720629.34102,-41664022.39957,   0.00078,   0.00388,  -0.00140,476760064.00000,   0.00185,276644992.00000,   0.00024,   0.00212,  -0.00086,-288.00000,   1.00000
351139730.39297,535430363.89803,-41721186.14912,   0.00079,   0.00387,  -0.00140,476748608.00000,   0.00185,276645344.00000,   0.00024,   0.00212,  -0.00086,-256.00000,   1.00000
352359113.38737,535126929.30676,-41782489.68917,   0.00080,   0.00387,  -0.00140,476769248.00000,   0.00185,276645792.00000,   0.00024,   0.00212,  -0.00086,-288.00000,   1.00000
353562866.92918,534818755.28751,-41839975.60248,   0.00080,   0.00387,  -0.00140,476746944.00000,   0.00185,276646144.00000,   0.00024,   0.00212,  -0.00086,-288.00000,   1.00000
354789987.56483,534497577.25267,-41894572.30685,   0.00081,   0.00386,  -0.00141,476775584.00000,   0.00185,276646592.00000,   0.00024,   0.00212,  -0.00086,-288.00000,   1.00000
356000985.41431,534170249.63025,-41957537.46233,   0.00081,   0.00386,  -0.00141,476754208.00000,   0.00185,276646944.00000,   0.00024,   0.00212,  -0.00086,-160.00000,   1.00000
357209515.61619,533839497.06510,-42013984.69953,   0.00082,   0.00386,  -0.00141,476757664.00000,   0.00185,276647328.00000,   0.00024,   0.00212,  -0.00086,-320.00000,   1.00000
358432286.20165,533499968.76377,-42070722.25038,   0.00083,   0.00385,  -0.00141,476754848.00000,   0.00185,276647712.00000,   0.00024,   0.00212,  -0.00086,-352.00000,   1.00000
359652775.44889,533157173.46845,-42127132.73184,   0.00083,   0.00385,  -0.00141,476758048.00000,   0.00185,276648096.00000,   0.00024,   0.00213,  -0.00086,-384.00000,   1.00000
360874382.87506,532809735.74577,-42185086.25646,   0.00084,   0.00385,  -0.00141,476743232.00000,   0.00185,276648416.00000,   0.00024,   0.00213,  -0.00086,-352.00000,   1.00000
362107818.14771,532456304.18940,-42241623.07713,   0.00085,   0.00384,  -0.00141,476756960.00000,   0.00186,276648800.00000,   0.00024,   0.00213,  -0.00086,-160.00000,   1.00000
363325426.45105,532103150.87732,-42299027.08103,   0.00085,   0.00384,  -0.00141,476748768.00000,   0.00186,276649152.00000,   0.00024,   0.00213,  -0.00086,-384.00000,   1.00000
364558897.66597,531743684.73579,-42350805.01432,   0.00086,   0.00384,  -0.00141,476743712.00000,   0.00186,276649472.00000,   0.00024,   0.00213,  -0.00086,-448.00000,   1.00000
365788391.29376,531378421.62298,-42408182.39653,   0.00086,   0.00383,  -0.00141,476749152.00000,   0.00186,276649824.00000,   0.00024,   0.00213,  -0.00086,-448.00000,   1.00000
367018007.36340,531006844.18194,-42466942.86648,   0.00087,   0.00383,  -0.00141,476736000.00000,   0.00186,276650144.00000,   0.00024,   0.00213,  -0.00086,-192.00000,   1.00000
368245058.19984,530631791.00110,-42519175.93729,   0.00088,   0.00382,  -0.00142,476739456.00000,   0.00186,276650432.00000,   0.00024,   0.00213,  -0.00086,-320.00000,   1.00000
369483915.28129,530244162.93395,-42577510.50812,   0.00088,   0.00382,  -0.00142,476740032.00000,   0.00186,276650752.00000,   0.00024,   0.00213,  -0.00086,-352.00000,   1.00000
370719889.33318,529852657.96565,-42629277.32174,   0.00089,   0.00382,  -0.00142,476743872.00000,   0.00186,276651072.00000,   0.00024,   0.00213,  -0.00086,-384.00000,   1.00000
371938610.35776,529459116.52694,-42681692.65838,   0.00090,   0.00381,  -0.00142,476737856.00000,   0.00186,276651392.00000,   0.00024,   0.00213,  -0.00086,-352.00000,   1.00000
373182030.23917,529048983.66480,-42738961.74745,   0.00090,   0.00381,  -0.00142,476750272.00000,   0.00186,276651712.00000,   0.00024,   0.00213,  -0.00086,-352.00000,   1.00000
374413281.76871,528636929.55485,-42792789.50597,   0.00091,   0.00380,  -0.00142,476724928.00000,   0.00186,276651968.00000,   0.00024,   0.00213,  -0.00086,-352.00000,   1.00000
375636796.38454,528221251.27274,-42844195.98135,   0.00092,   0.00380,  -0.00142,476747712.00000,   0.00186,276652320.00000,   0.00024,   0.00213,  -0.00086,-288.00000,   1.00000
376860216.05115,527798291.85869,-42896949.09231,   0.00092,   0.00380,  -0.00142,476735392.00000,   0.00186,276652608.00000,   0.00024,   0.00213,  -0.00086,-320.00000,   1.00000
378096473.03828,527364236.35256,-42949804.96478,   0.00093,   0.00379,  -0.00142,476734656.00000,   0.00186,276652864.00000,   0.00024,   0.00213,  -0.00086,-256.00000,   1.00000
379328917.13282,526924974.46417,-43002147.82116,   0.00094,   0.00379,  -0.00142,476739648.00000,   0.00186,276653184.00000,   0.00024,   0.00213,  -0.00086,-192.00000,   1.00000
380557482.49433,526480451.39480,-43053971.94061,   0.00094,   0.00378,  -0.00142,476744768.00000,   0.00186,276653504.00000,   0.00024,   0.00213,  -0.00086,-288.00000,   1.00000
381786252.31468,526028753.44855,-43107167.23228,   0.00095,   0.00378,  -0.00142,476732288.00000,   0.00186,276653760.00000,   0.00024,   0.00213,  -0.00086, -64.00000,   1.00000
383012570.90692,525573877.02277,-43153880.68628,   0.00096,   0.00378,  -0.00143,476735488.00000,   0.00186,276654048.00000,   0.00024,   0.00213,  -0.00086,-256.00000,   1.00000
384233841.79276,525112058.92067,-43206077.61932,   0.00096,   0.00377,  -0.00143,476742112.00000,   0.00186,276654336.00000,   0.00024,   0.00213,  -0.00086,-448.00000,   1.00000
385455820.80889,524643560.58149,-43259699.21426,   0.00097,   0.00377,  -0.00143,476729120.00000,   0.00186,276654592.00000,   0.00024,   0.00213,  -0.00086,-288.00000,   1.00000
386690462.81192,524163593.69287,-43313391.69072,   0.00098,   0.00376,  -0.00143,476728704.00000,   0.00186,276654848.00000,   0.00024,   0.00213,  -0.00086,-256.00000,   1.00000
387906328.09658,523687059.34123,-43360045.58665,   0.00098,   0.00376,  -0.00143,476737088.00000,   0.00186,276655136.00000,   0.00024,   0.00213,  -0.00086,-224.00000,   1.00000
389133553.46960,523197231.82602,-43412756.39148,   0.00099,   0.00375,  -0.00143,476738368.00000,   0.00186,276655424.00000,   0.00024,   0.00213,  -0.00086,-320.00000,   1.00000
390350380.33990,522706122.12155,-43462158.10292,   0.00100,   0.00375,  -0.00143,476712064.00000,   0.00186,276655616.00000,   0.00024,   0.00213,  -0.00086, -64.00000,   1.00000
391569527.74327,522205732.88329,-43513809.32970,   0.00100,   0.00375,  -0.00143,476748672.00000,   0.00186,276655936.00000,   0.00024,   0.00213,  -0.00086,-288.00000,   1.00000
392790348.92467,521699696.02119,-43560831.44493,   0.00101,   0.00374,  -0.00143,476734688.00000,   0.00186,276656192.00000,   0.00024,   0.00213,  -0.00086,-256.00000,   1.00000
394011031.77703,521185321.96718,-43609131.48839,   0.00102,   0.00374,  -0.00143,476723040.00000,   0.00186,276656416.00000,   0.00024,   0.00213,  -0.00086,-128.00000,   1.00000
395213918.82842,520667374.41727,-43664137.00491,   0.00102,   0.00373,  -0.00143,476718208.00000,   0.00186,276656640.00000,   0.00024,   0.00213,  -0.00087,-320.00000,   1.00000
396425419.53158,520141057.05956,-43711234.97163,   0.00103,   0.00373,  -0.00143,476734592.00000,   0.00186,276656896.00000,   0.00024,   0.00213,  -0.00087,-256.00000,   1.00000
397632204.59738,519608704.21908,-43757721.21838,   0.00104,   0.00372,  -0.00143,476740480.00000,   0.00186,276657184.00000,   0.00024,   0.00213,  -0.00087,-320.00000,   1.00000
398838756.41166,519067646.74057,-43805455.12984,   0.00104,   0.00372,  -0.00143,476729120.00000,   0.00186,276657408.00000,   0.00024,   0.00213,  -0.00087,-160.00000,   1.00000
400040498.78732,518520436.97770,-43852561.40287,   0.00105,   0.00371,  -0.00144,476735072.00000,   0.00186,276657664.00000,   0.00024,   0.00214,  -0.00087,-288.00000,   1.00000
401241000.36695,517962952.89998,-43906928.80338,   0.00106,   0.00371,  -0.00144,476725056.00000,   0.00186,276657888.00000,   0.00024,   0.00214,  -0.00087,-128.00000,   1.00000
402445238.90147,517400018.77636,-43951504.95634,   0.00106,   0.00371,  -0.00144,476758624.00000,   0.00186,276658240.00000,   0.00024,   0.00214,  -0.00087,-352.00000,   1.00000
403643378.95156,516830912.05230,-44000657.11874,   0.00107,   0.00370,  -0.00144,476716608.00000,   0.00186,276658432.00000,   0.00024,   0.00214,  -0.00087,-128.00000,   1.00000
404832492.25229,516259191.11806,-44047372.84207,   0.00108,   0.00370,  -0.00144,476739072.00000,   0.00186,276658720.00000,   0.00024,   0.00214,  -0.00087,-352.00000,   1.00000
406022275.48775,515679531.45889,-44095432.21157,   0.00108,   0.00369,  -0.00144,476726880.00000,   0.00186,276658944.00000,   0.00024,   0.00214,  -0.00087,-384.00000,   1.00000
407207690.64368,515094441.85356,-44142928.58733,   0.00109,   0.00369,  -0.00144,476732160.00000,   0.00186,276659168.00000,   0.00024,   0.00214,  -0.00087,-224.00000,   1.00000
408388540.85269,514503730.83012,-44189843.03818,   0.00110,   0.00368,  -0.00144,476737632.00000,   0.00187,276659456.00000,   0.00024,   0.00214,  -0.00087,-192.00000,   1.00000
409570760.71318,513905824.71219,-44232028.54468,   0.00110,   0.00368,  -0.00144,476724736.00000,   0.00187,276659648.00000,   0.00024,   0.00214,  -0.00087,-256.00000,   1.00000
410746948.85999,513300401.21238,-44279608.63861,   0.00111,   0.00367,  -0.00144,476731936.00000,   0.00187,276659904.00000,   0.00024,   0.00214,  -0.00087,-256.00000,   1.00000
411923158.15438,512685845.43530,-44328434.87452,   0.00112,   0.00367,  -0.00144,476720768.00000,   0.00187,276660096.00000,   0.00024,   0.00214,  -0.00087,-192.00000,   1.00000
413089829.13779,512068898.30713,-44374821.88685,   0.00112,   0.00366,  -0.00144,476743200.00000,   0.00187,276660384.00000,   0.00024,   0.00214,  -0.00087,-320.00000,   1.00000
414256702.62418,511442980.62980,-44422471.91086,   0.00113,   0.00366,  -0.00144,476731904.00000,   0.00187,276660608.00000,   0.00024,   0.00214,  -0.00087,-384.00000,   1.00000
415419034.55287,510811627.55024,-44469553.28192,   0.00114,   0.00365,  -0.00144,476737248.00000,   0.00187,276660864.00000,   0.00024,   0.00214,  -0.00087,-256.00000,   1.00000
416582937.32982,510172890.88119,-44511898.10552,   0.00114,   0.00365,  -0.00145,476724416.00000,   0.00187,276661088.00000,   0.00024,   0.00214,  -0.00087,-256.00000,   1.00000
417740662.52002,509526658.51297,-44559624.84778,   0.00115,   0.00364,  -0.00145,476731680.00000,   0.00187,276661312.00000,   0.00024,   0.00214,  -0.00087,-224.00000,   1.00000
418883373.04761,508879830.72418,-44608217.04293,   0.00115,   0.00364,  -0.00145,476723936.00000,   0.00187,276661536.00000,   0.00024,   0.00214,  -0.00087,-288.00000,   1.00000
420031676.29410,508222508.03163,-44654761.47659,   0.00116,   0.00363,  -0.00145,476742624.00000,   0.00187,276661792.00000,   0.00024,   0.00214,  -0.00087,-224.00000,   1.00000
421170069.38221,507560917.34957,-44704015.73272,   0.00117,   0.00363,  -0.00145,476718208.00000,   0.00187,276661984.00000,   0.00024,   0.00214,  -0.00087,-224.00000,   1.00000
422310172.64846,506894238.78730,-44743375.81065,   0.00117,   0.00362,  -0.00145,476752000.00000,   0.00187,276662272.00000,   0.00024,   0.00214,  -0.00087,-288.00000,   1.00000
423444358.91643,506217889.84174,-44793299.57989,   0.00118,   0.00362,  -0.00145,476712448.00000,   0.00187,276662464.00000,   0.00024,   0.00214,  -0.00087,-160.00000,   1.00000
424578433.50572,505534519.89420,-44839270.87536,   0.00119,   0.00361,  -0.00145,476748128.00000,   0.00187,276662752.00000,   0.00024,   0.00214,  -0.00087,-416.00000,   1.00000
425703262.14953,504847209.70311,-44888016.70259,   0.00119,   0.00361,  -0.00145,476723328.00000,   0.00187,276662944.00000,   0.00024,   0.00214,  -0.00087,-224.00000,   1.00000
426819664.38790,504160215.95254,-44928353.52470,   0.00120,   0.00360,  -0.00145,476743552.00000,   0.00187,276663200.00000,   0.00024,   0.00214,  -0.00087,-256.00000,   1.00000
427940190.44948,503457936.58920,-44977752.20597,   0.00121,   0.00360,  -0.00145,476717728.00000,   0.00187,276663392.00000,   0.00024,   0.00214,  -0.00087,-288.00000,   1.00000
429050961.60185,502754536.61407,-45024743.32499,   0.00121,   0.00359,  -0.00145,476739360.00000,   0.00187,276663648.00000,   0.00024,   0.00214,  -0.00087,-160.00000,   1.00000
430152539.85959,502046710.21626,-45074495.66738,   0.00122,   0.00359,  -0.00145,476714848.00000,   0.00187,276663808.00000,   0.00024,   0.00214,  -0.00087,-224.00000,   1.00000
431253725.44130,501332575.08199,-45120298.82076,   0.00123,   0.00358,  -0.00145,476750144.00000,   0.00187,276664096.00000,   0.00024,   0.00214,  -0.00087,-352.00000,   1.00000
432351546.06826,500610215.68242,-45170764.92862,   0.00123,   0.00358,  -0.00146,476708800.00000,   0.00187,276664256.00000,   0.00024,   0.00214,  -0.00087, -32.00000,   1.00000
433450066.97995,499883158.24695,-45211267.78496,   0.00124,   0.00357,  -0.00146,476742688.00000,   0.00187,276664512.00000,   0.00024,   0.00214,  -0.00087,-256.00000,   1.00000
434533039.09622,499154354.86262,-45258711.03540,   0.00125,   0.00357,  -0.00146,476735968.00000,   0.00187,276664736.00000,   0.00024,   0.00214,  -0.00087,-160.00000,   1.00000
435616524.01491,498415795.96931,-45307396.85000,   0.00125,   0.00356,  -0.00146,476725088.00000,   0.00187,276664928.00000,   0.00024,   0.00214,  -0.00087,-224.00000,   1.00000
436695387.05319,497672123.73825,-45355512.44477,   0.00126,   0.00356,  -0.00146,476730272.00000,   0.00187,276665152.00000,   0.00024,   0.00214,  -0.00087,-128.00000,   1.00000
437760292.07452,496928395.04276,-45404596.43954,   0.00127,   0.00355,  -0.00146,476721856.00000,   0.00187,276665344.00000,   0.00024,   0.00214,  -0.00087, -64.00000,   1.00000
438834743.50832,496169386.95828,-45453341.63522,   0.00127,   0.00354,  -0.00146,476724992.00000,   0.00187,276665536.00000,   0.00024,   0.00214,  -0.00087,-288.00000,   1.00000
439890051.51397,495415136.89712,-45501244.54489,   0.00128,   0.00354,  -0.00146,476732576.00000,   0.00187,276665760.00000,   0.00024,   0.00214,  -0.00087,-288.00000,   1.00000
440945968.74380,494650955.18911,-45550390.94028,   0.00129,   0.00353,  -0.00146,476721760.00000,   0.00187,276665952.00000,   0.00024,   0.00214,  -0.00087, -96.00000,   1.00000
441996942.04294,493881394.61475,-45598929.96240,   0.00129,   0.00353,  -0.00146,476727264.00000,   0.00187,276666144.00000,   0.00024,   0.00214,  -0.00087,-128.00000,   1.00000
443042921.63889,493106450.57931,-45646857.19423,   0.00130,   0.00352,  -0.00146,476732800.00000,   0.00187,276666368.00000,   0.00024,   0.00214,  -0.00087,-256.00000,   1.00000
444079308.25194,492325047.94102,-45703601.56257,   0.00130,   0.00352,  -0.00146,476709600.00000,   0.00187,276666496.00000,   0.00024,   0.00214,  -0.00087,-128.00000,   1.00000
445115385.72903,491539588.93301,-45750319.01113,   0.00131,   0.00351,  -0.00146,476743680.00000,   0.00187,276666752.00000,   0.00024,   0.00214,  -0.00087,-192.00000,   1.00000
446143589.28676,490749424.39277,-45799896.83079,   0.00132,   0.00351,  -0.00146,476718720.00000,   0.00187,276666944.00000,   0.00024,   0.00214,  -0.00087,-160.00000,   1.00000
447166632.15366,489953748.23587,-45848843.25060,   0.00132,   0.00350,  -0.00147,476724416.00000,   0.00187,276667104.00000,   0.00024,   0.00214,  -0.00087,-192.00000,   1.00000
448174815.21162,489156565.16544,-45904794.08142,   0.00133,   0.00350,  -0.00147,476717152.00000,   0.00187,276667296.00000,   0.00024,   0.00214,  -0.00087,-288.00000,   1.00000
449187943.42147,488350471.79305,-45952531.45212,   0.00134,   0.00349,  -0.00147,476735264.00000,   0.00187,276667488.00000,   0.00024,   0.00214,  -0.00087,-256.00000,   1.00000
450186249.63870,487542892.04634,-46007277.15196,   0.00134,   0.00349,  -0.00147,476728000.00000,   0.00187,276667712.00000,   0.00025,   0.00214,  -0.00087,-224.00000,   1.00000
451186688.14878,486726493.38129,-46057269.61584,   0.00135,   0.00348,  -0.00147,476715808.00000,   0.00187,276667872.00000,   0.00025,   0.00214,  -0.00087,-192.00000,   1.00000
452180460.19319,485903052.54113,-46112612.28413,   0.00136,   0.00347,  -0.00147,476723040.00000,   0.00187,276668032.00000,   0.00025,   0.00215,  -0.00087,-224.00000,   1.00000
453161116.92145,485079811.40392,-46169002.86801,   0.00136,   0.00347,  -0.00147,476713984.00000,   0.00187,276668192.00000,   0.00025,   0.00215,  -0.00087,-160.00000,   1.00000
454138602.25308,484253359.49262,-46218844.71714,   0.00137,   0.00346,  -0.00147,476717440.00000,   0.00187,276668352.00000,   0.00025,   0.00215,  -0.00087,-192.00000,   1.00000
455109191.08764,483419721.42801,-46274010.93926,   0.00137,   0.00346,  -0.00147,476724864.00000,   0.00187,276668544.00000,   0.00025,   0.00215,  -0.00087,-288.00000,   1.00000
456074949.07366,482581176.82753,-46328591.35437,   0.00138,   0.00345,  -0.00147,476730080.00000,   0.00187,276668736.00000,   0.00025,   0.00215,  -0.00087,-128.00000,   1.00000
457027860.88152,481742975.06338,-46384248.48158,   0.00139,   0.00345,  -0.00147,476720832.00000,   0.00187,276668896.00000,   0.00025,   0.00215,  -0.00087,-160.00000,   1.00000
457981350.32901,480893859.56653,-46441113.84238,   0.00139,   0.00344,  -0.00147,476710432.00000,   0.00187,276669024.00000,   0.00025,   0.00215,  -0.00087,-224.00000,   1.00000
458929730.86729,480039545.37972,-46497358.70832,   0.00140,   0.00344,  -0.00148,476715872.00000,   0.00187,276669184.00000,   0.00025,   0.00215,  -0.00087, -64.00000,   1.00000
459860041.60484,479191747.39896,-46552906.84453,   0.00140,   0.00343,  -0.00148,476721984.00000,   0.00187,276669344.00000,   0.00025,   0.00215,  -0.00087,-160.00000,   1.00000
460796425.90984,478325323.46673,-46613860.44754,   0.00141,   0.00342,  -0.00148,476728608.00000,   0.00187,276669536.00000,   0.00025,   0.00215,  -0.00087,-192.00000,   1.00000
461714798.42060,477466851.19678,-46671721.82427,   0.00142,   0.00342,  -0.00148,476702208.00000,   0.00187,276669664.00000,   0.00025,   0.00215,  -0.00087,-256.00000,   1.00000
462633710.59616,476595984.62207,-46733184.77109,   0.00142,   0.00341,  -0.00148,476724320.00000,   0.00187,276669824.00000,   0.00025,   0.00215,  -0.00087, -96.00000,   1.00000
463547445.08184,475720993.22739,-46791612.11523,   0.00143,   0.00341,  -0.00148,476697504.00000,   0.00188,276669920.00000,   0.00025,   0.00215,  -0.00087,-160.00000,   1.00000
464448737.01128,474845453.20055,-46853562.84750,   0.00143,   0.00340,  -0.00148,476720160.00000,   0.00188,276670080.00000,   0.00025,   0.00215,  -0.00087, -96.00000,   1.00000
465344672.77319,473964681.20125,-46914862.33301,   0.00144,   0.00340,  -0.00148,476725760.00000,   0.00188,276670272.00000,   0.00025,   0.00215,  -0.00087,-224.00000,   1.00000
466234026.51797,473077986.14638,-46979115.15483,   0.00145,   0.00339,  -0.00148,476700640.00000,   0.00188,276670368.00000,   0.00025,   0.00215,  -0.00087, -96.00000,   1.00000
467118013.39737,472186010.66403,-47042713.30446,   0.00145,   0.00338,  -0.00148,476706208.00000,   0.00188,276670496.00000,   0.00025,   0.00215,  -0.00087,-128.00000,   1.00000
467990815.52293,471295228.39346,-47103819.05535,   0.00146,   0.00338,  -0.00148,476727328.00000,   0.00188,276670656.00000,   0.00025,   0.00215,  -0.00087,-224.00000,   1.00000
468857198.36871,470398333.78639,-47167897.02221,   0.00146,   0.00337,  -0.00148,476702208.00000,   0.00188,276670784.00000,   0.00025,   0.00215,  -0.00087, -96.00000,   1.00000
469716044.70772,469494091.57276,-47237215.06966,   0.00147,   0.00337,  -0.00149,476709984.00000,   0.00188,276670912.00000,   0.00025,   0.00215,  -0.00087,   0.00000,   1.00000
470564335.07026,468591720.06760,-47301709.26936,   0.00147,   0.00336,  -0.00149,476698720.00000,   0.00188,276670976.00000,   0.00025,   0.00215,  -0.00087,-192.00000,   1.00000
471405024.73132,467682001.31606,-47371430.74158,   0.00148,   0.00336,  -0.00149,476706464.00000,   0.00188,276671104.00000,   0.00025,   0.00215,  -0.00087,-192.00000,   1.00000
472239956.94209,466766823.07676,-47440436.04354,   0.00149,   0.00335,  -0.00149,476712352.00000,   0.00188,276671232.00000,   0.00025,   0.00215,  -0.00087, -64.00000,   1.00000
473062403.19714,465851472.75607,-47510549.74997,   0.00149,   0.00334,  -0.00149,476703136.00000,   0.00188,276671328.00000,   0.00025,   0.00215,  -0.00087,-224.00000,   1.00000
473879229.30494,464930829.73874,-47579963.97660,   0.00150,   0.00334,  -0.00149,476708832.00000,   0.00188,276671456.00000,   0.00025,   0.00215,  -0.00087,-160.00000,   1.00000
474690533.22578,464005031.19690,-47648693.50740,   0.00150,   0.00333,  -0.00149,476714432.00000,   0.00188,276671616.00000,   0.00025,   0.00215,  -0.00087,-128.00000,   1.00000
475496135.94612,463072731.09619,-47720524.42452,   0.00151,   0.00333,  -0.00149,476689184.00000,   0.00188,276671680.00000,   0.00025,   0.00215,  -0.00087,-128.00000,   1.00000
476289975.46145,462141952.88597,-47795942.83040,   0.00151,   0.00332,  -0.00149,476710304.00000,   0.00188,276671776.00000,   0.00025,   0.00215,  -0.00087,  32.00000,   1.00000
477082062.64908,461209610.98864,-47865004.85033,   0.00152,   0.00332,  -0.00149,476712064.00000,   0.00188,276671936.00000,   0.00025,   0.00215,  -0.00087,-192.00000,   1.00000
477869067.86540,460271052.04225,-47943393.44892,   0.00153,   0.00331,  -0.00150,476686400.00000,   0.00188,276671968.00000,   0.00025,   0.00215,  -0.00087,   0.00000,   1.00000
478642301.41298,459343480.55803,-48021621.09795,   0.00153,   0.00330,  -0.00150,476687840.00000,   0.00188,276672032.00000,   0.00025,   0.00215,  -0.00087, -32.00000,   1.00000
479425133.70446,458401017.39050,-48099535.66741,   0.00154,   0.00330,  -0.00150,476690592.00000,   0.00188,276672096.00000,   0.00025,   0.00215,  -0.00087,-128.00000,   1.00000
480188481.25300,457475328.62571,-48179180.87190,   0.00154,   0.00329,  -0.00150,476676288.00000,   0.00188,276672096.00000,   0.00025,   0.00215,  -0.00087, -64.00000,   1.00000
480960698.91066,456534054.99094,-48258417.95799,   0.00155,   0.00329,  -0.00150,476679712.00000,   0.00188,276672128.00000,   0.00025,   0.00215,  -0.00087, -64.00000,   1.00000
481716434.39888,455601231.53758,-48343330.73209,   0.00155,   0.00328,  -0.00150,476683840.00000,   0.00188,276672160.00000,   0.00025,   0.00215,  -0.00087,   0.00000,   1.00000
482453174.61626,454648709.66657,-48429643.39354,   0.00156,   0.00328,  -0.00150,476657664.00000,   0.00188,276672160.00000,   0.00025,   0.00215,  -0.00087,-14496.00000,   0.00000
483199162.61880,453717765.96092,-48515956.05499,   0.00156,   0.00327,  -0.00150,476662240.00000,   0.00188,276672160.00000,   0.00025,   0.00215,  -0.00087,-9920.00000,   0.00000
483935902.83619,452765244.08991,-48602268.71644,   0.00157,   0.00326,  -0.00150,476657248.00000,   0.00188,276672160.00000,   0.00025,   0.00215,  -0.00087,-14912.00000,   0.00000
484651064.88821,451803474.43374,-48688581.37789,   0.00157,   0.00326,  -0.00150,476641760.00000,   0.00188,276672160.00000,   0.00025,   0.00215,  -0.00087,-30400.00000,   0.00000
485375474.72539,450863282.94294,-48774894.03934,   0.00158,   0.00325,  -0.00151,476646080.00000,   0.00188,276672160.00000,   0.00025,   0.00215,  -0.00087,-26080.00000,   0.00000
486069058.61204,449892265.50161,-48867371.89090,   0.00158,   0.00325,  -0.00151,476627360.00000,   0.00188,276672160.00000,   0.00025,   0.00215,  -0.00087,-44800.00000,   0.00000
486771890.28386,448942826.22565,-48959849.74245,   0.00159,   0.00324,  -0.00151,476628320.00000,   0.00188,276672160.00000,   0.00025,   0.00215,  -0.00087,-43840.00000,   0.00000
487443896.00516,447962560.99918,-49052327.59401,   0.00159,   0.00324,  -0.00151,476604096.00000,   0.00188,276672160.00000,   0.00025,   0.00215,  -0.00087,-68064.00000,   0.00000
488125149.51161,447003873.93806,-49144805.44556,   0.00160,   0.00323,  -0.00151,476599104.00000,   0.00188,276672160.00000,   0.00025,   0.00215,  -0.00087,-73056.00000,   0.00000
488775577.06754,446014360.92643,-49237283.29712,   0.00160,   0.00322,  -0.00151,476568864.00000,   0.00188,276672160.00000,   0.00025,   0.00215,  -0.00087,-103296.00000,   0.00000
489435252.40863,445046426.08016,-49335926.33877,   0.00161,   0.00322,  -0.00151,476559456.00000,   0.00188,276672160.00000,   0.00025,   0.00215,  -0.00087,-112704.00000,   0.00000
490085679.96456,444056913.06852,-49434569.38043,   0.00161,   0.00321,  -0.00151,476540480.00000,   0.00188,276672160.00000,   0.00025,   0.00215,  -0.00087,-131680.00000,   0.00000
490723777.14029,443079730.43710,-49533212.42209,   0.00162,   0.00321,  -0.00152,476524128.00000,   0.00188,276672160.00000,   0.00025,   0.00215,  -0.00087,-148032.00000,   0.00000
491340296.15065,442093300.02051,-49631855.46375,   0.00162,   0.00320,  -0.00152,476495968.00000,   0.00188,276672160.00000,   0.00025,   0.00215,  -0.00087,-176192.00000,   0.00000
491947567.37586,441085291.43857,-49736663.69551,   0.00163,   0.00320,  -0.00152,476459904.00000,   0.00188,276672160.00000,   0.00025,   0.00215,  -0.00087,-212256.00000,   0.00000
492542508.22086,440089613.23683,-49835306.73717,   0.00163,   0.00319,  -0.00152,476423872.00000,   0.00188,276672160.00000,   0.00025,   0.00215,  -0.00087,-248288.00000,   0.00000
493137449.06586,439093935.03509,-49940114.96893,   0.00164,   0.00318,  -0.00152,476393632.00000,   0.00188,276672160.00000,   0.00025,   0.00215,  -0.00087,-278528.00000,   0.00000
493732389.91087,438098256.83336,-50044923.20069,   0.00164,   0.00318,  -0.00152,476367008.00000,   0.00188,276672160.00000,   0.00025,   0.00215,  -0.00087,-305152.00000,   0.00000
494296504.80535,437071752.68110,-50155896.62256,   0.00165,   0.00317,  -0.00152,476315936.00000,   0.00188,276672160.00000,   0.00025,   0.00215,  -0.00087,-356224.00000,   0.00000
494848289.31962,436057578.90905,-50260704.85432,   0.00165,   0.00317,  -0.00153,476264096.00000,   0.00188,276672160.00000,   0.00025,   0.00215,  -0.00087,-408064.00000,   0.00000
495400073.83390,435043405.13700,-50371678.27619,   0.00165,   0.00316,  -0.00153,476217824.00000,   0.00188,276672160.00000,   0.00025,   0.00215,  -0.00087,-454336.00000,   0.00000
495930280.18281,434019983.57980,-50482651.69805,   0.00166,   0.00316,  -0.00153,476159008.00000,   0.00188,276672160.00000,   0.00025,   0.00215,  -0.00087,-513152.00000,   0.00000
496469734.31688,433018140.18796,-50593625.11992,   0.00166,   0.00315,  -0.00153,476117856.00000,   0.00188,276672160.00000,   0.00025,   0.00215,  -0.00087,-554304.00000,   0.00000
496978362.50043,431985470.84560,-50710763.73189,   0.00167,   0.00314,  -0.00153,476052704.00000,   0.00188,276672160.00000,   0.00025,   0.00215,  -0.00087,-619456.00000,   0.00000
497486990.68398,430952801.50324,-50827902.34385,   0.00167,   0.00314,  -0.00153,475991904.00000,   0.00188,276672160.00000,   0.00025,   0.00215,  -0.00087,-680256.00000,   0.00000
497983288.48732,429932462.54109,-50945040.95582,   0.00168,   0.00313,  -0.00153,475933152.00000,   0.00188,276672160.00000,   0.00025,   0.00215,  -0.00087,-739008.00000,   0.00000
498470338.50551,428890545.41358,-51062179.56779,   0.00168,   0.00313,  -0.00154,475865312.00000,   0.00188,276672160.00000,   0.00025,   0.00215,  -0.00087,-806848.00000,   0.00000
498945058.14349,427860958.66627,-51185483.36987,   0.00168,   0.00312,  -0.00154,475801376.00000,   0.00188,276672160.00000,   0.00025,   0.00215,  -0.00087,-870784.00000,   0.00000
499388951.83095,426800545.96844,-51302621.98183,   0.00169,   0.00312,  -0.00154,475709728.00000,   0.00188,276672160.00000,   0.00025,   0.00215,  -0.00087,-962432.00000,   0.00000
499842093.30357,425761711.43598,-51432090.97401,   0.00169,   0.00311,  -0.00154,475640096.00000,   0.00188,276672160.00000,   0.00025,   0.00215,  -0.00087,-1032064.00000,   0.00000
500295234.77619,424722876.90352,-51555394.77608,   0.00170,   0.00311,  -0.00154,475572288.00000,   0.00188,276672160.00000,   0.00025,   0.00215,  -0.00087,-1099872.00000,   0.00000
500705219.91808,423665546.80074,-51678698.57816,   0.00170,   0.00310,  -0.00154,475475264.00000,   0.00188,276672160.00000,   0.00025,   0.00215,  -0.00087,-1196896.00000,   0.00000
501136783.22533,422617464.48312,-51808167.57033,   0.00170,   0.00309,  -0.00155,475400448.00000,   0.00188,276672160.00000,   0.00025,   0.00215,  -0.00087,-1271712.00000,   0.00000
501525190.20186,421550886.59520,-51943801.75261,   0.00171,   0.00309,  -0.00155,475298304.00000,   0.00188,276672160.00000,   0.00025,   0.00215,  -0.00087,-1373856.00000,   0.00000
501935175.34375,420493556.49242,-52073270.74479,   0.00171,   0.00308,  -0.00155,475214432.00000,   0.00188,276672160.00000,   0.00025,   0.00215,  -0.00087,-1457728.00000,   0.00000
502311251.94008,419439308.98470,-52208904.92707,   0.00172,   0.00308,  -0.00155,475116352.00000,   0.00188,276672160.00000,   0.00025,   0.00215,  -0.00087,-1555808.00000,   0.00000
502678080.75124,418363483.31162,-52344539.10935,   0.00172,   0.00307,  -0.00155,475008768.00000,   0.00188,276672160.00000,   0.00025,   0.00215,  -0.00087,-1663392.00000,   0.00000
503032579.18220,417299988.01874,-52480173.29163,   0.00172,   0.00307,  -0.00155,474901664.00000,   0.00188,276672160.00000,   0.00025,   0.00215,  -0.00087,-1770496.00000,   0.00000
503387077.61316,416236492.72586,-52621972.66401,   0.00173,   0.00306,  -0.00156,474800224.00000,   0.00188,276672160.00000,   0.00025,   0.00215,  -0.00087,-1871936.00000,   0.00000
503719997.87876,415163749.64783,-52763772.03640,   0.00173,   0.00306,  -0.00156,474685888.00000,   0.00188,276672160.00000,   0.00025,   0.00215,  -0.00087,-1986272.00000,   0.00000
504052918.14435,414091006.56980,-52905571.40878,   0.00173,   0.00305,  -0.00156,474575264.00000,   0.00188,276672160.00000,   0.00025,   0.00215,  -0.00087,-2096896.00000,   0.00000
504364260.24459,413009015.70661,-53047370.78116,   0.00174,   0.00304,  -0.00156,474451488.00000,   0.00188,276672160.00000,   0.00025,   0.00215,  -0.00087,-2220672.00000,   0.00000
504675602.34482,411927024.84342,-53195335.34365,   0.00174,   0.00304,  -0.00156,474333344.00000,   0.00188,276672160.00000,   0.00025,   0.00215,  -0.00087,-2338816.00000,   0.00000
504953035.89948,410848116.57528,-53343299.90614,   0.00174,   0.00303,  -0.00157,474198208.00000,   0.00188,276672160.00000,   0.00025,   0.00215,  -0.00087,-2473952.00000,   0.00000
505252047.61951,409778456.09230,-53497429.65873,   0.00175,   0.00303,  -0.00157,474085344.00000,   0.00188,276672160.00000,   0.00025,   0.00215,  -0.00087,-2586816.00000,   0.00000
505498655.22366,408668721.87365,-53651559.41132,   0.00175,   0.00302,  -0.00157,473929344.00000,   0.00188,276672160.00000,   0.00025,   0.00215,  -0.00087,-2742816.00000,   0.00000
505754510.61296,407580565.82035,-53805689.16391,   0.00175,   0.00302,  -0.00157,473789632.00000,   0.00188,276672160.00000,   0.00025,   0.00215,  -0.00087,-2882528.00000,   0.00000
506019613.78741,406513987.93243,-53959818.91650,   0.00176,   0.00301,  -0.00157,473666048.00000,   0.00188,276672160.00000,   0.00025,   0.00215,  -0.00087,-3006112.00000,   0.00000
506232312.84599,405407336.30882,-54120113.85920,   0.00176,   0.00301,  -0.00158,473501280.00000,   0.00188,276672160.00000,   0.00025,   0.00215,  -0.00087,-3170880.00000,   0.00000
506445011.90456,404300684.68522,-54280408.80189,   0.00176,   0.00300,  -0.00158,473339424.00000,   0.00188,276672160.00000,   0.00025,   0.00215,  -0.00087,-3332736.00000,   0.00000
506666958.74830,403215611.22698,-54440703.74459,   0.00177,   0.00299,  -0.00158,473193728.00000,   0.00188,276672160.00000,   0.00025,   0.00215,  -0.00087,-3478432.00000,   0.00000
506867327.42666,402121289.98358,-54607163.87738,   0.00177,   0.00299,  -0.00158,473036320.00000,   0.00188,276672160.00000,   0.00025,   0.00215,  -0.00087,-3635840.00000,   0.00000
507046117.93967,401017720.95503,-54773624.01018,   0.00177,   0.00298,  -0.00158,472865024.00000,   0.00188,276672160.00000,   0.00025,   0.00215,  -0.00087,-3807136.00000,   0.00000
507224908.45267,399914151.92648,-54946249.33308,   0.00178,   0.00298,  -0.00159,472698880.00000,   0.00188,276672160.00000,   0.00025,   0.00215,  -0.00087,-3973280.00000,   0.00000
507382120.80032,398801335.11278,-55118874.65599,   0.00178,   0.00297,  -0.00159,472518784.00000,   0.00188,276672160.00000,   0.00025,   0.00215,  -0.00087,-4153376.00000,   0.00000
507527002.76775,397700848.67928,-55291499.97889,   0.00178,   0.00297,  -0.00159,472337440.00000,   0.00188,276672160.00000,   0.00025,   0.00215,  -0.00087,-4334720.00000,   0.00000
507671884.73519,396600362.24578,-55464125.30179,   0.00178,   0.00296,  -0.00159,472158912.00000,   0.00188,276672160.00000,   0.00025,   0.00215,  -0.00087,-4513248.00000,   0.00000
507795188.53726,395490628.02712,-55642915.81479,   0.00179,   0.00296,  -0.00160,471968384.00000,   0.00188,276672160.00000,   0.00025,   0.00215,  -0.00087,-4703776.00000,   0.00000
507918492.33933,394380893.80847,-55821706.32780,   0.00179,   0.00295,  -0.00160,471780896.00000,   0.00188,276672160.00000,   0.00025,   0.00215,  -0.00087,-4891264.00000,   0.00000
507998639.81068,393252664.01950,-56006662.03091,   0.00179,   0.00295,  -0.00160,471564320.00000,   0.00188,276672160.00000,   0.00025,   0.00215,  -0.00087,-5107840.00000,   0.00000
508109613.23255,392155260.18106,-56191617.73402,   0.00180,   0.00294,  -0.00160,471380096.00000,   0.00188,276672160.00000,   0.00025,   0.00215,  -0.00087,-5292064.00000,   0.00000
508168182.53853,391017782.60693,-56376573.43713,   0.00180,   0.00294,  -0.00160,471152160.00000,   0.00188,276672160.00000,   0.00025,   0.00215,  -0.00087,-5520000.00000,   0.00000
508235999.62967,389901883.19818,-56567694.33034,   0.00180,   0.00293,  -0.00161,470941600.00000,   0.00188,276672160.00000,   0.00025,   0.00215,  -0.00087,-5730560.00000,   0.00000
508291486.34060,388798314.16962,-56758815.22355,   0.00180,   0.00293,  -0.00161,470729248.00000,   0.00188,276672160.00000,   0.00025,   0.00215,  -0.00087,-5942912.00000,   0.00000
508337725.26638,387673166.97571,-56949936.11677,   0.00181,   0.00292,  -0.00161,470507040.00000,   0.00188,276672160.00000,   0.00025,   0.00215,  -0.00087,-6165120.00000,   0.00000
508371633.81195,386560350.16200,-57147222.20008,   0.00181,   0.00292,  -0.00161,470285280.00000,   0.00188,276672160.00000,   0.00025,   0.00215,  -0.00087,-6386880.00000,   0.00000
508383964.19216,385438285.56314,-57344508.28340,   0.00181,   0.00291,  -0.00162,470048800.00000,   0.00188,276672160.00000,   0.00025,   0.00215,  -0.00087,-6623360.00000,   0.00000
508396294.57237,384316220.96428,-57547959.55682,   0.00181,   0.00291,  -0.00162,469817568.00000,   0.00188,276672160.00000,   0.00025,   0.00215,  -0.00087,-6854592.00000,   0.00000
508387046.78721,383184908.58026,-57751410.83024,   0.00181,   0.00290,  -0.00162,469571744.00000,   0.00188,276672160.00000,   0.00025,   0.00215,  -0.00087,-7100416.00000,   0.00000
508365468.62185,382065926.57645,-57954862.10366,   0.00182,   0.00290,  -0.00163,469323936.00000,   0.00188,276672160.00000,   0.00025,   0.00215,  -0.00087,-7348224.00000,   0.00000
508313064.50597,380916118.62213,-58164478.56718,   0.00182,   0.00289,  -0.00163,469051584.00000,   0.00188,276672160.00000,   0.00025,   0.00215,  -0.00087,-7620576.00000,   0.00000
508269908.17524,379787888.83316,-58374095.03071,   0.00182,   0.00289,  -0.00163,468794208.00000,   0.00188,276672160.00000,   0.00025,   0.00215,  -0.00087,-7877952.00000,   0.00000
508235999.62967,378681237.20956,-58583711.49423,   0.00182,   0.00288,  -0.00163,468551552.00000,   0.00188,276672160.00000,   0.00025,   0.00215,  -0.00087,-8120608.00000,   0.00000
508149686.96822,377534511.85028,-58799493.14786,   0.00182,   0.00288,  -0.00164,468267584.00000,   0.00188,276672160.00000,   0.00025,   0.00215,  -0.00087,-8404576.00000,   0.00000
508072622.09192,376409364.65637,-59021439.99159,   0.00183,   0.00287,  -0.00164,468000544.00000,   0.00188,276672160.00000,   0.00025,   0.00215,  -0.00087,-8671616.00000,   0.00000
507995557.21563,375284217.46245,-59237221.64522,   0.00183,   0.00287,  -0.00164,467733920.00000,   0.00188,276672160.00000,   0.00025,   0.00215,  -0.00087,-8938240.00000,   0.00000
507875336.00861,374140574.69823,-59465333.67905,   0.00183,   0.00286,  -0.00165,467440352.00000,   0.00188,276672160.00000,   0.00025,   0.00215,  -0.00087,-9231808.00000,   0.00000
507764362.58674,373018510.09937,-59687280.52278,   0.00183,   0.00286,  -0.00165,467158976.00000,   0.00188,276672160.00000,   0.00025,   0.00215,  -0.00087,-9513184.00000,   0.00000
507631810.99951,371887197.71535,-59915392.55662,   0.00183,   0.00285,  -0.00165,466865408.00000,   0.00188,276672160.00000,   0.00025,   0.00215,  -0.00087,-9806752.00000,   0.00000
507499259.41229,370755885.33133,-60149669.78055,   0.00183,   0.00285,  -0.00165,466576992.00000,   0.00188,276672160.00000,   0.00025,   0.00215,  -0.00087,-10095168.00000,   0.00000
507345129.65970,369615325.16216,-60377781.81439,   0.00184,   0.00284,  -0.00166,466271424.00000,   0.00188,276672160.00000,   0.00025,   0.00215,  -0.00087,-10400736.00000,   0.00000
507178669.52690,368487095.37319,-60618224.22843,   0.00184,   0.00284,  -0.00166,465968032.00000,   0.00188,276672160.00000,   0.00025,   0.00215,  -0.00087,-10704128.00000,   0.00000
507012209.39410,367358865.58423,-60852501.45237,   0.00184,   0.00283,  -0.00166,465664896.00000,   0.00188,276672160.00000,   0.00025,   0.00215,  -0.00087,-11007264.00000,   0.00000
506824171.09594,366221388.01011,-61092943.86641,   0.00184,   0.00283,  -0.00167,465349408.00000,   0.00188,276672160.00000,   0.00025,   0.00215,  -0.00087,-11322752.00000,   0.00000
506614554.63241,365074662.65083,-61339551.47056,   0.00184,   0.00282,  -0.00167,465021856.00000,   0.00188,276672160.00000,   0.00025,   0.00215,  -0.00087,-11650304.00000,   0.00000
506414185.95405,363949515.45692,-61586159.07470,   0.00184,   0.00282,  -0.00167,464708960.00000,   0.00188,276672160.00000,   0.00025,   0.00215,  -0.00087,-11963200.00000,   0.00000
506170660.94495,362805872.69269,-61832766.67885,   0.00184,   0.00281,  -0.00168,464364736.00000,   0.00188,276672160.00000,   0.00025,   0.00215,  -0.00087,-12307424.00000,   0.00000
505948714.10122,361671477.71362,-62085539.47310,   0.00185,   0.00281,  -0.00168,464044064.00000,   0.00188,276672160.00000,   0.00025,   0.00215,  -0.00087,-12628096.00000,   0.00000
505692858.71192,360540165.32961,-62338312.26734,   0.00185,   0.00280,  -0.00168,463705376.00000,   0.00188,276672160.00000,   0.00025,   0.00215,  -0.00087,-12966784.00000,   0.00000
505437003.32262,359408852.94559,-62597250.25170,   0.00185,   0.00280,  -0.00169,463374784.00000,   0.00188,276672160.00000,   0.00025,   0.00215,  -0.00087,-13297376.00000,   0.00000
505159569.76796,358268292.77642,-62856188.23605,   0.00185,   0.00279,  -0.00169,463032768.00000,   0.00188,276672160.00000,   0.00025,   0.00215,  -0.00087,-13639392.00000,   0.00000
504882136.21329,357127732.60724,-63121291.41051,   0.00185,   0.00279,  -0.00169,462695840.00000,   0.00188,276672160.00000,   0.00025,   0.00215,  -0.00087,-13976320.00000,   0.00000
504570794.11306,355990255.03312,-63386394.58496,   0.00185,   0.00278,  -0.00170,462329824.00000,   0.00188,276672160.00000,   0.00025,   0.00215,  -0.00087,-14342336.00000,   0.00000
504259452.01283,354852777.45900,-63651497.75942,   0.00185,   0.00278,  -0.00170,461950720.00000,   0.00188,276672160.00000,   0.00025,   0.00215,  -0.00087,-14721440.00000,   0.00000
503957357.69775,353736878.05024,-63922766.12398,   0.00185,   0.00278,  -0.00170,461576960.00000,   0.00188,276672160.00000,   0.00025,   0.00215,  -0.00087,-15095200.00000,   0.00000
503624437.43215,352590152.69097,-64200199.67864,   0.00185,   0.00277,  -0.00171,461182720.00000,   0.00188,276672160.00000,   0.00025,   0.00215,  -0.00087,-15489440.00000,   0.00000
503279186.78635,351455757.71190,-64477633.23331,   0.00185,   0.00277,  -0.00171,460797760.00000,   0.00188,276672160.00000,   0.00025,   0.00215,  -0.00087,-15874400.00000,   0.00000
502921605.76034,350333693.11303,-64755066.78797,   0.00185,   0.00276,  -0.00171,460418592.00000,   0.00188,276672160.00000,   0.00025,   0.00215,  -0.00087,-16253568.00000,   0.00000
502554776.94917,349190050.34881,-65038665.53274,   0.00185,   0.00276,  -0.00172,460035584.00000,   0.00188,276672160.00000,   0.00025,   0.00215,  -0.00087,-16636576.00000,   0.00000
502175617.75780,348058737.96479,-65322264.27750,   0.00185,   0.00275,  -0.00172,459647232.00000,   0.00188,276672160.00000,   0.00025,   0.00215,  -0.00087,-17024928.00000,   0.00000
501774880.40106,346918177.79562,-65612028.21238,   0.00186,   0.00275,  -0.00172,459244352.00000,   0.00188,276672160.00000,   0.00025,   0.00215,  -0.00087,-17427808.00000,   0.00000
501361812.66412,345789948.00665,-65901792.14725,   0.00186,   0.00274,  -0.00173,458836032.00000,   0.00188,276672160.00000,   0.00025,   0.00215,  -0.00087,-17836128.00000,   0.00000
500948744.92717,344661718.21769,-66197721.27222,   0.00186,   0.00274,  -0.00173,458431808.00000,   0.00188,276672160.00000,   0.00025,   0.00215,  -0.00087,-18240352.00000,   0.00000
500535677.19023,343533488.42872,-66493650.39720,   0.00186,   0.00274,  -0.00174,458029632.00000,   0.00188,276672160.00000,   0.00025,   0.00215,  -0.00087,-18642528.00000,   0.00000
500088700.90772,342408341.23481,-66795744.71227,   0.00186,   0.00273,  -0.00174,457608608.00000,   0.00188,276672160.00000,   0.00025,   0.00215,  -0.00087,-19063552.00000,   0.00000
499641724.62520,341283194.04090,-67097839.02735,   0.00186,   0.00273,  -0.00174,457190080.00000,   0.00188,276672160.00000,   0.00025,   0.00215,  -0.00087,-19482080.00000,   0.00000
499173170.17732,340148799.06183,-67399933.34243,   0.00186,   0.00272,  -0.00175,456756512.00000,   0.00188,276672160.00000,   0.00025,   0.00215,  -0.00087,-19915648.00000,   0.00000
498704615.72945,339014404.08276,-67708192.84761,   0.00186,   0.00272,  -0.00175,456328224.00000,   0.00188,276672160.00000,   0.00025,   0.00215,  -0.00087,-20343936.00000,   0.00000
498223730.90136,337892339.48390,-68022617.54290,   0.00186,   0.00271,  -0.00176,455899008.00000,   0.00188,276672160.00000,   0.00025,   0.00215,  -0.00087,-20773152.00000,   0.00000
497730515.69307,336782605.26524,-68337042.23818,   0.00186,   0.00271,  -0.00176,455466080.00000,   0.00188,276672160.00000,   0.00025,   0.00215,  -0.00087,-21206080.00000,   0.00000
497206474.53426,335642045.09607,-68651466.93347,   0.00186,   0.00271,  -0.00176,455008128.00000,   0.00188,276672160.00000,   0.00025,   0.00215,  -0.00087,-21664032.00000,   0.00000
496691681.16061,334523063.09226,-68972056.81886,   0.00186,   0.00270,  -0.00177,454567040.00000,   0.00188,276672160.00000,   0.00025,   0.00215,  -0.00087,-22105120.00000,   0.00000
496164557.40675,333416411.46865,-69298811.89435,   0.00186,   0.00270,  -0.00177,454125984.00000,   0.00188,276672160.00000,   0.00025,   0.00215,  -0.00087,-22546176.00000,   0.00000
495628185.86773,332288181.67969,-69625566.96984,   0.00186,   0.00269,  -0.00178,453678496.00000,   0.00188,276672160.00000,   0.00025,   0.00215,  -0.00087,-22993664.00000,   0.00000
495057905.78315,331163034.48578,-69952322.04534,   0.00186,   0.00269,  -0.00178,453211808.00000,   0.00188,276672160.00000,   0.00025,   0.00215,  -0.00087,-23460352.00000,   0.00000
494518451.64908,330068713.24238,-70285242.31093,   0.00185,   0.00269,  -0.00179,452780544.00000,   0.00188,276672160.00000,   0.00025,   0.00215,  -0.00087,-23891616.00000,   0.00000
493926593.39913,328934318.26331,-70624327.76663,   0.00185,   0.00268,  -0.00179,452312224.00000,   0.00188,276672160.00000,   0.00025,   0.00215,  -0.00087,-24359936.00000,   0.00000
493343982.93434,327821501.44960,-70963413.22233,   0.00185,   0.00268,  -0.00179,451859232.00000,   0.00188,276672160.00000,   0.00025,   0.00215,  -0.00087,-24812928.00000,   0.00000
492749042.08934,326721015.01611,-71302498.67803,   0.00185,   0.00267,  -0.00180,451403872.00000,   0.00188,276672160.00000,   0.00025,   0.00215,  -0.00087,-25268288.00000,   0.00000
492132523.07897,325611280.79745,-71647749.32384,   0.00185,   0.00267,  -0.00180,450937664.00000,   0.00188,276672160.00000,   0.00025,   0.00215,  -0.00087,-25734496.00000,   0.00000
491516004.06861,324501546.57880,-71999165.15974,   0.00185,   0.00267,  -0.00181,450477312.00000,   0.00188,276672160.00000,   0.00025,   0.00215,  -0.00087,-26194848.00000,   0.00000
490877906.89288,323382564.57499,-72350580.99565,   0.00185,   0.00266,  -0.00181,450001952.00000,   0.00188,276672160.00000,   0.00025,   0.00215,  -0.00087,-26670208.00000,   0.00000
490227479.33695,322275912.95138,-72701996.83156,   0.00185,   0.00266,  -0.00182,449520800.00000,   0.00188,276672160.00000,   0.00025,   0.00215,  -0.00087,-27151360.00000,   0.00000
489586299.56617,321190839.49314,-73059577.85757,   0.00185,   0.00266,  -0.00182,449053664.00000,   0.00188,276672160.00000,   0.00025,   0.00215,  -0.00087,-27618496.00000,   0.00000
488914293.84487,320074940.08438,-73423324.07368,   0.00185,   0.00265,  -0.00183,448562208.00000,   0.00188,276672160.00000,   0.00025,   0.00215,  -0.00087,-28109952.00000,   0.00000
488229957.74337,318971371.05583,-73787070.28980,   0.00185,   0.00265,  -0.00183,448063552.00000,   0.00188,276672160.00000,   0.00025,   0.00215,  -0.00087,-28608608.00000,   0.00000
487554869.42702,317889380.19265,-74150816.50591,   0.00185,   0.00264,  -0.00184,447574976.00000,   0.00188,276672160.00000,   0.00025,   0.00215,  -0.00087,-29097184.00000,   0.00000
486858202.94531,316798141.54430,-74520727.91213,   0.00185,   0.00264,  -0.00184,447071744.00000,   0.00188,276672160.00000,   0.00025,   0.00215,  -0.00087,-29600416.00000,   0.00000
486161536.46360,315706902.89596,-74896804.50845,   0.00184,   0.00264,  -0.00185,446571392.00000,   0.00188,276672160.00000,   0.00025,   0.00215,  -0.00087,-30100768.00000,   0.00000
485421713.65116,314597168.67730,-75272881.10477,   0.00184,   0.00263,  -0.00185,446036640.00000,   0.00188,276672160.00000,   0.00025,   0.00215,  -0.00087,-30635520.00000,   0.00000
484691138.62388,313509012.62401,-75648957.70110,   0.00184,   0.00263,  -0.00186,445512416.00000,   0.00188,276672160.00000,   0.00025,   0.00215,  -0.00087,-31159744.00000,   0.00000
483969811.38176,312442434.73608,-76031199.48752,   0.00184,   0.00263,  -0.00186,445002592.00000,   0.00188,276672160.00000,   0.00025,   0.00215,  -0.00087,-31669568.00000,   0.00000
483196080.02375,311335783.11248,-76419606.46405,   0.00184,   0.00262,  -0.00187,444452160.00000,   0.00188,276672160.00000,   0.00025,   0.00215,  -0.00087,-32220000.00000,   0.00000
482462422.40142,310281535.60476,-76808013.44058,   0.00184,   0.00262,  -0.00187,443941408.00000,   0.00188,276672160.00000,   0.00025,   0.00215,  -0.00087,-32730752.00000,   0.00000
481676360.66320,309187214.36136,-77196420.41711,   0.00184,   0.00262,  -0.00188,443388128.00000,   0.00188,276672160.00000,   0.00025,   0.00215,  -0.00087,-33284032.00000,   0.00000
480899546.71015,308114471.28333,-77597157.77385,   0.00184,   0.00261,  -0.00188,442853856.00000,   0.00188,276672160.00000,   0.00025,   0.00215,  -0.00087,-33818304.00000,   0.00000
480101154.59172,307032480.42014,-77991729.94048,   0.00183,   0.00261,  -0.00189,442302176.00000,   0.00188,276672160.00000,   0.00025,   0.00215,  -0.00087,-34369984.00000,   0.00000
479290432.09310,305962819.93716,-78392467.29721,   0.00183,   0.00261,  -0.00189,441749376.00000,   0.00188,276672160.00000,   0.00025,   0.00215,  -0.00087,-34922784.00000,   0.00000
478479709.59447,304893159.45418,-78799369.84405,   0.00183,   0.00260,  -0.00190,441203072.00000,   0.00188,276672160.00000,   0.00025,   0.00215,  -0.00087,-35469088.00000,   0.00000
477656656.71563,303835829.35141,-79206272.39089,   0.00183,   0.00260,  -0.00190,440652608.00000,   0.00188,276672160.00000,   0.00025,   0.00215,  -0.00087,-36019552.00000,   0.00000
476833603.83680,302778499.24863,-79619340.12784,   0.00183,   0.00260,  -0.00191,440108736.00000,   0.00188,276672160.00000,   0.00025,   0.00215,  -0.00087,-36563424.00000,   0.00000
475988972.79260,301711921.36070,-80032407.86478,   0.00183,   0.00259,  -0.00191,439550688.00000,   0.00188,276672160.00000,   0.00025,   0.00215,  -0.00087,-37121472.00000,   0.00000
475132011.36819,300657673.85298,-80451640.79183,   0.00182,   0.00259,  -0.00192,438991904.00000,   0.00188,276672160.00000,   0.00025,   0.00215,  -0.00087,-37680256.00000,   0.00000
474275049.94379,299603426.34526,-80870873.71888,   0.00182,   0.00259,  -0.00192,438436352.00000,   0.00188,276672160.00000,   0.00025,   0.00215,  -0.00087,-38235808.00000,   0.00000
473396510.35402,298539931.05238,-81296271.83603,   0.00182,   0.00258,  -0.00193,437870144.00000,   0.00188,276672160.00000,   0.00025,   0.00215,  -0.00087,-38802016.00000,   0.00000
472505640.38404,297488766.13971,-81721669.95318,   0.00182,   0.00258,  -0.00193,437299904.00000,   0.00188,276672160.00000,   0.00025,   0.00215,  -0.00087,-39372256.00000,   0.00000
471624018.19922,296459179.39240,-82153233.26043,   0.00182,   0.00258,  -0.00194,436746592.00000,   0.00188,276672160.00000,   0.00025,   0.00215,  -0.00087,-39925568.00000,   0.00000
470720817.84904,295420344.85994,-82584796.56769,   0.00181,   0.00257,  -0.00195,436179488.00000,   0.00188,276672160.00000,   0.00025,   0.00215,  -0.00087,-40492672.00000,   0.00000
469817617.49886,294381510.32748,-83022525.06505,   0.00181,   0.00257,  -0.00195,435619744.00000,   0.00188,276672160.00000,   0.00025,   0.00215,  -0.00087,-41052416.00000,   0.00000
468902086.76847,293355006.17522,-83466418.75251,   0.00181,   0.00257,  -0.00196,435060160.00000,   0.00188,276672160.00000,   0.00025,   0.00215,  -0.00087,-41612000.00000,   0.00000
467964977.87272,292319254.23781,-83910312.43997,   0.00181,   0.00257,  -0.00196,434487168.00000,   0.00188,276672160.00000,   0.00025,   0.00215,  -0.00087,-42184992.00000,   0.00000
467006290.81160,291274254.51525,-84354206.12743,   0.00181,   0.00256,  -0.00197,433900896.00000,   0.00188,276672160.00000,   0.00025,   0.00215,  -0.00087,-42771264.00000,   0.00000
466078429.70100,290260080.74320,-84804265.00500,   0.00180,   0.00256,  -0.00197,433349312.00000,   0.00188,276672160.00000,   0.00025,   0.00215,  -0.00087,-43322848.00000,   0.00000
465107412.25968,289227411.40084,-85254323.88256,   0.00180,   0.00256,  -0.00198,432767072.00000,   0.00188,276672160.00000,   0.00025,   0.00215,  -0.00087,-43905088.00000,   0.00000
464145642.60351,288216320.22384,-85710547.95023,   0.00180,   0.00255,  -0.00199,432201952.00000,   0.00188,276672160.00000,   0.00025,   0.00215,  -0.00087,-44470208.00000,   0.00000
463162294.78198,287195981.26169,-86172937.20800,   0.00180,   0.00255,  -0.00199,431626720.00000,   0.00188,276672160.00000,   0.00025,   0.00215,  -0.00087,-45045440.00000,   0.00000
462188194.74561,286197220.46490,-86635326.46578,   0.00179,   0.00255,  -0.00200,431064032.00000,   0.00188,276672160.00000,   0.00025,   0.00215,  -0.00087,-45608128.00000,   0.00000
461192516.54387,285189211.88296,-87103880.91365,   0.00179,   0.00255,  -0.00200,430490656.00000,   0.00188,276672160.00000,   0.00025,   0.00215,  -0.00087,-46181504.00000,   0.00000
460184507.96193,284193533.68122,-87572435.36153,   0.00179,   0.00254,  -0.00201,429911744.00000,   0.00188,276672160.00000,   0.00025,   0.00215,  -0.00087,-46760416.00000,   0.00000
459167251.59483,283176277.31412,-88040989.80941,   0.00179,   0.00254,  -0.00202,429325120.00000,   0.00188,276672160.00000,   0.00025,   0.00215,  -0.00087,-47347040.00000,   0.00000
458146912.63267,282192929.49259,-88515709.44739,   0.00178,   0.00254,  -0.00202,428745952.00000,   0.00188,276672160.00000,   0.00025,   0.00215,  -0.00087,-47926208.00000,   0.00000
457126573.67052,281209581.67106,-88996594.27547,   0.00178,   0.00254,  -0.00203,428172256.00000,   0.00188,276672160.00000,   0.00025,   0.00215,  -0.00087,-48499904.00000,   0.00000
456084656.54301,280216986.06437,-89477479.10355,   0.00178,   0.00253,  -0.00204,427582784.00000,   0.00188,276672160.00000,   0.00025,   0.00215,  -0.00087,-49089376.00000,   0.00000
455021161.25013,279215142.67253,-89964529.12174,   0.00177,   0.00253,  -0.00204,426981696.00000,   0.00188,276672160.00000,   0.00025,   0.00215,  -0.00087,-49690464.00000,   0.00000
453976161.52756,278256455.61142,-90451579.13993,   0.00177,   0.00253,  -0.00205,426401440.00000,   0.00188,276672160.00000,   0.00025,   0.00215,  -0.00087,-50270720.00000,   0.00000
452900335.85448,277266942.59978,-90944794.34822,   0.00177,   0.00253,  -0.00205,425800800.00000,   0.00188,276672160.00000,   0.00025,   0.00215,  -0.00087,-50871360.00000,   0.00000
451833757.96655,276299007.75351,-91438009.55651,   0.00177,   0.00252,  -0.00206,425212288.00000,   0.00188,276672160.00000,   0.00025,   0.00215,  -0.00087,-51459872.00000,   0.00000
450754849.69841,275343403.28745,-91937389.95490,   0.00176,   0.00252,  -0.00207,424622912.00000,   0.00188,276672160.00000,   0.00025,   0.00215,  -0.00087,-52049248.00000,   0.00000
449666693.64512,274366220.65602,-92436770.35330,   0.00176,   0.00252,  -0.00207,424027488.00000,   0.00188,276672160.00000,   0.00025,   0.00215,  -0.00087,-52644672.00000,   0.00000
448575454.99678,273422946.57016,-92942315.94180,   0.00176,   0.00252,  -0.00208,423441408.00000,   0.00188,276672160.00000,   0.00025,   0.00215,  -0.00087,-53230752.00000,   0.00000
447453390.39792,272448846.53379,-93447861.53030,   0.00175,   0.00252,  -0.00209,422833024.00000,   0.00188,276672160.00000,   0.00025,   0.00215,  -0.00087,-53839136.00000,   0.00000
446349821.36936,271517902.82814,-93959572.30890,   0.00175,   0.00251,  -0.00209,422251520.00000,   0.00188,276672160.00000,   0.00025,   0.00215,  -0.00087,-54420640.00000,   0.00000
445237004.55566,270565380.95713,-94471283.08750,   0.00175,   0.00251,  -0.00210,421664960.00000,   0.00188,276672160.00000,   0.00025,   0.00215,  -0.00087,-55007200.00000,   0.00000
444090279.19638,269615941.68117,-94989159.05621,   0.00174,   0.00251,  -0.00211,421062336.00000,   0.00188,276672160.00000,   0.00025,   0.00215,  -0.00087,-55609824.00000,   0.00000
442974379.78762,268697328.35573,-95513200.21501,   0.00174,   0.00251,  -0.00211,420494464.00000,   0.00188,276672160.00000,   0.00025,   0.00215,  -0.00087,-56177696.00000,   0.00000
441815324.04814,267760219.45997,-96031076.18372,   0.00174,   0.00251,  -0.00212,419893056.00000,   0.00188,276672160.00000,   0.00025,   0.00215,  -0.00087,-56779104.00000,   0.00000
440665516.09381,266844688.72958,-96561282.53263,   0.00173,   0.00250,  -0.00213,419313728.00000,   0.00188,276672160.00000,   0.00025,   0.00215,  -0.00087,-57358432.00000,   0.00000
439506460.35433,265907579.83383,-97091488.88155,   0.00173,   0.00250,  -0.00213,418729632.00000,   0.00188,276672160.00000,   0.00025,   0.00215,  -0.00087,-57942528.00000,   0.00000
438344322.01979,265004379.48365,-97621695.23046,   0.00173,   0.00250,  -0.00214,418151392.00000,   0.00188,276672160.00000,   0.00025,   0.00215,  -0.00087,-58520768.00000,   0.00000
437182183.68526,264101179.13347,-98158066.76947,   0.00172,   0.00250,  -0.00215,417581792.00000,   0.00188,276672160.00000,   0.00025,   0.00215,  -0.00087,-59090368.00000,   0.00000
435998467.18536,263188730.99813,-98694438.30849,   0.00172,   0.00250,  -0.00216,416999872.00000,   0.00188,276672160.00000,   0.00025,   0.00215,  -0.00087,-59672288.00000,   0.00000
434802420.30525,262288613.24300,-99236975.03761,   0.00172,   0.00249,  -0.00216,416419072.00000,   0.00188,276672160.00000,   0.00025,   0.00215,  -0.00087,-60253088.00000,   0.00000
433606373.42515,261388495.48787,-99785676.95683,   0.00171,   0.00249,  -0.00217,415847040.00000,   0.00188,276672160.00000,   0.00025,   0.00215,  -0.00087,-60825120.00000,   0.00000
432397996.16483,260500708.11294,-100334378.87606,   0.00171,   0.00249,  -0.00218,415271744.00000,   0.00188,276672160.00000,   0.00025,   0.00215,  -0.00087,-61400416.00000,   0.00000
431189618.90452,259612920.73802,-100883080.79528,   0.00170,   0.00249,  -0.00218,414700864.00000,   0.00188,276672160.00000,   0.00025,   0.00215,  -0.00087,-61971296.00000,   0.00000
429981241.64421,258725133.36309,-101437947.90461,   0.00170,   0.00249,  -0.00219,414139072.00000,   0.00188,276672160.00000,   0.00025,   0.00215,  -0.00087,-62533088.00000,   0.00000
428760534.00369,257849676.36838,-101992815.01394,   0.00170,   0.00249,  -0.00220,413574112.00000,   0.00188,276672160.00000,   0.00025,   0.00215,  -0.00087,-63098048.00000,   0.00000
427527495.98296,256986549.75387,-102553847.31337,   0.00169,   0.00248,  -0.00221,413010560.00000,   0.00188,276672160.00000,   0.00025,   0.00215,  -0.00087,-63661600.00000,   0.00000
426294457.96223,256123423.13936,-103121044.80290,   0.00169,   0.00248,  -0.00221,412456000.00000,   0.00188,276672160.00000,   0.00025,   0.00215,  -0.00087,-64216160.00000,   0.00000
425039841.77614,255251048.73969,-103682077.10233,   0.00168,   0.00248,  -0.00222,411884832.00000,   0.00188,276672160.00000,   0.00025,   0.00215,  -0.00087,-64787328.00000,   0.00000
423794473.37521,254400252.50539,-104255439.78197,   0.00168,   0.00248,  -0.00223,411336288.00000,   0.00188,276672160.00000,   0.00025,   0.00215,  -0.00087,-65335872.00000,   0.00000
422549104.97427,253549456.27109,-104828802.46161,   0.00168,   0.00248,  -0.00223,410792288.00000,   0.00188,276672160.00000,   0.00025,   0.00215,  -0.00087,-65879872.00000,   0.00000
421269828.02777,252701742.63184,-105402165.14125,   0.00167,   0.00248,  -0.00224,410228416.00000,   0.00188,276672160.00000,   0.00025,   0.00215,  -0.00087,-66443744.00000,   0.00000
420021377.03178,251884854.94311,-105981693.01099,   0.00167,   0.00248,  -0.00225,409699136.00000,   0.00188,276672160.00000,   0.00025,   0.00215,  -0.00087,-66973024.00000,   0.00000
418742100.08528,251037141.30386,-106561220.88073,   0.00166,   0.00247,  -0.00226,409149056.00000,   0.00188,276672160.00000,   0.00025,   0.00215,  -0.00087,-67523104.00000,   0.00000
417459740.54372,250223336.21018,-107146913.94058,   0.00166,   0.00247,  -0.00226,408609536.00000,   0.00188,276672160.00000,   0.00025,   0.00215,  -0.00087,-68062624.00000,   0.00000
416168133.21701,249387952.95114,-107732607.00042,   0.00166,   0.00247,  -0.00227,408065728.00000,   0.00188,276672160.00000,   0.00025,   0.00215,  -0.00087,-68606432.00000,   0.00000
414885773.67545,248574147.85746,-108324465.25037,   0.00165,   0.00247,  -0.00228,407540448.00000,   0.00188,276672160.00000,   0.00025,   0.00215,  -0.00087,-69131712.00000,   0.00000
413591083.75369,247772673.14398,-108916323.50032,   0.00165,   0.00247,  -0.00229,407012192.00000,   0.00188,276672160.00000,   0.00025,   0.00215,  -0.00087,-69659968.00000,   0.00000
412296393.83193,246971198.43051,-109514346.94037,   0.00164,   0.00247,  -0.00230,406494016.00000,   0.00188,276672160.00000,   0.00025,   0.00215,  -0.00087,-70178144.00000,   0.00000
410989373.52996,246182054.09725,-110112370.38043,   0.00164,   0.00247,  -0.00230,405973600.00000,   0.00188,276672160.00000,   0.00025,   0.00215,  -0.00087,-70698560.00000,   0.00000
409660775.06262,245383661.97882,-110716559.01058,   0.00163,   0.00247,  -0.00231,405447616.00000,   0.00188,276672160.00000,   0.00025,   0.00215,  -0.00087,-71224544.00000,   0.00000
408353754.76065,244594517.64556,-111320747.64074,   0.00163,   0.00246,  -0.00232,404943808.00000,   0.00188,276672160.00000,   0.00025,   0.00215,  -0.00087,-71728352.00000,   0.00000
407012825.91311,243808455.90734,-111924936.27090,   0.00162,   0.00246,  -0.00233,404422592.00000,   0.00188,276672160.00000,   0.00025,   0.00215,  -0.00087,-72249568.00000,   0.00000
405702723.01609,243053220.11965,-112535290.09116,   0.00162,   0.00246,  -0.00233,403936896.00000,   0.00188,276672160.00000,   0.00025,   0.00215,  -0.00087,-72735264.00000,   0.00000
404371041.95370,242288736.54680,-113151809.10152,   0.00162,   0.00246,  -0.00234,403441984.00000,   0.00188,276672160.00000,   0.00025,   0.00215,  -0.00087,-73230176.00000,   0.00000
403017782.72595,241515005.18879,-113768328.11188,   0.00161,   0.00246,  -0.00235,402918592.00000,   0.00188,276672160.00000,   0.00025,   0.00215,  -0.00087,-73753568.00000,   0.00000
401673771.28336,240762851.99615,-114384847.12225,   0.00161,   0.00246,  -0.00236,402362880.00000,   0.00188,276672160.00000,   0.00025,   0.00215,  -0.00087,-74309280.00000,   0.00000
400339007.62592,240032276.96887,-115007531.32271,   0.00160,   0.00246,  -0.00237,401753440.00000,   0.00188,276672160.00000,   0.00025,   0.00215,  -0.00087,-74918720.00000,   0.00000
398982665.80312,239292454.15643,-115630215.52318,   0.00160,   0.00246,  -0.00238,401072192.00000,   0.00188,276672160.00000,   0.00025,   0.00215,  -0.00087,-75599968.00000,   0.00000
397626323.98032,238552631.34399,-116259064.91375,   0.00159,   0.00246,  -0.00238,400403808.00000,   0.00188,276672160.00000,   0.00025,   0.00215,  -0.00087,-76268352.00000,   0.00000
396257651.77732,237825138.91177,-116887914.30432,   0.00159,   0.00246,  -0.00239,399792288.00000,   0.00188,276672160.00000,   0.00025,   0.00215,  -0.00087,-76879872.00000,   0.00000
394888979.57431,237097646.47954,-117522928.88500,   0.00158,   0.00246,  -0.00240,399263712.00000,   0.00188,276672160.00000,   0.00025,   0.00215,  -0.00087,-77408448.00000,   0.00000
393529555.15646,236391732.21267,-118157943.46567,   0.00158,   0.00246,  -0.00241,398804960.00000,   0.00188,276672160.00000,   0.00025,   0.00215,  -0.00087,-77867200.00000,   0.00000
392148552.57324,235676570.16065,-118799123.23645,   0.00157,   0.00246,  -0.00242,398375360.00000,   0.00188,276672160.00000,   0.00025,   0.00215,  -0.00087,-78296800.00000,   0.00000
390776797.77518,234982986.27399,-119440303.00723,   0.00157,   0.00246,  -0.00242,397976096.00000,   0.00188,276672160.00000,   0.00025,   0.00215,  -0.00087,-78696064.00000,   0.00000
389383464.81176,234280154.60217,-120081482.77801,   0.00156,   0.00245,  -0.00243,397572640.00000,   0.00188,276672160.00000,   0.00025,   0.00215,  -0.00087,-79099520.00000,   0.00000
387999379.63349,233598901.09572,-120728827.73889,   0.00156,   0.00245,  -0.00244,397187360.00000,   0.00188,276672160.00000,   0.00025,   0.00215,  -0.00087,-79484800.00000,   0.00000
386615294.45523,232917647.58927,-121376172.69977,   0.00155,   0.00245,  -0.00245,396803392.00000,   0.00188,276672160.00000,   0.00025,   0.00215,  -0.00087,-79868768.00000,   0.00000
385218878.89675,232248724.46303,-122029682.85076,   0.00155,   0.00245,  -0.00246,396417504.00000,   0.00188,276672160.00000,   0.00025,   0.00215,  -0.00087,-80254656.00000,   0.00000
383822463.33828,231579801.33678,-122683193.00174,   0.00154,   0.00245,  -0.00247,396031040.00000,   0.00188,276672160.00000,   0.00025,   0.00215,  -0.00087,-80641120.00000,   0.00000
382404469.61444,230901630.42538,-123336703.15273,   0.00154,   0.00245,  -0.00248,395628896.00000,   0.00188,276672160.00000,   0.00025,   0.00215,  -0.00087,-81043264.00000,   0.00000
381017301.84112,230254285.46450,-123996378.49382,   0.00153,   0.00245,  -0.00248,395256288.00000,   0.00188,276672160.00000,   0.00025,   0.00215,  -0.00087,-81415872.00000,   0.00000
379596225.52224,229610023.09867,-124656053.83491,   0.00153,   0.00245,  -0.00249,394862592.00000,   0.00188,276672160.00000,   0.00025,   0.00215,  -0.00087,-81809568.00000,   0.00000
378196727.36871,228975008.51799,-125321894.36610,   0.00152,   0.00245,  -0.00250,394492544.00000,   0.00188,276672160.00000,   0.00025,   0.00215,  -0.00087,-82179616.00000,   0.00000
376784898.83498,228352324.31753,-125987734.89729,   0.00152,   0.00245,  -0.00251,394118784.00000,   0.00188,276672160.00000,   0.00025,   0.00215,  -0.00087,-82553376.00000,   0.00000
375351492.13588,227720392.33190,-126659740.61859,   0.00151,   0.00245,  -0.00252,393739840.00000,   0.00188,276672160.00000,   0.00025,   0.00215,  -0.00087,-82932320.00000,   0.00000
373939663.60215,227097708.13144,-127325581.14978,   0.00151,   0.00245,  -0.00253,393375776.00000,   0.00188,276672160.00000,   0.00025,   0.00215,  -0.00087,-83296384.00000,   0.00000
372515504.68821,226487354.31118,-128003752.06118,   0.00150,   0.00245,  -0.00254,393023296.00000,   0.00188,276672160.00000,   0.00025,   0.00215,  -0.00087,-83648864.00000,   0.00000
371079015.39406,225889330.87112,-128675757.78248,   0.00150,   0.00245,  -0.00254,392665056.00000,   0.00188,276672160.00000,   0.00025,   0.00215,  -0.00087,-84007104.00000,   0.00000
369664104.26528,225300555.21623,-129360093.88398,   0.00149,   0.00245,  -0.00255,392342336.00000,   0.00188,276672160.00000,   0.00025,   0.00215,  -0.00087,-84329824.00000,   0.00000
368227614.97113,224702531.77617,-130038264.79538,   0.00149,   0.00245,  -0.00256,392007136.00000,   0.00188,276672160.00000,   0.00025,   0.00215,  -0.00087,-84665024.00000,   0.00000
366778795.29678,224116838.71633,-130722600.89688,   0.00148,   0.00245,  -0.00257,391680960.00000,   0.00188,276672160.00000,   0.00025,   0.00215,  -0.00087,-84991200.00000,   0.00000
