# sigma_xx, sigma_yy, sigma_xy, epsilon_xx, epsilon_yy, epsilon_xy, vonMises, epsPlastic, hardening, epsilonP__xx, epsilonP__yy, epsilonP__xy, yieldValue, iteration
   0.00000,   0.00000,   0.00000,   0.00000,   0.00000,   0.00000,1181185.37500,   0.00000,274640576.00000,   0.00000,   0.00000,   0.00000,-473459392.00000,   0.00000
   0.00000,   0.00000,   0.00000,   0.00000,   0.00000,   0.00000,1181185.37500,   0.00000,274640576.00000,   0.00000,   0.00000,   0.00000,-473459392.00000,   0.00000
-2028127.59458,-3346410.53105,608438.27837,  -0.00000,  -0.00001,   0.00001,2850422.00000,   0.00000,274640576.00000,   0.00000,   0.00000,   0.00000,-471790144.00000,   0.00000
-4030903.59422,-6667469.46717,1216876.55675,  -0.00001,  -0.00002,   0.00002,5512311.50000,   0.00000,274640576.00000,   0.00000,   0.00000,   0.00000,-469128256.00000,   0.00000
-6026074.11539,-9970782.28684,1815174.19715,  -0.00001,  -0.00003,   0.00002,8741060.00000,   0.00000,274640576.00000,   0.00000,   0.00000,   0.00000,-465899520.00000,   0.00000
-7978146.92517,-13241138.03310,2413471.83755,  -0.00001,  -0.00004,   0.00003,11926630.00000,   0.00000,274640576.00000,   0.00000,   0.00000,   0.00000,-462713952.00000,   0.00000
-9897262.66154,-16468396.06797,3006699.15896,  -0.00001,  -0.00006,   0.00004,14940791.00000,   0.00000,274640576.00000,   0.00000,   0.00000,   0.00000,-459699792.00000,   0.00000
-11816378.39791,-19695654.10284,3594856.16139,  -0.00002,  -0.00007,   0.00005,17891678.00000,   0.00000,274640576.00000,   0.00000,   0.00000,   0.00000,-456748896.00000,   0.00000
-13692396.42289,-22889955.06430,4177942.84483,  -0.00002,  -0.00008,   0.00005,20813048.00000,   0.00000,274640576.00000,   0.00000,   0.00000,   0.00000,-453827520.00000,   0.00000
-15560808.96939,-26066509.90930,4755959.20928,  -0.00002,  -0.00009,   0.00006,23741088.00000,   0.00000,274640576.00000,   0.00000,   0.00000,   0.00000,-450899488.00000,   0.00000
-17386123.80451,-29210107.68090,5328905.25475,  -0.00002,  -0.00010,   0.00007,26660464.00000,   0.00000,274640576.00000,   0.00000,   0.00000,   0.00000,-447980112.00000,   0.00000
-19196227.68267,-32318213.21959,5896780.98123,  -0.00002,  -0.00011,   0.00008,29562166.00000,   0.00000,274640576.00000,   0.00000,   0.00000,   0.00000,-445078416.00000,   0.00000
-20970839.32793,-35411107.80132,6464656.70772,  -0.00003,  -0.00012,   0.00008,32453574.00000,   0.00000,274640576.00000,   0.00000,   0.00000,   0.00000,-442187008.00000,   0.00000
-22730240.01623,-38468510.15014,7027462.11521,  -0.00003,  -0.00013,   0.00009,35310976.00000,   0.00000,274640576.00000,   0.00000,   0.00000,   0.00000,-439329600.00000,   0.00000
-24454148.47162,-41510701.54201,7580126.88473,  -0.00003,  -0.00014,   0.00010,38141392.00000,   0.00000,274640576.00000,   0.00000,   0.00000,   0.00000,-436499184.00000,   0.00000
-26162845.97005,-44517400.70097,8132791.65425,  -0.00003,  -0.00015,   0.00011,40935892.00000,   0.00000,274640576.00000,   0.00000,   0.00000,   0.00000,-433704688.00000,   0.00000
-27853797.35203,-47516494.38145,8680386.10479,  -0.00003,  -0.00016,   0.00011,43713684.00000,   0.00000,274640576.00000,   0.00000,   0.00000,   0.00000,-430926896.00000,   0.00000
-29494045.54414,-50464884.87207,9222910.23634,  -0.00004,  -0.00017,   0.00012,46440584.00000,   0.00000,274640576.00000,   0.00000,   0.00000,   0.00000,-428200000.00000,   0.00000
-31126688.25778,-53395529.24623,9765434.36789,  -0.00004,  -0.00018,   0.00013,49150760.00000,   0.00000,274640576.00000,   0.00000,   0.00000,   0.00000,-425489824.00000,   0.00000
-32733979.37648,-56300822.02547,10297817.86147,  -0.00004,  -0.00019,   0.00013,51832404.00000,   0.00000,274640576.00000,   0.00000,   0.00000,   0.00000,-422808176.00000,   0.00000
-34315918.90025,-59180763.20977,10830201.35504,  -0.00004,  -0.00020,   0.00014,54492688.00000,   0.00000,274640576.00000,   0.00000,   0.00000,   0.00000,-420147888.00000,   0.00000
-35854760.71263,-62027747.32065,11352444.21065,  -0.00004,  -0.00021,   0.00015,57118884.00000,   0.00000,274640576.00000,   0.00000,   0.00000,   0.00000,-417521696.00000,   0.00000
-37385997.04654,-64856985.31509,11874687.06625,  -0.00004,  -0.00022,   0.00015,59731768.00000,   0.00000,274640576.00000,   0.00000,   0.00000,   0.00000,-414908800.00000,   0.00000
-38884276.30703,-67643125.59814,12391859.60287,  -0.00005,  -0.00023,   0.00016,62306452.00000,   0.00000,274640576.00000,   0.00000,   0.00000,   0.00000,-412334128.00000,   0.00000
-40364809.45107,-70421660.40271,12903961.82050,  -0.00005,  -0.00024,   0.00017,64871212.00000,   0.00000,274640576.00000,   0.00000,   0.00000,   0.00000,-409769360.00000,   0.00000
-41812385.52170,-73157097.49590,13416064.03813,  -0.00005,  -0.00025,   0.00017,67400224.00000,   0.00000,274640576.00000,   0.00000,   0.00000,   0.00000,-407240352.00000,   0.00000
-43234609.99740,-75867182.99415,13918025.61779,  -0.00005,  -0.00026,   0.00018,69901608.00000,   0.00000,274640576.00000,   0.00000,   0.00000,   0.00000,-404738976.00000,   0.00000
-44631482.87817,-78551916.89747,14419987.19744,  -0.00005,  -0.00027,   0.00019,72381248.00000,   0.00000,274640576.00000,   0.00000,   0.00000,   0.00000,-402259328.00000,   0.00000
-46003004.16400,-81211299.20586,14916878.45812,  -0.00005,  -0.00028,   0.00019,74836360.00000,   0.00000,274640576.00000,   0.00000,   0.00000,   0.00000,-399804224.00000,   0.00000
-47331427.73845,-83837724.44084,15403629.08081,  -0.00005,  -0.00029,   0.00020,77257064.00000,   0.00000,274640576.00000,   0.00000,   0.00000,   0.00000,-397383520.00000,   0.00000
-48644640.35594,-86428657.44291,15895450.02250,  -0.00005,  -0.00030,   0.00021,79652656.00000,   0.00000,274640576.00000,   0.00000,   0.00000,   0.00000,-394987920.00000,   0.00000
-49932501.37849,-88994238.85005,16377130.32621,  -0.00005,  -0.00031,   0.00021,82021584.00000,   0.00000,274640576.00000,   0.00000,   0.00000,   0.00000,-392618992.00000,   0.00000
-51202616.28460,-91552214.77871,16853740.31094,  -0.00005,  -0.00032,   0.00022,84381496.00000,   0.00000,274640576.00000,   0.00000,   0.00000,   0.00000,-390259072.00000,   0.00000
-52432168.63881,-94049346.87954,17330350.29566,  -0.00006,  -0.00033,   0.00023,86692728.00000,   0.00000,274640576.00000,   0.00000,   0.00000,   0.00000,-387947840.00000,   0.00000
-53643974.87657,-96538873.50188,17801889.96140,  -0.00006,  -0.00033,   0.00023,88995456.00000,   0.00000,274640576.00000,   0.00000,   0.00000,   0.00000,-385645120.00000,   0.00000
-54830429.51940,-99003048.52929,18268359.30815,  -0.00006,  -0.00034,   0.00024,91275352.00000,   0.00000,274640576.00000,   0.00000,   0.00000,   0.00000,-383365216.00000,   0.00000
-55983927.08881,-101424125.84532,18729758.33592,  -0.00006,  -0.00035,   0.00024,93518152.00000,   0.00000,274640576.00000,   0.00000,   0.00000,   0.00000,-381122432.00000,   0.00000
-57112073.06330,-103819851.56641,19191157.36369,  -0.00006,  -0.00036,   0.00025,95741312.00000,   0.00000,274640576.00000,   0.00000,   0.00000,   0.00000,-378899264.00000,   0.00000
-58214867.44285,-106190225.69257,19642415.75348,  -0.00006,  -0.00037,   0.00026,97938440.00000,   0.00000,274640576.00000,   0.00000,   0.00000,   0.00000,-376702144.00000,   0.00000
-59292310.22747,-108535248.22380,20093674.14327,  -0.00006,  -0.00038,   0.00026,100115696.00000,   0.00000,274640576.00000,   0.00000,   0.00000,   0.00000,-374524880.00000,   0.00000
-60336795.93867,-110837173.04365,20539862.21408,  -0.00006,  -0.00039,   0.00027,102255456.00000,   0.00000,274640576.00000,   0.00000,   0.00000,   0.00000,-372385120.00000,   0.00000
-61381281.64988,-113139097.86349,20980979.96590,  -0.00006,  -0.00040,   0.00027,104393048.00000,   0.00000,274640576.00000,   0.00000,   0.00000,   0.00000,-370247520.00000,   0.00000
-62375064.17122,-115390319.49348,21417027.39874,  -0.00006,  -0.00040,   0.00028,106485784.00000,   0.00000,274640576.00000,   0.00000,   0.00000,   0.00000,-368154784.00000,   0.00000
-63343495.09764,-117616189.52852,21853074.83157,  -0.00006,  -0.00041,   0.00028,108557808.00000,   0.00000,274640576.00000,   0.00000,   0.00000,   0.00000,-366082768.00000,   0.00000
-64278968.95063,-119798961.85219,22284051.94542,  -0.00006,  -0.00042,   0.00029,110591632.00000,   0.00000,274640576.00000,   0.00000,   0.00000,   0.00000,-364048944.00000,   0.00000
-65189091.20870,-121956382.58092,22709958.74028,  -0.00006,  -0.00043,   0.00030,112601360.00000,   0.00000,274640576.00000,   0.00000,   0.00000,   0.00000,-362039216.00000,   0.00000
-66081467.35031,-124106197.83117,23130795.21615,  -0.00006,  -0.00044,   0.00030,114601304.00000,   0.00000,274640576.00000,   0.00000,   0.00000,   0.00000,-360039264.00000,   0.00000
-66933280.94004,-126195169.25359,23551631.69203,  -0.00006,  -0.00044,   0.00031,116551208.00000,   0.00000,274640576.00000,   0.00000,   0.00000,   0.00000,-358089376.00000,   0.00000
-67767348.41331,-128276535.19752,23962327.52993,  -0.00006,  -0.00045,   0.00031,118488152.00000,   0.00000,274640576.00000,   0.00000,   0.00000,   0.00000,-356152416.00000,   0.00000
-68568458.81317,-130314803.43007,24373023.36783,  -0.00006,  -0.00046,   0.00032,120389296.00000,   0.00000,274640576.00000,   0.00000,   0.00000,   0.00000,-354251280.00000,   0.00000
-69344217.61809,-132327720.06769,24778648.88675,  -0.00006,  -0.00047,   0.00032,122266072.00000,   0.00000,274640576.00000,   0.00000,   0.00000,   0.00000,-352374496.00000,   0.00000
-70094624.82808,-134315285.11037,25184274.40566,  -0.00006,  -0.00047,   0.00033,124121432.00000,   0.00000,274640576.00000,   0.00000,   0.00000,   0.00000,-350519136.00000,   0.00000
-70819680.44315,-136277498.55813,25579759.28661,  -0.00006,  -0.00048,   0.00033,125949408.00000,   0.00000,274640576.00000,   0.00000,   0.00000,   0.00000,-348691168.00000,   0.00000
-71511778.98480,-138196614.29450,25975244.16755,  -0.00006,  -0.00049,   0.00034,127741624.00000,   0.00000,274640576.00000,   0.00000,   0.00000,   0.00000,-346898944.00000,   0.00000
-72196272.04797,-140097983.91441,26365658.72950,  -0.00006,  -0.00050,   0.00034,129516072.00000,   0.00000,274640576.00000,   0.00000,   0.00000,   0.00000,-345124512.00000,   0.00000
-72830061.92127,-141948650.34446,26756073.29146,  -0.00005,  -0.00050,   0.00035,131248704.00000,   0.00000,274640576.00000,   0.00000,   0.00000,   0.00000,-343391872.00000,   0.00000
-73446105.67812,-143791711.29604,27136347.21544,  -0.00005,  -0.00051,   0.00035,132968488.00000,   0.00000,274640576.00000,   0.00000,   0.00000,   0.00000,-341672096.00000,   0.00000
-74029192.36156,-145591674.53622,27516621.13943,  -0.00005,  -0.00052,   0.00036,134653120.00000,   0.00000,274640576.00000,   0.00000,   0.00000,   0.00000,-339987456.00000,   0.00000
-74586927.45007,-147366286.18148,27891824.74442,  -0.00005,  -0.00053,   0.00036,136314160.00000,   0.00000,274640576.00000,   0.00000,   0.00000,   0.00000,-338326416.00000,   0.00000
-75111705.46517,-149097800.11535,28267028.34942,  -0.00005,  -0.00053,   0.00037,137940368.00000,   0.00000,274640576.00000,   0.00000,   0.00000,   0.00000,-336700208.00000,   0.00000
-75618737.36381,-150821708.57074,28632091.31644,  -0.00005,  -0.00054,   0.00037,139554368.00000,   0.00000,274640576.00000,   0.00000,   0.00000,   0.00000,-335086208.00000,   0.00000
-76085206.71057,-152484773.19829,28997154.28347,  -0.00005,  -0.00055,   0.00038,141119776.00000,   0.00000,274640576.00000,   0.00000,   0.00000,   0.00000,-333520800.00000,   0.00000
-76533929.94087,-154140232.34737,29357146.93151,  -0.00005,  -0.00055,   0.00038,142676432.00000,   0.00000,274640576.00000,   0.00000,   0.00000,   0.00000,-331964144.00000,   0.00000
-76967442.21421,-155760199.26354,29717139.57954,  -0.00005,  -0.00056,   0.00039,144205312.00000,   0.00000,274640576.00000,   0.00000,   0.00000,   0.00000,-330435264.00000,   0.00000
-77357856.77616,-157347209.10629,30072061.90859,  -0.00005,  -0.00057,   0.00039,145705408.00000,   0.00000,274640576.00000,   0.00000,   0.00000,   0.00000,-328935168.00000,   0.00000
-77722919.74319,-158908867.35412,30421913.91866,  -0.00004,  -0.00057,   0.00040,147183344.00000,   0.00000,274640576.00000,   0.00000,   0.00000,   0.00000,-327457232.00000,   0.00000
-78055025.63680,-160427427.89056,30766695.60974,  -0.00004,  -0.00058,   0.00040,148624768.00000,   0.00000,274640576.00000,   0.00000,   0.00000,   0.00000,-326015808.00000,   0.00000
-78369385.41396,-161938382.94852,31111477.30082,  -0.00004,  -0.00058,   0.00040,150061648.00000,   0.00000,274640576.00000,   0.00000,   0.00000,   0.00000,-324578928.00000,   0.00000
-78643182.63923,-163388494.17864,31451188.67291,  -0.00004,  -0.00059,   0.00041,151448128.00000,   0.00000,274640576.00000,   0.00000,   0.00000,   0.00000,-323192448.00000,   0.00000
-78916979.86450,-164838605.40876,31785829.72601,  -0.00004,  -0.00060,   0.00041,152833328.00000,   0.00000,274640576.00000,   0.00000,   0.00000,   0.00000,-321807248.00000,   0.00000
-79140073.89990,-166238013.44902,32115400.46013,  -0.00004,  -0.00060,   0.00042,154176992.00000,   0.00000,274640576.00000,   0.00000,   0.00000,   0.00000,-320463584.00000,   0.00000
-79337816.34037,-167612069.89435,32444971.19425,  -0.00003,  -0.00061,   0.00042,155502512.00000,   0.00000,274640576.00000,   0.00000,   0.00000,   0.00000,-319138064.00000,   0.00000
-79502601.70743,-168943028.62829,32769471.60938,  -0.00003,  -0.00061,   0.00043,156792688.00000,   0.00000,274640576.00000,   0.00000,   0.00000,   0.00000,-317847888.00000,   0.00000
-79642035.47956,-170248635.76730,33093972.02451,  -0.00003,  -0.00062,   0.00043,158065216.00000,   0.00000,274640576.00000,   0.00000,   0.00000,   0.00000,-316575360.00000,   0.00000
-79756117.65675,-171528891.31137,33408331.80167,  -0.00003,  -0.00062,   0.00043,159313792.00000,   0.00000,274640576.00000,   0.00000,   0.00000,   0.00000,-315326784.00000,   0.00000
-79854988.87699,-172773654.62255,33722691.57883,  -0.00003,  -0.00063,   0.00044,160536192.00000,   0.00000,274640576.00000,   0.00000,   0.00000,   0.00000,-314104384.00000,   0.00000
-79918367.86432,-174003206.97676,34037051.35599,  -0.00002,  -0.00064,   0.00044,161750096.00000,   0.00000,274640576.00000,   0.00000,   0.00000,   0.00000,-312890480.00000,   0.00000
-79941184.29976,-175171915.50313,34341270.49518,  -0.00002,  -0.00064,   0.00045,162911632.00000,   0.00000,274640576.00000,   0.00000,   0.00000,   0.00000,-311728944.00000,   0.00000
-79946254.61874,-176333018.55103,34650559.95335,  -0.00002,  -0.00065,   0.00045,164073808.00000,   0.00000,274640576.00000,   0.00000,   0.00000,   0.00000,-310566768.00000,   0.00000
-79936113.98077,-177458629.36602,34949708.77355,  -0.00002,  -0.00065,   0.00045,165203504.00000,   0.00000,274640576.00000,   0.00000,   0.00000,   0.00000,-309437072.00000,   0.00000
-79882875.63141,-178551283.10760,35248857.59375,  -0.00002,  -0.00066,   0.00046,166310992.00000,   0.00000,274640576.00000,   0.00000,   0.00000,   0.00000,-308329584.00000,   0.00000
-79796680.20864,-179600839.13779,35542936.09497,  -0.00001,  -0.00066,   0.00046,167383968.00000,   0.00000,274640576.00000,   0.00000,   0.00000,   0.00000,-307256608.00000,   0.00000
-79702879.30739,-180632649.05153,35831944.27719,  -0.00001,  -0.00067,   0.00047,168442368.00000,   0.00000,274640576.00000,   0.00000,   0.00000,   0.00000,-306198208.00000,   0.00000
-79565980.69476,-181631501.89186,36120952.45942,  -0.00001,  -0.00067,   0.00047,169478864.00000,   0.00000,274640576.00000,   0.00000,   0.00000,   0.00000,-305161712.00000,   0.00000
-79403730.48719,-182605003.13726,36404890.32266,  -0.00001,  -0.00068,   0.00047,170495648.00000,   0.00000,274640576.00000,   0.00000,   0.00000,   0.00000,-304144928.00000,   0.00000
-79226269.32267,-183543012.14975,36683757.86692,  -0.00000,  -0.00068,   0.00048,171483216.00000,   0.00000,274640576.00000,   0.00000,   0.00000,   0.00000,-303157360.00000,   0.00000
-78998104.96828,-184430317.97238,36962625.41117,   0.00000,  -0.00069,   0.00048,172434832.00000,   0.00000,274640576.00000,   0.00000,   0.00000,   0.00000,-302205744.00000,   0.00000
-78769940.61389,-185317623.79501,37241492.95543,   0.00000,  -0.00069,   0.00048,173389648.00000,   0.00000,274640576.00000,   0.00000,   0.00000,   0.00000,-301250928.00000,   0.00000
-78491073.06963,-186154226.42777,37510219.86171,   0.00001,  -0.00069,   0.00049,174301904.00000,   0.00000,274640576.00000,   0.00000,   0.00000,   0.00000,-300338672.00000,   0.00000
-78186853.93045,-186965477.46560,37778946.76799,   0.00001,  -0.00070,   0.00049,175198000.00000,   0.00000,274640576.00000,   0.00000,   0.00000,   0.00000,-299442576.00000,   0.00000
-77867423.83430,-187741236.27053,38042603.35528,   0.00001,  -0.00070,   0.00049,176065040.00000,   0.00000,274640576.00000,   0.00000,   0.00000,   0.00000,-298575536.00000,   0.00000
-77504896.02677,-188484038.00204,38306259.94258,   0.00001,  -0.00071,   0.00050,176910896.00000,   0.00000,274640576.00000,   0.00000,   0.00000,   0.00000,-297729680.00000,   0.00000
-77134762.74076,-189209093.61710,38564846.21089,   0.00002,  -0.00071,   0.00050,177742288.00000,   0.00000,274640576.00000,   0.00000,   0.00000,   0.00000,-296898288.00000,   0.00000
-76731672.38134,-189891051.52078,38823432.47920,   0.00002,  -0.00071,   0.00050,178542960.00000,   0.00000,274640576.00000,   0.00000,   0.00000,   0.00000,-296097616.00000,   0.00000
-76285484.31053,-190540052.35104,39076948.42852,   0.00002,  -0.00072,   0.00051,179319488.00000,   0.00000,274640576.00000,   0.00000,   0.00000,   0.00000,-295321088.00000,   0.00000
-75831690.76125,-191171307.06486,39325394.05885,   0.00003,  -0.00072,   0.00051,180081488.00000,   0.00000,274640576.00000,   0.00000,   0.00000,   0.00000,-294559088.00000,   0.00000
-75344940.13855,-191759464.06728,39573839.68919,   0.00003,  -0.00073,   0.00051,180812880.00000,   0.00000,274640576.00000,   0.00000,   0.00000,   0.00000,-293827696.00000,   0.00000
-74815091.80446,-192314663.99630,39817215.00054,   0.00003,  -0.00073,   0.00052,181520496.00000,   0.00000,274640576.00000,   0.00000,   0.00000,   0.00000,-293120080.00000,   0.00000
-74277637.99190,-192852117.80886,40055519.99290,   0.00004,  -0.00073,   0.00052,182213424.00000,   0.00000,274640576.00000,   0.00000,   0.00000,   0.00000,-292427152.00000,   0.00000
-73707227.10593,-193346473.91004,40293824.98526,   0.00004,  -0.00074,   0.00052,182876176.00000,   0.00000,274640576.00000,   0.00000,   0.00000,   0.00000,-291764400.00000,   0.00000
-73111464.62502,-193815478.41629,40527059.65864,   0.00005,  -0.00074,   0.00053,183519632.00000,   0.00000,274640576.00000,   0.00000,   0.00000,   0.00000,-291120944.00000,   0.00000
-72490350.54918,-194259131.32760,40760294.33202,   0.00005,  -0.00074,   0.00053,184147520.00000,   0.00000,274640576.00000,   0.00000,   0.00000,   0.00000,-290493056.00000,   0.00000
-71836279.39993,-194659686.52753,40988458.68641,   0.00005,  -0.00075,   0.00053,184741808.00000,   0.00000,274640576.00000,   0.00000,   0.00000,   0.00000,-289898768.00000,   0.00000
-71156856.65574,-195034890.13253,41216623.04080,   0.00006,  -0.00075,   0.00054,185320640.00000,   0.00000,274640576.00000,   0.00000,   0.00000,   0.00000,-289319936.00000,   0.00000
-70444476.83815,-195366996.02614,41439717.07620,   0.00006,  -0.00075,   0.00054,185866112.00000,   0.00000,274640576.00000,   0.00000,   0.00000,   0.00000,-288774464.00000,   0.00000
-69714350.90410,-195691496.44127,41657740.79262,   0.00006,  -0.00075,   0.00054,186407456.00000,   0.00000,274640576.00000,   0.00000,   0.00000,   0.00000,-288233120.00000,   0.00000
-68951267.89664,-195972899.14502,41875764.50903,   0.00007,  -0.00076,   0.00054,186918944.00000,   0.00000,274640576.00000,   0.00000,   0.00000,   0.00000,-287721632.00000,   0.00000
-68155227.81577,-196211204.13738,42093788.22545,   0.00007,  -0.00076,   0.00055,187401072.00000,   0.00000,274640576.00000,   0.00000,   0.00000,   0.00000,-287239504.00000,   0.00000
-67333836.13997,-196424157.53481,42306741.62288,   0.00008,  -0.00076,   0.00055,187864736.00000,   0.00000,274640576.00000,   0.00000,   0.00000,   0.00000,-286775840.00000,   0.00000
-66504838.98568,-196619364.81579,42514624.70133,   0.00008,  -0.00076,   0.00055,188314272.00000,   0.00000,274640576.00000,   0.00000,   0.00000,   0.00000,-286326304.00000,   0.00000
-65632744.12001,-196781615.02336,42722507.77977,   0.00009,  -0.00077,   0.00056,188745376.00000,   0.00000,274640576.00000,   0.00000,   0.00000,   0.00000,-285895200.00000,   0.00000
-64745438.29739,-196908372.99802,42925320.53923,   0.00009,  -0.00077,   0.00056,189148096.00000,   0.00000,274640576.00000,   0.00000,   0.00000,   0.00000,-285492480.00000,   0.00000
-63815034.76337,-197002173.89927,43128133.29869,   0.00009,  -0.00077,   0.00056,189533248.00000,   0.00000,274640576.00000,   0.00000,   0.00000,   0.00000,-285107328.00000,   0.00000
-62877025.75088,-197078228.68406,43325875.73916,   0.00010,  -0.00077,   0.00056,189905024.00000,   0.00000,274640576.00000,   0.00000,   0.00000,   0.00000,-284735552.00000,   0.00000
-61888313.54853,-197103580.27899,43518547.86064,   0.00010,  -0.00078,   0.00057,190242240.00000,   0.00000,274640576.00000,   0.00000,   0.00000,   0.00000,-284398336.00000,   0.00000
-60891995.86769,-197111185.75747,43716290.30111,   0.00011,  -0.00078,   0.00057,190573856.00000,   0.00000,274640576.00000,   0.00000,   0.00000,   0.00000,-284066720.00000,   0.00000
-59870326.59192,-197093439.64102,43903892.10361,   0.00011,  -0.00078,   0.00057,190886256.00000,   0.00000,274640576.00000,   0.00000,   0.00000,   0.00000,-283754320.00000,   0.00000
-58815700.24274,-197032595.81318,44091493.90611,   0.00012,  -0.00078,   0.00057,191172880.00000,   0.00000,274640576.00000,   0.00000,   0.00000,   0.00000,-283467696.00000,   0.00000
-57735722.29863,-196946400.39041,44279095.70861,   0.00012,  -0.00078,   0.00058,191448800.00000,   0.00000,274640576.00000,   0.00000,   0.00000,   0.00000,-283191776.00000,   0.00000
-56630392.75958,-196834853.37271,44461627.19212,   0.00013,  -0.00079,   0.00058,191710992.00000,   0.00000,274640576.00000,   0.00000,   0.00000,   0.00000,-282929584.00000,   0.00000
-55492106.14713,-196680208.64363,44639088.35665,   0.00013,  -0.00079,   0.00058,191946144.00000,   0.00000,274640576.00000,   0.00000,   0.00000,   0.00000,-282694432.00000,   0.00000
-54328467.93974,-196500212.31961,44821619.84016,   0.00014,  -0.00079,   0.00058,192176144.00000,   0.00000,274640576.00000,   0.00000,   0.00000,   0.00000,-282464432.00000,   0.00000
-53139478.13742,-196294864.40066,44994010.68570,   0.00014,  -0.00079,   0.00058,192390832.00000,   0.00000,274640576.00000,   0.00000,   0.00000,   0.00000,-282249744.00000,   0.00000
-51935277.37814,-196054024.24880,45166401.53124,   0.00015,  -0.00079,   0.00059,192586352.00000,   0.00000,274640576.00000,   0.00000,   0.00000,   0.00000,-282054224.00000,   0.00000
-50687978.90747,-195780227.02353,45338792.37678,   0.00015,  -0.00079,   0.00059,192771920.00000,   0.00000,274640576.00000,   0.00000,   0.00000,   0.00000,-281868656.00000,   0.00000
-49433074.95833,-195488683.68181,45506112.90333,   0.00016,  -0.00079,   0.00059,192948608.00000,   0.00000,274640576.00000,   0.00000,   0.00000,   0.00000,-281691968.00000,   0.00000
-48152819.41425,-195171788.74516,45673433.42988,   0.00016,  -0.00079,   0.00059,193117200.00000,   0.00000,274640576.00000,   0.00000,   0.00000,   0.00000,-281523376.00000,   0.00000
-46821860.68031,-194804190.61864,45835683.63745,   0.00017,  -0.00080,   0.00060,193258192.00000,   0.00000,274640576.00000,   0.00000,   0.00000,   0.00000,-281382384.00000,   0.00000
-45483296.46789,-194418846.37567,45997933.84501,   0.00017,  -0.00080,   0.00060,193392032.00000,   0.00000,274640576.00000,   0.00000,   0.00000,   0.00000,-281248544.00000,   0.00000
-44111775.18206,-193990404.42132,46155113.73359,   0.00018,  -0.00080,   0.00060,193498832.00000,   0.00000,274640576.00000,   0.00000,   0.00000,   0.00000,-281141744.00000,   0.00000
-42740253.89622,-193561962.46696,46312293.62217,   0.00018,  -0.00080,   0.00060,193610352.00000,   0.00000,274640576.00000,   0.00000,   0.00000,   0.00000,-281030224.00000,   0.00000
-41318029.42053,-193082817.32274,46464403.19177,   0.00019,  -0.00080,   0.00060,193692448.00000,   0.00000,274640576.00000,   0.00000,   0.00000,   0.00000,-280948128.00000,   0.00000
-39862847.87142,-192560574.46714,46616512.76136,   0.00019,  -0.00080,   0.00061,193750960.00000,   0.00000,274640576.00000,   0.00000,   0.00000,   0.00000,-280889616.00000,   0.00000
-38407666.32231,-192038331.61154,46768622.33095,   0.00020,  -0.00080,   0.00061,193814976.00000,   0.00000,274640576.00000,   0.00000,   0.00000,   0.00000,-280825600.00000,   0.00000
-36901781.58333,-191465385.56607,46915661.58156,   0.00021,  -0.00080,   0.00061,193851424.00000,   0.00000,274640576.00000,   0.00000,   0.00000,   0.00000,-280789152.00000,   0.00000
-35388291.36588,-190874693.40415,47057630.51318,   0.00021,  -0.00080,   0.00061,193876928.00000,   0.00000,274640576.00000,   0.00000,   0.00000,   0.00000,-280763648.00000,   0.00000
-33849449.55350,-190258649.64730,47204669.76379,   0.00022,  -0.00080,   0.00061,193897216.00000,   0.00000,274640576.00000,   0.00000,   0.00000,   0.00000,-280743360.00000,   0.00000
-32277650.66770,-189599508.17906,47341568.37642,   0.00022,  -0.00080,   0.00062,193887552.00000,   0.00000,274640576.00000,   0.00000,   0.00000,   0.00000,-280753024.00000,   0.00000
-30680500.18697,-188915015.11589,47483537.30804,   0.00023,  -0.00080,   0.00062,193872256.00000,   0.00000,274640576.00000,   0.00000,   0.00000,   0.00000,-280768320.00000,   0.00000
-29057998.11131,-188205170.45779,47620435.92067,   0.00023,  -0.00080,   0.00062,193844544.00000,   0.00000,274640576.00000,   0.00000,   0.00000,   0.00000,-280796032.00000,   0.00000
-27427890.55716,-187477579.68323,47752264.21432,   0.00024,  -0.00080,   0.00062,193805440.00000,   0.00000,274640576.00000,   0.00000,   0.00000,   0.00000,-280835136.00000,   0.00000
-25747079.81316,-186699285.71881,47884092.50797,   0.00025,  -0.00080,   0.00062,193744208.00000,   0.00000,274640576.00000,   0.00000,   0.00000,   0.00000,-280896368.00000,   0.00000
-24058663.59067,-185903245.63794,48015920.80162,   0.00025,  -0.00080,   0.00062,193677200.00000,   0.00000,274640576.00000,   0.00000,   0.00000,   0.00000,-280963376.00000,   0.00000
-22344895.77326,-185081853.96214,48142678.77628,   0.00026,  -0.00080,   0.00063,193600464.00000,   0.00000,274640576.00000,   0.00000,   0.00000,   0.00000,-281040112.00000,   0.00000
-20605776.36091,-184235110.69140,48269436.75094,   0.00027,  -0.00080,   0.00063,193518912.00000,   0.00000,274640576.00000,   0.00000,   0.00000,   0.00000,-281121664.00000,   0.00000
-18833699.87514,-183345269.70928,48396194.72560,   0.00027,  -0.00080,   0.00063,193420688.00000,   0.00000,274640576.00000,   0.00000,   0.00000,   0.00000,-281219888.00000,   0.00000
-17036271.79445,-182430077.13223,48517882.38128,   0.00028,  -0.00080,   0.00063,193316512.00000,   0.00000,274640576.00000,   0.00000,   0.00000,   0.00000,-281324064.00000,   0.00000
-15231238.23528,-181497138.43872,48639570.03695,   0.00028,  -0.00080,   0.00063,193212096.00000,   0.00000,274640576.00000,   0.00000,   0.00000,   0.00000,-281428480.00000,   0.00000
-13400853.08117,-180538848.15028,48756187.37364,   0.00029,  -0.00080,   0.00063,193104256.00000,   0.00000,274640576.00000,   0.00000,   0.00000,   0.00000,-281536320.00000,   0.00000
-11537510.85365,-179537460.15046,48872804.71033,   0.00030,  -0.00079,   0.00064,192985440.00000,   0.00000,274640576.00000,   0.00000,   0.00000,   0.00000,-281655136.00000,   0.00000
-9656422.50968,-178528466.67216,48989422.04701,   0.00030,  -0.00079,   0.00064,192883072.00000,   0.00000,274640576.00000,   0.00000,   0.00000,   0.00000,-281757504.00000,   0.00000
-7742377.09230,-177476375.48247,49100969.06472,   0.00031,  -0.00079,   0.00064,192768896.00000,   0.00000,274640576.00000,   0.00000,   0.00000,   0.00000,-281871680.00000,   0.00000
-5795374.60150,-176381186.58140,49212516.08242,   0.00032,  -0.00079,   0.00064,192648288.00000,   0.00000,274640576.00000,   0.00000,   0.00000,   0.00000,-281992288.00000,   0.00000
-3848372.11071,-175285997.68033,49318992.78113,   0.00032,  -0.00079,   0.00064,192543968.00000,   0.00000,274640576.00000,   0.00000,   0.00000,   0.00000,-282096608.00000,   0.00000
-1868412.54650,-174147711.06787,49430539.79884,   0.00033,  -0.00079,   0.00064,192439552.00000,   0.00000,274640576.00000,   0.00000,   0.00000,   0.00000,-282201024.00000,   0.00000
129293.13415,-173001818.97694,49531946.17856,   0.00034,  -0.00079,   0.00064,192349648.00000,   0.00000,274640576.00000,   0.00000,   0.00000,   0.00000,-282290928.00000,   0.00000
2159955.88822,-171812829.17462,49638422.87728,   0.00034,  -0.00079,   0.00065,192261696.00000,   0.00000,274640576.00000,   0.00000,   0.00000,   0.00000,-282378880.00000,   0.00000
4215970.23723,-170598487.77736,49739829.25701,   0.00035,  -0.00078,   0.00065,192180960.00000,   0.00000,274640576.00000,   0.00000,   0.00000,   0.00000,-282459616.00000,   0.00000
6287195.54319,-169348654.14720,49841235.63674,   0.00036,  -0.00078,   0.00065,192098128.00000,   0.00000,274640576.00000,   0.00000,   0.00000,   0.00000,-282542448.00000,   0.00000
8376166.96560,-168091215.03857,49937571.69748,   0.00037,  -0.00078,   0.00065,192035216.00000,   0.00000,274640576.00000,   0.00000,   0.00000,   0.00000,-282605360.00000,   0.00000
10498095.46143,-166790678.21854,50038978.07721,   0.00037,  -0.00078,   0.00065,191975600.00000,   0.00000,274640576.00000,   0.00000,   0.00000,   0.00000,-282664976.00000,   0.00000
12645375.55219,-165464789.80359,50130243.81896,   0.00038,  -0.00078,   0.00065,191919440.00000,   0.00000,274640576.00000,   0.00000,   0.00000,   0.00000,-282721136.00000,   0.00000
14800261.12143,-164121155.27218,50226579.87971,   0.00039,  -0.00078,   0.00065,191876256.00000,   0.00000,274640576.00000,   0.00000,   0.00000,   0.00000,-282764320.00000,   0.00000
16998244.40205,-162744563.66736,50317845.62146,   0.00039,  -0.00077,   0.00065,191842080.00000,   0.00000,274640576.00000,   0.00000,   0.00000,   0.00000,-282798496.00000,   0.00000
19203833.16115,-161350225.94609,50409111.36322,   0.00040,  -0.00077,   0.00066,191815808.00000,   0.00000,274640576.00000,   0.00000,   0.00000,   0.00000,-282824768.00000,   0.00000
21442378.99367,-159912790.51343,50500377.10497,   0.00041,  -0.00077,   0.00066,191788032.00000,   0.00000,274640576.00000,   0.00000,   0.00000,   0.00000,-282852544.00000,   0.00000
23688530.30466,-158457608.96432,50586572.52774,   0.00042,  -0.00077,   0.00066,191763712.00000,   0.00000,274640576.00000,   0.00000,   0.00000,   0.00000,-282876864.00000,   0.00000
25952427.73211,-156994821.93673,50672767.95051,   0.00042,  -0.00076,   0.00066,191761008.00000,   0.00000,274640576.00000,   0.00000,   0.00000,   0.00000,-282879568.00000,   0.00000
28249282.23297,-155488937.19776,50758963.37328,   0.00043,  -0.00076,   0.00066,191757152.00000,   0.00000,274640576.00000,   0.00000,   0.00000,   0.00000,-282883424.00000,   0.00000
30571488.32876,-153957700.86386,50840088.47707,   0.00044,  -0.00076,   0.00066,191760336.00000,   0.00000,274640576.00000,   0.00000,   0.00000,   0.00000,-282880240.00000,   0.00000
32926651.49796,-152383366.81856,50921213.58085,   0.00045,  -0.00076,   0.00066,191764240.00000,   0.00000,274640576.00000,   0.00000,   0.00000,   0.00000,-282876336.00000,   0.00000
35281814.66717,-150809032.77327,51002338.68463,   0.00045,  -0.00075,   0.00066,191788864.00000,   0.00000,274640576.00000,   0.00000,   0.00000,   0.00000,-282851712.00000,   0.00000
37662329.43130,-149209347.13305,51078393.46943,   0.00046,  -0.00075,   0.00066,191823440.00000,   0.00000,274640576.00000,   0.00000,   0.00000,   0.00000,-282817136.00000,   0.00000
40075801.26885,-147566563.78144,51159518.57321,   0.00047,  -0.00075,   0.00067,191866304.00000,   0.00000,274640576.00000,   0.00000,   0.00000,   0.00000,-282774272.00000,   0.00000
42489273.10639,-145923780.42984,51235573.35801,   0.00048,  -0.00075,   0.00067,191929120.00000,   0.00000,274640576.00000,   0.00000,   0.00000,   0.00000,-282711456.00000,   0.00000
44953448.13381,-144230293.88836,51306557.82382,   0.00049,  -0.00074,   0.00067,191999552.00000,   0.00000,274640576.00000,   0.00000,   0.00000,   0.00000,-282641024.00000,   0.00000
47425228.63970,-142519061.23044,51382612.60862,   0.00049,  -0.00074,   0.00067,192090016.00000,   0.00000,274640576.00000,   0.00000,   0.00000,   0.00000,-282550560.00000,   0.00000
49904614.62407,-140790082.45606,51453597.07443,   0.00050,  -0.00074,   0.00067,192193872.00000,   0.00000,274640576.00000,   0.00000,   0.00000,   0.00000,-282446704.00000,   0.00000
52409352.20337,-139035752.08675,51524581.54024,   0.00051,  -0.00073,   0.00067,192321216.00000,   0.00000,274640576.00000,   0.00000,   0.00000,   0.00000,-282319360.00000,   0.00000
54957187.49406,-137248464.64403,51595566.00605,   0.00052,  -0.00073,   0.00067,192482880.00000,   0.00000,274640576.00000,   0.00000,   0.00000,   0.00000,-282157696.00000,   0.00000
57494882.14677,-135451036.56334,51661480.15287,   0.00053,  -0.00073,   0.00067,192691072.00000,   0.00000,274640576.00000,   0.00000,   0.00000,   0.00000,-281949504.00000,   0.00000
60075674.51087,-133620651.40923,51727394.29969,   0.00053,  -0.00073,   0.00067,193261136.00000,   0.00000,274640576.00000,   0.00000,   0.00000,   0.00000,-281379440.00000,   0.00000
62664072.35345,-131772520.13867,51793308.44652,   0.00054,  -0.00072,   0.00067,194086576.00000,   0.00000,274640576.00000,   0.00000,   0.00000,   0.00000,-280554000.00000,   0.00000
65285427.26944,-129881291.15673,51859222.59334,   0.00055,  -0.00072,   0.00067,194402288.00000,   0.00000,274640576.00000,   0.00000,   0.00000,   0.00000,-280238288.00000,   0.00000
67906782.18543,-127990062.17479,51925136.74017,   0.00056,  -0.00071,   0.00068,194620464.00000,   0.00000,274640576.00000,   0.00000,   0.00000,   0.00000,-280020112.00000,   0.00000
70561094.17484,-126055735.48146,51985980.56800,   0.00057,  -0.00071,   0.00068,194847040.00000,   0.00000,274640576.00000,   0.00000,   0.00000,   0.00000,-279793536.00000,   0.00000
73233152.28069,-124113803.30965,52046824.39584,   0.00058,  -0.00071,   0.00068,195120224.00000,   0.00000,274640576.00000,   0.00000,   0.00000,   0.00000,-279520352.00000,   0.00000
75912815.86503,-122154125.02139,52107668.22368,   0.00058,  -0.00070,   0.00068,195423728.00000,   0.00000,274640576.00000,   0.00000,   0.00000,   0.00000,-279216848.00000,   0.00000
78643182.63923,-120143743.54327,52163441.73253,   0.00059,  -0.00070,   0.00068,195751664.00000,   0.00000,274640576.00000,   0.00000,   0.00000,   0.00000,-278888912.00000,   0.00000
81355803.29697,-118140967.54362,52224285.56037,   0.00060,  -0.00070,   0.00068,196105296.00000,   0.00000,274640576.00000,   0.00000,   0.00000,   0.00000,-278535280.00000,   0.00000
84119127.14459,-116087488.35411,52280059.06922,   0.00061,  -0.00069,   0.00068,196477312.00000,   0.00000,274640576.00000,   0.00000,   0.00000,   0.00000,-278163264.00000,   0.00000
86882450.99220,-114034009.16460,52335832.57807,   0.00062,  -0.00069,   0.00068,196893056.00000,   0.00000,274640576.00000,   0.00000,   0.00000,   0.00000,-277747520.00000,   0.00000
89678731.91322,-111937432.26371,52391606.08692,   0.00063,  -0.00068,   0.00068,197350896.00000,   0.00000,274640576.00000,   0.00000,   0.00000,   0.00000,-277289680.00000,   0.00000
92482618.31272,-109823109.24636,52447379.59577,   0.00063,  -0.00068,   0.00068,197816080.00000,   0.00000,274640576.00000,   0.00000,   0.00000,   0.00000,-276824496.00000,   0.00000
95304250.82868,-107701180.75053,52498082.78563,   0.00064,  -0.00068,   0.00068,198283856.00000,   0.00000,274640576.00000,   0.00000,   0.00000,   0.00000,-276356720.00000,   0.00000
98133488.82312,-105561506.13825,52548785.97550,   0.00065,  -0.00067,   0.00068,198751216.00000,   0.00000,274640576.00000,   0.00000,   0.00000,   0.00000,-275889360.00000,   0.00000
101013430.00742,-103371128.33611,52599489.16536,   0.00066,  -0.00067,   0.00068,199236608.00000,   0.00000,274640576.00000,   0.00000,   0.00000,   0.00000,-275403968.00000,   0.00000
103875625.07526,-101188356.01245,52650192.35523,   0.00067,  -0.00066,   0.00068,199745040.00000,   0.00000,274640576.00000,   0.00000,   0.00000,   0.00000,-274895536.00000,   0.00000
106788523.33297,-98954880.49892,52700895.54509,   0.00068,  -0.00066,   0.00069,200292608.00000,   0.00000,274640576.00000,   0.00000,   0.00000,   0.00000,-274347968.00000,   0.00000
109701421.59069,-96721404.98539,52746528.41597,   0.00069,  -0.00065,   0.00069,200884224.00000,   0.00000,274640576.00000,   0.00000,   0.00000,   0.00000,-273756352.00000,   0.00000
112639671.44333,-94462577.87693,52797231.60583,   0.00070,  -0.00065,   0.00069,201533120.00000,   0.00000,274640576.00000,   0.00000,   0.00000,   0.00000,-273107456.00000,   0.00000
115593132.25293,-92168258.53557,52842864.47671,   0.00071,  -0.00064,   0.00069,202217296.00000,   0.00000,274640576.00000,   0.00000,   0.00000,   0.00000,-272423280.00000,   0.00000
118564339.17899,-89866333.71572,52888497.34759,   0.00071,  -0.00064,   0.00069,202960656.00000,   0.00000,274640576.00000,   0.00000,   0.00000,   0.00000,-271679920.00000,   0.00000
121543151.58352,-87546662.77942,52934130.21847,   0.00072,  -0.00064,   0.00069,203739984.00000,   0.00000,274640576.00000,   0.00000,   0.00000,   0.00000,-270900592.00000,   0.00000
124547315.58299,-85201640.24819,52979763.08935,   0.00073,  -0.00063,   0.00069,204555808.00000,   0.00000,274640576.00000,   0.00000,   0.00000,   0.00000,-270084768.00000,   0.00000
127576831.17739,-82831266.12203,53020325.64124,   0.00074,  -0.00063,   0.00069,205397248.00000,   0.00000,274640576.00000,   0.00000,   0.00000,   0.00000,-269243328.00000,   0.00000
130613952.25027,-80443145.87942,53065958.51211,   0.00075,  -0.00062,   0.00069,206259472.00000,   0.00000,274640576.00000,   0.00000,   0.00000,   0.00000,-268381104.00000,   0.00000
133658678.80163,-78037279.52035,53106521.06401,   0.00076,  -0.00062,   0.00069,207134880.00000,   0.00000,274640576.00000,   0.00000,   0.00000,   0.00000,-267505696.00000,   0.00000
136738897.58589,-75616202.20432,53147083.61590,   0.00077,  -0.00061,   0.00069,208055632.00000,   0.00000,274640576.00000,   0.00000,   0.00000,   0.00000,-266584944.00000,   0.00000
139816581.21067,-73167238.13387,53187646.16779,   0.00078,  -0.00061,   0.00069,208985440.00000,   0.00000,274640576.00000,   0.00000,   0.00000,   0.00000,-265655136.00000,   0.00000
142929757.06834,-70703063.10646,53228208.71968,   0.00079,  -0.00060,   0.00069,209968848.00000,   0.00000,274640576.00000,   0.00000,   0.00000,   0.00000,-264671728.00000,   0.00000
146032792.28804,-68228747.44107,53268771.27157,   0.00080,  -0.00060,   0.00069,210973632.00000,   0.00000,274640576.00000,   0.00000,   0.00000,   0.00000,-263666944.00000,   0.00000
149186530.69761,-65703728.58582,53309333.82346,   0.00081,  -0.00059,   0.00069,212025280.00000,   0.00000,274640576.00000,   0.00000,   0.00000,   0.00000,-262615296.00000,   0.00000
152340269.10718,-63178709.73058,53344826.05637,   0.00082,  -0.00058,   0.00069,213110176.00000,   0.00000,274640576.00000,   0.00000,   0.00000,   0.00000,-261530400.00000,   0.00000
155501612.99523,-60635944.75887,53380318.28927,   0.00083,  -0.00058,   0.00069,214224784.00000,   0.00000,274640576.00000,   0.00000,   0.00000,   0.00000,-260415792.00000,   0.00000
158680702.99973,-58085574.30869,53420880.84117,   0.00084,  -0.00057,   0.00069,215385440.00000,   0.00000,274640576.00000,   0.00000,   0.00000,   0.00000,-259255136.00000,   0.00000
161892750.07764,-55492106.14713,53456373.07407,   0.00084,  -0.00057,   0.00069,216574256.00000,   0.00000,274640576.00000,   0.00000,   0.00000,   0.00000,-258066320.00000,   0.00000
165104797.15555,-52898637.98556,53491865.30698,   0.00085,  -0.00056,   0.00070,217795216.00000,   0.00000,274640576.00000,   0.00000,   0.00000,   0.00000,-256845360.00000,   0.00000
168332055.19042,-50269677.59109,53527357.53988,   0.00086,  -0.00056,   0.00070,219041456.00000,   0.00000,274640576.00000,   0.00000,   0.00000,   0.00000,-255599120.00000,   0.00000
171577059.34175,-47633111.71814,53562849.77279,   0.00087,  -0.00055,   0.00070,220322752.00000,   0.00000,274640576.00000,   0.00000,   0.00000,   0.00000,-254317824.00000,   0.00000
174829668.97155,-44978799.72874,53598342.00569,   0.00088,  -0.00055,   0.00070,221593344.00000,   0.00000,274640576.00000,   0.00000,   0.00000,   0.00000,-253047232.00000,   0.00000
178100024.71781,-42316882.26086,53633834.23860,   0.00089,  -0.00054,   0.00070,222849232.00000,   0.00000,274640576.00000,   0.00000,   0.00000,   0.00000,-251791344.00000,   0.00000
181403337.53747,-39611867.08159,53664256.15252,   0.00090,  -0.00053,   0.00070,224090016.00000,   0.00000,274640576.00000,   0.00000,   0.00000,   0.00000,-250550560.00000,   0.00000
184706650.35714,-36906851.90232,53699748.38542,   0.00091,  -0.00053,   0.00070,225339584.00000,   0.00000,274640576.00000,   0.00000,   0.00000,   0.00000,-249300992.00000,   0.00000
188017568.65529,-34184090.60660,53730170.29934,   0.00092,  -0.00052,   0.00070,226598608.00000,   0.00000,274640576.00000,   0.00000,   0.00000,   0.00000,-248041968.00000,   0.00000
191353838.54837,-31435977.71595,53765662.53224,   0.00093,  -0.00052,   0.00070,227898752.00000,   0.00000,274640576.00000,   0.00000,   0.00000,   0.00000,-246741824.00000,   0.00000
194697713.91993,-28670118.70884,53796084.44616,   0.00094,  -0.00051,   0.00070,229237920.00000,   0.00000,274640576.00000,   0.00000,   0.00000,   0.00000,-245402656.00000,   0.00000
198059335.40794,-25896654.22326,53826506.36008,   0.00095,  -0.00050,   0.00070,230654640.00000,   0.00000,274640576.00000,   0.00000,   0.00000,   0.00000,-243985936.00000,   0.00000
201436167.85291,-23087697.50477,53856928.27400,   0.00096,  -0.00050,   0.00070,232145152.00000,   0.00000,274640576.00000,   0.00000,   0.00000,   0.00000,-242495424.00000,   0.00000
204805394.81940,-20296486.90273,53887350.18792,   0.00097,  -0.00049,   0.00070,233729616.00000,   0.00000,274640576.00000,   0.00000,   0.00000,   0.00000,-240910960.00000,   0.00000
208207578.85930,-17462178.58931,53917772.10184,   0.00098,  -0.00049,   0.00070,235411552.00000,   0.00000,274640576.00000,   0.00000,   0.00000,   0.00000,-239229024.00000,   0.00000
211635114.49414,-14602518.68096,53948194.01576,   0.00099,  -0.00048,   0.00070,237191136.00000,   0.00000,274640576.00000,   0.00000,   0.00000,   0.00000,-237449440.00000,   0.00000
215062650.12898,-11742858.77260,53978615.92967,   0.00100,  -0.00047,   0.00070,239051104.00000,   0.00000,274640576.00000,   0.00000,   0.00000,   0.00000,-235589472.00000,   0.00000
218497791.24229,-8865452.74780,54009037.84359,   0.00101,  -0.00047,   0.00070,240983088.00000,   0.00000,274640576.00000,   0.00000,   0.00000,   0.00000,-233657488.00000,   0.00000
221950678.47206,-5980441.24451,54039459.75751,   0.00102,  -0.00046,   0.00070,242996464.00000,   0.00000,274640576.00000,   0.00000,   0.00000,   0.00000,-231644112.00000,   0.00000
225418776.65879,-3059937.50832,54069881.67143,   0.00103,  -0.00045,   0.00070,245076656.00000,   0.00000,274640576.00000,   0.00000,   0.00000,   0.00000,-229563920.00000,   0.00000
228886874.84551,-139433.77213,54100303.58535,   0.00104,  -0.00045,   0.00070,247284624.00000,   0.00000,274640576.00000,   0.00000,   0.00000,   0.00000,-227355952.00000,   0.00000
232372719.14869,2788675.44254,54125655.18028,   0.00105,  -0.00044,   0.00070,249639424.00000,   0.00000,274640576.00000,   0.00000,   0.00000,   0.00000,-225001152.00000,   0.00000
235873774.40883,5752276.89012,54156077.09420,   0.00106,  -0.00043,   0.00070,251789216.00000,   0.00000,274640576.00000,   0.00000,   0.00000,   0.00000,-222851360.00000,   0.00000
239392575.78542,8723483.81618,54186499.00812,   0.00107,  -0.00043,   0.00070,253902080.00000,   0.00000,274640576.00000,   0.00000,   0.00000,   0.00000,-220738496.00000,   0.00000
242918982.64050,11712436.85868,54211850.60305,   0.00108,  -0.00042,   0.00070,256020240.00000,   0.00000,274640576.00000,   0.00000,   0.00000,   0.00000,-218620336.00000,   0.00000
246445389.49557,14701389.90119,54242272.51697,   0.00109,  -0.00041,   0.00071,258130912.00000,   0.00000,274640576.00000,   0.00000,   0.00000,   0.00000,-216509664.00000,   0.00000
249997147.94557,17715694.53863,54272694.43089,   0.00110,  -0.00041,   0.00071,260234384.00000,   0.00000,274640576.00000,   0.00000,   0.00000,   0.00000,-214406192.00000,   0.00000
253556511.87405,20747745.29253,54298046.02582,   0.00111,  -0.00040,   0.00071,262327456.00000,   0.00000,274640576.00000,   0.00000,   0.00000,   0.00000,-212313120.00000,   0.00000
257123481.28102,23797542.16287,54328467.93974,   0.00112,  -0.00039,   0.00071,264438608.00000,   0.00000,274640576.00000,   0.00000,   0.00000,   0.00000,-210201968.00000,   0.00000
260708196.80443,26854944.51170,54353819.53467,   0.00113,  -0.00039,   0.00071,266587776.00000,   0.00000,274640576.00000,   0.00000,   0.00000,   0.00000,-208052800.00000,   0.00000
264292912.32785,29912346.86052,54384241.44859,   0.00114,  -0.00038,   0.00071,268774080.00000,   0.00000,274640576.00000,   0.00000,   0.00000,   0.00000,-205866496.00000,   0.00000
267910584.92467,33012846.92073,54409593.04352,   0.00115,  -0.00037,   0.00071,270997184.00000,   0.00000,274640576.00000,   0.00000,   0.00000,   0.00000,-203643392.00000,   0.00000
271510511.40505,36105741.50246,54440014.95744,   0.00116,  -0.00037,   0.00071,273220064.00000,   0.00000,274640576.00000,   0.00000,   0.00000,   0.00000,-201420512.00000,   0.00000
275128184.00188,39206241.56267,54470436.87136,   0.00118,  -0.00036,   0.00071,275459488.00000,   0.00000,274640576.00000,   0.00000,   0.00000,   0.00000,-199181088.00000,   0.00000
278771208.19364,42332093.21781,54495788.46629,   0.00119,  -0.00035,   0.00071,277713568.00000,   0.00000,274640576.00000,   0.00000,   0.00000,   0.00000,-196927008.00000,   0.00000
282404091.74742,45468085.51093,54526210.38021,   0.00120,  -0.00034,   0.00071,279966784.00000,   0.00000,274640576.00000,   0.00000,   0.00000,   0.00000,-194673792.00000,   0.00000
286054721.41766,48611683.28252,54551561.97514,   0.00121,  -0.00034,   0.00071,282245184.00000,   0.00000,274640576.00000,   0.00000,   0.00000,   0.00000,-192395392.00000,   0.00000
289730702.68283,51780632.64905,54581983.88906,   0.00122,  -0.00033,   0.00071,284560896.00000,   0.00000,274640576.00000,   0.00000,   0.00000,   0.00000,-190079680.00000,   0.00000
293396543.31003,54959722.65355,54607335.48399,   0.00123,  -0.00032,   0.00071,286886784.00000,   0.00000,274640576.00000,   0.00000,   0.00000,   0.00000,-187753792.00000,   0.00000
297080130.05368,58146418.13653,54637757.39791,   0.00124,  -0.00031,   0.00071,289259936.00000,   0.00000,274640576.00000,   0.00000,   0.00000,   0.00000,-185380640.00000,   0.00000
300771322.27581,61350859.73596,54668179.31183,   0.00125,  -0.00031,   0.00071,291667744.00000,   0.00000,274640576.00000,   0.00000,   0.00000,   0.00000,-182972832.00000,   0.00000
304462514.49794,64555301.33540,54693530.90676,   0.00126,  -0.00030,   0.00071,294106208.00000,   0.00000,274640576.00000,   0.00000,   0.00000,   0.00000,-180534368.00000,   0.00000
308179058.31501,67785094.52976,54723952.82068,   0.00127,  -0.00029,   0.00071,296595520.00000,   0.00000,274640576.00000,   0.00000,   0.00000,   0.00000,-178045056.00000,   0.00000
311895602.13207,71014887.72412,54754374.73460,   0.00128,  -0.00029,   0.00071,299114240.00000,   0.00000,274640576.00000,   0.00000,   0.00000,   0.00000,-175526336.00000,   0.00000
315619751.42761,74262427.03494,54779726.32953,   0.00129,  -0.00028,   0.00071,301658592.00000,   0.00000,274640576.00000,   0.00000,   0.00000,   0.00000,-172981984.00000,   0.00000
319343900.72315,77509966.34576,54810148.24345,   0.00130,  -0.00027,   0.00071,304229408.00000,   0.00000,274640576.00000,   0.00000,   0.00000,   0.00000,-170411168.00000,   0.00000
323093401.61363,80782857.25151,54840570.15737,   0.00131,  -0.00026,   0.00071,306837952.00000,   0.00000,274640576.00000,   0.00000,   0.00000,   0.00000,-167802624.00000,   0.00000
326825156.38765,84048142.67878,54870992.07129,   0.00132,  -0.00025,   0.00071,309451488.00000,   0.00000,274640576.00000,   0.00000,   0.00000,   0.00000,-165189088.00000,   0.00000
330600008.87306,87346385.17946,54901413.98521,   0.00133,  -0.00025,   0.00071,312114016.00000,   0.00000,274640576.00000,   0.00000,   0.00000,   0.00000,-162526560.00000,   0.00000
334364720.72049,90654768.31811,54931835.89913,   0.00134,  -0.00024,   0.00071,314780448.00000,   0.00000,274640576.00000,   0.00000,   0.00000,   0.00000,-159860128.00000,   0.00000
338129432.56793,93963151.45677,54962257.81304,   0.00136,  -0.00023,   0.00071,317461440.00000,   0.00000,274640576.00000,   0.00000,   0.00000,   0.00000,-157179136.00000,   0.00000
341911890.53181,97279140.07390,54992679.72696,   0.00137,  -0.00022,   0.00071,320169504.00000,   0.00000,274640576.00000,   0.00000,   0.00000,   0.00000,-154471072.00000,   0.00000
345701953.97418,100612874.80749,55023101.64088,   0.00138,  -0.00022,   0.00072,322891584.00000,   0.00000,274640576.00000,   0.00000,   0.00000,   0.00000,-151748992.00000,   0.00000
349492017.41655,103946609.54107,55053523.55480,   0.00139,  -0.00021,   0.00072,325622976.00000,   0.00000,274640576.00000,   0.00000,   0.00000,   0.00000,-149017600.00000,   0.00000
353289686.33739,107298090.39111,55083945.46872,   0.00140,  -0.00020,   0.00072,328365696.00000,   0.00000,274640576.00000,   0.00000,   0.00000,   0.00000,-146274880.00000,   0.00000
357087355.25824,110649571.24115,55119437.70162,   0.00141,  -0.00019,   0.00072,331117856.00000,   0.00000,274640576.00000,   0.00000,   0.00000,   0.00000,-143522720.00000,   0.00000
360910375.77402,114026403.68612,55149859.61554,   0.00142,  -0.00018,   0.00072,333891456.00000,   0.00000,274640576.00000,   0.00000,   0.00000,   0.00000,-140749120.00000,   0.00000
364733396.28979,117403236.13109,55185351.84845,   0.00143,  -0.00018,   0.00072,336673312.00000,   0.00000,274640576.00000,   0.00000,   0.00000,   0.00000,-137967264.00000,   0.00000
368564022.28405,120797814.69252,55215773.76237,   0.00144,  -0.00017,   0.00072,339464000.00000,   0.00000,274640576.00000,   0.00000,   0.00000,   0.00000,-135176576.00000,   0.00000
372394648.27831,124192393.25394,55251265.99527,   0.00145,  -0.00016,   0.00072,342270624.00000,   0.00000,274640576.00000,   0.00000,   0.00000,   0.00000,-132369952.00000,   0.00000
376225274.27257,127586971.81536,55281687.90919,   0.00146,  -0.00015,   0.00072,345089408.00000,   0.00000,274640576.00000,   0.00000,   0.00000,   0.00000,-129551168.00000,   0.00000
380063505.74531,130999296.49324,55317180.14210,   0.00147,  -0.00015,   0.00072,347829568.00000,   0.00000,274640576.00000,   0.00000,   0.00000,   0.00000,-126811008.00000,   0.00000
383919483.33450,134419226.64960,55352672.37500,   0.00148,  -0.00014,   0.00072,350649216.00000,   0.00000,274640576.00000,   0.00000,   0.00000,   0.00000,-123991360.00000,   0.00000
387765320.28571,137849297.44393,55388164.60791,   0.00150,  -0.00013,   0.00072,353591936.00000,   0.00000,274640576.00000,   0.00000,   0.00000,   0.00000,-121048640.00000,   0.00000
391628903.35338,141286973.71673,55423656.84081,   0.00151,  -0.00012,   0.00072,356528384.00000,   0.00000,274640576.00000,   0.00000,   0.00000,   0.00000,-118112192.00000,   0.00000
395492486.42105,144724649.98954,55459149.07372,   0.00152,  -0.00011,   0.00072,359475616.00000,   0.00000,274640576.00000,   0.00000,   0.00000,   0.00000,-115164960.00000,   0.00000
399363674.96720,148180072.37880,55494641.30662,   0.00153,  -0.00010,   0.00072,362452416.00000,   0.00000,274640576.00000,   0.00000,   0.00000,   0.00000,-112188160.00000,   0.00000
403234863.51335,151635494.76806,55530133.53953,   0.00154,  -0.00010,   0.00072,365454688.00000,   0.00000,274640576.00000,   0.00000,   0.00000,   0.00000,-109185888.00000,   0.00000
407113657.53798,155108663.27378,55570696.09142,   0.00155,  -0.00009,   0.00072,368486784.00000,   0.00000,274640576.00000,   0.00000,   0.00000,   0.00000,-106153792.00000,   0.00000
410992451.56261,158581831.77949,55606188.32432,   0.00156,  -0.00008,   0.00072,371536672.00000,   0.00000,274640576.00000,   0.00000,   0.00000,   0.00000,-103103904.00000,   0.00000
414871245.58724,162055000.28521,55646750.87621,   0.00157,  -0.00007,   0.00072,374603072.00000,   0.00000,274640576.00000,   0.00000,   0.00000,   0.00000,-100037504.00000,   0.00000
418775391.20680,165553520.38585,55682243.10912,   0.00158,  -0.00006,   0.00072,377695232.00000,   0.00000,274640576.00000,   0.00000,   0.00000,   0.00000,-96945344.00000,   0.00000
422661790.70991,169044435.00802,55722805.66101,   0.00159,  -0.00006,   0.00072,380786432.00000,   0.00000,274640576.00000,   0.00000,   0.00000,   0.00000,-93854144.00000,   0.00000
426565936.32947,172542955.10866,55763368.21290,   0.00160,  -0.00005,   0.00072,383910176.00000,   0.00000,274640576.00000,   0.00000,   0.00000,   0.00000,-90730400.00000,   0.00000
430459941.31106,176051615.84728,55803930.76479,   0.00162,  -0.00004,   0.00073,387042752.00000,   0.00000,274640576.00000,   0.00000,   0.00000,   0.00000,-87597824.00000,   0.00000
434371692.40910,179567882.06438,55844493.31669,   0.00163,  -0.00003,   0.00073,390204416.00000,   0.00000,274640576.00000,   0.00000,   0.00000,   0.00000,-84436160.00000,   0.00000
438265697.39069,183076542.80300,55885055.86858,   0.00164,  -0.00002,   0.00073,393358528.00000,   0.00000,274640576.00000,   0.00000,   0.00000,   0.00000,-81282048.00000,   0.00000
442177448.48873,186592809.02010,55925618.42047,   0.00165,  -0.00001,   0.00073,396527392.00000,   0.00000,274640576.00000,   0.00000,   0.00000,   0.00000,-78113184.00000,   0.00000
446096805.06525,190126821.35365,55971251.29135,   0.00166,  -0.00000,   0.00073,399700352.00000,   0.00000,274640576.00000,   0.00000,   0.00000,   0.00000,-74940224.00000,   0.00000
450016161.64177,193660833.68720,56011813.84324,   0.00167,   0.00000,   0.00073,402871712.00000,   0.00000,274640576.00000,   0.00000,   0.00000,   0.00000,-71768864.00000,   0.00000
453925377.58032,197204986.65872,56057446.71412,   0.00168,   0.00001,   0.00073,406043680.00000,   0.00000,274640576.00000,   0.00000,   0.00000,   0.00000,-68596896.00000,   0.00000
457844734.15684,200738998.99227,56103079.58499,   0.00169,   0.00002,   0.00073,409238336.00000,   0.00000,274640576.00000,   0.00000,   0.00000,   0.00000,-65402240.00000,   0.00000
461771696.21184,204290757.44228,56148712.45587,   0.00170,   0.00003,   0.00073,412453664.00000,   0.00000,274640576.00000,   0.00000,   0.00000,   0.00000,-62186912.00000,   0.00000
465706263.74532,207860262.00873,56194345.32675,   0.00171,   0.00004,   0.00073,415688320.00000,   0.00000,274640576.00000,   0.00000,   0.00000,   0.00000,-58952256.00000,   0.00000
469633225.80032,211412020.45874,56239978.19763,   0.00172,   0.00005,   0.00073,418928128.00000,   0.00000,274640576.00000,   0.00000,   0.00000,   0.00000,-55712448.00000,   0.00000
473550047.21735,214973919.54671,56285611.06851,   0.00174,   0.00005,   0.00073,422167264.00000,   0.00000,274640576.00000,   0.00000,   0.00000,   0.00000,-52473312.00000,   0.00000
477484614.75083,218543424.11317,56331243.93938,   0.00175,   0.00006,   0.00073,425428160.00000,   0.00000,274640576.00000,   0.00000,   0.00000,   0.00000,-49212416.00000,   0.00000
481419182.28431,222112928.67963,56381947.12925,   0.00176,   0.00007,   0.00073,428696736.00000,   0.00000,274640576.00000,   0.00000,   0.00000,   0.00000,-45943840.00000,   0.00000
485353749.81779,225682433.24608,56432650.31911,   0.00177,   0.00008,   0.00073,431970592.00000,   0.00000,274640576.00000,   0.00000,   0.00000,   0.00000,-42669984.00000,   0.00000
489278176.71329,229262078.45051,56483353.50898,   0.00178,   0.00009,   0.00073,435240544.00000,   0.00000,274640576.00000,   0.00000,   0.00000,   0.00000,-39400032.00000,   0.00000
493220349.72525,232849329.13342,56528986.37986,   0.00179,   0.00010,   0.00073,438529344.00000,   0.00000,274640576.00000,   0.00000,   0.00000,   0.00000,-36111232.00000,   0.00000
497144776.62076,236428974.33785,56584759.88871,   0.00180,   0.00011,   0.00074,441812736.00000,   0.00000,274640576.00000,   0.00000,   0.00000,   0.00000,-32827840.00000,   0.00000
501086949.63272,240016225.02076,56635463.07857,   0.00181,   0.00011,   0.00074,445115104.00000,   0.00000,274640576.00000,   0.00000,   0.00000,   0.00000,-29525472.00000,   0.00000
505018982.00671,243613616.34164,56686166.26844,   0.00182,   0.00012,   0.00074,448414592.00000,   0.00000,274640576.00000,   0.00000,   0.00000,   0.00000,-26225984.00000,   0.00000
508961155.01867,247200867.02455,56741939.77729,   0.00183,   0.00013,   0.00074,451731680.00000,   0.00000,274640576.00000,   0.00000,   0.00000,   0.00000,-22908896.00000,   0.00000
512893187.39265,250798258.34543,56792642.96715,   0.00184,   0.00014,   0.00074,455045504.00000,   0.00000,274640576.00000,   0.00000,   0.00000,   0.00000,-19595072.00000,   0.00000
516825219.76664,254395649.66631,56848416.47600,   0.00186,   0.00015,   0.00074,458370208.00000,   0.00000,274640576.00000,   0.00000,   0.00000,   0.00000,-16270368.00000,   0.00000
520757252.14063,257993040.98719,56904189.98485,   0.00187,   0.00016,   0.00074,461704960.00000,   0.00000,274640576.00000,   0.00000,   0.00000,   0.00000,-12935616.00000,   0.00000
524714636.10954,261615783.90300,56959963.49370,   0.00188,   0.00017,   0.00074,465070944.00000,   0.00000,274640576.00000,   0.00000,   0.00000,   0.00000,-9569632.00000,   0.00000
528628922.36708,265205569.74541,57020807.32154,   0.00189,   0.00018,   0.00074,468410976.00000,   0.00000,274640576.00000,   0.00000,   0.00000,   0.00000,-6229600.00000,   0.00000
532568560.21954,268820707.18274,57076580.83039,   0.00190,   0.00018,   0.00074,471775136.00000,   0.00000,274640576.00000,   0.00000,   0.00000,   0.00000,-2865440.00000,   0.00000
535923408.07829,271899222.65672,57128393.15253,   0.00191,   0.00019,   0.00074,474639776.00000,   0.00000,274640576.00000,   0.00000,   0.00000,   0.00000,-800.00000,   0.00000
535949277.99498,272192033.95135,57069384.32501,   0.00191,   0.00019,   0.00074,474639776.00000,   0.00000,274642528.00000,   0.00000,   0.00000,   0.00000,  64.00000,   2.00000
536110689.56728,274146482.23935,56673729.15940,   0.00192,   0.00020,   0.00074,477997120.00000,   0.00001,274655584.00000,   0.00002,   0.00000,   0.00001,  32.00000,   2.00000
536260891.05670,276081937.95927,56281612.29697,   0.00193,   0.00021,   0.00074,478002560.00000,   0.00003,274668608.00000,   0.00003,   0.00000,   0.00001,  64.00000,   2.00000
536402052.43439,277998870.34826,55889043.38526,   0.00194,   0.00022,   0.00075,478037568.00000,   0.00004,274681696.00000,   0.00004,   0.00000,   0.00002, -96.00000,   2.00000
536532859.79187,279911533.57115,55499175.67441,   0.00195,   0.00023,   0.00075,478049536.00000,   0.00005,274694752.00000,   0.00006,   0.00000,   0.00002,  96.00000,   2.00000
536653713.33127,281791236.56576,55111748.36799,   0.00196,   0.00024,   0.00075,478063104.00000,   0.00006,274707776.00000,   0.00007,   0.00000,   0.00003, 192.00000,   2.00000
536762909.66581,283665633.45542,54729832.30298,   0.00197,   0.00025,   0.00075,478091584.00000,   0.00007,274720864.00000,   0.00009,   0.00000,   0.00004,   0.00000,   2.00000
536863121.64393,285507491.03369,54350478.73172,   0.00199,   0.00025,   0.00075,478104608.00000,   0.00008,274733888.00000,   0.00010,   0.00000,   0.00004, 192.00000,   2.00000
536952991.28801,287345141.20756,53973845.86708,   0.00200,   0.00026,   0.00075,478116512.00000,   0.00010,274746880.00000,   0.00011,   0.00000,   0.00005,  64.00000,   2.00000
537034708.44291,289164033.73053,53597045.11337,   0.00201,   0.00027,   0.00075,478151328.00000,   0.00011,274759968.00000,   0.00013,   0.00000,   0.00005, 192.00000,   2.00000
537106352.51486,290964670.18680,53223971.12492,   0.00202,   0.00028,   0.00075,478156544.00000,   0.00012,274772960.00000,   0.00014,   0.00000,   0.00006,  64.00000,   2.00000
537167472.11811,292746093.84731,52857633.91935,   0.00203,   0.00029,   0.00075,478177984.00000,   0.00013,274785984.00000,   0.00016,   0.00001,   0.00006,  96.00000,   2.00000
537221582.24990,294509985.76542,52488397.19004,   0.00204,   0.00030,   0.00075,478196160.00000,   0.00014,274798976.00000,   0.00017,   0.00001,   0.00007,  32.00000,   2.00000
537265549.52548,296254870.80677,52126069.93693,   0.00205,   0.00031,   0.00075,478217568.00000,   0.00016,274811968.00000,   0.00018,   0.00001,   0.00008, 128.00000,   2.00000
537299966.97567,297982114.05651,51767657.56107,   0.00206,   0.00032,   0.00075,478222688.00000,   0.00017,274824928.00000,   0.00020,   0.00001,   0.00008,  64.00000,   2.00000
537327130.94234,299690826.62231,51409548.65002,   0.00207,   0.00033,   0.00076,478257216.00000,   0.00018,274837920.00000,   0.00021,   0.00001,   0.00009, -32.00000,   2.00000
537344955.05254,301396159.59583,51054620.21738,   0.00208,   0.00033,   0.00076,478269344.00000,   0.00019,274850880.00000,   0.00023,   0.00001,   0.00009, 128.00000,   2.00000
537353512.76939,303069287.21024,50707642.59137,   0.00209,   0.00034,   0.00076,478283520.00000,   0.00020,274863840.00000,   0.00024,   0.00001,   0.00010, 160.00000,   2.00000
537352583.53531,304739309.80457,50363798.42616,   0.00210,   0.00035,   0.00076,478295680.00000,   0.00022,274876736.00000,   0.00025,   0.00001,   0.00010,  32.00000,   2.00000
537346108.25948,306378006.63226,50021353.05749,   0.00211,   0.00036,   0.00076,478322464.00000,   0.00023,274889696.00000,   0.00027,   0.00001,   0.00011,  64.00000,   2.00000
537331372.61103,308000799.48855,49682979.47499,   0.00212,   0.00037,   0.00076,478327264.00000,   0.00024,274902560.00000,   0.00028,   0.00002,   0.00011,  96.00000,   2.00000
537308677.65470,309620360.47686,49346025.75237,   0.00214,   0.00038,   0.00076,478354208.00000,   0.00025,274915488.00000,   0.00029,   0.00002,   0.00012,  32.00000,   2.00000
537280114.26104,311210316.02129,49012300.82531,   0.00215,   0.00039,   0.00076,478365920.00000,   0.00026,274928352.00000,   0.00031,   0.00002,   0.00013,  64.00000,   2.00000
537241023.79579,312797536.06288,48686584.30023,   0.00216,   0.00040,   0.00076,478379328.00000,   0.00027,274941216.00000,   0.00032,   0.00002,   0.00013, 128.00000,   2.00000
537197221.27199,314354489.09156,48362309.03876,   0.00217,   0.00041,   0.00076,478405504.00000,   0.00029,274954112.00000,   0.00034,   0.00002,   0.00014,  64.00000,   2.00000
537145144.70907,315910195.33842,48041181.23037,   0.00218,   0.00041,   0.00077,478417152.00000,   0.00030,274966976.00000,   0.00035,   0.00002,   0.00014, -32.00000,   2.00000
537087242.29842,317438761.05929,47724946.08253,   0.00219,   0.00042,   0.00077,478413088.00000,   0.00031,274979744.00000,   0.00036,   0.00003,   0.00015,   0.00000,   2.00000
537024272.38145,318950937.43155,47409310.50486,   0.00220,   0.00043,   0.00077,478446304.00000,   0.00032,274992576.00000,   0.00038,   0.00003,   0.00015,   0.00000,   2.00000
536951642.05639,320461590.07755,47101637.42300,   0.00221,   0.00044,   0.00077,478459104.00000,   0.00033,275005376.00000,   0.00039,   0.00003,   0.00016,  32.00000,   2.00000
536874371.83882,321944402.83113,46797072.81514,   0.00222,   0.00045,   0.00077,478469440.00000,   0.00034,275018144.00000,   0.00040,   0.00003,   0.00016, -32.00000,   2.00000
536790408.38527,323425575.66233,46493898.22441,   0.00223,   0.00046,   0.00077,478495168.00000,   0.00036,275030944.00000,   0.00042,   0.00003,   0.00017,  32.00000,   2.00000
536701364.42937,324880879.77292,46195458.38731,   0.00224,   0.00047,   0.00077,478490112.00000,   0.00037,275043648.00000,   0.00043,   0.00004,   0.00017,  96.00000,   2.00000
536607245.85499,326322040.41448,45899229.27037,   0.00225,   0.00048,   0.00077,478507360.00000,   0.00038,275056352.00000,   0.00045,   0.00004,   0.00018,  96.00000,   2.00000
536506395.59833,327748193.40362,45610041.70278,   0.00226,   0.00048,   0.00077,478526016.00000,   0.00039,275069088.00000,   0.00046,   0.00004,   0.00018, -64.00000,   2.00000
536399693.98480,329161998.30128,45324550.53570,   0.00227,   0.00049,   0.00078,478528288.00000,   0.00040,275081728.00000,   0.00047,   0.00004,   0.00019,  32.00000,   2.00000
536286651.08232,330574497.92631,45040226.86247,   0.00228,   0.00050,   0.00078,478553344.00000,   0.00041,275094400.00000,   0.00049,   0.00004,   0.00019, 192.00000,   2.00000
536170646.98397,331960606.97330,44758763.84371,   0.00229,   0.00051,   0.00078,478561984.00000,   0.00043,275107072.00000,   0.00050,   0.00005,   0.00020, 128.00000,   2.00000
536050968.19956,333322377.49378,44481656.32582,   0.00230,   0.00052,   0.00078,478555520.00000,   0.00044,275119616.00000,   0.00051,   0.00005,   0.00020,  96.00000,   2.00000
535924582.17015,334680332.36142,44208810.05254,   0.00231,   0.00053,   0.00078,478596160.00000,   0.00045,275132256.00000,   0.00053,   0.00005,   0.00021, -32.00000,   2.00000
535792349.60493,336028561.75650,43940790.79469,   0.00232,   0.00054,   0.00078,478582944.00000,   0.00046,275144800.00000,   0.00054,   0.00005,   0.00021,  32.00000,   2.00000
535658487.57723,337362229.08206,43667935.11074,   0.00233,   0.00055,   0.00078,478612608.00000,   0.00047,275157376.00000,   0.00055,   0.00006,   0.00022,  64.00000,   2.00000
535518767.00266,338670518.95640,43408816.08472,   0.00234,   0.00056,   0.00078,478608032.00000,   0.00048,275169856.00000,   0.00057,   0.00006,   0.00022,   0.00000,   2.00000
535375192.12878,339978773.77742,43145318.65960,   0.00235,   0.00056,   0.00079,478631008.00000,   0.00050,275182400.00000,   0.00058,   0.00006,   0.00022,  96.00000,   2.00000
535227442.00403,341262720.95273,42890394.72305,   0.00236,   0.00057,   0.00079,478625120.00000,   0.00051,275194816.00000,   0.00059,   0.00006,   0.00023,  64.00000,   2.00000
535078095.69860,342534658.90815,42631783.87303,   0.00237,   0.00058,   0.00079,478639488.00000,   0.00052,275207232.00000,   0.00061,   0.00007,   0.00023,  64.00000,   2.00000
534921745.58001,343804617.98261,42378279.71175,   0.00238,   0.00059,   0.00079,478665120.00000,   0.00053,275219680.00000,   0.00062,   0.00007,   0.00024,  32.00000,   2.00000
534763680.16564,345051911.55564,42128192.90033,   0.00239,   0.00060,   0.00079,478657184.00000,   0.00054,275232064.00000,   0.00063,   0.00007,   0.00024, 160.00000,   2.00000
534603318.31534,346273630.18138,41884799.08517,   0.00240,   0.00061,   0.00079,478665568.00000,   0.00055,275244384.00000,   0.00065,   0.00008,   0.00025, -32.00000,   2.00000
534438572.67026,347497867.69970,41637977.38231,   0.00241,   0.00062,   0.00079,478673568.00000,   0.00056,275256704.00000,   0.00066,   0.00008,   0.00025,  64.00000,   2.00000
534270682.61546,348706355.63566,41395381.90381,   0.00242,   0.00063,   0.00079,478705248.00000,   0.00057,275269056.00000,   0.00067,   0.00008,   0.00026,   0.00000,   2.00000
534100594.43525,349895402.04893,41157435.82282,   0.00243,   0.00063,   0.00080,478682304.00000,   0.00059,275281248.00000,   0.00069,   0.00008,   0.00026, 192.00000,   2.00000
533929002.18369,351069842.02354,40918756.55050,   0.00244,   0.00064,   0.00080,478712480.00000,   0.00060,275293504.00000,   0.00070,   0.00009,   0.00027,  96.00000,   2.00000
533750272.70978,352245406.14738,40686295.39717,   0.00245,   0.00065,   0.00080,478723328.00000,   0.00061,275305760.00000,   0.00071,   0.00009,   0.00027,  64.00000,   2.00000
533570523.18087,353399694.82003,40456892.74399,   0.00246,   0.00066,   0.00080,478715072.00000,   0.00062,275317888.00000,   0.00073,   0.00009,   0.00027,   0.00000,   2.00000
533392639.30834,354531660.66828,40224287.46186,   0.00247,   0.00067,   0.00080,478719904.00000,   0.00063,275330016.00000,   0.00074,   0.00010,   0.00028, 192.00000,   2.00000
533208532.41575,355662570.48405,39996505.59643,   0.00248,   0.00068,   0.00080,478745248.00000,   0.00064,275342144.00000,   0.00075,   0.00010,   0.00028, -64.00000,   2.00000
533020009.26736,356783689.59359,39775912.92732,   0.00249,   0.00069,   0.00080,478746880.00000,   0.00065,275354240.00000,   0.00076,   0.00010,   0.00029,  96.00000,   2.00000
532833393.79203,357882849.29036,39552202.42445,   0.00250,   0.00070,   0.00081,478751648.00000,   0.00066,275366272.00000,   0.00078,   0.00011,   0.00029,   0.00000,   2.00000
532643257.60518,358969862.36956,39334375.78463,   0.00251,   0.00070,   0.00081,478767872.00000,   0.00068,275378336.00000,   0.00079,   0.00011,   0.00030,  32.00000,   2.00000
532448972.27594,360051167.23639,39120452.85837,   0.00252,   0.00071,   0.00081,478753120.00000,   0.00069,275390272.00000,   0.00080,   0.00011,   0.00030,   0.00000,   2.00000
532254037.13145,361118881.47660,38906226.95495,   0.00253,   0.00072,   0.00081,478782432.00000,   0.00070,275402272.00000,   0.00082,   0.00012,   0.00031, 160.00000,   2.00000
532058539.95111,362167144.94997,38695531.84286,   0.00254,   0.00073,   0.00081,478773312.00000,   0.00071,275414144.00000,   0.00083,   0.00012,   0.00031,  96.00000,   2.00000
531857170.16720,363215111.62702,38490178.39620,   0.00255,   0.00074,   0.00081,478798080.00000,   0.00072,275426080.00000,   0.00084,   0.00012,   0.00031, 128.00000,   2.00000
531656909.10628,364244968.63717,38283603.43942,   0.00256,   0.00075,   0.00082,478787488.00000,   0.00073,275437920.00000,   0.00085,   0.00013,   0.00032,  64.00000,   2.00000
531453397.34968,365263464.80169,38083459.31780,   0.00257,   0.00076,   0.00082,478802752.00000,   0.00074,275449760.00000,   0.00087,   0.00013,   0.00032, 256.00000,   2.00000
531249568.26548,366263337.83719,37887146.87865,   0.00258,   0.00076,   0.00082,478793024.00000,   0.00075,275461536.00000,   0.00088,   0.00013,   0.00033, 224.00000,   2.00000
531039924.33738,367263273.20815,37696573.65682,   0.00259,   0.00077,   0.00082,478817312.00000,   0.00076,275473312.00000,   0.00089,   0.00014,   0.00033, 192.00000,   2.00000
530831204.94885,368245616.25874,37505020.11922,   0.00260,   0.00078,   0.00082,478806048.00000,   0.00077,275484992.00000,   0.00090,   0.00014,   0.00033,   0.00000,   2.00000
530619667.05764,369217241.25657,37320261.96396,   0.00261,   0.00079,   0.00082,478820672.00000,   0.00078,275496704.00000,   0.00092,   0.00014,   0.00034,   0.00000,   2.00000
530404994.29859,370181768.96689,37138722.01161,   0.00262,   0.00080,   0.00083,478819552.00000,   0.00080,275508320.00000,   0.00093,   0.00015,   0.00034, -64.00000,   2.00000
530191759.30107,371125668.61290,36959979.09859,   0.00263,   0.00081,   0.00083,478823360.00000,   0.00081,275519936.00000,   0.00094,   0.00015,   0.00035, -64.00000,   2.00000
529975651.46916,372062906.52851,36784531.17440,   0.00264,   0.00082,   0.00083,478821984.00000,   0.00082,275531456.00000,   0.00095,   0.00016,   0.00035,  32.00000,   2.00000
529756801.09694,372989742.96963,36616040.83814,   0.00265,   0.00082,   0.00083,478836128.00000,   0.00083,275543008.00000,   0.00096,   0.00016,   0.00035, 288.00000,   2.00000
529536255.67642,373906863.82442,36449534.18342,   0.00266,   0.00083,   0.00083,478848960.00000,   0.00084,275554560.00000,   0.00098,   0.00016,   0.00036, 224.00000,   2.00000
529311643.96244,374820700.89673,36287578.89055,   0.00267,   0.00084,   0.00083,478832704.00000,   0.00085,275565984.00000,   0.00099,   0.00017,   0.00036, 160.00000,   2.00000
529090394.01173,375711490.02954,36127135.85975,   0.00268,   0.00085,   0.00084,478850048.00000,   0.00086,275577440.00000,   0.00100,   0.00017,   0.00037,  96.00000,   2.00000
528864959.81585,376595136.17338,35974769.21011,   0.00268,   0.00086,   0.00084,478849152.00000,   0.00087,275588832.00000,   0.00101,   0.00017,   0.00037,  64.00000,   2.00000
528641798.98293,377463311.57959,35821327.88956,   0.00269,   0.00087,   0.00084,478836384.00000,   0.00088,275600128.00000,   0.00102,   0.00018,   0.00037, 160.00000,   2.00000
528412951.51038,378331973.09285,35673736.57455,   0.00270,   0.00087,   0.00084,478859264.00000,   0.00089,275611456.00000,   0.00104,   0.00018,   0.00038, 128.00000,   2.00000
528185099.79316,379184436.18256,35529799.20147,   0.00271,   0.00088,   0.00084,478847360.00000,   0.00090,275622688.00000,   0.00105,   0.00019,   0.00038, 192.00000,   2.00000
527956427.17418,380027994.18315,35387349.54132,   0.00272,   0.00089,   0.00084,478859488.00000,   0.00091,275633920.00000,   0.00106,   0.00019,   0.00038, 128.00000,   2.00000
527727647.07661,380854857.72048,35253239.79251,   0.00273,   0.00090,   0.00085,478848544.00000,   0.00092,275645088.00000,   0.00107,   0.00019,   0.00039, 128.00000,   2.00000
527499669.60175,381674018.55448,35115409.19726,   0.00274,   0.00091,   0.00085,478859232.00000,   0.00093,275656224.00000,   0.00108,   0.00020,   0.00039, 128.00000,   2.00000
527268411.98922,382487084.85882,34984853.90564,   0.00275,   0.00092,   0.00085,478858048.00000,   0.00094,275667328.00000,   0.00110,   0.00020,   0.00039, 160.00000,   2.00000
527035169.52032,383294975.37100,34856468.60221,   0.00276,   0.00092,   0.00085,478855648.00000,   0.00095,275678368.00000,   0.00111,   0.00021,   0.00040,  96.00000,   2.00000
526803906.97610,384083538.07742,34734705.42195,   0.00277,   0.00093,   0.00085,478858720.00000,   0.00096,275689376.00000,   0.00112,   0.00021,   0.00040, 128.00000,   2.00000
526573632.25806,384864721.31524,34608737.15682,   0.00277,   0.00094,   0.00086,478869536.00000,   0.00097,275700352.00000,   0.00113,   0.00022,   0.00041,  64.00000,   2.00000
526340473.89296,385640429.03076,34489582.38467,   0.00278,   0.00095,   0.00086,478868192.00000,   0.00098,275711296.00000,   0.00114,   0.00022,   0.00041,  64.00000,   2.00000
526109247.22208,386401646.87229,34372994.45022,   0.00279,   0.00096,   0.00086,478855808.00000,   0.00099,275722176.00000,   0.00115,   0.00022,   0.00041, 128.00000,   2.00000
525877908.88503,387154994.78305,34256896.42457,   0.00280,   0.00096,   0.00086,478867808.00000,   0.00100,275733024.00000,   0.00116,   0.00023,   0.00042, 192.00000,   2.00000
525644858.84291,387904074.59197,34142411.27162,   0.00281,   0.00097,   0.00086,478865376.00000,   0.00101,275743808.00000,   0.00117,   0.00023,   0.00042,  96.00000,   2.00000
525414470.66637,388634979.23978,34034100.34511,   0.00282,   0.00098,   0.00086,478868192.00000,   0.00102,275754560.00000,   0.00119,   0.00024,   0.00042, 128.00000,   2.00000
525182458.71318,389362012.87642,33927280.68516,   0.00283,   0.00099,   0.00087,478865888.00000,   0.00103,275765280.00000,   0.00120,   0.00024,   0.00043, 160.00000,   2.00000
524950115.72864,390086202.82608,33816994.71670,   0.00284,   0.00100,   0.00087,478862304.00000,   0.00104,275775936.00000,   0.00121,   0.00025,   0.00043,  32.00000,   2.00000
524719298.71890,390791840.34287,33717737.16479,   0.00284,   0.00100,   0.00087,478866176.00000,   0.00105,275786560.00000,   0.00122,   0.00025,   0.00043, 192.00000,   2.00000
524488076.58979,391494944.17430,33614934.29764,   0.00285,   0.00101,   0.00087,478862688.00000,   0.00106,275797120.00000,   0.00123,   0.00025,   0.00044,  96.00000,   2.00000
524260714.49026,392181491.70622,33513233.19783,   0.00286,   0.00102,   0.00087,478864608.00000,   0.00107,275807648.00000,   0.00124,   0.00026,   0.00044, 160.00000,   2.00000
524030671.03857,392864252.38302,33417908.17802,   0.00287,   0.00103,   0.00088,478862944.00000,   0.00108,275818144.00000,   0.00125,   0.00026,   0.00044,  64.00000,   2.00000
523801014.00784,393540563.51649,33322828.30930,   0.00288,   0.00104,   0.00088,478874528.00000,   0.00109,275828608.00000,   0.00126,   0.00027,   0.00045,  64.00000,   2.00000
523569823.63757,394214143.91188,33229152.48506,   0.00289,   0.00104,   0.00088,478871840.00000,   0.00110,275839040.00000,   0.00127,   0.00027,   0.00045,  96.00000,   2.00000
523339632.96688,394874689.36368,33142650.25112,   0.00290,   0.00105,   0.00088,478860384.00000,   0.00111,275849376.00000,   0.00128,   0.00028,   0.00045,  64.00000,   2.00000
523114770.46442,395520493.76347,33052266.84730,   0.00290,   0.00106,   0.00088,478860704.00000,   0.00112,275859680.00000,   0.00129,   0.00028,   0.00046, 192.00000,   2.00000
522883273.81140,396172661.74808,32967410.70979,   0.00291,   0.00107,   0.00089,478869344.00000,   0.00113,275869952.00000,   0.00131,   0.00028,   0.00046, -32.00000,   2.00000
522657712.59938,396803682.92051,32885604.08748,   0.00292,   0.00108,   0.00089,478846336.00000,   0.00114,275880128.00000,   0.00132,   0.00029,   0.00046,  96.00000,   2.00000
522429027.45155,397438712.77555,32803245.39212,   0.00293,   0.00108,   0.00089,478867904.00000,   0.00115,275890304.00000,   0.00133,   0.00029,   0.00046,  96.00000,   2.00000
522202290.67143,398062267.43207,32723112.38294,   0.00294,   0.00109,   0.00089,478855136.00000,   0.00116,275900416.00000,   0.00134,   0.00030,   0.00047,  96.00000,   2.00000
521974976.13160,398679644.80898,32648221.65182,   0.00294,   0.00110,   0.00090,478867328.00000,   0.00117,275910528.00000,   0.00135,   0.00030,   0.00047, 160.00000,   2.00000
521751012.19194,399286919.96471,32570610.74484,   0.00295,   0.00111,   0.00090,478853376.00000,   0.00118,275920576.00000,   0.00136,   0.00031,   0.00047, 128.00000,   2.00000
521524245.44019,399891935.87101,32499382.39521,   0.00296,   0.00111,   0.00090,478851520.00000,   0.00119,275930528.00000,   0.00137,   0.00031,   0.00048, 256.00000,   2.00000
521301651.58356,400482449.65672,32429250.99813,   0.00297,   0.00112,   0.00090,478852448.00000,   0.00119,275940480.00000,   0.00138,   0.00032,   0.00048, 160.00000,   2.00000
521077341.13872,401071787.65072,32360528.57278,   0.00298,   0.00113,   0.00090,478849568.00000,   0.00120,275950368.00000,   0.00139,   0.00032,   0.00048,  32.00000,   2.00000
520852590.33627,401655582.03625,32297068.51271,   0.00298,   0.00114,   0.00091,478861376.00000,   0.00121,275960256.00000,   0.00140,   0.00032,   0.00049,   0.00000,   2.00000
520629909.62228,402229095.90136,32235819.94771,   0.00299,   0.00114,   0.00091,478848256.00000,   0.00122,275970048.00000,   0.00141,   0.00033,   0.00049,  32.00000,   2.00000
520406710.47437,402802677.60774,32171013.34507,   0.00300,   0.00115,   0.00091,478844192.00000,   0.00123,275979808.00000,   0.00142,   0.00033,   0.00049,  32.00000,   2.00000
520184637.97159,403365576.99779,32113419.01125,   0.00301,   0.00116,   0.00091,478831744.00000,   0.00124,275989472.00000,   0.00143,   0.00034,   0.00050,  32.00000,   2.00000
519962029.11854,403923286.17565,32061060.48108,   0.00302,   0.00117,   0.00092,478843552.00000,   0.00125,275999136.00000,   0.00144,   0.00034,   0.00050, 288.00000,   2.00000
519740797.60790,404477288.06350,32003982.73050,   0.00302,   0.00117,   0.00092,478853408.00000,   0.00126,276008800.00000,   0.00145,   0.00035,   0.00050, 192.00000,   2.00000
519518372.42101,405024833.35975,31955199.82332,   0.00303,   0.00118,   0.00092,478826880.00000,   0.00127,276018304.00000,   0.00146,   0.00035,   0.00050,  64.00000,   2.00000
519301642.38502,405560083.46702,31902548.93021,   0.00304,   0.00119,   0.00092,478826048.00000,   0.00128,276027808.00000,   0.00147,   0.00036,   0.00051, 160.00000,   2.00000
519081926.43333,406094330.15635,31856239.59616,   0.00305,   0.00120,   0.00092,478823776.00000,   0.00128,276037248.00000,   0.00148,   0.00036,   0.00051, 128.00000,   2.00000
518862745.49320,406624640.79098,31810186.50183,   0.00305,   0.00120,   0.00093,478834368.00000,   0.00129,276046688.00000,   0.00149,   0.00036,   0.00051,  64.00000,   2.00000
518644593.72963,407145132.23330,31771277.16997,   0.00306,   0.00121,   0.00093,478821472.00000,   0.00130,276056032.00000,   0.00149,   0.00037,   0.00052,   0.00000,   2.00000
518425707.63836,407666612.77822,31728728.54665,   0.00307,   0.00122,   0.00093,478816928.00000,   0.00131,276065344.00000,   0.00150,   0.00037,   0.00052,  32.00000,   2.00000
518210329.43961,408174680.63752,31692226.67564,   0.00308,   0.00122,   0.00093,478817856.00000,   0.00132,276074624.00000,   0.00151,   0.00038,   0.00052, 128.00000,   2.00000
517994069.06155,408683861.90673,31652072.56625,   0.00308,   0.00123,   0.00094,478813248.00000,   0.00133,276083840.00000,   0.00152,   0.00038,   0.00052,   0.00000,   2.00000
517778865.15136,409183751.26659,31619048.97745,   0.00309,   0.00124,   0.00094,478800224.00000,   0.00134,276092992.00000,   0.00153,   0.00039,   0.00053,  32.00000,   2.00000
517563075.46520,409679411.46304,31591194.08008,   0.00310,   0.00125,   0.00094,478811232.00000,   0.00134,276102112.00000,   0.00154,   0.00039,   0.00053,  32.00000,   2.00000
517350652.93349,410167770.64578,31560487.13739,   0.00310,   0.00125,   0.00094,478796000.00000,   0.00135,276111168.00000,   0.00155,   0.00040,   0.00053,  96.00000,   2.00000
517136175.22530,410656782.50722,31531061.63974,   0.00311,   0.00126,   0.00095,478792128.00000,   0.00136,276120160.00000,   0.00156,   0.00040,   0.00054, 160.00000,   2.00000
516922800.53374,411137001.17281,31508713.92298,   0.00312,   0.00127,   0.00095,478778784.00000,   0.00137,276129088.00000,   0.00157,   0.00040,   0.00054,  64.00000,   2.00000
516709731.87179,411613986.30206,31486508.67756,   0.00313,   0.00127,   0.00095,478788736.00000,   0.00138,276137984.00000,   0.00158,   0.00041,   0.00054,   0.00000,   2.00000
516501301.47520,412079199.57065,31465294.91983,   0.00313,   0.00128,   0.00095,478788064.00000,   0.00139,276146880.00000,   0.00159,   0.00041,   0.00054,  32.00000,   2.00000
516288485.27800,412549578.17025,31446403.39430,   0.00314,   0.00129,   0.00096,478769984.00000,   0.00139,276155648.00000,   0.00159,   0.00042,   0.00055,   0.00000,   2.00000
516080191.95446,413008246.74902,31428475.32757,   0.00315,   0.00129,   0.00096,478769120.00000,   0.00140,276164416.00000,   0.00160,   0.00042,   0.00055,  32.00000,   2.00000
515868884.72461,413467368.07898,31416729.11197,   0.00315,   0.00130,   0.00096,478765888.00000,   0.00141,276173120.00000,   0.00161,   0.00043,   0.00055,  64.00000,   2.00000
515659428.60915,413918844.00969,31406969.39826,   0.00316,   0.00131,   0.00096,478751008.00000,   0.00142,276181728.00000,   0.00162,   0.00043,   0.00055,   0.00000,   2.00000
515451777.91202,414368601.04876,31392346.25861,   0.00317,   0.00132,   0.00097,478759456.00000,   0.00143,276190336.00000,   0.00163,   0.00044,   0.00056,  64.00000,   2.00000
515244998.70869,414810108.34275,31384695.12815,   0.00317,   0.00132,   0.00097,478745440.00000,   0.00143,276198848.00000,   0.00164,   0.00044,   0.00056, 128.00000,   2.00000
515037485.67227,415248019.89974,31382063.15818,   0.00318,   0.00133,   0.00097,478755744.00000,   0.00144,276207392.00000,   0.00165,   0.00044,   0.00056,  64.00000,   2.00000
514830834.76662,415683826.43232,31377503.88919,   0.00319,   0.00134,   0.00097,478725600.00000,   0.00145,276215776.00000,   0.00165,   0.00045,   0.00057, 160.00000,   2.00000
514624410.45244,416116798.65220,31372968.62481,   0.00319,   0.00134,   0.00098,478734880.00000,   0.00146,276224192.00000,   0.00166,   0.00045,   0.00057,   0.00000,   2.00000
514421620.15499,416537738.68416,31374275.33066,   0.00320,   0.00135,   0.00098,478734304.00000,   0.00147,276232544.00000,   0.00167,   0.00046,   0.00057, 128.00000,   2.00000
514214238.02002,416964323.57883,31377738.08183,   0.00321,   0.00136,   0.00098,478715680.00000,   0.00147,276240832.00000,   0.00168,   0.00046,   0.00057,  32.00000,   2.00000
514012531.55343,417380437.63032,31377052.49069,   0.00321,   0.00136,   0.00098,478712864.00000,   0.00148,276249056.00000,   0.00169,   0.00047,   0.00058,  32.00000,   2.00000
513810661.60789,417787719.83698,31388207.39259,   0.00322,   0.00137,   0.00099,478699104.00000,   0.00149,276257184.00000,   0.00170,   0.00047,   0.00058, -32.00000,   2.00000
513610606.73851,418193336.13378,31394350.42735,   0.00323,   0.00137,   0.00099,478706944.00000,   0.00150,276265344.00000,   0.00170,   0.00047,   0.00058,  96.00000,   2.00000
513409790.66125,418595790.86003,31403425.21397,   0.00323,   0.00138,   0.00099,478677312.00000,   0.00150,276273344.00000,   0.00171,   0.00048,   0.00058,  64.00000,   2.00000
513208445.11641,418994632.51302,31417410.91712,   0.00324,   0.00139,   0.00099,478686752.00000,   0.00151,276281376.00000,   0.00172,   0.00048,   0.00059, -64.00000,   2.00000
513012968.43654,419383013.10893,31427189.85538,   0.00324,   0.00139,   0.00100,478683296.00000,   0.00152,276289344.00000,   0.00173,   0.00049,   0.00059, -64.00000,   2.00000
512811839.39114,419776115.39323,31444031.22948,   0.00325,   0.00140,   0.00100,478665152.00000,   0.00153,276297248.00000,   0.00174,   0.00049,   0.00059,  32.00000,   2.00000
512615458.47508,420157745.68070,31461610.91538,   0.00326,   0.00141,   0.00100,478662688.00000,   0.00153,276305088.00000,   0.00174,   0.00049,   0.00059, 160.00000,   2.00000
512421008.03857,420531958.76670,31480989.17535,   0.00326,   0.00141,   0.00100,478646400.00000,   0.00154,276312832.00000,   0.00175,   0.00050,   0.00059,   0.00000,   2.00000
512227446.68760,420903334.41706,31500275.62480,   0.00327,   0.00142,   0.00101,478654304.00000,   0.00155,276320608.00000,   0.00176,   0.00050,   0.00060,  32.00000,   2.00000
512030750.33672,421274910.56476,31525491.52686,   0.00327,   0.00142,   0.00101,478649568.00000,   0.00156,276328320.00000,   0.00177,   0.00051,   0.00060, -32.00000,   2.00000
511837337.71729,421639962.15957,31547524.39031,   0.00328,   0.00143,   0.00101,478631840.00000,   0.00156,276335968.00000,   0.00177,   0.00051,   0.00060, 224.00000,   2.00000
511645111.48322,421996857.48266,31576332.93625,   0.00329,   0.00144,   0.00101,478616160.00000,   0.00157,276343520.00000,   0.00178,   0.00051,   0.00060,  64.00000,   2.00000
511456140.23776,422347256.13920,31601946.71070,   0.00329,   0.00144,   0.00102,478598176.00000,   0.00158,276350976.00000,   0.00179,   0.00052,   0.00061,  32.00000,   2.00000
511266906.74626,422693643.72900,31632404.55656,   0.00330,   0.00145,   0.00102,478606880.00000,   0.00158,276358464.00000,   0.00180,   0.00052,   0.00061,  96.00000,   2.00000
511075743.05051,423041067.39154,31663792.28686,   0.00330,   0.00146,   0.00102,478600768.00000,   0.00159,276365888.00000,   0.00180,   0.00053,   0.00061, 192.00000,   2.00000
510893789.28777,423368672.83373,31696729.26154,   0.00331,   0.00146,   0.00103,478586560.00000,   0.00160,276373216.00000,   0.00181,   0.00053,   0.00061,  32.00000,   2.00000
510705636.94164,423705669.21056,31729735.72705,   0.00332,   0.00147,   0.00103,478591168.00000,   0.00160,276380576.00000,   0.00182,   0.00054,   0.00062,  32.00000,   2.00000
510522979.04751,424026516.80433,31770346.45445,   0.00332,   0.00147,   0.00103,478563872.00000,   0.00161,276387776.00000,   0.00182,   0.00054,   0.00062,  32.00000,   2.00000
510339482.49844,424349539.07761,31806885.02390,   0.00333,   0.00148,   0.00103,478556544.00000,   0.00162,276394976.00000,   0.00183,   0.00054,   0.00062, 160.00000,   2.00000
510157044.59931,424664723.51776,31850151.02601,   0.00333,   0.00148,   0.00104,478540224.00000,   0.00162,276402048.00000,   0.00184,   0.00055,   0.00062,  96.00000,   2.00000
509975433.44378,424976986.61441,31893218.05806,   0.00334,   0.00149,   0.00104,478547520.00000,   0.00163,276409152.00000,   0.00185,   0.00055,   0.00062,  32.00000,   2.00000
509797225.09520,425283548.58696,31933064.50231,   0.00334,   0.00150,   0.00104,478528896.00000,   0.00164,276416160.00000,   0.00185,   0.00055,   0.00063, -64.00000,   2.00000
509618570.17082,425586362.24711,31977680.90681,   0.00335,   0.00150,   0.00104,478537120.00000,   0.00164,276423168.00000,   0.00186,   0.00056,   0.00063,-128.00000,   2.00000
509443802.19419,425879349.10673,32025998.95641,   0.00335,   0.00151,   0.00105,478494816.00000,   0.00165,276430016.00000,   0.00187,   0.00056,   0.00063,  32.00000,   2.00000
509264162.04093,426176815.11982,32078168.39837,   0.00336,   0.00151,   0.00105,478514080.00000,   0.00166,276436896.00000,   0.00187,   0.00057,   0.00063,  96.00000,   2.00000
509092106.61446,426461091.67882,32127942.44169,   0.00336,   0.00152,   0.00105,478484256.00000,   0.00166,276443648.00000,   0.00188,   0.00057,   0.00064,  96.00000,   2.00000
508920805.99463,426743155.61696,32177475.58348,   0.00337,   0.00152,   0.00106,478491360.00000,   0.00167,276450400.00000,   0.00189,   0.00057,   0.00064,   0.00000,   2.00000
508750425.88954,427018551.59290,32233681.34715,   0.00337,   0.00153,   0.00106,478474592.00000,   0.00168,276457088.00000,   0.00189,   0.00058,   0.00064, -64.00000,   2.00000
508578807.53651,427297191.79038,32285717.81991,   0.00338,   0.00153,   0.00106,478466848.00000,   0.00168,276463712.00000,   0.00190,   0.00058,   0.00064, -32.00000,   2.00000
508407964.51441,427569353.41867,32344406.09943,   0.00338,   0.00154,   0.00106,478450016.00000,   0.00169,276470272.00000,   0.00190,   0.00059,   0.00064,   0.00000,   2.00000
508242249.57543,427831916.69769,32403688.14963,   0.00339,   0.00154,   0.00107,478445632.00000,   0.00169,276476768.00000,   0.00191,   0.00059,   0.00065,  32.00000,   2.00000
508070918.38005,428101499.18508,32464821.34562,   0.00339,   0.00155,   0.00107,478425216.00000,   0.00170,276483200.00000,   0.00192,   0.00059,   0.00065,  64.00000,   2.00000
507907633.43984,428357214.29246,32525440.02517,   0.00340,   0.00156,   0.00107,478434432.00000,   0.00171,276489632.00000,   0.00192,   0.00060,   0.00065,   0.00000,   2.00000
507743072.59485,428612360.48127,32588798.02354,   0.00340,   0.00156,   0.00108,478402688.00000,   0.00171,276495936.00000,   0.00193,   0.00060,   0.00065,  64.00000,   2.00000
507579040.87598,428866124.84474,32651822.09868,   0.00341,   0.00157,   0.00108,478409408.00000,   0.00172,276502240.00000,   0.00194,   0.00060,   0.00065,  32.00000,   2.00000
507416742.53013,429115098.35504,32716490.06490,   0.00341,   0.00157,   0.00108,478391104.00000,   0.00172,276508448.00000,   0.00194,   0.00061,   0.00066,  32.00000,   2.00000
507254983.84496,429358427.95787,32787763.59930,   0.00342,   0.00158,   0.00108,478374016.00000,   0.00173,276514592.00000,   0.00195,   0.00061,   0.00066, -64.00000,   2.00000
507096157.71707,429598211.17465,32855702.98553,   0.00342,   0.00158,   0.00109,478354560.00000,   0.00174,276520640.00000,   0.00195,   0.00061,   0.00066,  32.00000,   2.00000
506936559.39778,429835918.89128,32928245.31170,   0.00343,   0.00159,   0.00109,478362048.00000,   0.00174,276526720.00000,   0.00196,   0.00062,   0.00066,  32.00000,   2.00000
506779562.32878,430069990.90280,32997433.82066,   0.00343,   0.00159,   0.00109,478342496.00000,   0.00175,276532672.00000,   0.00196,   0.00062,   0.00066, -64.00000,   2.00000
506618824.55102,430306697.86737,33072335.16737,   0.00344,   0.00160,   0.00110,478336032.00000,   0.00175,276538624.00000,   0.00197,   0.00063,   0.00067,   0.00000,   2.00000
506462919.72315,430534699.84565,33147765.92141,   0.00344,   0.00160,   0.00110,478331232.00000,   0.00176,276544512.00000,   0.00198,   0.00063,   0.00067, 128.00000,   2.00000
506308372.49776,430758263.57723,33224814.08502,   0.00345,   0.00160,   0.00110,478312672.00000,   0.00176,276550336.00000,   0.00198,   0.00063,   0.00067, -32.00000,   2.00000
506155384.14672,430977629.70252,33303502.07266,   0.00345,   0.00161,   0.00110,478293920.00000,   0.00177,276556064.00000,   0.00199,   0.00064,   0.00067,-160.00000,   2.00000
506002969.18651,431196365.55018,33381817.20984,   0.00345,   0.00161,   0.00111,478299712.00000,   0.00177,276561792.00000,   0.00199,   0.00064,   0.00067,  96.00000,   2.00000
505848604.82106,431415185.69882,33462875.06082,   0.00346,   0.00162,   0.00111,478267552.00000,   0.00178,276567392.00000,   0.00200,   0.00064,   0.00068,  64.00000,   2.00000
505699187.53977,431625651.83646,33544486.23342,   0.00346,   0.00162,   0.00111,478262048.00000,   0.00178,276572960.00000,   0.00200,   0.00065,   0.00068, 160.00000,   2.00000
505549848.66296,431835171.21175,33625688.68258,   0.00347,   0.00163,   0.00112,478267904.00000,   0.00179,276578528.00000,   0.00201,   0.00065,   0.00068,  96.00000,   2.00000
505398837.71509,432045153.73528,33709689.42367,   0.00347,   0.00163,   0.00112,478235264.00000,   0.00179,276583968.00000,   0.00201,   0.00065,   0.00068,   0.00000,   2.00000
505251292.90502,432245634.33105,33799194.34439,   0.00347,   0.00164,   0.00112,478230720.00000,   0.00180,276589376.00000,   0.00202,   0.00066,   0.00068,   0.00000,   2.00000
505106388.37486,432443116.01131,33885406.91082,   0.00348,   0.00164,   0.00112,478210368.00000,   0.00180,276594720.00000,   0.00202,   0.00066,   0.00068,-128.00000,   2.00000
504960702.11035,432639010.64056,33976204.03514,   0.00348,   0.00165,   0.00113,478216992.00000,   0.00181,276600032.00000,   0.00203,   0.00066,   0.00069, -32.00000,   2.00000
504814315.36599,432836333.51739,34064857.49182,   0.00349,   0.00165,   0.00113,478183040.00000,   0.00181,276605216.00000,   0.00203,   0.00066,   0.00069,  64.00000,   2.00000
504671460.57208,433024294.61862,34159041.70315,   0.00349,   0.00165,   0.00113,478178272.00000,   0.00182,276610400.00000,   0.00204,   0.00067,   0.00069,  64.00000,   2.00000
504529965.90674,433212493.07188,34247862.55994,   0.00349,   0.00166,   0.00114,478182592.00000,   0.00182,276615552.00000,   0.00204,   0.00067,   0.00069,  64.00000,   2.00000
504389861.72216,433392587.10002,34345479.92176,   0.00350,   0.00166,   0.00114,478139296.00000,   0.00183,276620544.00000,   0.00205,   0.00067,   0.00069,  64.00000,   2.00000
504250015.12960,433572027.52462,34442706.47161,   0.00350,   0.00167,   0.00114,478144448.00000,   0.00183,276625568.00000,   0.00205,   0.00068,   0.00069,   0.00000,   2.00000
504111509.84282,433747559.21480,34541660.31769,   0.00351,   0.00167,   0.00115,478124736.00000,   0.00184,276630464.00000,   0.00206,   0.00068,   0.00070,  64.00000,   2.00000
503973217.63689,433922408.14463,34640224.61092,   0.00351,   0.00167,   0.00115,478129824.00000,   0.00184,276635392.00000,   0.00206,   0.00068,   0.00070, -32.00000,   2.00000
503834138.19093,434098831.78804,34736737.27181,   0.00351,   0.00168,   0.00115,478095424.00000,   0.00185,276640192.00000,   0.00207,   0.00069,   0.00070,   0.00000,   2.00000
503703130.02555,434258451.38654,34839806.27384,   0.00352,   0.00168,   0.00115,478078784.00000,   0.00185,276644896.00000,   0.00207,   0.00069,   0.00070,   0.00000,   2.00000
503567935.29254,434425104.45697,34941519.23654,   0.00352,   0.00169,   0.00116,478094976.00000,   0.00186,276649664.00000,   0.00208,   0.00069,   0.00070,  64.00000,   2.00000
503434963.52744,434584599.76777,35047146.71984,   0.00352,   0.00169,   0.00116,478050144.00000,   0.00186,276654240.00000,   0.00208,   0.00069,   0.00070, -32.00000,   2.00000
503302402.88638,434743633.65415,35152414.94440,   0.00353,   0.00169,   0.00116,478054784.00000,   0.00186,276658848.00000,   0.00208,   0.00070,   0.00071,  96.00000,   2.00000
503177637.72463,434885730.53022,35264240.14246,   0.00353,   0.00170,   0.00117,478038080.00000,   0.00187,276663360.00000,   0.00209,   0.00070,   0.00071,   0.00000,   2.00000
503043195.66131,435044839.13641,35372102.79993,   0.00353,   0.00170,   0.00117,478025824.00000,   0.00187,276667840.00000,   0.00209,   0.00070,   0.00071, -32.00000,   2.00000
502917840.66744,435188121.41644,35481589.70289,   0.00354,   0.00170,   0.00117,478007840.00000,   0.00188,276672224.00000,   0.00210,   0.00071,   0.00071,  32.00000,   2.00000
502793743.10517,435327690.66774,35592902.75620,   0.00354,   0.00171,   0.00117,477987456.00000,   0.00188,276676544.00000,   0.00210,   0.00071,   0.00071,  32.00000,   2.00000
502669710.00567,435466586.16089,35703842.56786,   0.00354,   0.00171,   0.00118,477991936.00000,   0.00189,276680864.00000,   0.00211,   0.00071,   0.00071, -96.00000,   2.00000
502543862.03600,435606536.61604,35817851.84568,   0.00355,   0.00172,   0.00118,477957888.00000,   0.00189,276685056.00000,   0.00211,   0.00071,   0.00072,  64.00000,   2.00000
502421097.87455,435737047.00336,35937440.15185,   0.00355,   0.00172,   0.00118,477952192.00000,   0.00189,276689216.00000,   0.00211,   0.00072,   0.00072,-128.00000,   2.00000
502304342.35014,435860621.45953,36052734.23076,   0.00355,   0.00172,   0.00119,477943776.00000,   0.00190,276693312.00000,   0.00212,   0.00072,   0.00072,  32.00000,   2.00000
502184386.21966,435988176.62870,36168886.55430,   0.00356,   0.00172,   0.00119,477934528.00000,   0.00190,276697376.00000,   0.00212,   0.00072,   0.00072, -64.00000,   2.00000
502068890.09801,436103568.88269,36292902.07646,   0.00356,   0.00173,   0.00119,477903712.00000,   0.00190,276701344.00000,   0.00212,   0.00072,   0.00072,  32.00000,   2.00000
501951229.78296,436223871.02875,36412808.83111,   0.00356,   0.00173,   0.00120,477893248.00000,   0.00191,276705248.00000,   0.00213,   0.00073,   0.00072,  64.00000,   2.00000
501838244.02007,436336195.00283,36533403.95089,   0.00356,   0.00173,   0.00120,477885728.00000,   0.00191,276709120.00000,   0.00213,   0.00073,   0.00072,  32.00000,   2.00000
501720723.20080,436451456.19378,36659827.95192,   0.00357,   0.00174,   0.00120,477877536.00000,   0.00192,276712960.00000,   0.00214,   0.00073,   0.00073,  32.00000,   2.00000
501609988.31994,436556653.93549,36784244.30247,   0.00357,   0.00174,   0.00120,477844064.00000,   0.00192,276716640.00000,   0.00214,   0.00073,   0.00073, -64.00000,   2.00000
501499396.07817,436661410.65021,36908320.36551,   0.00357,   0.00174,   0.00121,477847904.00000,   0.00192,276720352.00000,   0.00214,   0.00073,   0.00073, -96.00000,   2.00000
501393254.01572,436754213.95002,37040347.10755,   0.00358,   0.00175,   0.00121,477816640.00000,   0.00193,276723968.00000,   0.00215,   0.00074,   0.00073, -64.00000,   2.00000
501284843.36113,436851994.83456,37168302.71791,   0.00358,   0.00175,   0.00121,477805760.00000,   0.00193,276727520.00000,   0.00215,   0.00074,   0.00073, -64.00000,   2.00000
501176570.30547,436945512.47122,37303197.78129,   0.00358,   0.00175,   0.00122,477785728.00000,   0.00193,276730976.00000,   0.00215,   0.00074,   0.00073,  64.00000,   2.00000
501069345.02780,437039416.35536,37432772.11320,   0.00358,   0.00175,   0.00122,477788352.00000,   0.00194,276734432.00000,   0.00216,   0.00074,   0.00073,  32.00000,   2.00000
500971297.63347,437118072.07575,37564154.52042,   0.00359,   0.00176,   0.00122,477768896.00000,   0.00194,276737824.00000,   0.00216,   0.00075,   0.00073, 128.00000,   2.00000
500864952.95816,437204125.08768,37702659.49674,   0.00359,   0.00176,   0.00123,477746912.00000,   0.00194,276741152.00000,   0.00216,   0.00075,   0.00074,  32.00000,   2.00000
500768914.35034,437275942.98693,37838025.86160,   0.00359,   0.00176,   0.00123,477726304.00000,   0.00194,276744384.00000,   0.00217,   0.00075,   0.00074,   0.00000,   2.00000
500672961.32244,437347433.34852,37973072.50552,   0.00359,   0.00176,   0.00123,477729504.00000,   0.00195,276747584.00000,   0.00217,   0.00075,   0.00074,   0.00000,   2.00000
500573304.32137,437419037.62659,38116369.00195,   0.00360,   0.00177,   0.00123,477695936.00000,   0.00195,276750720.00000,   0.00217,   0.00075,   0.00074,  32.00000,   2.00000
500479348.72268,437483841.74450,38255467.37435,   0.00360,   0.00177,   0.00124,477686624.00000,   0.00195,276753760.00000,   0.00217,   0.00076,   0.00074,  32.00000,   2.00000
500389852.52573,437540822.17011,38395334.31056,   0.00360,   0.00177,   0.00124,477678336.00000,   0.00196,276756800.00000,   0.00218,   0.00076,   0.00074, -64.00000,   2.00000
500295636.84003,437600928.46239,38541120.48897,   0.00360,   0.00177,   0.00124,477669216.00000,   0.00196,276759808.00000,   0.00218,   0.00076,   0.00074, -32.00000,   2.00000
500208247.14757,437651488.08234,38685132.06165,   0.00360,   0.00178,   0.00125,477634880.00000,   0.00196,276762656.00000,   0.00218,   0.00076,   0.00074, 128.00000,   2.00000
500117203.47628,437706124.94479,38830118.40953,   0.00361,   0.00178,   0.00125,477624544.00000,   0.00196,276765504.00000,   0.00218,   0.00076,   0.00074,  32.00000,   2.00000
500029233.61996,437751820.84041,38980836.50273,   0.00361,   0.00178,   0.00125,477617248.00000,   0.00197,276768288.00000,   0.00219,   0.00076,   0.00075, -32.00000,   2.00000
499948132.45435,437788099.90188,39129839.25821,   0.00361,   0.00178,   0.00126,477582624.00000,   0.00197,276770944.00000,   0.00219,   0.00077,   0.00075,  32.00000,   2.00000
499866888.54804,437824009.13495,39278534.02603,   0.00361,   0.00178,   0.00126,477585600.00000,   0.00197,276773632.00000,   0.00219,   0.00077,   0.00075,   0.00000,   2.00000
499782159.53499,437864212.45593,39428251.56772,   0.00362,   0.00179,   0.00126,477574912.00000,   0.00197,276776256.00000,   0.00219,   0.00077,   0.00075,   0.00000,   2.00000
499702732.92196,437893724.31241,39581230.79030,   0.00362,   0.00179,   0.00126,477541536.00000,   0.00198,276778752.00000,   0.00220,   0.00077,   0.00075, 128.00000,   2.00000
499627681.32936,437915511.24448,39735043.66901,   0.00362,   0.00179,   0.00127,477532736.00000,   0.00198,276781248.00000,   0.00220,   0.00077,   0.00075,  96.00000,   2.00000
499553426.95709,437934072.03546,39891023.56351,   0.00362,   0.00179,   0.00127,477510464.00000,   0.00198,276783616.00000,   0.00220,   0.00077,   0.00075,  32.00000,   2.00000
499475609.62489,437956936.71104,40048058.83110,   0.00362,   0.00179,   0.00127,477499616.00000,   0.00198,276785984.00000,   0.00220,   0.00078,   0.00075,   0.00000,   2.00000
499406633.79926,437964688.39431,40207092.23152,   0.00362,   0.00180,   0.00128,477479296.00000,   0.00199,276788256.00000,   0.00221,   0.00078,   0.00075,  32.00000,   2.00000
499333971.42171,437976676.23885,40367189.22000,   0.00363,   0.00180,   0.00128,477468288.00000,   0.00199,276790496.00000,   0.00221,   0.00078,   0.00075, -32.00000,   2.00000
499265817.61856,437981120.17086,40528174.03767,   0.00363,   0.00180,   0.00128,477459232.00000,   0.00199,276792672.00000,   0.00221,   0.00078,   0.00076,  64.00000,   2.00000
499198206.45139,437982199.56346,40691370.29126,   0.00363,   0.00180,   0.00129,477436800.00000,   0.00199,276794784.00000,   0.00221,   0.00078,   0.00076, -96.00000,   2.00000
499131499.46007,437980236.25576,40856828.94064,   0.00363,   0.00180,   0.00129,477414272.00000,   0.00199,276796832.00000,   0.00221,   0.00078,   0.00076,   0.00000,   2.00000
499069207.81198,437970691.62260,41023195.98865,   0.00363,   0.00180,   0.00129,477404896.00000,   0.00200,276798816.00000,   0.00222,   0.00078,   0.00076, 160.00000,   2.00000
499008843.29133,437959013.97271,41186891.41538,   0.00363,   0.00180,   0.00129,477381120.00000,   0.00200,276800736.00000,   0.00222,   0.00078,   0.00076, -64.00000,   2.00000
498951590.56763,437938666.97258,41356458.44107,   0.00364,   0.00181,   0.00130,477372992.00000,   0.00200,276802624.00000,   0.00222,   0.00079,   0.00076,  32.00000,   2.00000
498894890.33143,437915039.09905,41528314.75983,   0.00364,   0.00181,   0.00130,477350304.00000,   0.00200,276804416.00000,   0.00222,   0.00079,   0.00076, -64.00000,   2.00000
498840389.05045,437889548.66566,41697574.94267,   0.00364,   0.00181,   0.00130,477325984.00000,   0.00200,276806112.00000,   0.00222,   0.00079,   0.00076,  96.00000,   2.00000
498788709.62043,437855171.17380,41872708.11956,   0.00364,   0.00181,   0.00131,477317920.00000,   0.00200,276807808.00000,   0.00222,   0.00079,   0.00076,  32.00000,   2.00000
498738227.05333,437821759.59265,42042674.13194,   0.00364,   0.00181,   0.00131,477318336.00000,   0.00201,276809472.00000,   0.00223,   0.00079,   0.00076, -64.00000,   2.00000
498687823.65497,437781036.75400,42222527.03596,   0.00364,   0.00181,   0.00131,477271808.00000,   0.00201,276811008.00000,   0.00223,   0.00079,   0.00076, -64.00000,   2.00000
498638713.49112,437741373.00250,42397237.00876,   0.00364,   0.00181,   0.00131,477272288.00000,   0.00201,276812512.00000,   0.00223,   0.00079,   0.00076, -64.00000,   2.00000
498598410.66444,437686740.23630,42574150.42667,   0.00364,   0.00181,   0.00132,477251072.00000,   0.00201,276813952.00000,   0.00223,   0.00079,   0.00076,  32.00000,   2.00000
498558559.06235,437628810.11985,42753463.57257,   0.00365,   0.00181,   0.00132,477228064.00000,   0.00201,276815296.00000,   0.00223,   0.00079,   0.00076,  96.00000,   2.00000
498514810.15052,437575095.15898,42933987.14004,   0.00365,   0.00181,   0.00132,477216096.00000,   0.00201,276816640.00000,   0.00223,   0.00079,   0.00077, -32.00000,   2.00000
498475371.87284,437513810.78939,43115535.79522,   0.00365,   0.00181,   0.00133,477206240.00000,   0.00201,276817920.00000,   0.00223,   0.00079,   0.00077, -64.00000,   2.00000
498444575.63429,437437441.85993,43299335.03473,   0.00365,   0.00181,   0.00133,477184832.00000,   0.00202,276819104.00000,   0.00223,   0.00080,   0.00077,   0.00000,   2.00000
498406433.28707,437369930.48741,43485840.22675,   0.00365,   0.00181,   0.00133,477159456.00000,   0.00202,276820224.00000,   0.00224,   0.00080,   0.00077, 128.00000,   2.00000
498376517.15359,437286981.23787,43674591.36560,   0.00365,   0.00181,   0.00133,477138272.00000,   0.00202,276821280.00000,   0.00224,   0.00080,   0.00077, -32.00000,   2.00000
498346619.31922,437204049.23433,43863189.46161,   0.00365,   0.00182,   0.00134,477139360.00000,   0.00202,276822336.00000,   0.00224,   0.00080,   0.00077,  64.00000,   2.00000
498318645.49187,437119104.09496,44049393.29589,   0.00365,   0.00182,   0.00134,477114496.00000,   0.00202,276823296.00000,   0.00224,   0.00080,   0.00077,  64.00000,   2.00000
498296787.04239,437016925.72550,44242743.64117,   0.00365,   0.00182,   0.00134,477094240.00000,   0.00202,276824192.00000,   0.00224,   0.00080,   0.00077,-896.00000,   1.00000
498272000.91599,436919826.95320,44437506.08668,   0.00366,   0.00182,   0.00135,477081120.00000,   0.00202,276825024.00000,   0.00224,   0.00080,   0.00077,-736.00000,   1.00000
498249117.03750,436820697.46849,44629933.44353,   0.00366,   0.00182,   0.00135,477056128.00000,   0.00202,276825792.00000,   0.00224,   0.00080,   0.00077,-768.00000,   1.00000
498234688.60789,436706334.30844,44824742.03707,   0.00366,   0.00182,   0.00135,477034464.00000,   0.00202,276826464.00000,   0.00224,   0.00080,   0.00077,-704.00000,   1.00000
498220129.59016,436591878.90272,45019426.93619,   0.00366,   0.00182,   0.00135,477035296.00000,   0.00202,276827168.00000,   0.00224,   0.00080,   0.00077,-608.00000,   1.00000
498204419.38210,436472780.71559,45221649.28711,   0.00366,   0.00182,   0.00136,477013056.00000,   0.00202,276827776.00000,   0.00224,   0.00080,   0.00077,-576.00000,   1.00000
498194896.90671,436344065.91290,45422895.87621,   0.00366,   0.00182,   0.00136,476976512.00000,   0.00202,276828288.00000,   0.00224,   0.00080,   0.00077,-448.00000,   1.00000
498185069.25054,436215110.01202,45624026.43419,   0.00366,   0.00181,   0.00136,476977344.00000,   0.00202,276828768.00000,   0.00224,   0.00080,   0.00077,-544.00000,   1.00000
498177161.86558,436084124.34546,45822956.24625,   0.00366,   0.00181,   0.00137,476951936.00000,   0.00202,276829184.00000,   0.00224,   0.00080,   0.00077,-416.00000,   1.00000
498176051.85354,435936468.11160,46029279.45046,   0.00366,   0.00181,   0.00137,476931456.00000,   0.00202,276829504.00000,   0.00224,   0.00080,   0.00077,-384.00000,   1.00000
498174595.37525,435788535.87353,46235504.62430,   0.00366,   0.00181,   0.00137,476932128.00000,   0.00203,276829856.00000,   0.00224,   0.00080,   0.00077,-416.00000,   1.00000
498179438.56647,435631042.57293,46440913.57760,   0.00366,   0.00181,   0.00137,476895168.00000,   0.00203,276830080.00000,   0.00224,   0.00080,   0.00077,-224.00000,   1.00000
498178495.16686,435476164.73158,46652673.70864,   0.00366,   0.00181,   0.00138,476884032.00000,   0.00203,276830240.00000,   0.00224,   0.00080,   0.00077,   0.00000,   1.00000
498187443.38950,435307225.55332,46862117.76638,   0.00366,   0.00181,   0.00138,476860320.00000,   0.00203,276830336.00000,   0.00224,   0.00080,   0.00077,   0.00000,   1.00000
498192203.98982,435142252.38183,47073056.29280,   0.00366,   0.00181,   0.00138,476847520.00000,   0.00203,276830400.00000,   0.00224,   0.00080,   0.00077, -32.00000,   1.00000
498199809.46830,434957185.73883,47291080.00922,   0.00366,   0.00181,   0.00139,476826688.00000,   0.00203,276830400.00000,   0.00224,   0.00080,   0.00077,-3712.00000,   0.00000
498199809.46830,434754372.97937,47504033.40665,   0.00366,   0.00181,   0.00139,476810592.00000,   0.00203,276830400.00000,   0.00224,   0.00080,   0.00077,-19808.00000,   0.00000
498174457.87337,434526208.62498,47711916.48510,   0.00366,   0.00181,   0.00139,476768544.00000,   0.00203,276830400.00000,   0.00224,   0.00080,   0.00077,-61856.00000,   0.00000
498131360.16198,434290438.79211,47924869.88253,   0.00366,   0.00181,   0.00139,476715040.00000,   0.00203,276830400.00000,   0.00224,   0.00080,   0.00077,-115360.00000,   0.00000
498073051.49364,434019176.72634,48137823.27996,   0.00366,   0.00181,   0.00140,476639168.00000,   0.00203,276830400.00000,   0.00224,   0.00080,   0.00077,-191232.00000,   0.00000
498007137.34682,433730168.54411,48345706.35840,   0.00367,   0.00180,   0.00140,476550880.00000,   0.00203,276830400.00000,   0.00224,   0.00080,   0.00077,-279520.00000,   0.00000
497915871.60506,433415808.76695,48558659.75583,   0.00367,   0.00180,   0.00140,476439872.00000,   0.00203,276830400.00000,   0.00224,   0.00080,   0.00077,-390528.00000,   0.00000
497817000.38482,433083702.87334,48766542.83428,   0.00367,   0.00180,   0.00141,476316224.00000,   0.00203,276830400.00000,   0.00224,   0.00080,   0.00077,-514176.00000,   0.00000
497692777.56966,432726245.38479,48974425.91272,   0.00367,   0.00180,   0.00141,476168160.00000,   0.00203,276830400.00000,   0.00224,   0.00080,   0.00077,-662240.00000,   0.00000
497560949.27601,432351041.77980,49187379.31015,   0.00367,   0.00180,   0.00141,476010976.00000,   0.00203,276830400.00000,   0.00224,   0.00080,   0.00077,-819424.00000,   0.00000
497396163.90895,431932740.46341,49390192.06961,   0.00367,   0.00180,   0.00141,475814880.00000,   0.00203,276830400.00000,   0.00224,   0.00080,   0.00077,-1015520.00000,   0.00000
497231378.54189,431514439.14703,49598075.14805,   0.00367,   0.00180,   0.00142,475620864.00000,   0.00203,276830400.00000,   0.00224,   0.00080,   0.00077,-1209536.00000,   0.00000
497051382.21787,431060645.59775,49805958.22650,   0.00367,   0.00179,   0.00142,475404576.00000,   0.00203,276830400.00000,   0.00224,   0.00080,   0.00077,-1425824.00000,   0.00000
496853639.77740,430599246.56998,50013841.30494,   0.00367,   0.00179,   0.00142,475175424.00000,   0.00203,276830400.00000,   0.00224,   0.00080,   0.00077,-1654976.00000,   0.00000
496640686.37997,430102355.30931,50216654.06440,   0.00367,   0.00179,   0.00142,474922432.00000,   0.00203,276830400.00000,   0.00224,   0.00080,   0.00077,-1907968.00000,   0.00000
496409986.86609,429597858.57016,50419466.82386,   0.00367,   0.00179,   0.00143,474656544.00000,   0.00203,276830400.00000,   0.00224,   0.00080,   0.00077,-2173856.00000,   0.00000
496164076.39524,429057869.59810,50627349.90230,   0.00367,   0.00179,   0.00143,474370176.00000,   0.00203,276830400.00000,   0.00224,   0.00080,   0.00077,-2460224.00000,   0.00000
495892814.32947,428492529.03111,50830162.66176,   0.00367,   0.00179,   0.00143,474058080.00000,   0.00203,276830400.00000,   0.00224,   0.00080,   0.00077,-2772320.00000,   0.00000
495613946.78521,427909442.34767,51027905.10223,   0.00367,   0.00178,   0.00143,473733440.00000,   0.00203,276830400.00000,   0.00224,   0.00080,   0.00077,-3096960.00000,   0.00000
495327473.76248,427308609.54778,51230717.86169,   0.00367,   0.00178,   0.00144,473399872.00000,   0.00203,276830400.00000,   0.00224,   0.00080,   0.00077,-3430528.00000,   0.00000
495008043.66633,426664679.03650,51433530.62115,   0.00367,   0.00178,   0.00144,473030880.00000,   0.00203,276830400.00000,   0.00224,   0.00080,   0.00077,-3799520.00000,   0.00000
494688613.57019,426020748.52522,51631273.06162,   0.00367,   0.00178,   0.00144,472660960.00000,   0.00203,276830400.00000,   0.00224,   0.00080,   0.00077,-4169440.00000,   0.00000
494343831.87911,425351466.41901,51834085.82107,   0.00366,   0.00177,   0.00145,472268576.00000,   0.00203,276830400.00000,   0.00224,   0.00080,   0.00077,-4561824.00000,   0.00000
493983839.23107,424646692.07990,52031828.26155,   0.00366,   0.00177,   0.00145,471852704.00000,   0.00203,276830400.00000,   0.00224,   0.00080,   0.00077,-4977696.00000,   0.00000
493616241.10456,423924171.62433,52229570.70202,   0.00366,   0.00177,   0.00145,471426304.00000,   0.00203,276830400.00000,   0.00224,   0.00080,   0.00077,-5404096.00000,   0.00000
493223291.38311,423176299.57383,52427313.14249,   0.00366,   0.00177,   0.00145,470976032.00000,   0.00203,276830400.00000,   0.00224,   0.00080,   0.00077,-5854368.00000,   0.00000
492822736.18318,422410681.40687,52625055.58296,   0.00366,   0.00176,   0.00146,470515104.00000,   0.00203,276830400.00000,   0.00224,   0.00080,   0.00077,-6315296.00000,   0.00000
492414575.50477,421627317.12347,52817727.70444,   0.00366,   0.00176,   0.00146,470042144.00000,   0.00203,276830400.00000,   0.00224,   0.00080,   0.00077,-6788256.00000,   0.00000
491981063.23143,420818601.24513,53015470.14492,   0.00366,   0.00176,   0.00146,469547072.00000,   0.00203,276830400.00000,   0.00224,   0.00080,   0.00077,-7283328.00000,   0.00000
491539945.47961,419992139.25034,53208142.26640,   0.00366,   0.00176,   0.00146,469039840.00000,   0.00203,276830400.00000,   0.00224,   0.00080,   0.00077,-7790560.00000,   0.00000
491065870.65437,419122579.54417,53400814.38789,   0.00366,   0.00175,   0.00147,468497728.00000,   0.00203,276830400.00000,   0.00224,   0.00080,   0.00077,-8332672.00000,   0.00000
490584190.35066,418235273.72154,53593486.50937,   0.00366,   0.00175,   0.00147,467945312.00000,   0.00203,276830400.00000,   0.00224,   0.00080,   0.00077,-8885088.00000,   0.00000
490094904.56847,417330221.78246,53786158.63085,   0.00366,   0.00175,   0.00147,467382688.00000,   0.00203,276830400.00000,   0.00224,   0.00080,   0.00077,-9447712.00000,   0.00000
489598013.30780,416407423.72693,53978830.75234,   0.00366,   0.00174,   0.00147,466809696.00000,   0.00203,276830400.00000,   0.00224,   0.00080,   0.00077,-10020704.00000,   0.00000
489075770.45220,415459274.07646,54166432.55484,   0.00366,   0.00174,   0.00148,466211360.00000,   0.00203,276830400.00000,   0.00224,   0.00080,   0.00077,-10619040.00000,   0.00000
488528176.00166,414485772.83106,54359104.67632,   0.00366,   0.00174,   0.00148,465591232.00000,   0.00203,276830400.00000,   0.00224,   0.00080,   0.00077,-11239168.00000,   0.00000
487983116.71062,413484384.83124,54546706.47882,   0.00366,   0.00173,   0.00148,464961472.00000,   0.00203,276830400.00000,   0.00224,   0.00080,   0.00077,-11868928.00000,   0.00000
487420311.30312,412475391.35294,54734308.28132,   0.00366,   0.00173,   0.00148,464319456.00000,   0.00203,276830400.00000,   0.00224,   0.00080,   0.00077,-12510944.00000,   0.00000
486842294.93867,411430905.64173,54921910.08382,   0.00366,   0.00173,   0.00149,463656192.00000,   0.00203,276830400.00000,   0.00224,   0.00080,   0.00077,-13174208.00000,   0.00000
486256673.09573,410368673.81407,55109511.88632,   0.00366,   0.00172,   0.00149,462983072.00000,   0.00203,276830400.00000,   0.00224,   0.00080,   0.00077,-13847328.00000,   0.00000
485645699.65787,409281090.39148,55292043.36983,   0.00366,   0.00172,   0.00149,462284640.00000,   0.00203,276830400.00000,   0.00224,   0.00080,   0.00077,-14545760.00000,   0.00000
485019515.26304,408158014.73598,55479645.17233,   0.00366,   0.00171,   0.00149,461567200.00000,   0.00203,276830400.00000,   0.00224,   0.00080,   0.00077,-15263200.00000,   0.00000
484375584.75176,407027333.60201,55662176.65584,   0.00366,   0.00171,   0.00149,460835648.00000,   0.00203,276830400.00000,   0.00224,   0.00080,   0.00077,-15994752.00000,   0.00000
483734189.39998,405868765.71360,55844708.13935,   0.00365,   0.00171,   0.00150,460096832.00000,   0.00203,276830400.00000,   0.00224,   0.00080,   0.00077,-16733568.00000,   0.00000
483067442.45326,404684846.23027,56027239.62286,   0.00365,   0.00170,   0.00150,459334816.00000,   0.00203,276830400.00000,   0.00224,   0.00080,   0.00077,-17495584.00000,   0.00000
482393090.02806,403483180.63048,56209771.10637,   0.00365,   0.00170,   0.00150,458563200.00000,   0.00203,276830400.00000,   0.00224,   0.00080,   0.00077,-18267200.00000,   0.00000
481693386.00793,402256163.43576,56387232.27090,   0.00365,   0.00169,   0.00150,457766464.00000,   0.00203,276830400.00000,   0.00224,   0.00080,   0.00077,-19063936.00000,   0.00000
480978471.03085,400993654.00814,56569763.75441,   0.00365,   0.00169,   0.00151,456951040.00000,   0.00203,276830400.00000,   0.00224,   0.00080,   0.00077,-19879360.00000,   0.00000
480263556.05376,399731144.58051,56747224.91894,   0.00365,   0.00168,   0.00151,456135264.00000,   0.00203,276830400.00000,   0.00224,   0.00080,   0.00077,-20695136.00000,   0.00000
479533430.11971,398433142.91998,56924686.08346,   0.00365,   0.00168,   0.00151,455298976.00000,   0.00203,276830400.00000,   0.00224,   0.00080,   0.00077,-21531424.00000,   0.00000
478777952.59073,397109789.66452,57102147.24799,   0.00365,   0.00168,   0.00151,454439648.00000,   0.00203,276830400.00000,   0.00224,   0.00080,   0.00077,-22390752.00000,   0.00000
478025010.22124,395758549.65464,57274538.09353,   0.00365,   0.00167,   0.00152,453571680.00000,   0.00203,276830400.00000,   0.00224,   0.00080,   0.00077,-23258720.00000,   0.00000
477236575.61885,394392098.68779,57451999.25805,   0.00365,   0.00167,   0.00152,452679968.00000,   0.00203,276830400.00000,   0.00224,   0.00080,   0.00077,-24150432.00000,   0.00000
476450676.17595,392997760.96652,57624390.10359,   0.00365,   0.00166,   0.00152,451779776.00000,   0.00203,276830400.00000,   0.00224,   0.00080,   0.00077,-25050624.00000,   0.00000
475657171.25457,391585677.12879,57796780.94913,   0.00365,   0.00166,   0.00152,450870208.00000,   0.00203,276830400.00000,   0.00224,   0.00080,   0.00077,-25960192.00000,   0.00000
474838314.73826,390148241.69614,57969171.79467,   0.00364,   0.00165,   0.00152,449937920.00000,   0.00203,276830400.00000,   0.00224,   0.00080,   0.00077,-26892480.00000,   0.00000
474011852.74347,388693060.14703,58141562.64021,   0.00364,   0.00165,   0.00153,448996416.00000,   0.00203,276830400.00000,   0.00224,   0.00080,   0.00077,-27833984.00000,   0.00000
473170179.79172,387202386.36501,58313953.48575,   0.00364,   0.00164,   0.00153,448034848.00000,   0.00203,276830400.00000,   0.00224,   0.00080,   0.00077,-28795552.00000,   0.00000
472303155.24504,385686360.98807,58481274.01230,   0.00364,   0.00164,   0.00153,447048736.00000,   0.00203,276830400.00000,   0.00224,   0.00080,   0.00077,-29781664.00000,   0.00000
471446271.33633,384160194.97315,58648594.53885,   0.00364,   0.00163,   0.00153,446067264.00000,   0.00203,276830400.00000,   0.00224,   0.00080,   0.00077,-30763136.00000,   0.00000
470564035.83269,382608677.36330,58815915.06541,   0.00364,   0.00163,   0.00154,445063168.00000,   0.00203,276830400.00000,   0.00224,   0.00080,   0.00077,-31767232.00000,   0.00000
469674194.85057,381039413.63699,58983235.59196,   0.00364,   0.00162,   0.00154,444050304.00000,   0.00203,276830400.00000,   0.00224,   0.00080,   0.00077,-32780096.00000,   0.00000
468751396.79504,379427052.19930,59150556.11851,   0.00364,   0.00161,   0.00154,443004448.00000,   0.00203,276830400.00000,   0.00224,   0.00080,   0.00077,-33825952.00000,   0.00000
467838739.37748,377804550.12364,59317876.64506,   0.00364,   0.00161,   0.00154,441963776.00000,   0.00203,276830400.00000,   0.00224,   0.00080,   0.00077,-34866624.00000,   0.00000
466900730.36499,376156696.45305,59480126.85263,   0.00364,   0.00160,   0.00154,440898944.00000,   0.00203,276830400.00000,   0.00224,   0.00080,   0.00077,-35931456.00000,   0.00000
465947510.39553,374473350.54955,59642377.06020,   0.00363,   0.00160,   0.00155,439815328.00000,   0.00203,276830400.00000,   0.00224,   0.00080,   0.00077,-37015072.00000,   0.00000
464986684.94760,372772258.52960,59804627.26776,   0.00363,   0.00159,   0.00155,438723712.00000,   0.00203,276830400.00000,   0.00224,   0.00080,   0.00077,-38106688.00000,   0.00000
464018254.02119,371053420.39319,59966877.47533,   0.00363,   0.00159,   0.00155,437624320.00000,   0.00203,276830400.00000,   0.00224,   0.00080,   0.00077,-39206080.00000,   0.00000
463042217.61630,369316836.14033,60124057.36391,   0.00363,   0.00158,   0.00155,436515328.00000,   0.00203,276830400.00000,   0.00224,   0.00080,   0.00077,-40315072.00000,   0.00000
462040829.61648,367554900.29255,60286307.57148,   0.00363,   0.00157,   0.00155,435387328.00000,   0.00203,276830400.00000,   0.00224,   0.00080,   0.00077,-41443072.00000,   0.00000
461024230.65970,365757472.21185,60443487.46005,   0.00363,   0.00157,   0.00156,434239680.00000,   0.00203,276830400.00000,   0.00224,   0.00080,   0.00077,-42590720.00000,   0.00000
460000026.22444,363942298.01470,60600667.34863,   0.00363,   0.00156,   0.00156,433085344.00000,   0.00203,276830400.00000,   0.00224,   0.00080,   0.00077,-43745056.00000,   0.00000
458968216.31070,362109377.70111,60757847.23721,   0.00363,   0.00156,   0.00156,431924320.00000,   0.00203,276830400.00000,   0.00224,   0.00080,   0.00077,-44906080.00000,   0.00000
457928800.91847,360258711.27105,60909956.80681,   0.00363,   0.00155,   0.00156,430754784.00000,   0.00203,276830400.00000,   0.00224,   0.00080,   0.00077,-46075616.00000,   0.00000
456874174.56929,358372552.60810,61067136.69539,   0.00362,   0.00154,   0.00157,429571136.00000,   0.00203,276830400.00000,   0.00224,   0.00080,   0.00077,-47259264.00000,   0.00000
455811942.74163,356468647.82869,61219246.26498,   0.00362,   0.00154,   0.00157,428379232.00000,   0.00203,276830400.00000,   0.00224,   0.00080,   0.00077,-48451168.00000,   0.00000
454724359.31904,354539391.45435,61371355.83457,   0.00362,   0.00153,   0.00157,427168032.00000,   0.00203,276830400.00000,   0.00224,   0.00080,   0.00077,-49662368.00000,   0.00000
453621564.93949,352574642.84710,61523465.40417,   0.00362,   0.00152,   0.00157,425941152.00000,   0.00203,276830400.00000,   0.00224,   0.00080,   0.00077,-50889248.00000,   0.00000
452511165.08146,350592148.12340,61670504.65477,   0.00362,   0.00152,   0.00157,424706368.00000,   0.00203,276830400.00000,   0.00224,   0.00080,   0.00077,-52124032.00000,   0.00000
451393159.74495,348591907.28325,61822614.22437,   0.00362,   0.00151,   0.00157,423468288.00000,   0.00203,276830400.00000,   0.00224,   0.00080,   0.00077,-53362112.00000,   0.00000
450267548.92996,346573920.32664,61969653.47497,   0.00362,   0.00150,   0.00158,422222272.00000,   0.00203,276830400.00000,   0.00224,   0.00080,   0.00077,-54608128.00000,   0.00000
449126727.15801,344520441.13713,62116692.72558,   0.00362,   0.00149,   0.00158,420960448.00000,   0.00203,276830400.00000,   0.00224,   0.00080,   0.00077,-55869952.00000,   0.00000
447978299.90758,342449215.83117,62263731.97619,   0.00362,   0.00149,   0.00158,419692576.00000,   0.00203,276830400.00000,   0.00224,   0.00080,   0.00077,-57137824.00000,   0.00000
446804521.06222,340352638.93028,62410771.22679,   0.00361,   0.00148,   0.00158,418404384.00000,   0.00203,276830400.00000,   0.00224,   0.00080,   0.00077,-58426016.00000,   0.00000
445640882.85483,338245921.39141,62552740.15842,   0.00361,   0.00147,   0.00158,417121056.00000,   0.00203,276830400.00000,   0.00224,   0.00080,   0.00077,-59709344.00000,   0.00000
444444287.57403,336096106.14116,62694709.09004,   0.00361,   0.00147,   0.00159,415806656.00000,   0.00203,276830400.00000,   0.00224,   0.00080,   0.00077,-61023744.00000,   0.00000
443257832.93120,333936150.25293,62836678.02166,   0.00361,   0.00146,   0.00159,414498880.00000,   0.00203,276830400.00000,   0.00224,   0.00080,   0.00077,-62331520.00000,   0.00000
442046026.69344,331750842.76978,62978646.95328,   0.00361,   0.00145,   0.00159,413169600.00000,   0.00203,276830400.00000,   0.00224,   0.00080,   0.00077,-63660800.00000,   0.00000
440819009.49872,329530043.05371,63120615.88490,   0.00361,   0.00144,   0.00159,411823200.00000,   0.00203,276830400.00000,   0.00224,   0.00080,   0.00077,-65007200.00000,   0.00000
439584386.82552,327291497.22120,63257514.49753,   0.00361,   0.00143,   0.00159,410467776.00000,   0.00203,276830400.00000,   0.00224,   0.00080,   0.00077,-66362624.00000,   0.00000
438342158.67384,325035205.27223,63399483.42915,   0.00361,   0.00143,   0.00160,409108512.00000,   0.00203,276830400.00000,   0.00224,   0.00080,   0.00077,-67721888.00000,   0.00000
437092325.04369,322761167.20681,63536382.04179,   0.00360,   0.00142,   0.00160,407741344.00000,   0.00203,276830400.00000,   0.00224,   0.00080,   0.00077,-69089056.00000,   0.00000
435827280.45657,320451636.90849,63673280.65442,   0.00360,   0.00141,   0.00160,406360096.00000,   0.00203,276830400.00000,   0.00224,   0.00080,   0.00077,-70470304.00000,   0.00000
434554630.39097,318124360.49371,63805108.94807,   0.00360,   0.00140,   0.00160,404972448.00000,   0.00203,276830400.00000,   0.00224,   0.00080,   0.00077,-71857952.00000,   0.00000
433266769.36841,315761591.84603,63942007.56070,   0.00360,   0.00139,   0.00160,403574176.00000,   0.00203,276830400.00000,   0.00224,   0.00080,   0.00077,-73256224.00000,   0.00000
431978908.34586,313398823.19834,64073835.85435,   0.00360,   0.00139,   0.00160,402180576.00000,   0.00203,276830400.00000,   0.00224,   0.00080,   0.00077,-74649824.00000,   0.00000
430658090.24989,310992956.83928,64205664.14800,   0.00360,   0.00138,   0.00161,400762176.00000,   0.00203,276830400.00000,   0.00224,   0.00080,   0.00077,-76068224.00000,   0.00000
429347412.79189,308576949.84224,64337492.44164,   0.00360,   0.00137,   0.00161,399357952.00000,   0.00203,276830400.00000,   0.00224,   0.00080,   0.00077,-77472448.00000,   0.00000
428021524.37694,306125450.61229,64464250.41630,   0.00360,   0.00136,   0.00161,397944128.00000,   0.00203,276830400.00000,   0.00224,   0.00080,   0.00077,-78886272.00000,   0.00000
426670284.36705,303648599.78741,64596078.70995,   0.00359,   0.00135,   0.00161,396522432.00000,   0.00203,276830400.00000,   0.00224,   0.00080,   0.00077,-80307968.00000,   0.00000
425329184.99514,301161608.32456,64722836.68461,   0.00359,   0.00134,   0.00161,395117472.00000,   0.00203,276830400.00000,   0.00224,   0.00080,   0.00077,-81712928.00000,   0.00000
423980480.14474,298656870.74526,64849594.65927,   0.00359,   0.00133,   0.00161,393718912.00000,   0.00203,276830400.00000,   0.00224,   0.00080,   0.00077,-83111488.00000,   0.00000
422598818.22094,296109035.45457,64976352.63394,   0.00359,   0.00133,   0.00162,392304640.00000,   0.00203,276830400.00000,   0.00224,   0.00080,   0.00077,-84525760.00000,   0.00000
421227296.93511,293551059.52591,65103110.60860,   0.00359,   0.00132,   0.00162,390911424.00000,   0.00203,276830400.00000,   0.00224,   0.00080,   0.00077,-85918976.00000,   0.00000
419830424.05434,290967732.00232,65224798.26427,   0.00359,   0.00131,   0.00162,389509248.00000,   0.00203,276830400.00000,   0.00224,   0.00080,   0.00077,-87321152.00000,   0.00000
418436086.33307,288356517.72430,65346485.91995,   0.00359,   0.00130,   0.00162,388118464.00000,   0.00203,276830400.00000,   0.00224,   0.00080,   0.00077,-88711936.00000,   0.00000
417034143.13332,285727557.32983,65468173.57562,   0.00359,   0.00129,   0.00162,386733120.00000,   0.00203,276830400.00000,   0.00224,   0.00080,   0.00077,-90097280.00000,   0.00000
415606848.33863,283073245.34043,65589861.23129,   0.00358,   0.00128,   0.00162,385337568.00000,   0.00203,276830400.00000,   0.00224,   0.00080,   0.00077,-91492832.00000,   0.00000
414189694.18192,280408792.71305,65711548.88697,   0.00358,   0.00127,   0.00163,383957760.00000,   0.00203,276830400.00000,   0.00224,   0.00080,   0.00077,-92872640.00000,   0.00000
412739582.95180,277701242.37429,65828166.22366,   0.00358,   0.00126,   0.00163,382553248.00000,   0.00203,276830400.00000,   0.00224,   0.00080,   0.00077,-94277152.00000,   0.00000
411299612.35965,274983551.39756,65944783.56035,   0.00358,   0.00125,   0.00163,381160320.00000,   0.00203,276830400.00000,   0.00224,   0.00080,   0.00077,-95670080.00000,   0.00000
409844430.81054,272230368.18792,66061400.89703,   0.00358,   0.00124,   0.00163,379754752.00000,   0.00203,276830400.00000,   0.00224,   0.00080,   0.00077,-97075648.00000,   0.00000
408363897.66650,269451833.38335,66178018.23372,   0.00358,   0.00123,   0.00163,378329696.00000,   0.00203,276830400.00000,   0.00224,   0.00080,   0.00077,-98500704.00000,   0.00000
406893505.16043,266663157.94080,66294635.57041,   0.00358,   0.00122,   0.00163,376910624.00000,   0.00203,276830400.00000,   0.00224,   0.00080,   0.00077,-99919776.00000,   0.00000
405415507.17588,263856736.38181,66406182.58811,   0.00358,   0.00121,   0.00163,375480096.00000,   0.00203,276830400.00000,   0.00224,   0.00080,   0.00077,-101350304.00000,   0.00000
403922298.23437,261014822.58991,66517729.60581,   0.00357,   0.00120,   0.00164,374031744.00000,   0.00203,276830400.00000,   0.00224,   0.00080,   0.00077,-102798656.00000,   0.00000
402421483.81439,258155162.68155,66629276.62352,   0.00357,   0.00119,   0.00164,372572896.00000,   0.00203,276830400.00000,   0.00224,   0.00080,   0.00077,-104257504.00000,   0.00000
400913063.91592,255277756.65675,66740823.64122,   0.00357,   0.00118,   0.00164,371103392.00000,   0.00203,276830400.00000,   0.00224,   0.00080,   0.00077,-105727008.00000,   0.00000
399389433.06049,252364858.39903,66847300.33993,   0.00357,   0.00117,   0.00164,369612288.00000,   0.00203,276830400.00000,   0.00224,   0.00080,   0.00077,-107218112.00000,   0.00000
397858196.72659,249434214.02487,66958847.35763,   0.00357,   0.00116,   0.00164,368113760.00000,   0.00203,276830400.00000,   0.00224,   0.00080,   0.00077,-108716640.00000,   0.00000
396319354.91420,246485823.53425,67065324.05635,   0.00357,   0.00115,   0.00164,366603136.00000,   0.00203,276830400.00000,   0.00224,   0.00080,   0.00077,-110227264.00000,   0.00000
394765302.14486,243501940.81073,67171800.75506,   0.00357,   0.00114,   0.00164,365076160.00000,   0.00203,276830400.00000,   0.00224,   0.00080,   0.00077,-111754240.00000,   0.00000
393228995.49197,240525663.56569,67278277.45378,   0.00357,   0.00113,   0.00165,363565952.00000,   0.00203,276830400.00000,   0.00224,   0.00080,   0.00077,-113264448.00000,   0.00000
391652126.28718,237488542.49281,67379683.83351,   0.00356,   0.00112,   0.00165,362018496.00000,   0.00203,276830400.00000,   0.00224,   0.00080,   0.00077,-114811904.00000,   0.00000
390075257.08240,234451421.41993,67486160.53222,   0.00356,   0.00111,   0.00165,360481696.00000,   0.00203,276830400.00000,   0.00224,   0.00080,   0.00077,-116348704.00000,   0.00000
388500923.03711,231386413.59263,67587566.91195,   0.00356,   0.00110,   0.00165,358951616.00000,   0.00203,276830400.00000,   0.00224,   0.00080,   0.00077,-117878784.00000,   0.00000
386918983.51334,228303659.64887,67688973.29168,   0.00356,   0.00109,   0.00165,357427360.00000,   0.00203,276830400.00000,   0.00224,   0.00080,   0.00077,-119403040.00000,   0.00000
385311692.39463,225195554.11018,67785309.35242,   0.00356,   0.00108,   0.00165,355894112.00000,   0.00203,276830400.00000,   0.00224,   0.00080,   0.00077,-120936288.00000,   0.00000
383706936.43543,222059561.81706,67886715.73215,   0.00356,   0.00106,   0.00165,354381728.00000,   0.00203,276830400.00000,   0.00224,   0.00080,   0.00077,-122448672.00000,   0.00000
382094574.99774,218905823.40750,67983051.79290,   0.00356,   0.00105,   0.00165,352878272.00000,   0.00203,276830400.00000,   0.00224,   0.00080,   0.00077,-123952128.00000,   0.00000
380474608.08157,215734338.88148,68084458.17262,   0.00356,   0.00104,   0.00166,351390688.00000,   0.00203,276830400.00000,   0.00224,   0.00080,   0.00077,-125439712.00000,   0.00000
378839430.20844,212527362.12255,68175723.91438,   0.00355,   0.00103,   0.00166,349902880.00000,   0.00203,276830400.00000,   0.00224,   0.00080,   0.00077,-126927520.00000,   0.00000
377214392.97328,209310244.72565,68272059.97512,   0.00355,   0.00102,   0.00166,348445952.00000,   0.00203,276830400.00000,   0.00224,   0.00080,   0.00077,-128384448.00000,   0.00000
375564004.14320,206067775.73382,68368396.03587,   0.00355,   0.00101,   0.00166,346987680.00000,   0.00203,276830400.00000,   0.00224,   0.00080,   0.00077,-129842720.00000,   0.00000
373916150.47260,202797419.98757,68459661.77762,   0.00355,   0.00100,   0.00166,345547584.00000,   0.00203,276830400.00000,   0.00224,   0.00080,   0.00077,-131282816.00000,   0.00000
372242945.20708,199501712.64638,68550927.51938,   0.00355,   0.00098,   0.00166,344106816.00000,   0.00203,276830400.00000,   0.00224,   0.00080,   0.00077,-132723584.00000,   0.00000
370579880.57952,196195864.66722,68642193.26113,   0.00355,   0.00097,   0.00166,342695616.00000,   0.00203,276830400.00000,   0.00224,   0.00080,   0.00077,-134134784.00000,   0.00000
368909210.47349,192872270.57160,68733459.00289,   0.00355,   0.00096,   0.00166,341300224.00000,   0.00203,276830400.00000,   0.00224,   0.00080,   0.00077,-135530176.00000,   0.00000
367223329.41050,189513184.24308,68824724.74465,   0.00355,   0.00095,   0.00167,339915104.00000,   0.00203,276830400.00000,   0.00224,   0.00080,   0.00077,-136915296.00000,   0.00000
365529842.86903,186136351.79811,68910920.16742,   0.00355,   0.00094,   0.00167,338545120.00000,   0.00203,276830400.00000,   0.00224,   0.00080,   0.00077,-138285280.00000,   0.00000
363846496.96553,182749378.71517,68997115.59018,   0.00354,   0.00092,   0.00167,337208960.00000,   0.00203,276830400.00000,   0.00224,   0.00080,   0.00077,-139621440.00000,   0.00000
362130193.98862,179319307.92084,69083311.01295,   0.00354,   0.00091,   0.00167,335872800.00000,   0.00203,276830400.00000,   0.00224,   0.00080,   0.00077,-140957600.00000,   0.00000
360424031.64968,175879096.48854,69169506.43572,   0.00354,   0.00090,   0.00167,334572064.00000,   0.00203,276830400.00000,   0.00224,   0.00080,   0.00077,-142258336.00000,   0.00000
358710263.83226,172421138.93978,69250631.53951,   0.00354,   0.00089,   0.00167,333289920.00000,   0.00203,276830400.00000,   0.00224,   0.00080,   0.00077,-143540480.00000,   0.00000
356988890.53636,168945435.27458,69336826.96228,   0.00354,   0.00088,   0.00167,332032736.00000,   0.00203,276830400.00000,   0.00224,   0.00080,   0.00077,-144797664.00000,   0.00000
355252306.28351,165434239.37647,69417952.06606,   0.00354,   0.00086,   0.00167,330790368.00000,   0.00203,276830400.00000,   0.00224,   0.00080,   0.00077,-146040032.00000,   0.00000
353525862.66862,161912902.84038,69499077.16984,   0.00354,   0.00085,   0.00167,329591520.00000,   0.00203,276830400.00000,   0.00224,   0.00080,   0.00077,-147238880.00000,   0.00000
351766461.98033,158348468.59291,69580202.27363,   0.00354,   0.00084,   0.00168,328424800.00000,   0.00203,276830400.00000,   0.00224,   0.00080,   0.00077,-148405600.00000,   0.00000
350024807.40848,154791639.82392,69656257.05842,   0.00354,   0.00082,   0.00168,327326272.00000,   0.00203,276830400.00000,   0.00224,   0.00080,   0.00077,-149504128.00000,   0.00000
348267941.87968,151199318.82203,69737382.16221,   0.00353,   0.00081,   0.00168,326173792.00000,   0.00203,276830400.00000,   0.00224,   0.00080,   0.00077,-150656608.00000,   0.00000
346503470.87240,147589251.70368,69813436.94700,   0.00353,   0.00080,   0.00168,324965472.00000,   0.00203,276830400.00000,   0.00224,   0.00080,   0.00077,-151864928.00000,   0.00000
344723788.90816,143943692.35243,69889491.73180,   0.00353,   0.00079,   0.00168,323789632.00000,   0.00203,276830400.00000,   0.00224,   0.00080,   0.00077,-153040768.00000,   0.00000
342954247.58189,140287992.36320,69965546.51660,   0.00353,   0.00077,   0.00168,322676416.00000,   0.00203,276830400.00000,   0.00224,   0.00080,   0.00077,-154153984.00000,   0.00000
341177100.77714,136614546.25752,70036530.98241,   0.00353,   0.00076,   0.00168,321591680.00000,   0.00203,276830400.00000,   0.00224,   0.00080,   0.00077,-155238720.00000,   0.00000
339374602.37746,132915748.55691,70112585.76720,   0.00353,   0.00075,   0.00168,320519136.00000,   0.00203,276830400.00000,   0.00224,   0.00080,   0.00077,-156311264.00000,   0.00000
337592385.25372,129196669.58036,70183570.23301,   0.00353,   0.00073,   0.00168,319488384.00000,   0.00203,276830400.00000,   0.00224,   0.00080,   0.00077,-157342016.00000,   0.00000
335792422.01354,125469985.12532,70254554.69882,   0.00353,   0.00072,   0.00168,318469472.00000,   0.00203,276830400.00000,   0.00224,   0.00080,   0.00077,-158360928.00000,   0.00000
333969642.33791,121690062.32093,70325539.16463,   0.00353,   0.00071,   0.00169,317465472.00000,   0.00203,276830400.00000,   0.00224,   0.00080,   0.00077,-159364928.00000,   0.00000
332164608.77874,117917744.99501,70391453.31146,   0.00353,   0.00069,   0.00169,316502016.00000,   0.00203,276830400.00000,   0.00224,   0.00080,   0.00077,-160328384.00000,   0.00000
330351969.74108,114127681.55265,70462437.77727,   0.00353,   0.00068,   0.00169,315569792.00000,   0.00203,276830400.00000,   0.00224,   0.00080,   0.00077,-161260608.00000,   0.00000
328524119.74647,110302125.87737,70528351.92409,   0.00352,   0.00066,   0.00169,314660320.00000,   0.00203,276830400.00000,   0.00224,   0.00080,   0.00077,-162170080.00000,   0.00000
326698804.91135,106448683.44768,70594266.07091,   0.00352,   0.00065,   0.00169,313793504.00000,   0.00203,276830400.00000,   0.00224,   0.00080,   0.00077,-163036896.00000,   0.00000
324855743.95978,102587635.53950,70660180.21774,   0.00352,   0.00064,   0.00169,312949376.00000,   0.00203,276830400.00000,   0.00224,   0.00080,   0.00077,-163881024.00000,   0.00000
323015218.16770,98698700.87690,70726094.36456,   0.00352,   0.00062,   0.00169,312150144.00000,   0.00203,276830400.00000,   0.00224,   0.00080,   0.00077,-164680256.00000,   0.00000
321174692.37562,94809766.21430,70792008.51139,   0.00352,   0.00061,   0.00169,311388160.00000,   0.00203,276830400.00000,   0.00224,   0.00080,   0.00077,-165442240.00000,   0.00000
319329096.26456,90875198.68082,70852852.33922,   0.00352,   0.00059,   0.00169,310664800.00000,   0.00203,276830400.00000,   0.00224,   0.00080,   0.00077,-166165600.00000,   0.00000
317465754.03704,86933025.66886,70913696.16706,   0.00352,   0.00058,   0.00169,309962912.00000,   0.00203,276830400.00000,   0.00224,   0.00080,   0.00077,-166867488.00000,   0.00000
315604946.96901,82962965.90247,70974539.99490,   0.00352,   0.00056,   0.00169,309303744.00000,   0.00203,276830400.00000,   0.00224,   0.00080,   0.00077,-167526656.00000,   0.00000
313744139.90099,78992906.13609,71035383.82273,   0.00352,   0.00055,   0.00169,308676992.00000,   0.00203,276830400.00000,   0.00224,   0.00080,   0.00077,-168153408.00000,   0.00000
311885867.99246,74994959.61528,71096227.65057,   0.00352,   0.00054,   0.00170,308091328.00000,   0.00203,276830400.00000,   0.00224,   0.00080,   0.00077,-168739072.00000,   0.00000
309994639.01051,70953915.38308,71152001.15942,   0.00352,   0.00052,   0.00170,307516480.00000,   0.00203,276830400.00000,   0.00224,   0.00080,   0.00077,-169313920.00000,   0.00000
308121156.14502,66920476.62937,71207774.66827,   0.00352,   0.00051,   0.00170,306990784.00000,   0.00203,276830400.00000,   0.00224,   0.00080,   0.00077,-169839616.00000,   0.00000
306250208.43903,62859151.12123,71263548.17712,   0.00352,   0.00049,   0.00170,306514880.00000,   0.00203,276830400.00000,   0.00224,   0.00080,   0.00077,-170315520.00000,   0.00000
304353909.13810,58772474.01815,71319321.68598,   0.00352,   0.00048,   0.00170,306068608.00000,   0.00203,276830400.00000,   0.00224,   0.00080,   0.00077,-170761792.00000,   0.00000
302467750.47514,54675656.27711,71375095.19483,   0.00351,   0.00046,   0.00170,305684896.00000,   0.00203,276830400.00000,   0.00224,   0.00080,   0.00077,-171145504.00000,   0.00000
300573986.33370,50561092.41961,71430868.70368,   0.00351,   0.00045,   0.00170,305355200.00000,   0.00203,276830400.00000,   0.00224,   0.00080,   0.00077,-171475200.00000,   0.00000
298665011.23531,46411036.32920,71481571.89354,   0.00351,   0.00043,   0.00170,305078272.00000,   0.00203,276830400.00000,   0.00224,   0.00080,   0.00077,-171752128.00000,   0.00000
296748430.65843,42243234.12235,71532275.08341,   0.00351,   0.00042,   0.00170,304860320.00000,   0.00203,276830400.00000,   0.00224,   0.00080,   0.00077,-171970080.00000,   0.00000
294841990.71953,38065291.27752,71582978.27327,   0.00351,   0.00040,   0.00170,304713056.00000,   0.00203,276830400.00000,   0.00224,   0.00080,   0.00077,-172117344.00000,   0.00000
292927945.30215,33869602.31624,71633681.46314,   0.00351,   0.00039,   0.00170,304619424.00000,   0.00203,276830400.00000,   0.00224,   0.00080,   0.00077,-172210976.00000,   0.00000
291024040.52274,29663772.71698,71684384.65300,   0.00351,   0.00037,   0.00170,304586432.00000,   0.00203,276830400.00000,   0.00224,   0.00080,   0.00077,-172243968.00000,   0.00000
289087178.66991,25414845.40634,71730017.52388,   0.00351,   0.00035,   0.00170,304577344.00000,   0.00203,276830400.00000,   0.00224,   0.00080,   0.00077,-172253056.00000,   0.00000
287160457.45507,21155777.45773,71775650.39476,   0.00351,   0.00034,   0.00170,304613632.00000,   0.00203,276830400.00000,   0.00224,   0.00080,   0.00077,-172216768.00000,   0.00000
285243876.87819,16886568.87114,71826353.58462,   0.00351,   0.00032,   0.00170,304692096.00000,   0.00203,276830400.00000,   0.00224,   0.00080,   0.00077,-172138304.00000,   0.00000
283301944.70638,12592008.68963,71871986.45550,   0.00351,   0.00031,   0.00171,304774368.00000,   0.00203,276830400.00000,   0.00224,   0.00080,   0.00077,-172056032.00000,   0.00000
281370153.17255,8287307.87014,71912549.00739,   0.00351,   0.00029,   0.00171,304884064.00000,   0.00203,276830400.00000,   0.00224,   0.00080,   0.00077,-171946336.00000,   0.00000
279430756.16023,3964860.93419,71958181.87827,   0.00351,   0.00028,   0.00171,305015616.00000,   0.00203,276830400.00000,   0.00224,   0.00080,   0.00077,-171814784.00000,   0.00000
277493894.30741,-385472.75617,71998744.43016,   0.00351,   0.00026,   0.00171,305180288.00000,   0.00203,276830400.00000,   0.00224,   0.00080,   0.00077,-171650112.00000,   0.00000
275531680.85966,-4761158.04147,72044377.30104,   0.00351,   0.00024,   0.00171,305364928.00000,   0.00203,276830400.00000,   0.00224,   0.00080,   0.00077,-171465472.00000,   0.00000
273579608.04988,-9146983.96475,72084939.85293,   0.00351,   0.00023,   0.00171,305597760.00000,   0.00203,276830400.00000,   0.00224,   0.00080,   0.00077,-171232640.00000,   0.00000
271637675.87807,-13542950.52599,72125502.40482,   0.00351,   0.00021,   0.00171,305893280.00000,   0.00203,276830400.00000,   0.00224,   0.00080,   0.00077,-170937120.00000,   0.00000
269688138.22778,-17956663.20369,72166064.95671,   0.00351,   0.00020,   0.00171,306249280.00000,   0.00203,276830400.00000,   0.00224,   0.00080,   0.00077,-170581120.00000,   0.00000
267730995.09902,-22388121.99784,72201557.18962,   0.00351,   0.00018,   0.00171,306673536.00000,   0.00203,276830400.00000,   0.00224,   0.00080,   0.00077,-170156864.00000,   0.00000
265758641.01329,-26855073.02490,72242119.74151,   0.00351,   0.00016,   0.00171,307184704.00000,   0.00203,276830400.00000,   0.00224,   0.00080,   0.00077,-169645696.00000,   0.00000
263804033.04402,-31314418.57348,72277611.97441,   0.00351,   0.00015,   0.00171,307790720.00000,   0.00203,276830400.00000,   0.00224,   0.00080,   0.00077,-169039680.00000,   0.00000
261834214.11778,-35809256.35496,72313104.20732,   0.00351,   0.00013,   0.00171,308488736.00000,   0.00203,276830400.00000,   0.00224,   0.00080,   0.00077,-168341664.00000,   0.00000
259856789.71307,-40321840.25289,72348596.44022,   0.00351,   0.00011,   0.00171,309271456.00000,   0.00203,276830400.00000,   0.00224,   0.00080,   0.00077,-167558944.00000,   0.00000
257897111.42481,-44826818.67235,72384088.67313,   0.00351,   0.00010,   0.00171,310134880.00000,   0.00203,276830400.00000,   0.00224,   0.00080,   0.00077,-166695520.00000,   0.00000
255914616.70111,-49385035.44116,72414510.58705,   0.00351,   0.00008,   0.00171,311055712.00000,   0.00203,276830400.00000,   0.00224,   0.00080,   0.00077,-165774688.00000,   0.00000
253932121.97741,-53943252.20997,72450002.81995,   0.00351,   0.00006,   0.00171,312010976.00000,   0.00203,276830400.00000,   0.00224,   0.00080,   0.00077,-164819424.00000,   0.00000
251959767.89168,-58511609.61676,72480424.73387,   0.00351,   0.00005,   0.00171,312993344.00000,   0.00203,276830400.00000,   0.00224,   0.00080,   0.00077,-163837056.00000,   0.00000
249979808.32748,-63097713.14000,72510846.64779,   0.00351,   0.00003,   0.00171,313985088.00000,   0.00203,276830400.00000,   0.00224,   0.00080,   0.00077,-162845312.00000,   0.00000
247984637.80631,-67719308.89614,72541268.56171,   0.00351,   0.00001,   0.00171,314986976.00000,   0.00203,276830400.00000,   0.00224,   0.00080,   0.00077,-161843424.00000,   0.00000
246007213.40160,-72333299.17380,72571690.47563,   0.00351,  -0.00001,   0.00171,316006112.00000,   0.00203,276830400.00000,   0.00224,   0.00080,   0.00077,-160824288.00000,   0.00000
244014578.03993,-76982781.68437,72602112.38955,   0.00351,  -0.00002,   0.00172,317047200.00000,   0.00203,276830400.00000,   0.00224,   0.00080,   0.00077,-159783200.00000,   0.00000
242021942.67826,-81632264.19494,72627463.98448,   0.00351,  -0.00004,   0.00172,318110592.00000,   0.00203,276830400.00000,   0.00224,   0.00080,   0.00077,-158719808.00000,   0.00000
240031842.47608,-86309633.45993,72657885.89840,   0.00351,  -0.00006,   0.00172,319234944.00000,   0.00203,276830400.00000,   0.00224,   0.00080,   0.00077,-157595456.00000,   0.00000
238041742.27390,-90987002.72493,72683237.49333,   0.00351,  -0.00008,   0.00172,320406720.00000,   0.00203,276830400.00000,   0.00224,   0.00080,   0.00077,-156423680.00000,   0.00000
236054177.23121,-95692258.74435,72708589.08826,   0.00351,  -0.00009,   0.00172,321660256.00000,   0.00203,276830400.00000,   0.00224,   0.00080,   0.00077,-155170144.00000,   0.00000
234059006.71005,-100415260.88022,72733940.68319,   0.00351,  -0.00011,   0.00172,322989920.00000,   0.00203,276830400.00000,   0.00224,   0.00080,   0.00077,-153840480.00000,   0.00000
232056230.71040,-105156009.13254,72759292.27813,   0.00351,  -0.00013,   0.00172,324403200.00000,   0.00203,276830400.00000,   0.00224,   0.00080,   0.00077,-152427200.00000,   0.00000
230045849.23228,-109914503.50132,72779573.55407,   0.00351,  -0.00015,   0.00172,325901312.00000,   0.00203,276830400.00000,   0.00224,   0.00080,   0.00077,-150929088.00000,   0.00000
228045608.39212,-114683138.50807,72804925.14900,   0.00351,  -0.00016,   0.00172,327486656.00000,   0.00203,276830400.00000,   0.00224,   0.00080,   0.00077,-149343744.00000,   0.00000
226063113.66843,-119444168.03634,72825206.42495,   0.00351,  -0.00018,   0.00172,329115776.00000,   0.00203,276830400.00000,   0.00224,   0.00080,   0.00077,-147714624.00000,   0.00000
224047661.87131,-124248295.27600,72845487.70090,   0.00351,  -0.00020,   0.00172,330863904.00000,   0.00203,276830400.00000,   0.00224,   0.00080,   0.00077,-145966496.00000,   0.00000
222042350.71218,-129062563.15362,72865768.97684,   0.00351,  -0.00022,   0.00172,332783328.00000,   0.00203,276830400.00000,   0.00224,   0.00080,   0.00077,-144047072.00000,   0.00000
220047180.19101,-133886971.66922,72886050.25279,   0.00351,  -0.00024,   0.00172,334749920.00000,   0.00203,276830400.00000,   0.00224,   0.00080,   0.00077,-142080480.00000,   0.00000
218026658.07491,-138736731.77976,72901261.20975,   0.00351,  -0.00025,   0.00172,336701568.00000,   0.00203,276830400.00000,   0.00224,   0.00080,   0.00077,-140128832.00000,   0.00000
216034022.71324,-143589027.04978,72921542.48569,   0.00351,  -0.00027,   0.00172,338688032.00000,   0.00203,276830400.00000,   0.00224,   0.00080,   0.00077,-138142368.00000,   0.00000
214016035.75664,-148466673.91474,72936753.44265,   0.00351,  -0.00029,   0.00172,340684448.00000,   0.00203,276830400.00000,   0.00224,   0.00080,   0.00077,-136145952.00000,   0.00000
212015794.91648,-153336715.30122,72957034.71860,   0.00351,  -0.00031,   0.00172,342716672.00000,   0.00203,276830400.00000,   0.00224,   0.00080,   0.00077,-134113728.00000,   0.00000
210000343.11937,-158242248.92060,72972245.67556,   0.00351,  -0.00033,   0.00172,344786368.00000,   0.00203,276830400.00000,   0.00224,   0.00080,   0.00077,-132044032.00000,   0.00000
207995031.96023,-163157923.17796,72987456.63252,   0.00351,  -0.00035,   0.00172,346904736.00000,   0.00203,276830400.00000,   0.00224,   0.00080,   0.00077,-129925664.00000,   0.00000
205982115.32262,-168091343.55177,72997597.27049,   0.00351,  -0.00036,   0.00172,349063424.00000,   0.00203,276830400.00000,   0.00224,   0.00080,   0.00077,-127766976.00000,   0.00000
203986944.80145,-173017158.44710,73012808.22745,   0.00351,  -0.00038,   0.00172,351274304.00000,   0.00203,276830400.00000,   0.00224,   0.00080,   0.00077,-125556096.00000,   0.00000
201958817.20687,-177986071.05381,73022948.86542,   0.00351,  -0.00040,   0.00172,353528224.00000,   0.00203,276830400.00000,   0.00224,   0.00080,   0.00077,-123302176.00000,   0.00000
199966181.84520,-182939772.70357,73038159.82238,   0.00351,  -0.00042,   0.00172,355840544.00000,   0.00203,276830400.00000,   0.00224,   0.00080,   0.00077,-120989856.00000,   0.00000
197940589.41012,-187936572.06471,73048300.46035,   0.00351,  -0.00044,   0.00172,358188864.00000,   0.00203,276830400.00000,   0.00224,   0.00080,   0.00077,-118641536.00000,   0.00000
195932743.09149,-192925765.94737,73058441.09833,   0.00351,  -0.00046,   0.00172,360569440.00000,   0.00203,276830400.00000,   0.00224,   0.00080,   0.00077,-116260960.00000,   0.00000
193935037.41083,-197925100.46800,73068581.73630,   0.00351,  -0.00048,   0.00172,362980000.00000,   0.00203,276830400.00000,   0.00224,   0.00080,   0.00077,-113850400.00000,   0.00000
191911980.13524,-202949786.58357,73078722.37427,   0.00351,  -0.00050,   0.00172,365395520.00000,   0.00203,276830400.00000,   0.00224,   0.00080,   0.00077,-111434880.00000,   0.00000
189899063.49762,-207984613.33711,73083792.69326,   0.00351,  -0.00051,   0.00172,367824608.00000,   0.00203,276830400.00000,   0.00224,   0.00080,   0.00077,-109005792.00000,   0.00000
187896287.49797,-213029580.72862,73093933.33123,   0.00352,  -0.00053,   0.00172,370280704.00000,   0.00203,276830400.00000,   0.00224,   0.00080,   0.00077,-106549696.00000,   0.00000
185893511.49833,-218074548.12013,73099003.65022,   0.00352,  -0.00055,   0.00172,372765920.00000,   0.00203,276830400.00000,   0.00224,   0.00080,   0.00077,-104064480.00000,   0.00000
183875524.54172,-223155007.74454,73104073.96920,   0.00352,  -0.00057,   0.00172,375334432.00000,   0.00203,276830400.00000,   0.00224,   0.00080,   0.00077,-101495968.00000,   0.00000
181875283.70157,-228227861.89048,73114214.60718,   0.00352,  -0.00059,   0.00172,378007584.00000,   0.00203,276830400.00000,   0.00224,   0.00080,   0.00077,-98822816.00000,   0.00000
179859831.90446,-233336208.26932,73114214.60718,   0.00352,  -0.00061,   0.00172,380793952.00000,   0.00203,276830400.00000,   0.00224,   0.00080,   0.00077,-96036448.00000,   0.00000
177862126.22380,-238436949.16968,73119284.92616,   0.00352,  -0.00063,   0.00172,383673088.00000,   0.00203,276830400.00000,   0.00224,   0.00080,   0.00077,-93157312.00000,   0.00000
175856815.06466,-243555436.18650,73124355.24515,   0.00352,  -0.00065,   0.00172,386609696.00000,   0.00203,276830400.00000,   0.00224,   0.00080,   0.00077,-90220704.00000,   0.00000
173851503.90553,-248673923.20331,73124355.24515,   0.00352,  -0.00067,   0.00172,389553536.00000,   0.00203,276830400.00000,   0.00224,   0.00080,   0.00077,-87276864.00000,   0.00000
171848727.90588,-253820296.97455,73129425.56414,   0.00352,  -0.00069,   0.00172,392508192.00000,   0.00203,276830400.00000,   0.00224,   0.00080,   0.00077,-84322208.00000,   0.00000
169845951.90624,-258966670.74579,73129425.56414,   0.00352,  -0.00071,   0.00172,395427936.00000,   0.00203,276830400.00000,   0.00224,   0.00080,   0.00077,-81402464.00000,   0.00000
167853316.54456,-264123185.15501,73129425.56414,   0.00352,  -0.00073,   0.00172,398332960.00000,   0.00203,276830400.00000,   0.00224,   0.00080,   0.00077,-78497440.00000,   0.00000
165853075.70441,-269297445.68067,73129425.56414,   0.00352,  -0.00075,   0.00172,401227520.00000,   0.00203,276830400.00000,   0.00224,   0.00080,   0.00077,-75602880.00000,   0.00000
163845229.38578,-274489452.32279,73129425.56414,   0.00353,  -0.00077,   0.00172,404130624.00000,   0.00203,276830400.00000,   0.00224,   0.00080,   0.00077,-72699776.00000,   0.00000
161855129.18360,-279673853.48643,73129425.56414,   0.00353,  -0.00079,   0.00172,407060064.00000,   0.00203,276830400.00000,   0.00224,   0.00080,   0.00077,-69770336.00000,   0.00000
159857423.50294,-284876000.76652,73124355.24515,   0.00353,  -0.00081,   0.00172,410034528.00000,   0.00203,276830400.00000,   0.00224,   0.00080,   0.00077,-66795872.00000,   0.00000
157869858.46026,-290088288.68458,73124355.24515,   0.00353,  -0.00083,   0.00172,413079840.00000,   0.00203,276830400.00000,   0.00224,   0.00080,   0.00077,-63750560.00000,   0.00000
155874687.93909,-295318322.71910,73119284.92616,   0.00353,  -0.00085,   0.00172,416191168.00000,   0.00203,276830400.00000,   0.00224,   0.00080,   0.00077,-60639232.00000,   0.00000
153879517.41793,-300548356.75361,73114214.60718,   0.00353,  -0.00086,   0.00172,419361760.00000,   0.00203,276830400.00000,   0.00224,   0.00080,   0.00077,-57468640.00000,   0.00000
151894487.53473,-305788531.42610,73109144.28819,   0.00353,  -0.00088,   0.00172,422603520.00000,   0.00203,276830400.00000,   0.00224,   0.00080,   0.00077,-54226880.00000,   0.00000
149901852.17306,-311046452.21504,73104073.96920,   0.00353,  -0.00090,   0.00172,425903072.00000,   0.00203,276830400.00000,   0.00224,   0.00080,   0.00077,-50927328.00000,   0.00000
147919357.44936,-316314513.64196,73099003.65022,   0.00353,  -0.00093,   0.00172,429258336.00000,   0.00203,276830400.00000,   0.00224,   0.00080,   0.00077,-47572064.00000,   0.00000
145936862.72566,-321582575.06887,73088863.01224,   0.00354,  -0.00095,   0.00172,432642816.00000,   0.00203,276830400.00000,   0.00224,   0.00080,   0.00077,-44187584.00000,   0.00000
143964508.63994,-326860777.13376,73083792.69326,   0.00354,  -0.00097,   0.00172,436072448.00000,   0.00203,276830400.00000,   0.00224,   0.00080,   0.00077,-40757952.00000,   0.00000
141992154.55421,-332138979.19865,73073652.05528,   0.00354,  -0.00099,   0.00172,439520992.00000,   0.00203,276830400.00000,   0.00224,   0.00080,   0.00077,-37309408.00000,   0.00000
140012194.99000,-337434927.37999,73063511.41731,   0.00354,  -0.00101,   0.00172,442998080.00000,   0.00203,276830400.00000,   0.00224,   0.00080,   0.00077,-33832320.00000,   0.00000
138042376.06377,-342741016.19930,73053370.77934,   0.00354,  -0.00103,   0.00172,446507168.00000,   0.00203,276830400.00000,   0.00224,   0.00080,   0.00077,-30323232.00000,   0.00000
136064951.65906,-348064851.13507,73043230.14137,   0.00354,  -0.00105,   0.00172,450042176.00000,   0.00203,276830400.00000,   0.00224,   0.00080,   0.00077,-26788224.00000,   0.00000
134105273.37080,-353381080.59235,73033089.50339,   0.00354,  -0.00107,   0.00172,453598592.00000,   0.00203,276830400.00000,   0.00224,   0.00080,   0.00077,-23231808.00000,   0.00000
132145595.08254,-358697310.04964,73022948.86542,   0.00355,  -0.00109,   0.00172,457173952.00000,   0.00203,276830400.00000,   0.00224,   0.00080,   0.00077,-19656448.00000,   0.00000
130170705.83732,-364049031.73983,73007737.90846,   0.00355,  -0.00111,   0.00172,460792704.00000,   0.00203,276830400.00000,   0.00224,   0.00080,   0.00077,-16037696.00000,   0.00000
128213562.70855,-369393147.95154,72997597.27049,   0.00355,  -0.00113,   0.00172,464446432.00000,   0.00203,276830400.00000,   0.00224,   0.00080,   0.00077,-12383968.00000,   0.00000
126256419.57978,-374737264.16325,72982386.31353,   0.00355,  -0.00115,   0.00172,468129280.00000,   0.00203,276830400.00000,   0.00224,   0.00080,   0.00077,-8701120.00000,   0.00000
124309417.08899,-380091521.01294,72967175.35657,   0.00355,  -0.00117,   0.00172,471861632.00000,   0.00203,276830400.00000,   0.00224,   0.00080,   0.00077,-4968768.00000,   0.00000
122354809.11972,-385463523.97907,72951964.39961,   0.00355,  -0.00119,   0.00172,475637120.00000,   0.00203,276830400.00000,   0.00224,   0.00080,   0.00077,-1193280.00000,   0.00000
121745756.85740,-387150375.53281,72947181.26666,   0.00355,  -0.00120,   0.00172,476829536.00000,   0.00203,276830400.00000,   0.00224,   0.00080,   0.00077,-864.00000,   0.00000
119704384.42764,-388731147.72019,72537904.31789,   0.00355,  -0.00121,   0.00172,476829536.00000,   0.00204,276842272.00000,   0.00225,   0.00079,   0.00078, 128.00000,   2.00000
116729405.73410,-391060183.88133,71933995.78135,   0.00356,  -0.00123,   0.00172,480625472.00000,   0.00205,276859552.00000,   0.00226,   0.00078,   0.00078,  96.00000,   2.00000
113815223.37681,-393286042.50389,71336941.56976,   0.00356,  -0.00125,   0.00172,480717856.00000,   0.00207,276876992.00000,   0.00227,   0.00076,   0.00079, 352.00000,   2.00000
110976490.08014,-395438035.82178,70741853.57339,   0.00356,  -0.00127,   0.00172,480795968.00000,   0.00209,276894560.00000,   0.00228,   0.00074,   0.00080, 224.00000,   2.00000
108194349.54868,-397460031.11134,70164922.48146,   0.00356,  -0.00129,   0.00172,480921152.00000,   0.00210,276912448.00000,   0.00229,   0.00073,   0.00081, 384.00000,   2.00000
105394603.50925,-399454689.41489,69578821.49464,   0.00356,  -0.00131,   0.00172,480997888.00000,   0.00212,276930560.00000,   0.00230,   0.00071,   0.00081, 192.00000,   2.00000
102530225.94259,-401505134.30376,68987285.63398,   0.00357,  -0.00134,   0.00172,481007584.00000,   0.00214,276948736.00000,   0.00232,   0.00069,   0.00082, 384.00000,   2.00000
99618541.34689,-403625578.25178,68393964.37432,   0.00357,  -0.00136,   0.00172,480960384.00000,   0.00215,276966720.00000,   0.00233,   0.00067,   0.00083, 288.00000,   2.00000
96659613.49491,-405825722.99705,67794523.74673,   0.00357,  -0.00138,   0.00172,480945344.00000,   0.00217,276984704.00000,   0.00234,   0.00066,   0.00084, 160.00000,   2.00000
93700750.07761,-408060717.76019,67194216.23397,   0.00357,  -0.00140,   0.00172,480902656.00000,   0.00219,277002464.00000,   0.00235,   0.00064,   0.00084, 160.00000,   2.00000
90759504.04573,-410285680.39559,66602763.15068,   0.00357,  -0.00142,   0.00172,480938240.00000,   0.00220,277020320.00000,   0.00236,   0.00062,   0.00085, 256.00000,   2.00000
87869312.09340,-412448594.04029,66019445.85798,   0.00357,  -0.00144,   0.00172,480965696.00000,   0.00222,277038176.00000,   0.00237,   0.00061,   0.00086, 256.00000,   2.00000
85016651.26989,-414548045.57858,65446011.24570,   0.00358,  -0.00146,   0.00172,481038432.00000,   0.00224,277056224.00000,   0.00238,   0.00059,   0.00087, 192.00000,   2.00000
82171711.59208,-416618863.80343,64868190.71150,   0.00358,  -0.00148,   0.00172,481094912.00000,   0.00226,277074400.00000,   0.00239,   0.00057,   0.00087, 160.00000,   2.00000
79337380.46261,-418668830.35566,64290544.35058,   0.00358,  -0.00150,   0.00172,481129952.00000,   0.00227,277092608.00000,   0.00240,   0.00056,   0.00088, 288.00000,   2.00000
76529118.90772,-420693141.46981,63713200.13279,   0.00358,  -0.00152,   0.00172,481163424.00000,   0.00229,277110880.00000,   0.00241,   0.00054,   0.00089, 160.00000,   2.00000
73720500.80269,-422708503.86635,63136044.33090,   0.00358,  -0.00155,   0.00171,481205408.00000,   0.00231,277129216.00000,   0.00242,   0.00052,   0.00089, 128.00000,   2.00000
70942062.17763,-424695194.40597,62556432.79574,   0.00359,  -0.00157,   0.00171,481237632.00000,   0.00232,277147616.00000,   0.00244,   0.00050,   0.00090, 128.00000,   2.00000
68180812.90091,-426654343.01554,61984985.03316,   0.00359,  -0.00159,   0.00171,481273024.00000,   0.00234,277166016.00000,   0.00245,   0.00049,   0.00091, 160.00000,   2.00000
65450618.22304,-428578364.76046,61410265.31281,   0.00359,  -0.00161,   0.00171,481324000.00000,   0.00236,277184576.00000,   0.00246,   0.00047,   0.00092,   0.00000,   2.00000
62732425.27133,-430472388.16423,60839224.69594,   0.00359,  -0.00163,   0.00171,481362144.00000,   0.00238,277203136.00000,   0.00247,   0.00045,   0.00092,  96.00000,   2.00000
60077732.26979,-432302371.89202,60274566.64051,   0.00360,  -0.00165,   0.00171,481412992.00000,   0.00239,277221792.00000,   0.00248,   0.00043,   0.00093, 224.00000,   2.00000
57439389.49804,-434104367.45591,59699997.18501,   0.00360,  -0.00167,   0.00171,481462464.00000,   0.00241,277240576.00000,   0.00249,   0.00041,   0.00094,  96.00000,   2.00000
54819672.08389,-435874785.28632,59130934.17218,   0.00360,  -0.00169,   0.00171,481499264.00000,   0.00243,277259424.00000,   0.00250,   0.00040,   0.00094,  96.00000,   2.00000
52213234.64157,-437623609.50058,58562764.56180,   0.00360,  -0.00172,   0.00171,481527392.00000,   0.00245,277278272.00000,   0.00251,   0.00038,   0.00095, 160.00000,   2.00000
49634620.36485,-439345861.89585,57996107.77385,   0.00360,  -0.00174,   0.00171,481553632.00000,   0.00247,277297184.00000,   0.00252,   0.00036,   0.00096,  64.00000,   2.00000
47074791.92748,-441050345.98916,57425903.02629,   0.00361,  -0.00176,   0.00171,481589056.00000,   0.00248,277316192.00000,   0.00253,   0.00034,   0.00096,  64.00000,   2.00000
44511132.98120,-442746499.14883,56860584.15685,   0.00361,  -0.00178,   0.00171,481609600.00000,   0.00250,277335168.00000,   0.00254,   0.00032,   0.00097,  32.00000,   2.00000
41997740.41382,-444401847.67871,56300338.63704,   0.00361,  -0.00180,   0.00171,481640128.00000,   0.00252,277354208.00000,   0.00255,   0.00030,   0.00098,  96.00000,   2.00000
39473816.30548,-446049912.45868,55745418.08573,   0.00361,  -0.00182,   0.00171,481678656.00000,   0.00254,277373312.00000,   0.00256,   0.00028,   0.00098, 128.00000,   2.00000
36981478.00937,-447665826.04807,55197398.46082,   0.00362,  -0.00184,   0.00171,481710144.00000,   0.00256,277392480.00000,   0.00258,   0.00027,   0.00099, 128.00000,   2.00000
34524165.51268,-449248512.13209,54658197.42931,   0.00362,  -0.00186,   0.00171,481726944.00000,   0.00257,277411616.00000,   0.00259,   0.00025,   0.00100,  64.00000,   2.00000
32055010.45241,-450828382.37354,54125459.63255,   0.00362,  -0.00189,   0.00171,481763168.00000,   0.00259,277430816.00000,   0.00260,   0.00023,   0.00100,  64.00000,   2.00000
29562942.00875,-452418499.67146,53594656.92120,   0.00362,  -0.00191,   0.00171,481790624.00000,   0.00261,277450112.00000,   0.00261,   0.00021,   0.00101,  64.00000,   2.00000
27083140.00315,-454002085.31734,53072759.83393,   0.00363,  -0.00193,   0.00171,481789216.00000,   0.00263,277469312.00000,   0.00262,   0.00019,   0.00102,  96.00000,   2.00000
24605904.74025,-455586677.11548,52554454.67287,   0.00363,  -0.00195,   0.00171,481814944.00000,   0.00265,277488576.00000,   0.00263,   0.00017,   0.00102,  64.00000,   2.00000
22207811.40050,-457116883.27713,52036562.32935,   0.00363,  -0.00197,   0.00171,481838176.00000,   0.00267,277507744.00000,   0.00264,   0.00015,   0.00103,  64.00000,   2.00000
19927013.35543,-458553575.06056,51509705.05902,   0.00363,  -0.00199,   0.00171,481924064.00000,   0.00268,277526976.00000,   0.00265,   0.00013,   0.00104,  64.00000,   2.00000
17742750.10005,-459898845.40354,50973362.90611,   0.00364,  -0.00201,   0.00171,482009824.00000,   0.00270,277546304.00000,   0.00266,   0.00011,   0.00104,  64.00000,   2.00000
15634494.94698,-461171077.10487,50428707.71790,   0.00364,  -0.00204,   0.00170,482085344.00000,   0.00272,277565760.00000,   0.00267,   0.00009,   0.00105,  96.00000,   2.00000
13550283.63680,-462411640.95853,49873171.13204,   0.00364,  -0.00206,   0.00170,482136416.00000,   0.00274,277585216.00000,   0.00268,   0.00007,   0.00106,   0.00000,   2.00000
11483454.65256,-463634777.05174,49313509.12244,   0.00364,  -0.00208,   0.00170,482170688.00000,   0.00276,277604768.00000,   0.00269,   0.00005,   0.00106, 128.00000,   2.00000
9394214.61540,-464869273.96039,48749903.33601,   0.00365,  -0.00210,   0.00170,482203552.00000,   0.00278,277624352.00000,   0.00270,   0.00003,   0.00107,   0.00000,   2.00000
7295447.13128,-466112863.25020,48187056.23558,   0.00365,  -0.00212,   0.00170,482200384.00000,   0.00279,277643904.00000,   0.00271,   0.00001,   0.00108,  64.00000,   2.00000
5197216.66103,-467362502.98252,47624659.18803,   0.00365,  -0.00214,   0.00170,482209344.00000,   0.00281,277663424.00000,   0.00272,  -0.00001,   0.00108, 160.00000,   2.00000
3085359.91198,-468623869.99834,47064069.20768,   0.00366,  -0.00217,   0.00170,482217440.00000,   0.00283,277682944.00000,   0.00273,  -0.00003,   0.00109,  64.00000,   2.00000
955383.94725,-469899404.02727,46500105.95690,   0.00366,  -0.00219,   0.00170,482239136.00000,   0.00285,277702496.00000,   0.00274,  -0.00005,   0.00110,  32.00000,   2.00000
-1153264.96282,-471162232.85136,45946596.66622,   0.00366,  -0.00221,   0.00170,482240000.00000,   0.00287,277722016.00000,   0.00275,  -0.00007,   0.00110, 128.00000,   2.00000
-3244931.44635,-472415617.89798,45393289.91948,   0.00366,  -0.00223,   0.00170,482253568.00000,   0.00289,277741504.00000,   0.00276,  -0.00009,   0.00111, 160.00000,   2.00000
-5359020.11300,-473675834.24991,44844824.23207,   0.00367,  -0.00225,   0.00170,482281920.00000,   0.00291,277761056.00000,   0.00277,  -0.00011,   0.00112, 224.00000,   2.00000
-7435166.47795,-474909113.15238,44304736.89243,   0.00367,  -0.00227,   0.00170,482288288.00000,   0.00292,277780576.00000,   0.00278,  -0.00013,   0.00112, 128.00000,   2.00000
-9467391.18811,-476111571.57133,43767289.41719,   0.00367,  -0.00229,   0.00170,482311776.00000,   0.00294,277800064.00000,   0.00279,  -0.00015,   0.00113,  64.00000,   2.00000
-11446976.79947,-477270930.47723,43242728.24018,   0.00368,  -0.00232,   0.00170,482347552.00000,   0.00296,277819552.00000,   0.00280,  -0.00017,   0.00113, 160.00000,   2.00000
-13371553.77757,-478380717.42476,42720682.16941,   0.00368,  -0.00234,   0.00170,482392960.00000,   0.00298,277839072.00000,   0.00281,  -0.00019,   0.00114,  32.00000,   2.00000
-15372514.32072,-479496094.79002,42209055.03617,   0.00368,  -0.00236,   0.00169,482424096.00000,   0.00300,277858784.00000,   0.00282,  -0.00021,   0.00115, 160.00000,   2.00000
-17476733.91955,-480666300.35266,41704887.69533,   0.00369,  -0.00238,   0.00169,482367200.00000,   0.00302,277878528.00000,   0.00283,  -0.00023,   0.00115, 128.00000,   2.00000
-19427464.86927,-481809189.31103,41220896.75071,   0.00369,  -0.00240,   0.00169,482350144.00000,   0.00304,277897984.00000,   0.00284,  -0.00025,   0.00116,  96.00000,   2.00000
-21285542.28517,-482879604.10597,40743057.33514,   0.00369,  -0.00242,   0.00169,482427296.00000,   0.00306,277917408.00000,   0.00285,  -0.00027,   0.00116,  32.00000,   2.00000
-23130427.72434,-483895045.44010,40277018.34934,   0.00370,  -0.00244,   0.00169,482484896.00000,   0.00307,277936928.00000,   0.00286,  -0.00029,   0.00117, 128.00000,   2.00000
-24974513.27762,-484894922.29919,39812831.29073,   0.00370,  -0.00247,   0.00169,482512000.00000,   0.00309,277956544.00000,   0.00287,  -0.00031,   0.00117, 192.00000,   2.00000
-26790072.63580,-485875502.60725,39355431.25980,   0.00370,  -0.00249,   0.00169,482530880.00000,   0.00311,277976128.00000,   0.00288,  -0.00033,   0.00118,  32.00000,   2.00000
-28588512.06927,-486841642.31316,38904216.69581,   0.00371,  -0.00251,   0.00169,482551520.00000,   0.00313,277995712.00000,   0.00289,  -0.00035,   0.00118, 128.00000,   2.00000
-30341491.06482,-487778212.83156,38459626.12057,   0.00371,  -0.00253,   0.00169,482561952.00000,   0.00315,278015264.00000,   0.00290,  -0.00037,   0.00119,  96.00000,   2.00000
-32082075.43573,-488700779.15485,38018909.49476,   0.00371,  -0.00255,   0.00169,482601088.00000,   0.00317,278034848.00000,   0.00290,  -0.00039,   0.00119,  64.00000,   2.00000
-33794104.12530,-489601346.44318,37583991.55535,   0.00371,  -0.00257,   0.00169,482612672.00000,   0.00319,278054368.00000,   0.00291,  -0.00041,   0.00120, 128.00000,   2.00000
-35460578.71455,-490473738.86472,37149542.99190,   0.00372,  -0.00259,   0.00169,482623712.00000,   0.00320,278073856.00000,   0.00292,  -0.00043,   0.00120,  64.00000,   2.00000
-37115661.86549,-491333399.58088,36718069.08032,   0.00372,  -0.00262,   0.00169,482663520.00000,   0.00322,278093376.00000,   0.00293,  -0.00045,   0.00121, 160.00000,   2.00000
-38726705.06730,-492165497.29219,36291546.60661,   0.00373,  -0.00264,   0.00168,482675168.00000,   0.00324,278112864.00000,   0.00294,  -0.00047,   0.00121,  32.00000,   2.00000
-40320010.92767,-492982620.76185,35868712.11820,   0.00373,  -0.00266,   0.00168,482700544.00000,   0.00326,278132320.00000,   0.00295,  -0.00049,   0.00122, 160.00000,   2.00000
-41896218.03720,-493786400.56529,35444471.16238,   0.00373,  -0.00268,   0.00168,482724384.00000,   0.00328,278151808.00000,   0.00296,  -0.00051,   0.00122,  64.00000,   2.00000
-43448355.25864,-494571819.49331,35029715.23020,   0.00374,  -0.00270,   0.00168,482735904.00000,   0.00330,278171200.00000,   0.00297,  -0.00054,   0.00123, 128.00000,   2.00000
-44967169.41972,-495337705.45895,34613343.21601,   0.00374,  -0.00272,   0.00168,482759296.00000,   0.00332,278190592.00000,   0.00298,  -0.00056,   0.00123, 128.00000,   2.00000
-46453359.92431,-496083714.55735,34200300.77127,   0.00374,  -0.00274,   0.00168,482783424.00000,   0.00333,278210016.00000,   0.00299,  -0.00058,   0.00124,  96.00000,   2.00000
-47935221.75128,-496821936.50242,33791584.40178,   0.00375,  -0.00276,   0.00168,482792864.00000,   0.00335,278229344.00000,   0.00300,  -0.00060,   0.00124,  96.00000,   2.00000
-49385450.59484,-497542368.18599,33381184.94156,   0.00375,  -0.00279,   0.00168,482815200.00000,   0.00337,278248672.00000,   0.00300,  -0.00062,   0.00124,  96.00000,   2.00000
-50797149.53095,-498239994.77296,32980062.19806,   0.00375,  -0.00281,   0.00168,482825024.00000,   0.00339,278267936.00000,   0.00301,  -0.00064,   0.00125,   0.00000,   2.00000
-52213468.82053,-498935613.68841,32577219.89873,   0.00376,  -0.00283,   0.00168,482847040.00000,   0.00341,278287200.00000,   0.00302,  -0.00066,   0.00125,  64.00000,   2.00000
-53599336.24202,-499613648.56330,32177692.25280,   0.00376,  -0.00285,   0.00168,482869504.00000,   0.00343,278306432.00000,   0.00303,  -0.00068,   0.00126, 128.00000,   2.00000
-54947849.19187,-500271214.76889,31782493.41431,   0.00376,  -0.00287,   0.00167,482877408.00000,   0.00345,278325632.00000,   0.00304,  -0.00070,   0.00126,  64.00000,   2.00000
-56301899.45916,-500926584.95469,31390597.04036,   0.00377,  -0.00289,   0.00167,482899936.00000,   0.00346,278344832.00000,   0.00305,  -0.00072,   0.00127,  64.00000,   2.00000
-57619141.74424,-501563027.64193,30998073.40228,   0.00377,  -0.00291,   0.00167,482906496.00000,   0.00348,278363936.00000,   0.00306,  -0.00074,   0.00127, 128.00000,   2.00000
-58907159.11860,-502183174.34750,30608964.69307,   0.00378,  -0.00293,   0.00167,482928000.00000,   0.00350,278383040.00000,   0.00306,  -0.00076,   0.00127,   0.00000,   2.00000
-60176664.44556,-502791351.63114,30224218.41301,   0.00378,  -0.00295,   0.00167,482935328.00000,   0.00352,278402080.00000,   0.00307,  -0.00078,   0.00128, -96.00000,   2.00000
-61434996.52865,-503391052.86847,29842891.12946,   0.00378,  -0.00297,   0.00167,482956896.00000,   0.00354,278421120.00000,   0.00308,  -0.00080,   0.00128, -32.00000,   2.00000
-62675164.28656,-503979192.90193,29465918.66866,   0.00379,  -0.00300,   0.00167,482964032.00000,   0.00356,278440096.00000,   0.00309,  -0.00082,   0.00129,  96.00000,   2.00000
-63886873.50549,-504552908.11109,29087436.24948,   0.00379,  -0.00302,   0.00167,482984096.00000,   0.00357,278459040.00000,   0.00310,  -0.00085,   0.00129, -32.00000,   2.00000
-65080890.92876,-505115652.50650,28713353.87834,   0.00379,  -0.00304,   0.00167,482990848.00000,   0.00359,278477920.00000,   0.00311,  -0.00087,   0.00129, 128.00000,   2.00000
-66264355.41725,-505670262.26359,28342729.51539,   0.00380,  -0.00306,   0.00166,483012320.00000,   0.00361,278496832.00000,   0.00311,  -0.00089,   0.00130, -32.00000,   2.00000
-67412844.42461,-506207482.66170,27976528.00260,   0.00380,  -0.00308,   0.00166,483018336.00000,   0.00363,278515616.00000,   0.00312,  -0.00091,   0.00130,  96.00000,   2.00000
-68544280.49201,-506735027.62500,27609698.36791,   0.00381,  -0.00310,   0.00166,483024096.00000,   0.00365,278534368.00000,   0.00313,  -0.00093,   0.00130, 128.00000,   2.00000
-69665668.46538,-507255155.07624,27246366.17449,   0.00381,  -0.00312,   0.00166,483045184.00000,   0.00366,278553088.00000,   0.00314,  -0.00095,   0.00131,  32.00000,   2.00000
-70752663.04983,-507758325.18003,26887432.27334,   0.00381,  -0.00314,   0.00166,483050912.00000,   0.00368,278571776.00000,   0.00315,  -0.00097,   0.00131,  64.00000,   2.00000
-71829943.03462,-508254380.02566,26531973.56503,   0.00382,  -0.00316,   0.00166,483071872.00000,   0.00370,278590432.00000,   0.00315,  -0.00099,   0.00131,  32.00000,   2.00000
-72890789.71957,-508740786.15662,26180826.99641,   0.00382,  -0.00318,   0.00166,483078208.00000,   0.00372,278608992.00000,   0.00316,  -0.00101,   0.00132,  64.00000,   2.00000
-73917856.74563,-509211590.56762,25829018.94307,   0.00383,  -0.00320,   0.00166,483082720.00000,   0.00374,278627520.00000,   0.00317,  -0.00103,   0.00132,  32.00000,   2.00000
-74928978.07977,-509673111.23003,25481497.01546,   0.00383,  -0.00322,   0.00166,483088800.00000,   0.00375,278645952.00000,   0.00318,  -0.00105,   0.00132,  64.00000,   2.00000
-75931001.55155,-510128262.03405,25137422.50660,   0.00383,  -0.00324,   0.00165,483109568.00000,   0.00377,278664384.00000,   0.00318,  -0.00107,   0.00133, -32.00000,   2.00000
-76899824.82382,-510568448.09838,24792635.82890,   0.00384,  -0.00326,   0.00165,483113984.00000,   0.00379,278682752.00000,   0.00319,  -0.00109,   0.00133,  64.00000,   2.00000
-77877417.68071,-511009130.99778,24451252.59083,   0.00384,  -0.00328,   0.00165,483135520.00000,   0.00381,278701120.00000,   0.00320,  -0.00111,   0.00133,  32.00000,   2.00000
-78797902.50936,-511425213.50448,24114928.23406,   0.00385,  -0.00330,   0.00165,483124800.00000,   0.00382,278719328.00000,   0.00321,  -0.00113,   0.00134,  32.00000,   2.00000
-79727585.80072,-511842028.50035,23781931.20864,   0.00385,  -0.00332,   0.00165,483146304.00000,   0.00384,278737536.00000,   0.00321,  -0.00115,   0.00134, -32.00000,   2.00000
-80624786.62842,-512243989.15540,23453087.94400,   0.00385,  -0.00334,   0.00165,483151008.00000,   0.00386,278755680.00000,   0.00322,  -0.00117,   0.00134,  32.00000,   2.00000
-81507409.30945,-512638643.62699,23123317.76856,   0.00386,  -0.00336,   0.00165,483155776.00000,   0.00388,278773760.00000,   0.00323,  -0.00119,   0.00135,  32.00000,   2.00000
-82382039.41734,-513027765.03048,22796875.74605,   0.00386,  -0.00338,   0.00164,483176192.00000,   0.00389,278791808.00000,   0.00324,  -0.00121,   0.00135,  32.00000,   2.00000
-83218333.47261,-513400086.02877,22475210.32002,   0.00387,  -0.00340,   0.00164,483165952.00000,   0.00391,278809760.00000,   0.00324,  -0.00123,   0.00135,  32.00000,   2.00000
-84064650.16390,-513774469.55832,22151757.81914,   0.00387,  -0.00342,   0.00164,483186432.00000,   0.00393,278827680.00000,   0.00325,  -0.00125,   0.00135, -32.00000,   2.00000
-84861925.87127,-514128462.38575,21832366.26827,   0.00387,  -0.00344,   0.00164,483189568.00000,   0.00395,278845536.00000,   0.00326,  -0.00127,   0.00136,   0.00000,   2.00000
-85663152.73175,-514481533.28488,21516824.17322,   0.00388,  -0.00346,   0.00164,483195808.00000,   0.00396,278863296.00000,   0.00327,  -0.00129,   0.00136,   0.00000,   2.00000
-86433351.72788,-514821107.21036,21205184.36460,   0.00388,  -0.00348,   0.00164,483199840.00000,   0.00398,278881024.00000,   0.00327,  -0.00131,   0.00136,  32.00000,   2.00000
-87196734.71281,-515156886.68190,20891698.35041,   0.00389,  -0.00350,   0.00164,483219008.00000,   0.00400,278898720.00000,   0.00328,  -0.00133,   0.00136, 192.00000,   2.00000
-87940675.44090,-515483176.31717,20582645.68032,   0.00389,  -0.00352,   0.00163,483209248.00000,   0.00402,278916320.00000,   0.00329,  -0.00135,   0.00137, -32.00000,   2.00000
-88678037.98279,-515805260.58968,20276696.16096,   0.00390,  -0.00354,   0.00163,483228768.00000,   0.00403,278933888.00000,   0.00329,  -0.00137,   0.00137, -96.00000,   2.00000
-89378927.50278,-516112801.19814,19970114.23600,   0.00390,  -0.00356,   0.00163,483216768.00000,   0.00405,278951328.00000,   0.00330,  -0.00139,   0.00137, -32.00000,   2.00000
-90073664.73420,-516416271.26917,19666584.76102,   0.00390,  -0.00358,   0.00163,483236416.00000,   0.00407,278968768.00000,   0.00331,  -0.00141,   0.00137,   0.00000,   2.00000
-90749876.68375,-516711097.89427,19367273.80041,   0.00391,  -0.00360,   0.00163,483226112.00000,   0.00408,278986048.00000,   0.00331,  -0.00143,   0.00138,   0.00000,   2.00000
-91402746.95126,-516996000.68427,19070979.39529,   0.00391,  -0.00362,   0.00163,483244000.00000,   0.00410,279003360.00000,   0.00332,  -0.00145,   0.00138,   0.00000,   2.00000
-92043833.53626,-517275553.78854,18773196.90003,   0.00392,  -0.00364,   0.00162,483247808.00000,   0.00412,279020576.00000,   0.00333,  -0.00146,   0.00138,  32.00000,   2.00000
-92667060.00515,-517546830.20039,18479475.90240,   0.00392,  -0.00366,   0.00162,483237184.00000,   0.00413,279037664.00000,   0.00333,  -0.00148,   0.00138, -64.00000,   2.00000
-93284892.15183,-517813869.36506,18188597.04070,   0.00393,  -0.00368,   0.00162,483256224.00000,   0.00415,279054752.00000,   0.00334,  -0.00150,   0.00139,-928.00000,   1.00000
-93874052.00071,-518071162.18611,17896210.39971,   0.00393,  -0.00370,   0.00162,483257408.00000,   0.00417,279071776.00000,   0.00335,  -0.00152,   0.00139,-512.00000,   1.00000
-94446002.26531,-518320680.36069,17607738.60094,   0.00394,  -0.00371,   0.00162,483246816.00000,   0.00418,279088672.00000,   0.00335,  -0.00154,   0.00139,-160.00000,   1.00000
-95007075.31884,-518564997.93564,17322583.89949,   0.00394,  -0.00373,   0.00162,483250944.00000,   0.00420,279105472.00000,   0.00336,  -0.00156,   0.00139, 320.00000,   1.00000
-95563530.07823,-518806953.96727,17035173.14541,   0.00394,  -0.00375,   0.00161,483269568.00000,   0.00422,279122272.00000,   0.00337,  -0.00158,   0.00139, 832.00000,   1.00000
-96103107.45124,-519040147.36184,16751486.43656,   0.00395,  -0.00377,   0.00161,483258720.00000,   0.00423,279138976.00000,   0.00337,  -0.00160,   0.00140,  32.00000,   2.00000
-96614829.57817,-519263215.00907,16471079.90997,   0.00395,  -0.00379,   0.00161,483260064.00000,   0.00425,279155584.00000,   0.00338,  -0.00162,   0.00140,  32.00000,   2.00000
-97116361.89516,-519481730.04774,16188807.81873,   0.00396,  -0.00381,   0.00161,483263008.00000,   0.00426,279172128.00000,   0.00339,  -0.00163,   0.00140, -32.00000,   2.00000
-97607817.24460,-519695652.01637,15909685.53222,   0.00396,  -0.00383,   0.00161,483266112.00000,   0.00428,279188576.00000,   0.00339,  -0.00165,   0.00140, -32.00000,   2.00000
-98071840.85307,-519898882.43694,15633702.37850,   0.00397,  -0.00385,   0.00161,483267904.00000,   0.00430,279204992.00000,   0.00340,  -0.00167,   0.00140,  32.00000,   2.00000
-98537646.53706,-520101818.35511,15356160.67827,   0.00397,  -0.00386,   0.00160,483256928.00000,   0.00431,279221248.00000,   0.00341,  -0.00169,   0.00140, -64.00000,   2.00000
-98982292.47287,-520296458.59479,15081243.44422,   0.00398,  -0.00388,   0.00160,483273408.00000,   0.00433,279237536.00000,   0.00341,  -0.00171,   0.00141, -96.00000,   2.00000
-99411484.04125,-520484641.75568,14809755.95930,   0.00398,  -0.00390,   0.00160,483261312.00000,   0.00434,279253664.00000,   0.00342,  -0.00173,   0.00141,  32.00000,   2.00000
-99813942.22160,-520663052.48219,14536228.54187,   0.00399,  -0.00392,   0.00160,483262080.00000,   0.00436,279269728.00000,   0.00342,  -0.00174,   0.00141,  64.00000,   2.00000
-100224731.53226,-520843121.37650,14265579.66304,   0.00399,  -0.00394,   0.00160,483266336.00000,   0.00437,279285728.00000,   0.00343,  -0.00176,   0.00141,  32.00000,   2.00000
-100603007.71215,-521010901.30095,13998259.03495,   0.00400,  -0.00395,   0.00159,483252256.00000,   0.00439,279301600.00000,   0.00344,  -0.00178,   0.00141,-128.00000,   2.00000
-100972503.72778,-521175363.13077,13728750.15099,   0.00400,  -0.00397,   0.00159,483254048.00000,   0.00440,279317408.00000,   0.00344,  -0.00180,   0.00141,-128.00000,   2.00000
