# sigma_xx, sigma_yy, sigma_xy, epsilon_xx, epsilon_yy, epsilon_xy, vonMises, epsPlastic, hardening, epsilonP__xx, epsilonP__yy, epsilonP__xy, yieldValue, iteration
   0.00000,   0.00000,   0.00000,   0.00000,   0.00000,   0.00000,1181185.37500,   0.00000,274640576.00000,   0.00000,   0.00000,   0.00000,-473459392.00000,   0.00000
   0.00000,   0.00000,   0.00000,   0.00000,   0.00000,   0.00000,1181185.37500,   0.00000,274640576.00000,   0.00000,   0.00000,   0.00000,-473459392.00000,   0.00000
-1068421.68064,-858240.36642,337165.85823,  -0.00000,  -0.00000,   0.00000,694058.81250,   0.00000,274640576.00000,   0.00000,   0.00000,   0.00000,-473946528.00000,   0.00000
-2136843.36128,-1716480.73283,674331.71647,  -0.00001,  -0.00000,   0.00001,1957323.50000,   0.00000,274640576.00000,   0.00000,   0.00000,   0.00000,-472683264.00000,   0.00000
-3218401.37406,-2605372.54091,1011497.57470,  -0.00001,  -0.00001,   0.00001,3046257.25000,   0.00000,274640576.00000,   0.00000,   0.00000,   0.00000,-471594304.00000,   0.00000
-4262739.77911,-3465802.29601,1353042.21032,  -0.00001,  -0.00001,   0.00002,4176175.25000,   0.00000,274640576.00000,   0.00000,   0.00000,   0.00000,-470464416.00000,   0.00000
-5335540.23713,-4363451.65885,1694586.84593,  -0.00002,  -0.00001,   0.00002,5390820.50000,   0.00000,274640576.00000,   0.00000,   0.00000,   0.00000,-469249760.00000,   0.00000
-6393014.97432,-5254532.85561,2036131.48155,  -0.00002,  -0.00001,   0.00003,6563412.00000,   0.00000,274640576.00000,   0.00000,   0.00000,   0.00000,-468077168.00000,   0.00000
-7441732.15676,-6154371.60713,2377676.11716,  -0.00002,  -0.00001,   0.00003,7704383.00000,   0.00000,274640576.00000,   0.00000,   0.00000,   0.00000,-466936192.00000,   0.00000
-8490449.33919,-7054210.35865,2723599.53016,  -0.00002,  -0.00002,   0.00004,8839134.00000,   0.00000,274640576.00000,   0.00000,   0.00000,   0.00000,-465801440.00000,   0.00000
-9536977.13293,-7978132.38577,3069522.94315,  -0.00003,  -0.00002,   0.00004,9977951.00000,   0.00000,274640576.00000,   0.00000,   0.00000,   0.00000,-464662624.00000,   0.00000
-10576936.76060,-8886728.69205,3415446.35615,  -0.00003,  -0.00002,   0.00004,11107599.00000,   0.00000,274640576.00000,   0.00000,   0.00000,   0.00000,-463532976.00000,   0.00000
-11630032.72041,-9825976.43999,3761369.76914,  -0.00003,  -0.00002,   0.00005,12252614.00000,   0.00000,274640576.00000,   0.00000,   0.00000,   0.00000,-462387968.00000,   0.00000
-12667802.95940,-10758656.02186,4111671.95951,  -0.00004,  -0.00002,   0.00005,13390646.00000,   0.00000,274640576.00000,   0.00000,   0.00000,   0.00000,-461249936.00000,   0.00000
-13696815.64362,-11700093.15849,4461974.14989,  -0.00004,  -0.00003,   0.00006,14528171.00000,   0.00000,274640576.00000,   0.00000,   0.00000,   0.00000,-460112400.00000,   0.00000
-14725828.32784,-12641530.29512,4812276.34026,  -0.00004,  -0.00003,   0.00006,15668840.00000,   0.00000,274640576.00000,   0.00000,   0.00000,   0.00000,-458971744.00000,   0.00000
-15761409.17814,-13598293.15258,5166957.30802,  -0.00005,  -0.00003,   0.00007,16826752.00000,   0.00000,274640576.00000,   0.00000,   0.00000,   0.00000,-457813824.00000,   0.00000
-16788232.47367,-14563813.56480,5517259.49839,  -0.00005,  -0.00003,   0.00007,17984942.00000,   0.00000,274640576.00000,   0.00000,   0.00000,   0.00000,-456655632.00000,   0.00000
-17815055.76920,-15529333.97701,5871940.46614,  -0.00005,  -0.00004,   0.00008,19153102.00000,   0.00000,274640576.00000,   0.00000,   0.00000,   0.00000,-455487472.00000,   0.00000
-18833121.50998,-16503611.94399,6226621.43390,  -0.00005,  -0.00004,   0.00008,20325128.00000,   0.00000,274640576.00000,   0.00000,   0.00000,   0.00000,-454315456.00000,   0.00000
-19857755.41682,-17493215.63180,6585681.17903,  -0.00006,  -0.00004,   0.00009,21514222.00000,   0.00000,274640576.00000,   0.00000,   0.00000,   0.00000,-453126352.00000,   0.00000
-20867063.60284,-18476251.15353,6944740.92416,  -0.00006,  -0.00004,   0.00009,22696674.00000,   0.00000,274640576.00000,   0.00000,   0.00000,   0.00000,-451943904.00000,   0.00000
-21882939.95492,-19474612.39610,7303800.66930,  -0.00006,  -0.00005,   0.00009,23889916.00000,   0.00000,274640576.00000,   0.00000,   0.00000,   0.00000,-450750656.00000,   0.00000
-22883490.58618,-20466405.47260,7662860.41443,  -0.00006,  -0.00005,   0.00010,25074100.00000,   0.00000,274640576.00000,   0.00000,   0.00000,   0.00000,-449566480.00000,   0.00000
-23890609.38350,-21473524.26992,8021920.15956,  -0.00007,  -0.00005,   0.00010,26267016.00000,   0.00000,274640576.00000,   0.00000,   0.00000,   0.00000,-448373568.00000,   0.00000
-24882402.46000,-22474074.90118,8385358.68208,  -0.00007,  -0.00005,   0.00011,27453112.00000,   0.00000,274640576.00000,   0.00000,   0.00000,   0.00000,-447187456.00000,   0.00000
-25887331.86863,-23505276.97409,8748797.20459,  -0.00007,  -0.00006,   0.00011,28655512.00000,   0.00000,274640576.00000,   0.00000,   0.00000,   0.00000,-445985056.00000,   0.00000
-26885693.11120,-24521153.32617,9112235.72710,  -0.00007,  -0.00006,   0.00012,29847268.00000,   0.00000,274640576.00000,   0.00000,   0.00000,   0.00000,-444793312.00000,   0.00000
-27881864.96507,-25561112.95385,9480053.02699,  -0.00008,  -0.00006,   0.00012,31048852.00000,   0.00000,274640576.00000,   0.00000,   0.00000,   0.00000,-443591728.00000,   0.00000
-28878036.81895,-26601072.58152,9847870.32689,  -0.00008,  -0.00006,   0.00013,32248544.00000,   0.00000,274640576.00000,   0.00000,   0.00000,   0.00000,-442392032.00000,   0.00000
-29858882.95200,-27634464.04312,10215687.62678,  -0.00008,  -0.00007,   0.00013,33436758.00000,   0.00000,274640576.00000,   0.00000,   0.00000,   0.00000,-441203824.00000,   0.00000
-30846297.25111,-28683181.22555,10583504.92667,  -0.00008,  -0.00007,   0.00014,34632428.00000,   0.00000,274640576.00000,   0.00000,   0.00000,   0.00000,-440008144.00000,   0.00000
-31824953.99547,-29740655.96275,10955701.00394,  -0.00009,  -0.00007,   0.00014,35830188.00000,   0.00000,274640576.00000,   0.00000,   0.00000,   0.00000,-438810384.00000,   0.00000
-32803610.73983,-30798130.69994,11327897.08122,  -0.00009,  -0.00008,   0.00015,37027372.00000,   0.00000,274640576.00000,   0.00000,   0.00000,   0.00000,-437613200.00000,   0.00000
-33773509.92943,-31864362.99189,11700093.15849,  -0.00009,  -0.00008,   0.00015,38223688.00000,   0.00000,274640576.00000,   0.00000,   0.00000,   0.00000,-436416896.00000,   0.00000
-34749977.28509,-32945921.00467,12072289.23576,  -0.00009,  -0.00008,   0.00016,39429272.00000,   0.00000,274640576.00000,   0.00000,   0.00000,   0.00000,-435211296.00000,   0.00000
-35726444.64076,-34027479.01745,12448864.09041,  -0.00010,  -0.00009,   0.00016,40639540.00000,   0.00000,274640576.00000,   0.00000,   0.00000,   0.00000,-434001040.00000,   0.00000
-36687586.27560,-35102468.86416,12825438.94506,  -0.00010,  -0.00009,   0.00017,41841240.00000,   0.00000,274640576.00000,   0.00000,   0.00000,   0.00000,-432799328.00000,   0.00000
-37655296.07651,-36192784.43169,13202013.79972,  -0.00010,  -0.00009,   0.00017,43053248.00000,   0.00000,274640576.00000,   0.00000,   0.00000,   0.00000,-431587328.00000,   0.00000
-38614248.32265,-37291857.55399,13582967.43175,  -0.00010,  -0.00009,   0.00018,44270412.00000,   0.00000,274640576.00000,   0.00000,   0.00000,   0.00000,-430370160.00000,   0.00000
-39573200.56880,-38390930.67629,13959542.28640,  -0.00011,  -0.00010,   0.00018,45485280.00000,   0.00000,274640576.00000,   0.00000,   0.00000,   0.00000,-429155296.00000,   0.00000
-40516827.09412,-39483435.63252,14344874.69581,  -0.00011,  -0.00010,   0.00019,46700272.00000,   0.00000,274640576.00000,   0.00000,   0.00000,   0.00000,-427940304.00000,   0.00000
-41473589.95158,-40606592.03041,14725828.32784,  -0.00011,  -0.00010,   0.00019,47931336.00000,   0.00000,274640576.00000,   0.00000,   0.00000,   0.00000,-426709248.00000,   0.00000
-42423784.64297,-41714422.70746,15106781.95988,  -0.00011,  -0.00011,   0.00020,49154760.00000,   0.00000,274640576.00000,   0.00000,   0.00000,   0.00000,-425485824.00000,   0.00000
-43371789.94567,-42846336.66011,15492114.36929,  -0.00011,  -0.00011,   0.00020,50392708.00000,   0.00000,274640576.00000,   0.00000,   0.00000,   0.00000,-424247872.00000,   0.00000
-44313227.08230,-43962924.89193,15877446.77870,  -0.00012,  -0.00011,   0.00021,51622604.00000,   0.00000,274640576.00000,   0.00000,   0.00000,   0.00000,-423017968.00000,   0.00000
-45267800.55107,-45110164.56540,16267157.96549,  -0.00012,  -0.00012,   0.00021,52876164.00000,   0.00000,274640576.00000,   0.00000,   0.00000,   0.00000,-421764416.00000,   0.00000
-46207048.29901,-46250836.07281,16652490.37490,  -0.00012,  -0.00012,   0.00022,54117196.00000,   0.00000,274640576.00000,   0.00000,   0.00000,   0.00000,-420523376.00000,   0.00000
-47130970.32612,-47384939.41414,17042201.56169,  -0.00012,  -0.00012,   0.00022,55353396.00000,   0.00000,274640576.00000,   0.00000,   0.00000,   0.00000,-419287184.00000,   0.00000
-48076786.24013,-48540936.64238,17431912.74848,  -0.00012,  -0.00013,   0.00023,56608668.00000,   0.00000,274640576.00000,   0.00000,   0.00000,   0.00000,-418031904.00000,   0.00000
-48991950.71248,-49683797.53847,17826002.71265,  -0.00013,  -0.00013,   0.00023,57849624.00000,   0.00000,274640576.00000,   0.00000,   0.00000,   0.00000,-416790944.00000,   0.00000
-49929009.07173,-50848552.32146,18220092.67682,  -0.00013,  -0.00013,   0.00024,59109296.00000,   0.00000,274640576.00000,   0.00000,   0.00000,   0.00000,-415531280.00000,   0.00000
-50850741.71015,-52006738.93839,18614182.64099,  -0.00013,  -0.00014,   0.00024,60359576.00000,   0.00000,274640576.00000,   0.00000,   0.00000,   0.00000,-414280992.00000,   0.00000
-51779042.51464,-53180251.27614,19008272.60516,  -0.00013,  -0.00014,   0.00025,61619096.00000,   0.00000,274640576.00000,   0.00000,   0.00000,   0.00000,-413021472.00000,   0.00000
-52692017.59831,-54347195.44782,19402362.56934,  -0.00013,  -0.00014,   0.00025,62869304.00000,   0.00000,274640576.00000,   0.00000,   0.00000,   0.00000,-411771264.00000,   0.00000
-53611560.84804,-55529465.34033,19800831.31089,  -0.00014,  -0.00015,   0.00026,64132740.00000,   0.00000,274640576.00000,   0.00000,   0.00000,   0.00000,-410507840.00000,   0.00000
-54515778.37694,-56705167.06678,20199300.05244,  -0.00014,  -0.00015,   0.00026,65386932.00000,   0.00000,274640576.00000,   0.00000,   0.00000,   0.00000,-409253648.00000,   0.00000
-55426564.07191,-57896194.51405,20602147.57137,  -0.00014,  -0.00016,   0.00027,66654588.00000,   0.00000,274640576.00000,   0.00000,   0.00000,   0.00000,-407985984.00000,   0.00000
-56337349.76688,-59087221.96132,21000616.31292,  -0.00014,  -0.00016,   0.00027,67918296.00000,   0.00000,274640576.00000,   0.00000,   0.00000,   0.00000,-406722272.00000,   0.00000
-57254703.62793,-60293575.12942,21403463.83185,  -0.00014,  -0.00016,   0.00028,69195632.00000,   0.00000,274640576.00000,   0.00000,   0.00000,   0.00000,-405444944.00000,   0.00000
-58156731.76814,-61493360.13145,21806311.35078,  -0.00014,  -0.00017,   0.00028,70464304.00000,   0.00000,274640576.00000,   0.00000,   0.00000,   0.00000,-404176272.00000,   0.00000
-59043434.18752,-62686576.96741,22213537.64709,  -0.00015,  -0.00017,   0.00029,71728584.00000,   0.00000,274640576.00000,   0.00000,   0.00000,   0.00000,-402912000.00000,   0.00000
-59952030.49381,-63901687.69027,22616385.16602,  -0.00015,  -0.00017,   0.00029,73007936.00000,   0.00000,274640576.00000,   0.00000,   0.00000,   0.00000,-401632640.00000,   0.00000
-60851869.24533,-65125555.96789,23023611.46233,  -0.00015,  -0.00018,   0.00030,74292792.00000,   0.00000,274640576.00000,   0.00000,   0.00000,   0.00000,-400347776.00000,   0.00000
-61729814.10995,-66327530.35861,23435216.53601,  -0.00015,  -0.00018,   0.00030,75564072.00000,   0.00000,274640576.00000,   0.00000,   0.00000,   0.00000,-399076512.00000,   0.00000
-62620895.30672,-67560156.19099,23842442.83232,  -0.00015,  -0.00019,   0.00031,76851752.00000,   0.00000,274640576.00000,   0.00000,   0.00000,   0.00000,-397788832.00000,   0.00000
-63505408.33741,-68777456.30254,24254047.90601,  -0.00015,  -0.00019,   0.00032,78134952.00000,   0.00000,274640576.00000,   0.00000,   0.00000,   0.00000,-396505632.00000,   0.00000
-64403057.70024,-70025407.85575,24665652.97970,  -0.00016,  -0.00019,   0.00032,79438712.00000,   0.00000,274640576.00000,   0.00000,   0.00000,   0.00000,-395201856.00000,   0.00000
-65278813.17618,-71251465.52205,25077258.05339,  -0.00016,  -0.00020,   0.00033,80725320.00000,   0.00000,274640576.00000,   0.00000,   0.00000,   0.00000,-393915264.00000,   0.00000
-66161136.81818,-72492848.90919,25493241.90446,  -0.00016,  -0.00020,   0.00033,82027000.00000,   0.00000,274640576.00000,   0.00000,   0.00000,   0.00000,-392613568.00000,   0.00000
-67028134.73936,-73727664.13026,25909225.75553,  -0.00016,  -0.00020,   0.00034,83321272.00000,   0.00000,274640576.00000,   0.00000,   0.00000,   0.00000,-391319296.00000,   0.00000
-67901700.82660,-74977805.07216,26325209.60660,  -0.00016,  -0.00021,   0.00034,84626600.00000,   0.00000,274640576.00000,   0.00000,   0.00000,   0.00000,-390013984.00000,   0.00000
-68775266.91385,-76227946.01405,26741193.45767,  -0.00016,  -0.00021,   0.00035,85933144.00000,   0.00000,274640576.00000,   0.00000,   0.00000,   0.00000,-388707424.00000,   0.00000
-69655401.16716,-77493412.67678,27161556.08612,  -0.00017,  -0.00022,   0.00035,87254736.00000,   0.00000,274640576.00000,   0.00000,   0.00000,   0.00000,-387385840.00000,   0.00000
-70520209.69965,-78752311.17344,27581918.71457,  -0.00017,  -0.00022,   0.00036,88568712.00000,   0.00000,274640576.00000,   0.00000,   0.00000,   0.00000,-386071872.00000,   0.00000
-71385018.23213,-80011209.67009,28002281.34301,  -0.00017,  -0.00022,   0.00036,89883584.00000,   0.00000,274640576.00000,   0.00000,   0.00000,   0.00000,-384756992.00000,   0.00000
-72241069.20986,-81278865.72151,28427022.74884,  -0.00017,  -0.00023,   0.00037,91204640.00000,   0.00000,274640576.00000,   0.00000,   0.00000,   0.00000,-383435936.00000,   0.00000
-73097120.18759,-82546521.77292,28851764.15467,  -0.00017,  -0.00023,   0.00038,92526504.00000,   0.00000,274640576.00000,   0.00000,   0.00000,   0.00000,-382114080.00000,   0.00000
-73959739.33138,-83829503.54517,29276505.56050,  -0.00017,  -0.00024,   0.00038,93858776.00000,   0.00000,274640576.00000,   0.00000,   0.00000,   0.00000,-380781792.00000,   0.00000
-74822358.47518,-85112485.31741,29701246.96633,  -0.00017,  -0.00024,   0.00039,95191448.00000,   0.00000,274640576.00000,   0.00000,   0.00000,   0.00000,-379449120.00000,   0.00000
-75669651.89815,-86388898.92359,30130367.14954,  -0.00018,  -0.00025,   0.00039,96520112.00000,   0.00000,274640576.00000,   0.00000,   0.00000,   0.00000,-378120464.00000,   0.00000
-76516945.32111,-87665312.52976,30559487.33274,  -0.00018,  -0.00025,   0.00040,97849064.00000,   0.00000,274640576.00000,   0.00000,   0.00000,   0.00000,-376791520.00000,   0.00000
-77355481.18932,-88950483.69070,30988607.51595,  -0.00018,  -0.00025,   0.00040,99179688.00000,   0.00000,274640576.00000,   0.00000,   0.00000,   0.00000,-375460896.00000,   0.00000
-78215910.94443,-90257548.73853,31417727.69916,  -0.00018,  -0.00026,   0.00041,100528832.00000,   0.00000,274640576.00000,   0.00000,   0.00000,   0.00000,-374111744.00000,   0.00000
-79054446.81263,-91542719.89946,31851226.65975,  -0.00018,  -0.00026,   0.00041,101863880.00000,   0.00000,274640576.00000,   0.00000,   0.00000,   0.00000,-372776704.00000,   0.00000
-79884225.12608,-92836648.61516,32284725.62034,  -0.00018,  -0.00027,   0.00042,103200680.00000,   0.00000,274640576.00000,   0.00000,   0.00000,   0.00000,-371439904.00000,   0.00000
-80735897.32643,-94152471.21775,32718224.58092,  -0.00018,  -0.00027,   0.00043,104555832.00000,   0.00000,274640576.00000,   0.00000,   0.00000,   0.00000,-370084736.00000,   0.00000
-81565675.63988,-95446399.93344,33156102.31889,  -0.00019,  -0.00028,   0.00043,105897040.00000,   0.00000,274640576.00000,   0.00000,   0.00000,   0.00000,-368743536.00000,   0.00000
-82402022.11939,-96755654.36997,33589601.27948,  -0.00019,  -0.00028,   0.00044,107244368.00000,   0.00000,274640576.00000,   0.00000,   0.00000,   0.00000,-367396208.00000,   0.00000
-83229611.04415,-98073666.36125,34027479.01745,  -0.00019,  -0.00028,   0.00044,108597840.00000,   0.00000,274640576.00000,   0.00000,   0.00000,   0.00000,-366042736.00000,   0.00000
-84065957.52367,-99382920.79777,34469735.53279,  -0.00019,  -0.00029,   0.00045,109953960.00000,   0.00000,274640576.00000,   0.00000,   0.00000,   0.00000,-364686624.00000,   0.00000
-84893546.44843,-100700932.78905,34907613.27076,  -0.00019,  -0.00029,   0.00045,111308144.00000,   0.00000,274640576.00000,   0.00000,   0.00000,   0.00000,-363332432.00000,   0.00000
-85712377.81843,-102027702.33509,35349869.78611,  -0.00019,  -0.00030,   0.00046,112668776.00000,   0.00000,274640576.00000,   0.00000,   0.00000,   0.00000,-361971808.00000,   0.00000
-86539966.74319,-103345714.32637,35792126.30145,  -0.00019,  -0.00030,   0.00047,114028056.00000,   0.00000,274640576.00000,   0.00000,   0.00000,   0.00000,-360612512.00000,   0.00000
-87358798.11318,-104672483.87242,36234382.81680,  -0.00019,  -0.00031,   0.00047,115389696.00000,   0.00000,274640576.00000,   0.00000,   0.00000,   0.00000,-359250880.00000,   0.00000
-88177629.48318,-105999253.41846,36681018.10953,  -0.00019,  -0.00031,   0.00048,116756056.00000,   0.00000,274640576.00000,   0.00000,   0.00000,   0.00000,-357884512.00000,   0.00000
-88987703.29842,-107334780.51926,37127653.40226,  -0.00020,  -0.00031,   0.00048,118124920.00000,   0.00000,274640576.00000,   0.00000,   0.00000,   0.00000,-356515648.00000,   0.00000
-89813102.83449,-108676875.78613,37574288.69498,  -0.00020,  -0.00032,   0.00049,119502416.00000,   0.00000,274640576.00000,   0.00000,   0.00000,   0.00000,-355138160.00000,   0.00000
-90623176.64973,-110012402.88693,38025302.76509,  -0.00020,  -0.00032,   0.00049,120876696.00000,   0.00000,274640576.00000,   0.00000,   0.00000,   0.00000,-353763872.00000,   0.00000
-91433250.46497,-111347929.98773,38471938.05782,  -0.00020,  -0.00033,   0.00050,122247320.00000,   0.00000,274640576.00000,   0.00000,   0.00000,   0.00000,-352393248.00000,   0.00000
-92234566.72545,-112692214.64329,38922952.12792,  -0.00020,  -0.00033,   0.00051,123624880.00000,   0.00000,274640576.00000,   0.00000,   0.00000,   0.00000,-351015696.00000,   0.00000
-93044640.54069,-114027741.74409,39378344.97541,  -0.00020,  -0.00034,   0.00051,125005080.00000,   0.00000,274640576.00000,   0.00000,   0.00000,   0.00000,-349635488.00000,   0.00000
-93852524.96724,-115387352.12048,39829359.04551,  -0.00020,  -0.00034,   0.00052,126394216.00000,   0.00000,274640576.00000,   0.00000,   0.00000,   0.00000,-348246368.00000,   0.00000
-94653841.22772,-116731636.77604,40284751.89300,  -0.00020,  -0.00035,   0.00052,127778016.00000,   0.00000,274640576.00000,   0.00000,   0.00000,   0.00000,-346862560.00000,   0.00000
-95446399.93344,-118084678.98636,40740144.74049,  -0.00020,  -0.00035,   0.00053,129165112.00000,   0.00000,274640576.00000,   0.00000,   0.00000,   0.00000,-345475456.00000,   0.00000
-96254284.35999,-119444289.36275,41195537.58797,  -0.00021,  -0.00036,   0.00054,130560800.00000,   0.00000,274640576.00000,   0.00000,   0.00000,   0.00000,-344079776.00000,   0.00000
-97046843.06571,-120797331.57306,41655309.21284,  -0.00021,  -0.00036,   0.00054,131953776.00000,   0.00000,274640576.00000,   0.00000,   0.00000,   0.00000,-342686800.00000,   0.00000
-97839401.77143,-122150373.78338,42110702.06032,  -0.00021,  -0.00036,   0.00055,133343672.00000,   0.00000,274640576.00000,   0.00000,   0.00000,   0.00000,-341296896.00000,   0.00000
-98638528.64322,-123518741.71453,42570473.68519,  -0.00021,  -0.00037,   0.00055,134748784.00000,   0.00000,274640576.00000,   0.00000,   0.00000,   0.00000,-339891792.00000,   0.00000
-99422329.79419,-124880541.47961,43034624.08744,  -0.00021,  -0.00037,   0.00056,136151360.00000,   0.00000,274640576.00000,   0.00000,   0.00000,   0.00000,-338489216.00000,   0.00000
-100206130.94515,-126242341.24469,43494395.71230,  -0.00021,  -0.00038,   0.00057,137550832.00000,   0.00000,274640576.00000,   0.00000,   0.00000,   0.00000,-337089744.00000,   0.00000
-100989932.09611,-127604141.00977,43958546.11455,  -0.00021,  -0.00038,   0.00057,138955440.00000,   0.00000,274640576.00000,   0.00000,   0.00000,   0.00000,-335685136.00000,   0.00000
-101773733.24707,-128965940.77485,44422696.51679,  -0.00021,  -0.00039,   0.00058,140360928.00000,   0.00000,274640576.00000,   0.00000,   0.00000,   0.00000,-334279648.00000,   0.00000
-102564102.56410,-130343066.26075,44891225.69642,  -0.00021,  -0.00039,   0.00058,141781728.00000,   0.00000,274640576.00000,   0.00000,   0.00000,   0.00000,-332858848.00000,   0.00000
-103339146.16030,-131713623.58059,45355376.09866,  -0.00021,  -0.00040,   0.00059,143191504.00000,   0.00000,274640576.00000,   0.00000,   0.00000,   0.00000,-331449072.00000,   0.00000
-104129515.47734,-133090749.06650,45823905.27829,  -0.00021,  -0.00040,   0.00060,144613680.00000,   0.00000,274640576.00000,   0.00000,   0.00000,   0.00000,-330026896.00000,   0.00000
-104911127.23961,-134476632.10717,46292434.45791,  -0.00022,  -0.00041,   0.00060,146039136.00000,   0.00000,274640576.00000,   0.00000,   0.00000,   0.00000,-328601440.00000,   0.00000
-105686170.83581,-135847189.42700,46765342.41492,  -0.00022,  -0.00041,   0.00061,147458848.00000,   0.00000,274640576.00000,   0.00000,   0.00000,   0.00000,-327181728.00000,   0.00000
-106452456.87725,-137226504.30160,47233871.59454,  -0.00022,  -0.00042,   0.00061,148877296.00000,   0.00000,274640576.00000,   0.00000,   0.00000,   0.00000,-325763280.00000,   0.00000
-107234068.63952,-138612387.34227,47706779.55155,  -0.00022,  -0.00042,   0.00062,150307904.00000,   0.00000,274640576.00000,   0.00000,   0.00000,   0.00000,-324332672.00000,   0.00000
-108000354.68097,-139991702.21687,48179687.50855,  -0.00022,  -0.00043,   0.00063,151730912.00000,   0.00000,274640576.00000,   0.00000,   0.00000,   0.00000,-322909664.00000,   0.00000
-108766640.72241,-141371017.09146,48656974.24294,  -0.00022,  -0.00043,   0.00063,153158240.00000,   0.00000,274640576.00000,   0.00000,   0.00000,   0.00000,-321482336.00000,   0.00000
-109539494.92992,-142765657.68689,49129882.19994,  -0.00022,  -0.00044,   0.00064,154591680.00000,   0.00000,274640576.00000,   0.00000,   0.00000,   0.00000,-320048896.00000,   0.00000
-110305780.97137,-144144972.56149,49607168.93433,  -0.00022,  -0.00044,   0.00064,156018752.00000,   0.00000,274640576.00000,   0.00000,   0.00000,   0.00000,-318621824.00000,   0.00000
-111063309.45805,-145533044.99084,50084455.66871,  -0.00022,  -0.00045,   0.00065,157448576.00000,   0.00000,274640576.00000,   0.00000,   0.00000,   0.00000,-317192000.00000,   0.00000
-111836163.66556,-146927685.58627,50566121.18047,  -0.00022,  -0.00045,   0.00066,158889952.00000,   0.00000,274640576.00000,   0.00000,   0.00000,   0.00000,-315750624.00000,   0.00000
-112593692.15225,-148315758.01563,51043407.91486,  -0.00022,  -0.00046,   0.00066,160319520.00000,   0.00000,274640576.00000,   0.00000,   0.00000,   0.00000,-314321056.00000,   0.00000
-113357788.80500,-149719156.16581,51525073.42662,  -0.00022,  -0.00046,   0.00067,161763600.00000,   0.00000,274640576.00000,   0.00000,   0.00000,   0.00000,-312876976.00000,   0.00000
-114115317.29168,-151107228.59517,52006738.93839,  -0.00022,  -0.00047,   0.00068,163197392.00000,   0.00000,274640576.00000,   0.00000,   0.00000,   0.00000,-311443184.00000,   0.00000
-114879413.94444,-152510626.74535,52492783.22753,  -0.00023,  -0.00047,   0.00068,164645792.00000,   0.00000,274640576.00000,   0.00000,   0.00000,   0.00000,-309994784.00000,   0.00000
-115621616.71029,-153892131.00864,52974448.73930,  -0.00023,  -0.00047,   0.00069,166072512.00000,   0.00000,274640576.00000,   0.00000,   0.00000,   0.00000,-308568064.00000,   0.00000
-116385713.36304,-155295529.15883,53460493.02844,  -0.00023,  -0.00048,   0.00069,167521536.00000,   0.00000,274640576.00000,   0.00000,   0.00000,   0.00000,-307119040.00000,   0.00000
-117134484.29497,-156692359.14294,53946537.31758,  -0.00023,  -0.00048,   0.00070,168963728.00000,   0.00000,274640576.00000,   0.00000,   0.00000,   0.00000,-305676848.00000,   0.00000
-117898580.94772,-158095757.29313,54436960.38411,  -0.00023,  -0.00049,   0.00071,170418224.00000,   0.00000,274640576.00000,   0.00000,   0.00000,   0.00000,-304222352.00000,   0.00000
-118647351.87964,-159492587.27724,54923004.67325,  -0.00023,  -0.00049,   0.00071,171862128.00000,   0.00000,274640576.00000,   0.00000,   0.00000,   0.00000,-302778448.00000,   0.00000
-119402690.97764,-160904742.98219,55413427.73977,  -0.00023,  -0.00050,   0.00072,173321536.00000,   0.00000,274640576.00000,   0.00000,   0.00000,   0.00000,-301319040.00000,   0.00000
-120136136.18873,-162295004.80023,55903850.80630,  -0.00023,  -0.00050,   0.00073,174764704.00000,   0.00000,274640576.00000,   0.00000,   0.00000,   0.00000,-299875872.00000,   0.00000
-120891475.28673,-163707160.50518,56394273.87282,  -0.00023,  -0.00051,   0.00073,176227024.00000,   0.00000,274640576.00000,   0.00000,   0.00000,   0.00000,-298413552.00000,   0.00000
-121640246.21865,-165103990.48930,56889075.71672,  -0.00023,  -0.00051,   0.00074,177684496.00000,   0.00000,274640576.00000,   0.00000,   0.00000,   0.00000,-296956080.00000,   0.00000
-122380259.59582,-166509578.02817,57379498.78325,  -0.00023,  -0.00052,   0.00075,179142464.00000,   0.00000,274640576.00000,   0.00000,   0.00000,   0.00000,-295498112.00000,   0.00000
-123135598.69381,-167921733.73312,57874300.62715,  -0.00023,  -0.00052,   0.00075,180613456.00000,   0.00000,274640576.00000,   0.00000,   0.00000,   0.00000,-294027120.00000,   0.00000
-123875612.07098,-169327321.27199,58373481.24843,  -0.00023,  -0.00053,   0.00076,182082688.00000,   0.00000,274640576.00000,   0.00000,   0.00000,   0.00000,-292557888.00000,   0.00000
-124615625.44814,-170732908.81087,58868283.09234,  -0.00023,  -0.00053,   0.00077,183548640.00000,   0.00000,274640576.00000,   0.00000,   0.00000,   0.00000,-291091936.00000,   0.00000
-125355638.82531,-172138496.34974,59367463.71362,  -0.00023,  -0.00054,   0.00077,185019328.00000,   0.00000,274640576.00000,   0.00000,   0.00000,   0.00000,-289621248.00000,   0.00000
-126095652.20247,-173544083.88862,59862265.55752,  -0.00024,  -0.00054,   0.00078,186485744.00000,   0.00000,274640576.00000,   0.00000,   0.00000,   0.00000,-288154832.00000,   0.00000
-126835665.57964,-174949671.42749,60365824.95618,  -0.00024,  -0.00055,   0.00078,187960096.00000,   0.00000,274640576.00000,   0.00000,   0.00000,   0.00000,-286680480.00000,   0.00000
-127566921.40204,-176364016.52113,60865005.57747,  -0.00024,  -0.00055,   0.00079,189432448.00000,   0.00000,274640576.00000,   0.00000,   0.00000,   0.00000,-285208128.00000,   0.00000
-128306934.77921,-177769604.06000,61364186.19875,  -0.00024,  -0.00056,   0.00080,190899552.00000,   0.00000,274640576.00000,   0.00000,   0.00000,   0.00000,-283741024.00000,   0.00000
-129046948.15637,-179175191.59888,61867745.59741,  -0.00024,  -0.00056,   0.00080,192367024.00000,   0.00000,274640576.00000,   0.00000,   0.00000,   0.00000,-282273552.00000,   0.00000
-129778203.97878,-180589536.69251,62371304.99608,  -0.00024,  -0.00057,   0.00081,193832176.00000,   0.00000,274640576.00000,   0.00000,   0.00000,   0.00000,-280808400.00000,   0.00000
-130518217.35594,-181995124.23139,62874864.39474,  -0.00024,  -0.00057,   0.00082,195288496.00000,   0.00000,274640576.00000,   0.00000,   0.00000,   0.00000,-279352080.00000,   0.00000
-131249473.17835,-183409469.32502,63382802.57078,  -0.00024,  -0.00058,   0.00082,196751072.00000,   0.00000,274640576.00000,   0.00000,   0.00000,   0.00000,-277889504.00000,   0.00000
-131980729.00075,-184823814.41866,63886361.96944,  -0.00024,  -0.00058,   0.00083,198198096.00000,   0.00000,274640576.00000,   0.00000,   0.00000,   0.00000,-276442480.00000,   0.00000
-132720742.37792,-186229401.95753,64394300.14548,  -0.00024,  -0.00059,   0.00084,199634032.00000,   0.00000,274640576.00000,   0.00000,   0.00000,   0.00000,-275006544.00000,   0.00000
-133451998.20032,-187643747.05117,64902238.32153,  -0.00024,  -0.00059,   0.00084,201082672.00000,   0.00000,274640576.00000,   0.00000,   0.00000,   0.00000,-273557904.00000,   0.00000
-134183254.02273,-189058092.14480,65414555.27495,  -0.00024,  -0.00060,   0.00085,202546272.00000,   0.00000,274640576.00000,   0.00000,   0.00000,   0.00000,-272094304.00000,   0.00000
-134907941.67906,-190457111.51761,65922493.45099,  -0.00024,  -0.00060,   0.00086,204004176.00000,   0.00000,274640576.00000,   0.00000,   0.00000,   0.00000,-270636400.00000,   0.00000
-135639197.50147,-191871456.61124,66434810.40441,  -0.00024,  -0.00061,   0.00086,205484832.00000,   0.00000,274640576.00000,   0.00000,   0.00000,   0.00000,-269155744.00000,   0.00000
-136370453.32388,-193285801.70488,66947127.35783,  -0.00024,  -0.00061,   0.00087,206972032.00000,   0.00000,274640576.00000,   0.00000,   0.00000,   0.00000,-267668544.00000,   0.00000
-137101709.14628,-194700146.79851,67459444.31126,  -0.00024,  -0.00062,   0.00088,208463824.00000,   0.00000,274640576.00000,   0.00000,   0.00000,   0.00000,-266176752.00000,   0.00000
-137832964.96869,-196114491.89215,67971761.26468,  -0.00024,  -0.00062,   0.00088,209958704.00000,   0.00000,274640576.00000,   0.00000,   0.00000,   0.00000,-264681872.00000,   0.00000
-138542326.90419,-197506943.09888,68484078.21810,  -0.00025,  -0.00063,   0.00089,211438048.00000,   0.00000,274640576.00000,   0.00000,   0.00000,   0.00000,-263202528.00000,   0.00000
-139273582.72660,-198921288.19252,69000773.94890,  -0.00025,  -0.00063,   0.00090,212940256.00000,   0.00000,274640576.00000,   0.00000,   0.00000,   0.00000,-261700320.00000,   0.00000
-140004838.54900,-200335633.28615,69517469.67970,  -0.00025,  -0.00064,   0.00090,214443312.00000,   0.00000,274640576.00000,   0.00000,   0.00000,   0.00000,-260197264.00000,   0.00000
-140736094.37141,-201749978.37979,70034165.41050,  -0.00025,  -0.00064,   0.00091,215946608.00000,   0.00000,274640576.00000,   0.00000,   0.00000,   0.00000,-258693968.00000,   0.00000
-141452024.47299,-203157755.30735,70550861.14131,  -0.00025,  -0.00065,   0.00092,217443120.00000,   0.00000,274640576.00000,   0.00000,   0.00000,   0.00000,-257197456.00000,   0.00000
-142176712.12932,-204556774.68016,71071935.64949,  -0.00025,  -0.00065,   0.00092,218940080.00000,   0.00000,274640576.00000,   0.00000,   0.00000,   0.00000,-255700496.00000,   0.00000
-142907967.95173,-205971119.77379,71593010.15767,  -0.00025,  -0.00066,   0.00093,220447424.00000,   0.00000,274640576.00000,   0.00000,   0.00000,   0.00000,-254193152.00000,   0.00000
-143639223.77413,-207385464.86743,72109705.88847,  -0.00025,  -0.00066,   0.00094,221950096.00000,   0.00000,274640576.00000,   0.00000,   0.00000,   0.00000,-252690480.00000,   0.00000
-144348585.70964,-208777916.07416,72630780.39665,  -0.00025,  -0.00067,   0.00094,223439040.00000,   0.00000,274640576.00000,   0.00000,   0.00000,   0.00000,-251201536.00000,   0.00000
-145079841.53205,-210192261.16780,73156233.68221,  -0.00025,  -0.00067,   0.00095,224949040.00000,   0.00000,274640576.00000,   0.00000,   0.00000,   0.00000,-249691536.00000,   0.00000
-145811097.35445,-211606606.26143,73677308.19039,  -0.00025,  -0.00068,   0.00096,226454224.00000,   0.00000,274640576.00000,   0.00000,   0.00000,   0.00000,-248186352.00000,   0.00000
-146520459.28996,-212999057.46817,74202761.47595,  -0.00025,  -0.00068,   0.00096,227945552.00000,   0.00000,274640576.00000,   0.00000,   0.00000,   0.00000,-246695024.00000,   0.00000
-147251715.11236,-214413402.56180,74723835.98414,  -0.00025,  -0.00069,   0.00097,229449248.00000,   0.00000,274640576.00000,   0.00000,   0.00000,   0.00000,-245191328.00000,   0.00000
-147976402.76870,-215812421.93461,75249289.26970,  -0.00025,  -0.00069,   0.00098,230945936.00000,   0.00000,274640576.00000,   0.00000,   0.00000,   0.00000,-243694640.00000,   0.00000
-148692332.87028,-217220198.86217,75774742.55526,  -0.00025,  -0.00070,   0.00099,232445936.00000,   0.00000,274640576.00000,   0.00000,   0.00000,   0.00000,-242194640.00000,   0.00000
-149417020.52661,-218619218.23498,76304574.61820,  -0.00025,  -0.00070,   0.00099,233945952.00000,   0.00000,274640576.00000,   0.00000,   0.00000,   0.00000,-240694624.00000,   0.00000
-150141708.18295,-220018237.60779,76830027.90376,  -0.00025,  -0.00071,   0.00100,235441408.00000,   0.00000,274640576.00000,   0.00000,   0.00000,   0.00000,-239199168.00000,   0.00000
-150872964.00536,-221432582.70142,77359859.96670,  -0.00025,  -0.00071,   0.00101,236951568.00000,   0.00000,274640576.00000,   0.00000,   0.00000,   0.00000,-237689008.00000,   0.00000
-151597651.66169,-222831602.07423,77885313.25226,  -0.00026,  -0.00072,   0.00101,238446912.00000,   0.00000,274640576.00000,   0.00000,   0.00000,   0.00000,-236193664.00000,   0.00000
-152307013.59720,-224224053.28096,78415145.31520,  -0.00026,  -0.00072,   0.00102,239940000.00000,   0.00000,274640576.00000,   0.00000,   0.00000,   0.00000,-234700576.00000,   0.00000
-153031701.25353,-225623072.65377,78949356.15552,  -0.00026,  -0.00073,   0.00103,241444496.00000,   0.00000,274640576.00000,   0.00000,   0.00000,   0.00000,-233196080.00000,   0.00000
-153756388.90987,-227022092.02657,79479188.21846,  -0.00026,  -0.00073,   0.00103,242945104.00000,   0.00000,274640576.00000,   0.00000,   0.00000,   0.00000,-231695472.00000,   0.00000
-154481076.56621,-228421111.39938,80009020.28140,  -0.00026,  -0.00074,   0.00104,244446320.00000,   0.00000,274640576.00000,   0.00000,   0.00000,   0.00000,-230194256.00000,   0.00000
-155205764.22254,-229820130.77219,80543231.12172,  -0.00026,  -0.00074,   0.00105,245952464.00000,   0.00000,274640576.00000,   0.00000,   0.00000,   0.00000,-228688112.00000,   0.00000
-155923883.71281,-231203824.42416,81077441.96204,  -0.00026,  -0.00075,   0.00105,247448912.00000,   0.00000,274640576.00000,   0.00000,   0.00000,   0.00000,-227191664.00000,   0.00000
-156663897.08997,-232609411.96304,81607274.02498,  -0.00026,  -0.00075,   0.00106,248958864.00000,   0.00000,274640576.00000,   0.00000,   0.00000,   0.00000,-225681712.00000,   0.00000
-157382016.58024,-233993105.61502,82141484.86530,  -0.00026,  -0.00076,   0.00107,250456864.00000,   0.00000,274640576.00000,   0.00000,   0.00000,   0.00000,-224183712.00000,   0.00000
-158106704.23658,-235392124.98782,82680074.48300,  -0.00026,  -0.00076,   0.00107,251970464.00000,   0.00000,274640576.00000,   0.00000,   0.00000,   0.00000,-222670112.00000,   0.00000
-158840149.44767,-236782386.80587,83214285.32332,  -0.00026,  -0.00077,   0.00108,253476512.00000,   0.00000,274640576.00000,   0.00000,   0.00000,   0.00000,-221164064.00000,   0.00000
-159558268.93794,-238166080.45784,83748496.16364,  -0.00026,  -0.00077,   0.00109,254976720.00000,   0.00000,274640576.00000,   0.00000,   0.00000,   0.00000,-219663856.00000,   0.00000
-160276388.42820,-239549774.10982,84287085.78134,  -0.00026,  -0.00078,   0.00110,256482000.00000,   0.00000,274640576.00000,   0.00000,   0.00000,   0.00000,-218158576.00000,   0.00000
-161009833.63930,-240940035.92787,84825675.39904,  -0.00026,  -0.00078,   0.00110,257994320.00000,   0.00000,274640576.00000,   0.00000,   0.00000,   0.00000,-216646256.00000,   0.00000
-161743278.85040,-242330297.74591,85364265.01674,  -0.00026,  -0.00079,   0.00111,259507216.00000,   0.00000,274640576.00000,   0.00000,   0.00000,   0.00000,-215133360.00000,   0.00000
-162476724.06149,-243720559.56396,85902854.63444,  -0.00026,  -0.00079,   0.00112,261020528.00000,   0.00000,274640576.00000,   0.00000,   0.00000,   0.00000,-213620048.00000,   0.00000
-163188275.38569,-245088927.49511,86441444.25214,  -0.00026,  -0.00080,   0.00112,262516944.00000,   0.00000,274640576.00000,   0.00000,   0.00000,   0.00000,-212123632.00000,   0.00000
-163921720.59678,-246479189.31316,86980033.86984,  -0.00027,  -0.00080,   0.00113,264030640.00000,   0.00000,274640576.00000,   0.00000,   0.00000,   0.00000,-210609936.00000,   0.00000
-164648597.64181,-247854125.41037,87518623.48754,  -0.00027,  -0.00081,   0.00114,265533904.00000,   0.00000,274640576.00000,   0.00000,   0.00000,   0.00000,-209106672.00000,   0.00000
-165390800.40766,-249235629.67366,88061591.88262,  -0.00027,  -0.00081,   0.00114,267047920.00000,   0.00000,274640576.00000,   0.00000,   0.00000,   0.00000,-207592656.00000,   0.00000
-166117677.45269,-250610565.77088,88604560.27770,  -0.00027,  -0.00082,   0.00115,268555264.00000,   0.00000,274640576.00000,   0.00000,   0.00000,   0.00000,-206085312.00000,   0.00000
-166844554.49772,-251985501.86810,89143149.89540,  -0.00027,  -0.00082,   0.00116,270058272.00000,   0.00000,274640576.00000,   0.00000,   0.00000,   0.00000,-204582304.00000,   0.00000
-167586757.26357,-253367006.13138,89686118.29048,  -0.00027,  -0.00083,   0.00117,271571584.00000,   0.00000,274640576.00000,   0.00000,   0.00000,   0.00000,-203068992.00000,   0.00000
-168307066.14253,-254726616.50777,90229086.68556,  -0.00027,  -0.00083,   0.00117,273067584.00000,   0.00000,274640576.00000,   0.00000,   0.00000,   0.00000,-201572992.00000,   0.00000
-169049268.90838,-256108120.77106,90772055.08064,  -0.00027,  -0.00084,   0.00118,274580192.00000,   0.00000,274640576.00000,   0.00000,   0.00000,   0.00000,-200060384.00000,   0.00000
-169784903.50817,-257474299.31352,91319402.25310,  -0.00027,  -0.00084,   0.00119,276085920.00000,   0.00000,274640576.00000,   0.00000,   0.00000,   0.00000,-198554656.00000,   0.00000
-170520538.10795,-258840477.85598,91862370.64818,  -0.00027,  -0.00085,   0.00119,277586944.00000,   0.00000,274640576.00000,   0.00000,   0.00000,   0.00000,-197053632.00000,   0.00000
-171256172.70774,-260206656.39843,92405339.04326,  -0.00027,  -0.00085,   0.00120,279087360.00000,   0.00000,274640576.00000,   0.00000,   0.00000,   0.00000,-195553216.00000,   0.00000
-171991807.30752,-261572834.94089,92952686.21572,  -0.00027,  -0.00085,   0.00121,280591616.00000,   0.00000,274640576.00000,   0.00000,   0.00000,   0.00000,-194048960.00000,   0.00000
-172736199.46207,-262930255.92859,93495654.61080,  -0.00027,  -0.00086,   0.00122,282086496.00000,   0.00000,274640576.00000,   0.00000,   0.00000,   0.00000,-192554080.00000,   0.00000
-173471834.06185,-264296434.47105,94043001.78326,  -0.00027,  -0.00086,   0.00122,283589600.00000,   0.00000,274640576.00000,   0.00000,   0.00000,   0.00000,-191050976.00000,   0.00000
-174216226.21640,-265653855.45875,94590348.95572,  -0.00027,  -0.00087,   0.00123,285087904.00000,   0.00000,274640576.00000,   0.00000,   0.00000,   0.00000,-189552672.00000,   0.00000
-174960618.37094,-267011276.44645,95137696.12818,  -0.00028,  -0.00087,   0.00124,286585696.00000,   0.00000,274640576.00000,   0.00000,   0.00000,   0.00000,-188054880.00000,   0.00000
-175705010.52549,-268368697.43415,95685043.30063,  -0.00028,  -0.00088,   0.00124,288083168.00000,   0.00000,274640576.00000,   0.00000,   0.00000,   0.00000,-186557408.00000,   0.00000
-176442834.51396,-269710792.70102,96232390.47309,  -0.00028,  -0.00088,   0.00125,289569760.00000,   0.00000,274640576.00000,   0.00000,   0.00000,   0.00000,-185070816.00000,   0.00000
-177187226.66851,-271068213.68871,96779737.64555,  -0.00028,  -0.00089,   0.00126,291066720.00000,   0.00000,274640576.00000,   0.00000,   0.00000,   0.00000,-183573856.00000,   0.00000
-177940376.37781,-272416877.12165,97327084.81801,  -0.00028,  -0.00089,   0.00127,292559424.00000,   0.00000,274640576.00000,   0.00000,   0.00000,   0.00000,-182081152.00000,   0.00000
-178678200.36628,-273758972.38852,97874431.99047,  -0.00028,  -0.00090,   0.00127,294045824.00000,   0.00000,274640576.00000,   0.00000,   0.00000,   0.00000,-180594752.00000,   0.00000
-179431350.07559,-275107635.82146,98426157.94031,  -0.00028,  -0.00090,   0.00128,295543328.00000,   0.00000,274640576.00000,   0.00000,   0.00000,   0.00000,-179097248.00000,   0.00000
-180184499.78489,-276456299.25440,98973505.11277,  -0.00028,  -0.00091,   0.00129,297036576.00000,   0.00000,274640576.00000,   0.00000,   0.00000,   0.00000,-177604000.00000,   0.00000
-180931081.32813,-277789636.96651,99520852.28523,  -0.00028,  -0.00091,   0.00129,298520064.00000,   0.00000,274640576.00000,   0.00000,   0.00000,   0.00000,-176120512.00000,   0.00000
-181677662.87136,-279122974.67862,100072578.23507,  -0.00028,  -0.00092,   0.00130,300008704.00000,   0.00000,274640576.00000,   0.00000,   0.00000,   0.00000,-174631872.00000,   0.00000
-182439570.13542,-280462880.55681,100624304.18491,  -0.00028,  -0.00092,   0.00131,301504192.00000,   0.00000,274640576.00000,   0.00000,   0.00000,   0.00000,-173136384.00000,   0.00000
-183201477.39949,-281802786.43499,101171651.35737,  -0.00028,  -0.00092,   0.00132,302996288.00000,   0.00000,274640576.00000,   0.00000,   0.00000,   0.00000,-171644288.00000,   0.00000
-183956816.49748,-283127366.59234,101723377.30721,  -0.00028,  -0.00093,   0.00132,304483392.00000,   0.00000,274640576.00000,   0.00000,   0.00000,   0.00000,-170157184.00000,   0.00000
-184718723.76154,-284467272.47052,102275103.25704,  -0.00029,  -0.00093,   0.00133,305982080.00000,   0.00000,274640576.00000,   0.00000,   0.00000,   0.00000,-168658496.00000,   0.00000
-185474062.85954,-285791852.62787,102822450.42950,  -0.00029,  -0.00094,   0.00134,307466880.00000,   0.00000,274640576.00000,   0.00000,   0.00000,   0.00000,-167173696.00000,   0.00000
-186244727.67836,-287123000.95129,103374176.37934,  -0.00029,  -0.00094,   0.00134,308963360.00000,   0.00000,274640576.00000,   0.00000,   0.00000,   0.00000,-165677216.00000,   0.00000
-186993498.61029,-288432255.38781,103925902.32918,  -0.00029,  -0.00095,   0.00135,310444160.00000,   0.00000,274640576.00000,   0.00000,   0.00000,   0.00000,-164196416.00000,   0.00000
-187764163.42911,-289763403.71123,104477628.27902,  -0.00029,  -0.00095,   0.00136,311942592.00000,   0.00000,274640576.00000,   0.00000,   0.00000,   0.00000,-162697984.00000,   0.00000
-188528260.08186,-291079226.31382,105029354.22886,  -0.00029,  -0.00096,   0.00137,313431232.00000,   0.00000,274640576.00000,   0.00000,   0.00000,   0.00000,-161209344.00000,   0.00000
-189307682.45544,-292401617.08249,105581080.17870,  -0.00029,  -0.00096,   0.00137,314926592.00000,   0.00000,274640576.00000,   0.00000,   0.00000,   0.00000,-159713984.00000,   0.00000
-190065210.94213,-293702113.96425,106132806.12854,  -0.00029,  -0.00097,   0.00138,316405536.00000,   0.00000,274640576.00000,   0.00000,   0.00000,   0.00000,-158235040.00000,   0.00000
-190844633.31571,-295024504.73291,106684532.07838,  -0.00029,  -0.00097,   0.00139,317901536.00000,   0.00000,274640576.00000,   0.00000,   0.00000,   0.00000,-156739040.00000,   0.00000
-191617487.52322,-296331569.78074,107236258.02821,  -0.00029,  -0.00097,   0.00139,319386752.00000,   0.00000,274640576.00000,   0.00000,   0.00000,   0.00000,-155253824.00000,   0.00000
-192390341.73073,-297638634.82858,107787983.97805,  -0.00029,  -0.00098,   0.00140,320871840.00000,   0.00000,274640576.00000,   0.00000,   0.00000,   0.00000,-153768736.00000,   0.00000
-193171953.49301,-298936942.32165,108339709.92789,  -0.00030,  -0.00098,   0.00141,322352160.00000,   0.00000,274640576.00000,   0.00000,   0.00000,   0.00000,-152288416.00000,   0.00000
-193960133.42135,-300250575.53555,108891435.87773,  -0.00030,  -0.00099,   0.00142,323842304.00000,   0.00000,274640576.00000,   0.00000,   0.00000,   0.00000,-150798272.00000,   0.00000
-194741745.18362,-301548883.02862,109443161.82757,  -0.00030,  -0.00099,   0.00142,325321312.00000,   0.00000,274640576.00000,   0.00000,   0.00000,   0.00000,-149319264.00000,   0.00000
-195523356.94589,-302847190.52170,109999266.55479,  -0.00030,  -0.00100,   0.00143,326804064.00000,   0.00000,274640576.00000,   0.00000,   0.00000,   0.00000,-147836512.00000,   0.00000
-196298400.54209,-304130172.29394,110550992.50463,  -0.00030,  -0.00100,   0.00144,328271040.00000,   0.00000,274640576.00000,   0.00000,   0.00000,   0.00000,-146369536.00000,   0.00000
-197095338.02519,-305435047.95309,111102718.45447,  -0.00030,  -0.00101,   0.00144,329753952.00000,   0.00000,274640576.00000,   0.00000,   0.00000,   0.00000,-144886624.00000,   0.00000
-197885707.34222,-306724597.89140,111654444.40431,  -0.00030,  -0.00101,   0.00145,331225696.00000,   0.00000,274640576.00000,   0.00000,   0.00000,   0.00000,-143414880.00000,   0.00000
-198669508.49319,-307998822.10888,112206170.35414,  -0.00030,  -0.00101,   0.00146,332686432.00000,   0.00000,274640576.00000,   0.00000,   0.00000,   0.00000,-141954144.00000,   0.00000
-199475203.53105,-309294940.21327,112757896.30398,  -0.00030,  -0.00102,   0.00147,334163456.00000,   0.00000,274640576.00000,   0.00000,   0.00000,   0.00000,-140477120.00000,   0.00000
-200274330.40284,-310575732.59682,113309622.25382,  -0.00031,  -0.00102,   0.00147,335629632.00000,   0.00000,274640576.00000,   0.00000,   0.00000,   0.00000,-139010944.00000,   0.00000
-201073457.27463,-311856524.98038,113861348.20366,  -0.00031,  -0.00103,   0.00148,337095616.00000,   0.00000,274640576.00000,   0.00000,   0.00000,   0.00000,-137544960.00000,   0.00000
-201866015.98035,-313121991.64310,114413074.15350,  -0.00031,  -0.00103,   0.00149,338551200.00000,   0.00000,274640576.00000,   0.00000,   0.00000,   0.00000,-136089376.00000,   0.00000
-202680468.57297,-314409352.19273,114964800.10334,  -0.00031,  -0.00104,   0.00149,340023488.00000,   0.00000,274640576.00000,   0.00000,   0.00000,   0.00000,-134617088.00000,   0.00000
-203473027.27869,-315674818.85545,115516526.05318,  -0.00031,  -0.00104,   0.00150,341479392.00000,   0.00000,274640576.00000,   0.00000,   0.00000,   0.00000,-133161184.00000,   0.00000
-204289669.26000,-316938096.12949,116068252.00302,  -0.00031,  -0.00104,   0.00151,342937600.00000,   0.00000,274640576.00000,   0.00000,   0.00000,   0.00000,-131702976.00000,   0.00000
-205097553.68655,-318210130.95828,116619977.95286,  -0.00031,  -0.00105,   0.00152,344400352.00000,   0.00000,274640576.00000,   0.00000,   0.00000,   0.00000,-130240224.00000,   0.00000
-205914195.66786,-319473408.23232,117171703.90269,  -0.00031,  -0.00105,   0.00152,345859392.00000,   0.00000,274640576.00000,   0.00000,   0.00000,   0.00000,-128781184.00000,   0.00000
-206724269.48310,-320721359.78553,117723429.85253,  -0.00032,  -0.00106,   0.00153,347308352.00000,   0.00000,274640576.00000,   0.00000,   0.00000,   0.00000,-127332224.00000,   0.00000
-207540911.46441,-321984637.05956,118270777.02499,  -0.00032,  -0.00106,   0.00154,348763744.00000,   0.00000,274640576.00000,   0.00000,   0.00000,   0.00000,-125876832.00000,   0.00000
-208366311.00047,-323239156.77884,118822502.97483,  -0.00032,  -0.00106,   0.00154,350219776.00000,   0.00000,274640576.00000,   0.00000,   0.00000,   0.00000,-124420800.00000,   0.00000
-209191710.53654,-324493676.49812,119374228.92467,  -0.00032,  -0.00107,   0.00155,351676160.00000,   0.00000,274640576.00000,   0.00000,   0.00000,   0.00000,-122964416.00000,   0.00000
-210010541.90654,-325732870.49656,119921576.09713,  -0.00032,  -0.00107,   0.00156,353118016.00000,   0.00000,274640576.00000,   0.00000,   0.00000,   0.00000,-121522560.00000,   0.00000
-210835941.44261,-326987390.21584,120473302.04697,  -0.00032,  -0.00108,   0.00157,354575168.00000,   0.00000,274640576.00000,   0.00000,   0.00000,   0.00000,-120065408.00000,   0.00000
-211663530.36737,-328217826.65953,121020649.21943,  -0.00032,  -0.00108,   0.00157,356013248.00000,   0.00000,274640576.00000,   0.00000,   0.00000,   0.00000,-118627328.00000,   0.00000
-212497687.45820,-329463588.82405,121572375.16927,  -0.00032,  -0.00108,   0.00158,357466560.00000,   0.00000,274640576.00000,   0.00000,   0.00000,   0.00000,-117174016.00000,   0.00000
-213340602.10378,-330700593.43380,122119722.34173,  -0.00033,  -0.00109,   0.00159,358911168.00000,   0.00000,274640576.00000,   0.00000,   0.00000,   0.00000,-115729408.00000,   0.00000
-214183516.74937,-331937598.04356,122667069.51419,  -0.00033,  -0.00109,   0.00159,360355840.00000,   0.00000,274640576.00000,   0.00000,   0.00000,   0.00000,-114284736.00000,   0.00000
-215026431.39496,-333174602.65332,123214416.68664,  -0.00033,  -0.00110,   0.00160,361800512.00000,   0.00000,274640576.00000,   0.00000,   0.00000,   0.00000,-112840064.00000,   0.00000
-215862777.87448,-334396281.54225,123761763.85910,  -0.00033,  -0.00110,   0.00161,363234784.00000,   0.00000,274640576.00000,   0.00000,   0.00000,   0.00000,-111405792.00000,   0.00000
-216714450.07482,-335624528.59725,124309111.03156,  -0.00033,  -0.00110,   0.00162,364675136.00000,   0.00000,274640576.00000,   0.00000,   0.00000,   0.00000,-109965440.00000,   0.00000
-217559554.10910,-336837449.93142,124856458.20402,  -0.00033,  -0.00111,   0.00162,366104864.00000,   0.00000,274640576.00000,   0.00000,   0.00000,   0.00000,-108535712.00000,   0.00000
-218404658.14338,-338050371.26559,125403805.37648,  -0.00033,  -0.00111,   0.00163,367534400.00000,   0.00000,274640576.00000,   0.00000,   0.00000,   0.00000,-107106176.00000,   0.00000
-219265087.89848,-339269860.76583,125951152.54894,  -0.00034,  -0.00112,   0.00164,368970016.00000,   0.00000,274640576.00000,   0.00000,   0.00000,   0.00000,-105670560.00000,   0.00000
-220125517.65359,-340489350.26607,126494120.94402,  -0.00034,  -0.00112,   0.00164,370400864.00000,   0.00000,274640576.00000,   0.00000,   0.00000,   0.00000,-104239712.00000,   0.00000
-220994704.96345,-341700082.21155,127041468.11648,  -0.00034,  -0.00112,   0.00165,371831776.00000,   0.00000,274640576.00000,   0.00000,   0.00000,   0.00000,-102808800.00000,   0.00000
-221848566.55249,-342904245.99096,127584436.51156,  -0.00034,  -0.00113,   0.00166,373251744.00000,   0.00000,274640576.00000,   0.00000,   0.00000,   0.00000,-101388832.00000,   0.00000
-222726511.41711,-344106220.38168,128131783.68402,  -0.00034,  -0.00113,   0.00167,374677856.00000,   0.00000,274640576.00000,   0.00000,   0.00000,   0.00000,-99962720.00000,   0.00000
-223589130.56091,-345301626.60633,128674752.07910,  -0.00034,  -0.00114,   0.00167,376093216.00000,   0.00000,274640576.00000,   0.00000,   0.00000,   0.00000,-98547360.00000,   0.00000
-224467075.42554,-346503600.99705,129217720.47418,  -0.00035,  -0.00114,   0.00168,377514400.00000,   0.00000,274640576.00000,   0.00000,   0.00000,   0.00000,-97126176.00000,   0.00000
-225338452.12409,-347690249.66694,129760688.86926,  -0.00035,  -0.00114,   0.00169,378925024.00000,   0.00000,274640576.00000,   0.00000,   0.00000,   0.00000,-95715552.00000,   0.00000
-226225154.54347,-348883466.50290,130299278.48696,  -0.00035,  -0.00115,   0.00169,380337056.00000,   0.00000,274640576.00000,   0.00000,   0.00000,   0.00000,-94303520.00000,   0.00000
-227111856.96286,-350076683.33886,130842246.88204,  -0.00035,  -0.00115,   0.00170,381753440.00000,   0.00000,274640576.00000,   0.00000,   0.00000,   0.00000,-92887136.00000,   0.00000
-227991991.21617,-351254574.45399,131380836.49974,  -0.00035,  -0.00115,   0.00171,383154912.00000,   0.00000,274640576.00000,   0.00000,   0.00000,   0.00000,-91485664.00000,   0.00000
-228887451.19032,-352439033.73520,131923804.89482,  -0.00035,  -0.00116,   0.00172,384566816.00000,   0.00000,274640576.00000,   0.00000,   0.00000,   0.00000,-90073760.00000,   0.00000
-229776342.99839,-353608167.29557,132462394.51252,  -0.00036,  -0.00116,   0.00172,385963840.00000,   0.00000,274640576.00000,   0.00000,   0.00000,   0.00000,-88676736.00000,   0.00000
-230671802.97253,-354792626.57677,133000984.13022,  -0.00036,  -0.00116,   0.00173,387371232.00000,   0.00000,274640576.00000,   0.00000,   0.00000,   0.00000,-87269344.00000,   0.00000
-231569452.33537,-355953002.58238,133539573.74792,  -0.00036,  -0.00117,   0.00174,388764096.00000,   0.00000,274640576.00000,   0.00000,   0.00000,   0.00000,-85876480.00000,   0.00000
-232473669.86427,-357128704.30883,134078163.36562,  -0.00036,  -0.00117,   0.00174,390167296.00000,   0.00000,274640576.00000,   0.00000,   0.00000,   0.00000,-84473280.00000,   0.00000
-233386644.94793,-358295648.48051,134612374.20594,  -0.00036,  -0.00118,   0.00175,391561888.00000,   0.00000,274640576.00000,   0.00000,   0.00000,   0.00000,-83078688.00000,   0.00000
-234293051.86552,-359447266.93136,135146585.04626,  -0.00037,  -0.00118,   0.00176,392946304.00000,   0.00000,274640576.00000,   0.00000,   0.00000,   0.00000,-81694272.00000,   0.00000
-235206026.94919,-360614211.10305,135685174.66396,  -0.00037,  -0.00118,   0.00176,394345696.00000,   0.00000,274640576.00000,   0.00000,   0.00000,   0.00000,-80294880.00000,   0.00000
-236121191.42154,-361757071.99914,136219385.50428,  -0.00037,  -0.00119,   0.00177,395726304.00000,   0.00000,274640576.00000,   0.00000,   0.00000,   0.00000,-78914272.00000,   0.00000
-237042924.05996,-362915258.61607,136753596.34460,  -0.00037,  -0.00119,   0.00178,397117504.00000,   0.00000,274640576.00000,   0.00000,   0.00000,   0.00000,-77523072.00000,   0.00000
-237958088.53231,-364058119.51216,137283428.40754,  -0.00037,  -0.00119,   0.00178,398494112.00000,   0.00000,274640576.00000,   0.00000,   0.00000,   0.00000,-76146464.00000,   0.00000
-238888578.72549,-365207548.57432,137817639.24786,  -0.00037,  -0.00120,   0.00179,399881696.00000,   0.00000,274640576.00000,   0.00000,   0.00000,   0.00000,-74758880.00000,   0.00000
-239812500.75260,-366341651.91566,138347471.31080,  -0.00038,  -0.00120,   0.00180,401254720.00000,   0.00000,274640576.00000,   0.00000,   0.00000,   0.00000,-73385856.00000,   0.00000
-240751748.50054,-367482323.42307,138877303.37374,  -0.00038,  -0.00120,   0.00181,402634400.00000,   0.00000,274640576.00000,   0.00000,   0.00000,   0.00000,-72006176.00000,   0.00000
-241684428.08241,-368607669.20964,139407135.43668,  -0.00038,  -0.00121,   0.00181,404003968.00000,   0.00000,274640576.00000,   0.00000,   0.00000,   0.00000,-70636608.00000,   0.00000
-242632433.38511,-369739583.16229,139936967.49962,  -0.00038,  -0.00121,   0.00182,405380192.00000,   0.00000,274640576.00000,   0.00000,   0.00000,   0.00000,-69260384.00000,   0.00000
-243580438.68781,-370871497.11493,140462420.78518,  -0.00039,  -0.00121,   0.00183,406752288.00000,   0.00000,274640576.00000,   0.00000,   0.00000,   0.00000,-67888288.00000,   0.00000
-244521875.82444,-371988085.34675,140987874.07074,  -0.00039,  -0.00122,   0.00183,408114400.00000,   0.00000,274640576.00000,   0.00000,   0.00000,   0.00000,-66526176.00000,   0.00000
-245478638.68190,-373111241.74464,141517706.13368,  -0.00039,  -0.00122,   0.00184,409487616.00000,   0.00000,274640576.00000,   0.00000,   0.00000,   0.00000,-65152960.00000,   0.00000
-246428833.37329,-374219072.42169,142038780.64186,  -0.00039,  -0.00122,   0.00185,410841920.00000,   0.00000,274640576.00000,   0.00000,   0.00000,   0.00000,-63798656.00000,   0.00000
-247394353.78551,-375333471.26482,142564233.92742,  -0.00039,  -0.00123,   0.00185,412207296.00000,   0.00000,274640576.00000,   0.00000,   0.00000,   0.00000,-62433280.00000,   0.00000
-248359874.19773,-376447870.10795,143085308.43561,  -0.00040,  -0.00123,   0.00186,413568416.00000,   0.00000,274640576.00000,   0.00000,   0.00000,   0.00000,-61072160.00000,   0.00000
-249318826.44387,-377546943.23025,143610761.72117,  -0.00040,  -0.00123,   0.00187,414924224.00000,   0.00000,274640576.00000,   0.00000,   0.00000,   0.00000,-59716352.00000,   0.00000
-250293104.41085,-378652584.51861,144127457.45197,  -0.00040,  -0.00123,   0.00187,416277344.00000,   0.00000,274640576.00000,   0.00000,   0.00000,   0.00000,-58363232.00000,   0.00000
-251260814.21176,-379742900.08615,144648531.96015,  -0.00040,  -0.00124,   0.00188,417625088.00000,   0.00000,274640576.00000,   0.00000,   0.00000,   0.00000,-57015488.00000,   0.00000
-252243849.73350,-380839783.81976,145169606.46833,  -0.00041,  -0.00124,   0.00189,418979264.00000,   0.00000,274640576.00000,   0.00000,   0.00000,   0.00000,-55661312.00000,   0.00000
-253226885.25523,-381936667.55337,145686302.19913,  -0.00041,  -0.00124,   0.00189,420329056.00000,   0.00000,274640576.00000,   0.00000,   0.00000,   0.00000,-54311520.00000,   0.00000
-254218678.33173,-383024793.73222,146202997.92993,  -0.00041,  -0.00125,   0.00190,421674976.00000,   0.00000,274640576.00000,   0.00000,   0.00000,   0.00000,-52965600.00000,   0.00000
-255210471.40823,-384112919.91107,146715314.88335,  -0.00041,  -0.00125,   0.00191,423016576.00000,   0.00000,274640576.00000,   0.00000,   0.00000,   0.00000,-51624000.00000,   0.00000
-256211022.03948,-385192288.53516,147232010.61416,  -0.00041,  -0.00125,   0.00191,424358592.00000,   0.00000,274640576.00000,   0.00000,   0.00000,   0.00000,-50281984.00000,   0.00000
-257196246.94991,-386265088.99318,147744327.56758,  -0.00042,  -0.00126,   0.00192,425689888.00000,   0.00000,274640576.00000,   0.00000,   0.00000,   0.00000,-48950688.00000,   0.00000
-258205555.13592,-387335700.06251,148256644.52100,  -0.00042,  -0.00126,   0.00193,427023520.00000,   0.00000,274640576.00000,   0.00000,   0.00000,   0.00000,-47617056.00000,   0.00000
-259214863.32194,-388406311.13184,148764582.69704,  -0.00042,  -0.00126,   0.00193,428352448.00000,   0.00000,274640576.00000,   0.00000,   0.00000,   0.00000,-46288128.00000,   0.00000
-260224171.50795,-389476922.20117,149276899.65046,  -0.00042,  -0.00126,   0.00194,429685856.00000,   0.00000,274640576.00000,   0.00000,   0.00000,   0.00000,-44954720.00000,   0.00000
-261242237.24873,-390538775.71574,149784837.82651,  -0.00043,  -0.00127,   0.00195,431010592.00000,   0.00000,274640576.00000,   0.00000,   0.00000,   0.00000,-43629984.00000,   0.00000
-262253734.82343,-391585303.50948,150288397.22517,  -0.00043,  -0.00127,   0.00195,432320192.00000,   0.00000,274640576.00000,   0.00000,   0.00000,   0.00000,-42320384.00000,   0.00000
-263280558.11896,-392638399.46929,150796335.40121,  -0.00043,  -0.00127,   0.00196,433640608.00000,   0.00000,274640576.00000,   0.00000,   0.00000,   0.00000,-40999968.00000,   0.00000
-264307381.41450,-393691495.42910,151299894.79987,  -0.00043,  -0.00128,   0.00197,434956032.00000,   0.00000,274640576.00000,   0.00000,   0.00000,   0.00000,-39684544.00000,   0.00000
-265334204.71003,-394744591.38892,151803454.19854,  -0.00044,  -0.00128,   0.00197,436271360.00000,   0.00000,274640576.00000,   0.00000,   0.00000,   0.00000,-38369216.00000,   0.00000
-266378543.11508,-395780172.23921,152302634.81982,  -0.00044,  -0.00128,   0.00198,437573888.00000,   0.00000,274640576.00000,   0.00000,   0.00000,   0.00000,-37066688.00000,   0.00000
-267414123.96538,-396824510.64426,152806194.21848,  -0.00044,  -0.00128,   0.00199,438884704.00000,   0.00000,274640576.00000,   0.00000,   0.00000,   0.00000,-35755872.00000,   0.00000
-268458462.37043,-397860091.49455,153300996.06238,  -0.00045,  -0.00129,   0.00199,440182400.00000,   0.00000,274640576.00000,   0.00000,   0.00000,   0.00000,-34458176.00000,   0.00000
-269511558.33024,-398886914.79009,153800176.68367,  -0.00045,  -0.00129,   0.00200,441480736.00000,   0.00000,274640576.00000,   0.00000,   0.00000,   0.00000,-33159840.00000,   0.00000
-270549328.56922,-399907169.91955,154294978.52757,  -0.00045,  -0.00129,   0.00201,442768288.00000,   0.00000,274640576.00000,   0.00000,   0.00000,   0.00000,-31872288.00000,   0.00000
-271617750.24986,-400940561.38115,154789780.37147,  -0.00045,  -0.00129,   0.00201,444068672.00000,   0.00000,274640576.00000,   0.00000,   0.00000,   0.00000,-30571904.00000,   0.00000
-272679603.76443,-401958627.12193,155284582.21538,  -0.00046,  -0.00130,   0.00202,445359456.00000,   0.00000,274640576.00000,   0.00000,   0.00000,   0.00000,-29281120.00000,   0.00000
-273741457.27901,-402976692.86270,155775005.28190,  -0.00046,  -0.00130,   0.00203,446646304.00000,   0.00000,274640576.00000,   0.00000,   0.00000,   0.00000,-27994272.00000,   0.00000
-274812068.34834,-403986001.04872,156265428.34842,  -0.00046,  -0.00130,   0.00203,447930304.00000,   0.00000,274640576.00000,   0.00000,   0.00000,   0.00000,-26710272.00000,   0.00000
-275882679.41767,-404995309.23473,156755851.41495,  -0.00047,  -0.00130,   0.00204,449215424.00000,   0.00000,274640576.00000,   0.00000,   0.00000,   0.00000,-25425152.00000,   0.00000
-276962048.04176,-405995859.86599,157241895.70409,  -0.00047,  -0.00131,   0.00204,450493536.00000,   0.00000,274640576.00000,   0.00000,   0.00000,   0.00000,-24147040.00000,   0.00000
-278041416.66585,-406996410.49724,157727939.99323,  -0.00047,  -0.00131,   0.00205,451773056.00000,   0.00000,274640576.00000,   0.00000,   0.00000,   0.00000,-22867520.00000,   0.00000
-279136111.01076,-408003529.29457,158213984.28238,  -0.00047,  -0.00131,   0.00206,453060352.00000,   0.00000,274640576.00000,   0.00000,   0.00000,   0.00000,-21580224.00000,   0.00000
-280224237.18961,-408995322.37106,158695649.79414,  -0.00048,  -0.00131,   0.00206,454334496.00000,   0.00000,274640576.00000,   0.00000,   0.00000,   0.00000,-20306080.00000,   0.00000
-281321120.92322,-409978357.89280,159177315.30591,  -0.00048,  -0.00132,   0.00207,455605984.00000,   0.00000,274640576.00000,   0.00000,   0.00000,   0.00000,-19034592.00000,   0.00000
-282433330.37766,-410967961.58061,159654602.04029,  -0.00048,  -0.00132,   0.00208,456880608.00000,   0.00000,274640576.00000,   0.00000,   0.00000,   0.00000,-17759968.00000,   0.00000
-283530214.11127,-411950997.10234,160131888.77468,  -0.00049,  -0.00132,   0.00208,458149408.00000,   0.00000,274640576.00000,   0.00000,   0.00000,   0.00000,-16491168.00000,   0.00000
-284651181.12046,-412931843.23539,160609175.50906,  -0.00049,  -0.00132,   0.00209,459421536.00000,   0.00000,274640576.00000,   0.00000,   0.00000,   0.00000,-15219040.00000,   0.00000
-285750254.24276,-413890795.48154,161082083.46607,  -0.00049,  -0.00133,   0.00209,460672672.00000,   0.00000,274640576.00000,   0.00000,   0.00000,   0.00000,-13967904.00000,   0.00000
-286879978.80672,-414862884.05983,161554991.42307,  -0.00050,  -0.00133,   0.00210,461936896.00000,   0.00000,274640576.00000,   0.00000,   0.00000,   0.00000,-12703680.00000,   0.00000
-287994377.64984,-415828404.47205,162027899.38007,  -0.00050,  -0.00133,   0.00211,463194464.00000,   0.00000,274640576.00000,   0.00000,   0.00000,   0.00000,-11446112.00000,   0.00000
-289132859.76856,-416791735.49557,162496428.55970,  -0.00050,  -0.00133,   0.00211,464449984.00000,   0.00000,274640576.00000,   0.00000,   0.00000,   0.00000,-10190592.00000,   0.00000
-290256016.16645,-417748498.35303,162964957.73932,  -0.00051,  -0.00133,   0.00212,465698784.00000,   0.00000,274640576.00000,   0.00000,   0.00000,   0.00000,-8941792.00000,   0.00000
-291403255.83992,-418703071.82180,163429108.14157,  -0.00051,  -0.00134,   0.00212,466945440.00000,   0.00000,274640576.00000,   0.00000,   0.00000,   0.00000,-7695136.00000,   0.00000
-292535169.79257,-419651077.12450,163893258.54382,  -0.00051,  -0.00134,   0.00213,468185312.00000,   0.00000,274640576.00000,   0.00000,   0.00000,   0.00000,-6455264.00000,   0.00000
-293691167.02080,-420596893.03851,164357408.94606,  -0.00052,  -0.00134,   0.00214,469427712.00000,   0.00000,274640576.00000,   0.00000,   0.00000,   0.00000,-5212864.00000,   0.00000
-294831838.52821,-421536140.78645,164817180.57093,  -0.00052,  -0.00134,   0.00214,470658688.00000,   0.00000,274640576.00000,   0.00000,   0.00000,   0.00000,-3981888.00000,   0.00000
-295996593.31120,-422473199.14570,165276952.19579,  -0.00052,  -0.00135,   0.00215,471892128.00000,   0.00000,274640576.00000,   0.00000,   0.00000,   0.00000,-2748448.00000,   0.00000
-297161348.09419,-423410257.50495,165732345.04328,  -0.00053,  -0.00135,   0.00215,473120416.00000,   0.00000,274640576.00000,   0.00000,   0.00000,   0.00000,-1520160.00000,   0.00000
-298319534.71112,-424331990.14337,166187737.89076,  -0.00053,  -0.00135,   0.00216,474337696.00000,   0.00000,274640576.00000,   0.00000,   0.00000,   0.00000,-302880.00000,   0.00000
-298610620.77927,-424562252.25699,166299610.52144,  -0.00053,  -0.00135,   0.00216,474639872.00000,   0.00000,274640576.00000,   0.00000,   0.00000,   0.00000,-704.00000,   0.00000
-298982179.76079,-424481175.28109,166284154.98503,  -0.00053,  -0.00135,   0.00217,474639872.00000,   0.00000,274644352.00000,  -0.00000,  -0.00000,   0.00000,  32.00000,   2.00000
-299472913.45945,-424365498.14454,166267051.73562,  -0.00054,  -0.00135,   0.00217,475852640.00000,   0.00001,274649344.00000,  -0.00000,  -0.00001,   0.00001,   0.00000,   2.00000
-299973567.19918,-424250681.48491,166247142.40850,  -0.00054,  -0.00135,   0.00218,475865216.00000,   0.00001,274654368.00000,  -0.00000,  -0.00001,   0.00002,   0.00000,   2.00000
-300475025.86685,-424139600.34915,166224367.23743,  -0.00054,  -0.00136,   0.00218,475866560.00000,   0.00002,274659360.00000,  -0.00000,  -0.00001,   0.00002, -32.00000,   2.00000
-300985305.39848,-424022440.07824,166202658.80285,  -0.00055,  -0.00136,   0.00219,475869280.00000,   0.00002,274664352.00000,  -0.00001,  -0.00002,   0.00003,   0.00000,   2.00000
-301506986.28054,-423903147.16440,166179460.19928,  -0.00055,  -0.00136,   0.00220,475867360.00000,   0.00003,274669312.00000,  -0.00001,  -0.00002,   0.00004, -32.00000,   2.00000
-302026673.52466,-423783493.28563,166156008.50383,  -0.00056,  -0.00136,   0.00220,475873440.00000,   0.00003,274674304.00000,  -0.00001,  -0.00002,   0.00004,   0.00000,   2.00000
-302546060.92455,-423660540.57428,166133578.77861,  -0.00056,  -0.00136,   0.00221,475865088.00000,   0.00004,274679200.00000,  -0.00001,  -0.00003,   0.00005,  64.00000,   2.00000
-303075000.81527,-423538188.79192,166108399.77546,  -0.00056,  -0.00137,   0.00221,475877792.00000,   0.00004,274684128.00000,  -0.00001,  -0.00003,   0.00005,  32.00000,   2.00000
-303612415.89816,-423409373.94672,166084244.13122,  -0.00057,  -0.00137,   0.00222,475880640.00000,   0.00004,274689056.00000,  -0.00001,  -0.00003,   0.00006, -96.00000,   2.00000
-304150476.20546,-423284211.36568,166057368.29281,  -0.00057,  -0.00137,   0.00222,475882112.00000,   0.00005,274693952.00000,  -0.00001,  -0.00004,   0.00007,   0.00000,   2.00000
-304700427.00019,-423163241.16403,166025051.41381,  -0.00057,  -0.00137,   0.00223,475890592.00000,   0.00005,274698848.00000,  -0.00001,  -0.00004,   0.00007,  32.00000,   2.00000
-305247440.79606,-423035007.89306,165996422.28874,  -0.00058,  -0.00137,   0.00224,475886720.00000,   0.00006,274703744.00000,  -0.00001,  -0.00004,   0.00008,   0.00000,   2.00000
-305802875.37520,-422900220.85139,165968829.93177,  -0.00058,  -0.00137,   0.00224,475889632.00000,   0.00006,274708608.00000,  -0.00002,  -0.00005,   0.00008, -32.00000,   2.00000
-306358832.18467,-422768859.44677,165938457.30840,  -0.00059,  -0.00137,   0.00225,475891168.00000,   0.00007,274713440.00000,  -0.00002,  -0.00005,   0.00009, -32.00000,   2.00000
-306925869.08298,-422634811.40678,165906507.92989,  -0.00059,  -0.00138,   0.00225,475889600.00000,   0.00007,274718240.00000,  -0.00002,  -0.00005,   0.00009,  32.00000,   2.00000
-307490770.05754,-422500243.86576,165874372.50154,  -0.00059,  -0.00138,   0.00226,475895680.00000,   0.00008,274723072.00000,  -0.00002,  -0.00006,   0.00010,   0.00000,   2.00000
-308064181.32717,-422359167.23059,165843305.47339,  -0.00060,  -0.00138,   0.00226,475898688.00000,   0.00008,274727872.00000,  -0.00002,  -0.00006,   0.00011, 128.00000,   2.00000
-308638013.31375,-422221258.97239,165809342.86223,  -0.00060,  -0.00138,   0.00227,475900320.00000,   0.00008,274732640.00000,  -0.00002,  -0.00006,   0.00011, -32.00000,   2.00000
-309223799.73836,-422087569.82303,165769983.65339,  -0.00061,  -0.00138,   0.00227,475908576.00000,   0.00009,274737440.00000,  -0.00002,  -0.00006,   0.00012,   0.00000,   2.00000
-309817258.73900,-421940289.32418,165735417.56800,  -0.00061,  -0.00138,   0.00228,475901472.00000,   0.00009,274742176.00000,  -0.00002,  -0.00007,   0.00012, -64.00000,   2.00000
-310409398.15042,-421799415.22975,165696845.58067,  -0.00061,  -0.00138,   0.00228,475917504.00000,   0.00010,274746976.00000,  -0.00002,  -0.00007,   0.00013, -32.00000,   2.00000
-311000743.50666,-421648131.71791,165663091.26685,  -0.00062,  -0.00139,   0.00229,475899072.00000,   0.00010,274751680.00000,  -0.00003,  -0.00007,   0.00014,  64.00000,   2.00000
-311604665.67431,-421507759.81003,165620008.30192,  -0.00062,  -0.00139,   0.00229,475917248.00000,   0.00011,274756416.00000,  -0.00003,  -0.00008,   0.00014, 128.00000,   2.00000
-312217001.28519,-421360579.96575,165577827.56104,  -0.00063,  -0.00139,   0.00230,475920288.00000,   0.00011,274761120.00000,  -0.00003,  -0.00008,   0.00015, -32.00000,   2.00000
-312826672.72155,-421206076.50975,165539283.87325,  -0.00063,  -0.00139,   0.00230,475916128.00000,   0.00011,274765824.00000,  -0.00003,  -0.00008,   0.00015,  64.00000,   2.00000
-313447382.13838,-421048501.04601,165498945.27616,  -0.00064,  -0.00139,   0.00231,475914400.00000,   0.00012,274770496.00000,  -0.00003,  -0.00009,   0.00016, -96.00000,   2.00000
-314069414.10699,-420901188.45261,165451950.27307,  -0.00064,  -0.00139,   0.00232,475925664.00000,   0.00012,274775168.00000,  -0.00003,  -0.00009,   0.00016,  32.00000,   2.00000
-314699201.83169,-420740179.64805,165409670.17968,  -0.00064,  -0.00139,   0.00232,475918336.00000,   0.00013,274779808.00000,  -0.00003,  -0.00009,   0.00017,  64.00000,   2.00000
-315330088.18902,-420589219.20852,165360643.72634,  -0.00065,  -0.00139,   0.00233,475929440.00000,   0.00013,274784448.00000,  -0.00003,  -0.00010,   0.00018,  64.00000,   2.00000
-315968577.10782,-420424408.00196,165316274.19535,  -0.00065,  -0.00140,   0.00233,475922016.00000,   0.00014,274789056.00000,  -0.00004,  -0.00010,   0.00018, -32.00000,   2.00000
-316618607.88557,-420263482.54077,165266352.67746,  -0.00066,  -0.00140,   0.00234,475930112.00000,   0.00014,274793696.00000,  -0.00004,  -0.00010,   0.00019,  32.00000,   2.00000
-317266145.51912,-420101779.38341,165216133.81259,  -0.00066,  -0.00140,   0.00234,475935776.00000,   0.00014,274798304.00000,  -0.00004,  -0.00010,   0.00019,  64.00000,   2.00000
-317924280.69675,-419936763.64161,165164068.97843,  -0.00067,  -0.00140,   0.00235,475933856.00000,   0.00015,274802912.00000,  -0.00004,  -0.00011,   0.00020,  64.00000,   2.00000
-318579769.27661,-419770979.12576,165111743.47807,  -0.00067,  -0.00140,   0.00235,475939360.00000,   0.00015,274807488.00000,  -0.00004,  -0.00011,   0.00020, 128.00000,   2.00000
-319234558.78536,-419601083.10260,165060209.51257,  -0.00068,  -0.00140,   0.00236,475930304.00000,   0.00016,274812032.00000,  -0.00004,  -0.00011,   0.00021, -32.00000,   2.00000
-319910691.13408,-419428366.47539,165004129.14771,  -0.00068,  -0.00140,   0.00236,475935328.00000,   0.00016,274816576.00000,  -0.00004,  -0.00012,   0.00022,   0.00000,   2.00000
-320583755.49707,-419254636.37442,164947719.93830,  -0.00069,  -0.00140,   0.00237,475940800.00000,   0.00016,274821120.00000,  -0.00004,  -0.00012,   0.00022,  64.00000,   2.00000
-321256592.99579,-419083870.72799,164888403.12479,  -0.00069,  -0.00140,   0.00237,475941568.00000,   0.00017,274825664.00000,  -0.00005,  -0.00012,   0.00023, 128.00000,   2.00000
-321936135.19978,-418898566.83312,164833525.04081,  -0.00069,  -0.00140,   0.00237,475934464.00000,   0.00017,274830144.00000,  -0.00005,  -0.00013,   0.00023, -32.00000,   2.00000
-322615881.02880,-418723123.89168,164771922.75956,  -0.00070,  -0.00140,   0.00238,475944864.00000,   0.00018,274834656.00000,  -0.00005,  -0.00013,   0.00024,-160.00000,   2.00000
-323305800.45934,-418544125.14682,164708390.73693,  -0.00070,  -0.00141,   0.00238,475943008.00000,   0.00018,274839136.00000,  -0.00005,  -0.00013,   0.00024, -64.00000,   2.00000
-324003084.26147,-418357665.83421,164645522.11043,  -0.00071,  -0.00141,   0.00239,475945760.00000,   0.00019,274843616.00000,  -0.00005,  -0.00013,   0.00025, -96.00000,   2.00000
-324697544.59475,-418170427.47647,164582349.05801,  -0.00071,  -0.00141,   0.00239,475950912.00000,   0.00019,274848096.00000,  -0.00005,  -0.00014,   0.00025,  96.00000,   2.00000
-325405127.64219,-417983293.99188,164514419.70339,  -0.00072,  -0.00141,   0.00240,475944736.00000,   0.00019,274852544.00000,  -0.00005,  -0.00014,   0.00026,  32.00000,   2.00000
-326110272.69580,-417795643.97900,164446230.69463,  -0.00072,  -0.00141,   0.00240,475949824.00000,   0.00020,274856992.00000,  -0.00005,  -0.00014,   0.00026,  64.00000,   2.00000
-326823188.43316,-417600575.73893,164378581.87739,  -0.00073,  -0.00141,   0.00241,475952672.00000,   0.00020,274861408.00000,  -0.00006,  -0.00015,   0.00027, -64.00000,   2.00000
-327547386.85885,-417409220.92499,164305172.98121,  -0.00073,  -0.00141,   0.00241,475960736.00000,   0.00021,274865856.00000,  -0.00006,  -0.00015,   0.00028,  96.00000,   2.00000
-328271723.43365,-417213981.46532,164232415.29417,  -0.00074,  -0.00141,   0.00242,475951808.00000,   0.00021,274870272.00000,  -0.00006,  -0.00015,   0.00028,  32.00000,   2.00000
-328993545.80674,-417011205.73903,164163029.45489,  -0.00074,  -0.00141,   0.00242,475947264.00000,   0.00021,274874624.00000,  -0.00006,  -0.00015,   0.00029,  64.00000,   2.00000
-329726686.29070,-416812030.98292,164087776.19968,  -0.00075,  -0.00141,   0.00242,475955456.00000,   0.00022,274878976.00000,  -0.00006,  -0.00016,   0.00029,   0.00000,   2.00000
-330468291.89773,-416612721.61122,164009343.17497,  -0.00075,  -0.00141,   0.00243,475968096.00000,   0.00022,274883392.00000,  -0.00006,  -0.00016,   0.00030,   0.00000,   2.00000
-331212974.48815,-416413290.32489,163928848.00861,  -0.00076,  -0.00141,   0.00243,475954720.00000,   0.00023,274887744.00000,  -0.00006,  -0.00016,   0.00030, -32.00000,   2.00000
-331962773.04942,-416202789.77295,163851539.64218,  -0.00076,  -0.00141,   0.00244,475962176.00000,   0.00023,274892064.00000,  -0.00007,  -0.00017,   0.00031,   0.00000,   2.00000
-332715867.57668,-415999182.35955,163768438.83684,  -0.00077,  -0.00141,   0.00244,475958688.00000,   0.00023,274896384.00000,  -0.00007,  -0.00017,   0.00031,  96.00000,   2.00000
-333476667.73003,-415788080.70659,163685774.12125,  -0.00077,  -0.00141,   0.00245,475961824.00000,   0.00024,274900704.00000,  -0.00007,  -0.00017,   0.00032, -64.00000,   2.00000
-334245422.08139,-415576644.36975,163599865.97288,  -0.00078,  -0.00141,   0.00245,475974720.00000,   0.00024,274905024.00000,  -0.00007,  -0.00017,   0.00032,  64.00000,   2.00000
-335016844.32247,-415364746.51230,163511793.77161,  -0.00078,  -0.00141,   0.00245,475961760.00000,   0.00025,274909312.00000,  -0.00007,  -0.00018,   0.00033,  64.00000,   2.00000
-335785487.21596,-415152067.21778,163423257.62064,  -0.00079,  -0.00141,   0.00246,475967328.00000,   0.00025,274913600.00000,  -0.00007,  -0.00018,   0.00033,   0.00000,   2.00000
-336561494.82920,-414931739.29224,163335118.23558,  -0.00080,  -0.00141,   0.00246,475970528.00000,   0.00025,274917856.00000,  -0.00007,  -0.00018,   0.00034, 128.00000,   2.00000
-337347813.36444,-414714480.31966,163240912.44638,  -0.00080,  -0.00141,   0.00247,475979392.00000,   0.00026,274922144.00000,  -0.00007,  -0.00018,   0.00034,  64.00000,   2.00000
-338144137.42063,-414493119.59596,163144325.78248,  -0.00081,  -0.00141,   0.00247,475978400.00000,   0.00026,274926432.00000,  -0.00008,  -0.00019,   0.00035, -32.00000,   2.00000
-338929749.81846,-414267217.15684,163051109.14710,  -0.00081,  -0.00141,   0.00247,475962400.00000,   0.00026,274930624.00000,  -0.00008,  -0.00019,   0.00035,  32.00000,   2.00000
-339733023.53071,-414040888.61722,162951652.28016,  -0.00082,  -0.00141,   0.00248,475983200.00000,   0.00027,274934848.00000,  -0.00008,  -0.00019,   0.00036, 160.00000,   2.00000
-340535792.65827,-413810035.52252,162852599.64701,  -0.00082,  -0.00141,   0.00248,475974912.00000,   0.00027,274939072.00000,  -0.00008,  -0.00019,   0.00037,  64.00000,   2.00000
-341335427.75695,-413578243.00186,162753018.04543,  -0.00083,  -0.00141,   0.00249,475980544.00000,   0.00028,274943264.00000,  -0.00008,  -0.00020,   0.00037,  32.00000,   2.00000
-342155191.03288,-413342370.30567,162648092.37613,  -0.00083,  -0.00141,   0.00249,475987488.00000,   0.00028,274947488.00000,  -0.00008,  -0.00020,   0.00038,  64.00000,   2.00000
-342964416.25690,-413109028.10482,162542800.60225,  -0.00084,  -0.00141,   0.00249,475981344.00000,   0.00028,274951680.00000,  -0.00008,  -0.00020,   0.00038, -64.00000,   2.00000
-343793673.50361,-412871517.34661,162432120.86622,  -0.00085,  -0.00141,   0.00250,475988384.00000,   0.00029,274955840.00000,  -0.00009,  -0.00021,   0.00039,  32.00000,   2.00000
-344609458.50471,-412632818.24619,162323772.92549,  -0.00085,  -0.00141,   0.00250,475986496.00000,   0.00029,274960000.00000,  -0.00009,  -0.00021,   0.00039, 128.00000,   2.00000
-345445129.23580,-412389811.43089,162209977.99304,  -0.00086,  -0.00141,   0.00250,475993760.00000,   0.00030,274964192.00000,  -0.00009,  -0.00021,   0.00040,  96.00000,   2.00000
-346277312.34015,-412138415.50221,162099232.29612,  -0.00086,  -0.00141,   0.00251,475990144.00000,   0.00030,274968320.00000,  -0.00009,  -0.00021,   0.00040,  64.00000,   2.00000
-347109196.78406,-411889732.11887,161985243.88034,  -0.00087,  -0.00141,   0.00251,475991520.00000,   0.00030,274972448.00000,  -0.00009,  -0.00022,   0.00041,  32.00000,   2.00000
-347950672.71728,-411643653.35308,161864979.13147,  -0.00087,  -0.00141,   0.00252,476000832.00000,   0.00031,274976608.00000,  -0.00009,  -0.00022,   0.00041, -32.00000,   2.00000
-348801778.29844,-411393042.06530,161742161.44519,  -0.00088,  -0.00141,   0.00252,476000672.00000,   0.00031,274980736.00000,  -0.00010,  -0.00022,   0.00042, -32.00000,   2.00000
-349649295.88891,-411133888.37863,161622348.29458,  -0.00089,  -0.00141,   0.00252,475997184.00000,   0.00031,274984832.00000,  -0.00010,  -0.00022,   0.00042,   0.00000,   2.00000
-350506316.89248,-410877355.80031,161496286.29109,  -0.00089,  -0.00141,   0.00253,476006592.00000,   0.00032,274988960.00000,  -0.00010,  -0.00023,   0.00043, -32.00000,   2.00000
-351359768.70831,-410612300.44073,161373256.15506,  -0.00090,  -0.00141,   0.00253,476003200.00000,   0.00032,274993056.00000,  -0.00010,  -0.00023,   0.00043,  32.00000,   2.00000
-352225518.23861,-410345952.73007,161244805.45015,  -0.00090,  -0.00141,   0.00253,475999008.00000,   0.00033,274997120.00000,  -0.00010,  -0.00023,   0.00044,  64.00000,   2.00000
-353097420.40744,-410078309.13571,161112726.97517,  -0.00091,  -0.00141,   0.00254,476012960.00000,   0.00033,275001184.00000,  -0.00010,  -0.00023,   0.00044,-128.00000,   2.00000
-353965785.16033,-409809629.44031,160980136.30581,  -0.00092,  -0.00141,   0.00254,476019104.00000,   0.00033,275005312.00000,  -0.00010,  -0.00024,   0.00045,  96.00000,   2.00000
-354846239.32645,-409539434.95298,160842042.87148,  -0.00092,  -0.00141,   0.00254,476015360.00000,   0.00034,275009376.00000,  -0.00011,  -0.00024,   0.00045,  96.00000,   2.00000
-355722875.17895,-409260421.99365,160706887.39249,  -0.00093,  -0.00141,   0.00255,476012224.00000,   0.00034,275013408.00000,  -0.00011,  -0.00024,   0.00046,   0.00000,   2.00000
-356598769.91393,-408983738.15386,160568394.13441,  -0.00093,  -0.00141,   0.00255,476014176.00000,   0.00034,275017440.00000,  -0.00011,  -0.00024,   0.00046,  64.00000,   2.00000
-357490304.77161,-408698155.03677,160426835.44992,  -0.00094,  -0.00141,   0.00255,476027040.00000,   0.00035,275021472.00000,  -0.00011,  -0.00024,   0.00047,  64.00000,   2.00000
-358380955.34479,-408414817.79758,160281910.63747,  -0.00095,  -0.00141,   0.00256,476029216.00000,   0.00035,275025536.00000,  -0.00011,  -0.00025,   0.00047,  64.00000,   2.00000
-359270719.79623,-408126093.81934,160137130.80678,  -0.00095,  -0.00141,   0.00256,476021984.00000,   0.00036,275029536.00000,  -0.00011,  -0.00025,   0.00048, -32.00000,   2.00000
-360169369.43080,-407832036.71163,159989535.54257,  -0.00096,  -0.00141,   0.00256,476022688.00000,   0.00036,275033536.00000,  -0.00012,  -0.00025,   0.00048,  32.00000,   2.00000
-361073538.72993,-407536430.76435,159838246.66339,  -0.00097,  -0.00140,   0.00256,476037376.00000,   0.00036,275037568.00000,  -0.00012,  -0.00025,   0.00049,  64.00000,   2.00000
-361976776.63323,-407235335.35819,159687068.94090,  -0.00097,  -0.00140,   0.00257,476030368.00000,   0.00037,275041536.00000,  -0.00012,  -0.00026,   0.00049, 160.00000,   2.00000
-362879014.88637,-406936349.86967,159532479.61134,  -0.00098,  -0.00140,   0.00257,476032672.00000,   0.00037,275045504.00000,  -0.00012,  -0.00026,   0.00050, -96.00000,   2.00000
-363799176.94830,-406639194.90643,159368354.14429,  -0.00098,  -0.00140,   0.00257,476051200.00000,   0.00037,275049536.00000,  -0.00012,  -0.00026,   0.00050,  32.00000,   2.00000
-364706114.75713,-406325557.35013,159213693.72239,  -0.00099,  -0.00140,   0.00258,476031136.00000,   0.00038,275053472.00000,  -0.00012,  -0.00026,   0.00051,  32.00000,   2.00000
-365630726.45869,-406013557.55011,159049412.25323,  -0.00100,  -0.00140,   0.00258,476049888.00000,   0.00038,275057440.00000,  -0.00013,  -0.00027,   0.00051,   0.00000,   2.00000
-366554250.05074,-405703633.62561,158881691.14150,  -0.00100,  -0.00140,   0.00258,476052448.00000,   0.00038,275061440.00000,  -0.00013,  -0.00027,   0.00052,  64.00000,   2.00000
-367473761.12785,-405384555.42677,158716780.38426,  -0.00101,  -0.00140,   0.00258,476049856.00000,   0.00039,275065376.00000,  -0.00013,  -0.00027,   0.00052,  96.00000,   2.00000
-368401672.55491,-405059598.02628,158548795.18524,  -0.00102,  -0.00140,   0.00259,476051392.00000,   0.00039,275069312.00000,  -0.00013,  -0.00027,   0.00052, 128.00000,   2.00000
-369337672.32643,-404736381.55629,158374206.73388,  -0.00102,  -0.00140,   0.00259,476062240.00000,   0.00040,275073280.00000,  -0.00013,  -0.00028,   0.00053,  96.00000,   2.00000
-370272806.58317,-404407489.10557,158199617.99479,  -0.00103,  -0.00140,   0.00259,476055552.00000,   0.00040,275077216.00000,  -0.00013,  -0.00028,   0.00053, 160.00000,   2.00000
-371203649.61904,-404077051.32872,158024291.91332,  -0.00104,  -0.00139,   0.00259,476062432.00000,   0.00040,275081120.00000,  -0.00014,  -0.00028,   0.00054, 160.00000,   2.00000
-372151913.04547,-403740327.08045,157842672.60786,  -0.00104,  -0.00139,   0.00260,476072416.00000,   0.00041,275085088.00000,  -0.00014,  -0.00028,   0.00054, 128.00000,   2.00000
-373090215.62230,-403398107.96435,157664120.35240,  -0.00105,  -0.00139,   0.00260,476057440.00000,   0.00041,275088960.00000,  -0.00014,  -0.00028,   0.00055,  64.00000,   2.00000
-374045466.17719,-403057207.73972,157475726.95994,  -0.00106,  -0.00139,   0.00260,476076864.00000,   0.00041,275092896.00000,  -0.00014,  -0.00029,   0.00055, -32.00000,   2.00000
-374996417.43841,-402714851.73144,157286596.76669,  -0.00106,  -0.00139,   0.00260,476083712.00000,   0.00042,275096832.00000,  -0.00014,  -0.00029,   0.00056,  64.00000,   2.00000
-375946860.80574,-402358835.79707,157100788.37627,  -0.00107,  -0.00139,   0.00261,476067968.00000,   0.00042,275100704.00000,  -0.00014,  -0.00029,   0.00056, 128.00000,   2.00000
-376904817.98310,-402012304.40188,156904835.46544,  -0.00108,  -0.00139,   0.00261,476088192.00000,   0.00042,275104608.00000,  -0.00015,  -0.00029,   0.00057,  64.00000,   2.00000
-377871126.11940,-401651597.93536,156708947.33320,  -0.00108,  -0.00139,   0.00261,476081056.00000,   0.00043,275108480.00000,  -0.00015,  -0.00029,   0.00057,  32.00000,   2.00000
-378833057.08324,-401289379.93332,156512269.35869,  -0.00109,  -0.00138,   0.00261,476087968.00000,   0.00043,275112384.00000,  -0.00015,  -0.00030,   0.00058,  32.00000,   2.00000
-379793899.85824,-400929182.15282,156312033.37092,  -0.00110,  -0.00138,   0.00261,476090656.00000,   0.00043,275116256.00000,  -0.00015,  -0.00030,   0.00058,  64.00000,   2.00000
-380763051.22991,-400554637.05806,156111775.37590,  -0.00110,  -0.00138,   0.00262,476083648.00000,   0.00044,275120096.00000,  -0.00015,  -0.00030,   0.00059,  32.00000,   2.00000
-381736213.52144,-400186165.52316,155904144.22403,  -0.00111,  -0.00138,   0.00262,476108160.00000,   0.00044,275124032.00000,  -0.00015,  -0.00030,   0.00059,  64.00000,   2.00000
-382712072.64124,-399807037.56727,155696814.28259,  -0.00112,  -0.00138,   0.00262,476088576.00000,   0.00045,275127840.00000,  -0.00016,  -0.00031,   0.00060,  32.00000,   2.00000
-383691769.47958,-399433957.73530,155482085.46682,  -0.00113,  -0.00138,   0.00262,476113152.00000,   0.00045,275131744.00000,  -0.00016,  -0.00031,   0.00060,   0.00000,   2.00000
-384671034.14456,-399046802.25992,155270473.28590,  -0.00113,  -0.00138,   0.00262,476097760.00000,   0.00045,275135584.00000,  -0.00016,  -0.00031,   0.00061,  32.00000,   2.00000
-385654389.69416,-398657679.33616,155054817.56118,  -0.00114,  -0.00137,   0.00263,476113376.00000,   0.00046,275139456.00000,  -0.00016,  -0.00031,   0.00061,  64.00000,   2.00000
-386644870.26691,-398269852.08667,154832236.43332,  -0.00115,  -0.00137,   0.00263,476124992.00000,   0.00046,275143328.00000,  -0.00016,  -0.00031,   0.00061, 128.00000,   2.00000
-387638045.68950,-397871076.21328,154609846.17529,  -0.00115,  -0.00137,   0.00263,476105472.00000,   0.00046,275147136.00000,  -0.00017,  -0.00032,   0.00062,  64.00000,   2.00000
-388626089.53844,-397478768.82492,154383267.18040,  -0.00116,  -0.00137,   0.00263,476121536.00000,   0.00047,275151008.00000,  -0.00017,  -0.00032,   0.00062,  64.00000,   2.00000
-389618782.55093,-397068195.60013,154159262.49209,  -0.00117,  -0.00137,   0.00263,476119296.00000,   0.00047,275154816.00000,  -0.00017,  -0.00032,   0.00063, -32.00000,   2.00000
-390621639.20973,-396662213.20259,153925488.85612,  -0.00118,  -0.00137,   0.00263,476126816.00000,   0.00047,275158656.00000,  -0.00017,  -0.00032,   0.00063,  64.00000,   2.00000
-391619438.46035,-396254392.56459,153690775.48539,  -0.00118,  -0.00136,   0.00264,476134016.00000,   0.00048,275162528.00000,  -0.00017,  -0.00032,   0.00064,   0.00000,   2.00000
-392616240.04570,-395840229.08076,153455743.59614,  -0.00119,  -0.00136,   0.00264,476128032.00000,   0.00048,275166336.00000,  -0.00018,  -0.00033,   0.00064,  32.00000,   2.00000
-393616730.49327,-395415529.76396,153219818.96858,  -0.00120,  -0.00136,   0.00264,476135104.00000,   0.00048,275170176.00000,  -0.00018,  -0.00033,   0.00065,  64.00000,   2.00000
-394627020.08623,-394995227.63529,152974072.03109,  -0.00121,  -0.00136,   0.00264,476142912.00000,   0.00049,275174016.00000,  -0.00018,  -0.00033,   0.00065,  32.00000,   2.00000
-395632581.39932,-394564846.74172,152730695.34553,  -0.00121,  -0.00136,   0.00264,476141472.00000,   0.00049,275177824.00000,  -0.00018,  -0.00033,   0.00066,  32.00000,   2.00000
-396644812.84276,-394127057.80342,152483521.99425,  -0.00122,  -0.00135,   0.00264,476144640.00000,   0.00049,275181632.00000,  -0.00018,  -0.00033,   0.00066,   0.00000,   2.00000
-397655104.46020,-393690774.71964,152232637.15359,  -0.00123,  -0.00135,   0.00264,476147936.00000,   0.00050,275185440.00000,  -0.00019,  -0.00034,   0.00067,  96.00000,   2.00000
-398668027.96513,-393251983.39302,151977543.52972,  -0.00123,  -0.00135,   0.00265,476164352.00000,   0.00050,275189312.00000,  -0.00019,  -0.00034,   0.00067,  32.00000,   2.00000
-399683212.26696,-392801187.18513,151722299.95975,  -0.00124,  -0.00135,   0.00265,476146048.00000,   0.00050,275193088.00000,  -0.00019,  -0.00034,   0.00067,   0.00000,   2.00000
-400700191.79220,-392356086.67144,151459581.96678,  -0.00125,  -0.00135,   0.00265,476171552.00000,   0.00051,275196928.00000,  -0.00019,  -0.00034,   0.00068, -64.00000,   2.00000
-401716097.25491,-391895623.63692,151199565.22134,  -0.00126,  -0.00134,   0.00265,476157280.00000,   0.00051,275200704.00000,  -0.00019,  -0.00034,   0.00068,   0.00000,   2.00000
-402734172.16309,-391432487.67970,150935307.98315,  -0.00127,  -0.00134,   0.00265,476174304.00000,   0.00052,275204544.00000,  -0.00020,  -0.00035,   0.00069,   0.00000,   2.00000
-403760948.54293,-390973104.62952,150661037.31976,  -0.00127,  -0.00134,   0.00265,476183072.00000,   0.00052,275208384.00000,  -0.00020,  -0.00035,   0.00069,   0.00000,   2.00000
-404783057.87494,-390494794.47221,150392234.42622,  -0.00128,  -0.00134,   0.00265,476173312.00000,   0.00052,275212192.00000,  -0.00020,  -0.00035,   0.00070,  64.00000,   2.00000
-405801991.26865,-390026031.41166,150116451.17739,  -0.00129,  -0.00133,   0.00265,476186016.00000,   0.00053,275216000.00000,  -0.00020,  -0.00035,   0.00070,  64.00000,   2.00000
-406823916.31032,-389537535.30016,149842754.79715,  -0.00130,  -0.00133,   0.00265,476185600.00000,   0.00053,275219808.00000,  -0.00020,  -0.00035,   0.00071, 128.00000,   2.00000
-407846399.35332,-389053128.16390,149562285.94608,  -0.00130,  -0.00133,   0.00266,476185568.00000,   0.00053,275223616.00000,  -0.00021,  -0.00036,   0.00071, -32.00000,   2.00000
-408870563.56937,-388565993.35110,149277645.47426,  -0.00131,  -0.00133,   0.00266,476202784.00000,   0.00054,275227456.00000,  -0.00021,  -0.00036,   0.00072,  32.00000,   2.00000
-409892451.26096,-388071143.36140,148992281.29811,  -0.00132,  -0.00133,   0.00266,476198176.00000,   0.00054,275231264.00000,  -0.00021,  -0.00036,   0.00072, -64.00000,   2.00000
-410919740.97453,-387567983.01906,148702920.12346,  -0.00133,  -0.00132,   0.00266,476202976.00000,   0.00054,275235072.00000,  -0.00021,  -0.00036,   0.00072, -96.00000,   2.00000
-411951501.16476,-387064899.88277,148406411.52532,  -0.00134,  -0.00132,   0.00266,476216576.00000,   0.00055,275238912.00000,  -0.00022,  -0.00036,   0.00073,  96.00000,   2.00000
-412977272.19803,-386550633.62499,148112082.71524,  -0.00134,  -0.00132,   0.00266,476216224.00000,   0.00055,275242752.00000,  -0.00022,  -0.00036,   0.00073, -96.00000,   2.00000
-414000704.59746,-386028521.57387,147817151.17940,  -0.00135,  -0.00132,   0.00266,476211872.00000,   0.00055,275246560.00000,  -0.00022,  -0.00037,   0.00074,  32.00000,   2.00000
-415027931.49943,-385506004.43688,147515058.90004,  -0.00136,  -0.00131,   0.00266,476225856.00000,   0.00056,275250368.00000,  -0.00022,  -0.00037,   0.00074,  32.00000,   2.00000
-416052360.62481,-384975215.59330,147212353.17559,  -0.00137,  -0.00131,   0.00266,476221632.00000,   0.00056,275254176.00000,  -0.00022,  -0.00037,   0.00075,  64.00000,   2.00000
-417076647.07137,-384440598.74566,146905538.84070,  -0.00137,  -0.00131,   0.00266,476239936.00000,   0.00056,275258048.00000,  -0.00023,  -0.00037,   0.00075, -96.00000,   2.00000
-418104753.17554,-383896497.36917,146594833.70815,  -0.00138,  -0.00130,   0.00266,476245600.00000,   0.00057,275261888.00000,  -0.00023,  -0.00037,   0.00076, -64.00000,   2.00000
-419121207.15487,-383352865.04822,146283949.89549,  -0.00139,  -0.00130,   0.00266,476241280.00000,   0.00057,275265728.00000,  -0.00023,  -0.00038,   0.00076,  64.00000,   2.00000
-420147494.43083,-382798145.91760,145965848.28047,  -0.00140,  -0.00130,   0.00266,476257312.00000,   0.00058,275269568.00000,  -0.00023,  -0.00038,   0.00076, 128.00000,   2.00000
-421168945.58302,-382233590.19973,145647280.56286,  -0.00141,  -0.00130,   0.00266,476254528.00000,   0.00058,275273408.00000,  -0.00024,  -0.00038,   0.00077,  96.00000,   2.00000
-422180929.83233,-381664679.89730,145328391.82291,  -0.00142,  -0.00129,   0.00266,476264384.00000,   0.00058,275277280.00000,  -0.00024,  -0.00038,   0.00077, -32.00000,   2.00000
-423194151.60555,-381084577.93871,145005910.62563,  -0.00142,  -0.00129,   0.00266,476271872.00000,   0.00059,275281152.00000,  -0.00024,  -0.00038,   0.00078,   0.00000,   2.00000
-424200068.78472,-380502393.24417,144680197.52049,  -0.00143,  -0.00129,   0.00266,476278848.00000,   0.00059,275285024.00000,  -0.00024,  -0.00038,   0.00078,  96.00000,   2.00000
-425205860.00155,-379908189.15452,144350871.12152,  -0.00144,  -0.00129,   0.00266,476287616.00000,   0.00059,275288896.00000,  -0.00025,  -0.00039,   0.00079,  64.00000,   2.00000
-426201331.84935,-379299962.53479,144024299.00554,  -0.00145,  -0.00128,   0.00266,476290688.00000,   0.00060,275292768.00000,  -0.00025,  -0.00039,   0.00079, -64.00000,   2.00000
-427195595.03894,-378688667.34466,143691160.46054,  -0.00146,  -0.00128,   0.00266,476308608.00000,   0.00060,275296672.00000,  -0.00025,  -0.00039,   0.00080,  64.00000,   2.00000
-428183708.59603,-378066878.03083,143357271.20879,  -0.00146,  -0.00128,   0.00266,476308192.00000,   0.00060,275300576.00000,  -0.00025,  -0.00039,   0.00080, -32.00000,   2.00000
-429166395.81347,-377444576.40053,143019450.08963,  -0.00147,  -0.00127,   0.00266,476315520.00000,   0.00061,275304480.00000,  -0.00026,  -0.00039,   0.00080, 128.00000,   2.00000
-430150114.45627,-376810479.37028,142679674.16558,  -0.00148,  -0.00127,   0.00266,476327008.00000,   0.00061,275308384.00000,  -0.00026,  -0.00039,   0.00081,  32.00000,   2.00000
-431145677.21798,-376172817.37336,142330965.93709,  -0.00149,  -0.00127,   0.00266,476328704.00000,   0.00061,275312320.00000,  -0.00026,  -0.00040,   0.00081,  96.00000,   2.00000
-432143749.31273,-375538732.71368,141979505.38032,  -0.00150,  -0.00126,   0.00266,476333152.00000,   0.00062,275316256.00000,  -0.00026,  -0.00040,   0.00082,  64.00000,   2.00000
-433149244.55594,-374901724.21928,141627996.14521,  -0.00151,  -0.00126,   0.00266,476326272.00000,   0.00062,275320128.00000,  -0.00027,  -0.00040,   0.00082,  96.00000,   2.00000
-434175273.13161,-374276429.71278,141264879.16582,  -0.00152,  -0.00126,   0.00266,476328736.00000,   0.00063,275324032.00000,  -0.00027,  -0.00040,   0.00083,   0.00000,   2.00000
-435210217.21961,-373645049.43318,140900924.94643,  -0.00152,  -0.00125,   0.00266,476333312.00000,   0.00063,275327936.00000,  -0.00027,  -0.00040,   0.00083,  96.00000,   2.00000
-436238817.03093,-373003853.31967,140537951.44962,  -0.00153,  -0.00125,   0.00266,476331680.00000,   0.00063,275331808.00000,  -0.00027,  -0.00040,   0.00084,  32.00000,   2.00000
-437249010.87416,-372354793.18445,140173662.62552,  -0.00154,  -0.00125,   0.00266,476346784.00000,   0.00064,275335712.00000,  -0.00028,  -0.00041,   0.00084,  32.00000,   2.00000
-438238031.48160,-371685830.24890,139809949.87688,  -0.00155,  -0.00124,   0.00266,476357376.00000,   0.00064,275339584.00000,  -0.00028,  -0.00041,   0.00084,  32.00000,   2.00000
-439217122.88128,-371003258.00732,139439506.32949,  -0.00156,  -0.00124,   0.00266,476399008.00000,   0.00064,275343616.00000,  -0.00028,  -0.00041,   0.00085, 128.00000,   2.00000
-440183586.42881,-370310884.86142,139067571.00992,  -0.00157,  -0.00124,   0.00266,476388928.00000,   0.00065,275347552.00000,  -0.00029,  -0.00041,   0.00085,  32.00000,   2.00000
-441144846.85801,-369602264.18875,138696896.39228,  -0.00158,  -0.00123,   0.00266,476406048.00000,   0.00065,275351552.00000,  -0.00029,  -0.00041,   0.00086, -64.00000,   2.00000
-442113249.37120,-368896924.04091,138315008.61759,  -0.00158,  -0.00123,   0.00266,476418016.00000,   0.00065,275355584.00000,  -0.00029,  -0.00041,   0.00086, 128.00000,   2.00000
-443082490.10893,-368185171.04772,137930950.39058,  -0.00159,  -0.00123,   0.00266,476413504.00000,   0.00066,275359584.00000,  -0.00029,  -0.00042,   0.00087,  64.00000,   2.00000
-444048988.74443,-367474224.10491,137545346.70029,  -0.00160,  -0.00122,   0.00266,476420160.00000,   0.00066,275363616.00000,  -0.00030,  -0.00042,   0.00087,   0.00000,   2.00000
-445023175.96504,-366756713.74908,137154286.79994,  -0.00161,  -0.00122,   0.00266,476425152.00000,   0.00067,275367616.00000,  -0.00030,  -0.00042,   0.00087,  64.00000,   2.00000
-445995906.62786,-366030999.95561,136764286.97847,  -0.00162,  -0.00122,   0.00266,476423392.00000,   0.00067,275371616.00000,  -0.00030,  -0.00042,   0.00088,  32.00000,   2.00000
-446972831.54542,-365311727.44899,136366323.14993,  -0.00163,  -0.00121,   0.00266,476422688.00000,   0.00067,275375616.00000,  -0.00031,  -0.00042,   0.00088, 128.00000,   2.00000
-447953428.63051,-364583008.07761,135966042.94899,  -0.00164,  -0.00121,   0.00265,476431904.00000,   0.00068,275379616.00000,  -0.00031,  -0.00042,   0.00089,  64.00000,   2.00000
-448939930.81612,-363856902.01945,135557666.95270,  -0.00165,  -0.00121,   0.00265,476445952.00000,   0.00068,275383680.00000,  -0.00031,  -0.00043,   0.00089,  64.00000,   2.00000
-449927348.78982,-363124590.65729,135147197.84523,  -0.00165,  -0.00120,   0.00265,476441312.00000,   0.00068,275387680.00000,  -0.00032,  -0.00043,   0.00090,  32.00000,   2.00000
-450911006.65854,-362392734.54863,134735303.05027,  -0.00166,  -0.00120,   0.00265,476448736.00000,   0.00069,275391744.00000,  -0.00032,  -0.00043,   0.00090,  64.00000,   2.00000
-451894891.45535,-361654052.98387,134321489.22937,  -0.00167,  -0.00119,   0.00265,476444480.00000,   0.00069,275395744.00000,  -0.00032,  -0.00043,   0.00090,  64.00000,   2.00000
-452883894.54938,-360907156.60734,133902390.04420,  -0.00168,  -0.00119,   0.00265,476451072.00000,   0.00069,275399744.00000,  -0.00032,  -0.00043,   0.00091,  64.00000,   2.00000
-453876740.61742,-360161446.20335,133475579.74890,  -0.00169,  -0.00119,   0.00265,476465920.00000,   0.00070,275403808.00000,  -0.00033,  -0.00043,   0.00091,  96.00000,   2.00000
-454864807.68269,-359405053.67763,133050338.73595,  -0.00170,  -0.00118,   0.00265,476465984.00000,   0.00070,275407872.00000,  -0.00033,  -0.00043,   0.00092,  32.00000,   2.00000
-455854302.87105,-358642599.55912,132620347.78270,  -0.00171,  -0.00118,   0.00265,476458880.00000,   0.00071,275411872.00000,  -0.00033,  -0.00044,   0.00092,  32.00000,   2.00000
-456837185.61260,-357878480.75546,132189591.63823,  -0.00172,  -0.00117,   0.00264,476467328.00000,   0.00071,275415904.00000,  -0.00034,  -0.00044,   0.00093,  96.00000,   2.00000
-457819165.67924,-357101765.86606,131757284.47851,  -0.00173,  -0.00117,   0.00264,476478592.00000,   0.00071,275419968.00000,  -0.00034,  -0.00044,   0.00093,  32.00000,   2.00000
-458805642.28550,-356327009.21072,131314533.14931,  -0.00174,  -0.00117,   0.00264,476491040.00000,   0.00072,275424064.00000,  -0.00034,  -0.00044,   0.00094,   0.00000,   2.00000
-459785042.91965,-355540017.65302,130873755.18095,  -0.00174,  -0.00116,   0.00264,476492192.00000,   0.00072,275428128.00000,  -0.00035,  -0.00044,   0.00094,  96.00000,   2.00000
-460759540.33335,-354752946.72703,130429202.11793,  -0.00175,  -0.00116,   0.00264,476498016.00000,   0.00072,275432224.00000,  -0.00035,  -0.00044,   0.00094, 160.00000,   2.00000
-461726377.14965,-353953334.78458,129986582.19831,  -0.00176,  -0.00115,   0.00264,476499744.00000,   0.00073,275436288.00000,  -0.00035,  -0.00044,   0.00095,   0.00000,   2.00000
-462694192.72977,-353142994.82908,129539346.00427,  -0.00177,  -0.00115,   0.00264,476508704.00000,   0.00073,275440384.00000,  -0.00036,  -0.00045,   0.00095,  64.00000,   2.00000
-463659926.14920,-352334877.36091,129085023.37711,  -0.00178,  -0.00115,   0.00263,476511712.00000,   0.00074,275444480.00000,  -0.00036,  -0.00045,   0.00096,  64.00000,   2.00000
-464619186.20162,-351510884.81639,128632444.95736,  -0.00179,  -0.00114,   0.00263,476528608.00000,   0.00074,275448640.00000,  -0.00036,  -0.00045,   0.00096,  32.00000,   2.00000
-465576338.95966,-350689259.19875,128172751.56688,  -0.00180,  -0.00114,   0.00263,476531840.00000,   0.00074,275452768.00000,  -0.00036,  -0.00045,   0.00097,   0.00000,   2.00000
-466525439.62693,-349855163.63587,127714849.83259,  -0.00181,  -0.00113,   0.00263,476534592.00000,   0.00075,275456896.00000,  -0.00037,  -0.00045,   0.00097,  64.00000,   2.00000
-467474648.70113,-349010169.51025,127252045.89344,  -0.00182,  -0.00113,   0.00263,476544992.00000,   0.00075,275461056.00000,  -0.00037,  -0.00045,   0.00097,  64.00000,   2.00000
-468418106.99072,-348165132.13741,126785238.57024,  -0.00183,  -0.00112,   0.00263,476552352.00000,   0.00076,275465216.00000,  -0.00037,  -0.00045,   0.00098, -64.00000,   2.00000
-469353669.89332,-347307857.58501,126320163.34226,  -0.00184,  -0.00112,   0.00262,476555392.00000,   0.00076,275469376.00000,  -0.00038,  -0.00045,   0.00098,  64.00000,   2.00000
-470288190.67139,-346449830.19679,125847712.44289,  -0.00185,  -0.00112,   0.00262,476574016.00000,   0.00076,275473600.00000,  -0.00038,  -0.00046,   0.00099,  96.00000,   2.00000
-471217919.50344,-345581785.41288,125373535.19430,  -0.00186,  -0.00111,   0.00262,476573920.00000,   0.00077,275477792.00000,  -0.00038,  -0.00046,   0.00099,  32.00000,   2.00000
-472139677.08002,-344701518.03663,124900981.02022,  -0.00186,  -0.00111,   0.00262,476577312.00000,   0.00077,275481984.00000,  -0.00039,  -0.00046,   0.00100, 128.00000,   2.00000
-473060330.66131,-343820681.64302,124421044.15327,  -0.00187,  -0.00110,   0.00262,476596096.00000,   0.00077,275486240.00000,  -0.00039,  -0.00046,   0.00100,  64.00000,   2.00000
-473976132.60620,-342929790.99427,123939280.93679,  -0.00188,  -0.00110,   0.00262,476596288.00000,   0.00078,275490464.00000,  -0.00040,  -0.00046,   0.00100,   0.00000,   2.00000
-474886406.76609,-342039245.39563,123453461.14630,  -0.00189,  -0.00109,   0.00261,476603904.00000,   0.00078,275494720.00000,  -0.00040,  -0.00046,   0.00101,  32.00000,   2.00000
-475792961.17744,-341135661.25693,122965874.69661,  -0.00190,  -0.00109,   0.00261,476618656.00000,   0.00079,275498976.00000,  -0.00040,  -0.00046,   0.00101,   0.00000,   2.00000
-476694806.36390,-340222097.15904,122476453.80096,  -0.00191,  -0.00108,   0.00261,476618976.00000,   0.00079,275503264.00000,  -0.00041,  -0.00046,   0.00102, -64.00000,   2.00000
-477591040.97088,-339308877.35201,121982947.79775,  -0.00192,  -0.00108,   0.00261,476626912.00000,   0.00079,275507520.00000,  -0.00041,  -0.00047,   0.00102, -96.00000,   2.00000
-478482615.29907,-338393108.30686,121485489.03823,  -0.00193,  -0.00107,   0.00260,476649216.00000,   0.00080,275511872.00000,  -0.00041,  -0.00047,   0.00103,  64.00000,   2.00000
-479370312.24076,-337456872.27964,120988351.03310,  -0.00194,  -0.00107,   0.00260,476642112.00000,   0.00080,275516192.00000,  -0.00042,  -0.00047,   0.00103,  32.00000,   2.00000
-480251482.59265,-336531458.38705,120484948.02150,  -0.00195,  -0.00106,   0.00260,476657472.00000,   0.00081,275520512.00000,  -0.00042,  -0.00047,   0.00103, -32.00000,   2.00000
-481132851.63481,-335584755.66628,119978551.01026,  -0.00196,  -0.00106,   0.00260,476661792.00000,   0.00081,275524864.00000,  -0.00042,  -0.00047,   0.00104,  32.00000,   2.00000
-482001262.06243,-334637040.48807,119474775.15253,  -0.00197,  -0.00105,   0.00260,476661664.00000,   0.00081,275529184.00000,  -0.00043,  -0.00047,   0.00104,  64.00000,   2.00000
-482868227.75189,-333689146.47604,118963734.74958,  -0.00198,  -0.00105,   0.00259,476680928.00000,   0.00082,275533568.00000,  -0.00043,  -0.00047,   0.00105,  64.00000,   2.00000
-483730954.75409,-332728257.90068,118450938.08227,  -0.00199,  -0.00104,   0.00259,476696224.00000,   0.00082,275537984.00000,  -0.00044,  -0.00047,   0.00105,  64.00000,   2.00000
-484584941.48621,-331757872.33640,117939451.51368,  -0.00200,  -0.00104,   0.00259,476685376.00000,   0.00083,275542368.00000,  -0.00044,  -0.00047,   0.00106,   0.00000,   2.00000
-485437954.16988,-330776610.24681,117422787.17726,  -0.00201,  -0.00103,   0.00259,476697376.00000,   0.00083,275546752.00000,  -0.00044,  -0.00048,   0.00106, -64.00000,   2.00000
-486288378.17816,-329805915.35137,116896843.12227,  -0.00202,  -0.00103,   0.00258,476724064.00000,   0.00083,275551232.00000,  -0.00045,  -0.00048,   0.00106,  32.00000,   2.00000
-487127537.11180,-328812815.88072,116377689.05060,  -0.00203,  -0.00102,   0.00258,476709376.00000,   0.00084,275555648.00000,  -0.00045,  -0.00048,   0.00107, 128.00000,   2.00000
-487961360.98873,-327817509.77372,115854803.08813,  -0.00204,  -0.00102,   0.00258,476732192.00000,   0.00084,275560128.00000,  -0.00045,  -0.00048,   0.00107,  32.00000,   2.00000
-488793268.47376,-326813868.80712,115326490.91776,  -0.00205,  -0.00101,   0.00258,476729824.00000,   0.00085,275564576.00000,  -0.00046,  -0.00048,   0.00108,  32.00000,   2.00000
-489616016.77707,-325808724.05874,114797745.89716,  -0.00206,  -0.00101,   0.00257,476741248.00000,   0.00085,275569056.00000,  -0.00046,  -0.00048,   0.00108,  96.00000,   2.00000
-490433097.41916,-324792982.99475,114266999.21803,  -0.00206,  -0.00100,   0.00257,476742560.00000,   0.00086,275573504.00000,  -0.00047,  -0.00048,   0.00108, -32.00000,   2.00000
-491244464.21305,-323775280.94164,113732763.19596,  -0.00207,  -0.00100,   0.00257,476765568.00000,   0.00086,275578048.00000,  -0.00047,  -0.00048,   0.00109,   0.00000,   2.00000
-492049835.53660,-322746946.25549,113196580.61670,  -0.00208,  -0.00099,   0.00256,476767360.00000,   0.00086,275582560.00000,  -0.00047,  -0.00048,   0.00109,   0.00000,   2.00000
-492848398.67975,-321718918.40453,112656532.61304,  -0.00209,  -0.00099,   0.00256,476776160.00000,   0.00087,275587104.00000,  -0.00048,  -0.00048,   0.00110,   0.00000,   2.00000
-493644076.95667,-320679669.41141,112111406.25055,  -0.00210,  -0.00098,   0.00256,476789984.00000,   0.00087,275591712.00000,  -0.00048,  -0.00049,   0.00110,  64.00000,   2.00000
-494426640.34461,-319628216.56190,111570942.27818,  -0.00211,  -0.00098,   0.00256,476783712.00000,   0.00088,275596224.00000,  -0.00049,  -0.00049,   0.00111,  32.00000,   2.00000
-495202382.25239,-318574749.76664,111027005.45814,  -0.00212,  -0.00097,   0.00255,476807552.00000,   0.00088,275600832.00000,  -0.00049,  -0.00049,   0.00111,   0.00000,   2.00000
-495971973.33839,-317510647.29934,110481016.67699,  -0.00213,  -0.00097,   0.00255,476809696.00000,   0.00088,275605440.00000,  -0.00050,  -0.00049,   0.00111,  96.00000,   2.00000
-496738135.82883,-316446571.59642,109927925.76980,  -0.00214,  -0.00096,   0.00255,476830528.00000,   0.00089,275610112.00000,  -0.00050,  -0.00049,   0.00112,  64.00000,   2.00000
-497495477.21859,-315372458.63099,109375763.92655,  -0.00215,  -0.00095,   0.00254,476820480.00000,   0.00089,275614720.00000,  -0.00050,  -0.00049,   0.00112,  32.00000,   2.00000
-498247264.54337,-314285606.94797,108821828.90010,  -0.00216,  -0.00095,   0.00254,476836896.00000,   0.00090,275619392.00000,  -0.00051,  -0.00049,   0.00113,  32.00000,   2.00000
-498993280.17697,-313199716.68559,108263898.01534,  -0.00217,  -0.00094,   0.00254,476845120.00000,   0.00090,275624064.00000,  -0.00051,  -0.00049,   0.00113,  64.00000,   2.00000
-499730463.69649,-312113119.63587,107705619.17636,  -0.00218,  -0.00094,   0.00253,476856384.00000,   0.00091,275628768.00000,  -0.00052,  -0.00049,   0.00113,  64.00000,   2.00000
-500461945.84443,-311016108.74630,107145135.36282,  -0.00219,  -0.00093,   0.00253,476858144.00000,   0.00091,275633472.00000,  -0.00052,  -0.00049,   0.00114, 128.00000,   2.00000
-501190331.21765,-309908239.58900,106579407.84883,  -0.00220,  -0.00093,   0.00253,476872160.00000,   0.00091,275638208.00000,  -0.00053,  -0.00049,   0.00114,   0.00000,   2.00000
-501905941.24404,-308799847.06997,106016476.89976,  -0.00221,  -0.00092,   0.00253,476872160.00000,   0.00092,275642912.00000,  -0.00053,  -0.00049,   0.00115,   0.00000,   2.00000
-502617916.41301,-307680546.93099,105448398.36516,  -0.00222,  -0.00092,   0.00252,476886560.00000,   0.00092,275647680.00000,  -0.00053,  -0.00050,   0.00115,  32.00000,   2.00000
-503319508.82630,-306560306.06922,104880126.22221,  -0.00223,  -0.00091,   0.00252,476899072.00000,   0.00093,275652448.00000,  -0.00054,  -0.00050,   0.00115,  96.00000,   2.00000
-504013930.79029,-305429248.70718,104309704.59228,  -0.00224,  -0.00090,   0.00252,476902048.00000,   0.00093,275657248.00000,  -0.00054,  -0.00050,   0.00116,  32.00000,   2.00000
-504703739.23860,-304287095.73955,103734123.01397,  -0.00225,  -0.00090,   0.00251,476917280.00000,   0.00094,275662080.00000,  -0.00055,  -0.00050,   0.00116, -32.00000,   2.00000
-505380101.18768,-303144354.19513,103161417.87972,  -0.00226,  -0.00089,   0.00251,476918080.00000,   0.00094,275666880.00000,  -0.00055,  -0.00050,   0.00117, 128.00000,   2.00000
-506051065.24260,-302002129.68778,102581932.89360,  -0.00227,  -0.00089,   0.00250,476940000.00000,   0.00095,275671776.00000,  -0.00056,  -0.00050,   0.00117, -32.00000,   2.00000
-506711576.68609,-300835872.95265,102005583.65479,  -0.00228,  -0.00088,   0.00250,476939968.00000,   0.00095,275676640.00000,  -0.00056,  -0.00050,   0.00118,  96.00000,   2.00000
-507363618.55778,-299682196.66458,101423911.09575,  -0.00229,  -0.00087,   0.00250,476956576.00000,   0.00095,275681568.00000,  -0.00057,  -0.00050,   0.00118,   0.00000,   2.00000
-508007727.50756,-298517712.08252,100840110.74522,  -0.00230,  -0.00087,   0.00249,476960448.00000,   0.00096,275686496.00000,  -0.00057,  -0.00050,   0.00118,  96.00000,   2.00000
-508640755.30891,-297340750.26019,100257822.90393,  -0.00231,  -0.00086,   0.00249,476967232.00000,   0.00096,275691424.00000,  -0.00058,  -0.00050,   0.00119,   0.00000,   2.00000
-509265923.41645,-296164810.72289,99671896.49100,  -0.00232,  -0.00086,   0.00249,476977568.00000,   0.00097,275696352.00000,  -0.00058,  -0.00050,   0.00119,  64.00000,   2.00000
-509880472.08670,-294976420.96734,99087517.93309,  -0.00233,  -0.00085,   0.00248,476984384.00000,   0.00097,275701312.00000,  -0.00059,  -0.00050,   0.00120,  32.00000,   2.00000
-510490053.50458,-293777099.93933,98498114.71550,  -0.00234,  -0.00084,   0.00248,477000576.00000,   0.00098,275706336.00000,  -0.00059,  -0.00050,   0.00120, -32.00000,   2.00000
-511089754.57711,-292589396.26835,97907422.27847,  -0.00235,  -0.00084,   0.00248,477019616.00000,   0.00098,275711392.00000,  -0.00060,  -0.00050,   0.00120,   0.00000,   2.00000
-511680410.58339,-291378672.57553,97318846.04148,  -0.00236,  -0.00083,   0.00247,477005184.00000,   0.00099,275716384.00000,  -0.00060,  -0.00050,   0.00121,  32.00000,   2.00000
-512266984.50941,-290169096.08950,96723843.62815,  -0.00237,  -0.00083,   0.00247,477027232.00000,   0.00099,275721440.00000,  -0.00061,  -0.00050,   0.00121,   0.00000,   2.00000
-512844617.45844,-288959225.75289,96129023.64662,  -0.00238,  -0.00082,   0.00246,477039808.00000,   0.00100,275726528.00000,  -0.00061,  -0.00050,   0.00121,  32.00000,   2.00000
-513413542.51736,-287737025.49566,95535790.68891,  -0.00239,  -0.00081,   0.00246,477046144.00000,   0.00100,275731616.00000,  -0.00062,  -0.00050,   0.00122,  64.00000,   2.00000
-513976817.44805,-286503924.16026,94940368.85087,  -0.00240,  -0.00081,   0.00246,477049696.00000,   0.00101,275736704.00000,  -0.00062,  -0.00051,   0.00122, 160.00000,   2.00000
-514534262.69338,-285271881.54314,94341296.54216,  -0.00241,  -0.00080,   0.00245,477059552.00000,   0.00101,275741792.00000,  -0.00063,  -0.00051,   0.00123,  32.00000,   2.00000
-515083599.14562,-284027649.66231,93743824.94031,  -0.00242,  -0.00079,   0.00245,477065504.00000,   0.00102,275746912.00000,  -0.00063,  -0.00051,   0.00123,  32.00000,   2.00000
-515629449.35772,-282784800.25474,93139980.31280,  -0.00243,  -0.00079,   0.00245,477087584.00000,   0.00102,275752064.00000,  -0.00064,  -0.00051,   0.00123,  96.00000,   2.00000
-516165098.27539,-281541718.29064,92539114.34708,  -0.00244,  -0.00078,   0.00244,477087456.00000,   0.00102,275757216.00000,  -0.00064,  -0.00051,   0.00124, -32.00000,   2.00000
-516694881.56023,-280275380.99850,91937272.87484,  -0.00245,  -0.00077,   0.00244,477085248.00000,   0.00103,275762336.00000,  -0.00065,  -0.00051,   0.00124,   0.00000,   2.00000
-517218682.55997,-279021689.35368,91331663.17767,  -0.00246,  -0.00077,   0.00243,477115776.00000,   0.00103,275767552.00000,  -0.00065,  -0.00051,   0.00125,  32.00000,   2.00000
-517734295.83820,-277744392.57752,90727747.86735,  -0.00247,  -0.00076,   0.00243,477101536.00000,   0.00104,275772672.00000,  -0.00066,  -0.00051,   0.00125, 128.00000,   2.00000
-518243489.70095,-276479839.96944,90120107.91684,  -0.00248,  -0.00076,   0.00242,477132256.00000,   0.00104,275777920.00000,  -0.00066,  -0.00051,   0.00125,   0.00000,   2.00000
-518744611.00595,-275204045.13707,89512894.37396,  -0.00249,  -0.00075,   0.00242,477123936.00000,   0.00105,275783104.00000,  -0.00067,  -0.00051,   0.00126,  64.00000,   2.00000
-519238323.92185,-273916355.02855,88904541.47963,  -0.00250,  -0.00074,   0.00242,477143296.00000,   0.00105,275788352.00000,  -0.00067,  -0.00051,   0.00126,  32.00000,   2.00000
-519723788.93703,-272629778.32722,88295342.29047,  -0.00251,  -0.00074,   0.00241,477141056.00000,   0.00106,275793568.00000,  -0.00068,  -0.00051,   0.00126,  64.00000,   2.00000
-520201322.01936,-271331394.98056,87685065.10304,  -0.00252,  -0.00073,   0.00241,477160768.00000,   0.00106,275798848.00000,  -0.00068,  -0.00051,   0.00127,   0.00000,   2.00000
-520670249.70960,-270034153.97042,87073974.56927,  -0.00253,  -0.00072,   0.00240,477158752.00000,   0.00107,275804096.00000,  -0.00069,  -0.00051,   0.00127,  32.00000,   2.00000
-521130737.66706,-268725216.67942,86461887.22074,  -0.00254,  -0.00072,   0.00240,477178880.00000,   0.00107,275809408.00000,  -0.00069,  -0.00051,   0.00128,  64.00000,   2.00000
-521582018.56502,-267417335.46679,85848977.30670,  -0.00255,  -0.00071,   0.00240,477177376.00000,   0.00108,275814688.00000,  -0.00070,  -0.00051,   0.00128,   0.00000,   2.00000
-522024532.12575,-266097936.81326,85235187.79719,  -0.00256,  -0.00070,   0.00239,477197760.00000,   0.00108,275820064.00000,  -0.00071,  -0.00051,   0.00128,  64.00000,   2.00000
-522457427.35398,-264779562.62145,84620592.72162,  -0.00257,  -0.00070,   0.00239,477196608.00000,   0.00109,275825376.00000,  -0.00071,  -0.00051,   0.00129,  96.00000,   2.00000
-522881040.82466,-263449732.17367,84005184.43271,  -0.00258,  -0.00069,   0.00238,477217376.00000,   0.00109,275830752.00000,  -0.00072,  -0.00051,   0.00129,  96.00000,   2.00000
-523292430.85607,-262119897.51973,83392924.24116,  -0.00259,  -0.00068,   0.00238,477218752.00000,   0.00110,275836128.00000,  -0.00072,  -0.00051,   0.00129,  64.00000,   2.00000
-523696763.94430,-260779798.46577,82776014.06709,  -0.00260,  -0.00067,   0.00237,477237664.00000,   0.00110,275841568.00000,  -0.00073,  -0.00051,   0.00130,  96.00000,   2.00000
-524091149.74218,-259440717.26105,82158337.98017,  -0.00261,  -0.00067,   0.00237,477236800.00000,   0.00111,275846976.00000,  -0.00073,  -0.00051,   0.00130, -32.00000,   2.00000
-524474350.31200,-258089661.98863,81542462.38338,  -0.00262,  -0.00066,   0.00236,477245440.00000,   0.00111,275852416.00000,  -0.00074,  -0.00051,   0.00130,  64.00000,   2.00000
-524848428.99122,-256740238.05153,80924891.34397,  -0.00263,  -0.00065,   0.00236,477272352.00000,   0.00112,275857952.00000,  -0.00074,  -0.00051,   0.00131, -32.00000,   2.00000
-525212063.52315,-255379003.47753,80307592.19193,  -0.00264,  -0.00065,   0.00236,477266368.00000,   0.00112,275863424.00000,  -0.00075,  -0.00051,   0.00131, 128.00000,   2.00000
-525565161.45813,-254018680.73075,79691062.05514,  -0.00265,  -0.00064,   0.00235,477280544.00000,   0.00113,275868928.00000,  -0.00076,  -0.00051,   0.00131,  64.00000,   2.00000
-525910463.88768,-252660387.61238,79071406.89934,  -0.00266,  -0.00063,   0.00235,477292384.00000,   0.00113,275874464.00000,  -0.00076,  -0.00051,   0.00132,  32.00000,   2.00000
-526244652.34983,-251290128.23776,78453539.54515,  -0.00267,  -0.00063,   0.00234,477301280.00000,   0.00114,275880032.00000,  -0.00077,  -0.00051,   0.00132,  64.00000,   2.00000
-526568708.34693,-249907861.49476,77835798.37326,  -0.00268,  -0.00062,   0.00234,477295296.00000,   0.00114,275885536.00000,  -0.00077,  -0.00051,   0.00132,  64.00000,   2.00000
-526884153.73856,-248527704.18919,77216541.54952,  -0.00269,  -0.00061,   0.00233,477322016.00000,   0.00115,275891136.00000,  -0.00078,  -0.00051,   0.00133, -64.00000,   2.00000
-527190062.17414,-247148836.99403,76598176.76021,  -0.00270,  -0.00060,   0.00233,477335776.00000,   0.00115,275896800.00000,  -0.00079,  -0.00051,   0.00133,  32.00000,   2.00000
-527485994.66514,-245757776.89262,75979820.14089,  -0.00271,  -0.00060,   0.00232,477329824.00000,   0.00116,275902368.00000,  -0.00079,  -0.00051,   0.00133, -32.00000,   2.00000
-527773980.00649,-244369181.11777,75360085.39332,  -0.00272,  -0.00059,   0.00232,477356256.00000,   0.00116,275908064.00000,  -0.00080,  -0.00051,   0.00134,  64.00000,   2.00000
-528052232.54194,-242968331.09269,74740309.30744,  -0.00273,  -0.00058,   0.00231,477350144.00000,   0.00117,275913696.00000,  -0.00080,  -0.00051,   0.00134,   0.00000,   2.00000
-528321350.27871,-241568844.32790,74121415.21317,  -0.00274,  -0.00058,   0.00231,477363552.00000,   0.00118,275919392.00000,  -0.00081,  -0.00051,   0.00134,  32.00000,   2.00000
-528582348.79854,-240158293.22146,73500223.03474,  -0.00275,  -0.00057,   0.00230,477370240.00000,   0.00118,275925056.00000,  -0.00082,  -0.00051,   0.00135,  64.00000,   2.00000
-528832159.18433,-238748328.00953,72883946.69679,  -0.00276,  -0.00056,   0.00230,477385664.00000,   0.00119,275930784.00000,  -0.00082,  -0.00051,   0.00135,   0.00000,   2.00000
-529077294.14255,-237341381.54791,72260492.23110,  -0.00277,  -0.00055,   0.00229,477395008.00000,   0.00119,275936512.00000,  -0.00083,  -0.00051,   0.00135, -32.00000,   2.00000
-529309022.30892,-235920444.83313,71644970.57802,  -0.00278,  -0.00055,   0.00229,477392480.00000,   0.00120,275942240.00000,  -0.00083,  -0.00051,   0.00136,   0.00000,   2.00000
-529532794.62879,-234488409.45947,71027093.66800,  -0.00279,  -0.00054,   0.00228,477398912.00000,   0.00120,275947968.00000,  -0.00084,  -0.00050,   0.00136,  32.00000,   2.00000
-529751203.23582,-233060109.71984,70403972.94918,  -0.00280,  -0.00053,   0.00228,477423104.00000,   0.00121,275953760.00000,  -0.00085,  -0.00050,   0.00136,  64.00000,   2.00000
-529957671.23546,-231631194.50472,69787964.40436,  -0.00281,  -0.00052,   0.00227,477425312.00000,   0.00121,275959552.00000,  -0.00085,  -0.00050,   0.00137,   0.00000,   2.00000
-530154993.43175,-230189696.14276,69171669.55173,  -0.00282,  -0.00052,   0.00227,477418880.00000,   0.00122,275965280.00000,  -0.00086,  -0.00050,   0.00137, 128.00000,   2.00000
-530346951.91500,-228752109.90522,68550184.10432,  -0.00283,  -0.00051,   0.00226,477442720.00000,   0.00122,275971104.00000,  -0.00086,  -0.00050,   0.00137, -96.00000,   2.00000
-530529448.90976,-227314777.06848,67931764.73264,  -0.00284,  -0.00050,   0.00226,477442784.00000,   0.00123,275976928.00000,  -0.00087,  -0.00050,   0.00138,  32.00000,   2.00000
-530702961.66641,-225867274.80148,67313010.02496,  -0.00285,  -0.00049,   0.00225,477464224.00000,   0.00123,275982784.00000,  -0.00088,  -0.00050,   0.00138, 128.00000,   2.00000
-530866754.95997,-224420007.00265,66697263.78966,  -0.00286,  -0.00049,   0.00225,477464384.00000,   0.00124,275988640.00000,  -0.00088,  -0.00050,   0.00138,  96.00000,   2.00000
-531021235.61301,-222960083.10304,66081109.28531,  -0.00287,  -0.00048,   0.00224,477458048.00000,   0.00124,275994464.00000,  -0.00089,  -0.00050,   0.00139, -64.00000,   2.00000
-531168547.19755,-221503980.75701,65464014.67675,  -0.00288,  -0.00047,   0.00224,477483904.00000,   0.00125,276000352.00000,  -0.00090,  -0.00050,   0.00139,  32.00000,   2.00000
-531306344.55201,-220035225.44176,64846464.71281,  -0.00289,  -0.00046,   0.00223,477477984.00000,   0.00126,276006208.00000,  -0.00090,  -0.00050,   0.00139,  32.00000,   2.00000
-531435677.93942,-218568713.52787,64229958.56416,  -0.00290,  -0.00046,   0.00223,477491168.00000,   0.00126,276012096.00000,  -0.00091,  -0.00050,   0.00139,  96.00000,   2.00000
-531556311.52282,-217104464.29004,63614483.47185,  -0.00291,  -0.00045,   0.00222,477504480.00000,   0.00127,276018016.00000,  -0.00092,  -0.00050,   0.00140, 160.00000,   2.00000
-531666562.72940,-215628895.99693,63000709.58317,  -0.00292,  -0.00044,   0.00222,477513568.00000,   0.00127,276023968.00000,  -0.00092,  -0.00050,   0.00140,  96.00000,   2.00000
-531769062.81039,-214154528.08215,62385779.75974,  -0.00293,  -0.00043,   0.00221,477512224.00000,   0.00128,276029888.00000,  -0.00093,  -0.00050,   0.00140,   0.00000,   2.00000
-531862930.37075,-212682703.40932,61771927.19665,  -0.00294,  -0.00043,   0.00221,477525792.00000,   0.00128,276035872.00000,  -0.00093,  -0.00050,   0.00141,  96.00000,   2.00000
-531948169.89324,-211200306.43810,61155656.43644,  -0.00295,  -0.00042,   0.00220,477533440.00000,   0.00129,276041824.00000,  -0.00094,  -0.00049,   0.00141,  32.00000,   2.00000
-532021647.50187,-209704675.55713,60542899.65092,  -0.00296,  -0.00041,   0.00220,477530144.00000,   0.00129,276047776.00000,  -0.00095,  -0.00049,   0.00141,  64.00000,   2.00000
-532088565.40918,-208225667.28997,59930675.96575,  -0.00297,  -0.00040,   0.00219,477548064.00000,   0.00130,276053792.00000,  -0.00095,  -0.00049,   0.00141,  32.00000,   2.00000
-532144941.56497,-206735556.05110,59320159.50627,  -0.00298,  -0.00039,   0.00219,477557760.00000,   0.00131,276059808.00000,  -0.00096,  -0.00049,   0.00142, -64.00000,   2.00000
-532193561.77430,-205246601.66100,58708415.55061,  -0.00299,  -0.00039,   0.00218,477557088.00000,   0.00131,276065792.00000,  -0.00097,  -0.00049,   0.00142,   0.00000,   2.00000
-532232695.23455,-203748769.99716,58096625.59333,  -0.00300,  -0.00038,   0.00218,477580032.00000,   0.00132,276071872.00000,  -0.00097,  -0.00049,   0.00142,   0.00000,   2.00000
-532262339.01261,-202251473.26804,57487745.78484,  -0.00301,  -0.00037,   0.00217,477581024.00000,   0.00132,276077920.00000,  -0.00098,  -0.00049,   0.00142, -64.00000,   2.00000
-532280382.28165,-200740623.97356,56882275.57286,  -0.00302,  -0.00036,   0.00217,477577984.00000,   0.00133,276083936.00000,  -0.00099,  -0.00049,   0.00143,   0.00000,   2.00000
-532294585.29702,-199247194.80239,56273352.61859,  -0.00303,  -0.00036,   0.00216,477593920.00000,   0.00133,276090016.00000,  -0.00099,  -0.00049,   0.00143,  96.00000,   2.00000
-532298256.27840,-197742398.81907,55666124.35885,  -0.00304,  -0.00035,   0.00216,477604000.00000,   0.00134,276096096.00000,  -0.00100,  -0.00049,   0.00143,   0.00000,   2.00000
-532291695.78879,-196226280.48380,55060620.78789,  -0.00305,  -0.00034,   0.00215,477613888.00000,   0.00134,276102208.00000,  -0.00101,  -0.00048,   0.00143, -32.00000,   2.00000
-532277987.80975,-194710860.70267,54453831.88267,  -0.00306,  -0.00033,   0.00214,477612928.00000,   0.00135,276108288.00000,  -0.00101,  -0.00048,   0.00144,   0.00000,   2.00000
-532255543.75152,-193195550.43090,53849917.98467,  -0.00306,  -0.00032,   0.00214,477613536.00000,   0.00136,276114368.00000,  -0.00102,  -0.00048,   0.00144, -64.00000,   2.00000
-532226769.75661,-191685536.13149,53245679.85919,  -0.00307,  -0.00032,   0.00213,477639712.00000,   0.00136,276120512.00000,  -0.00103,  -0.00048,   0.00144,  64.00000,   2.00000
-532186916.42512,-190161330.73614,52644768.54941,  -0.00308,  -0.00031,   0.00213,477636384.00000,   0.00137,276126624.00000,  -0.00103,  -0.00048,   0.00144,  32.00000,   2.00000
-532140152.66934,-188637482.60236,52042517.16952,  -0.00309,  -0.00030,   0.00212,477635136.00000,   0.00137,276132736.00000,  -0.00104,  -0.00048,   0.00145, -64.00000,   2.00000
-532087471.24832,-187119065.08212,51440058.56873,  -0.00310,  -0.00029,   0.00212,477661280.00000,   0.00138,276138912.00000,  -0.00105,  -0.00048,   0.00145,   0.00000,   2.00000
-532022650.15155,-185583468.57076,50842408.59488,  -0.00311,  -0.00028,   0.00211,477644896.00000,   0.00138,276144992.00000,  -0.00105,  -0.00048,   0.00145,  32.00000,   2.00000
-531951928.33857,-184053391.11425,50244587.57520,  -0.00312,  -0.00028,   0.00211,477670880.00000,   0.00139,276151168.00000,  -0.00106,  -0.00048,   0.00145,  64.00000,   2.00000
-531873032.63229,-182523180.28843,49649622.09031,  -0.00313,  -0.00027,   0.00210,477670880.00000,   0.00140,276157312.00000,  -0.00107,  -0.00047,   0.00146,  64.00000,   2.00000
-531784776.96016,-180978907.01712,49053680.49220,  -0.00314,  -0.00026,   0.00210,477666144.00000,   0.00140,276163456.00000,  -0.00107,  -0.00047,   0.00146,  32.00000,   2.00000
-531689488.07560,-179437440.80245,48459104.89867,  -0.00315,  -0.00025,   0.00209,477679264.00000,   0.00141,276169600.00000,  -0.00108,  -0.00047,   0.00146,  32.00000,   2.00000
-531587256.59524,-177898877.09783,47865922.21633,  -0.00316,  -0.00024,   0.00208,477692480.00000,   0.00141,276175776.00000,  -0.00109,  -0.00047,   0.00146,  96.00000,   2.00000
-531476897.10175,-176360257.66110,47275557.75623,  -0.00317,  -0.00023,   0.00208,477692640.00000,   0.00142,276181920.00000,  -0.00109,  -0.00047,   0.00146,  32.00000,   2.00000
-531357929.16147,-174810616.86651,46682716.26181,  -0.00318,  -0.00023,   0.00207,477701344.00000,   0.00142,276188096.00000,  -0.00110,  -0.00047,   0.00147, -32.00000,   2.00000
-531230954.24508,-173261074.17241,46092687.57469,  -0.00319,  -0.00022,   0.00207,477701632.00000,   0.00143,276194272.00000,  -0.00111,  -0.00047,   0.00147, -32.00000,   2.00000
-531096842.14845,-171714764.81262,45504062.17592,  -0.00319,  -0.00021,   0.00206,477715168.00000,   0.00144,276200448.00000,  -0.00111,  -0.00046,   0.00147,  32.00000,   2.00000
-530951297.75812,-170154131.85034,44918519.18630,  -0.00320,  -0.00020,   0.00206,477712608.00000,   0.00144,276206624.00000,  -0.00112,  -0.00046,   0.00147, -32.00000,   2.00000
-530802023.09635,-168611509.57306,44334087.11608,  -0.00321,  -0.00019,   0.00205,477729280.00000,   0.00145,276212832.00000,  -0.00113,  -0.00046,   0.00147,  96.00000,   2.00000
-530642363.17124,-167054879.97291,43748432.50379,  -0.00322,  -0.00019,   0.00205,477725824.00000,   0.00145,276219008.00000,  -0.00113,  -0.00046,   0.00148,  32.00000,   2.00000
-530470977.90900,-165487037.18833,43168745.30076,  -0.00323,  -0.00018,   0.00204,477737856.00000,   0.00146,276225184.00000,  -0.00114,  -0.00046,   0.00148, -32.00000,   2.00000
-530295989.32298,-163934379.82494,42587214.24317,  -0.00324,  -0.00017,   0.00203,477740384.00000,   0.00147,276231392.00000,  -0.00115,  -0.00046,   0.00148,   0.00000,   2.00000
-530109259.58874,-162367359.91423,42008635.47484,  -0.00325,  -0.00016,   0.00203,477738400.00000,   0.00147,276237568.00000,  -0.00115,  -0.00046,   0.00148,  32.00000,   2.00000
-529916716.94860,-160807497.39910,41430251.52191,  -0.00326,  -0.00015,   0.00202,477765152.00000,   0.00148,276243808.00000,  -0.00116,  -0.00045,   0.00148, -32.00000,   2.00000
-529716186.93854,-159244538.78734,40851503.48921,  -0.00327,  -0.00014,   0.00202,477751776.00000,   0.00148,276249984.00000,  -0.00117,  -0.00045,   0.00149, 128.00000,   2.00000
-529507524.78178,-157684851.02992,40278460.55645,  -0.00328,  -0.00014,   0.00201,477766624.00000,   0.00149,276256192.00000,  -0.00117,  -0.00045,   0.00149,  32.00000,   2.00000
-529289777.92166,-156114243.95416,39702862.44644,  -0.00328,  -0.00013,   0.00201,477776256.00000,   0.00149,276262432.00000,  -0.00118,  -0.00045,   0.00149,   0.00000,   2.00000
-529063075.19068,-154543205.56885,39134180.04292,  -0.00329,  -0.00012,   0.00200,477777696.00000,   0.00150,276268640.00000,  -0.00119,  -0.00045,   0.00149,  64.00000,   2.00000
-528829868.49135,-152972116.58204,38563845.78879,  -0.00330,  -0.00011,   0.00199,477776896.00000,   0.00151,276274848.00000,  -0.00119,  -0.00045,   0.00149,  64.00000,   2.00000
-528590149.26012,-151404371.73026,37994987.99027,  -0.00331,  -0.00010,   0.00199,477789952.00000,   0.00151,276281056.00000,  -0.00120,  -0.00044,   0.00150, -64.00000,   2.00000
-528340248.14748,-149821686.27658,37424680.69812,  -0.00332,  -0.00009,   0.00198,477786432.00000,   0.00152,276287264.00000,  -0.00121,  -0.00044,   0.00150, -32.00000,   2.00000
-528086707.66589,-148256745.58476,36859921.55203,  -0.00333,  -0.00009,   0.00198,477802752.00000,   0.00152,276293504.00000,  -0.00121,  -0.00044,   0.00150,  64.00000,   2.00000
-527821794.00752,-146675997.27655,36297893.00676,  -0.00334,  -0.00008,   0.00197,477799648.00000,   0.00153,276299712.00000,  -0.00122,  -0.00044,   0.00150,  32.00000,   2.00000
-527550858.24629,-145093742.32260,35734040.52791,  -0.00335,  -0.00007,   0.00197,477797024.00000,   0.00153,276305888.00000,  -0.00123,  -0.00044,   0.00150, 128.00000,   2.00000
-527274970.41072,-143512804.68323,35171574.68573,  -0.00335,  -0.00006,   0.00196,477807136.00000,   0.00154,276312096.00000,  -0.00124,  -0.00044,   0.00150, -64.00000,   2.00000
-526988876.35566,-141913551.56106,34616004.74557,  -0.00336,  -0.00005,   0.00195,477801440.00000,   0.00155,276318240.00000,  -0.00124,  -0.00043,   0.00150, -32.00000,   2.00000
-526703432.39341,-140326023.28072,34058384.31825,  -0.00337,  -0.00004,   0.00195,477797952.00000,   0.00155,276324352.00000,  -0.00125,  -0.00043,   0.00151,   0.00000,   2.00000
-526411012.51059,-138725281.13489,33502444.57592,  -0.00338,  -0.00003,   0.00194,477804032.00000,   0.00156,276330496.00000,  -0.00126,  -0.00043,   0.00151, -32.00000,   2.00000
-526113534.53618,-137123862.84251,32949048.38520,  -0.00339,  -0.00003,   0.00194,477801312.00000,   0.00156,276336576.00000,  -0.00126,  -0.00043,   0.00151, 128.00000,   2.00000
-525811594.91112,-135527470.37774,32392894.17527,  -0.00340,  -0.00002,   0.00193,477813056.00000,   0.00157,276342688.00000,  -0.00127,  -0.00043,   0.00151,  32.00000,   2.00000
-525499108.21199,-133928472.18147,31844432.95280,  -0.00341,  -0.00001,   0.00193,477802944.00000,   0.00157,276348768.00000,  -0.00128,  -0.00042,   0.00151,   0.00000,   2.00000
-525178837.86788,-132335468.72333,31297382.99596,  -0.00341,  -0.00000,   0.00192,477818880.00000,   0.00158,276354880.00000,  -0.00128,  -0.00042,   0.00151,   0.00000,   2.00000
-524851494.38670,-130748493.94123,30747427.51991,  -0.00342,   0.00001,   0.00191,477834176.00000,   0.00159,276361024.00000,  -0.00129,  -0.00042,   0.00151,  96.00000,   2.00000
-524509561.02524,-129147742.04338,30204237.30689,  -0.00343,   0.00002,   0.00191,477835776.00000,   0.00159,276367168.00000,  -0.00130,  -0.00042,   0.00152,  32.00000,   2.00000
-524163704.01479,-127563014.77036,29658900.34042,  -0.00344,   0.00002,   0.00190,477839200.00000,   0.00160,276373312.00000,  -0.00130,  -0.00042,   0.00152,  32.00000,   2.00000
-523804659.61134,-125963993.06464,29116036.16506,  -0.00345,   0.00003,   0.00190,477838720.00000,   0.00160,276379424.00000,  -0.00131,  -0.00042,   0.00152, -96.00000,   2.00000
-523437875.53809,-124369823.91302,28579007.82189,  -0.00345,   0.00004,   0.00189,477853664.00000,   0.00161,276385568.00000,  -0.00132,  -0.00041,   0.00152,   0.00000,   2.00000
-523062019.37127,-122771527.36616,28040834.27897,  -0.00346,   0.00005,   0.00189,477840896.00000,   0.00161,276391680.00000,  -0.00132,  -0.00041,   0.00152,   0.00000,   2.00000
-522679741.64741,-121177948.03475,27504215.26464,  -0.00347,   0.00006,   0.00188,477854336.00000,   0.00162,276397792.00000,  -0.00133,  -0.00041,   0.00152,  32.00000,   2.00000
-522291089.96622,-119588967.47165,26969159.78401,  -0.00348,   0.00007,   0.00187,477867712.00000,   0.00163,276403968.00000,  -0.00134,  -0.00041,   0.00152,  64.00000,   2.00000
-521893286.28781,-117995097.07775,26437213.56686,  -0.00349,   0.00008,   0.00187,477854944.00000,   0.00163,276410048.00000,  -0.00134,  -0.00040,   0.00152,  32.00000,   2.00000
-521484755.94167,-116390505.50604,25906928.90856,  -0.00349,   0.00008,   0.00186,477866304.00000,   0.00164,276416192.00000,  -0.00135,  -0.00040,   0.00153, -32.00000,   2.00000
-521073693.04184,-114800446.84673,25378906.21382,  -0.00350,   0.00009,   0.00186,477867936.00000,   0.00164,276422304.00000,  -0.00136,  -0.00040,   0.00153, 128.00000,   2.00000
-520656578.41704,-113214505.99042,24852620.70392,  -0.00351,   0.00010,   0.00185,477880896.00000,   0.00165,276428448.00000,  -0.00136,  -0.00040,   0.00153,  64.00000,   2.00000
-520225188.73788,-111607879.44950,24329794.90945,  -0.00352,   0.00011,   0.00184,477866496.00000,   0.00165,276434496.00000,  -0.00137,  -0.00040,   0.00153,  32.00000,   2.00000
-519792175.95896,-110020613.12607,23809168.24414,  -0.00353,   0.00012,   0.00184,477881056.00000,   0.00166,276440608.00000,  -0.00138,  -0.00039,   0.00153,  64.00000,   2.00000
-519346136.76596,-108417711.54421,23287478.02472,  -0.00353,   0.00013,   0.00183,477879488.00000,   0.00167,276446720.00000,  -0.00138,  -0.00039,   0.00153,   0.00000,   2.00000
-518891342.73035,-106814158.70345,22773263.30096,  -0.00354,   0.00014,   0.00183,477880448.00000,   0.00167,276452768.00000,  -0.00139,  -0.00039,   0.00153,   0.00000,   2.00000
-518434269.82891,-105224836.16967,22261590.77139,  -0.00355,   0.00014,   0.00182,477882400.00000,   0.00168,276458848.00000,  -0.00139,  -0.00039,   0.00153,  32.00000,   2.00000
-517968034.12054,-103624078.18120,21751209.34813,  -0.00356,   0.00015,   0.00182,477893728.00000,   0.00168,276464928.00000,  -0.00140,  -0.00039,   0.00153,   0.00000,   2.00000
-517495921.15702,-102016228.71214,21238027.04114,  -0.00356,   0.00016,   0.00181,477879872.00000,   0.00169,276470912.00000,  -0.00141,  -0.00038,   0.00153,  96.00000,   2.00000
-517026092.47687,-100426214.52748,20729044.09971,  -0.00357,   0.00017,   0.00180,477893632.00000,   0.00169,276476928.00000,  -0.00141,  -0.00038,   0.00153,  96.00000,   2.00000
-516547497.97825,-98818398.47270,20220428.10943,  -0.00358,   0.00018,   0.00180,477890752.00000,   0.00170,276482912.00000,  -0.00142,  -0.00038,   0.00154,  96.00000,   2.00000
-516064756.93147,-97207937.99075,19712233.29859,  -0.00359,   0.00019,   0.00179,477889216.00000,   0.00171,276488832.00000,  -0.00143,  -0.00038,   0.00154,  64.00000,   2.00000
-515583631.44059,-95610222.88987,19200350.64955,  -0.00359,   0.00020,   0.00179,477888128.00000,   0.00171,276494720.00000,  -0.00143,  -0.00037,   0.00154,  64.00000,   2.00000
-515093527.14880,-94000262.72750,18693319.17734,  -0.00360,   0.00020,   0.00178,477898848.00000,   0.00172,276500640.00000,  -0.00144,  -0.00037,   0.00154,  32.00000,   2.00000
-514595958.06744,-92382884.78764,18188105.16742,  -0.00361,   0.00021,   0.00177,477884640.00000,   0.00172,276506464.00000,  -0.00145,  -0.00037,   0.00154,   0.00000,   2.00000
-514099798.79564,-90784176.71014,17683797.96756,  -0.00361,   0.00022,   0.00177,477897376.00000,   0.00173,276512352.00000,  -0.00145,  -0.00037,   0.00154, -32.00000,   2.00000
-513590490.43428,-89163165.81364,17177376.76332,  -0.00362,   0.00023,   0.00176,477881888.00000,   0.00173,276518112.00000,  -0.00146,  -0.00037,   0.00154,   0.00000,   2.00000
-513076092.04868,-87545982.24256,16676571.67662,  -0.00363,   0.00024,   0.00176,477894336.00000,   0.00174,276523936.00000,  -0.00146,  -0.00036,   0.00154,  64.00000,   2.00000
-512560253.86286,-85942527.22754,16177585.01397,  -0.00364,   0.00025,   0.00175,477894720.00000,   0.00174,276529696.00000,  -0.00147,  -0.00036,   0.00154,   0.00000,   2.00000
-512031961.87120,-84322447.23285,15680551.28625,  -0.00364,   0.00026,   0.00175,477892960.00000,   0.00175,276535488.00000,  -0.00148,  -0.00036,   0.00154, -32.00000,   2.00000
-511502173.30118,-82716236.63928,15185426.34747,  -0.00365,   0.00026,   0.00174,477893376.00000,   0.00175,276541216.00000,  -0.00148,  -0.00036,   0.00154, 128.00000,   2.00000
-510965124.24879,-81108651.01110,14692254.10220,  -0.00366,   0.00027,   0.00173,477892864.00000,   0.00176,276546944.00000,  -0.00149,  -0.00035,   0.00154,  32.00000,   2.00000
-510415141.83586,-79484458.89034,14201062.28261,  -0.00366,   0.00028,   0.00173,477891488.00000,   0.00177,276552640.00000,  -0.00150,  -0.00035,   0.00154,  32.00000,   2.00000
-509863543.62017,-77874110.55000,13711782.08132,  -0.00367,   0.00029,   0.00172,477891744.00000,   0.00177,276558336.00000,  -0.00150,  -0.00035,   0.00154,  64.00000,   2.00000
-509304738.06702,-76262287.86761,13224424.52166,  -0.00368,   0.00030,   0.00172,477891040.00000,   0.00178,276563968.00000,  -0.00151,  -0.00035,   0.00154,  32.00000,   2.00000
-508738745.22856,-74648914.74130,12738962.78904,  -0.00368,   0.00031,   0.00171,477890560.00000,   0.00178,276569632.00000,  -0.00151,  -0.00035,   0.00155,  64.00000,   2.00000
-508165451.30401,-73033895.61380,12255361.05386,  -0.00369,   0.00032,   0.00171,477889696.00000,   0.00179,276575232.00000,  -0.00152,  -0.00034,   0.00155, -32.00000,   2.00000
-507585168.95934,-71417145.49867,11773591.06634,  -0.00370,   0.00032,   0.00170,477888800.00000,   0.00179,276580832.00000,  -0.00153,  -0.00034,   0.00155,  96.00000,   2.00000
-507006138.64938,-69819759.39672,11293274.69167,  -0.00370,   0.00033,   0.00169,477901152.00000,   0.00180,276586464.00000,  -0.00153,  -0.00034,   0.00155,  32.00000,   2.00000
-506411352.51677,-68199144.01627,10819401.86502,  -0.00371,   0.00034,   0.00169,477887360.00000,   0.00180,276592032.00000,  -0.00154,  -0.00034,   0.00155, -64.00000,   2.00000
-505816150.26324,-66591759.48300,10342861.68841,  -0.00372,   0.00035,   0.00168,477886272.00000,   0.00181,276597536.00000,  -0.00154,  -0.00033,   0.00155,  64.00000,   2.00000
-505207661.83129,-64966898.48657,9872358.88410,  -0.00372,   0.00036,   0.00168,477884832.00000,   0.00181,276603040.00000,  -0.00155,  -0.00033,   0.00155,  64.00000,   2.00000
-504598738.31241,-63355061.23298,9399103.78497,  -0.00373,   0.00037,   0.00167,477883744.00000,   0.00182,276608544.00000,  -0.00156,  -0.00033,   0.00155, -32.00000,   2.00000
-503982873.36334,-61740833.64003,8931799.38064,  -0.00373,   0.00038,   0.00166,477882400.00000,   0.00182,276613984.00000,  -0.00156,  -0.00033,   0.00155, -32.00000,   2.00000
-503360458.72336,-60124142.73500,8466034.25214,  -0.00374,   0.00038,   0.00166,477880992.00000,   0.00183,276619424.00000,  -0.00157,  -0.00032,   0.00155, -64.00000,   2.00000
-502737958.51908,-58520200.44725,7997402.28778,  -0.00375,   0.00039,   0.00165,477879392.00000,   0.00183,276624832.00000,  -0.00157,  -0.00032,   0.00155, 160.00000,   2.00000
-502102197.32831,-56898326.89190,7534606.42376,  -0.00375,   0.00040,   0.00165,477877792.00000,   0.00184,276630208.00000,  -0.00158,  -0.00032,   0.00155, -32.00000,   2.00000
-501466348.70031,-55289086.59463,7073232.14537,  -0.00376,   0.00041,   0.00164,477876256.00000,   0.00184,276635552.00000,  -0.00158,  -0.00032,   0.00155,   0.00000,   2.00000
-500824029.75076,-53677115.71244,6613245.52075,  -0.00376,   0.00042,   0.00164,477874432.00000,   0.00185,276640864.00000,  -0.00159,  -0.00031,   0.00155,   0.00000,   2.00000
-500175237.18932,-52062384.96139,6154611.16450,  -0.00377,   0.00043,   0.00163,477872896.00000,   0.00185,276646176.00000,  -0.00160,  -0.00031,   0.00155,  32.00000,   2.00000
-499516995.50736,-50438448.76252,5701808.96599,  -0.00378,   0.00043,   0.00162,477858752.00000,   0.00186,276651392.00000,  -0.00160,  -0.00031,   0.00155,   0.00000,   2.00000
-498855290.02892,-48818160.80059,5245767.18782,  -0.00378,   0.00044,   0.00162,477869184.00000,   0.00186,276656640.00000,  -0.00161,  -0.00031,   0.00155,  64.00000,   2.00000
-498190530.06124,-47203867.47317,4795471.71609,  -0.00379,   0.00045,   0.00161,477855392.00000,   0.00187,276661792.00000,  -0.00161,  -0.00031,   0.00155, 160.00000,   2.00000
-497522074.46701,-45593261.84355,4341901.13120,  -0.00379,   0.00046,   0.00161,477866080.00000,   0.00187,276666976.00000,  -0.00162,  -0.00030,   0.00155,  32.00000,   2.00000
-496844221.40230,-43973259.58840,3894003.72999,  -0.00380,   0.00047,   0.00160,477852000.00000,   0.00188,276672096.00000,  -0.00162,  -0.00030,   0.00155, -32.00000,   2.00000
-496159708.46268,-42350421.99626,3447264.28135,  -0.00380,   0.00048,   0.00160,477850400.00000,   0.00188,276677184.00000,  -0.00163,  -0.00030,   0.00155,  64.00000,   2.00000
-495475113.74018,-40740048.52496,3001664.00041,  -0.00381,   0.00048,   0.00159,477848736.00000,   0.00189,276682240.00000,  -0.00163,  -0.00030,   0.00155, -64.00000,   2.00000
-494783920.41568,-39126817.72593,2557186.86680,  -0.00381,   0.00049,   0.00158,477847136.00000,   0.00189,276687264.00000,  -0.00164,  -0.00029,   0.00155, 128.00000,   2.00000
-494082734.24544,-37504000.02600,2113873.69437,  -0.00382,   0.00050,   0.00158,477833312.00000,   0.00190,276692224.00000,  -0.00164,  -0.00029,   0.00155, -96.00000,   2.00000
-493377969.14041,-35885077.34692,1671602.73060,  -0.00382,   0.00051,   0.00157,477844128.00000,   0.00190,276697216.00000,  -0.00165,  -0.00029,   0.00155,   0.00000,   2.00000
-492669822.98847,-34271760.33375,1234823.91977,  -0.00383,   0.00052,   0.00157,477830144.00000,   0.00191,276702112.00000,  -0.00165,  -0.00029,   0.00155,  32.00000,   2.00000
-491954931.96585,-32655495.72931,794739.74010,  -0.00383,   0.00053,   0.00156,477828640.00000,   0.00191,276706976.00000,  -0.00166,  -0.00028,   0.00155,  96.00000,   2.00000
-491232867.31984,-31036265.74193,360092.54507,  -0.00384,   0.00053,   0.00156,477827232.00000,   0.00191,276711840.00000,  -0.00166,  -0.00028,   0.00155,   0.00000,   2.00000
-490510792.27052,-29429305.63071,-73498.53954,  -0.00384,   0.00054,   0.00155,477825248.00000,   0.00192,276716640.00000,  -0.00167,  -0.00028,   0.00155,   0.00000,   2.00000
-489781572.73480,-27819261.39466,-506036.07832,  -0.00385,   0.00055,   0.00154,477823744.00000,   0.00192,276721440.00000,  -0.00167,  -0.00028,   0.00155, -96.00000,   2.00000
-489042165.94113,-26199043.64370,-937543.85857,  -0.00385,   0.00056,   0.00154,477809792.00000,   0.00193,276726176.00000,  -0.00168,  -0.00028,   0.00155, -32.00000,   2.00000
-488295531.64713,-24575597.73608,-1368013.44115,  -0.00386,   0.00057,   0.00153,477808320.00000,   0.00193,276730880.00000,  -0.00168,  -0.00027,   0.00155, -32.00000,   2.00000
-487548871.46853,-22964112.63030,-1793082.52030,  -0.00386,   0.00058,   0.00153,477805984.00000,   0.00194,276735552.00000,  -0.00169,  -0.00027,   0.00155,  32.00000,   2.00000
-486795067.86716,-21349206.90998,-2221504.00875,  -0.00387,   0.00058,   0.00152,477804320.00000,   0.00194,276740192.00000,  -0.00169,  -0.00027,   0.00155,   0.00000,   2.00000
-486041314.86882,-19746053.22907,-2644544.23143,  -0.00387,   0.00059,   0.00152,477801728.00000,   0.00195,276744800.00000,  -0.00170,  -0.00027,   0.00155,  32.00000,   2.00000
-485277009.77796,-18132043.09679,-3066671.52804,  -0.00388,   0.00060,   0.00151,477787456.00000,   0.00195,276749344.00000,  -0.00170,  -0.00026,   0.00155,   0.00000,   2.00000
-484505607.90370,-16514277.37229,-3487834.04503,  -0.00388,   0.00061,   0.00151,477785248.00000,   0.00195,276753856.00000,  -0.00171,  -0.00026,   0.00155, -32.00000,   2.00000
-483734454.76653,-14907907.10856,-3908060.06289,  -0.00388,   0.00062,   0.00150,477782336.00000,   0.00196,276758336.00000,  -0.00171,  -0.00026,   0.00155, 128.00000,   2.00000
-482949009.94946,-13282300.62633,-4322991.17571,  -0.00389,   0.00062,   0.00149,477780512.00000,   0.00196,276762784.00000,  -0.00172,  -0.00026,   0.00155,   0.00000,   2.00000
-482167458.37710,-11675785.57784,-4741550.33602,  -0.00389,   0.00063,   0.00149,477764544.00000,   0.00197,276767136.00000,  -0.00172,  -0.00026,   0.00155,  96.00000,   2.00000
-481379012.90598,-10065043.40446,-5154892.21425,  -0.00390,   0.00064,   0.00148,477761760.00000,   0.00197,276771488.00000,  -0.00173,  -0.00025,   0.00155,   0.00000,   2.00000
-480583783.23659,-8449984.86961,-5567427.41150,  -0.00390,   0.00065,   0.00148,477758848.00000,   0.00197,276775776.00000,  -0.00173,  -0.00025,   0.00155, 192.00000,   2.00000
-479777656.26772,-6823108.08756,-5979339.59014,  -0.00391,   0.00066,   0.00147,477744096.00000,   0.00198,276780032.00000,  -0.00174,  -0.00025,   0.00155,   0.00000,   2.00000
-478975882.95135,-5214482.13151,-6390360.27368,  -0.00391,   0.00066,   0.00147,477752032.00000,   0.00198,276784256.00000,  -0.00174,  -0.00025,   0.00155, -32.00000,   2.00000
-478167425.09904,-3601490.79759,-6796667.13075,  -0.00391,   0.00067,   0.00146,477723648.00000,   0.00199,276788384.00000,  -0.00174,  -0.00024,   0.00155,  32.00000,   2.00000
-477348192.05425,-1976220.87080,-7202103.01940,  -0.00392,   0.00068,   0.00146,477733408.00000,   0.00199,276792512.00000,  -0.00175,  -0.00024,   0.00155,   0.00000,   2.00000
-476533162.34795,-369202.01962,-7611482.53522,  -0.00392,   0.00069,   0.00145,477716352.00000,   0.00199,276796544.00000,  -0.00175,  -0.00024,   0.00155,  32.00000,   2.00000
-475703666.28441,1257715.15870,-8015836.70079,  -0.00392,   0.00069,   0.00145,477713888.00000,   0.00200,276800576.00000,  -0.00176,  -0.00024,   0.00155,  64.00000,   2.00000
-474882655.59343,2858906.93860,-8415244.67830,  -0.00393,   0.00070,   0.00144,477708096.00000,   0.00200,276804544.00000,  -0.00176,  -0.00024,   0.00155,  64.00000,   2.00000
-474042647.84774,4487627.19475,-8818616.20578,  -0.00393,   0.00071,   0.00143,477694208.00000,   0.00201,276808448.00000,  -0.00176,  -0.00023,   0.00155,  96.00000,   2.00000
-473203328.08693,6105827.76097,-9217039.33526,  -0.00393,   0.00072,   0.00143,477689408.00000,   0.00201,276812320.00000,  -0.00177,  -0.00023,   0.00155,  64.00000,   2.00000
-472364097.97373,7713450.57412,-9619251.08704,  -0.00394,   0.00073,   0.00142,477685088.00000,   0.00201,276816160.00000,  -0.00177,  -0.00023,   0.00155,   0.00000,   2.00000
-471513858.35921,9333519.66015,-10016745.15924,  -0.00394,   0.00073,   0.00142,477669600.00000,   0.00202,276819904.00000,  -0.00178,  -0.00023,   0.00155,  96.00000,   2.00000
-470668074.17632,10935218.14153,-10409032.42918,  -0.00394,   0.00074,   0.00141,477676992.00000,   0.00202,276823680.00000,  -0.00178,  -0.00023,   0.00155,   0.00000,   2.00000
-469806296.53588,12557157.88398,-10805628.50115,  -0.00395,   0.00075,   0.00141,477650464.00000,   0.00202,276827328.00000,  -0.00178,  -0.00022,   0.00155, 224.00000,   2.00000
-468936818.51170,14183662.83301,-11197249.54033,  -0.00395,   0.00076,   0.00140,477647360.00000,   0.00203,276830944.00000,  -0.00179,  -0.00022,   0.00155, 128.00000,   2.00000
-468066951.79293,15799502.86745,-11592662.18645,  -0.00395,   0.00076,   0.00140,477643296.00000,   0.00203,276834528.00000,  -0.00179,  -0.00022,   0.00155,  64.00000,   2.00000
-467197528.40843,17404803.53056,-11983144.08322,  -0.00395,   0.00077,   0.00139,477638688.00000,   0.00203,276838080.00000,  -0.00179,  -0.00022,   0.00155,  96.00000,   2.00000
-466315821.21911,19022661.00211,-12368977.62447,  -0.00396,   0.00078,   0.00139,477623968.00000,   0.00204,276841568.00000,  -0.00180,  -0.00022,   0.00155, -32.00000,   2.00000
-465433891.48571,20629984.70665,-12758652.53979,  -0.00396,   0.00079,   0.00138,477619872.00000,   0.00204,276844992.00000,  -0.00180,  -0.00021,   0.00155,  32.00000,   2.00000
-464539514.41970,22250047.50014,-13143741.52149,  -0.00396,   0.00079,   0.00138,477605280.00000,   0.00204,276848384.00000,  -0.00181,  -0.00021,   0.00155,   0.00000,   2.00000
-463645144.11812,23859778.03796,-13528370.32257,  -0.00396,   0.00080,   0.00137,477600832.00000,   0.00205,276851712.00000,  -0.00181,  -0.00021,   0.00155,  64.00000,   2.00000
-462742485.84107,25474342.88568,-13912520.96676,  -0.00397,   0.00081,   0.00136,477598208.00000,   0.00205,276855008.00000,  -0.00181,  -0.00021,   0.00155, 128.00000,   2.00000
-461835347.38517,27087000.99364,-14296666.09092,  -0.00397,   0.00082,   0.00136,477582048.00000,   0.00205,276858240.00000,  -0.00182,  -0.00021,   0.00155,  96.00000,   2.00000
-460928602.27892,28689802.36521,-14676137.32426,  -0.00397,   0.00082,   0.00135,477576896.00000,   0.00205,276861440.00000,  -0.00182,  -0.00021,   0.00154,  32.00000,   2.00000
-460008920.97834,30306120.05767,-15060039.92933,  -0.00397,   0.00083,   0.00135,477562368.00000,   0.00206,276864576.00000,  -0.00182,  -0.00020,   0.00154,  32.00000,   2.00000
-459090313.57481,31912970.39760,-15435004.06093,  -0.00398,   0.00084,   0.00134,477556384.00000,   0.00206,276867648.00000,  -0.00182,  -0.00020,   0.00154, -96.00000,   2.00000
-458163406.14405,33525276.22274,-15814055.54222,  -0.00398,   0.00085,   0.00134,477553376.00000,   0.00206,276870688.00000,  -0.00183,  -0.00020,   0.00154,   0.00000,   2.00000
-457232000.88179,35136409.97805,-16193269.80076,  -0.00398,   0.00085,   0.00133,477536640.00000,   0.00207,276873664.00000,  -0.00183,  -0.00020,   0.00154, -32.00000,   2.00000
-456296334.56003,36746509.61053,-16568281.58959,  -0.00398,   0.00086,   0.00133,477519520.00000,   0.00207,276876512.00000,  -0.00183,  -0.00020,   0.00154, -64.00000,   2.00000
-455357298.28985,38353882.00966,-16942589.93440,  -0.00398,   0.00087,   0.00132,477527616.00000,   0.00207,276879424.00000,  -0.00184,  -0.00020,   0.00154,  32.00000,   2.00000
-454409021.06436,39969203.84309,-17317706.43749,  -0.00398,   0.00087,   0.00132,477498944.00000,   0.00207,276882176.00000,  -0.00184,  -0.00019,   0.00154, 128.00000,   2.00000
-453458198.53567,41582730.33412,-17692474.35950,  -0.00399,   0.00088,   0.00131,477505696.00000,   0.00208,276884960.00000,  -0.00184,  -0.00019,   0.00154, -32.00000,   2.00000
-452500138.71022,43205603.34731,-18064085.68672,  -0.00399,   0.00089,   0.00131,477474496.00000,   0.00208,276887584.00000,  -0.00184,  -0.00019,   0.00154, 192.00000,   2.00000
-451548987.65597,44812414.06656,-18435516.26805,  -0.00399,   0.00089,   0.00130,477477952.00000,   0.00208,276890208.00000,  -0.00185,  -0.00019,   0.00154, -32.00000,   2.00000
-450594985.53378,46420021.05395,-18807466.51727,  -0.00399,   0.00090,   0.00130,477458368.00000,   0.00208,276892704.00000,  -0.00185,  -0.00019,   0.00154,  96.00000,   2.00000
-449628987.75452,48042953.86786,-19175258.48438,  -0.00399,   0.00091,   0.00129,477441568.00000,   0.00209,276895136.00000,  -0.00185,  -0.00019,   0.00154, 128.00000,   2.00000
-448662620.23363,49657001.54350,-19547046.98746,  -0.00399,   0.00092,   0.00129,477436160.00000,   0.00209,276897536.00000,  -0.00185,  -0.00019,   0.00154,  64.00000,   2.00000
-447687418.17291,51276715.99991,-19913925.74976,  -0.00399,   0.00092,   0.00128,477432992.00000,   0.00209,276899904.00000,  -0.00186,  -0.00018,   0.00154, 160.00000,   2.00000
-446705402.96097,52895118.29778,-20280811.17063,  -0.00399,   0.00093,   0.00128,477417632.00000,   0.00209,276902208.00000,  -0.00186,  -0.00018,   0.00154,  64.00000,   2.00000
-445716212.53800,54511809.96937,-20643410.19675,  -0.00400,   0.00094,   0.00127,477402624.00000,   0.00210,276904448.00000,  -0.00186,  -0.00018,   0.00154,   0.00000,   2.00000
-444723317.21988,56117271.77777,-21009983.46536,  -0.00400,   0.00094,   0.00127,477400896.00000,   0.00210,276906656.00000,  -0.00186,  -0.00018,   0.00154,   0.00000,   2.00000
-443718105.67256,57725629.18030,-21371792.33398,  -0.00400,   0.00095,   0.00126,477401440.00000,   0.00210,276908864.00000,  -0.00187,  -0.00018,   0.00154,  64.00000,   2.00000
-442710924.76526,59314874.38447,-21734051.36137,  -0.00400,   0.00096,   0.00126,477387840.00000,   0.00210,276911008.00000,  -0.00187,  -0.00018,   0.00154,  64.00000,   2.00000
-441683115.33127,60913531.48485,-22092266.72752,  -0.00400,   0.00096,   0.00125,477380544.00000,   0.00210,276913120.00000,  -0.00187,  -0.00018,   0.00154, -32.00000,   2.00000
-440638289.05537,62511627.62368,-22454700.70031,  -0.00400,   0.00097,   0.00125,477386944.00000,   0.00211,276915264.00000,  -0.00187,  -0.00018,   0.00154,  32.00000,   2.00000
-439596730.97993,64082010.02076,-22813034.32496,  -0.00400,   0.00097,   0.00124,477384672.00000,   0.00211,276917408.00000,  -0.00187,  -0.00017,   0.00154,  96.00000,   2.00000
-438539259.73056,65669631.53602,-23167567.54860,  -0.00400,   0.00098,   0.00124,477370752.00000,   0.00211,276919488.00000,  -0.00188,  -0.00017,   0.00154,  64.00000,   2.00000
-437484321.04241,67269505.47226,-23527278.11581,  -0.00400,   0.00099,   0.00123,477341472.00000,   0.00211,276921376.00000,  -0.00188,  -0.00017,   0.00154,  96.00000,   2.00000
-436440699.87171,68892960.48812,-23883175.80242,  -0.00400,   0.00099,   0.00123,477311424.00000,   0.00211,276923104.00000,  -0.00188,  -0.00017,   0.00154,  32.00000,   2.00000
-435426389.70872,70505860.42813,-24240238.29646,  -0.00400,   0.00100,   0.00122,477276352.00000,   0.00211,276924640.00000,  -0.00188,  -0.00017,   0.00154,  32.00000,   2.00000
-434402027.47738,72146413.25077,-24599287.51497,  -0.00400,   0.00101,   0.00122,477236800.00000,   0.00212,276926016.00000,  -0.00188,  -0.00017,   0.00154,  96.00000,   2.00000
-433379650.78282,73767175.98688,-24958048.99462,  -0.00400,   0.00101,   0.00121,477244128.00000,   0.00212,276927424.00000,  -0.00188,  -0.00017,   0.00154, -32.00000,   2.00000
-432344426.08495,75384196.56060,-25313243.47355,  -0.00400,   0.00102,   0.00121,477233568.00000,   0.00212,276928768.00000,  -0.00189,  -0.00017,   0.00154,  64.00000,   2.00000
-431296160.63596,76998514.32157,-25669165.09502,  -0.00400,   0.00103,   0.00120,477223200.00000,   0.00212,276930080.00000,  -0.00189,  -0.00017,   0.00154,   0.00000,   2.00000
-430234167.37146,78617561.12545,-26025113.85124,  -0.00400,   0.00103,   0.00120,477223520.00000,   0.00212,276931392.00000,  -0.00189,  -0.00017,   0.00154,   0.00000,   2.00000
-429173372.58449,80222588.07013,-26377754.02008,  -0.00400,   0.00104,   0.00119,477203776.00000,   0.00212,276932608.00000,  -0.00189,  -0.00016,   0.00154,-128.00000,   2.00000
-428096386.52271,81843608.67251,-26731164.28099,  -0.00400,   0.00104,   0.00119,477188864.00000,   0.00212,276933760.00000,  -0.00189,  -0.00016,   0.00154,  32.00000,   2.00000
-427018570.15627,83457191.86379,-27084904.70867,  -0.00400,   0.00105,   0.00118,477181344.00000,   0.00212,276934880.00000,  -0.00189,  -0.00016,   0.00154, -64.00000,   2.00000
-425940369.73059,85063600.78531,-27439000.94656,  -0.00400,   0.00105,   0.00118,477173216.00000,   0.00212,276935936.00000,  -0.00189,  -0.00016,   0.00154,  64.00000,   2.00000
-424856425.98976,86672361.80100,-27789763.45908,  -0.00400,   0.00106,   0.00117,477153312.00000,   0.00213,276936928.00000,  -0.00189,  -0.00016,   0.00154,  32.00000,   2.00000
-423755981.28098,88297711.87302,-28141305.54165,  -0.00399,   0.00107,   0.00117,477137088.00000,   0.00213,276937824.00000,  -0.00189,  -0.00016,   0.00153,-928.00000,   1.00000
-422665226.97409,89901866.94762,-28493489.30146,  -0.00399,   0.00107,   0.00116,477124480.00000,   0.00213,276938656.00000,  -0.00189,  -0.00016,   0.00153,-896.00000,   1.00000
-421559246.32150,91523178.19090,-28842214.02426,  -0.00399,   0.00108,   0.00116,477107552.00000,   0.00213,276939424.00000,  -0.00190,  -0.00016,   0.00153,-832.00000,   1.00000
-420461243.11822,93122943.61197,-29195881.36212,  -0.00399,   0.00108,   0.00115,477096704.00000,   0.00213,276940128.00000,  -0.00190,  -0.00016,   0.00153,-704.00000,   1.00000
-419348277.12583,94740135.55989,-29541792.72503,  -0.00399,   0.00109,   0.00115,477079168.00000,   0.00213,276940736.00000,  -0.00190,  -0.00016,   0.00153,-640.00000,   1.00000
-418233659.55877,96350305.83589,-29892465.85511,  -0.00399,   0.00109,   0.00115,477071680.00000,   0.00213,276941344.00000,  -0.00190,  -0.00016,   0.00153,-672.00000,   1.00000
-417111844.78948,97963143.51729,-30244299.89447,  -0.00399,   0.00110,   0.00114,477052448.00000,   0.00213,276941824.00000,  -0.00190,  -0.00016,   0.00153,-416.00000,   1.00000
-415982980.64299,99578825.04997,-30592974.60212,  -0.00399,   0.00111,   0.00114,477032800.00000,   0.00213,276942240.00000,  -0.00190,  -0.00016,   0.00153,-512.00000,   1.00000
-414853657.81790,101188095.83458,-30937833.78184,  -0.00398,   0.00111,   0.00113,477023488.00000,   0.00213,276942624.00000,  -0.00190,  -0.00016,   0.00153,-352.00000,   1.00000
-413715581.31367,102799894.84543,-31288234.81088,  -0.00398,   0.00112,   0.00113,477005600.00000,   0.00213,276942912.00000,  -0.00190,  -0.00016,   0.00153,-384.00000,   1.00000
-412576774.30816,104405359.95635,-31634854.90990,  -0.00398,   0.00112,   0.00112,476996352.00000,   0.00213,276943136.00000,  -0.00190,  -0.00016,   0.00153,-192.00000,   1.00000
-411429555.66338,106013712.13127,-31982744.38457,  -0.00398,   0.00113,   0.00112,476977696.00000,   0.00213,276943296.00000,  -0.00190,  -0.00016,   0.00153,-320.00000,   1.00000
-410264532.29789,107639460.08278,-32331702.89084,  -0.00398,   0.00113,   0.00111,476962304.00000,   0.00213,276943392.00000,  -0.00190,  -0.00016,   0.00153,-128.00000,   1.00000
-409107783.91963,109244686.09583,-32677177.75144,  -0.00397,   0.00114,   0.00111,476949664.00000,   0.00213,276943424.00000,  -0.00190,  -0.00016,   0.00153,   0.00000,   1.00000
-407932082.19319,110849508.00548,-33023101.16444,  -0.00397,   0.00114,   0.00110,476930880.00000,   0.00213,276943424.00000,  -0.00190,  -0.00016,   0.00153,-12544.00000,   0.00000
-406741054.74592,112460898.08120,-33369024.57743,  -0.00397,   0.00115,   0.00110,476913600.00000,   0.00213,276943424.00000,  -0.00190,  -0.00016,   0.00153,-29824.00000,   0.00000
-405532512.18913,114054773.04740,-33714947.99042,  -0.00397,   0.00115,   0.00110,476873728.00000,   0.00213,276943424.00000,  -0.00190,  -0.00016,   0.00153,-69696.00000,   0.00000
-404315212.07758,115639890.45884,-34056492.62604,  -0.00396,   0.00116,   0.00109,476824256.00000,   0.00213,276943424.00000,  -0.00190,  -0.00016,   0.00153,-119168.00000,   0.00000
-403067260.52437,117238144.20242,-34398037.26165,  -0.00396,   0.00116,   0.00109,476759680.00000,   0.00213,276943424.00000,  -0.00190,  -0.00016,   0.00153,-183744.00000,   0.00000
-401801793.86165,118818882.83649,-34739581.89727,  -0.00396,   0.00117,   0.00108,476671840.00000,   0.00213,276943424.00000,  -0.00190,  -0.00016,   0.00153,-271584.00000,   0.00000
-400521001.47809,120406189.63662,-35076747.75550,  -0.00396,   0.00117,   0.00108,476578016.00000,   0.00213,276943424.00000,  -0.00190,  -0.00016,   0.00153,-365408.00000,   0.00000
-399222693.98502,121975981.32723,-35413913.61374,  -0.00395,   0.00118,   0.00107,476460576.00000,   0.00213,276943424.00000,  -0.00190,  -0.00016,   0.00153,-482848.00000,   0.00000
-397900303.21636,123543583.62915,-35751079.47197,  -0.00395,   0.00118,   0.00107,476323392.00000,   0.00213,276943424.00000,  -0.00190,  -0.00016,   0.00153,-620032.00000,   0.00000
-396569154.89294,125102428.37632,-36088245.33021,  -0.00395,   0.00118,   0.00106,476176416.00000,   0.00213,276943424.00000,  -0.00190,  -0.00016,   0.00153,-767008.00000,   0.00000
-395207355.12786,126674409.45562,-36421032.41106,  -0.00394,   0.00119,   0.00106,476012608.00000,   0.00213,276943424.00000,  -0.00190,  -0.00016,   0.00153,-930816.00000,   0.00000
-393843365.97409,128222307.25934,-36753819.49192,  -0.00394,   0.00119,   0.00106,475834624.00000,   0.00213,276943424.00000,  -0.00190,  -0.00016,   0.00153,-1108800.00000,   0.00000
-392455293.54473,129768015.67436,-37086606.57277,  -0.00394,   0.00120,   0.00105,475636256.00000,   0.00213,276943424.00000,  -0.00190,  -0.00016,   0.00153,-1307168.00000,   0.00000
-391058463.56062,131304966.53463,-37415014.87625,  -0.00393,   0.00120,   0.00105,475426784.00000,   0.00213,276943424.00000,  -0.00190,  -0.00016,   0.00153,-1516640.00000,   0.00000
-389637550.30091,132839728.00620,-37743423.17972,  -0.00393,   0.00121,   0.00104,475196960.00000,   0.00213,276943424.00000,  -0.00190,  -0.00016,   0.00153,-1746464.00000,   0.00000
-388192553.76562,134372300.08909,-38071831.48320,  -0.00393,   0.00121,   0.00104,474946976.00000,   0.00213,276943424.00000,  -0.00190,  -0.00016,   0.00153,-1996448.00000,   0.00000
-386723473.95474,135902682.78328,-38400239.78668,  -0.00392,   0.00121,   0.00103,474676928.00000,   0.00213,276943424.00000,  -0.00190,  -0.00016,   0.00153,-2266496.00000,   0.00000
-385267530.47600,137402414.03582,-38724269.31277,  -0.00392,   0.00122,   0.00103,474402112.00000,   0.00213,276943424.00000,  -0.00190,  -0.00016,   0.00153,-2541312.00000,   0.00000
-383765609.83477,138921849.78657,-39048298.83887,  -0.00392,   0.00122,   0.00103,474101696.00000,   0.00213,276943424.00000,  -0.00190,  -0.00016,   0.00153,-2841728.00000,   0.00000
-382254931.63878,140432527.98256,-39367949.58758,  -0.00391,   0.00123,   0.00102,473790944.00000,   0.00213,276943424.00000,  -0.00190,  -0.00016,   0.00153,-3152480.00000,   0.00000
-380726738.33328,141925691.06902,-39691979.11368,  -0.00391,   0.00123,   0.00102,473457376.00000,   0.00213,276943424.00000,  -0.00190,  -0.00016,   0.00153,-3486048.00000,   0.00000
-379189787.47301,143410096.60073,-40011629.86240,  -0.00390,   0.00123,   0.00101,473113696.00000,   0.00213,276943424.00000,  -0.00190,  -0.00016,   0.00153,-3829728.00000,   0.00000
-377622185.17109,144907638.46458,-40331280.61111,  -0.00390,   0.00124,   0.00101,472755264.00000,   0.00213,276943424.00000,  -0.00190,  -0.00016,   0.00153,-4188160.00000,   0.00000
-376037067.75965,146387665.21891,-40646552.58245,  -0.00390,   0.00124,   0.00101,472372128.00000,   0.00213,276943424.00000,  -0.00190,  -0.00016,   0.00153,-4571296.00000,   0.00000
-374443192.79344,147858934.41848,-40961824.55378,  -0.00389,   0.00124,   0.00100,471980000.00000,   0.00213,276943424.00000,  -0.00190,  -0.00016,   0.00153,-4963424.00000,   0.00000
-372847128.43855,149306120.34247,-41277096.52512,  -0.00389,   0.00125,   0.00100,471573792.00000,   0.00213,276943424.00000,  -0.00190,  -0.00016,   0.00153,-5369632.00000,   0.00000
-371205086.92118,150773010.76466,-41592368.49646,  -0.00388,   0.00125,   0.00099,471143264.00000,   0.00213,276943424.00000,  -0.00190,  -0.00016,   0.00153,-5800160.00000,   0.00000
-369554287.84904,152231143.63209,-41903261.69041,  -0.00388,   0.00126,   0.00099,470702432.00000,   0.00213,276943424.00000,  -0.00190,  -0.00016,   0.00153,-6240992.00000,   0.00000
-367901299.38821,153665193.22393,-42214154.88437,  -0.00387,   0.00126,   0.00099,470247584.00000,   0.00213,276943424.00000,  -0.00190,  -0.00016,   0.00153,-6695840.00000,   0.00000
-366224227.65180,155097053.42708,-42525048.07833,  -0.00387,   0.00126,   0.00098,469773312.00000,   0.00213,276943424.00000,  -0.00190,  -0.00016,   0.00153,-7170112.00000,   0.00000
-364523072.63979,156526724.24155,-42831562.49491,  -0.00386,   0.00126,   0.00098,469279136.00000,   0.00213,276943424.00000,  -0.00190,  -0.00016,   0.00153,-7664288.00000,   0.00000
-362813160.07303,157947637.50125,-43142455.68886,  -0.00386,   0.00127,   0.00097,468776640.00000,   0.00213,276943424.00000,  -0.00190,  -0.00016,   0.00153,-8166784.00000,   0.00000
-361079164.23068,159366361.37227,-43444591.32806,  -0.00385,   0.00127,   0.00097,468252928.00000,   0.00213,276943424.00000,  -0.00190,  -0.00016,   0.00153,-8690496.00000,   0.00000
-359327653.27881,160767570.13376,-43751105.74464,  -0.00385,   0.00127,   0.00097,467706688.00000,   0.00213,276943424.00000,  -0.00190,  -0.00016,   0.00153,-9236736.00000,   0.00000
-357560816.60611,162175347.06133,-44053241.38383,  -0.00384,   0.00128,   0.00096,467155264.00000,   0.00213,276943424.00000,  -0.00190,  -0.00016,   0.00153,-9788160.00000,   0.00000
-355776464.82389,163565608.87937,-44355377.02303,  -0.00384,   0.00128,   0.00096,466580512.00000,   0.00213,276943424.00000,  -0.00190,  -0.00016,   0.00153,-10362912.00000,   0.00000
-353983355.48692,164947113.14266,-44657512.66223,  -0.00383,   0.00128,   0.00095,465996960.00000,   0.00213,276943424.00000,  -0.00190,  -0.00016,   0.00153,-10946464.00000,   0.00000
-352172731.04042,166311102.29643,-44959648.30143,  -0.00383,   0.00129,   0.00095,465390240.00000,   0.00213,276943424.00000,  -0.00190,  -0.00016,   0.00153,-11553184.00000,   0.00000
-350346780.87310,167681659.61627,-45257405.16324,  -0.00382,   0.00129,   0.00095,464779040.00000,   0.00213,276943424.00000,  -0.00190,  -0.00016,   0.00153,-12164384.00000,   0.00000
-348503315.59626,169034701.82659,-45555162.02506,  -0.00381,   0.00129,   0.00094,464144896.00000,   0.00213,276943424.00000,  -0.00190,  -0.00016,   0.00153,-12798528.00000,   0.00000
-346635767.04383,170385554.64822,-45848540.10950,  -0.00381,   0.00129,   0.00094,463491808.00000,   0.00213,276943424.00000,  -0.00190,  -0.00016,   0.00153,-13451616.00000,   0.00000
-344759460.93663,171727649.91509,-46146296.97132,  -0.00380,   0.00130,   0.00093,462832096.00000,   0.00213,276943424.00000,  -0.00190,  -0.00016,   0.00153,-14111328.00000,   0.00000
-342874397.27469,173060987.62720,-46439675.05576,  -0.00380,   0.00130,   0.00093,462162752.00000,   0.00213,276943424.00000,  -0.00190,  -0.00016,   0.00153,-14780672.00000,   0.00000
-340956492.78239,174383378.39586,-46728674.36282,  -0.00379,   0.00130,   0.00093,461459648.00000,   0.00213,276943424.00000,  -0.00190,  -0.00016,   0.00153,-15483776.00000,   0.00000
-339029830.73533,175697011.60976,-47022052.44725,  -0.00378,   0.00130,   0.00092,460749856.00000,   0.00213,276943424.00000,  -0.00190,  -0.00016,   0.00153,-16193568.00000,   0.00000
-337094411.13352,177001887.26890,-47311051.75431,  -0.00378,   0.00130,   0.00092,460030592.00000,   0.00213,276943424.00000,  -0.00190,  -0.00016,   0.00153,-16912832.00000,   0.00000
-335134908.25611,178304573.53936,-47600051.06137,  -0.00377,   0.00131,   0.00092,459294560.00000,   0.00213,276943424.00000,  -0.00190,  -0.00016,   0.00153,-17648864.00000,   0.00000
-333157890.26919,179589744.70029,-47884671.59105,  -0.00377,   0.00131,   0.00091,458534624.00000,   0.00213,276943424.00000,  -0.00190,  -0.00016,   0.00153,-18408800.00000,   0.00000
-331165546.56144,180881484.02729,-48173670.89811,  -0.00376,   0.00131,   0.00091,457769696.00000,   0.00213,276943424.00000,  -0.00190,  -0.00016,   0.00153,-19173728.00000,   0.00000
-329177581.63107,182133814.35788,-48458291.42779,  -0.00375,   0.00131,   0.00090,456970560.00000,   0.00213,276943424.00000,  -0.00190,  -0.00016,   0.00153,-19972864.00000,   0.00000
-327158965.25904,183399281.02061,-48738533.18009,  -0.00375,   0.00131,   0.00090,456131840.00000,   0.00213,276943424.00000,  -0.00190,  -0.00016,   0.00153,-20811584.00000,   0.00000
-325122833.77749,184647232.57381,-49023153.70976,  -0.00374,   0.00132,   0.00090,455241568.00000,   0.00213,276943424.00000,  -0.00190,  -0.00016,   0.00153,-21701856.00000,   0.00000
-323071376.57511,185901752.29309,-49303395.46206,  -0.00373,   0.00132,   0.00089,454328352.00000,   0.00213,276943424.00000,  -0.00190,  -0.00016,   0.00153,-22615072.00000,   0.00000
-321008972.42928,187123431.18202,-49583637.21436,  -0.00372,   0.00132,   0.00089,453386944.00000,   0.00213,276943424.00000,  -0.00190,  -0.00016,   0.00153,-23556480.00000,   0.00000
-318915916.84180,188358246.40309,-49863878.96666,  -0.00372,   0.00132,   0.00089,452447392.00000,   0.00213,276943424.00000,  -0.00190,  -0.00016,   0.00153,-24496032.00000,   0.00000
-316820671.86563,189568978.34857,-50139741.94158,  -0.00371,   0.00132,   0.00088,451511456.00000,   0.00213,276943424.00000,  -0.00190,  -0.00016,   0.00153,-25431968.00000,   0.00000
-314716669.33469,190770952.73929,-50415604.91650,  -0.00370,   0.00132,   0.00088,450584416.00000,   0.00213,276943424.00000,  -0.00190,  -0.00016,   0.00153,-26359008.00000,   0.00000
-312588583.52817,191970737.74132,-50691467.89142,  -0.00370,   0.00132,   0.00087,449652768.00000,   0.00213,276943424.00000,  -0.00190,  -0.00016,   0.00153,-27290656.00000,   0.00000
-310458308.33296,193146439.46776,-50962952.08896,  -0.00369,   0.00133,   0.00087,448713920.00000,   0.00213,276943424.00000,  -0.00190,  -0.00016,   0.00153,-28229504.00000,   0.00000
-308303949.86216,194319951.80551,-51238815.06388,  -0.00368,   0.00133,   0.00087,447764480.00000,   0.00213,276943424.00000,  -0.00190,  -0.00016,   0.00153,-29178944.00000,   0.00000
-306125508.11577,195491274.75458,-51505920.48404,  -0.00367,   0.00133,   0.00086,446797696.00000,   0.00213,276943424.00000,  -0.00190,  -0.00016,   0.00153,-30145728.00000,   0.00000
-303944876.98069,196638514.42805,-51777404.68158,  -0.00367,   0.00133,   0.00086,445819392.00000,   0.00213,276943424.00000,  -0.00190,  -0.00016,   0.00153,-31124032.00000,   0.00000
-301748920.12479,197792322.26759,-52048888.87912,  -0.00366,   0.00133,   0.00086,444839488.00000,   0.00213,276943424.00000,  -0.00190,  -0.00016,   0.00153,-32103936.00000,   0.00000
-299542016.32543,198913289.27679,-52315994.29928,  -0.00365,   0.00133,   0.00085,443828992.00000,   0.00213,276943424.00000,  -0.00190,  -0.00016,   0.00153,-33114432.00000,   0.00000
-297304461.08442,200047392.61813,-52583099.71944,  -0.00364,   0.00133,   0.00085,442807808.00000,   0.00213,276943424.00000,  -0.00190,  -0.00016,   0.00153,-34135616.00000,   0.00000
-295064716.45472,201157412.68387,-52845826.36222,  -0.00363,   0.00133,   0.00085,441770624.00000,   0.00213,276943424.00000,  -0.00190,  -0.00016,   0.00153,-35172800.00000,   0.00000
-292816214.27025,202258675.19486,-53112931.78238,  -0.00363,   0.00133,   0.00084,440726944.00000,   0.00213,276943424.00000,  -0.00190,  -0.00016,   0.00153,-36216480.00000,   0.00000
-290550196.97627,203342422.59633,-53375658.42516,  -0.00362,   0.00133,   0.00084,439658976.00000,   0.00213,276943424.00000,  -0.00190,  -0.00016,   0.00153,-37284448.00000,   0.00000
-288268853.96146,204432738.16387,-53634006.29056,  -0.00361,   0.00133,   0.00084,438587968.00000,   0.00213,276943424.00000,  -0.00190,  -0.00016,   0.00153,-38355456.00000,   0.00000
-285976564.00320,205490212.90106,-53896732.93334,  -0.00360,   0.00133,   0.00083,437489856.00000,   0.00213,276943424.00000,  -0.00190,  -0.00016,   0.00153,-39453568.00000,   0.00000
-283653622.60328,206560823.97039,-54155080.79874,  -0.00359,   0.00133,   0.00083,436380544.00000,   0.00213,276943424.00000,  -0.00190,  -0.00016,   0.00153,-40562880.00000,   0.00000
-281328491.81468,207607351.76413,-54413428.66414,  -0.00358,   0.00134,   0.00083,435257216.00000,   0.00213,276943424.00000,  -0.00190,  -0.00016,   0.00153,-41686208.00000,   0.00000
-278994603.47131,208645122.00312,-54671776.52954,  -0.00358,   0.00134,   0.00082,434126272.00000,   0.00213,276943424.00000,  -0.00190,  -0.00016,   0.00153,-42817152.00000,   0.00000
-276651957.57319,209674134.68734,-54925745.61756,  -0.00357,   0.00134,   0.00082,432986304.00000,   0.00213,276943424.00000,  -0.00190,  -0.00016,   0.00153,-43957120.00000,   0.00000
-274276470.84471,210692200.42811,-55179714.70559,  -0.00356,   0.00134,   0.00082,431816032.00000,   0.00213,276943424.00000,  -0.00190,  -0.00016,   0.00153,-45127392.00000,   0.00000
-271907552.28231,211694940.44806,-55433683.79361,  -0.00355,   0.00134,   0.00081,430646336.00000,   0.00213,276943424.00000,  -0.00190,  -0.00016,   0.00153,-46297088.00000,   0.00000
-269521118.61039,212680165.35849,-55687652.88163,  -0.00354,   0.00134,   0.00081,429454592.00000,   0.00213,276943424.00000,  -0.00190,  -0.00016,   0.00153,-47488832.00000,   0.00000
-267110601.66288,213663200.88022,-55937243.19227,  -0.00353,   0.00133,   0.00081,428245440.00000,   0.00213,276943424.00000,  -0.00190,  -0.00016,   0.00153,-48697984.00000,   0.00000
-264691327.16061,214637478.84720,-56191212.28029,  -0.00352,   0.00133,   0.00080,427030464.00000,   0.00213,276943424.00000,  -0.00190,  -0.00016,   0.00153,-49912960.00000,   0.00000
-262269863.26965,215587673.53859,-56436423.81355,  -0.00351,   0.00133,   0.00080,425797568.00000,   0.00213,276943424.00000,  -0.00190,  -0.00016,   0.00153,-51145856.00000,   0.00000
-259839641.82393,216529110.67522,-56686014.12419,  -0.00350,   0.00133,   0.00080,424558752.00000,   0.00213,276943424.00000,  -0.00190,  -0.00016,   0.00153,-52384672.00000,   0.00000
-257370011.38179,217474926.58923,-56935604.43484,  -0.00349,   0.00133,   0.00079,423296288.00000,   0.00213,276943424.00000,  -0.00190,  -0.00016,   0.00153,-53647136.00000,   0.00000
-254913517.27180,218390091.06158,-57180815.96810,  -0.00349,   0.00133,   0.00079,422025632.00000,   0.00213,276943424.00000,  -0.00190,  -0.00016,   0.00153,-54917792.00000,   0.00000
-252432939.88621,219303066.14524,-57421648.72398,  -0.00348,   0.00133,   0.00079,420737568.00000,   0.00213,276943424.00000,  -0.00190,  -0.00016,   0.00153,-56205856.00000,   0.00000
-249943604.94587,220207283.67415,-57666860.25724,  -0.00347,   0.00133,   0.00078,419443872.00000,   0.00213,276943424.00000,  -0.00190,  -0.00016,   0.00153,-57499552.00000,   0.00000
-247436754.89600,221093986.09353,-57907693.01312,  -0.00346,   0.00133,   0.00078,418126656.00000,   0.00213,276943424.00000,  -0.00190,  -0.00016,   0.00153,-58816768.00000,   0.00000
-244921147.29138,221971930.95815,-58152904.54638,  -0.00345,   0.00133,   0.00078,416804448.00000,   0.00213,276943424.00000,  -0.00190,  -0.00016,   0.00153,-60138976.00000,   0.00000
-242403350.29807,222825792.54719,-58389358.52489,  -0.00344,   0.00133,   0.00077,415464864.00000,   0.00213,276943424.00000,  -0.00190,  -0.00016,   0.00153,-61478560.00000,   0.00000
-239861470.02917,223677464.74754,-58630191.28077,  -0.00343,   0.00133,   0.00077,414113024.00000,   0.00213,276943424.00000,  -0.00190,  -0.00016,   0.00153,-62830400.00000,   0.00000
-237310832.20551,224520379.39312,-58866645.25927,  -0.00342,   0.00133,   0.00077,412752704.00000,   0.00213,276943424.00000,  -0.00190,  -0.00016,   0.00153,-64190720.00000,   0.00000
-234758004.99316,225339210.76312,-59103099.23777,  -0.00341,   0.00133,   0.00077,411378176.00000,   0.00213,276943424.00000,  -0.00190,  -0.00016,   0.00153,-65565248.00000,   0.00000
-232181094.50522,226155852.74443,-59339553.21628,  -0.00340,   0.00132,   0.00076,409989088.00000,   0.00213,276943424.00000,  -0.00190,  -0.00016,   0.00153,-66954336.00000,   0.00000
-229595426.46252,226963737.17098,-59576007.19478,  -0.00339,   0.00132,   0.00076,408592224.00000,   0.00213,276943424.00000,  -0.00190,  -0.00016,   0.00153,-68351200.00000,   0.00000
-226992243.31030,227754106.48801,-59808082.39590,  -0.00338,   0.00132,   0.00076,407170720.00000,   0.00213,276943424.00000,  -0.00190,  -0.00016,   0.00153,-69772704.00000,   0.00000
-224395628.32416,228529150.08422,-60044536.37440,  -0.00337,   0.00132,   0.00075,405750528.00000,   0.00213,276943424.00000,  -0.00190,  -0.00016,   0.00153,-71192896.00000,   0.00000
-221781498.22849,229286678.57090,-60272232.79815,  -0.00336,   0.00132,   0.00075,404303776.00000,   0.00213,276943424.00000,  -0.00190,  -0.00016,   0.00153,-72639648.00000,   0.00000
-219136716.69117,230057343.38972,-60504307.99927,  -0.00335,   0.00132,   0.00075,402852736.00000,   0.00213,276943424.00000,  -0.00190,  -0.00016,   0.00153,-74090688.00000,   0.00000
-216511639.65205,230782031.04606,-60732004.42301,  -0.00333,   0.00131,   0.00074,401386016.00000,   0.00213,276943424.00000,  -0.00190,  -0.00016,   0.00153,-75557408.00000,   0.00000
-213855911.17128,231519855.03453,-60964079.62414,  -0.00332,   0.00131,   0.00074,399916992.00000,   0.00213,276943424.00000,  -0.00190,  -0.00016,   0.00153,-77026432.00000,   0.00000
-211197993.30182,232233595.74742,-61191776.04788,  -0.00331,   0.00131,   0.00074,398434560.00000,   0.00213,276943424.00000,  -0.00190,  -0.00016,   0.00153,-78508864.00000,   0.00000
-208522560.32284,232929821.35079,-61415093.69424,  -0.00330,   0.00131,   0.00074,396931552.00000,   0.00213,276943424.00000,  -0.00190,  -0.00016,   0.00153,-80011872.00000,   0.00000
-205853695.50993,233610721.23333,-61642790.11798,  -0.00329,   0.00131,   0.00073,395433856.00000,   0.00213,276943424.00000,  -0.00190,  -0.00016,   0.00153,-81509568.00000,   0.00000
-203160747.42143,234289431.72718,-61866107.76435,  -0.00328,   0.00130,   0.00073,393923616.00000,   0.00213,276943424.00000,  -0.00190,  -0.00016,   0.00153,-83019808.00000,   0.00000
-200459041.77817,234959384.66627,-62089425.41071,  -0.00327,   0.00130,   0.00073,392409280.00000,   0.00213,276943424.00000,  -0.00190,  -0.00016,   0.00153,-84534144.00000,   0.00000
-197739821.02539,235611822.49584,-62312743.05707,  -0.00326,   0.00130,   0.00072,390876512.00000,   0.00213,276943424.00000,  -0.00190,  -0.00016,   0.00153,-86066912.00000,   0.00000
-195033736.60475,236233608.88375,-62531681.92606,  -0.00325,   0.00130,   0.00072,389337120.00000,   0.00213,276943424.00000,  -0.00190,  -0.00016,   0.00153,-87606304.00000,   0.00000
-192297000.74246,236868531.60380,-62754999.57242,  -0.00324,   0.00129,   0.00072,387797536.00000,   0.00213,276943424.00000,  -0.00190,  -0.00016,   0.00153,-89145888.00000,   0.00000
-189564643.65754,237464045.32744,-62973938.44141,  -0.00323,   0.00129,   0.00072,386237280.00000,   0.00213,276943424.00000,  -0.00190,  -0.00016,   0.00153,-90706144.00000,   0.00000
-186801635.13097,238072695.38322,-63192877.31039,  -0.00321,   0.00129,   0.00071,384675456.00000,   0.00213,276943424.00000,  -0.00190,  -0.00016,   0.00153,-92267968.00000,   0.00000
-184051762.93653,238650693.99733,-63407437.40199,  -0.00320,   0.00129,   0.00071,383107072.00000,   0.00213,276943424.00000,  -0.00190,  -0.00016,   0.00153,-93836352.00000,   0.00000
-181277807.46651,239226503.22276,-63626376.27098,  -0.00319,   0.00128,   0.00071,381530848.00000,   0.00213,276943424.00000,  -0.00190,  -0.00016,   0.00153,-95412576.00000,   0.00000
-178516988.32862,239771661.00653,-63840936.36258,  -0.00318,   0.00128,   0.00070,379946400.00000,   0.00213,276943424.00000,  -0.00190,  -0.00016,   0.00153,-96997024.00000,   0.00000
-175732085.91515,240314629.40161,-64055496.45419,  -0.00317,   0.00128,   0.00070,378350336.00000,   0.00213,276943424.00000,  -0.00190,  -0.00016,   0.00153,-98593088.00000,   0.00000
-172923100.22609,240855408.40800,-64270056.54579,  -0.00316,   0.00128,   0.00070,376742432.00000,   0.00213,276943424.00000,  -0.00190,  -0.00016,   0.00153,-100200992.00000,   0.00000
-170127250.86917,241365535.97273,-64480237.86001,  -0.00314,   0.00127,   0.00070,375123872.00000,   0.00213,276943424.00000,  -0.00190,  -0.00016,   0.00153,-101819552.00000,   0.00000
-167322643.95749,241866905.98270,-64694797.95162,  -0.00313,   0.00127,   0.00069,373501376.00000,   0.00213,276943424.00000,  -0.00190,  -0.00016,   0.00153,-103442048.00000,   0.00000
-164493953.77022,242366086.60399,-64904979.26584,  -0.00312,   0.00127,   0.00069,371864736.00000,   0.00213,276943424.00000,  -0.00190,  -0.00016,   0.00153,-105078688.00000,   0.00000
-161678399.91509,242834615.78361,-65115160.58007,  -0.00311,   0.00126,   0.00069,370220704.00000,   0.00213,276943424.00000,  -0.00190,  -0.00016,   0.00153,-106722720.00000,   0.00000
-158838762.78437,243300955.57455,-65320963.11691,  -0.00310,   0.00126,   0.00068,368564480.00000,   0.00213,276943424.00000,  -0.00190,  -0.00016,   0.00153,-108378944.00000,   0.00000
-155990368.09889,243758537.81072,-65531144.43114,  -0.00308,   0.00126,   0.00068,366908320.00000,   0.00213,276943424.00000,  -0.00190,  -0.00016,   0.00153,-110035104.00000,   0.00000
-153139784.02472,244192036.77131,-65736946.96798,  -0.00307,   0.00125,   0.00068,365241024.00000,   0.00213,276943424.00000,  -0.00190,  -0.00016,   0.00153,-111702400.00000,   0.00000
-150280442.39580,244616778.17714,-65942749.50482,  -0.00306,   0.00125,   0.00068,363575264.00000,   0.00213,276943424.00000,  -0.00190,  -0.00016,   0.00153,-113368160.00000,   0.00000
-147418911.37818,245017436.30738,-66148552.04167,  -0.00305,   0.00124,   0.00067,361904608.00000,   0.00213,276943424.00000,  -0.00190,  -0.00016,   0.00153,-115038816.00000,   0.00000
-144533297.08497,245415905.04893,-66354354.57851,  -0.00304,   0.00124,   0.00067,360232704.00000,   0.00213,276943424.00000,  -0.00190,  -0.00016,   0.00153,-116710720.00000,   0.00000
-141654250.95784,245799048.06965,-66555778.33798,  -0.00302,   0.00124,   0.00067,358570176.00000,   0.00213,276943424.00000,  -0.00190,  -0.00016,   0.00153,-118373248.00000,   0.00000
-138773015.44201,246158107.81478,-66757202.09744,  -0.00301,   0.00123,   0.00067,356914336.00000,   0.00213,276943424.00000,  -0.00190,  -0.00016,   0.00153,-120029088.00000,   0.00000
-135883022.37143,246508410.00516,-66958625.85691,  -0.00300,   0.00123,   0.00066,355295808.00000,   0.00213,276943424.00000,  -0.00190,  -0.00016,   0.00153,-121647616.00000,   0.00000
-132968946.02526,246856522.80684,-67160049.61637,  -0.00299,   0.00122,   0.00066,353730304.00000,   0.00213,276943424.00000,  -0.00190,  -0.00016,   0.00153,-123213120.00000,   0.00000
-130068006.01122,247173984.16687,-67361473.37584,  -0.00297,   0.00122,   0.00066,352211776.00000,   0.00213,276943424.00000,  -0.00190,  -0.00016,   0.00153,-124731648.00000,   0.00000
-127142982.72160,247489256.13820,-67558518.35792,  -0.00296,   0.00122,   0.00066,350710432.00000,   0.00213,276943424.00000,  -0.00190,  -0.00016,   0.00153,-126232992.00000,   0.00000
-124224527.59805,247789202.38871,-67759942.11739,  -0.00295,   0.00121,   0.00065,349215872.00000,   0.00213,276943424.00000,  -0.00190,  -0.00016,   0.00153,-127727552.00000,   0.00000
-121303883.08580,248065065.36363,-67956987.09947,  -0.00294,   0.00121,   0.00065,347698912.00000,   0.00213,276943424.00000,  -0.00190,  -0.00016,   0.00153,-129244512.00000,   0.00000
-118359155.29797,248338738.94986,-68154032.08156,  -0.00292,   0.00120,   0.00065,346169472.00000,   0.00213,276943424.00000,  -0.00190,  -0.00016,   0.00153,-130773952.00000,   0.00000
-115420995.67621,248597086.81526,-68346698.28627,  -0.00291,   0.00120,   0.00065,344637728.00000,   0.00213,276943424.00000,  -0.00190,  -0.00016,   0.00153,-132305696.00000,   0.00000
-112480646.66576,248831351.40507,-68543743.26835,  -0.00290,   0.00119,   0.00064,343101408.00000,   0.00213,276943424.00000,  -0.00190,  -0.00016,   0.00153,-133842016.00000,   0.00000
-109531540.10055,249056858.44013,-68736409.47306,  -0.00288,   0.00119,   0.00064,341568096.00000,   0.00213,276943424.00000,  -0.00190,  -0.00016,   0.00153,-135375328.00000,   0.00000
-106573675.98058,249273607.92042,-68929075.67776,  -0.00287,   0.00118,   0.00064,340043872.00000,   0.00213,276943424.00000,  -0.00190,  -0.00016,   0.00153,-136899552.00000,   0.00000
-103607054.30585,249481599.84596,-69121741.88247,  -0.00286,   0.00118,   0.00064,338529376.00000,   0.00213,276943424.00000,  -0.00190,  -0.00016,   0.00153,-138414048.00000,   0.00000
-100638243.24243,249665508.49590,-69314408.08717,  -0.00284,   0.00117,   0.00063,337013696.00000,   0.00213,276943424.00000,  -0.00190,  -0.00016,   0.00153,-139929728.00000,   0.00000
-97660674.62425,249840659.59109,-69507074.29188,  -0.00283,   0.00117,   0.00063,335504672.00000,   0.00213,276943424.00000,  -0.00190,  -0.00016,   0.00153,-141438752.00000,   0.00000
-94680916.61739,249991727.41069,-69695361.71921,  -0.00282,   0.00116,   0.00063,333985344.00000,   0.00213,276943424.00000,  -0.00190,  -0.00016,   0.00153,-142958080.00000,   0.00000
