# sigma_xx, sigma_yy, sigma_xy, epsilon_xx, epsilon_yy, epsilon_xy, vonMises, epsPlastic, hardening, epsilonP__xx, epsilonP__yy, epsilonP__xy, yieldValue, iteration
   0.00000,   0.00000,   0.00000,   0.00000,   0.00000,   0.00000,   0.00000,   0.00000,274640135.82653,   0.00000,   0.00000,   0.00000,-474640135.82653,   0.00000
   0.00000,   0.00000,   0.00000,   0.00000,   0.00000,   0.00000,   0.00000,   0.00000,274640135.82653,   0.00000,   0.00000,   0.00000,-474640135.82653,   0.00000
1383730.14111,-1355081.48394,63027.04576,   0.00001,  -0.00001,   0.00000,2374434.51163,   0.00000,274640135.82653,   0.00000,   0.00000,   0.00000,-472265701.31490,   0.00000
2796108.93938,-2681514.31072,126054.09153,   0.00002,  -0.00002,   0.00000,4749128.26072,   0.00000,274640135.82653,   0.00000,   0.00000,   0.00000,-469891007.56581,   0.00000
4188433.67764,-4016541.73465,183351.40586,   0.00003,  -0.00003,   0.00000,7113329.46385,   0.00000,274640135.82653,   0.00000,   0.00000,   0.00000,-467526806.36268,   0.00000
5580758.41590,-5351569.15857,246378.45163,   0.00004,  -0.00004,   0.00000,9477978.61360,   0.00000,274640135.82653,   0.00000,   0.00000,   0.00000,-465162157.21293,   0.00000
6981677.75131,-6666542.52249,309405.49739,   0.00004,  -0.00004,   0.00000,11832897.37639,   0.00000,274640135.82653,   0.00000,   0.00000,   0.00000,-462807238.45014,   0.00000
8391191.68387,-7961461.82638,366702.81172,   0.00005,  -0.00005,   0.00000,14177677.43369,   0.00000,274640135.82653,   0.00000,   0.00000,   0.00000,-460462458.39284,   0.00000
9800705.61643,-9256381.13028,424000.12605,   0.00006,  -0.00006,   0.00001,16522494.27480,   0.00000,274640135.82653,   0.00000,   0.00000,   0.00000,-458117641.55173,   0.00000
11210219.54898,-10551300.43417,487027.17182,   0.00007,  -0.00007,   0.00001,18867775.27906,   0.00000,274640135.82653,   0.00000,   0.00000,   0.00000,-455772360.54747,   0.00000
12628328.07869,-11826165.67805,544324.48615,   0.00008,  -0.00008,   0.00001,21202981.68282,   0.00000,274640135.82653,   0.00000,   0.00000,   0.00000,-453437154.14371,   0.00000
14034977.14553,-13089571.45906,601621.80048,   0.00009,  -0.00009,   0.00001,23518400.18162,   0.00000,274640135.82653,   0.00000,   0.00000,   0.00000,-451121735.64491,   0.00000
15453085.67524,-14364436.70294,658919.11481,   0.00010,  -0.00010,   0.00001,25853670.78242,   0.00000,274640135.82653,   0.00000,   0.00000,   0.00000,-448786465.04411,   0.00000
16868329.33923,-15607788.42394,716216.42915,   0.00011,  -0.00010,   0.00001,28159542.03277,   0.00000,274640135.82653,   0.00000,   0.00000,   0.00000,-446480593.79376,   0.00000
18274978.40607,-16871194.20495,773513.74348,   0.00012,  -0.00011,   0.00001,30475034.20766,   0.00000,274640135.82653,   0.00000,   0.00000,   0.00000,-444165101.61887,   0.00000
19718870.72723,-18085897.26878,825081.32638,   0.00012,  -0.00012,   0.00001,32781233.81736,   0.00000,274640135.82653,   0.00000,   0.00000,   0.00000,-441858902.00917,   0.00000
21114060.33121,-19337843.58693,882378.64071,   0.00013,  -0.00013,   0.00001,35076942.72067,   0.00000,274640135.82653,   0.00000,   0.00000,   0.00000,-439563193.10586,   0.00000
22546493.18950,-20541087.18789,933946.22361,   0.00014,  -0.00014,   0.00001,37363442.92269,   0.00000,274640135.82653,   0.00000,   0.00000,   0.00000,-437276692.90384,   0.00000
23970331.45064,-21764384.84887,991243.53794,   0.00015,  -0.00015,   0.00001,39659960.25722,   0.00000,274640135.82653,   0.00000,   0.00000,   0.00000,-434980175.56931,   0.00000
25402764.30893,-22967628.44984,1042811.12084,   0.00016,  -0.00015,   0.00001,41946585.18273,   0.00000,274640135.82653,   0.00000,   0.00000,   0.00000,-432693550.64380,   0.00000
26823737.70435,-24159412.58793,1094378.70373,   0.00017,  -0.00016,   0.00001,44213446.61545,   0.00000,274640135.82653,   0.00000,   0.00000,   0.00000,-430426689.21108,   0.00000
28244711.09978,-25351196.72603,1145946.28663,   0.00018,  -0.00017,   0.00001,46480358.07508,   0.00000,274640135.82653,   0.00000,   0.00000,   0.00000,-428159777.75145,   0.00000
29685738.55522,-26534386.26698,1197513.86953,   0.00019,  -0.00018,   0.00002,48757683.49688,   0.00000,274640135.82653,   0.00000,   0.00000,   0.00000,-425882452.32965,   0.00000
31115306.54779,-27706116.34506,1249081.45243,   0.00020,  -0.00019,   0.00002,51015253.61340,   0.00000,274640135.82653,   0.00000,   0.00000,   0.00000,-423624882.21313,   0.00000
32553469.13752,-28857792.36313,1294919.30389,   0.00020,  -0.00019,   0.00002,53263047.54745,   0.00000,274640135.82653,   0.00000,   0.00000,   0.00000,-421377088.27908,   0.00000
33962983.07008,-30038117.03836,1346486.88679,   0.00021,  -0.00020,   0.00002,55510321.88222,   0.00000,274640135.82653,   0.00000,   0.00000,   0.00000,-419129813.94431,   0.00000
35409740.25695,-31169738.99641,1392324.73826,   0.00022,  -0.00021,   0.00002,57748856.26953,   0.00000,274640135.82653,   0.00000,   0.00000,   0.00000,-416891279.55700,   0.00000
36827848.78666,-32330009.61162,1438162.58972,   0.00023,  -0.00022,   0.00002,59986411.86046,   0.00000,274640135.82653,   0.00000,   0.00000,   0.00000,-414653723.96607,   0.00000
38283200.57068,-33441577.50966,1484000.44119,   0.00024,  -0.00023,   0.00002,62215753.17715,   0.00000,274640135.82653,   0.00000,   0.00000,   0.00000,-412424382.64938,   0.00000
39709903.69754,-34581794.06486,1529838.29265,   0.00025,  -0.00023,   0.00002,64444067.68680,   0.00000,274640135.82653,   0.00000,   0.00000,   0.00000,-410196068.13973,   0.00000
41125147.36153,-35710551.15719,1575676.14412,   0.00026,  -0.00024,   0.00002,66652615.50826,   0.00000,274640135.82653,   0.00000,   0.00000,   0.00000,-407987520.31827,   0.00000
42569039.68269,-36810659.59236,1615784.26415,   0.00027,  -0.00025,   0.00002,68861996.08223,   0.00000,274640135.82653,   0.00000,   0.00000,   0.00000,-405778139.74430,   0.00000
44012932.00384,-37910768.02753,1661622.11562,   0.00027,  -0.00026,   0.00002,71071875.84120,   0.00000,274640135.82653,   0.00000,   0.00000,   0.00000,-403568259.98533,   0.00000
45436770.26499,-39019471.05984,1701730.23565,   0.00028,  -0.00027,   0.00002,73270905.64266,   0.00000,274640135.82653,   0.00000,   0.00000,   0.00000,-401369230.18387,   0.00000
46869203.12328,-40108120.03214,1741838.35568,   0.00029,  -0.00027,   0.00002,75460725.68678,   0.00000,274640135.82653,   0.00000,   0.00000,   0.00000,-399179410.13975,   0.00000
48310230.57872,-41176714.94443,1781946.47571,   0.00030,  -0.00028,   0.00002,77641373.15472,   0.00000,274640135.82653,   0.00000,   0.00000,   0.00000,-396998762.67181,   0.00000
49751258.03416,-42245309.85671,1822054.59575,   0.00031,  -0.00029,   0.00002,79822119.99900,   0.00000,274640135.82653,   0.00000,   0.00000,   0.00000,-394818015.82753,   0.00000
51192285.48960,-43313904.76900,1862162.71578,   0.00032,  -0.00030,   0.00002,82002958.29133,   0.00000,274640135.82653,   0.00000,   0.00000,   0.00000,-392637177.53519,   0.00000
52621853.48217,-44371040.21842,1902270.83581,   0.00033,  -0.00030,   0.00002,84164071.63503,   0.00000,274640135.82653,   0.00000,   0.00000,   0.00000,-390476064.19150,   0.00000
54071475.53476,-45419581.07069,1936649.22441,   0.00033,  -0.00031,   0.00003,86335499.12094,   0.00000,274640135.82653,   0.00000,   0.00000,   0.00000,-388304636.70559,   0.00000
55501043.52734,-46476716.52010,1971027.61301,   0.00034,  -0.00032,   0.00003,88496396.12582,   0.00000,274640135.82653,   0.00000,   0.00000,   0.00000,-386143739.70071,   0.00000
56939206.11706,-47513797.90951,2005406.00161,   0.00035,  -0.00033,   0.00003,90648205.04177,   0.00000,274640135.82653,   0.00000,   0.00000,   0.00000,-383991930.78476,   0.00000
58365909.24392,-48539419.83604,2039784.39021,   0.00036,  -0.00033,   0.00003,92780300.57004,   0.00000,274640135.82653,   0.00000,   0.00000,   0.00000,-381859835.25649,   0.00000
59812666.43079,-49556447.16543,2074162.77881,   0.00037,  -0.00034,   0.00003,94923159.54877,   0.00000,274640135.82653,   0.00000,   0.00000,   0.00000,-379716976.27776,   0.00000
61239369.55765,-50582069.09197,2102811.43597,   0.00038,  -0.00035,   0.00003,97055064.61469,   0.00000,274640135.82653,   0.00000,   0.00000,   0.00000,-377585071.21184,   0.00000
62674667.28166,-51587636.95849,2137189.82457,   0.00039,  -0.00036,   0.00003,99178318.84583,   0.00000,274640135.82653,   0.00000,   0.00000,   0.00000,-375461816.98070,   0.00000
64109965.00567,-52593204.82501,2165838.48174,   0.00039,  -0.00036,   0.00003,101301302.54171,   0.00000,274640135.82653,   0.00000,   0.00000,   0.00000,-373338833.28482,   0.00000
65533803.26681,-53587313.22866,2194487.13890,   0.00040,  -0.00037,   0.00003,103404580.52626,   0.00000,274640135.82653,   0.00000,   0.00000,   0.00000,-371235555.30027,   0.00000
66977695.58796,-54572827.03516,2223135.79607,   0.00041,  -0.00038,   0.00003,105518691.95419,   0.00000,274640135.82653,   0.00000,   0.00000,   0.00000,-369121443.87234,   0.00000
68401533.84910,-55566935.43882,2246054.72180,   0.00042,  -0.00039,   0.00003,107621800.98717,   0.00000,274640135.82653,   0.00000,   0.00000,   0.00000,-367018334.83936,   0.00000
69833966.70740,-56540989.78246,2274703.37897,   0.00043,  -0.00039,   0.00003,109716319.91699,   0.00000,274640135.82653,   0.00000,   0.00000,   0.00000,-364923815.90954,   0.00000
71254940.10282,-57503584.66323,2297622.30470,   0.00044,  -0.00040,   0.00003,111790788.63582,   0.00000,274640135.82653,   0.00000,   0.00000,   0.00000,-362849347.19071,   0.00000
72695967.55826,-58457584.94685,2320541.23043,   0.00044,  -0.00041,   0.00003,113876153.65250,   0.00000,274640135.82653,   0.00000,   0.00000,   0.00000,-360763982.17403,   0.00000
74116940.95369,-59420179.82762,2343460.15616,   0.00045,  -0.00041,   0.00003,115950834.76772,   0.00000,274640135.82653,   0.00000,   0.00000,   0.00000,-358689301.05881,   0.00000
75537914.34911,-60382774.70839,2366379.08190,   0.00046,  -0.00042,   0.00003,118025607.81313,   0.00000,274640135.82653,   0.00000,   0.00000,   0.00000,-356614528.01340,   0.00000
76967482.34168,-61325315.52915,2383568.27620,   0.00047,  -0.00043,   0.00003,120091161.19031,   0.00000,274640135.82653,   0.00000,   0.00000,   0.00000,-354548974.63622,   0.00000
78385590.87139,-62256396.88704,2406487.20193,   0.00048,  -0.00044,   0.00003,122137372.68783,   0.00000,274640135.82653,   0.00000,   0.00000,   0.00000,-352502763.13870,   0.00000
79803699.40110,-63187478.24493,2423676.39623,   0.00049,  -0.00044,   0.00003,124183352.29267,   0.00000,274640135.82653,   0.00000,   0.00000,   0.00000,-350456783.53385,   0.00000
81221807.93081,-64118559.60282,2440865.59053,   0.00049,  -0.00045,   0.00003,126229436.25178,   0.00000,274640135.82653,   0.00000,   0.00000,   0.00000,-348410699.57475,   0.00000
82648511.05767,-65029586.90069,2458054.78483,   0.00050,  -0.00046,   0.00003,128266707.23354,   0.00000,274640135.82653,   0.00000,   0.00000,   0.00000,-346373428.59299,   0.00000
84075214.18452,-65940614.19856,2469514.24769,   0.00051,  -0.00046,   0.00003,130303772.02951,   0.00000,274640135.82653,   0.00000,   0.00000,   0.00000,-344336363.79702,   0.00000
85490457.84851,-66840182.03357,2486703.44199,   0.00052,  -0.00047,   0.00003,132321491.69421,   0.00000,274640135.82653,   0.00000,   0.00000,   0.00000,-342318644.13231,   0.00000
86905701.51251,-67739749.86857,2498162.90486,   0.00053,  -0.00048,   0.00003,134339002.54187,   0.00000,274640135.82653,   0.00000,   0.00000,   0.00000,-340301133.28466,   0.00000
88300891.11648,-68647912.30073,2509622.36773,   0.00054,  -0.00048,   0.00003,136345699.15454,   0.00000,274640135.82653,   0.00000,   0.00000,   0.00000,-338294436.67199,   0.00000
89724729.37762,-69527426.07572,2521081.83059,   0.00054,  -0.00049,   0.00003,138354570.17518,   0.00000,274640135.82653,   0.00000,   0.00000,   0.00000,-336285565.65135,   0.00000
91128513.57875,-70415534.44786,2526811.56203,   0.00055,  -0.00050,   0.00003,140352309.54903,   0.00000,274640135.82653,   0.00000,   0.00000,   0.00000,-334287826.27750,   0.00000
92532297.77987,-71303642.82000,2538271.02489,   0.00056,  -0.00050,   0.00003,142350461.82371,   0.00000,274640135.82653,   0.00000,   0.00000,   0.00000,-332289674.00282,   0.00000
93924622.51813,-72180291.72928,2544000.75632,   0.00057,  -0.00051,   0.00003,144328623.98971,   0.00000,274640135.82653,   0.00000,   0.00000,   0.00000,-330311511.83682,   0.00000
95325541.85354,-73036886.57853,2549730.48776,   0.00058,  -0.00052,   0.00003,146298085.75587,   0.00000,274640135.82653,   0.00000,   0.00000,   0.00000,-328342050.07066,   0.00000
96726461.18895,-73893481.42779,2555460.21919,   0.00058,  -0.00052,   0.00003,148267666.69066,   0.00000,274640135.82653,   0.00000,   0.00000,   0.00000,-326372469.13587,   0.00000
98127380.52436,-74750076.27705,2555460.21919,   0.00059,  -0.00053,   0.00003,150237069.39985,   0.00000,274640135.82653,   0.00000,   0.00000,   0.00000,-324403066.42668,   0.00000
99508245.79975,-75615265.72346,2561189.95062,   0.00060,  -0.00054,   0.00003,152195863.68323,   0.00000,274640135.82653,   0.00000,   0.00000,   0.00000,-322444272.14330,   0.00000
100917759.73231,-76451806.51270,2561189.95062,   0.00061,  -0.00054,   0.00003,154156728.91925,   0.00000,274640135.82653,   0.00000,   0.00000,   0.00000,-320483406.90728,   0.00000
102287165.54483,-77305536.49624,2561189.95062,   0.00062,  -0.00055,   0.00003,156095654.96573,   0.00000,274640135.82653,   0.00000,   0.00000,   0.00000,-318544480.86080,   0.00000
103685220.01452,-78130617.82262,2561189.95062,   0.00062,  -0.00056,   0.00003,158036981.97416,   0.00000,274640135.82653,   0.00000,   0.00000,   0.00000,-316603153.85236,   0.00000
105063220.42420,-78964293.74614,2555460.21919,   0.00063,  -0.00056,   0.00003,159967103.19006,   0.00000,274640135.82653,   0.00000,   0.00000,   0.00000,-314673032.63647,   0.00000
106449815.43103,-79777915.60965,2555460.21919,   0.00064,  -0.00057,   0.00003,161888895.68848,   0.00000,274640135.82653,   0.00000,   0.00000,   0.00000,-312751240.13805,   0.00000
107807761.78069,-80620186.13033,2549730.48776,   0.00065,  -0.00058,   0.00003,163808159.47193,   0.00000,274640135.82653,   0.00000,   0.00000,   0.00000,-310831976.35459,   0.00000
109202951.38466,-81413753.93382,2544000.75632,   0.00066,  -0.00058,   0.00003,165721217.57077,   0.00000,274640135.82653,   0.00000,   0.00000,   0.00000,-308918918.25576,   0.00000
110569492.33147,-82235970.39448,2538271.02489,   0.00066,  -0.00059,   0.00003,167631994.01800,   0.00000,274640135.82653,   0.00000,   0.00000,   0.00000,-307008141.80853,   0.00000
111924573.81541,-83046727.39227,2526811.56203,   0.00067,  -0.00060,   0.00003,169522839.32993,   0.00000,274640135.82653,   0.00000,   0.00000,   0.00000,-305117296.49660,   0.00000
113279655.29936,-83857484.39006,2521081.83059,   0.00068,  -0.00060,   0.00003,171414038.16414,   0.00000,274640135.82653,   0.00000,   0.00000,   0.00000,-303226097.66239,   0.00000
114643331.38045,-84648187.32784,2509622.36773,   0.00069,  -0.00061,   0.00003,173296433.46521,   0.00000,274640135.82653,   0.00000,   0.00000,   0.00000,-301343702.36132,   0.00000
116007007.46154,-85438890.26562,2498162.90486,   0.00069,  -0.00061,   0.00003,175178943.32439,   0.00000,274640135.82653,   0.00000,   0.00000,   0.00000,-299461192.50214,   0.00000
117350629.48262,-86238187.80054,2486703.44199,   0.00070,  -0.00062,   0.00003,177050422.14281,   0.00000,274640135.82653,   0.00000,   0.00000,   0.00000,-297589713.68372,   0.00000
118702846.10085,-87017431.27545,2469514.24769,   0.00071,  -0.00063,   0.00003,178913138.90505,   0.00000,274640135.82653,   0.00000,   0.00000,   0.00000,-295726996.92148,   0.00000
120055062.71907,-87796674.75036,2452325.05339,   0.00072,  -0.00063,   0.00003,180775969.55869,   0.00000,274640135.82653,   0.00000,   0.00000,   0.00000,-293864166.26784,   0.00000
121395819.87443,-88564458.76241,2440865.59053,   0.00073,  -0.00064,   0.00003,182619377.38519,   0.00000,274640135.82653,   0.00000,   0.00000,   0.00000,-292020758.44134,   0.00000
122736577.02979,-89332242.77445,2423676.39623,   0.00073,  -0.00065,   0.00003,184462660.87871,   0.00000,274640135.82653,   0.00000,   0.00000,   0.00000,-290177474.94782,   0.00000
124077334.18515,-90100026.78649,2400757.47050,   0.00074,  -0.00065,   0.00003,186305828.48745,   0.00000,274640135.82653,   0.00000,   0.00000,   0.00000,-288334307.33907,   0.00000
125398037.28050,-90876405.39569,2383568.27620,   0.00075,  -0.00066,   0.00003,188138129.77797,   0.00000,274640135.82653,   0.00000,   0.00000,   0.00000,-286502006.04856,   0.00000
126727334.97299,-91632729.94487,2360649.35046,   0.00076,  -0.00066,   0.00003,189961744.26654,   0.00000,274640135.82653,   0.00000,   0.00000,   0.00000,-284678391.55999,   0.00000
128036578.60547,-92397649.09119,2337730.42473,   0.00076,  -0.00067,   0.00003,191774254.86758,   0.00000,274640135.82653,   0.00000,   0.00000,   0.00000,-282865880.95895,   0.00000
129354416.83510,-93142514.17750,2314811.49900,   0.00077,  -0.00068,   0.00003,193578314.28873,   0.00000,274640135.82653,   0.00000,   0.00000,   0.00000,-281061821.53779,   0.00000
130663660.46757,-93907433.32383,2291892.57327,   0.00078,  -0.00068,   0.00003,195391006.69725,   0.00000,274640135.82653,   0.00000,   0.00000,   0.00000,-279249129.12928,   0.00000
131981498.69720,-94652298.41014,2263243.91610,   0.00079,  -0.00069,   0.00003,197195062.33945,   0.00000,274640135.82653,   0.00000,   0.00000,   0.00000,-277445073.48708,   0.00000
133287877.46396,-95385704.03359,2234595.25893,   0.00079,  -0.00069,   0.00003,198979469.02077,   0.00000,274640135.82653,   0.00000,   0.00000,   0.00000,-275660666.80576,   0.00000
134574202.17071,-96127704.25418,2211676.33320,   0.00080,  -0.00070,   0.00003,200752920.42254,   0.00000,274640135.82653,   0.00000,   0.00000,   0.00000,-273887215.40399,   0.00000
135880580.93747,-96861109.87763,2177297.94460,   0.00081,  -0.00071,   0.00003,202537336.41497,   0.00000,274640135.82653,   0.00000,   0.00000,   0.00000,-272102799.41156,   0.00000
137146851.58420,-97611704.69537,2148649.28744,   0.00081,  -0.00071,   0.00003,204299515.05330,   0.00000,274640135.82653,   0.00000,   0.00000,   0.00000,-270340620.77323,   0.00000
138441770.88809,-98333650.85595,2120000.63027,   0.00082,  -0.00072,   0.00003,206064550.05094,   0.00000,274640135.82653,   0.00000,   0.00000,   0.00000,-268575585.77559,   0.00000
139716636.13197,-99064191.61368,2085622.24167,   0.00083,  -0.00072,   0.00003,207818231.98629,   0.00000,274640135.82653,   0.00000,   0.00000,   0.00000,-266821903.84024,   0.00000
140991501.37585,-99794732.37141,2051243.85307,   0.00084,  -0.00073,   0.00003,209572001.99401,   0.00000,274640135.82653,   0.00000,   0.00000,   0.00000,-265068133.83252,   0.00000
142254907.15686,-100513813.66627,2016865.46447,   0.00084,  -0.00073,   0.00003,211306109.27734,   0.00000,274640135.82653,   0.00000,   0.00000,   0.00000,-263334026.54919,   0.00000
143518312.93788,-101232894.96113,1976757.34444,   0.00085,  -0.00074,   0.00003,213040142.17556,   0.00000,274640135.82653,   0.00000,   0.00000,   0.00000,-261599993.65097,   0.00000
144781718.71889,-101951976.25599,1942378.95584,   0.00086,  -0.00075,   0.00003,214774422.11505,   0.00000,274640135.82653,   0.00000,   0.00000,   0.00000,-259865713.71148,   0.00000
146033665.03704,-102659598.08799,1902270.83581,   0.00086,  -0.00075,   0.00002,216488885.78112,   0.00000,274640135.82653,   0.00000,   0.00000,   0.00000,-258151250.04540,   0.00000
147285611.35518,-103367219.91998,1862162.71578,   0.00087,  -0.00076,   0.00002,218203438.55264,   0.00000,274640135.82653,   0.00000,   0.00000,   0.00000,-256436697.27389,   0.00000
148517503.61331,-104083436.34913,1822054.59575,   0.00088,  -0.00076,   0.00002,219906758.38794,   0.00000,274640135.82653,   0.00000,   0.00000,   0.00000,-254733377.43859,   0.00000
149749395.87144,-104799652.77828,1781946.47571,   0.00089,  -0.00077,   0.00002,221610152.01727,   0.00000,274640135.82653,   0.00000,   0.00000,   0.00000,-253029983.80926,   0.00000
150989882.72672,-105495815.14740,1736108.62425,   0.00089,  -0.00077,   0.00002,223305070.86982,   0.00000,274640135.82653,   0.00000,   0.00000,   0.00000,-251335064.95671,   0.00000
152210315.52199,-106200572.11368,1696000.50422,   0.00090,  -0.00078,   0.00002,224988874.19547,   0.00000,274640135.82653,   0.00000,   0.00000,   0.00000,-249651261.63106,   0.00000
153430748.31725,-106905329.07996,1650162.65275,   0.00091,  -0.00079,   0.00002,226672622.22216,   0.00000,274640135.82653,   0.00000,   0.00000,   0.00000,-247967513.60437,   0.00000
154639721.64965,-107598626.58338,1604324.80129,   0.00091,  -0.00079,   0.00002,228336705.75151,   0.00000,274640135.82653,   0.00000,   0.00000,   0.00000,-246303430.07502,   0.00000
155848694.98204,-108291924.08679,1552757.21839,   0.00092,  -0.00080,   0.00002,230000749.47918,   0.00000,274640135.82653,   0.00000,   0.00000,   0.00000,-244639386.34735,   0.00000
157037614.25443,-108993816.18735,1506919.36692,   0.00093,  -0.00080,   0.00002,231653632.68960,   0.00000,274640135.82653,   0.00000,   0.00000,   0.00000,-242986503.13693,   0.00000
158226533.52681,-109695708.28791,1455351.78402,   0.00093,  -0.00081,   0.00002,233306472.56411,   0.00000,274640135.82653,   0.00000,   0.00000,   0.00000,-241333663.26242,   0.00000
159424047.39634,-110377546.32846,1403784.20113,   0.00094,  -0.00081,   0.00002,234951008.99833,   0.00000,274640135.82653,   0.00000,   0.00000,   0.00000,-239689126.82820,   0.00000
160601507.20585,-111067978.96616,1352216.61823,   0.00095,  -0.00082,   0.00002,236584256.36977,   0.00000,274640135.82653,   0.00000,   0.00000,   0.00000,-238055879.45676,   0.00000
161778967.01537,-111758411.60385,1300649.03533,   0.00095,  -0.00082,   0.00002,238217573.19951,   0.00000,274640135.82653,   0.00000,   0.00000,   0.00000,-236422562.62702,   0.00000
162944967.36202,-112437384.77868,1249081.45243,   0.00096,  -0.00083,   0.00002,239831220.84277,   0.00000,274640135.82653,   0.00000,   0.00000,   0.00000,-234808914.98375,   0.00000
164102373.11152,-113136412.01353,1191784.13810,   0.00097,  -0.00083,   0.00002,241453207.32838,   0.00000,274640135.82653,   0.00000,   0.00000,   0.00000,-233186928.49815,   0.00000
165268373.45817,-113815385.18836,1140216.55520,   0.00097,  -0.00084,   0.00001,243066988.78510,   0.00000,274640135.82653,   0.00000,   0.00000,   0.00000,-231573147.04143,   0.00000
166394265.68478,-114511547.55749,1082919.24087,   0.00098,  -0.00085,   0.00001,244657984.10698,   0.00000,274640135.82653,   0.00000,   0.00000,   0.00000,-229982151.71955,   0.00000
167548806.56856,-115179061.26945,1025621.92654,   0.00099,  -0.00085,   0.00001,246252083.63759,   0.00000,274640135.82653,   0.00000,   0.00000,   0.00000,-228388052.18894,   0.00000
168674698.79518,-115875223.63858,962594.88077,   0.00099,  -0.00086,   0.00001,247843135.22612,   0.00000,274640135.82653,   0.00000,   0.00000,   0.00000,-226797000.60041,   0.00000
169809185.61895,-116551331.94769,905297.56644,   0.00100,  -0.00086,   0.00001,249425976.89744,   0.00000,274640135.82653,   0.00000,   0.00000,   0.00000,-225214158.92909,   0.00000
170923618.38270,-117236034.85396,842270.52068,   0.00101,  -0.00087,   0.00001,250997423.75228,   0.00000,274640135.82653,   0.00000,   0.00000,   0.00000,-223642712.07425,   0.00000
172026591.68358,-117909278.29735,779243.47491,   0.00101,  -0.00087,   0.00001,252549201.32405,   0.00000,274640135.82653,   0.00000,   0.00000,   0.00000,-222090934.50248,   0.00000
173141024.44733,-118593981.20362,721946.16058,   0.00102,  -0.00088,   0.00001,254120825.08534,   0.00000,274640135.82653,   0.00000,   0.00000,   0.00000,-220519310.74119,   0.00000
174223943.68820,-119275819.24416,653189.38338,   0.00103,  -0.00088,   0.00001,255661274.33600,   0.00000,274640135.82653,   0.00000,   0.00000,   0.00000,-218978861.49053,   0.00000
175326916.98908,-119949062.68756,590162.33762,   0.00103,  -0.00089,   0.00001,257213237.78533,   0.00000,274640135.82653,   0.00000,   0.00000,   0.00000,-217426898.04119,   0.00000
176389782.16994,-120639495.32526,527135.29185,   0.00104,  -0.00089,   0.00001,258742441.44061,   0.00000,274640135.82653,   0.00000,   0.00000,   0.00000,-215897694.38591,   0.00000
177481296.00795,-121301279.30579,458378.51465,   0.00104,  -0.00090,   0.00001,260274757.48732,   0.00000,274640135.82653,   0.00000,   0.00000,   0.00000,-214365378.33921,   0.00000
178524107.12879,-122000306.54063,389621.73746,   0.00105,  -0.00090,   0.00001,261792633.26541,   0.00000,274640135.82653,   0.00000,   0.00000,   0.00000,-212847502.56112,   0.00000
179595566.90679,-122670685.11831,320864.96026,   0.00106,  -0.00091,   0.00000,263313662.27297,   0.00000,274640135.82653,   0.00000,   0.00000,   0.00000,-211326473.55356,   0.00000
180646972.62478,-123349658.29314,252108.18306,   0.00106,  -0.00091,   0.00000,264823337.22710,   0.00000,274640135.82653,   0.00000,   0.00000,   0.00000,-209816798.59943,   0.00000
181686918.87989,-124017172.00511,183351.40586,   0.00107,  -0.00092,   0.00000,266313338.32017,   0.00000,274640135.82653,   0.00000,   0.00000,   0.00000,-208326797.50636,   0.00000
182718270.53786,-124704739.77708,114594.62866,   0.00107,  -0.00092,   0.00000,267811710.51123,   0.00000,274640135.82653,   0.00000,   0.00000,   0.00000,-206828425.31530,   0.00000
183738162.73297,-125380848.08620,40108.12003,   0.00108,  -0.00093,   0.00000,269290402.73754,   0.00000,274640135.82653,   0.00000,   0.00000,   0.00000,-205349733.08899,   0.00000
184758054.92807,-126056956.39531,-28648.65717,   0.00109,  -0.00093,  -0.00000,270769155.65190,   0.00000,274640135.82653,   0.00000,   0.00000,   0.00000,-203870980.17463,   0.00000
185757893.06316,-126741659.30157,-103135.16580,   0.00109,  -0.00094,  -0.00000,272236548.87534,   0.00000,274640135.82653,   0.00000,   0.00000,   0.00000,-202403586.95119,   0.00000
186757731.19824,-127426362.20784,-177621.67443,   0.00110,  -0.00094,  -0.00000,273704002.34012,   0.00000,274640135.82653,   0.00000,   0.00000,   0.00000,-200936133.48641,   0.00000
187757569.33333,-128111065.11410,-252108.18306,   0.00110,  -0.00095,  -0.00000,275171515.08244,   0.00000,274640135.82653,   0.00000,   0.00000,   0.00000,-199468620.74409,   0.00000
188745948.00555,-128784308.55750,-326594.69169,   0.00111,  -0.00095,  -0.00000,276619354.74285,   0.00000,274640135.82653,   0.00000,   0.00000,   0.00000,-198020781.08368,   0.00000
189714272.61776,-129466146.59804,-406810.93175,   0.00112,  -0.00096,  -0.00001,278055858.89476,   0.00000,274640135.82653,   0.00000,   0.00000,   0.00000,-196584276.93177,   0.00000
190682597.22996,-130147984.63859,-481297.44039,   0.00112,  -0.00096,  -0.00001,279492399.66171,   0.00000,274640135.82653,   0.00000,   0.00000,   0.00000,-195147736.16482,   0.00000
191630867.78215,-130838417.27629,-561513.68045,   0.00113,  -0.00097,  -0.00001,280917614.71478,   0.00000,274640135.82653,   0.00000,   0.00000,   0.00000,-193722521.11175,   0.00000
192579138.33434,-131528849.91398,-636000.18908,   0.00113,  -0.00097,  -0.00001,282342857.09498,   0.00000,274640135.82653,   0.00000,   0.00000,   0.00000,-192297278.73155,   0.00000
193507354.82651,-132227877.14883,-716216.42915,   0.00114,  -0.00098,  -0.00001,283756785.83349,   0.00000,274640135.82653,   0.00000,   0.00000,   0.00000,-190883349.99304,   0.00000
194444165.91583,-132906850.32366,-796432.66921,   0.00114,  -0.00098,  -0.00001,285162460.87508,   0.00000,274640135.82653,   0.00000,   0.00000,   0.00000,-189477674.95145,   0.00000
195360922.94514,-133594418.09564,-876648.90927,   0.00115,  -0.00099,  -0.00001,286556788.64704,   0.00000,274640135.82653,   0.00000,   0.00000,   0.00000,-188083347.17949,   0.00000
196257625.91443,-134290580.46477,-962594.88077,   0.00115,  -0.00099,  -0.00001,287939830.52459,   0.00000,274640135.82653,   0.00000,   0.00000,   0.00000,-186700305.30194,   0.00000
197174382.94374,-134978148.23675,-1042811.12084,   0.00116,  -0.00100,  -0.00001,289334293.24094,   0.00000,274640135.82653,   0.00000,   0.00000,   0.00000,-185305842.58559,   0.00000
198051031.85301,-135682905.20303,-1123027.36090,   0.00117,  -0.00100,  -0.00001,290706011.17625,   0.00000,274640135.82653,   0.00000,   0.00000,   0.00000,-183934124.65028,   0.00000
198927680.76228,-136387662.16930,-1208973.33240,   0.00117,  -0.00101,  -0.00002,292077871.01209,   0.00000,274640135.82653,   0.00000,   0.00000,   0.00000,-182562264.81444,   0.00000
199804329.67156,-137092419.13558,-1294919.30389,   0.00118,  -0.00101,  -0.00002,293449809.84215,   0.00000,274640135.82653,   0.00000,   0.00000,   0.00000,-181190325.98438,   0.00000
200669519.11797,-137785716.63900,-1375135.54396,   0.00118,  -0.00102,  -0.00002,294802011.70501,   0.00000,274640135.82653,   0.00000,   0.00000,   0.00000,-179838124.12152,   0.00000
201514654.50436,-138487608.73956,-1461081.51546,   0.00119,  -0.00102,  -0.00002,296142973.34275,   0.00000,274640135.82653,   0.00000,   0.00000,   0.00000,-178497162.48378,   0.00000
202359789.89075,-139189500.84012,-1547027.48695,   0.00119,  -0.00103,  -0.00002,297484015.93345,   0.00000,274640135.82653,   0.00000,   0.00000,   0.00000,-177156119.89308,   0.00000
203184871.21712,-139899987.53783,-1632973.45845,   0.00120,  -0.00103,  -0.00002,298813753.30246,   0.00000,274640135.82653,   0.00000,   0.00000,   0.00000,-175826382.52407,   0.00000
204009952.54350,-140610474.23555,-1718919.42995,   0.00120,  -0.00104,  -0.00002,300143576.35885,   0.00000,274640135.82653,   0.00000,   0.00000,   0.00000,-174496559.46768,   0.00000
204814979.80986,-141329555.53041,-1804865.40145,   0.00121,  -0.00104,  -0.00002,301462106.90696,   0.00000,274640135.82653,   0.00000,   0.00000,   0.00000,-173178028.91957,   0.00000
205620007.07622,-142048636.82527,-1896541.10438,   0.00121,  -0.00105,  -0.00002,302780836.32820,   0.00000,274640135.82653,   0.00000,   0.00000,   0.00000,-171859299.49833,   0.00000
206413574.87971,-142756258.65727,-1982487.07587,   0.00122,  -0.00105,  -0.00003,304079814.73843,   0.00000,274640135.82653,   0.00000,   0.00000,   0.00000,-170560321.08810,   0.00000
207178494.02604,-143492529.14643,-2074162.77881,   0.00122,  -0.00106,  -0.00003,305376008.96924,   0.00000,274640135.82653,   0.00000,   0.00000,   0.00000,-169264126.85729,   0.00000
207952007.76952,-144208745.57557,-2160108.75030,   0.00123,  -0.00106,  -0.00003,306663816.29670,   0.00000,274640135.82653,   0.00000,   0.00000,   0.00000,-167976319.52983,   0.00000
208705467.45298,-144933556.60187,-2251784.45323,   0.00123,  -0.00107,  -0.00003,307940489.79295,   0.00000,274640135.82653,   0.00000,   0.00000,   0.00000,-166699646.03358,   0.00000
209450332.53929,-145678421.68818,-2343460.15616,   0.00124,  -0.00107,  -0.00003,309225667.80472,   0.00000,274640135.82653,   0.00000,   0.00000,   0.00000,-165414468.02181,   0.00000
210183738.16273,-146411827.31162,-2429406.12766,   0.00124,  -0.00108,  -0.00003,310491091.95399,   0.00000,274640135.82653,   0.00000,   0.00000,   0.00000,-164149043.87254,   0.00000
210917143.78618,-147145232.93507,-2521081.83059,   0.00125,  -0.00108,  -0.00003,311756765.65496,   0.00000,274640135.82653,   0.00000,   0.00000,   0.00000,-162883370.17157,   0.00000
211639089.94676,-147867179.09565,-2612757.53352,   0.00125,  -0.00109,  -0.00003,313002814.31607,   0.00000,274640135.82653,   0.00000,   0.00000,   0.00000,-161637321.51046,   0.00000
212332387.45017,-148617773.91339,-2704433.23645,   0.00126,  -0.00109,  -0.00004,314246072.55018,   0.00000,274640135.82653,   0.00000,   0.00000,   0.00000,-160394063.27635,   0.00000
213025684.95358,-149368368.73114,-2796108.93938,   0.00126,  -0.00110,  -0.00004,315489470.12903,   0.00000,274640135.82653,   0.00000,   0.00000,   0.00000,-159150665.69750,   0.00000
213698928.39698,-150127558.14603,-2887784.64231,   0.00127,  -0.00110,  -0.00004,316721694.72897,   0.00000,274640135.82653,   0.00000,   0.00000,   0.00000,-157918441.09756,   0.00000
214380766.43753,-150866693.50091,-2979460.34524,   0.00127,  -0.00110,  -0.00004,317945626.10721,   0.00000,274640135.82653,   0.00000,   0.00000,   0.00000,-156694509.71932,   0.00000
215033955.82091,-151634477.51295,-3071136.04818,   0.00127,  -0.00111,  -0.00004,319166843.66478,   0.00000,274640135.82653,   0.00000,   0.00000,   0.00000,-155473292.16175,   0.00000
215675685.74142,-152390802.06213,-3168541.48254,   0.00128,  -0.00111,  -0.00004,320368643.40005,   0.00000,274640135.82653,   0.00000,   0.00000,   0.00000,-154271492.42648,   0.00000
216317415.66193,-153147126.61131,-3260217.18547,   0.00128,  -0.00112,  -0.00004,321570434.58760,   0.00000,274640135.82653,   0.00000,   0.00000,   0.00000,-153069701.23893,   0.00000
216930496.92528,-153932099.81765,-3351892.88840,   0.00129,  -0.00112,  -0.00004,322769583.93647,   0.00000,274640135.82653,   0.00000,   0.00000,   0.00000,-151870551.89006,   0.00000
217552172.78578,-154697018.96398,-3443568.59133,   0.00129,  -0.00113,  -0.00004,323960433.77731,   0.00000,274640135.82653,   0.00000,   0.00000,   0.00000,-150679702.04922,   0.00000
218153794.58626,-155470532.70746,-3540974.02569,   0.00130,  -0.00113,  -0.00005,325140380.11351,   0.00000,274640135.82653,   0.00000,   0.00000,   0.00000,-149499755.71302,   0.00000
218735362.32673,-156252641.04808,-3632649.72863,   0.00130,  -0.00114,  -0.00005,326309075.95870,   0.00000,274640135.82653,   0.00000,   0.00000,   0.00000,-148331059.86783,   0.00000
219316930.06720,-157034749.38871,-3724325.43156,   0.00130,  -0.00114,  -0.00005,327477967.62414,   0.00000,274640135.82653,   0.00000,   0.00000,   0.00000,-147162168.20239,   0.00000
219878443.74765,-157825452.32649,-3821730.86592,   0.00131,  -0.00115,  -0.00005,328636022.29320,   0.00000,274640135.82653,   0.00000,   0.00000,   0.00000,-146004113.53333,   0.00000
220439957.42810,-158616155.26426,-3913406.56885,   0.00131,  -0.00115,  -0.00005,329794090.77256,   0.00000,274640135.82653,   0.00000,   0.00000,   0.00000,-144846045.05397,   0.00000
220981417.04853,-159415452.79919,-4010812.00321,   0.00132,  -0.00116,  -0.00005,330941363.03841,   0.00000,274640135.82653,   0.00000,   0.00000,   0.00000,-143698772.78812,   0.00000
221502822.60895,-160223344.93126,-4102487.70614,   0.00132,  -0.00116,  -0.00005,332077453.39145,   0.00000,274640135.82653,   0.00000,   0.00000,   0.00000,-142562682.43508,   0.00000
222024228.16937,-161031237.06334,-4199893.14051,   0.00132,  -0.00117,  -0.00005,333214001.25396,   0.00000,274640135.82653,   0.00000,   0.00000,   0.00000,-141426134.57257,   0.00000
222525579.66977,-161847723.79257,-4291568.84344,   0.00133,  -0.00117,  -0.00006,334339394.25199,   0.00000,274640135.82653,   0.00000,   0.00000,   0.00000,-140300741.57454,   0.00000
223006877.11015,-162672805.11894,-4383244.54637,   0.00133,  -0.00118,  -0.00006,335453873.91156,   0.00000,274640135.82653,   0.00000,   0.00000,   0.00000,-139186261.91497,   0.00000
223496769.14769,-163477832.38530,-4480649.98073,   0.00134,  -0.00118,  -0.00006,336560252.46452,   0.00000,274640135.82653,   0.00000,   0.00000,   0.00000,-138079883.36201,   0.00000
223958012.52806,-164311508.30883,-4572325.68366,   0.00134,  -0.00118,  -0.00006,337664123.73991,   0.00000,274640135.82653,   0.00000,   0.00000,   0.00000,-136976012.08661,   0.00000
224399201.84841,-165153778.82950,-4669731.11803,   0.00134,  -0.00119,  -0.00006,338757387.77125,   0.00000,274640135.82653,   0.00000,   0.00000,   0.00000,-135882748.05528,   0.00000
224840391.16877,-165996049.35018,-4761406.82096,   0.00135,  -0.00119,  -0.00006,339850731.28345,   0.00000,274640135.82653,   0.00000,   0.00000,   0.00000,-134789404.54308,   0.00000
225270121.02625,-166826860.40799,-4858812.25532,   0.00135,  -0.00120,  -0.00006,340924859.73437,   0.00000,274640135.82653,   0.00000,   0.00000,   0.00000,-133715276.09216,   0.00000
225691256.28659,-167677725.52581,-4950487.95825,   0.00135,  -0.00120,  -0.00006,342007721.14091,   0.00000,274640135.82653,   0.00000,   0.00000,   0.00000,-132632414.68562,   0.00000
226092337.48691,-168537185.24078,-5042163.66118,   0.00136,  -0.00121,  -0.00007,343079822.03402,   0.00000,274640135.82653,   0.00000,   0.00000,   0.00000,-131560313.79251,   0.00000
226481959.22437,-169385185.49289,-5139569.09555,   0.00136,  -0.00121,  -0.00007,344132755.05834,   0.00000,274640135.82653,   0.00000,   0.00000,   0.00000,-130507380.76819,   0.00000
226842932.30466,-170261834.40217,-5231244.79848,   0.00136,  -0.00122,  -0.00007,345183429.11030,   0.00000,274640135.82653,   0.00000,   0.00000,   0.00000,-129456706.71623,   0.00000
227203905.38494,-171138483.31144,-5322920.50141,   0.00137,  -0.00122,  -0.00007,346234497.57400,   0.00000,274640135.82653,   0.00000,   0.00000,   0.00000,-128405638.25253,   0.00000
227553419.00237,-172003672.75785,-5414596.20434,   0.00137,  -0.00123,  -0.00007,347266179.34236,   0.00000,274640135.82653,   0.00000,   0.00000,   0.00000,-127373956.48417,   0.00000
227894338.02264,-172888916.26427,-5506271.90727,   0.00137,  -0.00123,  -0.00007,348307003.78296,   0.00000,274640135.82653,   0.00000,   0.00000,   0.00000,-126333132.04357,   0.00000
228215202.98290,-173782754.36785,-5597947.61020,   0.00138,  -0.00124,  -0.00007,349337232.77590,   0.00000,274640135.82653,   0.00000,   0.00000,   0.00000,-125302903.05063,   0.00000
228516013.88314,-174685187.06857,-5695353.04456,   0.00138,  -0.00124,  -0.00007,350357184.81925,   0.00000,274640135.82653,   0.00000,   0.00000,   0.00000,-124282951.00728,   0.00000
228825419.38053,-175567565.70928,-5787028.74750,   0.00138,  -0.00125,  -0.00008,351368515.43924,   0.00000,274640135.82653,   0.00000,   0.00000,   0.00000,-123271620.38729,   0.00000
229086122.16074,-176487187.60430,-5872974.71899,   0.00139,  -0.00125,  -0.00008,352366882.19893,   0.00000,274640135.82653,   0.00000,   0.00000,   0.00000,-122273253.62760,   0.00000
229366879.00096,-177398214.90217,-5964650.42192,   0.00139,  -0.00125,  -0.00008,353376991.17167,   0.00000,274640135.82653,   0.00000,   0.00000,   0.00000,-121263144.65486,   0.00000
229607527.72116,-178326431.39434,-6056326.12485,   0.00139,  -0.00126,  -0.00008,354365716.76482,   0.00000,274640135.82653,   0.00000,   0.00000,   0.00000,-120274419.06171,   0.00000
229856771.03850,-179234593.82650,-6148001.82778,   0.00140,  -0.00126,  -0.00008,355346103.94822,   0.00000,274640135.82653,   0.00000,   0.00000,   0.00000,-119294031.87831,   0.00000
230077365.69868,-180171404.91582,-6233947.79928,   0.00140,  -0.00127,  -0.00008,356324680.43757,   0.00000,274640135.82653,   0.00000,   0.00000,   0.00000,-118315455.38896,   0.00000
230297960.35885,-181108216.00515,-6325623.50221,   0.00140,  -0.00127,  -0.00008,357304113.79986,   0.00000,274640135.82653,   0.00000,   0.00000,   0.00000,-117336022.02667,   0.00000
230478446.89900,-182062216.28877,-6411569.47371,   0.00140,  -0.00128,  -0.00008,358262064.14233,   0.00000,274640135.82653,   0.00000,   0.00000,   0.00000,-116378071.68420,   0.00000
230658933.43914,-183016216.57239,-6503245.17664,   0.00141,  -0.00128,  -0.00008,359220936.21320,   0.00000,274640135.82653,   0.00000,   0.00000,   0.00000,-115419199.61332,   0.00000
230839419.97929,-183970216.85601,-6589191.14814,   0.00141,  -0.00129,  -0.00009,360180106.30640,   0.00000,274640135.82653,   0.00000,   0.00000,   0.00000,-114460029.52013,   0.00000
230999852.45942,-184932811.73678,-6675137.11964,   0.00141,  -0.00129,  -0.00009,361129064.58210,   0.00000,274640135.82653,   0.00000,   0.00000,   0.00000,-113511071.24443,   0.00000
231140230.87953,-185904001.21470,-6761083.09113,   0.00141,  -0.00130,  -0.00009,362067858.96371,   0.00000,274640135.82653,   0.00000,   0.00000,   0.00000,-112572276.86282,   0.00000
231260555.23962,-186883785.28977,-6847029.06263,   0.00142,  -0.00130,  -0.00009,362996538.53215,   0.00000,274640135.82653,   0.00000,   0.00000,   0.00000,-111643597.29438,   0.00000
231372285.00257,-187883623.42486,-6932975.03413,   0.00142,  -0.00131,  -0.00009,363934955.60802,   0.00000,274640135.82653,   0.00000,   0.00000,   0.00000,-110705180.21851,   0.00000
231452501.24264,-188880596.69423,-7018921.00563,   0.00142,  -0.00131,  -0.00009,364843558.85279,   0.00000,274640135.82653,   0.00000,   0.00000,   0.00000,-109796576.97374,   0.00000
231552771.54272,-189868975.36645,-7104866.97712,   0.00142,  -0.00132,  -0.00009,365763637.74463,   0.00000,274640135.82653,   0.00000,   0.00000,   0.00000,-108876498.08190,   0.00000
231604339.12561,-190894597.29299,-7185083.21719,   0.00143,  -0.00132,  -0.00009,366671802.14556,   0.00000,274640135.82653,   0.00000,   0.00000,   0.00000,-107968333.68097,   0.00000
231664501.30566,-191900165.15951,-7271029.18868,   0.00143,  -0.00132,  -0.00009,367571998.67779,   0.00000,274640135.82653,   0.00000,   0.00000,   0.00000,-107068137.14874,   0.00000
231696014.82855,-192934381.68319,-7351245.42875,   0.00143,  -0.00133,  -0.00010,368471123.30598,   0.00000,274640135.82653,   0.00000,   0.00000,   0.00000,-106169012.52055,   0.00000
231716068.88856,-193957138.74401,-7431461.66881,   0.00143,  -0.00133,  -0.00010,369351287.85639,   0.00000,274640135.82653,   0.00000,   0.00000,   0.00000,-105288847.97014,   0.00000
231727528.35143,-194999949.86485,-7511677.90888,   0.00143,  -0.00134,  -0.00010,370241488.98929,   0.00000,274640135.82653,   0.00000,   0.00000,   0.00000,-104398646.83724,   0.00000
231727528.35143,-196031301.52282,-7591894.14894,   0.00144,  -0.00134,  -0.00010,371112756.61757,   0.00000,274640135.82653,   0.00000,   0.00000,   0.00000,-103527379.20896,   0.00000
231698879.69426,-197091301.83795,-7672110.38901,   0.00144,  -0.00135,  -0.00010,371983561.16710,   0.00000,274640135.82653,   0.00000,   0.00000,   0.00000,-102656574.65943,   0.00000
231670231.03710,-198151302.15309,-7752326.62907,   0.00144,  -0.00135,  -0.00010,372855317.98319,   0.00000,274640135.82653,   0.00000,   0.00000,   0.00000,-101784817.84334,   0.00000
231601474.25990,-199228491.66252,-7826813.13770,   0.00144,  -0.00136,  -0.00010,373706601.71420,   0.00000,274640135.82653,   0.00000,   0.00000,   0.00000,-100933534.11233,   0.00000
231532717.48270,-200305681.17196,-7901299.64633,   0.00144,  -0.00136,  -0.00010,374558907.87960,   0.00000,274640135.82653,   0.00000,   0.00000,   0.00000,-100081227.94693,   0.00000
231463960.70550,-201382870.68139,-7981515.88640,   0.00145,  -0.00137,  -0.00010,375412594.83807,   0.00000,274640135.82653,   0.00000,   0.00000,   0.00000,-99227540.98846,   0.00000
231355095.80827,-202477249.38513,-8056002.39503,   0.00145,  -0.00137,  -0.00010,376246007.06091,   0.00000,274640135.82653,   0.00000,   0.00000,   0.00000,-98394128.76562,   0.00000
231246230.91104,-203571628.08886,-8124759.17223,   0.00145,  -0.00138,  -0.00011,377080142.57463,   0.00000,274640135.82653,   0.00000,   0.00000,   0.00000,-97559993.25189,   0.00000
231108717.35665,-204694655.44976,-8199245.68086,   0.00145,  -0.00138,  -0.00011,377914730.28699,   0.00000,274640135.82653,   0.00000,   0.00000,   0.00000,-96725405.53954,   0.00000
230979798.39940,-205797628.75065,-8268002.45805,   0.00145,  -0.00139,  -0.00011,378740683.92748,   0.00000,274640135.82653,   0.00000,   0.00000,   0.00000,-95899451.89905,   0.00000
230802176.72497,-206937845.30585,-8342488.96669,   0.00145,  -0.00139,  -0.00011,379556864.13323,   0.00000,274640135.82653,   0.00000,   0.00000,   0.00000,-95083271.69330,   0.00000
230633149.64769,-208058007.80103,-8411245.74388,   0.00146,  -0.00140,  -0.00011,380364437.27038,   0.00000,274640135.82653,   0.00000,   0.00000,   0.00000,-94275698.55614,   0.00000
230435473.91325,-209206818.95338,-8480002.52108,   0.00146,  -0.00140,  -0.00011,381172407.88637,   0.00000,274640135.82653,   0.00000,   0.00000,   0.00000,-93467727.94016,   0.00000
230237798.17880,-210355630.10573,-8548759.29828,   0.00146,  -0.00141,  -0.00011,381981669.44774,   0.00000,274640135.82653,   0.00000,   0.00000,   0.00000,-92658466.37879,   0.00000
230000014.32433,-211521630.45238,-8611786.34404,   0.00146,  -0.00141,  -0.00011,382771306.87198,   0.00000,274640135.82653,   0.00000,   0.00000,   0.00000,-91868828.95455,   0.00000
229762230.46985,-212687630.79903,-8674813.38981,   0.00146,  -0.00142,  -0.00011,383562318.86508,   0.00000,274640135.82653,   0.00000,   0.00000,   0.00000,-91077816.96144,   0.00000
229524446.61538,-213853631.14567,-8743570.16701,   0.00146,  -0.00142,  -0.00011,384355087.84388,   0.00000,274640135.82653,   0.00000,   0.00000,   0.00000,-90285047.98264,   0.00000
229246554.64087,-215036820.68662,-8806597.21277,   0.00146,  -0.00143,  -0.00011,385128466.60882,   0.00000,274640135.82653,   0.00000,   0.00000,   0.00000,-89511669.21771,   0.00000
228960068.06921,-216240064.28759,-8863894.52710,   0.00146,  -0.00143,  -0.00012,385912585.81510,   0.00000,274640135.82653,   0.00000,   0.00000,   0.00000,-88727550.01143,   0.00000
228662122.03469,-217431848.42568,-8926921.57287,   0.00146,  -0.00144,  -0.00012,386678771.60307,   0.00000,274640135.82653,   0.00000,   0.00000,   0.00000,-87961364.22346,   0.00000
228335527.34299,-218652281.22095,-8984218.88720,   0.00147,  -0.00144,  -0.00012,387445693.78753,   0.00000,274640135.82653,   0.00000,   0.00000,   0.00000,-87194442.03900,   0.00000
227997473.18844,-219861254.55335,-9041516.20153,   0.00147,  -0.00144,  -0.00012,388194379.87940,   0.00000,274640135.82653,   0.00000,   0.00000,   0.00000,-86445755.94713,   0.00000
227650824.43673,-221090281.94576,-9098813.51586,   0.00147,  -0.00145,  -0.00012,388954445.68699,   0.00000,274640135.82653,   0.00000,   0.00000,   0.00000,-85685690.13954,   0.00000
227284121.62501,-222327903.93532,-9156110.83020,   0.00147,  -0.00145,  -0.00012,389706138.34837,   0.00000,274640135.82653,   0.00000,   0.00000,   0.00000,-84933997.47816,   0.00000
226897364.75327,-223574120.52204,-9207678.41309,   0.00147,  -0.00146,  -0.00012,390449131.51131,   0.00000,274640135.82653,   0.00000,   0.00000,   0.00000,-84191004.31522,   0.00000
226490553.82152,-224828931.70590,-9259245.99599,   0.00147,  -0.00146,  -0.00012,391183907.73242,   0.00000,274640135.82653,   0.00000,   0.00000,   0.00000,-83456228.09411,   0.00000
226075148.29261,-226103796.94978,-9310813.57889,   0.00147,  -0.00147,  -0.00012,391930380.09840,   0.00000,274640135.82653,   0.00000,   0.00000,   0.00000,-82709755.72813,   0.00000
225648283.30084,-227367202.73079,-9362381.16179,   0.00147,  -0.00147,  -0.00012,392658852.12537,   0.00000,274640135.82653,   0.00000,   0.00000,   0.00000,-81981283.70116,   0.00000
225192769.65190,-228659257.16897,-9408219.01325,   0.00147,  -0.00148,  -0.00012,393388859.24234,   0.00000,274640135.82653,   0.00000,   0.00000,   0.00000,-81251276.58419,   0.00000
224725796.54010,-229939852.14428,-9459786.59615,   0.00147,  -0.00148,  -0.00012,394101380.80383,   0.00000,274640135.82653,   0.00000,   0.00000,   0.00000,-80538755.02270,   0.00000
224250228.83115,-231240501.17961,-9499894.71618,   0.00147,  -0.00149,  -0.00012,394825042.03765,   0.00000,274640135.82653,   0.00000,   0.00000,   0.00000,-79815093.78888,   0.00000
223754607.06218,-232549744.81209,-9545732.56765,   0.00147,  -0.00149,  -0.00012,395541335.13113,   0.00000,274640135.82653,   0.00000,   0.00000,   0.00000,-79098800.69540,   0.00000
223238931.23320,-233867583.04171,-9591570.41912,   0.00147,  -0.00150,  -0.00012,396249934.73003,   0.00000,274640135.82653,   0.00000,   0.00000,   0.00000,-78390201.09650,   0.00000
222703201.34420,-235194015.86849,-9631678.53915,   0.00147,  -0.00150,  -0.00013,396950511.97178,   0.00000,274640135.82653,   0.00000,   0.00000,   0.00000,-77689623.85475,   0.00000
222138822.79803,-236549097.35243,-9671786.65918,   0.00147,  -0.00151,  -0.00013,397653744.41050,   0.00000,274640135.82653,   0.00000,   0.00000,   0.00000,-76986391.41603,   0.00000
221583038.84901,-237884124.77636,-9706165.04778,   0.00147,  -0.00151,  -0.00013,398348611.27895,   0.00000,274640135.82653,   0.00000,   0.00000,   0.00000,-76291524.54758,   0.00000
220998606.24283,-239247800.85745,-9740543.43638,   0.00147,  -0.00152,  -0.00013,399046312.18928,   0.00000,274640135.82653,   0.00000,   0.00000,   0.00000,-75593823.63724,   0.00000
220394119.57663,-240620071.53570,-9780651.55641,   0.00147,  -0.00152,  -0.00013,399737187.44068,   0.00000,274640135.82653,   0.00000,   0.00000,   0.00000,-74902948.38585,   0.00000
219769578.85042,-242000936.81109,-9809300.21358,   0.00147,  -0.00153,  -0.00013,400420069.77917,   0.00000,274640135.82653,   0.00000,   0.00000,   0.00000,-74220066.04736,   0.00000
219145038.12420,-243381802.08648,-9843678.60217,   0.00147,  -0.00153,  -0.00013,401105793.58016,   0.00000,274640135.82653,   0.00000,   0.00000,   0.00000,-73534342.24637,   0.00000
218500443.33797,-244771261.95902,-9872327.25934,   0.00147,  -0.00154,  -0.00013,401784061.66857,   0.00000,274640135.82653,   0.00000,   0.00000,   0.00000,-72856074.15796,   0.00000
217835794.49172,-246169316.42872,-9900975.91651,   0.00147,  -0.00154,  -0.00013,402455391.70056,   0.00000,274640135.82653,   0.00000,   0.00000,   0.00000,-72184744.12597,   0.00000
217142496.98831,-247596019.55557,-9923894.84224,   0.00147,  -0.00155,  -0.00013,403129906.97201,   0.00000,274640135.82653,   0.00000,   0.00000,   0.00000,-71510228.85451,   0.00000
216437740.02203,-249011263.21956,-9952543.49940,   0.00147,  -0.00156,  -0.00013,403787690.41867,   0.00000,274640135.82653,   0.00000,   0.00000,   0.00000,-70852445.40786,   0.00000
215724388.45860,-250446560.94357,-9975462.42514,   0.00147,  -0.00156,  -0.00013,404458220.85501,   0.00000,274640135.82653,   0.00000,   0.00000,   0.00000,-70181914.97152,   0.00000
214990982.83516,-251890453.26473,-9992651.61944,   0.00147,  -0.00157,  -0.00013,405121782.33178,   0.00000,274640135.82653,   0.00000,   0.00000,   0.00000,-69518353.49475,   0.00000
214237523.15170,-253342940.18304,-10015570.54517,   0.00147,  -0.00157,  -0.00013,405779325.05190,   0.00000,274640135.82653,   0.00000,   0.00000,   0.00000,-68860810.77463,   0.00000
213464009.40822,-254804021.69849,-10032759.73947,   0.00147,  -0.00158,  -0.00013,406430104.29276,   0.00000,274640135.82653,   0.00000,   0.00000,   0.00000,-68210031.53377,   0.00000
212661847.00758,-256293751.87112,-10044219.20234,   0.00147,  -0.00158,  -0.00013,407084892.97493,   0.00000,274640135.82653,   0.00000,   0.00000,   0.00000,-67555242.85160,   0.00000
211868279.20408,-257763427.98372,-10061408.39663,   0.00147,  -0.00159,  -0.00013,407732439.57802,   0.00000,274640135.82653,   0.00000,   0.00000,   0.00000,-66907696.24851,   0.00000
211046062.74342,-259261752.75349,-10072867.85950,   0.00147,  -0.00159,  -0.00013,408384202.90168,   0.00000,274640135.82653,   0.00000,   0.00000,   0.00000,-66255932.92484,   0.00000
210203792.22275,-260768672.12042,-10078597.59093,   0.00146,  -0.00160,  -0.00013,409029623.35884,   0.00000,274640135.82653,   0.00000,   0.00000,   0.00000,-65610512.46769,   0.00000
209341467.64206,-262284186.08449,-10090057.05380,   0.00146,  -0.00160,  -0.00013,409669657.83764,   0.00000,274640135.82653,   0.00000,   0.00000,   0.00000,-64970477.98889,   0.00000
208479143.06137,-263799700.04856,-10095786.78523,   0.00146,  -0.00161,  -0.00013,410312496.73355,   0.00000,274640135.82653,   0.00000,   0.00000,   0.00000,-64327639.09298,   0.00000
207576710.36064,-265332403.20693,-10095786.78523,   0.00146,  -0.00161,  -0.00013,410940357.00808,   0.00000,274640135.82653,   0.00000,   0.00000,   0.00000,-63699778.81845,   0.00000
206665683.06277,-266885160.42532,-10101516.51667,   0.00146,  -0.00162,  -0.00013,411582943.39960,   0.00000,274640135.82653,   0.00000,   0.00000,   0.00000,-63057192.42693,   0.00000
205743196.30203,-268426458.18084,-10101516.51667,   0.00146,  -0.00162,  -0.00013,412208764.65943,   0.00000,274640135.82653,   0.00000,   0.00000,   0.00000,-62431371.16710,   0.00000
204812114.94414,-269987809.99638,-10095786.78523,   0.00146,  -0.00163,  -0.00013,412848603.09981,   0.00000,274640135.82653,   0.00000,   0.00000,   0.00000,-61791532.72672,   0.00000
203840925.46622,-271566351.00621,-10095786.78523,   0.00146,  -0.00163,  -0.00013,413474929.03535,   0.00000,274640135.82653,   0.00000,   0.00000,   0.00000,-61165206.79118,   0.00000
202869735.98830,-273144892.01605,-10090057.05380,   0.00146,  -0.00164,  -0.00013,414104481.62066,   0.00000,274640135.82653,   0.00000,   0.00000,   0.00000,-60535654.20587,   0.00000
201869897.85321,-274752081.68305,-10078597.59093,   0.00145,  -0.00164,  -0.00013,414739763.10568,   0.00000,274640135.82653,   0.00000,   0.00000,   0.00000,-59900372.72085,   0.00000
200858600.25526,-276347811.88719,-10067138.12807,   0.00145,  -0.00165,  -0.00013,415359081.90489,   0.00000,274640135.82653,   0.00000,   0.00000,   0.00000,-59281053.92164,   0.00000
199818654.00014,-277972190.74849,-10055678.66520,   0.00145,  -0.00165,  -0.00013,415984870.32707,   0.00000,274640135.82653,   0.00000,   0.00000,   0.00000,-58655265.49946,   0.00000
198787302.34217,-279576515.54977,-10044219.20234,   0.00145,  -0.00166,  -0.00013,416603336.47482,   0.00000,274640135.82653,   0.00000,   0.00000,   0.00000,-58036799.35171,   0.00000
197707247.96702,-281218083.60538,-10027030.00804,   0.00145,  -0.00167,  -0.00013,417219658.96383,   0.00000,274640135.82653,   0.00000,   0.00000,   0.00000,-57420476.86270,   0.00000
196618598.99472,-282879705.72099,-10009840.81374,   0.00145,  -0.00167,  -0.00013,417851413.23405,   0.00000,274640135.82653,   0.00000,   0.00000,   0.00000,-56788722.59248,   0.00000
195518490.55955,-284529868.37374,-9986921.88800,   0.00144,  -0.00168,  -0.00013,418467193.88430,   0.00000,274640135.82653,   0.00000,   0.00000,   0.00000,-56172941.94223,   0.00000
194398328.06437,-286188625.62365,-9964002.96227,   0.00144,  -0.00168,  -0.00013,419078839.58504,   0.00000,274640135.82653,   0.00000,   0.00000,   0.00000,-55561296.24149,   0.00000
193269570.97203,-287867436.93356,-9935354.30511,   0.00144,  -0.00169,  -0.00013,419705775.67968,   0.00000,274640135.82653,   0.00000,   0.00000,   0.00000,-54934360.14684,   0.00000
192100705.75967,-289563437.43778,-9912435.37937,   0.00144,  -0.00169,  -0.00013,420321038.34282,   0.00000,274640135.82653,   0.00000,   0.00000,   0.00000,-54319097.48371,   0.00000
190931840.54730,-291259437.94200,-9878056.99077,   0.00144,  -0.00170,  -0.00013,420939967.83134,   0.00000,274640135.82653,   0.00000,   0.00000,   0.00000,-53700167.99519,   0.00000
189742921.27492,-292964033.04336,-9849408.33361,   0.00143,  -0.00170,  -0.00013,421555672.26959,   0.00000,274640135.82653,   0.00000,   0.00000,   0.00000,-53084463.55693,   0.00000
188533947.94253,-294677222.74188,-9815029.94501,   0.00143,  -0.00171,  -0.00013,422167478.30735,   0.00000,274640135.82653,   0.00000,   0.00000,   0.00000,-52472657.51918,   0.00000
187324974.61013,-296390412.44039,-9774921.82498,   0.00143,  -0.00171,  -0.00013,422783510.17324,   0.00000,274640135.82653,   0.00000,   0.00000,   0.00000,-51856625.65329,   0.00000
186067298.56055,-298140845.39322,-9734813.70494,   0.00143,  -0.00172,  -0.00013,423400005.63521,   0.00000,274640135.82653,   0.00000,   0.00000,   0.00000,-51240130.19132,   0.00000
184809622.51097,-299891278.34606,-9694705.58491,   0.00143,  -0.00172,  -0.00013,424021380.70536,   0.00000,274640135.82653,   0.00000,   0.00000,   0.00000,-50618755.12117,   0.00000
183531892.40137,-301650305.89604,-9654597.46488,   0.00142,  -0.00173,  -0.00013,424639785.95603,   0.00000,274640135.82653,   0.00000,   0.00000,   0.00000,-50000349.87050,   0.00000
182234108.23176,-303417928.04317,-9603029.88198,   0.00142,  -0.00174,  -0.00012,425254581.80748,   0.00000,274640135.82653,   0.00000,   0.00000,   0.00000,-49385554.01905,   0.00000
180916270.00213,-305194144.78745,-9557192.03052,   0.00142,  -0.00174,  -0.00012,425867078.82154,   0.00000,274640135.82653,   0.00000,   0.00000,   0.00000,-48773057.00499,   0.00000
179598431.77251,-306970361.53173,-9505624.44762,   0.00142,  -0.00175,  -0.00012,426484308.94257,   0.00000,274640135.82653,   0.00000,   0.00000,   0.00000,-48155826.88396,   0.00000
178251944.88571,-308775226.93318,-9454056.86472,   0.00141,  -0.00175,  -0.00012,427111014.76097,   0.00000,274640135.82653,   0.00000,   0.00000,   0.00000,-47529121.06556,   0.00000
176885403.93890,-310588686.93177,-9396759.55039,   0.00141,  -0.00176,  -0.00012,427735059.57959,   0.00000,274640135.82653,   0.00000,   0.00000,   0.00000,-46905076.24694,   0.00000
175498808.93208,-312410741.52752,-9339462.23606,   0.00141,  -0.00176,  -0.00012,428356969.19578,   0.00000,274640135.82653,   0.00000,   0.00000,   0.00000,-46283166.63075,   0.00000
174092159.86524,-314241390.72041,-9276435.19029,   0.00140,  -0.00177,  -0.00012,428976515.61307,   0.00000,274640135.82653,   0.00000,   0.00000,   0.00000,-45663620.21345,   0.00000
172665456.73838,-316080634.51046,-9213408.14453,   0.00140,  -0.00177,  -0.00012,429594221.62783,   0.00000,274640135.82653,   0.00000,   0.00000,   0.00000,-45045914.19869,   0.00000
171238753.61152,-317919878.30050,-9150381.09876,   0.00140,  -0.00178,  -0.00012,430217563.43541,   0.00000,274640135.82653,   0.00000,   0.00000,   0.00000,-44422572.39112,   0.00000
169783401.82750,-319787770.74772,-9081624.32156,   0.00140,  -0.00179,  -0.00012,430851140.34576,   0.00000,274640135.82653,   0.00000,   0.00000,   0.00000,-43788995.48077,   0.00000
168307995.98346,-321664257.79208,-9007137.81293,   0.00139,  -0.00179,  -0.00012,431482941.09516,   0.00000,274640135.82653,   0.00000,   0.00000,   0.00000,-43157194.73137,   0.00000
166812536.07940,-323549339.43359,-8938381.03573,   0.00139,  -0.00180,  -0.00012,432113835.77190,   0.00000,274640135.82653,   0.00000,   0.00000,   0.00000,-42526300.05463,   0.00000
165297022.11533,-325443015.67225,-8858164.79567,   0.00139,  -0.00180,  -0.00012,432742908.17937,   0.00000,274640135.82653,   0.00000,   0.00000,   0.00000,-41897227.64716,   0.00000
163781508.15126,-327336691.91091,-8783678.28704,   0.00138,  -0.00181,  -0.00011,433378412.44188,   0.00000,274640135.82653,   0.00000,   0.00000,   0.00000,-41261723.38465,   0.00000
162245940.12717,-329238962.74672,-8703462.04698,   0.00138,  -0.00181,  -0.00011,434012644.36699,   0.00000,274640135.82653,   0.00000,   0.00000,   0.00000,-40627491.45954,   0.00000
160681723.44592,-331169882.23969,-8617516.07548,   0.00138,  -0.00182,  -0.00011,434658301.81166,   0.00000,274640135.82653,   0.00000,   0.00000,   0.00000,-39981834.01487,   0.00000
159097452.70465,-333109396.32982,-8531570.10398,   0.00137,  -0.00183,  -0.00011,435303444.59205,   0.00000,274640135.82653,   0.00000,   0.00000,   0.00000,-39336691.23448,   0.00000
157493127.90336,-335057505.01710,-8439894.40105,   0.00137,  -0.00183,  -0.00011,435947894.76520,   0.00000,274640135.82653,   0.00000,   0.00000,   0.00000,-38692241.06133,   0.00000
155888803.10208,-337005613.70437,-8353948.42955,   0.00137,  -0.00184,  -0.00011,436599209.48509,   0.00000,274640135.82653,   0.00000,   0.00000,   0.00000,-38040926.34144,   0.00000
154244370.18076,-338970911.58595,-8256542.99519,   0.00136,  -0.00184,  -0.00011,437243034.14432,   0.00000,274640135.82653,   0.00000,   0.00000,   0.00000,-37397101.68221,   0.00000
152599937.25944,-340936209.46752,-8159137.56082,   0.00136,  -0.00185,  -0.00011,437893592.70157,   0.00000,274640135.82653,   0.00000,   0.00000,   0.00000,-36746543.12496,   0.00000
150926855.68096,-342930156.00626,-8061732.12646,   0.00136,  -0.00185,  -0.00010,438557125.58692,   0.00000,274640135.82653,   0.00000,   0.00000,   0.00000,-36083010.23961,   0.00000
149242314.63961,-344912643.08214,-7958596.96066,   0.00135,  -0.00186,  -0.00010,439207899.33206,   0.00000,274640135.82653,   0.00000,   0.00000,   0.00000,-35432236.49447,   0.00000
147549179.00111,-346915184.21803,-7855461.79487,   0.00135,  -0.00187,  -0.00010,439878484.03775,   0.00000,274640135.82653,   0.00000,   0.00000,   0.00000,-34761651.78878,   0.00000
145835989.30259,-348926319.95107,-7746596.89764,   0.00134,  -0.00187,  -0.00010,440549380.75626,   0.00000,274640135.82653,   0.00000,   0.00000,   0.00000,-34090755.07027,   0.00000
144082691.48404,-350954644.87841,-7637732.00041,   0.00134,  -0.00188,  -0.00010,441214776.97404,   0.00000,274640135.82653,   0.00000,   0.00000,   0.00000,-33425358.85249,   0.00000
142320799.06835,-353003023.86576,-7523137.37174,   0.00134,  -0.00188,  -0.00010,441900226.20914,   0.00000,274640135.82653,   0.00000,   0.00000,   0.00000,-32739909.61739,   0.00000
140567501.24980,-355031348.79310,-7408542.74308,   0.00133,  -0.00189,  -0.00010,442579947.71045,   0.00000,274640135.82653,   0.00000,   0.00000,   0.00000,-32060188.11608,   0.00000
138765500.71407,-357096916.97476,-7288218.38298,   0.00133,  -0.00190,  -0.00009,443267593.18763,   0.00000,274640135.82653,   0.00000,   0.00000,   0.00000,-31372542.63890,   0.00000
136972094.77549,-359142431.09640,-7167894.02289,   0.00132,  -0.00190,  -0.00009,443949623.02633,   0.00000,274640135.82653,   0.00000,   0.00000,   0.00000,-30690512.80020,   0.00000
135129986.11973,-361225188.47235,-7047569.66279,   0.00132,  -0.00191,  -0.00009,444640427.03563,   0.00000,274640135.82653,   0.00000,   0.00000,   0.00000,-29999708.79090,   0.00000
133287877.46396,-363307945.84831,-6915785.83983,   0.00131,  -0.00191,  -0.00009,445338467.95963,   0.00000,274640135.82653,   0.00000,   0.00000,   0.00000,-29301667.86690,   0.00000
131445768.80820,-365390703.22426,-6789731.74830,   0.00131,  -0.00192,  -0.00009,446044526.26686,   0.00000,274640135.82653,   0.00000,   0.00000,   0.00000,-28595609.55967,   0.00000
129554957.43526,-367510703.85453,-6657947.92534,   0.00131,  -0.00192,  -0.00009,446759916.34245,   0.00000,274640135.82653,   0.00000,   0.00000,   0.00000,-27880219.48408,   0.00000
127672740.65946,-369610650.42479,-6520434.37094,   0.00130,  -0.00193,  -0.00008,447469680.00609,   0.00000,274640135.82653,   0.00000,   0.00000,   0.00000,-27170455.82044,   0.00000
125741821.16649,-371747840.24936,-6382920.81654,   0.00130,  -0.00194,  -0.00008,448189622.59566,   0.00000,274640135.82653,   0.00000,   0.00000,   0.00000,-26450513.23087,   0.00000
123810901.67351,-373885030.07393,-6245407.26215,   0.00129,  -0.00194,  -0.00008,448917824.45998,   0.00000,274640135.82653,   0.00000,   0.00000,   0.00000,-25722311.36655,   0.00000
121859928.12052,-376030814.49565,-6102163.97632,   0.00129,  -0.00195,  -0.00008,449648543.61259,   0.00000,274640135.82653,   0.00000,   0.00000,   0.00000,-24991592.21394,   0.00000
119908954.56753,-378176598.91737,-5953190.95906,   0.00128,  -0.00195,  -0.00008,450387365.96407,   0.00000,274640135.82653,   0.00000,   0.00000,   0.00000,-24252769.86246,   0.00000
117917872.89450,-380339572.53339,-5804217.94179,   0.00128,  -0.00196,  -0.00008,451123835.98224,   0.00000,274640135.82653,   0.00000,   0.00000,   0.00000,-23516299.84429,   0.00000
115926791.22148,-382502546.14941,-5649515.19310,   0.00127,  -0.00197,  -0.00007,451868634.23852,   0.00000,274640135.82653,   0.00000,   0.00000,   0.00000,-22771501.58801,   0.00000
113915655.48844,-384674114.36257,-5494812.44440,   0.00127,  -0.00197,  -0.00007,452616762.39887,   0.00000,274640135.82653,   0.00000,   0.00000,   0.00000,-22023373.42766,   0.00000
111875871.09823,-386874331.23291,-5340109.69571,   0.00126,  -0.00198,  -0.00007,453382191.78505,   0.00000,274640135.82653,   0.00000,   0.00000,   0.00000,-21257944.04148,   0.00000
109836086.70803,-389074548.10324,-5179677.21558,   0.00126,  -0.00198,  -0.00007,454156231.81302,   0.00000,274640135.82653,   0.00000,   0.00000,   0.00000,-20483904.01351,   0.00000
107756194.19779,-391291954.16788,-5013515.00402,   0.00125,  -0.00199,  -0.00007,454928926.95886,   0.00000,274640135.82653,   0.00000,   0.00000,   0.00000,-19711208.86767,   0.00000
105676301.68755,-393509360.23251,-4847352.79246,   0.00125,  -0.00200,  -0.00006,455710655.66327,   0.00000,274640135.82653,   0.00000,   0.00000,   0.00000,-18929480.16326,   0.00000
103576355.11729,-395735360.89430,-4681190.58089,   0.00124,  -0.00200,  -0.00006,456496554.32407,   0.00000,274640135.82653,   0.00000,   0.00000,   0.00000,-18143581.50246,   0.00000
101456354.48702,-397969956.15323,-4509298.63790,   0.00124,  -0.00201,  -0.00006,457286627.98696,   0.00000,274640135.82653,   0.00000,   0.00000,   0.00000,-17353507.83957,   0.00000
99336353.85675,-400204551.41216,-4331676.96347,   0.00123,  -0.00201,  -0.00006,458085740.20447,   0.00000,274640135.82653,   0.00000,   0.00000,   0.00000,-16554395.62206,   0.00000
97167650.50930,-402476389.92541,-4154055.28904,   0.00123,  -0.00202,  -0.00005,458898954.53514,   0.00000,274640135.82653,   0.00000,   0.00000,   0.00000,-15741181.29139,   0.00000
95007541.75900,-404728174.37865,-3976433.61462,   0.00122,  -0.00203,  -0.00005,459707508.23557,   0.00000,274640135.82653,   0.00000,   0.00000,   0.00000,-14932627.59096,   0.00000
92818784.35153,-407008607.48905,-3793082.20875,   0.00122,  -0.00203,  -0.00005,460535058.25761,   0.00000,274640135.82653,   0.00000,   0.00000,   0.00000,-14105077.56892,   0.00000
90609972.88405,-409297635.19659,-3604001.07146,   0.00121,  -0.00204,  -0.00005,461367679.25529,   0.00000,274640135.82653,   0.00000,   0.00000,   0.00000,-13272456.57124,   0.00000
88401161.41656,-411586662.90414,-3414919.93417,   0.00120,  -0.00205,  -0.00004,462209985.26549,   0.00000,274640135.82653,   0.00000,   0.00000,   0.00000,-12430150.56103,   0.00000
86172295.88906,-413884285.20884,-3220109.06544,   0.00120,  -0.00205,  -0.00004,463057590.92974,   0.00000,274640135.82653,   0.00000,   0.00000,   0.00000,-11582544.89679,   0.00000
83923376.30154,-416190502.11069,-3025298.19671,   0.00119,  -0.00206,  -0.00004,463910806.67117,   0.00000,274640135.82653,   0.00000,   0.00000,   0.00000,-10729329.15535,   0.00000
81654402.65401,-418505313.60969,-2824757.59655,   0.00119,  -0.00206,  -0.00004,464769704.42262,   0.00000,274640135.82653,   0.00000,   0.00000,   0.00000,-9870431.40391,   0.00000
79365374.94646,-420828719.70584,-2624216.99639,   0.00118,  -0.00207,  -0.00003,465634580.69807,   0.00000,274640135.82653,   0.00000,   0.00000,   0.00000,-9005555.12846,   0.00000
77067752.64176,-423172179.86200,-2423676.39623,   0.00118,  -0.00208,  -0.00003,466524044.19356,   0.00000,274640135.82653,   0.00000,   0.00000,   0.00000,-8116091.63297,   0.00000
74730022.21703,-425532829.21246,-2217406.06463,   0.00117,  -0.00208,  -0.00003,467415867.73259,   0.00000,274640135.82653,   0.00000,   0.00000,   0.00000,-7224268.09394,   0.00000
72420940.44947,-427864829.90576,-2005406.00161,   0.00116,  -0.00209,  -0.00003,468307103.95273,   0.00000,274640135.82653,   0.00000,   0.00000,   0.00000,-6333031.87380,   0.00000
70063155.96472,-430234073.85337,-1793405.93858,   0.00116,  -0.00209,  -0.00002,469215739.35719,   0.00000,274640135.82653,   0.00000,   0.00000,   0.00000,-5424396.46934,   0.00000
67685317.41996,-432611912.39814,-1575676.14412,   0.00115,  -0.00210,  -0.00002,470131143.21354,   0.00000,274640135.82653,   0.00000,   0.00000,   0.00000,-4508992.61299,   0.00000
65307478.87520,-434989750.94290,-1357946.34966,   0.00115,  -0.00211,  -0.00002,471057073.23837,   0.00000,274640135.82653,   0.00000,   0.00000,   0.00000,-3583062.58816,   0.00000
62909586.27042,-437376184.08481,-1134486.82377,   0.00114,  -0.00211,  -0.00001,471989998.21572,   0.00000,274640135.82653,   0.00000,   0.00000,   0.00000,-2650137.61081,   0.00000
60491639.60562,-439771211.82387,-911027.29787,   0.00113,  -0.00212,  -0.00001,472930152.11340,   0.00000,274640135.82653,   0.00000,   0.00000,   0.00000,-1709983.71313,   0.00000
58073692.94083,-442166239.56294,-681838.04055,   0.00113,  -0.00213,  -0.00001,473880953.78009,   0.00000,274640135.82653,   0.00000,   0.00000,   0.00000,-759182.04643,   0.00000
56140723.34171,-444072268.81921,-502235.75491,   0.00112,  -0.00213,  -0.00001,474640133.00746,   0.00000,274640135.82653,   0.00000,   0.00000,   0.00000,  -6.53113,   0.00000
55567071.25482,-444411333.49390,-452443.22996,   0.00112,  -0.00213,  -0.00001,474641320.46736,   0.00000,274641320.64953,   0.00000,  -0.00000,  -0.00000,  -0.18218,   1.00000
52930381.07138,-445962763.69913,-217071.98118,   0.00111,  -0.00214,  -0.00000,474646744.67808,   0.00001,274646746.41515,   0.00000,  -0.00001,  -0.00000,  -1.73707,   1.00000
50276861.93731,-447512488.96715,23527.27790,   0.00111,  -0.00214,   0.00000,474652205.21078,   0.00001,274652213.25367,   0.00001,  -0.00001,  -0.00000,  -8.04290,   1.00000
47614885.80167,-449055603.71288,257889.11439,   0.00110,  -0.00215,   0.00000,474657817.15423,   0.00002,274657823.00690,   0.00001,  -0.00001,  -0.00000,  -5.85267,   1.00000
44916793.52810,-450607663.79314,503173.66115,   0.00109,  -0.00216,   0.00001,474663455.46917,   0.00002,274663459.49483,   0.00001,  -0.00002,   0.00000,  -4.02566,   1.00000
42232836.61897,-452139676.53993,747930.70745,   0.00109,  -0.00216,   0.00001,474669062.48439,   0.00003,274669071.50446,   0.00001,  -0.00002,   0.00000,  -9.02007,   1.00000
39540971.81189,-453664426.03081,992099.77276,   0.00108,  -0.00217,   0.00001,474674820.23519,   0.00003,274674827.72119,   0.00002,  -0.00003,   0.00000,  -7.48600,   1.00000
36813180.91050,-455197303.13747,1241424.30258,   0.00107,  -0.00217,   0.00002,474680607.50955,   0.00004,274680614.45227,   0.00002,  -0.00003,   0.00000,  -6.94272,   1.00000
34088817.60815,-456716119.17415,1490150.61990,   0.00107,  -0.00218,   0.00002,474686459.81453,   0.00004,274686462.03524,   0.00002,  -0.00004,   0.00000,  -2.22071,   1.00000
31348336.31213,-458231590.54663,1743992.16795,   0.00106,  -0.00219,   0.00002,474692354.37257,   0.00005,274692356.87886,   0.00002,  -0.00004,   0.00000,  -2.50629,   1.00000
28591840.49163,-459743439.80252,2002924.86487,   0.00105,  -0.00219,   0.00003,474698293.66251,   0.00005,274698300.10988,   0.00003,  -0.00005,   0.00000,  -6.44737,   1.00000
25819450.47076,-461251470.38951,2261207.97213,   0.00105,  -0.00220,   0.00003,474704288.62384,   0.00006,274704292.34718,   0.00003,  -0.00005,   0.00000,  -3.72334,   1.00000
23051012.95846,-462744841.38547,2518818.06772,   0.00104,  -0.00221,   0.00003,474710341.25652,   0.00006,274710346.69874,   0.00003,  -0.00006,   0.00000,  -5.44222,   1.00000
20266894.81374,-464233954.23859,2781470.40201,   0.00103,  -0.00221,   0.00004,474716443.51729,   0.00007,274716451.67099,   0.00003,  -0.00006,   0.00000,  -8.15370,   1.00000
17456787.94866,-465724115.76063,3049035.96375,   0.00102,  -0.00222,   0.00004,474722685.82704,   0.00008,274722694.42877,   0.00004,  -0.00007,   0.00000,  -8.60172,   1.00000
14661498.03785,-467193568.77124,3315964.29164,   0.00102,  -0.00223,   0.00004,474728906.50908,   0.00008,274728914.09378,   0.00004,  -0.00007,   0.00000,  -7.58470,   1.00000
11831088.69961,-468668490.79636,3582167.59048,   0.00101,  -0.00223,   0.00005,474735171.63195,   0.00009,274735175.88322,   0.00004,  -0.00008,   0.00000,  -4.25128,   1.00000
8995131.42118,-470133042.05248,3858900.97449,   0.00100,  -0.00224,   0.00005,474741583.88296,   0.00009,274741589.35996,   0.00004,  -0.00008,   0.00000,  -5.47701,   1.00000
6174215.70492,-471576874.38576,4129241.24778,   0.00099,  -0.00224,   0.00005,474747973.81218,   0.00010,274747979.11852,   0.00005,  -0.00009,   0.00000,  -5.30634,   1.00000
3308472.51431,-473030320.13994,4404364.63316,   0.00099,  -0.00225,   0.00006,474754497.45964,   0.00010,274754502.11530,   0.00005,  -0.00009,   0.00000,  -4.65565,   1.00000
457903.75709,-474462545.15998,4684512.27349,   0.00098,  -0.00226,   0.00006,474761001.54003,   0.00011,274761003.75379,   0.00005,  -0.00010,   0.00000,  -2.21377,   1.00000
-2417154.41539,-475893761.00829,4963634.50700,   0.00097,  -0.00226,   0.00007,474767647.06429,   0.00012,274767648.62141,   0.00006,  -0.00010,   0.00000,  -1.55713,   1.00000
-5276890.00767,-477303695.36222,5247755.59303,   0.00096,  -0.00227,   0.00007,474774263.08741,   0.00012,274774272.04469,   0.00006,  -0.00011,   0.00000,  -8.95728,   1.00000
-8160661.84340,-478712094.70687,5530784.80773,   0.00096,  -0.00228,   0.00007,474781030.83093,   0.00013,274781039.86500,   0.00006,  -0.00011,   0.00000,  -9.03407,   1.00000
-11058500.07969,-480113724.04479,5812886.96261,   0.00095,  -0.00228,   0.00008,474787857.62600,   0.00013,274787866.15054,   0.00006,  -0.00012,   0.00000,  -8.52454,   1.00000
-13960716.40103,-481503450.45828,6099969.18217,   0.00094,  -0.00229,   0.00008,474794661.04808,   0.00014,274794665.60362,   0.00007,  -0.00012,   0.00000,  -4.55554,   1.00000
-16866270.91775,-482880882.97643,6391559.34612,   0.00093,  -0.00229,   0.00009,474801615.98093,   0.00015,274801618.86572,   0.00007,  -0.00013,   0.00000,  -2.88478,   1.00000
-19785411.16518,-484250882.44812,6682139.91994,   0.00093,  -0.00230,   0.00009,474808624.40793,   0.00015,274808632.56041,   0.00007,  -0.00014,   0.00000,  -8.15248,   1.00000
-22708695.94752,-485608543.15340,6977648.24280,   0.00092,  -0.00231,   0.00009,474815614.76452,   0.00016,274815621.18776,   0.00007,  -0.00014,   0.00000,  -6.42324,   1.00000
-25654496.25238,-486962668.57769,7271847.80593,   0.00091,  -0.00231,   0.00010,474822757.58617,   0.00017,274822759.51317,   0.00008,  -0.00015,   0.00000,  -1.92700,   1.00000
-28593352.66120,-488299162.80152,7570664.82921,   0.00090,  -0.00232,   0.00010,474829955.81660,   0.00017,274829965.41581,   0.00008,  -0.00015,   0.00000,  -9.59922,   1.00000
-31545090.70681,-489627317.62737,7868365.97216,   0.00089,  -0.00233,   0.00011,474837233.49881,   0.00018,274837234.31648,   0.00008,  -0.00016,   0.00000,  -0.81767,   1.00000
-34480609.01423,-490933857.66620,8165215.91095,   0.00089,  -0.00233,   0.00011,474844478.59861,   0.00019,274844481.09630,   0.00008,  -0.00017,   0.00000,  -2.49769,   1.00000
-37437604.91952,-492235226.07495,8472035.77916,   0.00088,  -0.00234,   0.00011,474851882.48614,   0.00019,274851882.81228,   0.00009,  -0.00017,   0.00000,  -0.32614,   1.00000
-40406926.86258,-493527895.67276,8771940.18256,   0.00087,  -0.00234,   0.00012,474859346.29558,   0.00020,274859347.66005,   0.00009,  -0.00018,   0.00000,  -1.36446,   1.00000
-43379740.59366,-494807142.79944,9076664.26088,   0.00086,  -0.00235,   0.00012,474866783.91219,   0.00021,274866791.63195,   0.00009,  -0.00018,   0.00001,  -7.71976,   1.00000
-46353119.19622,-496071856.46226,9385516.22503,   0.00085,  -0.00236,   0.00013,474874387.90176,   0.00021,274874391.72401,   0.00010,  -0.00019,   0.00001,  -3.82224,   1.00000
-49338245.01605,-497326931.78755,9693079.99330,   0.00084,  -0.00236,   0.00013,474882057.87136,   0.00022,274882058.21245,   0.00010,  -0.00020,   0.00001,  -0.34109,   1.00000
-52306551.69351,-498559793.34735,10005404.63376,   0.00084,  -0.00237,   0.00014,474889696.30351,   0.00023,274889704.34043,   0.00010,  -0.00020,   0.00001,  -8.03692,   1.00000
-55314584.77684,-499794564.07228,10316011.51052,   0.00083,  -0.00238,   0.00014,474897505.84764,   0.00023,274897507.39525,   0.00010,  -0.00021,   0.00001,  -1.54762,   1.00000
-58313705.52610,-501010706.23067,10625253.01683,   0.00082,  -0.00238,   0.00015,474905372.91801,   0.00024,274905377.10525,   0.00011,  -0.00022,   0.00001,  -4.18724,   1.00000
-61295686.16812,-502204515.31937,10939214.81852,   0.00081,  -0.00239,   0.00015,474913218.65083,   0.00025,274913226.33393,   0.00011,  -0.00022,   0.00001,  -7.68309,   1.00000
-64296469.42064,-503390723.93300,11257045.33784,   0.00080,  -0.00240,   0.00015,474921229.09275,   0.00026,274921234.60817,   0.00011,  -0.00023,   0.00001,  -5.51541,   1.00000
-67299894.03252,-504562834.69616,11573825.50770,   0.00079,  -0.00240,   0.00016,474929220.93325,   0.00026,274929223.64900,   0.00011,  -0.00024,   0.00001,  -2.71576,   1.00000
-70321456.51038,-505727034.50654,11888679.52690,   0.00078,  -0.00241,   0.00016,474937365.46626,   0.00027,274937371.22225,   0.00012,  -0.00024,   0.00001,  -5.75599,   1.00000
-73325405.82701,-506868659.97346,12208182.65876,   0.00077,  -0.00241,   0.00017,474945494.32638,   0.00028,274945498.52071,   0.00012,  -0.00025,   0.00001,  -4.19433,   1.00000
-76346842.63005,-508001436.07403,12531366.86210,   0.00077,  -0.00242,   0.00017,474953786.38702,   0.00029,274953787.38012,   0.00012,  -0.00026,   0.00001,  -0.99310,   1.00000
-79350486.00572,-509112077.62033,12853448.82860,   0.00076,  -0.00243,   0.00018,474962050.96623,   0.00029,274962053.27925,   0.00013,  -0.00026,   0.00001,  -2.31301,   1.00000
-82371011.65044,-510213859.05939,13173422.29614,   0.00075,  -0.00243,   0.00018,474970473.79050,   0.00030,274970478.90679,   0.00013,  -0.00027,   0.00001,  -5.11629,   1.00000
-85393398.19617,-511300298.85304,13497937.88464,   0.00074,  -0.00244,   0.00019,474978884.82156,   0.00031,274978890.24903,   0.00013,  -0.00028,   0.00001,  -5.42747,   1.00000
-88404921.00570,-512367363.73995,13820804.83343,   0.00073,  -0.00245,   0.00019,474987360.99527,   0.00032,274987366.79197,   0.00013,  -0.00029,   0.00001,  -5.79670,   1.00000
-91425229.99560,-513421628.36123,14147653.44016,   0.00072,  -0.00245,   0.00020,474995914.70326,   0.00032,274995918.21744,   0.00014,  -0.00029,   0.00001,  -3.51417,   1.00000
-94454098.44335,-514463334.19753,14472741.76922,   0.00071,  -0.00246,   0.00020,475004536.07892,   0.00033,275004542.59264,   0.00014,  -0.00030,   0.00001,  -6.51372,   1.00000
-97471385.77757,-515484863.51763,14801789.63809,   0.00070,  -0.00246,   0.00021,475013231.91700,   0.00034,275013234.54905,   0.00014,  -0.00031,   0.00001,  -2.63205,   1.00000
-100496776.83065,-516493532.57399,15129007.66730,   0.00069,  -0.00247,   0.00021,475021996.00180,   0.00035,275021999.88479,   0.00014,  -0.00032,   0.00002,  -3.88299,   1.00000
-103510160.88894,-517481910.53982,15460122.38320,   0.00068,  -0.00248,   0.00022,475030832.13452,   0.00036,275030832.34557,   0.00015,  -0.00032,   0.00002,  -0.21105,   1.00000
-106531187.03629,-518457136.78622,15789336.67748,   0.00067,  -0.00248,   0.00022,475039737.01660,   0.00036,275039738.57789,   0.00015,  -0.00033,   0.00002,  -1.56129,   1.00000
-109559572.82182,-519418965.92170,16116622.34449,   0.00067,  -0.00249,   0.00023,475048711.90386,   0.00037,275048719.13219,   0.00015,  -0.00034,   0.00002,  -7.22832,   1.00000
-112568964.08007,-520358095.16963,16448344.48770,   0.00066,  -0.00250,   0.00023,475057671.51774,   0.00038,275057677.82181,   0.00015,  -0.00035,   0.00002,  -6.30407,   1.00000
-115591478.75177,-521285109.12364,16783121.85005,   0.00065,  -0.00250,   0.00024,475066793.06840,   0.00039,275066802.84559,   0.00016,  -0.00036,   0.00002,  -9.77719,   1.00000
-118601038.00375,-522192785.92626,17110254.51175,   0.00064,  -0.00251,   0.00024,475075981.15296,   0.00040,275075987.67844,   0.00016,  -0.00036,   0.00002,  -6.52548,   1.00000
-121610850.41892,-523083236.81092,17447371.73225,   0.00063,  -0.00251,   0.00025,475085157.25587,   0.00041,275085165.46187,   0.00016,  -0.00037,   0.00002,  -8.20599,   1.00000
-124627008.90993,-523960284.05066,17776694.31475,   0.00062,  -0.00252,   0.00025,475094411.88645,   0.00041,275094415.35266,   0.00016,  -0.00038,   0.00002,  -3.46620,   1.00000
-127629357.94259,-524815883.56628,18115365.64451,   0.00061,  -0.00253,   0.00026,475103725.31897,   0.00042,275103734.36574,   0.00017,  -0.00039,   0.00002,  -9.04677,   1.00000
-130643223.44054,-525659663.32400,18445458.31609,   0.00060,  -0.00253,   0.00026,475113213.27131,   0.00043,275113213.90880,   0.00017,  -0.00040,   0.00002,  -0.63749,   1.00000
-133637286.54944,-526480807.99268,18779870.19518,   0.00059,  -0.00254,   0.00027,475122667.85964,   0.00044,275122670.28484,   0.00017,  -0.00040,   0.00003,  -2.42520,   1.00000
-136631075.34002,-527284971.46266,19118461.39079,   0.00058,  -0.00255,   0.00028,475132114.16955,   0.00045,275132117.87058,   0.00017,  -0.00041,   0.00003,  -3.70103,   1.00000
-139616008.38282,-528071508.12822,19448475.88877,   0.00057,  -0.00255,   0.00028,475141706.26371,   0.00046,275141710.80250,   0.00017,  -0.00042,   0.00003,  -4.53879,   1.00000
-142605453.70236,-528841748.61101,19787549.64595,   0.00056,  -0.00256,   0.00029,475151380.47275,   0.00047,275151387.02225,   0.00018,  -0.00043,   0.00003,  -6.54950,   1.00000
-145594423.29174,-529596239.37710,20119367.62019,   0.00055,  -0.00256,   0.00029,475161047.08483,   0.00048,275161047.99331,   0.00018,  -0.00044,   0.00003,  -0.90849,   1.00000
-148573236.68046,-530331307.51085,20453851.04310,   0.00054,  -0.00257,   0.00030,475170857.25188,   0.00048,275170860.64712,   0.00018,  -0.00045,   0.00003,  -3.39524,   1.00000
-151550998.27521,-531048947.71554,20792399.06357,   0.00053,  -0.00258,   0.00030,475180663.92180,   0.00049,275180665.85335,   0.00018,  -0.00046,   0.00003,  -1.93155,   1.00000
-154513354.67797,-531746491.00847,21128653.42574,   0.00052,  -0.00258,   0.00031,475190523.15515,   0.00050,275190530.31879,   0.00019,  -0.00046,   0.00003,  -7.16364,   1.00000
-157479329.14982,-532428731.11582,21462425.69059,   0.00051,  -0.00259,   0.00031,475200463.57347,   0.00051,275200471.41139,   0.00019,  -0.00047,   0.00003,  -7.83791,   1.00000
-160429316.56262,-533090090.73740,21799535.66956,   0.00050,  -0.00259,   0.00032,475210470.00048,   0.00052,275210474.77953,   0.00019,  -0.00048,   0.00004,  -4.77905,   1.00000
-163382422.45565,-533735961.16945,22134086.99082,   0.00049,  -0.00260,   0.00032,475220550.21447,   0.00053,275220554.88274,   0.00019,  -0.00049,   0.00004,  -4.66827,   1.00000
-166319120.53347,-534360972.31699,22471912.63139,   0.00048,  -0.00261,   0.00033,475230693.66293,   0.00054,275230696.53080,   0.00019,  -0.00050,   0.00004,  -2.86787,   1.00000
-169254445.63075,-534970084.28277,22802344.80846,   0.00047,  -0.00261,   0.00034,475240817.04465,   0.00055,275240823.46814,   0.00020,  -0.00051,   0.00004,  -6.42349,   1.00000
-172195874.01063,-535562736.47072,23140552.80685,   0.00046,  -0.00262,   0.00034,475251118.65288,   0.00056,275251123.08333,   0.00020,  -0.00052,   0.00004,  -4.43045,   1.00000
-175116659.97163,-536135259.37962,23471537.32074,   0.00045,  -0.00262,   0.00035,475261385.16261,   0.00057,275261387.85019,   0.00020,  -0.00053,   0.00004,  -2.68759,   1.00000
-178020120.68724,-536686153.52397,23811366.68519,   0.00044,  -0.00263,   0.00035,475271712.26846,   0.00058,275271716.94583,   0.00020,  -0.00054,   0.00004,  -4.67736,   1.00000
-180925587.03156,-537222139.88966,24142765.84629,   0.00043,  -0.00264,   0.00036,475282109.94374,   0.00059,275282118.45419,   0.00020,  -0.00055,   0.00005,  -8.51045,   1.00000
-183809915.54595,-537736573.48629,24478268.99131,   0.00042,  -0.00264,   0.00037,475292489.22925,   0.00060,275292492.35270,   0.00021,  -0.00055,   0.00005,  -3.12345,   1.00000
-186699190.88695,-538236006.21824,24809969.71383,   0.00041,  -0.00265,   0.00037,475303022.49411,   0.00061,275303029.63805,   0.00021,  -0.00056,   0.00005,  -7.14395,   1.00000
-189585733.01581,-538717447.59097,25145471.89845,   0.00040,  -0.00265,   0.00038,475313560.27692,   0.00062,275313561.92448,   0.00021,  -0.00057,   0.00005,  -1.64756,   1.00000
-192454781.46426,-539180351.99294,25472704.83020,   0.00039,  -0.00266,   0.00038,475324135.87484,   0.00063,275324143.48207,   0.00021,  -0.00058,   0.00005,  -7.60723,   1.00000
-195308606.73292,-539622685.91915,25807598.70374,   0.00038,  -0.00267,   0.00039,475334867.77931,   0.00064,275334873.40121,   0.00021,  -0.00059,   0.00005,  -5.62190,   1.00000
-198156851.98259,-540048352.42943,26135971.98172,   0.00037,  -0.00267,   0.00040,475345502.35369,   0.00065,275345502.95105,   0.00021,  -0.00060,   0.00006,  -0.59736,   1.00000
-201008022.02468,-540457523.59060,26465972.30469,   0.00035,  -0.00268,   0.00040,475356292.67819,   0.00066,275356300.13345,   0.00022,  -0.00061,   0.00006,  -7.45526,   1.00000
-203822108.78598,-540843527.58166,26799230.67395,   0.00034,  -0.00268,   0.00041,475367122.69166,   0.00067,275367128.75663,   0.00022,  -0.00062,   0.00006,  -6.06497,   1.00000
-206651786.52829,-541216592.86473,27124560.44066,   0.00033,  -0.00269,   0.00041,475377966.24422,   0.00068,275377968.55530,   0.00022,  -0.00063,   0.00006,  -2.31108,   1.00000
-209462421.17738,-541569533.32362,27452811.64377,   0.00032,  -0.00270,   0.00042,475388862.11756,   0.00069,275388864.24661,   0.00022,  -0.00064,   0.00006,  -2.12905,   1.00000
-212253914.40574,-541902519.59091,27783947.56915,   0.00031,  -0.00270,   0.00043,475399807.67519,   0.00070,275399815.16719,   0.00022,  -0.00065,   0.00006,  -7.49200,   1.00000
-215044555.73334,-542219303.46883,28111939.15637,   0.00030,  -0.00271,   0.00043,475410841.43051,   0.00071,275410842.36129,   0.00022,  -0.00066,   0.00007,  -0.93077,   1.00000
-217813736.56410,-542516825.57633,28438277.42044,   0.00029,  -0.00271,   0.00044,475421833.54331,   0.00072,275421833.83704,   0.00022,  -0.00067,   0.00007,  -0.29373,   1.00000
-220563845.92948,-542795940.59497,28761819.83582,   0.00028,  -0.00272,   0.00044,475432865.80321,   0.00073,275432873.93213,   0.00022,  -0.00068,   0.00007,  -8.12892,   1.00000
-223312254.37259,-543057812.41636,29087801.89004,   0.00027,  -0.00273,   0.00045,475443989.22528,   0.00074,275443994.91622,   0.00023,  -0.00069,   0.00007,  -5.69094,   1.00000
-226059018.14306,-543303480.68000,29410535.29868,   0.00026,  -0.00273,   0.00046,475455191.54411,   0.00075,275455191.97138,   0.00023,  -0.00070,   0.00007,  -0.42727,   1.00000
-228786141.93881,-543530940.49489,29730406.38180,   0.00025,  -0.00274,   0.00046,475466430.26525,   0.00076,275466436.55485,   0.00023,  -0.00071,   0.00008,  -6.28959,   1.00000
-231491362.27955,-543738702.16256,30054258.83134,   0.00024,  -0.00274,   0.00047,475477643.61056,   0.00077,275477648.85157,   0.00023,  -0.00072,   0.00008,  -5.24101,   1.00000
-234196611.89959,-543932143.26377,30367934.49100,   0.00022,  -0.00275,   0.00048,475489010.15781,   0.00078,275489015.47385,   0.00023,  -0.00073,   0.00008,  -5.31604,   1.00000
-236879411.96716,-544104872.97533,30691219.52521,   0.00021,  -0.00275,   0.00048,475500346.07599,   0.00079,275500354.67576,   0.00023,  -0.00074,   0.00008,  -8.59977,   1.00000
-239558649.10804,-544262344.25574,31006757.58778,   0.00020,  -0.00276,   0.00049,475511672.65932,   0.00080,275511680.19738,   0.00023,  -0.00075,   0.00009,  -7.53806,   1.00000
-242218770.14812,-544401566.58717,31323729.08930,   0.00019,  -0.00277,   0.00049,475523131.30000,   0.00081,275523139.85766,   0.00023,  -0.00076,   0.00009,  -8.55766,   1.00000
-244857431.70173,-544523080.91443,31639045.62234,   0.00018,  -0.00277,   0.00050,475534553.98822,   0.00082,275534560.37514,   0.00023,  -0.00077,   0.00009,  -6.38692,   1.00000
-247492654.83598,-544627462.68659,31956544.41831,   0.00017,  -0.00278,   0.00051,475546057.56623,   0.00083,275546061.48426,   0.00023,  -0.00078,   0.00009,  -3.91803,   1.00000
-250108040.30173,-544716176.04490,32265453.34907,   0.00016,  -0.00278,   0.00051,475557596.29804,   0.00084,275557600.51267,   0.00023,  -0.00079,   0.00009,  -4.21463,   1.00000
-252719561.06719,-544787802.34027,32576508.79527,   0.00015,  -0.00279,   0.00052,475569215.38132,   0.00085,275569219.92006,   0.00023,  -0.00080,   0.00010,  -4.53874,   1.00000
-255309099.03499,-544840945.85342,32891523.11276,   0.00014,  -0.00279,   0.00053,475580800.91961,   0.00086,275580805.02465,   0.00023,  -0.00081,   0.00010,  -4.10504,   1.00000
-257878675.86069,-544878985.81003,33197922.64598,   0.00012,  -0.00280,   0.00053,475592425.80181,   0.00087,275592426.48273,   0.00024,  -0.00082,   0.00010,  -0.68092,   1.00000
-260443958.29461,-544900109.94831,33506396.19835,   0.00011,  -0.00281,   0.00054,475604120.54811,   0.00088,275604128.15294,   0.00024,  -0.00083,   0.00010,  -7.60484,   1.00000
-262988520.15878,-544905081.69046,33811853.78283,   0.00010,  -0.00281,   0.00055,475615867.16100,   0.00089,275615870.95970,   0.00024,  -0.00084,   0.00011,  -3.79870,   1.00000
-265511877.89845,-544893687.80495,34115695.94850,   0.00009,  -0.00282,   0.00055,475627568.73512,   0.00091,275627572.35030,   0.00024,  -0.00085,   0.00011,  -3.61518,   1.00000
-268030539.10277,-544865588.26740,34421543.26635,   0.00008,  -0.00282,   0.00056,475639348.38316,   0.00092,275639353.73349,   0.00024,  -0.00087,   0.00011,  -5.35033,   1.00000
-270528356.34749,-544821862.75027,34724347.94001,   0.00007,  -0.00283,   0.00057,475651165.98860,   0.00093,275651175.01124,   0.00024,  -0.00088,   0.00011,  -9.02264,   1.00000
-273021503.15561,-544762482.95161,35024935.27001,   0.00006,  -0.00283,   0.00057,475662979.77741,   0.00094,275662988.89404,   0.00024,  -0.00089,   0.00012,  -9.11664,   1.00000
-275493810.42493,-544688270.06042,35321039.93590,   0.00004,  -0.00284,   0.00058,475674922.29212,   0.00095,275674923.01323,   0.00024,  -0.00090,   0.00012,  -0.72111,   1.00000
-277945095.29348,-544598512.15035,35615568.85883,   0.00003,  -0.00284,   0.00059,475686804.85502,   0.00096,275686814.55470,   0.00024,  -0.00091,   0.00012,  -9.69969,   1.00000
-280391025.27470,-544491906.27417,35913479.93695,   0.00002,  -0.00285,   0.00059,475698700.14772,   0.00097,275698704.99673,   0.00024,  -0.00092,   0.00013,  -4.84901,   1.00000
-282815752.11845,-544371036.39856,36206849.67921,   0.00001,  -0.00285,   0.00060,475710709.06223,   0.00098,275710713.95332,   0.00024,  -0.00093,   0.00013,  -4.89109,   1.00000
-285219679.12524,-544235170.62845,36498662.95403,  -0.00000,  -0.00286,   0.00061,475722674.21920,   0.00099,275722679.67997,   0.00023,  -0.00094,   0.00013,  -5.46077,   1.00000
-287601961.76520,-544083561.18991,36793017.55357,  -0.00001,  -0.00287,   0.00061,475734683.23002,   0.00100,275734688.33450,   0.00023,  -0.00095,   0.00013,  -5.10448,   1.00000
-289980225.60715,-543918460.84223,37079545.94252,  -0.00002,  -0.00287,   0.00062,475746679.94968,   0.00102,275746683.84444,   0.00023,  -0.00096,   0.00014,  -3.89476,   1.00000
-292336756.91670,-543737910.04081,37368620.85806,  -0.00004,  -0.00288,   0.00063,475758718.78572,   0.00103,275758721.78011,   0.00023,  -0.00097,   0.00014,  -2.99439,   1.00000
-294687877.58814,-543543026.51664,37653910.88580,  -0.00005,  -0.00288,   0.00063,475770824.05843,   0.00104,275770832.85916,   0.00023,  -0.00098,   0.00014,  -8.80074,   1.00000
-297017838.40275,-543334557.48904,37936146.12167,  -0.00006,  -0.00289,   0.00064,475782970.94792,   0.00105,275782979.30870,   0.00023,  -0.00099,   0.00015,  -8.36078,   1.00000
-299326739.63139,-543110595.20945,38222471.69687,  -0.00007,  -0.00289,   0.00065,475795086.13653,   0.00106,275795087.90754,   0.00023,  -0.00100,   0.00015,  -1.77101,   1.00000
-301615409.50432,-542875086.74383,38500166.20839,  -0.00008,  -0.00290,   0.00065,475807221.31328,   0.00107,275807224.60761,   0.00023,  -0.00101,   0.00015,  -3.29433,   1.00000
-303897603.74099,-542624171.62527,38779627.38568,  -0.00009,  -0.00290,   0.00066,475819438.65629,   0.00108,275819440.34661,   0.00023,  -0.00103,   0.00016,  -1.69032,   1.00000
-306143551.23251,-542361561.93550,39056833.88684,  -0.00011,  -0.00291,   0.00067,475831642.51994,   0.00109,275831650.96470,   0.00023,  -0.00104,   0.00016,  -8.44477,   1.00000
-308399934.41734,-542083627.62955,39331006.89995,  -0.00012,  -0.00291,   0.00067,475843890.36139,   0.00111,275843894.57302,   0.00023,  -0.00105,   0.00016,  -4.21163,   1.00000
-310621446.01757,-541793772.88549,39604585.16581,  -0.00013,  -0.00292,   0.00068,475856049.01588,   0.00112,275856053.96388,   0.00023,  -0.00106,   0.00017,  -4.94800,   1.00000
-312834928.33935,-541489670.08645,39878245.49280,  -0.00014,  -0.00292,   0.00069,475868360.42353,   0.00113,275868370.35319,   0.00023,  -0.00107,   0.00017,  -9.92965,   1.00000
-315029646.39467,-541174517.64630,40144950.26810,  -0.00015,  -0.00293,   0.00070,475880626.65066,   0.00114,275880634.70549,   0.00022,  -0.00108,   0.00017,  -8.05483,   1.00000
-317202660.24401,-540846027.14449,40414217.28720,  -0.00017,  -0.00293,   0.00070,475892930.21438,   0.00115,275892937.75606,   0.00022,  -0.00109,   0.00018,  -7.54168,   1.00000
-319356437.38245,-540505273.64148,40682134.70923,  -0.00018,  -0.00294,   0.00071,475905194.97983,   0.00116,275905195.10178,   0.00022,  -0.00110,   0.00018,  -0.12195,   1.00000
-321502472.77376,-540152503.76860,40944495.56860,  -0.00019,  -0.00294,   0.00072,475917594.59248,   0.00117,275917601.71605,   0.00022,  -0.00111,   0.00018,  -7.12357,   1.00000
-323631054.65393,-539786886.83366,41207226.66555,  -0.00020,  -0.00295,   0.00072,475929879.12932,   0.00119,275929885.54857,   0.00022,  -0.00112,   0.00019,  -6.41925,   1.00000
-325736326.99006,-539409594.05526,41470834.59781,  -0.00021,  -0.00295,   0.00073,475942281.51720,   0.00120,275942283.83629,   0.00022,  -0.00113,   0.00019,  -2.31910,   1.00000
-327837993.48576,-539020567.12807,41726675.56128,  -0.00023,  -0.00296,   0.00074,475954669.00241,   0.00121,275954670.76825,   0.00022,  -0.00114,   0.00019,  -1.76584,   1.00000
-329903884.33504,-538621206.17949,41986044.59278,  -0.00024,  -0.00296,   0.00074,475967049.66142,   0.00122,275967053.10134,   0.00021,  -0.00115,   0.00020,  -3.43991,   1.00000
-331966400.84205,-538210376.04897,42237677.67942,  -0.00025,  -0.00297,   0.00075,475979414.45952,   0.00123,275979424.23056,   0.00021,  -0.00117,   0.00020,  -9.77104,   1.00000
-334007520.59654,-537787741.94471,42491927.26184,  -0.00026,  -0.00297,   0.00076,475991828.24304,   0.00124,275991831.97495,   0.00021,  -0.00118,   0.00021,  -3.73192,   1.00000
-336028285.52316,-537355244.89607,42743237.27825,  -0.00027,  -0.00298,   0.00076,476004263.87662,   0.00125,276004269.09568,   0.00021,  -0.00119,   0.00021,  -5.21906,   1.00000
-338042596.42932,-536910935.53465,42990631.17189,  -0.00029,  -0.00298,   0.00077,476016770.82180,   0.00127,276016777.98385,   0.00021,  -0.00120,   0.00021,  -7.16205,   1.00000
-340025095.24375,-536458244.05240,43237876.82094,  -0.00030,  -0.00299,   0.00078,476029189.70904,   0.00128,276029197.32962,   0.00020,  -0.00121,   0.00022,  -7.62058,   1.00000
-342003543.33057,-535992854.74604,43482978.79182,  -0.00031,  -0.00299,   0.00079,476041612.46712,   0.00129,276041613.30259,   0.00020,  -0.00122,   0.00022,  -0.83548,   1.00000
-343958495.05749,-535517821.66388,43728952.46863,  -0.00032,  -0.00300,   0.00079,476054139.22985,   0.00130,276054139.76479,   0.00020,  -0.00123,   0.00022,  -0.53493,   1.00000
-345896935.81208,-535034458.60581,43968288.12636,  -0.00033,  -0.00300,   0.00080,476066606.05052,   0.00131,276066612.38815,   0.00020,  -0.00124,   0.00023,  -6.33763,   1.00000
-347830338.50547,-534536846.30739,44211029.25511,  -0.00035,  -0.00301,   0.00081,476079087.51984,   0.00132,276079089.55088,   0.00019,  -0.00125,   0.00023,  -2.03103,   1.00000
-349729045.26807,-534036400.75664,44444657.21118,  -0.00036,  -0.00301,   0.00081,476091613.58510,   0.00134,276091617.35922,   0.00019,  -0.00126,   0.00024,  -3.77412,   1.00000
-351622858.97996,-533521942.48026,44681718.72291,  -0.00037,  -0.00301,   0.00082,476104143.31929,   0.00135,276104149.84568,   0.00019,  -0.00127,   0.00024,  -6.52638,   1.00000
-353500780.09567,-532999749.83784,44912244.10364,  -0.00038,  -0.00302,   0.00083,476116620.70153,   0.00136,276116628.42722,   0.00019,  -0.00128,   0.00024,  -7.72569,   1.00000
-355358056.02568,-532467828.25211,45145504.34633,  -0.00039,  -0.00302,   0.00083,476129135.26693,   0.00137,276129141.31353,   0.00018,  -0.00129,   0.00025,  -6.04660,   1.00000
-357195906.64031,-531928212.43508,45375969.00435,  -0.00041,  -0.00303,   0.00084,476141674.80480,   0.00138,276141680.95803,   0.00018,  -0.00130,   0.00025,  -6.15323,   1.00000
-359017337.01626,-531379559.72649,45605494.11463,  -0.00042,  -0.00303,   0.00085,476154169.96579,   0.00139,276154173.78335,   0.00018,  -0.00132,   0.00026,  -3.81757,   1.00000
-360820762.59407,-530825438.71315,45826754.89110,  -0.00043,  -0.00304,   0.00086,476166676.58994,   0.00141,276166685.47825,   0.00018,  -0.00133,   0.00026,  -8.88831,   1.00000
-362616649.39857,-530259415.69256,46049658.48057,  -0.00044,  -0.00304,   0.00086,476179275.96622,   0.00142,276179276.19610,   0.00017,  -0.00134,   0.00026,  -0.22988,   1.00000
-364396458.94964,-529684712.17593,46271690.34622,  -0.00045,  -0.00305,   0.00087,476191818.61279,   0.00143,276191820.26053,   0.00017,  -0.00135,   0.00027,  -1.64774,   1.00000
-366144847.74162,-529106325.72636,46492206.76612,  -0.00047,  -0.00305,   0.00088,476204340.85498,   0.00144,276204343.89910,   0.00017,  -0.00136,   0.00027,  -3.04412,   1.00000
-367886981.89301,-528518294.69073,46708841.70618,  -0.00048,  -0.00305,   0.00088,476216932.33309,   0.00145,276216939.23471,   0.00016,  -0.00137,   0.00028,  -6.90163,   1.00000
-369613622.39934,-527922057.12221,46924688.63875,  -0.00049,  -0.00306,   0.00089,476229486.27042,   0.00146,276229487.68061,   0.00016,  -0.00138,   0.00028,  -1.41019,   1.00000
-371324950.57629,-527317692.07022,47139765.61350,  -0.00050,  -0.00306,   0.00090,476241980.35353,   0.00148,276241989.50512,   0.00016,  -0.00139,   0.00029,  -9.15159,   1.00000
-373014574.86917,-526709239.19276,47350323.70081,  -0.00052,  -0.00307,   0.00091,476254587.63397,   0.00149,276254588.01697,   0.00015,  -0.00140,   0.00029,  -0.38300,   1.00000
-374701273.20337,-526089614.07221,47558913.74067,  -0.00053,  -0.00307,   0.00091,476267182.14834,   0.00150,276267186.94447,   0.00015,  -0.00141,   0.00029,  -4.79612,   1.00000
-376361089.97258,-525465619.83882,47768074.46803,  -0.00054,  -0.00308,   0.00092,476279687.85939,   0.00151,276279691.87389,   0.00015,  -0.00142,   0.00030,  -4.01449,   1.00000
-378002906.33935,-524836120.18669,47974661.19352,  -0.00055,  -0.00308,   0.00093,476292216.83865,   0.00152,276292221.30928,   0.00014,  -0.00143,   0.00030,  -4.47063,   1.00000
-379638615.96327,-524197805.57983,48177401.86029,  -0.00056,  -0.00308,   0.00093,476304812.96532,   0.00153,276304822.86553,   0.00014,  -0.00144,   0.00031,  -9.90022,   1.00000
-381259937.89749,-523552107.28948,48379522.07637,  -0.00058,  -0.00309,   0.00094,476317373.03040,   0.00155,276317377.86425,   0.00014,  -0.00145,   0.00031,  -4.83385,   1.00000
-382851872.16205,-522904943.11569,48580437.75164,  -0.00059,  -0.00309,   0.00095,476329902.39392,   0.00156,276329908.80546,   0.00013,  -0.00146,   0.00032,  -6.41154,   1.00000
-384437868.70768,-522249366.80243,48777532.01608,  -0.00060,  -0.00310,   0.00096,476342508.49921,   0.00157,276342511.85161,   0.00013,  -0.00147,   0.00032,  -3.35240,   1.00000
-386011360.46388,-521588685.89690,48968603.81147,  -0.00061,  -0.00310,   0.00096,476355058.64317,   0.00158,276355060.53260,   0.00013,  -0.00148,   0.00033,  -1.88943,   1.00000
-387558505.04249,-520922834.35208,49166021.31649,  -0.00063,  -0.00310,   0.00097,476367518.00733,   0.00159,276367521.75303,   0.00012,  -0.00149,   0.00033,  -3.74570,   1.00000
-389096118.05427,-520251349.57144,49357687.65141,  -0.00064,  -0.00311,   0.00098,476380120.57174,   0.00160,276380125.24948,   0.00012,  -0.00150,   0.00033,  -4.67774,   1.00000
-390624224.13321,-519570653.63018,49550830.27434,  -0.00065,  -0.00311,   0.00098,476392610.64727,   0.00162,276392612.66394,   0.00011,  -0.00151,   0.00034,  -2.01667,   1.00000
-392132916.78566,-518890359.05664,49734135.26740,  -0.00066,  -0.00312,   0.00099,476405176.07632,   0.00163,276405185.08423,   0.00011,  -0.00152,   0.00034,  -9.00792,   1.00000
-393627282.60129,-518201628.16127,49922527.23314,  -0.00068,  -0.00312,   0.00100,476417718.47866,   0.00164,276417718.89214,   0.00011,  -0.00153,   0.00035,  -0.41347,   1.00000
-395110271.06668,-517508391.76609,50105040.75287,  -0.00069,  -0.00312,   0.00100,476430190.29787,   0.00165,276430198.69130,   0.00010,  -0.00154,   0.00035,  -8.39343,   1.00000
-396571356.20745,-516812301.75930,50288741.31948,  -0.00070,  -0.00313,   0.00101,476442769.81719,   0.00166,276442778.22269,   0.00010,  -0.00155,   0.00036,  -8.40550,   1.00000
-398025435.78357,-516109173.97761,50468592.53202,  -0.00071,  -0.00313,   0.00102,476455228.33390,   0.00167,276455234.76028,   0.00009,  -0.00156,   0.00036,  -6.42638,   1.00000
-399459229.58637,-515405533.95610,50644190.71639,  -0.00072,  -0.00314,   0.00103,476467779.78747,   0.00169,276467782.51072,   0.00009,  -0.00157,   0.00037,  -2.72325,   1.00000
-400880947.66483,-514695844.52173,50819518.44425,  -0.00074,  -0.00314,   0.00103,476480281.88193,   0.00170,276480284.02960,   0.00008,  -0.00158,   0.00037,  -2.14767,   1.00000
-402290748.28133,-513980149.75809,50994589.23435,  -0.00075,  -0.00314,   0.00104,476492734.30317,   0.00171,276492739.57386,   0.00008,  -0.00159,   0.00038,  -5.27069,   1.00000
-403674244.04633,-513265644.15266,51168920.86282,  -0.00076,  -0.00315,   0.00105,476505163.94089,   0.00172,276505166.54979,   0.00007,  -0.00160,   0.00038,  -2.60889,   1.00000
-405052564.25893,-512544264.74548,51339560.73029,  -0.00077,  -0.00315,   0.00105,476517665.87692,   0.00173,276517666.37849,   0.00007,  -0.00161,   0.00039,  -0.50157,   1.00000
-406419464.81813,-511817124.73400,51510010.34265,  -0.00079,  -0.00315,   0.00106,476530116.70973,   0.00174,276530120.38992,   0.00007,  -0.00162,   0.00039,  -3.68019,   1.00000
-407772413.70234,-511089446.76482,51672837.95890,  -0.00080,  -0.00316,   0.00107,476542582.77104,   0.00176,276542588.14008,   0.00006,  -0.00163,   0.00040,  -5.36904,   1.00000
-409112745.38016,-510354147.59107,51841005.98325,  -0.00081,  -0.00316,   0.00107,476555010.11198,   0.00177,276555018.28093,   0.00006,  -0.00164,   0.00040,  -8.16895,   1.00000
-410439408.68577,-509618562.11424,52001587.13257,  -0.00082,  -0.00316,   0.00108,476567456.88010,   0.00178,276567461.99057,   0.00005,  -0.00165,   0.00041,  -5.11047,   1.00000
-411745315.02672,-508881756.68763,52163646.47013,  -0.00084,  -0.00317,   0.00109,476579799.77799,   0.00179,276579808.25929,   0.00005,  -0.00166,   0.00041,  -8.48131,   1.00000
-413040483.47751,-508140040.87182,52325524.49986,  -0.00085,  -0.00317,   0.00110,476592294.85497,   0.00180,276592302.99118,   0.00004,  -0.00166,   0.00042,  -8.13621,   1.00000
-414332680.45239,-507393524.04681,52478457.68821,  -0.00086,  -0.00317,   0.00110,476604663.25562,   0.00181,276604668.90882,   0.00004,  -0.00167,   0.00042,  -5.65320,   1.00000
-415598851.17249,-506647528.26302,52636421.98107,  -0.00087,  -0.00318,   0.00111,476617006.67552,   0.00183,276617012.04473,   0.00003,  -0.00168,   0.00042,  -5.36921,   1.00000
-416860312.28733,-505895481.08252,52790782.67133,  -0.00088,  -0.00318,   0.00112,476629425.98664,   0.00184,276629428.70083,   0.00003,  -0.00169,   0.00043,  -2.71419,   1.00000
-418103758.88458,-505144643.46644,52941329.94768,  -0.00090,  -0.00318,   0.00112,476641734.48452,   0.00185,276641739.16830,   0.00002,  -0.00170,   0.00043,  -4.68378,   1.00000
-419331456.85083,-504390337.79277,53095376.32699,  -0.00091,  -0.00319,   0.00113,476654073.05207,   0.00186,276654078.76255,   0.00002,  -0.00171,   0.00044,  -5.71048,   1.00000
-420556221.69206,-503632263.84831,53240400.76096,  -0.00092,  -0.00319,   0.00114,476666478.37474,   0.00187,276666483.69519,   0.00001,  -0.00172,   0.00044,  -5.32046,   1.00000
-421766527.28952,-502869790.41483,53389202.49633,  -0.00093,  -0.00319,   0.00114,476678723.35696,   0.00188,276678724.54360,   0.00001,  -0.00173,   0.00045,  -1.18664,   1.00000
-422960167.49907,-502112024.80933,53528639.08054,  -0.00095,  -0.00320,   0.00115,476691040.65186,   0.00189,276691043.38933,   0.00000,  -0.00174,   0.00045,  -2.73747,   1.00000
-424143045.87912,-501347279.36216,53673704.34999,  -0.00096,  -0.00320,   0.00116,476703320.10123,   0.00191,276703325.35981,  -0.00001,  -0.00175,   0.00046,  -5.25859,   1.00000
-425314048.62124,-500583609.98469,53811472.94447,  -0.00097,  -0.00320,   0.00116,476715609.73523,   0.00192,276715619.31469,  -0.00001,  -0.00176,   0.00046,  -9.57947,   1.00000
-426465452.37372,-499817596.87951,53956574.20833,  -0.00098,  -0.00321,   0.00117,476727815.80485,   0.00193,276727822.91389,  -0.00002,  -0.00176,   0.00047,  -7.10904,   1.00000
-427616104.76518,-499050318.78354,54087296.17228,  -0.00099,  -0.00321,   0.00118,476740083.43556,   0.00194,276740083.57770,  -0.00002,  -0.00177,   0.00047,  -0.14214,   1.00000
-428747521.65253,-498280756.22991,54225432.78148,  -0.00101,  -0.00321,   0.00118,476752244.58049,   0.00195,276752253.76950,  -0.00003,  -0.00178,   0.00048,  -9.18902,   1.00000
-429874916.47889,-497506018.74698,54360095.50269,  -0.00102,  -0.00322,   0.00119,476764495.53190,   0.00196,276764498.07496,  -0.00003,  -0.00179,   0.00048,  -2.54306,   1.00000
-430986874.96893,-496733153.57572,54491326.51099,  -0.00103,  -0.00322,   0.00120,476776631.87124,   0.00198,276776634.95459,  -0.00004,  -0.00180,   0.00049,  -3.08335,   1.00000
-432086127.92874,-495959865.56906,54620849.82417,  -0.00104,  -0.00322,   0.00120,476788783.41304,   0.00199,276788791.59742,  -0.00004,  -0.00181,   0.00049,  -8.18438,   1.00000
-433172811.31190,-495186273.19560,54748686.84089,  -0.00105,  -0.00322,   0.00121,476800960.22388,   0.00200,276800967.79650,  -0.00005,  -0.00182,   0.00050,  -7.57262,   1.00000
-434251726.06575,-494408010.04054,54876893.77247,  -0.00107,  -0.00323,   0.00122,476813098.23959,   0.00201,276813099.28211,  -0.00006,  -0.00182,   0.00050,  -1.04252,   1.00000
-435324700.39375,-493627079.30292,55000050.81949,  -0.00108,  -0.00323,   0.00122,476825171.90339,   0.00202,276825177.78599,  -0.00006,  -0.00183,   0.00051,  -5.88260,   1.00000
-436372215.25303,-492855329.91011,55121308.83830,  -0.00109,  -0.00323,   0.00123,476837278.76252,   0.00203,276837284.52470,  -0.00007,  -0.00184,   0.00051,  -5.76218,   1.00000
-437417206.60298,-492074344.40421,55245060.48662,  -0.00110,  -0.00324,   0.00124,476849282.27629,   0.00204,276849282.73866,  -0.00007,  -0.00185,   0.00052,  -0.46237,   1.00000
-438453881.00252,-491293365.22884,55363392.41036,  -0.00112,  -0.00324,   0.00124,476861415.34646,   0.00205,276861419.20835,  -0.00008,  -0.00186,   0.00052,  -3.86189,   1.00000
-439481619.77320,-490509810.59968,55480609.79460,  -0.00113,  -0.00324,   0.00125,476873375.77763,   0.00207,276873383.73359,  -0.00008,  -0.00187,   0.00053,  -7.95595,   1.00000
-440484659.82350,-489736002.97168,55596042.83297,  -0.00114,  -0.00324,   0.00126,476885365.06194,   0.00208,276885374.98453,  -0.00009,  -0.00187,   0.00053,  -9.92259,   1.00000
-441489202.98086,-488952880.44673,55710207.74713,  -0.00115,  -0.00325,   0.00126,476897368.31303,   0.00209,276897377.35438,  -0.00010,  -0.00188,   0.00054,  -9.04136,   1.00000
-442478933.79676,-488169947.98503,55826722.91761,  -0.00116,  -0.00325,   0.00127,476909274.23227,   0.00210,276909279.64226,  -0.00010,  -0.00189,   0.00054,  -5.40999,   1.00000
-443467227.65416,-487384661.87788,55934500.14078,  -0.00118,  -0.00325,   0.00128,476921241.66463,   0.00211,276921248.03712,  -0.00011,  -0.00190,   0.00055,  -6.37249,   1.00000
-444436247.57265,-486604635.70275,56042660.95681,  -0.00119,  -0.00325,   0.00128,476933172.30199,   0.00212,276933178.86608,  -0.00011,  -0.00191,   0.00055,  -6.56409,   1.00000
-445399021.77805,-485820060.34503,56151433.98439,  -0.00120,  -0.00326,   0.00129,476945060.37087,   0.00213,276945065.42127,  -0.00012,  -0.00191,   0.00056,  -5.05040,   1.00000
-446344813.25784,-485042922.93043,56255215.60789,  -0.00121,  -0.00326,   0.00130,476956899.93848,   0.00214,276956905.18765,  -0.00013,  -0.00192,   0.00057,  -5.24917,   1.00000
-447292471.12424,-484256409.72946,56357808.90850,  -0.00122,  -0.00326,   0.00130,476968748.24013,   0.00216,276968757.19942,  -0.00013,  -0.00193,   0.00057,  -8.95929,   1.00000
-448221608.19597,-483475425.73589,56460892.00223,  -0.00124,  -0.00326,   0.00131,476980567.18778,   0.00217,276980570.74159,  -0.00014,  -0.00194,   0.00058,  -3.55381,   1.00000
-449146879.66808,-482691908.79268,56559250.30275,  -0.00125,  -0.00327,   0.00132,476992327.02284,   0.00218,276992331.40120,  -0.00014,  -0.00195,   0.00058,  -4.37836,   1.00000
-450054048.75299,-481914024.03866,56658165.90583,  -0.00126,  -0.00327,   0.00132,477004045.04164,   0.00219,277004053.03099,  -0.00015,  -0.00195,   0.00059,  -7.98935,   1.00000
-450963354.96482,-481126723.09966,56755929.67793,  -0.00127,  -0.00327,   0.00133,477015782.39122,   0.00220,277015787.61116,  -0.00016,  -0.00196,   0.00059,  -5.21994,   1.00000
-451854843.47874,-480345171.08391,56854281.14711,  -0.00128,  -0.00327,   0.00133,477027482.14039,   0.00221,277027482.92608,  -0.00016,  -0.00197,   0.00060,  -0.78568,   1.00000
-452738129.37353,-479566617.88126,56945937.77790,  -0.00129,  -0.00328,   0.00134,477039181.59138,   0.00222,277039187.05018,  -0.00017,  -0.00198,   0.00060,  -5.45880,   1.00000
-453616291.28081,-478783480.78629,57038395.18892,  -0.00131,  -0.00328,   0.00135,477050846.22667,   0.00223,277050847.09142,  -0.00018,  -0.00198,   0.00061,  -0.86475,   1.00000
-454486416.85325,-478003422.04703,57124210.21063,  -0.00132,  -0.00328,   0.00135,477062509.78210,   0.00224,277062515.75878,  -0.00018,  -0.00199,   0.00061,  -5.97668,   1.00000
-455344321.66947,-477223607.90067,57212797.62229,  -0.00133,  -0.00328,   0.00136,477074077.92237,   0.00226,277074082.70728,  -0.00019,  -0.00200,   0.00062,  -4.78491,   1.00000
-456192565.33290,-476444924.37252,57300192.49761,  -0.00134,  -0.00328,   0.00137,477085659.51703,   0.00227,277085666.87167,  -0.00020,  -0.00201,   0.00062,  -7.35464,   1.00000
-457036129.52294,-475661595.35072,57388444.64623,  -0.00135,  -0.00329,   0.00137,477097205.20649,   0.00228,277097207.20406,  -0.00020,  -0.00201,   0.00063,  -1.99757,   1.00000
-457865032.40910,-474886382.42581,57472063.04552,  -0.00137,  -0.00329,   0.00138,477108697.60313,   0.00229,277108697.70605,  -0.00021,  -0.00202,   0.00063,  -0.10292,   1.00000
-458686584.03125,-474114451.21558,57549152.29888,  -0.00138,  -0.00329,   0.00138,477120186.05876,   0.00230,277120196.02902,  -0.00021,  -0.00203,   0.00064,  -9.97026,   1.00000
-459501877.12303,-473335804.51162,57632590.10112,  -0.00139,  -0.00329,   0.00139,477131653.27288,   0.00231,277131659.23714,  -0.00022,  -0.00203,   0.00064,  -5.96426,   1.00000
-460314856.90847,-472554449.93822,57711539.93867,  -0.00140,  -0.00329,   0.00140,477143067.81990,   0.00232,277143069.88758,  -0.00023,  -0.00204,   0.00065,  -2.06768,   1.00000
-461113813.50969,-471781339.87706,57785977.68264,  -0.00141,  -0.00330,   0.00140,477154426.30498,   0.00233,277154429.74521,  -0.00023,  -0.00205,   0.00065,  -3.44023,   1.00000
-461903873.30885,-471009622.85610,57859375.62483,  -0.00142,  -0.00330,   0.00141,477165805.43966,   0.00234,277165805.92025,  -0.00024,  -0.00205,   0.00066,  -0.48059,   1.00000
-462690000.77026,-470233105.63042,57933769.95922,  -0.00144,  -0.00330,   0.00141,477177136.44132,   0.00235,277177138.32374,  -0.00025,  -0.00206,   0.00066,  -1.88242,   1.00000
-463460643.78633,-469462926.89112,58009123.46566,  -0.00145,  -0.00330,   0.00142,477188424.99479,   0.00236,277188428.17608,  -0.00025,  -0.00207,   0.00067,  -3.18130,   1.00000
-464224715.76212,-468696266.61481,58078062.43798,  -0.00146,  -0.00330,   0.00143,477199717.02077,   0.00237,277199725.11229,  -0.00026,  -0.00208,   0.00067,  -8.09152,   1.00000
-464992077.67479,-467920367.01703,58144676.84325,  -0.00147,  -0.00330,   0.00143,477210906.05694,   0.00238,277210909.45733,  -0.00027,  -0.00208,   0.00068,  -3.40038,   1.00000
-465746042.51858,-467152422.16422,58208311.20623,  -0.00148,  -0.00331,   0.00144,477222162.37315,   0.00239,277222169.49796,  -0.00027,  -0.00209,   0.00068,  -7.12481,   1.00000
-466490026.35521,-466384445.70216,58275048.54348,  -0.00149,  -0.00331,   0.00144,477233325.91382,   0.00241,277233326.36678,  -0.00028,  -0.00210,   0.00069,  -0.45296,   1.00000
-467225785.47621,-465618058.50366,58340845.05100,  -0.00150,  -0.00331,   0.00145,477244497.61741,   0.00242,277244499.02159,  -0.00029,  -0.00210,   0.00069,  -1.40418,   1.00000
-467955922.33895,-464855578.38770,58398973.85022,  -0.00152,  -0.00331,   0.00145,477255543.19642,   0.00243,277255550.28032,  -0.00029,  -0.00211,   0.00070,  -7.08390,   1.00000
-468676036.33862,-464092720.09360,58461626.28447,  -0.00153,  -0.00331,   0.00146,477266622.10797,   0.00244,277266625.92866,  -0.00030,  -0.00211,   0.00070,  -3.82069,   1.00000
-469395135.44168,-463326812.42859,58520006.86848,  -0.00154,  -0.00331,   0.00147,477277644.59435,   0.00245,277277648.90594,  -0.00031,  -0.00212,   0.00071,  -4.31159,   1.00000
-470106338.29460,-462562578.91094,58577525.38868,  -0.00155,  -0.00332,   0.00147,477288684.08077,   0.00246,277288687.27234,  -0.00031,  -0.00213,   0.00071,  -3.19157,   1.00000
-470805560.30213,-461806921.46541,58630855.68207,  -0.00156,  -0.00332,   0.00148,477299668.58031,   0.00247,277299671.68232,  -0.00032,  -0.00213,   0.00072,  -3.10201,   1.00000
-471495846.99374,-461050970.57624,58687434.01528,  -0.00157,  -0.00332,   0.00148,477310546.76845,   0.00248,277310552.14415,  -0.00033,  -0.00214,   0.00072,  -5.37570,   1.00000
-472191659.87743,-460286953.50827,58737742.98967,  -0.00158,  -0.00332,   0.00149,477321432.56436,   0.00249,277321440.17862,  -0.00033,  -0.00215,   0.00072,  -7.61426,   1.00000
-472868957.17366,-459536514.63595,58787332.75210,  -0.00160,  -0.00332,   0.00149,477332334.91925,   0.00250,277332341.20746,  -0.00034,  -0.00215,   0.00073,  -6.28822,   1.00000
-473545821.35514,-458782826.57705,58832767.05797,  -0.00161,  -0.00332,   0.00150,477343188.79499,   0.00251,277343189.28818,  -0.00035,  -0.00216,   0.00073,  -0.49319,   1.00000
-474214196.32542,-458028664.55661,58881529.08744,  -0.00162,  -0.00332,   0.00150,477353925.19428,   0.00252,277353933.17435,  -0.00035,  -0.00216,   0.00074,  -7.98007,   1.00000
-474877436.84387,-457278280.35806,58924156.15311,  -0.00163,  -0.00332,   0.00151,477364678.77807,   0.00253,277364682.41377,  -0.00036,  -0.00217,   0.00074,  -3.63570,   1.00000
-475527631.96721,-456534528.26141,58968161.39261,  -0.00164,  -0.00333,   0.00152,477375379.86146,   0.00254,277375385.14236,  -0.00037,  -0.00218,   0.00075,  -5.28090,   1.00000
-476181523.71908,-455780538.64009,59011358.96953,  -0.00165,  -0.00333,   0.00152,477386104.76807,   0.00255,277386105.05738,  -0.00037,  -0.00218,   0.00075,  -0.28932,   1.00000
-476818836.71194,-455040005.49982,59052655.65450,  -0.00166,  -0.00333,   0.00153,477396702.95083,   0.00256,277396708.11262,  -0.00038,  -0.00219,   0.00076,  -5.16179,   1.00000
-477462020.50382,-454291130.73495,59087775.28657,  -0.00167,  -0.00333,   0.00153,477407317.57620,   0.00257,277407319.35123,  -0.00039,  -0.00219,   0.00076,  -1.77502,   1.00000
-478092589.85587,-453548903.16568,59124355.29069,  -0.00168,  -0.00333,   0.00154,477417878.23953,   0.00258,277417883.39328,  -0.00039,  -0.00220,   0.00077,  -5.15375,   1.00000
-478715574.77603,-452805896.47898,59164378.69408,  -0.00170,  -0.00333,   0.00154,477428337.59962,   0.00259,277428342.49214,  -0.00040,  -0.00220,   0.00077,  -4.89251,   1.00000
-479334860.48381,-452069403.15886,59194280.73978,  -0.00171,  -0.00333,   0.00155,477438915.54019,   0.00260,277438924.98495,  -0.00041,  -0.00221,   0.00078,  -9.44476,   1.00000
-479945984.86389,-451329315.20468,59231765.66022,  -0.00172,  -0.00333,   0.00155,477449277.57398,   0.00261,277449283.44590,  -0.00041,  -0.00222,   0.00078,  -5.87191,   1.00000
-480553508.03240,-450595852.12393,59259153.67489,  -0.00173,  -0.00333,   0.00156,477459757.96220,   0.00262,277459765.08795,  -0.00042,  -0.00222,   0.00079,  -7.12575,   1.00000
-481156004.68549,-449863396.19230,59284684.61897,  -0.00174,  -0.00334,   0.00156,477470128.07458,   0.00263,277470132.01386,  -0.00043,  -0.00223,   0.00079,  -3.93928,   1.00000
-481751467.66258,-449129895.19395,59313757.47443,  -0.00175,  -0.00334,   0.00157,477480385.61637,   0.00264,277480393.44359,  -0.00043,  -0.00223,   0.00080,  -7.82723,   1.00000
-482346091.65042,-448393508.87227,59340136.68614,  -0.00176,  -0.00334,   0.00157,477490722.28584,   0.00265,277490730.06610,  -0.00044,  -0.00224,   0.00080,  -7.78026,   1.00000
-482925836.87638,-447670502.51434,59364862.03515,  -0.00177,  -0.00334,   0.00158,477500943.67021,   0.00266,277500946.59165,  -0.00045,  -0.00224,   0.00081,  -2.92144,   1.00000
-483507000.41409,-446946587.82709,59381544.77138,  -0.00178,  -0.00334,   0.00158,477511226.43601,   0.00267,277511228.79841,  -0.00045,  -0.00225,   0.00081,  -2.36239,   1.00000
-484080990.26251,-446218296.40859,59405933.99635,  -0.00179,  -0.00334,   0.00159,477521280.53787,   0.00268,277521286.36370,  -0.00046,  -0.00225,   0.00081,  -5.82583,   1.00000
-484651678.47234,-445497021.76143,59420337.05245,  -0.00180,  -0.00334,   0.00159,477531460.59662,   0.00269,277531466.21189,  -0.00047,  -0.00226,   0.00082,  -5.61527,   1.00000
-485215948.27801,-444774409.13903,59438380.11050,  -0.00181,  -0.00334,   0.00160,477541535.23918,   0.00270,277541539.91391,  -0.00047,  -0.00226,   0.00082,  -4.67473,   1.00000
-485771350.91961,-444060348.94912,59452727.92945,  -0.00182,  -0.00334,   0.00160,477551550.99632,   0.00271,277551554.40294,  -0.00048,  -0.00227,   0.00083,  -3.40662,   1.00000
-486326160.97929,-443343476.52717,59464481.63997,  -0.00184,  -0.00334,   0.00161,477561635.63200,   0.00272,277561643.75254,  -0.00049,  -0.00227,   0.00083,  -8.12054,   1.00000
-486871919.55478,-442631748.68754,59476683.13880,  -0.00185,  -0.00334,   0.00161,477571554.18778,   0.00273,277571554.72044,  -0.00049,  -0.00228,   0.00084,  -0.53266,   1.00000
-487412080.52753,-441921899.69881,59488467.75567,  -0.00186,  -0.00334,   0.00161,477581472.10969,   0.00274,277581477.81902,  -0.00050,  -0.00228,   0.00084,  -5.70933,   1.00000
-487953565.17857,-441207667.26489,59496383.01298,  -0.00187,  -0.00335,   0.00162,477591344.11405,   0.00274,277591347.91898,  -0.00051,  -0.00229,   0.00085,  -3.80493,   1.00000
-488484528.09362,-440500002.98382,59506079.38660,  -0.00188,  -0.00335,   0.00162,477601163.29914,   0.00275,277601167.10548,  -0.00051,  -0.00229,   0.00085,  -3.80634,   1.00000
-489016915.39088,-439787835.84732,59511916.63450,  -0.00189,  -0.00335,   0.00163,477610927.27212,   0.00276,277610933.40145,  -0.00052,  -0.00230,   0.00085,  -6.12933,   1.00000
-489541398.89579,-439087825.59484,59510090.98596,  -0.00190,  -0.00335,   0.00163,477620753.55466,   0.00277,277620757.70701,  -0.00053,  -0.00230,   0.00086,  -4.15235,   1.00000
-490060345.52465,-438385969.04323,59512033.79653,  -0.00191,  -0.00335,   0.00164,477630471.33431,   0.00278,277630474.88792,  -0.00053,  -0.00231,   0.00086,  -3.55362,   1.00000
-490576032.66746,-437684089.33990,59512341.00656,  -0.00192,  -0.00335,   0.00164,477640071.57612,   0.00279,277640075.78583,  -0.00054,  -0.00231,   0.00087,  -4.20970,   1.00000
-491086529.44255,-436984067.93092,59512323.56892,  -0.00193,  -0.00335,   0.00165,477649678.79526,   0.00280,277649688.16844,  -0.00055,  -0.00232,   0.00087,  -9.37318,   1.00000
-491589327.31924,-436292437.98168,59508790.75155,  -0.00194,  -0.00335,   0.00165,477659230.62622,   0.00281,277659239.12727,  -0.00055,  -0.00232,   0.00088,  -8.50105,   1.00000
-492089297.73272,-435604565.61904,59499584.07816,  -0.00195,  -0.00335,   0.00165,477668788.24455,   0.00282,277668791.84441,  -0.00056,  -0.00233,   0.00088,  -3.59987,   1.00000
-492588882.66553,-434909932.92448,59492008.11258,  -0.00196,  -0.00335,   0.00166,477678297.86420,   0.00283,277678300.63461,  -0.00057,  -0.00233,   0.00089,  -2.77041,   1.00000
-493081017.14713,-434223630.05688,59480971.54704,  -0.00197,  -0.00335,   0.00166,477687742.27668,   0.00284,277687747.46553,  -0.00057,  -0.00234,   0.00089,  -5.18885,   1.00000
-493572856.31695,-433530468.55278,59471573.25875,  -0.00198,  -0.00335,   0.00167,477697146.80963,   0.00285,277697150.43452,  -0.00058,  -0.00234,   0.00089,  -3.62489,   1.00000
-494057420.10979,-432845590.50819,59458732.16428,  -0.00199,  -0.00335,   0.00167,477706485.54034,   0.00285,277706491.18486,  -0.00059,  -0.00234,   0.00090,  -5.64452,   1.00000
-494532670.94832,-432167104.55943,59447863.34984,  -0.00200,  -0.00335,   0.00167,477715775.07485,   0.00286,277715778.55232,  -0.00059,  -0.00235,   0.00090,  -3.47747,   1.00000
-495007652.26180,-431494171.24763,59425991.80249,  -0.00201,  -0.00335,   0.00168,477725051.10116,   0.00287,277725057.87633,  -0.00060,  -0.00235,   0.00091,  -6.77517,   1.00000
-495480339.33756,-430812313.55624,59411201.25087,  -0.00202,  -0.00335,   0.00168,477734295.78827,   0.00288,277734302.38175,  -0.00061,  -0.00236,   0.00091,  -6.59348,   1.00000
-495952875.28142,-430131586.77727,59389488.70331,  -0.00203,  -0.00335,   0.00169,477743417.88999,   0.00289,277743420.49313,  -0.00061,  -0.00236,   0.00091,  -2.60314,   1.00000
-496411884.67853,-429466124.20106,59367953.89025,  -0.00204,  -0.00335,   0.00169,477752535.11989,   0.00290,277752538.63652,  -0.00062,  -0.00237,   0.00092,  -3.51663,   1.00000
-496870961.53314,-428793434.16278,59348107.69494,  -0.00205,  -0.00335,   0.00169,477761603.02533,   0.00291,277761612.77803,  -0.00062,  -0.00237,   0.00092,  -9.75271,   1.00000
-497327805.64004,-428124388.14858,59322702.51440,  -0.00206,  -0.00335,   0.00170,477770682.01413,   0.00292,277770687.73526,  -0.00063,  -0.00237,   0.00093,  -5.72112,   1.00000
-497782606.61813,-427454341.74675,59295816.00555,  -0.00207,  -0.00335,   0.00170,477779638.19322,   0.00292,277779645.10448,  -0.00064,  -0.00238,   0.00093,  -6.91126,   1.00000
-498230770.54304,-426797030.48248,59261571.21743,  -0.00208,  -0.00335,   0.00170,477788649.98164,   0.00293,277788656.75497,  -0.00064,  -0.00238,   0.00093,  -6.77333,   1.00000
-498674866.60870,-426136763.26807,59231282.69691,  -0.00209,  -0.00335,   0.00171,477797556.04836,   0.00294,277797559.58263,  -0.00065,  -0.00239,   0.00094,  -3.53428,   1.00000
-499117164.42431,-425475280.32856,59199533.58532,  -0.00210,  -0.00335,   0.00171,477806338.25176,   0.00295,277806344.54480,  -0.00066,  -0.00239,   0.00094,  -6.29304,   1.00000
-499550828.42443,-424824781.05089,59165861.68210,  -0.00211,  -0.00335,   0.00172,477815185.01511,   0.00296,277815192.39944,  -0.00066,  -0.00239,   0.00095,  -7.38433,   1.00000
-499987022.66109,-424168531.44544,59128534.69187,  -0.00212,  -0.00335,   0.00172,477823979.72326,   0.00297,277823987.00816,  -0.00067,  -0.00240,   0.00095,  -7.28490,   1.00000
-500417476.80958,-423515285.47453,59091988.29988,  -0.00213,  -0.00335,   0.00172,477832592.88509,   0.00297,277832598.54419,  -0.00068,  -0.00240,   0.00095,  -5.65910,   1.00000
-500843578.56974,-422868703.09170,59051348.82724,  -0.00214,  -0.00335,   0.00173,477841334.67330,   0.00298,277841337.45796,  -0.00068,  -0.00240,   0.00096,  -2.78466,   1.00000
-501268214.05410,-422220586.93058,59009290.33792,  -0.00215,  -0.00335,   0.00173,477849951.28176,   0.00299,277849958.07405,  -0.00069,  -0.00241,   0.00096,  -6.79229,   1.00000
-501687073.46564,-421580325.29488,58964016.01320,  -0.00216,  -0.00335,   0.00173,477858510.73679,   0.00300,277858513.23911,  -0.00069,  -0.00241,   0.00097,  -2.50231,   1.00000
-502106403.49349,-420932206.78792,58920515.93205,  -0.00216,  -0.00335,   0.00174,477867019.44030,   0.00301,277867024.40299,  -0.00070,  -0.00242,   0.00097,  -4.96269,   1.00000
-502515722.62888,-420301425.98665,58872016.98463,  -0.00217,  -0.00335,   0.00174,477875515.72091,   0.00302,277875522.67012,  -0.00071,  -0.00242,   0.00097,  -6.94922,   1.00000
-502925625.32947,-419662710.74183,58825307.96059,  -0.00218,  -0.00335,   0.00174,477883976.23576,   0.00302,277883976.74188,  -0.00071,  -0.00242,   0.00098,  -0.50613,   1.00000
-503336582.47507,-419023881.40110,58771790.12570,  -0.00219,  -0.00335,   0.00174,477892299.52574,   0.00303,277892303.18093,  -0.00072,  -0.00243,   0.00098,  -3.65519,   1.00000
-503739446.07239,-418396309.61057,58716518.87646,  -0.00220,  -0.00335,   0.00175,477900685.23702,   0.00304,277900690.60146,  -0.00073,  -0.00243,   0.00098,  -5.36445,   1.00000
-504139088.06788,-417764953.05014,58665270.88738,  -0.00221,  -0.00335,   0.00175,477908961.70960,   0.00305,277908968.30039,  -0.00073,  -0.00243,   0.00099,  -6.59079,   1.00000
-504535698.67139,-417143004.22462,58605457.55487,  -0.00222,  -0.00335,   0.00175,477917167.60404,   0.00306,277917170.37771,  -0.00074,  -0.00244,   0.00099,  -2.77367,   1.00000
-504928719.13333,-416522603.47757,58545702.79629,  -0.00223,  -0.00335,   0.00176,477925374.82025,   0.00306,277925380.52058,  -0.00074,  -0.00244,   0.00100,  -5.70033,   1.00000
-505322457.56890,-415893951.50660,58487763.17341,  -0.00224,  -0.00335,   0.00176,477933537.93491,   0.00307,277933546.60995,  -0.00075,  -0.00244,   0.00100,  -8.67503,   1.00000
-505713327.63457,-415274615.70829,58421284.77882,  -0.00225,  -0.00335,   0.00176,477941636.55463,   0.00308,277941636.74572,  -0.00076,  -0.00245,   0.00100,  -0.19109,   1.00000
-506096972.25995,-414661032.83138,58357108.00823,  -0.00226,  -0.00335,   0.00176,477949663.05520,   0.00309,277949668.84125,  -0.00076,  -0.00245,   0.00101,  -5.78605,   1.00000
-506477200.24527,-414048968.90744,58293015.74325,  -0.00227,  -0.00335,   0.00177,477957704.75875,   0.00309,277957708.65523,  -0.00077,  -0.00245,   0.00101,  -3.89648,   1.00000
-506854805.51764,-413446098.98665,58220412.43522,  -0.00227,  -0.00335,   0.00177,477965665.94482,   0.00310,277965671.93696,  -0.00077,  -0.00246,   0.00101,  -5.99214,   1.00000
-507233291.11453,-412834715.06409,58149662.67777,  -0.00228,  -0.00335,   0.00177,477973589.41395,   0.00311,277973590.97432,  -0.00078,  -0.00246,   0.00102,  -1.56037,   1.00000
-507607025.56610,-412230715.55845,58075827.58982,  -0.00229,  -0.00335,   0.00177,477981435.97112,   0.00312,277981442.38174,  -0.00079,  -0.00246,   0.00102,  -6.41062,   1.00000
-507977475.99848,-411628176.64023,58002121.63816,  -0.00230,  -0.00335,   0.00178,477989297.00358,   0.00312,277989301.15173,  -0.00079,  -0.00247,   0.00102,  -4.14815,   1.00000
-508347505.75176,-411022865.58252,57927055.74525,  -0.00231,  -0.00335,   0.00178,477997035.00318,   0.00313,277997040.57251,  -0.00080,  -0.00247,   0.00103,  -5.56933,   1.00000
-508708831.00508,-410434989.71713,57847213.00107,  -0.00232,  -0.00335,   0.00178,478004761.33617,   0.00314,278004763.19210,  -0.00080,  -0.00247,   0.00103,  -1.85593,   1.00000
-509073368.91988,-409840032.44457,57763819.17036,  -0.00233,  -0.00335,   0.00178,478012424.02081,   0.00315,278012432.62370,  -0.00081,  -0.00247,   0.00103,  -8.60289,   1.00000
-509434744.54447,-409246476.02350,57680595.76112,  -0.00234,  -0.00335,   0.00179,478020100.51886,   0.00315,278020109.09479,  -0.00082,  -0.00248,   0.00104,  -8.57593,   1.00000
-509788331.81927,-408664250.49644,57596535.98999,  -0.00234,  -0.00335,   0.00179,478027644.84105,   0.00316,278027650.41661,  -0.00082,  -0.00248,   0.00104,  -5.57557,   1.00000
-510148597.97590,-408070666.73615,57506720.96844,  -0.00235,  -0.00335,   0.00179,478035198.94078,   0.00317,278035205.30169,  -0.00083,  -0.00248,   0.00104,  -6.36091,   1.00000
-510494908.20541,-407496959.07956,57419820.62117,  -0.00236,  -0.00334,   0.00179,478042683.91424,   0.00317,278042684.51503,  -0.00083,  -0.00249,   0.00105,  -0.60078,   1.00000
-510844551.62049,-406915895.82996,57329366.47930,  -0.00237,  -0.00334,   0.00179,478050104.72720,   0.00318,278050110.63305,  -0.00084,  -0.00249,   0.00105,  -5.90586,   1.00000
-511193410.09987,-406337820.97120,57233695.70717,  -0.00238,  -0.00334,   0.00180,478057526.55851,   0.00319,278057534.48658,  -0.00084,  -0.00249,   0.00105,  -7.92807,   1.00000
-511542264.69723,-405756362.54508,57136683.12824,  -0.00239,  -0.00334,   0.00180,478064835.96104,   0.00320,278064838.52462,  -0.00085,  -0.00249,   0.00106,  -2.56359,   1.00000
-511880823.74912,-405190675.45815,57040425.13861,  -0.00239,  -0.00334,   0.00180,478072122.98074,   0.00320,278072132.76675,  -0.00085,  -0.00250,   0.00106,  -9.78601,   1.00000
-512222785.98417,-404617433.91260,56940624.35589,  -0.00240,  -0.00334,   0.00180,478079371.18959,   0.00321,278079373.94882,  -0.00086,  -0.00250,   0.00106,  -2.75923,   1.00000
-512560013.63132,-404057606.36881,56833992.81150,  -0.00241,  -0.00334,   0.00180,478086658.28141,   0.00322,278086663.02567,  -0.00087,  -0.00250,   0.00106,  -4.74425,   1.00000
-512892051.35429,-403496507.68953,56733635.98216,  -0.00242,  -0.00334,   0.00181,478093769.95748,   0.00322,278093773.71489,  -0.00087,  -0.00251,   0.00107,  -3.75741,   1.00000
-513225692.33517,-402939885.48692,56622668.83061,  -0.00243,  -0.00334,   0.00181,478100868.82075,   0.00323,278100872.90361,  -0.00088,  -0.00251,   0.00107,  -4.08286,   1.00000
-513558381.33913,-402372217.39424,56519030.11683,  -0.00243,  -0.00334,   0.00181,478107927.15624,   0.00324,278107936.80716,  -0.00088,  -0.00251,   0.00107,  -9.65092,   1.00000
-513885550.40133,-401823624.28622,56405341.80372,  -0.00244,  -0.00334,   0.00181,478114962.50085,   0.00324,278114972.08652,  -0.00089,  -0.00251,   0.00108,  -9.58567,   1.00000
-514216168.91096,-401267136.17934,56288130.03694,  -0.00245,  -0.00334,   0.00181,478121944.92639,   0.00325,278121954.48168,  -0.00089,  -0.00252,   0.00108,  -9.55529,   1.00000
-514533968.00753,-400730428.23734,56173948.97747,  -0.00246,  -0.00334,   0.00181,478128853.59253,   0.00326,278128857.84927,  -0.00090,  -0.00252,   0.00108,  -4.25673,   1.00000
-514858346.93865,-400181768.37122,56054064.18819,  -0.00247,  -0.00334,   0.00181,478135771.24763,   0.00326,278135775.70123,  -0.00090,  -0.00252,   0.00109,  -4.45360,   1.00000
-515174027.02358,-399642104.53623,55938815.08106,  -0.00247,  -0.00334,   0.00182,478142563.02252,   0.00327,278142564.35213,  -0.00091,  -0.00252,   0.00109,  -1.32961,   1.00000
-515494465.55545,-399102802.65053,55810828.84306,  -0.00248,  -0.00334,   0.00182,478149402.37988,   0.00328,278149408.73967,  -0.00092,  -0.00253,   0.00109,  -6.35979,   1.00000
-515806353.36477,-398572411.95891,55687494.86459,  -0.00249,  -0.00334,   0.00182,478156115.33762,   0.00328,278156123.49533,  -0.00092,  -0.00253,   0.00109,  -8.15771,   1.00000
-516119645.60965,-398032229.89428,55566056.28763,  -0.00250,  -0.00333,   0.00182,478162787.15378,   0.00329,278162794.16756,  -0.00093,  -0.00253,   0.00110,  -7.01378,   1.00000
-516430823.63446,-397507154.92987,55432479.83600,  -0.00251,  -0.00333,   0.00182,478169494.90896,   0.00330,278169502.46199,  -0.00093,  -0.00253,   0.00110,  -7.55304,   1.00000
-516740486.33272,-396976079.20151,55302971.39519,  -0.00251,  -0.00333,   0.00182,478176098.71254,   0.00330,278176098.97149,  -0.00094,  -0.00253,   0.00110,  -0.25895,   1.00000
-517046919.56284,-396451441.35656,55170497.29833,  -0.00252,  -0.00333,   0.00182,478182619.07967,   0.00331,278182624.54211,  -0.00094,  -0.00254,   0.00111,  -5.46244,   1.00000
-517349220.35957,-395940357.05253,55031376.09097,  -0.00253,  -0.00333,   0.00182,478189192.87550,   0.00332,278189195.76536,  -0.00095,  -0.00254,   0.00111,  -2.88986,   1.00000
-517652261.41133,-395424626.24556,54890864.01895,  -0.00254,  -0.00333,   0.00182,478195637.42281,   0.00332,278195646.55610,  -0.00095,  -0.00254,   0.00111,  -9.13329,   1.00000
-517952929.30164,-394909878.13949,54750723.75765,  -0.00254,  -0.00333,   0.00182,478202097.32680,   0.00333,278202102.26989,  -0.00096,  -0.00254,   0.00111,  -4.94309,   1.00000
-518254371.23593,-394390367.59755,54609163.06880,  -0.00255,  -0.00333,   0.00183,478208433.06170,   0.00333,278208437.73717,  -0.00096,  -0.00255,   0.00112,  -4.67547,   1.00000
-518548987.59700,-393888224.65222,54463115.35851,  -0.00256,  -0.00333,   0.00183,478214741.24228,   0.00334,278214750.61559,  -0.00097,  -0.00255,   0.00112,  -9.37330,   1.00000
-518843446.47429,-393388529.75498,54312005.69069,  -0.00257,  -0.00333,   0.00183,478221056.20415,   0.00335,278221059.70830,  -0.00097,  -0.00255,   0.00112,  -3.50415,   1.00000
-519136670.24194,-392882358.40779,54164921.61439,  -0.00257,  -0.00333,   0.00183,478227254.34443,   0.00335,278227256.83191,  -0.00098,  -0.00255,   0.00112,  -2.48748,   1.00000
-519425962.34738,-392389779.01506,54011260.85669,  -0.00258,  -0.00333,   0.00183,478233498.77837,   0.00336,278233498.85932,  -0.00098,  -0.00255,   0.00113,  -0.08095,   1.00000
-519718876.84712,-391888368.28565,53854053.79056,  -0.00259,  -0.00333,   0.00183,478239687.67029,   0.00336,278239688.61278,  -0.00099,  -0.00256,   0.00113,  -0.94248,   1.00000
-520002549.29242,-391408046.13805,53694509.56460,  -0.00259,  -0.00332,   0.00183,478245783.16909,   0.00337,278245786.75992,  -0.00099,  -0.00256,   0.00113,  -3.59083,   1.00000
-520287804.18594,-390917291.96114,53536873.04731,  -0.00260,  -0.00332,   0.00183,478251836.60195,   0.00338,278251840.89002,  -0.00100,  -0.00256,   0.00113,  -4.28808,   1.00000
-520575051.33758,-390430330.43069,53368728.54632,  -0.00261,  -0.00332,   0.00183,478257881.53212,   0.00338,278257882.93740,  -0.00100,  -0.00256,   0.00114,  -1.40528,   1.00000
-520851704.87363,-389957741.49377,53207100.50728,  -0.00262,  -0.00332,   0.00183,478263913.30328,   0.00339,278263917.50752,  -0.00101,  -0.00256,   0.00114,  -4.20424,   1.00000
-521131553.17603,-389481241.92315,53038517.19982,  -0.00262,  -0.00332,   0.00183,478269821.24068,   0.00339,278269823.39782,  -0.00101,  -0.00257,   0.00114,  -2.15715,   1.00000
-521411354.41421,-389006970.09896,52864907.25916,  -0.00263,  -0.00332,   0.00183,478275723.19775,   0.00340,278275725.32934,  -0.00102,  -0.00257,   0.00114,  -2.13159,   1.00000
-521689029.45212,-388533457.83726,52691751.21154,  -0.00264,  -0.00332,   0.00183,478281622.81034,   0.00340,278281631.47305,  -0.00102,  -0.00257,   0.00114,  -8.66271,   1.00000
-521961651.47609,-388069487.02522,52517702.36590,  -0.00264,  -0.00332,   0.00183,478287391.87008,   0.00341,278287396.78654,  -0.00103,  -0.00257,   0.00115,  -4.91646,   1.00000
-522234285.03400,-387607669.75564,52338630.78341,  -0.00265,  -0.00332,   0.00183,478293149.27844,   0.00341,278293158.04247,  -0.00103,  -0.00257,   0.00115,  -8.76403,   1.00000
-522504884.42122,-387146570.80491,52160023.89470,  -0.00266,  -0.00332,   0.00183,478298914.46210,   0.00342,278298923.26267,  -0.00104,  -0.00257,   0.00115,  -8.80057,   1.00000
-522775096.53226,-386692662.61324,51972976.50435,  -0.00266,  -0.00332,   0.00183,478304603.47716,   0.00343,278304607.83209,  -0.00104,  -0.00258,   0.00115,  -4.35493,   1.00000
-523043287.96200,-386239426.32723,51786412.10154,  -0.00267,  -0.00332,   0.00183,478310289.95829,   0.00343,278310296.29215,  -0.00104,  -0.00258,   0.00116,  -6.33386,   1.00000
-523309100.54273,-385791885.15906,51596883.49514,  -0.00268,  -0.00331,   0.00183,478315904.08995,   0.00344,278315912.04497,  -0.00105,  -0.00258,   0.00116,  -7.95502,   1.00000
-523570564.63551,-385348602.74378,51409866.03398,  -0.00268,  -0.00331,   0.00183,478321460.15641,   0.00344,278321462.93052,  -0.00105,  -0.00258,   0.00116,  -2.77411,   1.00000
-523834126.02220,-384908736.48942,51212361.05831,  -0.00269,  -0.00331,   0.00183,478326994.02143,   0.00345,278327001.72397,  -0.00106,  -0.00258,   0.00116,  -7.70254,   1.00000
-524099332.79313,-384457866.45322,51016747.13098,  -0.00270,  -0.00331,   0.00183,478332495.11218,   0.00345,278332496.92278,  -0.00106,  -0.00259,   0.00116,  -1.81061,   1.00000
-524356335.54024,-384027776.68246,50818768.99315,  -0.00270,  -0.00331,   0.00183,478337897.31101,   0.00346,278337897.91208,  -0.00107,  -0.00259,   0.00117,  -0.60107,   1.00000
-524615758.43538,-383596071.25528,50613803.99610,  -0.00271,  -0.00331,   0.00183,478343357.31947,   0.00346,278343363.36834,  -0.00107,  -0.00259,   0.00117,  -6.04888,   1.00000
-524868700.58310,-383172050.30863,50413340.89359,  -0.00272,  -0.00331,   0.00183,478348692.55013,   0.00347,278348694.84862,  -0.00108,  -0.00259,   0.00117,  -2.29849,   1.00000
-525126030.12934,-382747751.16913,50200413.12770,  -0.00272,  -0.00331,   0.00183,478354080.01461,   0.00347,278354083.08038,  -0.00108,  -0.00259,   0.00117,  -3.06577,   1.00000
-525376962.46454,-382331050.66728,49991973.37026,  -0.00273,  -0.00331,   0.00182,478359332.65875,   0.00348,278359337.19393,  -0.00109,  -0.00259,   0.00117,  -4.53518,   1.00000
-525630272.05857,-381912690.79399,49776587.49316,  -0.00274,  -0.00331,   0.00182,478364652.45313,   0.00348,278364655.82992,  -0.00109,  -0.00259,   0.00118,  -3.37679,   1.00000
-525877297.94920,-381501868.74247,49565661.74844,  -0.00274,  -0.00331,   0.00182,478369836.97676,   0.00349,278369840.17617,  -0.00109,  -0.00260,   0.00118,  -3.19941,   1.00000
-526126437.39535,-381094186.92314,49344254.70121,  -0.00275,  -0.00331,   0.00182,478375006.63291,   0.00349,278375012.62761,  -0.00110,  -0.00260,   0.00118,  -5.99470,   1.00000
-526373763.59151,-380686976.15746,49123392.15598,  -0.00276,  -0.00331,   0.00182,478380182.90253,   0.00350,278380188.38083,  -0.00110,  -0.00260,   0.00118,  -5.47830,   1.00000
-526619063.62440,-380285023.65078,48899506.63900,  -0.00276,  -0.00330,   0.00182,478385283.60410,   0.00350,278385290.98132,  -0.00111,  -0.00260,   0.00118,  -7.37722,   1.00000
-526858897.01920,-379900164.48073,48671288.64738,  -0.00277,  -0.00330,   0.00182,478390357.05251,   0.00351,278390366.82284,  -0.00111,  -0.00260,   0.00119,  -9.77033,   1.00000
-527100481.84415,-379503834.08911,48444923.11445,  -0.00277,  -0.00330,   0.00182,478395397.09877,   0.00351,278395399.26671,  -0.00112,  -0.00260,   0.00119,  -2.16794,   1.00000
-527344120.78382,-379110485.87788,48208083.24459,  -0.00278,  -0.00330,   0.00182,478400412.04307,   0.00352,278400420.12339,  -0.00112,  -0.00261,   0.00119,  -8.08032,   1.00000
-527583901.06678,-378720980.68440,47973718.81477,  -0.00279,  -0.00330,   0.00182,478405366.35874,   0.00352,278405375.15970,  -0.00112,  -0.00261,   0.00119,  -8.80095,   1.00000
-527818341.05378,-378348530.71870,47735026.57070,  -0.00279,  -0.00330,   0.00181,478410301.21727,   0.00353,278410303.10682,  -0.00113,  -0.00261,   0.00119,  -1.88954,   1.00000
-528056398.24186,-377965712.61012,47492650.05442,  -0.00280,  -0.00330,   0.00181,478415177.64468,   0.00353,278415180.62287,  -0.00113,  -0.00261,   0.00120,  -2.97818,   1.00000
-528289292.95133,-377595240.87738,47249591.89274,  -0.00280,  -0.00330,   0.00181,478420099.86773,   0.00354,278420107.32745,  -0.00114,  -0.00261,   0.00120,  -7.45972,   1.00000
-528520361.20893,-377229774.61540,47003467.08092,  -0.00281,  -0.00330,   0.00181,478424953.44953,   0.00354,278424960.63065,  -0.00114,  -0.00261,   0.00120,  -7.18112,   1.00000
-528753031.73097,-376857230.03875,46755499.72706,  -0.00282,  -0.00330,   0.00181,478429689.45146,   0.00355,278429694.64046,  -0.00114,  -0.00261,   0.00120,  -5.18899,   1.00000
-528982460.13150,-376498271.18237,46501349.19837,  -0.00282,  -0.00330,   0.00181,478434463.67981,   0.00355,278434470.42954,  -0.00115,  -0.00261,   0.00120,  -6.74973,   1.00000
-529210107.21731,-376144202.87721,46244108.10716,  -0.00283,  -0.00330,   0.00180,478439168.13859,   0.00356,278439172.85560,  -0.00115,  -0.00262,   0.00120,  -4.71701,   1.00000
-529436091.94554,-375790390.72552,45987459.85707,  -0.00283,  -0.00329,   0.00180,478443870.01206,   0.00356,278443878.19471,  -0.00116,  -0.00262,   0.00121,  -8.18266,   1.00000
-529664080.65342,-375439254.25318,45720344.43596,  -0.00284,  -0.00329,   0.00180,478448570.07773,   0.00356,278448572.34133,  -0.00116,  -0.00262,   0.00121,  -2.26359,   1.00000
-529885105.91410,-375103835.55476,45454461.92332,  -0.00284,  -0.00329,   0.00180,478453238.68899,   0.00357,278453245.84335,  -0.00116,  -0.00262,   0.00121,  -7.15436,   1.00000
-530106000.12633,-374759846.57321,45192185.50994,  -0.00285,  -0.00329,   0.00180,478457805.44592,   0.00357,278457807.29181,  -0.00117,  -0.00262,   0.00121,  -1.84589,   1.00000
-530328859.15161,-374418424.57029,44919422.79396,  -0.00286,  -0.00329,   0.00180,478462352.95106,   0.00358,278462357.84856,  -0.00117,  -0.00262,   0.00121,  -4.89750,   1.00000
-530546733.35313,-374089380.48708,44646104.07594,  -0.00286,  -0.00329,   0.00179,478466953.81484,   0.00358,278466956.67896,  -0.00118,  -0.00262,   0.00121,  -2.86412,   1.00000
-530762929.07940,-373765007.38538,44369640.17535,  -0.00287,  -0.00329,   0.00179,478471475.04460,   0.00359,278471482.21258,  -0.00118,  -0.00263,   0.00121,  -7.16798,   1.00000
-530977483.03593,-373445276.28032,44090017.40917,  -0.00287,  -0.00329,   0.00179,478475932.43725,   0.00359,278475934.41065,  -0.00118,  -0.00263,   0.00122,  -1.97340,   1.00000
-531193990.28641,-373123504.33205,43803716.77827,  -0.00288,  -0.00329,   0.00179,478480447.32926,   0.00359,278480451.93964,  -0.00119,  -0.00263,   0.00122,  -4.61038,   1.00000
-531405306.30466,-372808483.58730,43521542.51424,  -0.00288,  -0.00329,   0.00178,478484830.03976,   0.00360,278484833.67090,  -0.00119,  -0.00263,   0.00122,  -3.63114,   1.00000
-531618510.59773,-372495828.76384,43228882.62034,  -0.00289,  -0.00329,   0.00178,478489199.92317,   0.00360,278489204.90613,  -0.00120,  -0.00263,   0.00122,  -4.98295,   1.00000
-531830107.92045,-372183260.05130,42936862.24269,  -0.00289,  -0.00329,   0.00178,478493575.51754,   0.00361,278493578.93711,  -0.00120,  -0.00263,   0.00122,  -3.41956,   1.00000
-532036779.61352,-371887473.41795,42640523.21976,  -0.00290,  -0.00329,   0.00178,478497917.10328,   0.00361,278497924.91232,  -0.00120,  -0.00263,   0.00122,  -7.80903,   1.00000
-532241890.18270,-371591746.50327,42344832.81226,  -0.00290,  -0.00329,   0.00177,478502264.15045,   0.00362,278502273.52478,  -0.00121,  -0.00263,   0.00122,  -9.37433,   1.00000
-532448816.62971,-371298264.54021,42038670.47143,  -0.00291,  -0.00329,   0.00177,478506605.44539,   0.00362,278506611.91951,  -0.00121,  -0.00263,   0.00123,  -6.47412,   1.00000
-532652450.29900,-371008074.46990,41734850.43722,  -0.00291,  -0.00328,   0.00177,478510874.91021,   0.00362,278510883.73492,  -0.00121,  -0.00264,   0.00123,  -8.82471,   1.00000
-532854516.65651,-370722245.40693,41427782.37503,  -0.00292,  -0.00328,   0.00177,478515077.84835,   0.00363,278515082.55568,  -0.00122,  -0.00264,   0.00123,  -4.70733,   1.00000
-533056663.58394,-370437472.18667,41115796.62867,  -0.00292,  -0.00328,   0.00176,478519268.78468,   0.00363,278519277.86605,  -0.00122,  -0.00264,   0.00123,  -9.08137,   1.00000
-533253984.01126,-370165080.38777,40803418.09338,  -0.00293,  -0.00328,   0.00176,478523511.57289,   0.00364,278523520.54537,  -0.00123,  -0.00264,   0.00123,  -8.97248,   1.00000
-533449768.85426,-369896961.40287,40487767.78535,  -0.00294,  -0.00328,   0.00176,478527687.18874,   0.00364,278527690.27881,  -0.00123,  -0.00264,   0.00123,  -3.09007,   1.00000
-533647233.62470,-369630866.00095,40161637.14342,  -0.00294,  -0.00328,   0.00176,478531847.68239,   0.00364,278531850.43927,  -0.00123,  -0.00264,   0.00123,  -2.75689,   1.00000
-533839917.46764,-369366897.81559,39843374.02185,  -0.00295,  -0.00328,   0.00175,478535946.19313,   0.00365,278535950.06000,  -0.00124,  -0.00264,   0.00123,  -3.86687,   1.00000
-534034253.56314,-369104902.12998,39514617.09869,  -0.00295,  -0.00328,   0.00175,478540036.72944,   0.00365,278540040.31502,  -0.00124,  -0.00264,   0.00124,  -3.58558,   1.00000
-534223801.13355,-368859498.40089,39181530.70377,  -0.00296,  -0.00328,   0.00175,478544097.21891,   0.00366,278544102.35216,  -0.00124,  -0.00264,   0.00124,  -5.13324,   1.00000
-534416571.22889,-368598276.64761,38848572.12164,  -0.00296,  -0.00328,   0.00174,478548188.43290,   0.00366,278548192.17230,  -0.00125,  -0.00265,   0.00124,  -3.73940,   1.00000
-534603020.80558,-368356841.61478,38512833.21314,  -0.00296,  -0.00328,   0.00174,478552178.26640,   0.00366,278552184.44865,  -0.00125,  -0.00265,   0.00124,  -6.18226,   1.00000
-534790987.19645,-368113031.29602,38170654.96209,  -0.00297,  -0.00328,   0.00174,478556233.98983,   0.00367,278556243.03918,  -0.00125,  -0.00265,   0.00124,  -9.04935,   1.00000
-534971169.20462,-367887983.85814,37831267.19651,  -0.00297,  -0.00328,   0.00173,478560205.21929,   0.00367,278560209.74387,  -0.00126,  -0.00265,   0.00124,  -4.52459,   1.00000
-535156044.21198,-367647997.33599,37486429.06349,  -0.00298,  -0.00328,   0.00173,478564197.13220,   0.00368,278564198.71259,  -0.00126,  -0.00265,   0.00124,  -1.58039,   1.00000
-535337659.24661,-367425456.71623,37131651.66228,  -0.00298,  -0.00328,   0.00173,478568146.00451,   0.00368,278568153.92318,  -0.00126,  -0.00265,   0.00124,  -7.91867,   1.00000
-535516221.83853,-367201753.00892,36783195.64656,  -0.00299,  -0.00328,   0.00172,478572111.89865,   0.00368,278572117.51835,  -0.00127,  -0.00265,   0.00125,  -5.61970,   1.00000
-535691544.49187,-366995445.32788,36424790.39897,  -0.00299,  -0.00328,   0.00172,478576040.84319,   0.00369,278576047.36311,  -0.00127,  -0.00265,   0.00125,  -6.51992,   1.00000
-535869956.31624,-366777230.98169,36062432.70476,  -0.00300,  -0.00328,   0.00172,478579926.09675,   0.00369,278579930.61746,  -0.00128,  -0.00265,   0.00125,  -4.52071,   1.00000
-536043591.40830,-366571331.79773,35699889.77863,  -0.00300,  -0.00328,   0.00171,478583855.11037,   0.00369,278583860.67076,  -0.00128,  -0.00265,   0.00125,  -5.56038,   1.00000
-536215681.77108,-366369233.52243,35333905.78786,  -0.00301,  -0.00328,   0.00171,478587712.97489,   0.00370,278587718.81937,  -0.00128,  -0.00266,   0.00125,  -5.84449,   1.00000
-536386208.10205,-366166843.96513,34968654.47018,  -0.00301,  -0.00328,   0.00171,478591576.69217,   0.00370,278591579.85248,  -0.00129,  -0.00266,   0.00125,  -3.16031,   1.00000
-536554799.89129,-365978536.77510,34592030.80911,  -0.00302,  -0.00328,   0.00170,478595474.16273,   0.00371,278595476.99182,  -0.00129,  -0.00266,   0.00125,  -2.82908,   1.00000
-536723591.16935,-365780427.48176,34218425.99710,  -0.00302,  -0.00328,   0.00170,478599260.19808,   0.00371,278599264.06941,  -0.00129,  -0.00266,   0.00125,  -3.87133,   1.00000
-536885849.90491,-365608116.31764,33838218.84311,  -0.00303,  -0.00328,   0.00169,478603135.64324,   0.00371,278603136.21269,  -0.00130,  -0.00266,   0.00125,  -0.56945,   1.00000
-537049695.63864,-365426791.31268,33455366.50668,  -0.00303,  -0.00328,   0.00169,478606887.73381,   0.00372,278606893.31029,  -0.00130,  -0.00266,   0.00125,  -5.57648,   1.00000
-537213294.77161,-365245932.81852,33067643.92020,  -0.00303,  -0.00328,   0.00169,478610647.36565,   0.00372,278610648.44315,  -0.00130,  -0.00266,   0.00126,  -1.07750,   1.00000
-537372111.92389,-365077329.55491,32679850.95430,  -0.00304,  -0.00327,   0.00168,478614443.58191,   0.00372,278614450.22423,  -0.00131,  -0.00266,   0.00126,  -6.64233,   1.00000
-537530644.29566,-364909141.95590,32287206.08694,  -0.00304,  -0.00327,   0.00168,478618240.65290,   0.00373,278618250.16196,  -0.00131,  -0.00266,   0.00126,  -9.50907,   1.00000
-537684426.89817,-364757165.13933,31890200.60610,  -0.00305,  -0.00327,   0.00167,478622021.89039,   0.00373,278622022.38973,  -0.00131,  -0.00266,   0.00126,  -0.49934,   1.00000
-537841005.15790,-364592835.03585,31489150.25096,  -0.00305,  -0.00327,   0.00167,478625746.35123,   0.00373,278625749.69470,  -0.00132,  -0.00266,   0.00126,  -3.34346,   1.00000
-537991526.12118,-364443870.00768,31089357.63961,  -0.00306,  -0.00327,   0.00166,478629446.67954,   0.00374,278629454.26280,  -0.00132,  -0.00267,   0.00126,  -7.58327,   1.00000
-538139807.59713,-364304774.44488,30682690.61063,  -0.00306,  -0.00327,   0.00166,478633265.12775,   0.00374,278633269.90362,  -0.00132,  -0.00267,   0.00126,  -4.77588,   1.00000
-538289569.14339,-364156363.81453,30273202.21446,  -0.00307,  -0.00327,   0.00166,478636966.49298,   0.00375,278636971.67791,  -0.00133,  -0.00267,   0.00126,  -5.18493,   1.00000
-538434514.38198,-364024037.25919,29859330.95121,  -0.00307,  -0.00327,   0.00165,478640636.79318,   0.00375,278640646.20523,  -0.00133,  -0.00267,   0.00126,  -9.41205,   1.00000
-538580228.88839,-363888782.95095,29439428.90684,  -0.00307,  -0.00327,   0.00165,478644382.83389,   0.00375,278644388.91092,  -0.00133,  -0.00267,   0.00126,  -6.07703,   1.00000
-538719904.46431,-363768817.22985,29020804.87505,  -0.00308,  -0.00327,   0.00164,478648103.24127,   0.00376,278648108.89680,  -0.00134,  -0.00267,   0.00126,  -5.65553,   1.00000
-538862214.48085,-363636263.71210,28598086.40105,  -0.00308,  -0.00327,   0.00164,478651781.35014,   0.00376,278651784.89540,  -0.00134,  -0.00267,   0.00127,  -3.54526,   1.00000
-538995383.83610,-363531729.96302,28175915.09920,  -0.00309,  -0.00327,   0.00163,478655476.03004,   0.00376,278655481.22112,  -0.00134,  -0.00267,   0.00127,  -5.19107,   1.00000
-539132288.09623,-363415238.02420,27743977.85185,  -0.00309,  -0.00327,   0.00163,478659122.35344,   0.00377,278659129.60060,  -0.00135,  -0.00267,   0.00127,  -7.24716,   1.00000
-539264350.42987,-363310862.83923,27312191.79510,  -0.00310,  -0.00327,   0.00162,478662818.39138,   0.00377,278662824.56309,  -0.00135,  -0.00267,   0.00127,  -6.17171,   1.00000
-539395806.70567,-363206517.57675,26875605.92807,  -0.00310,  -0.00327,   0.00162,478666515.15938,   0.00377,278666519.05897,  -0.00135,  -0.00267,   0.00127,  -3.89959,   1.00000
-539526611.07020,-363102173.15309,26434228.60654,  -0.00310,  -0.00328,   0.00161,478670212.74981,   0.00378,278670213.26992,  -0.00136,  -0.00268,   0.00127,  -0.52011,   1.00000
-539651399.71806,-363013024.71263,25994128.05196,  -0.00311,  -0.00328,   0.00161,478673883.25055,   0.00378,278673884.92710,  -0.00136,  -0.00268,   0.00127,  -1.67655,   1.00000
-539776546.25417,-362924459.39112,25543576.50236,  -0.00311,  -0.00328,   0.00160,478677547.80302,   0.00378,278677552.63150,  -0.00136,  -0.00268,   0.00127,  -4.82848,   1.00000
-539899912.97911,-362835153.14248,25093914.58087,  -0.00312,  -0.00328,   0.00160,478681220.05189,   0.00379,278681224.24610,  -0.00137,  -0.00268,   0.00127,  -4.19421,   1.00000
-540017274.96315,-362761000.13507,24645525.57271,  -0.00312,  -0.00328,   0.00159,478684864.51322,   0.00379,278684873.38759,  -0.00137,  -0.00268,   0.00127,  -8.87437,   1.00000
-540135969.91025,-362684196.65401,24185705.04214,  -0.00312,  -0.00328,   0.00159,478688580.54875,   0.00380,278688588.24019,  -0.00137,  -0.00268,   0.00127,  -7.69144,   1.00000
-540251759.38971,-362609715.22387,23727776.29628,  -0.00313,  -0.00328,   0.00158,478692233.67506,   0.00380,278692238.04036,  -0.00138,  -0.00268,   0.00127,  -4.36530,   1.00000
-540363572.76310,-362547811.27629,23264498.35485,  -0.00313,  -0.00328,   0.00158,478695922.56770,   0.00380,278695931.10831,  -0.00138,  -0.00268,   0.00127,  -8.54061,   1.00000
-540473435.98669,-362488766.67196,22797408.30681,  -0.00314,  -0.00328,   0.00157,478699547.96027,   0.00381,278699555.76896,  -0.00138,  -0.00268,   0.00127,  -7.80870,   1.00000
-540579408.07293,-362438546.77147,22329767.70001,  -0.00314,  -0.00328,   0.00157,478703287.13971,   0.00381,278703296.33201,  -0.00139,  -0.00268,   0.00128,  -9.19230,   1.00000
-540686520.47191,-362378330.72525,21858849.11819,  -0.00314,  -0.00328,   0.00156,478706921.94630,   0.00381,278706926.15435,  -0.00139,  -0.00268,   0.00128,  -4.20805,   1.00000
-540786411.41633,-362343386.24365,21382111.54224,  -0.00315,  -0.00328,   0.00155,478710640.01329,   0.00382,278710642.21871,  -0.00139,  -0.00268,   0.00128,  -2.20542,   1.00000
-540888408.02865,-362295229.22485,20901191.74895,  -0.00315,  -0.00328,   0.00155,478714312.23291,   0.00382,278714317.01967,  -0.00140,  -0.00269,   0.00128,  -4.78676,   1.00000
-540985386.03977,-362258953.52124,20420728.47130,  -0.00316,  -0.00328,   0.00154,478718033.86936,   0.00382,278718038.83667,  -0.00140,  -0.00269,   0.00128,  -4.96731,   1.00000
-541080271.40017,-362225351.09266,19936380.55013,  -0.00316,  -0.00328,   0.00154,478721684.91072,   0.00383,278721693.17573,  -0.00140,  -0.00269,   0.00128,  -8.26500,   1.00000
-541171952.38775,-362200967.45644,19446041.85563,  -0.00316,  -0.00328,   0.00153,478725457.64140,   0.00383,278725460.59854,  -0.00141,  -0.00269,   0.00128,  -2.95714,   1.00000
-541261454.29639,-362179166.96328,18951812.01099,  -0.00317,  -0.00328,   0.00153,478729152.86032,   0.00383,278729160.94887,  -0.00141,  -0.00269,   0.00128,  -8.08855,   1.00000
-541349010.19132,-362156341.95289,18458594.33020,  -0.00317,  -0.00328,   0.00152,478732857.35894,   0.00384,278732866.09066,  -0.00141,  -0.00269,   0.00128,  -8.73172,   1.00000
-541432237.93682,-362145762.52236,17960250.51962,  -0.00318,  -0.00328,   0.00151,478736611.01334,   0.00384,278736615.71979,  -0.00142,  -0.00269,   0.00128,  -4.70645,   1.00000
-541514207.05572,-362134551.21116,17457255.43030,  -0.00318,  -0.00328,   0.00151,478740360.29875,   0.00385,278740367.66481,  -0.00142,  -0.00269,   0.00128,  -7.36606,   1.00000
-541591054.76136,-362135069.62110,16954886.05437,  -0.00318,  -0.00328,   0.00150,478744158.61520,   0.00385,278744166.95272,  -0.00142,  -0.00269,   0.00128,  -8.33752,   1.00000
-541665625.91604,-362138025.52966,16448562.36980,  -0.00319,  -0.00328,   0.00150,478747893.13282,   0.00385,278747899.87956,  -0.00143,  -0.00269,   0.00128,  -6.74675,   1.00000
-541739819.62641,-362137125.20675,15936950.41564,  -0.00319,  -0.00329,   0.00149,478751697.54058,   0.00386,278751704.41642,  -0.00143,  -0.00269,   0.00128,  -6.87584,   1.00000
-541808506.65475,-362151412.31984,15420977.22364,  -0.00319,  -0.00329,   0.00148,478755477.30797,   0.00386,278755485.35900,  -0.00144,  -0.00270,   0.00128,  -8.05103,   1.00000
-541875147.51071,-362164510.33351,14906100.68416,  -0.00320,  -0.00329,   0.00148,478759267.36468,   0.00386,278759271.62692,  -0.00144,  -0.00270,   0.00128,  -4.26224,   1.00000
-541937194.18091,-362189593.19869,14386262.37212,  -0.00320,  -0.00329,   0.00147,478763099.65745,   0.00387,278763103.36701,  -0.00144,  -0.00270,   0.00128,  -3.70956,   1.00000
-541997742.32869,-362213791.11865,13861849.45513,  -0.00321,  -0.00329,   0.00146,478766935.73206,   0.00387,278766938.49350,  -0.00145,  -0.00270,   0.00128,  -2.76144,   1.00000
-542056192.41505,-362236735.46492,13338574.90175,  -0.00321,  -0.00329,   0.00146,478770775.44274,   0.00387,278770779.22942,  -0.00145,  -0.00270,   0.00128,  -3.78668,   1.00000
-542110459.68663,-362271885.14624,12804714.50380,  -0.00321,  -0.00329,   0.00145,478774658.08192,   0.00388,278774663.98079,  -0.00145,  -0.00270,   0.00128,  -5.89887,   1.00000
-542162075.41366,-362305407.73629,12277736.76285,  -0.00322,  -0.00329,   0.00144,478778551.27393,   0.00388,278778556.39440,  -0.00146,  -0.00270,   0.00128,  -5.12047,   1.00000
-542209403.75490,-362351037.19139,11740225.02197,  -0.00322,  -0.00329,   0.00144,478782487.66961,   0.00389,278782493.22891,  -0.00146,  -0.00270,   0.00129,  -5.55929,   1.00000
-542253634.41263,-362398451.48275,11204380.68115,  -0.00322,  -0.00329,   0.00143,478786360.17342,   0.00389,278786367.35519,  -0.00146,  -0.00270,   0.00129,  -7.18177,   1.00000
-542297090.75463,-362441628.70879,10663582.54608,  -0.00323,  -0.00329,   0.00142,478790313.20926,   0.00389,278790314.52794,  -0.00147,  -0.00270,   0.00129,  -1.31868,   1.00000
-542335606.40081,-362496474.77800,10118047.98665,  -0.00323,  -0.00330,   0.00142,478794301.77782,   0.00390,278794308.54492,  -0.00147,  -0.00270,   0.00129,  -6.76711,   1.00000
-542370998.12689,-362553056.75416,9574159.16318,  -0.00324,  -0.00330,   0.00141,478798233.99453,   0.00390,278798240.17152,  -0.00148,  -0.00271,   0.00129,  -6.17700,   1.00000
-542401408.42699,-362621237.85954,9025567.33272,  -0.00324,  -0.00330,   0.00140,478802216.43895,   0.00391,278802218.86460,  -0.00148,  -0.00271,   0.00129,  -2.42565,   1.00000
-542430857.21844,-362684990.53439,8472180.77420,  -0.00324,  -0.00330,   0.00140,478806266.08999,   0.00391,278806271.31710,  -0.00148,  -0.00271,   0.00129,  -5.22711,   1.00000
-542457463.48254,-362750620.84432,7914707.46189,  -0.00325,  -0.00330,   0.00139,478810253.37136,   0.00391,278810260.59123,  -0.00149,  -0.00271,   0.00129,  -7.21987,   1.00000
-542479540.57629,-362824356.66275,7358039.42386,  -0.00325,  -0.00330,   0.00138,478814366.58876,   0.00392,278814367.24171,  -0.00149,  -0.00271,   0.00129,  -0.65295,   1.00000
-542495527.49665,-362912670.79981,6797097.92787,  -0.00325,  -0.00330,   0.00138,478818446.61717,   0.00392,278818453.22786,  -0.00149,  -0.00271,   0.00129,  -6.61069,   1.00000
-542510144.27084,-362996220.76162,6237239.04073,  -0.00326,  -0.00330,   0.00137,478822608.36492,   0.00392,278822614.53859,  -0.00150,  -0.00271,   0.00129,  -6.17367,   1.00000
-542522043.31390,-363081660.71350,5667550.17611,  -0.00326,  -0.00331,   0.00136,478826710.55703,   0.00393,278826712.51912,  -0.00150,  -0.00271,   0.00129,  -1.96208,   1.00000
-542528184.81368,-363178098.27968,5104814.63691,  -0.00327,  -0.00331,   0.00135,478830852.55750,   0.00393,278830860.60875,  -0.00151,  -0.00271,   0.00129,  -8.05125,   1.00000
-542533338.71151,-363269957.87996,4531838.63653,  -0.00327,  -0.00331,   0.00135,478835081.72820,   0.00394,278835082.77274,  -0.00151,  -0.00271,   0.00129,  -1.04455,   1.00000
-542535208.88573,-363363329.73821,3960450.01710,  -0.00327,  -0.00331,   0.00134,478839240.00776,   0.00394,278839243.89382,  -0.00151,  -0.00271,   0.00129,  -3.88607,   1.00000
-542532590.95945,-363464678.48292,3384527.16754,  -0.00328,  -0.00331,   0.00133,478843519.42020,   0.00395,278843522.41569,  -0.00152,  -0.00272,   0.00129,  -2.99549,   1.00000
-542523602.82874,-363580322.56722,2804392.61631,  -0.00328,  -0.00331,   0.00133,478847781.57719,   0.00395,278847781.75599,  -0.00152,  -0.00272,   0.00129,  -0.17880,   1.00000
-542513118.31419,-363690977.72931,2225633.00147,  -0.00328,  -0.00331,   0.00132,478852111.53423,   0.00395,278852117.18272,  -0.00153,  -0.00272,   0.00129,  -5.64849,   1.00000
-542499406.67514,-363803116.24538,1642718.22212,  -0.00329,  -0.00332,   0.00131,478856381.90642,   0.00396,278856391.68866,  -0.00153,  -0.00272,   0.00129,  -9.78224,   1.00000
-542481043.40846,-363923017.72719,1055503.83856,  -0.00329,  -0.00332,   0.00130,478860782.66783,   0.00396,278860784.36052,  -0.00153,  -0.00272,   0.00129,  -1.69268,   1.00000
-542460231.77821,-364041070.26339,469830.45337,  -0.00330,  -0.00332,   0.00130,478865182.24808,   0.00397,278865185.10606,  -0.00154,  -0.00272,   0.00129,  -2.85799,   1.00000
-542433768.01342,-364169998.62354,-120011.25705,  -0.00330,  -0.00332,   0.00129,478869626.55404,   0.00397,278869636.10817,  -0.00154,  -0.00272,   0.00129,  -9.55413,   1.00000
-542404842.25437,-364297026.15921,-713991.87512,  -0.00330,  -0.00332,   0.00128,478874090.46116,   0.00397,278874095.39110,  -0.00155,  -0.00272,   0.00129,  -4.92994,   1.00000
-542370200.51150,-364434838.51767,-1306346.28034,  -0.00331,  -0.00333,   0.00127,478878595.37663,   0.00398,278878605.31221,  -0.00155,  -0.00272,   0.00129,  -9.93558,   1.00000
-542333041.49610,-364570671.38138,-1902804.40163,  -0.00331,  -0.00333,   0.00126,478883120.68094,   0.00398,278883123.88032,  -0.00155,  -0.00273,   0.00129,  -3.19938,   1.00000
-542293391.75716,-364704540.19026,-2497634.29122,  -0.00332,  -0.00333,   0.00126,478887645.30005,   0.00399,278887651.10413,  -0.00156,  -0.00273,   0.00129,  -5.80408,   1.00000
-542247784.46284,-364848985.87632,-3102181.89076,  -0.00332,  -0.00333,   0.00125,478892220.22532,   0.00399,278892230.10646,  -0.00156,  -0.00273,   0.00129,  -9.88114,   1.00000
-542197345.29500,-365000829.06540,-3704804.43628,  -0.00332,  -0.00333,   0.00124,478896922.77292,   0.00400,278896928.50988,  -0.00157,  -0.00273,   0.00129,  -5.73695,   1.00000
-542143448.32961,-365153855.51400,-4305881.80130,  -0.00333,  -0.00333,   0.00123,478901564.22642,   0.00400,278901567.71956,  -0.00157,  -0.00273,   0.00129,  -3.49314,   1.00000
-542087808.05343,-365301446.74595,-4910771.08759,  -0.00333,  -0.00334,   0.00122,478906280.08789,   0.00401,278906284.86707,  -0.00158,  -0.00273,   0.00129,  -4.77918,   1.00000
-542026172.86355,-365459482.05361,-5519489.30212,  -0.00333,  -0.00334,   0.00122,478911051.22377,   0.00401,278911054.32249,  -0.00158,  -0.00273,   0.00129,  -3.09872,   1.00000
-541961744.95561,-365615228.55828,-6132141.51067,  -0.00334,  -0.00334,   0.00121,478915828.27861,   0.00402,278915834.11313,  -0.00159,  -0.00273,   0.00129,  -5.83452,   1.00000
-541891491.59766,-365781465.53363,-6742827.20191,  -0.00334,  -0.00334,   0.00120,478920663.98631,   0.00402,278920665.82550,  -0.00159,  -0.00273,   0.00129,  -1.83919,   1.00000
-541818394.05342,-365945332.40359,-7357408.92607,  -0.00335,  -0.00334,   0.00119,478925506.23940,   0.00402,278925508.27516,  -0.00159,  -0.00274,   0.00129,  -2.03577,   1.00000
-541739450.05014,-366119616.17516,-7969955.97401,  -0.00335,  -0.00335,   0.00118,478930398.03740,   0.00403,278930402.95331,  -0.00160,  -0.00274,   0.00129,  -4.91592,   1.00000
-541658612.14017,-366288176.79486,-8586010.39242,  -0.00335,  -0.00335,   0.00118,478935375.39279,   0.00403,278935376.81875,  -0.00160,  -0.00274,   0.00129,  -1.42595,   1.00000
-541574839.02821,-366454261.16659,-9205877.49462,  -0.00336,  -0.00335,   0.00117,478940360.41497,   0.00404,278940362.12957,  -0.00161,  -0.00274,   0.00129,  -1.71460,   1.00000
-541481894.27467,-366643264.01302,-9823331.15302,  -0.00336,  -0.00335,   0.00116,478945434.53030,   0.00404,278945442.62841,  -0.00161,  -0.00274,   0.00129,  -8.09812,   1.00000
-541389276.60664,-366817087.43227,-10444809.64160,  -0.00337,  -0.00336,   0.00115,478950486.99254,   0.00405,278950492.46166,  -0.00162,  -0.00274,   0.00129,  -5.46912,   1.00000
-541290322.79429,-367000890.02436,-11069757.55566,  -0.00337,  -0.00336,   0.00114,478955587.91955,   0.00405,278955596.97633,  -0.00162,  -0.00274,   0.00129,  -9.05678,   1.00000
-541186499.88107,-367191586.36422,-11691944.91927,  -0.00337,  -0.00336,   0.00113,478960816.83991,   0.00406,278960822.74675,  -0.00163,  -0.00274,   0.00128,  -5.90685,   1.00000
-541079609.04700,-367379567.87401,-12317805.06139,  -0.00338,  -0.00336,   0.00112,478966055.39977,   0.00406,278966061.09695,  -0.00163,  -0.00275,   0.00128,  -5.69718,   1.00000
-540970133.76550,-367565135.97387,-12941618.71249,  -0.00338,  -0.00336,   0.00112,478971304.48403,   0.00407,278971310.43398,  -0.00164,  -0.00275,   0.00128,  -5.94995,   1.00000
-540854234.66828,-367760495.29925,-13568733.55922,  -0.00339,  -0.00337,   0.00111,478976612.60886,   0.00407,278976615.38153,  -0.00164,  -0.00275,   0.00128,  -2.77267,   1.00000
-540736246.14509,-367949708.31354,-14198880.11824,  -0.00339,  -0.00337,   0.00110,478981999.96377,   0.00408,278982001.64814,  -0.00165,  -0.00275,   0.00128,  -1.68437,   1.00000
-540611260.22489,-368152283.78786,-14827121.91462,  -0.00339,  -0.00337,   0.00109,478987368.60146,   0.00408,278987374.10223,  -0.00165,  -0.00275,   0.00128,  -5.50077,   1.00000
-540484175.27854,-368348628.07295,-15458304.01220,  -0.00340,  -0.00337,   0.00108,478992827.25273,   0.00409,278992828.26068,  -0.00166,  -0.00275,   0.00128,  -1.00796,   1.00000
-540351616.96695,-368551197.45002,-16091940.83377,  -0.00340,  -0.00338,   0.00107,478998404.28002,   0.00410,278998407.23122,  -0.00166,  -0.00275,   0.00128,  -2.95120,   1.00000
-540212023.81108,-368767005.81805,-16723602.51719,  -0.00341,  -0.00338,   0.00106,479003968.00633,   0.00410,279003972.98170,  -0.00167,  -0.00276,   0.00128,  -4.97537,   1.00000
-540073628.42543,-368963933.79421,-17358469.70223,  -0.00341,  -0.00338,   0.00105,479009569.30979,   0.00411,279009578.40669,  -0.00167,  -0.00276,   0.00128,  -9.09689,   1.00000
-539929321.89260,-369170754.75573,-17990626.71804,  -0.00341,  -0.00339,   0.00104,479015230.94532,   0.00411,279015238.88367,  -0.00168,  -0.00276,   0.00128,  -7.93834,   1.00000
-539778373.18290,-369386940.98810,-18625721.58488,  -0.00342,  -0.00339,   0.00104,479020954.40663,   0.00412,279020957.23561,  -0.00168,  -0.00276,   0.00128,  -2.82898,   1.00000
-539626019.27759,-369597089.61749,-19257732.91530,  -0.00342,  -0.00339,   0.00103,479026746.60121,   0.00412,279026756.03037,  -0.00169,  -0.00276,   0.00128,  -9.42916,   1.00000
-539467007.33395,-369816517.56624,-19892585.24216,  -0.00343,  -0.00339,   0.00102,479032612.16268,   0.00413,279032613.18246,  -0.00169,  -0.00276,   0.00128,  -1.01978,   1.00000
-539304628.11922,-370032693.16596,-20530749.43761,  -0.00343,  -0.00340,   0.00101,479038481.71108,   0.00413,279038486.17497,  -0.00170,  -0.00276,   0.00127,  -4.46390,   1.00000
-539137548.23785,-370255183.32977,-21165126.48393,  -0.00344,  -0.00340,   0.00100,479044478.80855,   0.00414,279044483.09773,  -0.00170,  -0.00277,   0.00127,  -4.28918,   1.00000
-538967098.71520,-370474358.27660,-21802752.02321,  -0.00344,  -0.00340,   0.00099,479050491.69850,   0.00415,279050496.26912,  -0.00171,  -0.00277,   0.00127,  -4.57062,   1.00000
-538793240.46229,-370690190.98635,-22443600.85055,  -0.00344,  -0.00341,   0.00098,479056520.78815,   0.00415,279056526.04412,  -0.00172,  -0.00277,   0.00127,  -5.25597,   1.00000
-538614736.81399,-370912245.72342,-23080453.63194,  -0.00345,  -0.00341,   0.00097,479062677.68316,   0.00416,279062680.39782,  -0.00172,  -0.00277,   0.00127,  -2.71466,   1.00000
-538430378.05281,-371143852.77216,-23714192.88014,  -0.00345,  -0.00341,   0.00096,479068883.70300,   0.00416,279068891.55950,  -0.00173,  -0.00277,   0.00127,  -7.85650,   1.00000
-538245024.64752,-371359022.90172,-24357363.12920,  -0.00346,  -0.00341,   0.00095,479075074.94060,   0.00417,279075080.21099,  -0.00173,  -0.00277,   0.00127,  -5.27039,   1.00000
-538052696.60298,-371593298.50731,-24990027.63421,  -0.00346,  -0.00342,   0.00094,479081425.18710,   0.00418,279081433.76282,  -0.00174,  -0.00278,   0.00127,  -8.57571,   1.00000
-537855919.69104,-371823375.60010,-25631423.84824,  -0.00347,  -0.00342,   0.00093,479087798.85193,   0.00418,279087808.76433,  -0.00174,  -0.00278,   0.00127,  -9.91239,   1.00000
-537656711.26816,-372050543.95106,-26270202.02717,  -0.00347,  -0.00342,   0.00092,479094192.28723,   0.00419,279094198.08751,  -0.00175,  -0.00278,   0.00126,  -5.80027,   1.00000
-537453035.53937,-372283719.16306,-26904578.77847,  -0.00348,  -0.00343,   0.00091,479100706.63278,   0.00419,279100713.13632,  -0.00176,  -0.00278,   0.00126,  -6.50354,   1.00000
-537245907.82530,-372513266.62344,-27541948.64114,  -0.00348,  -0.00343,   0.00090,479107240.59053,   0.00420,279107246.66040,  -0.00176,  -0.00278,   0.00126,  -6.06987,   1.00000
-537031886.98913,-372751438.67925,-28181552.94889,  -0.00348,  -0.00343,   0.00089,479113842.38880,   0.00421,279113842.59408,  -0.00177,  -0.00278,   0.00126,  -0.20528,   1.00000
-536816893.44917,-372983203.02659,-28817284.33522,  -0.00349,  -0.00344,   0.00088,479120517.30677,   0.00421,279120521.33426,  -0.00177,  -0.00279,   0.00126,  -4.02749,   1.00000
-536596414.65254,-373220089.05916,-29453966.77648,  -0.00349,  -0.00344,   0.00087,479127325.35982,   0.00422,279127330.91856,  -0.00178,  -0.00279,   0.00126,  -5.55874,   1.00000
-536373659.87523,-373453972.04217,-30087866.03668,  -0.00350,  -0.00344,   0.00086,479134153.98065,   0.00423,279134155.65205,  -0.00179,  -0.00279,   0.00126,  -1.67140,   1.00000
-536147413.96479,-373684066.30448,-30724609.29083,  -0.00350,  -0.00345,   0.00085,479140991.74482,   0.00423,279141000.21550,  -0.00179,  -0.00279,   0.00125,  -8.47068,   1.00000
-535915501.71379,-373923392.70882,-31357732.58220,  -0.00351,  -0.00345,   0.00084,479147898.00649,   0.00424,279147904.07962,  -0.00180,  -0.00279,   0.00125,  -6.07313,   1.00000
-535679645.80022,-374164209.75355,-31990250.71747,  -0.00351,  -0.00345,   0.00083,479155001.91081,   0.00425,279155007.84720,  -0.00181,  -0.00280,   0.00125,  -5.93639,   1.00000
-535438804.98223,-374404538.13177,-32626805.59748,  -0.00352,  -0.00346,   0.00082,479162059.12797,   0.00425,279162064.36140,  -0.00181,  -0.00280,   0.00125,  -5.23343,   1.00000
-535198642.16618,-374639223.92332,-33253522.80432,  -0.00352,  -0.00346,   0.00081,479169198.79008,   0.00426,279169199.76503,  -0.00182,  -0.00280,   0.00125,  -0.97495,   1.00000
-534950228.52898,-374881284.51045,-33887686.75296,  -0.00353,  -0.00346,   0.00080,479176399.25158,   0.00427,279176405.21849,  -0.00182,  -0.00280,   0.00124,  -5.96691,   1.00000
-534701267.04351,-375116806.21597,-34517522.82093,  -0.00353,  -0.00347,   0.00079,479183691.14118,   0.00428,279183694.79966,  -0.00183,  -0.00280,   0.00124,  -3.65847,   1.00000
-534446979.03656,-375357040.89603,-35147670.13358,  -0.00354,  -0.00347,   0.00078,479191111.28234,   0.00428,279191118.04277,  -0.00184,  -0.00281,   0.00124,  -6.76044,   1.00000
-534190660.00691,-375594163.20653,-35774808.51019,  -0.00354,  -0.00348,   0.00077,479198553.32338,   0.00429,279198557.80349,  -0.00184,  -0.00281,   0.00124,  -4.48011,   1.00000
-533927441.46485,-375839354.66832,-36403577.95649,  -0.00355,  -0.00348,   0.00076,479206061.82617,   0.00430,279206063.93316,  -0.00185,  -0.00281,   0.00124,  -2.10698,   1.00000
-533663879.28584,-376077939.40802,-37027824.73831,  -0.00355,  -0.00348,   0.00075,479213647.46847,   0.00430,279213654.80457,  -0.00186,  -0.00281,   0.00123,  -7.33610,   1.00000
-533394948.35457,-376325504.72068,-37648034.20588,  -0.00356,  -0.00349,   0.00074,479221302.44508,   0.00431,279221306.93858,  -0.00186,  -0.00281,   0.00123,  -4.49350,   1.00000
-533122780.45015,-376564460.62031,-38274810.68797,  -0.00356,  -0.00349,   0.00073,479229050.84328,   0.00432,279229055.31666,  -0.00187,  -0.00282,   0.00123,  -4.47337,   1.00000
-532850267.38253,-376801277.67793,-38892890.58270,  -0.00357,  -0.00349,   0.00072,479236809.48173,   0.00433,279236815.19524,  -0.00188,  -0.00282,   0.00123,  -5.71351,   1.00000
-532571082.43580,-377041514.30036,-39516401.48842,  -0.00357,  -0.00350,   0.00071,479244709.84911,   0.00433,279244716.63584,  -0.00188,  -0.00282,   0.00123,  -6.78673,   1.00000
-532288398.64507,-377287160.33699,-40134085.42696,  -0.00358,  -0.00350,   0.00070,479252748.26686,   0.00434,279252748.28025,  -0.00189,  -0.00282,   0.00122,  -0.01339,   1.00000
-532007415.09817,-377517577.44873,-40749655.42848,  -0.00358,  -0.00351,   0.00069,479260747.11183,   0.00435,279260752.74968,  -0.00190,  -0.00283,   0.00122,  -5.63785,   1.00000
-531716157.53921,-377767828.52107,-41365430.56416,  -0.00359,  -0.00351,   0.00068,479268862.71477,   0.00436,279268870.78414,  -0.00191,  -0.00283,   0.00122,  -8.06938,   1.00000
-531428511.73758,-377999391.49623,-41977429.76914,  -0.00359,  -0.00351,   0.00067,479277020.96873,   0.00437,279277029.64914,  -0.00191,  -0.00283,   0.00122,  -8.68041,   1.00000
-531135944.85079,-378235247.43780,-42588948.07199,  -0.00360,  -0.00352,   0.00066,479285316.16018,   0.00437,279285325.71953,  -0.00192,  -0.00283,   0.00121,  -9.55935,   1.00000
-530838327.18612,-378479920.16735,-43196070.60392,  -0.00360,  -0.00352,   0.00065,479293681.81870,   0.00438,279293684.90100,  -0.00193,  -0.00283,   0.00121,  -3.08230,   1.00000
-530539329.87119,-378716769.02245,-43803730.76132,  -0.00361,  -0.00353,   0.00064,479302129.47227,   0.00439,279302136.76114,  -0.00194,  -0.00284,   0.00121,  -7.28887,   1.00000
-530238824.67305,-378950449.15436,-44408100.33651,  -0.00362,  -0.00353,   0.00063,479310600.19836,   0.00440,279310606.90054,  -0.00194,  -0.00284,   0.00120,  -6.70218,   1.00000
-529933562.56497,-379188271.27890,-45011736.40169,  -0.00362,  -0.00353,   0.00062,479319208.42826,   0.00441,279319215.41138,  -0.00195,  -0.00284,   0.00120,  -6.98312,   1.00000
-529626875.24760,-379422911.30579,-45612046.55499,  -0.00363,  -0.00354,   0.00061,479327839.86419,   0.00442,279327842.42662,  -0.00196,  -0.00284,   0.00120,  -2.56243,   1.00000
-529317530.26988,-379658159.23820,-46209670.00569,  -0.00363,  -0.00354,   0.00059,479336674.30990,   0.00442,279336676.36406,  -0.00196,  -0.00285,   0.00119,  -2.05416,   1.00000
-529004826.13628,-379893694.50974,-46805774.14231,  -0.00364,  -0.00355,   0.00058,479345458.79618,   0.00443,279345461.02016,  -0.00197,  -0.00285,   0.00119,  -2.22398,   1.00000
-528689605.28703,-380129765.59490,-47399026.83269,  -0.00364,  -0.00355,   0.00057,479354446.03511,   0.00444,279354453.18518,  -0.00198,  -0.00285,   0.00119,  -7.15007,   1.00000
-528371068.72362,-380366120.29582,-47990774.08990,  -0.00365,  -0.00356,   0.00056,479363391.84310,   0.00445,279363396.22302,  -0.00199,  -0.00286,   0.00119,  -4.37993,   1.00000
-528053626.89791,-380591084.36536,-48580800.89526,  -0.00366,  -0.00356,   0.00055,479372492.49532,   0.00446,279372501.63967,  -0.00200,  -0.00286,   0.00118,  -9.14434,   1.00000
-527731569.00602,-380824784.38142,-49166098.57849,  -0.00366,  -0.00356,   0.00054,479381664.32918,   0.00447,279381671.92658,  -0.00200,  -0.00286,   0.00118,  -7.59740,   1.00000
-527410578.07932,-381051867.67229,-49746018.94593,  -0.00367,  -0.00357,   0.00053,479390923.07027,   0.00448,279390929.30236,  -0.00201,  -0.00286,   0.00118,  -6.23209,   1.00000
-527083108.37356,-381286336.70258,-50326664.46665,  -0.00367,  -0.00357,   0.00052,479400256.18293,   0.00449,279400259.30752,  -0.00202,  -0.00287,   0.00117,  -3.12459,   1.00000
-526754841.61834,-381512822.76369,-50907335.89768,  -0.00368,  -0.00358,   0.00051,479409679.83117,   0.00450,279409684.41861,  -0.00203,  -0.00287,   0.00117,  -4.58744,   1.00000
-526427845.03902,-381732723.58851,-51482509.50594,  -0.00369,  -0.00358,   0.00049,479419189.83937,   0.00450,279419197.04779,  -0.00204,  -0.00287,   0.00116,  -7.20842,   1.00000
-526098749.33136,-381957886.60621,-52050781.64867,  -0.00369,  -0.00359,   0.00048,479428833.46608,   0.00451,279428843.27162,  -0.00204,  -0.00287,   0.00116,  -9.80555,   1.00000
-525766771.36272,-382178573.24390,-52621044.45568,  -0.00370,  -0.00359,   0.00047,479438513.40531,   0.00452,279438516.81036,  -0.00205,  -0.00288,   0.00116,  -3.40505,   1.00000
-525430503.75570,-382407947.16627,-53186395.37992,  -0.00370,  -0.00360,   0.00046,479448255.78331,   0.00453,279448256.21539,  -0.00206,  -0.00288,   0.00115,  -0.43208,   1.00000
-525096076.84963,-382625859.74148,-53749498.65123,  -0.00371,  -0.00360,   0.00045,479458159.20692,   0.00454,279458159.55198,  -0.00207,  -0.00288,   0.00115,  -0.34506,   1.00000
-524760939.41278,-382840726.07250,-54309085.71781,  -0.00372,  -0.00360,   0.00044,479468076.50597,   0.00455,279468082.53409,  -0.00208,  -0.00289,   0.00114,  -6.02812,   1.00000
-524421950.85234,-383059392.70952,-54866993.72998,  -0.00372,  -0.00361,   0.00043,479478141.17499,   0.00456,279478148.17417,  -0.00208,  -0.00289,   0.00114,  -6.99918,   1.00000
-524082350.89672,-383275016.21401,-55421368.77519,  -0.00373,  -0.00361,   0.00042,479488228.62362,   0.00457,279488233.55604,  -0.00209,  -0.00289,   0.00114,  -4.93242,   1.00000
-523744637.10075,-383484177.92726,-55970042.68081,  -0.00374,  -0.00362,   0.00040,479498399.41654,   0.00458,279498406.78833,  -0.00210,  -0.00290,   0.00113,  -7.37178,   1.00000
-523403253.81068,-383697126.48459,-56516911.29446,  -0.00374,  -0.00362,   0.00039,479508717.62575,   0.00459,279508723.22384,  -0.00211,  -0.00290,   0.00113,  -5.59808,   1.00000
-523061714.87136,-383902121.34595,-57063433.42484,  -0.00375,  -0.00363,   0.00038,479519134.87036,   0.00460,279519136.37501,  -0.00212,  -0.00290,   0.00112,  -1.50465,   1.00000
-522716295.19242,-384115842.84334,-57604846.42088,  -0.00376,  -0.00363,   0.00037,479529613.97673,   0.00461,279529616.39433,  -0.00213,  -0.00290,   0.00112,  -2.41760,   1.00000
-522373075.37621,-384323135.28252,-58140448.39514,  -0.00376,  -0.00364,   0.00036,479540174.84919,   0.00462,279540184.45085,  -0.00214,  -0.00291,   0.00111,  -9.60166,   1.00000
-522032165.80147,-384524083.04680,-58670239.90032,  -0.00377,  -0.00364,   0.00035,479550835.52058,   0.00463,279550840.34089,  -0.00214,  -0.00291,   0.00111,  -4.82030,   1.00000
-521685260.94467,-384732221.16902,-59200312.34865,  -0.00378,  -0.00365,   0.00034,479561565.64586,   0.00464,279561572.16807,  -0.00215,  -0.00291,   0.00110,  -6.52221,   1.00000
-521341144.77153,-384928969.50218,-59727592.44505,  -0.00378,  -0.00365,   0.00032,479572462.79947,   0.00465,279572469.45037,  -0.00216,  -0.00292,   0.00110,  -6.65089,   1.00000
-520993432.69073,-385134496.75732,-60249683.09410,  -0.00379,  -0.00366,   0.00031,479583430.61973,   0.00466,279583433.88197,  -0.00217,  -0.00292,   0.00110,  -3.26224,   1.00000
-520651768.59328,-385322112.34977,-60767507.76163,  -0.00380,  -0.00366,   0.00030,479594438.17738,   0.00468,279594438.94846,  -0.00218,  -0.00292,   0.00109,  -0.77108,   1.00000
-520300793.01787,-385528523.65364,-61283866.94534,  -0.00380,  -0.00367,   0.00029,479605565.25222,   0.00469,279605568.11480,  -0.00219,  -0.00293,   0.00109,  -2.86258,   1.00000
-519956002.44657,-385717049.07229,-61795948.38055,  -0.00381,  -0.00367,   0.00028,479616731.59190,   0.00470,279616737.84016,  -0.00220,  -0.00293,   0.00108,  -6.24826,   1.00000
-519610600.99887,-385910993.89189,-62300410.71688,  -0.00382,  -0.00368,   0.00026,479628034.97634,   0.00471,279628043.07633,  -0.00221,  -0.00294,   0.00107,  -8.09999,   1.00000
-519265701.27294,-386097083.40167,-62804286.54562,  -0.00383,  -0.00368,   0.00025,479639436.22607,   0.00472,279639445.87567,  -0.00222,  -0.00294,   0.00107,  -9.64960,   1.00000
-518920369.68662,-386288619.42554,-63300478.99484,  -0.00383,  -0.00369,   0.00024,479650983.83959,   0.00473,279650984.24525,  -0.00223,  -0.00294,   0.00106,  -0.40567,   1.00000
-518576199.17064,-386464183.29172,-63800221.29438,  -0.00384,  -0.00369,   0.00023,479662502.95206,   0.00474,279662504.29600,  -0.00223,  -0.00295,   0.00106,  -1.34394,   1.00000
-518231198.65928,-386653375.37940,-64288005.14735,  -0.00385,  -0.00370,   0.00022,479674273.42424,   0.00475,279674276.32688,  -0.00224,  -0.00295,   0.00105,  -2.90265,   1.00000
-517889920.40094,-386828378.46608,-64774031.94466,  -0.00386,  -0.00370,   0.00021,479686013.50265,   0.00477,279686019.76144,  -0.00225,  -0.00295,   0.00105,  -6.25879,   1.00000
-517543046.70724,-387010579.48978,-65260130.21653,  -0.00386,  -0.00371,   0.00019,479697835.31155,   0.00478,279697840.74269,  -0.00226,  -0.00296,   0.00104,  -5.43114,   1.00000
-517202505.66906,-387183363.45571,-65737674.93638,  -0.00387,  -0.00371,   0.00018,479709817.27778,   0.00479,279709817.76871,  -0.00227,  -0.00296,   0.00104,  -0.49092,   1.00000
-516856434.02048,-387363327.39918,-66215256.54394,  -0.00388,  -0.00372,   0.00017,479721870.80622,   0.00480,279721872.57984,  -0.00228,  -0.00296,   0.00103,  -1.77362,   1.00000
-516520305.28816,-387522445.31140,-66686036.26144,  -0.00389,  -0.00372,   0.00016,479734032.49470,   0.00481,279734035.14574,  -0.00229,  -0.00297,   0.00102,  -2.65104,   1.00000
-516181273.76331,-387690648.48469,-67151528.25753,  -0.00389,  -0.00373,   0.00015,479746262.92177,   0.00482,279746265.10520,  -0.00230,  -0.00297,   0.00102,  -2.18343,   1.00000
-515842482.53898,-387864480.51236,-67609154.06263,  -0.00390,  -0.00374,   0.00013,479758625.41293,   0.00484,279758630.69797,  -0.00231,  -0.00298,   0.00101,  -5.28504,   1.00000
-515505096.60837,-388022559.12681,-68070500.13952,  -0.00391,  -0.00374,   0.00012,479770969.48374,   0.00485,279770977.29997,  -0.00232,  -0.00298,   0.00101,  -7.81623,   1.00000
-515168617.62804,-388181119.31438,-68526600.28516,  -0.00392,  -0.00375,   0.00011,479783534.72622,   0.00486,279783538.85365,  -0.00233,  -0.00298,   0.00100,  -4.12743,   1.00000
-514832040.90919,-388350632.37303,-68972102.34141,  -0.00393,  -0.00375,   0.00010,479796152.61322,   0.00487,279796156.95889,  -0.00234,  -0.00299,   0.00099,  -4.34566,   1.00000
-514503339.38965,-388497705.77614,-69416095.13854,  -0.00393,  -0.00376,   0.00008,479808888.47772,   0.00489,279808892.52604,  -0.00235,  -0.00299,   0.00099,  -4.04832,   1.00000
-514169345.88088,-388652090.97167,-69860069.45107,  -0.00394,  -0.00376,   0.00007,479821696.65534,   0.00490,279821706.35472,  -0.00236,  -0.00300,   0.00098,  -9.69938,   1.00000
-513842066.65383,-388802751.81937,-70292706.33801,  -0.00395,  -0.00377,   0.00006,479834589.68982,   0.00491,279834595.95092,  -0.00237,  -0.00300,   0.00097,  -6.26110,   1.00000
-513516210.87478,-388945937.16011,-70724583.12507,  -0.00396,  -0.00377,   0.00005,479847576.79246,   0.00492,279847583.21163,  -0.00238,  -0.00300,   0.00097,  -6.41917,   1.00000
-513188453.07733,-389093090.44207,-71153730.71035,  -0.00397,  -0.00378,   0.00004,479860709.36952,   0.00494,279860717.19654,  -0.00239,  -0.00301,   0.00096,  -7.82702,   1.00000
-512864309.08267,-389240021.04538,-71574283.74732,  -0.00397,  -0.00378,   0.00002,479873851.48111,   0.00495,279873857.93286,  -0.00240,  -0.00301,   0.00095,  -6.45175,   1.00000
-512545089.14667,-389376175.22192,-71991337.37812,  -0.00398,  -0.00379,   0.00001,479887159.41415,   0.00496,279887164.61148,  -0.00241,  -0.00302,   0.00095,  -5.19733,   1.00000
-512220740.14356,-389519695.00445,-72408367.72776,  -0.00399,  -0.00380,  -0.00000,479900539.80476,   0.00498,279900549.60755,  -0.00242,  -0.00302,   0.00094,  -9.80279,   1.00000
-511906907.54095,-389648401.34461,-72816099.41371,  -0.00400,  -0.00380,  -0.00001,479913954.26622,   0.00499,279913960.01180,  -0.00243,  -0.00303,   0.00093,  -5.74558,   1.00000
