# sigma_xx, sigma_yy, sigma_xy, epsilon_xx, epsilon_yy, epsilon_xy, vonMises, epsPlastic, hardening, epsilonP__xx, epsilonP__yy, epsilonP__xy, yieldValue, iteration
   0.00000,   0.00000,   0.00000,   0.00000,   0.00000,   0.00000,   0.00000,   0.00000,274640135.82653,   0.00000,   0.00000,   0.00000,-474640135.82653,   0.00000
   0.00000,   0.00000,   0.00000,   0.00000,   0.00000,   0.00000,   0.00000,   0.00000,274640135.82653,   0.00000,   0.00000,   0.00000,-474640135.82653,   0.00000
1766275.65419,1128289.79917,-578913.09067,   0.00001,   0.00000,  -0.00001,1845350.33368,   0.00000,274640135.82653,   0.00000,   0.00000,   0.00000,-472794785.49285,   0.00000
3520736.75552,2268394.15121,-1163733.45778,   0.00001,   0.00000,  -0.00002,3690204.24164,   0.00000,274640135.82653,   0.00000,   0.00000,   0.00000,-470949931.58489,   0.00000
5245661.47466,3378962.12107,-1748553.82489,   0.00002,   0.00001,  -0.00002,5511966.92072,   0.00000,274640135.82653,   0.00000,   0.00000,   0.00000,-469128168.90581,   0.00000
6970586.19381,4489530.09093,-2345188.74487,   0.00002,   0.00001,  -0.00003,7345068.18221,   0.00000,274640135.82653,   0.00000,   0.00000,   0.00000,-467295067.64432,   0.00000
8683696.36008,5611912.61366,-2941823.66484,   0.00003,   0.00001,  -0.00004,9172294.14848,   0.00000,274640135.82653,   0.00000,   0.00000,   0.00000,-465467841.67805,   0.00000
10367270.14418,6704758.75421,-3538458.58482,   0.00003,   0.00001,  -0.00005,10976616.16381,   0.00000,274640135.82653,   0.00000,   0.00000,   0.00000,-463663519.66272,   0.00000
12050843.92828,7797604.89477,-4146908.05767,   0.00004,   0.00001,  -0.00005,12792509.57372,   0.00000,274640135.82653,   0.00000,   0.00000,   0.00000,-461847626.25281,   0.00000
13713742.24485,8881590.12067,-4755357.53052,   0.00005,   0.00001,  -0.00006,14594170.32653,   0.00000,274640135.82653,   0.00000,   0.00000,   0.00000,-460045965.50000,   0.00000
15376640.56143,9965575.34657,-5369714.27981,   0.00005,   0.00002,  -0.00007,16401774.02575,   0.00000,274640135.82653,   0.00000,   0.00000,   0.00000,-458238361.80078,   0.00000
17027724.32513,11061375.12535,-5984071.02909,   0.00006,   0.00002,  -0.00008,18203699.82472,   0.00000,274640135.82653,   0.00000,   0.00000,   0.00000,-456436436.00181,   0.00000
18649271.70666,12127638.52194,-6610242.33125,   0.00006,   0.00002,  -0.00009,19994730.21536,   0.00000,274640135.82653,   0.00000,   0.00000,   0.00000,-454645405.61116,   0.00000
20270819.08818,13193901.91854,-7236413.63340,   0.00007,   0.00002,  -0.00009,21786027.68531,   0.00000,274640135.82653,   0.00000,   0.00000,   0.00000,-452854108.14122,   0.00000
21871691.00218,14251304.40048,-7862584.93556,   0.00007,   0.00002,  -0.00010,23563343.22187,   0.00000,274640135.82653,   0.00000,   0.00000,   0.00000,-451076792.60466,   0.00000
23451887.44866,15299845.96777,-8500570.79059,   0.00008,   0.00002,  -0.00011,25338610.00966,   0.00000,274640135.82653,   0.00000,   0.00000,   0.00000,-449301525.81687,   0.00000
25032083.89514,16348387.53506,-9138556.64561,   0.00008,   0.00003,  -0.00012,27114211.09856,   0.00000,274640135.82653,   0.00000,   0.00000,   0.00000,-447525924.72797,   0.00000
26591604.87409,17388068.18769,-9776542.50064,   0.00009,   0.00003,  -0.00013,28876012.12268,   0.00000,274640135.82653,   0.00000,   0.00000,   0.00000,-445764123.70385,   0.00000
28130450.38552,18418887.92567,-10426342.90854,   0.00009,   0.00003,  -0.00014,30636121.45328,   0.00000,274640135.82653,   0.00000,   0.00000,   0.00000,-444004014.37324,   0.00000
29669295.89695,19449707.66366,-11076143.31643,   0.00010,   0.00003,  -0.00014,32396635.12989,   0.00000,274640135.82653,   0.00000,   0.00000,   0.00000,-442243500.69664,   0.00000
31208141.40838,20480527.40164,-11725943.72433,   0.00010,   0.00003,  -0.00015,34157490.63126,   0.00000,274640135.82653,   0.00000,   0.00000,   0.00000,-440482645.19527,   0.00000
32705635.98477,21493625.31032,-12387558.68510,   0.00011,   0.00003,  -0.00016,35903017.96906,   0.00000,274640135.82653,   0.00000,   0.00000,   0.00000,-438737117.85747,   0.00000
34203130.56115,22506723.21899,-13049173.64587,   0.00011,   0.00004,  -0.00017,37649025.69784,   0.00000,274640135.82653,   0.00000,   0.00000,   0.00000,-436991110.12869,   0.00000
35679949.67000,23510960.21302,-13716695.88307,   0.00012,   0.00004,  -0.00018,39387782.61522,   0.00000,274640135.82653,   0.00000,   0.00000,   0.00000,-435252353.21130,   0.00000
37156768.77886,24515197.20704,-14384218.12028,   0.00012,   0.00004,  -0.00019,41127023.21820,   0.00000,274640135.82653,   0.00000,   0.00000,   0.00000,-433513112.60833,   0.00000
38612912.42020,25510573.28641,-15057647.63391,   0.00013,   0.00004,  -0.00020,42859153.97760,   0.00000,274640135.82653,   0.00000,   0.00000,   0.00000,-431780981.84893,   0.00000
40057241.50866,26517763.91865,-15731077.14755,   0.00013,   0.00004,  -0.00020,44586391.32781,   0.00000,274640135.82653,   0.00000,   0.00000,   0.00000,-430053744.49872,   0.00000
41492709.68247,27504279.08337,-16416321.21406,   0.00014,   0.00004,  -0.00021,46318355.58683,   0.00000,274640135.82653,   0.00000,   0.00000,   0.00000,-428321780.23970,   0.00000
42907502.38875,28481933.33343,-17101565.28057,   0.00014,   0.00005,  -0.00022,48037238.37033,   0.00000,274640135.82653,   0.00000,   0.00000,   0.00000,-426602897.45620,   0.00000
44322295.09504,29459587.58350,-17786809.34708,   0.00014,   0.00005,  -0.00023,49756691.70148,   0.00000,274640135.82653,   0.00000,   0.00000,   0.00000,-424883444.12505,   0.00000
45716412.33380,30428380.91891,-18477960.69003,   0.00015,   0.00005,  -0.00024,51469460.91682,   0.00000,274640135.82653,   0.00000,   0.00000,   0.00000,-423170674.90971,   0.00000
47098715.01969,31408988.80719,-19175019.30941,   0.00015,   0.00005,  -0.00025,53183969.55906,   0.00000,274640135.82653,   0.00000,   0.00000,   0.00000,-421456166.26747,   0.00000
48451481.32341,32360060.31329,-19877985.20523,   0.00016,   0.00005,  -0.00026,54883782.44506,   0.00000,274640135.82653,   0.00000,   0.00000,   0.00000,-419756353.38147,   0.00000
49804247.62712,33311131.81940,-20580951.10104,   0.00016,   0.00005,  -0.00027,56584320.89891,   0.00000,274640135.82653,   0.00000,   0.00000,   0.00000,-418055814.92762,   0.00000
51165874.84549,34282878.79303,-21283916.99686,   0.00017,   0.00006,  -0.00028,58293776.76529,   0.00000,274640135.82653,   0.00000,   0.00000,   0.00000,-416346359.06124,   0.00000
52477290.21415,35216228.46982,-21992790.16911,   0.00017,   0.00006,  -0.00029,59975369.54841,   0.00000,274640135.82653,   0.00000,   0.00000,   0.00000,-414664766.27812,   0.00000
53797566.49747,36170253.61415,-22707570.61780,   0.00017,   0.00006,  -0.00030,61672482.30460,   0.00000,274640135.82653,   0.00000,   0.00000,   0.00000,-412967653.52193,   0.00000
55108981.86614,37103603.29094,-23428258.34292,   0.00018,   0.00006,  -0.00030,63368646.23387,   0.00000,274640135.82653,   0.00000,   0.00000,   0.00000,-411271489.59266,   0.00000
56408582.68193,38048767.52061,-24148946.06804,   0.00018,   0.00006,  -0.00031,65060546.03200,   0.00000,274640135.82653,   0.00000,   0.00000,   0.00000,-409579589.79453,   0.00000
57687508.03020,38985070.83563,-24869633.79317,   0.00019,   0.00006,  -0.00032,66740008.98205,   0.00000,274640135.82653,   0.00000,   0.00000,   0.00000,-407900126.84448,   0.00000
58936896.99630,39891837.76847,-25602136.07116,   0.00019,   0.00007,  -0.00033,68412159.21723,   0.00000,274640135.82653,   0.00000,   0.00000,   0.00000,-406227976.60930,   0.00000
60195146.87704,40819280.16883,-26328731.07272,   0.00019,   0.00007,  -0.00034,70086753.49573,   0.00000,274640135.82653,   0.00000,   0.00000,   0.00000,-404553382.33080,   0.00000
61432721.29027,41737861.65454,-27067140.62715,   0.00020,   0.00007,  -0.00035,71762442.98751,   0.00000,274640135.82653,   0.00000,   0.00000,   0.00000,-402877692.83902,   0.00000
62670295.70349,42656443.14025,-27805550.18157,   0.00020,   0.00007,  -0.00036,73439036.36610,   0.00000,274640135.82653,   0.00000,   0.00000,   0.00000,-401201099.46043,   0.00000
63887194.64919,43566163.71131,-28543959.73600,   0.00021,   0.00007,  -0.00037,75103509.84976,   0.00000,274640135.82653,   0.00000,   0.00000,   0.00000,-399536625.97677,   0.00000
65083418.12736,44467023.36771,-29288276.56687,   0.00021,   0.00008,  -0.00038,76762693.02453,   0.00000,274640135.82653,   0.00000,   0.00000,   0.00000,-397877442.80200,   0.00000
66279641.60554,45367883.02411,-30038500.67417,   0.00021,   0.00008,  -0.00039,78429606.92534,   0.00000,274640135.82653,   0.00000,   0.00000,   0.00000,-396210528.90119,   0.00000
67455189.61619,46259881.76586,-30788724.78147,   0.00022,   0.00008,  -0.00040,80084623.31819,   0.00000,274640135.82653,   0.00000,   0.00000,   0.00000,-394555512.50834,   0.00000
68639598.54149,47172555.97514,-31544856.16520,   0.00022,   0.00008,  -0.00041,81755569.05988,   0.00000,274640135.82653,   0.00000,   0.00000,   0.00000,-392884566.76665,   0.00000
69794471.08462,48055693.80223,-32300987.54894,   0.00022,   0.00008,  -0.00042,83406579.83142,   0.00000,274640135.82653,   0.00000,   0.00000,   0.00000,-391233555.99511,   0.00000
70937529.07488,48950646.18220,-33063026.20911,   0.00023,   0.00008,  -0.00043,85060872.39403,   0.00000,274640135.82653,   0.00000,   0.00000,   0.00000,-389579263.43250,   0.00000
72071726.15048,49824923.09464,-33825064.86928,   0.00023,   0.00009,  -0.00044,86708093.61982,   0.00000,274640135.82653,   0.00000,   0.00000,   0.00000,-387932042.20671,   0.00000
73194108.67321,50711014.55996,-34593010.80589,   0.00023,   0.00009,  -0.00045,88358735.96529,   0.00000,274640135.82653,   0.00000,   0.00000,   0.00000,-386281399.86124,   0.00000
74295815.72842,51588245.11062,-35360956.74249,   0.00024,   0.00009,  -0.00046,89997868.31412,   0.00000,274640135.82653,   0.00000,   0.00000,   0.00000,-384642267.51240,   0.00000
75388661.86897,52444800.19376,-36134809.95553,   0.00024,   0.00009,  -0.00047,91636987.99465,   0.00000,274640135.82653,   0.00000,   0.00000,   0.00000,-383003147.83188,   0.00000
76469693.45666,53313169.82977,-36908663.16857,   0.00024,   0.00009,  -0.00048,93272796.63032,   0.00000,274640135.82653,   0.00000,   0.00000,   0.00000,-381367339.19621,   0.00000
77550725.04434,54181539.46578,-37688423.65805,   0.00025,   0.00010,  -0.00049,94916744.24295,   0.00000,274640135.82653,   0.00000,   0.00000,   0.00000,-379723391.58358,   0.00000
78619942.07915,55061723.65465,-38468184.14753,   0.00025,   0.00010,  -0.00050,96557458.30679,   0.00000,274640135.82653,   0.00000,   0.00000,   0.00000,-378082677.51974,   0.00000
79659622.73179,55912371.46136,-39253851.91344,   0.00025,   0.00010,  -0.00051,98185971.65420,   0.00000,274640135.82653,   0.00000,   0.00000,   0.00000,-376454164.17233,   0.00000
80699303.38443,56763019.26806,-40045426.95579,   0.00026,   0.00010,  -0.00052,99822795.34476,   0.00000,274640135.82653,   0.00000,   0.00000,   0.00000,-374817340.48176,   0.00000
81727169.48419,57625481.62763,-40831094.72170,   0.00026,   0.00010,  -0.00053,101449464.01851,   0.00000,274640135.82653,   0.00000,   0.00000,   0.00000,-373190671.80802,   0.00000
82746174.66930,58467268.51968,-41628577.04048,   0.00026,   0.00010,  -0.00054,103083574.71700,   0.00000,274640135.82653,   0.00000,   0.00000,   0.00000,-371556561.10953,   0.00000
83753365.30154,59320869.96460,-42420152.08283,   0.00027,   0.00011,  -0.00055,104707579.61453,   0.00000,274640135.82653,   0.00000,   0.00000,   0.00000,-369932556.21200,   0.00000
84739880.46626,60165610.49487,-43223541.67805,   0.00027,   0.00011,  -0.00056,106335060.31279,   0.00000,274640135.82653,   0.00000,   0.00000,   0.00000,-368305075.51374,   0.00000
85726395.63098,61010351.02513,-44021023.99683,   0.00027,   0.00011,  -0.00057,107956620.97210,   0.00000,274640135.82653,   0.00000,   0.00000,   0.00000,-366683514.85443,   0.00000
86692235.32817,61846230.64075,-44824413.59205,   0.00027,   0.00011,  -0.00058,109574614.26539,   0.00000,274640135.82653,   0.00000,   0.00000,   0.00000,-365065521.56114,   0.00000
87658075.02536,62682110.25636,-45633710.46371,   0.00028,   0.00011,  -0.00059,111201162.45705,   0.00000,274640135.82653,   0.00000,   0.00000,   0.00000,-363438973.36948,   0.00000
88603239.25503,63509128.95732,-46443007.33536,   0.00028,   0.00012,  -0.00060,112817054.16547,   0.00000,274640135.82653,   0.00000,   0.00000,   0.00000,-361823081.66106,   0.00000
89548403.48470,64336147.65828,-47258211.48345,   0.00028,   0.00012,  -0.00061,114441569.41800,   0.00000,274640135.82653,   0.00000,   0.00000,   0.00000,-360198566.40853,   0.00000
90481753.16150,65174980.91211,-48067508.35510,   0.00028,   0.00012,  -0.00062,116056173.18903,   0.00000,274640135.82653,   0.00000,   0.00000,   0.00000,-358583962.63750,   0.00000
91385566.45612,65984277.78377,-48888619.77963,   0.00029,   0.00012,  -0.00064,117667019.59579,   0.00000,274640135.82653,   0.00000,   0.00000,   0.00000,-356973116.23074,   0.00000
92298240.66540,66814250.12295,-49709731.20415,   0.00029,   0.00012,  -0.00065,119287231.67574,   0.00000,274640135.82653,   0.00000,   0.00000,   0.00000,-355352904.15079,   0.00000
93190239.40715,67635361.54747,-50530842.62868,   0.00029,   0.00013,  -0.00066,120897086.34915,   0.00000,274640135.82653,   0.00000,   0.00000,   0.00000,-353743049.47738,   0.00000
94082238.14890,68456472.97200,-51351954.05320,   0.00029,   0.00013,  -0.00067,122508316.40804,   0.00000,274640135.82653,   0.00000,   0.00000,   0.00000,-352131819.41849,   0.00000
94953561.42312,69268723.48187,-52178972.75416,   0.00030,   0.00013,  -0.00068,124116713.14914,   0.00000,274640135.82653,   0.00000,   0.00000,   0.00000,-350523422.67739,   0.00000
95804209.22982,70072113.07709,-53011898.73156,   0.00030,   0.00013,  -0.00069,125722425.90804,   0.00000,274640135.82653,   0.00000,   0.00000,   0.00000,-348917709.91849,   0.00000
96684393.41870,70905039.05448,-53838917.43252,   0.00030,   0.00013,  -0.00070,127341559.96243,   0.00000,274640135.82653,   0.00000,   0.00000,   0.00000,-347298575.86410,   0.00000
97514365.75788,71699567.73505,-54677750.68635,   0.00030,   0.00014,  -0.00071,128946155.15832,   0.00000,274640135.82653,   0.00000,   0.00000,   0.00000,-345693980.66821,   0.00000
98353199.01171,72514771.88314,-55510676.66375,   0.00031,   0.00014,  -0.00072,130552632.21319,   0.00000,274640135.82653,   0.00000,   0.00000,   0.00000,-344087503.61334,   0.00000
99171356.79802,73321115.11657,-56349509.91758,   0.00031,   0.00014,  -0.00073,132156692.10031,   0.00000,274640135.82653,   0.00000,   0.00000,   0.00000,-342483443.72621,   0.00000
99989514.58433,74127458.35001,-57188343.17141,   0.00031,   0.00014,  -0.00074,133762230.52315,   0.00000,274640135.82653,   0.00000,   0.00000,   0.00000,-340877905.30338,   0.00000
100786996.90311,74924940.66879,-58033083.70168,   0.00031,   0.00014,  -0.00075,135365513.06591,   0.00000,274640135.82653,   0.00000,   0.00000,   0.00000,-339274622.76062,   0.00000
101584479.22189,75722422.98758,-58877824.23194,   0.00031,   0.00015,  -0.00077,136970301.21943,   0.00000,274640135.82653,   0.00000,   0.00000,   0.00000,-337669834.60709,   0.00000
102361286.07315,76511044.39171,-59722564.76221,   0.00032,   0.00015,  -0.00078,138565356.86474,   0.00000,274640135.82653,   0.00000,   0.00000,   0.00000,-336074778.96179,   0.00000
103146953.83907,77320341.26336,-60573212.56891,   0.00032,   0.00015,  -0.00079,140177436.95404,   0.00000,274640135.82653,   0.00000,   0.00000,   0.00000,-334462698.87249,   0.00000
103911946.13745,78120777.22036,-61423860.37561,   0.00032,   0.00015,  -0.00080,141779893.70562,   0.00000,274640135.82653,   0.00000,   0.00000,   0.00000,-332860242.12091,   0.00000
104676938.43584,78921213.17736,-62274508.18232,   0.00032,   0.00015,  -0.00081,143383860.54465,   0.00000,274640135.82653,   0.00000,   0.00000,   0.00000,-331256275.28188,   0.00000
105412394.35205,79692112.75219,-63131063.26545,   0.00032,   0.00016,  -0.00082,144978145.76286,   0.00000,274640135.82653,   0.00000,   0.00000,   0.00000,-329661990.06367,   0.00000
106165572.09757,80504363.26206,-63987618.34859,   0.00033,   0.00016,  -0.00083,146589683.56178,   0.00000,274640135.82653,   0.00000,   0.00000,   0.00000,-328050452.26475,   0.00000
106889213.46091,81287077.38975,-64850080.70816,   0.00033,   0.00016,  -0.00084,148191700.31314,   0.00000,274640135.82653,   0.00000,   0.00000,   0.00000,-326448435.51339,   0.00000
107592179.35673,82060930.60279,-65706635.79130,   0.00033,   0.00016,  -0.00085,149776650.34164,   0.00000,274640135.82653,   0.00000,   0.00000,   0.00000,-324863485.48488,   0.00000
108324681.63472,82864320.19801,-66569098.15087,   0.00033,   0.00017,  -0.00087,151389615.21411,   0.00000,274640135.82653,   0.00000,   0.00000,   0.00000,-323250520.61242,   0.00000
109015832.97767,83649987.96392,-67431560.51045,   0.00033,   0.00017,  -0.00088,152982499.87611,   0.00000,274640135.82653,   0.00000,   0.00000,   0.00000,-321657635.95042,   0.00000
109706984.32061,84435655.72984,-68299930.14646,   0.00033,   0.00017,  -0.00089,154584807.08669,   0.00000,274640135.82653,   0.00000,   0.00000,   0.00000,-320055328.73984,   0.00000
110398135.66356,85221323.49575,-69168299.78246,   0.00034,   0.00017,  -0.00090,156188694.17482,   0.00000,274640135.82653,   0.00000,   0.00000,   0.00000,-318451441.65171,   0.00000
111068611.53898,85998130.34701,-70036669.41847,   0.00034,   0.00017,  -0.00091,157783481.86513,   0.00000,274640135.82653,   0.00000,   0.00000,   0.00000,-316856653.96140,   0.00000
111739087.41440,86774937.19827,-70905039.05448,   0.00034,   0.00018,  -0.00092,159379844.33090,   0.00000,274640135.82653,   0.00000,   0.00000,   0.00000,-315260291.49563,   0.00000
112397748.73695,87563558.60240,-71779315.96693,   0.00034,   0.00018,  -0.00093,160982901.14165,   0.00000,274640135.82653,   0.00000,   0.00000,   0.00000,-313657234.68488,   0.00000
113047549.14485,88331504.53900,-72653592.87937,   0.00034,   0.00018,  -0.00094,162579754.69354,   0.00000,274640135.82653,   0.00000,   0.00000,   0.00000,-312060381.13299,   0.00000
113685534.99987,89111265.02848,-73527869.79181,   0.00034,   0.00018,  -0.00096,164175514.28965,   0.00000,274640135.82653,   0.00000,   0.00000,   0.00000,-310464621.53688,   0.00000
114323520.85490,89891025.51796,-74402146.70426,   0.00034,   0.00019,  -0.00097,165772867.68789,   0.00000,274640135.82653,   0.00000,   0.00000,   0.00000,-308867268.13864,   0.00000
114940831.24240,90661925.09278,-75282330.89314,   0.00035,   0.00019,  -0.00098,167369382.95320,   0.00000,274640135.82653,   0.00000,   0.00000,   0.00000,-307270752.87333,   0.00000
115567002.54456,91453500.13513,-76162515.08202,   0.00035,   0.00019,  -0.00099,168975305.86488,   0.00000,274640135.82653,   0.00000,   0.00000,   0.00000,-305664829.96165,   0.00000
116163637.46454,92215538.79530,-77042699.27089,   0.00035,   0.00019,  -0.00100,170564757.14497,   0.00000,274640135.82653,   0.00000,   0.00000,   0.00000,-304075378.68156,   0.00000
116769133.29917,92998252.92299,-77922883.45977,   0.00035,   0.00020,  -0.00101,172163606.62483,   0.00000,274640135.82653,   0.00000,   0.00000,   0.00000,-302476529.20170,   0.00000
117374629.13380,93780967.05069,-78808974.92509,   0.00035,   0.00020,  -0.00102,173772065.37331,   0.00000,274640135.82653,   0.00000,   0.00000,   0.00000,-300868070.45322,   0.00000
117959449.50091,94554820.26373,-79695066.39040,   0.00035,   0.00020,  -0.00104,175371953.39224,   0.00000,274640135.82653,   0.00000,   0.00000,   0.00000,-299268182.43429,   0.00000
118544269.86802,95328673.47677,-80581157.85572,   0.00035,   0.00020,  -0.00105,176973446.91986,   0.00000,274640135.82653,   0.00000,   0.00000,   0.00000,-297666688.90667,   0.00000
119108414.76760,96093665.77516,-81467249.32103,   0.00035,   0.00020,  -0.00106,178566461.03532,   0.00000,274640135.82653,   0.00000,   0.00000,   0.00000,-296073674.79121,   0.00000
119681420.58184,96879333.54107,-82353340.78635,   0.00036,   0.00021,  -0.00107,180168836.51911,   0.00000,274640135.82653,   0.00000,   0.00000,   0.00000,-294471299.30742,   0.00000
120233750.92855,97656140.39233,-83245339.52810,   0.00036,   0.00021,  -0.00108,181770933.36820,   0.00000,274640135.82653,   0.00000,   0.00000,   0.00000,-292869202.45833,   0.00000
120777220.36061,98412271.77607,-84137338.26985,   0.00036,   0.00021,  -0.00109,183366918.04434,   0.00000,274640135.82653,   0.00000,   0.00000,   0.00000,-291273217.78219,   0.00000
121317736.15445,99200893.18020,-85023429.73516,   0.00036,   0.00021,  -0.00111,184961978.09296,   0.00000,274640135.82653,   0.00000,   0.00000,   0.00000,-289678157.73357,   0.00000
121849391.03364,99968839.11680,-85915428.47691,   0.00036,   0.00022,  -0.00112,186559061.08260,   0.00000,274640135.82653,   0.00000,   0.00000,   0.00000,-288081074.74393,   0.00000
122381045.91283,100736785.05341,-86813334.49510,   0.00036,   0.00022,  -0.00113,188165916.90143,   0.00000,274640135.82653,   0.00000,   0.00000,   0.00000,-286474218.92510,   0.00000
122921561.70667,101525406.45754,-87705333.23685,   0.00036,   0.00022,  -0.00114,189773900.75737,   0.00000,274640135.82653,   0.00000,   0.00000,   0.00000,-284866235.06915,   0.00000
123411865.65081,102275630.56484,-88603239.25503,   0.00036,   0.00022,  -0.00115,191364492.08692,   0.00000,274640135.82653,   0.00000,   0.00000,   0.00000,-283275643.73961,   0.00000
123931705.97713,103055391.05432,-89495237.99678,   0.00036,   0.00023,  -0.00116,192965913.62352,   0.00000,274640135.82653,   0.00000,   0.00000,   0.00000,-281674222.20301,   0.00000
124430870.83592,103826290.62914,-90393144.01497,   0.00036,   0.00023,  -0.00118,194567484.27956,   0.00000,274640135.82653,   0.00000,   0.00000,   0.00000,-280072651.54697,   0.00000
124938896.60937,104617865.67149,-91291050.03315,   0.00036,   0.00023,  -0.00119,196178368.96424,   0.00000,274640135.82653,   0.00000,   0.00000,   0.00000,-278461766.86229,   0.00000
125417386.00064,105379904.33166,-92188956.05134,   0.00037,   0.00023,  -0.00120,197773566.64483,   0.00000,274640135.82653,   0.00000,   0.00000,   0.00000,-276866569.18170,   0.00000
125904736.30656,106162618.45935,-93086862.06953,   0.00037,   0.00024,  -0.00121,199378081.46756,   0.00000,274640135.82653,   0.00000,   0.00000,   0.00000,-275262054.35897,   0.00000
126383225.69783,106924657.11952,-93984768.08771,   0.00037,   0.00024,  -0.00122,200976438.57433,   0.00000,274640135.82653,   0.00000,   0.00000,   0.00000,-273663697.25220,   0.00000
126849900.53623,107698510.33256,-94888581.38233,   0.00037,   0.00024,  -0.00123,202582945.23620,   0.00000,274640135.82653,   0.00000,   0.00000,   0.00000,-272057190.59033,   0.00000
127316575.37463,108472363.54561,-95786487.40052,   0.00037,   0.00025,  -0.00125,204182731.08778,   0.00000,274640135.82653,   0.00000,   0.00000,   0.00000,-270457404.73875,   0.00000
127792111.12768,109266892.22617,-96690300.69514,   0.00037,   0.00025,  -0.00126,205800080.93983,   0.00000,274640135.82653,   0.00000,   0.00000,   0.00000,-268840054.88670,   0.00000
128238110.49856,110031884.52456,-97588206.71332,   0.00037,   0.00025,  -0.00127,207393639.96711,   0.00000,274640135.82653,   0.00000,   0.00000,   0.00000,-267246495.85941,   0.00000
128692970.78409,110817552.29047,-98492020.00795,   0.00037,   0.00025,  -0.00128,209004795.68981,   0.00000,274640135.82653,   0.00000,   0.00000,   0.00000,-265635340.13672,   0.00000
129147831.06962,111603220.05638,-99395833.30257,   0.00037,   0.00026,  -0.00129,210617478.42952,   0.00000,274640135.82653,   0.00000,   0.00000,   0.00000,-264022657.39701,   0.00000
129582015.88762,112380026.90764,-100293739.32075,   0.00037,   0.00026,  -0.00130,212214140.19306,   0.00000,274640135.82653,   0.00000,   0.00000,   0.00000,-262425995.63347,   0.00000
130016200.70562,113156833.75890,-101197552.61537,   0.00037,   0.00026,  -0.00132,213820704.86526,   0.00000,274640135.82653,   0.00000,   0.00000,   0.00000,-260819430.96127,   0.00000
130450385.52363,113933640.61016,-102101365.90999,   0.00037,   0.00026,  -0.00133,215428774.69433,   0.00000,274640135.82653,   0.00000,   0.00000,   0.00000,-259211361.13220,   0.00000
130872755.78876,114722262.01429,-103005179.20461,   0.00037,   0.00027,  -0.00134,217036996.51952,   0.00000,274640135.82653,   0.00000,   0.00000,   0.00000,-257603139.30701,   0.00000
131286265.13924,115490207.95090,-103908992.49924,   0.00037,   0.00027,  -0.00135,218639039.63232,   0.00000,274640135.82653,   0.00000,   0.00000,   0.00000,-256001096.19421,   0.00000
131708635.40438,116278829.35503,-104812805.79386,   0.00037,   0.00027,  -0.00136,220250261.36337,   0.00000,274640135.82653,   0.00000,   0.00000,   0.00000,-254389874.46316,   0.00000
132110330.20198,117058589.84451,-105716619.08848,   0.00037,   0.00028,  -0.00137,221854038.72731,   0.00000,274640135.82653,   0.00000,   0.00000,   0.00000,-252786097.09922,   0.00000
132520885.91425,117859025.80151,-106620432.38310,   0.00037,   0.00028,  -0.00139,223467005.30246,   0.00000,274640135.82653,   0.00000,   0.00000,   0.00000,-251173130.52407,   0.00000
132922580.71186,118638786.29098,-107524245.67772,   0.00037,   0.00028,  -0.00140,225073744.92611,   0.00000,274640135.82653,   0.00000,   0.00000,   0.00000,-249566390.90042,   0.00000
133312460.95659,119430361.33333,-108428058.97234,   0.00037,   0.00028,  -0.00141,226680832.86807,   0.00000,274640135.82653,   0.00000,   0.00000,   0.00000,-247959302.95846,   0.00000
133714155.75420,120210121.82281,-109331872.26696,   0.00037,   0.00029,  -0.00142,228290448.25674,   0.00000,274640135.82653,   0.00000,   0.00000,   0.00000,-246349687.56979,   0.00000
134104035.99894,121001696.86516,-110235685.56158,   0.00037,   0.00029,  -0.00143,229900426.96092,   0.00000,274640135.82653,   0.00000,   0.00000,   0.00000,-244739708.86561,   0.00000
134473240.77616,121784410.99285,-111139498.85620,   0.00037,   0.00029,  -0.00144,231503165.07883,   0.00000,274640135.82653,   0.00000,   0.00000,   0.00000,-243136970.74770,   0.00000
134871981.93555,122596661.50272,-112043312.15082,   0.00037,   0.00029,  -0.00146,233123678.76401,   0.00000,274640135.82653,   0.00000,   0.00000,   0.00000,-241516457.06252,   0.00000
135241186.71276,123379375.63042,-112947125.44545,   0.00037,   0.00030,  -0.00147,234729280.61377,   0.00000,274640135.82653,   0.00000,   0.00000,   0.00000,-239910855.21276,   0.00000
135619252.40463,124182765.22564,-113850938.74007,   0.00037,   0.00030,  -0.00148,236343977.66057,   0.00000,274640135.82653,   0.00000,   0.00000,   0.00000,-238296158.16596,   0.00000
135967781.71432,124956618.43868,-114748844.75825,   0.00037,   0.00030,  -0.00149,237935310.65475,   0.00000,274640135.82653,   0.00000,   0.00000,   0.00000,-236704825.17178,   0.00000
136345847.40619,125760008.03390,-115652658.05287,   0.00038,   0.00031,  -0.00150,239552764.13452,   0.00000,274640135.82653,   0.00000,   0.00000,   0.00000,-235087371.69201,   0.00000
136703237.63053,126554536.71446,-116556471.34749,   0.00038,   0.00031,  -0.00152,241163106.78651,   0.00000,274640135.82653,   0.00000,   0.00000,   0.00000,-233477029.04002,   0.00000
137069488.76953,127369740.86255,-117454377.36568,   0.00038,   0.00031,  -0.00153,242773933.24094,   0.00000,274640135.82653,   0.00000,   0.00000,   0.00000,-231866202.58559,   0.00000
137426878.99387,128164269.54312,-118358190.66030,   0.00038,   0.00032,  -0.00154,244386978.75463,   0.00000,274640135.82653,   0.00000,   0.00000,   0.00000,-230253157.07190,   0.00000
137772454.66535,128970612.77655,-119256096.67849,   0.00038,   0.00032,  -0.00155,245992113.91327,   0.00000,274640135.82653,   0.00000,   0.00000,   0.00000,-228648021.91326,   0.00000
138138705.80434,129785816.92464,-120159909.97311,   0.00038,   0.00032,  -0.00156,247615483.01470,   0.00000,274640135.82653,   0.00000,   0.00000,   0.00000,-227024652.81183,   0.00000
138484281.47581,130592160.15808,-121057815.99129,   0.00038,   0.00032,  -0.00157,249223256.30347,   0.00000,274640135.82653,   0.00000,   0.00000,   0.00000,-225416879.52306,   0.00000
138829857.14729,131398503.39152,-121955722.00948,   0.00038,   0.00033,  -0.00159,250832324.20566,   0.00000,274640135.82653,   0.00000,   0.00000,   0.00000,-223807811.62087,   0.00000
139154757.35124,132195985.71030,-122853628.02766,   0.00038,   0.00033,  -0.00160,252434479.76803,   0.00000,274640135.82653,   0.00000,   0.00000,   0.00000,-222205656.05850,   0.00000
139500333.02271,133002328.94373,-123751534.04585,   0.00038,   0.00033,  -0.00161,254046097.73338,   0.00000,274640135.82653,   0.00000,   0.00000,   0.00000,-220594038.09315,   0.00000
139834094.14131,133820486.73004,-124649440.06403,   0.00038,   0.00034,  -0.00162,255658519.78445,   0.00000,274640135.82653,   0.00000,   0.00000,   0.00000,-218981616.04208,   0.00000
140167855.25991,134638644.51635,-125547346.08222,   0.00038,   0.00034,  -0.00163,257272210.96199,   0.00000,274640135.82653,   0.00000,   0.00000,   0.00000,-217367924.86454,   0.00000
140501616.37851,135456802.30266,-126439344.82397,   0.00038,   0.00034,  -0.00164,258878491.92351,   0.00000,274640135.82653,   0.00000,   0.00000,   0.00000,-215761643.90302,   0.00000
140835377.49712,136274960.08896,-127337250.84216,   0.00038,   0.00035,  -0.00166,260494643.34336,   0.00000,274640135.82653,   0.00000,   0.00000,   0.00000,-214145492.48317,   0.00000
141169138.61572,137093117.87527,-128229249.58391,   0.00037,   0.00035,  -0.00167,262103324.38225,   0.00000,274640135.82653,   0.00000,   0.00000,   0.00000,-212536811.44428,   0.00000
141482224.26680,137902414.74692,-129121248.32566,   0.00037,   0.00035,  -0.00168,263705225.04092,   0.00000,274640135.82653,   0.00000,   0.00000,   0.00000,-210934910.78561,   0.00000
141824846.30005,138741248.00076,-130013247.06741,   0.00037,   0.00035,  -0.00169,265323949.14649,   0.00000,274640135.82653,   0.00000,   0.00000,   0.00000,-209316186.68004,   0.00000
142146792.86578,139571220.33993,-130905245.80916,   0.00037,   0.00036,  -0.00170,266935919.39375,   0.00000,274640135.82653,   0.00000,   0.00000,   0.00000,-207704216.43278,   0.00000
142468739.43151,140401192.67911,-131791337.27447,   0.00037,   0.00036,  -0.00171,268540360.89018,   0.00000,274640135.82653,   0.00000,   0.00000,   0.00000,-206099774.93635,   0.00000
142790685.99724,141231165.01829,-132683336.01622,   0.00037,   0.00036,  -0.00172,270154640.92259,   0.00000,274640135.82653,   0.00000,   0.00000,   0.00000,-204485494.90393,   0.00000
143091957.09545,142052276.44282,-133569427.48154,   0.00037,   0.00037,  -0.00174,271753555.73600,   0.00000,274640135.82653,   0.00000,   0.00000,   0.00000,-202886580.09052,   0.00000
143413903.66118,142882248.78199,-134455518.94685,   0.00037,   0.00037,  -0.00175,273361378.84571,   0.00000,274640135.82653,   0.00000,   0.00000,   0.00000,-201278756.98082,   0.00000
143744711.14157,143732896.58870,-135341610.41217,   0.00037,   0.00037,  -0.00176,274977996.15268,   0.00000,274640135.82653,   0.00000,   0.00000,   0.00000,-199662139.67385,   0.00000
144045982.23977,144554008.01322,-136221794.60104,   0.00037,   0.00038,  -0.00177,276571535.29265,   0.00000,274640135.82653,   0.00000,   0.00000,   0.00000,-198068600.53388,   0.00000
144356114.25263,145395794.90527,-137107886.06636,   0.00037,   0.00038,  -0.00178,278182620.20086,   0.00000,274640135.82653,   0.00000,   0.00000,   0.00000,-196457515.62567,   0.00000
144666246.26549,146237581.79732,-137988070.25524,   0.00037,   0.00038,  -0.00179,279786049.89386,   0.00000,274640135.82653,   0.00000,   0.00000,   0.00000,-194854085.93267,   0.00000
144997053.74588,147088229.60402,-138868254.44412,   0.00037,   0.00039,  -0.00181,281398132.94835,   0.00000,274640135.82653,   0.00000,   0.00000,   0.00000,-193242002.87818,   0.00000
145307185.75874,147930016.49607,-139742531.35656,   0.00037,   0.00039,  -0.00182,282994874.22422,   0.00000,274640135.82653,   0.00000,   0.00000,   0.00000,-191645261.60231,   0.00000
145605503.21873,148783617.94099,-140622715.54544,   0.00037,   0.00039,  -0.00183,284601578.27445,   0.00000,274640135.82653,   0.00000,   0.00000,   0.00000,-190038557.55207,   0.00000
145915635.23159,149625404.83304,-141496992.45788,   0.00037,   0.00040,  -0.00184,286200358.15382,   0.00000,274640135.82653,   0.00000,   0.00000,   0.00000,-188439777.67271,   0.00000
146234628.15910,150487867.19261,-142371269.37033,   0.00037,   0.00040,  -0.00185,287807856.68567,   0.00000,274640135.82653,   0.00000,   0.00000,   0.00000,-186832279.14086,   0.00000
146553621.08661,151350329.55218,-143239639.00634,   0.00037,   0.00040,  -0.00186,289407549.67455,   0.00000,274640135.82653,   0.00000,   0.00000,   0.00000,-185232586.15198,   0.00000
146851938.54660,152203930.99710,-144113915.91878,   0.00037,   0.00041,  -0.00187,291009533.22677,   0.00000,274640135.82653,   0.00000,   0.00000,   0.00000,-183630602.59976,   0.00000
147170931.47412,153066393.35668,-144982285.55479,   0.00037,   0.00041,  -0.00188,292611123.39172,   0.00000,274640135.82653,   0.00000,   0.00000,   0.00000,-182029012.43481,   0.00000
147469248.93411,153919994.80160,-145850655.19080,   0.00037,   0.00041,  -0.00190,294206252.50041,   0.00000,274640135.82653,   0.00000,   0.00000,   0.00000,-180433883.32612,   0.00000
147788241.86162,154782457.16117,-146713117.55037,   0.00037,   0.00042,  -0.00191,295800883.78261,   0.00000,274640135.82653,   0.00000,   0.00000,   0.00000,-178839252.04392,   0.00000
148095420.23626,155656734.07361,-147575579.90994,   0.00037,   0.00042,  -0.00192,297396836.34741,   0.00000,274640135.82653,   0.00000,   0.00000,   0.00000,-177243299.47911,   0.00000
148393737.69625,156510335.51853,-148438042.26952,   0.00037,   0.00042,  -0.00193,298985936.14804,   0.00000,274640135.82653,   0.00000,   0.00000,   0.00000,-175654199.67849,   0.00000
148721591.53842,157393473.34563,-149300504.62909,   0.00037,   0.00043,  -0.00194,300590970.31565,   0.00000,274640135.82653,   0.00000,   0.00000,   0.00000,-174049165.51088,   0.00000
149028769.91306,158267750.25807,-150157059.71223,   0.00037,   0.00043,  -0.00195,302180797.93387,   0.00000,274640135.82653,   0.00000,   0.00000,   0.00000,-172459337.89266,   0.00000
149335948.28770,159142027.17052,-151013614.79536,   0.00037,   0.00043,  -0.00196,303771493.53368,   0.00000,274640135.82653,   0.00000,   0.00000,   0.00000,-170868642.29285,   0.00000
149663802.12987,160025164.99761,-151864262.60207,   0.00037,   0.00044,  -0.00197,305361417.40156,   0.00000,274640135.82653,   0.00000,   0.00000,   0.00000,-169278718.42497,   0.00000
149970980.50451,160899441.91006,-152720817.68520,   0.00037,   0.00044,  -0.00199,306953779.57908,   0.00000,274640135.82653,   0.00000,   0.00000,   0.00000,-167686356.24745,   0.00000
150278158.87915,161773718.82250,-153571465.49191,   0.00037,   0.00044,  -0.00200,308538149.27507,   0.00000,274640135.82653,   0.00000,   0.00000,   0.00000,-166101986.55146,   0.00000
150594198.16845,162668671.20247,-154416206.02217,   0.00037,   0.00045,  -0.00201,310122306.60299,   0.00000,274640135.82653,   0.00000,   0.00000,   0.00000,-164517829.22354,   0.00000
150922052.01062,163551809.02957,-155260946.55244,   0.00037,   0.00045,  -0.00202,311706544.62848,   0.00000,274640135.82653,   0.00000,   0.00000,   0.00000,-162933591.19805,   0.00000
151238091.29991,164446761.40954,-156105687.08271,   0.00037,   0.00045,  -0.00203,313292259.56092,   0.00000,274640135.82653,   0.00000,   0.00000,   0.00000,-161347876.26561,   0.00000
151554130.58921,165341713.78950,-156950427.61297,   0.00037,   0.00046,  -0.00204,314878750.18440,   0.00000,274640135.82653,   0.00000,   0.00000,   0.00000,-159761385.64213,   0.00000
151870169.87850,166236666.16947,-157789260.86680,   0.00037,   0.00046,  -0.00205,316457168.47869,   0.00000,274640135.82653,   0.00000,   0.00000,   0.00000,-158182967.34784,   0.00000
152206884.63532,167140479.46409,-158622186.84420,   0.00037,   0.00046,  -0.00206,318034492.48140,   0.00000,274640135.82653,   0.00000,   0.00000,   0.00000,-156605643.34513,   0.00000
152522923.92462,168035431.84406,-159461020.09803,   0.00037,   0.00047,  -0.00207,319614367.76506,   0.00000,274640135.82653,   0.00000,   0.00000,   0.00000,-155025768.06147,   0.00000
152838963.21391,168930384.22403,-160293946.07543,   0.00037,   0.00047,  -0.00208,321186123.69707,   0.00000,274640135.82653,   0.00000,   0.00000,   0.00000,-153454012.12946,   0.00000
153184538.88539,169854872.98617,-161120964.77639,   0.00037,   0.00047,  -0.00209,322764521.44911,   0.00000,274640135.82653,   0.00000,   0.00000,   0.00000,-151875614.37741,   0.00000
153500578.17468,170749825.36614,-161947983.47735,   0.00037,   0.00048,  -0.00211,324328816.94777,   0.00000,274640135.82653,   0.00000,   0.00000,   0.00000,-150311318.87876,   0.00000
153837292.93150,171653638.66076,-162775002.17831,   0.00037,   0.00048,  -0.00212,325900686.20824,   0.00000,274640135.82653,   0.00000,   0.00000,   0.00000,-148739449.61829,   0.00000
154162193.13545,172569266.50825,-163596113.60283,   0.00036,   0.00048,  -0.00213,327465329.61627,   0.00000,274640135.82653,   0.00000,   0.00000,   0.00000,-147174806.21026,   0.00000
154507768.80692,173493755.27040,-164417225.02736,   0.00036,   0.00049,  -0.00214,329037493.86331,   0.00000,274640135.82653,   0.00000,   0.00000,   0.00000,-145602641.96322,   0.00000
154832669.01087,174409383.11789,-165232429.17545,   0.00036,   0.00049,  -0.00215,330594593.08580,   0.00000,274640135.82653,   0.00000,   0.00000,   0.00000,-144045542.74073,   0.00000
155169383.76769,175313196.41251,-166047633.32354,   0.00036,   0.00050,  -0.00216,332151265.89942,   0.00000,274640135.82653,   0.00000,   0.00000,   0.00000,-142488869.92711,   0.00000
155514959.43916,176237685.17466,-166862837.47163,   0.00036,   0.00050,  -0.00217,333716417.65239,   0.00000,274640135.82653,   0.00000,   0.00000,   0.00000,-140923718.17414,   0.00000
155869396.02529,177182849.40433,-167672134.34328,   0.00036,   0.00050,  -0.00218,335281196.79357,   0.00000,274640135.82653,   0.00000,   0.00000,   0.00000,-139358939.03296,   0.00000
156214971.69676,178107338.16647,-168475523.93850,   0.00036,   0.00051,  -0.00219,336829801.23404,   0.00000,274640135.82653,   0.00000,   0.00000,   0.00000,-137810334.59249,   0.00000
156560547.36823,179031826.92862,-169284820.81015,   0.00036,   0.00051,  -0.00220,338387840.93926,   0.00000,274640135.82653,   0.00000,   0.00000,   0.00000,-136252294.88727,   0.00000
156906123.03971,179956315.69076,-170082303.12894,   0.00036,   0.00051,  -0.00221,339928711.21123,   0.00000,274640135.82653,   0.00000,   0.00000,   0.00000,-134711424.61530,   0.00000
157281235.09336,180910340.83508,-170879785.44772,   0.00036,   0.00052,  -0.00222,341484757.65374,   0.00000,274640135.82653,   0.00000,   0.00000,   0.00000,-133155378.17279,   0.00000
157626810.76483,181834829.59723,-171677267.76650,   0.00036,   0.00052,  -0.00223,343026712.15881,   0.00000,274640135.82653,   0.00000,   0.00000,   0.00000,-131613423.66772,   0.00000
157981247.35096,182779993.82690,-172468842.80885,   0.00036,   0.00052,  -0.00224,344568272.56993,   0.00000,274640135.82653,   0.00000,   0.00000,   0.00000,-130071863.25660,   0.00000
158347498.48995,183713343.50369,-173260417.85120,   0.00036,   0.00053,  -0.00225,346109074.79899,   0.00000,274640135.82653,   0.00000,   0.00000,   0.00000,-128531061.02754,   0.00000
158722610.54360,184667368.64802,-174046085.61711,   0.00036,   0.00053,  -0.00226,347649445.65330,   0.00000,274640135.82653,   0.00000,   0.00000,   0.00000,-126990690.17323,   0.00000
159097722.59725,185621393.79234,-174831753.38302,   0.00036,   0.00053,  -0.00227,349190309.32187,   0.00000,274640135.82653,   0.00000,   0.00000,   0.00000,-125449826.50466,   0.00000
159463973.73625,186554743.46914,-175611513.87250,   0.00036,   0.00054,  -0.00228,350714815.67141,   0.00000,274640135.82653,   0.00000,   0.00000,   0.00000,-123925320.15512,   0.00000
159839085.78990,187508768.61346,-176385367.08554,   0.00036,   0.00054,  -0.00229,352238888.63387,   0.00000,274640135.82653,   0.00000,   0.00000,   0.00000,-122401247.19266,   0.00000
160214197.84355,188462793.75778,-177159220.29858,   0.00036,   0.00055,  -0.00230,353763432.97010,   0.00000,274640135.82653,   0.00000,   0.00000,   0.00000,-120876702.85643,   0.00000
160589309.89720,189416818.90210,-177933073.51162,   0.00036,   0.00055,  -0.00231,355288442.61208,   0.00000,274640135.82653,   0.00000,   0.00000,   0.00000,-119351693.21445,   0.00000
160985097.41837,190379704.96108,-178701019.44823,   0.00036,   0.00055,  -0.00232,356811576.82696,   0.00000,274640135.82653,   0.00000,   0.00000,   0.00000,-117828558.99957,   0.00000
161380884.93955,191342591.02005,-179463058.10840,   0.00036,   0.00056,  -0.00233,358326259.39715,   0.00000,274640135.82653,   0.00000,   0.00000,   0.00000,-116313876.42938,   0.00000
161776672.46072,192305477.07903,-180225096.76857,   0.00036,   0.00056,  -0.00234,359841360.33114,   0.00000,274640135.82653,   0.00000,   0.00000,   0.00000,-114798775.49539,   0.00000
162172459.98189,193268363.13800,-180987135.42874,   0.00036,   0.00056,  -0.00235,361356874.36655,   0.00000,274640135.82653,   0.00000,   0.00000,   0.00000,-113283261.45998,   0.00000
162577108.41772,194251924.66450,-181743266.81248,   0.00036,   0.00057,  -0.00236,362871954.40791,   0.00000,274640135.82653,   0.00000,   0.00000,   0.00000,-111768181.41862,   0.00000
162972895.93890,195214810.72348,-182493490.91978,   0.00036,   0.00057,  -0.00237,364370535.01485,   0.00000,274640135.82653,   0.00000,   0.00000,   0.00000,-110269600.81168,   0.00000
163389358.92759,196186557.69711,-183237807.75064,   0.00036,   0.00057,  -0.00238,365867099.78796,   0.00000,274640135.82653,   0.00000,   0.00000,   0.00000,-108773036.03857,   0.00000
163785146.44877,197149443.75608,-183982124.58151,   0.00036,   0.00058,  -0.00239,367357582.40340,   0.00000,274640135.82653,   0.00000,   0.00000,   0.00000,-107282553.42313,   0.00000
164210470.35212,198141866.19724,-184726441.41237,   0.00036,   0.00058,  -0.00240,368862959.83648,   0.00000,274640135.82653,   0.00000,   0.00000,   0.00000,-105777175.99005,   0.00000
164647608.80834,199122474.08552,-185464850.96680,   0.00036,   0.00058,  -0.00241,370358189.30661,   0.00000,274640135.82653,   0.00000,   0.00000,   0.00000,-104281946.51992,   0.00000
165064071.79704,200094221.05915,-186197353.24479,   0.00036,   0.00059,  -0.00242,371838461.28998,   0.00000,274640135.82653,   0.00000,   0.00000,   0.00000,-102801674.53654,   0.00000
165489395.70039,201086643.50030,-186929855.52279,   0.00036,   0.00059,  -0.00243,373327180.66667,   0.00000,274640135.82653,   0.00000,   0.00000,   0.00000,-101312955.15986,   0.00000
165926534.15661,202067251.38858,-187656450.52434,   0.00036,   0.00060,  -0.00244,374805683.52373,   0.00000,274640135.82653,   0.00000,   0.00000,   0.00000,-99834452.30280,   0.00000
166372533.52749,203068534.74438,-188377138.24947,   0.00036,   0.00060,  -0.00245,376283751.64977,   0.00000,274640135.82653,   0.00000,   0.00000,   0.00000,-98356384.17676,   0.00000
166809671.98371,204049142.63267,-189097825.97459,   0.00036,   0.00060,  -0.00246,377754036.49766,   0.00000,274640135.82653,   0.00000,   0.00000,   0.00000,-96886099.32887,   0.00000
167255671.35458,205050425.98847,-189812606.42328,   0.00036,   0.00061,  -0.00247,379223900.63085,   0.00000,274640135.82653,   0.00000,   0.00000,   0.00000,-95416235.19568,   0.00000
167713485.27833,206039894.79141,-190527386.87196,   0.00036,   0.00061,  -0.00248,380692314.04480,   0.00000,274640135.82653,   0.00000,   0.00000,   0.00000,-93947821.78172,   0.00000
168180160.11673,207050039.06187,-191236260.04422,   0.00036,   0.00061,  -0.00249,382160303.63959,   0.00000,274640135.82653,   0.00000,   0.00000,   0.00000,-92479832.18694,   0.00000
168637974.04047,208039507.86480,-191939225.94003,   0.00036,   0.00062,  -0.00250,383611576.15195,   0.00000,274640135.82653,   0.00000,   0.00000,   0.00000,-91028559.67458,   0.00000
169104648.87887,209049652.13526,-192636284.55941,   0.00036,   0.00062,  -0.00250,385062443.88969,   0.00000,274640135.82653,   0.00000,   0.00000,   0.00000,-89577691.93684,   0.00000
169583138.27014,210047981.85285,-193333343.17879,   0.00036,   0.00063,  -0.00251,386511764.72412,   0.00000,274640135.82653,   0.00000,   0.00000,   0.00000,-88128371.10241,   0.00000
170049813.10854,211058126.12331,-194030401.79817,   0.00036,   0.00063,  -0.00252,387963229.06238,   0.00000,274640135.82653,   0.00000,   0.00000,   0.00000,-86676906.76415,   0.00000
170528302.49981,212056455.84089,-194715645.86468,   0.00036,   0.00063,  -0.00253,389395381.58804,   0.00000,274640135.82653,   0.00000,   0.00000,   0.00000,-85244754.23849,   0.00000
171006791.89108,213054785.55848,-195400889.93119,   0.00036,   0.00064,  -0.00254,390827804.16004,   0.00000,274640135.82653,   0.00000,   0.00000,   0.00000,-83812331.66649,   0.00000
171514817.66453,214082651.65825,-196086133.99770,   0.00036,   0.00064,  -0.00255,392275009.77467,   0.00000,274640135.82653,   0.00000,   0.00000,   0.00000,-82365126.05186,   0.00000
172013982.52332,215089842.29049,-196759563.51134,   0.00036,   0.00064,  -0.00256,393696542.48787,   0.00000,274640135.82653,   0.00000,   0.00000,   0.00000,-80943593.33866,   0.00000
172522008.29677,216117708.39025,-197432993.02498,   0.00036,   0.00065,  -0.00257,395126570.03931,   0.00000,274640135.82653,   0.00000,   0.00000,   0.00000,-79513565.78722,   0.00000
173021173.15556,217124899.02249,-198100515.26219,   0.00036,   0.00065,  -0.00258,396539765.75740,   0.00000,274640135.82653,   0.00000,   0.00000,   0.00000,-78100370.06913,   0.00000
173520338.01436,218132089.65473,-198768037.49939,   0.00036,   0.00065,  -0.00258,397953213.96763,   0.00000,274640135.82653,   0.00000,   0.00000,   0.00000,-76686921.85890,   0.00000
174049039.25533,219168816.66915,-199429652.46016,   0.00036,   0.00066,  -0.00259,399372601.87825,   0.00000,274640135.82653,   0.00000,   0.00000,   0.00000,-75267533.94828,   0.00000
174568879.58165,220184868.21605,-200085360.14449,   0.00036,   0.00066,  -0.00260,400775121.72895,   0.00000,274640135.82653,   0.00000,   0.00000,   0.00000,-73865014.09758,   0.00000
175109395.37549,221209780.67759,-200735160.55239,   0.00037,   0.00067,  -0.00261,402175298.24267,   0.00000,274640135.82653,   0.00000,   0.00000,   0.00000,-72464837.58386,   0.00000
175629235.70181,222225832.22449,-201384960.96029,   0.00037,   0.00067,  -0.00262,403569452.97831,   0.00000,274640135.82653,   0.00000,   0.00000,   0.00000,-71070682.84822,   0.00000
176178612.41030,223271420.15356,-202028854.09175,   0.00037,   0.00067,  -0.00263,404969573.16760,   0.00000,274640135.82653,   0.00000,   0.00000,   0.00000,-69670562.65893,   0.00000
176719128.20414,224296332.61511,-202666839.94678,   0.00037,   0.00068,  -0.00263,406352786.11168,   0.00000,274640135.82653,   0.00000,   0.00000,   0.00000,-68287349.71485,   0.00000
177280319.46551,225330105.99131,-203298918.52537,   0.00037,   0.00068,  -0.00264,407733645.87836,   0.00000,274640135.82653,   0.00000,   0.00000,   0.00000,-66906489.94817,   0.00000
177841510.72688,226363879.36751,-203930997.10396,   0.00037,   0.00068,  -0.00265,409114738.52534,   0.00000,274640135.82653,   0.00000,   0.00000,   0.00000,-65525397.30119,   0.00000
178402701.98824,227397652.74371,-204557168.40611,   0.00037,   0.00069,  -0.00266,410487230.39063,   0.00000,274640135.82653,   0.00000,   0.00000,   0.00000,-64152905.43590,   0.00000
178963893.24961,228431426.11991,-205183339.70827,   0.00037,   0.00069,  -0.00267,411859955.38383,   0.00000,274640135.82653,   0.00000,   0.00000,   0.00000,-62780180.44270,   0.00000
179536899.06384,229453384.94324,-205797696.45755,   0.00037,   0.00069,  -0.00268,413213117.38214,   0.00000,274640135.82653,   0.00000,   0.00000,   0.00000,-61427018.44439,   0.00000
180118765.79273,230496019.23409,-206412053.20684,   0.00037,   0.00070,  -0.00268,414574882.61600,   0.00000,274640135.82653,   0.00000,   0.00000,   0.00000,-60065253.21053,   0.00000
180700632.52162,231538653.52495,-207020502.67969,   0.00037,   0.00070,  -0.00269,415928060.02234,   0.00000,274640135.82653,   0.00000,   0.00000,   0.00000,-58712075.80419,   0.00000
181294313.80339,232569473.26293,-207623044.87610,   0.00037,   0.00070,  -0.00270,417270477.43076,   0.00000,274640135.82653,   0.00000,   0.00000,   0.00000,-57369658.39577,   0.00000
181896855.99980,233620968.46844,-208219679.79608,   0.00037,   0.00071,  -0.00271,418612719.14964,   0.00000,274640135.82653,   0.00000,   0.00000,   0.00000,-56027416.67689,   0.00000
182490537.28156,234651788.20642,-208816314.71606,   0.00037,   0.00071,  -0.00271,419946766.71776,   0.00000,274640135.82653,   0.00000,   0.00000,   0.00000,-54693369.10877,   0.00000
183113754.94550,235712144.32658,-209407042.35960,   0.00037,   0.00072,  -0.00272,421286902.91625,   0.00000,274640135.82653,   0.00000,   0.00000,   0.00000,-53353232.91028,   0.00000
183707436.22726,236742964.06456,-209991862.72671,   0.00037,   0.00072,  -0.00273,422603783.01717,   0.00000,274640135.82653,   0.00000,   0.00000,   0.00000,-52036352.80936,   0.00000
184342468.44407,237791505.63185,-210570775.81738,   0.00038,   0.00072,  -0.00274,423924554.11843,   0.00000,274640135.82653,   0.00000,   0.00000,   0.00000,-50715581.70810,   0.00000
184956825.19335,238831186.28449,-211149688.90805,   0.00038,   0.00073,  -0.00274,425239318.65859,   0.00000,274640135.82653,   0.00000,   0.00000,   0.00000,-49400817.16794,   0.00000
185591857.41016,239879727.85177,-211722694.72229,   0.00038,   0.00073,  -0.00275,426551750.09083,   0.00000,274640135.82653,   0.00000,   0.00000,   0.00000,-48088385.73570,   0.00000
186247565.09449,240937130.33372,-212289793.26009,   0.00038,   0.00073,  -0.00276,427861860.15910,   0.00000,274640135.82653,   0.00000,   0.00000,   0.00000,-46778275.66743,   0.00000
186882597.31130,241985671.90101,-212850984.52146,   0.00038,   0.00074,  -0.00277,429157179.29621,   0.00000,274640135.82653,   0.00000,   0.00000,   0.00000,-45482956.53032,   0.00000
187538304.99564,243043074.38295,-213406268.50639,   0.00038,   0.00074,  -0.00277,430450196.82759,   0.00000,274640135.82653,   0.00000,   0.00000,   0.00000,-44189938.99894,   0.00000
188185151.76532,244079801.39737,-213961552.49132,   0.00038,   0.00074,  -0.00278,431734923.48869,   0.00000,274640135.82653,   0.00000,   0.00000,   0.00000,-42905212.33784,   0.00000
188861534.91717,245146064.79396,-214505021.92338,   0.00038,   0.00075,  -0.00279,433017117.06397,   0.00000,274640135.82653,   0.00000,   0.00000,   0.00000,-41623018.76256,   0.00000
189529057.15438,246191652.72303,-215048491.35544,   0.00038,   0.00075,  -0.00280,434291011.25766,   0.00000,274640135.82653,   0.00000,   0.00000,   0.00000,-40349124.56887,   0.00000
190205440.30623,247257916.11963,-215586053.51106,   0.00038,   0.00075,  -0.00280,435564949.46977,   0.00000,274640135.82653,   0.00000,   0.00000,   0.00000,-39075186.35676,   0.00000
190893638.01096,248312364.96335,-216117708.39025,   0.00038,   0.00076,  -0.00281,436828058.34259,   0.00000,274640135.82653,   0.00000,   0.00000,   0.00000,-37812077.48394,   0.00000
191581835.71569,249366813.80708,-216649363.26944,   0.00039,   0.00076,  -0.00282,438091423.63657,   0.00000,274640135.82653,   0.00000,   0.00000,   0.00000,-36548712.18996,   0.00000
192290708.88794,250430123.56545,-217169203.59576,   0.00039,   0.00076,  -0.00282,439343790.78074,   0.00000,274640135.82653,   0.00000,   0.00000,   0.00000,-35296345.04579,   0.00000
192990721.14554,251472757.85631,-217689043.92208,   0.00039,   0.00077,  -0.00283,440587808.54230,   0.00000,274640135.82653,   0.00000,   0.00000,   0.00000,-34052327.28423,   0.00000
193699594.31779,252536067.61469,-218202976.97196,   0.00039,   0.00077,  -0.00284,441831961.17514,   0.00000,274640135.82653,   0.00000,   0.00000,   0.00000,-32808174.65139,   0.00000
194399606.57539,253578701.90554,-218711002.74541,   0.00039,   0.00077,  -0.00284,443058995.36758,   0.00000,274640135.82653,   0.00000,   0.00000,   0.00000,-31581140.45894,   0.00000
195129155.21517,254650872.57857,-219213121.24242,   0.00039,   0.00078,  -0.00285,444292496.05804,   0.00000,274640135.82653,   0.00000,   0.00000,   0.00000,-30347639.76849,   0.00000
195870518.40781,255711228.69873,-219709332.46299,   0.00039,   0.00078,  -0.00286,445515178.02432,   0.00000,274640135.82653,   0.00000,   0.00000,   0.00000,-29124957.80221,   0.00000
196591206.13293,256762723.90424,-220199636.40714,   0.00039,   0.00078,  -0.00286,446723118.67052,   0.00000,274640135.82653,   0.00000,   0.00000,   0.00000,-27917017.15601,   0.00000
197332569.32558,257823080.02440,-220689940.35128,   0.00040,   0.00079,  -0.00287,447937654.15960,   0.00000,274640135.82653,   0.00000,   0.00000,   0.00000,-26702481.66693,   0.00000
198085747.07110,258871621.59169,-221168429.74255,   0.00040,   0.00079,  -0.00288,449132635.24718,   0.00000,274640135.82653,   0.00000,   0.00000,   0.00000,-25507500.57935,   0.00000
198847785.73127,259940838.62650,-221646919.13382,   0.00040,   0.00079,  -0.00288,450336642.50048,   0.00000,274640135.82653,   0.00000,   0.00000,   0.00000,-24303493.32605,   0.00000
199600963.47679,260989380.19379,-222119501.24865,   0.00040,   0.00080,  -0.00289,451523518.71830,   0.00000,274640135.82653,   0.00000,   0.00000,   0.00000,-23116617.10823,   0.00000
200363002.13696,262058597.22860,-222586176.08705,   0.00040,   0.00080,  -0.00289,452710736.65797,   0.00000,274640135.82653,   0.00000,   0.00000,   0.00000,-21929399.16856,   0.00000
201136855.35000,263115999.71054,-223046943.64901,   0.00040,   0.00080,  -0.00290,453887162.54507,   0.00000,274640135.82653,   0.00000,   0.00000,   0.00000,-20752973.28146,   0.00000
201931384.03056,264182263.10714,-223501803.93454,   0.00040,   0.00081,  -0.00291,455061568.42491,   0.00000,274640135.82653,   0.00000,   0.00000,   0.00000,-19578567.40162,   0.00000
202696376.32895,265218990.12156,-223956664.22007,   0.00041,   0.00081,  -0.00291,456221182.99402,   0.00000,274640135.82653,   0.00000,   0.00000,   0.00000,-18418952.83251,   0.00000
203511580.47704,266294114.43281,-224399709.95273,   0.00041,   0.00081,  -0.00292,457385255.72045,   0.00000,274640135.82653,   0.00000,   0.00000,   0.00000,-17254880.10608,   0.00000
204297248.24295,267339702.36188,-224842755.68538,   0.00041,   0.00082,  -0.00292,458534525.32230,   0.00000,274640135.82653,   0.00000,   0.00000,   0.00000,-16105610.50423,   0.00000
205103591.47639,268394151.20560,-225273986.86517,   0.00041,   0.00082,  -0.00293,459673152.10783,   0.00000,274640135.82653,   0.00000,   0.00000,   0.00000,-14966983.71870,   0.00000
205930610.17735,269457460.96398,-225705218.04496,   0.00041,   0.00082,  -0.00293,460818550.49703,   0.00000,274640135.82653,   0.00000,   0.00000,   0.00000,-13821585.32950,   0.00000
206736953.41079,270511909.80770,-226130541.94831,   0.00041,   0.00083,  -0.00294,461949260.37814,   0.00000,274640135.82653,   0.00000,   0.00000,   0.00000,-12690875.44839,   0.00000
207555111.19709,271554544.09856,-226549958.57522,   0.00041,   0.00083,  -0.00295,463069230.46070,   0.00000,274640135.82653,   0.00000,   0.00000,   0.00000,-11570905.36583,   0.00000
208402805.36558,272626714.77159,-226963467.92570,   0.00042,   0.00083,  -0.00295,464196219.32323,   0.00000,274640135.82653,   0.00000,   0.00000,   0.00000,-10443916.50330,   0.00000
209241638.61941,273678209.97709,-227371069.99975,   0.00042,   0.00084,  -0.00296,465306092.00489,   0.00000,274640135.82653,   0.00000,   0.00000,   0.00000,-9334043.82164,   0.00000
210080471.87324,274729705.18260,-227772764.79736,   0.00042,   0.00084,  -0.00296,466407725.72948,   0.00000,274640135.82653,   0.00000,   0.00000,   0.00000,-8232410.09705,   0.00000
210931119.67994,275769385.83524,-228168552.31853,   0.00042,   0.00084,  -0.00297,467498674.74369,   0.00000,274640135.82653,   0.00000,   0.00000,   0.00000,-7141461.08284,   0.00000
211790628.40130,276829741.95540,-228564339.83971,   0.00042,   0.00085,  -0.00297,468598979.55489,   0.00000,274640135.82653,   0.00000,   0.00000,   0.00000,-6041156.27164,   0.00000
212661951.67553,277878283.52269,-228948312.80801,   0.00043,   0.00085,  -0.00298,469679995.16126,   0.00000,274640135.82653,   0.00000,   0.00000,   0.00000,-4960140.66527,   0.00000
213533274.94975,278926825.08998,-229326378.49988,   0.00043,   0.00085,  -0.00298,470752842.22227,   0.00000,274640135.82653,   0.00000,   0.00000,   0.00000,-3887293.60426,   0.00000
214404598.22398,279975366.65726,-229704444.19174,   0.00043,   0.00086,  -0.00299,471826161.54470,   0.00000,274640135.82653,   0.00000,   0.00000,   0.00000,-2813974.28183,   0.00000
215296596.96573,281032769.13921,-230070695.33074,   0.00043,   0.00086,  -0.00299,472889223.51166,   0.00000,274640135.82653,   0.00000,   0.00000,   0.00000,-1750912.31487,   0.00000
216179734.79282,282069496.15362,-230436946.46974,   0.00043,   0.00086,  -0.00300,473943803.01752,   0.00000,274640135.82653,   0.00000,   0.00000,   0.00000,-696332.80901,   0.00000
216777465.04585,282760988.01497,-230675257.22421,   0.00043,   0.00086,  -0.00300,474640135.66651,   0.00000,274640135.82653,   0.00000,   0.00000,   0.00000,  -0.16001,   0.00000
216946083.88982,282925869.85599,-230616410.60102,   0.00044,   0.00086,  -0.00300,474640135.66651,   0.00000,274641735.81659,   0.00000,   0.00000,  -0.00000,   0.83118,   1.00000
217449539.62463,283420716.49307,-230439644.23786,   0.00044,   0.00087,  -0.00300,475678067.66964,   0.00001,274646383.54076,   0.00000,   0.00000,  -0.00001,   0.00000,   2.00000
217964464.68607,283903715.41896,-230264113.62321,   0.00044,   0.00087,  -0.00301,475680874.11799,   0.00001,274651021.49784,   0.00000,   0.00000,  -0.00002,   0.00000,   2.00000
218486760.41014,284405760.24590,-230082442.07046,   0.00044,   0.00087,  -0.00301,475686592.78986,   0.00001,274655662.75436,   0.00000,   0.00001,  -0.00002,  -0.00000,   2.00000
219005743.46311,284895181.38513,-229903770.76452,   0.00044,   0.00088,  -0.00302,475674240.89045,   0.00002,274660226.34430,   0.00000,   0.00001,  -0.00003,   0.00000,   2.00000
219544824.02640,285393139.74707,-229720169.20584,   0.00045,   0.00088,  -0.00302,475677488.43338,   0.00002,274664782.50154,   0.00000,   0.00001,  -0.00004,  -0.00000,   2.00000
220080608.20315,285878533.13173,-229539552.90010,   0.00045,   0.00088,  -0.00303,475665055.38145,   0.00003,274669261.07080,   0.00000,   0.00001,  -0.00004,   0.00000,   2.00000
220641723.16994,286388202.47110,-229349373.24335,   0.00045,   0.00089,  -0.00303,475677399.28929,   0.00003,274673773.29132,   0.00001,   0.00001,  -0.00005,   0.00000,   2.00000
221199529.11517,286885307.01078,-229162158.74919,   0.00045,   0.00089,  -0.00303,475664957.30981,   0.00003,274678208.10141,   0.00001,   0.00001,  -0.00006,   0.00000,   2.00000
221754079.58662,287369920.99632,-228977907.93333,   0.00046,   0.00089,  -0.00304,475652409.98265,   0.00004,274682565.44758,   0.00001,   0.00002,  -0.00006,   0.00000,   2.00000
222333863.06322,287878733.14485,-228784022.18078,   0.00046,   0.00089,  -0.00304,475664784.48643,   0.00004,274686957.10278,   0.00001,   0.00002,  -0.00007,   0.00000,   2.00000
222910380.18652,288375053.93016,-228593078.63949,   0.00046,   0.00090,  -0.00305,475652231.24599,   0.00005,274691271.48271,   0.00001,   0.00002,  -0.00008,   0.00000,   2.00000
223506831.00799,288879808.90788,-228397063.98152,   0.00046,   0.00090,  -0.00305,475655509.46417,   0.00005,274695579.68959,   0.00001,   0.00002,  -0.00008,   0.00000,   2.00000
224105212.72281,289387770.36226,-228199349.35929,   0.00047,   0.00090,  -0.00305,475652086.51017,   0.00005,274699851.81414,   0.00001,   0.00002,  -0.00009,  -0.00000,   2.00000
224718295.90883,289888470.18206,-228001144.85189,   0.00047,   0.00090,  -0.00306,475646211.28836,   0.00006,274704077.08282,   0.00001,   0.00002,  -0.00009,   0.00000,   2.00000
225329886.53256,290387765.51898,-227802841.98724,   0.00047,   0.00091,  -0.00306,475651252.64116,   0.00006,274708304.46226,   0.00001,   0.00003,  -0.00010,  -0.00000,   2.00000
225946825.48278,290894927.98180,-227601168.94917,   0.00047,   0.00091,  -0.00306,475639297.51444,   0.00007,274712458.08998,   0.00001,   0.00003,  -0.00011,   0.00000,   2.00000
226578467.20629,291394846.39688,-227398956.80409,   0.00048,   0.00091,  -0.00307,475633377.12985,   0.00007,274716565.25400,   0.00001,   0.00003,  -0.00011,   0.00000,   2.00000
227217113.04449,291913561.38150,-227190327.87888,   0.00048,   0.00092,  -0.00307,475639137.49849,   0.00007,274720678.23953,   0.00001,   0.00003,  -0.00012,   0.00000,   2.00000
227861909.71544,292404807.61275,-226987427.45168,   0.00048,   0.00092,  -0.00307,475632439.60207,   0.00008,274724741.51343,   0.00001,   0.00003,  -0.00012,   0.00000,   2.00000
228517116.22952,292919491.43072,-226776413.13658,   0.00048,   0.00092,  -0.00308,475629752.20872,   0.00008,274728773.16000,   0.00001,   0.00003,  -0.00013,   0.00000,   2.00000
229186978.25114,293426905.80245,-226564779.78913,   0.00049,   0.00092,  -0.00308,475623852.36035,   0.00008,274732759.02653,   0.00002,   0.00003,  -0.00014,   0.00000,   2.00000
229858705.95635,293937537.02770,-226351309.02219,   0.00049,   0.00093,  -0.00308,475620334.98470,   0.00009,274736709.94861,   0.00002,   0.00004,  -0.00014,   0.00000,   2.00000
230528831.89660,294446717.45112,-226137674.69871,   0.00049,   0.00093,  -0.00309,475625243.90983,   0.00009,274740663.60275,   0.00002,   0.00004,  -0.00015,   0.00000,   2.00000
231217100.70435,294953316.01753,-225921680.50175,   0.00049,   0.00093,  -0.00309,475610903.47452,   0.00010,274744534.33121,   0.00002,   0.00004,  -0.00015,   0.00000,   2.00000
231907235.30264,295463142.57424,-225703803.98079,   0.00050,   0.00093,  -0.00309,475607340.13017,   0.00010,274748370.47802,   0.00002,   0.00004,  -0.00016,  -0.00000,   2.00000
232616956.15203,295981129.81670,-225480528.81843,   0.00050,   0.00094,  -0.00310,475610798.20031,   0.00010,274752203.39597,   0.00002,   0.00004,  -0.00016,   0.00000,   2.00000
233320075.46807,296482225.22853,-225261732.93399,   0.00050,   0.00094,  -0.00310,475606270.96485,   0.00011,274755997.64605,   0.00002,   0.00004,  -0.00017,   0.00000,   2.00000
234046253.39882,296996147.13834,-225035772.87917,   0.00051,   0.00094,  -0.00310,475601369.54636,   0.00011,274759751.72650,   0.00002,   0.00005,  -0.00018,  -0.00000,   2.00000
234769372.82476,297497905.73758,-224812550.67983,   0.00051,   0.00094,  -0.00310,475588378.22286,   0.00011,274763429.94969,   0.00002,   0.00005,  -0.00018,  -0.00000,   2.00000
235495669.21214,298013554.61407,-224584403.21154,   0.00051,   0.00095,  -0.00311,475602595.83981,   0.00012,274767153.42461,   0.00002,   0.00005,  -0.00019,   0.00000,   2.00000
236240124.40130,298526612.39334,-224353692.29683,   0.00052,   0.00095,  -0.00311,475588345.58069,   0.00012,274770795.62347,   0.00002,   0.00005,  -0.00019,  -0.00000,   2.00000
236981584.89305,299027566.53387,-224125682.39910,   0.00052,   0.00095,  -0.00311,475575273.69999,   0.00012,274774362.21248,   0.00002,   0.00005,  -0.00020,   0.00000,   2.00000
237742477.20395,299536562.12900,-223892092.23529,   0.00052,   0.00095,  -0.00311,475578810.90239,   0.00013,274777927.16376,   0.00002,   0.00005,  -0.00020,   0.00000,   2.00000
238501606.53433,300044052.81159,-223658226.98442,   0.00052,   0.00095,  -0.00311,475583562.59654,   0.00013,274781495.86295,   0.00002,   0.00005,  -0.00021,   0.00000,   2.00000
239266139.77009,300559468.82900,-223420541.32066,   0.00053,   0.00096,  -0.00312,475571633.59991,   0.00013,274784994.41035,   0.00003,   0.00006,  -0.00021,   0.00000,   2.00000
240045280.29347,301067580.88515,-223181913.17064,   0.00053,   0.00096,  -0.00312,475565733.32323,   0.00014,274788449.84885,   0.00003,   0.00006,  -0.00022,   0.00000,   2.00000
240826234.87107,301578899.52037,-222941191.80241,   0.00053,   0.00096,  -0.00312,475562108.36800,   0.00014,274791872.46296,   0.00003,   0.00006,  -0.00022,   0.00000,   2.00000
241621788.76542,302082910.08885,-222699477.17409,   0.00054,   0.00096,  -0.00312,475556214.57604,   0.00014,274795252.38113,   0.00003,   0.00006,  -0.00023,   0.00000,   2.00000
242415527.89571,302585400.30511,-222457435.73007,   0.00054,   0.00096,  -0.00312,475560881.30117,   0.00014,274798636.50716,   0.00003,   0.00006,  -0.00023,   0.00000,   2.00000
243232127.89146,303100474.41562,-222207809.50059,   0.00054,   0.00097,  -0.00313,475556335.87198,   0.00015,274801984.07517,   0.00003,   0.00006,  -0.00024,   0.00000,   2.00000
244045876.65598,303603565.81688,-221960743.84068,   0.00055,   0.00097,  -0.00313,475543133.94007,   0.00015,274805257.06101,   0.00003,   0.00006,  -0.00024,   0.00000,   2.00000
244861436.20908,304109861.53297,-221711491.50547,   0.00055,   0.00097,  -0.00313,475539477.20304,   0.00015,274808497.98672,   0.00003,   0.00006,  -0.00025,  -0.00000,   2.00000
245691586.50247,304608823.84783,-221461119.09031,   0.00055,   0.00097,  -0.00313,475533610.94617,   0.00016,274811697.26159,   0.00003,   0.00007,  -0.00025,   0.00000,   2.00000
246540856.60952,305115535.05521,-221204843.85968,   0.00056,   0.00097,  -0.00313,475537432.48673,   0.00016,274814897.80056,   0.00003,   0.00007,  -0.00026,   0.00000,   2.00000
247374587.46362,305620875.32651,-220949992.27706,   0.00056,   0.00098,  -0.00313,475526335.92775,   0.00016,274818033.84630,   0.00003,   0.00007,  -0.00026,  -0.00000,   2.00000
248222907.71649,306118859.21857,-220693943.34848,   0.00056,   0.00098,  -0.00313,475520494.01445,   0.00016,274821128.88384,   0.00003,   0.00007,  -0.00026,   0.00000,   2.00000
249090275.19601,306624512.18597,-220431904.09017,   0.00057,   0.00098,  -0.00313,475524386.81814,   0.00017,274824225.97285,   0.00003,   0.00007,  -0.00027,   0.00000,   2.00000
249954944.03499,307118293.93922,-220172305.37393,   0.00057,   0.00098,  -0.00314,475511064.63174,   0.00017,274827249.33073,   0.00003,   0.00007,  -0.00027,   0.00000,   2.00000
250825842.16167,307630256.91748,-219905615.67617,   0.00058,   0.00098,  -0.00314,475517135.01371,   0.00017,274830284.64835,   0.00003,   0.00007,  -0.00028,  -0.00000,   2.00000
251706866.52325,308119801.79758,-219642371.43772,   0.00058,   0.00099,  -0.00314,475501663.10259,   0.00018,274833237.12948,   0.00004,   0.00007,  -0.00028,  -0.00000,   2.00000
252589684.07166,308612523.74658,-219376753.20712,   0.00058,   0.00099,  -0.00314,475497994.69040,   0.00018,274836159.09284,   0.00004,   0.00008,  -0.00029,   0.00000,   2.00000
253491410.94190,309112771.80304,-219104988.32896,   0.00059,   0.00099,  -0.00314,475502028.76472,   0.00018,274839084.51228,   0.00004,   0.00008,  -0.00029,   0.00000,   2.00000
254394886.57571,309616138.44410,-218830799.76351,   0.00059,   0.00099,  -0.00314,475498438.83755,   0.00018,274841979.87838,   0.00004,   0.00008,  -0.00029,   0.00000,   2.00000
255295816.11799,310107712.98108,-218558947.44612,   0.00059,   0.00099,  -0.00314,475485029.28377,   0.00019,274844802.26068,   0.00004,   0.00008,  -0.00030,   0.00000,   2.00000
256211293.13994,310591833.59334,-218285631.90239,   0.00060,   0.00099,  -0.00314,475479326.76849,   0.00019,274847585.85122,   0.00004,   0.00008,  -0.00030,   0.00000,   2.00000
257128557.48505,311079100.85679,-218009834.36045,   0.00060,   0.00100,  -0.00314,475475671.11439,   0.00019,274850339.82380,   0.00004,   0.00008,  -0.00031,  -0.00000,   2.00000
258051429.67994,311574287.58017,-217729581.64589,   0.00061,   0.00100,  -0.00314,475463884.17785,   0.00019,274853028.68409,   0.00004,   0.00008,  -0.00031,   0.00000,   2.00000
258985020.68469,312057185.87775,-217449732.70514,   0.00061,   0.00100,  -0.00314,475466337.65770,   0.00020,274855715.15803,   0.00004,   0.00008,  -0.00031,   0.00000,   2.00000
259937304.03178,312547384.81838,-217163503.45177,   0.00061,   0.00100,  -0.00314,475470611.41218,   0.00020,274858407.19796,   0.00004,   0.00008,  -0.00032,  -0.00000,   2.00000
260887168.13934,313025853.22003,-216879478.27971,   0.00062,   0.00100,  -0.00314,475457162.53177,   0.00020,274861027.22750,   0.00004,   0.00009,  -0.00032,  -0.00000,   2.00000
261842666.32507,313512214.36635,-216590863.41369,   0.00062,   0.00100,  -0.00314,475445452.42582,   0.00020,274863583.22450,   0.00004,   0.00009,  -0.00033,   0.00000,   2.00000
262796088.33412,313996875.42231,-216301630.04840,   0.00063,   0.00100,  -0.00314,475449880.83484,   0.00021,274866146.08050,   0.00004,   0.00009,  -0.00033,  -0.00000,   2.00000
263764017.69703,314473952.62627,-216010682.75258,   0.00063,   0.00101,  -0.00314,475444356.64347,   0.00021,274868672.26213,   0.00004,   0.00009,  -0.00033,   0.00000,   2.00000
264754362.76069,314962942.70454,-215711160.12380,   0.00063,   0.00101,  -0.00314,475440775.64511,   0.00021,274871170.41869,   0.00004,   0.00009,  -0.00034,   0.00000,   2.00000
265721794.52017,315431421.62962,-215419654.69760,   0.00064,   0.00101,  -0.00314,475427220.79885,   0.00021,274873597.20344,   0.00004,   0.00009,  -0.00034,  -0.00000,   2.00000
266707666.99690,315897096.34438,-215124299.90891,   0.00064,   0.00101,  -0.00314,475413677.11940,   0.00022,274875953.03461,   0.00004,   0.00009,  -0.00034,  -0.00000,   2.00000
267712045.24257,316379691.68044,-214819533.82573,   0.00065,   0.00101,  -0.00314,475436191.75112,   0.00022,274878395.46782,   0.00005,   0.00009,  -0.00035,   0.00000,   2.00000
268714204.51569,316840753.04368,-214519535.19366,   0.00065,   0.00101,  -0.00314,475404701.75617,   0.00022,274880688.72571,   0.00005,   0.00009,  -0.00035,   0.00000,   2.00000
269718126.74502,317314709.31573,-214214014.25448,   0.00065,   0.00101,  -0.00314,475419078.35229,   0.00022,274883033.35320,   0.00005,   0.00009,  -0.00035,  -0.00000,   2.00000
270736570.64495,317771105.68787,-213909254.92786,   0.00066,   0.00101,  -0.00314,475395763.08438,   0.00022,274885265.00836,   0.00005,   0.00010,  -0.00036,  -0.00000,   2.00000
271740168.31308,318236481.00932,-213602908.32816,   0.00066,   0.00101,  -0.00314,475401871.88530,   0.00023,274887512.30784,   0.00005,   0.00010,  -0.00036,   0.00000,   2.00000
272778714.20982,318702746.01669,-213288467.32285,   0.00067,   0.00102,  -0.00314,475396919.97971,   0.00023,274889727.04172,   0.00005,   0.00010,  -0.00036,   0.00000,   2.00000
273811207.42698,319152586.57034,-212978032.64334,   0.00067,   0.00102,  -0.00313,475391313.21163,   0.00023,274891906.55429,   0.00005,   0.00010,  -0.00037,  -0.00000,   2.00000
274849486.03596,319610219.60253,-212662571.23409,   0.00068,   0.00102,  -0.00313,475379833.32992,   0.00023,274894025.51590,   0.00005,   0.00010,  -0.00037,   0.00000,   2.00000
275885817.41114,320056282.45346,-212348976.01833,   0.00068,   0.00102,  -0.00313,475366190.67326,   0.00023,274896074.87575,   0.00005,   0.00010,  -0.00037,   0.00000,   2.00000
276936294.66697,320504250.26383,-212030536.49314,   0.00069,   0.00102,  -0.00313,475378960.52178,   0.00024,274898169.57394,   0.00005,   0.00010,  -0.00038,  -0.00000,   2.00000
277992583.50251,320959965.91841,-211706965.89161,   0.00069,   0.00102,  -0.00313,475367563.18889,   0.00024,274900204.56861,   0.00005,   0.00010,  -0.00038,  -0.00000,   2.00000
279063266.90103,321407764.82088,-211381132.36131,   0.00069,   0.00102,  -0.00313,475362478.61879,   0.00024,274902207.53057,   0.00005,   0.00010,  -0.00038,   0.00000,   2.00000
280128018.99956,321839184.22076,-211059219.06809,   0.00070,   0.00102,  -0.00313,475356757.39465,   0.00024,274904175.88941,   0.00005,   0.00010,  -0.00038,   0.00000,   2.00000
281198645.84423,322278340.62620,-210732069.70655,   0.00070,   0.00102,  -0.00313,475345381.77266,   0.00024,274906085.34826,   0.00005,   0.00010,  -0.00039,   0.00000,   2.00000
282287230.38223,322723969.93308,-210397742.49840,   0.00071,   0.00102,  -0.00312,475350516.05130,   0.00024,274908007.61951,   0.00005,   0.00010,  -0.00039,   0.00000,   2.00000
283370491.84113,323143592.68112,-210069890.51803,   0.00071,   0.00102,  -0.00312,475326770.61056,   0.00025,274909817.80813,   0.00005,   0.00011,  -0.00039,   0.00000,   2.00000
284454967.92093,323575730.24820,-209736300.59698,   0.00072,   0.00102,  -0.00312,475341250.74311,   0.00025,274911681.66001,   0.00005,   0.00011,  -0.00039,  -0.00000,   2.00000
285557919.26729,324004614.72553,-209398012.51628,   0.00072,   0.00102,  -0.00312,475328556.78540,   0.00025,274913481.53425,   0.00005,   0.00011,  -0.00040,   0.00000,   2.00000
286659192.09994,324421945.50011,-209061316.36025,   0.00073,   0.00102,  -0.00312,475314947.59081,   0.00025,274915213.83902,   0.00006,   0.00011,  -0.00040,   0.00000,   2.00000
287762273.11001,324842123.48221,-208721393.49247,   0.00073,   0.00103,  -0.00312,475311485.06049,   0.00025,274916922.69602,   0.00006,   0.00011,  -0.00040,   0.00000,   2.00000
288883079.44725,325268516.01582,-208374062.86242,   0.00074,   0.00103,  -0.00311,475316900.34148,   0.00025,274918646.47490,   0.00006,   0.00011,  -0.00040,   0.00000,   2.00000
289998105.70657,325678543.25840,-208030504.20382,   0.00074,   0.00103,  -0.00311,475311093.92967,   0.00026,274920336.76816,   0.00006,   0.00011,  -0.00041,   0.00000,   2.00000
291115782.07213,326081845.85352,-207686172.94778,   0.00075,   0.00103,  -0.00311,475289716.61557,   0.00026,274921926.73388,   0.00006,   0.00011,  -0.00041,   0.00000,   2.00000
292251077.18420,326491241.71999,-207334316.13896,   0.00075,   0.00103,  -0.00311,475295252.60371,   0.00026,274923532.68473,   0.00006,   0.00011,  -0.00041,  -0.00000,   2.00000
293384873.89465,326889082.93900,-206983880.14285,   0.00076,   0.00103,  -0.00310,475281664.64450,   0.00026,274925072.31799,   0.00006,   0.00011,  -0.00041,   0.00000,   2.00000
294520473.71374,327289674.90173,-206630051.97261,   0.00076,   0.00103,  -0.00310,475278291.08315,   0.00026,274926589.87972,   0.00006,   0.00011,  -0.00042,  -0.00000,   2.00000
295670342.55151,327681940.47319,-206273368.42769,   0.00077,   0.00103,  -0.00310,475273734.57360,   0.00026,274928080.40447,   0.00006,   0.00011,  -0.00042,   0.00000,   2.00000
296817738.47756,328072113.08644,-205915556.84453,   0.00077,   0.00103,  -0.00310,475278119.93354,   0.00026,274929582.40969,   0.00006,   0.00011,  -0.00042,  -0.00000,   2.00000
297983602.12442,328458667.56611,-205552469.42459,   0.00078,   0.00103,  -0.00309,475266034.14140,   0.00027,274931025.18016,   0.00006,   0.00011,  -0.00042,   0.95274,   1.00000
299135679.02008,328844755.62472,-205190126.56048,   0.00078,   0.00103,  -0.00309,475253606.70612,   0.00027,274932407.58974,   0.00006,   0.00011,  -0.00042,   0.87742,   1.00000
300301986.20134,329222390.48277,-204824765.56434,   0.00078,   0.00103,  -0.00309,475249204.68347,   0.00027,274933764.33765,   0.00006,   0.00012,  -0.00043,   0.84776,   1.00000
301485511.31449,329605696.75269,-204451543.88104,   0.00079,   0.00103,  -0.00309,475255236.44786,   0.00027,274935140.20555,   0.00006,   0.00012,  -0.00043,   0.87454,   1.00000
302652345.93437,329974380.47086,-204083791.66752,   0.00079,   0.00103,  -0.00308,475232445.46327,   0.00027,274936411.81889,   0.00006,   0.00012,  -0.00043,   0.74929,   1.00000
303829056.46249,330329733.66874,-203715286.80136,   0.00080,   0.00103,  -0.00308,475235770.79857,   0.00027,274937691.38838,   0.00006,   0.00012,  -0.00043,   0.76097,   1.00000
305011880.06038,330692451.82437,-203340731.11237,   0.00081,   0.00103,  -0.00308,475224974.56405,   0.00027,274938918.53583,   0.00006,   0.00012,  -0.00043,   0.70199,   1.00000
306211739.03713,331060643.03562,-202958155.77140,   0.00081,   0.00103,  -0.00307,475231220.08417,   0.00027,274940166.28576,   0.00006,   0.00012,  -0.00043,   0.72794,   1.00000
307410425.24289,331417198.09533,-202576619.37061,   0.00082,   0.00103,  -0.00307,475217781.11878,   0.00027,274941350.55208,   0.00006,   0.00012,  -0.00044,   0.65769,   1.00000
308603644.82818,331757377.80265,-202198541.88102,   0.00082,   0.00103,  -0.00307,475211834.62126,   0.00028,274942503.63771,   0.00006,   0.00012,  -0.00044,   0.62531,   1.00000
309803022.53881,332104831.45170,-201814252.67923,   0.00083,   0.00103,  -0.00306,475201162.00291,   0.00028,274943605.57196,   0.00006,   0.00012,  -0.00044,   0.57271,   1.00000
311016456.87923,332443465.78017,-201426536.74522,   0.00083,   0.00103,  -0.00306,475197234.04211,   0.00028,274944685.34948,   0.00006,   0.00012,  -0.00044,   0.55148,   1.00000
312231628.78797,332784528.88225,-201034976.85262,   0.00084,   0.00103,  -0.00306,475194186.86326,   0.00028,274945746.83572,   0.00006,   0.00012,  -0.00044,   0.53447,   1.00000
313456363.87051,333111911.03971,-200642378.70782,   0.00084,   0.00102,  -0.00305,475197913.55845,   0.00028,274946818.93054,   0.00006,   0.00012,  -0.00044,   0.54673,   1.00000
314672304.25189,333443720.20364,-200247799.41111,   0.00085,   0.00102,  -0.00305,475177777.43045,   0.00028,274947800.18686,   0.00007,   0.00012,  -0.00045,   0.45928,   1.00000
315902218.69098,333766537.34963,-199849612.03578,   0.00085,   0.00102,  -0.00304,475174066.00749,   0.00028,274948760.84474,   0.00007,   0.00012,  -0.00045,   0.44141,   1.00000
317126788.99771,334072931.36764,-199454725.10104,   0.00086,   0.00102,  -0.00304,475168110.04349,   0.00028,274949691.50187,   0.00007,   0.00012,  -0.00045,   0.41538,   1.00000
318372325.76958,334388992.51644,-199048865.31094,   0.00086,   0.00102,  -0.00304,475167539.98253,   0.00028,274950615.14636,   0.00007,   0.00012,  -0.00045,   0.41025,   1.00000
319597806.21562,334686028.33519,-198650716.78871,   0.00087,   0.00102,  -0.00303,475151762.78913,   0.00028,274951467.39749,   0.00007,   0.00012,  -0.00045,   0.35019,   1.00000
320844201.75736,334992634.99295,-198241500.57819,   0.00087,   0.00102,  -0.00303,475151293.67055,   0.00028,274952313.45653,   0.00007,   0.00012,  -0.00045,   0.34603,   1.00000
322085312.67290,335282776.89513,-197835491.52281,   0.00088,   0.00102,  -0.00302,475145354.10752,   0.00029,274953130.21719,   0.00007,   0.00012,  -0.00045,   0.32330,   1.00000
323347197.31287,335582328.41305,-197418289.82725,   0.00088,   0.00102,  -0.00302,475145116.78428,   0.00029,274953941.93959,   0.00007,   0.00012,  -0.00045,   0.32015,   1.00000
324603780.65736,335865359.49021,-197004232.05469,   0.00089,   0.00102,  -0.00302,475139255.19144,   0.00029,274954724.89374,   0.00007,   0.00012,  -0.00045,   0.29861,   1.00000
325859642.67317,336136597.94233,-196590700.33984,   0.00090,   0.00102,  -0.00301,475126007.98396,   0.00029,274955448.06035,   0.00007,   0.00012,  -0.00046,   0.25538,   1.00000
327121739.98198,336414684.52498,-196170338.48492,   0.00090,   0.00102,  -0.00301,475115894.50497,   0.00029,274956124.99089,   0.00007,   0.00012,  -0.00046,   0.22432,   1.00000
328395299.71671,336692516.25278,-195743825.90385,   0.00091,   0.00102,  -0.00300,475130616.38773,   0.00029,274956860.64696,   0.00007,   0.00012,  -0.00046,   0.26557,   1.00000
329651608.55287,336942258.05007,-195326964.07179,   0.00091,   0.00102,  -0.00300,475096782.33524,   0.00029,274957450.14040,   0.00007,   0.00012,  -0.00046,   0.17093,   1.00000
330926130.97774,337210284.92919,-194896573.54973,   0.00092,   0.00101,  -0.00299,475114735.53962,   0.00029,274958112.30816,   0.00007,   0.00013,  -0.00046,   0.21618,   1.00000
332211977.47152,337454733.18355,-194466612.92224,   0.00092,   0.00101,  -0.00299,475101425.25774,   0.00029,274958715.21554,   0.00007,   0.00013,  -0.00046,   0.17963,   1.00000
333485312.15377,337698950.98269,-194036856.29330,   0.00093,   0.00101,  -0.00298,475088514.79051,   0.00029,274959260.87941,   0.00007,   0.00013,  -0.00046,   0.14747,   1.00000
334774352.90253,337947316.55570,-193598109.85804,   0.00093,   0.00101,  -0.00298,475096259.49794,   0.00029,274959836.38520,   0.00007,   0.00013,  -0.00046,   0.16442,   1.00000
336060714.86218,338169823.80025,-193164226.64343,   0.00094,   0.00101,  -0.00297,475072725.55114,   0.00029,274960310.26790,   0.00007,   0.00013,  -0.00046,   0.11172,   1.00000
337350790.65766,338408112.96090,-192721226.72597,   0.00094,   0.00101,  -0.00297,475080684.35744,   0.00029,274960815.19881,   0.00007,   0.00013,  -0.00046,   0.12712,   1.00000
338652198.70998,338622589.39717,-192278371.33563,   0.00095,   0.00101,  -0.00296,475067676.77807,   0.00029,274961263.11959,   0.00007,   0.00013,  -0.00046,   0.10025,   1.00000
339936698.03993,338832218.99226,-191838366.12010,   0.00096,   0.00101,  -0.00296,475061842.74837,   0.00029,274961684.40224,   0.00007,   0.00013,  -0.00046,   0.08887,   1.00000
341241224.71143,339050314.69300,-191386397.14860,   0.00096,   0.00100,  -0.00295,475062799.25325,   0.00029,274962107.61127,   0.00007,   0.00013,  -0.00046,   0.08987,   1.00000
342540643.98089,339251696.64075,-190937222.73220,   0.00097,   0.00100,  -0.00295,475057037.06551,   0.00029,274962504.63832,   0.00007,   0.00013,  -0.00047,   0.07925,   1.00000
343857982.33335,339447514.91951,-190480558.40404,   0.00097,   0.00100,  -0.00294,475047727.14186,   0.00029,274962860.80086,   0.00007,   0.00013,  -0.00047,   0.06391,   1.00000
345158530.74254,339638495.91806,-190026697.61659,   0.00098,   0.00100,  -0.00294,475041824.35769,   0.00029,274963190.56134,   0.00007,   0.00013,  -0.00047,   0.05489,   1.00000
346472267.86626,339819205.33425,-189568054.49686,   0.00098,   0.00100,  -0.00293,475039728.09971,   0.00030,274963509.95196,   0.00007,   0.00013,  -0.00047,   0.05159,   1.00000
347792177.59566,340006115.40672,-189101834.06558,   0.00099,   0.00100,  -0.00293,475030450.71516,   0.00030,274963789.08392,   0.00007,   0.00013,  -0.00047,   0.03948,   1.00000
349105236.29155,340162384.30134,-188642833.93981,   0.00100,   0.00099,  -0.00292,475014211.96847,   0.00030,274963999.18307,   0.00007,   0.00013,  -0.00047,   0.02241,   1.00000
350421550.37743,340334044.12234,-188174467.66059,   0.00100,   0.00099,  -0.00291,475022520.58796,   0.00030,274964242.84294,   0.00007,   0.00013,  -0.00047,   0.03019,   1.00000
351750837.20595,340495154.22870,-187701100.61328,   0.00101,   0.00099,  -0.00291,475020787.66033,   0.00030,274964478.09423,   0.00007,   0.00013,  -0.00047,   0.02820,   1.00000
353079795.30161,340643908.58707,-187227397.72992,   0.00101,   0.00099,  -0.00290,475008211.25360,   0.00030,274964659.90552,   0.00007,   0.00013,  -0.00047,   0.01687,   1.00000
354403715.49742,340775749.16195,-186756226.80735,   0.00102,   0.00099,  -0.00290,475002596.33798,   0.00030,274964817.49993,   0.00007,   0.00013,  -0.00047,   0.01270,   1.00000
355733790.64385,340913537.12879,-186277200.81564,   0.00103,   0.00099,  -0.00289,474993606.58788,   0.00030,274964937.00384,   0.00007,   0.00013,  -0.00047,   0.00731,   1.00000
357060456.94187,341048173.63294,-185796137.28774,   0.00103,   0.00098,  -0.00288,474998548.15900,   0.00030,274965076.41825,   0.00007,   0.00013,  -0.00047,   0.00997,   1.00000
358390129.80454,341161086.37107,-185316154.73150,   0.00104,   0.00098,  -0.00288,474968571.97638,   0.00030,274965090.90639,   0.00007,   0.00013,  -0.00047,   0.00011,   1.00000
359730787.60204,341286128.86657,-184824802.58169,   0.00104,   0.00098,  -0.00287,474995270.37198,   0.00030,274965215.89600,   0.00007,   0.00013,  -0.00047,   0.00804,   1.00000
361069684.36307,341384823.47381,-184337354.07058,   0.00105,   0.00098,  -0.00287,474972392.33401,   0.00030,274965245.59493,   0.00007,   0.00013,  -0.00047,   0.00045,   1.00000
362409851.43606,341484720.02426,-183844787.51961,   0.00105,   0.00098,  -0.00286,474970578.18034,   0.00030,274965267.64641,   0.00007,   0.00013,  -0.00047,   0.00025,   1.00000
363744895.91047,341567421.89436,-183348576.29903,   0.00106,   0.00097,  -0.00285,474958259.18679,   0.00030,274965267.64641,   0.00007,   0.00013,  -0.00047,-7008.45962,   0.00000
365100615.85240,341658984.67911,-182846457.80202,   0.00107,   0.00097,  -0.00285,474960942.79651,   0.00030,274965267.64641,   0.00007,   0.00013,  -0.00047,-4324.84990,   0.00000
366426799.41215,341721011.08168,-182338432.02857,   0.00107,   0.00097,  -0.00284,474940021.20635,   0.00030,274965267.64641,   0.00007,   0.00013,  -0.00047,-25246.44006,   0.00000
367773658.43943,341791898.39890,-181830406.25512,   0.00108,   0.00097,  -0.00283,474935783.73359,   0.00030,274965267.64641,   0.00007,   0.00013,  -0.00047,-29483.91282,   0.00000
369111656.55206,341842110.24861,-181310565.92881,   0.00108,   0.00096,  -0.00283,474912728.51018,   0.00030,274965267.64641,   0.00007,   0.00013,  -0.00047,-52539.13623,   0.00000
370440793.75003,341871646.63078,-180790725.60249,   0.00109,   0.00096,  -0.00282,474884469.84217,   0.00030,274965267.64641,   0.00007,   0.00013,  -0.00047,-80797.80424,   0.00000
371769930.94800,341901183.01296,-180264977.99973,   0.00110,   0.00096,  -0.00281,474854828.53469,   0.00030,274965267.64641,   0.00007,   0.00013,  -0.00047,-110439.11172,   0.00000
373090207.23132,341910043.92761,-179733323.12055,   0.00110,   0.00096,  -0.00281,474813325.47321,   0.00030,274965267.64641,   0.00007,   0.00013,  -0.00047,-151942.17320,   0.00000
374410483.51464,341918904.84227,-179195760.96492,   0.00111,   0.00095,  -0.00280,474770562.91729,   0.00030,274965267.64641,   0.00007,   0.00013,  -0.00047,-194704.72912,   0.00000
375742574.35083,341915951.20405,-178658198.80930,   0.00111,   0.00095,  -0.00279,474734532.29767,   0.00030,274965267.64641,   0.00007,   0.00013,  -0.00047,-230735.34875,   0.00000
377065804.27237,341892322.09831,-178108822.10080,   0.00112,   0.00095,  -0.00278,474680244.78084,   0.00030,274965267.64641,   0.00007,   0.00013,  -0.00047,-285022.86557,   0.00000
378389034.19390,341868692.99257,-177559445.39231,   0.00113,   0.00095,  -0.00278,474631614.86370,   0.00030,274965267.64641,   0.00007,   0.00013,  -0.00047,-333652.78271,   0.00000
379703403.20079,341824388.41930,-177004161.40738,   0.00113,   0.00094,  -0.00277,474571514.95558,   0.00030,274965267.64641,   0.00007,   0.00013,  -0.00047,-393752.69083,   0.00000
381008911.29302,341759408.37851,-176442970.14601,   0.00114,   0.00094,  -0.00276,474500019.73795,   0.00030,274965267.64641,   0.00007,   0.00013,  -0.00047,-465247.90846,   0.00000
382314419.38525,341694428.33772,-175875871.60821,   0.00115,   0.00094,  -0.00276,474427715.56018,   0.00030,274965267.64641,   0.00007,   0.00013,  -0.00047,-537552.08623,   0.00000
383619927.47748,341629448.29693,-175302865.79397,   0.00115,   0.00093,  -0.00275,474354665.61254,   0.00030,274965267.64641,   0.00007,   0.00013,  -0.00047,-610602.03387,   0.00000
384928389.20793,341531978.23575,-174723952.70330,   0.00116,   0.00093,  -0.00274,474272054.49546,   0.00030,274965267.64641,   0.00007,   0.00013,  -0.00047,-693213.15095,   0.00000
386216175.47085,341425647.25991,-174145039.61263,   0.00116,   0.00093,  -0.00273,474183280.57287,   0.00030,274965267.64641,   0.00007,   0.00013,  -0.00047,-781987.07354,   0.00000
387524637.20130,341328177.19872,-173560219.24552,   0.00117,   0.00093,  -0.00273,474106148.52156,   0.00030,274965267.64641,   0.00007,   0.00013,  -0.00047,-859119.12486,   0.00000
388824238.01709,341210031.67001,-172969491.60198,   0.00118,   0.00092,  -0.00272,474018120.21175,   0.00030,274965267.64641,   0.00007,   0.00013,  -0.00047,-947147.43466,   0.00000
390114977.91823,341071210.67378,-172372856.68200,   0.00118,   0.00092,  -0.00271,473919280.13979,   0.00030,274965267.64641,   0.00007,   0.00013,  -0.00047,-1045987.50662,   0.00000
391405717.81938,340932389.67755,-171776221.76202,   0.00119,   0.00092,  -0.00270,473826608.21426,   0.00030,274965267.64641,   0.00007,   0.00013,  -0.00047,-1138659.43215,   0.00000
392687596.80586,340772893.21379,-171167772.28917,   0.00119,   0.00091,  -0.00269,473716839.21207,   0.00030,274965267.64641,   0.00007,   0.00013,  -0.00047,-1248428.43435,   0.00000
393960614.87770,340592721.28251,-170559322.81632,   0.00120,   0.00091,  -0.00269,473602890.36787,   0.00030,274965267.64641,   0.00007,   0.00013,  -0.00047,-1362377.27854,   0.00000
395233632.94954,340412549.35123,-169944966.06704,   0.00121,   0.00091,  -0.00268,473488874.48722,   0.00030,274965267.64641,   0.00007,   0.00013,  -0.00047,-1476393.15920,   0.00000
396527326.48889,340241238.33460,-169324702.04132,   0.00121,   0.00090,  -0.00267,473387406.34067,   0.00030,274965267.64641,   0.00007,   0.00013,  -0.00047,-1577861.30574,   0.00000
397782622.73142,340019715.46828,-168704438.01560,   0.00122,   0.00090,  -0.00266,473258967.02897,   0.00030,274965267.64641,   0.00007,   0.00013,  -0.00047,-1706300.61744,   0.00000
399058594.44148,339807053.51660,-168072359.43700,   0.00122,   0.00090,  -0.00265,473137003.71010,   0.00030,274965267.64641,   0.00007,   0.00013,  -0.00047,-1828263.93631,   0.00000
400313890.68401,339585530.65027,-167440280.85841,   0.00123,   0.00089,  -0.00265,473008965.73831,   0.00030,274965267.64641,   0.00007,   0.00013,  -0.00047,-1956301.90810,   0.00000
401581001.47941,339352193.23107,-166802295.00339,   0.00124,   0.00089,  -0.00264,472883532.21820,   0.00030,274965267.64641,   0.00007,   0.00013,  -0.00047,-2081735.42821,   0.00000
402839251.36015,339098180.34435,-166164309.14836,   0.00124,   0.00089,  -0.00263,472754390.93255,   0.00030,274965267.64641,   0.00007,   0.00013,  -0.00047,-2210876.71386,   0.00000
404097501.24090,338844167.45762,-165514508.74046,   0.00125,   0.00088,  -0.00262,472619547.58590,   0.00030,274965267.64641,   0.00007,   0.00013,  -0.00047,-2345720.06051,   0.00000
405346890.20699,338569479.10338,-164864708.33257,   0.00126,   0.00088,  -0.00261,472481136.41499,   0.00030,274965267.64641,   0.00007,   0.00013,  -0.00047,-2484131.23142,   0.00000
406587418.25843,338274115.28161,-164209000.64823,   0.00126,   0.00087,  -0.00260,472333033.18875,   0.00030,274965267.64641,   0.00007,   0.00013,  -0.00047,-2632234.45767,   0.00000
407827946.30987,337978751.45983,-163547385.68746,   0.00127,   0.00087,  -0.00260,472185696.75611,   0.00030,274965267.64641,   0.00007,   0.00013,  -0.00047,-2779570.89030,   0.00000
409068474.36132,337683387.63806,-162885770.72670,   0.00127,   0.00087,  -0.00259,472045317.44361,   0.00030,274965267.64641,   0.00007,   0.00013,  -0.00047,-2919950.20280,   0.00000
410291280.58345,337346672.88124,-162212341.21306,   0.00128,   0.00086,  -0.00258,471879057.74181,   0.00030,274965267.64641,   0.00007,   0.00013,  -0.00047,-3086209.90460,   0.00000
411534762.27311,337018819.03908,-161538911.69942,   0.00129,   0.00086,  -0.00257,471733023.38289,   0.00030,274965267.64641,   0.00007,   0.00013,  -0.00047,-3232244.26352,   0.00000
412757568.49524,336682104.28226,-160865482.18578,   0.00129,   0.00086,  -0.00256,471581035.50844,   0.00030,274965267.64641,   0.00007,   0.00013,  -0.00047,-3384232.13797,   0.00000
413971513.80272,336324714.05791,-160180238.11927,   0.00130,   0.00085,  -0.00255,471413833.66451,   0.00030,274965267.64641,   0.00007,   0.00013,  -0.00047,-3551433.98190,   0.00000
415197273.66308,335955509.28070,-159494994.05276,   0.00131,   0.00085,  -0.00254,471256860.03658,   0.00030,274965267.64641,   0.00007,   0.00013,  -0.00047,-3708407.60983,   0.00000
416402358.05590,335577443.58883,-158803842.70981,   0.00131,   0.00084,  -0.00253,471087982.22580,   0.00030,274965267.64641,   0.00007,   0.00013,  -0.00047,-3877285.42061,   0.00000
417619257.00160,335187563.34409,-158106784.09043,   0.00132,   0.00084,  -0.00252,470923593.38372,   0.00030,274965267.64641,   0.00007,   0.00013,  -0.00047,-4041674.26269,   0.00000
418815480.47978,334788822.18470,-157409725.47105,   0.00132,   0.00083,  -0.00252,470753317.29622,   0.00030,274965267.64641,   0.00007,   0.00013,  -0.00047,-4211950.35019,   0.00000
420023518.51082,334378266.47244,-156706759.57523,   0.00133,   0.00083,  -0.00251,470587792.74832,   0.00030,274965267.64641,   0.00007,   0.00013,  -0.00047,-4377474.89810,   0.00000
421202020.15969,333938174.37800,-155997886.40298,   0.00134,   0.00083,  -0.00250,470400291.37284,   0.00030,274965267.64641,   0.00007,   0.00013,  -0.00047,-4564976.27357,   0.00000
422401197.27608,333506943.19821,-155283105.95430,   0.00134,   0.00082,  -0.00249,470228082.42311,   0.00030,274965267.64641,   0.00007,   0.00013,  -0.00047,-4737185.22331,   0.00000
423591513.47782,333055036.55090,-154568325.50561,   0.00135,   0.00082,  -0.00248,470053446.33049,   0.00030,274965267.64641,   0.00007,   0.00013,  -0.00047,-4911821.31592,   0.00000
424761154.21204,332594268.98894,-153847637.78049,   0.00136,   0.00081,  -0.00247,469867159.16702,   0.00030,274965267.64641,   0.00007,   0.00013,  -0.00047,-5098108.47939,   0.00000
425942609.49912,332121686.87410,-153126950.05536,   0.00136,   0.00081,  -0.00246,469692167.27596,   0.00030,274965267.64641,   0.00007,   0.00013,  -0.00047,-5273100.37045,   0.00000
427124064.78621,331649104.75927,-152394447.77737,   0.00137,   0.00080,  -0.00245,469513561.93378,   0.00030,274965267.64641,   0.00007,   0.00013,  -0.00047,-5451705.71264,   0.00000
428296659.15864,331155847.17691,-151661945.49938,   0.00137,   0.00080,  -0.00244,469332842.97730,   0.00030,274965267.64641,   0.00007,   0.00013,  -0.00047,-5632424.66911,   0.00000
429439717.14890,330633053.21238,-150923535.94495,   0.00138,   0.00079,  -0.00243,469130539.18525,   0.00030,274965267.64641,   0.00007,   0.00013,  -0.00047,-5834728.46116,   0.00000
430603450.60668,330119120.16249,-150185126.39052,   0.00139,   0.00079,  -0.00242,468950156.71693,   0.00030,274965267.64641,   0.00007,   0.00013,  -0.00047,-6015110.92948,   0.00000
431758323.14981,329584511.64509,-149440809.55965,   0.00139,   0.00079,  -0.00241,468762211.06971,   0.00030,274965267.64641,   0.00007,   0.00013,  -0.00047,-6203056.57670,   0.00000
432913195.69293,329049903.12768,-148690585.45235,   0.00140,   0.00078,  -0.00240,468576887.23884,   0.00030,274965267.64641,   0.00007,   0.00013,  -0.00047,-6388380.40757,   0.00000
434059207.32141,328494619.14275,-147940361.34505,   0.00141,   0.00078,  -0.00239,468389845.97928,   0.00030,274965267.64641,   0.00007,   0.00013,  -0.00047,-6575421.66713,   0.00000
435184543.48236,327930474.24317,-147184229.96132,   0.00141,   0.00077,  -0.00238,468191522.50308,   0.00030,274965267.64641,   0.00007,   0.00013,  -0.00047,-6773745.14333,   0.00000
436321694.19618,327354514.79071,-146422191.30115,   0.00142,   0.00077,  -0.00237,468000103.63260,   0.00030,274965267.64641,   0.00007,   0.00013,  -0.00047,-6965164.01381,   0.00000
437449983.99534,326757879.87073,-145654245.36454,   0.00143,   0.00076,  -0.00236,467801719.54951,   0.00030,274965267.64641,   0.00007,   0.00013,  -0.00047,-7163548.09690,   0.00000
438578273.79451,326161244.95075,-144886299.42794,   0.00143,   0.00076,  -0.00235,467611958.19717,   0.00030,274965267.64641,   0.00007,   0.00013,  -0.00047,-7353309.44924,   0.00000
439697702.67903,325543934.56325,-144112446.21490,   0.00144,   0.00075,  -0.00234,467415440.89354,   0.00030,274965267.64641,   0.00007,   0.00013,  -0.00047,-7549826.75287,   0.00000
440796456.09602,324917763.26110,-143338593.00185,   0.00144,   0.00075,  -0.00233,467213363.19985,   0.00030,274965267.64641,   0.00007,   0.00013,  -0.00047,-7751904.44656,   0.00000
441907024.06588,324279777.40607,-142558832.51238,   0.00145,   0.00074,  -0.00232,467018996.11997,   0.00030,274965267.64641,   0.00007,   0.00013,  -0.00047,-7946271.52644,   0.00000
443017592.03574,323641791.55104,-141773164.74646,   0.00146,   0.00074,  -0.00231,466828105.02702,   0.00030,274965267.64641,   0.00007,   0.00013,  -0.00047,-8137162.61939,   0.00000
444098623.62342,322974269.31384,-140987496.98055,   0.00146,   0.00073,  -0.00230,466621860.38536,   0.00030,274965267.64641,   0.00007,   0.00013,  -0.00047,-8343407.26105,   0.00000
445191469.76398,322294932.52376,-140195921.93820,   0.00147,   0.00073,  -0.00229,466423844.97116,   0.00030,274965267.64641,   0.00007,   0.00013,  -0.00047,-8541422.67525,   0.00000
446284315.90453,321615595.73369,-139398439.61942,   0.00148,   0.00072,  -0.00228,466229622.41825,   0.00030,274965267.64641,   0.00007,   0.00013,  -0.00047,-8735645.22816,   0.00000
447356486.57756,320927398.02896,-138600957.30064,   0.00148,   0.00072,  -0.00227,466029981.60409,   0.00030,274965267.64641,   0.00007,   0.00013,  -0.00047,-8935286.04233,   0.00000
448440471.80346,320227385.77136,-137797567.70542,   0.00149,   0.00071,  -0.00226,465839054.16588,   0.00030,274965267.64641,   0.00007,   0.00013,  -0.00047,-9126213.48053,   0.00000
449515596.11471,319506698.04624,-136994178.11020,   0.00149,   0.00071,  -0.00225,465647690.77076,   0.00030,274965267.64641,   0.00007,   0.00013,  -0.00047,-9317576.87565,   0.00000
450570044.95844,318777149.40646,-136184881.23855,   0.00150,   0.00070,  -0.00224,465445772.87976,   0.00030,274965267.64641,   0.00007,   0.00013,  -0.00047,-9519494.76665,   0.00000
451636308.35503,318035786.21382,-135369677.09046,   0.00151,   0.00069,  -0.00223,465253109.98802,   0.00030,274965267.64641,   0.00007,   0.00013,  -0.00047,-9712157.65839,   0.00000
452681896.28410,317285562.10652,-134554472.94237,   0.00151,   0.00069,  -0.00222,465055174.99870,   0.00030,274965267.64641,   0.00007,   0.00013,  -0.00047,-9910092.64771,   0.00000
453739298.76605,316523523.44635,-133733361.51784,   0.00152,   0.00068,  -0.00221,464866826.64681,   0.00030,274965267.64641,   0.00007,   0.00013,  -0.00047,-10098440.99960,   0.00000
454776025.78046,315752623.87152,-132912250.09332,   0.00153,   0.00068,  -0.00220,464673249.03311,   0.00030,274965267.64641,   0.00007,   0.00013,  -0.00047,-10292018.61330,   0.00000
455803891.88023,314961048.82918,-132079324.11592,   0.00153,   0.00067,  -0.00219,464469613.49746,   0.00030,274965267.64641,   0.00007,   0.00013,  -0.00047,-10495654.14895,   0.00000
456852433.44752,314178334.70148,-131252305.41496,   0.00154,   0.00067,  -0.00218,464295744.35707,   0.00030,274965267.64641,   0.00007,   0.00013,  -0.00047,-10669523.28935,   0.00000
457871438.63263,313366084.19161,-130419379.43757,   0.00154,   0.00066,  -0.00216,464102166.39039,   0.00030,274965267.64641,   0.00007,   0.00013,  -0.00047,-10863101.25602,   0.00000
458890443.81774,312553833.68174,-129580546.18373,   0.00155,   0.00066,  -0.00215,463913488.45347,   0.00030,274965267.64641,   0.00007,   0.00013,  -0.00047,-11051779.19294,   0.00000
459900588.08820,311720907.70434,-128735805.65347,   0.00156,   0.00065,  -0.00214,463720356.92109,   0.00030,274965267.64641,   0.00007,   0.00013,  -0.00047,-11244910.72533,   0.00000
460901871.44401,310867306.25942,-127896972.39964,   0.00156,   0.00064,  -0.00213,463532739.53717,   0.00030,274965267.64641,   0.00007,   0.00013,  -0.00047,-11432528.10924,   0.00000
461903154.79981,310013704.81450,-127046324.59293,   0.00157,   0.00064,  -0.00212,463345464.07573,   0.00030,274965267.64641,   0.00007,   0.00013,  -0.00047,-11619803.57068,   0.00000
462904438.15562,309160103.36958,-126195676.78623,   0.00158,   0.00063,  -0.00211,463168382.93199,   0.00030,274965267.64641,   0.00007,   0.00013,  -0.00047,-11796884.71442,   0.00000
463896860.59677,308285826.45714,-125339121.70309,   0.00158,   0.00063,  -0.00210,462987372.71535,   0.00030,274965267.64641,   0.00007,   0.00013,  -0.00047,-11977894.93106,   0.00000
464889283.03792,307411549.54469,-124482566.61996,   0.00159,   0.00062,  -0.00209,462816701.93334,   0.00030,274965267.64641,   0.00007,   0.00013,  -0.00047,-12148565.71308,   0.00000
465872844.56442,306516597.16473,-123620104.26038,   0.00159,   0.00061,  -0.00208,462642370.67599,   0.00030,274965267.64641,   0.00007,   0.00013,  -0.00047,-12322896.97043,   0.00000
466826869.70874,305592108.40258,-122757641.90081,   0.00160,   0.00061,  -0.00207,462453858.84634,   0.00030,274965267.64641,   0.00007,   0.00013,  -0.00047,-12511408.80007,   0.00000
467801570.32059,304676480.55509,-121889272.26480,   0.00161,   0.00060,  -0.00205,462286615.67706,   0.00030,274965267.64641,   0.00007,   0.00013,  -0.00047,-12678651.96935,   0.00000
468776270.93244,303760852.70760,-121020902.62879,   0.00161,   0.00060,  -0.00204,462130008.39451,   0.00030,274965267.64641,   0.00007,   0.00013,  -0.00047,-12835259.25190,   0.00000
469721435.16211,302815688.47793,-120146625.71635,   0.00162,   0.00059,  -0.00203,461954741.36622,   0.00030,274965267.64641,   0.00007,   0.00013,  -0.00047,-13010526.28019,   0.00000
470666599.39177,301870524.24826,-119272348.80391,   0.00162,   0.00058,  -0.00202,461790177.08912,   0.00030,274965267.64641,   0.00007,   0.00013,  -0.00047,-13175090.55729,   0.00000
471623578.17431,300913545.46572,-118392164.61503,   0.00163,   0.00058,  -0.00201,461638334.87669,   0.00030,274965267.64641,   0.00007,   0.00013,  -0.00047,-13326932.76972,   0.00000
472559881.48933,299947705.76853,-117506073.14971,   0.00164,   0.00057,  -0.00200,461477244.48692,   0.00030,274965267.64641,   0.00007,   0.00013,  -0.00047,-13488023.15949,   0.00000
473487323.88969,298961190.60381,-116619981.68440,   0.00164,   0.00056,  -0.00199,461318074.29344,   0.00030,274965267.64641,   0.00007,   0.00013,  -0.00047,-13647193.35298,   0.00000
474405905.37540,297953999.97157,-115733890.21908,   0.00165,   0.00056,  -0.00197,461160939.44859,   0.00030,274965267.64641,   0.00007,   0.00013,  -0.00047,-13804328.19782,   0.00000
475333347.77577,296967484.80685,-114841891.47733,   0.00166,   0.00055,  -0.00196,461019424.66745,   0.00030,274965267.64641,   0.00007,   0.00013,  -0.00047,-13945842.97896,   0.00000
476251929.26147,295960294.17461,-113943985.45915,   0.00166,   0.00055,  -0.00195,460875721.02975,   0.00030,274965267.64641,   0.00007,   0.00013,  -0.00047,-14089546.61666,   0.00000
477161649.83253,294932428.07485,-113051986.71740,   0.00167,   0.00054,  -0.00194,460738741.95033,   0.00030,274965267.64641,   0.00007,   0.00013,  -0.00047,-14226525.69608,   0.00000
478071370.40359,293904561.97508,-112148173.42278,   0.00167,   0.00053,  -0.00193,460604394.72961,   0.00030,274965267.64641,   0.00007,   0.00013,  -0.00047,-14360872.91680,   0.00000
478951554.59247,292847159.49314,-111244360.12816,   0.00168,   0.00053,  -0.00192,460456698.45652,   0.00030,274965267.64641,   0.00007,   0.00013,  -0.00047,-14508569.18989,   0.00000
479852414.24887,291798617.92585,-110340546.83353,   0.00169,   0.00052,  -0.00190,460336410.05712,   0.00030,274965267.64641,   0.00007,   0.00013,  -0.00047,-14628857.58930,   0.00000
480732598.43775,290741215.44391,-109430826.26248,   0.00169,   0.00051,  -0.00189,460207369.33982,   0.00030,274965267.64641,   0.00007,   0.00013,  -0.00047,-14757898.30659,   0.00000
481624597.17950,289671998.40909,-108515198.41499,   0.00170,   0.00051,  -0.00188,460093039.05167,   0.00030,274965267.64641,   0.00007,   0.00013,  -0.00047,-14872228.59474,   0.00000
482487059.53907,288573244.99210,-107599570.56749,   0.00170,   0.00050,  -0.00187,459965679.88163,   0.00030,274965267.64641,   0.00007,   0.00013,  -0.00047,-14999587.76478,   0.00000
483349521.89865,287474491.57511,-106683942.72000,   0.00171,   0.00049,  -0.00186,459850058.67999,   0.00030,274965267.64641,   0.00007,   0.00013,  -0.00047,-15115208.96643,   0.00000
484211984.25822,286375738.15812,-105762407.59608,   0.00172,   0.00049,  -0.00184,459742107.34877,   0.00030,274965267.64641,   0.00007,   0.00013,  -0.00047,-15223160.29764,   0.00000
485065585.70314,285256309.27361,-104840872.47215,   0.00172,   0.00048,  -0.00183,459637456.37489,   0.00030,274965267.64641,   0.00007,   0.00013,  -0.00047,-15327811.27153,   0.00000
485919187.14806,284136880.38910,-103913430.07179,   0.00173,   0.00047,  -0.00182,459540709.97712,   0.00030,274965267.64641,   0.00007,   0.00013,  -0.00047,-15424557.66929,   0.00000
486772788.59298,283017451.50458,-102985987.67142,   0.00173,   0.00047,  -0.00181,459455952.67810,   0.00030,274965267.64641,   0.00007,   0.00013,  -0.00047,-15509314.96831,   0.00000
487596853.65572,281868486.23789,-102052637.99462,   0.00174,   0.00046,  -0.00180,459354515.55382,   0.00030,274965267.64641,   0.00007,   0.00013,  -0.00047,-15610752.09259,   0.00000
488432733.27133,280707706.41833,-101119288.31783,   0.00175,   0.00045,  -0.00178,459273176.31996,   0.00030,274965267.64641,   0.00007,   0.00013,  -0.00047,-15692091.32645,   0.00000
489256798.33408,279558741.15164,-100185938.64103,   0.00175,   0.00045,  -0.00177,459195989.45591,   0.00030,274965267.64641,   0.00007,   0.00013,  -0.00047,-15769278.19050,   0.00000
490063141.56751,278368424.94990,-99246681.68779,   0.00176,   0.00044,  -0.00176,459110519.77283,   0.00030,274965267.64641,   0.00007,   0.00013,  -0.00047,-15854747.87358,   0.00000
490878345.71560,277198784.21568,-98307424.73456,   0.00176,   0.00043,  -0.00175,459045623.99264,   0.00030,274965267.64641,   0.00007,   0.00013,  -0.00047,-15919643.65377,   0.00000
491705364.41656,276017328.92860,-97362260.50489,   0.00177,   0.00043,  -0.00173,458997559.11186,   0.00030,274965267.64641,   0.00007,   0.00013,  -0.00047,-15967708.53455,   0.00000
492482171.26782,274797476.34468,-96417096.27522,   0.00178,   0.00042,  -0.00172,458920748.68692,   0.00030,274965267.64641,   0.00007,   0.00013,  -0.00047,-16044518.95949,   0.00000
493288514.50126,273607160.14294,-95466024.76912,   0.00178,   0.00041,  -0.00171,458877383.06892,   0.00030,274965267.64641,   0.00007,   0.00013,  -0.00047,-16087884.57749,   0.00000
494077135.90539,272375493.00615,-94514953.26301,   0.00179,   0.00040,  -0.00170,458830416.50532,   0.00030,274965267.64641,   0.00007,   0.00013,  -0.00047,-16134851.14109,   0.00000
494874618.22417,271164501.33689,-93557974.48047,   0.00179,   0.00040,  -0.00169,458800533.17256,   0.00030,274965267.64641,   0.00007,   0.00013,  -0.00047,-16164734.47385,   0.00000
495642564.16078,269923973.28545,-92606902.97437,   0.00180,   0.00039,  -0.00167,458762256.45744,   0.00030,274965267.64641,   0.00007,   0.00013,  -0.00047,-16203011.18897,   0.00000
496410510.09738,268683445.23401,-91644016.91539,   0.00181,   0.00038,  -0.00166,458729527.80892,   0.00030,274965267.64641,   0.00007,   0.00013,  -0.00047,-16235739.83749,   0.00000
497169595.11934,267422241.71504,-90687038.13285,   0.00181,   0.00038,  -0.00165,458705211.10140,   0.00030,274965267.64641,   0.00007,   0.00013,  -0.00047,-16260056.54501,   0.00000
497949355.60881,266169899.11073,-89718244.79744,   0.00182,   0.00037,  -0.00164,458703538.84377,   0.00030,274965267.64641,   0.00007,   0.00013,  -0.00047,-16261728.80264,   0.00000
498699579.71611,264888020.12424,-88755358.73847,   0.00182,   0.00036,  -0.00162,458693722.23844,   0.00030,274965267.64641,   0.00007,   0.00013,  -0.00047,-16271545.40797,   0.00000
499429128.35589,263597280.22310,-87786565.40306,   0.00183,   0.00035,  -0.00161,458676643.93157,   0.00030,274965267.64641,   0.00007,   0.00013,  -0.00047,-16288623.71484,   0.00000
500179352.46319,262315401.23661,-86817772.06765,   0.00184,   0.00035,  -0.00160,458689419.39524,   0.00030,274965267.64641,   0.00007,   0.00013,  -0.00047,-16275848.25117,   0.00000
500929576.57049,261033522.25012,-85843071.45580,   0.00184,   0.00034,  -0.00159,458711922.01733,   0.00030,274965267.64641,   0.00007,   0.00013,  -0.00047,-16253345.62908,   0.00000
501650264.29561,259722106.88146,-84868370.84396,   0.00185,   0.00033,  -0.00157,458723029.74608,   0.00030,274965267.64641,   0.00007,   0.00013,  -0.00047,-16242237.90033,   0.00000
502370952.02073,258410691.51279,-83893670.23211,   0.00185,   0.00032,  -0.00156,458747291.57758,   0.00030,274965267.64641,   0.00007,   0.00013,  -0.00047,-16217976.06884,   0.00000
503082778.83120,257078600.67660,-82913062.34383,   0.00186,   0.00032,  -0.00155,458774018.66021,   0.00030,274965267.64641,   0.00007,   0.00013,  -0.00047,-16191248.98620,   0.00000
503815281.10920,255755370.75507,-81932454.45555,   0.00187,   0.00031,  -0.00153,458831084.84101,   0.00030,274965267.64641,   0.00007,   0.00013,  -0.00047,-16134182.80540,   0.00000
504506432.45214,254414419.00422,-80951846.56726,   0.00187,   0.00030,  -0.00152,458867443.24978,   0.00030,274965267.64641,   0.00007,   0.00013,  -0.00047,-16097824.39663,   0.00000
505209398.34796,253061652.70051,-79965331.40255,   0.00188,   0.00029,  -0.00151,458923712.20042,   0.00030,274965267.64641,   0.00007,   0.00013,  -0.00047,-16041555.44599,   0.00000
505921225.15843,251729561.86432,-78978816.23783,   0.00188,   0.00029,  -0.00150,459000751.93642,   0.00030,274965267.64641,   0.00007,   0.00013,  -0.00047,-15964515.70999,   0.00000
506594654.67207,250347259.17843,-77986393.79668,   0.00189,   0.00028,  -0.00148,459056580.23941,   0.00030,274965267.64641,   0.00007,   0.00013,  -0.00047,-15908687.40700,   0.00000
507297620.56788,248994492.87472,-76993971.35553,   0.00189,   0.00027,  -0.00147,459150339.67232,   0.00030,274965267.64641,   0.00007,   0.00013,  -0.00047,-15814927.97409,   0.00000
507971050.08152,247612190.18882,-76001548.91437,   0.00190,   0.00026,  -0.00146,459233346.45905,   0.00030,274965267.64641,   0.00007,   0.00013,  -0.00047,-15731921.18736,   0.00000
508644479.59516,246229887.50293,-75009126.47322,   0.00191,   0.00026,  -0.00144,459329944.91483,   0.00030,274965267.64641,   0.00007,   0.00013,  -0.00047,-15635322.73158,   0.00000
509317909.10880,244847584.81704,-74010796.75563,   0.00191,   0.00025,  -0.00143,459437271.55027,   0.00030,274965267.64641,   0.00007,   0.00013,  -0.00047,-15527996.09614,   0.00000
509982477.70779,243444606.66363,-73012467.03804,   0.00192,   0.00024,  -0.00142,459551282.68846,   0.00030,274965267.64641,   0.00007,   0.00013,  -0.00047,-15413984.95795,   0.00000
510626370.83925,242032767.59556,-72008230.04402,   0.00192,   0.00023,  -0.00141,459658996.46058,   0.00030,274965267.64641,   0.00007,   0.00013,  -0.00047,-15306271.18583,   0.00000
511282078.52358,240609113.97462,-71003993.05000,   0.00193,   0.00023,  -0.00139,459790911.96925,   0.00030,274965267.64641,   0.00007,   0.00013,  -0.00047,-15174355.67716,   0.00000
511925971.65504,239197274.90655,-69999756.05597,   0.00193,   0.00022,  -0.00138,459926229.89735,   0.00030,274965267.64641,   0.00007,   0.00013,  -0.00047,-15039037.74906,   0.00000
512561003.87185,237764760.37096,-68995519.06195,   0.00194,   0.00021,  -0.00137,460068543.43149,   0.00030,274965267.64641,   0.00007,   0.00013,  -0.00047,-14896724.21492,   0.00000
513196036.08866,236332245.83537,-67985374.79149,   0.00195,   0.00020,  -0.00135,460222080.81825,   0.00030,274965267.64641,   0.00007,   0.00013,  -0.00047,-14743186.82816,   0.00000
513831068.30547,234899731.29978,-66975230.52103,   0.00195,   0.00019,  -0.00134,460389525.45888,   0.00030,274965267.64641,   0.00007,   0.00013,  -0.00047,-14575742.18753,   0.00000
514457239.60763,233446541.29666,-65965086.25058,   0.00196,   0.00019,  -0.00133,460564277.39110,   0.00030,274965267.64641,   0.00007,   0.00013,  -0.00047,-14400990.25532,   0.00000
515083410.90978,231993351.29354,-64949034.70368,   0.00196,   0.00018,  -0.00131,460750518.03879,   0.00030,274965267.64641,   0.00007,   0.00013,  -0.00047,-14214749.60762,   0.00000
515688906.74441,230531300.37578,-63932983.15679,   0.00197,   0.00017,  -0.00130,460933372.34032,   0.00030,274965267.64641,   0.00007,   0.00013,  -0.00047,-14031895.30609,   0.00000
516285541.66439,229048573.99048,-62916931.60989,   0.00197,   0.00016,  -0.00129,461123805.00062,   0.00030,274965267.64641,   0.00007,   0.00013,  -0.00047,-13841462.64579,   0.00000
516911712.96655,227595383.98737,-61900880.06300,   0.00198,   0.00016,  -0.00127,461352159.27955,   0.00030,274965267.64641,   0.00007,   0.00013,  -0.00047,-13613108.36687,   0.00000
517508347.88653,226112657.60207,-60878921.23967,   0.00199,   0.00015,  -0.00126,461568375.58714,   0.00030,274965267.64641,   0.00007,   0.00013,  -0.00047,-13396892.05927,   0.00000
518084307.33898,224621070.30213,-59856962.41634,   0.00199,   0.00014,  -0.00125,461781215.47168,   0.00030,274965267.64641,   0.00007,   0.00013,  -0.00047,-13184052.17473,   0.00000
518672081.34431,223117668.44931,-58829096.31657,   0.00200,   0.00013,  -0.00123,462017211.99677,   0.00030,274965267.64641,   0.00007,   0.00013,  -0.00047,-12948055.64964,   0.00000
519268716.26428,221634942.06402,-57807137.49324,   0.00200,   0.00012,  -0.00122,462275838.46128,   0.00030,274965267.64641,   0.00007,   0.00013,  -0.00047,-12689429.18514,   0.00000
519835814.80209,220122679.29655,-56779271.39348,   0.00201,   0.00012,  -0.00121,462522726.92596,   0.00030,274965267.64641,   0.00007,   0.00013,  -0.00047,-12442540.72045,   0.00000
520402913.33989,218610416.52907,-55751405.29371,   0.00201,   0.00011,  -0.00119,462783822.48751,   0.00030,274965267.64641,   0.00007,   0.00013,  -0.00047,-12181445.15890,   0.00000
520990687.34521,217107014.67626,-54717631.91751,   0.00202,   0.00010,  -0.00118,463074591.23386,   0.00030,274965267.64641,   0.00007,   0.00013,  -0.00047,-11890676.41255,   0.00000
521528249.50084,215565215.52661,-53689765.81775,   0.00202,   0.00009,  -0.00117,463340588.04110,   0.00030,274965267.64641,   0.00007,   0.00013,  -0.00047,-11624679.60531,   0.00000
522095348.03864,214052952.75914,-52655992.44155,   0.00203,   0.00008,  -0.00115,463642242.22888,   0.00030,274965267.64641,   0.00007,   0.00013,  -0.00047,-11323025.41753,   0.00000
522653585.66179,212520014.52415,-51622219.06535,   0.00204,   0.00008,  -0.00114,463952303.65439,   0.00030,274965267.64641,   0.00007,   0.00013,  -0.00047,-11012963.99202,   0.00000
523191147.81741,210978215.37450,-50582538.41271,   0.00204,   0.00007,  -0.00113,464257072.56613,   0.00030,274965267.64641,   0.00007,   0.00013,  -0.00047,-10708195.08028,   0.00000
523740524.52591,209424601.67198,-49548765.03651,   0.00205,   0.00006,  -0.00111,464590024.04029,   0.00030,274965267.64641,   0.00007,   0.00013,  -0.00047,-10375243.60612,   0.00000
524278086.68153,207882802.52233,-48509084.38388,   0.00205,   0.00005,  -0.00110,464923399.71426,   0.00030,274965267.64641,   0.00007,   0.00013,  -0.00047,-10041867.93215,   0.00000
524815648.83715,206341003.37268,-47469403.73124,   0.00206,   0.00004,  -0.00109,465271018.05535,   0.00030,274965267.64641,   0.00007,   0.00013,  -0.00047,-9694249.59106,   0.00000
525344350.07813,204778528.75551,-46423815.80217,   0.00206,   0.00004,  -0.00107,465625601.65885,   0.00030,274965267.64641,   0.00007,   0.00013,  -0.00047,-9339665.98757,   0.00000
525873051.31910,203216054.13834,-45384135.14953,   0.00207,   0.00003,  -0.00106,465996291.25807,   0.00030,274965267.64641,   0.00007,   0.00013,  -0.00047,-8968976.38835,   0.00000
526381077.09254,201644718.60652,-44338547.22046,   0.00207,   0.00002,  -0.00105,466361862.72223,   0.00030,274965267.64641,   0.00007,   0.00013,  -0.00047,-8603404.92418,   0.00000
526909778.33352,200082243.98934,-43292959.29139,   0.00208,   0.00001,  -0.00103,466759433.76327,   0.00030,274965267.64641,   0.00007,   0.00013,  -0.00047,-8205833.88314,   0.00000
527408943.19231,198490232.99000,-42247371.36232,   0.00208,   0.00000,  -0.00102,467148330.93727,   0.00030,274965267.64641,   0.00007,   0.00013,  -0.00047,-7816936.70914,   0.00000
527916968.96576,196918897.45817,-41201783.43325,   0.00209,  -0.00001,  -0.00100,467556747.03096,   0.00030,274965267.64641,   0.00007,   0.00013,  -0.00047,-7408520.61545,   0.00000
528416133.82455,195326886.45882,-40150288.22774,   0.00210,  -0.00001,  -0.00099,467972714.82378,   0.00030,274965267.64641,   0.00007,   0.00013,  -0.00047,-6992552.82263,   0.00000
528924159.59800,193755550.92700,-39098793.02223,   0.00210,  -0.00002,  -0.00098,468408085.99697,   0.00030,274965267.64641,   0.00007,   0.00013,  -0.00047,-6557181.64944,   0.00000
529402648.98927,192154679.01300,-38047297.81673,   0.00211,  -0.00003,  -0.00096,468834917.59013,   0.00030,274965267.64641,   0.00007,   0.00013,  -0.00047,-6130350.05628,   0.00000
529901813.84806,190562668.01365,-36995802.61122,   0.00211,  -0.00004,  -0.00095,469293754.01803,   0.00030,274965267.64641,   0.00007,   0.00013,  -0.00047,-5671513.62838,   0.00000
530380303.23933,188961796.09965,-35944307.40571,   0.00212,  -0.00005,  -0.00094,469749072.84432,   0.00030,274965267.64641,   0.00007,   0.00013,  -0.00047,-5216194.80209,   0.00000
530849931.71595,187340248.71812,-34886904.92377,   0.00212,  -0.00005,  -0.00092,470212450.87557,   0.00030,274965267.64641,   0.00007,   0.00013,  -0.00047,-4752816.77084,   0.00000
531328421.10722,185739376.80412,-33829502.44183,   0.00213,  -0.00006,  -0.00091,470694915.06015,   0.00030,274965267.64641,   0.00007,   0.00013,  -0.00047,-4270352.58626,   0.00000
531806910.49849,184138504.89012,-32772099.95989,   0.00213,  -0.00007,  -0.00090,471191554.73654,   0.00030,274965267.64641,   0.00007,   0.00013,  -0.00047,-3773712.90988,   0.00000
532276538.97510,182516957.50859,-31714697.47794,   0.00214,  -0.00008,  -0.00088,471697705.50950,   0.00030,274965267.64641,   0.00007,   0.00013,  -0.00047,-3267562.13692,   0.00000
532725491.98420,180886549.21241,-30657294.99600,   0.00214,  -0.00009,  -0.00087,472200303.66645,   0.00030,274965267.64641,   0.00007,   0.00013,  -0.00047,-2764963.97996,   0.00000
533203981.37547,179285677.29841,-29593985.23762,   0.00215,  -0.00010,  -0.00085,472738209.56913,   0.00030,274965267.64641,   0.00007,   0.00013,  -0.00047,-2227058.07728,   0.00000
533652934.38456,177655269.00223,-28536582.75568,   0.00215,  -0.00010,  -0.00084,473269059.87578,   0.00030,274965267.64641,   0.00007,   0.00013,  -0.00047,-1696207.77063,   0.00000
534101887.39365,176024860.70605,-27473272.99730,   0.00216,  -0.00011,  -0.00083,473812947.86054,   0.00030,274965267.64641,   0.00007,   0.00013,  -0.00047,-1152319.78587,   0.00000
534550840.40275,174394452.40987,-26409963.23893,   0.00216,  -0.00012,  -0.00081,474370934.37962,   0.00030,274965267.64641,   0.00007,   0.00013,  -0.00047,-594333.26679,   0.00000
534979117.94431,172755183.19904,-25346653.48055,   0.00217,  -0.00013,  -0.00080,474925207.75220,   0.00030,274965267.64641,   0.00007,   0.00013,  -0.00047,-40059.89421,   0.00000
535010201.99398,172642299.01868,-25272624.36227,   0.00217,  -0.00013,  -0.00080,474965267.15527,   0.00030,274965267.64641,   0.00007,   0.00013,  -0.00047,  -0.49115,   0.00000
534828949.17233,170983658.89223,-24246914.60829,   0.00217,  -0.00014,  -0.00078,474965267.15527,   0.00030,274967519.38848,   0.00007,   0.00013,  -0.00047,   0.00000,   2.00000
534617825.04893,169195954.29048,-23152498.07546,   0.00218,  -0.00015,  -0.00077,475549630.72965,   0.00030,274969926.64785,   0.00008,   0.00013,  -0.00047,   0.00000,   2.00000
534394145.70945,167411666.86779,-22052108.97319,   0.00218,  -0.00015,  -0.00076,475582722.85862,   0.00030,274972463.41749,   0.00008,   0.00013,  -0.00047,   0.00000,   2.00000
534154641.61976,165621879.63795,-20953482.14099,   0.00219,  -0.00016,  -0.00074,475581288.61037,   0.00031,274974986.34964,   0.00008,   0.00013,  -0.00047,  -0.00000,   2.00000
533899765.94472,163830929.08701,-19861648.20983,   0.00219,  -0.00017,  -0.00073,475598305.58986,   0.00031,274977572.01379,   0.00009,   0.00013,  -0.00047,   0.00000,   2.00000
533631275.55355,162039298.84860,-18764939.29369,   0.00220,  -0.00018,  -0.00072,475613820.97900,   0.00031,274980214.03629,   0.00009,   0.00012,  -0.00047,   0.00000,   2.00000
533347864.35168,160242389.70383,-17664143.67910,   0.00221,  -0.00019,  -0.00070,475611731.09814,   0.00031,274982839.11642,   0.00009,   0.00012,  -0.00047,   0.00000,   2.00000
533045907.17949,158429575.17382,-16569780.95501,   0.00221,  -0.00020,  -0.00069,475642677.21930,   0.00032,274985584.78196,   0.00009,   0.00012,  -0.00047,   0.00000,   2.00000
532733132.83288,156631201.69906,-15477102.17468,   0.00222,  -0.00020,  -0.00067,475645097.15229,   0.00032,274988331.91804,   0.00010,   0.00012,  -0.00047,   0.00000,   2.00000
532406811.25644,154832461.40188,-14379762.61137,   0.00222,  -0.00021,  -0.00066,475660864.39157,   0.00032,274991136.17028,   0.00010,   0.00012,  -0.00047,   0.00000,   2.00000
532066363.23319,153033324.38823,-13283714.13125,   0.00223,  -0.00022,  -0.00065,475677263.49043,   0.00032,274994000.04646,   0.00010,   0.00012,  -0.00047,  -0.00000,   2.00000
531711886.70664,151233900.79371,-12189022.65952,   0.00223,  -0.00023,  -0.00063,475693677.79094,   0.00033,274996923.47380,   0.00011,   0.00012,  -0.00047,   0.00000,   2.00000
531337940.83977,149414300.21032,-11101728.51239,   0.00224,  -0.00024,  -0.00062,475707064.80741,   0.00033,274999893.68979,   0.00011,   0.00012,  -0.00047,  -0.00000,   2.00000
530954663.18124,147609568.82579,-10004452.00464,   0.00224,  -0.00025,  -0.00060,475708486.93483,   0.00033,275002860.45913,   0.00011,   0.00012,  -0.00047,   0.00000,   2.00000
530558633.47285,145809961.49276,-8914217.96475,   0.00225,  -0.00025,  -0.00059,475742994.16401,   0.00033,275005962.43893,   0.00012,   0.00012,  -0.00047,   0.00000,   2.00000
530147487.82157,144005196.61860,-7825914.10874,   0.00225,  -0.00026,  -0.00058,475741779.95228,   0.00034,275009049.46221,   0.00012,   0.00012,  -0.00047,  -0.00000,   2.00000
529722781.95101,142200620.56796,-6739241.61582,   0.00226,  -0.00027,  -0.00056,475758209.72546,   0.00034,275012195.65194,   0.00012,   0.00012,  -0.00047,  -0.00000,   2.00000
529284848.82236,140396379.47669,-5648368.16018,   0.00226,  -0.00028,  -0.00055,475774440.71887,   0.00034,275015400.02948,   0.00013,   0.00011,  -0.00047,   0.00000,   2.00000
528833295.41426,138592488.92010,-4565153.53367,   0.00227,  -0.00029,  -0.00053,475791144.38221,   0.00035,275018664.44262,   0.00013,   0.00011,  -0.00047,   0.00000,   2.00000
528367015.83232,136783544.30668,-3477998.43803,   0.00227,  -0.00030,  -0.00052,475789835.01846,   0.00035,275021912.87536,   0.00013,   0.00011,  -0.00047,  -0.00000,   2.00000
527889128.37582,134980777.06140,-2392588.31888,   0.00228,  -0.00030,  -0.00051,475823975.46225,   0.00035,275025294.82085,   0.00014,   0.00011,  -0.00047,   0.00000,   2.00000
527396436.18540,133172984.28605,-1309175.63942,   0.00228,  -0.00031,  -0.00049,475822918.14132,   0.00035,275028661.40754,   0.00014,   0.00011,  -0.00047,   0.00000,   2.00000
526896476.70514,131386068.88929,-227721.82304,   0.00229,  -0.00032,  -0.00048,475842298.18887,   0.00036,275032098.96622,   0.00014,   0.00011,  -0.00047,   0.00000,   2.00000
526377855.20290,129579818.27746,851711.77976,   0.00229,  -0.00033,  -0.00046,475855931.80124,   0.00036,275035583.05586,   0.00015,   0.00011,  -0.00047,   0.00000,   2.00000
525852326.63423,127794685.79469,1929056.95669,   0.00230,  -0.00034,  -0.00045,475875209.89904,   0.00036,275039137.40827,   0.00015,   0.00011,  -0.00047,   0.00000,   2.00000
525308225.70247,125990374.67684,3004281.18231,   0.00230,  -0.00034,  -0.00044,475888979.34203,   0.00037,275042738.54157,   0.00016,   0.00011,  -0.00047,  -0.00000,   2.00000
524755691.31413,124201358.56890,4077454.25268,   0.00230,  -0.00035,  -0.00042,475890595.15966,   0.00037,275046334.74905,   0.00016,   0.00011,  -0.00047,   0.00000,   2.00000
524186346.86544,122399354.30791,5154137.82996,   0.00231,  -0.00036,  -0.00041,475922193.68615,   0.00037,275050053.35447,   0.00016,   0.00010,  -0.00047,  -0.00000,   2.00000
523609015.39149,120612763.24402,6222828.42428,   0.00231,  -0.00037,  -0.00039,475923579.94087,   0.00038,275053765.62190,   0.00017,   0.00010,  -0.00047,   0.00000,   2.00000
523019208.48664,118827479.72988,7295093.82594,   0.00232,  -0.00038,  -0.00038,475940280.83429,   0.00038,275057536.69629,   0.00017,   0.00010,  -0.00047,   0.00000,   2.00000
522417579.41678,117043671.19246,8359086.65666,   0.00232,  -0.00039,  -0.00037,475956484.10087,   0.00038,275061364.29800,   0.00018,   0.00010,  -0.00047,   0.00000,   2.00000
521810011.10067,115281657.25843,9426496.43880,   0.00233,  -0.00039,  -0.00035,475975592.09364,   0.00039,275065260.60820,   0.00018,   0.00010,  -0.00047,   0.00000,   2.00000
521182041.37166,113494456.95514,10491883.98081,   0.00233,  -0.00040,  -0.00034,475972279.47402,   0.00039,275069129.84956,   0.00018,   0.00010,  -0.00047,  -0.00000,   2.00000
520551376.71951,111735827.62835,11548376.35013,   0.00234,  -0.00041,  -0.00032,476007993.09868,   0.00040,275073138.65184,   0.00019,   0.00010,  -0.00047,   0.00000,   2.00000
519899910.19934,109951974.49354,12608732.85061,   0.00234,  -0.00042,  -0.00031,476005228.12547,   0.00040,275077122.25193,   0.00019,   0.00009,  -0.00047,  -0.00000,   2.00000
519243466.49253,108190318.98823,13666426.24917,   0.00235,  -0.00043,  -0.00029,476023811.85737,   0.00040,275081171.97469,   0.00020,   0.00009,  -0.00047,   0.00000,   2.00000
518575632.31913,106430557.01608,14721470.87597,   0.00235,  -0.00043,  -0.00028,476040205.24960,   0.00041,275085278.25381,   0.00020,   0.00009,  -0.00047,  -0.00000,   2.00000
517896527.47533,104672773.43099,15773819.03570,   0.00236,  -0.00044,  -0.00027,476056601.35189,   0.00041,275089440.93563,   0.00021,   0.00009,  -0.00047,   0.00000,   2.00000
517206272.29964,102917052.01570,16823423.84471,   0.00236,  -0.00045,  -0.00025,476072999.65497,   0.00041,275093659.86315,   0.00021,   0.00009,  -0.00047,   0.00000,   2.00000
516511891.13970,101183902.79838,17870164.54978,   0.00237,  -0.00046,  -0.00024,476091250.24298,   0.00042,275097942.77606,   0.00021,   0.00009,  -0.00047,   0.00000,   2.00000
515797208.27335,99425543.94136,18914884.81025,   0.00237,  -0.00047,  -0.00022,476088420.70829,   0.00042,275102198.96014,   0.00022,   0.00009,  -0.00047,   0.00000,   2.00000
515081284.16746,97696928.33057,19955908.12176,   0.00238,  -0.00048,  -0.00021,476123836.01625,   0.00043,275106592.89047,   0.00022,   0.00008,  -0.00047,   0.00000,   2.00000
514352163.45476,95963575.13528,20994825.36747,   0.00238,  -0.00048,  -0.00020,476122839.91411,   0.00043,275110967.45527,   0.00023,   0.00008,  -0.00047,  -0.00000,   2.00000
513618833.51878,94253003.90966,22036587.02409,   0.00239,  -0.00049,  -0.00018,476141547.32600,   0.00043,275115407.52798,   0.00023,   0.00008,  -0.00047,   0.00000,   2.00000
512868822.33962,92524461.91473,23069593.57747,   0.00239,  -0.00050,  -0.00017,476155354.15020,   0.00044,275119891.82133,   0.00024,   0.00008,  -0.00047,  -0.00000,   2.00000
512113021.39108,90811671.27150,24100437.63851,   0.00240,  -0.00051,  -0.00015,476155899.78872,   0.00044,275124362.92839,   0.00024,   0.00008,  -0.00047,   0.00000,   2.00000
511349955.84051,89108761.11537,25127298.44592,   0.00240,  -0.00052,  -0.00014,476189230.88104,   0.00045,275128962.45739,   0.00025,   0.00008,  -0.00047,   0.00000,   2.00000
510573055.55289,87401021.74616,26157913.59212,   0.00240,  -0.00052,  -0.00012,476189173.01822,   0.00045,275133545.70898,   0.00025,   0.00007,  -0.00046,   0.00000,   2.00000
509790209.35710,85703505.59557,27178539.40206,   0.00241,  -0.00053,  -0.00011,476221525.75273,   0.00046,275138252.91130,   0.00026,   0.00007,  -0.00046,  -0.00000,   2.00000
508994664.99912,84001262.85297,28197081.81297,   0.00241,  -0.00054,  -0.00010,476220532.03570,   0.00046,275142939.31554,   0.00026,   0.00007,  -0.00046,   0.00000,   2.00000
508195941.57427,82322299.60945,29218196.42314,   0.00242,  -0.00055,  -0.00008,476238973.64024,   0.00046,275147689.13426,   0.00027,   0.00007,  -0.00046,  -0.00000,   2.00000
507388881.89874,80646268.93202,30230271.92902,   0.00242,  -0.00056,  -0.00007,476253935.56624,   0.00047,275152487.06819,   0.00027,   0.00007,  -0.00046,   0.00000,   2.00000
506580214.68046,78993713.10843,31239032.64895,   0.00243,  -0.00056,  -0.00005,476271064.62741,   0.00047,275157342.31306,   0.00028,   0.00007,  -0.00046,   0.00000,   2.00000
505750244.99629,77315713.15581,32251638.05537,   0.00243,  -0.00057,  -0.00004,476270046.03206,   0.00048,275162175.91023,   0.00028,   0.00006,  -0.00046,  -0.00000,   2.00000
504923434.53514,75669175.17691,33253808.24132,   0.00244,  -0.00058,  -0.00003,476302904.31745,   0.00048,275167135.10469,   0.00029,   0.00006,  -0.00046,  -0.00000,   2.00000
504083119.44589,74017768.28650,34259739.38153,   0.00244,  -0.00059,  -0.00001,476303068.79907,   0.00049,275172077.28107,   0.00029,   0.00006,  -0.00046,   0.00000,   2.00000
503243176.16729,72390106.03147,35256452.36262,   0.00245,  -0.00059,   0.00000,476318605.03026,   0.00049,275177069.34091,   0.00030,   0.00006,  -0.00046,  -0.00000,   2.00000
502385292.03582,70744905.24021,36255658.60091,   0.00245,  -0.00060,   0.00002,476334857.91562,   0.00050,275182114.28248,   0.00030,   0.00006,  -0.00045,   0.00000,   2.00000
501528195.72741,69123573.71416,37245600.30854,   0.00246,  -0.00061,   0.00003,476350205.20606,   0.00050,275187207.92183,   0.00031,   0.00005,  -0.00045,   0.00000,   2.00000
500662731.80935,67505472.07158,38232122.22189,   0.00246,  -0.00062,   0.00005,476365950.85934,   0.00050,275192351.82370,   0.00031,   0.00005,  -0.00045,   0.00000,   2.00000
499792027.11960,65903049.33057,39222369.17711,   0.00246,  -0.00063,   0.00006,476366970.46828,   0.00051,275197481.47133,   0.00032,   0.00005,  -0.00045,  -0.00000,   2.00000
498918344.86426,64312145.30875,40201886.34620,   0.00247,  -0.00063,   0.00007,476398017.99646,   0.00051,275202728.08726,   0.00032,   0.00005,  -0.00045,  -0.00000,   2.00000
498031414.41824,62716286.81355,41185195.66003,   0.00247,  -0.00064,   0.00009,476398349.89890,   0.00052,275207956.97774,   0.00033,   0.00004,  -0.00045,   0.00000,   2.00000
497138086.29950,61123848.68089,42159237.57695,   0.00248,  -0.00065,   0.00010,476412459.58590,   0.00052,275213228.46257,   0.00033,   0.00004,  -0.00045,   0.00000,   2.00000
496249213.94826,59563796.64045,43128104.03832,   0.00248,  -0.00066,   0.00012,476445324.00569,   0.00053,275218624.45165,   0.00034,   0.00004,  -0.00044,   0.00000,   2.00000
495347236.12433,57998751.52469,44100771.25249,   0.00249,  -0.00066,   0.00013,476445720.49881,   0.00053,275224002.25916,   0.00035,   0.00004,  -0.00044,   0.00000,   2.00000
494443811.25208,56449379.96966,45065752.30497,   0.00249,  -0.00067,   0.00014,476443264.30025,   0.00054,275229349.36920,   0.00035,   0.00004,  -0.00044,   0.00000,   2.00000
493537093.82537,54911957.37780,46025476.20663,   0.00250,  -0.00068,   0.00016,476475321.16241,   0.00054,275234817.28961,   0.00036,   0.00003,  -0.00044,   0.00000,   2.00000
492621463.69791,53378022.44786,46987305.18822,   0.00250,  -0.00069,   0.00017,476492439.72963,   0.00055,275240340.01261,   0.00036,   0.00003,  -0.00044,   0.00000,   2.00000
491704858.19322,51859694.61613,47941517.14686,   0.00250,  -0.00069,   0.00019,476489685.28065,   0.00055,275245829.97472,   0.00037,   0.00003,  -0.00044,   0.00000,   2.00000
490772637.15817,50324272.68298,48892135.32923,   0.00251,  -0.00070,   0.00020,476504731.68957,   0.00056,275251365.57165,   0.00037,   0.00003,  -0.00043,   0.00000,   2.00000
489850870.17440,48833717.95422,49839073.78688,   0.00251,  -0.00071,   0.00022,476520349.09880,   0.00056,275256949.04328,   0.00038,   0.00002,  -0.00043,   0.00000,   2.00000
488913680.71537,47326101.91649,50782376.52786,   0.00252,  -0.00072,   0.00023,476535378.60556,   0.00057,275262577.66503,   0.00039,   0.00002,  -0.00043,   0.00000,   2.00000
487976748.00539,45842757.46697,51727666.26644,   0.00252,  -0.00072,   0.00024,476552570.84454,   0.00057,275268260.74321,   0.00039,   0.00002,  -0.00043,  -0.00000,   2.00000
487044038.85159,44383682.39409,52663578.33526,   0.00253,  -0.00073,   0.00026,476565793.94200,   0.00058,275273980.52137,   0.00040,   0.00002,  -0.00043,   0.00000,   2.00000
486105034.80724,42928233.68744,53595796.30018,   0.00253,  -0.00074,   0.00027,476580797.61076,   0.00058,275279744.70282,   0.00040,   0.00001,  -0.00043,  -0.00000,   2.00000
485155200.12584,41467513.80573,54526278.09654,   0.00253,  -0.00075,   0.00029,476579341.35524,   0.00059,275285480.48559,   0.00041,   0.00001,  -0.00042,   0.00000,   2.00000
484199193.90394,40010469.89082,55453050.72838,   0.00254,  -0.00075,   0.00030,476594318.69436,   0.00060,275291260.50718,   0.00041,   0.00001,  -0.00042,   0.00000,   2.00000
483259912.96070,38607401.16866,56374108.12821,   0.00254,  -0.00076,   0.00031,476625309.96194,   0.00060,275297155.23358,   0.00042,   0.00001,  -0.00042,  -0.00000,   2.00000
482300991.77783,37178303.79720,57293460.67492,   0.00255,  -0.00077,   0.00033,476623953.19217,   0.00061,275303021.30055,   0.00043,   0.00000,  -0.00042,   0.00000,   2.00000
481347458.63568,35773512.47025,58203488.59231,   0.00255,  -0.00077,   0.00034,476636361.73212,   0.00061,275308919.61798,   0.00043,   0.00000,  -0.00041,   0.00000,   2.00000
480381271.00367,34363304.95411,59117517.81075,   0.00256,  -0.00078,   0.00036,476636931.49719,   0.00062,275314797.67101,   0.00044,  -0.00000,  -0.00041,  -0.00000,   2.00000
479423659.59566,32986617.31871,60025701.73705,   0.00256,  -0.00079,   0.00037,476667581.08975,   0.00062,275320788.64350,   0.00044,  -0.00000,  -0.00041,  -0.00000,   2.00000
478460663.39863,31613632.73946,60930119.63323,   0.00256,  -0.00080,   0.00038,476682222.39089,   0.00063,275326821.18459,   0.00045,  -0.00001,  -0.00041,  -0.00000,   2.00000
477498705.46427,30255652.48760,61827442.08172,   0.00257,  -0.00080,   0.00040,476677872.42014,   0.00063,275332810.89654,   0.00046,  -0.00001,  -0.00041,   0.00000,   2.00000
476534557.59595,28910733.71398,62724372.59391,   0.00257,  -0.00081,   0.00041,476710851.65259,   0.00064,275338923.46281,   0.00046,  -0.00001,  -0.00040,   0.00000,   2.00000
475560102.91056,27560187.54014,63619765.76517,   0.00258,  -0.00082,   0.00043,476709208.68019,   0.00064,275345004.79418,   0.00047,  -0.00001,  -0.00040,  -0.00000,   2.00000
474592282.60747,26233898.69290,64505903.30242,   0.00258,  -0.00082,   0.00044,476720726.62547,   0.00065,275351113.35877,   0.00047,  -0.00002,  -0.00040,   0.00000,   2.00000
473626748.04309,24931993.97513,65393914.45908,   0.00259,  -0.00083,   0.00046,476736869.96667,   0.00066,275357269.53695,   0.00048,  -0.00002,  -0.00040,   0.00000,   2.00000
472653353.82878,23624192.65473,66274942.44765,   0.00259,  -0.00084,   0.00047,476732627.79102,   0.00066,275363382.54407,   0.00049,  -0.00002,  -0.00039,   0.00000,   2.00000
471680791.45618,22329570.50429,67149864.65947,   0.00259,  -0.00084,   0.00048,476762889.69967,   0.00067,275369605.91801,   0.00049,  -0.00003,  -0.00039,   0.00000,   2.00000
470710869.66838,21059352.32595,68026637.29921,   0.00260,  -0.00085,   0.00050,476778891.16404,   0.00067,275375875.74789,   0.00050,  -0.00003,  -0.00039,   0.00000,   2.00000
469733293.18938,19783110.64515,68896515.76618,   0.00260,  -0.00086,   0.00051,476774524.12159,   0.00068,275382101.19715,   0.00050,  -0.00003,  -0.00038,   0.00000,   2.00000
468760955.15807,18531126.10906,69762755.91576,   0.00261,  -0.00086,   0.00053,476787795.89077,   0.00068,275388360.90025,   0.00051,  -0.00003,  -0.00038,  -0.00000,   2.00000
467790140.12647,17292426.70867,70622781.41867,   0.00261,  -0.00087,   0.00054,476817728.29530,   0.00069,275394728.90827,   0.00052,  -0.00004,  -0.00038,   0.00000,   2.00000
466819105.21808,16068276.66434,71481649.83212,   0.00262,  -0.00088,   0.00055,476814923.08478,   0.00070,275401058.85967,   0.00052,  -0.00004,  -0.00038,  -0.00000,   2.00000
465853755.08006,14868304.36798,72336905.89083,   0.00262,  -0.00088,   0.00057,476827878.63602,   0.00070,275407421.10010,   0.00053,  -0.00004,  -0.00037,  -0.00000,   2.00000
464878562.49537,13662147.04774,73190936.46254,   0.00262,  -0.00089,   0.00058,476825843.25567,   0.00071,275413748.63413,   0.00054,  -0.00005,  -0.00037,   0.00000,   2.00000
463905477.93111,12469349.24401,74038666.57524,   0.00263,  -0.00090,   0.00060,476855444.64784,   0.00071,275420182.73234,   0.00054,  -0.00005,  -0.00037,   0.00000,   2.00000
462938460.68274,11300701.68409,74882802.77961,   0.00263,  -0.00090,   0.00061,476868175.49876,   0.00072,275426647.60400,   0.00055,  -0.00005,  -0.00036,   0.00000,   2.00000
461974132.73753,10146124.95826,75720534.90072,   0.00264,  -0.00091,   0.00062,476862203.41464,   0.00073,275433059.54569,   0.00055,  -0.00006,  -0.00036,   0.00000,   2.00000
461003648.73906,8995223.43843,76559973.17948,   0.00264,  -0.00092,   0.00064,476878581.22026,   0.00073,275439518.60234,   0.00056,  -0.00006,  -0.00036,   0.00000,   2.00000
460032302.60001,7847635.50778,77390264.62507,   0.00264,  -0.00092,   0.00065,476889285.52984,   0.00074,275445999.20720,   0.00057,  -0.00006,  -0.00035,   0.00000,   2.00000
459064837.43260,6724299.92294,78222436.23550,   0.00265,  -0.00093,   0.00067,476904506.88843,   0.00074,275452521.41234,   0.00057,  -0.00006,  -0.00035,   0.00000,   2.00000
458106699.56356,5624752.22848,79045697.75874,   0.00265,  -0.00094,   0.00068,476913815.99969,   0.00075,275459058.53806,   0.00058,  -0.00007,  -0.00035,  -0.00000,   2.00000
457145392.15157,4528613.30636,79865262.95418,   0.00266,  -0.00094,   0.00069,476927144.80566,   0.00076,275465628.49303,   0.00059,  -0.00007,  -0.00034,  -0.00000,   2.00000
456188273.99138,3456641.05831,80686717.56875,   0.00266,  -0.00095,   0.00071,476942169.05869,   0.00076,275472238.67698,   0.00059,  -0.00007,  -0.00034,   0.00000,   2.00000
455234373.03036,2398269.35050,81502086.26889,   0.00266,  -0.00095,   0.00072,476935558.14198,   0.00077,275478791.99669,   0.00060,  -0.00008,  -0.00034,  -0.00000,   2.00000
454284104.24502,1353286.73825,82311011.51904,   0.00267,  -0.00096,   0.00074,476964215.23807,   0.00077,275485446.62575,   0.00060,  -0.00008,  -0.00033,   0.00000,   2.00000
453324350.55433,301517.65218,83119050.71268,   0.00267,  -0.00097,   0.00075,476961869.66229,   0.00078,275492063.23416,   0.00061,  -0.00008,  -0.00033,  -0.00000,   2.00000
452382012.72147,-705925.45555,83923934.60432,   0.00268,  -0.00097,   0.00076,476972127.14117,   0.00079,275498698.35942,   0.00062,  -0.00009,  -0.00033,   0.00000,   2.00000
451429651.22464,-1730923.34746,84719592.07952,   0.00268,  -0.00098,   0.00078,476983401.80040,   0.00079,275505356.51014,   0.00062,  -0.00009,  -0.00032,   0.00000,   2.00000
450492150.95755,-2711398.71744,85517468.42668,   0.00268,  -0.00098,   0.00079,476996555.80467,   0.00080,275512045.92104,   0.00063,  -0.00009,  -0.00032,  -0.00000,   2.00000
449552095.59619,-3688718.84065,86311705.42745,   0.00269,  -0.00099,   0.00081,477009434.05603,   0.00080,275518765.21109,   0.00064,  -0.00010,  -0.00032,  -0.00000,   2.00000
448612441.51664,-4663170.92688,87097027.22290,   0.00269,  -0.00100,   0.00082,477019057.02632,   0.00081,275525499.62598,   0.00064,  -0.00010,  -0.00031,   0.00000,   2.00000
447680971.06222,-5603472.04863,87887522.60127,   0.00270,  -0.00100,   0.00083,477016639.09478,   0.00082,275532194.96185,   0.00065,  -0.00010,  -0.00031,   0.00000,   2.00000
446746831.73601,-6551226.19354,88665912.35970,   0.00270,  -0.00101,   0.00085,477042935.19247,   0.00082,275538980.33756,   0.00065,  -0.00011,  -0.00031,  -0.00000,   2.00000
445823909.69358,-7465253.97515,89444295.52530,   0.00270,  -0.00101,   0.00086,477037096.35218,   0.00083,275545710.93796,   0.00066,  -0.00011,  -0.00030,   0.00000,   2.00000
444898772.50897,-8376298.23726,90219115.46042,   0.00271,  -0.00102,   0.00088,477049644.70224,   0.00084,275552469.59664,   0.00067,  -0.00011,  -0.00030,   0.00000,   2.00000
443981809.86865,-9263905.48868,90990706.17999,   0.00271,  -0.00102,   0.00089,477060485.17637,   0.00084,275559248.46213,   0.00067,  -0.00012,  -0.00029,   0.00000,   2.00000
443062765.02895,-10148587.57698,91758748.10586,   0.00272,  -0.00103,   0.00090,477072950.00788,   0.00085,275566054.73874,   0.00068,  -0.00012,  -0.00029,   0.00000,   2.00000
442152066.63281,-11009902.84495,92523591.98549,   0.00272,  -0.00103,   0.00092,477083653.03868,   0.00085,275572880.33101,   0.00069,  -0.00012,  -0.00029,   0.00000,   2.00000
441249804.45904,-11847920.27463,93285259.37018,   0.00272,  -0.00104,   0.00093,477094256.71769,   0.00086,275579724.65369,   0.00069,  -0.00013,  -0.00028,   0.00000,   2.00000
440341279.63179,-12693920.48567,94041293.67601,   0.00273,  -0.00104,   0.00094,477087984.09764,   0.00087,275586511.69271,   0.00070,  -0.00013,  -0.00028,   0.00000,   2.00000
439445735.43709,-13505880.51665,94796303.67906,   0.00273,  -0.00105,   0.00096,477116960.88261,   0.00087,275593400.26159,   0.00071,  -0.00013,  -0.00027,  -0.00000,   2.00000
438551325.69727,-14305139.06894,95551289.75991,   0.00274,  -0.00106,   0.00097,477112316.23538,   0.00088,275600238.54276,   0.00071,  -0.00014,  -0.00027,   0.00000,   2.00000
437658266.66749,-15102100.29063,96297645.53815,   0.00274,  -0.00106,   0.00099,477120883.07155,   0.00089,275607086.21760,   0.00072,  -0.00014,  -0.00027,  -0.00000,   2.00000
436781655.84174,-15865486.69697,97037813.65882,   0.00274,  -0.00107,   0.00100,477146022.21095,   0.00089,275614017.80990,   0.00072,  -0.00014,  -0.00026,   0.00000,   2.00000
435898576.74029,-16626881.55783,97781249.17744,   0.00275,  -0.00107,   0.00101,477126236.48776,   0.00090,275620830.57131,   0.00073,  -0.00015,  -0.00026,   0.00000,   2.00000
435032140.86165,-17354793.41478,98518506.91902,   0.00275,  -0.00108,   0.00103,477151133.05095,   0.00091,275627726.25998,   0.00074,  -0.00015,  -0.00025,  -0.00000,   2.00000
434164193.03568,-18080222.15537,99252355.65292,   0.00275,  -0.00108,   0.00104,477163009.62763,   0.00091,275634645.83383,   0.00074,  -0.00015,  -0.00025,   0.00000,   2.00000
433305324.30478,-18782781.09394,99983226.51986,   0.00276,  -0.00109,   0.00106,477172887.28835,   0.00092,275641580.12700,   0.00075,  -0.00016,  -0.00024,  -0.00000,   2.00000
432437139.96555,-19493488.35887,100713923.94281,   0.00276,  -0.00109,   0.00107,477169864.58711,   0.00092,275648470.92334,   0.00076,  -0.00016,  -0.00024,  -0.00000,   2.00000
431578108.39775,-20181383.72569,101441676.82215,   0.00277,  -0.00110,   0.00108,477179620.77001,   0.00093,275655375.98130,   0.00076,  -0.00016,  -0.00024,   0.00000,   2.00000
430739541.91449,-20836397.29480,102158205.89212,   0.00277,  -0.00110,   0.00110,477200261.09072,   0.00094,275662344.25286,   0.00077,  -0.00017,  -0.00023,   0.00000,   2.00000
429899012.98780,-21478916.27676,102880173.18685,   0.00277,  -0.00110,   0.00111,477198879.93090,   0.00094,275669276.09905,   0.00078,  -0.00017,  -0.00023,   0.00000,   2.00000
429060483.78244,-22119666.48167,103593767.95223,   0.00278,  -0.00111,   0.00112,477206626.45310,   0.00095,275676212.84465,   0.00078,  -0.00017,  -0.00022,  -0.00000,   2.00000
428233844.67446,-22728103.01074,104308297.99917,   0.00278,  -0.00111,   0.00114,477199242.36874,   0.00096,275683086.11936,   0.00079,  -0.00018,  -0.00022,   0.00000,   2.00000
427403544.94453,-23344138.14623,105015750.82087,   0.00278,  -0.00112,   0.00115,477227448.36949,   0.00096,275690056.83925,   0.00079,  -0.00018,  -0.00021,   0.00000,   2.00000
426593410.10324,-23917316.39718,105720888.48475,   0.00279,  -0.00112,   0.00117,477234620.52840,   0.00097,275697029.54250,   0.00080,  -0.00018,  -0.00021,   0.00000,   2.00000
425773892.54344,-24499134.00739,106426105.92047,   0.00279,  -0.00113,   0.00118,477231365.44663,   0.00098,275703957.15524,   0.00081,  -0.00019,  -0.00020,   0.00000,   2.00000
424974608.68467,-25038222.27237,107129061.98783,   0.00280,  -0.00113,   0.00119,477238350.07845,   0.00098,275710886.02300,   0.00081,  -0.00019,  -0.00020,   0.00000,   2.00000
424171956.91159,-25585052.70377,107824896.73816,   0.00280,  -0.00114,   0.00121,477266348.58546,   0.00099,275717911.05118,   0.00082,  -0.00019,  -0.00019,   0.00000,   2.00000
423384657.36494,-26100470.49703,108516963.01034,   0.00280,  -0.00114,   0.00122,477254640.31850,   0.00100,275724852.40273,   0.00083,  -0.00020,  -0.00019,   0.00000,   2.00000
422592977.08452,-26613530.21046,109210775.82120,   0.00281,  -0.00114,   0.00123,477269823.30197,   0.00100,275731831.91815,   0.00083,  -0.00020,  -0.00019,  -0.00000,   2.00000
421816640.03762,-27095332.02944,109900924.63267,   0.00281,  -0.00115,   0.00125,477257942.73374,   0.00101,275738727.08990,   0.00084,  -0.00020,  -0.00018,   0.00000,   2.00000
421037188.00045,-27585011.99864,110583942.48488,   0.00281,  -0.00115,   0.00126,477285660.24259,   0.00101,275745717.22261,   0.00084,  -0.00021,  -0.00018,   0.00000,   2.00000
420278297.24823,-28032288.15999,111264877.09718,   0.00282,  -0.00116,   0.00128,477292178.81569,   0.00102,275752706.01392,   0.00085,  -0.00021,  -0.00017,  -0.00000,   2.00000
419520621.72345,-28468345.84670,111946678.27970,   0.00282,  -0.00116,   0.00129,477286452.32112,   0.00103,275759638.10427,   0.00086,  -0.00021,  -0.00017,   0.00000,   2.00000
418762065.86616,-28902810.61216,112625346.72244,   0.00283,  -0.00116,   0.00130,477297356.95231,   0.00103,275766588.91111,   0.00086,  -0.00022,  -0.00016,   0.00000,   2.00000
418013402.78771,-29315374.74364,113301446.29012,   0.00283,  -0.00117,   0.00132,477305952.48362,   0.00104,275773547.86853,   0.00087,  -0.00022,  -0.00016,   0.00000,   2.00000
417283433.24326,-29695357.81152,113971489.09759,   0.00283,  -0.00117,   0.00133,477328830.23420,   0.00105,275780579.44306,   0.00088,  -0.00022,  -0.00015,   0.00000,   2.00000
416538580.69588,-30095993.46476,114640635.30313,   0.00284,  -0.00118,   0.00134,477306756.11943,   0.00105,275787480.10149,   0.00088,  -0.00023,  -0.00015,  -0.00000,   2.00000
415819774.82352,-30443211.17049,115309158.62342,   0.00284,  -0.00118,   0.00136,477331394.02039,   0.00106,275794461.55015,   0.00089,  -0.00023,  -0.00014,  -0.00000,   2.00000
415103741.59539,-30789686.44320,115969789.33860,   0.00284,  -0.00118,   0.00137,477337802.48252,   0.00107,275801440.98206,   0.00089,  -0.00023,  -0.00014,  -0.00000,   2.00000
414388812.59790,-31125317.23072,116631529.79451,   0.00285,  -0.00119,   0.00138,477331860.54938,   0.00107,275808362.53118,   0.00090,  -0.00024,  -0.00013,   0.00000,   2.00000
413692886.91883,-31428601.80880,117287255.90295,   0.00285,  -0.00119,   0.00140,477354318.96553,   0.00108,275815354.84338,   0.00091,  -0.00024,  -0.00013,  -0.00000,   2.00000
412998016.93186,-31721183.95151,117944152.12217,   0.00285,  -0.00119,   0.00141,477348330.97248,   0.00109,275822288.91373,   0.00091,  -0.00024,  -0.00012,  -0.00000,   2.00000
412302428.66173,-32012617.60386,118598039.61328,   0.00286,  -0.00120,   0.00143,477358856.69009,   0.00109,275829239.69891,   0.00092,  -0.00025,  -0.00012,   0.00000,   2.00000
411627699.84499,-32262327.05118,119250138.90665,   0.00286,  -0.00120,   0.00144,477364609.89937,   0.00110,275836185.45665,   0.00093,  -0.00025,  -0.00011,  -0.00000,   2.00000
410952269.19947,-32511017.59273,119899250.38614,   0.00286,  -0.00120,   0.00145,477375066.74419,   0.00110,275843147.48486,   0.00093,  -0.00025,  -0.00011,  -0.00000,   2.00000
410281413.02321,-32749807.55083,120544910.89112,   0.00287,  -0.00121,   0.00147,477364526.40520,   0.00111,275850030.69284,   0.00094,  -0.00026,  -0.00010,   0.00000,   2.00000
409626212.63484,-32955928.58284,121189311.81027,   0.00287,  -0.00121,   0.00148,477391057.73582,   0.00112,275857003.10777,   0.00094,  -0.00026,  -0.00010,   0.00000,   2.00000
408964771.73880,-33172575.42694,121829715.98938,   0.00288,  -0.00121,   0.00149,477382845.17232,   0.00112,275863907.13675,   0.00095,  -0.00026,  -0.00009,   0.00000,   2.00000
408324245.92541,-33347747.00588,122468454.88021,   0.00288,  -0.00122,   0.00151,477388322.27843,   0.00113,275870804.95933,   0.00096,  -0.00027,  -0.00009,   0.00000,   2.00000
407683053.71802,-33522132.52076,123104280.51000,   0.00288,  -0.00122,   0.00152,477398566.01391,   0.00114,275877718.16975,   0.00096,  -0.00027,  -0.00008,  -0.00000,   2.00000
407052000.89905,-33675454.89851,123737837.78170,   0.00289,  -0.00122,   0.00153,477406387.23715,   0.00114,275884635.69740,   0.00097,  -0.00027,  -0.00008,   0.00000,   2.00000
406441863.14882,-33787497.28845,124369781.25090,   0.00289,  -0.00122,   0.00155,477411760.25392,   0.00115,275891546.37075,   0.00097,  -0.00028,  -0.00007,   0.00000,   2.00000
405820280.73222,-33919222.71540,124998191.47306,   0.00289,  -0.00123,   0.00156,477424346.34522,   0.00116,275898482.89566,   0.00098,  -0.00028,  -0.00006,   0.00000,   2.00000
405213920.73501,-34021167.98354,125624133.78179,   0.00290,  -0.00123,   0.00157,477411065.83832,   0.00116,275905328.04359,   0.00099,  -0.00028,  -0.00006,   0.00000,   2.00000
404623413.13213,-34090840.81474,126248743.83704,   0.00290,  -0.00123,   0.00159,477437309.25820,   0.00117,275912261.04235,   0.00099,  -0.00029,  -0.00005,   0.00000,   2.00000
404037268.84118,-34151197.81498,126870310.08023,   0.00290,  -0.00123,   0.00160,477426381.02603,   0.00118,275919113.25058,   0.00100,  -0.00029,  -0.00005,   0.00000,   2.00000
403446679.32055,-34210456.56731,127493640.61250,   0.00291,  -0.00124,   0.00161,477441135.17620,   0.00118,275926001.26840,   0.00100,  -0.00029,  -0.00004,   0.00000,   2.00000
402869991.95504,-34249662.27637,128110195.88897,   0.00291,  -0.00124,   0.00163,477444009.70604,   0.00119,275932871.12972,   0.00101,  -0.00030,  -0.00004,   0.00000,   2.00000
402303418.97245,-34268215.52986,128724600.36369,   0.00291,  -0.00124,   0.00164,477451569.02976,   0.00119,275939744.08389,   0.00102,  -0.00030,  -0.00003,   0.00000,   2.00000
401748049.92333,-34256655.64155,129341352.59099,   0.00292,  -0.00124,   0.00165,477442875.82145,   0.00120,275946546.51970,   0.00102,  -0.00030,  -0.00003,   0.00000,   2.00000
401201645.75184,-34234110.30350,129951461.29764,   0.00292,  -0.00125,   0.00167,477466587.54445,   0.00121,275953425.38640,   0.00103,  -0.00031,  -0.00002,   0.00000,   2.00000
400648699.15500,-34222800.08403,130558088.57633,   0.00292,  -0.00125,   0.00168,477457877.05832,   0.00121,275960233.62609,   0.00103,  -0.00031,  -0.00002,   0.00000,   2.00000
400112724.33615,-34170027.26544,131167821.86108,   0.00293,  -0.00125,   0.00169,477467773.30700,   0.00122,275967055.70257,   0.00104,  -0.00031,  -0.00001,   0.00000,   2.00000
399590636.03593,-34097541.52948,131770933.53523,   0.00293,  -0.00125,   0.00171,477470339.49948,   0.00123,275973858.34436,   0.00104,  -0.00032,  -0.00000,   0.00000,   2.00000
399063952.31450,-34024331.91544,132375785.86345,   0.00293,  -0.00125,   0.00172,477485069.16392,   0.00123,275980696.68538,   0.00105,  -0.00032,   0.00000,   0.00000,   2.00000
398561898.56238,-33911186.82699,132974736.60235,   0.00294,  -0.00126,   0.00174,477485184.16313,   0.00124,275987504.35839,   0.00106,  -0.00032,   0.00001,   0.00000,   2.00000
398049240.06465,-33808835.87030,133574850.92327,   0.00294,  -0.00126,   0.00175,477481276.63161,   0.00124,275994263.32900,   0.00106,  -0.00033,   0.00001,   0.00000,   2.00000
397567148.63619,-33655230.18672,134169666.29564,   0.00294,  -0.00126,   0.00176,477499925.57497,   0.00125,276001075.79427,   0.00107,  -0.00033,   0.00002,   0.00000,   2.00000
397074361.69681,-33512520.80993,134765676.57290,   0.00295,  -0.00126,   0.00178,477496037.60448,   0.00126,276007839.56137,   0.00107,  -0.00033,   0.00002,  -0.00000,   2.00000
396591496.00899,-33349673.58933,135359635.15696,   0.00295,  -0.00126,   0.00179,477503400.38240,   0.00126,276014605.72638,   0.00108,  -0.00034,   0.00003,   0.00000,   2.00000
396118524.59545,-33166744.56072,135951545.72177,   0.00295,  -0.00126,   0.00180,477510764.84437,   0.00127,276021374.25317,   0.00109,  -0.00034,   0.00003,   0.00000,   2.00000
395659386.44743,-32964476.45771,136537005.63421,   0.00296,  -0.00127,   0.00182,477513049.39488,   0.00128,276028122.11526,   0.00109,  -0.00034,   0.00004,  -0.00000,   2.00000
395196098.98097,-32752220.88478,137128830.42798,   0.00296,  -0.00127,   0.00183,477511875.46098,   0.00128,276034833.76003,   0.00110,  -0.00035,   0.00005,   0.00000,   2.00000
394756645.56629,-32510035.83915,137710236.02407,   0.00296,  -0.00127,   0.00184,477527672.58929,   0.00129,276041586.06316,   0.00110,  -0.00035,   0.00005,  -0.00000,   2.00000
394312904.10044,-32257952.86111,138298008.37835,   0.00296,  -0.00127,   0.00186,477526590.85319,   0.00130,276048302.48638,   0.00111,  -0.00035,   0.00006,   0.00000,   2.00000
393872271.98772,-32007020.13774,138878696.98626,   0.00297,  -0.00127,   0.00187,477531111.30130,   0.00130,276055008.53355,   0.00111,  -0.00036,   0.00006,  -0.00000,   2.00000
393452023.26303,-31715928.04011,139458067.20461,   0.00297,  -0.00127,   0.00188,477536116.51803,   0.00131,276061706.38227,   0.00112,  -0.00036,   0.00007,  -0.00000,   2.00000
393041450.08918,-31405094.82275,140035426.77354,   0.00297,  -0.00127,   0.00190,477543450.15541,   0.00131,276068406.56916,   0.00112,  -0.00036,   0.00007,   0.00000,   2.00000
392629912.95960,-31094893.26205,140610091.16394,   0.00298,  -0.00127,   0.00191,477553082.03373,   0.00132,276075119.47590,   0.00113,  -0.00037,   0.00008,  -0.00000,   2.00000
392232486.16955,-30755962.40458,141183194.11286,   0.00298,  -0.00127,   0.00192,477539435.60826,   0.00133,276081739.75526,   0.00114,  -0.00037,   0.00009,   0.00000,   2.00000
391829975.64290,-30417048.95241,141757919.37083,   0.00298,  -0.00127,   0.00193,477554260.46459,   0.00133,276088396.56358,   0.00114,  -0.00037,   0.00009,   0.00000,   2.00000
391441117.51312,-30059194.04097,142326351.95698,   0.00299,  -0.00128,   0.00195,477556327.41936,   0.00134,276095032.02343,   0.00115,  -0.00038,   0.00010,   0.00000,   2.00000
391068254.14144,-29660751.75260,142897743.63533,   0.00299,  -0.00128,   0.00196,477566738.43499,   0.00134,276101683.89156,   0.00115,  -0.00038,   0.00010,  -0.00000,   2.00000
390698392.58261,-29263855.85032,143462176.15332,   0.00299,  -0.00128,   0.00197,477571037.92868,   0.00135,276108324.46754,   0.00116,  -0.00038,   0.00011,  -0.00000,   2.00000
390327682.43550,-28858021.68216,144028741.27578,   0.00300,  -0.00128,   0.00199,477565001.55295,   0.00136,276114907.09094,   0.00116,  -0.00038,   0.00012,  -0.00000,   2.00000
389983083.10211,-28401187.08081,144594066.25396,   0.00300,  -0.00128,   0.00200,477588958.73178,   0.00136,276121567.48306,   0.00117,  -0.00039,   0.00012,  -0.00000,   2.00000
389631083.39999,-27956561.03109,145156611.10207,   0.00300,  -0.00128,   0.00201,477579853.89858,   0.00137,276128155.91890,   0.00117,  -0.00039,   0.00013,   0.00000,   2.00000
389292560.17995,-27493242.07875,145712941.50198,   0.00300,  -0.00128,   0.00203,477581854.35580,   0.00138,276134722.87938,   0.00118,  -0.00039,   0.00013,   0.00000,   2.00000
388959151.76199,-27009942.81796,146271472.40374,   0.00301,  -0.00128,   0.00204,477594689.15021,   0.00138,276141317.37912,   0.00119,  -0.00040,   0.00014,   0.00000,   2.00000
388624560.51306,-26517841.41515,146832160.76874,   0.00301,  -0.00128,   0.00205,477588840.04673,   0.00139,276147854.89494,   0.00119,  -0.00040,   0.00014,   0.00000,   2.00000
388309566.26726,-25996041.54423,147386612.91350,   0.00301,  -0.00128,   0.00207,477609659.70488,   0.00139,276154456.08089,   0.00120,  -0.00040,   0.00015,   0.00000,   2.00000
387997458.48401,-25466163.30001,147939080.88432,   0.00302,  -0.00128,   0.00208,477598402.41810,   0.00140,276160975.78414,   0.00120,  -0.00041,   0.00016,   0.00000,   2.00000
387690219.34489,-24916472.74199,148493660.20089,   0.00302,  -0.00128,   0.00209,477611432.20013,   0.00141,276167524.02049,   0.00121,  -0.00041,   0.00016,  -0.00000,   2.00000
387396230.90127,-24348323.45802,149042049.59671,   0.00302,  -0.00128,   0.00211,477613494.54816,   0.00141,276174051.11166,   0.00121,  -0.00041,   0.00017,   0.00000,   2.00000
387111224.57053,-23761112.11174,149588394.03398,   0.00303,  -0.00128,   0.00212,477621080.70354,   0.00142,276180582.06212,   0.00122,  -0.00041,   0.00017,   0.00000,   2.00000
386824631.61191,-23165246.92041,150136938.63917,   0.00303,  -0.00128,   0.00213,477615444.78261,   0.00142,276187057.17878,   0.00122,  -0.00042,   0.00018,   0.00000,   2.00000
386557445.75405,-22540030.97103,150679143.20059,   0.00303,  -0.00128,   0.00215,477636341.29638,   0.00143,276193596.39797,   0.00123,  -0.00042,   0.00019,   0.00000,   2.00000
386288528.20792,-21906222.95273,151223547.72321,   0.00303,  -0.00128,   0.00216,477630822.13942,   0.00144,276200080.22898,   0.00123,  -0.00042,   0.00019,   0.00000,   2.00000
386028373.64873,-21253502.94406,151765855.03330,   0.00304,  -0.00128,   0.00217,477638560.72505,   0.00144,276206568.71475,   0.00124,  -0.00043,   0.00020,   0.00000,   2.00000
385766343.67284,-20592205.04062,152310355.54067,   0.00304,  -0.00127,   0.00219,477633128.73550,   0.00145,276213002.42707,   0.00124,  -0.00043,   0.00021,   0.00000,   2.00000
385527875.46641,-19902393.57213,152844379.47585,   0.00304,  -0.00127,   0.00220,477648457.40396,   0.00145,276219475.19413,   0.00125,  -0.00043,   0.00021,   0.00000,   2.00000
385283070.94429,-19203449.09332,153384641.89077,   0.00305,  -0.00127,   0.00221,477648796.50648,   0.00146,276225919.24067,   0.00125,  -0.00043,   0.00022,   0.00000,   2.00000
385051136.04842,-18486342.37757,153918739.56720,   0.00305,  -0.00127,   0.00222,477650984.95906,   0.00147,276232343.01169,   0.00126,  -0.00044,   0.00022,   0.00000,   2.00000
384823336.27573,-17749919.44616,154454685.88144,   0.00305,  -0.00127,   0.00224,477664641.45772,   0.00147,276238798.26703,   0.00127,  -0.00044,   0.00023,  -0.00000,   2.00000
384608306.42763,-16995419.19303,154984460.92627,   0.00305,  -0.00127,   0.00225,477666907.89984,   0.00148,276245233.49358,   0.00127,  -0.00044,   0.00024,   0.00000,   2.00000
384390965.80223,-16232458.59177,155516433.73949,   0.00306,  -0.00127,   0.00226,477661777.53894,   0.00148,276251615.45856,   0.00128,  -0.00045,   0.00024,   0.00000,   2.00000
384192611.58566,-15440733.28591,156041819.05965,   0.00306,  -0.00127,   0.00228,477682982.61809,   0.00149,276258063.00121,   0.00128,  -0.00045,   0.00025,   0.00000,   2.00000
383991789.83232,-14640602.39923,156569389.08204,   0.00306,  -0.00127,   0.00229,477677999.52513,   0.00150,276264457.84807,   0.00129,  -0.00045,   0.00025,   0.00000,   2.00000
383789047.28342,-13842408.38900,157094163.89910,   0.00306,  -0.00126,   0.00230,477687850.20993,   0.00150,276270867.05563,   0.00129,  -0.00045,   0.00026,   0.00000,   2.00000
383593826.32790,-13015301.95553,157621673.59545,   0.00307,  -0.00126,   0.00232,477681298.47840,   0.00151,276277216.67208,   0.00130,  -0.00046,   0.00027,   0.00000,   2.00000
383417389.64764,-12159668.77352,158142465.43956,   0.00307,  -0.00126,   0.00233,477702695.38796,   0.00151,276283632.73885,   0.00130,  -0.00046,   0.00027,   0.00000,   2.00000
383238173.66964,-11295689.52378,158665404.62576,   0.00307,  -0.00126,   0.00234,477697985.79232,   0.00152,276289997.43650,   0.00131,  -0.00046,   0.00028,   0.00000,   2.00000
383071325.78586,-10413862.15426,159182144.76343,   0.00307,  -0.00126,   0.00236,477700490.62427,   0.00153,276296343.44675,   0.00131,  -0.00046,   0.00029,   0.00000,   2.00000
382907862.94853,-9513183.76622,159700427.98059,   0.00308,  -0.00126,   0.00237,477714870.33492,   0.00153,276302724.25264,   0.00132,  -0.00047,   0.00029,  -0.00000,   2.00000
382745866.86247,-8604697.41110,160216976.13361,   0.00308,  -0.00125,   0.00238,477704409.45922,   0.00154,276309027.95531,   0.00132,  -0.00047,   0.00030,   0.00000,   2.00000
382602390.05575,-7667996.33695,160726661.02070,   0.00308,  -0.00125,   0.00239,477726031.24956,   0.00154,276315399.14036,   0.00133,  -0.00047,   0.00030,   0.00000,   2.00000
382451240.21002,-6722532.07683,161242284.40420,   0.00309,  -0.00125,   0.00241,477727640.42004,   0.00155,276321747.50425,   0.00133,  -0.00047,   0.00031,   0.00000,   2.00000
382312172.19508,-5759377.85435,161751651.69191,   0.00309,  -0.00125,   0.00242,477730399.98839,   0.00156,276328078.29790,   0.00134,  -0.00048,   0.00032,   0.00000,   2.00000
382169779.82954,-4787951.25474,162263106.55342,   0.00309,  -0.00125,   0.00243,477726149.00969,   0.00156,276334360.10236,   0.00134,  -0.00048,   0.00032,  -0.00000,   2.00000
382045668.58362,-3788568.23795,162767544.11008,   0.00309,  -0.00124,   0.00245,477748026.52133,   0.00157,276340710.48475,   0.00135,  -0.00048,   0.00033,  -0.00000,   2.00000
381918061.95983,-2780965.28552,163274039.27890,   0.00310,  -0.00124,   0.00246,477743962.19578,   0.00157,276347012.58498,   0.00135,  -0.00048,   0.00034,  -0.00000,   2.00000
381807516.99985,-1734809.46915,163778440.07207,   0.00310,  -0.00124,   0.00247,477751728.93019,   0.00158,276353319.70575,   0.00136,  -0.00049,   0.00034,   0.00000,   2.00000
381694363.86175,-691269.63989,164279833.42137,   0.00310,  -0.00124,   0.00248,477762104.97230,   0.00158,276359643.53612,   0.00136,  -0.00049,   0.00035,   0.00000,   2.00000
381582058.23668,360048.53259,164779504.24960,   0.00310,  -0.00123,   0.00250,477752159.34733,   0.00159,276365892.78116,   0.00137,  -0.00049,   0.00036,  -0.00000,   2.00000
381472236.12485,1429692.36165,165280299.28769,   0.00310,  -0.00123,   0.00251,477767488.02838,   0.00160,276372181.18825,   0.00137,  -0.00049,   0.00036,   0.00000,   2.00000
381369406.75966,2517191.45296,165778443.44923,   0.00311,  -0.00123,   0.00252,477776827.26111,   0.00160,276378481.66271,   0.00138,  -0.00050,   0.00037,   0.00000,   2.00000
381278115.36426,3622111.81902,166270218.87784,   0.00311,  -0.00123,   0.00254,477780076.69894,   0.00161,276384766.79971,   0.00138,  -0.00050,   0.00038,   0.00000,   2.00000
381198632.78430,4765714.51970,166763347.94412,   0.00311,  -0.00122,   0.00255,477794726.39547,   0.00161,276391087.72620,   0.00139,  -0.00050,   0.00038,   0.00000,   2.00000
381109974.02151,5896460.55576,167254342.64054,   0.00311,  -0.00122,   0.00256,477786215.30297,   0.00162,276397340.47630,   0.00139,  -0.00050,   0.00039,   0.00000,   2.00000
381028012.06273,7044901.66707,167742585.20350,   0.00312,  -0.00122,   0.00258,477795841.00756,   0.00163,276403606.63082,   0.00140,  -0.00051,   0.00039,   0.00000,   2.00000
380947991.01866,8211305.46548,168231675.21803,   0.00312,  -0.00121,   0.00259,477811827.81275,   0.00163,276409914.58814,   0.00140,  -0.00051,   0.00040,   0.00000,   2.00000
380877708.59454,9406051.74558,168719291.21148,   0.00312,  -0.00121,   0.00260,477801629.45197,   0.00164,276416146.82816,   0.00141,  -0.00051,   0.00041,   0.00000,   2.00000
380815307.16163,10607194.99512,169199022.57581,   0.00312,  -0.00121,   0.00261,477825370.69171,   0.00164,276422455.65874,   0.00141,  -0.00051,   0.00041,   0.00000,   2.00000
380748305.39743,11816371.01277,169680573.60960,   0.00313,  -0.00120,   0.00263,477822473.52756,   0.00165,276428721.45716,   0.00142,  -0.00052,   0.00042,   0.00000,   2.00000
380686015.68248,13054194.40568,170164183.58920,   0.00313,  -0.00120,   0.00264,477818908.67759,   0.00166,276434941.41517,   0.00142,  -0.00052,   0.00043,   0.00000,   2.00000
380631483.04763,14298178.97500,170639802.91657,   0.00313,  -0.00120,   0.00265,477842791.59845,   0.00166,276441238.51648,   0.00143,  -0.00052,   0.00043,   0.00000,   2.00000
380581410.05564,15570756.35823,171117400.22633,   0.00313,  -0.00119,   0.00267,477839547.97680,   0.00167,276447491.02468,   0.00143,  -0.00052,   0.00044,   0.00000,   2.00000
380528008.26080,16840000.35558,171591695.24607,   0.00313,  -0.00119,   0.00268,477850640.72812,   0.00167,276453763.25594,   0.00144,  -0.00053,   0.00045,   0.00000,   2.00000
380489824.66278,18147097.59839,172063109.90048,   0.00314,  -0.00119,   0.00269,477860595.74218,   0.00168,276460049.95768,   0.00144,  -0.00053,   0.00045,  -0.00000,   2.00000
380441977.64503,19441303.06897,172532443.38859,   0.00314,  -0.00118,   0.00270,477852507.89357,   0.00168,276466270.47131,   0.00145,  -0.00053,   0.00046,   0.00000,   2.00000
380404342.41399,20773484.22156,173002311.33451,   0.00314,  -0.00118,   0.00272,477869114.01315,   0.00169,276472535.35794,   0.00145,  -0.00053,   0.00047,  -0.00000,   2.00000
380363172.37323,22102110.51203,173468776.67585,   0.00314,  -0.00118,   0.00273,477880457.70237,   0.00170,276478820.89413,   0.00146,  -0.00053,   0.00048,  -0.00000,   2.00000
380341559.00963,23468243.51320,173928657.50926,   0.00314,  -0.00117,   0.00274,477884557.33134,   0.00170,276485094.56998,   0.00146,  -0.00054,   0.00048,   0.00000,   2.00000
380300453.75850,24821730.26748,174393404.52933,   0.00315,  -0.00117,   0.00276,477889591.15887,   0.00171,276491360.64422,   0.00146,  -0.00054,   0.00049,  -0.00000,   2.00000
380289727.95285,26221733.84697,174846630.29998,   0.00315,  -0.00116,   0.00277,477906834.50741,   0.00171,276497673.51274,   0.00147,  -0.00054,   0.00050,   0.00000,   2.00000
380257336.21439,27620576.60769,175309607.61127,   0.00315,  -0.00116,   0.00278,477898955.10357,   0.00172,276503920.94285,   0.00147,  -0.00054,   0.00050,   0.00000,   2.00000
380237069.17836,29024525.44630,175760762.55929,   0.00315,  -0.00115,   0.00279,477916934.46609,   0.00173,276510218.49589,   0.00148,  -0.00055,   0.00051,   0.00000,   2.00000
380219882.96358,30456897.44520,176213403.44572,   0.00315,  -0.00115,   0.00281,477915398.99001,   0.00173,276516478.92026,   0.00148,  -0.00055,   0.00052,  -0.00000,   2.00000
380202831.74693,31905986.09077,176665909.55442,   0.00316,  -0.00115,   0.00282,477933622.21449,   0.00174,276522790.37995,   0.00149,  -0.00055,   0.00052,   0.00000,   2.00000
380186720.02293,33351021.38894,177111416.15348,   0.00316,  -0.00114,   0.00283,477938929.06150,   0.00174,276529095.09691,   0.00149,  -0.00055,   0.00053,   0.00000,   2.00000
380173297.52011,34824419.61275,177558245.93150,   0.00316,  -0.00114,   0.00285,477937909.48615,   0.00175,276535364.90494,   0.00150,  -0.00055,   0.00054,   0.00000,   2.00000
380175698.93652,36323121.45159,177996482.22197,   0.00316,  -0.00113,   0.00286,477962766.18636,   0.00176,276541715.04563,   0.00150,  -0.00056,   0.00054,  -0.00000,   2.00000
380160579.04321,37820664.01952,178440867.09246,   0.00316,  -0.00113,   0.00287,477949282.06254,   0.00176,276547974.60278,   0.00151,  -0.00056,   0.00055,  -0.00000,   2.00000
380152402.67046,39322711.62359,178876599.27229,   0.00317,  -0.00112,   0.00288,477974200.90774,   0.00177,276554314.74700,   0.00151,  -0.00056,   0.00056,  -0.00000,   2.00000
380146375.70803,40853005.46440,179313426.08724,   0.00317,  -0.00112,   0.00290,477973911.38425,   0.00177,276560622.98598,   0.00152,  -0.00056,   0.00057,  -0.00000,   2.00000
380139767.85285,42399428.21403,179749683.72991,   0.00317,  -0.00111,   0.00291,477993122.44297,   0.00178,276566986.07933,   0.00152,  -0.00056,   0.00057,  -0.00000,   2.00000
380147382.63925,43962218.86802,180175412.85288,   0.00317,  -0.00111,   0.00292,477992453.93062,   0.00178,276573315.41716,   0.00153,  -0.00057,   0.00058,   0.00000,   2.00000
380143101.44056,45532377.15301,180605464.01021,   0.00317,  -0.00110,   0.00294,477999108.47098,   0.00179,276579643.67582,   0.00153,  -0.00057,   0.00059,   0.00000,   2.00000
380134405.18711,47097953.42037,181031656.15522,   0.00317,  -0.00110,   0.00295,478011600.03135,   0.00180,276585996.75742,   0.00154,  -0.00057,   0.00060,   0.00000,   2.00000
380138297.32172,48700131.39021,181453623.56736,   0.00318,  -0.00109,   0.00296,478025035.50731,   0.00180,276592378.64158,   0.00154,  -0.00057,   0.00060,   0.00000,   2.00000
380146093.86253,50318151.46203,181871460.60628,   0.00318,  -0.00109,   0.00297,478038248.46237,   0.00181,276598788.14996,   0.00155,  -0.00057,   0.00061,   0.00000,   2.00000
380146570.65897,51943515.05117,182290146.36505,   0.00318,  -0.00108,   0.00299,478038818.04454,   0.00181,276605169.09739,   0.00155,  -0.00057,   0.00062,  -0.00000,   2.00000
380150772.14585,53584591.83215,182704591.16868,   0.00318,  -0.00107,   0.00300,478052288.07120,   0.00182,276611578.73800,   0.00156,  -0.00058,   0.00062,   0.00000,   2.00000
380152513.46069,55233240.21297,183116595.61418,   0.00318,  -0.00107,   0.00301,478046318.24392,   0.00183,276617930.83071,   0.00156,  -0.00058,   0.00063,  -0.00000,   2.00000
380163883.12749,56905469.59908,183522398.08387,   0.00318,  -0.00106,   0.00303,478079592.11947,   0.00183,276624399.29807,   0.00157,  -0.00058,   0.00064,   0.00000,   2.00000
380156384.53927,58576640.68155,183933946.09846,   0.00319,  -0.00106,   0.00304,478067979.48899,   0.00184,276630784.97051,   0.00157,  -0.00058,   0.00065,  -0.00000,   2.00000
380163395.72655,60271442.69199,184335941.25575,   0.00319,  -0.00105,   0.00305,478094748.25542,   0.00184,276637257.93451,   0.00158,  -0.00058,   0.00065,   0.00000,   2.00000
380159434.19062,61953167.03417,184735739.22076,   0.00319,  -0.00105,   0.00306,478088390.42344,   0.00185,276643671.33109,   0.00158,  -0.00059,   0.00066,   0.00000,   2.00000
380161742.45745,63670376.28607,185133771.59188,   0.00319,  -0.00104,   0.00308,478110403.89314,   0.00186,276650150.74409,   0.00158,  -0.00059,   0.00067,   0.00000,   2.00000
380167101.84779,65402703.83359,185527168.98045,   0.00319,  -0.00103,   0.00309,478124883.90420,   0.00186,276656662.51126,   0.00159,  -0.00059,   0.00068,   0.00000,   2.00000
380169361.01231,67142464.14690,185917889.11869,   0.00319,  -0.00103,   0.00310,478119867.09118,   0.00187,276663120.38563,   0.00159,  -0.00059,   0.00069,   0.00000,   2.00000
380180534.96830,68904716.83901,186301846.70836,   0.00319,  -0.00102,   0.00312,478154235.64829,   0.00187,276669698.34739,   0.00160,  -0.00059,   0.00069,  -0.00000,   2.00000
380177229.72659,70666384.23347,186688202.44885,   0.00320,  -0.00101,   0.00313,478136794.52683,   0.00188,276676167.29945,   0.00160,  -0.00059,   0.00070,  -0.00000,   2.00000
380182644.81464,72450239.36334,187067629.72357,   0.00320,  -0.00101,   0.00314,478171467.10373,   0.00189,276682757.45472,   0.00161,  -0.00060,   0.00071,   0.00000,   2.00000
380176746.35625,74220902.51292,187444782.58278,   0.00320,  -0.00100,   0.00315,478165684.97744,   0.00189,276689289.96085,   0.00161,  -0.00060,   0.00072,   0.00000,   2.00000
380164860.76553,76018356.67334,187824668.62878,   0.00320,  -0.00099,   0.00317,478176558.59190,   0.00190,276695838.42150,   0.00162,  -0.00060,   0.00072,  -0.00000,   2.00000
380166567.68344,77838064.50180,188194314.34355,   0.00320,  -0.00099,   0.00318,478204779.42868,   0.00191,276702479.02286,   0.00162,  -0.00060,   0.00073,  -0.00000,   2.00000
380164517.01183,79665007.46982,188561018.11397,   0.00320,  -0.00098,   0.00319,478200786.17403,   0.00191,276709069.53721,   0.00163,  -0.00060,   0.00074,   0.00000,   2.00000
380159453.00892,81505579.03695,188925587.29910,   0.00320,  -0.00097,   0.00320,478223602.37880,   0.00192,276715728.07205,   0.00163,  -0.00060,   0.00075,   0.00000,   2.00000
380142844.32159,83332890.63015,189287814.06074,   0.00320,  -0.00097,   0.00322,478218237.02002,   0.00192,276722330.43532,   0.00164,  -0.00061,   0.00076,   0.00000,   2.00000
380130691.77720,85194107.07132,189647097.03515,   0.00321,  -0.00096,   0.00323,478242975.75008,   0.00193,276729009.07739,   0.00164,  -0.00061,   0.00076,   0.00000,   2.00000
380125651.77215,87069991.06294,189998040.41783,   0.00321,  -0.00095,   0.00324,478252242.02099,   0.00194,276735695.60517,   0.00165,  -0.00061,   0.00077,   0.00000,   2.00000
380098461.11853,88931052.42756,190352558.22152,   0.00321,  -0.00095,   0.00326,478261242.32319,   0.00194,276742388.84498,   0.00165,  -0.00061,   0.00078,   0.00000,   2.00000
380085747.73604,90827117.59795,190697889.58332,   0.00321,  -0.00094,   0.00327,478272574.26129,   0.00195,276749098.88839,   0.00166,  -0.00061,   0.00079,   0.00000,   2.00000
380069384.39833,92735983.41775,191040639.80288,   0.00321,  -0.00093,   0.00328,478296436.87194,   0.00196,276755880.52704,   0.00166,  -0.00061,   0.00080,   0.00000,   2.00000
380041189.28365,94631452.45131,191380960.86811,   0.00321,  -0.00092,   0.00329,478291622.12157,   0.00196,276762607.76234,   0.00167,  -0.00061,   0.00081,   0.00000,   2.00000
380016533.24890,96559889.11757,191717720.53681,   0.00321,  -0.00092,   0.00331,478317800.67948,   0.00197,276769416.50975,   0.00167,  -0.00062,   0.00081,   0.00000,   2.00000
379991230.12281,98482130.15710,192046740.20395,   0.00321,  -0.00091,   0.00332,478325803.41368,   0.00197,276776226.77301,   0.00168,  -0.00062,   0.00082,   0.00000,   2.00000
379957865.04415,100429774.86984,192377281.25199,   0.00321,  -0.00090,   0.00333,478339866.54213,   0.00198,276783064.99773,   0.00168,  -0.00062,   0.00083,   0.00000,   2.00000
379923780.42704,102371091.82322,192700031.64980,   0.00322,  -0.00089,   0.00335,478348036.47761,   0.00199,276789905.25874,   0.00169,  -0.00062,   0.00084,  -0.00000,   2.00000
379885535.71962,104324388.91827,193019805.30922,   0.00322,  -0.00089,   0.00336,478372839.39660,   0.00199,276796820.16991,   0.00169,  -0.00062,   0.00085,   0.00000,   2.00000
379849354.84227,106304734.00888,193335052.13929,   0.00322,  -0.00088,   0.00337,478373351.35982,   0.00200,276803703.18817,   0.00170,  -0.00062,   0.00086,   0.00000,   2.00000
379801715.33150,108276426.45196,193648171.15760,   0.00322,  -0.00087,   0.00338,478396138.73970,   0.00201,276810651.70105,   0.00170,  -0.00062,   0.00087,   0.00000,   2.00000
379748923.50803,110254822.49825,193957696.31070,   0.00322,  -0.00086,   0.00340,478394532.55343,   0.00201,276817558.93508,   0.00171,  -0.00062,   0.00087,  -0.00000,   2.00000
379691577.65008,112244594.82746,194263934.85208,   0.00322,  -0.00086,   0.00341,478420042.45765,   0.00202,276824543.27173,   0.00171,  -0.00063,   0.00088,   0.00000,   2.00000
379640230.41854,114247820.71188,194561146.89214,   0.00322,  -0.00085,   0.00342,478431341.59209,   0.00203,276831542.31839,   0.00172,  -0.00063,   0.00089,   0.00000,   2.00000
379572767.00193,116255250.76587,194860270.76648,   0.00322,  -0.00084,   0.00343,478444678.63774,   0.00203,276838564.86025,   0.00172,  -0.00063,   0.00090,  -0.00000,   2.00000
379522488.73659,118282676.70438,195144908.69086,   0.00322,  -0.00083,   0.00345,478468854.25630,   0.00204,276845657.83048,   0.00173,  -0.00063,   0.00091,   0.00000,   2.00000
379444498.14592,120307326.24912,195436682.49752,   0.00322,  -0.00082,   0.00346,478470054.94251,   0.00205,276852720.96052,   0.00173,  -0.00063,   0.00092,   0.00000,   2.00000
379366818.22954,122343754.73304,195721982.96746,   0.00322,  -0.00081,   0.00347,478489265.93748,   0.00205,276859832.63701,   0.00174,  -0.00063,   0.00093,   0.00000,   2.00000
379294709.03393,124393099.19574,195997979.67348,   0.00322,  -0.00081,   0.00349,478501381.75714,   0.00206,276866961.71116,   0.00174,  -0.00063,   0.00094,   0.00000,   2.00000
379210812.70646,126432536.54910,196271513.56335,   0.00322,  -0.00080,   0.00350,478525085.61680,   0.00207,276874158.39376,   0.00174,  -0.00063,   0.00095,  -0.00000,   2.00000
379122127.78097,128496860.89791,196542453.23841,   0.00322,  -0.00079,   0.00351,478535402.53339,   0.00207,276881364.16924,   0.00175,  -0.00063,   0.00096,   0.00000,   2.00000
379032327.72759,130553762.12190,196805334.33099,   0.00322,  -0.00078,   0.00352,478544757.59154,   0.00208,276888574.80497,   0.00175,  -0.00063,   0.00097,   0.00000,   2.00000
378925680.72862,132613953.54934,197069630.27367,   0.00323,  -0.00077,   0.00354,478559513.89891,   0.00209,276895813.67154,   0.00176,  -0.00064,   0.00098,   0.00000,   2.00000
378825248.58047,134705034.58324,197325650.82034,   0.00323,  -0.00076,   0.00355,478583062.62473,   0.00209,276903118.57662,   0.00176,  -0.00064,   0.00098,   0.00000,   2.00000
378718212.56663,136786897.10569,197576261.27746,   0.00323,  -0.00075,   0.00356,478600063.87793,   0.00210,276910460.81649,   0.00177,  -0.00064,   0.00099,   0.00000,   2.00000
378599416.23038,138873131.15308,197825353.31809,   0.00323,  -0.00074,   0.00358,478608123.58175,   0.00211,276917801.50030,   0.00177,  -0.00064,   0.00100,   0.00000,   2.00000
378485642.62515,140971417.82735,198064759.40614,   0.00323,  -0.00074,   0.00359,478621446.40947,   0.00211,276925163.31737,   0.00178,  -0.00064,   0.00101,  -0.00000,   2.00000
378365993.78579,143078424.20953,198299827.06649,   0.00323,  -0.00073,   0.00360,478649642.15800,   0.00212,276932610.34055,   0.00178,  -0.00064,   0.00102,  -0.00000,   2.00000
378234290.10146,145189458.52485,198533199.00060,   0.00323,  -0.00072,   0.00361,478658283.16962,   0.00213,276940057.67619,   0.00179,  -0.00064,   0.00103,   0.00000,   2.00000
378095939.75006,147290735.39285,198761068.85040,   0.00323,  -0.00071,   0.00363,478675676.59030,   0.00214,276947543.07458,   0.00179,  -0.00064,   0.00104,   0.00000,   2.00000
377951436.34496,149415642.23409,198985468.87166,   0.00323,  -0.00070,   0.00364,478688455.64945,   0.00214,276955046.36275,   0.00180,  -0.00064,   0.00105,   0.00000,   2.00000
377800230.26952,151530535.78726,199204304.36199,   0.00323,  -0.00069,   0.00365,478706063.86718,   0.00215,276962588.24296,   0.00181,  -0.00064,   0.00106,   0.00000,   2.00000
377654131.90077,153674633.86915,199414057.29187,   0.00323,  -0.00068,   0.00367,478731755.39203,   0.00216,276970203.18290,   0.00181,  -0.00064,   0.00107,   0.00000,   2.00000
377489695.85431,155802574.76067,199623628.50104,   0.00323,  -0.00067,   0.00368,478737236.84546,   0.00216,276977803.87171,   0.00182,  -0.00064,   0.00108,  -0.00000,   2.00000
377312774.79759,157933992.19159,199831192.57731,   0.00323,  -0.00066,   0.00369,478746871.60952,   0.00217,276985408.23276,   0.00182,  -0.00064,   0.00109,  -0.00000,   2.00000
377146472.84675,160080225.07541,200025824.34197,   0.00323,  -0.00065,   0.00370,478781378.97277,   0.00218,276993123.00314,   0.00183,  -0.00064,   0.00110,   0.00000,   2.00000
376956409.41903,162208234.11449,200222879.31093,   0.00323,  -0.00064,   0.00372,478794517.14349,   0.00219,277000855.87482,   0.00183,  -0.00065,   0.00111,  -0.00000,   2.00000
376764746.68746,164360812.59313,200413235.56681,   0.00323,  -0.00063,   0.00373,478801616.35742,   0.00219,277008580.75282,   0.00184,  -0.00065,   0.00112,  -0.00000,   2.00000
376577967.89330,166508093.86225,200592466.16666,   0.00323,  -0.00062,   0.00374,478832144.76970,   0.00220,277016398.09164,   0.00184,  -0.00065,   0.00113,   0.00000,   2.00000
376372201.69793,168672127.05806,200772886.19880,   0.00323,  -0.00061,   0.00376,478834914.58761,   0.00221,277024188.41094,   0.00185,  -0.00065,   0.00115,   0.00000,   2.00000
376165887.79618,170828428.93110,200944708.89861,   0.00323,  -0.00060,   0.00377,478873101.46877,   0.00222,277032103.47513,   0.00185,  -0.00065,   0.00116,   0.00000,   2.00000
375952010.37070,172989429.11382,201111596.54372,   0.00323,  -0.00059,   0.00378,478876557.39380,   0.00222,277039993.95415,   0.00186,  -0.00065,   0.00117,  -0.00000,   2.00000
375725052.95022,175152970.97803,201276072.76112,   0.00323,  -0.00058,   0.00379,478887625.17536,   0.00223,277047892.52254,   0.00186,  -0.00065,   0.00118,  -0.00000,   2.00000
375497664.64907,177308202.19656,201431930.40252,   0.00323,  -0.00057,   0.00381,478925963.56001,   0.00224,277055915.62437,   0.00187,  -0.00065,   0.00119,   0.00000,   2.00000
375256080.13044,179481843.86181,201585998.98029,   0.00323,  -0.00056,   0.00382,478922566.67456,   0.00225,277063884.32093,   0.00187,  -0.00065,   0.00120,  -0.00000,   2.00000
375014075.53094,181646716.45038,201731389.90550,   0.00323,  -0.00055,   0.00383,478961105.74989,   0.00225,277071977.81915,   0.00188,  -0.00065,   0.00121,   0.00000,   2.00000
374758784.01634,183813633.39740,201874201.45571,   0.00323,  -0.00054,   0.00385,478972870.34524,   0.00226,277080081.24702,   0.00188,  -0.00065,   0.00122,   0.00000,   2.00000
374495557.21687,185984789.89445,202011822.00509,   0.00323,  -0.00053,   0.00386,478977318.58471,   0.00227,277088163.35277,   0.00189,  -0.00065,   0.00123,   0.00000,   2.00000
374225279.20849,188160511.57014,202143843.51348,   0.00323,  -0.00052,   0.00387,479009085.55179,   0.00228,277096340.52869,   0.00189,  -0.00065,   0.00124,  -0.00000,   2.00000
373953322.86460,190342881.14436,202267672.68706,   0.00323,  -0.00051,   0.00388,479033580.31081,   0.00228,277104581.23872,   0.00190,  -0.00065,   0.00125,   0.00000,   2.00000
373662829.29452,192507862.70018,202391106.82442,   0.00323,  -0.00050,   0.00390,479040751.06142,   0.00229,277112811.52850,   0.00190,  -0.00065,   0.00127,   0.00000,   2.00000
373376082.17104,194681693.80276,202503783.17060,   0.00323,  -0.00049,   0.00391,479057922.37262,   0.00230,277121073.87122,   0.00191,  -0.00065,   0.00128,  -0.00000,   2.00000
373082173.20017,196859249.72882,202610710.45238,   0.00323,  -0.00048,   0.00392,479090293.74184,   0.00231,277129432.57593,   0.00191,  -0.00065,   0.00129,   0.00000,   2.00000
372774557.14538,199037958.82095,202714735.81397,   0.00323,  -0.00047,   0.00394,479103299.87403,   0.00232,277137804.93724,   0.00192,  -0.00065,   0.00130,   0.00000,   2.00000
372453170.31522,201217701.33963,202815788.03342,   0.00323,  -0.00046,   0.00395,479116499.82082,   0.00232,277146191.69562,   0.00192,  -0.00065,   0.00131,   0.00000,   2.00000
372125220.78652,203384440.22091,202910982.77751,   0.00322,  -0.00045,   0.00396,479136163.40002,   0.00233,277154620.16295,   0.00193,  -0.00065,   0.00132,   0.00000,   2.00000
371790066.10799,205554084.00690,203000246.42440,   0.00322,  -0.00044,   0.00397,479169156.97473,   0.00234,277163146.49385,   0.00193,  -0.00065,   0.00134,   0.00000,   2.00000
371458466.87270,207731655.83005,203078545.66110,   0.00322,  -0.00042,   0.00399,479187295.71458,   0.00235,277171707.22208,   0.00194,  -0.00065,   0.00135,   0.00000,   2.00000
371100896.37961,209905193.50727,203159145.41027,   0.00322,  -0.00041,   0.00400,479189165.06344,   0.00236,277180233.43521,   0.00194,  -0.00065,   0.00136,  -0.00000,   2.00000
