# sigma_xx, sigma_yy, sigma_xy, epsilon_xx, epsilon_yy, epsilon_xy, vonMises, epsPlastic, hardening, epsilonP__xx, epsilonP__yy, epsilonP__xy, yieldValue, iteration
   0.00000,   0.00000,   0.00000,   0.00000,   0.00000,   0.00000,1181185.37500,   0.00000,274640576.00000,   0.00000,   0.00000,   0.00000,-473459392.00000,   0.00000
   0.00000,   0.00000,   0.00000,   0.00000,   0.00000,   0.00000,1181185.37500,   0.00000,274640576.00000,   0.00000,   0.00000,   0.00000,-473459392.00000,   0.00000
482022.74271,225842.82351,-593258.76026,   0.00000,   0.00000,  -0.00001,1917516.87500,   0.00000,274640576.00000,   0.00000,   0.00000,   0.00000,-472723072.00000,   0.00000
977528.63906,438202.49337,-1186517.52052,   0.00000,   0.00000,  -0.00002,3206982.00000,   0.00000,274640576.00000,   0.00000,   0.00000,   0.00000,-471433600.00000,   0.00000
1473034.53541,650562.16324,-1786517.85759,   0.00001,   0.00000,  -0.00002,4374358.50000,   0.00000,274640576.00000,   0.00000,   0.00000,   0.00000,-470266208.00000,   0.00000
1968540.43176,862921.83310,-2379776.61785,   0.00001,   0.00000,  -0.00003,5542477.00000,   0.00000,274640576.00000,   0.00000,   0.00000,   0.00000,-469098112.00000,   0.00000
2487641.84699,1085393.86820,-2973035.37811,   0.00001,   0.00000,  -0.00004,6685256.00000,   0.00000,274640576.00000,   0.00000,   0.00000,   0.00000,-467955328.00000,   0.00000
3020226.41586,1294382.74965,-3573035.71519,   0.00001,   0.00000,  -0.00005,7796853.50000,   0.00000,274640576.00000,   0.00000,   0.00000,   0.00000,-466843728.00000,   0.00000
3552810.98473,1503371.63111,-4173036.05227,   0.00001,  -0.00000,  -0.00005,8870060.00000,   0.00000,274640576.00000,   0.00000,   0.00000,   0.00000,-465770512.00000,   0.00000
4108991.07247,1722472.87779,-4766294.81253,   0.00002,  -0.00000,  -0.00006,9921628.00000,   0.00000,274640576.00000,   0.00000,   0.00000,   0.00000,-464718944.00000,   0.00000
4665171.16021,1941574.12448,-5366295.14960,   0.00002,  -0.00000,  -0.00007,10992767.00000,   0.00000,274640576.00000,   0.00000,   0.00000,   0.00000,-463647808.00000,   0.00000
5244946.76682,2170787.73640,-5966295.48668,   0.00002,  -0.00000,  -0.00008,12086941.00000,   0.00000,274640576.00000,   0.00000,   0.00000,   0.00000,-462553632.00000,   0.00000
5814610.00821,2376405.82944,-6566295.82376,   0.00002,  -0.00000,  -0.00009,13200757.00000,   0.00000,274640576.00000,   0.00000,   0.00000,   0.00000,-461439824.00000,   0.00000
6407868.76847,2592136.28772,-7166296.16084,   0.00002,  -0.00000,  -0.00009,14337723.00000,   0.00000,274640576.00000,   0.00000,   0.00000,   0.00000,-460302848.00000,   0.00000
7001127.52872,2807866.74599,-7766296.49792,   0.00003,  -0.00000,  -0.00010,15487497.00000,   0.00000,274640576.00000,   0.00000,   0.00000,   0.00000,-459153072.00000,   0.00000
7617981.80785,3033709.56950,-8373038.41182,   0.00003,  -0.00000,  -0.00011,16663999.00000,   0.00000,274640576.00000,   0.00000,   0.00000,   0.00000,-457976576.00000,   0.00000
8234836.08699,3259552.39301,-8973038.74890,   0.00003,  -0.00000,  -0.00012,17834200.00000,   0.00000,274640576.00000,   0.00000,   0.00000,   0.00000,-456806368.00000,   0.00000
8865173.51976,3471912.06287,-9573039.08598,   0.00003,  -0.00000,  -0.00012,19011596.00000,   0.00000,274640576.00000,   0.00000,   0.00000,   0.00000,-455628976.00000,   0.00000
9495510.95253,3684271.73274,-10179780.99988,   0.00004,  -0.00000,  -0.00013,20199054.00000,   0.00000,274640576.00000,   0.00000,   0.00000,   0.00000,-454441520.00000,   0.00000
10149443.90418,3906743.76783,-10786522.91378,   0.00004,  -0.00000,  -0.00014,21393944.00000,   0.00000,274640576.00000,   0.00000,   0.00000,   0.00000,-453246624.00000,   0.00000
10803376.85583,4129215.80293,-11386523.25086,   0.00004,  -0.00000,  -0.00015,22576714.00000,   0.00000,274640576.00000,   0.00000,   0.00000,   0.00000,-452063856.00000,   0.00000
11457309.80748,4351687.83803,-11993265.16476,   0.00004,  -0.00000,  -0.00016,23768476.00000,   0.00000,274640576.00000,   0.00000,   0.00000,   0.00000,-450872096.00000,   0.00000
12124725.91277,4560676.71948,-12600007.07866,   0.00005,  -0.00000,  -0.00016,24965540.00000,   0.00000,274640576.00000,   0.00000,   0.00000,   0.00000,-449675040.00000,   0.00000
12825849.90216,4803373.48504,-13206748.99256,   0.00005,  -0.00000,  -0.00017,26174088.00000,   0.00000,274640576.00000,   0.00000,   0.00000,   0.00000,-448466496.00000,   0.00000
13516861.52633,5022474.73173,-13813490.90646,   0.00005,  -0.00000,  -0.00018,27380290.00000,   0.00000,274640576.00000,   0.00000,   0.00000,   0.00000,-447260288.00000,   0.00000
14197760.78526,5217980.45954,-14420232.82036,   0.00005,  -0.00000,  -0.00019,28584936.00000,   0.00000,274640576.00000,   0.00000,   0.00000,   0.00000,-446055648.00000,   0.00000
14912367.92830,5447194.07146,-15026974.73426,   0.00006,  -0.00000,  -0.00020,29802632.00000,   0.00000,274640576.00000,   0.00000,   0.00000,   0.00000,-444837952.00000,   0.00000
15626975.07133,5676407.68338,-15633716.64816,   0.00006,  -0.00000,  -0.00020,31022040.00000,   0.00000,274640576.00000,   0.00000,   0.00000,   0.00000,-443618528.00000,   0.00000
16355065.36801,5892138.14165,-16240458.56206,   0.00006,  -0.00001,  -0.00021,32250204.00000,   0.00000,274640576.00000,   0.00000,   0.00000,   0.00000,-442390368.00000,   0.00000
17083155.66469,6107868.59993,-16847200.47596,   0.00007,  -0.00001,  -0.00022,33480398.00000,   0.00000,274640576.00000,   0.00000,   0.00000,   0.00000,-441160176.00000,   0.00000
17834841.48025,6333711.42343,-17460683.96668,   0.00007,  -0.00001,  -0.00023,34732480.00000,   0.00000,274640576.00000,   0.00000,   0.00000,   0.00000,-439908096.00000,   0.00000
18586527.29580,6559554.24694,-18067425.88058,   0.00007,  -0.00001,  -0.00023,35976040.00000,   0.00000,274640576.00000,   0.00000,   0.00000,   0.00000,-438664544.00000,   0.00000
19328100.74612,6761801.55157,-18674167.79448,   0.00007,  -0.00001,  -0.00024,37219024.00000,   0.00000,274640576.00000,   0.00000,   0.00000,   0.00000,-437421552.00000,   0.00000
20103382.08055,6997756.74031,-19287651.28520,   0.00008,  -0.00001,  -0.00025,38485644.00000,   0.00000,274640576.00000,   0.00000,   0.00000,   0.00000,-436154928.00000,   0.00000
20868551.04975,7210116.41018,-19901134.77592,   0.00008,  -0.00001,  -0.00026,39751068.00000,   0.00000,274640576.00000,   0.00000,   0.00000,   0.00000,-434889504.00000,   0.00000
21657315.53782,7432588.44527,-20507876.68982,   0.00008,  -0.00001,  -0.00027,41016700.00000,   0.00000,274640576.00000,   0.00000,   0.00000,   0.00000,-433623872.00000,   0.00000
22446080.02589,7655060.48037,-21121360.18054,   0.00009,  -0.00001,  -0.00027,42293084.00000,   0.00000,274640576.00000,   0.00000,   0.00000,   0.00000,-432347488.00000,   0.00000
23248327.66760,7864049.36183,-21734843.67126,   0.00009,  -0.00001,  -0.00028,43576956.00000,   0.00000,274640576.00000,   0.00000,   0.00000,   0.00000,-431063616.00000,   0.00000
24037092.15567,8086521.39692,-22341585.58516,   0.00009,  -0.00001,  -0.00029,44843076.00000,   0.00000,274640576.00000,   0.00000,   0.00000,   0.00000,-429797504.00000,   0.00000
24862935.31626,8305622.64361,-22955069.07588,   0.00010,  -0.00001,  -0.00030,46136244.00000,   0.00000,274640576.00000,   0.00000,   0.00000,   0.00000,-428504336.00000,   0.00000
25665182.95797,8514611.52506,-23568552.56660,   0.00010,  -0.00001,  -0.00031,47418772.00000,   0.00000,274640576.00000,   0.00000,   0.00000,   0.00000,-427221808.00000,   0.00000
26491026.11855,8733712.77175,-24182036.05732,   0.00010,  -0.00001,  -0.00031,48710372.00000,   0.00000,274640576.00000,   0.00000,   0.00000,   0.00000,-425930208.00000,   0.00000
27316869.27914,8952814.01843,-24795519.54804,   0.00011,  -0.00001,  -0.00032,50000864.00000,   0.00000,274640576.00000,   0.00000,   0.00000,   0.00000,-424639712.00000,   0.00000
28166307.95860,9182027.63035,-25409003.03877,   0.00011,  -0.00001,  -0.00033,51300256.00000,   0.00000,274640576.00000,   0.00000,   0.00000,   0.00000,-423340320.00000,   0.00000
29005634.27283,9387645.72340,-26022486.52949,   0.00011,  -0.00001,  -0.00034,52595908.00000,   0.00000,274640576.00000,   0.00000,   0.00000,   0.00000,-422044672.00000,   0.00000
29878668.47116,9626971.70055,-26635970.02021,   0.00012,  -0.00001,  -0.00035,53902832.00000,   0.00000,274640576.00000,   0.00000,   0.00000,   0.00000,-420737744.00000,   0.00000
30717994.78539,9832589.79359,-27249453.51093,   0.00012,  -0.00002,  -0.00035,55196080.00000,   0.00000,274640576.00000,   0.00000,   0.00000,   0.00000,-419444496.00000,   0.00000
31580916.61849,10048320.25187,-27862937.00165,   0.00012,  -0.00002,  -0.00036,56498264.00000,   0.00000,274640576.00000,   0.00000,   0.00000,   0.00000,-418142304.00000,   0.00000
32467433.97047,10274163.07537,-28483162.06919,   0.00013,  -0.00002,  -0.00037,57819472.00000,   0.00000,274640576.00000,   0.00000,   0.00000,   0.00000,-416821104.00000,   0.00000
33343838.95721,10476410.38001,-29096645.55991,   0.00013,  -0.00002,  -0.00038,59127404.00000,   0.00000,274640576.00000,   0.00000,   0.00000,   0.00000,-415513168.00000,   0.00000
34230356.30919,10702253.20351,-29710129.05063,   0.00013,  -0.00002,  -0.00039,60436908.00000,   0.00000,274640576.00000,   0.00000,   0.00000,   0.00000,-414203664.00000,   0.00000
35106761.29593,10904500.50815,-30323612.54136,   0.00014,  -0.00002,  -0.00039,61743408.00000,   0.00000,274640576.00000,   0.00000,   0.00000,   0.00000,-412897168.00000,   0.00000
36006761.80155,11116860.17801,-30943837.60890,   0.00014,  -0.00002,  -0.00040,63069480.00000,   0.00000,274640576.00000,   0.00000,   0.00000,   0.00000,-411571104.00000,   0.00000
36906762.30717,11329219.84788,-31557321.09962,   0.00015,  -0.00002,  -0.00041,64385200.00000,   0.00000,274640576.00000,   0.00000,   0.00000,   0.00000,-410255376.00000,   0.00000
37806762.81279,11541579.51774,-32170804.59034,   0.00015,  -0.00002,  -0.00042,65700672.00000,   0.00000,274640576.00000,   0.00000,   0.00000,   0.00000,-408939904.00000,   0.00000
38720246.47205,11740456.03396,-32791029.65788,   0.00015,  -0.00002,  -0.00043,67033960.00000,   0.00000,274640576.00000,   0.00000,   0.00000,   0.00000,-407606624.00000,   0.00000
39643842.49654,11962928.06906,-33404513.14860,   0.00016,  -0.00002,  -0.00043,68359456.00000,   0.00000,274640576.00000,   0.00000,   0.00000,   0.00000,-406281120.00000,   0.00000
40557326.15580,12161804.58528,-34024738.21615,   0.00016,  -0.00002,  -0.00044,69692888.00000,   0.00000,274640576.00000,   0.00000,   0.00000,   0.00000,-404947680.00000,   0.00000
41494405.33394,12370793.46674,-34638221.70687,   0.00016,  -0.00002,  -0.00045,71026696.00000,   0.00000,274640576.00000,   0.00000,   0.00000,   0.00000,-403613888.00000,   0.00000
42407888.99320,12569669.98296,-35258446.77441,   0.00017,  -0.00003,  -0.00046,72360672.00000,   0.00000,274640576.00000,   0.00000,   0.00000,   0.00000,-402279904.00000,   0.00000
43344968.17133,12778658.86442,-35871930.26513,   0.00017,  -0.00003,  -0.00047,73695176.00000,   0.00000,274640576.00000,   0.00000,   0.00000,   0.00000,-400945408.00000,   0.00000
44305642.86834,12997760.11110,-36492155.33267,   0.00018,  -0.00003,  -0.00047,75050328.00000,   0.00000,274640576.00000,   0.00000,   0.00000,   0.00000,-399590240.00000,   0.00000
45232609.68124,13183153.47368,-37105638.82339,   0.00018,  -0.00003,  -0.00048,76383672.00000,   0.00000,274640576.00000,   0.00000,   0.00000,   0.00000,-398256896.00000,   0.00000
46193284.37825,13402254.72037,-37725863.89093,   0.00018,  -0.00003,  -0.00049,77739896.00000,   0.00000,274640576.00000,   0.00000,   0.00000,   0.00000,-396900672.00000,   0.00000
47143846.71003,13597760.44818,-38346088.95848,   0.00019,  -0.00003,  -0.00050,79094736.00000,   0.00000,274640576.00000,   0.00000,   0.00000,   0.00000,-395545840.00000,   0.00000
48118004.56068,13803378.54122,-38959572.44920,   0.00019,  -0.00003,  -0.00051,80450728.00000,   0.00000,274640576.00000,   0.00000,   0.00000,   0.00000,-394189856.00000,   0.00000
49068566.89245,13998884.26904,-39579797.51674,   0.00020,  -0.00003,  -0.00051,81806952.00000,   0.00000,274640576.00000,   0.00000,   0.00000,   0.00000,-392833632.00000,   0.00000
50032612.37787,14180906.84321,-40200022.58428,   0.00020,  -0.00003,  -0.00052,83172456.00000,   0.00000,274640576.00000,   0.00000,   0.00000,   0.00000,-391468128.00000,   0.00000
51006770.22852,14386524.93625,-40813506.07500,   0.00020,  -0.00003,  -0.00053,84530992.00000,   0.00000,274640576.00000,   0.00000,   0.00000,   0.00000,-390109584.00000,   0.00000
51970815.71394,14568547.51042,-41433731.14255,   0.00021,  -0.00004,  -0.00054,85898296.00000,   0.00000,274640576.00000,   0.00000,   0.00000,   0.00000,-388742272.00000,   0.00000
52968569.08347,14784277.96870,-42047214.63327,   0.00021,  -0.00004,  -0.00055,87269424.00000,   0.00000,274640576.00000,   0.00000,   0.00000,   0.00000,-387371152.00000,   0.00000
53932614.56888,14966300.54287,-42667439.70081,   0.00022,  -0.00004,  -0.00055,88638720.00000,   0.00000,274640576.00000,   0.00000,   0.00000,   0.00000,-386001856.00000,   0.00000
54920255.57318,15158435.48227,-43287664.76835,   0.00022,  -0.00004,  -0.00056,90019864.00000,   0.00000,274640576.00000,   0.00000,   0.00000,   0.00000,-384620704.00000,   0.00000
55897784.21224,15326974.90279,-43901148.25907,   0.00022,  -0.00004,  -0.00057,91390528.00000,   0.00000,274640576.00000,   0.00000,   0.00000,   0.00000,-383250048.00000,   0.00000
56909020.73540,15529222.20743,-44521373.32661,   0.00023,  -0.00004,  -0.00058,92784992.00000,   0.00000,274640576.00000,   0.00000,   0.00000,   0.00000,-381855584.00000,   0.00000
57896661.73970,15721357.14683,-45141598.39416,   0.00023,  -0.00004,  -0.00059,94169944.00000,   0.00000,274640576.00000,   0.00000,   0.00000,   0.00000,-380470624.00000,   0.00000
58897785.89763,15900008.93259,-45755081.88488,   0.00024,  -0.00004,  -0.00059,95555416.00000,   0.00000,274640576.00000,   0.00000,   0.00000,   0.00000,-379085152.00000,   0.00000
59875314.53669,16068548.35312,-46375306.95242,   0.00024,  -0.00004,  -0.00060,96940968.00000,   0.00000,274640576.00000,   0.00000,   0.00000,   0.00000,-377699616.00000,   0.00000
60876438.69463,16247200.13888,-46995532.01996,   0.00025,  -0.00004,  -0.00061,98338920.00000,   0.00000,274640576.00000,   0.00000,   0.00000,   0.00000,-376301664.00000,   0.00000
61901158.37144,16435964.28987,-47609015.51068,   0.00025,  -0.00005,  -0.00062,99739808.00000,   0.00000,274640576.00000,   0.00000,   0.00000,   0.00000,-374900768.00000,   0.00000
62902282.52937,16614616.07563,-48229240.57823,   0.00025,  -0.00005,  -0.00063,101140504.00000,   0.00000,274640576.00000,   0.00000,   0.00000,   0.00000,-373500064.00000,   0.00000
63893294.32208,16769672.34251,-48849465.64577,   0.00026,  -0.00005,  -0.00064,102540584.00000,   0.00000,274640576.00000,   0.00000,   0.00000,   0.00000,-372100000.00000,   0.00000
64907901.63365,16934840.97463,-49462949.13649,   0.00026,  -0.00005,  -0.00064,103943520.00000,   0.00000,274640576.00000,   0.00000,   0.00000,   0.00000,-370697056.00000,   0.00000
65932621.31046,17123605.12562,-50083174.20403,   0.00027,  -0.00005,  -0.00065,105359360.00000,   0.00000,274640576.00000,   0.00000,   0.00000,   0.00000,-369281216.00000,   0.00000
66923633.10316,17278661.39251,-50696657.69475,   0.00027,  -0.00005,  -0.00066,106753392.00000,   0.00000,274640576.00000,   0.00000,   0.00000,   0.00000,-367887184.00000,   0.00000
67938240.41474,17443830.02462,-51316882.76229,   0.00028,  -0.00005,  -0.00067,108169376.00000,   0.00000,274640576.00000,   0.00000,   0.00000,   0.00000,-366471200.00000,   0.00000
68942735.36109,17585403.13787,-51937107.82984,   0.00028,  -0.00005,  -0.00068,109584416.00000,   0.00000,274640576.00000,   0.00000,   0.00000,   0.00000,-365056160.00000,   0.00000
69980938.19154,17760684.13522,-52550591.32056,   0.00028,  -0.00006,  -0.00068,111004016.00000,   0.00000,274640576.00000,   0.00000,   0.00000,   0.00000,-363636560.00000,   0.00000
70995545.50312,17925852.76733,-53170816.38810,   0.00029,  -0.00006,  -0.00069,112422456.00000,   0.00000,274640576.00000,   0.00000,   0.00000,   0.00000,-362218112.00000,   0.00000
72000040.44946,18067425.88058,-53784299.87882,   0.00029,  -0.00006,  -0.00070,113829992.00000,   0.00000,274640576.00000,   0.00000,   0.00000,   0.00000,-360810592.00000,   0.00000
73028130.91468,18219111.35905,-54404524.94636,   0.00030,  -0.00006,  -0.00071,115259072.00000,   0.00000,274640576.00000,   0.00000,   0.00000,   0.00000,-359381504.00000,   0.00000
74056221.37990,18370796.83753,-55018008.43708,   0.00030,  -0.00006,  -0.00072,116678880.00000,   0.00000,274640576.00000,   0.00000,   0.00000,   0.00000,-357961696.00000,   0.00000
75060716.32625,18512369.95077,-55631491.92780,   0.00031,  -0.00006,  -0.00072,118087264.00000,   0.00000,274640576.00000,   0.00000,   0.00000,   0.00000,-356553312.00000,   0.00000
76088806.79146,18664055.42924,-56251716.99535,   0.00031,  -0.00006,  -0.00073,119516864.00000,   0.00000,274640576.00000,   0.00000,   0.00000,   0.00000,-355123712.00000,   0.00000
77106784.89145,18792145.38885,-56865200.48607,   0.00031,  -0.00006,  -0.00074,120934928.00000,   0.00000,274640576.00000,   0.00000,   0.00000,   0.00000,-353705648.00000,   0.00000
78134875.35667,18943830.86732,-57485425.55361,   0.00032,  -0.00007,  -0.00075,122364280.00000,   0.00000,274640576.00000,   0.00000,   0.00000,   0.00000,-352276288.00000,   0.00000
79152853.45666,19071920.82692,-58098909.04433,   0.00032,  -0.00007,  -0.00076,123782024.00000,   0.00000,274640576.00000,   0.00000,   0.00000,   0.00000,-350858560.00000,   0.00000
80170831.55665,19200010.78652,-58712392.53505,   0.00033,  -0.00007,  -0.00076,125199416.00000,   0.00000,274640576.00000,   0.00000,   0.00000,   0.00000,-349441152.00000,   0.00000
81188809.65663,19328100.74612,-59325876.02577,   0.00033,  -0.00007,  -0.00077,126616512.00000,   0.00000,274640576.00000,   0.00000,   0.00000,   0.00000,-348024064.00000,   0.00000
82206787.75662,19456190.70573,-59939359.51649,   0.00034,  -0.00007,  -0.00078,128033256.00000,   0.00000,274640576.00000,   0.00000,   0.00000,   0.00000,-346607328.00000,   0.00000
83214653.49138,19560685.14645,-60559584.58404,   0.00034,  -0.00007,  -0.00079,129457264.00000,   0.00000,274640576.00000,   0.00000,   0.00000,   0.00000,-345183312.00000,   0.00000
84232631.59137,19688775.10605,-61173068.07476,   0.00034,  -0.00007,  -0.00080,130873264.00000,   0.00000,274640576.00000,   0.00000,   0.00000,   0.00000,-343767312.00000,   0.00000
85240497.32612,19793269.54678,-61786551.56548,   0.00035,  -0.00008,  -0.00080,132287328.00000,   0.00000,274640576.00000,   0.00000,   0.00000,   0.00000,-342353248.00000,   0.00000
86248363.06088,19897763.98751,-62400035.05620,   0.00035,  -0.00008,  -0.00081,133701264.00000,   0.00000,274640576.00000,   0.00000,   0.00000,   0.00000,-340939312.00000,   0.00000
87279824.31451,20012370.79347,-63013518.54692,   0.00036,  -0.00008,  -0.00082,135127040.00000,   0.00000,274640576.00000,   0.00000,   0.00000,   0.00000,-339513536.00000,   0.00000
88287690.04926,20116865.23419,-63627002.03764,   0.00036,  -0.00008,  -0.00083,136541152.00000,   0.00000,274640576.00000,   0.00000,   0.00000,   0.00000,-338099424.00000,   0.00000
89295555.78402,20221359.67492,-64240485.52836,   0.00037,  -0.00008,  -0.00084,137955664.00000,   0.00000,274640576.00000,   0.00000,   0.00000,   0.00000,-336684912.00000,   0.00000
90293309.15354,20302258.59677,-64847227.44226,   0.00037,  -0.00008,  -0.00084,139359616.00000,   0.00000,274640576.00000,   0.00000,   0.00000,   0.00000,-335280960.00000,   0.00000
91301174.88830,20406753.03750,-65460710.93298,   0.00038,  -0.00009,  -0.00085,140775168.00000,   0.00000,274640576.00000,   0.00000,   0.00000,   0.00000,-333865408.00000,   0.00000
92298928.25782,20487651.95936,-66074194.42370,   0.00038,  -0.00009,  -0.00086,142189888.00000,   0.00000,274640576.00000,   0.00000,   0.00000,   0.00000,-332450688.00000,   0.00000
93296681.62735,20568550.88121,-66687677.91443,   0.00038,  -0.00009,  -0.00087,143605424.00000,   0.00000,274640576.00000,   0.00000,   0.00000,   0.00000,-331035152.00000,   0.00000
94318030.51575,20659562.16829,-67294419.82833,   0.00039,  -0.00009,  -0.00087,145024256.00000,   0.00000,274640576.00000,   0.00000,   0.00000,   0.00000,-329616320.00000,   0.00000
95315783.88527,20740461.09015,-67907903.31905,   0.00039,  -0.00009,  -0.00088,146441520.00000,   0.00000,274640576.00000,   0.00000,   0.00000,   0.00000,-328199056.00000,   0.00000
96313537.25480,20821360.01200,-68514645.23295,   0.00040,  -0.00009,  -0.00089,147850048.00000,   0.00000,274640576.00000,   0.00000,   0.00000,   0.00000,-326790528.00000,   0.00000
97277582.74022,20868551.04975,-69128128.72367,   0.00040,  -0.00009,  -0.00090,149255296.00000,   0.00000,274640576.00000,   0.00000,   0.00000,   0.00000,-325385280.00000,   0.00000
98265223.74451,20925854.45273,-69734870.63757,   0.00041,  -0.00010,  -0.00091,150663680.00000,   0.00000,274640576.00000,   0.00000,   0.00000,   0.00000,-323976896.00000,   0.00000
99262977.11403,21006753.37458,-70348354.12829,   0.00041,  -0.00010,  -0.00091,152083360.00000,   0.00000,274640576.00000,   0.00000,   0.00000,   0.00000,-322557216.00000,   0.00000
100250618.11832,21064056.77756,-70955096.04219,   0.00042,  -0.00010,  -0.00092,153492576.00000,   0.00000,274640576.00000,   0.00000,   0.00000,   0.00000,-321148000.00000,   0.00000
101214663.60374,21111247.81531,-71561837.95609,   0.00042,  -0.00010,  -0.00093,154890128.00000,   0.00000,274640576.00000,   0.00000,   0.00000,   0.00000,-319750448.00000,   0.00000
102192192.24280,21144955.69941,-72168579.86999,   0.00042,  -0.00010,  -0.00094,156298416.00000,   0.00000,274640576.00000,   0.00000,   0.00000,   0.00000,-318342160.00000,   0.00000
103156237.72822,21192146.73716,-72775321.78389,   0.00043,  -0.00010,  -0.00095,157696384.00000,   0.00000,274640576.00000,   0.00000,   0.00000,   0.00000,-316944192.00000,   0.00000
104133766.36728,21225854.62127,-73382063.69779,   0.00043,  -0.00011,  -0.00095,159104880.00000,   0.00000,274640576.00000,   0.00000,   0.00000,   0.00000,-315535696.00000,   0.00000
105087699.48747,21249450.14014,-73988805.61169,   0.00044,  -0.00011,  -0.00096,160501632.00000,   0.00000,274640576.00000,   0.00000,   0.00000,   0.00000,-314138944.00000,   0.00000
106051744.97289,21296641.17789,-74595547.52559,   0.00044,  -0.00011,  -0.00097,161899888.00000,   0.00000,274640576.00000,   0.00000,   0.00000,   0.00000,-312740688.00000,   0.00000
106995565.72785,21296641.17789,-75202289.43949,   0.00045,  -0.00011,  -0.00098,163295536.00000,   0.00000,274640576.00000,   0.00000,   0.00000,   0.00000,-311345040.00000,   0.00000
107949498.84803,21320236.69676,-75809031.35339,   0.00045,  -0.00011,  -0.00099,164692608.00000,   0.00000,274640576.00000,   0.00000,   0.00000,   0.00000,-309947968.00000,   0.00000
108903431.96822,21343832.21564,-76409031.69047,   0.00045,  -0.00012,  -0.00099,166080352.00000,   0.00000,274640576.00000,   0.00000,   0.00000,   0.00000,-308560224.00000,   0.00000
109823657.20430,21333719.85040,-77015773.60437,   0.00046,  -0.00012,  -0.00100,167464656.00000,   0.00000,274640576.00000,   0.00000,   0.00000,   0.00000,-307175920.00000,   0.00000
110777590.32449,21357315.36928,-77615773.94145,   0.00046,  -0.00012,  -0.00101,168852800.00000,   0.00000,274640576.00000,   0.00000,   0.00000,   0.00000,-305787776.00000,   0.00000
111697815.56057,21347203.00405,-78222515.85535,   0.00047,  -0.00012,  -0.00102,170237312.00000,   0.00000,274640576.00000,   0.00000,   0.00000,   0.00000,-304403264.00000,   0.00000
112618040.79665,21337090.63881,-78822516.19242,   0.00047,  -0.00012,  -0.00102,171612848.00000,   0.00000,274640576.00000,   0.00000,   0.00000,   0.00000,-303027728.00000,   0.00000
113561861.55161,21337090.63881,-79422516.52950,   0.00048,  -0.00012,  -0.00103,173000400.00000,   0.00000,274640576.00000,   0.00000,   0.00000,   0.00000,-301640176.00000,   0.00000
114448378.90358,21293270.38948,-80022516.86658,   0.00048,  -0.00013,  -0.00104,174363280.00000,   0.00000,274640576.00000,   0.00000,   0.00000,   0.00000,-300277296.00000,   0.00000
115368604.13967,21283158.02425,-80622517.20366,   0.00048,  -0.00013,  -0.00105,175739424.00000,   0.00000,274640576.00000,   0.00000,   0.00000,   0.00000,-298901152.00000,   0.00000
116278717.01052,21249450.14014,-81222517.54074,   0.00049,  -0.00013,  -0.00106,177114624.00000,   0.00000,274640576.00000,   0.00000,   0.00000,   0.00000,-297525952.00000,   0.00000
117165234.36249,21205629.89080,-81822517.87782,   0.00049,  -0.00013,  -0.00106,178478176.00000,   0.00000,274640576.00000,   0.00000,   0.00000,   0.00000,-296162400.00000,   0.00000
118051751.71447,21161809.64147,-82422518.21490,   0.00050,  -0.00013,  -0.00107,179842064.00000,   0.00000,274640576.00000,   0.00000,   0.00000,   0.00000,-294798512.00000,   0.00000
118938269.06644,21117989.39213,-83015776.97516,   0.00050,  -0.00014,  -0.00108,181196672.00000,   0.00000,274640576.00000,   0.00000,   0.00000,   0.00000,-293443904.00000,   0.00000
119824786.41842,21074169.14279,-83615777.31223,   0.00050,  -0.00014,  -0.00109,182560784.00000,   0.00000,274640576.00000,   0.00000,   0.00000,   0.00000,-292079792.00000,   0.00000
120687708.25152,21020236.52822,-84209036.07249,   0.00051,  -0.00014,  -0.00109,183903744.00000,   0.00000,274640576.00000,   0.00000,   0.00000,   0.00000,-290736832.00000,   0.00000
121540517.71939,20942708.39478,-84809036.40957,   0.00051,  -0.00014,  -0.00110,185255008.00000,   0.00000,274640576.00000,   0.00000,   0.00000,   0.00000,-289385568.00000,   0.00000
122393327.18726,20865180.26134,-85402295.16983,   0.00052,  -0.00014,  -0.00111,186597056.00000,   0.00000,274640576.00000,   0.00000,   0.00000,   0.00000,-288043520.00000,   0.00000
123246136.65513,20787652.12789,-85995553.93009,   0.00052,  -0.00015,  -0.00112,187939056.00000,   0.00000,274640576.00000,   0.00000,   0.00000,   0.00000,-286701520.00000,   0.00000
124098946.12300,20710123.99445,-86588812.69034,   0.00052,  -0.00015,  -0.00113,189280992.00000,   0.00000,274640576.00000,   0.00000,   0.00000,   0.00000,-285359584.00000,   0.00000
124928160.07200,20622483.49578,-87182071.45060,   0.00053,  -0.00015,  -0.00113,190610944.00000,   0.00000,274640576.00000,   0.00000,   0.00000,   0.00000,-284029632.00000,   0.00000
125747261.65576,20511247.47823,-87775330.21086,   0.00053,  -0.00015,  -0.00114,191939632.00000,   0.00000,274640576.00000,   0.00000,   0.00000,   0.00000,-282700944.00000,   0.00000
126576475.60476,20423606.97955,-88361847.39430,   0.00054,  -0.00015,  -0.00115,193259840.00000,   0.00000,274640576.00000,   0.00000,   0.00000,   0.00000,-281380736.00000,   0.00000
127395577.18853,20312370.96201,-88955106.15455,   0.00054,  -0.00016,  -0.00116,194588272.00000,   0.00000,274640576.00000,   0.00000,   0.00000,   0.00000,-280052304.00000,   0.00000
128191083.25342,20191022.57923,-89548364.91481,   0.00054,  -0.00016,  -0.00116,195904624.00000,   0.00000,274640576.00000,   0.00000,   0.00000,   0.00000,-278735952.00000,   0.00000
128986589.31831,20069674.19645,-90134882.09825,   0.00055,  -0.00016,  -0.00117,197211616.00000,   0.00000,274640576.00000,   0.00000,   0.00000,   0.00000,-277428960.00000,   0.00000
129782095.38320,19948325.81367,-90721399.28168,   0.00055,  -0.00016,  -0.00118,198518560.00000,   0.00000,274640576.00000,   0.00000,   0.00000,   0.00000,-276122016.00000,   0.00000
130543893.56399,19793269.54678,-91307916.46512,   0.00056,  -0.00016,  -0.00119,199812944.00000,   0.00000,274640576.00000,   0.00000,   0.00000,   0.00000,-274827632.00000,   0.00000
131339399.62888,19671921.16400,-91894433.64856,   0.00056,  -0.00017,  -0.00119,201119872.00000,   0.00000,274640576.00000,   0.00000,   0.00000,   0.00000,-273520704.00000,   0.00000
132101197.80966,19516864.89712,-92480950.83199,   0.00056,  -0.00017,  -0.00120,202414464.00000,   0.00000,274640576.00000,   0.00000,   0.00000,   0.00000,-272226112.00000,   0.00000
132839400.47157,19351696.26500,-93067468.01543,   0.00057,  -0.00017,  -0.00121,203697568.00000,   0.00000,274640576.00000,   0.00000,   0.00000,   0.00000,-270943008.00000,   0.00000
133577603.13348,19186527.63288,-93653985.19887,   0.00057,  -0.00017,  -0.00122,204981040.00000,   0.00000,274640576.00000,   0.00000,   0.00000,   0.00000,-269659536.00000,   0.00000
134315805.79540,19021359.00076,-94233760.80548,   0.00057,  -0.00018,  -0.00123,206255744.00000,   0.00000,274640576.00000,   0.00000,   0.00000,   0.00000,-268384832.00000,   0.00000
135054008.45731,18856190.36865,-94813536.41210,   0.00058,  -0.00018,  -0.00123,207531200.00000,   0.00000,274640576.00000,   0.00000,   0.00000,   0.00000,-267109376.00000,   0.00000
135758503.23511,18657313.85242,-95400053.59554,   0.00058,  -0.00018,  -0.00124,208804064.00000,   0.00000,274640576.00000,   0.00000,   0.00000,   0.00000,-265836512.00000,   0.00000
136462998.01292,18458437.33620,-95979829.20215,   0.00058,  -0.00018,  -0.00125,210068576.00000,   0.00000,274640576.00000,   0.00000,   0.00000,   0.00000,-264572000.00000,   0.00000
137167492.79073,18259560.81998,-96559604.80877,   0.00059,  -0.00018,  -0.00126,211333968.00000,   0.00000,274640576.00000,   0.00000,   0.00000,   0.00000,-263306608.00000,   0.00000
137848392.04966,18050571.93852,-97139380.41538,   0.00059,  -0.00019,  -0.00126,212588288.00000,   0.00000,274640576.00000,   0.00000,   0.00000,   0.00000,-262052288.00000,   0.00000
138529291.30859,17841583.05707,-97712414.44518,   0.00060,  -0.00019,  -0.00127,213834496.00000,   0.00000,274640576.00000,   0.00000,   0.00000,   0.00000,-260806080.00000,   0.00000
139210190.56752,17632594.17561,-98292190.05179,   0.00060,  -0.00019,  -0.00128,215090784.00000,   0.00000,274640576.00000,   0.00000,   0.00000,   0.00000,-259549792.00000,   0.00000
139857381.94235,17389897.41005,-98865224.08159,   0.00060,  -0.00019,  -0.00129,216326624.00000,   0.00000,274640576.00000,   0.00000,   0.00000,   0.00000,-258313952.00000,   0.00000
140504573.31718,17147200.64449,-99438258.11138,   0.00061,  -0.00020,  -0.00129,217563456.00000,   0.00000,274640576.00000,   0.00000,   0.00000,   0.00000,-257077120.00000,   0.00000
141151764.69200,16904503.87893,-100018033.71800,   0.00061,  -0.00020,  -0.00130,218810640.00000,   0.00000,274640576.00000,   0.00000,   0.00000,   0.00000,-255829936.00000,   0.00000
141775360.54796,16651694.74814,-100591067.74779,   0.00061,  -0.00020,  -0.00131,220037616.00000,   0.00000,274640576.00000,   0.00000,   0.00000,   0.00000,-254602960.00000,   0.00000
142398956.40391,16398885.61735,-101157360.20076,   0.00062,  -0.00020,  -0.00132,221256464.00000,   0.00000,274640576.00000,   0.00000,   0.00000,   0.00000,-253384112.00000,   0.00000
142998956.74099,16135964.12133,-101730394.23056,   0.00062,  -0.00021,  -0.00132,222473856.00000,   0.00000,274640576.00000,   0.00000,   0.00000,   0.00000,-252166720.00000,   0.00000
143588844.71283,15849447.10643,-102303428.26035,   0.00062,  -0.00021,  -0.00133,223692368.00000,   0.00000,274640576.00000,   0.00000,   0.00000,   0.00000,-250948208.00000,   0.00000
144178732.68468,15562930.09153,-102869720.71333,   0.00063,  -0.00021,  -0.00134,224903008.00000,   0.00000,274640576.00000,   0.00000,   0.00000,   0.00000,-249737568.00000,   0.00000
144745025.13765,15266300.71140,-103436013.16630,   0.00063,  -0.00021,  -0.00134,226103728.00000,   0.00000,274640576.00000,   0.00000,   0.00000,   0.00000,-248536848.00000,   0.00000
145311317.59063,14969671.33128,-104002305.61927,   0.00063,  -0.00022,  -0.00135,227306704.00000,   0.00000,274640576.00000,   0.00000,   0.00000,   0.00000,-247333872.00000,   0.00000
145854014.52473,14662929.58592,-104568598.07225,   0.00064,  -0.00022,  -0.00136,228500976.00000,   0.00000,274640576.00000,   0.00000,   0.00000,   0.00000,-246139600.00000,   0.00000
146396711.45883,14356187.84055,-105134890.52522,   0.00064,  -0.00022,  -0.00137,229699184.00000,   0.00000,274640576.00000,   0.00000,   0.00000,   0.00000,-244941392.00000,   0.00000
146929296.02769,14025850.57632,-105694441.40137,   0.00064,  -0.00022,  -0.00137,230893520.00000,   0.00000,274640576.00000,   0.00000,   0.00000,   0.00000,-243747056.00000,   0.00000
147438285.07769,13685400.94685,-106260733.85434,   0.00064,  -0.00023,  -0.00138,232093344.00000,   0.00000,274640576.00000,   0.00000,   0.00000,   0.00000,-242547232.00000,   0.00000
147923678.60881,13334838.95216,-106820284.73050,   0.00065,  -0.00023,  -0.00139,233281040.00000,   0.00000,274640576.00000,   0.00000,   0.00000,   0.00000,-241359536.00000,   0.00000
148432667.65880,12994389.32269,-107379835.60665,   0.00065,  -0.00023,  -0.00140,234489264.00000,   0.00000,274640576.00000,   0.00000,   0.00000,   0.00000,-240151312.00000,   0.00000
148894465.67105,12633714.96276,-107939386.48280,   0.00065,  -0.00023,  -0.00140,235683632.00000,   0.00000,274640576.00000,   0.00000,   0.00000,   0.00000,-238956944.00000,   0.00000
149369746.83694,12259557.44919,-108498937.35895,   0.00066,  -0.00024,  -0.00141,236893216.00000,   0.00000,274640576.00000,   0.00000,   0.00000,   0.00000,-237747360.00000,   0.00000
149831544.84918,11898883.08926,-109051746.65828,   0.00066,  -0.00024,  -0.00142,238078976.00000,   0.00000,274640576.00000,   0.00000,   0.00000,   0.00000,-236561600.00000,   0.00000
150259634.97732,11504500.84523,-109611297.53444,   0.00066,  -0.00024,  -0.00142,239255984.00000,   0.00000,274640576.00000,   0.00000,   0.00000,   0.00000,-235384592.00000,   0.00000
150687725.10546,11110118.60119,-110164106.83377,   0.00066,  -0.00024,  -0.00143,240409696.00000,   0.00000,274640576.00000,   0.00000,   0.00000,   0.00000,-234230880.00000,   0.00000
151082107.34950,10682028.47305,-110716916.13310,   0.00067,  -0.00025,  -0.00144,241539232.00000,   0.00000,274640576.00000,   0.00000,   0.00000,   0.00000,-233101344.00000,   0.00000
151486601.95877,10277533.86378,-111269725.43243,   0.00067,  -0.00025,  -0.00145,242656784.00000,   0.00000,274640576.00000,   0.00000,   0.00000,   0.00000,-231983792.00000,   0.00000
151891096.56803,9873039.25452,-111815793.15494,   0.00067,  -0.00025,  -0.00145,243757792.00000,   0.00000,274640576.00000,   0.00000,   0.00000,   0.00000,-230882784.00000,   0.00000
152261883.29319,9434836.76114,-112368602.45427,   0.00067,  -0.00025,  -0.00146,244852656.00000,   0.00000,274640576.00000,   0.00000,   0.00000,   0.00000,-229787920.00000,   0.00000
152609074.49948,8986521.90254,-112914670.17678,   0.00068,  -0.00026,  -0.00147,245925824.00000,   0.00000,274640576.00000,   0.00000,   0.00000,   0.00000,-228714752.00000,   0.00000
152979861.22464,8548319.40917,-113460737.89929,   0.00068,  -0.00026,  -0.00147,247011408.00000,   0.00000,274640576.00000,   0.00000,   0.00000,   0.00000,-227629168.00000,   0.00000
153303456.91205,8089892.18533,-114006805.62180,   0.00068,  -0.00026,  -0.00148,248075648.00000,   0.00000,274640576.00000,   0.00000,   0.00000,   0.00000,-226564928.00000,   0.00000
153616940.23424,7607869.44262,-114552873.34431,   0.00068,  -0.00026,  -0.00149,249142544.00000,   0.00000,274640576.00000,   0.00000,   0.00000,   0.00000,-225498032.00000,   0.00000
153940535.92165,7149442.21879,-115092199.49000,   0.00069,  -0.00027,  -0.00150,250202112.00000,   0.00000,274640576.00000,   0.00000,   0.00000,   0.00000,-224438464.00000,   0.00000
154230423.72496,6657307.11085,-115631525.63569,   0.00069,  -0.00027,  -0.00150,251252864.00000,   0.00000,274640576.00000,   0.00000,   0.00000,   0.00000,-223387712.00000,   0.00000
154496716.00939,6155059.63767,-116177593.35820,   0.00069,  -0.00027,  -0.00151,252303504.00000,   0.00000,274640576.00000,   0.00000,   0.00000,   0.00000,-222337072.00000,   0.00000
154763008.29382,5652812.16450,-116710177.92707,   0.00069,  -0.00028,  -0.00152,253337312.00000,   0.00000,274640576.00000,   0.00000,   0.00000,   0.00000,-221303264.00000,   0.00000
154995592.69415,5116856.80722,-117249504.07276,   0.00070,  -0.00028,  -0.00152,254371568.00000,   0.00000,274640576.00000,   0.00000,   0.00000,   0.00000,-220269008.00000,   0.00000
155238289.45971,4604496.96882,-117788830.21844,   0.00070,  -0.00028,  -0.00153,255406560.00000,   0.00000,274640576.00000,   0.00000,   0.00000,   0.00000,-219234016.00000,   0.00000
155470873.86004,4068541.61154,-118321414.78731,   0.00070,  -0.00028,  -0.00154,256434240.00000,   0.00000,274640576.00000,   0.00000,   0.00000,   0.00000,-218206336.00000,   0.00000
155656267.22262,3512361.52380,-118853999.35618,   0.00070,  -0.00029,  -0.00155,257440992.00000,   0.00000,274640576.00000,   0.00000,   0.00000,   0.00000,-217199584.00000,   0.00000
155865256.10408,2966293.80129,-119386583.92505,   0.00070,  -0.00029,  -0.00155,258459888.00000,   0.00000,274640576.00000,   0.00000,   0.00000,   0.00000,-216180688.00000,   0.00000
156027053.94778,2400001.34832,-119919168.49391,   0.00071,  -0.00029,  -0.00156,259457824.00000,   0.00000,274640576.00000,   0.00000,   0.00000,   0.00000,-215182752.00000,   0.00000
156188851.79149,1833708.89534,-120445011.48596,   0.00071,  -0.00030,  -0.00157,260447360.00000,   0.00000,274640576.00000,   0.00000,   0.00000,   0.00000,-214193216.00000,   0.00000
156340537.26996,1243820.92349,-120970854.47801,   0.00071,  -0.00030,  -0.00157,261438816.00000,   0.00000,274640576.00000,   0.00000,   0.00000,   0.00000,-213201760.00000,   0.00000
156478739.59480,667416.10529,-121496697.47005,   0.00071,  -0.00030,  -0.00158,262419424.00000,   0.00000,274640576.00000,   0.00000,   0.00000,   0.00000,-212221152.00000,   0.00000
156583234.03552,57303.40298,-122022540.46210,   0.00071,  -0.00031,  -0.00159,263391088.00000,   0.00000,274640576.00000,   0.00000,   0.00000,   0.00000,-211249488.00000,   0.00000
156687728.47625,-552809.29933,-122548383.45415,   0.00071,  -0.00031,  -0.00159,264363728.00000,   0.00000,274640576.00000,   0.00000,   0.00000,   0.00000,-210276848.00000,   0.00000
156782110.55175,-1186517.52052,-123067484.86937,   0.00072,  -0.00031,  -0.00160,265329120.00000,   0.00000,274640576.00000,   0.00000,   0.00000,   0.00000,-209311456.00000,   0.00000
156839413.95473,-1816854.95329,-123586586.28460,   0.00072,  -0.00031,  -0.00161,266272688.00000,   0.00000,274640576.00000,   0.00000,   0.00000,   0.00000,-208367888.00000,   0.00000
156886604.99247,-2470787.90494,-124105687.69982,   0.00072,  -0.00032,  -0.00161,267218768.00000,   0.00000,274640576.00000,   0.00000,   0.00000,   0.00000,-207421808.00000,   0.00000
156933796.03022,-3124720.85658,-124624789.11505,   0.00072,  -0.00032,  -0.00162,268166208.00000,   0.00000,274640576.00000,   0.00000,   0.00000,   0.00000,-206474368.00000,   0.00000
156957391.54910,-3788766.17346,-125143890.53028,   0.00072,  -0.00032,  -0.00163,269104096.00000,   0.00000,274640576.00000,   0.00000,   0.00000,   0.00000,-205536480.00000,   0.00000
156957391.54910,-4462923.85558,-125656250.36868,   0.00072,  -0.00033,  -0.00163,270023488.00000,   0.00000,274640576.00000,   0.00000,   0.00000,   0.00000,-204617088.00000,   0.00000
156957391.54910,-5137081.53769,-126168610.20708,   0.00072,  -0.00033,  -0.00164,270944448.00000,   0.00000,274640576.00000,   0.00000,   0.00000,   0.00000,-203696128.00000,   0.00000
156923683.66499,-5844947.10390,-126680970.04549,   0.00073,  -0.00033,  -0.00165,271857440.00000,   0.00000,274640576.00000,   0.00000,   0.00000,   0.00000,-202783136.00000,   0.00000
156876492.62724,-6539329.51648,-127186588.30707,   0.00073,  -0.00034,  -0.00165,272750944.00000,   0.00000,274640576.00000,   0.00000,   0.00000,   0.00000,-201889632.00000,   0.00000
156819189.22426,-7257307.44793,-127692206.56866,   0.00073,  -0.00034,  -0.00166,273647648.00000,   0.00000,274640576.00000,   0.00000,   0.00000,   0.00000,-200992928.00000,   0.00000
156738290.30241,-7985397.74461,-128197824.83024,   0.00073,  -0.00034,  -0.00167,274535552.00000,   0.00000,274640576.00000,   0.00000,   0.00000,   0.00000,-200105024.00000,   0.00000
156647279.01533,-8737083.56016,-128703443.09182,   0.00073,  -0.00035,  -0.00167,275427008.00000,   0.00000,274640576.00000,   0.00000,   0.00000,   0.00000,-199213568.00000,   0.00000
156542784.57460,-9475286.22207,-129209061.35341,   0.00073,  -0.00035,  -0.00168,276308576.00000,   0.00000,274640576.00000,   0.00000,   0.00000,   0.00000,-198332000.00000,   0.00000
156404582.24977,-10247196.76809,-129707938.03817,   0.00073,  -0.00035,  -0.00169,277173472.00000,   0.00000,274640576.00000,   0.00000,   0.00000,   0.00000,-197467104.00000,   0.00000
156276492.29016,-10995511.79523,-130206814.72293,   0.00073,  -0.00035,  -0.00169,278039072.00000,   0.00000,274640576.00000,   0.00000,   0.00000,   0.00000,-196601504.00000,   0.00000
156114694.44646,-11777534.70648,-130705691.40769,   0.00073,  -0.00036,  -0.00170,278897664.00000,   0.00000,274640576.00000,   0.00000,   0.00000,   0.00000,-195742912.00000,   0.00000
155952896.60275,-12559557.61773,-131204568.09245,   0.00073,  -0.00036,  -0.00171,279758560.00000,   0.00000,274640576.00000,   0.00000,   0.00000,   0.00000,-194882016.00000,   0.00000
155733795.35606,-13385400.77832,-131696703.20040,   0.00073,  -0.00036,  -0.00171,280592800.00000,   0.00000,274640576.00000,   0.00000,   0.00000,   0.00000,-194047776.00000,   0.00000
155524806.47461,-14187648.42003,-132188838.30834,   0.00074,  -0.00037,  -0.00172,281427232.00000,   0.00000,274640576.00000,   0.00000,   0.00000,   0.00000,-193213344.00000,   0.00000
155305705.22792,-15013491.58061,-132680973.41628,   0.00074,  -0.00037,  -0.00172,282265664.00000,   0.00000,274640576.00000,   0.00000,   0.00000,   0.00000,-192374912.00000,   0.00000
155063008.46236,-15849447.10643,-133173108.52422,   0.00074,  -0.00037,  -0.00173,283095488.00000,   0.00000,274640576.00000,   0.00000,   0.00000,   0.00000,-191545088.00000,   0.00000
154796716.17793,-16695514.99748,-133658502.05534,   0.00074,  -0.00038,  -0.00174,283907680.00000,   0.00000,274640576.00000,   0.00000,   0.00000,   0.00000,-190732896.00000,   0.00000
154506828.37462,-17551695.25376,-134143895.58646,   0.00074,  -0.00038,  -0.00174,284711392.00000,   0.00000,274640576.00000,   0.00000,   0.00000,   0.00000,-189929184.00000,   0.00000
154216940.57131,-18407875.51004,-134629289.11758,   0.00074,  -0.00038,  -0.00175,285517088.00000,   0.00000,274640576.00000,   0.00000,   0.00000,   0.00000,-189123488.00000,   0.00000
153893344.88390,-19297763.65043,-135107941.07188,   0.00074,  -0.00039,  -0.00176,286306848.00000,   0.00000,274640576.00000,   0.00000,   0.00000,   0.00000,-188333728.00000,   0.00000
153569749.19649,-20187651.79082,-135586593.02618,   0.00074,  -0.00039,  -0.00176,287098432.00000,   0.00000,274640576.00000,   0.00000,   0.00000,   0.00000,-187542144.00000,   0.00000
153222557.99020,-21087652.29643,-136065244.98047,   0.00074,  -0.00039,  -0.00177,287882144.00000,   0.00000,274640576.00000,   0.00000,   0.00000,   0.00000,-186758432.00000,   0.00000
152851771.26504,-21997765.16728,-136543896.93477,   0.00074,  -0.00040,  -0.00178,288657408.00000,   0.00000,274640576.00000,   0.00000,   0.00000,   0.00000,-185983168.00000,   0.00000
152457389.02101,-22917990.40337,-137022548.88907,   0.00074,  -0.00040,  -0.00178,289424672.00000,   0.00000,274640576.00000,   0.00000,   0.00000,   0.00000,-185215904.00000,   0.00000
152052894.41174,-23861811.15832,-137494459.26655,   0.00074,  -0.00041,  -0.00179,290186976.00000,   0.00000,274640576.00000,   0.00000,   0.00000,   0.00000,-184453600.00000,   0.00000
151634916.64883,-24792148.75963,-137966369.64403,   0.00074,  -0.00041,  -0.00179,290939072.00000,   0.00000,274640576.00000,   0.00000,   0.00000,   0.00000,-183701504.00000,   0.00000
151183231.00182,-25756194.24505,-138431538.44468,   0.00074,  -0.00041,  -0.00180,291676704.00000,   0.00000,274640576.00000,   0.00000,   0.00000,   0.00000,-182963872.00000,   0.00000
150731545.35480,-26720239.73047,-138903448.82216,   0.00074,  -0.00042,  -0.00181,292426592.00000,   0.00000,274640576.00000,   0.00000,   0.00000,   0.00000,-182213984.00000,   0.00000
150256264.18891,-27694397.58112,-139368617.62282,   0.00074,  -0.00042,  -0.00181,293159936.00000,   0.00000,274640576.00000,   0.00000,   0.00000,   0.00000,-181480640.00000,   0.00000
149747275.13892,-28702263.31588,-139827044.84665,   0.00074,  -0.00042,  -0.00182,293879616.00000,   0.00000,274640576.00000,   0.00000,   0.00000,   0.00000,-180760960.00000,   0.00000
149248398.45416,-29686533.53176,-140292213.64731,   0.00074,  -0.00043,  -0.00182,294609728.00000,   0.00000,274640576.00000,   0.00000,   0.00000,   0.00000,-180030848.00000,   0.00000
148715813.88529,-30704511.63175,-140750640.87115,   0.00074,  -0.00043,  -0.00183,295327008.00000,   0.00000,274640576.00000,   0.00000,   0.00000,   0.00000,-179313568.00000,   0.00000
148159633.79755,-31732602.09697,-141209068.09498,   0.00074,  -0.00043,  -0.00184,296038944.00000,   0.00000,274640576.00000,   0.00000,   0.00000,   0.00000,-178601632.00000,   0.00000
147579858.19093,-32770804.92742,-141667495.31882,   0.00074,  -0.00044,  -0.00184,296745696.00000,   0.00000,274640576.00000,   0.00000,   0.00000,   0.00000,-177894880.00000,   0.00000
147000082.58432,-33809007.75787,-142119180.96583,   0.00073,  -0.00044,  -0.00185,297447168.00000,   0.00000,274640576.00000,   0.00000,   0.00000,   0.00000,-177193408.00000,   0.00000
146396711.45883,-34857322.95355,-142570866.61285,   0.00073,  -0.00044,  -0.00185,298143776.00000,   0.00000,274640576.00000,   0.00000,   0.00000,   0.00000,-176496800.00000,   0.00000
145759632.44923,-35939346.03334,-143022552.25986,   0.00073,  -0.00045,  -0.00186,298838560.00000,   0.00000,274640576.00000,   0.00000,   0.00000,   0.00000,-175802016.00000,   0.00000
145122553.43964,-37021369.11313,-143467496.33005,   0.00073,  -0.00045,  -0.00187,299527488.00000,   0.00000,274640576.00000,   0.00000,   0.00000,   0.00000,-175113088.00000,   0.00000
144461878.91117,-38113504.55815,-143912440.40025,   0.00073,  -0.00046,  -0.00187,300210688.00000,   0.00000,274640576.00000,   0.00000,   0.00000,   0.00000,-174429888.00000,   0.00000
143777608.86383,-39215752.36840,-144357384.47044,   0.00073,  -0.00046,  -0.00188,300886912.00000,   0.00000,274640576.00000,   0.00000,   0.00000,   0.00000,-173753664.00000,   0.00000
143069743.29761,-40328112.54388,-144802328.54063,   0.00073,  -0.00046,  -0.00188,301556224.00000,   0.00000,274640576.00000,   0.00000,   0.00000,   0.00000,-173084352.00000,   0.00000
142361877.73139,-41440472.71937,-145240531.03401,   0.00073,  -0.00047,  -0.00189,302217248.00000,   0.00000,274640576.00000,   0.00000,   0.00000,   0.00000,-172423328.00000,   0.00000
141620304.28107,-42586540.77896,-145678733.52738,   0.00073,  -0.00047,  -0.00189,302874048.00000,   0.00000,274640576.00000,   0.00000,   0.00000,   0.00000,-171766528.00000,   0.00000
140855135.31187,-43742721.20378,-146110194.44393,   0.00073,  -0.00047,  -0.00190,303514720.00000,   0.00000,274640576.00000,   0.00000,   0.00000,   0.00000,-171125856.00000,   0.00000
140089966.34268,-44898901.62860,-146548396.93730,   0.00072,  -0.00048,  -0.00191,304168800.00000,   0.00000,274640576.00000,   0.00000,   0.00000,   0.00000,-170471776.00000,   0.00000
139277606.33573,-46075306.78388,-146979857.85385,   0.00072,  -0.00048,  -0.00191,304800768.00000,   0.00000,274640576.00000,   0.00000,   0.00000,   0.00000,-169839808.00000,   0.00000
138465246.32879,-47251711.93916,-147404577.19358,   0.00072,  -0.00049,  -0.00192,305429216.00000,   0.00000,274640576.00000,   0.00000,   0.00000,   0.00000,-169211360.00000,   0.00000
137652886.32185,-48428117.09445,-147836038.11013,   0.00072,  -0.00049,  -0.00192,306074752.00000,   0.00000,274640576.00000,   0.00000,   0.00000,   0.00000,-168565824.00000,   0.00000
136783222.91192,-49648342.49907,-148260757.44986,   0.00072,  -0.00049,  -0.00193,306704864.00000,   0.00000,274640576.00000,   0.00000,   0.00000,   0.00000,-167935712.00000,   0.00000
135913559.50200,-50868567.90369,-148685476.78959,   0.00072,  -0.00050,  -0.00193,307342720.00000,   0.00000,274640576.00000,   0.00000,   0.00000,   0.00000,-167297856.00000,   0.00000
135020300.57320,-52098905.67354,-149103454.55250,   0.00072,  -0.00050,  -0.00194,307969760.00000,   0.00000,274640576.00000,   0.00000,   0.00000,   0.00000,-166670816.00000,   0.00000
134103446.12553,-53339355.80863,-149521432.31541,   0.00071,  -0.00050,  -0.00194,308595200.00000,   0.00000,274640576.00000,   0.00000,   0.00000,   0.00000,-166045376.00000,   0.00000
133186591.67786,-54579805.94371,-149939410.07832,   0.00071,  -0.00051,  -0.00195,309226752.00000,   0.00000,274640576.00000,   0.00000,   0.00000,   0.00000,-165413824.00000,   0.00000
132212433.82721,-55864076.32813,-150350646.26441,   0.00071,  -0.00051,  -0.00195,309841664.00000,   0.00000,274640576.00000,   0.00000,   0.00000,   0.00000,-164798912.00000,   0.00000
131248388.34179,-57124751.19368,-150761882.45050,   0.00071,  -0.00052,  -0.00196,310457120.00000,   0.00000,274640576.00000,   0.00000,   0.00000,   0.00000,-164183456.00000,   0.00000
130274230.49114,-58409021.57810,-151173118.63658,   0.00071,  -0.00052,  -0.00197,311081056.00000,   0.00000,274640576.00000,   0.00000,   0.00000,   0.00000,-163559520.00000,   0.00000
129252881.60274,-59713516.69299,-151584354.82267,   0.00070,  -0.00052,  -0.00197,311692352.00000,   0.00000,274640576.00000,   0.00000,   0.00000,   0.00000,-162948224.00000,   0.00000
128231532.71434,-61018011.80787,-151988849.43194,   0.00070,  -0.00053,  -0.00198,312296672.00000,   0.00000,274640576.00000,   0.00000,   0.00000,   0.00000,-162343904.00000,   0.00000
127176475.94184,-62356214.80686,-152393344.04120,   0.00070,  -0.00053,  -0.00198,312900000.00000,   0.00000,274640576.00000,   0.00000,   0.00000,   0.00000,-161740576.00000,   0.00000
126107936.01569,-63680934.65221,-152791097.07365,   0.00070,  -0.00054,  -0.00199,313483008.00000,   0.00000,274640576.00000,   0.00000,   0.00000,   0.00000,-161157568.00000,   0.00000
125005688.20544,-65039362.38166,-153188850.10610,   0.00070,  -0.00054,  -0.00199,314063904.00000,   0.00000,274640576.00000,   0.00000,   0.00000,   0.00000,-160576672.00000,   0.00000
123903440.39519,-66397790.11112,-153586603.13854,   0.00069,  -0.00054,  -0.00200,314646176.00000,   0.00000,274640576.00000,   0.00000,   0.00000,   0.00000,-159994400.00000,   0.00000
122787709.43130,-67742734.68693,-153977614.59417,   0.00069,  -0.00055,  -0.00200,315206560.00000,   0.00000,274640576.00000,   0.00000,   0.00000,   0.00000,-159434016.00000,   0.00000
121628158.21807,-69144982.66572,-154375367.62661,   0.00069,  -0.00055,  -0.00201,315778496.00000,   0.00000,274640576.00000,   0.00000,   0.00000,   0.00000,-158862080.00000,   0.00000
120455123.85119,-70533747.49087,-154759637.50541,   0.00069,  -0.00056,  -0.00201,316317824.00000,   0.00000,274640576.00000,   0.00000,   0.00000,   0.00000,-158322752.00000,   0.00000
119282089.48432,-71922512.31602,-155150648.96104,   0.00068,  -0.00056,  -0.00202,316867328.00000,   0.00000,274640576.00000,   0.00000,   0.00000,   0.00000,-157773248.00000,   0.00000
118075347.23334,-73344985.02527,-155534918.83984,   0.00068,  -0.00056,  -0.00202,317403744.00000,   0.00000,274640576.00000,   0.00000,   0.00000,   0.00000,-157236832.00000,   0.00000
116845009.46349,-74777570.09976,-155919188.71865,   0.00068,  -0.00057,  -0.00203,317933056.00000,   0.00000,274640576.00000,   0.00000,   0.00000,   0.00000,-156707520.00000,   0.00000
115591076.17476,-76220267.53948,-156296717.02063,   0.00067,  -0.00057,  -0.00203,318447264.00000,   0.00000,274640576.00000,   0.00000,   0.00000,   0.00000,-156193312.00000,   0.00000
114313547.36716,-77673077.34443,-156674245.32261,   0.00067,  -0.00058,  -0.00204,318957920.00000,   0.00000,274640576.00000,   0.00000,   0.00000,   0.00000,-155682656.00000,   0.00000
113036018.55956,-79125887.14937,-157051773.62459,   0.00067,  -0.00058,  -0.00204,319475616.00000,   0.00000,274640576.00000,   0.00000,   0.00000,   0.00000,-155164960.00000,   0.00000
111734894.23309,-80588809.31956,-157422560.34975,   0.00067,  -0.00058,  -0.00205,319985408.00000,   0.00000,274640576.00000,   0.00000,   0.00000,   0.00000,-154655168.00000,   0.00000
110400062.02251,-82085439.37384,-157793347.07491,   0.00066,  -0.00059,  -0.00205,320504640.00000,   0.00000,274640576.00000,   0.00000,   0.00000,   0.00000,-154135936.00000,   0.00000
109075342.17716,-83558473.90925,-158164133.80008,   0.00066,  -0.00059,  -0.00206,321031904.00000,   0.00000,274640576.00000,   0.00000,   0.00000,   0.00000,-153608672.00000,   0.00000
107693318.92883,-85075328.69400,-158528178.94842,   0.00066,  -0.00060,  -0.00206,321553696.00000,   0.00000,274640576.00000,   0.00000,   0.00000,   0.00000,-153086880.00000,   0.00000
106311295.68050,-86592183.47875,-158892224.09676,   0.00065,  -0.00060,  -0.00207,322088544.00000,   0.00000,274640576.00000,   0.00000,   0.00000,   0.00000,-152552032.00000,   0.00000
104905676.91330,-88119150.62874,-159249527.66827,   0.00065,  -0.00061,  -0.00207,322618336.00000,   0.00000,274640576.00000,   0.00000,   0.00000,   0.00000,-152022240.00000,   0.00000
103466350.26199,-89679825.66282,-159613572.81661,   0.00065,  -0.00061,  -0.00207,323168416.00000,   0.00000,274640576.00000,   0.00000,   0.00000,   0.00000,-151472160.00000,   0.00000
102037135.97592,-91216905.17804,-159964134.81131,   0.00064,  -0.00061,  -0.00208,323702976.00000,   0.00000,274640576.00000,   0.00000,   0.00000,   0.00000,-150937600.00000,   0.00000
100574213.80574,-92787692.57736,-160321438.38283,   0.00064,  -0.00062,  -0.00208,324256512.00000,   0.00000,274640576.00000,   0.00000,   0.00000,   0.00000,-150384064.00000,   0.00000
99097808.48191,-94344996.82303,-160672000.37753,   0.00063,  -0.00062,  -0.00209,324796736.00000,   0.00000,274640576.00000,   0.00000,   0.00000,   0.00000,-149843840.00000,   0.00000
97587695.27399,-95936008.95281,-161022562.37223,   0.00063,  -0.00063,  -0.00209,325345632.00000,   0.00000,274640576.00000,   0.00000,   0.00000,   0.00000,-149294944.00000,   0.00000
96053986.54718,-97537133.44783,-161366382.79010,   0.00063,  -0.00063,  -0.00210,325886880.00000,   0.00000,274640576.00000,   0.00000,   0.00000,   0.00000,-148753696.00000,   0.00000
94510165.45515,-99161853.46172,-161710203.20798,   0.00062,  -0.00064,  -0.00210,326442816.00000,   0.00000,274640576.00000,   0.00000,   0.00000,   0.00000,-148197760.00000,   0.00000
92952861.20947,-100773090.32196,-162054023.62586,   0.00062,  -0.00064,  -0.00211,326994816.00000,   0.00000,274640576.00000,   0.00000,   0.00000,   0.00000,-147645760.00000,   0.00000
91371961.44492,-102394439.54744,-162391102.46691,   0.00062,  -0.00064,  -0.00211,327539200.00000,   0.00000,274640576.00000,   0.00000,   0.00000,   0.00000,-147101376.00000,   0.00000
89757353.79627,-104049496.65702,-162728181.30797,   0.00061,  -0.00065,  -0.00212,328092320.00000,   0.00000,274640576.00000,   0.00000,   0.00000,   0.00000,-146548256.00000,   0.00000
88119150.62874,-105714666.13183,-163058518.57220,   0.00061,  -0.00065,  -0.00212,328637856.00000,   0.00000,274640576.00000,   0.00000,   0.00000,   0.00000,-146002720.00000,   0.00000
86480947.46121,-107379835.60665,-163395597.41326,   0.00060,  -0.00066,  -0.00212,329201600.00000,   0.00000,274640576.00000,   0.00000,   0.00000,   0.00000,-145438976.00000,   0.00000
84819148.77480,-109055117.44670,-163719193.10067,   0.00060,  -0.00066,  -0.00213,329747808.00000,   0.00000,274640576.00000,   0.00000,   0.00000,   0.00000,-144892768.00000,   0.00000
83133754.56952,-110740511.65197,-164049530.36490,   0.00059,  -0.00067,  -0.00213,330306816.00000,   0.00000,274640576.00000,   0.00000,   0.00000,   0.00000,-144333760.00000,   0.00000
81424764.84537,-112436018.22248,-164373126.05232,   0.00059,  -0.00067,  -0.00214,330858368.00000,   0.00000,274640576.00000,   0.00000,   0.00000,   0.00000,-143782208.00000,   0.00000
79705662.75599,-114155120.31187,-164689980.16291,   0.00059,  -0.00067,  -0.00214,331414784.00000,   0.00000,274640576.00000,   0.00000,   0.00000,   0.00000,-143225792.00000,   0.00000
77973077.51296,-115860739.24761,-165013575.85032,   0.00058,  -0.00068,  -0.00215,331977472.00000,   0.00000,274640576.00000,   0.00000,   0.00000,   0.00000,-142663104.00000,   0.00000
76206784.38583,-117600066.06745,-165330429.96092,   0.00058,  -0.00068,  -0.00215,332540192.00000,   0.00000,274640576.00000,   0.00000,   0.00000,   0.00000,-142100384.00000,   0.00000
74416895.73983,-119349505.25253,-165640542.49469,   0.00057,  -0.00069,  -0.00215,333096608.00000,   0.00000,274640576.00000,   0.00000,   0.00000,   0.00000,-141543968.00000,   0.00000
72627007.09382,-121098944.43761,-165950655.02846,   0.00057,  -0.00069,  -0.00216,333661728.00000,   0.00000,274640576.00000,   0.00000,   0.00000,   0.00000,-140978848.00000,   0.00000
70789927.41007,-122868608.35315,-166260767.56223,   0.00056,  -0.00070,  -0.00216,334226432.00000,   0.00000,274640576.00000,   0.00000,   0.00000,   0.00000,-140414144.00000,   0.00000
68942735.36109,-124661867.78757,-166564138.51918,   0.00056,  -0.00070,  -0.00217,334797568.00000,   0.00000,274640576.00000,   0.00000,   0.00000,   0.00000,-139843008.00000,   0.00000
67082060.15846,-126441644.06834,-166867509.47613,   0.00055,  -0.00071,  -0.00217,335366880.00000,   0.00000,274640576.00000,   0.00000,   0.00000,   0.00000,-139273696.00000,   0.00000
65211272.59060,-128245015.86799,-167170880.43308,   0.00055,  -0.00071,  -0.00217,335953600.00000,   0.00000,274640576.00000,   0.00000,   0.00000,   0.00000,-138686976.00000,   0.00000
63303406.35023,-130045016.87922,-167467509.81321,   0.00054,  -0.00072,  -0.00218,336524832.00000,   0.00000,274640576.00000,   0.00000,   0.00000,   0.00000,-138115744.00000,   0.00000
61385427.74462,-131868613.40933,-167764139.19334,   0.00054,  -0.00072,  -0.00218,337114624.00000,   0.00000,274640576.00000,   0.00000,   0.00000,   0.00000,-137525952.00000,   0.00000
59443853.62014,-133702322.30468,-168054026.99664,   0.00053,  -0.00072,  -0.00218,337701824.00000,   0.00000,274640576.00000,   0.00000,   0.00000,   0.00000,-136938752.00000,   0.00000
57478683.97679,-135546143.56525,-168343914.79995,   0.00053,  -0.00073,  -0.00219,338297024.00000,   0.00000,274640576.00000,   0.00000,   0.00000,   0.00000,-136343552.00000,   0.00000
55513514.33343,-137389964.82582,-168633802.60326,   0.00052,  -0.00073,  -0.00219,338904640.00000,   0.00000,274640576.00000,   0.00000,   0.00000,   0.00000,-135735936.00000,   0.00000
53514636.80598,-139267493.97050,-168916948.82975,   0.00052,  -0.00074,  -0.00220,339519456.00000,   0.00000,274640576.00000,   0.00000,   0.00000,   0.00000,-135121120.00000,   0.00000
51502276.12487,-141131539.96154,-169200095.05623,   0.00051,  -0.00074,  -0.00220,340136384.00000,   0.00000,274640576.00000,   0.00000,   0.00000,   0.00000,-134504192.00000,   0.00000
49456207.55967,-143029293.83668,-169476499.70590,   0.00050,  -0.00075,  -0.00220,340762432.00000,   0.00000,274640576.00000,   0.00000,   0.00000,   0.00000,-133878144.00000,   0.00000
47396655.84082,-144913564.55818,-169752904.35556,   0.00050,  -0.00075,  -0.00221,341392448.00000,   0.00000,274640576.00000,   0.00000,   0.00000,   0.00000,-133248128.00000,   0.00000
45326991.75674,-146821430.79856,-170029309.00523,   0.00049,  -0.00076,  -0.00221,342046432.00000,   0.00000,274640576.00000,   0.00000,   0.00000,   0.00000,-132594144.00000,   0.00000
43233732.15378,-148739409.40416,-170298972.07807,   0.00049,  -0.00076,  -0.00221,342703008.00000,   0.00000,274640576.00000,   0.00000,   0.00000,   0.00000,-131937568.00000,   0.00000
41116877.03195,-150667500.37500,-170568635.15092,   0.00048,  -0.00077,  -0.00222,343371424.00000,   0.00000,274640576.00000,   0.00000,   0.00000,   0.00000,-131269152.00000,   0.00000
38976426.39125,-152605703.71107,-170831556.64694,   0.00047,  -0.00077,  -0.00222,344039872.00000,   0.00000,274640576.00000,   0.00000,   0.00000,   0.00000,-130600704.00000,   0.00000
36835975.75055,-154543907.04714,-171094478.14297,   0.00047,  -0.00078,  -0.00222,344718688.00000,   0.00000,274640576.00000,   0.00000,   0.00000,   0.00000,-129921888.00000,   0.00000
34661817.22574,-156515818.26731,-171357399.63899,   0.00046,  -0.00078,  -0.00223,345411904.00000,   0.00000,274640576.00000,   0.00000,   0.00000,   0.00000,-129228672.00000,   0.00000
32474175.54729,-158474246.33385,-171613579.55819,   0.00046,  -0.00078,  -0.00223,346090880.00000,   0.00000,274640576.00000,   0.00000,   0.00000,   0.00000,-128549696.00000,   0.00000
30252825.98473,-160466382.28448,-171869759.47739,   0.00045,  -0.00079,  -0.00223,346782592.00000,   0.00000,274640576.00000,   0.00000,   0.00000,   0.00000,-127857984.00000,   0.00000
28031476.42218,-162458518.23512,-172119197.81977,   0.00044,  -0.00079,  -0.00224,347470848.00000,   0.00000,274640576.00000,   0.00000,   0.00000,   0.00000,-127169728.00000,   0.00000
25786531.34075,-164460766.55099,-172368636.16216,   0.00044,  -0.00080,  -0.00224,348163744.00000,   0.00000,274640576.00000,   0.00000,   0.00000,   0.00000,-126476832.00000,   0.00000
23517990.74044,-166473127.23209,-172618074.50454,   0.00043,  -0.00080,  -0.00224,348861984.00000,   0.00000,274640576.00000,   0.00000,   0.00000,   0.00000,-125778592.00000,   0.00000
21225854.62127,-168495600.27843,-172860771.27010,   0.00043,  -0.00081,  -0.00225,349555392.00000,   0.00000,274640576.00000,   0.00000,   0.00000,   0.00000,-125085184.00000,   0.00000
18933718.50209,-170518073.32476,-173103468.03566,   0.00042,  -0.00081,  -0.00225,350256096.00000,   0.00000,274640576.00000,   0.00000,   0.00000,   0.00000,-124384480.00000,   0.00000
16617986.86404,-172550658.73633,-173339423.22440,   0.00041,  -0.00082,  -0.00225,350951840.00000,   0.00000,274640576.00000,   0.00000,   0.00000,   0.00000,-123688736.00000,   0.00000
14268547.34188,-174616952.03200,-173575378.41313,   0.00041,  -0.00082,  -0.00226,351661504.00000,   0.00000,274640576.00000,   0.00000,   0.00000,   0.00000,-122979072.00000,   0.00000
11905624.66608,-176669762.17402,-173811333.60187,   0.00040,  -0.00083,  -0.00226,352367424.00000,   0.00000,274640576.00000,   0.00000,   0.00000,   0.00000,-122273152.00000,   0.00000
9532589.62505,-178746167.83493,-174040547.21379,   0.00039,  -0.00083,  -0.00226,353080832.00000,   0.00000,274640576.00000,   0.00000,   0.00000,   0.00000,-121559744.00000,   0.00000
7146071.43038,-180809090.34219,-174263019.24889,   0.00039,  -0.00084,  -0.00227,353785152.00000,   0.00000,274640576.00000,   0.00000,   0.00000,   0.00000,-120855424.00000,   0.00000
4725845.35160,-182905720.73355,-174492232.86081,   0.00038,  -0.00084,  -0.00227,354526592.00000,   0.00000,274640576.00000,   0.00000,   0.00000,   0.00000,-120113984.00000,   0.00000
2282023.75395,-185012463.49015,-174714704.89590,   0.00037,  -0.00085,  -0.00227,355289824.00000,   0.00000,274640576.00000,   0.00000,   0.00000,   0.00000,-119350752.00000,   0.00000
-161797.84371,-187119206.24675,-174930435.35418,   0.00036,  -0.00085,  -0.00227,356094368.00000,   0.00000,274640576.00000,   0.00000,   0.00000,   0.00000,-118546208.00000,   0.00000
-2629214.96023,-189236061.36857,-175146165.81245,   0.00036,  -0.00086,  -0.00228,356958464.00000,   0.00000,274640576.00000,   0.00000,   0.00000,   0.00000,-117682112.00000,   0.00000
-5120227.59563,-191363028.85563,-175361896.27073,   0.00035,  -0.00086,  -0.00228,357853856.00000,   0.00000,274640576.00000,   0.00000,   0.00000,   0.00000,-116786720.00000,   0.00000
-7621352.59627,-193513591.86157,-175570885.15218,   0.00034,  -0.00087,  -0.00228,358725632.00000,   0.00000,274640576.00000,   0.00000,   0.00000,   0.00000,-115914944.00000,   0.00000
-10159556.26941,-195660784.07909,-175779874.03364,   0.00034,  -0.00087,  -0.00229,359551488.00000,   0.00000,274640576.00000,   0.00000,   0.00000,   0.00000,-115089088.00000,   0.00000
-12707872.30779,-197831571.81549,-175982121.33827,   0.00033,  -0.00088,  -0.00229,360374272.00000,   0.00000,274640576.00000,   0.00000,   0.00000,   0.00000,-114266304.00000,   0.00000
-15246075.98094,-199978764.03301,-176184368.64290,   0.00032,  -0.00088,  -0.00229,361205184.00000,   0.00000,274640576.00000,   0.00000,   0.00000,   0.00000,-113435392.00000,   0.00000
-17841583.05707,-202169776.49987,-176386615.94754,   0.00031,  -0.00089,  -0.00229,362069312.00000,   0.00000,274640576.00000,   0.00000,   0.00000,   0.00000,-112571264.00000,   0.00000
-20437090.13320,-204360788.96674,-176582121.67535,   0.00031,  -0.00089,  -0.00230,362947104.00000,   0.00000,274640576.00000,   0.00000,   0.00000,   0.00000,-111693472.00000,   0.00000
-23046080.36297,-206538318.27995,-176777627.40316,   0.00030,  -0.00089,  -0.00230,363837088.00000,   0.00000,274640576.00000,   0.00000,   0.00000,   0.00000,-110803488.00000,   0.00000
-25665182.95797,-208739443.11205,-176966391.55415,   0.00029,  -0.00090,  -0.00230,364748896.00000,   0.00000,274640576.00000,   0.00000,   0.00000,   0.00000,-109891680.00000,   0.00000
-28307881.07184,-210950680.30937,-177155155.70514,   0.00028,  -0.00090,  -0.00230,365680384.00000,   0.00000,274640576.00000,   0.00000,   0.00000,   0.00000,-108960192.00000,   0.00000
-30984287.06982,-213195625.39080,-177343919.85613,   0.00027,  -0.00091,  -0.00231,366640704.00000,   0.00000,274640576.00000,   0.00000,   0.00000,   0.00000,-107999872.00000,   0.00000
-33674176.22145,-215427087.31859,-177525942.43030,   0.00027,  -0.00091,  -0.00231,367595424.00000,   0.00000,274640576.00000,   0.00000,   0.00000,   0.00000,-107045152.00000,   0.00000
-36364065.37307,-217658549.24638,-177707965.00447,   0.00026,  -0.00092,  -0.00231,368562112.00000,   0.00000,274640576.00000,   0.00000,   0.00000,   0.00000,-106078464.00000,   0.00000
-39077550.04357,-219900123.53940,-177883246.00182,   0.00025,  -0.00092,  -0.00231,369529760.00000,   0.00000,274640576.00000,   0.00000,   0.00000,   0.00000,-105110816.00000,   0.00000
-41824742.59817,-222175405.71652,-178058526.99917,   0.00024,  -0.00093,  -0.00231,370518368.00000,   0.00000,274640576.00000,   0.00000,   0.00000,   0.00000,-104122208.00000,   0.00000
-44561822.78754,-224427092.37477,-178227066.41970,   0.00023,  -0.00093,  -0.00232,371494976.00000,   0.00000,274640576.00000,   0.00000,   0.00000,   0.00000,-103145600.00000,   0.00000
-47332610.86102,-226712486.91713,-178395605.84023,   0.00023,  -0.00094,  -0.00232,372494112.00000,   0.00000,274640576.00000,   0.00000,   0.00000,   0.00000,-102146464.00000,   0.00000
-50126994.45337,-229007993.82472,-178564145.26076,   0.00022,  -0.00094,  -0.00232,373506592.00000,   0.00000,274640576.00000,   0.00000,   0.00000,   0.00000,-101133984.00000,   0.00000
-52934861.19936,-231290017.57866,-178725943.10446,   0.00021,  -0.00095,  -0.00232,374512864.00000,   0.00000,274640576.00000,   0.00000,   0.00000,   0.00000,-100127712.00000,   0.00000
-55752840.31058,-233595636.85148,-178887740.94817,   0.00020,  -0.00095,  -0.00233,375543872.00000,   0.00000,274640576.00000,   0.00000,   0.00000,   0.00000,-99096704.00000,   0.00000
-58594414.94068,-235911368.48953,-179042797.21505,   0.00019,  -0.00096,  -0.00233,376578848.00000,   0.00000,274640576.00000,   0.00000,   0.00000,   0.00000,-98061728.00000,   0.00000
-61435989.57078,-238227100.12758,-179197853.48194,   0.00019,  -0.00096,  -0.00233,377622752.00000,   0.00000,274640576.00000,   0.00000,   0.00000,   0.00000,-97017824.00000,   0.00000
-64301159.71975,-240552944.13087,-179352909.74883,   0.00018,  -0.00097,  -0.00233,378673056.00000,   0.00000,274640576.00000,   0.00000,   0.00000,   0.00000,-95967520.00000,   0.00000
-67189925.38760,-242888900.49938,-179501224.43889,   0.00017,  -0.00097,  -0.00233,379715328.00000,   0.00000,274640576.00000,   0.00000,   0.00000,   0.00000,-94925248.00000,   0.00000
-70102286.57432,-245234969.23313,-179649539.12895,   0.00016,  -0.00098,  -0.00234,380753472.00000,   0.00000,274640576.00000,   0.00000,   0.00000,   0.00000,-93887104.00000,   0.00000
-73024760.12627,-247604633.48575,-179791112.24220,   0.00015,  -0.00098,  -0.00234,381781984.00000,   0.00000,274640576.00000,   0.00000,   0.00000,   0.00000,-92858592.00000,   0.00000
-75960716.83186,-249960814.58473,-179932685.35544,   0.00014,  -0.00099,  -0.00234,382787584.00000,   0.00000,274640576.00000,   0.00000,   0.00000,   0.00000,-91852992.00000,   0.00000
-78896673.53746,-252316995.68371,-180067516.89186,   0.00013,  -0.00099,  -0.00234,383768864.00000,   0.00000,274640576.00000,   0.00000,   0.00000,   0.00000,-90871712.00000,   0.00000
-81866338.12716,-254706884.66679,-180202348.42829,   0.00012,  -0.00100,  -0.00234,384749088.00000,   0.00000,274640576.00000,   0.00000,   0.00000,   0.00000,-89891488.00000,   0.00000
-84849485.87050,-257083290.49623,-180337179.96471,   0.00012,  -0.00100,  -0.00234,385712800.00000,   0.00000,274640576.00000,   0.00000,   0.00000,   0.00000,-88927776.00000,   0.00000
-87866341.49794,-259493404.20978,-180465269.92431,   0.00011,  -0.00101,  -0.00235,386677920.00000,   0.00000,274640576.00000,   0.00000,   0.00000,   0.00000,-87962656.00000,   0.00000
-90873084.76016,-261879922.40445,-180593359.88391,   0.00010,  -0.00101,  -0.00235,387641376.00000,   0.00000,274640576.00000,   0.00000,   0.00000,   0.00000,-86999200.00000,   0.00000
-93889940.38761,-264290036.11800,-180714708.26669,   0.00009,  -0.00102,  -0.00235,388623232.00000,   0.00000,274640576.00000,   0.00000,   0.00000,   0.00000,-86017344.00000,   0.00000
-96953987.05280,-266720374.56201,-180836056.64947,   0.00008,  -0.00102,  -0.00235,389637856.00000,   0.00000,274640576.00000,   0.00000,   0.00000,   0.00000,-85002720.00000,   0.00000
-100007921.35276,-269127117.48714,-180957405.03225,   0.00007,  -0.00103,  -0.00235,390678880.00000,   0.00000,274640576.00000,   0.00000,   0.00000,   0.00000,-83961696.00000,   0.00000
-103071968.01796,-271557455.93116,-181072011.83821,   0.00006,  -0.00103,  -0.00235,391764032.00000,   0.00000,274640576.00000,   0.00000,   0.00000,   0.00000,-82876544.00000,   0.00000
-106183205.72090,-274008019.10563,-181186618.64417,   0.00005,  -0.00104,  -0.00236,392904256.00000,   0.00000,274640576.00000,   0.00000,   0.00000,   0.00000,-81736320.00000,   0.00000
-109270847.90497,-276448469.91487,-181294483.87331,   0.00004,  -0.00104,  -0.00236,394082752.00000,   0.00000,274640576.00000,   0.00000,   0.00000,   0.00000,-80557824.00000,   0.00000
-112405681.12679,-278909145.45458,-181402349.10244,   0.00003,  -0.00105,  -0.00236,395321280.00000,   0.00000,274640576.00000,   0.00000,   0.00000,   0.00000,-79319296.00000,   0.00000
-115540514.34860,-281369820.99428,-181510214.33158,   0.00002,  -0.00105,  -0.00236,396611424.00000,   0.00000,274640576.00000,   0.00000,   0.00000,   0.00000,-78029152.00000,   0.00000
-118698943.08929,-283840608.89922,-181611337.98390,   0.00001,  -0.00106,  -0.00236,397947808.00000,   0.00000,274640576.00000,   0.00000,   0.00000,   0.00000,-76692768.00000,   0.00000
-121857371.82998,-286311396.80416,-181705720.05939,   0.00000,  -0.00107,  -0.00236,399323904.00000,   0.00000,274640576.00000,   0.00000,   0.00000,   0.00000,-75316672.00000,   0.00000
-125039396.08955,-288792297.07432,-181806843.71171,  -0.00001,  -0.00107,  -0.00236,400760736.00000,   0.00000,274640576.00000,   0.00000,   0.00000,   0.00000,-73879840.00000,   0.00000
-128231532.71434,-291296792.86337,-181894484.21038,  -0.00002,  -0.00108,  -0.00236,402237632.00000,   0.00000,274640576.00000,   0.00000,   0.00000,   0.00000,-72402944.00000,   0.00000
-131460748.01166,-293797917.86400,-181988866.28588,  -0.00003,  -0.00108,  -0.00237,403764736.00000,   0.00000,274640576.00000,   0.00000,   0.00000,   0.00000,-70875840.00000,   0.00000
-134666367.79009,-296288930.49940,-182076506.78455,  -0.00003,  -0.00109,  -0.00237,405316352.00000,   0.00000,274640576.00000,   0.00000,   0.00000,   0.00000,-69324224.00000,   0.00000
-137929290.97151,-298823763.38414,-182164147.28323,  -0.00004,  -0.00109,  -0.00237,406927648.00000,   0.00000,274640576.00000,   0.00000,   0.00000,   0.00000,-67712928.00000,   0.00000
-141158506.26882,-301324888.38477,-182245046.20508,  -0.00005,  -0.00110,  -0.00237,408537440.00000,   0.00000,274640576.00000,   0.00000,   0.00000,   0.00000,-66103136.00000,   0.00000
-144434912.60388,-303846238.11586,-182325945.12694,  -0.00006,  -0.00110,  -0.00237,410177536.00000,   0.00000,274640576.00000,   0.00000,   0.00000,   0.00000,-64463040.00000,   0.00000
-147721431.30418,-306391183.36583,-182400102.47197,  -0.00007,  -0.00111,  -0.00237,411830176.00000,   0.00000,274640576.00000,   0.00000,   0.00000,   0.00000,-62810400.00000,   0.00000
-151021433.15811,-308922645.46216,-182474259.81700,  -0.00008,  -0.00111,  -0.00237,413472864.00000,   0.00000,274640576.00000,   0.00000,   0.00000,   0.00000,-61167712.00000,   0.00000
-154331547.37727,-311477703.07736,-182548417.16203,  -0.00009,  -0.00112,  -0.00237,415118976.00000,   0.00000,274640576.00000,   0.00000,   0.00000,   0.00000,-59521600.00000,   0.00000
-157655144.75008,-314019277.53892,-182615832.93024,  -0.00010,  -0.00112,  -0.00237,416733920.00000,   0.00000,274640576.00000,   0.00000,   0.00000,   0.00000,-57906656.00000,   0.00000
-160988854.48812,-316584447.51935,-182683248.69845,  -0.00012,  -0.00113,  -0.00237,418346560.00000,   0.00000,274640576.00000,   0.00000,   0.00000,   0.00000,-56294016.00000,   0.00000
-164346159.74503,-319159729.86502,-182743922.88984,  -0.00013,  -0.00113,  -0.00238,419942688.00000,   0.00000,274640576.00000,   0.00000,   0.00000,   0.00000,-54697888.00000,   0.00000
-167693352.63672,-321711416.69181,-182804597.08123,  -0.00014,  -0.00114,  -0.00238,421516608.00000,   0.00000,274640576.00000,   0.00000,   0.00000,   0.00000,-53123968.00000,   0.00000
-171074253.41250,-324296811.40270,-182865271.27262,  -0.00015,  -0.00114,  -0.00238,423107552.00000,   0.00000,274640576.00000,   0.00000,   0.00000,   0.00000,-51533024.00000,   0.00000
-174478749.70716,-326892318.47883,-182919203.88719,  -0.00016,  -0.00115,  -0.00238,424700800.00000,   0.00000,274640576.00000,   0.00000,   0.00000,   0.00000,-49939776.00000,   0.00000
-177873133.63659,-329464230.03608,-182973136.50176,  -0.00017,  -0.00115,  -0.00238,426292192.00000,   0.00000,274640576.00000,   0.00000,   0.00000,   0.00000,-48348384.00000,   0.00000
-181277629.93125,-332059737.11221,-183027069.11633,  -0.00018,  -0.00116,  -0.00238,427914496.00000,   0.00000,274640576.00000,   0.00000,   0.00000,   0.00000,-46726080.00000,   0.00000
-184705721.74479,-334665356.55357,-183074260.15408,  -0.00019,  -0.00116,  -0.00238,429555680.00000,   0.00000,274640576.00000,   0.00000,   0.00000,   0.00000,-45084896.00000,   0.00000
-188157409.07720,-337281088.36016,-183114709.61501,  -0.00020,  -0.00117,  -0.00238,431217664.00000,   0.00000,274640576.00000,   0.00000,   0.00000,   0.00000,-43422912.00000,   0.00000
-191598984.04437,-339873224.64788,-183161900.65275,  -0.00021,  -0.00117,  -0.00238,432897248.00000,   0.00000,274640576.00000,   0.00000,   0.00000,   0.00000,-41743328.00000,   0.00000
-195074266.89566,-342499068.81970,-183202350.11368,  -0.00022,  -0.00118,  -0.00238,434609760.00000,   0.00000,274640576.00000,   0.00000,   0.00000,   0.00000,-40030816.00000,   0.00000
-198549549.74694,-345124912.99152,-183236057.99779,  -0.00023,  -0.00118,  -0.00238,436332640.00000,   0.00000,274640576.00000,   0.00000,   0.00000,   0.00000,-38307936.00000,   0.00000
-202048428.11709,-347760869.52858,-183269765.88189,  -0.00024,  -0.00119,  -0.00238,438079744.00000,   0.00000,274640576.00000,   0.00000,   0.00000,   0.00000,-36560832.00000,   0.00000
-205547306.48725,-350396826.06563,-183303473.76600,  -0.00025,  -0.00119,  -0.00238,439843392.00000,   0.00000,274640576.00000,   0.00000,   0.00000,   0.00000,-34797184.00000,   0.00000
-209069780.37628,-353042894.96792,-183330440.07328,  -0.00026,  -0.00120,  -0.00238,441623520.00000,   0.00000,274640576.00000,   0.00000,   0.00000,   0.00000,-33017056.00000,   0.00000
-212592254.26531,-355688963.87020,-183357406.38057,  -0.00027,  -0.00120,  -0.00238,443423744.00000,   0.00000,274640576.00000,   0.00000,   0.00000,   0.00000,-31216832.00000,   0.00000
-216128211.30798,-358321549.61885,-183384372.68785,  -0.00028,  -0.00121,  -0.00238,445240736.00000,   0.00000,274640576.00000,   0.00000,   0.00000,   0.00000,-29399840.00000,   0.00000
-219674280.71589,-360977730.88637,-183404597.41831,  -0.00030,  -0.00121,  -0.00238,447090304.00000,   0.00000,274640576.00000,   0.00000,   0.00000,   0.00000,-27550272.00000,   0.00000
-223243945.64267,-363644024.51911,-183424822.14878,  -0.00031,  -0.00122,  -0.00238,448976096.00000,   0.00000,274640576.00000,   0.00000,   0.00000,   0.00000,-25664480.00000,   0.00000
-226813610.56944,-366310318.15186,-183445046.87924,  -0.00032,  -0.00122,  -0.00238,450888896.00000,   0.00000,274640576.00000,   0.00000,   0.00000,   0.00000,-23751680.00000,   0.00000
-230406871.01510,-368986724.14985,-183458530.03288,  -0.00033,  -0.00123,  -0.00238,452823968.00000,   0.00000,274640576.00000,   0.00000,   0.00000,   0.00000,-21816608.00000,   0.00000
-234000131.46075,-371663130.14783,-183465271.60970,  -0.00034,  -0.00123,  -0.00239,454765152.00000,   0.00000,274640576.00000,   0.00000,   0.00000,   0.00000,-19875424.00000,   0.00000
-237616987.42527,-374349648.51104,-183478754.76335,  -0.00035,  -0.00124,  -0.00239,456728640.00000,   0.00000,274640576.00000,   0.00000,   0.00000,   0.00000,-17911936.00000,   0.00000
-241233843.38980,-377036166.87425,-183485496.34017,  -0.00036,  -0.00125,  -0.00239,458682080.00000,   0.00000,274640576.00000,   0.00000,   0.00000,   0.00000,-15958496.00000,   0.00000
-244850699.35433,-379722685.23746,-183485496.34017,  -0.00037,  -0.00125,  -0.00239,460621248.00000,   0.00000,274640576.00000,   0.00000,   0.00000,   0.00000,-14019328.00000,   0.00000
-248491150.83773,-382419315.96591,-183492237.91699,  -0.00038,  -0.00126,  -0.00239,462570784.00000,   0.00000,274640576.00000,   0.00000,   0.00000,   0.00000,-12069792.00000,   0.00000
-252155197.84000,-385126059.05958,-183485496.34017,  -0.00040,  -0.00126,  -0.00239,464509280.00000,   0.00000,274640576.00000,   0.00000,   0.00000,   0.00000,-10131296.00000,   0.00000
-255819244.84227,-387832802.15326,-183485496.34017,  -0.00041,  -0.00127,  -0.00239,466458048.00000,   0.00000,274640576.00000,   0.00000,   0.00000,   0.00000,-8182528.00000,   0.00000
-259483291.84455,-390539545.24694,-183478754.76335,  -0.00042,  -0.00127,  -0.00239,468407392.00000,   0.00000,274640576.00000,   0.00000,   0.00000,   0.00000,-6233184.00000,   0.00000
-263170934.36569,-393256400.70584,-183472013.18652,  -0.00043,  -0.00128,  -0.00239,470380448.00000,   0.00000,274640576.00000,   0.00000,   0.00000,   0.00000,-4260128.00000,   0.00000
-266858576.88684,-395973256.16475,-183458530.03288,  -0.00044,  -0.00128,  -0.00238,472366016.00000,   0.00000,274640576.00000,   0.00000,   0.00000,   0.00000,-2274560.00000,   0.00000
-270569814.92686,-398700223.98889,-183445046.87924,  -0.00045,  -0.00129,  -0.00238,474383808.00000,   0.00000,274640576.00000,   0.00000,   0.00000,   0.00000,-256768.00000,   0.00000
-271037343.93776,-399043758.02142,-183443348.31789,  -0.00046,  -0.00129,  -0.00238,474639648.00000,   0.00000,274640576.00000,   0.00000,   0.00000,   0.00000,-928.00000,   0.00000
-273389852.07102,-400017573.68526,-182680813.06770,  -0.00047,  -0.00129,  -0.00238,474639648.00000,   0.00001,274648160.00000,  -0.00000,  -0.00000,  -0.00001,  32.00000,   2.00000
-276057886.25538,-401109588.69019,-181801837.82930,  -0.00048,  -0.00130,  -0.00238,476709216.00000,   0.00001,274656832.00000,  -0.00000,  -0.00001,  -0.00002, 160.00000,   2.00000
-278718622.92816,-402177158.57162,-180915683.26570,  -0.00049,  -0.00130,  -0.00238,476754720.00000,   0.00002,274665632.00000,  -0.00000,  -0.00002,  -0.00003,   0.00000,   2.00000
-281373275.92503,-403222218.19719,-180022558.09675,  -0.00050,  -0.00131,  -0.00238,476798496.00000,   0.00003,274674560.00000,  -0.00001,  -0.00002,  -0.00004,  64.00000,   2.00000
-283987862.88480,-404236461.89412,-179132772.68287,  -0.00051,  -0.00131,  -0.00238,476798688.00000,   0.00004,274683392.00000,  -0.00001,  -0.00003,  -0.00005,  64.00000,   2.00000
-286601372.14412,-405243644.84279,-178230078.50944,  -0.00052,  -0.00132,  -0.00238,476852800.00000,   0.00005,274692384.00000,  -0.00001,  -0.00003,  -0.00007,   0.00000,   2.00000
-289212751.91870,-406234071.64442,-177320702.23880,  -0.00054,  -0.00132,  -0.00238,476889792.00000,   0.00006,274701472.00000,  -0.00001,  -0.00004,  -0.00008,   0.00000,   2.00000
-291808871.92617,-407213355.97871,-176404991.09183,  -0.00055,  -0.00133,  -0.00238,476907296.00000,   0.00006,274710560.00000,  -0.00001,  -0.00004,  -0.00009, 160.00000,   2.00000
-294386624.54997,-408176799.70051,-175486683.33654,  -0.00056,  -0.00133,  -0.00238,476929984.00000,   0.00007,274719680.00000,  -0.00002,  -0.00005,  -0.00010,  32.00000,   2.00000
-296964890.40609,-409127753.83233,-174561978.04739,  -0.00057,  -0.00134,  -0.00238,476960864.00000,   0.00008,274728896.00000,  -0.00002,  -0.00006,  -0.00011, 160.00000,   2.00000
-299529977.96824,-410071088.51240,-173631178.63952,  -0.00058,  -0.00134,  -0.00238,476972832.00000,   0.00009,274738144.00000,  -0.00002,  -0.00006,  -0.00012,   0.00000,   2.00000
-302076464.29125,-410990496.03803,-172704324.96278,  -0.00059,  -0.00135,  -0.00238,476976032.00000,   0.00010,274747328.00000,  -0.00002,  -0.00007,  -0.00014, 128.00000,   2.00000
-304625138.23628,-411910066.25808,-171765414.24365,  -0.00061,  -0.00135,  -0.00238,477019392.00000,   0.00011,274756672.00000,  -0.00002,  -0.00007,  -0.00015, 160.00000,   2.00000
-307159920.90820,-412822527.10574,-170820731.66863,  -0.00062,  -0.00136,  -0.00238,477030432.00000,   0.00011,274766016.00000,  -0.00003,  -0.00008,  -0.00016, 128.00000,   2.00000
-309693507.70122,-413723067.08343,-169870204.64434,  -0.00063,  -0.00136,  -0.00238,477059456.00000,   0.00012,274775424.00000,  -0.00003,  -0.00009,  -0.00017, -32.00000,   2.00000
-312205818.97717,-414598362.84400,-168923963.95838,  -0.00064,  -0.00137,  -0.00238,477064192.00000,   0.00013,274784800.00000,  -0.00003,  -0.00009,  -0.00018,  32.00000,   2.00000
-314702567.46910,-415475516.71043,-167966329.67385,  -0.00066,  -0.00137,  -0.00238,477092992.00000,   0.00014,274794240.00000,  -0.00003,  -0.00010,  -0.00019,  32.00000,   2.00000
-317194215.17424,-416337722.51301,-167003087.76845,  -0.00067,  -0.00138,  -0.00238,477125920.00000,   0.00015,274803776.00000,  -0.00004,  -0.00010,  -0.00021,  32.00000,   2.00000
-319644346.18189,-417170834.78703,-166048541.90819,  -0.00068,  -0.00138,  -0.00238,477123840.00000,   0.00016,274813248.00000,  -0.00004,  -0.00011,  -0.00022, 128.00000,   2.00000
-322109331.93630,-418004861.72574,-165074418.14583,  -0.00069,  -0.00139,  -0.00238,477178304.00000,   0.00017,274822880.00000,  -0.00004,  -0.00012,  -0.00023,  64.00000,   2.00000
-324531749.84737,-418808758.79611,-164109161.22233,  -0.00070,  -0.00139,  -0.00237,477178080.00000,   0.00017,274832448.00000,  -0.00004,  -0.00012,  -0.00024, 128.00000,   2.00000
-326946607.84030,-419605743.21016,-163132787.52973,  -0.00072,  -0.00140,  -0.00237,477230496.00000,   0.00018,274842144.00000,  -0.00005,  -0.00013,  -0.00025, 128.00000,   2.00000
-329340111.85844,-420379202.68250,-162157061.12229,  -0.00073,  -0.00140,  -0.00237,477235104.00000,   0.00019,274851808.00000,  -0.00005,  -0.00013,  -0.00026,  32.00000,   2.00000
-331726064.83884,-421145888.32532,-161170466.08078,  -0.00074,  -0.00141,  -0.00237,477287968.00000,   0.00020,274861600.00000,  -0.00005,  -0.00014,  -0.00028, 128.00000,   2.00000
-334087518.56001,-421884201.47031,-160188757.66520,  -0.00075,  -0.00142,  -0.00237,477299264.00000,   0.00021,274871392.00000,  -0.00006,  -0.00015,  -0.00029,  64.00000,   2.00000
-336426191.52045,-422616378.80297,-159200706.91721,  -0.00077,  -0.00142,  -0.00237,477340256.00000,   0.00022,274881280.00000,  -0.00006,  -0.00015,  -0.00030,  64.00000,   2.00000
-338746572.03923,-423327511.31766,-158213520.61840,  -0.00078,  -0.00143,  -0.00237,477343456.00000,   0.00023,274891104.00000,  -0.00006,  -0.00016,  -0.00031, 192.00000,   2.00000
-341060976.19244,-424023124.50674,-157221428.25092,  -0.00079,  -0.00143,  -0.00237,477379776.00000,   0.00024,274901024.00000,  -0.00007,  -0.00017,  -0.00032,   0.00000,   2.00000
-343358526.21210,-424719981.96306,-156219134.01110,  -0.00080,  -0.00144,  -0.00237,477412320.00000,   0.00025,274911008.00000,  -0.00007,  -0.00017,  -0.00034,  96.00000,   2.00000
-345630552.75793,-425385858.43139,-155226455.97969,  -0.00082,  -0.00144,  -0.00237,477427488.00000,   0.00026,274920992.00000,  -0.00007,  -0.00018,  -0.00035, 160.00000,   2.00000
-347901418.35184,-426042585.04244,-154224929.98262,  -0.00083,  -0.00145,  -0.00237,477456288.00000,   0.00026,274931008.00000,  -0.00008,  -0.00019,  -0.00036, 192.00000,   2.00000
-350150925.92134,-426684548.24391,-153223379.61719,  -0.00084,  -0.00145,  -0.00236,477479552.00000,   0.00027,274941088.00000,  -0.00008,  -0.00019,  -0.00037,  96.00000,   2.00000
-352383202.78182,-427317153.46454,-152217599.25444,  -0.00085,  -0.00146,  -0.00236,477496160.00000,   0.00028,274951168.00000,  -0.00008,  -0.00020,  -0.00038, 160.00000,   2.00000
-354608499.84648,-427934024.85694,-151207719.52718,  -0.00087,  -0.00146,  -0.00236,477531744.00000,   0.00029,274961312.00000,  -0.00009,  -0.00021,  -0.00040,  64.00000,   2.00000
-356795607.40366,-428546060.43502,-150197266.75767,  -0.00088,  -0.00147,  -0.00236,477558208.00000,   0.00030,274971488.00000,  -0.00009,  -0.00021,  -0.00041,  64.00000,   2.00000
-358975161.52584,-429131320.76366,-149188596.80443,  -0.00089,  -0.00147,  -0.00236,477578752.00000,   0.00031,274981728.00000,  -0.00009,  -0.00022,  -0.00042,  64.00000,   2.00000
-361136178.50741,-429695552.53499,-148181681.47465,  -0.00090,  -0.00148,  -0.00236,477580608.00000,   0.00032,274991872.00000,  -0.00010,  -0.00023,  -0.00043,   0.00000,   2.00000
-363287210.98774,-430252827.17369,-147165968.08928,  -0.00092,  -0.00148,  -0.00236,477632512.00000,   0.00033,275002176.00000,  -0.00010,  -0.00023,  -0.00044, -32.00000,   2.00000
-365399428.83563,-430794429.36249,-146155842.03430,  -0.00093,  -0.00149,  -0.00236,477643904.00000,   0.00034,275012448.00000,  -0.00011,  -0.00024,  -0.00046, -32.00000,   2.00000
-367501833.08375,-431318664.67508,-145142634.29064,  -0.00094,  -0.00149,  -0.00235,477680576.00000,   0.00035,275022816.00000,  -0.00011,  -0.00025,  -0.00047, -64.00000,   2.00000
-369584277.80003,-431831879.73496,-144126233.58718,  -0.00095,  -0.00150,  -0.00235,477698592.00000,   0.00036,275033184.00000,  -0.00011,  -0.00025,  -0.00048,   0.00000,   2.00000
-371656711.73188,-432327951.77192,-143106976.62200,  -0.00097,  -0.00150,  -0.00235,477735744.00000,   0.00037,275043616.00000,  -0.00012,  -0.00026,  -0.00049,  96.00000,   2.00000
-373692335.42587,-432799548.06647,-142098897.18638,  -0.00098,  -0.00151,  -0.00235,477731040.00000,   0.00038,275053984.00000,  -0.00012,  -0.00027,  -0.00050,   0.00000,   2.00000
-375717219.02850,-433264809.70938,-141082835.29807,  -0.00099,  -0.00151,  -0.00235,477783296.00000,   0.00039,275064480.00000,  -0.00013,  -0.00027,  -0.00052,  32.00000,   2.00000
-377724821.49732,-433710717.66459,-140068924.65429,  -0.00100,  -0.00152,  -0.00235,477785472.00000,   0.00040,275074944.00000,  -0.00013,  -0.00028,  -0.00053,  32.00000,   2.00000
-379708308.94531,-434152365.29333,-139051558.31222,  -0.00102,  -0.00152,  -0.00235,477824480.00000,   0.00041,275085472.00000,  -0.00014,  -0.00029,  -0.00054,  64.00000,   2.00000
-381684607.88514,-434568795.92620,-138036695.32066,  -0.00103,  -0.00153,  -0.00235,477845600.00000,   0.00042,275096000.00000,  -0.00014,  -0.00029,  -0.00055,  96.00000,   2.00000
-383623786.14108,-434983222.12299,-137022888.45909,  -0.00104,  -0.00153,  -0.00234,477870784.00000,   0.00043,275106592.00000,  -0.00015,  -0.00030,  -0.00056,  32.00000,   2.00000
-385560762.53572,-435378053.72350,-136006833.82789,  -0.00106,  -0.00154,  -0.00234,477885664.00000,   0.00044,275117152.00000,  -0.00015,  -0.00031,  -0.00057,   0.00000,   2.00000
-387476251.87468,-435759995.53620,-134992761.20236,  -0.00107,  -0.00154,  -0.00234,477908192.00000,   0.00045,275127744.00000,  -0.00016,  -0.00031,  -0.00059, -32.00000,   2.00000
-389370330.17645,-436129114.02966,-133980766.26957,  -0.00108,  -0.00155,  -0.00234,477930624.00000,   0.00045,275138368.00000,  -0.00016,  -0.00032,  -0.00060,  64.00000,   2.00000
-391253856.68613,-436493085.42411,-132961631.46419,  -0.00110,  -0.00155,  -0.00234,477982720.00000,   0.00046,275149120.00000,  -0.00017,  -0.00033,  -0.00061,   0.00000,   2.00000
-393109316.83846,-436841316.51400,-131949289.07553,  -0.00111,  -0.00156,  -0.00234,477969952.00000,   0.00047,275159744.00000,  -0.00017,  -0.00034,  -0.00062,   0.00000,   2.00000
-394955907.27088,-437174458.94137,-130935120.79118,  -0.00112,  -0.00156,  -0.00233,478006112.00000,   0.00048,275170464.00000,  -0.00018,  -0.00034,  -0.00063,   0.00000,   2.00000
-396780703.10538,-437494528.70017,-129923668.60986,  -0.00113,  -0.00157,  -0.00233,478028352.00000,   0.00049,275181184.00000,  -0.00018,  -0.00035,  -0.00064,  64.00000,   2.00000
-398583573.81152,-437801404.98489,-128915065.45827,  -0.00115,  -0.00157,  -0.00233,478050528.00000,   0.00050,275191936.00000,  -0.00019,  -0.00036,  -0.00066,  64.00000,   2.00000
-400366797.46592,-438085436.18660,-127914234.52476,  -0.00116,  -0.00158,  -0.00233,478057056.00000,   0.00051,275202656.00000,  -0.00019,  -0.00036,  -0.00067, -32.00000,   2.00000
-402130166.63742,-438370916.50456,-126906697.15455,  -0.00117,  -0.00158,  -0.00233,478089152.00000,   0.00052,275213408.00000,  -0.00020,  -0.00037,  -0.00068,   0.00000,   2.00000
-403883757.55175,-438640814.75465,-125898117.46559,  -0.00119,  -0.00159,  -0.00233,478125344.00000,   0.00053,275224256.00000,  -0.00020,  -0.00038,  -0.00069,  32.00000,   2.00000
-405603445.30752,-438900276.13018,-124897159.58587,  -0.00120,  -0.00159,  -0.00232,478132800.00000,   0.00054,275235040.00000,  -0.00021,  -0.00039,  -0.00070,   0.00000,   2.00000
-407316284.68298,-439135075.62990,-123900025.26199,  -0.00121,  -0.00160,  -0.00232,478152896.00000,   0.00055,275245856.00000,  -0.00021,  -0.00039,  -0.00071,  32.00000,   2.00000
-409009315.04183,-439371700.44113,-122896490.49793,  -0.00122,  -0.00160,  -0.00232,478184800.00000,   0.00056,275256736.00000,  -0.00022,  -0.00040,  -0.00072,  64.00000,   2.00000
-410679909.59583,-439582256.46834,-121906253.48435,  -0.00124,  -0.00161,  -0.00232,478195360.00000,   0.00057,275267584.00000,  -0.00023,  -0.00041,  -0.00073, 128.00000,   2.00000
-412331209.30923,-439795258.54434,-120909672.04824,  -0.00125,  -0.00161,  -0.00232,478226912.00000,   0.00058,275278496.00000,  -0.00023,  -0.00041,  -0.00075,  64.00000,   2.00000
-413965038.59132,-439987436.78580,-119921138.02070,  -0.00126,  -0.00162,  -0.00232,478231744.00000,   0.00059,275289376.00000,  -0.00024,  -0.00042,  -0.00076,  32.00000,   2.00000
-415590251.93846,-440165833.81359,-118931911.09760,  -0.00128,  -0.00162,  -0.00231,478266720.00000,   0.00060,275300320.00000,  -0.00024,  -0.00043,  -0.00077,   0.00000,   2.00000
-417188571.45493,-440341107.68750,-117945137.57280,  -0.00129,  -0.00163,  -0.00231,478267328.00000,   0.00061,275311200.00000,  -0.00025,  -0.00044,  -0.00078,  64.00000,   2.00000
-418774273.48074,-440498459.49215,-116963025.26318,  -0.00130,  -0.00163,  -0.00231,478307072.00000,   0.00062,275322144.00000,  -0.00026,  -0.00044,  -0.00079, 128.00000,   2.00000
-420333689.25465,-440653251.38767,-115983371.55361,  -0.00132,  -0.00164,  -0.00231,478307264.00000,   0.00063,275333056.00000,  -0.00026,  -0.00045,  -0.00080,  32.00000,   2.00000
-421884913.13212,-440795023.07376,-115003270.79782,  -0.00133,  -0.00164,  -0.00231,478341824.00000,   0.00064,275344032.00000,  -0.00027,  -0.00046,  -0.00081,  96.00000,   2.00000
-423416803.56162,-440926927.46248,-114026913.39594,  -0.00134,  -0.00165,  -0.00231,478361664.00000,   0.00065,275355040.00000,  -0.00028,  -0.00047,  -0.00082,  32.00000,   2.00000
-424929574.95110,-441049273.55357,-113054431.32461,  -0.00136,  -0.00165,  -0.00230,478381440.00000,   0.00066,275366048.00000,  -0.00028,  -0.00047,  -0.00083,  96.00000,   2.00000
-426412479.58677,-441165331.06165,-112089930.26264,  -0.00137,  -0.00166,  -0.00230,478386176.00000,   0.00067,275377024.00000,  -0.00029,  -0.00048,  -0.00084, -32.00000,   2.00000
-427894553.39980,-441263562.55850,-111124217.19458,  -0.00138,  -0.00166,  -0.00230,478400352.00000,   0.00068,275387968.00000,  -0.00030,  -0.00049,  -0.00086,  32.00000,   2.00000
-429360290.00435,-441354244.73091,-110159806.21457,  -0.00140,  -0.00167,  -0.00230,478455680.00000,   0.00069,275399072.00000,  -0.00030,  -0.00049,  -0.00087, 192.00000,   2.00000
-430803785.25740,-441433678.85470,-109202336.50736,  -0.00141,  -0.00167,  -0.00230,478440256.00000,   0.00070,275410080.00000,  -0.00031,  -0.00050,  -0.00088,  32.00000,   2.00000
-432224644.74031,-441513496.39898,-108245101.83415,  -0.00142,  -0.00168,  -0.00229,478475712.00000,   0.00071,275421120.00000,  -0.00032,  -0.00051,  -0.00089,  64.00000,   2.00000
-433630062.43675,-441574804.52221,-107296462.93478,  -0.00143,  -0.00168,  -0.00229,478479936.00000,   0.00072,275432128.00000,  -0.00032,  -0.00052,  -0.00090,  96.00000,   2.00000
-435020375.36427,-441631168.85183,-106346855.56199,  -0.00145,  -0.00168,  -0.00229,478495584.00000,   0.00073,275443168.00000,  -0.00033,  -0.00052,  -0.00091,  32.00000,   2.00000
-436397555.23080,-441670854.40812,-105403565.94163,  -0.00146,  -0.00169,  -0.00229,478535744.00000,   0.00075,275454240.00000,  -0.00034,  -0.00053,  -0.00092, 160.00000,   2.00000
-437749760.93402,-441709403.59018,-104463445.79127,  -0.00147,  -0.00169,  -0.00229,478536512.00000,   0.00076,275465280.00000,  -0.00034,  -0.00054,  -0.00093, 128.00000,   2.00000
-439079205.65754,-441735253.84378,-103533822.43792,  -0.00149,  -0.00170,  -0.00228,478561568.00000,   0.00077,275476352.00000,  -0.00035,  -0.00055,  -0.00094, -96.00000,   2.00000
-440403614.04851,-441752740.79704,-102599747.76568,  -0.00150,  -0.00170,  -0.00228,478593504.00000,   0.00078,275487456.00000,  -0.00036,  -0.00055,  -0.00095,  64.00000,   2.00000
-441699898.39050,-441765643.00773,-101674598.65860,  -0.00151,  -0.00171,  -0.00228,478599232.00000,   0.00079,275498528.00000,  -0.00037,  -0.00056,  -0.00096,  64.00000,   2.00000
-442987245.95038,-441766245.93168,-100750693.40380,  -0.00153,  -0.00171,  -0.00228,478636320.00000,   0.00080,275509664.00000,  -0.00037,  -0.00057,  -0.00097, 160.00000,   2.00000
-444251199.76166,-441753226.59579,-99839428.82971,  -0.00154,  -0.00172,  -0.00228,478626400.00000,   0.00081,275520704.00000,  -0.00038,  -0.00057,  -0.00098, -32.00000,   2.00000
-445502768.17175,-441737974.09473,-98925689.52763,  -0.00155,  -0.00172,  -0.00227,478679264.00000,   0.00082,275531872.00000,  -0.00039,  -0.00058,  -0.00099,  64.00000,   2.00000
-446735682.82859,-441713350.27085,-98018712.85445,  -0.00157,  -0.00173,  -0.00227,478665152.00000,   0.00083,275542912.00000,  -0.00040,  -0.00059,  -0.00100,  32.00000,   2.00000
-447952580.64143,-441682898.46423,-97115020.77326,  -0.00158,  -0.00173,  -0.00227,478722464.00000,   0.00084,275554080.00000,  -0.00040,  -0.00060,  -0.00101,  64.00000,   2.00000
-449148249.85197,-441640127.21835,-96223745.76480,  -0.00159,  -0.00174,  -0.00227,478712224.00000,   0.00085,275565152.00000,  -0.00041,  -0.00060,  -0.00102, 128.00000,   2.00000
-450340047.83832,-441589766.36609,-95328044.27281,  -0.00161,  -0.00174,  -0.00227,478745792.00000,   0.00086,275576288.00000,  -0.00042,  -0.00061,  -0.00103,  32.00000,   2.00000
-451506748.95360,-441536724.00655,-94441220.48900,  -0.00162,  -0.00175,  -0.00226,478751488.00000,   0.00087,275587360.00000,  -0.00043,  -0.00062,  -0.00104, -64.00000,   2.00000
-452656594.82304,-441476147.48286,-93559690.62667,  -0.00163,  -0.00175,  -0.00226,478773440.00000,   0.00088,275598464.00000,  -0.00043,  -0.00063,  -0.00105,-992.00000,   1.00000
-453799882.89986,-441405474.96906,-92680798.56797,  -0.00165,  -0.00176,  -0.00226,478811648.00000,   0.00089,275609600.00000,  -0.00044,  -0.00063,  -0.00105,-800.00000,   1.00000
-454918174.49436,-441332232.17206,-91812189.24927,  -0.00166,  -0.00176,  -0.00226,478819744.00000,   0.00090,275620704.00000,  -0.00045,  -0.00064,  -0.00106,-672.00000,   1.00000
-456019867.15399,-441252149.73268,-90951366.03447,  -0.00167,  -0.00177,  -0.00226,478846144.00000,   0.00091,275631776.00000,  -0.00046,  -0.00065,  -0.00107, -32.00000,   2.00000
-457115628.84160,-441149675.67740,-90099203.02945,  -0.00169,  -0.00177,  -0.00225,478876576.00000,   0.00092,275642880.00000,  -0.00047,  -0.00065,  -0.00108,   0.00000,   2.00000
-458179027.86734,-441052703.37230,-89257210.49382,  -0.00170,  -0.00178,  -0.00225,478908960.00000,   0.00093,275653984.00000,  -0.00047,  -0.00066,  -0.00109,  96.00000,   2.00000
-459227292.96842,-440937729.02644,-88428450.61593,  -0.00171,  -0.00178,  -0.00225,478929632.00000,   0.00094,275665024.00000,  -0.00048,  -0.00067,  -0.00110, 160.00000,   2.00000
-460257780.63814,-440815849.89767,-87606636.71927,  -0.00172,  -0.00178,  -0.00225,478968512.00000,   0.00095,275676064.00000,  -0.00049,  -0.00068,  -0.00111,   0.00000,   2.00000
-461276110.91768,-440704129.78297,-86774512.95319,  -0.00174,  -0.00179,  -0.00224,479017632.00000,   0.00096,275687168.00000,  -0.00050,  -0.00068,  -0.00112,-384.00000,   1.00000
-462296873.05523,-440583850.68731,-85939394.84527,  -0.00175,  -0.00179,  -0.00224,479031360.00000,   0.00097,275698272.00000,  -0.00051,  -0.00069,  -0.00113,  32.00000,   2.00000
-463324550.63528,-440471271.13783,-85081754.17050,  -0.00176,  -0.00180,  -0.00224,479038304.00000,   0.00098,275709440.00000,  -0.00051,  -0.00070,  -0.00113, -64.00000,   2.00000
-464338632.09455,-440351908.96216,-84226364.28527,  -0.00178,  -0.00180,  -0.00224,479039936.00000,   0.00099,275720640.00000,  -0.00052,  -0.00071,  -0.00114, -96.00000,   2.00000
-465331052.91696,-440224824.14052,-83377751.46273,  -0.00179,  -0.00181,  -0.00224,479032896.00000,   0.00100,275731808.00000,  -0.00053,  -0.00071,  -0.00115,-128.00000,   2.00000
-466304954.64318,-440079491.84576,-82548415.93363,  -0.00180,  -0.00181,  -0.00223,479019456.00000,   0.00101,275742944.00000,  -0.00054,  -0.00072,  -0.00116, -96.00000,   2.00000
-467246705.95018,-439940406.69767,-81736840.67275,  -0.00182,  -0.00182,  -0.00223,479031488.00000,   0.00102,275754048.00000,  -0.00055,  -0.00073,  -0.00117,-160.00000,   2.00000
-468191419.60205,-439785773.21374,-80926456.12074,  -0.00183,  -0.00182,  -0.00223,479043552.00000,   0.00103,275765152.00000,  -0.00056,  -0.00073,  -0.00118,-224.00000,   2.00000
-469112689.81103,-439641330.47274,-80121067.47239,  -0.00184,  -0.00183,  -0.00223,479058752.00000,   0.00104,275776256.00000,  -0.00057,  -0.00074,  -0.00119,-128.00000,   2.00000
-470025056.61338,-439479664.53386,-79328132.44633,  -0.00186,  -0.00183,  -0.00223,479062112.00000,   0.00105,275787328.00000,  -0.00057,  -0.00075,  -0.00119,   0.00000,   2.00000
-470937277.07819,-439311508.77188,-78528742.80791,  -0.00187,  -0.00184,  -0.00222,479089952.00000,   0.00106,275798432.00000,  -0.00058,  -0.00076,  -0.00120,-128.00000,   2.00000
-471831573.74598,-439143965.75357,-77735829.82805,  -0.00188,  -0.00184,  -0.00222,479084512.00000,   0.00107,275809504.00000,  -0.00059,  -0.00076,  -0.00121, -32.00000,   2.00000
-472714517.94969,-438971991.33987,-76946528.35235,  -0.00190,  -0.00184,  -0.00222,479094784.00000,   0.00108,275820608.00000,  -0.00060,  -0.00077,  -0.00122, -96.00000,   2.00000
-473585778.80414,-438795822.17088,-76161427.01617,  -0.00191,  -0.00185,  -0.00222,479103648.00000,   0.00109,275831712.00000,  -0.00061,  -0.00078,  -0.00123, -64.00000,   2.00000
-474434762.64348,-438617677.17651,-75390333.40747,  -0.00192,  -0.00185,  -0.00221,479097824.00000,   0.00110,275842752.00000,  -0.00062,  -0.00078,  -0.00123,-128.00000,   2.00000
-475281567.97249,-438433444.42741,-74614993.18856,  -0.00193,  -0.00186,  -0.00221,479119392.00000,   0.00111,275853856.00000,  -0.00063,  -0.00079,  -0.00124, -32.00000,   2.00000
-476113813.79146,-438240774.77445,-73851139.97360,  -0.00195,  -0.00186,  -0.00221,479094176.00000,   0.00112,275864864.00000,  -0.00064,  -0.00080,  -0.00125,-128.00000,   2.00000
-476935375.37109,-438049267.13437,-73086853.66881,  -0.00196,  -0.00187,  -0.00221,479134752.00000,   0.00113,275876000.00000,  -0.00064,  -0.00080,  -0.00126, -96.00000,   2.00000
-477742587.02847,-437849930.36344,-72334292.87558,  -0.00197,  -0.00187,  -0.00221,479110048.00000,   0.00115,275887008.00000,  -0.00065,  -0.00081,  -0.00127, -96.00000,   2.00000
-478534492.63413,-437645032.76283,-71593640.79712,  -0.00199,  -0.00188,  -0.00220,479121792.00000,   0.00116,275898048.00000,  -0.00066,  -0.00082,  -0.00127,   0.00000,   2.00000
-479316917.87844,-437440032.99068,-70852546.40980,  -0.00200,  -0.00188,  -0.00220,479128032.00000,   0.00117,275909088.00000,  -0.00067,  -0.00083,  -0.00128, -96.00000,   2.00000
-480087138.61701,-437232577.81370,-70117205.83282,  -0.00201,  -0.00189,  -0.00220,479137952.00000,   0.00118,275920128.00000,  -0.00068,  -0.00083,  -0.00129,-128.00000,   2.00000
-480839029.04335,-437028304.14531,-69390577.33208,  -0.00203,  -0.00189,  -0.00220,479131264.00000,   0.00119,275931104.00000,  -0.00069,  -0.00084,  -0.00130,-128.00000,   2.00000
-481582690.36613,-436814142.22274,-68672788.52549,  -0.00204,  -0.00189,  -0.00220,479162656.00000,   0.00120,275942144.00000,  -0.00070,  -0.00085,  -0.00130, -32.00000,   2.00000
-482311368.32223,-436606171.08204,-67957272.14626,  -0.00205,  -0.00190,  -0.00219,479154592.00000,   0.00121,275953152.00000,  -0.00071,  -0.00085,  -0.00131,  32.00000,   2.00000
-483034698.80249,-436387468.37435,-67249908.32605,  -0.00206,  -0.00190,  -0.00219,479152064.00000,   0.00122,275964096.00000,  -0.00072,  -0.00086,  -0.00132, 864.00000,   1.00000
-483737087.80689,-436173056.06389,-66551301.96463,  -0.00208,  -0.00191,  -0.00219,479184064.00000,   0.00123,275975104.00000,  -0.00073,  -0.00087,  -0.00132,  32.00000,   2.00000
-484437519.79866,-435950728.78882,-65854394.80603,  -0.00209,  -0.00191,  -0.00219,479179040.00000,   0.00124,275986048.00000,  -0.00074,  -0.00087,  -0.00133,  32.00000,   2.00000
-485124461.78576,-435724689.08641,-65168962.59697,  -0.00210,  -0.00192,  -0.00218,479196032.00000,   0.00125,275997024.00000,  -0.00074,  -0.00088,  -0.00134,  64.00000,   2.00000
-485797654.84992,-435505180.03846,-64485150.20415,  -0.00212,  -0.00192,  -0.00218,479191008.00000,   0.00126,276007936.00000,  -0.00075,  -0.00089,  -0.00134,  64.00000,   2.00000
-486457884.51172,-435281965.94047,-63812662.18278,  -0.00213,  -0.00193,  -0.00218,479208864.00000,   0.00127,276018848.00000,  -0.00076,  -0.00089,  -0.00135, -32.00000,   2.00000
-487111016.74299,-435060011.21071,-63138900.83289,  -0.00214,  -0.00193,  -0.00218,479221472.00000,   0.00128,276029760.00000,  -0.00077,  -0.00090,  -0.00136,  64.00000,   2.00000
-487751575.86425,-434834298.90216,-62476374.95806,  -0.00215,  -0.00193,  -0.00218,479239936.00000,   0.00129,276040704.00000,  -0.00078,  -0.00091,  -0.00136,   0.00000,   2.00000
-488382513.98327,-434602845.28435,-61823698.29468,  -0.00217,  -0.00194,  -0.00217,479223616.00000,   0.00130,276051520.00000,  -0.00079,  -0.00091,  -0.00137, 160.00000,   2.00000
-489004276.90436,-434374536.36793,-61170857.26477,  -0.00218,  -0.00194,  -0.00217,479271936.00000,   0.00131,276062464.00000,  -0.00080,  -0.00092,  -0.00138,   0.00000,   2.00000
-489619583.25949,-434142602.31126,-60521349.20921,  -0.00219,  -0.00195,  -0.00217,479253184.00000,   0.00132,276073280.00000,  -0.00081,  -0.00093,  -0.00138, -32.00000,   2.00000
-490218100.41399,-433917129.00988,-59880654.30565,  -0.00220,  -0.00195,  -0.00217,479286912.00000,   0.00133,276084160.00000,  -0.00082,  -0.00093,  -0.00139,  64.00000,   2.00000
-490813505.95297,-433680102.24629,-59246801.82380,  -0.00222,  -0.00196,  -0.00217,479288128.00000,   0.00134,276095008.00000,  -0.00083,  -0.00094,  -0.00139,  32.00000,   2.00000
-491392682.73245,-433445001.91161,-58626376.90140,  -0.00223,  -0.00196,  -0.00216,479289216.00000,   0.00135,276105824.00000,  -0.00084,  -0.00095,  -0.00140,  96.00000,   2.00000
-491971753.34596,-433200513.42290,-58006180.34506,  -0.00224,  -0.00196,  -0.00216,479287808.00000,   0.00136,276116544.00000,  -0.00085,  -0.00095,  -0.00141,  96.00000,   2.00000
-492537449.78790,-432964900.45657,-57388285.12532,  -0.00226,  -0.00197,  -0.00216,479318624.00000,   0.00137,276127360.00000,  -0.00086,  -0.00096,  -0.00141,  64.00000,   2.00000
-493095403.39753,-432727952.62746,-56774795.52087,  -0.00227,  -0.00197,  -0.00216,479334304.00000,   0.00138,276138144.00000,  -0.00087,  -0.00097,  -0.00142, 128.00000,   2.00000
-493648800.68466,-432477445.89941,-56174092.00695,  -0.00228,  -0.00198,  -0.00215,479337440.00000,   0.00139,276148928.00000,  -0.00088,  -0.00097,  -0.00142,  32.00000,   2.00000
-494186577.28678,-432243633.74615,-55571627.97718,  -0.00229,  -0.00198,  -0.00215,479347936.00000,   0.00140,276159680.00000,  -0.00089,  -0.00098,  -0.00143,  64.00000,   2.00000
-494720136.60553,-431996334.35982,-54981791.50804,  -0.00231,  -0.00199,  -0.00215,479350688.00000,   0.00141,276170400.00000,  -0.00090,  -0.00098,  -0.00144,   0.00000,   2.00000
-495246601.85516,-431748094.58219,-54396084.93600,  -0.00232,  -0.00199,  -0.00215,479365728.00000,   0.00142,276181120.00000,  -0.00091,  -0.00099,  -0.00144,  96.00000,   2.00000
-495760936.12237,-431504422.36349,-53816789.82618,  -0.00233,  -0.00199,  -0.00215,479363104.00000,   0.00143,276191776.00000,  -0.00092,  -0.00100,  -0.00145,  64.00000,   2.00000
-496273527.62906,-431254517.68021,-53239214.94288,  -0.00234,  -0.00200,  -0.00214,479395520.00000,   0.00144,276202496.00000,  -0.00093,  -0.00100,  -0.00145,  64.00000,   2.00000
-496779677.27283,-430999017.84376,-52669849.93170,  -0.00236,  -0.00200,  -0.00214,479377568.00000,   0.00145,276213120.00000,  -0.00094,  -0.00101,  -0.00146,   0.00000,   2.00000
-497268832.41195,-430758946.68750,-52104779.17593,  -0.00237,  -0.00201,  -0.00214,479389120.00000,   0.00146,276223712.00000,  -0.00095,  -0.00102,  -0.00146,  64.00000,   2.00000
-497761775.79010,-430502377.04854,-51543207.87690,  -0.00238,  -0.00201,  -0.00214,479406400.00000,   0.00147,276234368.00000,  -0.00095,  -0.00102,  -0.00147,   0.00000,   2.00000
-498235595.35687,-430259511.80152,-50992271.85109,  -0.00239,  -0.00201,  -0.00214,479419968.00000,   0.00148,276244992.00000,  -0.00096,  -0.00103,  -0.00147,   0.00000,   2.00000
-498708611.33604,-430005949.31504,-50446945.89908,  -0.00240,  -0.00202,  -0.00213,479419264.00000,   0.00149,276255584.00000,  -0.00097,  -0.00103,  -0.00148,  32.00000,   2.00000
-499177521.32534,-429754054.69368,-49898887.72363,  -0.00242,  -0.00202,  -0.00213,479431104.00000,   0.00150,276266144.00000,  -0.00098,  -0.00104,  -0.00148, -32.00000,   2.00000
-499633346.53010,-429505854.67822,-49363161.50607,  -0.00243,  -0.00203,  -0.00213,479429248.00000,   0.00151,276276672.00000,  -0.00099,  -0.00105,  -0.00149, 128.00000,   2.00000
-500083003.66046,-429257550.34233,-48831034.99975,  -0.00244,  -0.00203,  -0.00213,479443072.00000,   0.00152,276287232.00000,  -0.00100,  -0.00105,  -0.00149, -32.00000,   2.00000
-500532257.89814,-428998907.36676,-48304262.42541,  -0.00245,  -0.00204,  -0.00213,479441888.00000,   0.00153,276297728.00000,  -0.00101,  -0.00106,  -0.00150, 128.00000,   2.00000
-500963210.02125,-428754705.86170,-47787829.39667,  -0.00247,  -0.00204,  -0.00213,479454592.00000,   0.00154,276308192.00000,  -0.00102,  -0.00107,  -0.00150, 128.00000,   2.00000
-501396044.85566,-428501941.44648,-47270125.17171,  -0.00248,  -0.00204,  -0.00212,479451200.00000,   0.00155,276318656.00000,  -0.00103,  -0.00107,  -0.00151,  32.00000,   2.00000
-501820944.07115,-428247705.37282,-46762324.49777,  -0.00249,  -0.00205,  -0.00212,479466688.00000,   0.00156,276329088.00000,  -0.00104,  -0.00108,  -0.00151,  64.00000,   2.00000
-502237800.37470,-428001192.83924,-46253509.48570,  -0.00250,  -0.00205,  -0.00212,479459936.00000,   0.00157,276339488.00000,  -0.00105,  -0.00108,  -0.00152, -64.00000,   2.00000
-502651598.00279,-427747914.75853,-45752525.20409,  -0.00251,  -0.00206,  -0.00212,479493344.00000,   0.00158,276349952.00000,  -0.00106,  -0.00109,  -0.00152, 160.00000,   2.00000
-503055050.73598,-427500437.36746,-45256882.69490,  -0.00253,  -0.00206,  -0.00212,479488704.00000,   0.00159,276360352.00000,  -0.00107,  -0.00110,  -0.00153, -64.00000,   2.00000
-503446849.71232,-427257562.13096,-44773060.68367,  -0.00254,  -0.00206,  -0.00211,479485504.00000,   0.00160,276370720.00000,  -0.00108,  -0.00110,  -0.00153,  64.00000,   2.00000
-503840835.67587,-427006200.10130,-44287600.16657,  -0.00255,  -0.00207,  -0.00211,479481760.00000,   0.00160,276381024.00000,  -0.00109,  -0.00111,  -0.00154,   0.00000,   2.00000
-504221971.93576,-426764538.05667,-43810267.85616,  -0.00256,  -0.00207,  -0.00211,479511392.00000,   0.00161,276391392.00000,  -0.00110,  -0.00111,  -0.00154,  32.00000,   2.00000
-504605317.63782,-426514379.59419,-43331244.10498,  -0.00258,  -0.00208,  -0.00211,479507680.00000,   0.00162,276401696.00000,  -0.00111,  -0.00112,  -0.00155,  32.00000,   2.00000
-504977292.28817,-426269008.27946,-42863892.63925,  -0.00259,  -0.00208,  -0.00211,479504032.00000,   0.00163,276411968.00000,  -0.00112,  -0.00112,  -0.00155,   0.00000,   2.00000
-505344037.12290,-426024308.18765,-42399694.15856,  -0.00260,  -0.00208,  -0.00210,479516768.00000,   0.00164,276422208.00000,  -0.00113,  -0.00113,  -0.00155,   0.00000,   2.00000
-505699645.11888,-425784447.16904,-41947067.95459,  -0.00261,  -0.00209,  -0.00210,479512992.00000,   0.00165,276432448.00000,  -0.00114,  -0.00114,  -0.00156,   0.00000,   2.00000
-506057812.29647,-425536217.86206,-41492559.03786,  -0.00262,  -0.00209,  -0.00210,479508864.00000,   0.00166,276442592.00000,  -0.00115,  -0.00114,  -0.00156,  32.00000,   2.00000
-506403508.00815,-425298123.96183,-41046176.96038,  -0.00263,  -0.00209,  -0.00210,479537984.00000,   0.00167,276452832.00000,  -0.00116,  -0.00115,  -0.00157,  64.00000,   2.00000
-506745750.09517,-425055609.81776,-40606240.15325,  -0.00265,  -0.00210,  -0.00210,479517216.00000,   0.00168,276462944.00000,  -0.00117,  -0.00115,  -0.00157,  32.00000,   2.00000
-507083287.73588,-424814130.60186,-40169385.06544,  -0.00266,  -0.00210,  -0.00210,479529504.00000,   0.00169,276473088.00000,  -0.00118,  -0.00116,  -0.00157,  64.00000,   2.00000
-507415895.79502,-424573500.89345,-39735600.95847,  -0.00267,  -0.00211,  -0.00209,479541664.00000,   0.00170,276483200.00000,  -0.00119,  -0.00116,  -0.00158,   0.00000,   2.00000
-507739880.21952,-424339479.42809,-39306718.49498,  -0.00268,  -0.00211,  -0.00209,479535424.00000,   0.00171,276493280.00000,  -0.00120,  -0.00117,  -0.00158,   0.00000,   2.00000
-508057490.01397,-424105013.70947,-38887450.75892,  -0.00269,  -0.00211,  -0.00209,479549280.00000,   0.00172,276503360.00000,  -0.00121,  -0.00118,  -0.00159, 128.00000,   2.00000
-508370351.95922,-423871383.27910,-38471216.69010,  -0.00270,  -0.00212,  -0.00209,479561376.00000,   0.00173,276513440.00000,  -0.00122,  -0.00118,  -0.00159, -64.00000,   2.00000
-508680485.97131,-423633418.27529,-38061191.90892,  -0.00272,  -0.00212,  -0.00209,479540000.00000,   0.00174,276523424.00000,  -0.00123,  -0.00119,  -0.00159,  32.00000,   2.00000
-508986150.73316,-423396441.42590,-37654187.45854,  -0.00273,  -0.00213,  -0.00209,479551904.00000,   0.00175,276533408.00000,  -0.00124,  -0.00119,  -0.00160,  96.00000,   2.00000
-509276320.14873,-423175609.02181,-37257103.83401,  -0.00274,  -0.00213,  -0.00209,479561472.00000,   0.00176,276543392.00000,  -0.00125,  -0.00120,  -0.00160,  64.00000,   2.00000
-509567957.31761,-422944698.01089,-36864366.34743,  -0.00275,  -0.00213,  -0.00208,479558432.00000,   0.00177,276553344.00000,  -0.00126,  -0.00120,  -0.00160,  32.00000,   2.00000
-509862728.86573,-422705040.69475,-36469395.83785,  -0.00276,  -0.00214,  -0.00208,479553728.00000,   0.00178,276563232.00000,  -0.00127,  -0.00121,  -0.00161,  64.00000,   2.00000
-510140749.23478,-422480285.58681,-36090875.16675,  -0.00277,  -0.00214,  -0.00208,479564608.00000,   0.00178,276573120.00000,  -0.00128,  -0.00121,  -0.00161,  64.00000,   2.00000
-510416475.27492,-422257607.49180,-35708709.94946,  -0.00278,  -0.00214,  -0.00208,479574464.00000,   0.00179,276582976.00000,  -0.00129,  -0.00122,  -0.00162,  64.00000,   2.00000
-510688788.57009,-422028931.46043,-35338978.01986,  -0.00280,  -0.00215,  -0.00208,479554240.00000,   0.00180,276592768.00000,  -0.00130,  -0.00122,  -0.00162, 128.00000,   2.00000
-510958970.35954,-421802202.39099,-34965540.25657,  -0.00281,  -0.00215,  -0.00208,479564064.00000,   0.00181,276602560.00000,  -0.00131,  -0.00123,  -0.00162, 128.00000,   2.00000
-511223920.02583,-421574815.33888,-34601560.20222,  -0.00282,  -0.00216,  -0.00208,479576608.00000,   0.00182,276612352.00000,  -0.00131,  -0.00123,  -0.00163,   0.00000,   2.00000
-511480502.07321,-421352505.83188,-34248574.80042,  -0.00283,  -0.00216,  -0.00207,479570592.00000,   0.00183,276622080.00000,  -0.00132,  -0.00124,  -0.00163,  32.00000,   2.00000
-511735297.61650,-421131827.90223,-33891763.66608,  -0.00284,  -0.00216,  -0.00207,479580128.00000,   0.00184,276631808.00000,  -0.00133,  -0.00124,  -0.00163,   0.00000,   2.00000
-511987485.13953,-420904715.56701,-33547052.04901,  -0.00285,  -0.00217,  -0.00207,479559424.00000,   0.00185,276641440.00000,  -0.00134,  -0.00125,  -0.00164, -64.00000,   2.00000
-512231253.07200,-420689261.74408,-33203812.60877,  -0.00286,  -0.00217,  -0.00207,479584704.00000,   0.00186,276651136.00000,  -0.00135,  -0.00125,  -0.00164,  32.00000,   2.00000
-512477929.41194,-420462895.82891,-32864418.46956,  -0.00287,  -0.00217,  -0.00207,479580960.00000,   0.00187,276660768.00000,  -0.00136,  -0.00126,  -0.00164,  32.00000,   2.00000
-512716766.07435,-420240985.11197,-32535681.90137,  -0.00289,  -0.00218,  -0.00207,479574560.00000,   0.00188,276670336.00000,  -0.00137,  -0.00127,  -0.00164,   0.00000,   2.00000
-512949816.59680,-420024898.51217,-32210926.81156,  -0.00290,  -0.00218,  -0.00207,479566432.00000,   0.00188,276679872.00000,  -0.00138,  -0.00127,  -0.00165,  96.00000,   2.00000
-513180356.19362,-419808696.20046,-31888590.90741,  -0.00291,  -0.00218,  -0.00206,479576896.00000,   0.00189,276689376.00000,  -0.00139,  -0.00128,  -0.00165, -64.00000,   2.00000
-513414453.09959,-419581325.77845,-31569792.25033,  -0.00292,  -0.00219,  -0.00206,479572608.00000,   0.00190,276698848.00000,  -0.00140,  -0.00128,  -0.00165, -64.00000,   2.00000
-513637488.28191,-419370841.82854,-31253648.26532,  -0.00293,  -0.00219,  -0.00206,479578880.00000,   0.00191,276708320.00000,  -0.00141,  -0.00129,  -0.00166,  32.00000,   2.00000
-513862655.50133,-419147763.17153,-30947484.19847,  -0.00294,  -0.00220,  -0.00206,479575936.00000,   0.00192,276717728.00000,  -0.00142,  -0.00129,  -0.00166,  32.00000,   2.00000
-514082506.33916,-418930139.50404,-30644901.23771,  -0.00295,  -0.00220,  -0.00206,479567360.00000,   0.00193,276727104.00000,  -0.00143,  -0.00129,  -0.00166,   0.00000,   2.00000
-514299325.72196,-418711381.45007,-30351043.58375,  -0.00296,  -0.00220,  -0.00206,479578624.00000,   0.00194,276736448.00000,  -0.00144,  -0.00130,  -0.00166,  64.00000,   2.00000
-514521306.68133,-418482149.21300,-30053681.43594,  -0.00297,  -0.00221,  -0.00206,479572864.00000,   0.00195,276745760.00000,  -0.00145,  -0.00130,  -0.00167,  32.00000,   2.00000
-514731405.67444,-418268748.04337,-29765255.22060,  -0.00298,  -0.00221,  -0.00206,479579808.00000,   0.00195,276755072.00000,  -0.00146,  -0.00131,  -0.00167,  32.00000,   2.00000
-514942031.97531,-418049409.19100,-29481154.84120,  -0.00299,  -0.00221,  -0.00206,479556576.00000,   0.00196,276764256.00000,  -0.00147,  -0.00131,  -0.00167, -32.00000,   2.00000
-515145664.06749,-417841399.73259,-29197892.82392,  -0.00300,  -0.00222,  -0.00205,479580608.00000,   0.00197,276773504.00000,  -0.00148,  -0.00132,  -0.00168,  96.00000,   2.00000
-515352021.85402,-417620916.24629,-28924117.43047,  -0.00302,  -0.00222,  -0.00205,479576960.00000,   0.00198,276782720.00000,  -0.00148,  -0.00132,  -0.00168,  64.00000,   2.00000
-515559010.69317,-417394638.72542,-28654428.49419,  -0.00303,  -0.00222,  -0.00205,479553408.00000,   0.00199,276791808.00000,  -0.00149,  -0.00133,  -0.00168, -32.00000,   2.00000
-515755826.10860,-417185577.45214,-28386750.68081,  -0.00304,  -0.00223,  -0.00205,479558432.00000,   0.00200,276800864.00000,  -0.00150,  -0.00133,  -0.00168, 128.00000,   2.00000
-515953078.83598,-416969871.02474,-28126071.02282,  -0.00305,  -0.00223,  -0.00205,479587616.00000,   0.00201,276810016.00000,  -0.00151,  -0.00134,  -0.00169,  64.00000,   2.00000
-516149140.69298,-416755304.40562,-27863962.41799,  -0.00306,  -0.00223,  -0.00205,479544096.00000,   0.00201,276818976.00000,  -0.00152,  -0.00134,  -0.00169,  64.00000,   2.00000
-516342403.06807,-416539972.74318,-27610082.57414,  -0.00307,  -0.00224,  -0.00205,479554400.00000,   0.00202,276827968.00000,  -0.00153,  -0.00135,  -0.00169,  32.00000,   2.00000
-516532929.75079,-416324023.70400,-27364384.85911,  -0.00308,  -0.00224,  -0.00205,479564608.00000,   0.00203,276836928.00000,  -0.00154,  -0.00135,  -0.00169,   0.00000,   2.00000
-516719975.84149,-416115150.07697,-27114822.05007,  -0.00309,  -0.00224,  -0.00205,479553856.00000,   0.00204,276845856.00000,  -0.00155,  -0.00136,  -0.00169, -32.00000,   2.00000
-516909866.42201,-415894470.43351,-26874366.10409,  -0.00310,  -0.00225,  -0.00205,479549536.00000,   0.00205,276854720.00000,  -0.00156,  -0.00136,  -0.00170,  96.00000,   2.00000
-517089269.07756,-415691324.24436,-26635644.53482,  -0.00311,  -0.00225,  -0.00205,479554208.00000,   0.00206,276863584.00000,  -0.00157,  -0.00137,  -0.00170, -32.00000,   2.00000
-517268281.27925,-415482125.24270,-26407160.34229,  -0.00312,  -0.00225,  -0.00205,479531168.00000,   0.00207,276872320.00000,  -0.00158,  -0.00137,  -0.00170,  32.00000,   2.00000
-517450225.66534,-415269035.41508,-26172228.61672,  -0.00313,  -0.00226,  -0.00204,479557504.00000,   0.00207,276881152.00000,  -0.00158,  -0.00138,  -0.00170, 128.00000,   2.00000
-517621724.02893,-415066109.89011,-25954379.28211,  -0.00314,  -0.00226,  -0.00204,479531200.00000,   0.00208,276889856.00000,  -0.00159,  -0.00138,  -0.00171,  64.00000,   2.00000
-517792827.45080,-414864932.28947,-25731213.94870,  -0.00315,  -0.00226,  -0.00204,479538880.00000,   0.00209,276898528.00000,  -0.00160,  -0.00138,  -0.00171,  64.00000,   2.00000
-517967995.38352,-414653312.44536,-25510317.24680,  -0.00316,  -0.00227,  -0.00204,479533184.00000,   0.00210,276907200.00000,  -0.00161,  -0.00139,  -0.00171,  32.00000,   2.00000
-518137029.88858,-414447255.97007,-25298551.32579,  -0.00317,  -0.00227,  -0.00204,479524320.00000,   0.00211,276915776.00000,  -0.00162,  -0.00139,  -0.00171,   0.00000,   2.00000
-518300269.94722,-414246995.28009,-25095866.24368,  -0.00318,  -0.00227,  -0.00204,479515296.00000,   0.00211,276924320.00000,  -0.00163,  -0.00140,  -0.00171,  32.00000,   2.00000
-518463088.75881,-414048665.04208,-24887765.18187,  -0.00319,  -0.00228,  -0.00204,479522912.00000,   0.00212,276932864.00000,  -0.00164,  -0.00140,  -0.00172, -64.00000,   2.00000
-518623345.04931,-413850654.91844,-24687569.10596,  -0.00320,  -0.00228,  -0.00204,479532544.00000,   0.00213,276941408.00000,  -0.00165,  -0.00141,  -0.00172,  96.00000,   2.00000
-518778805.51228,-413659219.55621,-24489704.12450,  -0.00321,  -0.00228,  -0.00204,479522592.00000,   0.00214,276949888.00000,  -0.00165,  -0.00141,  -0.00172,  64.00000,   2.00000
-518935295.05923,-413463006.25505,-24295014.28158,  -0.00322,  -0.00228,  -0.00204,479498208.00000,   0.00215,276958272.00000,  -0.00166,  -0.00142,  -0.00172,  64.00000,   2.00000
-519088927.64025,-413266913.11085,-24108116.29742,  -0.00323,  -0.00229,  -0.00204,479507840.00000,   0.00215,276966656.00000,  -0.00167,  -0.00142,  -0.00173, -64.00000,   2.00000
-519238277.68503,-413077729.15950,-23923449.11974,  -0.00324,  -0.00229,  -0.00204,479497632.00000,   0.00216,276974976.00000,  -0.00168,  -0.00142,  -0.00173,  32.00000,   2.00000
-519386064.86202,-412889610.92367,-23739866.82512,  -0.00325,  -0.00229,  -0.00204,479506240.00000,   0.00217,276983296.00000,  -0.00169,  -0.00143,  -0.00173, -32.00000,   2.00000
-519533786.37511,-412695722.43190,-23565934.37625,  -0.00326,  -0.00230,  -0.00204,479482816.00000,   0.00218,276991520.00000,  -0.00170,  -0.00143,  -0.00173,  64.00000,   2.00000
-519674712.95322,-412514724.79041,-23392199.38329,  -0.00326,  -0.00230,  -0.00204,479505472.00000,   0.00219,276999776.00000,  -0.00170,  -0.00144,  -0.00173,  64.00000,   2.00000
-519816645.64244,-412328636.23489,-23221361.70056,  -0.00327,  -0.00230,  -0.00204,479481120.00000,   0.00219,277007936.00000,  -0.00171,  -0.00144,  -0.00173,  32.00000,   2.00000
-519956227.39395,-412142936.62987,-23058165.21226,  -0.00328,  -0.00231,  -0.00204,479490464.00000,   0.00220,277016096.00000,  -0.00172,  -0.00144,  -0.00174, -32.00000,   2.00000
-520096982.69119,-411952200.48112,-22897774.53869,  -0.00329,  -0.00231,  -0.00204,479466016.00000,   0.00221,277024160.00000,  -0.00173,  -0.00145,  -0.00174,  32.00000,   2.00000
-520228026.90865,-411779824.25000,-22738543.25918,  -0.00330,  -0.00231,  -0.00204,479469856.00000,   0.00222,277032192.00000,  -0.00174,  -0.00145,  -0.00174,  64.00000,   2.00000
-520363306.29810,-411596812.22175,-22581001.34064,  -0.00331,  -0.00231,  -0.00204,479464032.00000,   0.00222,277040192.00000,  -0.00175,  -0.00146,  -0.00174,  64.00000,   2.00000
-520493370.06716,-411419595.09370,-22432029.34050,  -0.00332,  -0.00232,  -0.00204,479454592.00000,   0.00223,277048128.00000,  -0.00175,  -0.00146,  -0.00174,  96.00000,   2.00000
-520622132.92235,-411243377.33930,-22283875.56837,  -0.00333,  -0.00232,  -0.00204,479462880.00000,   0.00224,277056064.00000,  -0.00176,  -0.00146,  -0.00175, -64.00000,   2.00000
-520746027.53590,-411073077.67187,-22144228.52087,  -0.00334,  -0.00232,  -0.00204,479453280.00000,   0.00225,277063968.00000,  -0.00177,  -0.00147,  -0.00175, -32.00000,   2.00000
-520869771.15591,-410904547.29551,-21998678.47666,  -0.00335,  -0.00233,  -0.00204,479460544.00000,   0.00225,277071840.00000,  -0.00178,  -0.00147,  -0.00175, -32.00000,   2.00000
-520991192.72669,-410735440.67502,-21863366.95036,  -0.00336,  -0.00233,  -0.00203,479418080.00000,   0.00226,277079552.00000,  -0.00179,  -0.00148,  -0.00175, 160.00000,   2.00000
-521113342.46913,-410561085.42813,-21734422.40401,  -0.00337,  -0.00233,  -0.00203,479445920.00000,   0.00227,277087360.00000,  -0.00180,  -0.00148,  -0.00175, 224.00000,   2.00000
-521232464.93145,-410393865.85408,-21600497.23492,  -0.00337,  -0.00233,  -0.00203,479434368.00000,   0.00227,277095072.00000,  -0.00180,  -0.00148,  -0.00175,  32.00000,   2.00000
-521346865.19738,-410232404.32580,-21474932.63826,  -0.00338,  -0.00234,  -0.00203,479424512.00000,   0.00228,277102720.00000,  -0.00181,  -0.00149,  -0.00176, 160.00000,   2.00000
-521462861.88656,-410065431.38473,-21351753.58252,  -0.00339,  -0.00234,  -0.00203,479399552.00000,   0.00229,277110272.00000,  -0.00182,  -0.00149,  -0.00176,  96.00000,   2.00000
-521576840.13854,-409898618.72032,-21235860.01383,  -0.00340,  -0.00234,  -0.00203,479408416.00000,   0.00230,277117856.00000,  -0.00183,  -0.00149,  -0.00176, -64.00000,   2.00000
-521690060.79012,-409732897.42522,-21120560.98369,  -0.00341,  -0.00235,  -0.00204,479416192.00000,   0.00230,277125408.00000,  -0.00183,  -0.00150,  -0.00176,  64.00000,   2.00000
-521799470.17906,-409573452.74976,-21006813.06624,  -0.00342,  -0.00235,  -0.00204,479405344.00000,   0.00231,277132896.00000,  -0.00184,  -0.00150,  -0.00176,  64.00000,   2.00000
-521904248.44122,-409419575.41437,-20901264.65401,  -0.00343,  -0.00235,  -0.00204,479395264.00000,   0.00232,277140352.00000,  -0.00185,  -0.00151,  -0.00176, -32.00000,   2.00000
-522011002.63464,-409260159.60556,-20797939.04790,  -0.00343,  -0.00235,  -0.00204,479370144.00000,   0.00232,277147680.00000,  -0.00186,  -0.00151,  -0.00177,  96.00000,   2.00000
-522116690.69308,-409101443.06220,-20695095.06476,  -0.00344,  -0.00236,  -0.00204,479377888.00000,   0.00233,277155008.00000,  -0.00187,  -0.00151,  -0.00177,  64.00000,   2.00000
-522221680.49101,-408943685.77570,-20592741.25220,  -0.00345,  -0.00236,  -0.00204,479385472.00000,   0.00234,277162336.00000,  -0.00187,  -0.00152,  -0.00177,   0.00000,   2.00000
-522322209.00432,-408791476.58600,-20498495.94067,  -0.00346,  -0.00236,  -0.00204,479375136.00000,   0.00235,277169632.00000,  -0.00188,  -0.00152,  -0.00177,  64.00000,   2.00000
-522424605.77898,-408633462.08298,-20406357.34017,  -0.00347,  -0.00236,  -0.00204,479349888.00000,   0.00235,277176800.00000,  -0.00189,  -0.00152,  -0.00177,   0.00000,   2.00000
-522518221.25623,-408493692.33222,-20314875.01062,  -0.00348,  -0.00237,  -0.00204,479352480.00000,   0.00236,277183936.00000,  -0.00190,  -0.00153,  -0.00177,  96.00000,   2.00000
-522615497.61294,-408341893.03412,-20231173.28966,  -0.00348,  -0.00237,  -0.00204,479346880.00000,   0.00237,277191040.00000,  -0.00190,  -0.00153,  -0.00177,  64.00000,   2.00000
-522714752.95274,-408184233.73189,-20149496.43836,  -0.00349,  -0.00237,  -0.00204,479321344.00000,   0.00237,277198048.00000,  -0.00191,  -0.00153,  -0.00178,  64.00000,   2.00000
-522807949.50400,-408039411.57434,-20067460.96147,  -0.00350,  -0.00237,  -0.00204,479342688.00000,   0.00238,277205120.00000,  -0.00192,  -0.00154,  -0.00178, -64.00000,   2.00000
-522902234.72623,-407887945.52787,-19994091.36638,  -0.00351,  -0.00238,  -0.00204,479317888.00000,   0.00239,277212064.00000,  -0.00192,  -0.00154,  -0.00178,  32.00000,   2.00000
-522993213.65778,-407742595.17440,-19921966.66021,  -0.00352,  -0.00238,  -0.00204,479306304.00000,   0.00239,277218944.00000,  -0.00193,  -0.00154,  -0.00178,  96.00000,   2.00000
-523083634.44400,-407598008.29961,-19850132.71978,  -0.00352,  -0.00238,  -0.00204,479313472.00000,   0.00240,277225824.00000,  -0.00194,  -0.00155,  -0.00178,   0.00000,   2.00000
-523169708.53559,-407458667.66536,-19786186.84743,  -0.00353,  -0.00238,  -0.00204,479302656.00000,   0.00240,277232640.00000,  -0.00195,  -0.00155,  -0.00178,  64.00000,   2.00000
-523260676.14929,-407308006.95644,-19723187.12967,  -0.00354,  -0.00239,  -0.00204,479295584.00000,   0.00241,277239424.00000,  -0.00195,  -0.00155,  -0.00178, -32.00000,   2.00000
-523340319.30920,-407180744.38985,-19661594.75056,  -0.00355,  -0.00239,  -0.00204,479278880.00000,   0.00242,277246144.00000,  -0.00196,  -0.00156,  -0.00178,   0.00000,   2.00000
-523427718.59335,-407036871.54463,-19599994.63238,  -0.00356,  -0.00239,  -0.00204,479290656.00000,   0.00242,277252864.00000,  -0.00197,  -0.00156,  -0.00179,  96.00000,   2.00000
-523513337.81984,-406891234.50271,-19547828.83108,  -0.00356,  -0.00239,  -0.00204,479246848.00000,   0.00243,277259392.00000,  -0.00197,  -0.00156,  -0.00179,   0.00000,   2.00000
-523593343.69131,-406758576.11220,-19495161.19148,  -0.00357,  -0.00240,  -0.00204,479267488.00000,   0.00244,277266016.00000,  -0.00198,  -0.00157,  -0.00179,   0.00000,   2.00000
-523674499.28072,-406618909.42813,-19450958.88338,  -0.00358,  -0.00240,  -0.00204,479242336.00000,   0.00244,277272512.00000,  -0.00199,  -0.00157,  -0.00179, -32.00000,   2.00000
-523755212.17052,-406479905.93099,-19406899.82944,  -0.00359,  -0.00240,  -0.00204,479248992.00000,   0.00245,277279008.00000,  -0.00199,  -0.00157,  -0.00179, -32.00000,   2.00000
-523832915.83351,-406346884.29959,-19363908.86674,  -0.00359,  -0.00240,  -0.00204,479236768.00000,   0.00245,277285440.00000,  -0.00200,  -0.00158,  -0.00179,   0.00000,   2.00000
-523912823.54786,-406207536.24038,-19322654.14975,  -0.00360,  -0.00240,  -0.00205,479210496.00000,   0.00246,277291744.00000,  -0.00201,  -0.00158,  -0.00179,  32.00000,   2.00000
-523983429.31339,-406085576.24421,-19288440.56591,  -0.00361,  -0.00241,  -0.00205,479212896.00000,   0.00247,277298080.00000,  -0.00201,  -0.00158,  -0.00180,   0.00000,   2.00000
-524059937.85047,-405952684.36160,-19248322.17734,  -0.00361,  -0.00241,  -0.00205,479204608.00000,   0.00247,277304352.00000,  -0.00202,  -0.00158,  -0.00180,   0.00000,   2.00000
-524136776.31343,-405812002.09467,-19223275.18612,  -0.00362,  -0.00241,  -0.00205,479179904.00000,   0.00248,277310496.00000,  -0.00203,  -0.00159,  -0.00180,  32.00000,   2.00000
-524208913.49001,-405684869.83842,-19190927.29398,  -0.00363,  -0.00241,  -0.00205,479199264.00000,   0.00248,277316704.00000,  -0.00203,  -0.00159,  -0.00180, 128.00000,   2.00000
-524282362.51120,-405550582.27846,-19166939.04229,  -0.00364,  -0.00242,  -0.00205,479173728.00000,   0.00249,277322816.00000,  -0.00204,  -0.00159,  -0.00180,  96.00000,   2.00000
-524352805.57036,-405422088.49586,-19143924.17733,  -0.00364,  -0.00242,  -0.00205,479160960.00000,   0.00250,277328864.00000,  -0.00205,  -0.00160,  -0.00180, -32.00000,   2.00000
-524420432.58246,-405299473.50874,-19121884.98002,  -0.00365,  -0.00242,  -0.00205,479148128.00000,   0.00250,277334816.00000,  -0.00205,  -0.00160,  -0.00180,   0.00000,   2.00000
-524486811.76511,-405176697.06733,-19106571.27628,  -0.00366,  -0.00242,  -0.00205,479155200.00000,   0.00251,277340800.00000,  -0.00206,  -0.00160,  -0.00180, 128.00000,   2.00000
-524555491.88534,-405047357.83260,-19092878.79995,  -0.00366,  -0.00242,  -0.00205,479128448.00000,   0.00251,277346688.00000,  -0.00207,  -0.00160,  -0.00180, 128.00000,   2.00000
-524623667.78540,-404918415.87332,-19079194.30880,  -0.00367,  -0.00243,  -0.00205,479134496.00000,   0.00252,277352576.00000,  -0.00207,  -0.00161,  -0.00181, -32.00000,   2.00000
-524685597.34008,-404799893.26043,-19074066.52772,  -0.00368,  -0.00243,  -0.00205,479103296.00000,   0.00252,277358304.00000,  -0.00208,  -0.00161,  -0.00181, -64.00000,   2.00000
-524752466.38983,-404669527.66400,-19069608.83805,  -0.00368,  -0.00243,  -0.00206,479095328.00000,   0.00253,277364032.00000,  -0.00208,  -0.00161,  -0.00181, -64.00000,   2.00000
-524819082.59152,-404539717.14316,-19065144.90746,  -0.00369,  -0.00243,  -0.00206,479101152.00000,   0.00253,277369728.00000,  -0.00209,  -0.00161,  -0.00181,   0.00000,   2.00000
-524880144.13038,-404420760.56865,-19062517.82986,  -0.00370,  -0.00243,  -0.00206,479069056.00000,   0.00254,277375328.00000,  -0.00210,  -0.00162,  -0.00181, -32.00000,   2.00000
-524940149.21526,-404301693.16026,-19066571.50362,  -0.00370,  -0.00244,  -0.00206,479075520.00000,   0.00255,277380896.00000,  -0.00210,  -0.00162,  -0.00181,  32.00000,   2.00000
-524997198.91028,-404188198.47225,-19071520.14555,  -0.00371,  -0.00244,  -0.00206,479062336.00000,   0.00255,277386432.00000,  -0.00211,  -0.00162,  -0.00181,  32.00000,   2.00000
-525059313.75213,-404062857.37156,-19077120.94265,  -0.00371,  -0.00244,  -0.00206,479054016.00000,   0.00256,277391904.00000,  -0.00211,  -0.00162,  -0.00181,   0.00000,   2.00000
-525117612.90881,-403942467.62011,-19090304.36733,  -0.00372,  -0.00244,  -0.00206,479041600.00000,   0.00256,277397344.00000,  -0.00212,  -0.00163,  -0.00181,  32.00000,   2.00000
-525179294.12216,-403816059.74425,-19098361.38718,  -0.00373,  -0.00244,  -0.00206,479013376.00000,   0.00257,277402624.00000,  -0.00212,  -0.00163,  -0.00182,  32.00000,   2.00000
-525232010.73265,-403706992.94234,-19113326.06116,  -0.00373,  -0.00244,  -0.00206,479014592.00000,   0.00257,277407936.00000,  -0.00213,  -0.00163,  -0.00182,  64.00000,   2.00000
-525288734.10655,-403585233.49614,-19135609.30214,  -0.00374,  -0.00245,  -0.00207,479006976.00000,   0.00258,277413184.00000,  -0.00214,  -0.00163,  -0.00182,  32.00000,   2.00000
-525343583.71145,-403469755.33045,-19152075.95727,  -0.00374,  -0.00245,  -0.00207,478992448.00000,   0.00258,277418368.00000,  -0.00214,  -0.00164,  -0.00182,   0.00000,   2.00000
-525394784.72272,-403359227.19186,-19176119.53039,  -0.00375,  -0.00245,  -0.00207,478979520.00000,   0.00259,277423520.00000,  -0.00215,  -0.00164,  -0.00182, -32.00000,   2.00000
-525448397.70365,-403241827.93188,-19201713.57682,  -0.00376,  -0.00245,  -0.00207,478951872.00000,   0.00259,277428544.00000,  -0.00215,  -0.00164,  -0.00182, -96.00000,   2.00000
-525501032.16987,-403124288.39641,-19233947.02202,  -0.00376,  -0.00245,  -0.00207,478957824.00000,   0.00259,277433568.00000,  -0.00216,  -0.00164,  -0.00182,  96.00000,   2.00000
-525551629.23314,-403012833.32044,-19260346.37311,  -0.00377,  -0.00246,  -0.00207,478943232.00000,   0.00260,277438528.00000,  -0.00216,  -0.00165,  -0.00182,  32.00000,   2.00000
-525603826.91199,-402893868.10605,-19294994.60991,  -0.00377,  -0.00246,  -0.00207,478916288.00000,   0.00260,277443392.00000,  -0.00217,  -0.00165,  -0.00182,  64.00000,   2.00000
-525655833.10087,-402775317.23229,-19329574.96046,  -0.00378,  -0.00246,  -0.00208,478921152.00000,   0.00261,277448224.00000,  -0.00217,  -0.00165,  -0.00182,  32.00000,   2.00000
-525705022.49035,-402662251.23823,-19365019.81711,  -0.00378,  -0.00246,  -0.00208,478907200.00000,   0.00261,277453024.00000,  -0.00218,  -0.00165,  -0.00183,   0.00000,   2.00000
-525750650.74584,-402554094.14671,-19408029.15423,  -0.00379,  -0.00246,  -0.00208,478893792.00000,   0.00262,277457760.00000,  -0.00218,  -0.00165,  -0.00183,   0.00000,   2.00000
-525793476.34252,-402451358.92249,-19451896.61866,  -0.00380,  -0.00246,  -0.00208,478879584.00000,   0.00262,277462432.00000,  -0.00219,  -0.00166,  -0.00183, -96.00000,   2.00000
-525841444.60152,-402336590.90244,-19496375.04036,  -0.00380,  -0.00246,  -0.00208,478870560.00000,   0.00263,277467072.00000,  -0.00219,  -0.00166,  -0.00183,   0.00000,   2.00000
-525891856.27564,-402214825.98777,-19542396.77929,  -0.00381,  -0.00247,  -0.00208,478842464.00000,   0.00263,277471584.00000,  -0.00220,  -0.00166,  -0.00183, 128.00000,   2.00000
-525933391.21587,-402110329.29864,-19595287.33250,  -0.00381,  -0.00247,  -0.00208,478842720.00000,   0.00264,277476096.00000,  -0.00220,  -0.00166,  -0.00183,  32.00000,   2.00000
-525977458.12923,-401998819.44759,-19649719.78177,  -0.00382,  -0.00247,  -0.00209,478814496.00000,   0.00264,277480512.00000,  -0.00221,  -0.00167,  -0.00183,  32.00000,   2.00000
-526021207.75557,-401887546.91466,-19704057.84114,  -0.00382,  -0.00247,  -0.00209,478819008.00000,   0.00264,277484896.00000,  -0.00221,  -0.00167,  -0.00183, -32.00000,   2.00000
-526062492.07735,-401781878.12647,-19759262.80214,  -0.00383,  -0.00247,  -0.00209,478804256.00000,   0.00265,277489248.00000,  -0.00222,  -0.00167,  -0.00183,  64.00000,   2.00000
-526106215.72575,-401669082.96082,-19816009.74518,  -0.00383,  -0.00247,  -0.00209,478775968.00000,   0.00265,277493472.00000,  -0.00222,  -0.00167,  -0.00183,  32.00000,   2.00000
-526141011.15756,-401573445.70176,-19879611.38094,  -0.00384,  -0.00247,  -0.00209,478775808.00000,   0.00266,277497696.00000,  -0.00223,  -0.00167,  -0.00183, -64.00000,   2.00000
-526186200.57545,-401453202.09715,-19944498.97514,  -0.00384,  -0.00248,  -0.00209,478752480.00000,   0.00266,277501824.00000,  -0.00223,  -0.00167,  -0.00183,  96.00000,   2.00000
-526220960.36212,-401355941.20641,-20010494.86176,  -0.00385,  -0.00248,  -0.00210,478732448.00000,   0.00266,277505856.00000,  -0.00223,  -0.00168,  -0.00184, -64.00000,   2.00000
-526260902.58036,-401246538.44923,-20077085.45861,  -0.00385,  -0.00248,  -0.00210,478722688.00000,   0.00267,277509856.00000,  -0.00224,  -0.00168,  -0.00184,  64.00000,   2.00000
-526299579.95753,-401136641.88909,-20150251.52321,  -0.00386,  -0.00248,  -0.00210,478727808.00000,   0.00267,277513888.00000,  -0.00224,  -0.00168,  -0.00184,  32.00000,   2.00000
-526333253.06654,-401037303.01330,-20225222.23448,  -0.00386,  -0.00248,  -0.00210,478693728.00000,   0.00267,277517760.00000,  -0.00225,  -0.00168,  -0.00184,  96.00000,   2.00000
-526371690.26829,-400925497.81878,-20300756.26869,  -0.00386,  -0.00248,  -0.00210,478684064.00000,   0.00268,277521600.00000,  -0.00225,  -0.00168,  -0.00184,   0.00000,   2.00000
-526407700.72790,-400819211.93157,-20377139.75806,  -0.00387,  -0.00248,  -0.00210,478668736.00000,   0.00268,277525376.00000,  -0.00225,  -0.00169,  -0.00184,   0.00000,   2.00000
-526441115.70769,-400718292.44966,-20454364.55703,  -0.00387,  -0.00248,  -0.00211,478653632.00000,   0.00269,277529088.00000,  -0.00226,  -0.00169,  -0.00184,  64.00000,   2.00000
-526470907.24475,-400621970.60644,-20539114.76142,  -0.00388,  -0.00249,  -0.00211,478639232.00000,   0.00269,277532736.00000,  -0.00226,  -0.00169,  -0.00184,  64.00000,   2.00000
-526506628.38391,-400513967.25941,-20617736.05353,  -0.00388,  -0.00249,  -0.00211,478628352.00000,   0.00269,277536352.00000,  -0.00227,  -0.00169,  -0.00184, -32.00000,   2.00000
-526538873.53808,-400410670.88359,-20703887.98650,  -0.00389,  -0.00249,  -0.00211,478613792.00000,   0.00270,277539872.00000,  -0.00227,  -0.00169,  -0.00184,  96.00000,   2.00000
-526573637.00033,-400300073.49121,-20791572.34539,  -0.00389,  -0.00249,  -0.00211,478584736.00000,   0.00270,277543328.00000,  -0.00227,  -0.00169,  -0.00184, 128.00000,   2.00000
-526605720.73854,-400194733.20587,-20880082.70702,  -0.00389,  -0.00249,  -0.00212,478569248.00000,   0.00270,277546688.00000,  -0.00228,  -0.00170,  -0.00184,   0.00000,   2.00000
-526636689.10192,-400088931.41921,-20975126.58426,  -0.00390,  -0.00249,  -0.00212,478573568.00000,   0.00271,277550080.00000,  -0.00228,  -0.00170,  -0.00184,   0.00000,   2.00000
-526663721.66058,-399994257.59440,-21065295.27179,  -0.00390,  -0.00249,  -0.00212,478537984.00000,   0.00271,277553344.00000,  -0.00228,  -0.00170,  -0.00185,  64.00000,   2.00000
-526694641.97601,-399886366.71170,-21162698.32829,  -0.00390,  -0.00249,  -0.00212,478528576.00000,   0.00271,277556544.00000,  -0.00229,  -0.00170,  -0.00185, -32.00000,   2.00000
-526722975.65301,-399783744.19507,-21260922.36188,  -0.00391,  -0.00249,  -0.00212,478512832.00000,   0.00271,277559680.00000,  -0.00229,  -0.00170,  -0.00185, -64.00000,   2.00000
-526748909.47103,-399686496.29953,-21359977.33942,  -0.00391,  -0.00249,  -0.00213,478496960.00000,   0.00272,277562784.00000,  -0.00229,  -0.00170,  -0.00185,  32.00000,   2.00000
-526774573.29968,-399589340.07383,-21458850.82458,  -0.00392,  -0.00249,  -0.00213,478500224.00000,   0.00272,277565856.00000,  -0.00230,  -0.00170,  -0.00185,   0.00000,   2.00000
-526801840.44274,-399484080.13879,-21565955.87844,  -0.00392,  -0.00250,  -0.00213,478471520.00000,   0.00272,277568832.00000,  -0.00230,  -0.00170,  -0.00185, 160.00000,   2.00000
-526830021.45569,-399376992.20343,-21668917.86840,  -0.00392,  -0.00250,  -0.00213,478421984.00000,   0.00273,277571648.00000,  -0.00230,  -0.00171,  -0.00185, -64.00000,   2.00000
-526852194.49131,-399282211.91070,-21777668.70878,  -0.00393,  -0.00250,  -0.00213,478439360.00000,   0.00273,277574496.00000,  -0.00231,  -0.00171,  -0.00185,  32.00000,   2.00000
-526879178.62354,-399174805.67016,-21886948.35667,  -0.00393,  -0.00250,  -0.00213,478428736.00000,   0.00273,277577312.00000,  -0.00231,  -0.00171,  -0.00185,   0.00000,   2.00000
-526901238.00687,-399077664.52805,-21998076.86205,  -0.00393,  -0.00250,  -0.00214,478393504.00000,   0.00273,277580000.00000,  -0.00231,  -0.00171,  -0.00185,  32.00000,   2.00000
-526923118.81220,-398980642.14618,-22109009.75298,  -0.00394,  -0.00250,  -0.00214,478396352.00000,   0.00274,277582688.00000,  -0.00232,  -0.00171,  -0.00185,  32.00000,   2.00000
-526947595.44061,-398876125.03565,-22221518.55483,  -0.00394,  -0.00250,  -0.00214,478366496.00000,   0.00274,277585280.00000,  -0.00232,  -0.00171,  -0.00185, -32.00000,   2.00000
-526969456.24410,-398776726.84793,-22334864.72569,  -0.00394,  -0.00250,  -0.00214,478350048.00000,   0.00274,277587808.00000,  -0.00232,  -0.00171,  -0.00185, -32.00000,   2.00000
-526993812.38421,-398669730.93625,-22449800.79609,  -0.00394,  -0.00250,  -0.00215,478320000.00000,   0.00274,277590208.00000,  -0.00232,  -0.00171,  -0.00185,   0.00000,   2.00000
-527009630.55073,-398579950.73808,-22571527.42578,  -0.00395,  -0.00250,  -0.00215,478318016.00000,   0.00275,277592608.00000,  -0.00233,  -0.00172,  -0.00185,  32.00000,   2.00000
-527030284.63471,-398477473.63509,-22693798.46281,  -0.00395,  -0.00250,  -0.00215,478306912.00000,   0.00275,277594976.00000,  -0.00233,  -0.00172,  -0.00185,  32.00000,   2.00000
-527052148.30120,-398373150.18608,-22812058.00072,  -0.00395,  -0.00250,  -0.00215,478256736.00000,   0.00275,277597152.00000,  -0.00233,  -0.00172,  -0.00185,  64.00000,   2.00000
-527072704.19116,-398268108.40104,-22936805.48019,  -0.00396,  -0.00250,  -0.00215,478260192.00000,   0.00275,277599328.00000,  -0.00233,  -0.00172,  -0.00186,  32.00000,   2.00000
-527090767.92109,-398168201.25946,-23062425.57933,  -0.00396,  -0.00250,  -0.00216,478243328.00000,   0.00275,277601472.00000,  -0.00234,  -0.00172,  -0.00186,   0.00000,   2.00000
-527108636.04271,-398068352.10595,-23187848.12043,  -0.00396,  -0.00250,  -0.00216,478245568.00000,   0.00276,277603584.00000,  -0.00234,  -0.00172,  -0.00186,  32.00000,   2.00000
-527126654.16926,-397965810.12753,-23316005.29007,  -0.00396,  -0.00250,  -0.00216,478196064.00000,   0.00276,277605536.00000,  -0.00234,  -0.00172,  -0.00186,   0.00000,   2.00000
-527142079.27680,-397868287.07062,-23445057.94859,  -0.00396,  -0.00250,  -0.00216,478179104.00000,   0.00276,277607424.00000,  -0.00234,  -0.00172,  -0.00186,   0.00000,   2.00000
-527156242.48763,-397770036.39189,-23580601.96564,  -0.00397,  -0.00250,  -0.00216,478182080.00000,   0.00276,277609312.00000,  -0.00234,  -0.00172,  -0.00186,  64.00000,   2.00000
-527174070.34351,-397664854.40657,-23711160.99415,  -0.00397,  -0.00250,  -0.00217,478150464.00000,   0.00276,277611104.00000,  -0.00235,  -0.00172,  -0.00186,   0.00000,   2.00000
-527189237.01626,-397564614.67657,-23842639.06777,  -0.00397,  -0.00251,  -0.00217,478133440.00000,   0.00277,277612832.00000,  -0.00235,  -0.00172,  -0.00186, -64.00000,   2.00000
-527200852.29024,-397468665.07351,-23981732.75555,  -0.00397,  -0.00251,  -0.00217,478117184.00000,   0.00277,277614496.00000,  -0.00235,  -0.00172,  -0.00186,   0.00000,   2.00000
-527218357.76215,-397360659.37907,-24114764.41446,  -0.00398,  -0.00251,  -0.00217,478104480.00000,   0.00277,277616096.00000,  -0.00235,  -0.00173,  -0.00186,  32.00000,   2.00000
-527229877.19920,-397261850.23740,-24256551.91495,  -0.00398,  -0.00251,  -0.00217,478068992.00000,   0.00277,277617600.00000,  -0.00235,  -0.00173,  -0.00186,  64.00000,   2.00000
-527242356.07765,-397163855.52639,-24391498.18364,  -0.00398,  -0.00251,  -0.00218,478069760.00000,   0.00277,277619104.00000,  -0.00235,  -0.00173,  -0.00186,  64.00000,   2.00000
-527251108.89316,-397069981.65447,-24534092.27260,  -0.00398,  -0.00251,  -0.00218,478053344.00000,   0.00277,277620512.00000,  -0.00236,  -0.00173,  -0.00186,  64.00000,   2.00000
-527262249.89261,-396968151.05730,-24678478.54815,  -0.00398,  -0.00251,  -0.00218,478022336.00000,   0.00277,277621856.00000,  -0.00236,  -0.00173,  -0.00186, -32.00000,   2.00000
-527277029.40934,-396859241.09596,-24818010.69589,  -0.00398,  -0.00251,  -0.00218,477990016.00000,   0.00277,277623072.00000,  -0.00236,  -0.00173,  -0.00186,  64.00000,   2.00000
-527283185.51305,-396767359.57402,-24964414.84825,  -0.00399,  -0.00251,  -0.00219,477986880.00000,   0.00278,277624256.00000,  -0.00236,  -0.00173,  -0.00186,  32.00000,   2.00000
-527291696.74184,-396667446.69831,-25112665.39301,  -0.00399,  -0.00251,  -0.00219,477955744.00000,   0.00278,277625376.00000,  -0.00236,  -0.00173,  -0.00186,  32.00000,   2.00000
-527306176.49238,-396555446.10831,-25254944.53895,  -0.00399,  -0.00251,  -0.00219,477942400.00000,   0.00278,277626400.00000,  -0.00236,  -0.00173,  -0.00186,  32.00000,   2.00000
-527311926.46399,-396460383.42639,-25404110.27684,  -0.00399,  -0.00251,  -0.00219,477939136.00000,   0.00278,277627456.00000,  -0.00236,  -0.00173,  -0.00186,   0.00000,   2.00000
-527319139.24084,-396356616.60805,-25555124.84379,  -0.00399,  -0.00251,  -0.00219,477907680.00000,   0.00278,277628384.00000,  -0.00236,  -0.00173,  -0.00186,-928.00000,   1.00000
-527329816.33232,-396245551.33552,-25708123.85441,  -0.00399,  -0.00251,  -0.00220,477875328.00000,   0.00278,277629184.00000,  -0.00237,  -0.00173,  -0.00186,-832.00000,   1.00000
-527334052.05584,-396153018.60508,-25854688.03731,  -0.00399,  -0.00251,  -0.00220,477869824.00000,   0.00278,277629984.00000,  -0.00237,  -0.00173,  -0.00186,-736.00000,   1.00000
-527344651.25287,-396038768.59407,-26010759.25220,  -0.00399,  -0.00251,  -0.00220,477825696.00000,   0.00278,277630624.00000,  -0.00237,  -0.00173,  -0.00186,-608.00000,   1.00000
-527347629.91653,-395942201.72557,-26167088.67581,  -0.00400,  -0.00251,  -0.00220,477821088.00000,   0.00278,277631264.00000,  -0.00237,  -0.00173,  -0.00186,-640.00000,   1.00000
-527355258.44471,-395832536.43549,-26324193.88793,  -0.00400,  -0.00251,  -0.00220,477808512.00000,   0.00278,277631840.00000,  -0.00237,  -0.00173,  -0.00186,-672.00000,   1.00000
-527359375.76222,-395733569.07724,-26477025.61766,  -0.00400,  -0.00250,  -0.00221,477769984.00000,   0.00278,277632320.00000,  -0.00237,  -0.00173,  -0.00186,-480.00000,   1.00000
-527361956.85264,-395633554.79032,-26636452.64223,  -0.00400,  -0.00250,  -0.00221,477771840.00000,   0.00278,277632768.00000,  -0.00237,  -0.00173,  -0.00186,-416.00000,   1.00000
-527366824.74628,-395525298.67462,-26797939.57793,  -0.00400,  -0.00250,  -0.00221,477740064.00000,   0.00278,277633120.00000,  -0.00237,  -0.00173,  -0.00186,-384.00000,   1.00000
-527370509.15752,-395422785.63557,-26953968.67365,  -0.00400,  -0.00250,  -0.00221,477720352.00000,   0.00278,277633408.00000,  -0.00237,  -0.00173,  -0.00186,-288.00000,   1.00000
-527370257.99396,-395324060.90883,-27117873.86150,  -0.00400,  -0.00250,  -0.00222,477703040.00000,   0.00278,277633664.00000,  -0.00237,  -0.00173,  -0.00186,-256.00000,   1.00000
-527376086.65738,-395213187.42978,-27275979.77786,  -0.00400,  -0.00250,  -0.00222,477688800.00000,   0.00279,277633824.00000,  -0.00237,  -0.00173,  -0.00186,-192.00000,   1.00000
-527375722.87922,-395111023.81589,-27443277.01039,  -0.00400,  -0.00250,  -0.00222,477652256.00000,   0.00279,277633888.00000,  -0.00237,  -0.00173,  -0.00186,  64.00000,   1.00000
-527381081.31276,-394996435.69801,-27604786.25892,  -0.00400,  -0.00250,  -0.00222,477638144.00000,   0.00279,277633920.00000,  -0.00237,  -0.00173,  -0.00186, -96.00000,   1.00000
-527344002.64025,-394864974.95000,-27766584.10263,  -0.00400,  -0.00250,  -0.00222,477600064.00000,   0.00279,277633920.00000,  -0.00237,  -0.00173,  -0.00186,-33856.00000,   0.00000
-527306923.96773,-394733514.20198,-27928381.94634,  -0.00400,  -0.00250,  -0.00223,477566560.00000,   0.00279,277633920.00000,  -0.00237,  -0.00173,  -0.00186,-67360.00000,   0.00000
-527246249.77634,-394591941.08874,-28090179.79004,  -0.00400,  -0.00250,  -0.00223,477514080.00000,   0.00279,277633920.00000,  -0.00237,  -0.00173,  -0.00186,-119840.00000,   0.00000
-527151867.70085,-394416660.09139,-28251977.63375,  -0.00400,  -0.00250,  -0.00223,477429376.00000,   0.00279,277633920.00000,  -0.00237,  -0.00173,  -0.00186,-204544.00000,   0.00000
-527033890.10648,-394231266.72881,-28413775.47746,  -0.00400,  -0.00250,  -0.00223,477325632.00000,   0.00279,277633920.00000,  -0.00237,  -0.00173,  -0.00186,-308288.00000,   0.00000
-526882204.62800,-394012165.48213,-28575573.32116,  -0.00400,  -0.00250,  -0.00223,477189696.00000,   0.00279,277633920.00000,  -0.00237,  -0.00173,  -0.00186,-444224.00000,   0.00000
-526730519.14953,-393793064.23544,-28737371.16487,  -0.00400,  -0.00250,  -0.00224,477053952.00000,   0.00279,277633920.00000,  -0.00237,  -0.00173,  -0.00186,-579968.00000,   0.00000
-526531642.63330,-393553738.25829,-28899169.00858,  -0.00400,  -0.00250,  -0.00224,476880256.00000,   0.00279,277633920.00000,  -0.00237,  -0.00173,  -0.00186,-753664.00000,   0.00000
-526322653.75185,-393290816.76227,-29054225.27546,  -0.00400,  -0.00250,  -0.00224,476692256.00000,   0.00279,277633920.00000,  -0.00237,  -0.00173,  -0.00186,-941664.00000,   0.00000
-526066473.83265,-393007670.53578,-29209281.54235,  -0.00400,  -0.00250,  -0.00224,476466208.00000,   0.00279,277633920.00000,  -0.00237,  -0.00173,  -0.00186,-1167712.00000,   0.00000
-525810293.91345,-392724524.30929,-29371079.38606,  -0.00400,  -0.00249,  -0.00225,476241664.00000,   0.00279,277633920.00000,  -0.00237,  -0.00173,  -0.00186,-1392256.00000,   0.00000
-525520406.11014,-392407670.19870,-29526135.65294,  -0.00400,  -0.00249,  -0.00225,475983584.00000,   0.00279,277633920.00000,  -0.00237,  -0.00173,  -0.00186,-1650336.00000,   0.00000
-525206922.78796,-392080703.72288,-29681191.91983,  -0.00400,  -0.00249,  -0.00225,475706816.00000,   0.00279,277633920.00000,  -0.00237,  -0.00173,  -0.00186,-1927104.00000,   0.00000
-524869843.94690,-391743624.88182,-29829506.60989,  -0.00399,  -0.00249,  -0.00225,475409888.00000,   0.00279,277633920.00000,  -0.00237,  -0.00173,  -0.00186,-2224032.00000,   0.00000
-524499057.22174,-391372838.15666,-29984562.87678,  -0.00399,  -0.00249,  -0.00225,475082112.00000,   0.00279,277633920.00000,  -0.00237,  -0.00173,  -0.00186,-2551808.00000,   0.00000
-524104674.97770,-390991939.06627,-30139619.14366,  -0.00399,  -0.00249,  -0.00226,474735552.00000,   0.00279,277633920.00000,  -0.00237,  -0.00173,  -0.00186,-2898368.00000,   0.00000
-523710292.73367,-390611039.97587,-30287933.83373,  -0.00399,  -0.00249,  -0.00226,474387968.00000,   0.00279,277633920.00000,  -0.00237,  -0.00173,  -0.00186,-3245952.00000,   0.00000
-523258607.08666,-390186320.63614,-30436248.52379,  -0.00399,  -0.00249,  -0.00226,473989120.00000,   0.00279,277633920.00000,  -0.00237,  -0.00173,  -0.00186,-3644800.00000,   0.00000
-522806921.43964,-389761601.29641,-30584563.21386,  -0.00399,  -0.00249,  -0.00226,473590720.00000,   0.00279,277633920.00000,  -0.00237,  -0.00173,  -0.00186,-4043200.00000,   0.00000
-522297932.38965,-389293061.70735,-30732877.90392,  -0.00399,  -0.00249,  -0.00226,473141088.00000,   0.00279,277633920.00000,  -0.00237,  -0.00173,  -0.00186,-4492832.00000,   0.00000
-521788943.33965,-388824522.11828,-30874451.01716,  -0.00399,  -0.00248,  -0.00226,472690528.00000,   0.00279,277633920.00000,  -0.00237,  -0.00173,  -0.00186,-4943392.00000,   0.00000
-521256358.77079,-388345870.16398,-31022765.70723,  -0.00398,  -0.00248,  -0.00227,472222560.00000,   0.00279,277633920.00000,  -0.00237,  -0.00173,  -0.00186,-5411360.00000,   0.00000
-520690066.31781,-387833510.32558,-31164338.82047,  -0.00398,  -0.00248,  -0.00227,471721216.00000,   0.00279,277633920.00000,  -0.00237,  -0.00173,  -0.00186,-5912704.00000,   0.00000
-520100178.34596,-387311038.12194,-31305911.93371,  -0.00398,  -0.00248,  -0.00227,471200992.00000,   0.00279,277633920.00000,  -0.00237,  -0.00173,  -0.00186,-6432928.00000,   0.00000
-519486694.85524,-386778453.55307,-31447485.04696,  -0.00398,  -0.00248,  -0.00227,470662176.00000,   0.00279,277633920.00000,  -0.00237,  -0.00173,  -0.00186,-6971744.00000,   0.00000
-518849615.84565,-386235756.61897,-31582316.58338,  -0.00398,  -0.00248,  -0.00227,470103104.00000,   0.00279,277633920.00000,  -0.00237,  -0.00173,  -0.00186,-7530816.00000,   0.00000
-518202424.47082,-385669464.16600,-31723889.69662,  -0.00398,  -0.00248,  -0.00228,469532384.00000,   0.00279,277633920.00000,  -0.00237,  -0.00173,  -0.00186,-8101536.00000,   0.00000
-517497929.69302,-385059351.46369,-31858721.23305,  -0.00397,  -0.00248,  -0.00228,468908928.00000,   0.00279,277633920.00000,  -0.00237,  -0.00173,  -0.00186,-8724992.00000,   0.00000
-516793434.91521,-384449238.76138,-31993552.76947,  -0.00397,  -0.00247,  -0.00228,468285664.00000,   0.00279,277633920.00000,  -0.00237,  -0.00173,  -0.00186,-9348256.00000,   0.00000
-516041749.09966,-383818901.32861,-32121642.72907,  -0.00397,  -0.00247,  -0.00228,467623104.00000,   0.00279,277633920.00000,  -0.00237,  -0.00173,  -0.00186,-10010816.00000,   0.00000
-515290063.28410,-383188563.89583,-32256474.26549,  -0.00397,  -0.00247,  -0.00228,466961920.00000,   0.00279,277633920.00000,  -0.00237,  -0.00173,  -0.00186,-10672000.00000,   0.00000
-514504669.58444,-382524518.57895,-32384564.22509,  -0.00397,  -0.00247,  -0.00228,466267040.00000,   0.00279,277633920.00000,  -0.00237,  -0.00173,  -0.00186,-11366880.00000,   0.00000
-513695680.36591,-381850360.89684,-32512654.18469,  -0.00396,  -0.00247,  -0.00229,465552992.00000,   0.00279,277633920.00000,  -0.00237,  -0.00173,  -0.00186,-12080928.00000,   0.00000
-512863095.62850,-381166090.84950,-32634002.56747,  -0.00396,  -0.00247,  -0.00229,464818528.00000,   0.00279,277633920.00000,  -0.00237,  -0.00173,  -0.00186,-12815392.00000,   0.00000
-511996803.00699,-380448112.91805,-32762092.52707,  -0.00396,  -0.00247,  -0.00229,464052960.00000,   0.00279,277633920.00000,  -0.00237,  -0.00173,  -0.00186,-13580960.00000,   0.00000
-511106914.86660,-379720022.62137,-32883440.90985,  -0.00396,  -0.00246,  -0.00229,463266816.00000,   0.00279,277633920.00000,  -0.00237,  -0.00173,  -0.00186,-14367104.00000,   0.00000
-510183318.84211,-378958224.44059,-32998047.71581,  -0.00395,  -0.00246,  -0.00229,462446784.00000,   0.00279,277633920.00000,  -0.00237,  -0.00173,  -0.00186,-15187136.00000,   0.00000
-509236127.29875,-378186313.89457,-33119396.09859,  -0.00395,  -0.00246,  -0.00229,461608928.00000,   0.00279,277633920.00000,  -0.00237,  -0.00173,  -0.00186,-16024992.00000,   0.00000
-508288935.75538,-377414403.34855,-33234002.90455,  -0.00395,  -0.00246,  -0.00230,460769760.00000,   0.00279,277633920.00000,  -0.00237,  -0.00173,  -0.00186,-16864160.00000,   0.00000
-507284440.80903,-376598672.55320,-33348609.71051,  -0.00394,  -0.00246,  -0.00230,459878880.00000,   0.00279,277633920.00000,  -0.00237,  -0.00173,  -0.00186,-17755040.00000,   0.00000
-506279945.86269,-375782941.75784,-33456474.93965,  -0.00394,  -0.00246,  -0.00230,458986720.00000,   0.00279,277633920.00000,  -0.00237,  -0.00173,  -0.00186,-18647200.00000,   0.00000
-505228259.87860,-374946986.23202,-33564340.16879,  -0.00394,  -0.00245,  -0.00230,458056416.00000,   0.00279,277633920.00000,  -0.00237,  -0.00173,  -0.00186,-19577504.00000,   0.00000
-504166461.52927,-374087435.18733,-33672205.39792,  -0.00393,  -0.00245,  -0.00230,457112960.00000,   0.00279,277633920.00000,  -0.00237,  -0.00173,  -0.00186,-20520960.00000,   0.00000
-503081067.66107,-373217771.77741,-33780070.62706,  -0.00393,  -0.00245,  -0.00230,456150560.00000,   0.00279,277633920.00000,  -0.00237,  -0.00173,  -0.00186,-21483360.00000,   0.00000
-501948482.75512,-372327883.63702,-33881194.27938,  -0.00393,  -0.00245,  -0.00230,455148800.00000,   0.00279,277633920.00000,  -0.00237,  -0.00173,  -0.00186,-22485120.00000,   0.00000
-500805785.48395,-371414399.97776,-33982317.93170,  -0.00392,  -0.00245,  -0.00231,454134080.00000,   0.00279,277633920.00000,  -0.00237,  -0.00173,  -0.00186,-23499840.00000,   0.00000
-499639492.69389,-370490803.95327,-34076700.00719,  -0.00392,  -0.00244,  -0.00231,453099008.00000,   0.00279,277633920.00000,  -0.00237,  -0.00173,  -0.00186,-24534912.00000,   0.00000
-498449604.38497,-369557095.56355,-34171082.08269,  -0.00392,  -0.00244,  -0.00231,452045184.00000,   0.00279,277633920.00000,  -0.00237,  -0.00173,  -0.00186,-25588736.00000,   0.00000
-497249603.71081,-368599791.65495,-34265464.15818,  -0.00391,  -0.00244,  -0.00231,450978624.00000,   0.00279,277633920.00000,  -0.00237,  -0.00173,  -0.00186,-26655296.00000,   0.00000
-496002411.99891,-367622263.01589,-34353104.65686,  -0.00391,  -0.00244,  -0.00231,449872608.00000,   0.00279,277633920.00000,  -0.00237,  -0.00173,  -0.00186,-27761312.00000,   0.00000
-494721512.40289,-366611026.49272,-34440745.15553,  -0.00391,  -0.00244,  -0.00231,448734880.00000,   0.00279,277633920.00000,  -0.00237,  -0.00173,  -0.00186,-28899040.00000,   0.00000
-493450725.17211,-365623385.48843,-34528385.65421,  -0.00390,  -0.00243,  -0.00231,447610784.00000,   0.00279,277633920.00000,  -0.00237,  -0.00173,  -0.00186,-30023136.00000,   0.00000
-492112522.17312,-364568328.71592,-34609284.57606,  -0.00390,  -0.00243,  -0.00231,446420928.00000,   0.00279,277633920.00000,  -0.00237,  -0.00173,  -0.00186,-31212992.00000,   0.00000
-490784431.53937,-363536867.46229,-34690183.49791,  -0.00389,  -0.00243,  -0.00231,445244960.00000,   0.00279,277633920.00000,  -0.00237,  -0.00173,  -0.00186,-32388960.00000,   0.00000
-489399037.50263,-362461585.95933,-34764340.84294,  -0.00389,  -0.00243,  -0.00232,444016448.00000,   0.00279,277633920.00000,  -0.00237,  -0.00173,  -0.00186,-33617472.00000,   0.00000
-488013643.46589,-361386304.45636,-34838498.18798,  -0.00389,  -0.00243,  -0.00232,442788512.00000,   0.00279,277633920.00000,  -0.00237,  -0.00173,  -0.00186,-34845408.00000,   0.00000
-486594541.54505,-360277315.06929,-34912655.53301,  -0.00388,  -0.00242,  -0.00232,441528736.00000,   0.00279,277633920.00000,  -0.00237,  -0.00173,  -0.00186,-36105184.00000,   0.00000
-485151844.10533,-359158213.31698,-34980071.30122,  -0.00388,  -0.00242,  -0.00232,440248768.00000,   0.00279,277633920.00000,  -0.00237,  -0.00173,  -0.00186,-37385152.00000,   0.00000
-483685551.14674,-358028999.19945,-35047487.06943,  -0.00387,  -0.00242,  -0.00232,438950464.00000,   0.00279,277633920.00000,  -0.00237,  -0.00173,  -0.00186,-38683456.00000,   0.00000
-482195662.66927,-356889672.71668,-35108161.26082,  -0.00387,  -0.00242,  -0.00232,437632128.00000,   0.00279,277633920.00000,  -0.00237,  -0.00173,  -0.00186,-40001792.00000,   0.00000
-480672066.30770,-355716638.34981,-35168835.45221,  -0.00386,  -0.00241,  -0.00232,436282240.00000,   0.00279,277633920.00000,  -0.00237,  -0.00173,  -0.00186,-41351680.00000,   0.00000
-479124874.42725,-354533491.61770,-35222768.06678,  -0.00386,  -0.00241,  -0.00232,434912544.00000,   0.00279,277633920.00000,  -0.00237,  -0.00173,  -0.00186,-42721376.00000,   0.00000
-477543974.66270,-353316637.00149,-35276700.68135,  -0.00385,  -0.00241,  -0.00232,433511264.00000,   0.00279,277633920.00000,  -0.00237,  -0.00173,  -0.00186,-44122656.00000,   0.00000
-475939479.37928,-352089670.02005,-35330633.29592,  -0.00385,  -0.00241,  -0.00232,432090816.00000,   0.00279,277633920.00000,  -0.00237,  -0.00173,  -0.00186,-45543104.00000,   0.00000
-474334984.09586,-350862703.03861,-35377824.33367,  -0.00384,  -0.00240,  -0.00232,430667488.00000,   0.00279,277633920.00000,  -0.00237,  -0.00173,  -0.00186,-46966432.00000,   0.00000
-472673185.40945,-349591915.80783,-35418273.79459,  -0.00384,  -0.00240,  -0.00232,429187872.00000,   0.00279,277633920.00000,  -0.00237,  -0.00173,  -0.00186,-48446048.00000,   0.00000
-471011386.72305,-348321128.57705,-35458723.25552,  -0.00383,  -0.00240,  -0.00232,427701920.00000,   0.00279,277633920.00000,  -0.00237,  -0.00173,  -0.00186,-49932000.00000,   0.00000
-469302396.99890,-347030116.61581,-35499172.71645,  -0.00383,  -0.00240,  -0.00232,426168032.00000,   0.00279,277633920.00000,  -0.00237,  -0.00173,  -0.00186,-51465888.00000,   0.00000
-467583294.90951,-345715509.13569,-35532880.60055,  -0.00382,  -0.00239,  -0.00233,424607296.00000,   0.00279,277633920.00000,  -0.00237,  -0.00173,  -0.00186,-53026624.00000,   0.00000
-465840597.30126,-344390789.29034,-35559846.90784,  -0.00382,  -0.00239,  -0.00233,423012672.00000,   0.00279,277633920.00000,  -0.00237,  -0.00173,  -0.00186,-54621248.00000,   0.00000
-464074304.17413,-343055957.07976,-35586813.21512,  -0.00381,  -0.00239,  -0.00233,421387360.00000,   0.00279,277633920.00000,  -0.00237,  -0.00173,  -0.00186,-56246560.00000,   0.00000
-462284415.52812,-341711012.50395,-35613779.52240,  -0.00381,  -0.00239,  -0.00233,419735072.00000,   0.00279,277633920.00000,  -0.00237,  -0.00173,  -0.00186,-57898848.00000,   0.00000
-460460818.99801,-340332360.04403,-35634004.25287,  -0.00380,  -0.00238,  -0.00233,418045504.00000,   0.00279,277633920.00000,  -0.00237,  -0.00173,  -0.00186,-59588416.00000,   0.00000
-458603514.58379,-338919999.70001,-35647487.40651,  -0.00380,  -0.00238,  -0.00233,416324224.00000,   0.00279,277633920.00000,  -0.00237,  -0.00173,  -0.00186,-61309696.00000,   0.00000
-456732727.01594,-337521122.50963,-35660970.56015,  -0.00379,  -0.00238,  -0.00233,414605376.00000,   0.00279,277633920.00000,  -0.00237,  -0.00173,  -0.00186,-63028544.00000,   0.00000
-454828231.56397,-336088537.43514,-35674453.71379,  -0.00378,  -0.00238,  -0.00233,412865248.00000,   0.00279,277633920.00000,  -0.00237,  -0.00173,  -0.00186,-64768672.00000,   0.00000
-452923736.11201,-334655952.36066,-35674453.71379,  -0.00378,  -0.00237,  -0.00233,411135104.00000,   0.00279,277633920.00000,  -0.00237,  -0.00173,  -0.00186,-66498816.00000,   0.00000
-450961937.25707,-333179547.03683,-35681195.29062,  -0.00377,  -0.00237,  -0.00233,409368992.00000,   0.00279,277633920.00000,  -0.00237,  -0.00173,  -0.00186,-68264928.00000,   0.00000
-449000138.40212,-331703141.71301,-35681195.29062,  -0.00377,  -0.00237,  -0.00233,407614400.00000,   0.00279,277633920.00000,  -0.00237,  -0.00173,  -0.00186,-70019520.00000,   0.00000
-446991148.50943,-330206511.65872,-35674453.71379,  -0.00376,  -0.00236,  -0.00233,405831328.00000,   0.00279,277633920.00000,  -0.00237,  -0.00173,  -0.00186,-71802592.00000,   0.00000
-444982158.61674,-328709881.60444,-35660970.56015,  -0.00375,  -0.00236,  -0.00233,404055008.00000,   0.00279,277633920.00000,  -0.00237,  -0.00173,  -0.00186,-73578912.00000,   0.00000
-442939460.83994,-327179543.66605,-35647487.40651,  -0.00375,  -0.00236,  -0.00233,402252448.00000,   0.00279,277633920.00000,  -0.00237,  -0.00173,  -0.00186,-75381472.00000,   0.00000
-440873167.54427,-325639093.36242,-35634004.25287,  -0.00374,  -0.00236,  -0.00233,400434048.00000,   0.00279,277633920.00000,  -0.00237,  -0.00173,  -0.00186,-77199872.00000,   0.00000
-438773166.36450,-324064935.17469,-35613779.52240,  -0.00373,  -0.00235,  -0.00233,398582560.00000,   0.00279,277633920.00000,  -0.00237,  -0.00173,  -0.00186,-79051360.00000,   0.00000
-436659682.03108,-322504260.14061,-35586813.21512,  -0.00373,  -0.00235,  -0.00233,396722368.00000,   0.00279,277633920.00000,  -0.00237,  -0.00173,  -0.00186,-80911552.00000,   0.00000
-434512489.81356,-320909877.22241,-35559846.90784,  -0.00372,  -0.00235,  -0.00233,394827808.00000,   0.00279,277633920.00000,  -0.00237,  -0.00173,  -0.00186,-82806112.00000,   0.00000
-432331589.71193,-319281786.42011,-35526139.02373,  -0.00371,  -0.00234,  -0.00233,392896608.00000,   0.00279,277633920.00000,  -0.00237,  -0.00173,  -0.00186,-84737312.00000,   0.00000
-430160801.97553,-317677291.13669,-35485689.56280,  -0.00371,  -0.00234,  -0.00232,390973312.00000,   0.00279,277633920.00000,  -0.00237,  -0.00173,  -0.00186,-86660608.00000,   0.00000
-427932710.83615,-316028975.60393,-35445240.10188,  -0.00370,  -0.00234,  -0.00232,388996064.00000,   0.00279,277633920.00000,  -0.00237,  -0.00173,  -0.00186,-88637856.00000,   0.00000
-425670911.81267,-314346952.18706,-35398049.06413,  -0.00369,  -0.00233,  -0.00232,386982112.00000,   0.00279,277633920.00000,  -0.00237,  -0.00173,  -0.00186,-90651808.00000,   0.00000
-423419225.15442,-312688524.28907,-35350858.02638,  -0.00369,  -0.00233,  -0.00232,384979008.00000,   0.00279,277633920.00000,  -0.00237,  -0.00173,  -0.00186,-92654912.00000,   0.00000
-421133830.61206,-310996388.50697,-35296925.41181,  -0.00368,  -0.00233,  -0.00232,382940256.00000,   0.00279,277633920.00000,  -0.00237,  -0.00173,  -0.00186,-94693664.00000,   0.00000
-418824840.55083,-309294140.35964,-35236251.22042,  -0.00367,  -0.00232,  -0.00232,380879392.00000,   0.00279,277633920.00000,  -0.00237,  -0.00173,  -0.00186,-96754528.00000,   0.00000
-416458547.08662,-307548071.96297,-35175577.02903,  -0.00367,  -0.00232,  -0.00232,378766208.00000,   0.00279,277633920.00000,  -0.00237,  -0.00173,  -0.00186,-98867712.00000,   0.00000
-414102365.98764,-305825599.08518,-35101419.68400,  -0.00366,  -0.00232,  -0.00232,376661536.00000,   0.00279,277633920.00000,  -0.00237,  -0.00173,  -0.00186,-100972384.00000,   0.00000
-411736072.52343,-304079530.68851,-35034003.91579,  -0.00365,  -0.00231,  -0.00232,374544864.00000,   0.00279,277633920.00000,  -0.00237,  -0.00173,  -0.00186,-103089056.00000,   0.00000
-409312475.65624,-302289642.04251,-34953104.99394,  -0.00364,  -0.00231,  -0.00232,372372448.00000,   0.00279,277633920.00000,  -0.00237,  -0.00173,  -0.00186,-105261472.00000,   0.00000
-406875395.63541,-300513236.55014,-34872206.07208,  -0.00364,  -0.00231,  -0.00232,370193824.00000,   0.00279,277633920.00000,  -0.00237,  -0.00173,  -0.00186,-107440096.00000,   0.00000
-404404607.73048,-298703123.17367,-34791307.15023,  -0.00363,  -0.00230,  -0.00232,367982752.00000,   0.00279,277633920.00000,  -0.00237,  -0.00173,  -0.00186,-109651168.00000,   0.00000
-401933819.82554,-296893009.79721,-34696925.07473,  -0.00362,  -0.00230,  -0.00231,365768032.00000,   0.00279,277633920.00000,  -0.00237,  -0.00173,  -0.00186,-111865888.00000,   0.00000
-399429324.03650,-295049188.53663,-34602542.99924,  -0.00361,  -0.00230,  -0.00231,363521536.00000,   0.00279,277633920.00000,  -0.00237,  -0.00173,  -0.00186,-114112384.00000,   0.00000
-396877637.20971,-293185142.54560,-34501419.34692,  -0.00360,  -0.00229,  -0.00231,361236128.00000,   0.00279,277633920.00000,  -0.00237,  -0.00173,  -0.00186,-116397792.00000,   0.00000
-394325950.38292,-291321096.55456,-34400295.69460,  -0.00360,  -0.00229,  -0.00231,358951744.00000,   0.00279,277633920.00000,  -0.00237,  -0.00173,  -0.00186,-118682176.00000,   0.00000
-391750668.03725,-289446938.19829,-34292430.46547,  -0.00359,  -0.00229,  -0.00231,356647808.00000,   0.00279,277633920.00000,  -0.00237,  -0.00173,  -0.00186,-120986112.00000,   0.00000
-389151790.17271,-287562667.47679,-34177823.65951,  -0.00358,  -0.00228,  -0.00231,354324000.00000,   0.00279,277633920.00000,  -0.00237,  -0.00173,  -0.00186,-123309920.00000,   0.00000
-386519204.42407,-285644688.87118,-34056475.27673,  -0.00357,  -0.00228,  -0.00231,351966880.00000,   0.00279,277633920.00000,  -0.00237,  -0.00173,  -0.00186,-125667040.00000,   0.00000
-383886618.67543,-283726710.26558,-33935126.89395,  -0.00356,  -0.00228,  -0.00230,349609856.00000,   0.00279,277633920.00000,  -0.00237,  -0.00173,  -0.00186,-128024064.00000,   0.00000
-381196729.52380,-281764911.41063,-33807036.93435,  -0.00356,  -0.00227,  -0.00230,347199264.00000,   0.00279,277633920.00000,  -0.00237,  -0.00173,  -0.00186,-130434656.00000,   0.00000
-378516952.73741,-279826708.07456,-33672205.39792,  -0.00355,  -0.00227,  -0.00230,344798528.00000,   0.00279,277633920.00000,  -0.00237,  -0.00173,  -0.00186,-132835392.00000,   0.00000
-375779872.54804,-277844684.48916,-33530632.28468,  -0.00354,  -0.00226,  -0.00230,342342272.00000,   0.00279,277633920.00000,  -0.00237,  -0.00173,  -0.00186,-135291648.00000,   0.00000
-373042792.35867,-275862660.90375,-33389059.17144,  -0.00353,  -0.00226,  -0.00230,339882912.00000,   0.00279,277633920.00000,  -0.00237,  -0.00173,  -0.00186,-137751008.00000,   0.00000
-370272004.28519,-273846929.43424,-33240744.48137,  -0.00352,  -0.00226,  -0.00230,337385824.00000,   0.00279,277633920.00000,  -0.00237,  -0.00173,  -0.00186,-140248096.00000,   0.00000
-367487733.05807,-271844681.11837,-33085688.21449,  -0.00351,  -0.00225,  -0.00229,334877504.00000,   0.00279,277633920.00000,  -0.00237,  -0.00173,  -0.00186,-142756416.00000,   0.00000
-364669753.94685,-269808724.91839,-32930631.94760,  -0.00350,  -0.00225,  -0.00229,332333728.00000,   0.00279,277633920.00000,  -0.00237,  -0.00173,  -0.00186,-145300192.00000,   0.00000
-361851774.83563,-267772768.71842,-32762092.52707,  -0.00349,  -0.00225,  -0.00229,329783968.00000,   0.00279,277633920.00000,  -0.00237,  -0.00173,  -0.00186,-147849952.00000,   0.00000
-358976492.32142,-265692992.26911,-32593553.10655,  -0.00349,  -0.00224,  -0.00229,327181984.00000,   0.00279,277633920.00000,  -0.00237,  -0.00173,  -0.00186,-150451936.00000,   0.00000
-356111322.17245,-263636811.33867,-32418272.10920,  -0.00348,  -0.00224,  -0.00228,324592672.00000,   0.00279,277633920.00000,  -0.00237,  -0.00173,  -0.00186,-153041248.00000,   0.00000
-353188848.62050,-261536810.15889,-32242991.11185,  -0.00347,  -0.00223,  -0.00228,321955168.00000,   0.00279,277633920.00000,  -0.00237,  -0.00173,  -0.00186,-155678752.00000,   0.00000
-350266375.06855,-259436808.97912,-32054226.96086,  -0.00346,  -0.00223,  -0.00228,319318944.00000,   0.00279,277633920.00000,  -0.00237,  -0.00173,  -0.00186,-158314976.00000,   0.00000
-347310193.63249,-257303099.91523,-31865462.80987,  -0.00345,  -0.00223,  -0.00228,316657504.00000,   0.00279,277633920.00000,  -0.00237,  -0.00173,  -0.00186,-160976416.00000,   0.00000
-344340529.04279,-255182874.00499,-31669957.08205,  -0.00344,  -0.00222,  -0.00227,313996512.00000,   0.00279,277633920.00000,  -0.00237,  -0.00173,  -0.00186,-163637408.00000,   0.00000
-341337156.56899,-253028940.21065,-31467709.77742,  -0.00343,  -0.00222,  -0.00227,311310208.00000,   0.00279,277633920.00000,  -0.00237,  -0.00173,  -0.00186,-166323712.00000,   0.00000
-338333784.09518,-250875006.41631,-31258720.89597,  -0.00342,  -0.00222,  -0.00227,308630272.00000,   0.00279,277633920.00000,  -0.00237,  -0.00173,  -0.00186,-169003648.00000,   0.00000
-335283220.58363,-248700847.89150,-31049732.01451,  -0.00341,  -0.00221,  -0.00227,305920224.00000,   0.00279,277633920.00000,  -0.00237,  -0.00173,  -0.00186,-171713696.00000,   0.00000
-332222544.70685,-246503093.84782,-30827259.97942,  -0.00340,  -0.00221,  -0.00226,303198400.00000,   0.00279,277633920.00000,  -0.00237,  -0.00173,  -0.00186,-174435520.00000,   0.00000
-329138273.31119,-244295227.43890,-30604787.94432,  -0.00339,  -0.00220,  -0.00226,300460704.00000,   0.00279,277633920.00000,  -0.00237,  -0.00173,  -0.00186,-177173216.00000,   0.00000
-326040518.76189,-242100844.18363,-30375574.33240,  -0.00338,  -0.00220,  -0.00226,297714560.00000,   0.00279,277633920.00000,  -0.00237,  -0.00173,  -0.00186,-179919360.00000,   0.00000
-322909056.32848,-239872753.04425,-30146360.72048,  -0.00337,  -0.00220,  -0.00226,294932096.00000,   0.00279,277633920.00000,  -0.00237,  -0.00173,  -0.00186,-182701824.00000,   0.00000
-319767481.52984,-237621066.38600,-29903663.95492,  -0.00336,  -0.00219,  -0.00225,292123424.00000,   0.00279,277633920.00000,  -0.00237,  -0.00173,  -0.00186,-185510496.00000,   0.00000
-316588828.05869,-235372750.51616,-29654225.61254,  -0.00335,  -0.00219,  -0.00225,289275392.00000,   0.00279,277633920.00000,  -0.00237,  -0.00173,  -0.00186,-188358528.00000,   0.00000
-313400062.22230,-233100839.12745,-29404787.27016,  -0.00334,  -0.00218,  -0.00225,286400352.00000,   0.00279,277633920.00000,  -0.00237,  -0.00173,  -0.00186,-191233568.00000,   0.00000
-310187700.86705,-230818815.37350,-29148607.35096,  -0.00333,  -0.00218,  -0.00224,283498688.00000,   0.00279,277633920.00000,  -0.00237,  -0.00173,  -0.00186,-194135232.00000,   0.00000
-306951743.99291,-228526679.25432,-28885685.85494,  -0.00332,  -0.00217,  -0.00224,280589440.00000,   0.00279,277633920.00000,  -0.00237,  -0.00173,  -0.00186,-197044480.00000,   0.00000
-303692191.59991,-226224430.76991,-28616022.78209,  -0.00331,  -0.00217,  -0.00224,277679232.00000,   0.00279,277633920.00000,  -0.00237,  -0.00173,  -0.00186,-199954688.00000,   0.00000
-300422526.84167,-223898586.76663,-28339618.13243,  -0.00330,  -0.00217,  -0.00223,274740416.00000,   0.00279,277633920.00000,  -0.00237,  -0.00173,  -0.00186,-202893504.00000,   0.00000
-297115783.41091,-221576113.55176,-28056471.90594,  -0.00329,  -0.00216,  -0.00223,271752768.00000,   0.00279,277633920.00000,  -0.00237,  -0.00173,  -0.00186,-205881152.00000,   0.00000
-293798927.61493,-219230044.81801,-27773325.67945,  -0.00328,  -0.00216,  -0.00222,268753536.00000,   0.00279,277633920.00000,  -0.00237,  -0.00173,  -0.00186,-208880384.00000,   0.00000
-290458476.30007,-216873863.71903,-27483437.87614,  -0.00327,  -0.00215,  -0.00222,265736336.00000,   0.00279,277633920.00000,  -0.00237,  -0.00173,  -0.00186,-211897584.00000,   0.00000
-287084317.10110,-214483974.73595,-27180066.91919,  -0.00326,  -0.00215,  -0.00222,262682576.00000,   0.00279,277633920.00000,  -0.00237,  -0.00173,  -0.00186,-214951344.00000,   0.00000
-283696674.74849,-212107568.90651,-26876695.96224,  -0.00325,  -0.00215,  -0.00221,259623456.00000,   0.00279,277633920.00000,  -0.00237,  -0.00173,  -0.00186,-218010464.00000,   0.00000
-280309032.39588,-209731163.07707,-26566583.42847,  -0.00324,  -0.00214,  -0.00221,256563632.00000,   0.00279,277633920.00000,  -0.00237,  -0.00173,  -0.00186,-221070288.00000,   0.00000
-276887682.15917,-207321049.36352,-26249729.31788,  -0.00323,  -0.00214,  -0.00220,253470720.00000,   0.00279,277633920.00000,  -0.00237,  -0.00173,  -0.00186,-224163200.00000,   0.00000
-273442736.40358,-204900823.28474,-25926133.63047,  -0.00322,  -0.00213,  -0.00220,250357520.00000,   0.00279,277633920.00000,  -0.00237,  -0.00173,  -0.00186,-227276400.00000,   0.00000
-269974195.12912,-202470484.84073,-25595796.36623,  -0.00320,  -0.00213,  -0.00220,247223168.00000,   0.00279,277633920.00000,  -0.00237,  -0.00173,  -0.00186,-230410752.00000,   0.00000
-266482058.33579,-200030034.03149,-25265459.10200,  -0.00319,  -0.00212,  -0.00219,244068720.00000,   0.00279,277633920.00000,  -0.00237,  -0.00173,  -0.00186,-233565200.00000,   0.00000
-262989921.54245,-197589583.22225,-24921638.68412,  -0.00318,  -0.00212,  -0.00219,240908064.00000,   0.00279,277633920.00000,  -0.00237,  -0.00173,  -0.00186,-236725856.00000,   0.00000
-259440481.34614,-195105312.16367,-24577818.26625,  -0.00317,  -0.00212,  -0.00218,237693664.00000,   0.00279,277633920.00000,  -0.00237,  -0.00173,  -0.00186,-239940256.00000,   0.00000
-255891041.14982,-192621041.10509,-24220514.69473,  -0.00316,  -0.00211,  -0.00218,234472096.00000,   0.00279,277633920.00000,  -0.00237,  -0.00173,  -0.00186,-243161824.00000,   0.00000
-252351713.31874,-190160365.56538,-23863211.12321,  -0.00315,  -0.00211,  -0.00217,231261440.00000,   0.00279,277633920.00000,  -0.00237,  -0.00173,  -0.00186,-246372480.00000,   0.00000
-248755082.08468,-187655869.77634,-23492424.39805,  -0.00314,  -0.00210,  -0.00217,227995200.00000,   0.00279,277633920.00000,  -0.00237,  -0.00173,  -0.00186,-249638720.00000,   0.00000
-245158450.85061,-185151373.98730,-23121637.67289,  -0.00312,  -0.00210,  -0.00216,224733504.00000,   0.00279,277633920.00000,  -0.00237,  -0.00173,  -0.00186,-252900416.00000,   0.00000
-241538224.09768,-182636765.83302,-22744109.37090,  -0.00311,  -0.00209,  -0.00216,221462288.00000,   0.00279,277633920.00000,  -0.00237,  -0.00173,  -0.00186,-256171632.00000,   0.00000
-237884289.46063,-180088449.79464,-22359839.49210,  -0.00310,  -0.00209,  -0.00215,218176992.00000,   0.00279,277633920.00000,  -0.00237,  -0.00173,  -0.00186,-259456928.00000,   0.00000
-234216871.66995,-177553616.90991,-21968828.03648,  -0.00309,  -0.00208,  -0.00215,214912352.00000,   0.00279,277633920.00000,  -0.00237,  -0.00173,  -0.00186,-262721568.00000,   0.00000
-230549453.87927,-175018784.02517,-21571075.00403,  -0.00308,  -0.00208,  -0.00214,211664160.00000,   0.00279,277633920.00000,  -0.00237,  -0.00173,  -0.00186,-265969760.00000,   0.00000
-226848328.20448,-172450243.25633,-21166580.39476,  -0.00307,  -0.00208,  -0.00214,208329568.00000,   0.00279,277633920.00000,  -0.00237,  -0.00173,  -0.00186,-269304352.00000,   0.00000
-223123607.01081,-169871590.12225,-20755344.20868,  -0.00305,  -0.00207,  -0.00213,204881792.00000,   0.00279,277633920.00000,  -0.00237,  -0.00173,  -0.00186,-272752128.00000,   0.00000
-219375290.29828,-167282824.62294,-20337366.44577,  -0.00304,  -0.00207,  -0.00213,201415696.00000,   0.00279,277633920.00000,  -0.00237,  -0.00173,  -0.00186,-276218224.00000,   0.00000
-215637085.95097,-164717654.64251,-19912647.10604,  -0.00303,  -0.00206,  -0.00212,197992176.00000,   0.00279,277633920.00000,  -0.00237,  -0.00173,  -0.00186,-279641744.00000,   0.00000
-211865173.71956,-162118776.77797,-19481186.18949,  -0.00302,  -0.00206,  -0.00212,194557504.00000,   0.00279,277633920.00000,  -0.00237,  -0.00173,  -0.00186,-283076416.00000,   0.00000
-208059553.60404,-159486191.02933,-19049725.27294,  -0.00301,  -0.00205,  -0.00211,191108592.00000,   0.00279,277633920.00000,  -0.00237,  -0.00173,  -0.00186,-286525328.00000,   0.00000
-204240450.33488,-156867088.43433,-18604781.20274,  -0.00299,  -0.00205,  -0.00211,187669184.00000,   0.00279,277633920.00000,  -0.00237,  -0.00173,  -0.00186,-289964736.00000,   0.00000
-200421347.06572,-154247985.83933,-18153095.55573,  -0.00298,  -0.00204,  -0.00210,184229856.00000,   0.00279,277633920.00000,  -0.00237,  -0.00173,  -0.00186,-293404064.00000,   0.00000
-196578648.27769,-151618770.87909,-17701409.90871,  -0.00297,  -0.00204,  -0.00209,180760544.00000,   0.00279,277633920.00000,  -0.00237,  -0.00173,  -0.00186,-296873376.00000,   0.00000
-192702241.60555,-148955848.03476,-17236241.10806,  -0.00296,  -0.00204,  -0.00209,177246400.00000,   0.00279,277633920.00000,  -0.00237,  -0.00173,  -0.00186,-300387520.00000,   0.00000
-188835947.29864,-146316520.70929,-16764330.73058,  -0.00294,  -0.00203,  -0.00208,173742304.00000,   0.00279,277633920.00000,  -0.00237,  -0.00173,  -0.00186,-303891616.00000,   0.00000
-184935945.10763,-143643485.49972,-16292420.35310,  -0.00293,  -0.00203,  -0.00208,170205888.00000,   0.00279,277633920.00000,  -0.00237,  -0.00173,  -0.00186,-307428032.00000,   0.00000
-181022459.76298,-140983933.44379,-15807026.82198,  -0.00292,  -0.00202,  -0.00207,166662144.00000,   0.00279,277633920.00000,  -0.00237,  -0.00173,  -0.00186,-310971776.00000,   0.00000
-177075266.53422,-138290673.50376,-15314891.71404,  -0.00291,  -0.00202,  -0.00206,163087616.00000,   0.00279,277633920.00000,  -0.00237,  -0.00173,  -0.00186,-314546304.00000,   0.00000
-173128073.30546,-135597413.56372,-14822756.60610,  -0.00289,  -0.00201,  -0.00206,159519232.00000,   0.00279,277633920.00000,  -0.00237,  -0.00173,  -0.00186,-318114688.00000,   0.00000
-169157284.55782,-132894041.25846,-14317138.34452,  -0.00288,  -0.00201,  -0.00205,155936032.00000,   0.00279,277633920.00000,  -0.00237,  -0.00173,  -0.00186,-321697888.00000,   0.00000
-165196608.17542,-130214264.47207,-13811520.08293,  -0.00287,  -0.00200,  -0.00204,152373808.00000,   0.00279,277633920.00000,  -0.00237,  -0.00173,  -0.00186,-325260112.00000,   0.00000
-161178628.39004,-127490667.43634,-13292418.66771,  -0.00286,  -0.00200,  -0.00204,148762224.00000,   0.00279,277633920.00000,  -0.00237,  -0.00173,  -0.00186,-328871696.00000,   0.00000
-157160648.60466,-124767070.40061,-12766575.67566,  -0.00284,  -0.00199,  -0.00203,145151952.00000,   0.00279,277633920.00000,  -0.00237,  -0.00173,  -0.00186,-332481968.00000,   0.00000
-153119073.30040,-122033360.99965,-12240732.68361,  -0.00283,  -0.00199,  -0.00202,141524032.00000,   0.00279,277633920.00000,  -0.00237,  -0.00173,  -0.00186,-336109888.00000,   0.00000
-149077497.99614,-119299651.59869,-11701406.53792,  -0.00282,  -0.00199,  -0.00202,137891600.00000,   0.00279,277633920.00000,  -0.00237,  -0.00173,  -0.00186,-339742320.00000,   0.00000
-145012327.17302,-116555829.83250,-11162080.39224,  -0.00280,  -0.00198,  -0.00201,134238560.00000,   0.00279,277633920.00000,  -0.00237,  -0.00173,  -0.00186,-343395360.00000,   0.00000
-140923560.83101,-113801895.70107,-10609271.09291,  -0.00279,  -0.00198,  -0.00200,130561576.00000,   0.00279,277633920.00000,  -0.00237,  -0.00173,  -0.00186,-347072352.00000,   0.00000
-136834794.48901,-111047961.56965,-10049720.21675,  -0.00278,  -0.00197,  -0.00199,126882032.00000,   0.00279,277633920.00000,  -0.00237,  -0.00173,  -0.00186,-350751888.00000,   0.00000
-132722432.62813,-108283915.07300,-9490169.34060,  -0.00276,  -0.00197,  -0.00199,123185144.00000,   0.00279,277633920.00000,  -0.00237,  -0.00173,  -0.00186,-354448768.00000,   0.00000
-128586475.24838,-105509756.21111,-8917135.31081,  -0.00275,  -0.00196,  -0.00198,119470632.00000,   0.00279,277633920.00000,  -0.00237,  -0.00173,  -0.00186,-358163296.00000,   0.00000
-124450517.86863,-102735597.34922,-8337359.70419,  -0.00274,  -0.00196,  -0.00197,115761776.00000,   0.00279,277633920.00000,  -0.00237,  -0.00173,  -0.00186,-361872144.00000,   0.00000
-120290964.97000,-99951326.12210,-7757584.09758,  -0.00272,  -0.00195,  -0.00196,112044352.00000,   0.00279,277633920.00000,  -0.00237,  -0.00173,  -0.00186,-365589568.00000,   0.00000
-116131412.07138,-97167054.89498,-7164325.33732,  -0.00271,  -0.00195,  -0.00196,108335920.00000,   0.00279,277633920.00000,  -0.00237,  -0.00173,  -0.00186,-369298000.00000,   0.00000
-111924668.13500,-94362558.93740,-6564325.00024,  -0.00270,  -0.00194,  -0.00195,104602288.00000,   0.00279,277633920.00000,  -0.00237,  -0.00173,  -0.00186,-373031632.00000,   0.00000
-107741519.71751,-91568175.34505,-5957583.08634,  -0.00268,  -0.00194,  -0.00194,100897760.00000,   0.00279,277633920.00000,  -0.00237,  -0.00173,  -0.00186,-376736160.00000,   0.00000
-103511180.26226,-88753567.02224,-5344099.59562,  -0.00267,  -0.00194,  -0.00193,97166536.00000,   0.00279,277633920.00000,  -0.00237,  -0.00173,  -0.00186,-380467392.00000,   0.00000
-99280840.80701,-85938958.69942,-4723874.52808,  -0.00265,  -0.00193,  -0.00192,93443328.00000,   0.00279,277633920.00000,  -0.00237,  -0.00173,  -0.00186,-384190592.00000,   0.00000
-95026905.83289,-83114238.01138,-4103649.46053,  -0.00264,  -0.00193,  -0.00192,89710088.00000,   0.00279,277633920.00000,  -0.00237,  -0.00173,  -0.00186,-387923840.00000,   0.00000
-90772970.85877,-80289517.32333,-3469941.23935,  -0.00263,  -0.00192,  -0.00191,85983040.00000,   0.00279,277633920.00000,  -0.00237,  -0.00173,  -0.00186,-391650880.00000,   0.00000
-86505552.73101,-77478279.78893,-2829491.44134,  -0.00261,  -0.00192,  -0.00190,82263144.00000,   0.00279,277633920.00000,  -0.00237,  -0.00173,  -0.00186,-395370784.00000,   0.00000
-82228022.23801,-74643446.73565,-2182300.06652,  -0.00260,  -0.00191,  -0.00189,78541560.00000,   0.00279,277633920.00000,  -0.00237,  -0.00173,  -0.00186,-399092352.00000,   0.00000
-77926896.22614,-71798501.31715,-1528367.11487,  -0.00259,  -0.00191,  -0.00188,74822000.00000,   0.00279,277633920.00000,  -0.00237,  -0.00173,  -0.00186,-402811920.00000,   0.00000
-73612287.06063,-68967039.05228,-867692.58640,  -0.00257,  -0.00190,  -0.00187,71128344.00000,   0.00279,277633920.00000,  -0.00237,  -0.00173,  -0.00186,-406505568.00000,   0.00000
-69287565.52989,-66111981.26854,-193534.90429,  -0.00256,  -0.00190,  -0.00187,67453256.00000,   0.00279,277633920.00000,  -0.00237,  -0.00173,  -0.00186,-410180672.00000,   0.00000
-64949360.84551,-63270406.63844,480622.77782,  -0.00254,  -0.00189,  -0.00186,63819544.00000,   0.00279,277633920.00000,  -0.00237,  -0.00173,  -0.00186,-413814368.00000,   0.00000
-60601043.79589,-60405236.48947,1161522.03675,  -0.00253,  -0.00189,  -0.00185,60217868.00000,   0.00279,277633920.00000,  -0.00237,  -0.00173,  -0.00186,-417416048.00000,   0.00000
