# sigma_xx, sigma_yy, sigma_xy, epsilon_xx, epsilon_yy, epsilon_xy, vonMises, epsPlastic, hardening, epsilonP__xx, epsilonP__yy, epsilonP__xy, yieldValue, iteration
   0.00000,   0.00000,   0.00000,   0.00000,   0.00000,   0.00000,1181185.37500,   0.00000,274640576.00000,   0.00000,   0.00000,   0.00000,-473459392.00000,   0.00000
   0.00000,   0.00000,   0.00000,   0.00000,   0.00000,   0.00000,1181185.37500,   0.00000,274640576.00000,   0.00000,   0.00000,   0.00000,-473459392.00000,   0.00000
-1718636.45096,-139913.29552,334121.30274,  -0.00001,   0.00000,   0.00000,1317056.75000,   0.00000,274640576.00000,   0.00000,   0.00000,   0.00000,-473323520.00000,   0.00000
-3414302.06236,-281914.84919,668242.60548,  -0.00001,   0.00001,   0.00001,3193267.75000,   0.00000,274640576.00000,   0.00000,   0.00000,   0.00000,-471447296.00000,   0.00000
-5109967.67376,-423916.40285,1006540.42450,  -0.00002,   0.00001,   0.00001,4814461.50000,   0.00000,274640576.00000,   0.00000,   0.00000,   0.00000,-469826112.00000,   0.00000
-6791015.47817,-559653.18209,1340661.72724,  -0.00003,   0.00001,   0.00002,6431178.00000,   0.00000,274640576.00000,   0.00000,   0.00000,   0.00000,-468209392.00000,   0.00000
-8449092.44301,-697478.21947,1678959.54626,  -0.00004,   0.00001,   0.00002,8040292.50000,   0.00000,274640576.00000,   0.00000,   0.00000,   0.00000,-466600288.00000,   0.00000
-10113434.18228,-849921.06384,2017257.36529,  -0.00004,   0.00002,   0.00003,9658439.00000,   0.00000,274640576.00000,   0.00000,   0.00000,   0.00000,-464982144.00000,   0.00000
-11763158.11455,-996099.13379,2355555.18431,  -0.00005,   0.00002,   0.00003,11275415.00000,   0.00000,274640576.00000,   0.00000,   0.00000,   0.00000,-463365168.00000,   0.00000
-13398264.23983,-1136012.42931,2693853.00333,  -0.00006,   0.00002,   0.00004,12895561.00000,   0.00000,274640576.00000,   0.00000,   0.00000,   0.00000,-461745008.00000,   0.00000
-15025017.33254,-1284278.75740,3036327.33864,  -0.00007,   0.00002,   0.00004,14530587.00000,   0.00000,274640576.00000,   0.00000,   0.00000,   0.00000,-460109984.00000,   0.00000
-16643417.39268,-1440898.11806,3374625.15766,  -0.00007,   0.00003,   0.00004,16181069.00000,   0.00000,274640576.00000,   0.00000,   0.00000,   0.00000,-458459504.00000,   0.00000
-18247199.64583,-1591252.70429,3717099.49297,  -0.00008,   0.00003,   0.00005,17849876.00000,   0.00000,274640576.00000,   0.00000,   0.00000,   0.00000,-456790704.00000,   0.00000
-19836364.09198,-1735342.51610,4059573.82828,  -0.00009,   0.00003,   0.00005,19528384.00000,   0.00000,274640576.00000,   0.00000,   0.00000,   0.00000,-455112192.00000,   0.00000
-21417175.50557,-1887785.36048,4402048.16359,  -0.00009,   0.00003,   0.00006,21209284.00000,   0.00000,274640576.00000,   0.00000,   0.00000,   0.00000,-453431296.00000,   0.00000
-22983369.11216,-2033963.43042,4744522.49889,  -0.00010,   0.00004,   0.00006,22885526.00000,   0.00000,274640576.00000,   0.00000,   0.00000,   0.00000,-451755056.00000,   0.00000
-24526591.87918,-2182229.75851,5086996.83420,  -0.00011,   0.00004,   0.00007,24539976.00000,   0.00000,274640576.00000,   0.00000,   0.00000,   0.00000,-450100608.00000,   0.00000
-26069814.64621,-2330496.08660,5429471.16951,  -0.00011,   0.00004,   0.00007,26191782.00000,   0.00000,274640576.00000,   0.00000,   0.00000,   0.00000,-448448800.00000,   0.00000
-27604684.38066,-2487115.44726,5776122.02110,  -0.00012,   0.00004,   0.00008,27829192.00000,   0.00000,274640576.00000,   0.00000,   0.00000,   0.00000,-446811392.00000,   0.00000
-29124936.30813,-2637470.03350,6118596.35641,  -0.00013,   0.00004,   0.00008,29445196.00000,   0.00000,274640576.00000,   0.00000,   0.00000,   0.00000,-445195376.00000,   0.00000
-30630570.42859,-2781559.84530,6465247.20800,  -0.00013,   0.00005,   0.00008,31044162.00000,   0.00000,274640576.00000,   0.00000,   0.00000,   0.00000,-443596416.00000,   0.00000
-32134116.29092,-2948620.49667,6811898.05959,  -0.00014,   0.00005,   0.00009,32623738.00000,   0.00000,274640576.00000,   0.00000,   0.00000,   0.00000,-442016832.00000,   0.00000
-33616779.57182,-3094798.56662,7158548.91118,  -0.00015,   0.00005,   0.00009,34183784.00000,   0.00000,274640576.00000,   0.00000,   0.00000,   0.00000,-440456800.00000,   0.00000
-35076472.01316,-3243064.89471,7501023.24649,  -0.00015,   0.00005,   0.00010,35711680.00000,   0.00000,274640576.00000,   0.00000,   0.00000,   0.00000,-438928896.00000,   0.00000
-36536164.45451,-3391331.22280,7847674.09808,  -0.00016,   0.00006,   0.00010,37235892.00000,   0.00000,274640576.00000,   0.00000,   0.00000,   0.00000,-437404688.00000,   0.00000
-37987503.86328,-3547950.58346,8194324.94967,  -0.00017,   0.00006,   0.00011,38743744.00000,   0.00000,274640576.00000,   0.00000,   0.00000,   0.00000,-435896832.00000,   0.00000
-39409607.65806,-3692040.39527,8540975.80126,  -0.00017,   0.00006,   0.00011,40225192.00000,   0.00000,274640576.00000,   0.00000,   0.00000,   0.00000,-434415392.00000,   0.00000
-40837976.22727,-3850748.01407,8891803.16914,  -0.00018,   0.00006,   0.00012,41706124.00000,   0.00000,274640576.00000,   0.00000,   0.00000,   0.00000,-432934448.00000,   0.00000
-42237109.18249,-3996926.08401,9238454.02073,  -0.00018,   0.00006,   0.00012,43160320.00000,   0.00000,274640576.00000,   0.00000,   0.00000,   0.00000,-431480256.00000,   0.00000
-43621624.33071,-4136839.37954,9585104.87232,  -0.00019,   0.00007,   0.00012,44602260.00000,   0.00000,274640576.00000,   0.00000,   0.00000,   0.00000,-430038320.00000,   0.00000
-45012404.25336,-4291370.48205,9931755.72392,  -0.00020,   0.00007,   0.00013,46043532.00000,   0.00000,274640576.00000,   0.00000,   0.00000,   0.00000,-428597040.00000,   0.00000
-46380213.33645,-4447989.84271,10278406.57551,  -0.00020,   0.00007,   0.00013,47462888.00000,   0.00000,274640576.00000,   0.00000,   0.00000,   0.00000,-427177696.00000,   0.00000
-47733404.61254,-4598344.42894,10629233.94338,  -0.00021,   0.00007,   0.00014,48874452.00000,   0.00000,274640576.00000,   0.00000,   0.00000,   0.00000,-425766128.00000,   0.00000
-49071978.08164,-4742434.24075,10975884.79497,  -0.00021,   0.00007,   0.00014,50273184.00000,   0.00000,274640576.00000,   0.00000,   0.00000,   0.00000,-424367392.00000,   0.00000
-50395933.74375,-4880259.27813,11322535.64657,  -0.00022,   0.00008,   0.00015,51662080.00000,   0.00000,274640576.00000,   0.00000,   0.00000,   0.00000,-422978496.00000,   0.00000
-51711536.37328,-5026437.34808,11669186.49816,  -0.00023,   0.00008,   0.00015,53041028.00000,   0.00000,274640576.00000,   0.00000,   0.00000,   0.00000,-421599552.00000,   0.00000
-53018785.97025,-5180968.45060,12020013.86603,  -0.00023,   0.00008,   0.00016,54412924.00000,   0.00000,274640576.00000,   0.00000,   0.00000,   0.00000,-420227648.00000,   0.00000
-54296799.95322,-5322970.00426,12366664.71763,  -0.00024,   0.00008,   0.00016,55761348.00000,   0.00000,274640576.00000,   0.00000,   0.00000,   0.00000,-418879232.00000,   0.00000
-55574813.93620,-5464971.55792,12713315.56922,  -0.00024,   0.00008,   0.00017,57110948.00000,   0.00000,274640576.00000,   0.00000,   0.00000,   0.00000,-417529632.00000,   0.00000
-56829857.07961,-5609061.36973,13059966.42081,  -0.00025,   0.00009,   0.00017,58439536.00000,   0.00000,274640576.00000,   0.00000,   0.00000,   0.00000,-416201040.00000,   0.00000
-58070282.41603,-5746886.40711,13406617.27240,  -0.00025,   0.00009,   0.00017,59758196.00000,   0.00000,274640576.00000,   0.00000,   0.00000,   0.00000,-414882384.00000,   0.00000
-59310707.75245,-5884711.44449,13753268.12399,  -0.00026,   0.00009,   0.00018,61077628.00000,   0.00000,274640576.00000,   0.00000,   0.00000,   0.00000,-413562944.00000,   0.00000
-60528162.24930,-6024624.74001,14099918.97558,  -0.00026,   0.00009,   0.00018,62375856.00000,   0.00000,274640576.00000,   0.00000,   0.00000,   0.00000,-412264720.00000,   0.00000
-61716381.13217,-6152008.48668,14446569.82718,  -0.00027,   0.00009,   0.00019,63652876.00000,   0.00000,274640576.00000,   0.00000,   0.00000,   0.00000,-410987696.00000,   0.00000
-62910864.78946,-6294010.04035,14793220.67877,  -0.00027,   0.00009,   0.00019,64930384.00000,   0.00000,274640576.00000,   0.00000,   0.00000,   0.00000,-409710192.00000,   0.00000
-64090730.63976,-6429746.81958,15139871.53036,  -0.00028,   0.00010,   0.00020,66197412.00000,   0.00000,274640576.00000,   0.00000,   0.00000,   0.00000,-408443168.00000,   0.00000
-65241360.87607,-6552954.04997,15486522.38195,  -0.00028,   0.00010,   0.00020,67442944.00000,   0.00000,274640576.00000,   0.00000,   0.00000,   0.00000,-407197632.00000,   0.00000
-66398255.88680,-6690779.08735,15828996.71726,  -0.00029,   0.00010,   0.00021,68686120.00000,   0.00000,274640576.00000,   0.00000,   0.00000,   0.00000,-405954464.00000,   0.00000
-67525915.28354,-6816074.57587,16175647.56885,  -0.00029,   0.00010,   0.00021,69910424.00000,   0.00000,274640576.00000,   0.00000,   0.00000,   0.00000,-404730144.00000,   0.00000
-68638956.87329,-6935105.28998,16518121.90416,  -0.00030,   0.00010,   0.00021,71121080.00000,   0.00000,274640576.00000,   0.00000,   0.00000,   0.00000,-403519488.00000,   0.00000
-69743645.43047,-7062489.03664,16860596.23946,  -0.00030,   0.00010,   0.00022,72321104.00000,   0.00000,274640576.00000,   0.00000,   0.00000,   0.00000,-402319472.00000,   0.00000
-70833716.18066,-7183608.00889,17203070.57477,  -0.00031,   0.00011,   0.00022,73510208.00000,   0.00000,274640576.00000,   0.00000,   0.00000,   0.00000,-401130368.00000,   0.00000
-71900816.09128,-7306815.23927,17545544.91008,  -0.00031,   0.00011,   0.00023,74677768.00000,   0.00000,274640576.00000,   0.00000,   0.00000,   0.00000,-399962816.00000,   0.00000
-72967916.00190,-7430022.46966,17888019.24539,  -0.00032,   0.00011,   0.00023,75845320.00000,   0.00000,274640576.00000,   0.00000,   0.00000,   0.00000,-398795264.00000,   0.00000
-74005780.29854,-7540700.15119,18230493.58069,  -0.00032,   0.00011,   0.00024,76990968.00000,   0.00000,274640576.00000,   0.00000,   0.00000,   0.00000,-397649600.00000,   0.00000
-75035291.56260,-7659730.86529,18572967.91600,  -0.00033,   0.00011,   0.00024,78125904.00000,   0.00000,274640576.00000,   0.00000,   0.00000,   0.00000,-396514672.00000,   0.00000
-76050185.01967,-7772496.80497,18911265.73503,  -0.00033,   0.00011,   0.00025,79246752.00000,   0.00000,274640576.00000,   0.00000,   0.00000,   0.00000,-395393824.00000,   0.00000
-77035842.86275,-7872733.19579,19249563.55405,  -0.00034,   0.00011,   0.00025,80345776.00000,   0.00000,274640576.00000,   0.00000,   0.00000,   0.00000,-394294800.00000,   0.00000
-78027765.48026,-7987587.39360,19587861.37307,  -0.00034,   0.00012,   0.00025,81444944.00000,   0.00000,274640576.00000,   0.00000,   0.00000,   0.00000,-393195632.00000,   0.00000
-78990452.48377,-8089912.04257,19926159.19209,  -0.00034,   0.00012,   0.00026,82522240.00000,   0.00000,274640576.00000,   0.00000,   0.00000,   0.00000,-392118336.00000,   0.00000
-79938521.68030,-8185971.91710,20264457.01112,  -0.00035,   0.00012,   0.00026,83588576.00000,   0.00000,274640576.00000,   0.00000,   0.00000,   0.00000,-391052000.00000,   0.00000
-80878237.84425,-8290384.82421,20602754.83014,  -0.00035,   0.00012,   0.00027,84644200.00000,   0.00000,274640576.00000,   0.00000,   0.00000,   0.00000,-389996384.00000,   0.00000
-81803336.20121,-8388532.95689,20936876.13288,  -0.00036,   0.00012,   0.00027,85685992.00000,   0.00000,274640576.00000,   0.00000,   0.00000,   0.00000,-388954592.00000,   0.00000
-82720081.52560,-8495034.12214,21270997.43562,  -0.00036,   0.00012,   0.00028,86717144.00000,   0.00000,274640576.00000,   0.00000,   0.00000,   0.00000,-387923424.00000,   0.00000
-83601326.46157,-8574387.93154,21605118.73836,  -0.00036,   0.00012,   0.00028,87726616.00000,   0.00000,274640576.00000,   0.00000,   0.00000,   0.00000,-386913952.00000,   0.00000
-84474218.36498,-8662094.77351,21939240.04110,  -0.00037,   0.00013,   0.00029,88725568.00000,   0.00000,274640576.00000,   0.00000,   0.00000,   0.00000,-385915008.00000,   0.00000
-85338757.23581,-8758154.64804,22269184.82755,  -0.00037,   0.00013,   0.00029,89711016.00000,   0.00000,274640576.00000,   0.00000,   0.00000,   0.00000,-384929568.00000,   0.00000
-86188678.29966,-8847949.74816,22599129.61401,  -0.00037,   0.00013,   0.00029,90685976.00000,   0.00000,274640576.00000,   0.00000,   0.00000,   0.00000,-383954592.00000,   0.00000
-87009363.74951,-8925215.29941,22929074.40046,  -0.00038,   0.00013,   0.00030,91639688.00000,   0.00000,274640576.00000,   0.00000,   0.00000,   0.00000,-383000896.00000,   0.00000
-87815431.39237,-8996216.07625,23259019.18692,  -0.00038,   0.00013,   0.00030,92583048.00000,   0.00000,274640576.00000,   0.00000,   0.00000,   0.00000,-382057536.00000,   0.00000
-88627763.80965,-9081834.66007,23584787.45709,  -0.00039,   0.00013,   0.00031,93523816.00000,   0.00000,274640576.00000,   0.00000,   0.00000,   0.00000,-381116768.00000,   0.00000
-89396242.80595,-9148658.92062,23910555.72726,  -0.00039,   0.00013,   0.00031,94432816.00000,   0.00000,274640576.00000,   0.00000,   0.00000,   0.00000,-380207760.00000,   0.00000
-90164721.80225,-9215483.18117,24236323.99743,  -0.00039,   0.00013,   0.00032,95342376.00000,   0.00000,274640576.00000,   0.00000,   0.00000,   0.00000,-379298208.00000,   0.00000
-90903965.18456,-9269777.89286,24562092.26760,  -0.00040,   0.00014,   0.00032,96231056.00000,   0.00000,274640576.00000,   0.00000,   0.00000,   0.00000,-378409520.00000,   0.00000
-91649473.34130,-9338690.41155,24883684.02148,  -0.00040,   0.00014,   0.00032,97117272.00000,   0.00000,274640576.00000,   0.00000,   0.00000,   0.00000,-377523296.00000,   0.00000
-92365745.88404,-9395073.38139,25205275.77537,  -0.00040,   0.00014,   0.00033,97982672.00000,   0.00000,274640576.00000,   0.00000,   0.00000,   0.00000,-376657904.00000,   0.00000
-93059047.58723,-9453544.60937,25526867.52926,  -0.00040,   0.00014,   0.00033,98827368.00000,   0.00000,274640576.00000,   0.00000,   0.00000,   0.00000,-375813216.00000,   0.00000
-93752349.29041,-9512015.83735,25844282.76686,  -0.00041,   0.00014,   0.00034,99669536.00000,   0.00000,274640576.00000,   0.00000,   0.00000,   0.00000,-374971040.00000,   0.00000
-94416415.37960,-9557957.51648,26165874.52074,  -0.00041,   0.00014,   0.00034,100494216.00000,   0.00000,274640576.00000,   0.00000,   0.00000,   0.00000,-374146368.00000,   0.00000
-95065863.66180,-9597634.42118,26479113.24206,  -0.00041,   0.00014,   0.00034,101302288.00000,   0.00000,274640576.00000,   0.00000,   0.00000,   0.00000,-373338288.00000,   0.00000
-95706958.91143,-9645664.35845,26796528.47966,  -0.00042,   0.00014,   0.00035,102103832.00000,   0.00000,274640576.00000,   0.00000,   0.00000,   0.00000,-372536736.00000,   0.00000
-96312553.77265,-9666546.93987,27109767.20098,  -0.00042,   0.00014,   0.00035,102881296.00000,   0.00000,274640576.00000,   0.00000,   0.00000,   0.00000,-371759280.00000,   0.00000
-96916060.37572,-9710400.36085,27423005.92230,  -0.00042,   0.00014,   0.00036,103648944.00000,   0.00000,274640576.00000,   0.00000,   0.00000,   0.00000,-370991632.00000,   0.00000
-97513302.20437,-9739635.97484,27732068.12733,  -0.00042,   0.00015,   0.00036,104413784.00000,   0.00000,274640576.00000,   0.00000,   0.00000,   0.00000,-370226784.00000,   0.00000
-98072955.38645,-9764695.07255,28041130.33237,  -0.00043,   0.00015,   0.00036,105147504.00000,   0.00000,274640576.00000,   0.00000,   0.00000,   0.00000,-369493072.00000,   0.00000
-98632608.56854,-9789754.17025,28350192.53740,  -0.00043,   0.00015,   0.00037,105881760.00000,   0.00000,274640576.00000,   0.00000,   0.00000,   0.00000,-368758816.00000,   0.00000
-99163026.13664,-9802283.71910,28655078.22615,  -0.00043,   0.00015,   0.00037,106592104.00000,   0.00000,274640576.00000,   0.00000,   0.00000,   0.00000,-368048480.00000,   0.00000
-99685090.67217,-9823166.30053,28959963.91490,  -0.00043,   0.00015,   0.00038,107292512.00000,   0.00000,274640576.00000,   0.00000,   0.00000,   0.00000,-367348064.00000,   0.00000
-100186272.62628,-9823166.30053,29260673.08736,  -0.00044,   0.00015,   0.00038,107979408.00000,   0.00000,274640576.00000,   0.00000,   0.00000,   0.00000,-366661168.00000,   0.00000
-100664483.74082,-9825254.55867,29561382.25983,  -0.00044,   0.00015,   0.00038,108645768.00000,   0.00000,274640576.00000,   0.00000,   0.00000,   0.00000,-365994816.00000,   0.00000
-101148959.62979,-9841960.62380,29862091.43229,  -0.00044,   0.00015,   0.00039,109312832.00000,   0.00000,274640576.00000,   0.00000,   0.00000,   0.00000,-365327744.00000,   0.00000
-101597935.13035,-9831519.33309,30158624.08848,  -0.00044,   0.00015,   0.00039,109955784.00000,   0.00000,274640576.00000,   0.00000,   0.00000,   0.00000,-364684800.00000,   0.00000
-102023939.79134,-9823166.30053,30455156.74466,  -0.00045,   0.00015,   0.00040,110578240.00000,   0.00000,274640576.00000,   0.00000,   0.00000,   0.00000,-364062336.00000,   0.00000
-102449944.45233,-9814813.26796,30751689.40084,  -0.00045,   0.00016,   0.00040,111201232.00000,   0.00000,274640576.00000,   0.00000,   0.00000,   0.00000,-363439344.00000,   0.00000
-102846713.49934,-9793930.68654,31044045.54073,  -0.00045,   0.00016,   0.00040,111800272.00000,   0.00000,274640576.00000,   0.00000,   0.00000,   0.00000,-362840304.00000,   0.00000
-103235129.51377,-9781401.13768,31332225.16435,  -0.00045,   0.00016,   0.00041,112385944.00000,   0.00000,274640576.00000,   0.00000,   0.00000,   0.00000,-362254624.00000,   0.00000
-103588045.13979,-9741724.23298,31620404.78796,  -0.00045,   0.00016,   0.00041,112951136.00000,   0.00000,274640576.00000,   0.00000,   0.00000,   0.00000,-361689440.00000,   0.00000
-103947225.54023,-9716665.13528,31908584.41157,  -0.00045,   0.00016,   0.00041,113516832.00000,   0.00000,274640576.00000,   0.00000,   0.00000,   0.00000,-361123744.00000,   0.00000
-104283435.10111,-9693694.29571,32192587.51890,  -0.00046,   0.00016,   0.00042,114058720.00000,   0.00000,274640576.00000,   0.00000,   0.00000,   0.00000,-360581856.00000,   0.00000
-104598762.08057,-9649840.87473,32476590.62623,  -0.00046,   0.00016,   0.00042,114590704.00000,   0.00000,274640576.00000,   0.00000,   0.00000,   0.00000,-360049872.00000,   0.00000
-104891118.22047,-9608075.71189,32756417.21727,  -0.00046,   0.00016,   0.00043,115098952.00000,   0.00000,274640576.00000,   0.00000,   0.00000,   0.00000,-359541632.00000,   0.00000
-105183474.36037,-9566310.54904,33036243.80831,  -0.00046,   0.00016,   0.00043,115607704.00000,   0.00000,274640576.00000,   0.00000,   0.00000,   0.00000,-359032864.00000,   0.00000
-105446594.88627,-9512015.83735,33311893.88307,  -0.00046,   0.00016,   0.00043,116092624.00000,   0.00000,274640576.00000,   0.00000,   0.00000,   0.00000,-358547952.00000,   0.00000
-105680479.79819,-9445191.57680,33587543.95783,  -0.00046,   0.00016,   0.00044,116557552.00000,   0.00000,274640576.00000,   0.00000,   0.00000,   0.00000,-358083024.00000,   0.00000
-105920629.48453,-9392985.12325,33859017.51631,  -0.00046,   0.00016,   0.00044,117019368.00000,   0.00000,274640576.00000,   0.00000,   0.00000,   0.00000,-357621216.00000,   0.00000
-106125278.78246,-9313631.31385,34130491.07478,  -0.00046,   0.00016,   0.00044,117461336.00000,   0.00000,274640576.00000,   0.00000,   0.00000,   0.00000,-357179232.00000,   0.00000
-106321575.04782,-9242630.53702,34397788.11698,  -0.00047,   0.00017,   0.00045,117889920.00000,   0.00000,274640576.00000,   0.00000,   0.00000,   0.00000,-356750656.00000,   0.00000
-106503253.50619,-9165364.98576,34660908.64288,  -0.00047,   0.00017,   0.00045,118305216.00000,   0.00000,274640576.00000,   0.00000,   0.00000,   0.00000,-356335360.00000,   0.00000
-106661961.12499,-9090187.69264,34928205.68507,  -0.00047,   0.00017,   0.00045,118704368.00000,   0.00000,274640576.00000,   0.00000,   0.00000,   0.00000,-355936208.00000,   0.00000
-106799786.16237,-8994127.81810,35187149.69470,  -0.00047,   0.00017,   0.00046,119086736.00000,   0.00000,274640576.00000,   0.00000,   0.00000,   0.00000,-355553840.00000,   0.00000
-106929258.16718,-8906420.97614,35446093.70432,  -0.00047,   0.00017,   0.00046,119459488.00000,   0.00000,274640576.00000,   0.00000,   0.00000,   0.00000,-355181088.00000,   0.00000
-107029494.55800,-8806184.58531,35705037.71394,  -0.00047,   0.00017,   0.00046,119812832.00000,   0.00000,274640576.00000,   0.00000,   0.00000,   0.00000,-354827744.00000,   0.00000
-107129730.94882,-8705948.19449,35959805.20728,  -0.00047,   0.00017,   0.00047,120163168.00000,   0.00000,274640576.00000,   0.00000,   0.00000,   0.00000,-354477408.00000,   0.00000
-107206996.50008,-8607800.06181,36210396.18433,  -0.00047,   0.00017,   0.00047,120490216.00000,   0.00000,274640576.00000,   0.00000,   0.00000,   0.00000,-354150368.00000,   0.00000
-107248761.66292,-8482504.57329,36460987.16139,  -0.00047,   0.00017,   0.00047,120798040.00000,   0.00000,274640576.00000,   0.00000,   0.00000,   0.00000,-353842528.00000,   0.00000
-107296791.60019,-8371826.89175,36707401.62216,  -0.00047,   0.00017,   0.00048,121102808.00000,   0.00000,274640576.00000,   0.00000,   0.00000,   0.00000,-353537760.00000,   0.00000
-107315585.92347,-8248619.66137,36953816.08293,  -0.00047,   0.00017,   0.00048,121388464.00000,   0.00000,274640576.00000,   0.00000,   0.00000,   0.00000,-353252112.00000,   0.00000
-107319762.43975,-8119147.65656,37196054.02741,  -0.00047,   0.00017,   0.00048,121661136.00000,   0.00000,274640576.00000,   0.00000,   0.00000,   0.00000,-352979440.00000,   0.00000
-107294703.34205,-7977146.10289,37434115.45562,  -0.00047,   0.00017,   0.00049,121911104.00000,   0.00000,274640576.00000,   0.00000,   0.00000,   0.00000,-352729472.00000,   0.00000
-107269644.24434,-7835144.54923,37672176.88382,  -0.00047,   0.00017,   0.00049,122161880.00000,   0.00000,274640576.00000,   0.00000,   0.00000,   0.00000,-352478688.00000,   0.00000
-107221614.30707,-7695231.25371,37906061.79573,  -0.00047,   0.00017,   0.00049,122389896.00000,   0.00000,274640576.00000,   0.00000,   0.00000,   0.00000,-352250688.00000,   0.00000
-107144348.75582,-7542788.40933,38139946.70765,  -0.00047,   0.00017,   0.00050,122599096.00000,   0.00000,274640576.00000,   0.00000,   0.00000,   0.00000,-352041472.00000,   0.00000
-107060818.43013,-7375727.75796,38369655.10329,  -0.00047,   0.00018,   0.00050,122805760.00000,   0.00000,274640576.00000,   0.00000,   0.00000,   0.00000,-351834816.00000,   0.00000
-106954317.26488,-7210755.36474,38595186.98263,  -0.00047,   0.00018,   0.00050,122989792.00000,   0.00000,274640576.00000,   0.00000,   0.00000,   0.00000,-351650784.00000,   0.00000
-106839463.06707,-7054136.00408,38820718.86198,  -0.00047,   0.00018,   0.00050,123164752.00000,   0.00000,274640576.00000,   0.00000,   0.00000,   0.00000,-351475824.00000,   0.00000
-106703726.28783,-6876634.06200,39042074.22505,  -0.00047,   0.00018,   0.00051,123327480.00000,   0.00000,274640576.00000,   0.00000,   0.00000,   0.00000,-351313088.00000,   0.00000
-106545018.66903,-6701220.37806,39259253.07183,  -0.00047,   0.00018,   0.00051,123467632.00000,   0.00000,274640576.00000,   0.00000,   0.00000,   0.00000,-351172944.00000,   0.00000
-106365428.46881,-6504924.11270,39476431.91861,  -0.00047,   0.00018,   0.00051,123599544.00000,   0.00000,274640576.00000,   0.00000,   0.00000,   0.00000,-351041024.00000,   0.00000
-106177485.23601,-6316980.87991,39689434.24910,  -0.00047,   0.00018,   0.00052,123718776.00000,   0.00000,274640576.00000,   0.00000,   0.00000,   0.00000,-350921792.00000,   0.00000
-105960306.38923,-6116508.09827,39898260.06332,  -0.00047,   0.00018,   0.00052,123815920.00000,   0.00000,274640576.00000,   0.00000,   0.00000,   0.00000,-350824656.00000,   0.00000
-105743127.54245,-5916035.31662,40107085.87753,  -0.00047,   0.00018,   0.00052,123914392.00000,   0.00000,274640576.00000,   0.00000,   0.00000,   0.00000,-350726176.00000,   0.00000
-105496713.08168,-5703032.98613,40311735.17546,  -0.00047,   0.00018,   0.00052,123990936.00000,   0.00000,274640576.00000,   0.00000,   0.00000,   0.00000,-350649632.00000,   0.00000
-105227327.78135,-5492118.91377,40512207.95710,  -0.00047,   0.00018,   0.00053,124045112.00000,   0.00000,274640576.00000,   0.00000,   0.00000,   0.00000,-350595456.00000,   0.00000
-104951677.70659,-5266587.03442,40712680.73874,  -0.00047,   0.00018,   0.00053,124101328.00000,   0.00000,274640576.00000,   0.00000,   0.00000,   0.00000,-350539248.00000,   0.00000
-104653056.79227,-5043143.41322,40908977.00410,  -0.00047,   0.00018,   0.00053,124135352.00000,   0.00000,274640576.00000,   0.00000,   0.00000,   0.00000,-350505216.00000,   0.00000
-104339818.07095,-4813435.01758,41101096.75318,  -0.00047,   0.00018,   0.00053,124157032.00000,   0.00000,274640576.00000,   0.00000,   0.00000,   0.00000,-350483552.00000,   0.00000
-104005696.76821,-4562844.04053,41293216.50225,  -0.00046,   0.00018,   0.00054,124171368.00000,   0.00000,274640576.00000,   0.00000,   0.00000,   0.00000,-350469216.00000,   0.00000
-103654869.40034,-4328959.12861,41476983.21876,  -0.00046,   0.00018,   0.00054,124158936.00000,   0.00000,274640576.00000,   0.00000,   0.00000,   0.00000,-350481632.00000,   0.00000
-103283159.45104,-4074191.63527,41660749.93526,  -0.00046,   0.00018,   0.00054,124139152.00000,   0.00000,274640576.00000,   0.00000,   0.00000,   0.00000,-350501424.00000,   0.00000
-102896831.69475,-3813159.36751,41844516.65177,  -0.00046,   0.00018,   0.00054,124111424.00000,   0.00000,274640576.00000,   0.00000,   0.00000,   0.00000,-350529152.00000,   0.00000
-102495886.13146,-3545862.32532,42019930.33571,  -0.00046,   0.00018,   0.00055,124067632.00000,   0.00000,274640576.00000,   0.00000,   0.00000,   0.00000,-350572944.00000,   0.00000
-102071969.72861,-3280653.54127,42195344.01965,  -0.00046,   0.00018,   0.00055,124006048.00000,   0.00000,274640576.00000,   0.00000,   0.00000,   0.00000,-350634528.00000,   0.00000
-101627170.74434,-2994562.17580,42366581.18730,  -0.00046,   0.00018,   0.00055,123933112.00000,   0.00000,274640576.00000,   0.00000,   0.00000,   0.00000,-350707456.00000,   0.00000
-101174018.72750,-2716823.84290,42537818.35495,  -0.00046,   0.00018,   0.00055,123851928.00000,   0.00000,274640576.00000,   0.00000,   0.00000,   0.00000,-350788640.00000,   0.00000
-100691631.09667,-2426555.96114,42700702.49004,  -0.00045,   0.00019,   0.00056,123745184.00000,   0.00000,274640576.00000,   0.00000,   0.00000,   0.00000,-350895392.00000,   0.00000
-100209243.46584,-2136288.07939,42863586.62512,  -0.00045,   0.00019,   0.00056,123640112.00000,   0.00000,274640576.00000,   0.00000,   0.00000,   0.00000,-351000464.00000,   0.00000
-99697620.22102,-1833490.64878,43022294.24393,  -0.00045,   0.00019,   0.00056,123513856.00000,   0.00000,274640576.00000,   0.00000,   0.00000,   0.00000,-351126720.00000,   0.00000
-99156761.36221,-1518163.66932,43176825.34644,  -0.00045,   0.00019,   0.00056,123366456.00000,   0.00000,274640576.00000,   0.00000,   0.00000,   0.00000,-351274112.00000,   0.00000
-98615902.50340,-1202836.68986,43331356.44896,  -0.00045,   0.00019,   0.00056,123220800.00000,   0.00000,274640576.00000,   0.00000,   0.00000,   0.00000,-351419776.00000,   0.00000
-98045808.03061,-874980.16155,43477534.51891,  -0.00044,   0.00019,   0.00057,123049632.00000,   0.00000,274640576.00000,   0.00000,   0.00000,   0.00000,-351590944.00000,   0.00000
-97467360.52524,-555476.66580,43623712.58886,  -0.00044,   0.00019,   0.00057,122870328.00000,   0.00000,274640576.00000,   0.00000,   0.00000,   0.00000,-351770240.00000,   0.00000
-96868030.43845,-215090.58864,43765714.14252,  -0.00044,   0.00019,   0.00057,122679968.00000,   0.00000,274640576.00000,   0.00000,   0.00000,   0.00000,-351960608.00000,   0.00000
-96260347.31909,116942.45596,43907715.69618,  -0.00044,   0.00019,   0.00057,122481544.00000,   0.00000,274640576.00000,   0.00000,   0.00000,   0.00000,-352159040.00000,   0.00000
-95617163.81132,476122.85640,44041364.21728,  -0.00044,   0.00019,   0.00057,122258552.00000,   0.00000,274640576.00000,   0.00000,   0.00000,   0.00000,-352382016.00000,   0.00000
-94965627.27098,826950.22428,44175012.73837,  -0.00043,   0.00019,   0.00057,122027848.00000,   0.00000,274640576.00000,   0.00000,   0.00000,   0.00000,-352612736.00000,   0.00000
-94299472.92364,1184042.36658,44300308.22690,  -0.00043,   0.00019,   0.00058,121781064.00000,   0.00000,274640576.00000,   0.00000,   0.00000,   0.00000,-352859520.00000,   0.00000
-93618700.76931,1547399.28331,44425603.71543,  -0.00043,   0.00019,   0.00058,121527568.00000,   0.00000,274640576.00000,   0.00000,   0.00000,   0.00000,-353113008.00000,   0.00000
-92908693.00099,1923285.74889,44550899.20396,  -0.00043,   0.00019,   0.00058,121258608.00000,   0.00000,274640576.00000,   0.00000,   0.00000,   0.00000,-353381968.00000,   0.00000
-92184067.42568,2305436.98890,44667841.65991,  -0.00042,   0.00019,   0.00058,120974280.00000,   0.00000,274640576.00000,   0.00000,   0.00000,   0.00000,-353666304.00000,   0.00000
-91444824.04337,2693853.00333,44780607.59959,  -0.00042,   0.00019,   0.00058,120679400.00000,   0.00000,274640576.00000,   0.00000,   0.00000,   0.00000,-353961184.00000,   0.00000
-90690962.85406,3088533.79219,44893373.53926,  -0.00042,   0.00019,   0.00058,120379056.00000,   0.00000,274640576.00000,   0.00000,   0.00000,   0.00000,-354261520.00000,   0.00000
-89907866.05077,3495744.12991,45001962.96265,  -0.00042,   0.00019,   0.00059,120060192.00000,   0.00000,274640576.00000,   0.00000,   0.00000,   0.00000,-354580384.00000,   0.00000
-89131034.02190,3888336.66062,45106375.86976,  -0.00041,   0.00019,   0.00059,119739552.00000,   0.00000,274640576.00000,   0.00000,   0.00000,   0.00000,-354901024.00000,   0.00000
-88318701.60462,4308076.54719,45206612.26058,  -0.00041,   0.00019,   0.00059,119402176.00000,   0.00000,274640576.00000,   0.00000,   0.00000,   0.00000,-355238400.00000,   0.00000
-87477133.57334,4740345.98261,45302672.13512,  -0.00041,   0.00019,   0.00059,119047520.00000,   0.00000,274640576.00000,   0.00000,   0.00000,   0.00000,-355593056.00000,   0.00000
-86641830.31650,5157997.61103,45394555.49337,  -0.00040,   0.00019,   0.00059,118691872.00000,   0.00000,274640576.00000,   0.00000,   0.00000,   0.00000,-355948704.00000,   0.00000
-85785644.47823,5596531.82088,45486438.85163,  -0.00040,   0.00019,   0.00059,118333864.00000,   0.00000,274640576.00000,   0.00000,   0.00000,   0.00000,-356306720.00000,   0.00000
-84906487.80040,6032977.77258,45569969.17731,  -0.00040,   0.00019,   0.00059,117953328.00000,   0.00000,274640576.00000,   0.00000,   0.00000,   0.00000,-356687248.00000,   0.00000
-84012713.31557,6475688.49871,45653499.50299,  -0.00039,   0.00019,   0.00059,117569568.00000,   0.00000,274640576.00000,   0.00000,   0.00000,   0.00000,-357071008.00000,   0.00000
-83098056.24932,6939281.80626,45732853.31240,  -0.00039,   0.00019,   0.00059,117179224.00000,   0.00000,274640576.00000,   0.00000,   0.00000,   0.00000,-357461344.00000,   0.00000
-82160428.34351,7400786.85567,45803854.08923,  -0.00039,   0.00019,   0.00060,116766456.00000,   0.00000,274640576.00000,   0.00000,   0.00000,   0.00000,-357874112.00000,   0.00000
-81222800.43770,7862291.90508,45874854.86606,  -0.00038,   0.00019,   0.00060,116358592.00000,   0.00000,274640576.00000,   0.00000,   0.00000,   0.00000,-358281984.00000,   0.00000
-80255936.91790,8336326.50334,45941679.12661,  -0.00038,   0.00019,   0.00060,115934688.00000,   0.00000,274640576.00000,   0.00000,   0.00000,   0.00000,-358705888.00000,   0.00000
-79274455.59110,8816625.87602,46008503.38715,  -0.00038,   0.00019,   0.00060,115507704.00000,   0.00000,274640576.00000,   0.00000,   0.00000,   0.00000,-359132864.00000,   0.00000
-78272091.68289,9317807.83013,46066974.61513,  -0.00037,   0.00020,   0.00060,115069136.00000,   0.00000,274640576.00000,   0.00000,   0.00000,   0.00000,-359571440.00000,   0.00000
-77261374.74210,9810636.75167,46121269.32683,  -0.00037,   0.00020,   0.00060,114620784.00000,   0.00000,274640576.00000,   0.00000,   0.00000,   0.00000,-360019792.00000,   0.00000
-76221422.18733,10315995.22207,46175564.03852,  -0.00037,   0.00020,   0.00060,114161616.00000,   0.00000,274640576.00000,   0.00000,   0.00000,   0.00000,-360478960.00000,   0.00000
-75181469.63255,10821353.69246,46221505.71765,  -0.00036,   0.00020,   0.00060,113697056.00000,   0.00000,274640576.00000,   0.00000,   0.00000,   0.00000,-360943520.00000,   0.00000
-74112281.46379,11339241.71170,46267447.39678,  -0.00036,   0.00020,   0.00060,113222064.00000,   0.00000,274640576.00000,   0.00000,   0.00000,   0.00000,-361418512.00000,   0.00000
-73028475.48803,11863394.50538,46305036.04334,  -0.00036,   0.00020,   0.00060,112734232.00000,   0.00000,274640576.00000,   0.00000,   0.00000,   0.00000,-361906336.00000,   0.00000
-71930051.70527,12393812.07347,46342624.68989,  -0.00035,   0.00020,   0.00060,112244008.00000,   0.00000,274640576.00000,   0.00000,   0.00000,   0.00000,-362396576.00000,   0.00000
-70808657.08295,12922141.38343,46376036.82017,  -0.00035,   0.00020,   0.00060,111737072.00000,   0.00000,274640576.00000,   0.00000,   0.00000,   0.00000,-362903504.00000,   0.00000
-69680997.68621,13465088.50038,46405272.43416,  -0.00034,   0.00020,   0.00060,111232536.00000,   0.00000,274640576.00000,   0.00000,   0.00000,   0.00000,-363408032.00000,   0.00000
-68524102.67548,14020565.16618,46426155.01558,  -0.00034,   0.00020,   0.00060,110708632.00000,   0.00000,274640576.00000,   0.00000,   0.00000,   0.00000,-363931936.00000,   0.00000
-67352589.85775,14582306.60641,46447037.59700,  -0.00033,   0.00020,   0.00060,110183720.00000,   0.00000,274640576.00000,   0.00000,   0.00000,   0.00000,-364456864.00000,   0.00000
-66181077.04002,15144048.04664,46463743.66214,  -0.00033,   0.00020,   0.00060,109659752.00000,   0.00000,274640576.00000,   0.00000,   0.00000,   0.00000,-364980832.00000,   0.00000
-64980328.60830,15718319.03573,46476273.21099,  -0.00033,   0.00020,   0.00060,109122968.00000,   0.00000,274640576.00000,   0.00000,   0.00000,   0.00000,-365517600.00000,   0.00000
-63756609.33702,16290501.76667,46484626.24356,  -0.00032,   0.00020,   0.00060,108571592.00000,   0.00000,274640576.00000,   0.00000,   0.00000,   0.00000,-366068992.00000,   0.00000
-62526625.29131,16877302.30460,46488802.75984,  -0.00032,   0.00020,   0.00060,108024536.00000,   0.00000,274640576.00000,   0.00000,   0.00000,   0.00000,-366616032.00000,   0.00000
-61282023.43861,17470367.61696,46488802.75984,  -0.00031,   0.00020,   0.00060,107473000.00000,   0.00000,274640576.00000,   0.00000,   0.00000,   0.00000,-367167584.00000,   0.00000
-60008185.97192,18075962.47818,46488802.75984,  -0.00031,   0.00020,   0.00060,106916112.00000,   0.00000,274640576.00000,   0.00000,   0.00000,   0.00000,-367724464.00000,   0.00000
-58740613.27965,18666939.53240,46480449.72727,  -0.00030,   0.00020,   0.00060,106354176.00000,   0.00000,274640576.00000,   0.00000,   0.00000,   0.00000,-368286400.00000,   0.00000
-57437540.19897,19285063.94246,46467920.17842,  -0.00030,   0.00020,   0.00060,105784880.00000,   0.00000,274640576.00000,   0.00000,   0.00000,   0.00000,-368855696.00000,   0.00000
-56119849.31129,19909453.12696,46451214.11328,  -0.00029,   0.00020,   0.00060,105212720.00000,   0.00000,274640576.00000,   0.00000,   0.00000,   0.00000,-369427856.00000,   0.00000
-54787540.61662,20540107.08588,46430331.53186,  -0.00029,   0.00020,   0.00060,104637848.00000,   0.00000,274640576.00000,   0.00000,   0.00000,   0.00000,-370002720.00000,   0.00000
-53446878.88938,21162408.01223,46405272.43416,  -0.00028,   0.00020,   0.00060,104057792.00000,   0.00000,274640576.00000,   0.00000,   0.00000,   0.00000,-370582784.00000,   0.00000
-52085334.58072,21805591.52000,46380213.33645,  -0.00028,   0.00020,   0.00060,103484712.00000,   0.00000,274640576.00000,   0.00000,   0.00000,   0.00000,-371155872.00000,   0.00000
-50694554.65807,22461304.57663,46346801.20618,  -0.00027,   0.00020,   0.00060,102904256.00000,   0.00000,274640576.00000,   0.00000,   0.00000,   0.00000,-371736320.00000,   0.00000
-49303774.73542,23117017.63325,46309212.55962,  -0.00027,   0.00020,   0.00060,102351840.00000,   0.00000,274640576.00000,   0.00000,   0.00000,   0.00000,-372288736.00000,   0.00000
-47890023.97320,23770642.43173,46267447.39678,  -0.00026,   0.00020,   0.00060,101794600.00000,   0.00000,274640576.00000,   0.00000,   0.00000,   0.00000,-372845984.00000,   0.00000
-46470008.43656,24438885.03721,46225682.23394,  -0.00026,   0.00020,   0.00060,101255448.00000,   0.00000,274640576.00000,   0.00000,   0.00000,   0.00000,-373385120.00000,   0.00000
-45020757.28593,25119657.19154,46175564.03852,  -0.00025,   0.00020,   0.00060,100741816.00000,   0.00000,274640576.00000,   0.00000,   0.00000,   0.00000,-373898752.00000,   0.00000
-43571506.13530,25800429.34587,46121269.32683,  -0.00025,   0.00020,   0.00060,100169600.00000,   0.00000,274640576.00000,   0.00000,   0.00000,   0.00000,-374470976.00000,   0.00000
-42093019.37068,26493731.04906,46062798.09885,  -0.00024,   0.00020,   0.00060,99604064.00000,   0.00000,274640576.00000,   0.00000,   0.00000,   0.00000,-375036512.00000,   0.00000
-40606179.57349,27178679.71967,46000150.35459,  -0.00024,   0.00020,   0.00060,99104536.00000,   0.00000,274640576.00000,   0.00000,   0.00000,   0.00000,-375536032.00000,   0.00000
-39098457.19488,27884510.97171,45933326.09404,  -0.00023,   0.00020,   0.00060,98727024.00000,   0.00000,274640576.00000,   0.00000,   0.00000,   0.00000,-375913552.00000,   0.00000
-37576117.00928,28596606.99817,45866501.83349,  -0.00023,   0.00020,   0.00060,98492760.00000,   0.00000,274640576.00000,   0.00000,   0.00000,   0.00000,-376147808.00000,   0.00000
-36039159.01668,29314967.79906,45791324.54037,  -0.00022,   0.00020,   0.00060,98286112.00000,   0.00000,274640576.00000,   0.00000,   0.00000,   0.00000,-376354464.00000,   0.00000
-34487583.21709,30039593.37437,45711970.73097,  -0.00022,   0.00020,   0.00059,97954736.00000,   0.00000,274640576.00000,   0.00000,   0.00000,   0.00000,-376685840.00000,   0.00000
-32921389.61050,30770483.72412,45628440.40529,  -0.00021,   0.00020,   0.00059,97501888.00000,   0.00000,274640576.00000,   0.00000,   0.00000,   0.00000,-377138688.00000,   0.00000
-31340578.19691,31507638.84828,45540733.56332,  -0.00020,   0.00020,   0.00059,97005768.00000,   0.00000,274640576.00000,   0.00000,   0.00000,   0.00000,-377634816.00000,   0.00000
-29745148.97634,32251058.74688,45448850.20507,  -0.00020,   0.00020,   0.00059,96507984.00000,   0.00000,274640576.00000,   0.00000,   0.00000,   0.00000,-378132592.00000,   0.00000
-28141366.72319,32986125.61290,45352790.33053,  -0.00019,   0.00020,   0.00059,96015880.00000,   0.00000,274640576.00000,   0.00000,   0.00000,   0.00000,-378624704.00000,   0.00000
-26516701.88862,33742075.06035,45252553.93971,  -0.00019,   0.00021,   0.00059,95537992.00000,   0.00000,274640576.00000,   0.00000,   0.00000,   0.00000,-379102592.00000,   0.00000
-24871154.47263,34518907.08922,45148141.03260,  -0.00018,   0.00021,   0.00059,95067552.00000,   0.00000,274640576.00000,   0.00000,   0.00000,   0.00000,-379573024.00000,   0.00000
-23202636.21708,35293650.85994,45039551.60921,  -0.00017,   0.00021,   0.00059,94585520.00000,   0.00000,274640576.00000,   0.00000,   0.00000,   0.00000,-380055056.00000,   0.00000
-21534117.96153,36068394.63067,44926785.66954,  -0.00017,   0.00021,   0.00058,94103192.00000,   0.00000,274640576.00000,   0.00000,   0.00000,   0.00000,-380537376.00000,   0.00000
-19850981.89898,36849403.17582,44805666.69729,  -0.00016,   0.00021,   0.00058,93617416.00000,   0.00000,274640576.00000,   0.00000,   0.00000,   0.00000,-381023168.00000,   0.00000
-18153228.02944,37636676.49540,44684547.72505,  -0.00016,   0.00021,   0.00058,93146448.00000,   0.00000,274640576.00000,   0.00000,   0.00000,   0.00000,-381494128.00000,   0.00000
-16440856.35290,38430214.58941,44559252.23652,  -0.00015,   0.00021,   0.00058,92688192.00000,   0.00000,274640576.00000,   0.00000,   0.00000,   0.00000,-381952384.00000,   0.00000
-14713866.86937,39230017.45784,44429780.23171,  -0.00014,   0.00021,   0.00058,92243968.00000,   0.00000,274640576.00000,   0.00000,   0.00000,   0.00000,-382396608.00000,   0.00000
-12965994.80441,40050702.90769,44291955.19433,  -0.00014,   0.00021,   0.00058,91813648.00000,   0.00000,274640576.00000,   0.00000,   0.00000,   0.00000,-382826928.00000,   0.00000
-11209769.70689,40863035.32497,44154130.15695,  -0.00013,   0.00021,   0.00057,91399344.00000,   0.00000,274640576.00000,   0.00000,   0.00000,   0.00000,-383241232.00000,   0.00000
-9438926.80238,41681632.51669,44007952.08701,  -0.00012,   0.00021,   0.00057,90994056.00000,   0.00000,274640576.00000,   0.00000,   0.00000,   0.00000,-383646528.00000,   0.00000
-7653466.09086,42506494.48282,43861774.01706,  -0.00012,   0.00021,   0.00057,90610672.00000,   0.00000,274640576.00000,   0.00000,   0.00000,   0.00000,-384029904.00000,   0.00000
-5847122.79793,43352239.03038,43707242.91454,  -0.00011,   0.00021,   0.00057,90242992.00000,   0.00000,274640576.00000,   0.00000,   0.00000,   0.00000,-384397584.00000,   0.00000
-4032426.47243,44189630.54537,43552711.81202,  -0.00010,   0.00021,   0.00057,89892832.00000,   0.00000,274640576.00000,   0.00000,   0.00000,   0.00000,-384747744.00000,   0.00000
-2196847.56551,45047904.64178,43389827.67694,  -0.00010,   0.00021,   0.00056,89559792.00000,   0.00000,274640576.00000,   0.00000,   0.00000,   0.00000,-385080784.00000,   0.00000
-352915.62602,45897825.70562,43222767.02557,  -0.00009,   0.00021,   0.00056,89239648.00000,   0.00000,274640576.00000,   0.00000,   0.00000,   0.00000,-385400928.00000,   0.00000
1497281.08790,46762364.57646,43055706.37420,  -0.00008,   0.00021,   0.00056,88951696.00000,   0.00000,274640576.00000,   0.00000,   0.00000,   0.00000,-385688880.00000,   0.00000
3370448.64138,47624815.18915,42880292.69026,  -0.00008,   0.00021,   0.00056,88671520.00000,   0.00000,274640576.00000,   0.00000,   0.00000,   0.00000,-385969056.00000,   0.00000
5249880.96929,48501883.60884,42700702.49004,  -0.00007,   0.00021,   0.00056,88419176.00000,   0.00000,274640576.00000,   0.00000,   0.00000,   0.00000,-386221408.00000,   0.00000
7158548.91118,49391481.57739,42516935.77353,  -0.00006,   0.00021,   0.00055,88189576.00000,   0.00000,274640576.00000,   0.00000,   0.00000,   0.00000,-386451008.00000,   0.00000
9060952.07865,50266461.73893,42328992.54074,  -0.00006,   0.00021,   0.00055,87977104.00000,   0.00000,274640576.00000,   0.00000,   0.00000,   0.00000,-386663472.00000,   0.00000
10984237.82754,51162324.48190,42136872.79167,  -0.00005,   0.00021,   0.00055,87795184.00000,   0.00000,274640576.00000,   0.00000,   0.00000,   0.00000,-386845392.00000,   0.00000
12922141.38343,52064451.99930,41940576.52631,  -0.00004,   0.00021,   0.00055,87638592.00000,   0.00000,274640576.00000,   0.00000,   0.00000,   0.00000,-387001984.00000,   0.00000
14874662.74631,52972844.29112,41740103.74466,  -0.00004,   0.00021,   0.00054,87507896.00000,   0.00000,274640576.00000,   0.00000,   0.00000,   0.00000,-387132672.00000,   0.00000
16841801.91619,53887501.35737,41531277.93045,  -0.00003,   0.00021,   0.00054,87398096.00000,   0.00000,274640576.00000,   0.00000,   0.00000,   0.00000,-387242480.00000,   0.00000
18823558.89306,54808423.19804,41322452.11624,  -0.00002,   0.00021,   0.00054,87322528.00000,   0.00000,274640576.00000,   0.00000,   0.00000,   0.00000,-387318048.00000,   0.00000
20805315.86993,55729345.03872,41109449.78574,  -0.00001,   0.00021,   0.00053,87274768.00000,   0.00000,274640576.00000,   0.00000,   0.00000,   0.00000,-387365808.00000,   0.00000
22816308.46079,56662796.42824,40888094.42268,  -0.00001,   0.00021,   0.00053,87254136.00000,   0.00000,274640576.00000,   0.00000,   0.00000,   0.00000,-387386432.00000,   0.00000
24827301.05165,57596247.81777,40666739.05962,   0.00000,   0.00021,   0.00053,87270992.00000,   0.00000,274640576.00000,   0.00000,   0.00000,   0.00000,-387369584.00000,   0.00000
26852911.44950,58535963.98172,40437030.66398,   0.00001,   0.00021,   0.00053,87317696.00000,   0.00000,274640576.00000,   0.00000,   0.00000,   0.00000,-387322880.00000,   0.00000
28893139.65435,59481944.92010,40207322.26835,   0.00002,   0.00021,   0.00052,87408560.00000,   0.00000,274640576.00000,   0.00000,   0.00000,   0.00000,-387232016.00000,   0.00000
30954250.44062,60448808.43990,39969260.84015,   0.00002,   0.00021,   0.00052,87541344.00000,   0.00000,274640576.00000,   0.00000,   0.00000,   0.00000,-387099232.00000,   0.00000
33023714.25946,61407318.92714,39731199.41195,   0.00003,   0.00022,   0.00052,87714800.00000,   0.00000,274640576.00000,   0.00000,   0.00000,   0.00000,-386925776.00000,   0.00000
35093178.07830,62365829.41437,39484784.95118,   0.00004,   0.00022,   0.00051,87922592.00000,   0.00000,274640576.00000,   0.00000,   0.00000,   0.00000,-386717984.00000,   0.00000
37198142.28556,63351487.25745,39234193.97412,   0.00005,   0.00022,   0.00051,88186040.00000,   0.00000,274640576.00000,   0.00000,   0.00000,   0.00000,-386454528.00000,   0.00000
39296841.71839,64322527.29353,38979426.48078,   0.00005,   0.00022,   0.00051,88482880.00000,   0.00000,274640576.00000,   0.00000,   0.00000,   0.00000,-386157696.00000,   0.00000
41416423.73264,65314449.91104,38720482.47116,   0.00006,   0.00022,   0.00050,88832560.00000,   0.00000,274640576.00000,   0.00000,   0.00000,   0.00000,-385808016.00000,   0.00000
43550623.55388,66312637.30297,38457361.94525,   0.00007,   0.00022,   0.00050,89227528.00000,   0.00000,274640576.00000,   0.00000,   0.00000,   0.00000,-385413056.00000,   0.00000
45678558.60070,67296206.88791,38190064.90306,   0.00008,   0.00022,   0.00050,89654640.00000,   0.00000,274640576.00000,   0.00000,   0.00000,   0.00000,-384985936.00000,   0.00000
47827376.22894,68300659.05427,37918591.34459,   0.00008,   0.00022,   0.00049,90134568.00000,   0.00000,274640576.00000,   0.00000,   0.00000,   0.00000,-384506016.00000,   0.00000
50005429.47117,69317640.76948,37642941.26983,   0.00009,   0.00022,   0.00049,90664880.00000,   0.00000,274640576.00000,   0.00000,   0.00000,   0.00000,-383975696.00000,   0.00000
52168864.90640,70328357.71027,37363114.67878,   0.00010,   0.00022,   0.00049,91228104.00000,   0.00000,274640576.00000,   0.00000,   0.00000,   0.00000,-383412480.00000,   0.00000
54355271.18120,71336986.39291,37079111.57146,   0.00011,   0.00022,   0.00048,91832336.00000,   0.00000,274640576.00000,   0.00000,   0.00000,   0.00000,-382808240.00000,   0.00000
56547942.23043,72360232.88255,36786755.43156,   0.00012,   0.00022,   0.00048,92474976.00000,   0.00000,274640576.00000,   0.00000,   0.00000,   0.00000,-382165600.00000,   0.00000
58755231.08665,73389744.14661,36494399.29166,   0.00012,   0.00022,   0.00047,93161256.00000,   0.00000,274640576.00000,   0.00000,   0.00000,   0.00000,-381479328.00000,   0.00000
60977137.74986,74425520.18510,36197866.63548,   0.00013,   0.00022,   0.00047,93882696.00000,   0.00000,274640576.00000,   0.00000,   0.00000,   0.00000,-380757888.00000,   0.00000
63219926.99450,75482178.80502,35892980.94673,   0.00014,   0.00022,   0.00047,94640144.00000,   0.00000,274640576.00000,   0.00000,   0.00000,   0.00000,-380000432.00000,   0.00000
65456451.46470,76524219.61793,35588095.25798,   0.00015,   0.00022,   0.00046,95416920.00000,   0.00000,274640576.00000,   0.00000,   0.00000,   0.00000,-379223648.00000,   0.00000
67707593.74191,77572525.20528,35274856.53667,   0.00016,   0.00022,   0.00046,96217560.00000,   0.00000,274640576.00000,   0.00000,   0.00000,   0.00000,-378423008.00000,   0.00000
69973353.82611,78627095.56705,34961617.81535,   0.00017,   0.00022,   0.00045,97041232.00000,   0.00000,274640576.00000,   0.00000,   0.00000,   0.00000,-377599344.00000,   0.00000
72259996.49173,79702548.51024,34640026.06146,   0.00017,   0.00022,   0.00045,97796632.00000,   0.00000,274640576.00000,   0.00000,   0.00000,   0.00000,-376843936.00000,   0.00000
74540374.38292,80763383.64643,34314257.79129,   0.00018,   0.00022,   0.00045,98302200.00000,   0.00000,274640576.00000,   0.00000,   0.00000,   0.00000,-376338368.00000,   0.00000
76841634.85553,81845101.36405,33988489.52112,   0.00019,   0.00022,   0.00044,98992752.00000,   0.00000,274640576.00000,   0.00000,   0.00000,   0.00000,-375647824.00000,   0.00000
79136630.55372,82912201.27467,33654368.21838,   0.00020,   0.00022,   0.00044,99906040.00000,   0.00000,274640576.00000,   0.00000,   0.00000,   0.00000,-374734528.00000,   0.00000
81467126.64033,84006448.54114,33316070.39936,   0.00021,   0.00022,   0.00043,100953000.00000,   0.00000,274640576.00000,   0.00000,   0.00000,   0.00000,-373687584.00000,   0.00000
83776740.14551,85079813.22619,32977772.58034,   0.00022,   0.00022,   0.00043,102066680.00000,   0.00000,274640576.00000,   0.00000,   0.00000,   0.00000,-372573888.00000,   0.00000
86121854.03911,86180325.26709,32631121.72874,   0.00022,   0.00022,   0.00042,103280800.00000,   0.00000,274640576.00000,   0.00000,   0.00000,   0.00000,-371359776.00000,   0.00000
88466967.93271,87280837.30798,32280294.36087,   0.00023,   0.00022,   0.00042,104518080.00000,   0.00000,274640576.00000,   0.00000,   0.00000,   0.00000,-370122496.00000,   0.00000
90826699.63330,88387614.12331,31925290.47671,   0.00024,   0.00023,   0.00042,105715080.00000,   0.00000,274640576.00000,   0.00000,   0.00000,   0.00000,-368925504.00000,   0.00000
93201049.14089,89500655.71306,31566110.07626,   0.00025,   0.00023,   0.00041,106899320.00000,   0.00000,274640576.00000,   0.00000,   0.00000,   0.00000,-367741248.00000,   0.00000
95575398.64848,90613697.30281,31202753.15953,   0.00026,   0.00023,   0.00041,108111440.00000,   0.00000,274640576.00000,   0.00000,   0.00000,   0.00000,-366529136.00000,   0.00000
97964365.96306,91733003.66698,30835219.72652,   0.00027,   0.00023,   0.00040,109365840.00000,   0.00000,274640576.00000,   0.00000,   0.00000,   0.00000,-365274736.00000,   0.00000
100353333.27765,92852310.03116,30463509.77722,   0.00028,   0.00023,   0.00040,110648064.00000,   0.00000,274640576.00000,   0.00000,   0.00000,   0.00000,-363992512.00000,   0.00000
102756918.39922,93977881.16976,30087623.31164,   0.00028,   0.00023,   0.00039,111964344.00000,   0.00000,274640576.00000,   0.00000,   0.00000,   0.00000,-362676224.00000,   0.00000
105175121.32780,95109717.08279,29707560.32978,   0.00029,   0.00023,   0.00039,113313680.00000,   0.00000,274640576.00000,   0.00000,   0.00000,   0.00000,-361326896.00000,   0.00000
107593324.25637,96241552.99582,29323320.83163,   0.00030,   0.00023,   0.00038,114685264.00000,   0.00000,274640576.00000,   0.00000,   0.00000,   0.00000,-359955312.00000,   0.00000
110026144.99194,97379653.68327,28934904.81719,   0.00031,   0.00023,   0.00038,116088616.00000,   0.00000,274640576.00000,   0.00000,   0.00000,   0.00000,-358551968.00000,   0.00000
112479848.30893,98538636.95215,28542312.28648,   0.00032,   0.00023,   0.00037,117531904.00000,   0.00000,274640576.00000,   0.00000,   0.00000,   0.00000,-357108672.00000,   0.00000
114927286.85149,99683002.41403,28145543.23947,   0.00033,   0.00023,   0.00037,118987520.00000,   0.00000,274640576.00000,   0.00000,   0.00000,   0.00000,-355653056.00000,   0.00000
117380990.16848,100841985.68290,27744597.67619,   0.00034,   0.00023,   0.00036,120472136.00000,   0.00000,274640576.00000,   0.00000,   0.00000,   0.00000,-354168448.00000,   0.00000
119857664.32503,101998880.69364,27339475.59662,   0.00035,   0.00023,   0.00036,121989040.00000,   0.00000,274640576.00000,   0.00000,   0.00000,   0.00000,-352651536.00000,   0.00000
122325985.44902,103164128.73694,26930177.00076,   0.00036,   0.00023,   0.00035,123523680.00000,   0.00000,274640576.00000,   0.00000,   0.00000,   0.00000,-351116896.00000,   0.00000
124823542.18699,104341906.32909,26516701.88862,   0.00036,   0.00023,   0.00034,125098520.00000,   0.00000,274640576.00000,   0.00000,   0.00000,   0.00000,-349542048.00000,   0.00000
127300216.34354,105498801.33983,26099050.26020,   0.00037,   0.00023,   0.00034,126672608.00000,   0.00000,274640576.00000,   0.00000,   0.00000,   0.00000,-347967968.00000,   0.00000
129812390.88851,106682843.70641,25677222.11549,   0.00038,   0.00023,   0.00033,128294688.00000,   0.00000,274640576.00000,   0.00000,   0.00000,   0.00000,-346345888.00000,   0.00000
132324565.43348,107866886.07299,25251217.45450,   0.00039,   0.00023,   0.00033,129933896.00000,   0.00000,274640576.00000,   0.00000,   0.00000,   0.00000,-344706688.00000,   0.00000
134836739.97845,109050928.43957,24821036.27722,   0.00040,   0.00023,   0.00032,131589760.00000,   0.00000,274640576.00000,   0.00000,   0.00000,   0.00000,-343050816.00000,   0.00000
137363532.33041,110241235.58058,24386678.58366,   0.00041,   0.00023,   0.00032,133272368.00000,   0.00000,274640576.00000,   0.00000,   0.00000,   0.00000,-341368208.00000,   0.00000
139904942.48937,111437807.49601,23948144.37381,   0.00042,   0.00023,   0.00031,134981376.00000,   0.00000,274640576.00000,   0.00000,   0.00000,   0.00000,-339659200.00000,   0.00000
142431734.84133,112628114.63702,23505433.64769,   0.00043,   0.00023,   0.00031,136694160.00000,   0.00000,274640576.00000,   0.00000,   0.00000,   0.00000,-337946416.00000,   0.00000
144987762.80729,113830951.32688,23062722.92156,   0.00044,   0.00024,   0.00030,138445792.00000,   0.00000,274640576.00000,   0.00000,   0.00000,   0.00000,-336194784.00000,   0.00000
147543790.77324,115033788.01674,22611659.16286,   0.00045,   0.00024,   0.00029,140209408.00000,   0.00000,274640576.00000,   0.00000,   0.00000,   0.00000,-334431168.00000,   0.00000
150099818.73919,116236624.70660,22156418.88788,   0.00046,   0.00024,   0.00029,141986816.00000,   0.00000,274640576.00000,   0.00000,   0.00000,   0.00000,-332653760.00000,   0.00000
152670464.51214,117445726.17089,21697002.09661,   0.00047,   0.00024,   0.00028,143788816.00000,   0.00000,274640576.00000,   0.00000,   0.00000,   0.00000,-330851760.00000,   0.00000
155255728.09208,118661092.40960,21237585.30535,   0.00048,   0.00024,   0.00028,145617568.00000,   0.00000,274640576.00000,   0.00000,   0.00000,   0.00000,-329023008.00000,   0.00000
157832638.63946,119884811.68088,20769815.48151,   0.00048,   0.00024,   0.00027,147454112.00000,   0.00000,274640576.00000,   0.00000,   0.00000,   0.00000,-327186464.00000,   0.00000
160432520.02640,121106442.69402,20297869.14139,   0.00049,   0.00024,   0.00026,149318672.00000,   0.00000,274640576.00000,   0.00000,   0.00000,   0.00000,-325321904.00000,   0.00000
163024048.38076,122336426.73973,19825922.80127,   0.00050,   0.00024,   0.00026,151195584.00000,   0.00000,274640576.00000,   0.00000,   0.00000,   0.00000,-323444992.00000,   0.00000
165623929.76770,123558057.75287,19345623.42859,   0.00051,   0.00024,   0.00025,153088640.00000,   0.00000,274640576.00000,   0.00000,   0.00000,   0.00000,-321551936.00000,   0.00000
168244693.73606,124800571.34743,18865324.05590,   0.00052,   0.00024,   0.00025,155018544.00000,   0.00000,274640576.00000,   0.00000,   0.00000,   0.00000,-319622032.00000,   0.00000
170859192.92999,126028467.13499,18380848.16693,   0.00053,   0.00024,   0.00024,156956128.00000,   0.00000,274640576.00000,   0.00000,   0.00000,   0.00000,-317684448.00000,   0.00000
173479956.89835,127270980.72955,17888019.24539,   0.00054,   0.00024,   0.00023,158915680.00000,   0.00000,274640576.00000,   0.00000,   0.00000,   0.00000,-315724896.00000,   0.00000
176109073.89928,128505141.29155,17395190.32385,   0.00055,   0.00024,   0.00023,160894016.00000,   0.00000,274640576.00000,   0.00000,   0.00000,   0.00000,-313746560.00000,   0.00000
178744455.67463,129753919.66053,16898184.88602,   0.00056,   0.00024,   0.00022,162892096.00000,   0.00000,274640576.00000,   0.00000,   0.00000,   0.00000,-311748480.00000,   0.00000
181394455.25698,131008962.80395,16397002.93191,   0.00057,   0.00024,   0.00021,164911760.00000,   0.00000,274640576.00000,   0.00000,   0.00000,   0.00000,-309728816.00000,   0.00000
184044454.83933,132264005.94736,15891644.46152,   0.00058,   0.00024,   0.00021,166939136.00000,   0.00000,274640576.00000,   0.00000,   0.00000,   0.00000,-307701440.00000,   0.00000
186694454.42168,133519049.09077,15382109.47484,   0.00059,   0.00024,   0.00020,168973344.00000,   0.00000,274640576.00000,   0.00000,   0.00000,   0.00000,-305667232.00000,   0.00000
189352807.03659,134765739.20162,14872574.48817,   0.00060,   0.00024,   0.00019,171018976.00000,   0.00000,274640576.00000,   0.00000,   0.00000,   0.00000,-303621600.00000,   0.00000
192017424.42594,136027047.11946,14354686.46892,   0.00061,   0.00024,   0.00019,173077856.00000,   0.00000,274640576.00000,   0.00000,   0.00000,   0.00000,-301562720.00000,   0.00000
194682041.81528,137288355.03730,13836798.44968,   0.00062,   0.00025,   0.00018,175145296.00000,   0.00000,274640576.00000,   0.00000,   0.00000,   0.00000,-299495280.00000,   0.00000
197361277.01162,138555927.72956,13310557.39786,   0.00063,   0.00025,   0.00017,177231712.00000,   0.00000,274640576.00000,   0.00000,   0.00000,   0.00000,-297408864.00000,   0.00000
200040512.20796,139823500.42183,12784316.34605,   0.00064,   0.00025,   0.00017,179328368.00000,   0.00000,274640576.00000,   0.00000,   0.00000,   0.00000,-295312208.00000,   0.00000
202719747.40430,141091073.11409,12253898.77795,   0.00065,   0.00025,   0.00016,181434736.00000,   0.00000,274640576.00000,   0.00000,   0.00000,   0.00000,-293205840.00000,   0.00000
205413600.40763,142364910.58079,11719304.69357,   0.00066,   0.00025,   0.00015,183562016.00000,   0.00000,274640576.00000,   0.00000,   0.00000,   0.00000,-291078560.00000,   0.00000
208107453.41096,143638748.04748,11180534.09290,   0.00067,   0.00025,   0.00015,185695136.00000,   0.00000,274640576.00000,   0.00000,   0.00000,   0.00000,-288945440.00000,   0.00000
210807571.18872,144927203.32117,10637586.97595,   0.00068,   0.00025,   0.00014,187835440.00000,   0.00000,274640576.00000,   0.00000,   0.00000,   0.00000,-286805136.00000,   0.00000
213516041.99905,146207305.56228,10090463.34272,   0.00069,   0.00025,   0.00013,189970928.00000,   0.00000,274640576.00000,   0.00000,   0.00000,   0.00000,-284669648.00000,   0.00000
216209895.00238,147481143.02898,9543339.70948,   0.00070,   0.00025,   0.00012,192090880.00000,   0.00000,274640576.00000,   0.00000,   0.00000,   0.00000,-282549696.00000,   0.00000
218932983.61970,148767510.04452,8992039.55996,   0.00071,   0.00025,   0.00012,194292272.00000,   0.00000,274640576.00000,   0.00000,   0.00000,   0.00000,-280348304.00000,   0.00000
221647719.20446,150062230.09264,8436562.89416,   0.00072,   0.00025,   0.00011,196568192.00000,   0.00000,274640576.00000,   0.00000,   0.00000,   0.00000,-278072384.00000,   0.00000
224370807.82178,151348597.10818,7876909.71207,   0.00073,   0.00025,   0.00010,198827280.00000,   0.00000,274640576.00000,   0.00000,   0.00000,   0.00000,-275813296.00000,   0.00000
227093896.43910,152634964.12373,7313080.01370,   0.00074,   0.00025,   0.00010,201122640.00000,   0.00000,274640576.00000,   0.00000,   0.00000,   0.00000,-273517936.00000,   0.00000
229816985.05642,153921331.13927,6745073.79904,   0.00075,   0.00025,   0.00009,203423040.00000,   0.00000,274640576.00000,   0.00000,   0.00000,   0.00000,-271217536.00000,   0.00000
232546338.44817,155222315.96181,6177067.58439,   0.00076,   0.00025,   0.00008,205722336.00000,   0.00000,274640576.00000,   0.00000,   0.00000,   0.00000,-268918240.00000,   0.00000
235284044.87249,156514947.75178,5600708.33716,   0.00077,   0.00025,   0.00007,208018384.00000,   0.00000,274640576.00000,   0.00000,   0.00000,   0.00000,-266622192.00000,   0.00000
238028016.07123,157822197.34875,5024349.08994,   0.00078,   0.00025,   0.00007,210318080.00000,   0.00000,274640576.00000,   0.00000,   0.00000,   0.00000,-264322496.00000,   0.00000
240765722.49555,159114829.13872,4443813.32643,   0.00079,   0.00025,   0.00006,212608816.00000,   0.00000,274640576.00000,   0.00000,   0.00000,   0.00000,-262031760.00000,   0.00000
243503428.91987,160407460.92869,3863277.56292,   0.00080,   0.00026,   0.00005,214901408.00000,   0.00000,274640576.00000,   0.00000,   0.00000,   0.00000,-259739168.00000,   0.00000
246262017.92561,161720975.30008,3274388.76684,   0.00081,   0.00026,   0.00004,217217648.00000,   0.00000,274640576.00000,   0.00000,   0.00000,   0.00000,-257422928.00000,   0.00000
248999724.34993,163013607.09005,2685499.97076,   0.00082,   0.00026,   0.00003,219518736.00000,   0.00000,274640576.00000,   0.00000,   0.00000,   0.00000,-255121840.00000,   0.00000
251758313.35566,164327121.46145,2092434.65840,   0.00083,   0.00026,   0.00003,221838544.00000,   0.00000,274640576.00000,   0.00000,   0.00000,   0.00000,-252802032.00000,   0.00000
254510637.58698,165626018.02584,1495192.82976,   0.00084,   0.00026,   0.00002,224144976.00000,   0.00000,274640576.00000,   0.00000,   0.00000,   0.00000,-250495600.00000,   0.00000
257283844.39971,166945797.17166,893774.48483,   0.00085,   0.00026,   0.00001,226469824.00000,   0.00000,274640576.00000,   0.00000,   0.00000,   0.00000,-248170752.00000,   0.00000
260036168.63102,168244693.73606,292356.13990,   0.00086,   0.00026,   0.00000,228781952.00000,   0.00000,274640576.00000,   0.00000,   0.00000,   0.00000,-245858624.00000,   0.00000
262809375.44375,169564472.88188,-313238.72132,   0.00087,   0.00026,  -0.00000,231122560.00000,   0.00000,274640576.00000,   0.00000,   0.00000,   0.00000,-243518016.00000,   0.00000
265561699.67507,170863369.44628,-923010.09882,   0.00088,   0.00026,  -0.00001,233453536.00000,   0.00000,274640576.00000,   0.00000,   0.00000,   0.00000,-241187040.00000,   0.00000
268334906.48780,172183148.59210,-1536957.99260,   0.00089,   0.00026,  -0.00002,235813856.00000,   0.00000,274640576.00000,   0.00000,   0.00000,   0.00000,-238826720.00000,   0.00000
271101848.52611,173488309.93092,-2150905.88638,   0.00090,   0.00026,  -0.00003,238176288.00000,   0.00000,274640576.00000,   0.00000,   0.00000,   0.00000,-236464288.00000,   0.00000
273875055.33884,174808089.07674,-2773206.81273,   0.00091,   0.00026,  -0.00004,240554512.00000,   0.00000,274640576.00000,   0.00000,   0.00000,   0.00000,-234086064.00000,   0.00000
276662879.95857,176134132.99698,-3395507.73908,   0.00092,   0.00026,  -0.00004,242952944.00000,   0.00000,274640576.00000,   0.00000,   0.00000,   0.00000,-231687632.00000,   0.00000
279429821.99688,177439294.33581,-4017808.66544,   0.00093,   0.00026,  -0.00005,245338560.00000,   0.00000,274640576.00000,   0.00000,   0.00000,   0.00000,-229302016.00000,   0.00000
282203028.80961,178759073.48163,-4648462.62436,   0.00094,   0.00026,  -0.00006,247737600.00000,   0.00000,274640576.00000,   0.00000,   0.00000,   0.00000,-226902976.00000,   0.00000
284984588.65491,180070499.59488,-5279116.58328,   0.00095,   0.00026,  -0.00007,250147024.00000,   0.00000,274640576.00000,   0.00000,   0.00000,   0.00000,-224493552.00000,   0.00000
287772413.27464,181396543.51512,-5909770.54220,   0.00096,   0.00026,  -0.00008,252568112.00000,   0.00000,274640576.00000,   0.00000,   0.00000,   0.00000,-222072464.00000,   0.00000
290539355.31295,182701704.85395,-6548777.53368,   0.00097,   0.00026,  -0.00009,254974304.00000,   0.00000,274640576.00000,   0.00000,   0.00000,   0.00000,-219666272.00000,   0.00000
293327179.93267,184027748.77419,-7187784.52517,   0.00098,   0.00027,  -0.00009,257403488.00000,   0.00000,274640576.00000,   0.00000,   0.00000,   0.00000,-217237088.00000,   0.00000
296108739.77798,185339174.88744,-7830968.03294,   0.00099,   0.00027,  -0.00010,259829120.00000,   0.00000,274640576.00000,   0.00000,   0.00000,   0.00000,-214811456.00000,   0.00000
298896564.39770,186665218.80769,-8474151.54072,   0.00100,   0.00027,  -0.00011,262264576.00000,   0.00000,274640576.00000,   0.00000,   0.00000,   0.00000,-212376000.00000,   0.00000
301678124.24301,187976644.92094,-9125688.08106,   0.00101,   0.00027,  -0.00012,264696448.00000,   0.00000,274640576.00000,   0.00000,   0.00000,   0.00000,-209944128.00000,   0.00000
304459684.08831,189288071.03419,-9773048.10511,   0.00102,   0.00027,  -0.00013,267130288.00000,   0.00000,274640576.00000,   0.00000,   0.00000,   0.00000,-207510288.00000,   0.00000
307247508.70804,190614114.95443,-10428761.16174,   0.00103,   0.00027,  -0.00014,269574304.00000,   0.00000,274640576.00000,   0.00000,   0.00000,   0.00000,-205066272.00000,   0.00000
310029068.55334,191925541.06768,-11084474.21836,   0.00104,   0.00027,  -0.00014,272013888.00000,   0.00000,274640576.00000,   0.00000,   0.00000,   0.00000,-202626688.00000,   0.00000
312816893.17307,193251584.98793,-11744363.79127,   0.00105,   0.00027,  -0.00015,274463712.00000,   0.00000,274640576.00000,   0.00000,   0.00000,   0.00000,-200176864.00000,   0.00000
315598453.01837,194563011.10118,-12404253.36418,   0.00106,   0.00027,  -0.00016,276909792.00000,   0.00000,274640576.00000,   0.00000,   0.00000,   0.00000,-197730784.00000,   0.00000
318380012.86367,195874437.21443,-13072495.96966,   0.00107,   0.00027,  -0.00017,279361344.00000,   0.00000,274640576.00000,   0.00000,   0.00000,   0.00000,-195279232.00000,   0.00000
321167837.48340,197200481.13468,-13736562.05886,   0.00108,   0.00027,  -0.00018,281825184.00000,   0.00000,274640576.00000,   0.00000,   0.00000,   0.00000,-192815392.00000,   0.00000
323949397.32870,198511907.24793,-14408981.18062,   0.00109,   0.00027,  -0.00019,284291808.00000,   0.00000,274640576.00000,   0.00000,   0.00000,   0.00000,-190348768.00000,   0.00000
326730957.17400,199823333.36118,-15081400.30238,   0.00110,   0.00027,  -0.00020,286771200.00000,   0.00000,274640576.00000,   0.00000,   0.00000,   0.00000,-187869376.00000,   0.00000
329512517.01930,201134759.47443,-15753819.42414,   0.00111,   0.00027,  -0.00020,289265888.00000,   0.00000,274640576.00000,   0.00000,   0.00000,   0.00000,-185374688.00000,   0.00000
332300341.63903,202460803.39467,-16434591.57847,   0.00112,   0.00027,  -0.00021,291778240.00000,   0.00000,274640576.00000,   0.00000,   0.00000,   0.00000,-182862336.00000,   0.00000
335081901.48433,203772229.50792,-17111187.21652,   0.00113,   0.00027,  -0.00022,294273856.00000,   0.00000,274640576.00000,   0.00000,   0.00000,   0.00000,-180366720.00000,   0.00000
337863461.32964,205083655.62117,-17796135.88713,   0.00114,   0.00027,  -0.00023,296752192.00000,   0.00000,274640576.00000,   0.00000,   0.00000,   0.00000,-177888384.00000,   0.00000
340645021.17494,206395081.73442,-18481084.55775,   0.00115,   0.00027,  -0.00024,299225120.00000,   0.00000,274640576.00000,   0.00000,   0.00000,   0.00000,-175415456.00000,   0.00000
343426581.02024,207706507.84767,-19166033.22836,   0.00116,   0.00028,  -0.00025,301706944.00000,   0.00000,274640576.00000,   0.00000,   0.00000,   0.00000,-172933632.00000,   0.00000
346208140.86554,209017933.96092,-19855158.41526,   0.00117,   0.00028,  -0.00026,304202144.00000,   0.00000,274640576.00000,   0.00000,   0.00000,   0.00000,-170438432.00000,   0.00000
348975082.90385,210323095.29975,-20548460.11845,   0.00118,   0.00028,  -0.00027,306698720.00000,   0.00000,274640576.00000,   0.00000,   0.00000,   0.00000,-167941856.00000,   0.00000
351756642.74915,211634521.41300,-21241761.82163,   0.00119,   0.00028,  -0.00028,309222912.00000,   0.00000,274640576.00000,   0.00000,   0.00000,   0.00000,-165417664.00000,   0.00000
354517320.01303,212925064.94483,-21939240.04110,   0.00120,   0.00028,  -0.00029,311747552.00000,   0.00000,274640576.00000,   0.00000,   0.00000,   0.00000,-162893024.00000,   0.00000
357298879.85833,214236491.05808,-22640894.77685,   0.00121,   0.00028,  -0.00029,314295680.00000,   0.00000,274640576.00000,   0.00000,   0.00000,   0.00000,-160344896.00000,   0.00000
360065821.89664,215541652.39690,-23338372.99632,   0.00122,   0.00028,  -0.00030,316764416.00000,   0.00000,274640576.00000,   0.00000,   0.00000,   0.00000,-157876160.00000,   0.00000
362832763.93495,216846813.73573,-24044204.24835,   0.00123,   0.00028,  -0.00031,319174784.00000,   0.00000,274640576.00000,   0.00000,   0.00000,   0.00000,-155465792.00000,   0.00000
365593441.19883,218137357.26756,-24750035.50039,   0.00124,   0.00028,  -0.00032,321635872.00000,   0.00000,274640576.00000,   0.00000,   0.00000,   0.00000,-153004704.00000,   0.00000
368360383.23713,219442518.60638,-25455866.75242,   0.00125,   0.00028,  -0.00033,324153376.00000,   0.00000,274640576.00000,   0.00000,   0.00000,   0.00000,-150487200.00000,   0.00000
371121060.50102,220733062.13821,-26165874.52074,   0.00126,   0.00028,  -0.00034,326677120.00000,   0.00000,274640576.00000,   0.00000,   0.00000,   0.00000,-147963456.00000,   0.00000
373873384.73233,222031958.70261,-26880058.80535,   0.00127,   0.00028,  -0.00035,329198432.00000,   0.00000,274640576.00000,   0.00000,   0.00000,   0.00000,-145442144.00000,   0.00000
376634061.99621,223322502.23444,-27590066.57367,   0.00128,   0.00028,  -0.00036,331726208.00000,   0.00000,274640576.00000,   0.00000,   0.00000,   0.00000,-142914368.00000,   0.00000
379380121.45309,224606780.99184,-28308427.37456,   0.00129,   0.00028,  -0.00037,334245024.00000,   0.00000,274640576.00000,   0.00000,   0.00000,   0.00000,-140395552.00000,   0.00000
382126180.90998,225891059.74924,-29026788.17545,   0.00130,   0.00028,  -0.00038,336764992.00000,   0.00000,274640576.00000,   0.00000,   0.00000,   0.00000,-137875584.00000,   0.00000
384872240.36687,227175338.50664,-29745148.97634,   0.00131,   0.00028,  -0.00039,339286720.00000,   0.00000,274640576.00000,   0.00000,   0.00000,   0.00000,-135353856.00000,   0.00000
387618299.82375,228459617.26405,-30467686.29351,   0.00132,   0.00028,  -0.00040,341812160.00000,   0.00000,274640576.00000,   0.00000,   0.00000,   0.00000,-132828416.00000,   0.00000
390364359.28064,229743896.02145,-31190223.61068,   0.00133,   0.00028,  -0.00041,344343264.00000,   0.00000,274640576.00000,   0.00000,   0.00000,   0.00000,-130297312.00000,   0.00000
393095800.93053,231021910.00443,-31916937.44414,   0.00134,   0.00028,  -0.00041,346873088.00000,   0.00000,274640576.00000,   0.00000,   0.00000,   0.00000,-127767488.00000,   0.00000
395841860.38741,232306188.76183,-32643651.27760,   0.00135,   0.00029,  -0.00042,349430592.00000,   0.00000,274640576.00000,   0.00000,   0.00000,   0.00000,-125209984.00000,   0.00000
398573302.03730,233584202.74481,-33374541.62734,   0.00136,   0.00029,  -0.00043,351993440.00000,   0.00000,274640576.00000,   0.00000,   0.00000,   0.00000,-122647136.00000,   0.00000
401298478.91277,234847598.92079,-34105431.97708,   0.00137,   0.00029,  -0.00044,354560352.00000,   0.00000,274640576.00000,   0.00000,   0.00000,   0.00000,-120080224.00000,   0.00000
404015302.75567,236119348.12934,-34836322.32682,   0.00138,   0.00029,  -0.00045,357119424.00000,   0.00000,274640576.00000,   0.00000,   0.00000,   0.00000,-117521152.00000,   0.00000
406740479.63113,237382744.30532,-35571389.19285,   0.00139,   0.00029,  -0.00046,359672640.00000,   0.00000,274640576.00000,   0.00000,   0.00000,   0.00000,-114967936.00000,   0.00000
409457303.47403,238654493.51387,-36306456.05887,   0.00140,   0.00029,  -0.00047,362202496.00000,   0.00000,274640576.00000,   0.00000,   0.00000,   0.00000,-112438080.00000,   0.00000
412167862.54250,239911624.91543,-37045699.44118,   0.00141,   0.00029,  -0.00048,364711040.00000,   0.00000,274640576.00000,   0.00000,   0.00000,   0.00000,-109929536.00000,   0.00000
414878421.61097,241168756.31698,-37784942.82349,   0.00142,   0.00029,  -0.00049,367208064.00000,   0.00000,274640576.00000,   0.00000,   0.00000,   0.00000,-107432512.00000,   0.00000
417574362.87244,242419622.94411,-38524186.20580,   0.00143,   0.00029,  -0.00050,369685600.00000,   0.00000,274640576.00000,   0.00000,   0.00000,   0.00000,-104954976.00000,   0.00000
420270304.13392,243670489.57124,-39267606.10440,   0.00144,   0.00029,  -0.00051,372160768.00000,   0.00000,274640576.00000,   0.00000,   0.00000,   0.00000,-102479808.00000,   0.00000
422966245.39539,244921356.19837,-40011026.00299,   0.00145,   0.00029,  -0.00052,374635360.00000,   0.00000,274640576.00000,   0.00000,   0.00000,   0.00000,-100005216.00000,   0.00000
425662186.65687,246172222.82550,-40758622.41787,   0.00146,   0.00029,  -0.00053,377113344.00000,   0.00000,274640576.00000,   0.00000,   0.00000,   0.00000,-97527232.00000,   0.00000
428337245.33692,247402206.87120,-41506218.83275,   0.00147,   0.00029,  -0.00054,379577120.00000,   0.00000,274640576.00000,   0.00000,   0.00000,   0.00000,-95063456.00000,   0.00000
431018568.79140,248646808.72391,-42253815.24763,   0.00148,   0.00029,  -0.00055,382052928.00000,   0.00000,274640576.00000,   0.00000,   0.00000,   0.00000,-92587648.00000,   0.00000
433693627.47145,249876792.76961,-43001411.66250,   0.00149,   0.00029,  -0.00056,384529664.00000,   0.00000,274640576.00000,   0.00000,   0.00000,   0.00000,-90110912.00000,   0.00000
436368686.15151,251106776.81532,-43753184.59367,   0.00150,   0.00029,  -0.00057,387015808.00000,   0.00000,274640576.00000,   0.00000,   0.00000,   0.00000,-87624768.00000,   0.00000
439029127.02457,252330496.08660,-44504957.52483,   0.00151,   0.00029,  -0.00058,389498144.00000,   0.00000,274640576.00000,   0.00000,   0.00000,   0.00000,-85142432.00000,   0.00000
441689567.89763,253554215.35789,-45260906.97228,   0.00152,   0.00029,  -0.00059,391990240.00000,   0.00000,274640576.00000,   0.00000,   0.00000,   0.00000,-82650336.00000,   0.00000
444335390.96369,254771669.85474,-46016856.41972,   0.00152,   0.00029,  -0.00060,394478048.00000,   0.00000,274640576.00000,   0.00000,   0.00000,   0.00000,-80162528.00000,   0.00000
446995831.83675,255995389.12602,-46772805.86717,   0.00153,   0.00029,  -0.00061,396985344.00000,   0.00000,274640576.00000,   0.00000,   0.00000,   0.00000,-77655232.00000,   0.00000
449635390.12839,257198225.81588,-47528755.31462,   0.00154,   0.00029,  -0.00062,399480288.00000,   0.00000,274640576.00000,   0.00000,   0.00000,   0.00000,-75160288.00000,   0.00000
452266595.38746,258409415.53831,-48288881.27835,   0.00155,   0.00029,  -0.00063,401975936.00000,   0.00000,274640576.00000,   0.00000,   0.00000,   0.00000,-72664640.00000,   0.00000
454906153.67909,259612252.22817,-49049007.24208,   0.00156,   0.00029,  -0.00064,404481408.00000,   0.00000,274640576.00000,   0.00000,   0.00000,   0.00000,-70159168.00000,   0.00000
457516476.35674,260802559.36918,-49809133.20581,   0.00157,   0.00029,  -0.00065,406964832.00000,   0.00000,274640576.00000,   0.00000,   0.00000,   0.00000,-67675744.00000,   0.00000
460141416.84138,261999131.28461,-50573435.68583,   0.00158,   0.00029,  -0.00066,409463584.00000,   0.00000,274640576.00000,   0.00000,   0.00000,   0.00000,-65176992.00000,   0.00000
462751739.51903,263189438.42562,-51333561.64956,   0.00159,   0.00030,  -0.00067,411948544.00000,   0.00000,274640576.00000,   0.00000,   0.00000,   0.00000,-62692032.00000,   0.00000
465362062.19668,264379745.56663,-52097864.12957,   0.00160,   0.00030,  -0.00068,414434240.00000,   0.00000,274640576.00000,   0.00000,   0.00000,   0.00000,-60206336.00000,   0.00000
467972384.87433,265570052.70764,-52862166.60959,   0.00161,   0.00030,  -0.00069,416918400.00000,   0.00000,274640576.00000,   0.00000,   0.00000,   0.00000,-57722176.00000,   0.00000
470561824.97056,266739477.26722,-53630645.60589,   0.00162,   0.00030,  -0.00070,419383136.00000,   0.00000,274640576.00000,   0.00000,   0.00000,   0.00000,-55257440.00000,   0.00000
473136647.25979,267902637.05238,-54394948.08590,   0.00163,   0.00030,  -0.00071,421831456.00000,   0.00000,274640576.00000,   0.00000,   0.00000,   0.00000,-52809120.00000,   0.00000
475726087.35601,269072061.61197,-55163427.08220,   0.00164,   0.00030,  -0.00072,424290528.00000,   0.00000,274640576.00000,   0.00000,   0.00000,   0.00000,-50350048.00000,   0.00000
478300909.64525,270235221.39713,-55931906.07850,   0.00165,   0.00030,  -0.00073,426734368.00000,   0.00000,274640576.00000,   0.00000,   0.00000,   0.00000,-47906208.00000,   0.00000
480861114.12748,271392116.40786,-56704561.59109,   0.00166,   0.00030,  -0.00074,429165120.00000,   0.00000,274640576.00000,   0.00000,   0.00000,   0.00000,-45475456.00000,   0.00000
483421318.60972,272549011.41860,-57473040.58739,   0.00167,   0.00030,  -0.00075,431591840.00000,   0.00000,274640576.00000,   0.00000,   0.00000,   0.00000,-43048736.00000,   0.00000
485975258.31753,273691288.62233,-58245696.09997,   0.00168,   0.00030,  -0.00076,434012416.00000,   0.00000,274640576.00000,   0.00000,   0.00000,   0.00000,-40628160.00000,   0.00000
488514580.21835,274827301.05165,-59014175.09627,   0.00169,   0.00030,  -0.00077,436418560.00000,   0.00000,274640576.00000,   0.00000,   0.00000,   0.00000,-38222016.00000,   0.00000
491053902.11916,275963313.48096,-59786830.60885,   0.00170,   0.00030,  -0.00078,438826176.00000,   0.00000,274640576.00000,   0.00000,   0.00000,   0.00000,-35814400.00000,   0.00000
493593224.01998,277099325.91027,-60559486.12144,   0.00171,   0.00030,  -0.00079,441234464.00000,   0.00000,274640576.00000,   0.00000,   0.00000,   0.00000,-33406112.00000,   0.00000
496117928.11380,278229073.56516,-61336318.15030,   0.00171,   0.00030,  -0.00080,443634240.00000,   0.00000,274640576.00000,   0.00000,   0.00000,   0.00000,-31006336.00000,   0.00000
498621749.62620,279337938.63862,-62108973.66289,   0.00172,   0.00030,  -0.00081,446016480.00000,   0.00000,274640576.00000,   0.00000,   0.00000,   0.00000,-28624096.00000,   0.00000
501146453.72002,280467686.29351,-62881629.17547,   0.00173,   0.00030,  -0.00082,448418592.00000,   0.00000,274640576.00000,   0.00000,   0.00000,   0.00000,-26221984.00000,   0.00000
503635657.42543,281570286.59255,-63658461.20434,   0.00174,   0.00030,  -0.00083,450794016.00000,   0.00000,274640576.00000,   0.00000,   0.00000,   0.00000,-23846560.00000,   0.00000
506124861.13083,282672886.89159,-64435293.23321,   0.00175,   0.00030,  -0.00084,453167840.00000,   0.00000,274640576.00000,   0.00000,   0.00000,   0.00000,-21472736.00000,   0.00000
508607800.06181,283760869.38363,-65212125.26208,   0.00176,   0.00030,  -0.00085,455533312.00000,   0.00000,274640576.00000,   0.00000,   0.00000,   0.00000,-19107264.00000,   0.00000
511097003.76722,284863469.68267,-65988957.29094,   0.00177,   0.00030,  -0.00086,457914144.00000,   0.00000,274640576.00000,   0.00000,   0.00000,   0.00000,-16726432.00000,   0.00000
513550707.08421,285938922.62586,-66765789.31981,   0.00178,   0.00030,  -0.00087,460296800.00000,   0.00000,274640576.00000,   0.00000,   0.00000,   0.00000,-14343776.00000,   0.00000
516019028.20819,287020640.34348,-67542621.34868,   0.00179,   0.00030,  -0.00088,462721280.00000,   0.00000,274640576.00000,   0.00000,   0.00000,   0.00000,-11919296.00000,   0.00000
518472731.52518,288096093.28667,-68319453.37755,   0.00180,   0.00030,  -0.00089,465144256.00000,   0.00000,274640576.00000,   0.00000,   0.00000,   0.00000,-9496320.00000,   0.00000
520911817.03517,289165281.45543,-69096285.40642,   0.00181,   0.00030,  -0.00090,467554688.00000,   0.00000,274640576.00000,   0.00000,   0.00000,   0.00000,-7085888.00000,   0.00000
523350902.54517,290234469.62420,-69877293.95157,   0.00182,   0.00030,  -0.00091,469962720.00000,   0.00000,274640576.00000,   0.00000,   0.00000,   0.00000,-4677856.00000,   0.00000
525769105.47374,291282775.21154,-70654125.98044,   0.00182,   0.00030,  -0.00092,472344032.00000,   0.00000,274640576.00000,   0.00000,   0.00000,   0.00000,-2296544.00000,   0.00000
528109378.03450,292297297.51335,-71409965.30490,   0.00183,   0.00030,  -0.00093,474640832.00000,   0.00000,274640576.00000,   0.00000,   0.00000,   0.00000, 256.00000,   0.00000
528102828.09507,292289619.90512,-71422106.18167,   0.00183,   0.00030,  -0.00093,474640832.00000,   0.00000,274640864.00000,   0.00000,   0.00000,  -0.00000,-288.00000,   1.00000
527921632.72899,292060896.83518,-71798482.92650,   0.00184,   0.00030,  -0.00094,476985888.00000,   0.00001,274649856.00000,   0.00001,   0.00000,  -0.00001,-128.00000,   2.00000
527738362.04781,291820750.04319,-72177155.93960,   0.00185,   0.00030,  -0.00095,476991552.00000,   0.00002,274658848.00000,   0.00002,   0.00000,  -0.00001, 128.00000,   2.00000
527556867.49759,291582632.65661,-72549406.83529,   0.00186,   0.00030,  -0.00096,476999328.00000,   0.00002,274667808.00000,   0.00003,   0.00000,  -0.00002,  64.00000,   2.00000
527371847.91569,291356338.46417,-72924026.08029,   0.00187,   0.00030,  -0.00097,477004448.00000,   0.00003,274676800.00000,   0.00004,   0.00000,  -0.00002,  32.00000,   2.00000
527188087.99642,291109753.82317,-73296401.18822,   0.00188,   0.00030,  -0.00098,476988256.00000,   0.00004,274685664.00000,   0.00005,   0.00000,  -0.00003,   0.00000,   2.00000
527001983.10261,290874747.26472,-73669001.19053,   0.00189,   0.00030,  -0.00099,477005472.00000,   0.00005,274694592.00000,   0.00006,   0.00000,  -0.00003,   0.00000,   2.00000
526816841.04907,290630831.46177,-74038355.23853,   0.00190,   0.00030,  -0.00100,476995104.00000,   0.00006,274703456.00000,   0.00006,   0.00001,  -0.00004,  64.00000,   2.00000
526629390.86600,290398521.89352,-74407922.50058,   0.00190,   0.00030,  -0.00101,477012416.00000,   0.00007,274712352.00000,   0.00007,   0.00001,  -0.00004,  32.00000,   2.00000
526443128.47431,290145910.47260,-74775342.54371,   0.00191,   0.00030,  -0.00102,476996192.00000,   0.00007,274721152.00000,   0.00008,   0.00001,  -0.00005, -32.00000,   2.00000
526253325.39966,289905246.61740,-75145150.24519,   0.00192,   0.00030,  -0.00103,477001440.00000,   0.00008,274729952.00000,   0.00009,   0.00001,  -0.00005, 160.00000,   2.00000
526065670.32280,289655380.08276,-75509625.86207,   0.00193,   0.00030,  -0.00104,477003232.00000,   0.00009,274738720.00000,   0.00010,   0.00001,  -0.00006,  64.00000,   2.00000
525875874.79168,289417258.02712,-75874347.66460,   0.00194,   0.00030,  -0.00105,477020352.00000,   0.00010,274747520.00000,   0.00011,   0.00001,  -0.00006, 160.00000,   2.00000
525687191.44294,289158757.97801,-76237080.40444,   0.00195,   0.00030,  -0.00106,477004384.00000,   0.00011,274756256.00000,   0.00012,   0.00001,  -0.00007,  64.00000,   2.00000
525496907.07594,288913147.51280,-76598461.95604,   0.00196,   0.00030,  -0.00107,477007680.00000,   0.00011,274764960.00000,   0.00013,   0.00001,  -0.00007, 160.00000,   2.00000
525304833.50027,288656405.31109,-76962285.89322,   0.00196,   0.00030,  -0.00108,477013376.00000,   0.00012,274773632.00000,   0.00014,   0.00001,  -0.00008, 256.00000,   2.00000
525113245.33589,288402011.66028,-77322054.52939,   0.00197,   0.00030,  -0.00109,477009024.00000,   0.00013,274782304.00000,   0.00015,   0.00001,  -0.00009, -32.00000,   2.00000
524922059.88312,288149068.61900,-77679488.77402,   0.00198,   0.00030,  -0.00110,477018432.00000,   0.00014,274790944.00000,   0.00015,   0.00001,  -0.00009,  32.00000,   2.00000
524729382.82629,287885931.63288,-78037864.91431,   0.00199,   0.00030,  -0.00111,477010336.00000,   0.00014,274799520.00000,   0.00016,   0.00001,  -0.00010,   0.00000,   2.00000
524535311.96070,287635705.69394,-78395094.92567,   0.00200,   0.00030,  -0.00112,477013632.00000,   0.00015,274808096.00000,   0.00017,   0.00001,  -0.00010,  32.00000,   2.00000
524343684.14052,287376301.26434,-78747370.02730,   0.00201,   0.00030,  -0.00113,477015360.00000,   0.00016,274816672.00000,   0.00018,   0.00001,  -0.00011,-128.00000,   2.00000
524148395.04124,287105593.36983,-79104538.18159,   0.00201,   0.00030,  -0.00114,477009376.00000,   0.00017,274825152.00000,   0.00019,   0.00001,  -0.00011,  32.00000,   2.00000
523953270.22450,286836198.02776,-79459487.54410,   0.00202,   0.00030,  -0.00115,477019072.00000,   0.00018,274833664.00000,   0.00020,   0.00001,  -0.00012, -32.00000,   2.00000
523758925.94858,286569146.39014,-79810786.34821,   0.00203,   0.00030,  -0.00116,477014656.00000,   0.00018,274842112.00000,   0.00021,   0.00002,  -0.00012,  32.00000,   2.00000
523563165.69451,286303334.51184,-80162271.31266,   0.00204,   0.00030,  -0.00117,477012384.00000,   0.00019,274850528.00000,   0.00022,   0.00002,  -0.00013, 160.00000,   2.00000
523367506.19759,286038692.56034,-80511657.30103,   0.00205,   0.00030,  -0.00118,477021952.00000,   0.00020,274858976.00000,   0.00022,   0.00002,  -0.00013,  96.00000,   2.00000
523170249.99382,285763573.15263,-80862410.13749,   0.00206,   0.00030,  -0.00119,477014112.00000,   0.00021,274867328.00000,   0.00023,   0.00002,  -0.00014, 128.00000,   2.00000
522973164.21420,285478097.76681,-81212271.36695,   0.00206,   0.00030,  -0.00120,477017888.00000,   0.00021,274875680.00000,   0.00024,   0.00002,  -0.00015,   0.00000,   2.00000
522774581.57698,285205331.88256,-81561357.70512,   0.00207,   0.00030,  -0.00121,477021376.00000,   0.00022,274884000.00000,   0.00025,   0.00002,  -0.00015,  64.00000,   2.00000
522576751.73571,284923125.70058,-81908237.66812,   0.00208,   0.00030,  -0.00122,477011200.00000,   0.00023,274892288.00000,   0.00026,   0.00002,  -0.00016,   0.00000,   2.00000
522376816.89318,284640974.79599,-82256960.96162,   0.00209,   0.00030,  -0.00123,477023008.00000,   0.00024,274900544.00000,   0.00027,   0.00002,  -0.00016,  64.00000,   2.00000
522177470.15130,284349269.63153,-82603548.07521,   0.00210,   0.00029,  -0.00124,477012832.00000,   0.00024,274908768.00000,   0.00027,   0.00002,  -0.00017,  96.00000,   2.00000
521978977.08470,284071287.38362,-82945809.04637,   0.00210,   0.00029,  -0.00125,477013984.00000,   0.00025,274916960.00000,   0.00028,   0.00002,  -0.00017,  64.00000,   2.00000
521778025.75800,283769932.85778,-83292272.03500,   0.00211,   0.00029,  -0.00126,477014368.00000,   0.00026,274925088.00000,   0.00029,   0.00002,  -0.00018, -32.00000,   2.00000
521575682.42827,283481212.84441,-83638217.54641,   0.00212,   0.00029,  -0.00127,477017600.00000,   0.00027,274933248.00000,   0.00030,   0.00002,  -0.00018, 128.00000,   2.00000
521374033.99531,283182855.13306,-83982246.53596,   0.00213,   0.00029,  -0.00128,477007392.00000,   0.00027,274941312.00000,   0.00031,   0.00002,  -0.00019,  64.00000,   2.00000
521172334.53400,282885432.37900,-84324524.64584,   0.00214,   0.00029,  -0.00129,477016992.00000,   0.00028,274949376.00000,   0.00032,   0.00002,  -0.00020, -64.00000,   2.00000
520968996.68923,282577234.81280,-84668704.87350,   0.00214,   0.00029,  -0.00130,477008832.00000,   0.00029,274957376.00000,   0.00032,   0.00002,  -0.00020,  96.00000,   2.00000
520768227.92085,282282801.38342,-85006330.11676,   0.00215,   0.00029,  -0.00131,477021664.00000,   0.00030,274965408.00000,   0.00033,   0.00002,  -0.00021, 128.00000,   2.00000
520561374.89815,281964460.15783,-85353217.61330,   0.00216,   0.00029,  -0.00132,476998368.00000,   0.00030,274973344.00000,   0.00034,   0.00002,  -0.00021, 128.00000,   2.00000
520358672.41647,281659980.79253,-85691096.02589,   0.00217,   0.00029,  -0.00133,477022880.00000,   0.00031,274981312.00000,   0.00035,   0.00002,  -0.00022,  32.00000,   2.00000
520155061.04972,281345611.62920,-86029798.22087,   0.00217,   0.00029,  -0.00134,477000544.00000,   0.00032,274989152.00000,   0.00036,   0.00002,  -0.00022,  64.00000,   2.00000
519948999.43761,281030970.25994,-86370586.23783,   0.00218,   0.00029,  -0.00135,477012160.00000,   0.00033,274997024.00000,   0.00036,   0.00002,  -0.00023,  96.00000,   2.00000
519743359.55188,280706404.87260,-86709711.97031,   0.00219,   0.00029,  -0.00136,477001504.00000,   0.00033,275004832.00000,   0.00037,   0.00002,  -0.00023,   0.00000,   2.00000
519536175.80004,280382618.11540,-87049782.72654,   0.00220,   0.00029,  -0.00137,476998816.00000,   0.00034,275012608.00000,   0.00038,   0.00003,  -0.00024,  96.00000,   2.00000
519328883.90533,280059644.46979,-87388258.09605,   0.00220,   0.00029,  -0.00138,477007904.00000,   0.00035,275020384.00000,   0.00039,   0.00003,  -0.00024, -32.00000,   2.00000
519122172.84378,279726776.85637,-87725188.06854,   0.00221,   0.00029,  -0.00139,476997312.00000,   0.00035,275028064.00000,   0.00039,   0.00003,  -0.00025,  96.00000,   2.00000
518915473.85725,279394791.27050,-88060575.44038,   0.00222,   0.00029,  -0.00140,477006336.00000,   0.00036,275035776.00000,   0.00040,   0.00003,  -0.00025, 192.00000,   2.00000
518704847.09382,279051379.01668,-88400611.11415,   0.00223,   0.00029,  -0.00141,476985984.00000,   0.00037,275043360.00000,   0.00041,   0.00003,  -0.00026,   0.00000,   2.00000
518496839.22229,278710078.70364,-88735461.85535,   0.00223,   0.00028,  -0.00142,476992352.00000,   0.00037,275050976.00000,   0.00042,   0.00003,  -0.00027,   0.00000,   2.00000
518286224.30882,278368430.27179,-89072431.99208,   0.00224,   0.00028,  -0.00143,477003744.00000,   0.00038,275058560.00000,   0.00043,   0.00003,  -0.00027,  32.00000,   2.00000
518076723.94627,278017679.81498,-89406801.35395,   0.00225,   0.00028,  -0.00144,476978528.00000,   0.00039,275066048.00000,   0.00043,   0.00003,  -0.00028,  64.00000,   2.00000
517864766.12545,277666666.77176,-89743330.11701,   0.00226,   0.00028,  -0.00145,476989568.00000,   0.00040,275073536.00000,   0.00044,   0.00003,  -0.00028,  96.00000,   2.00000
517655051.46560,277305943.53089,-90075872.29451,   0.00226,   0.00028,  -0.00146,476990400.00000,   0.00040,275081024.00000,   0.00045,   0.00003,  -0.00029, 128.00000,   2.00000
517441734.59604,276957215.35672,-90410775.99424,   0.00227,   0.00028,  -0.00147,476980960.00000,   0.00041,275088416.00000,   0.00046,   0.00003,  -0.00029,   0.00000,   2.00000
517230454.71469,276586999.90190,-90742931.87521,   0.00228,   0.00028,  -0.00148,476975968.00000,   0.00042,275095776.00000,   0.00046,   0.00003,  -0.00030,   0.00000,   2.00000
517017232.33828,276217367.07654,-91076137.74494,   0.00228,   0.00028,  -0.00149,476972608.00000,   0.00042,275103104.00000,   0.00047,   0.00003,  -0.00030, -32.00000,   2.00000
516802171.74862,275848351.28619,-91410416.15724,   0.00229,   0.00028,  -0.00150,476969248.00000,   0.00043,275110368.00000,   0.00048,   0.00003,  -0.00031, 128.00000,   2.00000
516589396.03399,275481330.20599,-91739481.50327,   0.00230,   0.00028,  -0.00151,476975296.00000,   0.00044,275117664.00000,   0.00048,   0.00003,  -0.00031, -64.00000,   2.00000
516374524.44383,275103125.89581,-92070871.18823,   0.00230,   0.00028,  -0.00152,476966080.00000,   0.00044,275124864.00000,   0.00049,   0.00003,  -0.00032, -32.00000,   2.00000
516157354.91363,274713672.60711,-92404550.35046,   0.00231,   0.00027,  -0.00153,476957024.00000,   0.00045,275132032.00000,   0.00050,   0.00003,  -0.00032,  32.00000,   2.00000
515942667.80297,274326380.82943,-92733061.43393,   0.00232,   0.00027,  -0.00153,476962976.00000,   0.00046,275139168.00000,   0.00051,   0.00003,  -0.00033,  32.00000,   2.00000
515728531.98765,273940855.13353,-93059033.15172,   0.00233,   0.00027,  -0.00154,476956864.00000,   0.00046,275146272.00000,   0.00051,   0.00003,  -0.00033,  64.00000,   2.00000
515509459.30956,273542869.08867,-93390963.35925,   0.00233,   0.00027,  -0.00155,476950080.00000,   0.00047,275153312.00000,   0.00052,   0.00003,  -0.00034,   0.00000,   2.00000
515290956.90326,273146677.53594,-93720365.30179,   0.00234,   0.00027,  -0.00156,476943904.00000,   0.00047,275160320.00000,   0.00053,   0.00003,  -0.00034,  32.00000,   2.00000
515074976.29526,272752694.53420,-94044624.08235,   0.00235,   0.00027,  -0.00157,476949440.00000,   0.00048,275167296.00000,   0.00053,   0.00003,  -0.00035, 128.00000,   2.00000
514855979.81407,272335466.27230,-94372432.87336,   0.00235,   0.00027,  -0.00158,476934880.00000,   0.00049,275174208.00000,   0.00054,   0.00003,  -0.00035,  32.00000,   2.00000
514635432.49093,271930805.49583,-94700162.65772,   0.00236,   0.00027,  -0.00159,476936288.00000,   0.00049,275181120.00000,   0.00055,   0.00003,  -0.00036, -32.00000,   2.00000
514414962.83632,271516022.88275,-95026639.56467,   0.00237,   0.00027,  -0.00160,476924512.00000,   0.00050,275187936.00000,   0.00055,   0.00003,  -0.00037,   0.00000,   2.00000
514194256.30040,271102260.21498,-95351567.86211,   0.00237,   0.00026,  -0.00161,476932320.00000,   0.00051,275194752.00000,   0.00056,   0.00003,  -0.00037,  32.00000,   2.00000
513973714.25746,270678436.96788,-95675304.14326,   0.00238,   0.00026,  -0.00162,476920288.00000,   0.00051,275201536.00000,   0.00057,   0.00003,  -0.00038, -96.00000,   2.00000
513750556.88118,270243304.87856,-96001444.07700,   0.00238,   0.00026,  -0.00163,476910912.00000,   0.00052,275208224.00000,   0.00057,   0.00003,  -0.00038,  96.00000,   2.00000
513529851.44115,269810506.82672,-96322456.64314,   0.00239,   0.00026,  -0.00164,476916192.00000,   0.00053,275214912.00000,   0.00058,   0.00003,  -0.00039, 128.00000,   2.00000
513304886.97891,269377786.24769,-96647352.21990,   0.00240,   0.00026,  -0.00165,476900224.00000,   0.00053,275221536.00000,   0.00059,   0.00003,  -0.00039,  64.00000,   2.00000
513081885.25539,268935445.91123,-96968380.01538,   0.00240,   0.00026,  -0.00166,476899936.00000,   0.00054,275228096.00000,   0.00059,   0.00003,  -0.00040,  96.00000,   2.00000
512858760.25763,268494302.22609,-97287914.48533,   0.00241,   0.00026,  -0.00167,476907456.00000,   0.00054,275234688.00000,   0.00060,   0.00004,  -0.00040,   0.00000,   2.00000
512633456.68182,268042439.91577,-97609059.89972,   0.00242,   0.00026,  -0.00167,476883552.00000,   0.00055,275241184.00000,   0.00061,   0.00004,  -0.00041,  64.00000,   2.00000
512407986.70401,267591784.88787,-97928716.00540,   0.00242,   0.00025,  -0.00168,476891168.00000,   0.00056,275247648.00000,   0.00061,   0.00004,  -0.00041,  64.00000,   2.00000
512179627.41043,267129721.27629,-98250855.94191,   0.00243,   0.00025,  -0.00169,476881568.00000,   0.00056,275254080.00000,   0.00062,   0.00004,  -0.00042, 192.00000,   2.00000
511951467.44778,266669408.10457,-98570638.14791,   0.00244,   0.00025,  -0.00170,476874688.00000,   0.00057,275260448.00000,   0.00063,   0.00004,  -0.00042, -32.00000,   2.00000
511725391.64075,266199602.29397,-98886668.57653,   0.00244,   0.00025,  -0.00171,476874272.00000,   0.00057,275266816.00000,   0.00063,   0.00004,  -0.00043,  64.00000,   2.00000
511496816.19824,265730342.15602,-99203965.12633,   0.00245,   0.00025,  -0.00172,476869888.00000,   0.00058,275273120.00000,   0.00064,   0.00004,  -0.00043,  32.00000,   2.00000
511267949.10367,265250844.52748,-99520263.58749,   0.00245,   0.00025,  -0.00173,476857568.00000,   0.00058,275279360.00000,   0.00064,   0.00004,  -0.00043,-128.00000,   2.00000
511036807.63368,264771997.42367,-99837918.42519,   0.00246,   0.00024,  -0.00174,476853120.00000,   0.00059,275285568.00000,   0.00065,   0.00004,  -0.00044,  32.00000,   2.00000
510807466.75077,264283556.80511,-100151827.21737,   0.00247,   0.00024,  -0.00175,476852576.00000,   0.00060,275291744.00000,   0.00066,   0.00004,  -0.00044, 160.00000,   2.00000
510575537.28740,263795633.36320,-100467067.61718,   0.00247,   0.00024,  -0.00176,476848288.00000,   0.00060,275297888.00000,   0.00066,   0.00004,  -0.00045,  64.00000,   2.00000
510343178.06739,263297389.23836,-100781393.53002,   0.00248,   0.00024,  -0.00176,476835744.00000,   0.00061,275303968.00000,   0.00067,   0.00004,  -0.00045,  96.00000,   2.00000
510108391.40577,262799728.47766,-101097131.44419,   0.00248,   0.00024,  -0.00177,476831360.00000,   0.00061,275309984.00000,   0.00067,   0.00004,  -0.00046,   0.00000,   2.00000
509875227.86517,262292407.86394,-101409160.22234,   0.00249,   0.00024,  -0.00178,476830752.00000,   0.00062,275316000.00000,   0.00068,   0.00004,  -0.00046, -32.00000,   2.00000
509642391.23354,261786892.50406,-101719119.04931,   0.00249,   0.00023,  -0.00179,476823360.00000,   0.00062,275321952.00000,   0.00069,   0.00004,  -0.00047, 128.00000,   2.00000
509406116.66252,261269683.47560,-102031773.65255,   0.00250,   0.00023,  -0.00180,476813568.00000,   0.00063,275327872.00000,   0.00069,   0.00004,  -0.00047,  96.00000,   2.00000
509166438.94089,260740802.52022,-102347151.96124,   0.00251,   0.00023,  -0.00181,476803744.00000,   0.00063,275333696.00000,   0.00070,   0.00004,  -0.00048,  32.00000,   2.00000
508929178.74152,260214462.21161,-102657642.35979,   0.00251,   0.00023,  -0.00182,476808160.00000,   0.00064,275339552.00000,   0.00070,   0.00004,  -0.00048,   0.00000,   2.00000
508689708.76865,259688938.01750,-102968966.36603,   0.00252,   0.00023,  -0.00183,476789120.00000,   0.00064,275345312.00000,   0.00071,   0.00004,  -0.00049, -32.00000,   2.00000
508452043.41976,259153815.93481,-103276765.40227,   0.00252,   0.00023,  -0.00183,476788288.00000,   0.00065,275351008.00000,   0.00071,   0.00004,  -0.00049,  64.00000,   2.00000
508212988.51171,258607717.65219,-103584486.54209,   0.00253,   0.00022,  -0.00184,476790208.00000,   0.00066,275356736.00000,   0.00072,   0.00004,  -0.00050,  32.00000,   2.00000
507968727.61580,258061076.86532,-103896621.29724,   0.00253,   0.00022,  -0.00185,476773856.00000,   0.00066,275362368.00000,   0.00073,   0.00004,  -0.00050, -96.00000,   2.00000
507726236.77451,257504825.42727,-104205282.28901,   0.00254,   0.00022,  -0.00186,476772704.00000,   0.00067,275367968.00000,   0.00073,   0.00004,  -0.00051, -32.00000,   2.00000
507483673.37737,256950122.30833,-104512033.50575,   0.00254,   0.00022,  -0.00187,476765344.00000,   0.00067,275373504.00000,   0.00074,   0.00004,  -0.00051,   0.00000,   2.00000
507242693.10406,256385714.51648,-104815327.90102,   0.00255,   0.00022,  -0.00188,476764320.00000,   0.00068,275379040.00000,   0.00074,   0.00004,  -0.00051, 128.00000,   2.00000
506995349.85660,255808292.75978,-105124405.73298,   0.00256,   0.00021,  -0.00189,476742848.00000,   0.00068,275384448.00000,   0.00075,   0.00004,  -0.00052, 160.00000,   2.00000
506747502.89208,255232149.11205,-105432242.97633,   0.00256,   0.00021,  -0.00189,476749536.00000,   0.00069,275389888.00000,   0.00075,   0.00004,  -0.00052, -64.00000,   2.00000
506498786.09414,254645259.09636,-105739587.42224,   0.00257,   0.00021,  -0.00190,476736800.00000,   0.00069,275395264.00000,   0.00076,   0.00004,  -0.00053, -32.00000,   2.00000
506249913.82024,254059807.36482,-106045147.02747,   0.00257,   0.00021,  -0.00191,476729120.00000,   0.00070,275400576.00000,   0.00076,   0.00004,  -0.00053,  32.00000,   2.00000
506002362.97066,253464493.66680,-106347303.89348,   0.00258,   0.00020,  -0.00192,476728032.00000,   0.00070,275405856.00000,   0.00077,   0.00004,  -0.00054,  32.00000,   2.00000
505751958.42055,252869429.73330,-106651255.53003,   0.00258,   0.00020,  -0.00193,476722912.00000,   0.00071,275411104.00000,   0.00077,   0.00004,  -0.00054,   0.00000,   2.00000
505500347.23624,252263368.14724,-106954771.75407,   0.00259,   0.00020,  -0.00193,476710208.00000,   0.00071,275416288.00000,   0.00078,   0.00004,  -0.00054,  32.00000,   2.00000
505244514.63603,251645010.22995,-107261320.06932,   0.00259,   0.00020,  -0.00194,476700192.00000,   0.00071,275421440.00000,   0.00078,   0.00004,  -0.00055, -64.00000,   2.00000
504994025.60198,251030395.51749,-107559840.59289,   0.00260,   0.00020,  -0.00195,476700960.00000,   0.00072,275426528.00000,   0.00079,   0.00004,  -0.00055, -32.00000,   2.00000
504736383.48618,250402197.48389,-107864908.40552,   0.00260,   0.00019,  -0.00196,476693792.00000,   0.00072,275431584.00000,   0.00079,   0.00004,  -0.00056,  32.00000,   2.00000
504481491.01890,249776526.00019,-108164929.79150,   0.00261,   0.00019,  -0.00197,476682976.00000,   0.00073,275436608.00000,   0.00080,   0.00004,  -0.00056, -64.00000,   2.00000
504222341.61673,249138435.54838,-108468094.94214,   0.00261,   0.00019,  -0.00198,476672832.00000,   0.00073,275441536.00000,   0.00080,   0.00004,  -0.00057,  32.00000,   2.00000
503964411.63814,248490342.19624,-108768007.75744,   0.00262,   0.00019,  -0.00198,476671488.00000,   0.00074,275446464.00000,   0.00081,   0.00004,  -0.00057,  96.00000,   2.00000
503703069.22339,247842127.10197,-109069775.09292,   0.00262,   0.00018,  -0.00199,476666400.00000,   0.00074,275451360.00000,   0.00081,   0.00004,  -0.00057,   0.00000,   2.00000
503443261.14287,247183843.37579,-109367862.57115,   0.00262,   0.00018,  -0.00200,476650304.00000,   0.00075,275456160.00000,   0.00082,   0.00004,  -0.00058,   0.00000,   2.00000
503177290.44433,246524239.97839,-109671337.49131,   0.00263,   0.00018,  -0.00201,476647936.00000,   0.00075,275460928.00000,   0.00082,   0.00004,  -0.00058,  32.00000,   2.00000
502914033.23892,245843194.27763,-109969399.99707,   0.00263,   0.00018,  -0.00201,476638688.00000,   0.00076,275465664.00000,   0.00083,   0.00004,  -0.00059,  32.00000,   2.00000
502648856.91479,245174574.89389,-110268213.80049,   0.00264,   0.00017,  -0.00202,476638016.00000,   0.00076,275470368.00000,   0.00083,   0.00004,  -0.00059, 128.00000,   2.00000
502380527.98549,244481805.10780,-110568027.38884,   0.00264,   0.00017,  -0.00203,476620224.00000,   0.00076,275474976.00000,   0.00083,   0.00004,  -0.00059,-128.00000,   2.00000
502112039.17699,243790133.80260,-110866474.29918,   0.00265,   0.00017,  -0.00204,476611808.00000,   0.00077,275479520.00000,   0.00084,   0.00004,  -0.00060,  96.00000,   2.00000
501842739.41816,243099521.99295,-111163893.38420,   0.00265,   0.00016,  -0.00205,476617824.00000,   0.00077,275484096.00000,   0.00084,   0.00004,  -0.00060, 192.00000,   2.00000
501570282.67984,242384658.86536,-111462393.11493,   0.00266,   0.00016,  -0.00205,476599936.00000,   0.00078,275488576.00000,   0.00085,   0.00004,  -0.00060,  32.00000,   2.00000
501297321.06742,241670689.01211,-111759498.37360,   0.00266,   0.00016,  -0.00206,476591488.00000,   0.00078,275493024.00000,   0.00085,   0.00004,  -0.00061,  96.00000,   2.00000
501026629.67440,240959025.07533,-112052219.65932,   0.00267,   0.00016,  -0.00207,476594336.00000,   0.00078,275497440.00000,   0.00086,   0.00004,  -0.00061,  32.00000,   2.00000
500749806.31359,240221803.19225,-112349514.51842,   0.00267,   0.00015,  -0.00208,476579200.00000,   0.00079,275501792.00000,   0.00086,   0.00004,  -0.00062,  96.00000,   2.00000
500472133.88925,239485274.56210,-112645378.60106,   0.00267,   0.00015,  -0.00208,476570816.00000,   0.00079,275506112.00000,   0.00086,   0.00004,  -0.00062, -96.00000,   2.00000
500194216.26863,238749644.27455,-112939985.14531,   0.00268,   0.00015,  -0.00209,476561952.00000,   0.00080,275510368.00000,   0.00087,   0.00004,  -0.00062,  96.00000,   2.00000
499913832.74435,238002304.24789,-113234800.62568,   0.00268,   0.00014,  -0.00210,476563296.00000,   0.00080,275514592.00000,   0.00087,   0.00004,  -0.00063,   0.00000,   2.00000
499631420.89782,237243025.69850,-113529540.12424,   0.00269,   0.00014,  -0.00211,476549824.00000,   0.00080,275518784.00000,   0.00088,   0.00004,  -0.00063, -32.00000,   2.00000
499346828.22820,236471724.34729,-113824185.52697,   0.00269,   0.00014,  -0.00211,476536480.00000,   0.00081,275522880.00000,   0.00088,   0.00004,  -0.00063,  64.00000,   2.00000
499061532.82881,235701067.41347,-114117515.57804,   0.00270,   0.00014,  -0.00212,476527648.00000,   0.00081,275526944.00000,   0.00088,   0.00004,  -0.00064,  64.00000,   2.00000
498773839.90101,234918713.87100,-114411099.53257,   0.00270,   0.00013,  -0.00213,476528640.00000,   0.00082,275530976.00000,   0.00089,   0.00004,  -0.00064,  64.00000,   2.00000
498483911.75987,234124247.45134,-114704622.06134,   0.00270,   0.00013,  -0.00214,476515328.00000,   0.00082,275534944.00000,   0.00089,   0.00004,  -0.00064, 128.00000,   2.00000
498195836.32426,233331900.18323,-114993710.28191,   0.00271,   0.00013,  -0.00214,476518112.00000,   0.00082,275538944.00000,   0.00090,   0.00004,  -0.00065, -64.00000,   2.00000
497902682.89786,232525741.82010,-115285860.21734,   0.00271,   0.00012,  -0.00215,476492992.00000,   0.00083,275542784.00000,   0.00090,   0.00004,  -0.00065, -32.00000,   2.00000
497606782.37105,231707744.23714,-115578189.91730,   0.00272,   0.00012,  -0.00216,476494176.00000,   0.00083,275546656.00000,   0.00090,   0.00004,  -0.00065,  96.00000,   2.00000
497312986.97045,230891971.52990,-115866155.43413,   0.00272,   0.00012,  -0.00216,476496736.00000,   0.00083,275550496.00000,   0.00091,   0.00003,  -0.00066,  64.00000,   2.00000
497011856.08227,230049231.44073,-116158311.27752,   0.00272,   0.00011,  -0.00217,476467360.00000,   0.00084,275554208.00000,   0.00091,   0.00003,  -0.00066,  32.00000,   2.00000
496714547.23462,229221558.70993,-116444906.08538,   0.00273,   0.00011,  -0.00218,476474304.00000,   0.00084,275557920.00000,   0.00091,   0.00003,  -0.00066,  32.00000,   2.00000
496409502.48311,228367298.13801,-116735920.40771,   0.00273,   0.00011,  -0.00218,476459456.00000,   0.00084,275561600.00000,   0.00092,   0.00003,  -0.00067, -96.00000,   2.00000
496109803.28916,227516513.68216,-117019276.45938,   0.00273,   0.00010,  -0.00219,476458720.00000,   0.00085,275565248.00000,   0.00092,   0.00003,  -0.00067,  64.00000,   2.00000
495800938.64183,226650073.68915,-117308943.68028,   0.00274,   0.00010,  -0.00220,476437056.00000,   0.00085,275568768.00000,   0.00092,   0.00003,  -0.00067,  32.00000,   2.00000
495488948.26906,225771650.34695,-117598706.81715,   0.00274,   0.00009,  -0.00220,476438112.00000,   0.00085,275572320.00000,   0.00093,   0.00003,  -0.00068, -32.00000,   2.00000
495182261.90705,224896675.05318,-117880812.36882,   0.00275,   0.00009,  -0.00221,476437280.00000,   0.00086,275575840.00000,   0.00093,   0.00003,  -0.00068, 192.00000,   2.00000
494866021.52708,224005780.06332,-118169190.78537,   0.00275,   0.00009,  -0.00222,476415808.00000,   0.00086,275579232.00000,   0.00093,   0.00003,  -0.00068, -32.00000,   2.00000
494552894.66037,223105229.32158,-118451035.62555,   0.00275,   0.00008,  -0.00223,476410688.00000,   0.00086,275582624.00000,   0.00094,   0.00003,  -0.00069, -32.00000,   2.00000
494233400.71023,222191481.00311,-118736289.08652,   0.00276,   0.00008,  -0.00223,476414976.00000,   0.00087,275586016.00000,   0.00094,   0.00003,  -0.00069, -64.00000,   2.00000
493915746.89681,221279035.18237,-119016957.63502,   0.00276,   0.00008,  -0.00224,476402688.00000,   0.00087,275589344.00000,   0.00094,   0.00003,  -0.00069, 128.00000,   2.00000
493594750.06049,220353638.38736,-119297537.33170,   0.00276,   0.00007,  -0.00224,476389408.00000,   0.00087,275592608.00000,   0.00095,   0.00003,  -0.00069,  96.00000,   2.00000
493267105.55277,219414033.68840,-119581312.42805,   0.00277,   0.00007,  -0.00225,476379264.00000,   0.00088,275595840.00000,   0.00095,   0.00003,  -0.00070,  64.00000,   2.00000
492941256.70838,218476498.17893,-119860700.83013,   0.00277,   0.00006,  -0.00226,476381472.00000,   0.00088,275599040.00000,   0.00095,   0.00003,  -0.00070, 160.00000,   2.00000
492611663.86020,217525741.20947,-120139957.67803,   0.00277,   0.00006,  -0.00226,476368224.00000,   0.00088,275602176.00000,   0.00096,   0.00003,  -0.00070, -64.00000,   2.00000
492278498.55882,216561773.66178,-120419160.71008,   0.00278,   0.00006,  -0.00227,476354688.00000,   0.00088,275605280.00000,   0.00096,   0.00003,  -0.00071,-192.00000,   2.00000
491941891.56830,215585586.02728,-120698474.55948,   0.00278,   0.00005,  -0.00228,476355936.00000,   0.00089,275608352.00000,   0.00096,   0.00003,  -0.00071, -64.00000,   2.00000
491606744.93814,214610259.00008,-120973274.96395,   0.00278,   0.00005,  -0.00228,476343648.00000,   0.00089,275611360.00000,   0.00096,   0.00003,  -0.00071, -64.00000,   2.00000
491264628.54427,213620347.95941,-121251331.78249,   0.00279,   0.00005,  -0.00229,476333472.00000,   0.00089,275614336.00000,   0.00097,   0.00003,  -0.00071, -96.00000,   2.00000
490922123.68079,212619215.78397,-121526240.61564,   0.00279,   0.00004,  -0.00230,476331424.00000,   0.00090,275617280.00000,   0.00097,   0.00003,  -0.00072,  96.00000,   2.00000
490575588.07543,211604450.89511,-121801119.70077,   0.00279,   0.00004,  -0.00230,476318208.00000,   0.00090,275620128.00000,   0.00097,   0.00003,  -0.00072, 160.00000,   2.00000
490221800.94041,210574859.20116,-122079262.56147,   0.00279,   0.00003,  -0.00231,476308032.00000,   0.00090,275622976.00000,   0.00097,   0.00003,  -0.00072,  32.00000,   2.00000
489872757.72154,209548150.33057,-122349836.54119,   0.00280,   0.00003,  -0.00231,476306688.00000,   0.00090,275625792.00000,   0.00098,   0.00003,  -0.00072, -96.00000,   2.00000
489516700.19378,208506594.87787,-122623806.44037,   0.00280,   0.00002,  -0.00232,476296512.00000,   0.00091,275628544.00000,   0.00098,   0.00003,  -0.00073,  96.00000,   2.00000
489159896.43364,207453519.84409,-122894646.78087,   0.00280,   0.00002,  -0.00233,476294400.00000,   0.00091,275631264.00000,   0.00098,   0.00003,  -0.00073,  96.00000,   2.00000
488801236.49455,206399736.68791,-123164454.43235,   0.00281,   0.00002,  -0.00233,476284960.00000,   0.00091,275633952.00000,   0.00099,   0.00003,  -0.00073,  64.00000,   2.00000
488438276.80643,205331896.02672,-123434356.68818,   0.00281,   0.00001,  -0.00234,476271328.00000,   0.00091,275636608.00000,   0.00099,   0.00003,  -0.00073,-128.00000,   2.00000
488071398.59730,204251365.30402,-123704459.97802,   0.00281,   0.00001,  -0.00234,476272224.00000,   0.00092,275639200.00000,   0.00099,   0.00003,  -0.00074,-160.00000,   2.00000
487703456.75385,203157804.05507,-123971477.70364,   0.00282,   0.00000,  -0.00235,476255456.00000,   0.00092,275641760.00000,   0.00099,   0.00003,  -0.00074, -64.00000,   2.00000
487331397.69260,202051472.53097,-124238677.84548,   0.00282,  -0.00000,  -0.00236,476256640.00000,   0.00092,275644288.00000,   0.00099,   0.00003,  -0.00074,  32.00000,   2.00000
486953871.47710,200941706.41635,-124508166.33899,   0.00282,  -0.00001,  -0.00236,476235680.00000,   0.00092,275646720.00000,   0.00100,   0.00003,  -0.00074,   0.00000,   2.00000
486576104.49755,199809329.51240,-124772391.99639,   0.00282,  -0.00001,  -0.00237,476241120.00000,   0.00092,275649184.00000,   0.00100,   0.00003,  -0.00074,   0.00000,   2.00000
486192844.56354,198673451.98746,-125038955.40000,   0.00283,  -0.00002,  -0.00237,476220032.00000,   0.00093,275651552.00000,   0.00100,   0.00003,  -0.00075, -64.00000,   2.00000
485811159.64793,197540698.82746,-125301310.98882,   0.00283,  -0.00002,  -0.00238,476236256.00000,   0.00093,275653952.00000,   0.00100,   0.00003,  -0.00075, 160.00000,   2.00000
485418285.41666,196377425.19174,-125568043.29706,   0.00283,  -0.00003,  -0.00238,476208000.00000,   0.00093,275656256.00000,   0.00101,   0.00003,  -0.00075,  32.00000,   2.00000
485029749.09702,195216788.48908,-125827312.81221,   0.00283,  -0.00003,  -0.00239,476206240.00000,   0.00093,275658528.00000,   0.00101,   0.00003,  -0.00075,  96.00000,   2.00000
484632808.45505,194040572.43170,-126089864.59621,   0.00284,  -0.00004,  -0.00239,476196352.00000,   0.00094,275660768.00000,   0.00101,   0.00003,  -0.00075, -32.00000,   2.00000
484234084.60502,192852489.15168,-126349174.30144,   0.00284,  -0.00004,  -0.00240,476194496.00000,   0.00094,275662976.00000,   0.00101,   0.00003,  -0.00076, -32.00000,   2.00000
483826457.41618,191648696.85985,-126611630.31166,   0.00284,  -0.00005,  -0.00240,476184992.00000,   0.00094,275665120.00000,   0.00101,   0.00003,  -0.00076,  64.00000,   2.00000
483419858.36943,190433987.10630,-126867505.81836,   0.00284,  -0.00005,  -0.00241,476179936.00000,   0.00094,275667264.00000,   0.00102,   0.00003,  -0.00076,   0.00000,   2.00000
483006950.56051,189217033.24982,-127125454.23328,   0.00285,  -0.00006,  -0.00242,476174112.00000,   0.00094,275669376.00000,   0.00102,   0.00003,  -0.00076,  32.00000,   2.00000
482591136.87606,187986209.95777,-127380016.18007,   0.00285,  -0.00006,  -0.00242,476158112.00000,   0.00095,275671424.00000,   0.00102,   0.00003,  -0.00076, -64.00000,   2.00000
482169423.89937,186742334.01529,-127634294.47527,   0.00285,  -0.00007,  -0.00243,476160224.00000,   0.00095,275673472.00000,   0.00102,   0.00002,  -0.00077, -64.00000,   2.00000
481741285.69033,185483436.59756,-127888335.55789,   0.00285,  -0.00007,  -0.00243,476147840.00000,   0.00095,275675456.00000,   0.00102,   0.00002,  -0.00077,  96.00000,   2.00000
481313189.45648,184225996.73851,-128137826.31996,   0.00286,  -0.00008,  -0.00244,476150112.00000,   0.00095,275677440.00000,   0.00103,   0.00002,  -0.00077,   0.00000,   2.00000
480875841.63828,182941756.48767,-128387916.10253,   0.00286,  -0.00008,  -0.00244,476149056.00000,   0.00095,275679392.00000,   0.00103,   0.00002,  -0.00077, -64.00000,   2.00000
480434453.04988,181653797.63893,-128636892.80524,   0.00286,  -0.00009,  -0.00245,476125568.00000,   0.00095,275681280.00000,   0.00103,   0.00002,  -0.00077,  32.00000,   2.00000
479986794.56177,180352533.89620,-128885507.10334,   0.00286,  -0.00009,  -0.00245,476127808.00000,   0.00096,275683168.00000,   0.00103,   0.00002,  -0.00078,-160.00000,   2.00000
479536371.39282,179038915.33912,-129130660.44948,   0.00287,  -0.00010,  -0.00246,476126656.00000,   0.00096,275685024.00000,   0.00103,   0.00002,  -0.00078,  32.00000,   2.00000
479079216.70574,177709605.57389,-129375618.34473,   0.00287,  -0.00010,  -0.00246,476114464.00000,   0.00096,275686816.00000,   0.00103,   0.00002,  -0.00078,   0.00000,   2.00000
478622690.02971,176381487.61459,-129616285.67461,   0.00287,  -0.00011,  -0.00247,476116128.00000,   0.00096,275688640.00000,   0.00104,   0.00002,  -0.00078,   0.00000,   2.00000
478156962.95063,175023778.62427,-129857989.25888,   0.00287,  -0.00011,  -0.00247,476100288.00000,   0.00096,275690368.00000,   0.00104,   0.00002,  -0.00078,  96.00000,   2.00000
477692368.92755,173667080.03290,-130095612.70548,   0.00287,  -0.00012,  -0.00247,476101664.00000,   0.00096,275692096.00000,   0.00104,   0.00002,  -0.00078,   0.00000,   2.00000
477218993.06860,172293367.41735,-130336728.33299,   0.00288,  -0.00012,  -0.00248,476091648.00000,   0.00097,275693760.00000,   0.00104,   0.00002,  -0.00078,   0.00000,   2.00000
476743914.32103,170917283.80406,-130577446.43645,   0.00288,  -0.00013,  -0.00248,476081056.00000,   0.00097,275695392.00000,   0.00104,   0.00002,  -0.00079,  32.00000,   2.00000
476267978.76743,169515360.10228,-130813244.07136,   0.00288,  -0.00014,  -0.00249,476071488.00000,   0.00097,275696960.00000,   0.00104,   0.00002,  -0.00079, -32.00000,   2.00000
475788427.85390,168099642.92029,-131049701.88755,   0.00288,  -0.00014,  -0.00249,476071552.00000,   0.00097,275698528.00000,   0.00104,   0.00002,  -0.00079, 128.00000,   2.00000
475304259.12942,166680502.38179,-131289090.13734,   0.00288,  -0.00015,  -0.00250,476063712.00000,   0.00097,275700064.00000,   0.00105,   0.00002,  -0.00079, -32.00000,   2.00000
474818589.15234,165246017.35694,-131525954.83448,   0.00289,  -0.00015,  -0.00250,476045536.00000,   0.00097,275701504.00000,   0.00105,   0.00002,  -0.00079, -32.00000,   2.00000
474335259.62982,163802031.81838,-131756560.83166,   0.00289,  -0.00016,  -0.00251,476053920.00000,   0.00097,275702944.00000,   0.00105,   0.00002,  -0.00079, 128.00000,   2.00000
473837519.52235,162337499.09245,-131993456.42349,   0.00289,  -0.00017,  -0.00251,476032928.00000,   0.00098,275704320.00000,   0.00105,   0.00002,  -0.00079,  64.00000,   2.00000
473338854.36947,160873980.36444,-132225561.43647,   0.00289,  -0.00017,  -0.00251,476034912.00000,   0.00098,275705728.00000,   0.00105,   0.00002,  -0.00080,   0.00000,   2.00000
472834010.69845,159384528.45336,-132450935.42291,   0.00289,  -0.00018,  -0.00252,476028832.00000,   0.00098,275707072.00000,   0.00105,   0.00002,  -0.00080, -64.00000,   2.00000
472315504.81034,157890832.23125,-132680396.42814,   0.00289,  -0.00018,  -0.00252,476028512.00000,   0.00098,275708448.00000,   0.00105,   0.00002,  -0.00080,  96.00000,   2.00000
471793339.97486,156384891.22904,-132901956.37429,   0.00290,  -0.00019,  -0.00253,476026496.00000,   0.00098,275709792.00000,   0.00106,   0.00002,  -0.00080,  32.00000,   2.00000
471265422.43530,154865933.25615,-133119170.04425,   0.00290,  -0.00020,  -0.00253,476027264.00000,   0.00098,275711136.00000,   0.00106,   0.00002,  -0.00080,   0.00000,   2.00000
470724055.74633,153326315.37211,-133338936.47201,   0.00290,  -0.00020,  -0.00254,476006016.00000,   0.00098,275712416.00000,   0.00106,   0.00002,  -0.00080,   0.00000,   2.00000
470179279.12754,151776431.14384,-133554700.80622,   0.00290,  -0.00021,  -0.00254,476020320.00000,   0.00098,275713728.00000,   0.00106,   0.00002,  -0.00080,   0.00000,   2.00000
469626641.35432,150209509.10306,-133770220.46653,   0.00290,  -0.00021,  -0.00254,476008864.00000,   0.00099,275714976.00000,   0.00106,   0.00002,  -0.00080, 224.00000,   2.00000
469073954.07847,148643298.30461,-133981327.11280,   0.00291,  -0.00022,  -0.00255,476010944.00000,   0.00099,275716256.00000,   0.00106,   0.00002,  -0.00081,   0.00000,   2.00000
468513434.83182,147059933.26404,-134192238.41930,   0.00291,  -0.00023,  -0.00255,475999008.00000,   0.00099,275717440.00000,   0.00106,   0.00002,  -0.00081, 128.00000,   2.00000
467948837.31170,145463176.78583,-134399472.00761,   0.00291,  -0.00023,  -0.00255,475998592.00000,   0.00099,275718656.00000,   0.00106,   0.00002,  -0.00081,  64.00000,   2.00000
467372744.20174,143848387.30248,-134609534.69719,   0.00291,  -0.00024,  -0.00256,475990560.00000,   0.00099,275719808.00000,   0.00106,   0.00002,  -0.00081,  64.00000,   2.00000
466795549.88478,142220865.84526,-134812723.94396,   0.00291,  -0.00025,  -0.00256,475986784.00000,   0.00099,275720960.00000,   0.00107,   0.00002,  -0.00081,  32.00000,   2.00000
466206329.26714,140575146.00175,-135018596.88076,   0.00291,  -0.00025,  -0.00257,475978816.00000,   0.00099,275722048.00000,   0.00107,   0.00002,  -0.00081, -64.00000,   2.00000
465621048.62762,138934148.72257,-135216629.64828,   0.00291,  -0.00026,  -0.00257,475991808.00000,   0.00099,275723200.00000,   0.00107,   0.00002,  -0.00081, -64.00000,   2.00000
465018051.99369,137257299.71888,-135418137.72783,   0.00292,  -0.00027,  -0.00257,475967488.00000,   0.00099,275724256.00000,   0.00107,   0.00002,  -0.00081, -32.00000,   2.00000
464418710.55170,135585215.95760,-135611697.99317,   0.00292,  -0.00027,  -0.00258,475980800.00000,   0.00100,275725344.00000,   0.00107,   0.00002,  -0.00081,  32.00000,   2.00000
463809705.47970,133895400.99160,-135804566.94627,   0.00292,  -0.00028,  -0.00258,475970048.00000,   0.00100,275726400.00000,   0.00107,   0.00002,  -0.00081, 128.00000,   2.00000
463187356.35199,132187067.27995,-135999722.49615,   0.00292,  -0.00029,  -0.00258,475963392.00000,   0.00100,275727392.00000,   0.00107,   0.00002,  -0.00082,  64.00000,   2.00000
462571436.39935,130484220.63861,-136183642.22400,   0.00292,  -0.00029,  -0.00259,475973472.00000,   0.00100,275728448.00000,   0.00107,   0.00002,  -0.00082,   0.00000,   2.00000
461933108.27228,128744225.91727,-136373770.54724,   0.00292,  -0.00030,  -0.00259,475953920.00000,   0.00100,275729440.00000,   0.00107,   0.00002,  -0.00082,   0.00000,   2.00000
461293567.08014,126994861.45319,-136556382.74276,   0.00292,  -0.00031,  -0.00259,475965664.00000,   0.00100,275730432.00000,   0.00107,   0.00002,  -0.00082,  32.00000,   2.00000
460647979.03016,125241618.95237,-136737497.23145,   0.00293,  -0.00031,  -0.00260,475957536.00000,   0.00100,275731424.00000,   0.00107,   0.00001,  -0.00082, 192.00000,   2.00000
459996699.26423,123474591.89503,-136914472.71774,   0.00293,  -0.00032,  -0.00260,475958016.00000,   0.00100,275732416.00000,   0.00108,   0.00001,  -0.00082, -64.00000,   2.00000
459336883.42342,121693232.56700,-137090542.47994,   0.00293,  -0.00033,  -0.00260,475961888.00000,   0.00100,275733408.00000,   0.00108,   0.00001,  -0.00082,  64.00000,   2.00000
458670371.63663,119894155.73588,-137262858.15974,   0.00293,  -0.00033,  -0.00261,475947648.00000,   0.00100,275734336.00000,   0.00108,   0.00001,  -0.00082,  32.00000,   2.00000
457995261.80832,118080685.25268,-137434254.19456,   0.00293,  -0.00034,  -0.00261,475951360.00000,   0.00100,275735264.00000,   0.00108,   0.00001,  -0.00082,  32.00000,   2.00000
457313779.70724,116262992.20381,-137604097.22419,   0.00293,  -0.00035,  -0.00261,475942528.00000,   0.00101,275736160.00000,   0.00108,   0.00001,  -0.00082,-896.00000,   1.00000
456623909.52050,114417412.54581,-137771009.98105,   0.00293,  -0.00036,  -0.00262,475940416.00000,   0.00101,275737056.00000,   0.00108,   0.00001,  -0.00082,  32.00000,   2.00000
455928464.85274,112571620.70021,-137935887.71280,   0.00294,  -0.00036,  -0.00262,475947712.00000,   0.00101,275737952.00000,   0.00108,   0.00001,  -0.00083,   0.00000,   2.00000
455230286.98939,110712523.62457,-138093443.54571,   0.00294,  -0.00037,  -0.00262,475945248.00000,   0.00101,275738848.00000,   0.00108,   0.00001,  -0.00083,  32.00000,   2.00000
454517278.00840,108834251.13427,-138252882.25471,   0.00294,  -0.00038,  -0.00262,475939936.00000,   0.00101,275739744.00000,   0.00108,   0.00001,  -0.00083, -32.00000,   2.00000
453796500.35350,106941907.63239,-138407467.34156,   0.00294,  -0.00039,  -0.00263,475941984.00000,   0.00101,275740608.00000,   0.00108,   0.00001,  -0.00083,-928.00000,   1.00000
453070562.34917,105035890.82803,-138558085.54180,   0.00294,  -0.00039,  -0.00263,475943264.00000,   0.00101,275741504.00000,   0.00108,   0.00001,  -0.00083,  32.00000,   2.00000
452335674.07366,103125178.18973,-138706299.42161,   0.00294,  -0.00040,  -0.00263,475937376.00000,   0.00101,275742336.00000,   0.00108,   0.00001,  -0.00083,-992.00000,   1.00000
451590643.12159,101186299.37191,-138850995.84621,   0.00294,  -0.00041,  -0.00264,475937152.00000,   0.00101,275743200.00000,   0.00109,   0.00001,  -0.00083,  64.00000,   2.00000
450839287.51016,99247298.47227,-138993362.95526,   0.00294,  -0.00042,  -0.00264,475945600.00000,   0.00101,275744064.00000,   0.00109,   0.00001,  -0.00083,  96.00000,   2.00000
450080862.54659,97294311.81849,-139131116.67177,   0.00294,  -0.00042,  -0.00264,475947904.00000,   0.00101,275744960.00000,   0.00109,   0.00001,  -0.00083, -32.00000,   2.00000
449313641.79896,95322686.38563,-139264532.63333,   0.00295,  -0.00043,  -0.00264,475935712.00000,   0.00101,275745792.00000,   0.00109,   0.00001,  -0.00083, -32.00000,   2.00000
448532768.71263,93336245.50286,-139399415.14542,   0.00295,  -0.00044,  -0.00265,475945376.00000,   0.00102,275746656.00000,   0.00109,   0.00001,  -0.00083,   0.00000,   2.00000
447752990.07931,91350659.22026,-139526169.48357,   0.00295,  -0.00045,  -0.00265,475945344.00000,   0.00102,275747520.00000,   0.00109,   0.00001,  -0.00083,-128.00000,   2.00000
446954796.82636,89331296.56134,-139651630.30815,   0.00295,  -0.00045,  -0.00265,475935840.00000,   0.00102,275748352.00000,   0.00109,   0.00001,  -0.00084,-992.00000,   1.00000
446157997.02464,87317489.47469,-139772330.99629,   0.00295,  -0.00046,  -0.00265,475953088.00000,   0.00102,275749248.00000,   0.00109,   0.00001,  -0.00084,   0.00000,   2.00000
445347488.07599,85284340.68994,-139891205.71944,   0.00295,  -0.00047,  -0.00266,475946304.00000,   0.00102,275750112.00000,   0.00109,   0.00001,  -0.00084,  64.00000,   2.00000
444529084.61469,83237200.93093,-140005182.89520,   0.00295,  -0.00048,  -0.00266,475949536.00000,   0.00102,275750976.00000,   0.00109,   0.00001,  -0.00084, 128.00000,   2.00000
443702501.09195,81176079.89855,-140114162.54511,   0.00295,  -0.00049,  -0.00266,475952992.00000,   0.00102,275751840.00000,   0.00109,   0.00001,  -0.00084, 160.00000,   2.00000
442858014.57737,79095191.74765,-140224042.39412,   0.00295,  -0.00049,  -0.00266,475949600.00000,   0.00102,275752704.00000,   0.00109,   0.00001,  -0.00084,-992.00000,   1.00000
442012470.84561,77015060.02273,-140329231.17566,   0.00296,  -0.00050,  -0.00266,475953248.00000,   0.00102,275753600.00000,   0.00109,   0.00001,  -0.00084,   0.00000,   2.00000
441155115.93292,74906621.67719,-140426185.19295,   0.00296,  -0.00051,  -0.00267,475953632.00000,   0.00102,275754464.00000,   0.00109,   0.00001,  -0.00084,  64.00000,   2.00000
440287987.45415,72798324.44624,-140523717.68824,   0.00296,  -0.00052,  -0.00267,475966016.00000,   0.00102,275755392.00000,   0.00110,   0.00001,  -0.00084,  64.00000,   2.00000
439415283.24831,70676384.80300,-140613010.39160,   0.00296,  -0.00053,  -0.00267,475966528.00000,   0.00102,275756320.00000,   0.00110,   0.00001,  -0.00084,  64.00000,   2.00000
438528092.81593,68534903.70128,-140700277.02787,   0.00296,  -0.00054,  -0.00267,475960480.00000,   0.00102,275757216.00000,   0.00110,   0.00001,  -0.00084, -32.00000,   2.00000
437634234.30389,66385063.37515,-140782069.61992,   0.00296,  -0.00054,  -0.00267,475978976.00000,   0.00103,275758208.00000,   0.00110,   0.00001,  -0.00084,-160.00000,   2.00000
436731694.45414,64230237.15224,-140861684.73792,   0.00296,  -0.00055,  -0.00268,475973568.00000,   0.00103,275759168.00000,   0.00110,   0.00001,  -0.00084,  64.00000,   2.00000
435820248.78115,62061576.34232,-140936063.95581,   0.00296,  -0.00056,  -0.00268,475977984.00000,   0.00103,275760128.00000,   0.00110,   0.00001,  -0.00085, -64.00000,   2.00000
434890751.56820,59864353.13223,-141008348.96904,   0.00296,  -0.00057,  -0.00268,475985664.00000,   0.00103,275761120.00000,   0.00110,   0.00001,  -0.00085, -64.00000,   2.00000
433955805.09492,57662163.99869,-141075457.91029,   0.00296,  -0.00058,  -0.00268,475976384.00000,   0.00103,275762080.00000,   0.00110,   0.00001,  -0.00085,  32.00000,   2.00000
433014529.29352,55451975.08140,-141137176.05424,   0.00296,  -0.00059,  -0.00268,475994880.00000,   0.00103,275763104.00000,   0.00110,   0.00001,  -0.00085, -32.00000,   2.00000
432064725.76815,53236637.14077,-141196790.59889,   0.00297,  -0.00060,  -0.00269,475989184.00000,   0.00103,275764096.00000,   0.00110,   0.00001,  -0.00085,   0.00000,   2.00000
431102912.10087,50998858.49588,-141251195.63175,   0.00297,  -0.00060,  -0.00269,476007168.00000,   0.00103,275765184.00000,   0.00110,   0.00000,  -0.00085,  96.00000,   2.00000
430135519.65286,48755968.80740,-141300381.20464,   0.00297,  -0.00061,  -0.00269,475998048.00000,   0.00103,275766208.00000,   0.00111,   0.00000,  -0.00085, -64.00000,   2.00000
429156316.90159,46499291.96560,-141347420.74197,   0.00297,  -0.00062,  -0.00269,476006080.00000,   0.00103,275767296.00000,   0.00111,   0.00000,  -0.00085,   0.00000,   2.00000
428168097.48268,44228926.80149,-141389136.35420,   0.00297,  -0.00063,  -0.00269,476010848.00000,   0.00104,275768384.00000,   0.00111,   0.00000,  -0.00085,  32.00000,   2.00000
427167800.12459,41944897.89190,-141428576.30640,   0.00297,  -0.00064,  -0.00269,476019264.00000,   0.00104,275769504.00000,   0.00111,   0.00000,  -0.00085, -32.00000,   2.00000
426161517.23767,39655672.65165,-141462636.03396,   0.00297,  -0.00065,  -0.00269,476010720.00000,   0.00104,275770560.00000,   0.00111,   0.00000,  -0.00086,-160.00000,   2.00000
425142686.06335,37344556.17501,-141491171.29091,   0.00297,  -0.00066,  -0.00270,476029888.00000,   0.00104,275771712.00000,   0.00111,   0.00000,  -0.00086, 160.00000,   2.00000
424114280.70183,35028281.21057,-141517180.15134,   0.00297,  -0.00067,  -0.00270,476025728.00000,   0.00104,275772864.00000,   0.00111,   0.00000,  -0.00086, -32.00000,   2.00000
423082241.66650,32704966.16565,-141534413.89112,   0.00297,  -0.00067,  -0.00270,476041952.00000,   0.00104,275774048.00000,   0.00111,   0.00000,  -0.00086, 160.00000,   2.00000
422037072.05200,30376608.00724,-141551980.54681,   0.00297,  -0.00068,  -0.00270,476041920.00000,   0.00104,275775264.00000,   0.00111,   0.00000,  -0.00086,-128.00000,   2.00000
420975339.95417,28020395.31925,-141563666.53855,   0.00297,  -0.00069,  -0.00270,476048832.00000,   0.00104,275776480.00000,   0.00111,   0.00000,  -0.00086,-192.00000,   2.00000
419915956.77333,25672141.30332,-141566421.31125,   0.00298,  -0.00070,  -0.00270,476065568.00000,   0.00104,275777792.00000,   0.00112,   0.00000,  -0.00086,  32.00000,   2.00000
418839572.62283,23304281.60445,-141566216.29453,   0.00298,  -0.00071,  -0.00270,476063104.00000,   0.00105,275779072.00000,   0.00112,  -0.00000,  -0.00086,  96.00000,   2.00000
417749406.76711,20923531.06575,-141563001.49909,   0.00298,  -0.00072,  -0.00270,476074368.00000,   0.00105,275780384.00000,   0.00112,  -0.00000,  -0.00086, -32.00000,   2.00000
416648493.23122,18529840.78133,-141553727.72796,   0.00298,  -0.00073,  -0.00271,476082048.00000,   0.00105,275781728.00000,   0.00112,  -0.00000,  -0.00087,  64.00000,   2.00000
415543325.83703,16137861.83811,-141538485.46313,   0.00298,  -0.00074,  -0.00271,476089408.00000,   0.00105,275783104.00000,   0.00112,  -0.00000,  -0.00087, -32.00000,   2.00000
414424304.65466,13733224.22115,-141520206.27519,   0.00298,  -0.00075,  -0.00271,476100992.00000,   0.00105,275784544.00000,   0.00112,  -0.00000,  -0.00087,-128.00000,   2.00000
413297471.44982,11315614.38676,-141492804.72750,   0.00298,  -0.00076,  -0.00271,476105184.00000,   0.00105,275785984.00000,   0.00112,  -0.00000,  -0.00087,-128.00000,   2.00000
412156923.02588,8885469.62371,-141462422.28138,   0.00298,  -0.00077,  -0.00271,476116800.00000,   0.00105,275787488.00000,   0.00112,  -0.00000,  -0.00087,  64.00000,   2.00000
411002419.48818,6442893.51792,-141428965.21357,   0.00298,  -0.00078,  -0.00271,476128640.00000,   0.00105,275789024.00000,   0.00112,  -0.00000,  -0.00087, 160.00000,   2.00000
409846850.25895,4002032.82443,-141386575.46061,   0.00298,  -0.00079,  -0.00271,476132352.00000,   0.00106,275790560.00000,   0.00113,  -0.00001,  -0.00087, -64.00000,   2.00000
408677571.73215,1548860.22976,-141341196.38884,   0.00298,  -0.00080,  -0.00271,476144032.00000,   0.00106,275792160.00000,   0.00113,  -0.00001,  -0.00087, 128.00000,   2.00000
407487753.51693,-923527.12475,-141295758.57883,   0.00298,  -0.00081,  -0.00271,476146208.00000,   0.00106,275793760.00000,   0.00113,  -0.00001,  -0.00088, 160.00000,   2.00000
406303548.56955,-3387034.94577,-141238368.91173,   0.00299,  -0.00081,  -0.00271,476159808.00000,   0.00106,275795392.00000,   0.00113,  -0.00001,  -0.00088,   0.00000,   2.00000
405098417.41225,-5877091.93736,-141177591.09762,   0.00299,  -0.00082,  -0.00271,476173024.00000,   0.00106,275797120.00000,   0.00113,  -0.00001,  -0.00088,  64.00000,   2.00000
403889164.21400,-8364837.35745,-141110856.62744,   0.00299,  -0.00083,  -0.00271,476180800.00000,   0.00106,275798848.00000,   0.00113,  -0.00001,  -0.00088,   0.00000,   2.00000
402668974.92127,-10864759.35503,-141037945.70301,   0.00299,  -0.00084,  -0.00272,476189600.00000,   0.00107,275800608.00000,   0.00113,  -0.00001,  -0.00088,  64.00000,   2.00000
401441788.10899,-13361894.64217,-140962137.07123,   0.00299,  -0.00085,  -0.00272,476201184.00000,   0.00107,275802432.00000,   0.00114,  -0.00001,  -0.00088,  64.00000,   2.00000
400203499.08011,-15871062.07984,-140880069.91885,   0.00299,  -0.00086,  -0.00272,476210304.00000,   0.00107,275804288.00000,   0.00114,  -0.00001,  -0.00089, -96.00000,   2.00000
398951436.65331,-18391846.66128,-140794894.02741,   0.00299,  -0.00087,  -0.00272,476223008.00000,   0.00107,275806176.00000,   0.00114,  -0.00001,  -0.00089,   0.00000,   2.00000
397691041.14229,-20924962.66229,-140700342.63041,   0.00299,  -0.00088,  -0.00272,476228608.00000,   0.00107,275808096.00000,   0.00114,  -0.00001,  -0.00089, 160.00000,   2.00000
396421389.42621,-23454729.93628,-140606191.53810,   0.00299,  -0.00089,  -0.00272,476243776.00000,   0.00107,275810080.00000,   0.00114,  -0.00001,  -0.00089,  32.00000,   2.00000
395143378.47267,-26003850.31148,-140499457.87622,   0.00299,  -0.00090,  -0.00272,476260384.00000,   0.00108,275812096.00000,   0.00114,  -0.00001,  -0.00089, -32.00000,   2.00000
393859647.86416,-28543042.32972,-140393542.13583,   0.00299,  -0.00091,  -0.00272,476260576.00000,   0.00108,275814144.00000,   0.00115,  -0.00002,  -0.00089,  32.00000,   2.00000
392557635.52217,-31108534.92051,-140281049.39434,   0.00299,  -0.00092,  -0.00272,476271328.00000,   0.00108,275816224.00000,   0.00115,  -0.00002,  -0.00090, -32.00000,   2.00000
391259770.67248,-33663977.62662,-140160169.37305,   0.00300,  -0.00093,  -0.00272,476288256.00000,   0.00108,275818368.00000,   0.00115,  -0.00002,  -0.00090, -32.00000,   2.00000
389941294.43391,-36238309.82185,-140039235.80588,   0.00300,  -0.00094,  -0.00272,476291808.00000,   0.00108,275820512.00000,   0.00115,  -0.00002,  -0.00090,   0.00000,   2.00000
388619286.71237,-38816753.61822,-139909375.24310,   0.00300,  -0.00095,  -0.00272,476310720.00000,   0.00109,275822720.00000,   0.00115,  -0.00002,  -0.00090,  64.00000,   2.00000
387291284.73836,-41391909.07426,-139777042.03741,   0.00300,  -0.00096,  -0.00272,476322208.00000,   0.00109,275824992.00000,   0.00115,  -0.00002,  -0.00090,  32.00000,   2.00000
385947991.40713,-43986781.54573,-139638371.00576,   0.00300,  -0.00097,  -0.00272,476318784.00000,   0.00109,275827232.00000,   0.00116,  -0.00002,  -0.00090,  96.00000,   2.00000
384595205.02778,-46584108.74243,-139496784.57119,   0.00300,  -0.00098,  -0.00272,476345888.00000,   0.00109,275829600.00000,   0.00116,  -0.00002,  -0.00091,  96.00000,   2.00000
383241584.80534,-49178754.32767,-139346338.93755,   0.00300,  -0.00100,  -0.00272,476350912.00000,   0.00109,275831968.00000,   0.00116,  -0.00002,  -0.00091, 128.00000,   2.00000
381880982.76243,-51775834.33918,-139189718.74896,   0.00300,  -0.00101,  -0.00272,476374816.00000,   0.00110,275834432.00000,   0.00116,  -0.00003,  -0.00091, -32.00000,   2.00000
380501175.11324,-54391278.98869,-139029331.87584,   0.00300,  -0.00102,  -0.00272,476376704.00000,   0.00110,275836896.00000,   0.00116,  -0.00003,  -0.00091,  96.00000,   2.00000
379114108.10454,-57002047.68348,-138865829.61913,   0.00300,  -0.00103,  -0.00272,476390304.00000,   0.00110,275839424.00000,   0.00117,  -0.00003,  -0.00092,  64.00000,   2.00000
377722119.61348,-59614806.91197,-138692627.02932,   0.00300,  -0.00104,  -0.00272,476412000.00000,   0.00110,275842048.00000,   0.00117,  -0.00003,  -0.00092, -32.00000,   2.00000
376307129.01185,-62244417.13795,-138518193.03114,   0.00300,  -0.00105,  -0.00272,476419168.00000,   0.00111,275844672.00000,   0.00117,  -0.00003,  -0.00092,   0.00000,   2.00000
374897527.78964,-64861758.22318,-138331315.07437,   0.00301,  -0.00106,  -0.00272,476435968.00000,   0.00111,275847392.00000,   0.00117,  -0.00003,  -0.00092,  64.00000,   2.00000
373469440.62343,-67486608.21848,-138143242.27597,   0.00301,  -0.00107,  -0.00272,476457024.00000,   0.00111,275850176.00000,   0.00118,  -0.00003,  -0.00092,  96.00000,   2.00000
372030803.79693,-70120739.67386,-137944466.23289,   0.00301,  -0.00108,  -0.00272,476467808.00000,   0.00111,275853024.00000,   0.00118,  -0.00003,  -0.00093,-128.00000,   2.00000
370592412.62728,-72740274.30034,-137739226.71976,   0.00301,  -0.00109,  -0.00272,476492640.00000,   0.00112,275855968.00000,   0.00118,  -0.00004,  -0.00093,  96.00000,   2.00000
369130241.85342,-75375287.49814,-137531937.01628,   0.00301,  -0.00110,  -0.00272,476502432.00000,   0.00112,275858944.00000,   0.00118,  -0.00004,  -0.00093,  64.00000,   2.00000
367671244.83592,-77995986.34011,-137314872.67289,   0.00301,  -0.00111,  -0.00272,476524096.00000,   0.00112,275862016.00000,   0.00119,  -0.00004,  -0.00093, -96.00000,   2.00000
366199833.19686,-80624635.76436,-137089999.46257,   0.00301,  -0.00112,  -0.00272,476539616.00000,   0.00112,275865120.00000,   0.00119,  -0.00004,  -0.00094, 224.00000,   2.00000
364715902.02641,-83261095.09383,-136857125.40136,   0.00301,  -0.00113,  -0.00272,476555520.00000,   0.00113,275868320.00000,   0.00119,  -0.00004,  -0.00094,   0.00000,   2.00000
363223155.60450,-85889857.25207,-136623411.93374,   0.00301,  -0.00114,  -0.00272,476575584.00000,   0.00113,275871584.00000,   0.00119,  -0.00004,  -0.00094, -64.00000,   2.00000
361721556.26154,-88527584.01324,-136378757.31825,   0.00301,  -0.00115,  -0.00272,476587936.00000,   0.00113,275874880.00000,   0.00120,  -0.00005,  -0.00094,   0.00000,   2.00000
360222997.10928,-91150393.67616,-136127717.15550,   0.00302,  -0.00117,  -0.00272,476613312.00000,   0.00114,275878304.00000,   0.00120,  -0.00005,  -0.00095,  64.00000,   2.00000
358713742.67583,-93781683.12962,-135869009.32379,   0.00302,  -0.00118,  -0.00272,476629248.00000,   0.00114,275881728.00000,   0.00120,  -0.00005,  -0.00095,   0.00000,   2.00000
357191666.87950,-96420784.65963,-135605901.94380,   0.00302,  -0.00119,  -0.00272,476648640.00000,   0.00114,275885248.00000,   0.00120,  -0.00005,  -0.00095,  32.00000,   2.00000
355668044.47008,-99055076.15865,-135336395.14997,   0.00302,  -0.00120,  -0.00272,476661216.00000,   0.00115,275888800.00000,   0.00121,  -0.00005,  -0.00096, 128.00000,   2.00000
354131993.94980,-101697583.85804,-135062810.74039,   0.00302,  -0.00121,  -0.00272,476680480.00000,   0.00115,275892416.00000,   0.00121,  -0.00006,  -0.00096, 128.00000,   2.00000
352603208.15760,-104327098.91838,-134780647.87224,   0.00302,  -0.00122,  -0.00271,476701408.00000,   0.00115,275896064.00000,   0.00121,  -0.00006,  -0.00096,  32.00000,   2.00000
351061997.93596,-106965023.51216,-134494808.15407,   0.00302,  -0.00123,  -0.00271,476720480.00000,   0.00116,275899808.00000,   0.00122,  -0.00006,  -0.00097,   0.00000,   2.00000
349519219.78107,-109598634.36431,-134203386.21168,   0.00302,  -0.00124,  -0.00271,476732416.00000,   0.00116,275903552.00000,   0.00122,  -0.00006,  -0.00097, -64.00000,   2.00000
347974754.46449,-112232855.89453,-133903029.76695,   0.00302,  -0.00125,  -0.00271,476756416.00000,   0.00116,275907392.00000,   0.00122,  -0.00006,  -0.00097, -96.00000,   2.00000
346416650.48335,-114870008.62569,-133603001.92709,   0.00303,  -0.00126,  -0.00271,476763168.00000,   0.00117,275911232.00000,   0.00122,  -0.00007,  -0.00098, -32.00000,   2.00000
344853571.67492,-117506027.12926,-133297393.37172,   0.00303,  -0.00128,  -0.00271,476791136.00000,   0.00117,275915168.00000,   0.00123,  -0.00007,  -0.00098, 160.00000,   2.00000
343289388.39180,-120137388.18208,-132983450.35170,   0.00303,  -0.00129,  -0.00271,476799648.00000,   0.00117,275919136.00000,   0.00123,  -0.00007,  -0.00098,  96.00000,   2.00000
341716621.60571,-122765186.12012,-132667055.78562,   0.00303,  -0.00130,  -0.00271,476831936.00000,   0.00118,275923200.00000,   0.00123,  -0.00007,  -0.00099,  32.00000,   2.00000
340130575.85076,-125399365.31029,-132344314.79081,   0.00303,  -0.00131,  -0.00271,476848736.00000,   0.00118,275927360.00000,   0.00124,  -0.00008,  -0.00099,  96.00000,   2.00000
338539532.61372,-128025606.06892,-132016169.52763,   0.00303,  -0.00132,  -0.00271,476862144.00000,   0.00119,275931552.00000,   0.00124,  -0.00008,  -0.00099, 192.00000,   2.00000
336940534.42340,-130641956.52063,-131685511.86346,   0.00303,  -0.00133,  -0.00271,476879872.00000,   0.00119,275935808.00000,   0.00124,  -0.00008,  -0.00100,  96.00000,   2.00000
335336159.64727,-133253440.83411,-131345648.21294,   0.00303,  -0.00134,  -0.00271,476906720.00000,   0.00119,275940192.00000,   0.00125,  -0.00008,  -0.00100,  32.00000,   2.00000
333714702.19211,-135862853.17510,-131005395.71581,   0.00303,  -0.00135,  -0.00271,476916320.00000,   0.00120,275944608.00000,   0.00125,  -0.00009,  -0.00100,-128.00000,   2.00000
332097455.57582,-138457982.67407,-130653468.06686,   0.00304,  -0.00137,  -0.00270,476951264.00000,   0.00120,275949184.00000,   0.00125,  -0.00009,  -0.00101,   0.00000,   2.00000
330464427.08810,-141052120.08642,-130301157.09605,   0.00304,  -0.00138,  -0.00270,476959552.00000,   0.00121,275953792.00000,   0.00126,  -0.00009,  -0.00101,  64.00000,   2.00000
328828959.75251,-143643731.26927,-129939796.59101,   0.00304,  -0.00139,  -0.00270,476982880.00000,   0.00121,275958496.00000,   0.00126,  -0.00009,  -0.00101,  32.00000,   2.00000
327190057.25968,-146229048.96046,-129576584.14335,   0.00304,  -0.00140,  -0.00270,476994880.00000,   0.00122,275963232.00000,   0.00127,  -0.00010,  -0.00102,  96.00000,   2.00000
325539444.22785,-148818202.31214,-129207752.55796,   0.00304,  -0.00141,  -0.00270,477010080.00000,   0.00122,275968032.00000,   0.00127,  -0.00010,  -0.00102,  32.00000,   2.00000
323886244.33049,-151376868.35790,-128834416.58694,   0.00304,  -0.00142,  -0.00270,477044448.00000,   0.00122,275972992.00000,   0.00127,  -0.00010,  -0.00102,  32.00000,   2.00000
322218296.96795,-153912808.85520,-128457167.38849,   0.00304,  -0.00143,  -0.00270,477075456.00000,   0.00123,275978080.00000,   0.00128,  -0.00011,  -0.00103,  32.00000,   2.00000
320534805.38899,-156451606.75229,-128072141.11001,   0.00305,  -0.00145,  -0.00270,477096704.00000,   0.00123,275983296.00000,   0.00128,  -0.00011,  -0.00103,  32.00000,   2.00000
318861814.75560,-158981496.60715,-127680441.35244,   0.00305,  -0.00146,  -0.00270,477108512.00000,   0.00124,275988512.00000,   0.00129,  -0.00011,  -0.00104, -32.00000,   2.00000
317181838.12833,-161527156.78505,-127287509.10925,   0.00305,  -0.00147,  -0.00269,477115360.00000,   0.00124,275993728.00000,   0.00129,  -0.00012,  -0.00104,-128.00000,   2.00000
315506339.22084,-164075911.42520,-126891517.48313,   0.00305,  -0.00148,  -0.00269,477115072.00000,   0.00125,275998944.00000,   0.00129,  -0.00012,  -0.00104,   0.00000,   2.00000
313841257.78307,-166613555.17313,-126493172.01592,   0.00305,  -0.00149,  -0.00269,477130048.00000,   0.00125,276004192.00000,   0.00130,  -0.00012,  -0.00105, 128.00000,   2.00000
312165253.22307,-169156490.03822,-126092354.00876,   0.00305,  -0.00150,  -0.00269,477148032.00000,   0.00126,276009472.00000,   0.00130,  -0.00013,  -0.00105, 128.00000,   2.00000
310496219.37553,-171678120.94225,-125683752.66136,   0.00305,  -0.00152,  -0.00269,477172096.00000,   0.00126,276014880.00000,   0.00131,  -0.00013,  -0.00106,  64.00000,   2.00000
308801525.20181,-174208163.91958,-125273026.02415,   0.00306,  -0.00153,  -0.00269,477190816.00000,   0.00127,276020320.00000,   0.00131,  -0.00013,  -0.00106,  96.00000,   2.00000
307123472.92193,-176707109.43567,-124856684.93208,   0.00306,  -0.00154,  -0.00269,477207296.00000,   0.00127,276025856.00000,   0.00131,  -0.00014,  -0.00106, 128.00000,   2.00000
305431621.01721,-179203880.88441,-124434362.41394,   0.00306,  -0.00155,  -0.00269,477247872.00000,   0.00128,276031520.00000,   0.00132,  -0.00014,  -0.00107, -96.00000,   2.00000
303742132.65983,-181681477.56491,-124010851.68492,   0.00306,  -0.00156,  -0.00268,477265408.00000,   0.00128,276037248.00000,   0.00132,  -0.00014,  -0.00107, 128.00000,   2.00000
302049545.11596,-184192057.66447,-123583682.25831,   0.00306,  -0.00157,  -0.00268,477263936.00000,   0.00129,276042880.00000,   0.00133,  -0.00015,  -0.00108,   0.00000,   2.00000
300378695.64223,-186709595.11265,-123153550.77467,   0.00306,  -0.00159,  -0.00268,477259456.00000,   0.00129,276048448.00000,   0.00133,  -0.00015,  -0.00108, -64.00000,   2.00000
298710455.87407,-189221005.48909,-122722505.98809,   0.00306,  -0.00160,  -0.00268,477268160.00000,   0.00130,276054016.00000,   0.00134,  -0.00016,  -0.00108, -64.00000,   2.00000
297027469.12328,-191721417.80796,-122286058.17956,   0.00307,  -0.00161,  -0.00268,477299808.00000,   0.00131,276059744.00000,   0.00134,  -0.00016,  -0.00109,  32.00000,   2.00000
295346539.13803,-194181328.84361,-121838790.23356,   0.00307,  -0.00162,  -0.00268,477340320.00000,   0.00131,276065632.00000,   0.00135,  -0.00016,  -0.00109, 128.00000,   2.00000
293655493.98324,-196609343.78577,-121386424.79565,   0.00307,  -0.00163,  -0.00268,477376640.00000,   0.00132,276071712.00000,   0.00135,  -0.00017,  -0.00110,   0.00000,   2.00000
291957224.97588,-199015205.91521,-120926997.56907,   0.00307,  -0.00165,  -0.00267,477420032.00000,   0.00132,276077952.00000,   0.00136,  -0.00017,  -0.00110, -64.00000,   2.00000
290255520.07610,-201406283.45336,-120461865.39725,   0.00307,  -0.00166,  -0.00267,477440000.00000,   0.00133,276084288.00000,   0.00136,  -0.00018,  -0.00111, 160.00000,   2.00000
288550268.38821,-203787572.45746,-119995391.63443,   0.00307,  -0.00167,  -0.00267,477457408.00000,   0.00133,276090688.00000,   0.00136,  -0.00018,  -0.00111, -32.00000,   2.00000
286854955.83608,-206154488.65914,-119523163.06746,   0.00308,  -0.00168,  -0.00267,477475200.00000,   0.00134,276097120.00000,   0.00137,  -0.00018,  -0.00112,  96.00000,   2.00000
285157689.43976,-208516085.90912,-119050706.25467,   0.00308,  -0.00169,  -0.00267,477487488.00000,   0.00135,276103584.00000,   0.00137,  -0.00019,  -0.00112, 128.00000,   2.00000
283460990.16705,-210875788.12053,-118571470.68514,   0.00308,  -0.00171,  -0.00267,477509472.00000,   0.00135,276110112.00000,   0.00138,  -0.00019,  -0.00112, 128.00000,   2.00000
281760576.74561,-213227634.26027,-118095554.76362,   0.00308,  -0.00172,  -0.00266,477524960.00000,   0.00136,276116672.00000,   0.00138,  -0.00020,  -0.00113, 128.00000,   2.00000
280070275.86217,-215563809.34360,-117614219.00495,   0.00308,  -0.00173,  -0.00266,477542144.00000,   0.00136,276123328.00000,   0.00139,  -0.00020,  -0.00113, -32.00000,   2.00000
278370071.89954,-217904878.34425,-117127700.57533,   0.00309,  -0.00174,  -0.00266,477558496.00000,   0.00137,276130016.00000,   0.00139,  -0.00021,  -0.00114,  64.00000,   2.00000
276677672.91814,-220224922.30828,-116642185.49471,   0.00309,  -0.00175,  -0.00266,477567200.00000,   0.00138,276136704.00000,   0.00140,  -0.00021,  -0.00114, 128.00000,   2.00000
274984245.77826,-222537072.70250,-116152837.60333,   0.00309,  -0.00177,  -0.00266,477595328.00000,   0.00138,276143488.00000,   0.00140,  -0.00022,  -0.00115,  32.00000,   2.00000
273290937.62402,-224839952.05197,-115659307.97135,   0.00309,  -0.00178,  -0.00266,477608352.00000,   0.00139,276150336.00000,   0.00141,  -0.00022,  -0.00115,  32.00000,   2.00000
271606792.34375,-227121896.85079,-115163227.86416,   0.00309,  -0.00179,  -0.00265,477631968.00000,   0.00140,276157248.00000,   0.00142,  -0.00023,  -0.00116,  96.00000,   2.00000
269921307.39966,-229391971.01085,-114666173.43167,   0.00310,  -0.00180,  -0.00265,477649376.00000,   0.00140,276164224.00000,   0.00142,  -0.00023,  -0.00116,  96.00000,   2.00000
268236297.28342,-231651223.79141,-114164623.41675,   0.00310,  -0.00181,  -0.00265,477664448.00000,   0.00141,276171232.00000,   0.00143,  -0.00024,  -0.00117,  32.00000,   2.00000
266551280.60956,-233899780.13728,-113658922.19554,   0.00310,  -0.00183,  -0.00265,477695904.00000,   0.00142,276178336.00000,   0.00143,  -0.00024,  -0.00117,  32.00000,   2.00000
264885698.29021,-236114323.51940,-113151991.55730,   0.00310,  -0.00184,  -0.00265,477715456.00000,   0.00142,276185504.00000,   0.00144,  -0.00025,  -0.00118, 128.00000,   2.00000
263211106.41017,-238328989.11856,-112639103.83944,   0.00310,  -0.00185,  -0.00264,477737600.00000,   0.00143,276192736.00000,   0.00144,  -0.00025,  -0.00118, -64.00000,   2.00000
261535755.29103,-240531017.65288,-112125317.88100,   0.00311,  -0.00186,  -0.00264,477756480.00000,   0.00144,276200032.00000,   0.00145,  -0.00026,  -0.00118, 128.00000,   2.00000
259870437.39487,-242710781.11722,-111609074.94670,   0.00311,  -0.00187,  -0.00264,477782240.00000,   0.00144,276207424.00000,   0.00145,  -0.00026,  -0.00119,-128.00000,   2.00000
258216894.08263,-244870210.87529,-111087051.05419,   0.00311,  -0.00189,  -0.00264,477804704.00000,   0.00145,276214848.00000,   0.00146,  -0.00027,  -0.00119, -32.00000,   2.00000
256561201.48280,-247016571.74675,-110567965.77725,   0.00311,  -0.00190,  -0.00264,477825920.00000,   0.00146,276222368.00000,   0.00146,  -0.00027,  -0.00120, 192.00000,   2.00000
254907879.60435,-249154694.09872,-110041339.82061,   0.00312,  -0.00191,  -0.00263,477838272.00000,   0.00146,276229888.00000,   0.00147,  -0.00028,  -0.00120,  64.00000,   2.00000
253263378.84343,-251270694.42889,-109516261.90693,   0.00312,  -0.00192,  -0.00263,477865248.00000,   0.00147,276237472.00000,   0.00148,  -0.00028,  -0.00121,  64.00000,   2.00000
251619851.89659,-253377890.68370,-108987352.26173,   0.00312,  -0.00193,  -0.00263,477879456.00000,   0.00148,276245120.00000,   0.00148,  -0.00029,  -0.00121, -32.00000,   2.00000
249986903.07630,-255465240.63070,-108456668.55450,   0.00312,  -0.00195,  -0.00263,477902752.00000,   0.00149,276252832.00000,   0.00149,  -0.00030,  -0.00122,   0.00000,   2.00000
248345287.83727,-257555291.12855,-107920736.41036,   0.00312,  -0.00196,  -0.00263,477922880.00000,   0.00149,276260576.00000,   0.00149,  -0.00030,  -0.00122,   0.00000,   2.00000
246722956.99247,-259613386.51627,-107388221.32724,   0.00313,  -0.00197,  -0.00262,477941440.00000,   0.00150,276268384.00000,   0.00150,  -0.00031,  -0.00123,  32.00000,   2.00000
245103376.91959,-261664733.19995,-106848429.50749,   0.00313,  -0.00198,  -0.00262,477952000.00000,   0.00151,276276192.00000,   0.00150,  -0.00031,  -0.00123, -32.00000,   2.00000
243493649.31531,-263694788.87321,-106310553.96016,   0.00313,  -0.00199,  -0.00262,477976992.00000,   0.00151,276284096.00000,   0.00151,  -0.00032,  -0.00124,  64.00000,   2.00000
241884162.48633,-265714520.28669,-105772460.74767,   0.00313,  -0.00201,  -0.00262,477993088.00000,   0.00152,276292032.00000,   0.00152,  -0.00033,  -0.00124,  64.00000,   2.00000
240278126.76958,-267725986.97664,-105227650.26057,   0.00314,  -0.00202,  -0.00262,478019744.00000,   0.00153,276300064.00000,   0.00152,  -0.00033,  -0.00125,  64.00000,   2.00000
238682568.89128,-269715387.44469,-104684122.80772,   0.00314,  -0.00203,  -0.00261,478029344.00000,   0.00154,276308096.00000,   0.00153,  -0.00034,  -0.00125, 192.00000,   2.00000
237100633.10520,-271684610.30517,-104135370.85382,   0.00314,  -0.00204,  -0.00261,478049888.00000,   0.00154,276316192.00000,   0.00153,  -0.00034,  -0.00126, -32.00000,   2.00000
235518350.40201,-273639783.29621,-103589915.90994,   0.00314,  -0.00205,  -0.00261,478069760.00000,   0.00155,276324320.00000,   0.00154,  -0.00035,  -0.00126, -32.00000,   2.00000
233938795.41991,-275583670.81893,-103040697.29394,   0.00315,  -0.00207,  -0.00261,478084768.00000,   0.00156,276332512.00000,   0.00154,  -0.00036,  -0.00127,  96.00000,   2.00000
232394644.74440,-277485579.95658,-102486538.12775,   0.00315,  -0.00208,  -0.00261,478105344.00000,   0.00157,276340736.00000,   0.00155,  -0.00036,  -0.00127,   0.00000,   2.00000
230829349.39776,-279392752.05318,-101935688.96537,   0.00315,  -0.00209,  -0.00260,478127232.00000,   0.00157,276349024.00000,   0.00156,  -0.00037,  -0.00128, 256.00000,   2.00000
229289944.30613,-281268080.61664,-101378574.58417,   0.00315,  -0.00210,  -0.00260,478155136.00000,   0.00158,276357408.00000,   0.00156,  -0.00038,  -0.00128,   0.00000,   2.00000
227761779.51637,-283119731.72366,-100823159.23603,   0.00316,  -0.00211,  -0.00260,478166240.00000,   0.00159,276365792.00000,   0.00157,  -0.00038,  -0.00129, 160.00000,   2.00000
226225166.08328,-284968595.96347,-100266449.62754,   0.00316,  -0.00213,  -0.00260,478191776.00000,   0.00160,276374272.00000,   0.00158,  -0.00039,  -0.00129, -32.00000,   2.00000
224711229.30494,-286785000.45681,-99710433.36919,   0.00316,  -0.00214,  -0.00259,478208224.00000,   0.00161,276382784.00000,   0.00158,  -0.00040,  -0.00130, 128.00000,   2.00000
223199447.90298,-288591374.61705,-99151347.91262,   0.00317,  -0.00215,  -0.00259,478223168.00000,   0.00161,276391328.00000,   0.00159,  -0.00040,  -0.00130, 128.00000,   2.00000
221700082.81462,-290377304.14630,-98591730.93583,   0.00317,  -0.00216,  -0.00259,478245984.00000,   0.00162,276399904.00000,   0.00159,  -0.00041,  -0.00131, -32.00000,   2.00000
220201060.68022,-292153822.43785,-98032983.29295,   0.00317,  -0.00217,  -0.00259,478262240.00000,   0.00163,276408544.00000,   0.00160,  -0.00042,  -0.00131,  32.00000,   2.00000
218723570.85561,-293902252.68131,-97475539.49686,   0.00317,  -0.00219,  -0.00259,478276128.00000,   0.00164,276417184.00000,   0.00161,  -0.00042,  -0.00132,  96.00000,   2.00000
217247828.74225,-295644058.98879,-96916504.66353,   0.00318,  -0.00220,  -0.00258,478304064.00000,   0.00165,276425920.00000,   0.00161,  -0.00043,  -0.00132, -32.00000,   2.00000
215782385.58160,-297371792.87362,-96356595.66222,   0.00318,  -0.00221,  -0.00258,478307808.00000,   0.00165,276434624.00000,   0.00162,  -0.00044,  -0.00133,  64.00000,   2.00000
214316060.69348,-299094718.26498,-95797982.55431,   0.00318,  -0.00222,  -0.00258,478321216.00000,   0.00166,276443328.00000,   0.00162,  -0.00044,  -0.00133,  64.00000,   2.00000
212860945.24239,-300803343.03646,-95239569.75805,   0.00319,  -0.00223,  -0.00258,478340000.00000,   0.00167,276452096.00000,   0.00163,  -0.00045,  -0.00134, -32.00000,   2.00000
211428407.56301,-302488400.34308,-94679179.75330,   0.00319,  -0.00225,  -0.00257,478348896.00000,   0.00168,276460864.00000,   0.00164,  -0.00046,  -0.00134,   0.00000,   2.00000
209985661.02798,-304174341.09691,-94122232.46438,   0.00319,  -0.00226,  -0.00257,478373216.00000,   0.00169,276469696.00000,   0.00164,  -0.00046,  -0.00135, 256.00000,   2.00000
208567668.54610,-305830867.19574,-93563061.00864,   0.00320,  -0.00227,  -0.00257,478384800.00000,   0.00170,276478528.00000,   0.00165,  -0.00047,  -0.00135, 192.00000,   2.00000
207162731.55835,-307462376.58249,-93006358.56942,   0.00320,  -0.00228,  -0.00257,478395104.00000,   0.00170,276487392.00000,   0.00166,  -0.00048,  -0.00136,  96.00000,   2.00000
205764336.52990,-309075324.52847,-92447898.52710,   0.00320,  -0.00229,  -0.00256,478427936.00000,   0.00171,276496352.00000,   0.00166,  -0.00049,  -0.00136,  96.00000,   2.00000
204380073.12286,-310659412.93172,-91891702.20137,   0.00320,  -0.00231,  -0.00256,478440256.00000,   0.00172,276505344.00000,   0.00167,  -0.00049,  -0.00137, 128.00000,   2.00000
203012290.31541,-312218719.07771,-91331362.09931,   0.00321,  -0.00232,  -0.00256,478462208.00000,   0.00173,276514368.00000,   0.00168,  -0.00050,  -0.00137,   0.00000,   2.00000
201654834.69453,-313756700.43493,-90776777.08443,   0.00321,  -0.00233,  -0.00256,478472320.00000,   0.00174,276523424.00000,   0.00168,  -0.00051,  -0.00138,  32.00000,   2.00000
200300588.41408,-315292169.81374,-90216248.24026,   0.00321,  -0.00234,  -0.00255,478495520.00000,   0.00175,276532544.00000,   0.00169,  -0.00052,  -0.00138, 160.00000,   2.00000
198966241.22659,-316808177.60816,-89659516.89672,   0.00322,  -0.00235,  -0.00255,478489792.00000,   0.00175,276541568.00000,   0.00169,  -0.00052,  -0.00139,  64.00000,   2.00000
197639253.01569,-318317406.90710,-89098296.27070,   0.00322,  -0.00236,  -0.00255,478514624.00000,   0.00176,276550688.00000,   0.00170,  -0.00053,  -0.00139, -32.00000,   2.00000
196339012.05891,-319788375.14854,-88543161.22619,   0.00322,  -0.00238,  -0.00255,478535136.00000,   0.00177,276559840.00000,   0.00171,  -0.00054,  -0.00140,  64.00000,   2.00000
195037656.45168,-321250675.44574,-87986331.87532,   0.00323,  -0.00239,  -0.00254,478554656.00000,   0.00178,276569024.00000,   0.00171,  -0.00055,  -0.00140, 192.00000,   2.00000
193753427.82992,-322710950.72020,-87420971.66546,   0.00323,  -0.00240,  -0.00254,478553248.00000,   0.00179,276578144.00000,   0.00172,  -0.00055,  -0.00141,  64.00000,   2.00000
192469921.05272,-324193435.82074,-86849998.43121,   0.00323,  -0.00241,  -0.00254,478547072.00000,   0.00180,276587200.00000,   0.00173,  -0.00056,  -0.00141,  96.00000,   2.00000
191206462.94935,-325678315.04980,-86272235.89605,   0.00324,  -0.00242,  -0.00254,478551264.00000,   0.00181,276596224.00000,   0.00173,  -0.00057,  -0.00142,  32.00000,   2.00000
189961533.88390,-327159905.86082,-85689249.88509,   0.00324,  -0.00243,  -0.00253,478547872.00000,   0.00181,276605184.00000,   0.00174,  -0.00058,  -0.00142,  64.00000,   2.00000
188738334.33308,-328628300.82430,-85101698.67520,   0.00324,  -0.00245,  -0.00253,478562048.00000,   0.00182,276614144.00000,   0.00175,  -0.00058,  -0.00143,   0.00000,   2.00000
187541447.09103,-330041041.88123,-84522595.95989,   0.00325,  -0.00246,  -0.00253,478579392.00000,   0.00183,276623136.00000,   0.00175,  -0.00059,  -0.00143, 288.00000,   2.00000
186375826.92389,-331343388.97427,-83968728.45872,   0.00325,  -0.00247,  -0.00253,478648128.00000,   0.00184,276632448.00000,   0.00176,  -0.00060,  -0.00144, 128.00000,   2.00000
185217288.34989,-332581304.68009,-83418664.44151,   0.00326,  -0.00248,  -0.00252,478700992.00000,   0.00185,276641952.00000,   0.00176,  -0.00061,  -0.00144,  64.00000,   2.00000
184078470.00340,-333799599.23837,-82861377.39028,   0.00326,  -0.00249,  -0.00252,478711648.00000,   0.00186,276651488.00000,   0.00177,  -0.00061,  -0.00144,  64.00000,   2.00000
182964151.38671,-335013581.54981,-82298866.40268,   0.00326,  -0.00250,  -0.00252,478704832.00000,   0.00187,276660928.00000,   0.00178,  -0.00062,  -0.00145,  32.00000,   2.00000
181855762.09902,-336227513.87106,-81735843.52577,   0.00327,  -0.00252,  -0.00252,478708640.00000,   0.00188,276670368.00000,   0.00178,  -0.00063,  -0.00145,  32.00000,   2.00000
180766421.98408,-337420281.86579,-81174380.81198,   0.00327,  -0.00253,  -0.00251,478726208.00000,   0.00188,276679840.00000,   0.00179,  -0.00064,  -0.00146,  64.00000,   2.00000
179691220.80364,-338590428.12505,-80617432.06660,   0.00327,  -0.00254,  -0.00251,478734240.00000,   0.00189,276689312.00000,   0.00180,  -0.00065,  -0.00146,   0.00000,   2.00000
178640960.96732,-339731528.63644,-80063803.11106,   0.00328,  -0.00255,  -0.00251,478746656.00000,   0.00190,276698784.00000,   0.00180,  -0.00066,  -0.00147, 192.00000,   2.00000
177592001.20651,-340867100.64155,-79508328.54622,   0.00328,  -0.00256,  -0.00251,478759424.00000,   0.00191,276708256.00000,   0.00181,  -0.00066,  -0.00147, 128.00000,   2.00000
176564397.03374,-341981655.65006,-78955127.45838,   0.00329,  -0.00257,  -0.00250,478768032.00000,   0.00192,276717760.00000,   0.00182,  -0.00067,  -0.00148,  64.00000,   2.00000
175534023.64875,-343094294.57386,-78407088.38095,   0.00329,  -0.00258,  -0.00250,478781344.00000,   0.00193,276727232.00000,   0.00182,  -0.00068,  -0.00148, 128.00000,   2.00000
174524064.42651,-344191406.83981,-77857354.02666,   0.00329,  -0.00259,  -0.00250,478785376.00000,   0.00194,276736704.00000,   0.00183,  -0.00069,  -0.00149, -64.00000,   2.00000
173524011.65971,-345280212.32958,-77308492.60257,   0.00330,  -0.00261,  -0.00250,478799840.00000,   0.00195,276746176.00000,   0.00183,  -0.00070,  -0.00149, 192.00000,   2.00000
172530518.61519,-346361486.03911,-76763062.64261,   0.00330,  -0.00262,  -0.00249,478800960.00000,   0.00196,276755648.00000,   0.00184,  -0.00070,  -0.00150,  64.00000,   2.00000
171556685.96500,-347424661.84263,-76220619.17018,   0.00331,  -0.00263,  -0.00249,478807136.00000,   0.00196,276765056.00000,   0.00185,  -0.00071,  -0.00150, 128.00000,   2.00000
170581220.00516,-348488005.57619,-75676970.06727,   0.00331,  -0.00264,  -0.00249,478815648.00000,   0.00197,276774496.00000,   0.00185,  -0.00072,  -0.00150,  64.00000,   2.00000
169625381.80458,-349529416.82426,-75140695.41327,   0.00331,  -0.00265,  -0.00249,478824640.00000,   0.00198,276783936.00000,   0.00186,  -0.00073,  -0.00151,  96.00000,   2.00000
168668092.23954,-350567544.07224,-74607511.93787,   0.00332,  -0.00266,  -0.00248,478836384.00000,   0.00199,276793376.00000,   0.00187,  -0.00074,  -0.00151, 160.00000,   2.00000
167732718.21983,-351584888.85944,-74074332.54496,   0.00332,  -0.00267,  -0.00248,478842464.00000,   0.00200,276802784.00000,   0.00187,  -0.00075,  -0.00152, 288.00000,   2.00000
166805250.42103,-352587693.34517,-73549580.38005,   0.00333,  -0.00268,  -0.00248,478848064.00000,   0.00201,276812192.00000,   0.00188,  -0.00075,  -0.00152,  96.00000,   2.00000
165890773.50653,-353577348.72018,-73023428.25961,   0.00333,  -0.00269,  -0.00248,478863168.00000,   0.00202,276821632.00000,   0.00189,  -0.00076,  -0.00153, 128.00000,   2.00000
164994963.78165,-354545378.50895,-72503097.48627,   0.00333,  -0.00271,  -0.00247,478858368.00000,   0.00203,276831008.00000,   0.00189,  -0.00077,  -0.00153,  64.00000,   2.00000
164101473.83626,-355505631.29859,-71987500.03565,   0.00334,  -0.00272,  -0.00247,478886208.00000,   0.00204,276840448.00000,   0.00190,  -0.00078,  -0.00153,  96.00000,   2.00000
163240504.82676,-356436375.61830,-71472835.77637,   0.00334,  -0.00273,  -0.00247,478884064.00000,   0.00204,276849856.00000,   0.00190,  -0.00079,  -0.00154, 128.00000,   2.00000
162379431.29714,-357362454.32815,-70960821.75690,   0.00335,  -0.00274,  -0.00246,478896640.00000,   0.00205,276859264.00000,   0.00191,  -0.00080,  -0.00154, 160.00000,   2.00000
161540775.77820,-358266308.10732,-70451947.58838,   0.00335,  -0.00275,  -0.00246,478904832.00000,   0.00206,276868640.00000,   0.00192,  -0.00080,  -0.00155, 192.00000,   2.00000
160711780.90585,-359157860.57981,-69946748.95430,   0.00336,  -0.00276,  -0.00246,478908384.00000,   0.00207,276878016.00000,   0.00192,  -0.00081,  -0.00155, 128.00000,   2.00000
159892489.09559,-360037220.28202,-69445048.12172,   0.00336,  -0.00277,  -0.00246,478911840.00000,   0.00208,276887360.00000,   0.00193,  -0.00082,  -0.00155, 128.00000,   2.00000
159099762.47142,-360894677.76851,-68940204.06224,   0.00336,  -0.00278,  -0.00245,478931392.00000,   0.00209,276896736.00000,   0.00194,  -0.00083,  -0.00156, 160.00000,   2.00000
158303386.90294,-361748611.58932,-68443218.27405,   0.00337,  -0.00279,  -0.00245,478931872.00000,   0.00210,276906080.00000,   0.00194,  -0.00084,  -0.00156, 192.00000,   2.00000
157542753.49466,-362571581.01823,-67948116.53809,   0.00337,  -0.00280,  -0.00245,478944064.00000,   0.00211,276915424.00000,   0.00195,  -0.00084,  -0.00157, 192.00000,   2.00000
156782484.46379,-363390705.00824,-67454815.08546,   0.00338,  -0.00281,  -0.00245,478955840.00000,   0.00211,276924800.00000,   0.00196,  -0.00085,  -0.00157, -32.00000,   2.00000
156042651.26116,-364191585.48614,-66961926.91380,   0.00338,  -0.00282,  -0.00244,478948192.00000,   0.00212,276934080.00000,   0.00196,  -0.00086,  -0.00157, 128.00000,   2.00000
155315738.56549,-364977966.13578,-66474056.08949,   0.00339,  -0.00283,  -0.00244,478966112.00000,   0.00213,276943392.00000,   0.00197,  -0.00087,  -0.00158, 288.00000,   2.00000
154599649.79902,-365753705.36883,-65985143.14249,   0.00339,  -0.00284,  -0.00244,478967296.00000,   0.00214,276952640.00000,   0.00197,  -0.00088,  -0.00158,  32.00000,   2.00000
153906338.13876,-366507101.05749,-65502465.52880,   0.00340,  -0.00285,  -0.00244,478975872.00000,   0.00215,276961920.00000,   0.00198,  -0.00089,  -0.00158, 288.00000,   2.00000
153236980.28737,-367240441.42057,-65018092.23645,   0.00340,  -0.00286,  -0.00243,478981472.00000,   0.00216,276971168.00000,   0.00199,  -0.00089,  -0.00159, 192.00000,   2.00000
152577516.19646,-367960869.62735,-64540492.18636,   0.00341,  -0.00287,  -0.00243,478985568.00000,   0.00217,276980384.00000,   0.00199,  -0.00090,  -0.00159, 160.00000,   2.00000
151919711.98528,-368678739.83167,-64060540.43960,   0.00341,  -0.00288,  -0.00243,478995104.00000,   0.00218,276989600.00000,   0.00200,  -0.00091,  -0.00159,  32.00000,   2.00000
151295151.59629,-369367587.14637,-63584028.08832,   0.00341,  -0.00289,  -0.00242,478992832.00000,   0.00218,276998752.00000,   0.00201,  -0.00092,  -0.00160, 352.00000,   2.00000
150683992.65121,-370041678.56367,-63112417.36864,   0.00342,  -0.00290,  -0.00242,479010368.00000,   0.00219,277007968.00000,   0.00201,  -0.00093,  -0.00160, 128.00000,   2.00000
150084197.37365,-370705355.25628,-62639632.03485,   0.00342,  -0.00291,  -0.00242,479010752.00000,   0.00220,277017120.00000,   0.00202,  -0.00094,  -0.00160,  64.00000,   2.00000
149504801.51745,-371349697.28186,-62170816.45822,   0.00343,  -0.00292,  -0.00242,479003712.00000,   0.00221,277026208.00000,   0.00202,  -0.00094,  -0.00161, 128.00000,   2.00000
148939065.26707,-371979527.89794,-61706938.62991,   0.00343,  -0.00293,  -0.00241,479020672.00000,   0.00222,277035296.00000,   0.00203,  -0.00095,  -0.00161, 256.00000,   2.00000
148397639.58447,-372589320.75562,-61241241.98612,   0.00344,  -0.00294,  -0.00241,479025344.00000,   0.00223,277044416.00000,   0.00204,  -0.00096,  -0.00161,  64.00000,   2.00000
147867072.03853,-373187719.97732,-60778293.06558,   0.00344,  -0.00295,  -0.00241,479027072.00000,   0.00224,277053472.00000,   0.00204,  -0.00097,  -0.00162,  64.00000,   2.00000
147347387.01211,-373774770.73667,-60318076.37881,   0.00345,  -0.00296,  -0.00241,479028704.00000,   0.00224,277062496.00000,   0.00205,  -0.00098,  -0.00162, 160.00000,   2.00000
146864493.70356,-374331346.10598,-59859455.57179,   0.00345,  -0.00297,  -0.00240,479039072.00000,   0.00225,277071520.00000,   0.00206,  -0.00098,  -0.00162, 192.00000,   2.00000
146379391.70167,-374886239.18695,-59404091.91760,   0.00346,  -0.00298,  -0.00240,479036256.00000,   0.00226,277080480.00000,   0.00206,  -0.00099,  -0.00163, 288.00000,   2.00000
145917561.29932,-375419267.76992,-58954844.48457,   0.00346,  -0.00299,  -0.00240,479043360.00000,   0.00227,277089440.00000,   0.00207,  -0.00100,  -0.00163, 224.00000,   2.00000
145480040.30983,-375932839.90184,-58503753.94167,   0.00347,  -0.00300,  -0.00239,479047456.00000,   0.00228,277098368.00000,   0.00207,  -0.00101,  -0.00163, 192.00000,   2.00000
145053221.91231,-376435432.19436,-58055335.40056,   0.00347,  -0.00301,  -0.00239,479048736.00000,   0.00229,277107264.00000,   0.00208,  -0.00102,  -0.00164,  96.00000,   2.00000
144637113.63299,-376927178.19373,-57609582.81218,   0.00348,  -0.00302,  -0.00239,479049792.00000,   0.00229,277116128.00000,   0.00209,  -0.00102,  -0.00164,  96.00000,   2.00000
144244728.84483,-377398674.93465,-57165964.69573,   0.00348,  -0.00303,  -0.00239,479054976.00000,   0.00230,277124992.00000,   0.00209,  -0.00103,  -0.00164, 128.00000,   2.00000
143875964.31176,-377849958.68128,-56724464.02509,   0.00349,  -0.00304,  -0.00238,479060288.00000,   0.00231,277133824.00000,   0.00210,  -0.00104,  -0.00165, 160.00000,   2.00000
143517704.07621,-378290652.67843,-56285587.56874,   0.00349,  -0.00305,  -0.00238,479061088.00000,   0.00232,277142592.00000,   0.00210,  -0.00105,  -0.00165, 224.00000,   2.00000
143169913.28675,-378720824.71936,-55849318.75190,   0.00350,  -0.00306,  -0.00238,479061824.00000,   0.00233,277151360.00000,   0.00211,  -0.00106,  -0.00165,  64.00000,   2.00000
142845205.16671,-379130193.37047,-55419166.83554,   0.00350,  -0.00307,  -0.00238,479068192.00000,   0.00234,277160096.00000,   0.00212,  -0.00106,  -0.00166,  96.00000,   2.00000
142553915.06367,-379513371.68219,-54988175.36917,   0.00351,  -0.00308,  -0.00237,479062336.00000,   0.00234,277168768.00000,   0.00212,  -0.00107,  -0.00166,  96.00000,   2.00000
142263400.68153,-379893986.54824,-54558690.47997,   0.00351,  -0.00309,  -0.00237,479072032.00000,   0.00235,277177440.00000,   0.00213,  -0.00108,  -0.00166,  96.00000,   2.00000
141992690.33208,-380257212.39082,-54132858.51472,   0.00352,  -0.00310,  -0.00237,479063296.00000,   0.00236,277186048.00000,   0.00213,  -0.00109,  -0.00166, 224.00000,   2.00000
141735683.07126,-380608372.44963,-53708009.49083,   0.00353,  -0.00310,  -0.00236,479077216.00000,   0.00237,277194656.00000,   0.00214,  -0.00110,  -0.00167, 160.00000,   2.00000
141498314.54076,-380942293.23133,-53286762.73956,   0.00353,  -0.00311,  -0.00236,479068320.00000,   0.00238,277203200.00000,   0.00214,  -0.00110,  -0.00167,  64.00000,   2.00000
141284147.16361,-381257168.80651,-52867581.06508,   0.00354,  -0.00312,  -0.00236,479072608.00000,   0.00239,277211712.00000,   0.00215,  -0.00111,  -0.00167, 256.00000,   2.00000
141079860.11404,-381562276.67971,-52450883.06709,   0.00354,  -0.00313,  -0.00236,479072928.00000,   0.00239,277220192.00000,   0.00216,  -0.00112,  -0.00167, 128.00000,   2.00000
140907697.79837,-381840157.99831,-52041283.85146,   0.00355,  -0.00314,  -0.00235,479069248.00000,   0.00240,277228608.00000,   0.00216,  -0.00113,  -0.00168, 128.00000,   2.00000
140736285.70869,-382117044.71306,-51629096.72177,   0.00355,  -0.00315,  -0.00235,479077248.00000,   0.00241,277237056.00000,   0.00217,  -0.00113,  -0.00168, 288.00000,   2.00000
140584177.00607,-382377263.03836,-51220400.78689,   0.00356,  -0.00316,  -0.00235,479068000.00000,   0.00242,277245376.00000,   0.00217,  -0.00114,  -0.00168,  64.00000,   2.00000
140454880.87551,-382618778.22846,-50813688.70041,   0.00356,  -0.00316,  -0.00235,479072096.00000,   0.00242,277253696.00000,   0.00218,  -0.00115,  -0.00169,   0.00000,   2.00000
140347940.76988,-382840875.26138,-50413000.91886,   0.00357,  -0.00317,  -0.00234,479077344.00000,   0.00243,277262016.00000,   0.00218,  -0.00116,  -0.00169, 160.00000,   2.00000
140250962.26471,-383054879.60795,-50010683.13508,   0.00357,  -0.00318,  -0.00234,479076096.00000,   0.00244,277270272.00000,   0.00219,  -0.00117,  -0.00169, 160.00000,   2.00000
140163504.63753,-383259967.55769,-49610771.48609,   0.00358,  -0.00319,  -0.00234,479075872.00000,   0.00245,277278496.00000,   0.00219,  -0.00117,  -0.00169, 128.00000,   2.00000
140108133.92096,-383439382.51026,-49213791.61463,   0.00359,  -0.00320,  -0.00234,479070464.00000,   0.00246,277286656.00000,   0.00220,  -0.00118,  -0.00170,  64.00000,   2.00000
140061695.37312,-383609107.24411,-48823209.09059,   0.00359,  -0.00321,  -0.00233,479071424.00000,   0.00246,277294752.00000,   0.00221,  -0.00119,  -0.00170, 160.00000,   2.00000
140025034.60315,-383771153.79828,-48430933.69102,   0.00360,  -0.00321,  -0.00233,479069824.00000,   0.00247,277302848.00000,   0.00221,  -0.00120,  -0.00170, 160.00000,   2.00000
140020281.72442,-383907787.64618,-48041522.77181,   0.00360,  -0.00322,  -0.00233,479064352.00000,   0.00248,277310848.00000,   0.00222,  -0.00120,  -0.00170, 160.00000,   2.00000
140027881.41148,-384032784.68213,-47657073.02876,   0.00361,  -0.00323,  -0.00232,479078688.00000,   0.00249,277318912.00000,   0.00222,  -0.00121,  -0.00170, 160.00000,   2.00000
140041425.29260,-384152425.57730,-47272245.12072,   0.00361,  -0.00324,  -0.00232,479063552.00000,   0.00249,277326816.00000,   0.00223,  -0.00122,  -0.00171,  96.00000,   2.00000
140099430.75170,-384236525.93644,-46893841.45441,   0.00362,  -0.00325,  -0.00232,479063264.00000,   0.00250,277334720.00000,   0.00223,  -0.00122,  -0.00171,  32.00000,   2.00000
140144218.02497,-384330118.70195,-46513124.51356,   0.00363,  -0.00325,  -0.00232,479066656.00000,   0.00251,277342592.00000,   0.00224,  -0.00123,  -0.00171, 160.00000,   2.00000
140220172.18675,-384397594.73528,-46139190.58560,   0.00363,  -0.00326,  -0.00231,479062336.00000,   0.00252,277350400.00000,   0.00224,  -0.00124,  -0.00171, 128.00000,   2.00000
140318595.56811,-384448393.44796,-45763015.50807,   0.00364,  -0.00327,  -0.00231,479064608.00000,   0.00252,277358208.00000,   0.00225,  -0.00125,  -0.00172,  32.00000,   2.00000
140421841.42465,-384492325.58098,-45394406.45432,   0.00364,  -0.00328,  -0.00231,479051808.00000,   0.00253,277365888.00000,   0.00225,  -0.00125,  -0.00172, 160.00000,   2.00000
140551031.39801,-384517412.22519,-45022195.17165,   0.00365,  -0.00328,  -0.00231,479067584.00000,   0.00254,277373632.00000,   0.00226,  -0.00126,  -0.00172,  64.00000,   2.00000
140694496.50735,-384528471.48994,-44658401.26964,   0.00365,  -0.00329,  -0.00230,479045152.00000,   0.00255,277381216.00000,   0.00226,  -0.00127,  -0.00172, 160.00000,   2.00000
140850633.21758,-384530212.75126,-44291374.22152,   0.00366,  -0.00330,  -0.00230,479056864.00000,   0.00255,277388832.00000,   0.00227,  -0.00127,  -0.00172,  64.00000,   2.00000
141024553.74888,-384515790.70287,-43931402.23869,   0.00367,  -0.00331,  -0.00230,479047872.00000,   0.00256,277396352.00000,   0.00227,  -0.00128,  -0.00173, -32.00000,   2.00000
141220288.36724,-384484183.57691,-43573141.73330,   0.00367,  -0.00331,  -0.00229,479051264.00000,   0.00257,277403872.00000,   0.00228,  -0.00129,  -0.00173,  64.00000,   2.00000
141434048.89692,-384437271.91474,-43217794.77568,   0.00368,  -0.00332,  -0.00229,479041216.00000,   0.00257,277411296.00000,   0.00228,  -0.00130,  -0.00173, 128.00000,   2.00000
141669832.80688,-384373961.10004,-42860040.83384,   0.00368,  -0.00333,  -0.00229,479043424.00000,   0.00258,277418688.00000,   0.00229,  -0.00130,  -0.00173,  64.00000,   2.00000
141900578.97736,-384311518.99266,-42508758.50803,   0.00369,  -0.00333,  -0.00229,479039456.00000,   0.00259,277426048.00000,   0.00229,  -0.00131,  -0.00173, 224.00000,   2.00000
142162431.82214,-384224451.74580,-42159932.04289,   0.00370,  -0.00334,  -0.00228,479033344.00000,   0.00259,277433312.00000,   0.00230,  -0.00132,  -0.00174,  96.00000,   2.00000
142445840.95078,-384120303.46082,-41812709.30109,   0.00370,  -0.00335,  -0.00228,479036576.00000,   0.00260,277440576.00000,   0.00230,  -0.00132,  -0.00174, 128.00000,   2.00000
142737555.79520,-384008392.73813,-41467423.96507,   0.00371,  -0.00335,  -0.00228,479035648.00000,   0.00261,277447808.00000,   0.00231,  -0.00133,  -0.00174, 160.00000,   2.00000
143047133.88136,-383881418.81523,-41124884.95355,   0.00371,  -0.00336,  -0.00228,479025376.00000,   0.00262,277454944.00000,   0.00231,  -0.00134,  -0.00174,  96.00000,   2.00000
143374650.90674,-383739624.84333,-40785079.70003,   0.00372,  -0.00337,  -0.00227,479014784.00000,   0.00262,277462016.00000,   0.00232,  -0.00134,  -0.00174, 160.00000,   2.00000
143723489.67649,-383580626.34020,-40446762.35596,   0.00373,  -0.00337,  -0.00227,479018016.00000,   0.00263,277469056.00000,   0.00232,  -0.00135,  -0.00174, 192.00000,   2.00000
144080539.31768,-383413992.01726,-40110284.32541,   0.00373,  -0.00338,  -0.00227,479016800.00000,   0.00264,277476064.00000,   0.00233,  -0.00135,  -0.00175, 128.00000,   2.00000
144468488.74132,-383222951.93619,-39776072.09062,   0.00374,  -0.00339,  -0.00227,479010368.00000,   0.00264,277483008.00000,   0.00233,  -0.00136,  -0.00175,  96.00000,   2.00000
144851533.23115,-383033892.17315,-39444011.04128,   0.00374,  -0.00339,  -0.00226,479004768.00000,   0.00265,277489888.00000,   0.00234,  -0.00137,  -0.00175,  32.00000,   2.00000
145265441.05451,-382820395.43363,-39114146.18949,   0.00375,  -0.00340,  -0.00226,478998368.00000,   0.00265,277496704.00000,   0.00234,  -0.00137,  -0.00175, 128.00000,   2.00000
145700527.54928,-382589776.48263,-38785652.94175,   0.00376,  -0.00341,  -0.00226,479001248.00000,   0.00266,277503520.00000,   0.00235,  -0.00138,  -0.00175,  96.00000,   2.00000
146143365.19062,-382350873.33066,-38462951.17821,   0.00376,  -0.00341,  -0.00225,479000768.00000,   0.00267,277510272.00000,   0.00235,  -0.00139,  -0.00175,  64.00000,   2.00000
146604234.48886,-382097744.97227,-38138599.78702,   0.00377,  -0.00342,  -0.00225,478988832.00000,   0.00267,277516960.00000,   0.00236,  -0.00139,  -0.00176,   0.00000,   2.00000
147082900.23897,-381829912.76853,-37816681.16442,   0.00377,  -0.00342,  -0.00225,478977696.00000,   0.00268,277523552.00000,   0.00236,  -0.00140,  -0.00176, 128.00000,   2.00000
147569604.54746,-381554475.40225,-37496363.70613,   0.00378,  -0.00343,  -0.00225,478976096.00000,   0.00269,277530144.00000,   0.00237,  -0.00140,  -0.00176,  96.00000,   2.00000
148086681.13912,-381253776.62980,-37182117.95025,   0.00379,  -0.00343,  -0.00224,478970304.00000,   0.00269,277536640.00000,   0.00237,  -0.00141,  -0.00176,  64.00000,   2.00000
148612179.42661,-380946397.71950,-36865329.21713,   0.00379,  -0.00344,  -0.00224,478967360.00000,   0.00270,277543104.00000,   0.00237,  -0.00142,  -0.00176,   0.00000,   2.00000
149158360.33103,-380621130.36336,-36553796.66327,   0.00380,  -0.00345,  -0.00224,478970720.00000,   0.00270,277549568.00000,   0.00238,  -0.00142,  -0.00176, -64.00000,   2.00000
149719200.28673,-380283897.53079,-36241473.62376,   0.00381,  -0.00345,  -0.00224,478944544.00000,   0.00271,277555872.00000,   0.00238,  -0.00143,  -0.00177,  32.00000,   2.00000
150291085.34514,-379936297.34647,-35933613.45482,   0.00381,  -0.00346,  -0.00223,478956992.00000,   0.00272,277562176.00000,   0.00239,  -0.00143,  -0.00177, -96.00000,   2.00000
150903618.38134,-379557444.77945,-35624180.55659,   0.00382,  -0.00346,  -0.00223,478939552.00000,   0.00272,277568416.00000,   0.00239,  -0.00144,  -0.00177, 160.00000,   2.00000
151501108.17908,-379187448.44039,-35319832.82015,   0.00383,  -0.00347,  -0.00223,478943072.00000,   0.00273,277574624.00000,   0.00240,  -0.00145,  -0.00177, 192.00000,   2.00000
152139219.01913,-378786103.68569,-35013816.75731,   0.00383,  -0.00347,  -0.00223,478925472.00000,   0.00273,277580736.00000,   0.00240,  -0.00145,  -0.00177,  64.00000,   2.00000
152784932.52854,-378376615.51306,-34713201.60352,   0.00384,  -0.00348,  -0.00222,478923744.00000,   0.00274,277586816.00000,   0.00240,  -0.00146,  -0.00177,  32.00000,   2.00000
153438578.80972,-377959694.75536,-34413849.35999,   0.00384,  -0.00348,  -0.00222,478920992.00000,   0.00275,277592864.00000,   0.00241,  -0.00146,  -0.00177, 160.00000,   2.00000
154110092.97066,-377528402.03855,-34112315.66769,   0.00385,  -0.00349,  -0.00222,478908032.00000,   0.00275,277598816.00000,   0.00241,  -0.00147,  -0.00177,   0.00000,   2.00000
154811791.78846,-377071862.70267,-33816444.52035,   0.00386,  -0.00349,  -0.00222,478901056.00000,   0.00276,277604704.00000,   0.00242,  -0.00147,  -0.00178,  32.00000,   2.00000
155521286.00716,-376607908.01492,-33521723.53932,   0.00386,  -0.00350,  -0.00221,478898112.00000,   0.00276,277610560.00000,   0.00242,  -0.00148,  -0.00178,  64.00000,   2.00000
156248185.31601,-376128912.64544,-33228800.50226,   0.00387,  -0.00350,  -0.00221,478885696.00000,   0.00277,277616352.00000,   0.00243,  -0.00148,  -0.00178,  96.00000,   2.00000
156983111.13782,-375643201.74709,-32932856.66153,   0.00388,  -0.00350,  -0.00221,478881504.00000,   0.00277,277622112.00000,   0.00243,  -0.00149,  -0.00178,  96.00000,   2.00000
157747886.23146,-375132081.88306,-32642411.32569,   0.00388,  -0.00351,  -0.00220,478874272.00000,   0.00278,277627776.00000,   0.00243,  -0.00149,  -0.00178,  32.00000,   2.00000
158517028.21845,-374615794.11957,-32354000.39123,   0.00389,  -0.00351,  -0.00220,478857056.00000,   0.00278,277633376.00000,   0.00244,  -0.00150,  -0.00178, 128.00000,   2.00000
159306413.52669,-374082356.89779,-32066229.61680,   0.00390,  -0.00352,  -0.00220,478858112.00000,   0.00279,277638976.00000,   0.00244,  -0.00151,  -0.00178, 160.00000,   2.00000
160112734.46659,-373533861.52140,-31780075.21486,   0.00390,  -0.00352,  -0.00220,478845408.00000,   0.00280,277644480.00000,   0.00245,  -0.00151,  -0.00178,   0.00000,   2.00000
160935914.83867,-372970444.83390,-31495517.98573,   0.00391,  -0.00353,  -0.00219,478832608.00000,   0.00280,277649888.00000,   0.00245,  -0.00152,  -0.00178, 192.00000,   2.00000
161778708.32294,-372389750.22791,-31211504.63257,   0.00391,  -0.00353,  -0.00219,478833632.00000,   0.00281,277655296.00000,   0.00245,  -0.00152,  -0.00179,   0.00000,   2.00000
162628180.09080,-371801792.64361,-30928374.79169,   0.00392,  -0.00353,  -0.00219,478829952.00000,   0.00281,277660672.00000,   0.00246,  -0.00152,  -0.00179,  96.00000,   2.00000
163490819.79062,-371200801.96448,-30647752.00159,   0.00393,  -0.00354,  -0.00219,478803584.00000,   0.00282,277665920.00000,   0.00246,  -0.00153,  -0.00179, -32.00000,   2.00000
164372406.04336,-370582723.00307,-30367635.41029,   0.00393,  -0.00354,  -0.00218,478804576.00000,   0.00282,277671168.00000,   0.00246,  -0.00153,  -0.00179, 128.00000,   2.00000
165259758.41548,-369957182.86185,-30088338.18987,   0.00394,  -0.00354,  -0.00218,478801152.00000,   0.00283,277676384.00000,   0.00247,  -0.00154,  -0.00179,  32.00000,   2.00000
166184950.82342,-369298934.93754,-29810820.35255,   0.00395,  -0.00355,  -0.00218,478784608.00000,   0.00283,277681504.00000,   0.00247,  -0.00154,  -0.00179,  32.00000,   2.00000
167102492.56641,-368643090.85863,-29534449.94263,   0.00395,  -0.00355,  -0.00218,478776768.00000,   0.00284,277686560.00000,   0.00247,  -0.00155,  -0.00179,  64.00000,   2.00000
168037089.76032,-367969478.15942,-29262670.73422,   0.00396,  -0.00356,  -0.00217,478779296.00000,   0.00284,277691648.00000,   0.00248,  -0.00155,  -0.00179,  96.00000,   2.00000
168983360.89335,-367282955.37262,-28989180.62146,   0.00397,  -0.00356,  -0.00217,478753600.00000,   0.00284,277696576.00000,   0.00248,  -0.00156,  -0.00179,  32.00000,   2.00000
169946056.16198,-366579106.15276,-28716157.02292,   0.00397,  -0.00356,  -0.00217,478756000.00000,   0.00285,277701504.00000,   0.00249,  -0.00156,  -0.00180, 128.00000,   2.00000
170912063.72909,-365867661.74452,-28443933.79523,   0.00398,  -0.00356,  -0.00217,478753952.00000,   0.00285,277706432.00000,   0.00249,  -0.00157,  -0.00180,  64.00000,   2.00000
171891015.99376,-365140640.31705,-28173135.51513,   0.00399,  -0.00357,  -0.00216,478743488.00000,   0.00286,277711296.00000,   0.00249,  -0.00157,  -0.00180, -32.00000,   2.00000
172882552.20523,-364397901.92604,-27903740.43766,   0.00399,  -0.00357,  -0.00216,478733600.00000,   0.00286,277716096.00000,   0.00250,  -0.00158,  -0.00180, 224.00000,   2.00000
173898190.13373,-363628495.69788,-27639464.09336,   0.00400,  -0.00357,  -0.00216,478730144.00000,   0.00287,277720896.00000,   0.00250,  -0.00158,  -0.00180,  96.00000,   2.00000
