# sigma_xx, sigma_yy, sigma_xy, epsilon_xx, epsilon_yy, epsilon_xy, vonMises, epsPlastic, hardening, epsilonP__xx, epsilonP__yy, epsilonP__xy, yieldValue, iteration
   0.00000,   0.00000,   0.00000,   0.00000,   0.00000,   0.00000,   0.00000,   0.00000,274640135.82653,   0.00000,   0.00000,   0.00000,-474640135.82653,   0.00000
   0.00000,   0.00000,   0.00000,   0.00000,   0.00000,   0.00000,   0.00000,   0.00000,274640135.82653,   0.00000,   0.00000,   0.00000,-474640135.82653,   0.00000
173267.38980,4413222.34028,264997.18440,  -0.00001,   0.00002,   0.00000,4353453.34428,   0.00000,274640135.82653,   0.00000,   0.00000,   0.00000,-470286682.48225,   0.00000
331246.48051,8790771.98266,529994.36881,  -0.00002,   0.00004,   0.00001,8678603.92544,   0.00000,274640135.82653,   0.00000,   0.00000,   0.00000,-465961531.90108,   0.00000
453552.87331,13153033.32594,794991.55321,  -0.00002,   0.00006,   0.00001,13005323.31523,   0.00000,274640135.82653,   0.00000,   0.00000,   0.00000,-461634812.51130,   0.00000
545282.66791,17443949.27342,1039604.33882,  -0.00003,   0.00008,   0.00001,17271917.89544,   0.00000,274640135.82653,   0.00000,   0.00000,   0.00000,-457368217.93109,   0.00000
637012.46251,21734865.22090,1284217.12442,  -0.00004,   0.00010,   0.00002,21538626.04484,   0.00000,274640135.82653,   0.00000,   0.00000,   0.00000,-453101509.78169,   0.00000
677781.26011,25974820.17138,1528829.91003,  -0.00005,   0.00012,   0.00002,25779010.58432,   0.00000,274640135.82653,   0.00000,   0.00000,   0.00000,-448861125.24221,   0.00000
703261.75861,30179102.42396,1763250.49623,  -0.00006,   0.00014,   0.00002,29989600.67274,   0.00000,274640135.82653,   0.00000,   0.00000,   0.00000,-444650535.15379,   0.00000
677781.26011,34332423.67954,1987478.88304,  -0.00006,   0.00015,   0.00003,34172431.09138,   0.00000,274640135.82653,   0.00000,   0.00000,   0.00000,-440467704.73515,   0.00000
672685.16041,38465360.53631,2211707.26984,  -0.00007,   0.00017,   0.00003,38325400.66892,   0.00000,274640135.82653,   0.00000,   0.00000,   0.00000,-436314735.15761,   0.00000
596243.66491,42567720.79489,2425743.45724,  -0.00008,   0.00019,   0.00003,42481034.83070,   0.00000,274640135.82653,   0.00000,   0.00000,   0.00000,-432159100.99583,   0.00000
524898.26911,46614023.95676,2629587.44525,  -0.00009,   0.00021,   0.00003,46577025.64076,   0.00000,274640135.82653,   0.00000,   0.00000,   0.00000,-428063110.18577,   0.00000
417880.17541,50645038.81954,2833431.43325,  -0.00010,   0.00023,   0.00004,50675595.94350,   0.00000,274640135.82653,   0.00000,   0.00000,   0.00000,-423964539.88303,   0.00000
295573.78261,54640380.98441,3027083.22186,  -0.00011,   0.00025,   0.00004,54744844.80194,   0.00000,274640135.82653,   0.00000,   0.00000,   0.00000,-419895291.02459,   0.00000
122306.39280,58584762.15229,3220735.01046,  -0.00011,   0.00027,   0.00004,58788973.68031,   0.00000,274640135.82653,   0.00000,   0.00000,   0.00000,-415851162.14622,   0.00000
-50960.99700,62529143.32016,3404194.59966,  -0.00012,   0.00028,   0.00004,62831906.95402,   0.00000,274640135.82653,   0.00000,   0.00000,   0.00000,-411808228.87251,   0.00000
-239516.68590,66437851.79013,3577461.98947,  -0.00013,   0.00030,   0.00005,66845741.79159,   0.00000,274640135.82653,   0.00000,   0.00000,   0.00000,-407794394.03494,   0.00000
-494321.67091,70259926.56520,3750729.37927,  -0.00014,   0.00032,   0.00005,70807037.44536,   0.00000,274640135.82653,   0.00000,   0.00000,   0.00000,-403833098.38116,   0.00000
-713453.95801,74097289.63937,3913804.56967,  -0.00015,   0.00034,   0.00005,74764536.72465,   0.00000,274640135.82653,   0.00000,   0.00000,   0.00000,-399875599.10188,   0.00000
-1003931.64092,77904076.11535,4076879.76008,  -0.00016,   0.00036,   0.00005,78728178.98839,   0.00000,274640135.82653,   0.00000,   0.00000,   0.00000,-395911956.83814,   0.00000
-1289313.22412,81654805.49461,4229762.75108,  -0.00017,   0.00037,   0.00005,82632444.52563,   0.00000,274640135.82653,   0.00000,   0.00000,   0.00000,-392007691.30090,   0.00000
-1610367.50523,85390246.57478,4372453.54268,  -0.00017,   0.00039,   0.00006,86538732.49534,   0.00000,274640135.82653,   0.00000,   0.00000,   0.00000,-388101403.33119,   0.00000
-1946710.08544,89090014.95705,4504952.13488,  -0.00018,   0.00041,   0.00006,90416462.31216,   0.00000,274640135.82653,   0.00000,   0.00000,   0.00000,-384223673.51437,   0.00000
-2298340.96474,92754110.64142,4637450.72709,  -0.00019,   0.00043,   0.00006,94267204.43476,   0.00000,274640135.82653,   0.00000,   0.00000,   0.00000,-380372931.39177,   0.00000
-2700932.84105,96367245.32879,4769949.31929,  -0.00020,   0.00044,   0.00006,98094238.96288,   0.00000,274640135.82653,   0.00000,   0.00000,   0.00000,-376545896.86365,   0.00000
-3083140.31856,99959995.61735,4892255.71209,  -0.00021,   0.00046,   0.00006,101889644.56035,   0.00000,274640135.82653,   0.00000,   0.00000,   0.00000,-372750491.26618,   0.00000
-3536693.19187,103522169.30772,5004369.90549,  -0.00022,   0.00048,   0.00007,105691083.08065,   0.00000,274640135.82653,   0.00000,   0.00000,   0.00000,-368949052.74588,   0.00000
-3969861.66637,107063958.59929,5106291.89949,  -0.00023,   0.00049,   0.00007,109460964.67957,   0.00000,274640135.82653,   0.00000,   0.00000,   0.00000,-365179171.14696,   0.00000
-4453991.13788,110554786.89385,5208213.89350,  -0.00024,   0.00051,   0.00007,113207709.36274,   0.00000,274640135.82653,   0.00000,   0.00000,   0.00000,-361432426.46379,   0.00000
-4902447.91149,114060903.48752,5310135.88750,  -0.00024,   0.00053,   0.00007,116951673.64099,   0.00000,274640135.82653,   0.00000,   0.00000,   0.00000,-357688462.18554,   0.00000
-5417153.98120,117480386.38628,5391673.48270,  -0.00025,   0.00055,   0.00007,120642473.92350,   0.00000,274640135.82653,   0.00000,   0.00000,   0.00000,-353997661.90303,   0.00000
-5967532.74881,120884580.98594,5473211.07790,  -0.00026,   0.00056,   0.00007,124338023.87695,   0.00000,274640135.82653,   0.00000,   0.00000,   0.00000,-350302111.94958,   0.00000
-6497527.11762,124268391.18681,5554748.67310,  -0.00027,   0.00058,   0.00007,128003335.29586,   0.00000,274640135.82653,   0.00000,   0.00000,   0.00000,-346636800.53067,   0.00000
-7063194.18433,127636913.08857,5615901.86950,  -0.00028,   0.00059,   0.00007,131670838.29961,   0.00000,274640135.82653,   0.00000,   0.00000,   0.00000,-342969297.52692,   0.00000
-7659437.84924,130934089.59453,5677055.06591,  -0.00029,   0.00061,   0.00007,135284778.11777,   0.00000,274640135.82653,   0.00000,   0.00000,   0.00000,-339355357.70876,   0.00000
-8255681.51415,134231266.10049,5738208.26231,  -0.00030,   0.00063,   0.00007,138899750.75772,   0.00000,274640135.82653,   0.00000,   0.00000,   0.00000,-335740385.06881,   0.00000
-8902886.17607,137477481.60945,5789169.25931,  -0.00031,   0.00064,   0.00008,142491435.33778,   0.00000,274640135.82653,   0.00000,   0.00000,   0.00000,-332148700.48875,   0.00000
-9529706.43918,140703312.71961,5829938.05691,  -0.00032,   0.00066,   0.00008,146051577.57987,   0.00000,274640135.82653,   0.00000,   0.00000,   0.00000,-328588558.24666,   0.00000
-10192199.40019,143913855.53067,5870706.85451,  -0.00033,   0.00067,   0.00008,149617088.09908,   0.00000,274640135.82653,   0.00000,   0.00000,   0.00000,-325023047.72745,   0.00000
-10869980.66030,147088725.64383,5901283.45271,  -0.00034,   0.00069,   0.00008,153155400.60130,   0.00000,274640135.82653,   0.00000,   0.00000,   0.00000,-321484735.22523,   0.00000
-11563050.21951,150227923.05909,5921667.85151,  -0.00035,   0.00071,   0.00008,156666602.90618,   0.00000,274640135.82653,   0.00000,   0.00000,   0.00000,-317973532.92035,   0.00000
-12271408.07783,153331447.77644,5942052.25031,  -0.00035,   0.00072,   0.00008,160151918.67442,   0.00000,274640135.82653,   0.00000,   0.00000,   0.00000,-314488217.15211,   0.00000
-13015438.63404,156419684.19470,5952244.44971,  -0.00036,   0.00074,   0.00008,163641919.10744,   0.00000,274640135.82653,   0.00000,   0.00000,   0.00000,-310998216.71909,   0.00000
-13774757.48936,159472247.91506,5952244.44971,  -0.00037,   0.00075,   0.00008,167105119.55728,   0.00000,274640135.82653,   0.00000,   0.00000,   0.00000,-307535016.26925,   0.00000
-14513691.94587,162504427.23661,5952244.44971,  -0.00038,   0.00077,   0.00008,170537863.72568,   0.00000,274640135.82653,   0.00000,   0.00000,   0.00000,-304102272.10085,   0.00000
-15288299.10028,165521318.25907,5942052.25031,  -0.00039,   0.00078,   0.00008,173975579.50314,   0.00000,274640135.82653,   0.00000,   0.00000,   0.00000,-300664556.32339,   0.00000
-16093482.85290,168466863.88573,5931860.05091,  -0.00040,   0.00080,   0.00008,177360829.64974,   0.00000,274640135.82653,   0.00000,   0.00000,   0.00000,-297279306.17679,   0.00000
-16934339.30341,171397121.21328,5911475.65211,  -0.00041,   0.00081,   0.00008,180751427.78759,   0.00000,274640135.82653,   0.00000,   0.00000,   0.00000,-293888708.03894,   0.00000
-17739523.05603,174342666.83993,5880899.05391,  -0.00042,   0.00083,   0.00008,184137358.61638,   0.00000,274640135.82653,   0.00000,   0.00000,   0.00000,-290502777.21014,   0.00000
-18610956.10475,177201578.77169,5850322.45571,  -0.00043,   0.00084,   0.00008,187476230.03738,   0.00000,274640135.82653,   0.00000,   0.00000,   0.00000,-287163905.78915,   0.00000
-19446716.45556,180075779.00254,5809553.65811,  -0.00044,   0.00086,   0.00008,190810367.43367,   0.00000,274640135.82653,   0.00000,   0.00000,   0.00000,-283829768.39286,   0.00000
-20333437.80338,182899018.23639,5758592.66111,  -0.00045,   0.00087,   0.00007,194123541.96402,   0.00000,274640135.82653,   0.00000,   0.00000,   0.00000,-280516593.86251,   0.00000
-21220159.15119,185722257.47025,5707631.66411,  -0.00046,   0.00089,   0.00007,197438190.61499,   0.00000,274640135.82653,   0.00000,   0.00000,   0.00000,-277201945.21153,   0.00000
-22122168.79811,188509824.00620,5646478.46770,  -0.00047,   0.00090,   0.00007,200726775.50144,   0.00000,274640135.82653,   0.00000,   0.00000,   0.00000,-273913360.32509,   0.00000
-23039466.74413,191261717.84425,5575133.07190,  -0.00048,   0.00092,   0.00007,203989401.81929,   0.00000,274640135.82653,   0.00000,   0.00000,   0.00000,-270650734.00724,   0.00000
-24007725.68715,193962650.68530,5503787.67610,  -0.00049,   0.00093,   0.00007,207232617.85031,   0.00000,274640135.82653,   0.00000,   0.00000,   0.00000,-267407517.97622,   0.00000
-24940311.93226,196678871.82545,5422250.08090,  -0.00050,   0.00094,   0.00007,210470978.00752,   0.00000,274640135.82653,   0.00000,   0.00000,   0.00000,-264169157.81901,   0.00000
-25888186.47648,199359420.26770,5340712.48570,  -0.00051,   0.00096,   0.00007,213684346.93681,   0.00000,274640135.82653,   0.00000,   0.00000,   0.00000,-260955788.88972,   0.00000
-26887022.01770,201989007.71295,5248982.69110,  -0.00052,   0.00097,   0.00007,216877867.80911,   0.00000,274640135.82653,   0.00000,   0.00000,   0.00000,-257762268.01742,   0.00000
-27885857.55892,204618595.15820,5147060.69710,  -0.00053,   0.00099,   0.00007,220072334.10008,   0.00000,274640135.82653,   0.00000,   0.00000,   0.00000,-254567801.72645,   0.00000
-28864308.70134,207227798.20464,5045138.70309,  -0.00054,   0.00100,   0.00007,223236099.40605,   0.00000,274640135.82653,   0.00000,   0.00000,   0.00000,-251404036.42048,   0.00000
-29893720.84075,209786040.25409,4933024.50969,  -0.00055,   0.00101,   0.00006,226380446.91907,   0.00000,274640135.82653,   0.00000,   0.00000,   0.00000,-248259688.90746,   0.00000
-30923132.98017,212344282.30354,4810718.11689,  -0.00055,   0.00103,   0.00006,229525845.79077,   0.00000,274640135.82653,   0.00000,   0.00000,   0.00000,-245114290.03576,   0.00000
-31967833.41869,214866851.65509,4688411.72409,  -0.00056,   0.00104,   0.00006,232646679.85606,   0.00000,274640135.82653,   0.00000,   0.00000,   0.00000,-241993455.97047,   0.00000
-33027822.15631,217353748.30873,4555913.13188,  -0.00057,   0.00105,   0.00006,235742399.49103,   0.00000,274640135.82653,   0.00000,   0.00000,   0.00000,-238897736.33550,   0.00000
-34087810.89393,219840644.96238,4413222.34028,  -0.00058,   0.00107,   0.00006,238839284.78282,   0.00000,274640135.82653,   0.00000,   0.00000,   0.00000,-235800851.04371,   0.00000
-35163087.93065,222291868.91812,4270531.54868,  -0.00059,   0.00108,   0.00006,241911757.86243,   0.00000,274640135.82653,   0.00000,   0.00000,   0.00000,-232728377.96410,   0.00000
-36253653.26647,224707420.17597,4117648.55768,  -0.00060,   0.00109,   0.00005,244959347.73693,   0.00000,274640135.82653,   0.00000,   0.00000,   0.00000,-229680788.08960,   0.00000
-37344218.60229,227122971.43381,3964765.56667,  -0.00061,   0.00111,   0.00005,248008715.18711,   0.00000,274640135.82653,   0.00000,   0.00000,   0.00000,-226631420.63942,   0.00000
-38450072.23721,229502849.99376,3801690.37627,  -0.00062,   0.00112,   0.00005,251033316.35534,   0.00000,274640135.82653,   0.00000,   0.00000,   0.00000,-223606819.47119,   0.00000
-39555925.87213,231882728.55370,3628422.98647,  -0.00063,   0.00113,   0.00005,254059251.85853,   0.00000,274640135.82653,   0.00000,   0.00000,   0.00000,-220580883.96800,   0.00000
-40677067.80615,234226934.41574,3455155.59666,  -0.00064,   0.00115,   0.00004,257061004.13122,   0.00000,274640135.82653,   0.00000,   0.00000,   0.00000,-217579131.69531,   0.00000
-41849170.73718,236520179.28079,3271696.00746,  -0.00065,   0.00116,   0.00004,260045060.80333,   0.00000,274640135.82653,   0.00000,   0.00000,   0.00000,-214595075.02319,   0.00000
-43000889.26940,238793039.74703,3078044.21886,  -0.00066,   0.00117,   0.00004,262997962.80331,   0.00000,274640135.82653,   0.00000,   0.00000,   0.00000,-211642173.02322,   0.00000
-44152607.80162,241065900.21327,2884392.43025,  -0.00067,   0.00118,   0.00004,265952755.81737,   0.00000,274640135.82653,   0.00000,   0.00000,   0.00000,-208687380.00916,   0.00000
-45319614.63294,243303087.98161,2680548.44225,  -0.00068,   0.00120,   0.00003,268883280.06414,   0.00000,274640135.82653,   0.00000,   0.00000,   0.00000,-205756855.76239,   0.00000
-46522294.16216,245524987.45085,2466512.25485,  -0.00069,   0.00121,   0.00003,271822515.72545,   0.00000,274640135.82653,   0.00000,   0.00000,   0.00000,-202817620.10108,   0.00000
-47704589.29258,247726502.52130,2252476.06744,  -0.00070,   0.00122,   0.00003,274730886.31600,   0.00000,274640135.82653,   0.00000,   0.00000,   0.00000,-199909249.51052,   0.00000
-48902172.72211,249892344.89384,2038439.88004,  -0.00071,   0.00123,   0.00003,277615473.01411,   0.00000,274640135.82653,   0.00000,   0.00000,   0.00000,-197024662.81242,   0.00000
-50099756.15163,252058187.26638,1804019.29383,  -0.00072,   0.00124,   0.00002,280501573.09607,   0.00000,274640135.82653,   0.00000,   0.00000,   0.00000,-194138562.73046,   0.00000
-51348300.57815,254173068.64191,1569598.70763,  -0.00073,   0.00126,   0.00002,283371386.77523,   0.00000,274640135.82653,   0.00000,   0.00000,   0.00000,-191268749.05130,   0.00000
-52561172.30678,256303238.31655,1335178.12142,  -0.00074,   0.00127,   0.00002,286235870.53268,   0.00000,274640135.82653,   0.00000,   0.00000,   0.00000,-188404265.29385,   0.00000
-53789332.33450,258397735.29329,1080373.13642,  -0.00075,   0.00128,   0.00001,289076503.98157,   0.00000,274640135.82653,   0.00000,   0.00000,   0.00000,-185563631.84496,   0.00000
-55032780.66132,260456559.57213,825568.15142,  -0.00076,   0.00129,   0.00001,291893678.88757,   0.00000,274640135.82653,   0.00000,   0.00000,   0.00000,-182746456.93896,   0.00000
-56276228.98814,262515383.85097,570763.16641,  -0.00077,   0.00130,   0.00001,294712900.75908,   0.00000,274640135.82653,   0.00000,   0.00000,   0.00000,-179927235.06745,   0.00000
-57534965.61407,264538535.43191,305765.98201,  -0.00078,   0.00132,   0.00000,297508663.76435,   0.00000,274640135.82653,   0.00000,   0.00000,   0.00000,-177131472.06218,   0.00000
-58793702.23999,266561687.01284,30576.59820,  -0.00079,   0.00133,   0.00000,300306482.89011,   0.00000,274640135.82653,   0.00000,   0.00000,   0.00000,-174333652.93642,   0.00000
-60067727.16501,268549165.89588,-244612.78560,  -0.00080,   0.00134,  -0.00000,303081018.67952,   0.00000,274640135.82653,   0.00000,   0.00000,   0.00000,-171559117.14701,   0.00000
-61357040.38914,270500972.08102,-529994.36881,  -0.00081,   0.00135,  -0.00001,305832379.01416,   0.00000,274640135.82653,   0.00000,   0.00000,   0.00000,-168807756.81237,   0.00000
-62646353.61326,272452778.26615,-825568.15142,  -0.00082,   0.00136,  -0.00001,308585968.22357,   0.00000,274640135.82653,   0.00000,   0.00000,   0.00000,-166054167.60296,   0.00000
-63950955.13649,274368911.75339,-1121141.93402,  -0.00083,   0.00137,  -0.00001,311316477.62961,   0.00000,274640135.82653,   0.00000,   0.00000,   0.00000,-163323658.19692,   0.00000
-65219883.96181,276300333.53973,-1426907.91603,  -0.00084,   0.00138,  -0.00002,314041225.74724,   0.00000,274640135.82653,   0.00000,   0.00000,   0.00000,-160598910.07929,   0.00000
-66539773.78413,278180794.32906,-1732673.89803,  -0.00085,   0.00140,  -0.00002,316750989.62915,   0.00000,274640135.82653,   0.00000,   0.00000,   0.00000,-157889146.19738,   0.00000
-67874951.90556,280025582.42049,-2058824.27884,  -0.00085,   0.00141,  -0.00003,319438217.99758,   0.00000,274640135.82653,   0.00000,   0.00000,   0.00000,-155201917.82895,   0.00000
-69174457.32908,281885658.81103,-2374782.46024,  -0.00086,   0.00142,  -0.00003,322119289.14985,   0.00000,274640135.82653,   0.00000,   0.00000,   0.00000,-152520846.67668,   0.00000
-70509635.45051,283730446.90246,-2700932.84105,  -0.00087,   0.00143,  -0.00004,324811007.63794,   0.00000,274640135.82653,   0.00000,   0.00000,   0.00000,-149829128.18859,   0.00000
-71824429.17313,285554850.59510,-3037275.42126,  -0.00088,   0.00144,  -0.00004,327471847.02200,   0.00000,274640135.82653,   0.00000,   0.00000,   0.00000,-147168288.80453,   0.00000
-73154511.19486,287343581.58983,-3383810.20086,  -0.00089,   0.00145,  -0.00004,330110203.05292,   0.00000,274640135.82653,   0.00000,   0.00000,   0.00000,-144529932.77361,   0.00000
-74484593.21658,289132312.58456,-3730344.98047,  -0.00090,   0.00146,  -0.00005,332750804.53214,   0.00000,274640135.82653,   0.00000,   0.00000,   0.00000,-141889331.29439,   0.00000
-75829963.53741,290885370.88140,-4087071.95948,  -0.00091,   0.00147,  -0.00005,335369083.10397,   0.00000,274640135.82653,   0.00000,   0.00000,   0.00000,-139271052.72256,   0.00000
-77190622.15733,292602756.48033,-4443798.93848,  -0.00092,   0.00148,  -0.00006,337964785.31588,   0.00000,274640135.82653,   0.00000,   0.00000,   0.00000,-136675350.51065,   0.00000
-78551280.77726,294320142.07926,-4810718.11689,  -0.00093,   0.00149,  -0.00006,340563214.23573,   0.00000,274640135.82653,   0.00000,   0.00000,   0.00000,-134076921.59080,   0.00000
-79876266.69928,296052815.97729,-5187829.49470,  -0.00094,   0.00150,  -0.00007,343155682.22102,   0.00000,274640135.82653,   0.00000,   0.00000,   0.00000,-131484453.60551,   0.00000
-81252213.61831,297734528.87832,-5564940.87250,  -0.00095,   0.00151,  -0.00007,345734388.14643,   0.00000,274640135.82653,   0.00000,   0.00000,   0.00000,-128905747.68010,   0.00000
-82607776.13853,299395857.38055,-5942052.25031,  -0.00096,   0.00152,  -0.00008,348281888.72424,   0.00000,274640135.82653,   0.00000,   0.00000,   0.00000,-126358247.10229,   0.00000
-83999011.35666,301041897.58368,-6339548.02692,  -0.00097,   0.00153,  -0.00008,350841630.07146,   0.00000,274640135.82653,   0.00000,   0.00000,   0.00000,-123798505.75507,   0.00000
-85354573.87688,302703226.08592,-6737043.80352,  -0.00098,   0.00154,  -0.00009,353394842.23157,   0.00000,274640135.82653,   0.00000,   0.00000,   0.00000,-121245293.59496,   0.00000
-86725424.69621,304328881.89025,-7134539.58013,  -0.00099,   0.00155,  -0.00009,355925728.39796,   0.00000,274640135.82653,   0.00000,   0.00000,   0.00000,-118714407.42857,   0.00000
-88111563.81463,305918864.99667,-7542227.55614,  -0.00100,   0.00156,  -0.00010,358434993.86011,   0.00000,274640135.82653,   0.00000,   0.00000,   0.00000,-116205141.96642,   0.00000
-89497702.93306,307508848.10310,-7960107.73155,  -0.00101,   0.00157,  -0.00010,360947303.59722,   0.00000,274640135.82653,   0.00000,   0.00000,   0.00000,-113692832.22931,   0.00000
-90863457.65269,309078446.81073,-8377987.90696,  -0.00102,   0.00158,  -0.00011,363428345.93189,   0.00000,274640135.82653,   0.00000,   0.00000,   0.00000,-111211789.89464,   0.00000
-92264885.07021,310632757.21926,-8806060.28176,  -0.00103,   0.00159,  -0.00011,365921650.91942,   0.00000,274640135.82653,   0.00000,   0.00000,   0.00000,-108718484.90711,   0.00000
-93645928.08894,312166683.22899,-9244324.85597,  -0.00103,   0.00160,  -0.00012,368384458.63171,   0.00000,274640135.82653,   0.00000,   0.00000,   0.00000,-106255677.19482,   0.00000
-95026971.10766,313700609.23872,-9682589.43018,  -0.00104,   0.00161,  -0.00013,370849664.71529,   0.00000,274640135.82653,   0.00000,   0.00000,   0.00000,-103790471.11124,   0.00000
-96423302.42549,315198862.55055,-10120854.00439,  -0.00105,   0.00162,  -0.00013,373292896.40845,   0.00000,274640135.82653,   0.00000,   0.00000,   0.00000,-101347239.41808,   0.00000
-97819633.74331,316697115.86237,-10569310.77800,  -0.00106,   0.00163,  -0.00014,375739365.53602,   0.00000,274640135.82653,   0.00000,   0.00000,   0.00000,-98900770.29051,   0.00000
-99231253.36024,318159696.47630,-11027959.75100,  -0.00107,   0.00164,  -0.00014,378164867.80795,   0.00000,274640135.82653,   0.00000,   0.00000,   0.00000,-96475268.01858,   0.00000
-100607200.27927,319637565.38933,-11496800.92341,  -0.00108,   0.00165,  -0.00015,380584224.32935,   0.00000,274640135.82653,   0.00000,   0.00000,   0.00000,-94055911.49718,   0.00000
-101998435.49739,321079761.60446,-11965642.09582,  -0.00109,   0.00166,  -0.00016,382981797.58536,   0.00000,274640135.82653,   0.00000,   0.00000,   0.00000,-91658338.24117,   0.00000
-103425343.41342,322506669.52048,-12434483.26823,  -0.00110,   0.00167,  -0.00016,385391444.78841,   0.00000,274640135.82653,   0.00000,   0.00000,   0.00000,-89248691.03812,   0.00000
-104816578.63154,323948865.73561,-12913516.64004,  -0.00111,   0.00168,  -0.00017,387794882.97478,   0.00000,274640135.82653,   0.00000,   0.00000,   0.00000,-86845252.85175,   0.00000
-106202717.74997,325335004.85404,-13402742.21125,  -0.00112,   0.00169,  -0.00017,390143877.09138,   0.00000,274640135.82653,   0.00000,   0.00000,   0.00000,-84496258.73515,   0.00000
-107609241.26720,326741528.37126,-13891967.78246,  -0.00113,   0.00170,  -0.00018,392529162.52632,   0.00000,274640135.82653,   0.00000,   0.00000,   0.00000,-82110973.30021,   0.00000
-108995380.38562,328127667.48969,-14391385.55307,  -0.00114,   0.00171,  -0.00019,394884153.87950,   0.00000,274640135.82653,   0.00000,   0.00000,   0.00000,-79755981.94703,   0.00000
-110396807.80315,329478133.91021,-14890803.32368,  -0.00114,   0.00171,  -0.00019,397217620.69875,   0.00000,274640135.82653,   0.00000,   0.00000,   0.00000,-77422515.12778,   0.00000
-111798235.22067,330828600.33074,-15400413.29369,  -0.00115,   0.00172,  -0.00020,399554727.24222,   0.00000,274640135.82653,   0.00000,   0.00000,   0.00000,-75085408.58431,   0.00000
-113199662.63820,332179066.75126,-15910023.26370,  -0.00116,   0.00173,  -0.00021,401894315.48805,   0.00000,274640135.82653,   0.00000,   0.00000,   0.00000,-72745820.33848,   0.00000
-114616378.35483,333493860.47389,-16429825.43310,  -0.00117,   0.00174,  -0.00021,404213736.95525,   0.00000,274640135.82653,   0.00000,   0.00000,   0.00000,-70426398.87128,   0.00000
-116012709.67265,334788269.79771,-16959819.80191,  -0.00118,   0.00175,  -0.00022,406503056.82581,   0.00000,274640135.82653,   0.00000,   0.00000,   0.00000,-68137079.00072,   0.00000
-117409040.99048,336082679.12153,-17489814.17072,  -0.00119,   0.00176,  -0.00023,408794906.96456,   0.00000,274640135.82653,   0.00000,   0.00000,   0.00000,-65845228.86197,   0.00000
-118805372.30830,337377088.44536,-18030000.73893,  -0.00120,   0.00177,  -0.00023,411090585.73283,   0.00000,274640135.82653,   0.00000,   0.00000,   0.00000,-63549550.09370,   0.00000
-120216991.92523,338635825.07128,-18570187.30714,  -0.00121,   0.00178,  -0.00024,413365072.28758,   0.00000,274640135.82653,   0.00000,   0.00000,   0.00000,-61275063.53895,   0.00000
-121592938.84426,339909849.99631,-19110373.87535,  -0.00122,   0.00178,  -0.00025,415631815.03997,   0.00000,274640135.82653,   0.00000,   0.00000,   0.00000,-59008320.78656,   0.00000
-122984174.06238,341148202.22343,-19670944.84236,  -0.00122,   0.00179,  -0.00026,417880211.36011,   0.00000,274640135.82653,   0.00000,   0.00000,   0.00000,-56759924.46642,   0.00000
-124375409.28051,342386554.45055,-20221323.60998,  -0.00123,   0.00180,  -0.00026,420129704.65055,   0.00000,274640135.82653,   0.00000,   0.00000,   0.00000,-54510431.17597,   0.00000
-125781932.79773,343589233.97977,-20792086.77639,  -0.00124,   0.00181,  -0.00027,422361109.57469,   0.00000,274640135.82653,   0.00000,   0.00000,   0.00000,-52279026.25184,   0.00000
-127188456.31496,344791913.50900,-21362849.94280,  -0.00125,   0.00182,  -0.00028,424595139.33052,   0.00000,274640135.82653,   0.00000,   0.00000,   0.00000,-50044996.49601,   0.00000
-128559307.13428,346009881.33732,-21933613.10921,  -0.00126,   0.00183,  -0.00029,426821243.83907,   0.00000,274640135.82653,   0.00000,   0.00000,   0.00000,-47818891.98746,   0.00000
-129945446.25271,347192176.46774,-22514568.47502,  -0.00127,   0.00183,  -0.00029,429027954.90460,   0.00000,274640135.82653,   0.00000,   0.00000,   0.00000,-45612180.92193,   0.00000
-131331585.37114,348374471.59816,-23095523.84083,  -0.00128,   0.00184,  -0.00030,431237219.05659,   0.00000,274640135.82653,   0.00000,   0.00000,   0.00000,-43402916.76994,   0.00000
-132697340.09076,349536382.32978,-23686671.40604,  -0.00129,   0.00185,  -0.00031,433416647.17262,   0.00000,274640135.82653,   0.00000,   0.00000,   0.00000,-41223488.65391,   0.00000
-134098767.50829,350683004.76231,-24288011.17065,  -0.00129,   0.00186,  -0.00032,435610985.23908,   0.00000,274640135.82653,   0.00000,   0.00000,   0.00000,-39029150.58744,   0.00000
-135479810.52701,351809242.79603,-24889350.93526,  -0.00130,   0.00186,  -0.00032,437773927.16189,   0.00000,274640135.82653,   0.00000,   0.00000,   0.00000,-36866208.66464,   0.00000
-136860853.54574,352935480.82975,-25490690.69987,  -0.00131,   0.00187,  -0.00033,439939454.87055,   0.00000,274640135.82653,   0.00000,   0.00000,   0.00000,-34700680.95598,   0.00000
-138206223.86656,354077007.16257,-26102222.66388,  -0.00132,   0.00188,  -0.00034,442098531.45940,   0.00000,274640135.82653,   0.00000,   0.00000,   0.00000,-32541604.36713,   0.00000
-139566882.48649,355182860.79749,-26723946.82730,  -0.00133,   0.00189,  -0.00035,444238732.98882,   0.00000,274640135.82653,   0.00000,   0.00000,   0.00000,-30401402.83771,   0.00000
-140942829.40551,356253041.73451,-27345670.99071,  -0.00134,   0.00190,  -0.00036,446358353.52114,   0.00000,274640135.82653,   0.00000,   0.00000,   0.00000,-28281782.30539,   0.00000
-142303488.02544,357358895.36943,-27967395.15412,  -0.00134,   0.00190,  -0.00036,448503740.97322,   0.00000,274640135.82653,   0.00000,   0.00000,   0.00000,-26136394.85331,   0.00000
-143643762.24656,358444364.60555,-28599311.51693,  -0.00135,   0.00191,  -0.00037,450619520.10046,   0.00000,274640135.82653,   0.00000,   0.00000,   0.00000,-24020615.72607,   0.00000
-145034997.46469,359478872.84467,-29241420.07914,  -0.00136,   0.00192,  -0.00038,452727743.64692,   0.00000,274640135.82653,   0.00000,   0.00000,   0.00000,-21912392.17961,   0.00000
-146354887.28701,360543957.68199,-29883528.64135,  -0.00137,   0.00193,  -0.00039,454816605.45161,   0.00000,274640135.82653,   0.00000,   0.00000,   0.00000,-19823530.37492,   0.00000
-147710449.80724,361593754.22021,-30525637.20357,  -0.00138,   0.00193,  -0.00040,456919073.50944,   0.00000,274640135.82653,   0.00000,   0.00000,   0.00000,-17721062.31709,   0.00000
-149045627.92866,362623166.35963,-31177937.96518,  -0.00139,   0.00194,  -0.00041,458992101.20019,   0.00000,274640135.82653,   0.00000,   0.00000,   0.00000,-15648034.62634,   0.00000
-150380806.05009,363652578.49905,-31840430.92619,  -0.00139,   0.00195,  -0.00041,461069833.84175,   0.00000,274640135.82653,   0.00000,   0.00000,   0.00000,-13570301.98478,   0.00000
-151715984.17151,364681990.63847,-32502923.88720,  -0.00140,   0.00196,  -0.00042,463150193.19024,   0.00000,274640135.82653,   0.00000,   0.00000,   0.00000,-11489942.63629,   0.00000
-153030777.89414,365691018.37908,-33165416.84822,  -0.00141,   0.00196,  -0.00043,465199049.37738,   0.00000,274640135.82653,   0.00000,   0.00000,   0.00000,-9441086.44915,   0.00000
-154396532.61376,366649085.12270,-33838102.00863,  -0.00142,   0.00197,  -0.00044,467241093.84349,   0.00000,274640135.82653,   0.00000,   0.00000,   0.00000,-7399041.98304,   0.00000
-155675653.63849,367673401.16242,-34510787.16904,  -0.00143,   0.00198,  -0.00045,469286074.16227,   0.00000,274640135.82653,   0.00000,   0.00000,   0.00000,-5354061.66426,   0.00000
-157005735.66021,368646756.20514,-35193664.52885,  -0.00143,   0.00198,  -0.00046,471324377.80834,   0.00000,274640135.82653,   0.00000,   0.00000,   0.00000,-3315758.01819,   0.00000
-158315433.28314,369599726.84906,-35876541.88867,  -0.00144,   0.00199,  -0.00047,473331230.92992,   0.00000,274640135.82653,   0.00000,   0.00000,   0.00000,-1308904.89661,   0.00000
-159148374.99766,370235910.67826,-36322526.42873,  -0.00145,   0.00199,  -0.00047,474640133.31036,   0.00000,274640135.82653,   0.00000,   0.00000,   0.00000,  -6.39743,   0.00000
-159338709.27614,370048208.96494,-36513653.64569,  -0.00145,   0.00200,  -0.00048,474644336.24141,   0.00000,274644344.52762,  -0.00000,   0.00000,  -0.00000,  -8.28622,   1.00000
-159917358.30024,369485136.03189,-37050884.32399,  -0.00146,   0.00200,  -0.00048,474655894.52489,   0.00001,274655899.57920,  -0.00001,   0.00001,  -0.00000,  -5.05430,   1.00000
-160437219.76125,368962989.62370,-37594750.59446,  -0.00146,   0.00201,  -0.00049,474667548.14668,   0.00002,274667550.78517,  -0.00001,   0.00002,  -0.00000,  -2.63849,   1.00000
-160978111.12758,368422135.75737,-38137949.60224,  -0.00147,   0.00202,  -0.00050,474679082.63333,   0.00004,274679087.60701,  -0.00002,   0.00003,  -0.00001,  -4.97368,   1.00000
-161516240.33150,367881442.96550,-38678688.33513,  -0.00148,   0.00202,  -0.00051,474690638.54124,   0.00005,274690641.49820,  -0.00003,   0.00004,  -0.00001,  -2.95695,   1.00000
-162043213.92573,367343868.39467,-39229726.10445,  -0.00149,   0.00203,  -0.00052,474702028.75891,   0.00006,274702029.14417,  -0.00003,   0.00004,  -0.00001,  -0.38526,   1.00000
-162566511.51880,366804505.97177,-39788228.13237,  -0.00149,   0.00204,  -0.00053,474713444.62479,   0.00007,274713449.15322,  -0.00004,   0.00005,  -0.00001,  -4.52843,   1.00000
-163087093.90974,366265225.94482,-40344215.91766,  -0.00150,   0.00204,  -0.00054,474724882.96897,   0.00008,274724886.89292,  -0.00005,   0.00006,  -0.00002,  -3.92395,   1.00000
-163597602.46396,365730732.29668,-40900625.33632,  -0.00151,   0.00205,  -0.00055,474736135.64595,   0.00009,274736144.26722,  -0.00005,   0.00007,  -0.00002,  -8.62127,   1.00000
-164105478.19029,365196311.07304,-41454560.76327,  -0.00152,   0.00206,  -0.00056,474747417.77036,   0.00010,274747419.15967,  -0.00006,   0.00008,  -0.00002,  -1.38931,   1.00000
-164608663.33555,364658008.43548,-42025849.72473,  -0.00152,   0.00206,  -0.00057,474758737.29682,   0.00011,274758743.19288,  -0.00006,   0.00008,  -0.00002,  -5.89606,   1.00000
-165102949.89117,364126312.83473,-42587720.92783,  -0.00153,   0.00207,  -0.00058,474769866.42464,   0.00012,274769871.40755,  -0.00007,   0.00009,  -0.00002,  -4.98290,   1.00000
-165593600.85362,363592617.30884,-43157011.78993,  -0.00154,   0.00208,  -0.00059,474781029.26406,   0.00013,274781033.65807,  -0.00008,   0.00010,  -0.00003,  -4.39402,   1.00000
-166105473.58754,363039634.25067,-43725830.08955,  -0.00155,   0.00208,  -0.00060,474792080.20135,   0.00014,274792084.34121,  -0.00008,   0.00011,  -0.00003,  -4.13986,   1.00000
-166582571.89646,362508405.07698,-44303125.77297,  -0.00155,   0.00209,  -0.00061,474803096.37013,   0.00015,274803101.61307,  -0.00009,   0.00011,  -0.00003,  -5.24294,   1.00000
-167057134.10319,361977121.08626,-44877887.11100,  -0.00156,   0.00210,  -0.00062,474814128.85350,   0.00016,274814137.44003,  -0.00009,   0.00012,  -0.00003,  -8.58653,   1.00000
-167528047.20387,361443687.18617,-45459993.01965,  -0.00157,   0.00210,  -0.00063,474825203.19712,   0.00017,274825208.77905,  -0.00010,   0.00013,  -0.00004,  -5.58193,   1.00000
-167989288.85386,360914551.77688,-46042819.23125,  -0.00158,   0.00211,  -0.00064,474836095.24996,   0.00018,274836100.70075,  -0.00011,   0.00014,  -0.00004,  -5.45079,   1.00000
-168448053.50591,360385324.47079,-46623105.86499,  -0.00158,   0.00211,  -0.00065,474847004.03872,   0.00019,274847011.43865,  -0.00011,   0.00015,  -0.00004,  -7.39993,   1.00000
-168896086.68732,359858113.57126,-47214085.00279,  -0.00159,   0.00212,  -0.00066,474857754.08450,   0.00020,274857760.31895,  -0.00012,   0.00015,  -0.00004,  -6.23446,   1.00000
-169372601.85344,359306914.23914,-47801317.18327,  -0.00160,   0.00213,  -0.00067,474868594.01379,   0.00021,274868597.90511,  -0.00012,   0.00016,  -0.00005,  -3.89132,   1.00000
-169783560.36443,358801088.91180,-48398252.51343,  -0.00160,   0.00213,  -0.00068,474879329.56853,   0.00022,274879333.77329,  -0.00013,   0.00017,  -0.00005,  -4.20476,   1.00000
-170246947.60005,358251515.88778,-48993650.47845,  -0.00161,   0.00214,  -0.00069,474890021.18135,   0.00023,274890030.13904,  -0.00014,   0.00018,  -0.00005,  -8.95769,   1.00000
-170653108.01290,357745405.00276,-49585432.75980,  -0.00162,   0.00214,  -0.00070,474900798.84333,   0.00024,274900804.67281,  -0.00014,   0.00018,  -0.00005,  -5.82947,   1.00000
-171103450.24101,357197261.09844,-50189098.44875,  -0.00162,   0.00215,  -0.00071,474911354.48679,   0.00025,274911360.57880,  -0.00015,   0.00019,  -0.00006,  -6.09201,   1.00000
-171496627.29918,356692610.81578,-50789121.31305,  -0.00163,   0.00215,  -0.00072,474921989.44066,   0.00026,274921994.53044,  -0.00015,   0.00020,  -0.00006,  -5.08978,   1.00000
-171911431.69549,356167875.35524,-51388934.29326,  -0.00164,   0.00216,  -0.00073,474932514.00838,   0.00027,274932519.87469,  -0.00016,   0.00020,  -0.00006,  -5.86632,   1.00000
-172322600.67720,355640545.09231,-51995976.85769,  -0.00164,   0.00217,  -0.00074,474943074.99155,   0.00028,274943084.54330,  -0.00017,   0.00021,  -0.00006,  -9.55175,   1.00000
-172700659.84982,355136870.86619,-52601752.58181,  -0.00165,   0.00217,  -0.00075,474953597.75542,   0.00029,274953598.55066,  -0.00017,   0.00022,  -0.00007,  -0.79524,   1.00000
-173100399.31547,354612940.47934,-53207383.82288,  -0.00166,   0.00218,  -0.00076,474964003.34953,   0.00030,274964004.71064,  -0.00018,   0.00023,  -0.00007,  -1.36110,   1.00000
-173496497.95486,354086303.60839,-53820211.42354,  -0.00166,   0.00218,  -0.00077,474974445.97422,   0.00031,274974451.23371,  -0.00018,   0.00023,  -0.00007,  -5.25950,   1.00000
-173883460.38052,353563211.39287,-54434305.46622,  -0.00167,   0.00219,  -0.00078,474984713.16385,   0.00031,274984719.69479,  -0.00019,   0.00024,  -0.00007,  -6.53094,   1.00000
-174242895.15821,353057426.16986,-55053051.93145,  -0.00168,   0.00219,  -0.00079,474995154.03911,   0.00032,274995156.64056,  -0.00019,   0.00025,  -0.00008,  -2.60145,   1.00000
-174593337.65480,352555040.13457,-55673123.61630,  -0.00168,   0.00220,  -0.00080,475005411.67595,   0.00033,275005415.62361,  -0.00020,   0.00026,  -0.00008,  -3.94767,   1.00000
-174965546.15693,352032092.60920,-56293153.35802,  -0.00169,   0.00220,  -0.00081,475015558.96824,   0.00034,275015568.15948,  -0.00021,   0.00026,  -0.00008,  -9.19124,   1.00000
-175311673.53225,351529054.67988,-56908007.74480,  -0.00169,   0.00221,  -0.00082,475025862.52581,   0.00035,275025868.35717,  -0.00021,   0.00027,  -0.00008,  -5.83136,   1.00000
-175647444.12489,351026688.62016,-57534064.45437,  -0.00170,   0.00222,  -0.00083,475036006.15628,   0.00036,275036012.15293,  -0.00022,   0.00028,  -0.00009,  -5.99665,   1.00000
-176005024.50284,350503601.78214,-58160144.58616,  -0.00171,   0.00222,  -0.00085,475046045.96539,   0.00037,275046050.21450,  -0.00022,   0.00028,  -0.00009,  -4.24911,   1.00000
-176304399.25891,350021728.25570,-58792166.75179,  -0.00171,   0.00223,  -0.00086,475056184.66762,   0.00038,275056186.23390,  -0.00023,   0.00029,  -0.00009,  -1.56629,   1.00000
-176627220.49803,349521672.63867,-59414555.52134,  -0.00172,   0.00223,  -0.00087,475066189.52561,   0.00039,275066194.42353,  -0.00023,   0.00030,  -0.00010,  -4.89792,   1.00000
-176946477.46905,349018518.33547,-60044039.83025,  -0.00172,   0.00224,  -0.00088,475076246.06807,   0.00040,275076246.08271,  -0.00024,   0.00030,  -0.00010,  -0.01464,   1.00000
-177255407.64816,348515603.55910,-60684866.62237,  -0.00173,   0.00224,  -0.00089,475086139.51179,   0.00041,275086143.46268,  -0.00024,   0.00031,  -0.00010,  -3.95089,   1.00000
-177540013.52120,348035480.02539,-61310643.18480,  -0.00174,   0.00225,  -0.00090,475096159.20398,   0.00042,275096165.49065,  -0.00025,   0.00032,  -0.00010,  -6.28666,   1.00000
-177814413.96880,347555454.28790,-61947851.90645,  -0.00174,   0.00225,  -0.00091,475106028.28598,   0.00043,275106033.25571,  -0.00025,   0.00032,  -0.00011,  -4.96974,   1.00000
-178109183.11319,347051492.26724,-62594882.39833,  -0.00175,   0.00226,  -0.00092,475115812.28947,   0.00043,275115820.37498,  -0.00026,   0.00033,  -0.00011,  -8.08551,   1.00000
-178379723.44223,346570482.07759,-63226808.89658,  -0.00175,   0.00226,  -0.00093,475125730.32703,   0.00044,275125731.44111,  -0.00027,   0.00034,  -0.00011,  -1.11408,   1.00000
-178640053.35755,346089319.92506,-63870251.54212,  -0.00176,   0.00227,  -0.00095,475135483.52426,   0.00045,275135489.52907,  -0.00027,   0.00034,  -0.00012,  -6.00481,   1.00000
-178898524.10450,345607605.98152,-64511065.52135,  -0.00176,   0.00227,  -0.00096,475145264.72704,   0.00046,275145269.46101,  -0.00028,   0.00035,  -0.00012,  -4.73397,   1.00000
-179179020.40350,345104594.49707,-65152165.24216,  -0.00177,   0.00228,  -0.00097,475154942.70996,   0.00047,275154945.77080,  -0.00028,   0.00036,  -0.00012,  -3.06084,   1.00000
-179425349.07428,344622001.97238,-65801941.47912,  -0.00177,   0.00228,  -0.00098,475164592.16119,   0.00048,275164595.92546,  -0.00029,   0.00036,  -0.00012,  -3.76428,   1.00000
-179639317.97123,344162673.31926,-66450806.55594,  -0.00178,   0.00229,  -0.00099,475174186.21960,   0.00049,275174195.12176,  -0.00029,   0.00037,  -0.00013,  -8.90216,   1.00000
-179851570.64909,343702714.14033,-67097048.06190,  -0.00179,   0.00229,  -0.00100,475183814.66832,   0.00050,275183816.32256,  -0.00030,   0.00038,  -0.00013,  -1.65424,   1.00000
-180085969.33237,343221212.36579,-67743677.37997,  -0.00179,   0.00230,  -0.00101,475193328.20173,   0.00051,275193334.58568,  -0.00030,   0.00038,  -0.00013,  -6.38396,   1.00000
-180286301.19238,342759938.14152,-68399015.00158,  -0.00180,   0.00230,  -0.00103,475202822.79931,   0.00051,275202827.49398,  -0.00031,   0.00039,  -0.00014,  -4.69467,   1.00000
-180484932.07904,342297980.21576,-69051712.00581,  -0.00180,   0.00230,  -0.00104,475212334.08888,   0.00052,275212343.00723,  -0.00031,   0.00040,  -0.00014,  -8.91835,   1.00000
-180681881.62164,341835373.24995,-69701774.90410,  -0.00181,   0.00231,  -0.00105,475221880.25095,   0.00053,275221880.92954,  -0.00032,   0.00040,  -0.00014,  -0.67859,   1.00000
-180870510.60166,341374889.40213,-70354155.69913,  -0.00181,   0.00231,  -0.00106,475231237.34113,   0.00054,275231242.86901,  -0.00032,   0.00041,  -0.00015,  -5.52788,   1.00000
-181055631.98464,340910597.53274,-71013411.00113,  -0.00182,   0.00232,  -0.00107,475240649.24634,   0.00055,275240654.35276,  -0.00033,   0.00041,  -0.00015,  -5.10642,   1.00000
-181208618.55170,340469434.31484,-71671893.30544,  -0.00182,   0.00232,  -0.00108,475250014.05714,   0.00056,275250014.79078,  -0.00033,   0.00042,  -0.00015,  -0.73364,   1.00000
-181383863.84154,340006340.27452,-72330923.72276,  -0.00183,   0.00233,  -0.00109,475259264.82115,   0.00057,275259273.75579,  -0.00034,   0.00043,  -0.00015,  -8.93464,   1.00000
-181527020.76415,339566346.99764,-72989248.63143,  -0.00183,   0.00233,  -0.00111,475268473.44466,   0.00057,275268481.51471,  -0.00034,   0.00043,  -0.00016,  -8.07005,   1.00000
-181668651.03641,339125590.16332,-73644967.98803,  -0.00184,   0.00234,  -0.00112,475277705.24166,   0.00058,275277712.07304,  -0.00035,   0.00044,  -0.00016,  -6.83138,   1.00000
-181776363.21516,338704633.63157,-74309451.51704,  -0.00184,   0.00234,  -0.00113,475286918.95232,   0.00059,275286919.42363,  -0.00035,   0.00044,  -0.00016,  -0.47132,   1.00000
-181936877.34316,338237726.80468,-74972613.14917,  -0.00185,   0.00234,  -0.00114,475296098.39879,   0.00060,275296100.33948,  -0.00036,   0.00045,  -0.00017,  -1.94069,   1.00000
-182011107.47639,337839008.31779,-75633802.79920,  -0.00185,   0.00235,  -0.00115,475305277.91745,   0.00061,275305279.71836,  -0.00036,   0.00046,  -0.00017,  -1.80091,   1.00000
-182131567.40091,337396647.68035,-76299043.19405,  -0.00185,   0.00235,  -0.00117,475314230.76178,   0.00062,275314234.37989,  -0.00037,   0.00046,  -0.00017,  -3.61811,   1.00000
-182226772.07206,336974888.65205,-76958328.99102,  -0.00186,   0.00236,  -0.00118,475323333.60939,   0.00063,275323336.13416,  -0.00037,   0.00047,  -0.00018,  -2.52477,   1.00000
-182342309.52265,336527472.16587,-77627744.53149,  -0.00186,   0.00236,  -0.00119,475332361.63772,   0.00063,275332367.03480,  -0.00038,   0.00047,  -0.00018,  -5.39709,   1.00000
-182395482.11518,336126737.38745,-78298638.19044,  -0.00187,   0.00237,  -0.00120,475341271.11768,   0.00064,275341272.41011,  -0.00038,   0.00048,  -0.00018,  -1.29243,   1.00000
-182477781.73055,335701306.68235,-78964839.66325,  -0.00187,   0.00237,  -0.00121,475350266.23544,   0.00065,275350276.15938,  -0.00039,   0.00049,  -0.00019,  -9.92394,   1.00000
-182528270.17001,335298765.97935,-79630515.03069,  -0.00188,   0.00237,  -0.00122,475359224.58183,   0.00066,275359228.65184,  -0.00039,   0.00049,  -0.00019,  -4.07002,   1.00000
-182601200.06236,334873722.00155,-80297065.00689,  -0.00188,   0.00238,  -0.00124,475368075.71016,   0.00067,275368081.30976,  -0.00040,   0.00050,  -0.00019,  -5.59960,   1.00000
-182640209.61812,334468012.84842,-80972426.91407,  -0.00188,   0.00238,  -0.00125,475376911.01523,   0.00067,275376913.85634,  -0.00040,   0.00050,  -0.00020,  -2.84111,   1.00000
-182649632.99144,334088568.89674,-81638037.84961,  -0.00189,   0.00239,  -0.00126,475385656.56403,   0.00068,275385664.31649,  -0.00041,   0.00051,  -0.00020,  -7.75246,   1.00000
-182709864.07797,333659207.57492,-82311724.55365,  -0.00189,   0.00239,  -0.00127,475394414.87283,   0.00069,275394421.60615,  -0.00041,   0.00051,  -0.00020,  -6.73332,   1.00000
-182707862.87362,333276295.60520,-82987156.26215,  -0.00190,   0.00239,  -0.00128,475403046.26502,   0.00070,275403053.25163,  -0.00041,   0.00052,  -0.00021,  -6.98661,   1.00000
-182735128.67008,332868673.02824,-83657795.45465,  -0.00190,   0.00240,  -0.00130,475411780.19765,   0.00071,275411783.96329,  -0.00042,   0.00053,  -0.00021,  -3.76563,   1.00000
-182730703.85337,332483765.08978,-84328048.42906,  -0.00190,   0.00240,  -0.00131,475420462.16928,   0.00071,275420463.71484,  -0.00042,   0.00053,  -0.00021,  -1.54556,   1.00000
-182716090.07735,332096021.64804,-85010789.68600,  -0.00191,   0.00240,  -0.00132,475428992.45050,   0.00072,275429002.37740,  -0.00043,   0.00054,  -0.00022,  -9.92690,   1.00000
-182678909.44091,331732736.26863,-85678057.48633,  -0.00191,   0.00241,  -0.00133,475437646.13049,   0.00073,275437655.45141,  -0.00043,   0.00054,  -0.00022,  -9.32092,   1.00000
-182662036.40867,331342832.73025,-86355616.51364,  -0.00192,   0.00241,  -0.00135,475446239.26681,   0.00074,275446242.89692,  -0.00044,   0.00055,  -0.00022,  -3.63011,   1.00000
-182639450.57824,330957313.39632,-87027434.39084,  -0.00192,   0.00242,  -0.00136,475454621.48510,   0.00075,275454623.63167,  -0.00044,   0.00055,  -0.00023,  -2.14656,   1.00000
-182589829.55142,330588935.43302,-87702078.07019,  -0.00192,   0.00242,  -0.00137,475463175.17988,   0.00075,275463185.03783,  -0.00045,   0.00056,  -0.00023,  -9.85795,   1.00000
-182532279.44084,330221102.96717,-88380222.34220,  -0.00193,   0.00242,  -0.00138,475471567.63634,   0.00076,275471573.16814,  -0.00045,   0.00056,  -0.00023,  -5.53180,   1.00000
-182443193.11268,329875724.18376,-89058118.75314,  -0.00193,   0.00243,  -0.00139,475479902.95795,   0.00077,275479910.84673,  -0.00046,   0.00057,  -0.00024,  -7.88877,   1.00000
-182383616.65804,329505615.01204,-89731096.89872,  -0.00193,   0.00243,  -0.00141,475488347.88741,   0.00078,275488348.20612,  -0.00046,   0.00058,  -0.00024,  -0.31872,   1.00000
-182313700.94160,329132045.29237,-90416780.96757,  -0.00194,   0.00243,  -0.00142,475496638.16551,   0.00078,275496647.66654,  -0.00046,   0.00058,  -0.00024,  -9.50104,   1.00000
-182214622.67242,328784740.14593,-91093197.82728,  -0.00194,   0.00244,  -0.00143,475504861.70577,   0.00079,275504861.90090,  -0.00047,   0.00059,  -0.00025,  -0.19513,   1.00000
-182114583.82698,328436248.79428,-91767064.87020,  -0.00194,   0.00244,  -0.00144,475513096.04686,   0.00080,275513100.89060,  -0.00047,   0.00059,  -0.00025,  -4.84374,   1.00000
-181980677.48979,328106180.78681,-92449814.95362,  -0.00195,   0.00244,  -0.00146,475521316.84415,   0.00081,275521325.17784,  -0.00048,   0.00060,  -0.00025,  -8.33368,   1.00000
-181871811.46292,327756638.15832,-93124938.40819,  -0.00195,   0.00245,  -0.00147,475529416.14908,   0.00081,275529416.31170,  -0.00048,   0.00060,  -0.00026,  -0.16261,   1.00000
-181736075.53004,327424136.94909,-93802534.30076,  -0.00195,   0.00245,  -0.00148,475537685.79640,   0.00082,275537690.79849,  -0.00049,   0.00061,  -0.00026,  -5.00210,   1.00000
-181592407.84730,327091654.46310,-94484014.47263,  -0.00195,   0.00245,  -0.00149,475545792.85332,   0.00083,275545793.11407,  -0.00049,   0.00061,  -0.00026,  -0.26075,   1.00000
-181443246.52267,326763115.71239,-95160486.60760,  -0.00196,   0.00246,  -0.00150,475553678.03400,   0.00084,275553686.70252,  -0.00049,   0.00062,  -0.00027,  -8.66852,   1.00000
-181297856.53639,326428128.70167,-95836844.79550,  -0.00196,   0.00246,  -0.00152,475561834.57068,   0.00084,275561839.47243,  -0.00050,   0.00062,  -0.00027,  -4.90175,   1.00000
-181113912.19668,326116439.10895,-96519734.57929,  -0.00196,   0.00246,  -0.00153,475569745.31264,   0.00085,275569745.33974,  -0.00050,   0.00063,  -0.00027,  -0.02710,   1.00000
-180929164.22709,325803401.89484,-97200081.75358,  -0.00197,   0.00247,  -0.00154,475577674.03448,   0.00086,275577676.75385,  -0.00051,   0.00063,  -0.00028,  -2.71936,   1.00000
-180743629.22310,325489043.60760,-97877889.75906,  -0.00197,   0.00247,  -0.00155,475585630.50031,   0.00087,275585633.58102,  -0.00051,   0.00064,  -0.00028,  -3.08071,   1.00000
-180550093.35280,325174351.41579,-98559863.77217,  -0.00197,   0.00247,  -0.00157,475593413.29839,   0.00087,275593418.99148,  -0.00051,   0.00064,  -0.00028,  -5.69309,   1.00000
-180332415.72692,324880734.17660,-99235138.70472,  -0.00197,   0.00248,  -0.00158,475601343.01689,   0.00088,275601351.80887,  -0.00052,   0.00065,  -0.00029,  -8.79199,   1.00000
-180137382.57191,324563329.27365,-99912084.44335,  -0.00198,   0.00248,  -0.00159,475609181.76238,   0.00089,275609188.17162,  -0.00052,   0.00065,  -0.00029,  -6.40924,   1.00000
-179903641.72767,324268771.52015,-100595927.08887,  -0.00198,   0.00248,  -0.00160,475616769.07538,   0.00090,275616778.60765,  -0.00053,   0.00066,  -0.00029,  -9.53226,   1.00000
-179676525.69067,323971987.07025,-101270409.76021,  -0.00198,   0.00249,  -0.00162,475624590.43599,   0.00090,275624591.36957,  -0.00053,   0.00066,  -0.00030,  -0.93358,   1.00000
-179441347.54738,323674600.10015,-101949273.87290,  -0.00198,   0.00249,  -0.00163,475632225.25190,   0.00091,275632233.26084,  -0.00053,   0.00067,  -0.00030,  -8.00894,   1.00000
-179172165.02552,323394793.17159,-102637028.33273,  -0.00198,   0.00249,  -0.00164,475639864.78835,   0.00092,275639866.28696,  -0.00054,   0.00067,  -0.00031,  -1.49861,   1.00000
-178904971.68392,323117803.77986,-103313503.23137,  -0.00199,   0.00249,  -0.00165,475647480.17661,   0.00092,275647485.36199,  -0.00054,   0.00067,  -0.00031,  -5.18538,   1.00000
-178637156.09407,322839379.21279,-103987483.42914,  -0.00199,   0.00250,  -0.00166,475655124.02938,   0.00093,275655130.18629,  -0.00055,   0.00068,  -0.00031,  -6.15691,   1.00000
-178361225.34336,322560123.56450,-104666020.09966,  -0.00199,   0.00250,  -0.00168,475662597.01211,   0.00094,275662604.59537,  -0.00055,   0.00068,  -0.00032,  -7.58325,   1.00000
-178053936.60354,322302597.13586,-105344768.61818,  -0.00199,   0.00250,  -0.00169,475670027.94351,   0.00094,275670030.47349,  -0.00055,   0.00069,  -0.00032,  -2.52998,   1.00000
-177746074.77086,322043539.81119,-106021035.90990,  -0.00199,   0.00251,  -0.00170,475677478.86939,   0.00095,275677482.50798,  -0.00056,   0.00069,  -0.00032,  -3.63859,   1.00000
-177437656.52507,321782976.53065,-106694824.76891,  -0.00200,   0.00251,  -0.00171,475684958.87583,   0.00096,275684960.57301,  -0.00056,   0.00070,  -0.00033,  -1.69719,   1.00000
-177121044.69545,321521339.42275,-107373333.99446,  -0.00200,   0.00251,  -0.00173,475692264.25065,   0.00097,275692268.87489,  -0.00057,   0.00070,  -0.00033,  -4.62424,   1.00000
-176803869.36386,321258167.69372,-108049376.23704,  -0.00200,   0.00251,  -0.00174,475699599.28572,   0.00097,275699603.46524,  -0.00057,   0.00071,  -0.00033,  -4.17953,   1.00000
-176455328.24424,321016571.05446,-108725707.79016,  -0.00200,   0.00252,  -0.00175,475706889.56332,   0.00098,275706890.13310,  -0.00057,   0.00071,  -0.00034,  -0.56978,   1.00000
-176106286.49669,320773389.37779,-109399571.50385,  -0.00200,   0.00252,  -0.00176,475714200.56850,   0.00099,275714203.21952,  -0.00058,   0.00072,  -0.00034,  -2.65102,   1.00000
-175748960.85049,320528894.02111,-110078314.85752,  -0.00200,   0.00252,  -0.00178,475721342.16872,   0.00099,275721347.21624,  -0.00058,   0.00072,  -0.00034,  -5.04752,   1.00000
-175337224.49956,320328637.23084,-110752801.93631,  -0.00201,   0.00252,  -0.00179,475728558.86039,   0.00100,275728565.41564,  -0.00058,   0.00072,  -0.00035,  -6.55525,   1.00000
-174979006.91023,320080845.39984,-111426635.79682,  -0.00201,   0.00253,  -0.00180,475735761.11662,   0.00101,275735762.59335,  -0.00059,   0.00073,  -0.00035,  -1.47673,   1.00000
-174615200.66927,319836236.66031,-112096986.89876,  -0.00201,   0.00253,  -0.00181,475742744.18733,   0.00101,275742746.89662,  -0.00059,   0.00073,  -0.00035,  -2.70929,   1.00000
-174194189.14865,319631233.43111,-112771561.38980,  -0.00201,   0.00253,  -0.00182,475749849.84427,   0.00102,275749849.84968,  -0.00059,   0.00074,  -0.00036,  -0.00541,   1.00000
-173795735.73883,319401618.49231,-113448362.10522,  -0.00201,   0.00253,  -0.00184,475756853.37326,   0.00102,275756858.33777,  -0.00060,   0.00074,  -0.00036,  -4.96451,   1.00000
-173368716.66357,319197966.33846,-114117143.10793,  -0.00201,   0.00254,  -0.00185,475763767.50573,   0.00103,275763775.19141,  -0.00060,   0.00075,  -0.00037,  -7.68568,   1.00000
-172938465.00053,318987888.81739,-114791920.49604,  -0.00201,   0.00254,  -0.00186,475770760.73279,   0.00104,275770764.09574,  -0.00060,   0.00075,  -0.00037,  -3.36295,   1.00000
-172479681.14527,318803721.74933,-115458734.29298,  -0.00201,   0.00254,  -0.00187,475777653.59258,   0.00104,275777661.19691,  -0.00061,   0.00075,  -0.00037,  -7.60433,   1.00000
-172043434.81836,318594838.60839,-116127929.01954,  -0.00201,   0.00254,  -0.00189,475784460.33545,   0.00105,275784463.55183,  -0.00061,   0.00076,  -0.00038,  -3.21638,   1.00000
-171603921.27194,318379438.41591,-116803061.70061,  -0.00202,   0.00255,  -0.00190,475791339.09138,   0.00106,275791339.16395,  -0.00061,   0.00076,  -0.00038,  -0.07257,   1.00000
-171104760.60015,318212744.23929,-117473224.94273,  -0.00202,   0.00255,  -0.00191,475798046.29134,   0.00106,275798049.84021,  -0.00062,   0.00077,  -0.00038,  -3.54887,   1.00000
-170636406.45290,318021425.89670,-118138077.45527,  -0.00202,   0.00255,  -0.00192,475804854.81030,   0.00107,275804860.51011,  -0.00062,   0.00077,  -0.00039,  -5.69981,   1.00000
-170159380.00188,317828074.95303,-118808324.69381,  -0.00202,   0.00255,  -0.00193,475811498.45482,   0.00108,275811504.07851,  -0.00062,   0.00077,  -0.00039,  -5.62370,   1.00000
-169653789.70432,317660572.78414,-119470848.79931,  -0.00202,   0.00255,  -0.00195,475818052.42502,   0.00108,275818054.89815,  -0.00063,   0.00078,  -0.00039,  -2.47314,   1.00000
-169144980.38210,317486317.68194,-120139246.83711,  -0.00202,   0.00256,  -0.00196,475824672.72239,   0.00109,275824680.66522,  -0.00063,   0.00078,  -0.00040,  -7.94283,   1.00000
-168635889.20789,317310228.66584,-120805244.31609,  -0.00202,   0.00256,  -0.00197,475831333.63991,   0.00109,275831333.88957,  -0.00063,   0.00079,  -0.00040,  -0.24965,   1.00000
-168120910.87707,317136822.58047,-121468573.35031,  -0.00202,   0.00256,  -0.00198,475837765.76763,   0.00110,275837772.61533,  -0.00064,   0.00079,  -0.00040,  -6.84770,   1.00000
-167583007.44835,316984717.69427,-122124550.92029,  -0.00202,   0.00256,  -0.00200,475844350.34575,   0.00111,275844360.10504,  -0.00064,   0.00079,  -0.00041,  -9.75929,   1.00000
-167033279.76111,316825213.57953,-122794299.31456,  -0.00202,   0.00256,  -0.00201,475850824.18247,   0.00111,275850830.48558,  -0.00064,   0.00080,  -0.00041,  -6.30311,   1.00000
-166477555.64131,316668242.82243,-123461535.22285,  -0.00202,   0.00257,  -0.00202,475857078.96133,   0.00112,275857086.44901,  -0.00065,   0.00080,  -0.00041,  -7.48768,   1.00000
-165901975.77821,316537588.59876,-124113240.14787,  -0.00202,   0.00257,  -0.00203,475863437.40578,   0.00112,275863442.17248,  -0.00065,   0.00080,  -0.00042,  -4.76670,   1.00000
-165345770.01473,316376738.80663,-124775798.98483,  -0.00202,   0.00257,  -0.00204,475869751.13924,   0.00113,275869753.45295,  -0.00065,   0.00081,  -0.00042,  -2.31371,   1.00000
-164757942.66216,316236486.00547,-125438987.49478,  -0.00202,   0.00257,  -0.00206,475876019.91640,   0.00114,275876021.46555,  -0.00065,   0.00081,  -0.00042,  -1.54915,   1.00000
-164172898.78201,316099396.00979,-126091770.06281,  -0.00202,   0.00257,  -0.00207,475882261.10155,   0.00114,275882267.00488,  -0.00066,   0.00082,  -0.00043,  -5.90333,   1.00000
-163553241.02067,315977672.15644,-126753246.53419,  -0.00202,   0.00258,  -0.00208,475888517.24116,   0.00115,275888520.14975,  -0.00066,   0.00082,  -0.00043,  -2.90859,   1.00000
-162958851.12174,315835847.02724,-127409541.54395,  -0.00202,   0.00258,  -0.00209,475894620.72004,   0.00115,275894628.80036,  -0.00066,   0.00082,  -0.00044,  -8.08032,   1.00000
-162332773.46924,315714467.47872,-128066529.64926,  -0.00202,   0.00258,  -0.00210,475900690.79272,   0.00116,275900694.83911,  -0.00067,   0.00083,  -0.00044,  -4.04639,   1.00000
-161678024.44838,315618665.43938,-128716256.36873,  -0.00202,   0.00258,  -0.00212,475906662.94063,   0.00116,275906667.02561,  -0.00067,   0.00083,  -0.00044,  -4.08498,   1.00000
-161051653.67591,315493189.24178,-129368577.19448,  -0.00202,   0.00258,  -0.00213,475912779.56843,   0.00117,275912789.42548,  -0.00067,   0.00083,  -0.00045,  -9.85706,   1.00000
-160418917.42861,315370012.38744,-130018980.29057,  -0.00202,   0.00258,  -0.00214,475918685.77128,   0.00117,275918695.70600,  -0.00067,   0.00084,  -0.00045,  -9.93472,   1.00000
-159729087.18276,315285122.42322,-130672690.47480,  -0.00202,   0.00259,  -0.00215,475924732.10414,   0.00118,275924734.89940,  -0.00068,   0.00084,  -0.00045,  -2.79526,   1.00000
-159064460.64402,315180083.00845,-131321513.90538,  -0.00202,   0.00259,  -0.00216,475930622.37880,   0.00119,275930628.02123,  -0.00068,   0.00084,  -0.00046,  -5.64242,   1.00000
-158393320.90173,315077220.30229,-131968602.77473,  -0.00202,   0.00259,  -0.00217,475936300.86263,   0.00119,275936304.77721,  -0.00068,   0.00085,  -0.00046,  -3.91458,   1.00000
-157696768.26229,314990244.31641,-132615850.78732,  -0.00202,   0.00259,  -0.00219,475942181.29712,   0.00120,275942185.41357,  -0.00069,   0.00085,  -0.00046,  -4.11644,   1.00000
-156990579.69913,314899940.95585,-133269230.45511,  -0.00202,   0.00259,  -0.00220,475947899.00202,   0.00120,275947903.78749,  -0.00069,   0.00085,  -0.00047,  -4.78547,   1.00000
-156287310.50189,314812886.56008,-133912518.86112,  -0.00202,   0.00259,  -0.00221,475953594.84219,   0.00121,275953596.99549,  -0.00069,   0.00086,  -0.00047,  -2.15329,   1.00000
-155552151.29070,314745808.69065,-134556576.33676,  -0.00201,   0.00259,  -0.00222,475959242.18096,   0.00121,275959250.30354,  -0.00069,   0.00086,  -0.00047,  -8.12258,   1.00000
-154816909.66030,314676529.55805,-135198334.84963,  -0.00201,   0.00260,  -0.00223,475964926.08028,   0.00122,275964932.48488,  -0.00070,   0.00086,  -0.00048,  -6.40460,   1.00000
-154074870.51203,314609204.34654,-135838662.18287,  -0.00201,   0.00260,  -0.00224,475970394.07440,   0.00122,275970398.08034,  -0.00070,   0.00087,  -0.00048,  -4.00594,   1.00000
-153329664.92450,314534145.17995,-136484396.55746,  -0.00201,   0.00260,  -0.00226,475975946.06099,   0.00123,275975947.97810,  -0.00070,   0.00087,  -0.00048,  -1.91710,   1.00000
-152587423.48157,314462402.74534,-137120172.87116,  -0.00201,   0.00260,  -0.00227,475981467.90238,   0.00123,275981471.42020,  -0.00070,   0.00087,  -0.00048,  -3.51782,   1.00000
-151813174.04004,314410442.61919,-137756748.09250,  -0.00201,   0.00260,  -0.00228,475986951.94356,   0.00124,275986956.22591,  -0.00071,   0.00087,  -0.00049,  -4.28234,   1.00000
-151031900.44906,314360307.44145,-138392105.66907,  -0.00201,   0.00260,  -0.00229,475992223.92927,   0.00124,275992224.19896,  -0.00071,   0.00088,  -0.00049,  -0.26968,   1.00000
-150247467.89389,314302275.10135,-139032790.61872,  -0.00201,   0.00260,  -0.00230,475997577.02258,   0.00125,275997578.02675,  -0.00071,   0.00088,  -0.00049,  -1.00418,   1.00000
-149466017.94763,314247589.09514,-139663627.55660,  -0.00201,   0.00261,  -0.00231,476002899.31021,   0.00125,276002904.48309,  -0.00071,   0.00088,  -0.00050,  -5.17288,   1.00000
-148652446.88178,314212498.36622,-140295282.73557,  -0.00200,   0.00261,  -0.00232,476008193.09128,   0.00126,276008193.53014,  -0.00071,   0.00089,  -0.00050,  -0.43886,   1.00000
-147809795.86017,314202570.98169,-140920223.94327,  -0.00200,   0.00261,  -0.00234,476013379.84130,   0.00126,276013388.42072,  -0.00072,   0.00089,  -0.00050,  -8.57941,   1.00000
-146985837.12946,314161078.63428,-141556118.82451,  -0.00200,   0.00261,  -0.00235,476018542.82352,   0.00127,276018547.85252,  -0.00072,   0.00089,  -0.00051,  -5.02899,   1.00000
-146164869.37250,314122958.64796,-142182271.61133,  -0.00200,   0.00261,  -0.00236,476023674.29339,   0.00127,276023679.06137,  -0.00072,   0.00090,  -0.00051,  -4.76798,   1.00000
-145311651.81183,314104226.64995,-142809245.79361,  -0.00200,   0.00261,  -0.00237,476028767.42866,   0.00128,276028774.34352,  -0.00072,   0.00090,  -0.00051,  -6.91486,   1.00000
-144461465.31471,314088894.27095,-143426550.76328,  -0.00200,   0.00261,  -0.00238,476033839.93392,   0.00128,276033840.59841,  -0.00073,   0.00090,  -0.00052,  -0.66449,   1.00000
-143597575.83682,314063516.30279,-144057887.93218,  -0.00199,   0.00261,  -0.00239,476038801.86913,   0.00129,276038807.58148,  -0.00073,   0.00090,  -0.00052,  -5.71236,   1.00000
-142704373.11392,314063139.07805,-144682642.84765,  -0.00199,   0.00261,  -0.00240,476043672.61613,   0.00129,276043681.03949,  -0.00073,   0.00091,  -0.00052,  -8.42336,   1.00000
-141846516.83133,314044572.90845,-145294751.47840,  -0.00199,   0.00261,  -0.00241,476048580.84946,   0.00130,276048589.30125,  -0.00073,   0.00091,  -0.00053,  -8.45178,   1.00000
-140920844.87264,314060860.55194,-145918083.47203,  -0.00199,   0.00262,  -0.00243,476053454.68035,   0.00130,276053458.92324,  -0.00073,   0.00091,  -0.00053,  -4.24288,   1.00000
-140052113.30548,314035456.59436,-146534699.89450,  -0.00199,   0.00262,  -0.00244,476058238.67271,   0.00130,276058239.46073,  -0.00074,   0.00091,  -0.00053,  -0.78801,   1.00000
-139096974.12443,314074152.30451,-147149264.16017,  -0.00198,   0.00262,  -0.00245,476063045.63709,   0.00131,276063046.39518,  -0.00074,   0.00092,  -0.00053,  -0.75810,   1.00000
-138198799.59803,314071229.25030,-147757230.81817,  -0.00198,   0.00262,  -0.00246,476067757.67843,   0.00131,276067762.88630,  -0.00074,   0.00092,  -0.00054,  -5.20787,   1.00000
-137253940.06695,314079145.46696,-148382271.37189,  -0.00198,   0.00262,  -0.00247,476072315.16000,   0.00132,276072321.31262,  -0.00074,   0.00092,  -0.00054,  -6.15263,   1.00000
-136323216.52101,314092664.23142,-148988808.61612,  -0.00198,   0.00262,  -0.00248,476077030.15253,   0.00132,276077035.67347,  -0.00074,   0.00092,  -0.00054,  -5.52093,   1.00000
-135384272.77826,314107477.49295,-149595011.11110,  -0.00197,   0.00262,  -0.00249,476081529.98753,   0.00133,276081532.54310,  -0.00075,   0.00093,  -0.00055,  -2.55557,   1.00000
-134412666.27240,314141072.23022,-150202040.48530,  -0.00197,   0.00262,  -0.00250,476085996.55775,   0.00133,276085997.85614,  -0.00075,   0.00093,  -0.00055,  -1.29839,   1.00000
-133441025.81029,314172073.85662,-150806843.69902,  -0.00197,   0.00262,  -0.00251,476090490.86957,   0.00133,276090494.08221,  -0.00075,   0.00093,  -0.00055,  -3.21264,   1.00000
-132436677.76540,314221708.73966,-151412425.68290,  -0.00197,   0.00262,  -0.00252,476094951.66573,   0.00134,276094960.01068,  -0.00075,   0.00093,  -0.00055,  -8.34495,   1.00000
-131456508.40568,314251213.90503,-152014802.53418,  -0.00196,   0.00262,  -0.00253,476099261.66054,   0.00134,276099270.33252,  -0.00075,   0.00094,  -0.00056,  -8.67197,   1.00000
-130452152.52797,314295575.16706,-152615871.11737,  -0.00196,   0.00262,  -0.00254,476103790.50168,   0.00135,276103799.01077,  -0.00075,   0.00094,  -0.00056,  -8.50908,   1.00000
-129463220.00494,314323543.70677,-153215962.79835,  -0.00196,   0.00262,  -0.00255,476107915.62706,   0.00135,276107923.21651,  -0.00076,   0.00094,  -0.00056,  -7.58945,   1.00000
-128417315.24004,314387382.46090,-153817654.38039,  -0.00196,   0.00262,  -0.00257,476112202.21950,   0.00135,276112206.73013,  -0.00076,   0.00094,  -0.00057,  -4.51063,   1.00000
-127374368.01885,314454677.99502,-154410098.73161,  -0.00195,   0.00262,  -0.00258,476116451.92354,   0.00136,276116458.18777,  -0.00076,   0.00095,  -0.00057,  -6.26423,   1.00000
-126355385.22643,314501910.32877,-154999606.47511,  -0.00195,   0.00263,  -0.00259,476120550.94537,   0.00136,276120552.16940,  -0.00076,   0.00095,  -0.00057,  -1.22403,   1.00000
-125303411.85644,314567455.28547,-155589887.58645,  -0.00195,   0.00263,  -0.00260,476124609.43686,   0.00137,276124618.38206,  -0.00076,   0.00095,  -0.00057,  -8.94520,   1.00000
-124251408.83706,314630287.32027,-156177955.88801,  -0.00194,   0.00263,  -0.00261,476128709.98886,   0.00137,276128716.20177,  -0.00076,   0.00095,  -0.00058,  -6.21291,   1.00000
-123166370.22913,314711280.64278,-156766740.53468,  -0.00194,   0.00263,  -0.00262,476132779.63166,   0.00137,276132787.59539,  -0.00077,   0.00095,  -0.00058,  -7.96373,   1.00000
-122105092.07543,314772204.21495,-157352759.49004,  -0.00194,   0.00263,  -0.00263,476136698.64119,   0.00138,276136700.73018,  -0.00077,   0.00096,  -0.00058,  -2.08899,   1.00000
-121010664.11447,314851191.50516,-157939492.30935,  -0.00193,   0.00263,  -0.00264,476140583.33198,   0.00138,276140588.28913,  -0.00077,   0.00096,  -0.00058,  -4.95715,   1.00000
-119916190.61291,314927364.89671,-158523984.17596,  -0.00193,   0.00263,  -0.00265,476144503.82960,   0.00138,276144508.31550,  -0.00077,   0.00096,  -0.00059,  -4.48590,   1.00000
-118791419.21595,315027848.44981,-159102358.30026,  -0.00193,   0.00263,  -0.00266,476148330.92038,   0.00139,276148337.49989,  -0.00077,   0.00096,  -0.00059,  -6.57950,   1.00000
-117690186.82333,315108292.36180,-159678177.27640,  -0.00192,   0.00263,  -0.00267,476152003.75748,   0.00139,276152007.13770,  -0.00077,   0.00096,  -0.00059,  -3.38021,   1.00000
-116532127.74372,315223741.11208,-160254950.53351,  -0.00192,   0.00263,  -0.00268,476155840.59822,   0.00140,276155845.51733,  -0.00078,   0.00097,  -0.00059,  -4.91911,   1.00000
-115397525.99608,315319114.05669,-160829217.79486,  -0.00192,   0.00263,  -0.00269,476159521.84793,   0.00140,276159524.33220,  -0.00078,   0.00097,  -0.00060,  -2.48426,   1.00000
-114265729.84245,315418111.54885,-161394581.02090,  -0.00191,   0.00263,  -0.00270,476163160.25063,   0.00140,276163168.09144,  -0.00078,   0.00097,  -0.00060,  -7.84081,   1.00000
-113118223.18681,315504670.98922,-161973758.66380,  -0.00191,   0.00263,  -0.00271,476166728.26797,   0.00141,276166731.87933,  -0.00078,   0.00097,  -0.00060,  -3.61135,   1.00000
-111922423.84781,315645466.12420,-162533712.03553,  -0.00191,   0.00263,  -0.00272,476170261.07693,   0.00141,276170263.67069,  -0.00078,   0.00097,  -0.00060,  -2.59376,   1.00000
-110744207.33247,315753114.38105,-163104590.81212,  -0.00190,   0.00263,  -0.00273,476173770.48288,   0.00141,276173771.67676,  -0.00078,   0.00098,  -0.00061,  -1.19388,   1.00000
-109568728.65819,315864378.74869,-163666629.79812,  -0.00190,   0.00263,  -0.00274,476177243.88970,   0.00141,276177244.37184,  -0.00078,   0.00098,  -0.00061,  -0.48214,   1.00000
-108359697.06811,315993049.56847,-164229218.40766,  -0.00189,   0.00263,  -0.00275,476180691.53160,   0.00142,276180697.21524,  -0.00078,   0.00098,  -0.00061,  -5.68364,   1.00000
-107173690.85109,316101735.54871,-164789652.06191,  -0.00189,   0.00263,  -0.00276,476183982.50130,   0.00142,276183988.27816,  -0.00079,   0.00098,  -0.00061,  -5.77686,   1.00000
-105954016.21070,316227724.14284,-165350618.58919,  -0.00189,   0.00263,  -0.00277,476187259.04976,   0.00142,276187260.46472,  -0.00079,   0.00098,  -0.00062,  -1.41496,   1.00000
-104736993.71217,316357348.14532,-165902844.84195,  -0.00188,   0.00263,  -0.00278,476190496.48313,   0.00143,276190496.66743,  -0.00079,   0.00098,  -0.00062,  -0.18430,   1.00000
-103486242.25728,316504130.49446,-166455559.43747,  -0.00188,   0.00263,  -0.00278,476193710.46171,   0.00143,276193715.20952,  -0.00079,   0.00099,  -0.00062,  -4.74781,   1.00000
-102235421.72572,316647815.77471,-167005993.19956,  -0.00187,   0.00263,  -0.00279,476196964.46775,   0.00143,276196968.23836,  -0.00079,   0.00099,  -0.00062,  -3.77061,   1.00000
-101007322.63520,316771571.93439,-167554501.76238,  -0.00187,   0.00263,  -0.00280,476200052.03934,   0.00144,276200058.05262,  -0.00079,   0.00099,  -0.00062,  -6.01328,   1.00000
-99728008.93836,316942705.67281,-168090302.66954,  -0.00186,   0.00263,  -0.00281,476203180.35993,   0.00144,276203187.10362,  -0.00079,   0.00099,  -0.00063,  -6.74370,   1.00000
-98432180.50353,317100332.48822,-168639649.90447,  -0.00186,   0.00263,  -0.00282,476206243.91931,   0.00144,276206245.63127,  -0.00079,   0.00099,  -0.00063,  -1.71195,   1.00000
-97158838.73850,317237979.96128,-169187167.01057,  -0.00186,   0.00263,  -0.00283,476209136.88724,   0.00144,276209140.95434,  -0.00079,   0.00099,  -0.00063,  -4.06710,   1.00000
-95868088.51105,317402904.67221,-169719258.00852,  -0.00185,   0.00263,  -0.00284,476212120.45136,   0.00145,276212126.20503,  -0.00080,   0.00099,  -0.00063,  -5.75366,   1.00000
-94563212.07490,317560978.03726,-170258564.34792,  -0.00185,   0.00263,  -0.00285,476214970.53767,   0.00145,276214970.56938,  -0.00080,   0.00100,  -0.00064,  -0.03171,   1.00000
-93238411.68783,317739405.39624,-170788669.33720,  -0.00184,   0.00263,  -0.00286,476217972.53707,   0.00145,276217977.78861,  -0.00080,   0.00100,  -0.00064,  -5.25154,   1.00000
-91901909.22995,317917722.42821,-171319718.26533,  -0.00184,   0.00263,  -0.00287,476220770.67551,   0.00146,276220772.68913,  -0.00080,   0.00100,  -0.00064,  -2.01362,   1.00000
-90587547.41548,318076157.16424,-171849196.58644,  -0.00183,   0.00262,  -0.00288,476223396.71019,   0.00146,276223402.52649,  -0.00080,   0.00100,  -0.00064,  -5.81630,   1.00000
-89253373.32647,318254953.15500,-172369444.05570,  -0.00183,   0.00262,  -0.00288,476226189.67986,   0.00146,276226195.25097,  -0.00080,   0.00100,  -0.00064,  -5.57111,   1.00000
-87904648.85327,318426598.60565,-172896895.64341,  -0.00182,   0.00262,  -0.00289,476228846.13906,   0.00146,276228849.63776,  -0.00080,   0.00100,  -0.00065,  -3.49869,   1.00000
-86521666.97742,318614512.16945,-173424499.58857,  -0.00182,   0.00262,  -0.00290,476231494.24441,   0.00147,276231494.91662,  -0.00080,   0.00100,  -0.00065,  -0.67220,   1.00000
-85177646.78039,318793587.18150,-173935065.54114,  -0.00181,   0.00262,  -0.00291,476234072.04681,   0.00147,276234073.23735,  -0.00080,   0.00101,  -0.00065,  -1.19054,   1.00000
-83762682.93349,319001323.76822,-174454319.00477,  -0.00181,   0.00262,  -0.00292,476236670.79983,   0.00147,276236672.83809,  -0.00080,   0.00101,  -0.00065,  -2.03826,   1.00000
-82403674.70080,319169740.10842,-174969779.31083,  -0.00180,   0.00262,  -0.00293,476239140.62112,   0.00147,276239150.59086,  -0.00081,   0.00101,  -0.00065,  -9.96974,   1.00000
-80959020.54791,319404235.18283,-175474595.97062,  -0.00180,   0.00262,  -0.00294,476241623.54126,   0.00147,276241630.87984,  -0.00081,   0.00101,  -0.00065,  -7.33858,   1.00000
-79567873.61074,319592419.70855,-175981773.72214,  -0.00179,   0.00262,  -0.00294,476244059.85965,   0.00148,276244063.01487,  -0.00081,   0.00101,  -0.00066,  -3.15523,   1.00000
-78142265.56623,319796519.10480,-176488962.45930,  -0.00179,   0.00262,  -0.00295,476246483.90544,   0.00148,276246489.47147,  -0.00081,   0.00101,  -0.00066,  -5.56603,   1.00000
-76703701.48166,320000059.50420,-176997308.94915,  -0.00178,   0.00262,  -0.00296,476248702.95648,   0.00148,276248706.80571,  -0.00081,   0.00101,  -0.00066,  -3.84923,   1.00000
-75248079.74274,320230789.92128,-177490134.29189,  -0.00178,   0.00262,  -0.00297,476251013.27715,   0.00148,276251014.70697,  -0.00081,   0.00101,  -0.00066,  -1.42982,   1.00000
-73811445.65512,320434552.43670,-177987794.02481,  -0.00177,   0.00262,  -0.00298,476253224.58086,   0.00149,276253231.18325,  -0.00081,   0.00102,  -0.00066,  -6.60239,   1.00000
-72340182.68454,320653924.25142,-178485330.49606,  -0.00176,   0.00262,  -0.00298,476255440.11002,   0.00149,276255445.00633,  -0.00081,   0.00102,  -0.00066,  -4.89630,   1.00000
-70870992.87616,320876997.41132,-178974576.39416,  -0.00176,   0.00262,  -0.00299,476257612.51977,   0.00149,276257620.24655,  -0.00081,   0.00102,  -0.00067,  -7.72678,   1.00000
-69401667.46033,321096553.30801,-179461418.46677,  -0.00175,   0.00261,  -0.00300,476259830.72501,   0.00149,276259833.51895,  -0.00081,   0.00102,  -0.00067,  -2.79395,   1.00000
-67918728.44463,321315352.13808,-179949527.44133,  -0.00175,   0.00261,  -0.00301,476261836.19852,   0.00149,276261839.10985,  -0.00081,   0.00102,  -0.00067,  -2.91133,   1.00000
-66382146.28085,321572868.09302,-180430017.97029,  -0.00174,   0.00261,  -0.00302,476263971.09418,   0.00150,276263975.13559,  -0.00081,   0.00102,  -0.00067,  -4.04141,   1.00000
-64866352.90395,321810601.94613,-180909602.55716,  -0.00174,   0.00261,  -0.00302,476265934.35834,   0.00150,276265942.90613,  -0.00081,   0.00102,  -0.00067,  -8.54779,   1.00000
-63352479.02600,322052084.40686,-181381002.51636,  -0.00173,   0.00261,  -0.00303,476267869.81039,   0.00150,276267871.30497,  -0.00081,   0.00102,  -0.00067,  -1.49458,   1.00000
-61820361.40256,322277824.82709,-181865140.30442,  -0.00172,   0.00261,  -0.00304,476269747.97472,   0.00150,276269750.95639,  -0.00081,   0.00102,  -0.00067,  -2.98167,   1.00000
-60273482.00967,322538093.77933,-182327966.62429,  -0.00172,   0.00261,  -0.00305,476271635.52458,   0.00150,276271643.07884,  -0.00082,   0.00102,  -0.00068,  -7.55425,   1.00000
-58745033.41925,322771294.85811,-182795777.11086,  -0.00171,   0.00261,  -0.00305,476273436.82775,   0.00150,276273444.18951,  -0.00082,   0.00103,  -0.00068,  -7.36176,   1.00000
-57181611.64626,323019365.78329,-183263102.78333,  -0.00171,   0.00261,  -0.00306,476275245.87707,   0.00151,276275250.13526,  -0.00082,   0.00103,  -0.00068,  -4.25819,   1.00000
-55619965.10842,323271160.41170,-183722285.00401,  -0.00170,   0.00261,  -0.00307,476277008.00745,   0.00151,276277016.80834,  -0.00082,   0.00103,  -0.00068,  -8.80088,   1.00000
-54023303.08178,323537638.15358,-184180881.42808,  -0.00169,   0.00261,  -0.00308,476278787.80507,   0.00151,276278790.17471,  -0.00082,   0.00103,  -0.00068,  -2.36965,   1.00000
-52428372.44990,323807801.53599,-184631334.62671,  -0.00169,   0.00260,  -0.00308,476280517.94352,   0.00151,276280524.53391,  -0.00082,   0.00103,  -0.00068,  -6.59039,   1.00000
-50816675.71564,324069109.08112,-185088657.78609,  -0.00168,   0.00260,  -0.00309,476282133.34137,   0.00151,276282136.48608,  -0.00082,   0.00103,  -0.00068,  -3.14471,   1.00000
-49206603.32932,324334094.02556,-185537860.38620,  -0.00168,   0.00260,  -0.00310,476283703.66783,   0.00151,276283709.51699,  -0.00082,   0.00103,  -0.00069,  -5.84917,   1.00000
-47598134.11136,324602824.22505,-185978998.65193,  -0.00167,   0.00260,  -0.00310,476285238.53346,   0.00152,276285242.85372,  -0.00082,   0.00103,  -0.00069,  -4.32026,   1.00000
-45954484.18188,324885840.52214,-186419343.25991,  -0.00166,   0.00260,  -0.00311,476286783.17979,   0.00152,276286786.96182,  -0.00082,   0.00103,  -0.00069,  -3.78203,   1.00000
-44310672.08403,325164899.12882,-186857061.88477,  -0.00166,   0.00260,  -0.00312,476288365.62858,   0.00152,276288373.31817,  -0.00082,   0.00103,  -0.00069,  -7.68958,   1.00000
-42686422.80850,325424404.65721,-187294405.94875,  -0.00165,   0.00260,  -0.00312,476289786.86003,   0.00152,276289788.25415,  -0.00082,   0.00103,  -0.00069,  -1.39412,   1.00000
-41010615.78170,325728925.10111,-187717713.44232,  -0.00164,   0.00260,  -0.00313,476291262.64363,   0.00152,276291266.45966,  -0.00082,   0.00103,  -0.00069,  -3.81603,   1.00000
-39352557.27164,326006182.57148,-188146094.69569,  -0.00164,   0.00259,  -0.00314,476292652.32304,   0.00152,276292655.21692,  -0.00082,   0.00103,  -0.00069,  -2.89388,   1.00000
-37659200.21924,326297276.29300,-188573419.30938,  -0.00163,   0.00259,  -0.00314,476294053.86420,   0.00152,276294059.46895,  -0.00082,   0.00103,  -0.00069,  -5.60475,   1.00000
-35967249.28023,326592030.56624,-188992692.08276,  -0.00162,   0.00259,  -0.00315,476295420.31028,   0.00153,276295424.73978,  -0.00082,   0.00104,  -0.00069,  -4.42950,   1.00000
-34241484.79899,326908198.30339,-189405471.50452,  -0.00162,   0.00259,  -0.00316,476296724.12229,   0.00153,276296724.68849,  -0.00082,   0.00104,  -0.00070,  -0.56620,   1.00000
-32533205.76747,327196989.97697,-189823317.34513,  -0.00161,   0.00259,  -0.00316,476297934.23092,   0.00153,276297936.32155,  -0.00082,   0.00104,  -0.00070,  -2.09064,   1.00000
-30826192.45403,327489474.93553,-190233167.25566,  -0.00160,   0.00259,  -0.00317,476299105.27750,   0.00153,276299108.61979,  -0.00082,   0.00104,  -0.00070,  -3.34229,   1.00000
-29101506.16968,327801035.97947,-190632458.97299,  -0.00160,   0.00259,  -0.00318,476300455.55701,   0.00153,276300457.50598,  -0.00082,   0.00104,  -0.00070,  -1.94898,   1.00000
-27360287.30763,328110617.63099,-191033030.10714,  -0.00159,   0.00258,  -0.00318,476301605.35795,   0.00153,276301610.35692,  -0.00082,   0.00104,  -0.00070,  -4.99897,   1.00000
-25601005.57563,328410227.26702,-191440059.85481,  -0.00158,   0.00258,  -0.00319,476302645.87871,   0.00153,276302652.33081,  -0.00082,   0.00104,  -0.00070,  -6.45211,   1.00000
-23860842.47933,328719267.82046,-191829871.95845,  -0.00157,   0.00258,  -0.00319,476303805.18784,   0.00153,276303810.79341,  -0.00082,   0.00104,  -0.00070,  -5.60557,   1.00000
-22049890.28827,329058641.38739,-192219426.37671,  -0.00157,   0.00258,  -0.00320,476304962.92208,   0.00153,276304971.63238,  -0.00082,   0.00104,  -0.00070,  -8.71030,   1.00000
-20292629.32779,329361245.00977,-192607682.13259,  -0.00156,   0.00258,  -0.00321,476305977.10800,   0.00153,276305981.37142,  -0.00082,   0.00104,  -0.00070,  -4.26342,   1.00000
-18501022.84002,329684710.40264,-192989196.92514,  -0.00155,   0.00258,  -0.00321,476306929.26514,   0.00154,276306931.65802,  -0.00083,   0.00104,  -0.00070,  -2.39287,   1.00000
-16709283.94116,330003823.13131,-193367857.45497,  -0.00154,   0.00258,  -0.00322,476307921.33205,   0.00154,276307928.11118,  -0.00083,   0.00104,  -0.00070,  -6.77913,   1.00000
-14882028.33541,330335580.43304,-193744746.92200,  -0.00154,   0.00257,  -0.00322,476308948.91364,   0.00154,276308952.49876,  -0.00083,   0.00104,  -0.00070,  -3.58511,   1.00000
-13055762.82178,330670894.16569,-194113628.17563,  -0.00153,   0.00257,  -0.00323,476309936.79328,   0.00154,276309938.85108,  -0.00083,   0.00104,  -0.00071,  -2.05780,   1.00000
-11230454.21634,331009816.72792,-194474544.05828,  -0.00152,   0.00257,  -0.00323,476310883.06285,   0.00154,276310886.60205,  -0.00083,   0.00104,  -0.00071,  -3.53920,   1.00000
-9386411.20677,331338085.81448,-194841606.65018,  -0.00151,   0.00257,  -0.00324,476311728.17236,   0.00154,276311730.73998,  -0.00083,   0.00104,  -0.00071,  -2.56763,   1.00000
-7543210.90209,331669922.68708,-195200694.57578,  -0.00151,   0.00257,  -0.00325,476312531.12980,   0.00154,276312536.78002,  -0.00083,   0.00104,  -0.00071,  -5.65022,   1.00000
-5684165.86153,332028369.23086,-195543718.66589,  -0.00150,   0.00257,  -0.00325,476313436.47449,   0.00154,276313438.83250,  -0.00083,   0.00104,  -0.00071,  -2.35801,   1.00000
-3805348.60357,332367759.95726,-195897717.38987,  -0.00149,   0.00256,  -0.00326,476314319.29338,   0.00154,276314326.54869,  -0.00083,   0.00104,  -0.00071,  -7.25531,   1.00000
-1928130.29770,332718847.10163,-196238789.44288,  -0.00148,   0.00256,  -0.00326,476315086.51188,   0.00154,276315089.80368,  -0.00083,   0.00104,  -0.00071,  -3.29180,   1.00000
-67340.20970,333042395.64061,-196585039.26385,  -0.00148,   0.00256,  -0.00327,476315758.67340,   0.00154,276315766.55035,  -0.00083,   0.00104,  -0.00071,  -7.87695,   1.00000
1844733.49831,333408884.41391,-196915880.96519,  -0.00147,   0.00256,  -0.00327,476316522.11422,   0.00154,276316528.15024,  -0.00083,   0.00105,  -0.00071,  -6.03602,   1.00000
3740471.60342,333747753.15694,-197251864.29438,  -0.00146,   0.00256,  -0.00328,476317198.69700,   0.00155,276317204.11226,  -0.00083,   0.00105,  -0.00071,  -5.41526,   1.00000
5688027.02222,334121039.73238,-197577115.24972,  -0.00145,   0.00255,  -0.00328,476318047.89632,   0.00155,276318055.21655,  -0.00083,   0.00105,  -0.00071,  -7.32023,   1.00000
7618161.46912,334483146.30244,-197897768.56606,  -0.00145,   0.00255,  -0.00328,476318638.45287,   0.00155,276318646.38179,  -0.00083,   0.00105,  -0.00071,  -7.92892,   1.00000
9548276.39413,334840468.21288,-198215285.69288,  -0.00144,   0.00255,  -0.00329,476319281.41071,   0.00155,276319288.02169,  -0.00083,   0.00105,  -0.00071,  -6.61098,   1.00000
11478318.04124,335192995.42251,-198529653.67191,  -0.00143,   0.00255,  -0.00329,476319970.52400,   0.00155,276319980.20983,  -0.00083,   0.00105,  -0.00071,  -9.68583,   1.00000
13443438.19650,335565011.98744,-198836514.13108,  -0.00142,   0.00255,  -0.00330,476320620.86005,   0.00155,276320627.61588,  -0.00083,   0.00105,  -0.00071,  -6.75583,   1.00000
15408048.04844,335940465.83443,-199135378.25648,  -0.00141,   0.00255,  -0.00330,476321230.17013,   0.00155,276321238.34549,  -0.00083,   0.00105,  -0.00071,  -8.17536,   1.00000
17408162.99430,336326818.93820,-199431356.93228,  -0.00141,   0.00254,  -0.00331,476321886.51797,   0.00155,276321895.18742,  -0.00083,   0.00105,  -0.00071,  -8.66944,   1.00000
19356710.21412,336669645.92435,-199732131.94631,  -0.00140,   0.00254,  -0.00331,476322463.81894,   0.00155,276322473.18147,  -0.00083,   0.00105,  -0.00072,  -9.36252,   1.00000
21391571.22845,337078461.64418,-200012326.80171,  -0.00139,   0.00254,  -0.00332,476323045.12809,   0.00155,276323053.57833,  -0.00083,   0.00105,  -0.00072,  -8.45024,   1.00000
23374986.95898,337443837.41546,-200297391.57764,  -0.00138,   0.00254,  -0.00332,476323549.01312,   0.00155,276323554.27179,  -0.00083,   0.00105,  -0.00072,  -5.25867,   1.00000
25393870.23876,337819721.07054,-200579312.82909,  -0.00137,   0.00254,  -0.00332,476324096.21379,   0.00155,276324105.17596,  -0.00083,   0.00105,  -0.00072,  -8.96216,   1.00000
27412411.31512,338198947.56511,-200853197.17083,  -0.00136,   0.00253,  -0.00333,476324616.42507,   0.00155,276324620.51904,  -0.00083,   0.00105,  -0.00072,  -4.09397,   1.00000
29430650.03491,338581548.73354,-201119070.31352,  -0.00136,   0.00253,  -0.00333,476325093.36225,   0.00155,276325099.99005,  -0.00083,   0.00105,  -0.00072,  -6.62780,   1.00000
31484278.30014,338974320.89365,-201381578.06955,  -0.00135,   0.00253,  -0.00334,476325632.42715,   0.00155,276325633.10365,  -0.00083,   0.00105,  -0.00072,  -0.67651,   1.00000
33537561.12822,339361823.86313,-201640616.55244,  -0.00134,   0.00253,  -0.00334,476326214.18591,   0.00155,276326221.40000,  -0.00083,   0.00105,  -0.00072,  -7.21408,   1.00000
35590674.71052,339761172.06222,-201887001.47450,  -0.00133,   0.00253,  -0.00334,476326678.76827,   0.00155,276326684.63880,  -0.00083,   0.00105,  -0.00072,  -5.87054,   1.00000
37664058.93763,340147751.08329,-202138354.68599,  -0.00132,   0.00252,  -0.00335,476327064.38314,   0.00155,276327067.49546,  -0.00083,   0.00105,  -0.00072,  -3.11232,   1.00000
39752028.66924,340551527.83594,-202377588.97039,  -0.00131,   0.00252,  -0.00335,476327637.60801,   0.00156,276327644.29822,  -0.00083,   0.00105,  -0.00072,  -6.69021,   1.00000
41824904.25445,340935987.13768,-202617332.76006,  -0.00130,   0.00252,  -0.00335,476328044.02734,   0.00156,276328048.92589,  -0.00083,   0.00105,  -0.00072,  -4.89855,   1.00000
43933323.01281,341338514.33946,-202848694.70082,  -0.00130,   0.00252,  -0.00336,476328418.06963,   0.00156,276328424.09350,  -0.00083,   0.00105,  -0.00072,  -6.02387,   1.00000
46055982.22066,341758052.10288,-203067799.87372,  -0.00129,   0.00252,  -0.00336,476328994.43631,   0.00156,276328994.73732,  -0.00083,   0.00105,  -0.00072,  -0.30101,   1.00000
48163845.13214,342158243.85652,-203287415.81294,  -0.00128,   0.00251,  -0.00336,476329385.43912,   0.00156,276329393.83016,  -0.00083,   0.00105,  -0.00072,  -8.39104,   1.00000
50271166.24801,342552963.41319,-203503425.73881,  -0.00127,   0.00251,  -0.00337,476329842.42948,   0.00156,276329849.96419,  -0.00083,   0.00105,  -0.00072,  -7.53471,   1.00000
52414039.91857,342965350.72883,-203710796.30741,  -0.00126,   0.00251,  -0.00337,476330273.43844,   0.00156,276330280.83870,  -0.00083,   0.00105,  -0.00072,  -7.40026,   1.00000
54556871.64519,343380819.10491,-203909991.13474,  -0.00125,   0.00251,  -0.00337,476330672.27845,   0.00156,276330679.14379,  -0.00083,   0.00105,  -0.00072,  -6.86534,   1.00000
56699046.11878,343790667.14612,-204105482.30022,  -0.00124,   0.00251,  -0.00338,476331130.06694,   0.00156,276331135.86632,  -0.00083,   0.00105,  -0.00072,  -5.79937,   1.00000
58876072.80309,344209085.02118,-204296546.36792,  -0.00123,   0.00250,  -0.00338,476331652.93125,   0.00156,276331662.36069,  -0.00083,   0.00105,  -0.00072,  -9.42944,   1.00000
61039693.46917,344616896.88950,-204483708.09084,  -0.00122,   0.00250,  -0.00338,476331922.79530,   0.00156,276331926.90576,  -0.00083,   0.00105,  -0.00072,  -4.11046,   1.00000
63215827.72242,345032503.87469,-204662712.73660,  -0.00122,   0.00250,  -0.00338,476332480.76863,   0.00156,276332481.82943,  -0.00083,   0.00105,  -0.00072,  -1.06080,   1.00000
65392810.71158,345459907.43020,-204829092.26256,  -0.00121,   0.00250,  -0.00339,476332913.10882,   0.00156,276332913.38672,  -0.00083,   0.00105,  -0.00072,  -0.27790,   1.00000
67590576.70979,345873125.91348,-204999547.21231,  -0.00120,   0.00249,  -0.00339,476333270.21317,   0.00156,276333280.06300,  -0.00083,   0.00105,  -0.00072,  -9.84983,   1.00000
69801230.15410,346302687.96448,-205157274.41143,  -0.00119,   0.00249,  -0.00339,476333844.61807,   0.00156,276333847.33924,  -0.00083,   0.00105,  -0.00072,  -2.72117,   1.00000
71999248.17262,346721754.45597,-205311190.74770,  -0.00118,   0.00249,  -0.00339,476334143.47834,   0.00156,276334152.59401,  -0.00083,   0.00105,  -0.00072,  -9.11567,   1.00000
74244288.83070,347161866.32533,-205455601.61306,  -0.00117,   0.00249,  -0.00340,476334759.05349,   0.00156,276334767.94627,  -0.00083,   0.00105,  -0.00073,  -8.89278,   1.00000
76441538.12827,347577918.47068,-205597339.66751,  -0.00116,   0.00249,  -0.00340,476335098.10592,   0.00156,276335103.85507,  -0.00083,   0.00105,  -0.00073,  -5.74914,   1.00000
78673183.33859,348001496.56633,-205733966.02688,  -0.00115,   0.00248,  -0.00340,476335512.19598,   0.00156,276335519.82464,  -0.00083,   0.00105,  -0.00073,  -7.62866,   1.00000
80939081.95632,348432325.52744,-205865300.55592,  -0.00114,   0.00248,  -0.00340,476336009.37494,   0.00156,276336018.52745,  -0.00083,   0.00105,  -0.00073,  -9.15251,   1.00000
83182953.95588,348874678.34796,-205980613.68178,  -0.00113,   0.00248,  -0.00340,476336601.94655,   0.00156,276336608.26086,  -0.00083,   0.00105,  -0.00073,  -6.31430,   1.00000
85449087.91946,349310921.64418,-206095136.22005,  -0.00112,   0.00248,  -0.00341,476337047.13371,   0.00156,276337049.99859,  -0.00083,   0.00105,  -0.00073,  -2.86488,   1.00000
87713923.02801,349740901.91988,-206205539.69918,  -0.00111,   0.00247,  -0.00341,476337546.31126,   0.00156,276337555.85754,  -0.00083,   0.00105,  -0.00073,  -9.54628,   1.00000
89978905.73139,350173597.04290,-206307543.09443,  -0.00110,   0.00247,  -0.00341,476338032.78514,   0.00156,276338033.20072,  -0.00083,   0.00105,  -0.00073,  -0.41557,   1.00000
92277727.91417,350612895.75010,-206403838.45824,  -0.00109,   0.00247,  -0.00341,476338591.68551,   0.00157,276338599.37433,  -0.00083,   0.00105,  -0.00073,  -7.68883,   1.00000
94576659.97133,351054742.62205,-206491627.05395,  -0.00109,   0.00247,  -0.00341,476339131.32835,   0.00157,276339138.70753,  -0.00083,   0.00105,  -0.00073,  -7.37918,   1.00000
96875738.80660,351499155.47671,-206570921.32514,  -0.00108,   0.00247,  -0.00341,476339649.10011,   0.00157,276339651.06403,  -0.00083,   0.00105,  -0.00073,  -1.96392,   1.00000
99173230.90095,351937112.81672,-206645981.68904,  -0.00107,   0.00246,  -0.00342,476340220.63835,   0.00157,276340229.01710,  -0.00083,   0.00106,  -0.00073,  -8.37875,   1.00000
101470883.61851,352377660.06581,-206712564.96574,  -0.00106,   0.00246,  -0.00342,476340777.74805,   0.00157,276340779.75329,  -0.00083,   0.00106,  -0.00073,  -2.00523,   1.00000
103801907.02188,352824155.16356,-206773026.10098,  -0.00105,   0.00246,  -0.00342,476341425.01756,   0.00157,276341425.35692,  -0.00083,   0.00106,  -0.00073,  -0.33936,   1.00000
106133037.37476,353273057.89617,-206824894.17213,  -0.00104,   0.00246,  -0.00342,476342044.06964,   0.00157,276342045.55025,  -0.00083,   0.00106,  -0.00073,  -1.48061,   1.00000
108462295.17144,353715303.09131,-206872410.15211,  -0.00103,   0.00245,  -0.00342,476342727.19411,   0.00157,276342732.89803,  -0.00083,   0.00106,  -0.00073,  -5.70392,   1.00000
110791669.33293,354159975.67826,-206911347.97553,  -0.00102,   0.00245,  -0.00342,476343390.01696,   0.00157,276343394.62953,  -0.00083,   0.00106,  -0.00073,  -4.61257,   1.00000
113156093.43571,354619105.65073,-206939573.20824,  -0.00101,   0.00245,  -0.00342,476344056.11898,   0.00157,276344063.92376,  -0.00083,   0.00106,  -0.00073,  -7.80478,   1.00000
115518430.08514,355071383.55024,-206963333.21086,  -0.00100,   0.00245,  -0.00342,476344801.78857,   0.00157,276344801.95819,  -0.00083,   0.00106,  -0.00073,  -0.16963,   1.00000
117880846.52190,355525904.23543,-206978399.36690,  -0.00099,   0.00244,  -0.00342,476345506.35107,   0.00157,276345516.21843,  -0.00083,   0.00106,  -0.00073,  -9.86736,   1.00000
120241052.87605,355973557.74764,-206988999.98980,  -0.00098,   0.00244,  -0.00343,476346289.56566,   0.00157,276346299.10669,  -0.00083,   0.00106,  -0.00073,  -9.54103,   1.00000
122636056.26335,356435109.73446,-206988535.27306,  -0.00097,   0.00244,  -0.00343,476347094.85739,   0.00157,276347094.93945,  -0.00083,   0.00106,  -0.00074,  -0.08206,   1.00000
124996432.52843,356887195.46889,-206981720.26436,  -0.00096,   0.00244,  -0.00343,476347824.34328,   0.00157,276347830.80132,  -0.00083,   0.00106,  -0.00074,  -6.45803,   1.00000
127389050.25822,357343821.64771,-206967922.61193,  -0.00095,   0.00244,  -0.00343,476348664.22719,   0.00157,276348674.05937,  -0.00083,   0.00106,  -0.00074,  -9.83218,   1.00000
129779121.36467,357793350.35414,-206949535.02741,  -0.00094,   0.00243,  -0.00343,476349583.18962,   0.00158,276349587.62145,  -0.00083,   0.00106,  -0.00074,  -4.43183,   1.00000
132169190.92557,358244952.17010,-206922354.73596,  -0.00093,   0.00243,  -0.00343,476350478.08542,   0.00158,276350478.97548,  -0.00083,   0.00106,  -0.00074,  -0.89005,   1.00000
134604854.80999,358731291.45593,-206874472.23434,  -0.00092,   0.00243,  -0.00343,476351524.39406,   0.00158,276351531.85874,  -0.00083,   0.00106,  -0.00074,  -7.46468,   1.00000
136994967.26520,359186937.83450,-206829649.30823,  -0.00091,   0.00243,  -0.00343,476352375.95197,   0.00158,276352379.82512,  -0.00083,   0.00106,  -0.00074,  -3.87315,   1.00000
139416653.10654,359646371.52012,-206777400.65502,  -0.00090,   0.00242,  -0.00343,476353337.92964,   0.00158,276353341.64653,  -0.00083,   0.00106,  -0.00074,  -3.71689,   1.00000
141835392.53793,360098457.48492,-206720438.18431,  -0.00089,   0.00242,  -0.00343,476354374.68241,   0.00158,276354375.44279,  -0.00083,   0.00106,  -0.00074,  -0.76038,   1.00000
144254046.23795,360552413.26238,-206654563.47886,  -0.00088,   0.00242,  -0.00343,476355386.12605,   0.00158,276355388.93128,  -0.00083,   0.00106,  -0.00074,  -2.80522,   1.00000
146717385.96745,361040251.72885,-206567504.97001,  -0.00087,   0.00242,  -0.00343,476356562.96463,   0.00158,276356570.86020,  -0.00083,   0.00106,  -0.00074,  -7.89556,   1.00000
149132807.47138,361488582.10920,-206487942.06456,  -0.00086,   0.00242,  -0.00343,476357631.19214,   0.00158,276357636.92892,  -0.00083,   0.00106,  -0.00074,  -5.73678,   1.00000
151582156.00024,361949180.77746,-206396311.93861,  -0.00085,   0.00241,  -0.00343,476358725.16831,   0.00158,276358731.20922,  -0.00083,   0.00106,  -0.00075,  -6.04091,   1.00000
154038422.88838,362423483.04686,-206290578.56320,  -0.00084,   0.00241,  -0.00343,476360035.53543,   0.00159,276360041.41677,  -0.00083,   0.00106,  -0.00075,  -5.88134,   1.00000
156484183.93569,362878103.34038,-206185070.59785,  -0.00083,   0.00241,  -0.00343,476361190.53602,   0.00159,276361191.10064,  -0.00083,   0.00106,  -0.00075,  -0.56462,   1.00000
158936500.32307,363346335.56613,-206065443.46053,  -0.00082,   0.00241,  -0.00343,476362547.53070,   0.00159,276362556.73983,  -0.00083,   0.00106,  -0.00075,  -9.20913,   1.00000
161412215.00125,363804914.51767,-205942642.79522,  -0.00081,   0.00240,  -0.00343,476363808.72462,   0.00159,276363814.11900,  -0.00083,   0.00106,  -0.00075,  -5.39438,   1.00000
163863841.43151,364276238.83795,-205804853.72543,  -0.00080,   0.00240,  -0.00343,476365139.70193,   0.00159,276365144.40514,  -0.00083,   0.00106,  -0.00075,  -4.70321,   1.00000
166345187.24824,364749600.77440,-205658684.00488,  -0.00079,   0.00240,  -0.00343,476366597.13507,   0.00159,276366602.43305,  -0.00083,   0.00107,  -0.00075,  -5.29798,   1.00000
168826064.54684,365224317.20515,-205503329.73371,  -0.00078,   0.00240,  -0.00342,476368044.05073,   0.00159,276368044.40698,  -0.00083,   0.00107,  -0.00075,  -0.35626,   1.00000
171293267.27998,365669947.29831,-205352319.09673,  -0.00077,   0.00240,  -0.00342,476369414.03599,   0.00159,276369419.28927,  -0.00083,   0.00107,  -0.00075,  -5.25328,   1.00000
173769528.23692,366138048.28720,-205182817.03491,  -0.00076,   0.00239,  -0.00342,476370914.98740,   0.00160,276370920.55221,  -0.00083,   0.00107,  -0.00076,  -5.56480,   1.00000
176274736.87229,366607484.21889,-205004565.75416,  -0.00075,   0.00239,  -0.00342,476372552.17818,   0.00160,276372554.98605,  -0.00083,   0.00107,  -0.00076,  -2.80787,   1.00000
178755344.69043,367089816.30485,-204811531.63494,  -0.00074,   0.00239,  -0.00342,476374254.46402,   0.00160,276374258.99637,  -0.00083,   0.00107,  -0.00076,  -4.53235,   1.00000
181255337.74705,367552186.71217,-204618945.73064,  -0.00072,   0.00239,  -0.00342,476375955.03160,   0.00160,276375955.53792,  -0.00083,   0.00107,  -0.00076,  -0.50632,   1.00000
183721645.60816,368006622.40377,-204421016.29313,  -0.00071,   0.00239,  -0.00342,476377571.51468,   0.00160,276377577.44791,  -0.00083,   0.00107,  -0.00076,  -5.93323,   1.00000
186220278.37914,368471219.03792,-204209826.35796,  -0.00070,   0.00238,  -0.00342,476379237.47619,   0.00160,276379245.67574,  -0.00083,   0.00107,  -0.00076,  -8.19955,   1.00000
188722876.81918,368948428.31466,-203984245.77896,  -0.00069,   0.00238,  -0.00342,476381124.49943,   0.00161,276381133.04726,  -0.00083,   0.00107,  -0.00076,  -8.54783,   1.00000
191248634.10576,369414399.28794,-203754471.04187,  -0.00068,   0.00238,  -0.00341,476382926.40945,   0.00161,276382928.33974,  -0.00083,   0.00107,  -0.00077,  -1.93029,   1.00000
193745203.53540,369884112.83557,-203514425.97444,  -0.00067,   0.00238,  -0.00341,476384878.88934,   0.00161,276384879.81719,  -0.00083,   0.00107,  -0.00077,  -0.92784,   1.00000
196236553.16391,370345431.54809,-203269338.34972,  -0.00066,   0.00238,  -0.00341,476386906.03184,   0.00161,276386907.69346,  -0.00083,   0.00107,  -0.00077,  -1.66162,   1.00000
198763698.43490,370825334.73991,-203006202.28113,  -0.00065,   0.00237,  -0.00341,476388891.75551,   0.00161,276388899.48910,  -0.00083,   0.00107,  -0.00077,  -7.73358,   1.00000
201248615.10516,371279035.03798,-202746669.43414,  -0.00064,   0.00237,  -0.00341,476390985.66348,   0.00161,276390991.27293,  -0.00083,   0.00107,  -0.00077,  -5.60945,   1.00000
203769203.57345,371751066.10500,-202468937.14920,  -0.00063,   0.00237,  -0.00341,476393048.16333,   0.00162,276393049.34377,  -0.00083,   0.00108,  -0.00077,  -1.18044,   1.00000
206284105.05974,372214394.32965,-202186051.38666,  -0.00062,   0.00237,  -0.00340,476395184.95449,   0.00162,276395185.55753,  -0.00083,   0.00108,  -0.00078,  -0.60304,   1.00000
208801072.08714,372689675.72312,-201888697.25196,  -0.00061,   0.00237,  -0.00340,476397540.38285,   0.00162,276397541.85852,  -0.00083,   0.00108,  -0.00078,  -1.47567,   1.00000
211308911.81272,373144876.44098,-201591167.84331,  -0.00060,   0.00236,  -0.00340,476399741.91186,   0.00162,276399745.21122,  -0.00083,   0.00108,  -0.00078,  -3.29937,   1.00000
213818404.93325,373611933.31378,-201279191.31609,  -0.00059,   0.00236,  -0.00340,476402159.86921,   0.00162,276402168.32631,  -0.00083,   0.00108,  -0.00078,  -8.45710,   1.00000
216358126.77333,374087034.78257,-200952908.45933,  -0.00058,   0.00236,  -0.00340,476404652.34119,   0.00163,276404653.83930,  -0.00083,   0.00108,  -0.00078,  -1.49811,   1.00000
218864668.72463,374554974.58844,-200621828.50691,  -0.00057,   0.00236,  -0.00339,476407048.63886,   0.00163,276407056.98586,  -0.00083,   0.00108,  -0.00079,  -8.34700,   1.00000
221396281.42266,375021341.91794,-200280739.30940,  -0.00056,   0.00236,  -0.00339,476409606.72714,   0.00163,276409612.36690,  -0.00083,   0.00108,  -0.00079,  -5.63976,   1.00000
223894875.51213,375480742.60022,-199934969.19759,  -0.00055,   0.00235,  -0.00339,476412074.72802,   0.00163,276412083.70228,  -0.00083,   0.00108,  -0.00079,  -8.97426,   1.00000
226418119.52245,375938296.90588,-199579091.44616,  -0.00053,   0.00235,  -0.00339,476414700.56465,   0.00164,276414708.83563,  -0.00083,   0.00108,  -0.00079,  -8.27098,   1.00000
228941435.56783,376407129.70620,-199208737.67269,  -0.00052,   0.00235,  -0.00339,476417551.18389,   0.00164,276417554.34393,  -0.00083,   0.00108,  -0.00080,  -3.16004,   1.00000
231455959.94804,376855664.42983,-198838029.73494,  -0.00051,   0.00235,  -0.00338,476420244.99645,   0.00164,276420250.05478,  -0.00083,   0.00109,  -0.00080,  -5.05833,   1.00000
233975339.37166,377324673.57934,-198448352.52106,  -0.00050,   0.00235,  -0.00338,476423074.61623,   0.00164,276423079.49475,  -0.00083,   0.00109,  -0.00080,  -4.87852,   1.00000
236487448.70377,377784405.93416,-198053538.35358,  -0.00049,   0.00235,  -0.00338,476425978.09642,   0.00165,276425987.28568,  -0.00083,   0.00109,  -0.00080,  -9.18926,   1.00000
238997499.28541,378244147.65593,-197649051.36948,  -0.00048,   0.00234,  -0.00337,476428879.28136,   0.00165,276428887.37011,  -0.00083,   0.00109,  -0.00081,  -8.08875,   1.00000
241506437.52866,378714840.32442,-197230183.64411,  -0.00047,   0.00234,  -0.00337,476432003.27499,   0.00165,276432006.74578,  -0.00083,   0.00109,  -0.00081,  -3.47079,   1.00000
244006864.88884,379165186.24877,-196810906.83582,  -0.00046,   0.00234,  -0.00337,476434968.65050,   0.00166,276434977.44880,  -0.00083,   0.00109,  -0.00081,  -8.79830,   1.00000
246535948.58288,379632497.76589,-196371801.86439,  -0.00045,   0.00234,  -0.00337,476438246.84468,   0.00166,276438250.59585,  -0.00083,   0.00109,  -0.00081,  -3.75117,   1.00000
249026380.88254,380073248.57743,-195937703.94808,  -0.00044,   0.00234,  -0.00336,476441285.55520,   0.00166,276441292.65235,  -0.00083,   0.00109,  -0.00082,  -7.09716,   1.00000
251544765.59464,380530623.23239,-195483716.57488,  -0.00043,   0.00234,  -0.00336,476444632.91227,   0.00166,276444638.30801,  -0.00083,   0.00109,  -0.00082,  -5.39575,   1.00000
254036423.36025,381001895.29901,-195016354.50053,  -0.00042,   0.00233,  -0.00336,476448030.12280,   0.00167,276448033.17949,  -0.00083,   0.00110,  -0.00082,  -3.05669,   1.00000
256543786.39828,381449168.55149,-194547521.26481,  -0.00041,   0.00233,  -0.00335,476451448.31384,   0.00167,276451451.20323,  -0.00083,   0.00110,  -0.00082,  -2.88939,   1.00000
259024359.10763,381910457.46671,-194065434.88690,  -0.00039,   0.00233,  -0.00335,476454912.56284,   0.00167,276454916.76031,  -0.00083,   0.00110,  -0.00083,  -4.19747,   1.00000
261520402.70727,382347535.73358,-193581793.51278,  -0.00038,   0.00233,  -0.00335,476458403.15122,   0.00168,276458406.91217,  -0.00083,   0.00110,  -0.00083,  -3.76095,   1.00000
264018841.86398,382804021.10791,-193079148.18114,  -0.00037,   0.00233,  -0.00334,476462029.45131,   0.00168,276462032.52566,  -0.00083,   0.00110,  -0.00083,  -3.07435,   1.00000
266479209.91551,383245487.34573,-192577421.60990,  -0.00036,   0.00233,  -0.00334,476465642.15926,   0.00168,276465645.23184,  -0.00083,   0.00110,  -0.00084,  -3.07258,   1.00000
268964729.77266,383702264.36789,-192055689.38628,  -0.00035,   0.00233,  -0.00334,476469559.54266,   0.00169,276469564.58209,  -0.00083,   0.00110,  -0.00084,  -5.03942,   1.00000
271448045.22986,384147538.26885,-191528487.18471,  -0.00034,   0.00232,  -0.00333,476473250.33414,   0.00169,276473257.58163,  -0.00083,   0.00111,  -0.00084,  -7.24749,   1.00000
273920816.34822,384593574.87665,-190992073.30161,  -0.00033,   0.00232,  -0.00333,476477241.49735,   0.00169,276477248.44331,  -0.00083,   0.00111,  -0.00085,  -6.94596,   1.00000
276390168.26849,385038776.83467,-190445891.83967,  -0.00032,   0.00232,  -0.00333,476481233.22794,   0.00170,276481234.45487,  -0.00083,   0.00111,  -0.00085,  -1.22694,   1.00000
278856050.66499,385483074.69504,-189889918.07943,  -0.00031,   0.00232,  -0.00332,476485207.56242,   0.00170,276485216.09644,  -0.00082,   0.00111,  -0.00085,  -8.53402,   1.00000
281316643.63761,385937085.90912,-189320007.93918,  -0.00030,   0.00232,  -0.00332,476489411.02882,   0.00171,276489412.80768,  -0.00082,   0.00111,  -0.00086,  -1.77886,   1.00000
283769219.42319,386370340.28929,-188749413.02182,  -0.00029,   0.00232,  -0.00331,476493465.45718,   0.00171,276493466.03302,  -0.00082,   0.00111,  -0.00086,  -0.57584,   1.00000
286216045.46726,386813192.90090,-188164958.33938,  -0.00028,   0.00232,  -0.00331,476497726.24748,   0.00171,276497733.58589,  -0.00082,   0.00111,  -0.00086,  -7.33840,   1.00000
288652696.51945,387245899.82283,-187575785.30469,  -0.00026,   0.00232,  -0.00331,476502065.72017,   0.00172,276502075.71173,  -0.00082,   0.00112,  -0.00087,  -9.99156,   1.00000
291089398.33307,387697128.48405,-186967829.84833,  -0.00025,   0.00231,  -0.00330,476506543.06671,   0.00172,276506552.04263,  -0.00082,   0.00112,  -0.00087,  -8.97592,   1.00000
293539206.92348,388122327.37279,-186357813.12953,  -0.00024,   0.00231,  -0.00330,476511060.08517,   0.00173,276511062.62090,  -0.00082,   0.00112,  -0.00088,  -2.53573,   1.00000
295961138.49490,388561976.08749,-185735437.53393,  -0.00023,   0.00231,  -0.00329,476515601.22340,   0.00173,276515609.28847,  -0.00082,   0.00112,  -0.00088,  -8.06508,   1.00000
298378878.63143,389000321.14143,-185103328.17549,  -0.00022,   0.00231,  -0.00329,476520148.32215,   0.00173,276520151.90777,  -0.00082,   0.00112,  -0.00088,  -3.58562,   1.00000
300779232.39898,389419367.71567,-184471852.16110,  -0.00021,   0.00231,  -0.00328,476524841.75646,   0.00174,276524844.46928,  -0.00082,   0.00112,  -0.00089,  -2.71282,   1.00000
303185193.12323,389865496.09388,-183816510.00508,  -0.00020,   0.00231,  -0.00328,476529588.48295,   0.00174,276529593.98395,  -0.00082,   0.00113,  -0.00089,  -5.50100,   1.00000
305573348.95556,390292256.74198,-183161956.84399,  -0.00019,   0.00231,  -0.00328,476534482.07381,   0.00175,276534491.71948,  -0.00082,   0.00113,  -0.00089,  -9.64568,   1.00000
307983390.01587,390720642.05104,-182491056.57690,  -0.00018,   0.00231,  -0.00327,476539482.05164,   0.00175,276539488.04887,  -0.00082,   0.00113,  -0.00090,  -5.99724,   1.00000
310362189.37923,391144290.57598,-181817115.94678,  -0.00017,   0.00231,  -0.00327,476544370.66629,   0.00176,276544378.12381,  -0.00082,   0.00113,  -0.00090,  -7.45753,   1.00000
312729526.56232,391557483.94899,-181138838.36359,  -0.00016,   0.00231,  -0.00326,476549336.09668,   0.00176,276549339.12649,  -0.00081,   0.00113,  -0.00091,  -3.02981,   1.00000
315094809.91265,391988369.42445,-180442049.16960,  -0.00014,   0.00230,  -0.00326,476554424.56422,   0.00177,276554432.91639,  -0.00081,   0.00114,  -0.00091,  -8.35217,   1.00000
317441467.56871,392399881.31702,-179746447.24086,  -0.00013,   0.00230,  -0.00325,476559664.55194,   0.00177,276559670.37599,  -0.00081,   0.00114,  -0.00092,  -5.82405,   1.00000
319792433.53568,392837731.52762,-179027010.60444,  -0.00012,   0.00230,  -0.00325,476564960.19585,   0.00178,276564966.16090,  -0.00081,   0.00114,  -0.00092,  -5.96505,   1.00000
322154360.58616,393248056.11940,-178305318.18285,  -0.00011,   0.00230,  -0.00324,476570298.16422,   0.00178,276570301.95828,  -0.00081,   0.00114,  -0.00093,  -3.79406,   1.00000
324480839.38335,393664511.89492,-177577638.37082,  -0.00010,   0.00230,  -0.00324,476575728.23778,   0.00179,276575735.85849,  -0.00081,   0.00114,  -0.00093,  -7.62071,   1.00000
326794998.28979,394070345.42317,-176845962.37431,  -0.00009,   0.00230,  -0.00323,476581234.85386,   0.00179,276581237.29079,  -0.00081,   0.00114,  -0.00093,  -2.43693,   1.00000
329105724.76175,394493374.73580,-176096061.67909,  -0.00008,   0.00230,  -0.00323,476586866.78497,   0.00180,276586869.37838,  -0.00081,   0.00115,  -0.00094,  -2.59340,   1.00000
331408940.25843,394895251.11284,-175345323.76925,  -0.00007,   0.00230,  -0.00322,476592358.36669,   0.00180,276592362.15002,  -0.00081,   0.00115,  -0.00094,  -3.78333,   1.00000
333701295.99120,395305478.15703,-174582051.30410,  -0.00006,   0.00230,  -0.00322,476598052.39466,   0.00181,276598056.27668,  -0.00080,   0.00115,  -0.00095,  -3.88202,   1.00000
335982447.03384,395723964.11831,-173806371.36033,  -0.00005,   0.00230,  -0.00321,476603943.38936,   0.00181,276603950.48430,  -0.00080,   0.00115,  -0.00095,  -7.09494,   1.00000
338256121.38418,396121237.30049,-173029860.14018,  -0.00004,   0.00230,  -0.00321,476609696.15354,   0.00182,276609705.70075,  -0.00080,   0.00116,  -0.00096,  -9.54721,   1.00000
340518169.96727,396526694.24968,-172241092.20460,  -0.00002,   0.00230,  -0.00320,476615652.90375,   0.00182,276615659.57317,  -0.00080,   0.00116,  -0.00096,  -6.66942,   1.00000
342774123.59157,396929848.04519,-171442924.60624,  -0.00001,   0.00230,  -0.00320,476621603.02985,   0.00183,276621608.70481,  -0.00080,   0.00116,  -0.00097,  -5.67496,   1.00000
345010719.11841,397332515.74503,-170638534.16040,  -0.00000,   0.00230,  -0.00319,476627816.44569,   0.00184,276627822.80904,  -0.00080,   0.00116,  -0.00097,  -6.36335,   1.00000
347247129.39865,397722412.83670,-169827441.93534,   0.00001,   0.00230,  -0.00319,476633822.23265,   0.00184,276633830.73332,  -0.00080,   0.00116,  -0.00098,  -8.50067,   1.00000
349470939.33690,398120250.36110,-169004442.74183,   0.00002,   0.00230,  -0.00318,476640030.13312,   0.00185,276640034.12176,  -0.00080,   0.00117,  -0.00098,  -3.98865,   1.00000
351658662.34307,398525135.78497,-168176917.86884,   0.00003,   0.00230,  -0.00317,476646315.00170,   0.00185,276646317.64249,  -0.00079,   0.00117,  -0.00099,  -2.64080,   1.00000
353855058.43687,398901164.45995,-167347333.50442,   0.00004,   0.00230,  -0.00317,476652637.27527,   0.00186,276652642.81857,  -0.00079,   0.00117,  -0.00099,  -5.54330,   1.00000
356045421.58947,399293409.71073,-166500160.92569,   0.00005,   0.00230,  -0.00316,476659091.63650,   0.00187,276659094.35431,  -0.00079,   0.00117,  -0.00100,  -2.71781,   1.00000
358199515.77224,399692898.95745,-165648831.49934,   0.00006,   0.00230,  -0.00316,476665616.38491,   0.00187,276665621.68973,  -0.00079,   0.00118,  -0.00100,  -5.30482,   1.00000
360369033.26485,400071497.64605,-164789407.55259,   0.00007,   0.00230,  -0.00315,476672121.11269,   0.00188,276672126.32851,  -0.00079,   0.00118,  -0.00101,  -5.21582,   1.00000
362502248.15005,400457506.30407,-163926031.68137,   0.00008,   0.00230,  -0.00315,476678696.32881,   0.00188,276678704.33971,  -0.00079,   0.00118,  -0.00102,  -8.01090,   1.00000
364650720.62462,400840987.94127,-163046276.18731,   0.00009,   0.00230,  -0.00314,476685383.76247,   0.00189,276685391.85678,  -0.00078,   0.00118,  -0.00102,  -8.09432,   1.00000
366755399.14178,401223782.30142,-162169054.55873,   0.00010,   0.00230,  -0.00313,476692211.63156,   0.00190,276692212.80632,  -0.00078,   0.00119,  -0.00103,  -1.17476,   1.00000
368882093.11852,401611880.84635,-161269276.57193,   0.00012,   0.00230,  -0.00313,476699075.86514,   0.00190,276699080.74900,  -0.00078,   0.00119,  -0.00103,  -4.88386,   1.00000
370965067.37432,401980917.30913,-160380480.01839,   0.00013,   0.00230,  -0.00312,476705943.04323,   0.00191,276705948.61041,  -0.00078,   0.00119,  -0.00104,  -5.56718,   1.00000
373040531.89932,402365670.61423,-159474717.08780,   0.00014,   0.00230,  -0.00312,476712936.38342,   0.00192,276712937.83599,  -0.00078,   0.00119,  -0.00104,  -1.45257,   1.00000
375101240.67797,402739428.09672,-158566497.48192,   0.00015,   0.00230,  -0.00311,476719971.18210,   0.00192,276719979.93564,  -0.00077,   0.00120,  -0.00105,  -8.75355,   1.00000
377154547.44189,403110256.37788,-157649477.30944,   0.00016,   0.00230,  -0.00310,476727005.97677,   0.00193,276727013.67939,  -0.00077,   0.00120,  -0.00105,  -7.70262,   1.00000
379192966.34402,403470103.21826,-156730123.95046,   0.00017,   0.00230,  -0.00310,476734097.69582,   0.00194,276734099.21900,  -0.00077,   0.00120,  -0.00106,  -1.52318,   1.00000
381215628.81787,403837369.91290,-155800580.05788,   0.00018,   0.00230,  -0.00309,476741357.88789,   0.00194,276741363.85028,  -0.00077,   0.00120,  -0.00107,  -5.96239,   1.00000
383229667.14397,404219879.61369,-154854468.94869,   0.00019,   0.00230,  -0.00308,476748737.38375,   0.00195,276748747.20857,  -0.00076,   0.00121,  -0.00107,  -9.82483,   1.00000
385229437.98811,404572980.20148,-153914190.68482,   0.00020,   0.00230,  -0.00308,476756047.36179,   0.00196,276756052.25015,  -0.00076,   0.00121,  -0.00108,  -4.88837,   1.00000
387212827.31047,404933380.22582,-152964096.68191,   0.00021,   0.00230,  -0.00307,476763528.01613,   0.00196,276763533.03263,  -0.00076,   0.00121,  -0.00108,  -5.01650,   1.00000
389168396.03846,405291813.83781,-152012877.69332,   0.00022,   0.00230,  -0.00307,476770882.78766,   0.00197,276770883.46996,  -0.00076,   0.00121,  -0.00109,  -0.68230,   1.00000
391127110.35646,405656224.82390,-151044714.31376,   0.00023,   0.00230,  -0.00306,476778522.32149,   0.00198,276778527.66425,  -0.00075,   0.00122,  -0.00110,  -5.34276,   1.00000
393058129.46009,406018724.22448,-150075521.54711,   0.00024,   0.00230,  -0.00305,476786035.64807,   0.00198,276786040.60017,  -0.00075,   0.00122,  -0.00110,  -4.95210,   1.00000
394985670.25958,406361041.69919,-149104111.07328,   0.00026,   0.00230,  -0.00305,476793766.01963,   0.00199,276793775.42293,  -0.00075,   0.00122,  -0.00111,  -9.40330,   1.00000
396884137.02206,406719830.02295,-148124137.65757,   0.00027,   0.00230,  -0.00304,476801499.65748,   0.00200,276801503.09713,  -0.00075,   0.00123,  -0.00111,  -3.43965,   1.00000
398774444.46097,407075263.99109,-147135887.61136,   0.00028,   0.00230,  -0.00303,476809211.45283,   0.00201,276809219.34817,  -0.00074,   0.00123,  -0.00112,  -7.89535,   1.00000
400641763.17261,407412223.04806,-146153219.28623,   0.00029,   0.00230,  -0.00303,476817030.97745,   0.00201,276817032.05870,  -0.00074,   0.00123,  -0.00113,  -1.08124,   1.00000
402498857.69391,407763898.69187,-145154871.14674,   0.00030,   0.00230,  -0.00302,476824951.04795,   0.00202,276824956.92430,  -0.00074,   0.00123,  -0.00113,  -5.87635,   1.00000
404347552.51030,408112088.90899,-144148401.44450,   0.00031,   0.00231,  -0.00301,476832864.79806,   0.00203,276832869.57906,  -0.00074,   0.00124,  -0.00114,  -4.78100,   1.00000
406170819.09187,408459873.36278,-143140506.46375,   0.00032,   0.00231,  -0.00301,476840995.37631,   0.00204,276840998.23739,  -0.00073,   0.00124,  -0.00114,  -2.86107,   1.00000
407985534.61874,408804113.73415,-142124636.59793,   0.00033,   0.00231,  -0.00300,476849108.15919,   0.00204,276849113.64514,  -0.00073,   0.00124,  -0.00115,  -5.48595,   1.00000
409766451.55906,409139866.92376,-141115261.05007,   0.00034,   0.00231,  -0.00299,476857142.93978,   0.00205,276857144.29320,  -0.00073,   0.00125,  -0.00116,  -1.35342,   1.00000
411554147.37751,409487524.37289,-140083375.14065,   0.00035,   0.00231,  -0.00298,476865406.43880,   0.00206,276865406.64241,  -0.00072,   0.00125,  -0.00116,  -0.20360,   1.00000
413308206.10253,409826818.39397,-139058148.48775,   0.00036,   0.00231,  -0.00298,476873581.95439,   0.00207,276873582.50913,  -0.00072,   0.00125,  -0.00117,  -0.55473,   1.00000
415046437.30161,410155348.57997,-138032362.57723,   0.00037,   0.00231,  -0.00297,476881786.47665,   0.00207,276881793.78943,  -0.00072,   0.00126,  -0.00118,  -7.31278,   1.00000
416783127.45257,410488128.28102,-136991705.39463,   0.00038,   0.00231,  -0.00296,476890275.57969,   0.00208,276890284.23974,  -0.00071,   0.00126,  -0.00118,  -8.66004,   1.00000
418493884.45032,410820058.58994,-135950645.47706,   0.00039,   0.00232,  -0.00296,476898630.47574,   0.00209,276898636.44938,  -0.00071,   0.00126,  -0.00119,  -5.97364,   1.00000
420188657.32075,411141232.85153,-134909311.88031,   0.00040,   0.00232,  -0.00295,476907020.06436,   0.00210,276907021.75913,  -0.00071,   0.00127,  -0.00120,  -1.69477,   1.00000
421847702.80734,411472572.38134,-133867998.39524,   0.00041,   0.00232,  -0.00294,476915428.29069,   0.00211,276915435.77708,  -0.00070,   0.00127,  -0.00120,  -7.48639,   1.00000
423507449.16398,411790128.21983,-132819448.68181,   0.00042,   0.00232,  -0.00294,476923998.39787,   0.00211,276924004.12678,  -0.00070,   0.00127,  -0.00121,  -5.72891,   1.00000
425154971.07136,412121586.35549,-131756544.07611,   0.00043,   0.00232,  -0.00293,476932669.21301,   0.00212,276932675.74704,  -0.00070,   0.00127,  -0.00122,  -6.53403,   1.00000
426770223.32475,412445722.27855,-130700943.80652,   0.00044,   0.00232,  -0.00292,476941248.44903,   0.00213,276941253.00347,  -0.00069,   0.00128,  -0.00122,  -4.55444,   1.00000
428385527.33480,412755784.40367,-129638458.59493,   0.00045,   0.00232,  -0.00291,476949979.62780,   0.00214,276949982.61476,  -0.00069,   0.00128,  -0.00123,  -2.98696,   1.00000
429972395.17561,413083174.23342,-128569017.14393,   0.00047,   0.00233,  -0.00291,476958681.77861,   0.00215,276958689.77962,  -0.00069,   0.00128,  -0.00123,  -8.00101,   1.00000
431543278.24625,413399971.87828,-127500008.85534,   0.00048,   0.00233,  -0.00290,476967415.48197,   0.00215,276967423.93585,  -0.00068,   0.00129,  -0.00124,  -8.45387,   1.00000
433094378.82168,413723752.35189,-126424858.65768,   0.00049,   0.00233,  -0.00289,476976296.43232,   0.00216,276976301.70352,  -0.00068,   0.00129,  -0.00125,  -5.27120,   1.00000
434629476.88040,414036999.65889,-125350375.60471,   0.00050,   0.00233,  -0.00288,476985203.83940,   0.00217,276985204.45558,  -0.00067,   0.00129,  -0.00125,  -0.61618,   1.00000
436148603.86414,414339790.17846,-124276637.58995,   0.00051,   0.00233,  -0.00288,476994122.93870,   0.00218,276994131.53822,  -0.00067,   0.00130,  -0.00126,  -8.59952,   1.00000
437639751.83819,414660244.89989,-123196348.49148,   0.00052,   0.00234,  -0.00287,477003024.37110,   0.00219,277003032.31863,  -0.00067,   0.00130,  -0.00127,  -7.94753,   1.00000
439129865.76769,414966137.60944,-122110069.33011,   0.00053,   0.00234,  -0.00286,477012072.34250,   0.00220,277012079.75491,  -0.00066,   0.00131,  -0.00127,  -7.41241,   1.00000
440585098.95283,415283251.71818,-121025296.84454,   0.00054,   0.00234,  -0.00285,477021135.22791,   0.00221,277021140.86552,  -0.00066,   0.00131,  -0.00128,  -5.63761,   1.00000
442045828.99614,415592040.09854,-119926896.87829,   0.00055,   0.00234,  -0.00285,477030305.76806,   0.00221,277030306.18392,  -0.00065,   0.00131,  -0.00129,  -0.41587,   1.00000
443476192.76914,415894818.00974,-118836546.66811,   0.00056,   0.00234,  -0.00284,477039366.49819,   0.00222,277039368.54863,  -0.00065,   0.00132,  -0.00129,  -2.05044,   1.00000
444879474.05142,416198371.30692,-117749240.00634,   0.00057,   0.00235,  -0.00283,477048602.08257,   0.00223,277048604.60670,  -0.00064,   0.00132,  -0.00130,  -2.52413,   1.00000
446280556.00024,416504179.42123,-116647289.69834,   0.00058,   0.00235,  -0.00282,477057774.22929,   0.00224,277057781.10192,  -0.00064,   0.00132,  -0.00131,  -6.87262,   1.00000
447645338.45285,416798286.24215,-115561618.89652,   0.00059,   0.00235,  -0.00282,477066886.11501,   0.00225,277066891.02985,  -0.00064,   0.00133,  -0.00131,  -4.91484,   1.00000
449003560.84282,417094811.17250,-114464733.08916,   0.00060,   0.00235,  -0.00281,477076250.81800,   0.00226,277076255.10295,  -0.00063,   0.00133,  -0.00132,  -4.28496,   1.00000
450334367.62784,417409332.98725,-113361998.94226,   0.00061,   0.00236,  -0.00280,477085583.86458,   0.00227,277085587.35749,  -0.00063,   0.00133,  -0.00133,  -3.49291,   1.00000
451667972.78392,417691636.49107,-112260494.73343,   0.00062,   0.00236,  -0.00279,477094940.40912,   0.00227,277094946.40592,  -0.00062,   0.00134,  -0.00133,  -5.99680,   1.00000
452967705.07625,417986078.50616,-111161460.60248,   0.00063,   0.00236,  -0.00278,477104307.15104,   0.00228,277104309.77486,  -0.00062,   0.00134,  -0.00134,  -2.62381,   1.00000
454253409.50894,418293536.86228,-110050231.92803,   0.00064,   0.00236,  -0.00278,477113758.32001,   0.00229,277113763.37354,  -0.00061,   0.00135,  -0.00135,  -5.05352,   1.00000
455517184.87052,418585102.51592,-108949409.19167,   0.00065,   0.00237,  -0.00277,477123262.40028,   0.00230,277123266.31908,  -0.00061,   0.00135,  -0.00135,  -3.91881,   1.00000
456772089.39562,418872599.25976,-107842425.52470,   0.00066,   0.00237,  -0.00276,477132738.27748,   0.00231,277132747.22794,  -0.00060,   0.00135,  -0.00136,  -8.95046,   1.00000
457993702.97901,419172603.77317,-106738326.17575,   0.00067,   0.00237,  -0.00275,477142223.61617,   0.00232,277142228.49847,  -0.00060,   0.00136,  -0.00136,  -4.88230,   1.00000
459212711.82528,419457358.32666,-105630232.53474,   0.00068,   0.00237,  -0.00274,477151838.74746,   0.00233,277151844.30745,  -0.00059,   0.00136,  -0.00137,  -5.55999,   1.00000
460398655.12843,419754801.58564,-104525253.66815,   0.00069,   0.00238,  -0.00274,477161455.82780,   0.00234,277161458.42811,  -0.00059,   0.00136,  -0.00138,  -2.60030,   1.00000
461569663.90848,420042549.78262,-103422815.08601,   0.00070,   0.00238,  -0.00273,477171076.00838,   0.00235,277171082.79106,  -0.00058,   0.00137,  -0.00138,  -6.78268,   1.00000
462732018.41683,420326219.50333,-102314467.94592,   0.00071,   0.00238,  -0.00272,477180681.48130,   0.00236,277180684.31705,  -0.00058,   0.00137,  -0.00139,  -2.83576,   1.00000
463873690.80409,420617092.37246,-101203323.78461,   0.00072,   0.00239,  -0.00271,477190396.58938,   0.00236,277190404.25650,  -0.00057,   0.00138,  -0.00140,  -7.66711,   1.00000
465000514.08428,420898331.09222,-100094984.64285,   0.00073,   0.00239,  -0.00270,477200126.50011,   0.00237,277200132.94410,  -0.00057,   0.00138,  -0.00140,  -6.44399,   1.00000
466100961.43244,421175962.30453,-98995551.67218,   0.00074,   0.00239,  -0.00270,477209738.23011,   0.00238,277209748.09255,  -0.00056,   0.00138,  -0.00141,  -9.86244,   1.00000
467192485.80909,421455019.47548,-97887706.72301,   0.00075,   0.00239,  -0.00269,477219596.63718,   0.00239,277219600.37007,  -0.00056,   0.00139,  -0.00142,  -3.73289,   1.00000
468251954.99695,421747423.50342,-96783630.02076,   0.00076,   0.00240,  -0.00268,477229441.81999,   0.00240,277229445.22478,  -0.00055,   0.00139,  -0.00142,  -3.40479,   1.00000
469302981.31797,422035637.39006,-95673978.54985,   0.00077,   0.00240,  -0.00267,477239264.06600,   0.00241,277239266.41218,  -0.00054,   0.00140,  -0.00143,  -2.34618,   1.00000
470333809.33937,422309328.26191,-94576269.39525,   0.00078,   0.00240,  -0.00266,477249115.30762,   0.00242,277249123.12238,  -0.00054,   0.00140,  -0.00143,  -7.81476,   1.00000
471356306.71299,422578936.65727,-93473040.76040,   0.00079,   0.00241,  -0.00266,477258951.46556,   0.00243,277258956.27722,  -0.00053,   0.00140,  -0.00144,  -4.81166,   1.00000
472358286.89005,422855968.32114,-92368104.98864,   0.00080,   0.00241,  -0.00265,477268897.79105,   0.00244,277268900.63867,  -0.00053,   0.00141,  -0.00145,  -2.84762,   1.00000
473328997.74984,423146795.02735,-91267326.15416,   0.00081,   0.00241,  -0.00264,477278824.51605,   0.00245,277278834.38454,  -0.00052,   0.00141,  -0.00145,  -9.86849,   1.00000
474296530.26437,423422005.43297,-90164433.12037,   0.00082,   0.00242,  -0.00263,477288885.57248,   0.00246,277288892.41699,  -0.00052,   0.00142,  -0.00146,  -6.84451,   1.00000
475239639.34081,423694661.37828,-89070739.40129,   0.00083,   0.00242,  -0.00262,477298829.52892,   0.00247,277298833.63633,  -0.00051,   0.00142,  -0.00146,  -4.10741,   1.00000
476174670.65009,423963184.16426,-87971726.98520,   0.00084,   0.00243,  -0.00261,477308750.34354,   0.00248,277308751.43647,  -0.00050,   0.00143,  -0.00147,  -1.09293,   1.00000
477083930.68328,424234486.26082,-86880596.21008,   0.00085,   0.00243,  -0.00261,477318797.03814,   0.00249,277318803.00300,  -0.00050,   0.00143,  -0.00148,  -5.96486,   1.00000
477978430.91806,424518077.60585,-85779580.10414,   0.00086,   0.00243,  -0.00260,477328925.47508,   0.00250,277328934.66971,  -0.00049,   0.00143,  -0.00148,  -9.19464,   1.00000
478849412.56241,424799502.30717,-84687830.58237,   0.00087,   0.00244,  -0.00259,477338947.58487,   0.00251,277338948.73581,  -0.00049,   0.00144,  -0.00149,  -1.15094,   1.00000
479711901.72537,425060670.13800,-83603726.59240,   0.00087,   0.00244,  -0.00258,477349105.82820,   0.00252,277349108.93567,  -0.00048,   0.00144,  -0.00149,  -3.10746,   1.00000
480549747.64944,425341010.77905,-82515269.90510,   0.00088,   0.00244,  -0.00257,477359224.61412,   0.00252,277359229.26881,  -0.00047,   0.00145,  -0.00150,  -4.65469,   1.00000
481374641.28333,425612628.94054,-81430872.61449,   0.00089,   0.00245,  -0.00256,477369343.01094,   0.00253,277369350.52062,  -0.00047,   0.00145,  -0.00151,  -7.50968,   1.00000
482186709.43191,425875639.22377,-80350580.06483,   0.00090,   0.00245,  -0.00256,477379468.43447,   0.00254,277379472.46411,  -0.00046,   0.00146,  -0.00151,  -4.02964,   1.00000
482983994.09961,426150762.63057,-79260926.82693,   0.00091,   0.00246,  -0.00255,477389670.17261,   0.00255,277389673.37544,  -0.00045,   0.00146,  -0.00152,  -3.20283,   1.00000
483763501.30292,426412928.89991,-78184724.35263,   0.00092,   0.00246,  -0.00254,477399887.94164,   0.00256,277399897.62914,  -0.00045,   0.00146,  -0.00152,  -9.68750,   1.00000
484513950.96235,426690140.51355,-77113527.01892,   0.00093,   0.00247,  -0.00253,477410103.60026,   0.00257,277410104.79094,  -0.00044,   0.00147,  -0.00153,  -1.19068,   1.00000
485252170.12286,426958959.52885,-76046666.73958,   0.00094,   0.00247,  -0.00252,477420303.95945,   0.00258,277420311.35579,  -0.00043,   0.00147,  -0.00153,  -7.39634,   1.00000
485992272.18204,427216300.35647,-74970108.22746,   0.00095,   0.00247,  -0.00251,477430609.37732,   0.00259,277430612.80742,  -0.00043,   0.00148,  -0.00154,  -3.43010,   1.00000
486698841.78446,427484745.70774,-73908018.84306,   0.00096,   0.00248,  -0.00251,477440913.13856,   0.00260,277440918.04753,  -0.00042,   0.00148,  -0.00155,  -4.90897,   1.00000
487398232.72068,427749017.30966,-72841149.62600,   0.00097,   0.00248,  -0.00250,477451194.59522,   0.00261,277451200.78353,  -0.00041,   0.00149,  -0.00155,  -6.18831,   1.00000
488064700.83628,428024702.11717,-71788855.68885,   0.00098,   0.00249,  -0.00249,477461484.35124,   0.00262,277461485.92068,  -0.00041,   0.00149,  -0.00156,  -1.56944,   1.00000
488733068.63634,428288677.33232,-70727211.52997,   0.00099,   0.00249,  -0.00248,477471862.34097,   0.00263,277471865.59360,  -0.00040,   0.00150,  -0.00156,  -3.25263,   1.00000
489381038.93658,428552122.20030,-69674799.94210,   0.00100,   0.00250,  -0.00247,477482118.15008,   0.00264,277482127.14047,  -0.00039,   0.00150,  -0.00157,  -8.99039,   1.00000
490018619.99068,428815943.41978,-68618788.86139,   0.00101,   0.00250,  -0.00246,477492595.75245,   0.00265,277492602.24210,  -0.00039,   0.00151,  -0.00157,  -6.48965,   1.00000
490631811.70894,429075685.09432,-67581438.04519,   0.00102,   0.00251,  -0.00246,477502973.56838,   0.00266,277502978.41789,  -0.00038,   0.00151,  -0.00158,  -4.84951,   1.00000
491230583.76061,429347288.08811,-66535728.10899,   0.00103,   0.00251,  -0.00245,477513424.51478,   0.00267,277513431.73292,  -0.00037,   0.00151,  -0.00158,  -7.21815,   1.00000
491809924.07967,429618774.89195,-65499189.75938,   0.00103,   0.00251,  -0.00244,477523766.61011,   0.00268,277523767.00379,  -0.00037,   0.00152,  -0.00159,  -0.39368,   1.00000
492386836.95385,429874627.07354,-64463269.41624,   0.00104,   0.00252,  -0.00243,477534211.97550,   0.00269,277534215.41117,  -0.00036,   0.00152,  -0.00159,  -3.43566,   1.00000
492936813.78440,430146524.56973,-63432917.25327,   0.00105,   0.00252,  -0.00242,477544639.45822,   0.00270,277544643.90432,  -0.00035,   0.00153,  -0.00160,  -4.44610,   1.00000
493484464.89425,430402780.08688,-62403426.57331,   0.00106,   0.00253,  -0.00241,477555177.46391,   0.00271,277555184.72154,  -0.00034,   0.00153,  -0.00160,  -7.25763,   1.00000
494009440.03743,430655985.21505,-61392565.29237,   0.00107,   0.00253,  -0.00240,477565622.25763,   0.00272,277565625.27623,  -0.00034,   0.00154,  -0.00161,  -3.01860,   1.00000
494520229.40215,430920956.01042,-60373748.22124,   0.00108,   0.00254,  -0.00240,477576136.35866,   0.00273,277576143.09326,  -0.00033,   0.00154,  -0.00161,  -6.73459,   1.00000
495020882.43547,431178412.27207,-59360020.29742,   0.00109,   0.00254,  -0.00239,477586657.22122,   0.00274,277586658.04936,  -0.00032,   0.00155,  -0.00162,  -0.82814,   1.00000
495495464.72791,431452276.30849,-58351985.75597,   0.00110,   0.00255,  -0.00238,477597151.23241,   0.00275,277597152.69649,  -0.00031,   0.00155,  -0.00162,  -1.46408,   1.00000
495968147.68077,431710555.54016,-57345276.61741,   0.00111,   0.00255,  -0.00237,477607752.20276,   0.00276,277607758.34403,  -0.00031,   0.00156,  -0.00163,  -6.14127,   1.00000
496423261.13051,431969694.72446,-56347501.90450,   0.00112,   0.00256,  -0.00236,477618246.82455,   0.00277,277618247.38768,  -0.00030,   0.00156,  -0.00163,  -0.56313,   1.00000
496868364.04752,432229011.04767,-55348106.66803,   0.00113,   0.00257,  -0.00235,477628942.07175,   0.00278,277628943.01125,  -0.00029,   0.00157,  -0.00163,  -0.93949,   1.00000
497296249.50357,432489331.60278,-54357618.28514,   0.00114,   0.00257,  -0.00235,477639520.09969,   0.00279,277639522.36697,  -0.00028,   0.00157,  -0.00164,  -2.26728,   1.00000
497714863.33812,432742497.05057,-53372366.60537,   0.00114,   0.00258,  -0.00234,477650091.29309,   0.00280,277650098.95209,  -0.00028,   0.00158,  -0.00164,  -7.65900,   1.00000
498104927.62139,433009591.11893,-52402598.26953,   0.00115,   0.00258,  -0.00233,477660664.90158,   0.00281,277660669.58121,  -0.00027,   0.00158,  -0.00165,  -4.67963,   1.00000
498497186.35738,433264226.73370,-51424911.03889,   0.00116,   0.00259,  -0.00232,477671332.00915,   0.00282,277671335.79140,  -0.00026,   0.00159,  -0.00165,  -3.78226,   1.00000
498872116.97775,433527380.01498,-50449723.77398,   0.00117,   0.00259,  -0.00231,477682091.32355,   0.00283,277682094.10006,  -0.00025,   0.00159,  -0.00166,  -2.77651,   1.00000
499230830.57461,433791971.29937,-49483241.55582,   0.00118,   0.00260,  -0.00230,477692729.70838,   0.00284,277692737.37714,  -0.00025,   0.00160,  -0.00166,  -7.66876,   1.00000
499577790.35135,434046929.55890,-48531854.09425,   0.00119,   0.00260,  -0.00229,477703383.15685,   0.00285,277703391.22490,  -0.00024,   0.00160,  -0.00166,  -8.06805,   1.00000
499911117.87023,434313289.56462,-47573320.36137,   0.00120,   0.00261,  -0.00229,477714119.11432,   0.00286,277714123.78151,  -0.00023,   0.00161,  -0.00167,  -4.66718,   1.00000
500233045.31316,434570169.96693,-46629984.68595,   0.00121,   0.00261,  -0.00228,477724857.14999,   0.00287,277724866.42399,  -0.00022,   0.00161,  -0.00167,  -9.27399,   1.00000
500550006.42657,434823001.23095,-45682229.71405,   0.00122,   0.00262,  -0.00227,477735589.63877,   0.00288,277735594.09063,  -0.00021,   0.00162,  -0.00168,  -4.45186,   1.00000
500840063.61849,435090613.09484,-44750170.66944,   0.00122,   0.00263,  -0.00226,477746307.06184,   0.00289,277746314.19383,  -0.00021,   0.00162,  -0.00168,  -7.13199,   1.00000
501132564.07293,435345456.06590,-43810724.44185,   0.00123,   0.00263,  -0.00225,477757121.31176,   0.00290,277757131.17119,  -0.00020,   0.00163,  -0.00168,  -9.85944,   1.00000
501407252.50702,435599986.28104,-42889474.97024,   0.00124,   0.00264,  -0.00224,477767840.89250,   0.00291,277767846.67708,  -0.00019,   0.00163,  -0.00169,  -5.78458,   1.00000
501674496.32725,435848128.44329,-41973591.97666,   0.00125,   0.00264,  -0.00224,477778555.70445,   0.00292,277778560.17114,  -0.00018,   0.00164,  -0.00169,  -4.46669,   1.00000
501925650.61798,436105198.77973,-41060748.57563,   0.00126,   0.00265,  -0.00223,477789360.21679,   0.00293,277789365.00909,  -0.00017,   0.00164,  -0.00169,  -4.79230,   1.00000
502160810.55121,436371122.68240,-40151055.39763,   0.00127,   0.00266,  -0.00222,477800252.66406,   0.00294,277800261.01104,  -0.00017,   0.00165,  -0.00170,  -8.34698,   1.00000
502397719.03001,436615509.59608,-39249074.65429,   0.00128,   0.00266,  -0.00221,477811055.51866,   0.00295,277811062.18302,  -0.00016,   0.00165,  -0.00170,  -6.66436,   1.00000
502611811.99330,436877729.49998,-38352911.76295,   0.00129,   0.00267,  -0.00220,477821843.75228,   0.00296,277821844.68662,  -0.00015,   0.00166,  -0.00170,  -0.93434,   1.00000
502817225.79830,437139969.70926,-37457503.93823,   0.00129,   0.00267,  -0.00219,477832818.69917,   0.00297,277832828.28406,  -0.00014,   0.00167,  -0.00171,  -9.58489,   1.00000
503017888.13994,437389799.12559,-36572166.03034,   0.00130,   0.00268,  -0.00219,477843603.18229,   0.00298,277843608.22099,  -0.00013,   0.00167,  -0.00171,  -5.03870,   1.00000
503200680.95968,437646628.32418,-35700109.49248,   0.00131,   0.00269,  -0.00218,477854484.82012,   0.00300,277854489.03015,  -0.00012,   0.00168,  -0.00171,  -4.21003,   1.00000
503370572.12700,437914494.32323,-34821529.31478,   0.00132,   0.00269,  -0.00217,477865445.89780,   0.00301,277865451.76595,  -0.00012,   0.00168,  -0.00172,  -5.86815,   1.00000
503540876.83861,438159321.32750,-33960320.55070,   0.00133,   0.00270,  -0.00216,477876329.99870,   0.00302,277876330.29746,  -0.00011,   0.00169,  -0.00172,  -0.29876,   1.00000
503696094.71546,438413326.79587,-33102596.86695,   0.00134,   0.00271,  -0.00215,477887294.37342,   0.00303,277887300.16851,  -0.00010,   0.00169,  -0.00172,  -5.79509,   1.00000
503845371.35255,438661507.35609,-32250295.74907,   0.00135,   0.00271,  -0.00214,477898264.19973,   0.00304,277898269.27111,  -0.00009,   0.00170,  -0.00173,  -5.07139,   1.00000
503972932.61826,438927897.58760,-31403729.04028,   0.00135,   0.00272,  -0.00214,477909216.20140,   0.00305,277909221.09583,  -0.00008,   0.00170,  -0.00173,  -4.89443,   1.00000
504101656.31461,439179402.13956,-30560489.78612,   0.00136,   0.00272,  -0.00213,477920279.68364,   0.00306,277920281.01265,  -0.00007,   0.00171,  -0.00173,  -1.32901,   1.00000
504217969.43716,439434283.87702,-29724699.37384,   0.00137,   0.00273,  -0.00212,477931230.92229,   0.00307,277931232.37044,  -0.00007,   0.00171,  -0.00173,  -1.44815,   1.00000
504326889.14382,439681863.87220,-28904262.10980,   0.00138,   0.00274,  -0.00211,477942187.94361,   0.00308,277942191.33949,  -0.00006,   0.00172,  -0.00174,  -3.39588,   1.00000
504423337.91468,439940387.01173,-28077512.07828,   0.00139,   0.00274,  -0.00210,477953229.41748,   0.00309,277953234.56505,  -0.00005,   0.00173,  -0.00174,  -5.14756,   1.00000
504512728.39863,440191732.66600,-27266158.46851,   0.00140,   0.00275,  -0.00210,477964279.78539,   0.00310,277964285.22557,  -0.00004,   0.00173,  -0.00174,  -5.44017,   1.00000
504590371.84004,440446817.77779,-26461909.69770,   0.00141,   0.00276,  -0.00209,477975226.42972,   0.00311,277975228.46119,  -0.00003,   0.00174,  -0.00174,  -2.03146,   1.00000
504660698.33506,440702036.91487,-25659693.40458,   0.00141,   0.00276,  -0.00208,477986367.66613,   0.00312,277986371.26220,  -0.00002,   0.00174,  -0.00175,  -3.59607,   1.00000
504735454.81938,440937162.17640,-24864245.99320,   0.00142,   0.00277,  -0.00207,477997419.89729,   0.00313,277997423.45487,  -0.00001,   0.00175,  -0.00175,  -3.55758,   1.00000
504780294.48504,441205654.39260,-24072928.95488,   0.00143,   0.00278,  -0.00206,478008548.81586,   0.00314,278008551.61389,  -0.00001,   0.00175,  -0.00175,  -2.79803,   1.00000
504828297.90759,441452747.71868,-23298281.87331,   0.00144,   0.00278,  -0.00206,478019591.03571,   0.00315,278019595.72578,   0.00000,   0.00176,  -0.00175,  -4.69007,   1.00000
504864208.32013,441710634.79688,-22517462.90093,   0.00145,   0.00279,  -0.00205,478030723.06971,   0.00316,278030726.18619,   0.00001,   0.00177,  -0.00175,  -3.11648,   1.00000
504894314.08122,441962006.48664,-21751950.08853,   0.00146,   0.00280,  -0.00204,478041861.61065,   0.00317,278041863.71426,   0.00002,   0.00177,  -0.00176,  -2.10361,   1.00000
504920275.86157,442208282.70664,-20991616.08717,   0.00146,   0.00281,  -0.00203,478052994.98677,   0.00318,278053002.69073,   0.00003,   0.00178,  -0.00176,  -7.70396,   1.00000
504940829.33121,442448390.75513,-20246498.11225,   0.00147,   0.00281,  -0.00202,478064142.45451,   0.00320,278064148.47201,   0.00004,   0.00178,  -0.00176,  -6.01749,   1.00000
504949505.33294,442699277.91683,-19495272.41565,   0.00148,   0.00282,  -0.00202,478075380.19479,   0.00321,278075381.67489,   0.00005,   0.00179,  -0.00176,  -1.48009,   1.00000
504946347.52260,442953420.12840,-18760548.21057,   0.00149,   0.00283,  -0.00201,478086508.04103,   0.00322,278086515.20417,   0.00006,   0.00180,  -0.00176,  -7.16314,   1.00000
504946292.76964,443193328.18979,-18029632.90603,   0.00150,   0.00283,  -0.00200,478097751.16837,   0.00323,278097757.02297,   0.00006,   0.00180,  -0.00177,  -5.85459,   1.00000
504935941.42778,443437851.23839,-17304950.32346,   0.00151,   0.00284,  -0.00199,478108887.06842,   0.00324,278108894.70472,   0.00007,   0.00181,  -0.00177,  -7.63631,   1.00000
504912738.10574,443692027.69295,-16584294.15942,   0.00151,   0.00285,  -0.00198,478120119.21679,   0.00325,278120125.45513,   0.00008,   0.00181,  -0.00177,  -6.23833,   1.00000
504886190.88834,443941401.46137,-15868649.68396,   0.00152,   0.00285,  -0.00198,478131355.01464,   0.00326,278131358.66967,   0.00009,   0.00182,  -0.00177,  -3.65502,   1.00000
504855353.86911,444185170.12293,-15168078.06215,   0.00153,   0.00286,  -0.00197,478142598.20467,   0.00327,278142598.41460,   0.00010,   0.00183,  -0.00177,  -0.20993,   1.00000
504821412.28709,444424357.73865,-14472406.73543,   0.00154,   0.00287,  -0.00196,478153832.77422,   0.00328,278153840.79639,   0.00011,   0.00183,  -0.00177,  -8.02216,   1.00000
504775014.09842,444673331.01499,-13780815.14485,   0.00155,   0.00288,  -0.00195,478165172.13189,   0.00329,278165176.53570,   0.00012,   0.00184,  -0.00177,  -4.40381,   1.00000
504725706.21416,444917731.08538,-13094124.14505,   0.00155,   0.00288,  -0.00195,478176513.62196,   0.00330,278176515.16093,   0.00013,   0.00184,  -0.00178,  -1.53897,   1.00000
504672720.11345,445156906.91877,-12422404.39043,   0.00156,   0.00289,  -0.00194,478187857.96456,   0.00331,278187860.02530,   0.00013,   0.00185,  -0.00178,  -2.06075,   1.00000
504610286.51997,445401199.71164,-11756262.40540,   0.00157,   0.00290,  -0.00193,478199092.51350,   0.00332,278199102.50049,   0.00014,   0.00186,  -0.00178,  -9.98699,   1.00000
504552071.98880,445631675.06142,-11094082.65741,   0.00158,   0.00291,  -0.00192,478210449.67691,   0.00334,278210453.45276,   0.00015,   0.00186,  -0.00178,  -3.77586,   1.00000
504475015.69400,445881563.28144,-10436737.06701,   0.00159,   0.00291,  -0.00192,478221787.18823,   0.00335,278221793.11443,   0.00016,   0.00187,  -0.00178,  -5.92619,   1.00000
504394904.27462,446126531.07498,-9794200.22498,   0.00160,   0.00292,  -0.00191,478233134.90954,   0.00336,278233138.74583,   0.00017,   0.00187,  -0.00178,  -3.83629,   1.00000
504312542.48091,446367283.86312,-9156274.50453,   0.00160,   0.00293,  -0.00190,478244482.34140,   0.00337,278244487.79300,   0.00018,   0.00188,  -0.00178,  -5.45160,   1.00000
504227996.22645,446603890.34114,-8522936.15664,   0.00161,   0.00293,  -0.00189,478255834.91989,   0.00338,278255840.39028,   0.00019,   0.00189,  -0.00178,  -5.47039,   1.00000
504141324.49581,446836413.29456,-7894161.15751,   0.00162,   0.00294,  -0.00189,478267192.49829,   0.00339,278267196.69089,   0.00020,   0.00189,  -0.00178,  -4.19260,   1.00000
504042542.10424,447078497.18531,-7279609.90426,   0.00163,   0.00295,  -0.00188,478278645.57811,   0.00340,278278649.27465,   0.00021,   0.00190,  -0.00178,  -3.69655,   1.00000
503941876.29070,447316548.86537,-6669539.74413,   0.00164,   0.00296,  -0.00187,478290097.03141,   0.00341,278290105.57908,   0.00022,   0.00190,  -0.00178,  -8.54766,   1.00000
503848964.45166,447536685.72743,-6064280.50040,   0.00164,   0.00296,  -0.00186,478301468.62306,   0.00342,278301475.10243,   0.00022,   0.00191,  -0.00178,  -6.47938,   1.00000
503735084.31232,447780916.55041,-5462776.98646,   0.00165,   0.00297,  -0.00186,478313027.67028,   0.00343,278313029.84633,   0.00023,   0.00192,  -0.00179,  -2.17605,   1.00000
503621873.58394,448016542.83700,-4876443.14175,   0.00166,   0.00298,  -0.00185,478324390.55602,   0.00344,278324394.85966,   0.00024,   0.00192,  -0.00179,  -4.30364,   1.00000
503514037.02177,448238795.30394,-4294086.93802,   0.00167,   0.00299,  -0.00184,478335860.32005,   0.00346,278335868.29912,   0.00025,   0.00193,  -0.00179,  -7.97907,   1.00000
503387881.11161,448480620.21724,-3726161.46855,   0.00168,   0.00300,  -0.00184,478347331.20147,   0.00347,278347333.10655,   0.00026,   0.00194,  -0.00179,  -1.90508,   1.00000
503277165.63049,448695446.06117,-3152272.56382,   0.00168,   0.00300,  -0.00183,478358805.60837,   0.00348,278358814.72439,   0.00027,   0.00194,  -0.00179,  -9.11602,   1.00000
503148253.28436,448929984.41670,-2592755.93349,   0.00169,   0.00301,  -0.00182,478370280.57273,   0.00349,278370287.84873,   0.00028,   0.00195,  -0.00179,  -7.27600,   1.00000
503017970.32492,449160766.67507,-2047485.07254,   0.00170,   0.00302,  -0.00181,478381764.04711,   0.00350,278381765.71317,   0.00029,   0.00196,  -0.00179,  -1.66606,   1.00000
502893687.00321,449378495.28892,-1496027.94202,   0.00171,   0.00303,  -0.00181,478393351.12314,   0.00351,278393351.31209,   0.00030,   0.00196,  -0.00179,  -0.18895,   1.00000
502751489.12540,449616048.86969,-958813.24049,   0.00172,   0.00303,  -0.00180,478404923.76602,   0.00352,278404928.38580,   0.00031,   0.00197,  -0.00179,  -4.61977,   1.00000
502617951.24225,449836352.48149,-425636.69033,   0.00172,   0.00304,  -0.00179,478416415.42285,   0.00353,278416418.93151,   0.00031,   0.00197,  -0.00179,  -3.50867,   1.00000
502483426.82979,450053295.76365,93466.24618,   0.00173,   0.00305,  -0.00179,478427912.19032,   0.00354,278427913.84610,   0.00032,   0.00198,  -0.00179,  -1.65578,   1.00000
502338368.83757,450280629.86958,608675.94556,   0.00174,   0.00306,  -0.00178,478439501.68597,   0.00356,278439503.83937,   0.00033,   0.00199,  -0.00179,  -2.15340,   1.00000
502192518.72508,450504619.38194,1120022.37114,   0.00175,   0.00306,  -0.00177,478451096.55381,   0.00357,278451098.13465,   0.00034,   0.00199,  -0.00179,  -1.58084,   1.00000
502055560.78536,450711706.24257,1627625.75786,   0.00176,   0.00307,  -0.00177,478462597.62522,   0.00358,278462605.95410,   0.00035,   0.00200,  -0.00179,  -8.32888,   1.00000
501901158.02515,450939046.03153,2121345.33899,   0.00176,   0.00308,  -0.00176,478474102.30751,   0.00359,278474105.06289,   0.00036,   0.00201,  -0.00179,  -2.75539,   1.00000
501753507.14141,451153650.71076,2601093.44321,   0.00177,   0.00309,  -0.00175,478485704.10816,   0.00360,278485711.40746,   0.00037,   0.00201,  -0.00179,  -7.29930,   1.00000
501605130.97646,451365034.69023,3087342.85806,   0.00178,   0.00310,  -0.00175,478497314.17909,   0.00361,278497322.63720,   0.00038,   0.00202,  -0.00179,  -8.45810,   1.00000
501446770.33241,451587079.84277,3559602.54906,   0.00179,   0.00310,  -0.00174,478509021.60528,   0.00362,278509028.44347,   0.00039,   0.00203,  -0.00179,  -6.83819,   1.00000
501290427.33063,451802223.47802,4028778.01786,   0.00180,   0.00311,  -0.00173,478520537.85991,   0.00363,278520544.13286,   0.00040,   0.00203,  -0.00179,  -6.27296,   1.00000
501141247.21197,452004968.29418,4484027.76861,   0.00180,   0.00312,  -0.00173,478532158.77089,   0.00364,278532166.34979,   0.00040,   0.00204,  -0.00179,  -7.57890,   1.00000
500974745.36596,452228004.01782,4935874.55933,   0.00181,   0.00313,  -0.00172,478543772.84136,   0.00366,278543780.64089,   0.00041,   0.00205,  -0.00178,  -7.79952,   1.00000
500825371.48586,452425282.41411,5374153.63666,   0.00182,   0.00314,  -0.00171,478555402.58023,   0.00367,278555409.79844,   0.00042,   0.00205,  -0.00178,  -7.21821,   1.00000
500665688.62132,452632918.48785,5818880.73138,   0.00183,   0.00314,  -0.00171,478567128.99340,   0.00368,278567135.63582,   0.00043,   0.00206,  -0.00178,  -6.64241,   1.00000
500508955.13217,452834782.49559,6240779.75722,   0.00183,   0.00315,  -0.00170,478578658.70397,   0.00369,278578668.36387,   0.00044,   0.00207,  -0.00178,  -9.65990,   1.00000
500349366.30987,453037269.76689,6668777.45179,   0.00184,   0.00316,  -0.00170,478590391.77570,   0.00370,278590400.94348,   0.00045,   0.00207,  -0.00178,  -9.16778,   1.00000
500192435.17503,453233847.89730,7084287.35165,   0.00185,   0.00317,  -0.00169,478601935.20760,   0.00371,278601941.62633,   0.00046,   0.00208,  -0.00178,  -6.41873,   1.00000
500026233.58836,453441593.42620,7486119.04373,   0.00186,   0.00317,  -0.00168,478613567.24110,   0.00372,278613575.81794,   0.00047,   0.00209,  -0.00178,  -8.57684,   1.00000
499867039.24615,453636569.24469,7894480.84937,   0.00187,   0.00318,  -0.00168,478625316.50794,   0.00373,278625318.58999,   0.00048,   0.00209,  -0.00178,  -2.08205,   1.00000
499700920.83267,453839177.41733,8290162.02054,   0.00187,   0.00319,  -0.00167,478636955.04365,   0.00375,278636960.56511,   0.00049,   0.00210,  -0.00178,  -5.52146,   1.00000
499552691.51508,454016826.18375,8672670.33046,   0.00188,   0.00320,  -0.00167,478648606.15767,   0.00376,278648615.48410,   0.00049,   0.00211,  -0.00178,  -9.32643,   1.00000
499387331.54072,454215134.69413,9052334.29519,   0.00189,   0.00321,  -0.00166,478660261.24678,   0.00377,278660262.80230,   0.00050,   0.00211,  -0.00178,  -1.55552,   1.00000
499222143.20077,454410989.17148,9429110.12656,   0.00190,   0.00321,  -0.00165,478671904.11276,   0.00378,278671913.87708,   0.00051,   0.00212,  -0.00178,  -9.76432,   1.00000
499057824.47335,454605031.29051,9792918.72967,   0.00191,   0.00322,  -0.00165,478683561.97385,   0.00379,278683566.16217,   0.00052,   0.00213,  -0.00178,  -4.18831,   1.00000
498902029.75957,454787629.21995,10143184.78572,   0.00191,   0.00323,  -0.00164,478695314.63671,   0.00380,278695321.97606,   0.00053,   0.00213,  -0.00177,  -7.33935,   1.00000
498738225.16488,454977130.40650,10501556.64301,   0.00192,   0.00324,  -0.00164,478706975.08996,   0.00381,278706981.14309,   0.00054,   0.00214,  -0.00177,  -6.05313,   1.00000
498585147.19083,455151899.60581,10847746.97170,   0.00193,   0.00325,  -0.00163,478718544.34314,   0.00382,278718549.41669,   0.00055,   0.00215,  -0.00177,  -5.07355,   1.00000
498431046.68725,455328631.52446,11179816.50839,   0.00194,   0.00325,  -0.00163,478730309.75880,   0.00384,278730312.38302,   0.00056,   0.00215,  -0.00177,  -2.62422,   1.00000
498269630.36067,455513004.09661,11510097.68665,   0.00194,   0.00326,  -0.00162,478741968.40412,   0.00385,278741976.06357,   0.00057,   0.00216,  -0.00177,  -7.65945,   1.00000
498108631.94724,455695265.53739,11837861.11065,   0.00195,   0.00327,  -0.00162,478753635.82839,   0.00386,278753642.85168,   0.00057,   0.00217,  -0.00177,  -7.02329,   1.00000
497966305.15595,455853425.41430,12152951.98349,   0.00196,   0.00328,  -0.00161,478765311.30828,   0.00387,278765320.13551,   0.00058,   0.00217,  -0.00177,  -8.82723,   1.00000
497806897.03213,456032486.05072,12465721.77733,   0.00197,   0.00329,  -0.00160,478776984.51146,   0.00388,278776989.95023,   0.00059,   0.00218,  -0.00177,  -5.43876,   1.00000
497648808.45722,456210298.32148,12766015.98968,   0.00198,   0.00329,  -0.00160,478788653.77180,   0.00389,278788659.50196,   0.00060,   0.00219,  -0.00177,  -5.73016,   1.00000
497509619.25769,456364261.10553,13053846.47964,   0.00198,   0.00330,  -0.00159,478800333.13130,   0.00390,278800338.63027,   0.00061,   0.00220,  -0.00176,  -5.49898,   1.00000
497352483.11252,456538400.99932,13349654.41369,   0.00199,   0.00331,  -0.00159,478812005.37462,   0.00391,278812013.47560,   0.00062,   0.00220,  -0.00176,  -8.10097,   1.00000
497214348.68255,456688813.42903,13633031.67368,   0.00200,   0.00332,  -0.00158,478823692.58962,   0.00393,278823697.60099,   0.00063,   0.00221,  -0.00176,  -5.01137,   1.00000
497060033.91599,456861034.02341,13904249.88273,   0.00201,   0.00333,  -0.00158,478835363.30699,   0.00394,278835370.77246,   0.00064,   0.00222,  -0.00176,  -7.46547,   1.00000
496916062.48112,457018567.41364,14174246.67211,   0.00202,   0.00333,  -0.00157,478846953.54442,   0.00395,278846954.03697,   0.00065,   0.00222,  -0.00176,  -0.49255,   1.00000
496781481.21283,457165577.32982,14431163.08740,   0.00202,   0.00334,  -0.00157,478858630.40156,   0.00396,278858637.96742,   0.00065,   0.00223,  -0.00176,  -7.56586,   1.00000
496629828.45741,457333644.76693,14686211.13092,   0.00203,   0.00335,  -0.00157,478870310.20223,   0.00397,278870314.15628,   0.00066,   0.00224,  -0.00176,  -3.95404,   1.00000
496497471.68851,457478326.47070,14929140.94844,   0.00204,   0.00336,  -0.00156,478881993.69667,   0.00398,278881998.29032,   0.00067,   0.00224,  -0.00175,  -4.59365,   1.00000
496365702.25070,457621538.99890,15170217.68046,   0.00205,   0.00336,  -0.00156,478893676.37267,   0.00399,278893684.22023,   0.00068,   0.00225,  -0.00175,  -7.84756,   1.00000
496226553.62102,457773022.85346,15410472.03184,   0.00206,   0.00337,  -0.00155,478905263.53807,   0.00400,278905270.11840,   0.00069,   0.00226,  -0.00175,  -6.58033,   1.00000
496106779.40926,457901413.25930,15638736.68203,   0.00206,   0.00338,  -0.00155,478916856.74729,   0.00402,278916863.36111,   0.00070,   0.00226,  -0.00175,  -6.61382,   1.00000
495970871.44659,458051978.92386,15855294.02359,   0.00207,   0.00339,  -0.00154,478928442.05640,   0.00403,278928444.82719,   0.00071,   0.00227,  -0.00175,  -2.77078,   1.00000
495843661.99140,458191377.66043,16069154.57169,   0.00208,   0.00340,  -0.00154,478940119.73661,   0.00404,278940129.42699,   0.00072,   0.00228,  -0.00175,  -9.69037,   1.00000
495727900.86370,458317666.58074,16272287.55710,   0.00209,   0.00340,  -0.00153,478951712.01171,   0.00405,278951718.81368,   0.00072,   0.00228,  -0.00175,  -6.80197,   1.00000
495612742.02132,458442766.03918,16473885.57700,   0.00209,   0.00341,  -0.00153,478963307.74814,   0.00406,278963309.34037,   0.00073,   0.00229,  -0.00174,  -1.59223,   1.00000
495489544.09653,458580397.23408,16662887.98305,   0.00210,   0.00342,  -0.00153,478974981.17025,   0.00407,278974989.35105,   0.00074,   0.00230,  -0.00174,  -8.18080,   1.00000
495368661.42425,458713781.29985,16852571.62908,   0.00211,   0.00343,  -0.00152,478986471.17412,   0.00408,278986476.16655,   0.00075,   0.00231,  -0.00174,  -4.99243,   1.00000
495257669.30284,458837252.40878,17029643.22372,   0.00212,   0.00343,  -0.00152,478998059.73408,   0.00409,278998061.20284,   0.00076,   0.00231,  -0.00174,  -1.46876,   1.00000
495157027.40216,458946927.95307,17206411.06657,   0.00213,   0.00344,  -0.00151,479009550.66479,   0.00411,279009554.42025,   0.00077,   0.00232,  -0.00174,  -3.75546,   1.00000
495056522.91519,459059621.86681,17369601.84209,   0.00213,   0.00345,  -0.00151,479021237.83992,   0.00412,279021238.03236,   0.00078,   0.00233,  -0.00174,  -0.19244,   1.00000
494958172.54229,459168370.01530,17533756.61705,   0.00214,   0.00346,  -0.00151,479032718.23565,   0.00413,279032728.12350,   0.00079,   0.00233,  -0.00173,  -9.88785,   1.00000
494851853.05682,459289891.06732,17685554.31680,   0.00215,   0.00346,  -0.00150,479044302.04309,   0.00414,279044306.86818,   0.00079,   0.00234,  -0.00173,  -4.82510,   1.00000
494757079.51053,459398806.56739,17827213.44593,   0.00216,   0.00347,  -0.00150,479055787.93202,   0.00415,279055788.79132,   0.00080,   0.00235,  -0.00173,  -0.85930,   1.00000
494671105.09780,459497094.30335,17966634.21351,   0.00217,   0.00348,  -0.00149,479067371.35659,   0.00416,279067372.18738,   0.00081,   0.00235,  -0.00173,  -0.83078,   1.00000
494587189.26003,459591665.12545,18107282.60140,   0.00217,   0.00349,  -0.00149,479078759.30875,   0.00417,279078761.69009,   0.00082,   0.00236,  -0.00173,  -2.38135,   1.00000
494495269.14910,459699150.41253,18235727.90007,   0.00218,   0.00349,  -0.00149,479090231.90431,   0.00418,279090239.47752,   0.00083,   0.00237,  -0.00172,  -7.57321,   1.00000
494423126.70369,459784561.46282,18353051.23926,   0.00219,   0.00350,  -0.00148,479101715.88072,   0.00420,279101721.08461,   0.00084,   0.00237,  -0.00172,  -5.20389,   1.00000
494351481.59242,459869302.33348,18469500.14292,   0.00220,   0.00351,  -0.00148,479113200.54917,   0.00421,279113202.41682,   0.00085,   0.00238,  -0.00172,  -1.86766,   1.00000
494273274.54072,459964204.51011,18576237.43810,   0.00221,   0.00352,  -0.00148,479124572.12417,   0.00422,279124577.65033,   0.00085,   0.00239,  -0.00172,  -5.52616,   1.00000
494205109.31318,460049781.79005,18670899.84752,   0.00221,   0.00352,  -0.00147,479136041.85097,   0.00423,279136048.92625,   0.00086,   0.00239,  -0.00172,  -7.07528,   1.00000
494137443.35048,460134717.54407,18764858.12642,   0.00222,   0.00353,  -0.00147,479147511.72035,   0.00424,279147519.55317,   0.00087,   0.00240,  -0.00172,  -7.83282,   1.00000
494079999.57581,460206470.51120,18859253.11137,   0.00223,   0.00354,  -0.00147,479158891.19373,   0.00425,279158896.75971,   0.00088,   0.00241,  -0.00171,  -5.56598,   1.00000
494024216.56941,460278831.91698,18942891.53359,   0.00224,   0.00355,  -0.00147,479170261.75001,   0.00426,279170268.62815,   0.00089,   0.00242,  -0.00171,  -6.87815,   1.00000
493970109.80042,460351823.57673,19015854.32650,   0.00225,   0.00355,  -0.00146,479181633.78300,   0.00427,279181634.92282,   0.00090,   0.00242,  -0.00171,  -1.13983,   1.00000
493926141.03788,460411764.00803,19089429.80630,   0.00225,   0.00356,  -0.00146,479192903.06057,   0.00428,279192907.52736,   0.00091,   0.00243,  -0.00171,  -4.46679,   1.00000
493882390.00458,460475260.92115,19150001.16788,   0.00226,   0.00357,  -0.00146,479204367.99919,   0.00430,279204368.18659,   0.00091,   0.00244,  -0.00171,  -0.18739,   1.00000
493841644.86346,460536676.49663,19202480.13892,   0.00227,   0.00358,  -0.00146,479215626.29929,   0.00431,279215629.14933,   0.00092,   0.00244,  -0.00170,  -2.85004,   1.00000
493819314.07664,460575460.79903,19254476.94345,   0.00228,   0.00358,  -0.00145,479226894.65445,   0.00432,279226897.05799,   0.00093,   0.00245,  -0.00170,  -2.40354,   1.00000
493780395.37798,460637403.58679,19296138.27667,   0.00229,   0.00359,  -0.00145,479238145.42565,   0.00433,279238150.80093,   0.00094,   0.00246,  -0.00170,  -5.37528,   1.00000
493761156.07671,460677886.90656,19327337.94230,   0.00230,   0.00360,  -0.00145,479249399.26175,   0.00434,279249406.45582,   0.00095,   0.00246,  -0.00170,  -7.19407,   1.00000
493742128.69168,460718141.66987,19358312.68723,   0.00230,   0.00360,  -0.00145,479260651.96724,   0.00435,279260660.62212,   0.00096,   0.00247,  -0.00170,  -8.65489,   1.00000
493723311.83169,460758169.70267,19389064.16943,   0.00231,   0.00361,  -0.00144,479271903.53994,   0.00436,279271913.29852,   0.00096,   0.00248,  -0.00170,  -9.75858,   1.00000
493716969.83367,460787816.03792,19400646.77418,   0.00232,   0.00362,  -0.00144,479283056.99867,   0.00437,279283061.99719,   0.00097,   0.00248,  -0.00169,  -4.99852,   1.00000
493709481.71993,460816151.93371,19422207.51129,   0.00233,   0.00362,  -0.00144,479294211.43763,   0.00438,279294213.86892,   0.00098,   0.00249,  -0.00169,  -2.43129,   1.00000
493704655.73184,460846684.67191,19423497.20288,   0.00234,   0.00363,  -0.00144,479305348.18011,   0.00439,279305354.48717,   0.00099,   0.00250,  -0.00169,  -6.30706,   1.00000
493708316.37609,460867355.64811,19423509.38781,   0.00235,   0.00364,  -0.00144,479316589.61701,   0.00440,279316594.04592,   0.00100,   0.00250,  -0.00169,  -4.42891,   1.00000
493714654.14512,460886346.85969,19415907.07422,   0.00235,   0.00364,  -0.00143,479327626.41205,   0.00442,279327633.44875,   0.00101,   0.00251,  -0.00169,  -7.03670,   1.00000
493730659.86495,460896720.66108,19397032.73103,   0.00236,   0.00365,  -0.00143,479338757.27040,   0.00443,279338766.88819,   0.00101,   0.00252,  -0.00168,  -9.61779,   1.00000
493756364.65485,460894610.81196,19379466.15379,   0.00237,   0.00366,  -0.00143,479349802.87299,   0.00444,279349805.62342,   0.00102,   0.00252,  -0.00168,  -2.75043,   1.00000
493773489.60027,460906235.05565,19350801.61279,   0.00238,   0.00366,  -0.00143,479360925.66293,   0.00445,279360930.30231,   0.00103,   0.00253,  -0.00168,  -4.63938,   1.00000
493800291.62374,460905352.02637,19323511.27443,   0.00239,   0.00367,  -0.00143,479371952.20058,   0.00446,279371960.24436,   0.00104,   0.00254,  -0.00168,  -8.04378,   1.00000
493837971.08374,460893215.40848,19287521.34230,   0.00240,   0.00368,  -0.00143,479382887.41744,   0.00447,279382890.71675,   0.00105,   0.00254,  -0.00168,  -3.29931,   1.00000
493876699.13731,460882377.33189,19241727.57355,   0.00240,   0.00368,  -0.00143,479393809.63741,   0.00448,279393814.38859,   0.00105,   0.00255,  -0.00168,  -4.75117,   1.00000
493923567.26636,460861952.24222,19195004.18953,   0.00241,   0.00369,  -0.00142,479404833.53251,   0.00449,279404836.59578,   0.00106,   0.00256,  -0.00167,  -3.06327,   1.00000
493964309.95212,460853750.90872,19129746.91566,   0.00242,   0.00370,  -0.00142,479415744.24273,   0.00450,279415746.48220,   0.00107,   0.00256,  -0.00167,  -2.23947,   1.00000
494021631.96580,460822268.12529,19074916.02203,   0.00243,   0.00370,  -0.00142,479426661.72064,   0.00451,279426666.97069,   0.00108,   0.00257,  -0.00167,  -5.25006,   1.00000
494081083.00385,460793342.07944,19000350.30782,   0.00244,   0.00371,  -0.00142,479437573.75375,   0.00452,279437575.86056,   0.00109,   0.00258,  -0.00167,  -2.10681,   1.00000
494149867.39495,460752124.37908,18927453.68243,   0.00245,   0.00372,  -0.00142,479448387.11912,   0.00453,279448390.05200,   0.00110,   0.00258,  -0.00167,  -2.93288,   1.00000
494219419.44145,460712347.99146,18845005.38212,   0.00245,   0.00372,  -0.00142,479459190.83334,   0.00454,279459197.40882,   0.00110,   0.00259,  -0.00166,  -6.57549,   1.00000
494288496.20056,460672865.15306,18763136.48178,   0.00246,   0.00373,  -0.00142,479469993.09606,   0.00455,279470002.53843,   0.00111,   0.00260,  -0.00166,  -9.44238,   1.00000
494369282.39904,460623383.03128,18662835.66499,   0.00247,   0.00374,  -0.00142,479480699.66862,   0.00456,279480703.78093,   0.00112,   0.00260,  -0.00166,  -4.11231,   1.00000
494456558.12723,460563379.57893,18572080.87298,   0.00248,   0.00374,  -0.00142,479491498.96740,   0.00457,279491508.04555,   0.00113,   0.00261,  -0.00166,  -9.07814,   1.00000
494555361.91856,460493452.41923,18462940.84168,   0.00249,   0.00375,  -0.00142,479502200.46902,   0.00459,279502208.69688,   0.00114,   0.00262,  -0.00166,  -8.22787,   1.00000
494653430.74397,460423970.99340,18354558.32719,   0.00250,   0.00375,  -0.00142,479512900.97100,   0.00460,279512907.20934,   0.00114,   0.00262,  -0.00166,  -6.23834,   1.00000
494751958.79519,460356022.67753,18236859.19278,   0.00251,   0.00376,  -0.00142,479523590.12246,   0.00461,279523599.07756,   0.00115,   0.00263,  -0.00165,  -8.95510,   1.00000
494860668.39291,460276999.98073,18110996.36445,   0.00251,   0.00376,  -0.00142,479534189.13059,   0.00462,279534192.10297,   0.00116,   0.00264,  -0.00165,  -2.97239,   1.00000
494969713.40269,460199518.79170,17975926.62597,   0.00252,   0.00377,  -0.00142,479544775.98224,   0.00463,279544778.59800,   0.00117,   0.00264,  -0.00165,  -2.61575,   1.00000
495095855.89117,460100137.78365,17841685.04074,   0.00253,   0.00378,  -0.00142,479555365.90970,   0.00464,279555371.53453,   0.00118,   0.00265,  -0.00165,  -5.62484,   1.00000
495213958.52345,460012120.56865,17699453.84383,   0.00254,   0.00378,  -0.00142,479565850.10827,   0.00465,279565857.55239,   0.00118,   0.00265,  -0.00165,  -7.44412,   1.00000
495339323.29838,459914867.51892,17557036.45406,   0.00255,   0.00379,  -0.00142,479576438.02225,   0.00466,279576442.14139,   0.00119,   0.00266,  -0.00165,  -4.11914,   1.00000
495475695.96962,459807591.12435,17396492.02676,   0.00256,   0.00379,  -0.00142,479586919.89275,   0.00467,279586924.27110,   0.00120,   0.00267,  -0.00165,  -4.37835,   1.00000
495610948.58162,459700878.37443,17237036.92935,   0.00257,   0.00380,  -0.00142,479597401.85238,   0.00468,279597404.54078,   0.00121,   0.00267,  -0.00164,  -2.68840,   1.00000
495764077.67743,459573333.87150,17068489.81565,   0.00258,   0.00380,  -0.00142,479607881.46457,   0.00469,279607887.58420,   0.00122,   0.00268,  -0.00164,  -6.11963,   1.00000
495907800.11547,459456173.86762,16902196.74574,   0.00258,   0.00381,  -0.00142,479618258.88176,   0.00470,279618268.37482,   0.00122,   0.00269,  -0.00164,  -9.49307,   1.00000
496069269.21182,459318172.18860,16726845.61811,   0.00259,   0.00382,  -0.00142,479628643.05493,   0.00471,279628652.28402,   0.00123,   0.00269,  -0.00164,  -9.22909,   1.00000
496230460.83852,459181852.13819,16542592.41390,   0.00260,   0.00382,  -0.00142,479639024.26009,   0.00472,279639030.61531,   0.00124,   0.00270,  -0.00164,  -6.35522,   1.00000
496401074.23237,459034416.60942,16350475.00798,   0.00261,   0.00383,  -0.00142,479649308.05268,   0.00473,279649311.89566,   0.00125,   0.00270,  -0.00164,  -3.84298,   1.00000
496571262.66925,458888628.59597,16149551.90992,   0.00262,   0.00383,  -0.00142,479659577.94861,   0.00474,279659587.91940,   0.00125,   0.00271,  -0.00163,  -9.97079,   1.00000
496757716.44433,458720993.43270,15949869.00552,   0.00263,   0.00384,  -0.00143,479669866.09964,   0.00475,279669871.88925,   0.00126,   0.00272,  -0.00163,  -5.78961,   1.00000
496935568.19431,458564797.36260,15742466.09640,   0.00264,   0.00384,  -0.00143,479680049.51415,   0.00476,279680050.26446,   0.00127,   0.00272,  -0.00163,  -0.75031,   1.00000
497130556.54621,458387644.05771,15526247.02298,   0.00265,   0.00385,  -0.00143,479690223.90733,   0.00477,279690233.21253,   0.00128,   0.00273,  -0.00163,  -9.30520,   1.00000
497323804.32720,458211271.15338,15311451.48387,   0.00266,   0.00385,  -0.00143,479700411.13856,   0.00478,279700415.32693,   0.00129,   0.00274,  -0.00163,  -4.18837,   1.00000
497526029.59734,458023679.21160,15088883.11772,   0.00266,   0.00386,  -0.00143,479710497.53673,   0.00479,279710501.83833,   0.00129,   0.00274,  -0.00163,  -4.30160,   1.00000
497728376.20670,457838643.44110,14847585.54032,   0.00267,   0.00386,  -0.00143,479720572.55642,   0.00480,279720580.47789,   0.00130,   0.00275,  -0.00163,  -7.92146,   1.00000
497935754.25255,457643751.70942,14616986.63570,   0.00268,   0.00386,  -0.00144,479730758.91614,   0.00481,279730762.99775,   0.00131,   0.00275,  -0.00163,  -4.08161,   1.00000
498162551.97067,457425473.34622,14369437.08673,   0.00269,   0.00387,  -0.00144,479740755.90882,   0.00482,279740756.20679,   0.00132,   0.00276,  -0.00162,  -0.29797,   1.00000
498377489.59224,457221017.26784,14122643.55405,   0.00270,   0.00387,  -0.00144,479750836.55144,   0.00483,279750840.34856,   0.00132,   0.00277,  -0.00162,  -3.79712,   1.00000
498610749.10042,456992165.58561,13869017.73526,   0.00271,   0.00388,  -0.00144,479760733.56233,   0.00484,279760739.45923,   0.00133,   0.00277,  -0.00162,  -5.89690,   1.00000
498832982.41558,456778021.20576,13606107.42838,   0.00272,   0.00388,  -0.00144,479770716.96840,   0.00485,279770726.24996,   0.00134,   0.00278,  -0.00162,  -9.28156,   1.00000
499073388.94314,456539323.14339,13336385.64237,   0.00273,   0.00389,  -0.00145,479780524.28839,   0.00486,279780528.76182,   0.00135,   0.00278,  -0.00162,  -4.47343,   1.00000
499320031.77837,456292528.84843,13057408.15469,   0.00274,   0.00389,  -0.00145,479790426.89112,   0.00487,279790429.72176,   0.00136,   0.00279,  -0.00162,  -2.83063,   1.00000
499564236.55953,456046586.80689,12780216.36320,   0.00275,   0.00390,  -0.00145,479800325.76545,   0.00488,279800331.59585,   0.00136,   0.00279,  -0.00162,  -5.83040,   1.00000
499816572.14182,455789091.34060,12495440.96178,   0.00276,   0.00390,  -0.00145,479810137.92299,   0.00489,279810140.95105,   0.00137,   0.00280,  -0.00162,  -3.02806,   1.00000
500067208.31472,455533185.04790,12202369.41966,   0.00277,   0.00390,  -0.00146,479819946.25933,   0.00490,279819948.52979,   0.00138,   0.00281,  -0.00162,  -2.27046,   1.00000
500343074.06355,455242668.12205,11901674.89159,   0.00277,   0.00391,  -0.00146,479829670.01306,   0.00491,279829675.26783,   0.00139,   0.00281,  -0.00161,  -5.25476,   1.00000
500606444.88915,454966341.80326,11602184.18897,   0.00278,   0.00391,  -0.00146,479839487.70178,   0.00492,279839494.05730,   0.00139,   0.00282,  -0.00161,  -6.35553,   1.00000
500877569.77090,454678285.95034,11295159.53517,   0.00279,   0.00392,  -0.00147,479849216.53235,   0.00493,279849221.85551,   0.00140,   0.00282,  -0.00161,  -5.32316,   1.00000
501156322.23492,454378443.77489,10980609.79019,   0.00280,   0.00392,  -0.00147,479858855.36517,   0.00493,279858859.17551,   0.00141,   0.00283,  -0.00161,  -3.81035,   1.00000
501442574.64952,454066754.27772,10658542.60499,   0.00281,   0.00392,  -0.00147,479868403.08053,   0.00494,279868406.54465,   0.00142,   0.00283,  -0.00161,  -3.46412,   1.00000
501726521.68407,453756565.66746,10328354.66743,   0.00282,   0.00393,  -0.00148,479877947.80995,   0.00495,279877954.20440,   0.00142,   0.00284,  -0.00161,  -6.39445,   1.00000
502014827.12866,453437581.08359,9999542.88425,   0.00283,   0.00393,  -0.00148,479887601.72390,   0.00496,279887606.14624,   0.00143,   0.00285,  -0.00161,  -4.42234,   1.00000
502311009.33609,453107163.14670,9653131.16788,   0.00284,   0.00393,  -0.00148,479897159.56806,   0.00497,279897166.95264,   0.00144,   0.00285,  -0.00161,  -7.38458,   1.00000
502613638.13823,452764094.77973,9309414.48976,   0.00285,   0.00394,  -0.00149,479906638.27778,   0.00498,279906641.91672,   0.00145,   0.00286,  -0.00161,  -3.63895,   1.00000
502920824.05827,452412812.31380,8957094.93892,   0.00286,   0.00394,  -0.00149,479916213.81548,   0.00499,279916220.10348,   0.00145,   0.00286,  -0.00161,  -6.28799,   1.00000
503227647.83037,452058991.01084,8597927.64172,   0.00287,   0.00394,  -0.00149,479925605.95041,   0.00500,279925609.53101,   0.00146,   0.00287,  -0.00161,  -3.58061,   1.00000
503547874.19240,451682737.74485,8240881.26650,   0.00288,   0.00395,  -0.00150,479935007.21628,   0.00501,279935015.94359,   0.00147,   0.00287,  -0.00161,  -8.72730,   1.00000
503865619.60277,451308369.19123,7865775.84590,   0.00289,   0.00395,  -0.00150,479944420.67207,   0.00502,279944423.32087,   0.00148,   0.00288,  -0.00160,  -2.64880,   1.00000
504189375.18454,450921116.94196,7493400.83849,   0.00290,   0.00395,  -0.00151,479953744.34737,   0.00503,279953746.97721,   0.00148,   0.00288,  -0.00160,  -2.62984,   1.00000
504516983.76036,450525583.22881,7112683.00616,   0.00291,   0.00396,  -0.00151,479963176.15779,   0.00504,279963176.17949,   0.00149,   0.00289,  -0.00160,  -0.02170,   1.00000
504850861.14050,450117509.43273,6724569.51948,   0.00292,   0.00396,  -0.00152,479972511.24035,   0.00505,279972520.88106,   0.00150,   0.00289,  -0.00160,  -9.64071,   1.00000
505183950.60786,449706422.34196,6329485.54353,   0.00293,   0.00396,  -0.00152,479981677.10515,   0.00506,279981679.64162,   0.00151,   0.00290,  -0.00160,  -2.53647,   1.00000
505527353.51562,449277354.94758,5925834.44655,   0.00294,   0.00396,  -0.00152,479991042.75155,   0.00506,279991047.64098,   0.00151,   0.00290,  -0.00160,  -4.88944,   1.00000
505869375.54134,448844773.04280,5525337.83911,   0.00295,   0.00397,  -0.00153,480000227.51972,   0.00507,280000232.20440,   0.00152,   0.00291,  -0.00160,  -4.68468,   1.00000
506217263.66973,448399328.10819,5117408.21981,   0.00296,   0.00397,  -0.00153,480009331.34631,   0.00508,280009334.45886,   0.00153,   0.00291,  -0.00160,  -3.11254,   1.00000
506568073.71474,447945473.38002,4701453.99543,   0.00297,   0.00397,  -0.00154,480018536.99453,   0.00509,280018545.59038,   0.00154,   0.00292,  -0.00160,  -8.59585,   1.00000
506924455.31553,447478605.32706,4278118.91723,   0.00298,   0.00397,  -0.00154,480027670.30249,   0.00510,280027675.69150,   0.00154,   0.00293,  -0.00160,  -5.38902,   1.00000
507292918.45557,446989081.85009,3847140.48769,   0.00299,   0.00397,  -0.00155,480036821.53418,   0.00511,280036828.02242,   0.00155,   0.00293,  -0.00160,  -6.48824,   1.00000
507650394.60105,446510168.98691,3408837.99569,   0.00300,   0.00398,  -0.00156,480045884.47062,   0.00512,280045886.24315,   0.00156,   0.00294,  -0.00160,  -1.77253,   1.00000
508019655.26355,446008406.57452,2962970.70248,   0.00301,   0.00398,  -0.00156,480054965.08500,   0.00513,280054968.05846,   0.00157,   0.00294,  -0.00160,  -2.97346,   1.00000
508384197.11436,445507484.56426,2519750.80132,   0.00302,   0.00398,  -0.00157,480064051.20781,   0.00514,280064059.96965,   0.00157,   0.00295,  -0.00160,  -8.76184,   1.00000
508753711.59048,444993107.97189,2069156.37673,   0.00303,   0.00398,  -0.00157,480073071.63704,   0.00515,280073073.95905,   0.00158,   0.00295,  -0.00160,  -2.32201,   1.00000
509128020.24996,444465141.97082,1611182.87308,   0.00304,   0.00398,  -0.00158,480082006.91113,   0.00515,280082010.88064,   0.00159,   0.00295,  -0.00160,  -3.96951,   1.00000
509513354.15680,443914033.53731,1145747.65756,   0.00305,   0.00399,  -0.00158,480090967.69643,   0.00516,280090974.57845,   0.00160,   0.00296,  -0.00160,  -6.88202,   1.00000
509887300.24580,443373224.71503,672962.17679,   0.00306,   0.00399,  -0.00159,480099841.10517,   0.00517,280099846.92476,   0.00160,   0.00296,  -0.00160,  -5.81960,   1.00000
510278238.31126,442799663.44472,192782.44122,   0.00307,   0.00399,  -0.00160,480108843.64758,   0.00518,280108850.85353,   0.00161,   0.00297,  -0.00160,  -7.20594,   1.00000
510666991.84282,442221529.27459,-294725.61181,   0.00308,   0.00399,  -0.00160,480117673.09538,   0.00519,280117677.64185,   0.00162,   0.00297,  -0.00160,  -4.54647,   1.00000
511050407.19914,441644140.73571,-779403.75225,   0.00309,   0.00399,  -0.00161,480126514.78034,   0.00520,280126517.89180,   0.00162,   0.00298,  -0.00160,  -3.11145,   1.00000
511443862.98308,441043123.25977,-1281513.12193,   0.00310,   0.00399,  -0.00162,480135386.82682,   0.00521,280135389.26023,   0.00163,   0.00298,  -0.00160,  -2.43341,   1.00000
511841086.38322,440427860.56980,-1780788.90271,   0.00311,   0.00399,  -0.00162,480144183.63228,   0.00522,280144188.71751,   0.00164,   0.00299,  -0.00160,  -5.08523,   1.00000
512232542.44083,439813236.62788,-2287299.59532,   0.00312,   0.00400,  -0.00163,480153000.06329,   0.00522,280153003.69439,   0.00165,   0.00299,  -0.00160,  -3.63110,   1.00000
512633451.38278,439174777.73103,-2800962.64342,   0.00313,   0.00400,  -0.00164,480161842.48479,   0.00523,280161852.40298,   0.00165,   0.00300,  -0.00160,  -9.91819,   1.00000
513031656.49829,438530966.95701,-3322167.95444,   0.00314,   0.00400,  -0.00164,480170523.40354,   0.00524,280170527.71195,   0.00166,   0.00300,  -0.00160,  -4.30840,   1.00000
513429870.59542,437878582.60564,-3840119.18013,   0.00315,   0.00400,  -0.00165,480179321.36504,   0.00525,280179323.90632,   0.00167,   0.00301,  -0.00160,  -2.54128,   1.00000
513840044.38895,437195760.11596,-4375807.35246,   0.00316,   0.00400,  -0.00166,480187961.28841,   0.00526,280187967.29480,   0.00168,   0.00301,  -0.00160,  -6.00638,   1.00000
514240234.74283,436519551.86273,-4917941.96329,   0.00317,   0.00400,  -0.00166,480196813.63639,   0.00527,280196820.45305,   0.00168,   0.00302,  -0.00160,  -6.81666,   1.00000
514646883.99148,435822205.06618,-5457877.89446,   0.00318,   0.00400,  -0.00167,480205409.29129,   0.00528,280205415.91547,   0.00169,   0.00302,  -0.00160,  -6.62418,   1.00000
515061673.04390,435100441.65241,-6004782.35510,   0.00319,   0.00400,  -0.00168,480214048.29375,   0.00528,280214051.11800,   0.00170,   0.00302,  -0.00160,  -2.82425,   1.00000
515469520.31714,434378974.45939,-6558670.65832,   0.00320,   0.00400,  -0.00169,480222705.32572,   0.00529,280222707.84246,   0.00171,   0.00303,  -0.00160,  -2.51675,   1.00000
515869903.92670,433657367.20739,-7129617.50194,   0.00321,   0.00400,  -0.00170,480231381.61659,   0.00530,280231388.29654,   0.00171,   0.00303,  -0.00160,  -6.67995,   1.00000
516287884.55402,432896042.46694,-7687461.61862,   0.00323,   0.00400,  -0.00170,480240015.53614,   0.00531,280240022.77793,   0.00172,   0.00304,  -0.00160,  -7.24179,   1.00000
516697967.15503,432134496.18738,-8262335.16214,   0.00324,   0.00400,  -0.00171,480248680.25500,   0.00532,280248682.97850,   0.00173,   0.00304,  -0.00160,  -2.72350,   1.00000
517109601.45221,431357065.88674,-8844491.14516,   0.00325,   0.00400,  -0.00172,480257277.76999,   0.00533,280257282.80538,   0.00173,   0.00305,  -0.00160,  -5.03539,   1.00000
517522594.86243,430563594.11023,-9433935.70600,   0.00326,   0.00400,  -0.00173,480265815.68727,   0.00534,280265823.27102,   0.00174,   0.00305,  -0.00161,  -7.58375,   1.00000
517928507.59637,429770666.26681,-10020002.65291,   0.00327,   0.00400,  -0.00174,480274386.29980,   0.00534,280274387.55966,   0.00175,   0.00305,  -0.00161,  -1.25986,   1.00000
518348959.40270,428935702.21637,-10623369.71033,   0.00328,   0.00400,  -0.00174,480282909.75965,   0.00535,280282918.26459,   0.00176,   0.00306,  -0.00161,  -8.50494,   1.00000
518761961.95528,428101254.62033,-11223271.30636,   0.00329,   0.00400,  -0.00175,480291469.91518,   0.00536,280291474.69723,   0.00176,   0.00306,  -0.00161,  -4.78206,   1.00000
519166778.33526,427266730.10365,-11829828.22509,   0.00330,   0.00400,  -0.00176,480300057.39145,   0.00537,280300059.83287,   0.00177,   0.00307,  -0.00161,  -2.44142,   1.00000
519580962.58462,426398976.48638,-12444343.38751,   0.00331,   0.00400,  -0.00177,480308503.18118,   0.00538,280308505.94435,   0.00178,   0.00307,  -0.00161,  -2.76318,   1.00000
519991599.84659,425522245.32411,-13064553.66255,   0.00332,   0.00400,  -0.00178,480317082.50644,   0.00539,280317089.79152,   0.00179,   0.00307,  -0.00161,  -7.28508,   1.00000
520402287.69115,424628576.29630,-13692011.33503,   0.00333,   0.00400,  -0.00179,480325618.55596,   0.00539,280325621.26104,   0.00179,   0.00308,  -0.00161,  -2.70508,   1.00000
520812786.26057,423717776.34413,-14326718.62471,   0.00334,   0.00399,  -0.00180,480334093.35196,   0.00540,280334101.56578,   0.00180,   0.00308,  -0.00161,  -8.21382,   1.00000
521214265.57739,422806637.05382,-14967871.17938,   0.00336,   0.00399,  -0.00181,480342610.71428,   0.00541,280342615.38068,   0.00181,   0.00309,  -0.00161,  -4.66639,   1.00000
521623857.64904,421861018.96213,-15617092.39371,   0.00337,   0.00399,  -0.00182,480350993.34773,   0.00542,280350996.37189,   0.00182,   0.00309,  -0.00161,  -3.02416,   1.00000
522029904.79778,420907237.60781,-16261471.70036,   0.00338,   0.00399,  -0.00183,480359516.80205,   0.00543,280359517.10205,   0.00182,   0.00309,  -0.00162,  -0.30000,   1.00000
522425331.67582,419952158.59069,-16922287.44600,   0.00339,   0.00399,  -0.00184,480368075.93664,   0.00544,280368078.21304,   0.00183,   0.00310,  -0.00162,  -2.27640,   1.00000
522829321.54293,418962815.55136,-17581116.80243,   0.00340,   0.00399,  -0.00185,480376500.96294,   0.00544,280376505.95137,   0.00184,   0.00310,  -0.00162,  -4.98843,   1.00000
523228057.32908,417964537.85503,-18244955.04746,   0.00341,   0.00399,  -0.00186,480385071.43795,   0.00545,280385080.85697,   0.00185,   0.00310,  -0.00162,  -9.41902,   1.00000
523619392.12427,416955540.36169,-18927374.52524,   0.00342,   0.00398,  -0.00187,480393505.76285,   0.00546,280393507.81046,   0.00185,   0.00311,  -0.00162,  -2.04761,   1.00000
524014716.58838,415920891.41680,-19605510.53134,   0.00343,   0.00398,  -0.00188,480401989.18069,   0.00547,280401997.02612,   0.00186,   0.00311,  -0.00162,  -7.84542,   1.00000
524407983.13909,414867815.26736,-20290824.14642,   0.00344,   0.00398,  -0.00189,480410444.60405,   0.00548,280410445.16733,   0.00187,   0.00312,  -0.00162,  -0.56328,   1.00000
524795080.60839,413805837.04791,-20980744.66211,   0.00346,   0.00398,  -0.00190,480419040.77133,   0.00549,280419045.84167,   0.00188,   0.00312,  -0.00162,  -5.07035,   1.00000
525176903.53307,412734449.34830,-21669218.27561,   0.00347,   0.00398,  -0.00191,480427487.40605,   0.00549,280427492.32784,   0.00188,   0.00312,  -0.00163,  -4.92180,   1.00000
525558862.64306,411634964.32493,-22373388.83734,   0.00348,   0.00397,  -0.00192,480436014.33170,   0.00550,280436016.64884,   0.00189,   0.00313,  -0.00163,  -2.31714,   1.00000
525937818.57411,410516428.89346,-23084649.95923,   0.00349,   0.00397,  -0.00193,480444497.82269,   0.00551,280444505.00665,   0.00190,   0.00313,  -0.00163,  -7.18396,   1.00000
526313531.47440,409378662.76703,-23802995.66419,   0.00350,   0.00397,  -0.00194,480452954.03250,   0.00552,280452958.68226,   0.00191,   0.00313,  -0.00163,  -4.64975,   1.00000
526679547.45174,408241212.73690,-24517108.76168,   0.00351,   0.00397,  -0.00195,480461447.12302,   0.00553,280461454.57246,   0.00191,   0.00314,  -0.00163,  -7.44945,   1.00000
527046121.92274,407076466.81999,-25236560.80576,   0.00352,   0.00396,  -0.00196,480470023.32390,   0.00554,280470028.94305,   0.00192,   0.00314,  -0.00163,  -5.61915,   1.00000
527407020.50369,405890805.28084,-25973098.68202,   0.00354,   0.00396,  -0.00197,480478570.16784,   0.00555,280478578.68156,   0.00193,   0.00314,  -0.00164,  -8.51371,   1.00000
527765585.95992,404686666.79565,-26706590.62129,   0.00355,   0.00396,  -0.00199,480487088.40307,   0.00555,280487092.28694,   0.00194,   0.00315,  -0.00164,  -3.88387,   1.00000
528112125.24622,403481524.13362,-27445718.98972,   0.00356,   0.00396,  -0.00200,480495654.93776,   0.00556,280495658.59015,   0.00194,   0.00315,  -0.00164,  -3.65239,   1.00000
528458057.58812,402248746.71743,-28189864.90176,   0.00357,   0.00395,  -0.00201,480504304.82727,   0.00557,280504309.96955,   0.00195,   0.00315,  -0.00164,  -5.14228,   1.00000
528795345.23076,401003266.24237,-28942983.49245,   0.00358,   0.00395,  -0.00202,480512814.54692,   0.00558,280512822.59811,   0.00196,   0.00316,  -0.00164,  -8.05120,   1.00000
529131394.94567,399729912.33573,-29700982.83570,   0.00359,   0.00395,  -0.00203,480521419.87801,   0.00559,280521423.77640,   0.00197,   0.00316,  -0.00165,  -3.89838,   1.00000
529462053.00492,398435983.12331,-30465888.61136,   0.00361,   0.00394,  -0.00204,480529994.60051,   0.00560,280530002.14744,   0.00197,   0.00316,  -0.00165,  -7.54693,   1.00000
529783468.39510,397133645.85783,-31233931.93233,   0.00362,   0.00394,  -0.00206,480538751.03886,   0.00561,280538753.43515,   0.00198,   0.00317,  -0.00165,  -2.39629,   1.00000
530095405.26983,395817716.12775,-32011035.28303,   0.00363,   0.00394,  -0.00207,480547364.55914,   0.00561,280547370.40491,   0.00199,   0.00317,  -0.00165,  -5.84577,   1.00000
530407225.39231,394475244.92873,-32782691.05919,   0.00364,   0.00393,  -0.00208,480556071.60933,   0.00562,280556074.54186,   0.00200,   0.00317,  -0.00166,  -2.93253,   1.00000
530710375.14589,393110036.85334,-33571139.60732,   0.00365,   0.00393,  -0.00209,480564764.07856,   0.00563,280564769.77044,   0.00200,   0.00317,  -0.00166,  -5.69188,   1.00000
531009253.26423,391725165.69852,-34356375.26978,   0.00366,   0.00392,  -0.00211,480573434.90503,   0.00564,280573440.65472,   0.00201,   0.00318,  -0.00166,  -5.74969,   1.00000
531295384.21379,390330530.30886,-35154150.93404,   0.00368,   0.00392,  -0.00212,480582294.81634,   0.00565,280582301.36615,   0.00202,   0.00318,  -0.00166,  -6.54981,   1.00000
531573463.86408,388922883.44381,-35951156.02831,   0.00369,   0.00392,  -0.00213,480591020.80854,   0.00566,280591024.18874,   0.00203,   0.00318,  -0.00166,  -3.38021,   1.00000
531847687.80050,387486798.39878,-36752283.10360,   0.00370,   0.00391,  -0.00215,480599849.26178,   0.00567,280599851.36349,   0.00204,   0.00319,  -0.00167,  -2.10171,   1.00000
532114270.54935,386028876.26063,-37560051.07491,   0.00371,   0.00391,  -0.00216,480608664.75455,   0.00567,280608668.60936,   0.00204,   0.00319,  -0.00167,  -3.85481,   1.00000
532372916.94518,384548934.40968,-38374430.17943,   0.00372,   0.00390,  -0.00217,480617476.17756,   0.00568,280617477.53445,   0.00205,   0.00319,  -0.00167,  -1.35689,   1.00000
532616889.73337,383067735.18389,-39193526.53390,   0.00374,   0.00390,  -0.00219,480626354.73287,   0.00569,280626358.55970,   0.00206,   0.00319,  -0.00168,  -3.82683,   1.00000
532855823.13031,381557932.78035,-40016331.25599,   0.00375,   0.00389,  -0.00220,480635348.54345,   0.00570,280635351.62457,   0.00207,   0.00320,  -0.00168,  -3.08112,   1.00000
533086057.68326,380025768.64864,-40845589.78913,   0.00376,   0.00389,  -0.00221,480644335.78477,   0.00571,280644341.08086,   0.00208,   0.00320,  -0.00168,  -5.29610,   1.00000
533310227.23063,378473007.92069,-41671396.45746,   0.00377,   0.00388,  -0.00223,480653311.84402,   0.00572,280653317.64220,   0.00208,   0.00320,  -0.00168,  -5.79818,   1.00000
533516150.70868,376917136.36991,-42511533.70833,   0.00378,   0.00388,  -0.00224,480662378.93015,   0.00573,280662382.60657,   0.00209,   0.00320,  -0.00169,  -3.67642,   1.00000
533721664.40345,375318794.09743,-43350157.87640,   0.00380,   0.00387,  -0.00225,480671352.74789,   0.00574,280671359.04607,   0.00210,   0.00321,  -0.00169,  -6.29817,   1.00000
533911529.34581,373711408.95529,-44199829.86235,   0.00381,   0.00387,  -0.00227,480680541.87996,   0.00575,280680547.20699,   0.00211,   0.00321,  -0.00169,  -5.32703,   1.00000
534094496.09172,372083058.37014,-45045879.15208,   0.00382,   0.00386,  -0.00228,480689726.54180,   0.00575,280689728.08307,   0.00212,   0.00321,  -0.00170,  -1.54127,   1.00000
534264057.98131,370437160.48833,-45901398.47176,   0.00383,   0.00386,  -0.00230,480698791.42425,   0.00576,280698794.34792,   0.00212,   0.00321,  -0.00170,  -2.92366,   1.00000
534420411.56694,368776994.57302,-46764221.70462,   0.00384,   0.00385,  -0.00231,480708198.49933,   0.00577,280708199.14681,   0.00213,   0.00322,  -0.00170,  -0.64748,   1.00000
534571618.56880,367078639.25641,-47628774.11293,   0.00386,   0.00385,  -0.00233,480717402.24250,   0.00578,280717402.77064,   0.00214,   0.00322,  -0.00171,  -0.52814,   1.00000
534706266.63831,365379186.26890,-48497241.73812,   0.00387,   0.00384,  -0.00234,480726687.53901,   0.00579,280726694.41298,   0.00215,   0.00322,  -0.00171,  -6.87397,   1.00000
534832622.15451,363650886.83452,-49368249.73809,   0.00388,   0.00384,  -0.00236,480736118.99699,   0.00580,280736120.43208,   0.00216,   0.00322,  -0.00171,  -1.43509,   1.00000
534950801.66222,361901058.88158,-50235436.02114,   0.00389,   0.00383,  -0.00237,480745537.83083,   0.00581,280745547.55622,   0.00217,   0.00323,  -0.00172,  -9.72539,   1.00000
535048525.05956,360148172.00552,-51116066.69353,   0.00391,   0.00382,  -0.00238,480755071.27386,   0.00582,280755080.31827,   0.00217,   0.00323,  -0.00172,  -9.04441,   1.00000
535138973.73411,358348194.74430,-52004778.83475,   0.00392,   0.00382,  -0.00240,480764553.36861,   0.00583,280764554.79416,   0.00218,   0.00323,  -0.00172,  -1.42556,   1.00000
535215752.66197,356549606.65423,-52887249.57865,   0.00393,   0.00381,  -0.00242,480774106.33271,   0.00584,280774110.86423,   0.00219,   0.00323,  -0.00173,  -4.53152,   1.00000
535282865.20419,354722281.96839,-53771696.63116,   0.00394,   0.00380,  -0.00243,480783807.69119,   0.00585,280783811.78382,   0.00220,   0.00323,  -0.00173,  -4.09263,   1.00000
535330134.62286,352872859.66933,-54675346.47947,   0.00396,   0.00380,  -0.00245,480793420.49674,   0.00586,280793426.15352,   0.00221,   0.00324,  -0.00174,  -5.65678,   1.00000
535366554.70197,351020730.73742,-55568625.18795,   0.00397,   0.00379,  -0.00246,480803242.88930,   0.00587,280803250.51840,   0.00222,   0.00324,  -0.00174,  -7.62910,   1.00000
535393769.85538,349120311.47868,-56469821.72140,   0.00398,   0.00378,  -0.00248,480813023.20862,   0.00588,280813026.31186,   0.00223,   0.00324,  -0.00174,  -3.10323,   1.00000
