# sigma_xx, sigma_yy, sigma_xy, epsilon_xx, epsilon_yy, epsilon_xy, vonMises, epsPlastic, hardening, epsilonP__xx, epsilonP__yy, epsilonP__xy, yieldValue, iteration
   0.00000,   0.00000,   0.00000,   0.00000,   0.00000,   0.00000,   0.00000,   0.00000,274640135.82653,   0.00000,   0.00000,   0.00000,-474640135.82653,   0.00000
   0.00000,   0.00000,   0.00000,   0.00000,   0.00000,   0.00000,   0.00000,   0.00000,274640135.82653,   0.00000,   0.00000,   0.00000,-474640135.82653,   0.00000
-2871986.99255,-5085742.07461,45846.99874,  -0.00000,  -0.00002,   0.00000,4417375.06795,   0.00000,274640135.82653,   0.00000,   0.00000,   0.00000,-470222760.75858,   0.00000
-5721050.48573,-10161659.79235,85144.42623,  -0.00001,  -0.00004,   0.00000,8824745.23285,   0.00000,274640135.82653,   0.00000,   0.00000,   0.00000,-465815390.59368,   0.00000
-8579938.33579,-15260501.00945,137540.99622,  -0.00001,  -0.00005,   0.00000,13252200.86808,   0.00000,274640135.82653,   0.00000,   0.00000,   0.00000,-461387934.95845,   0.00000
-11415902.68647,-20349517.86969,183387.99496,  -0.00001,  -0.00007,   0.00000,17669705.41432,   0.00000,274640135.82653,   0.00000,   0.00000,   0.00000,-456970430.41221,   0.00000
-14251867.03715,-25438534.72992,229234.99370,  -0.00002,  -0.00009,   0.00000,22087231.48578,   0.00000,274640135.82653,   0.00000,   0.00000,   0.00000,-452552904.34075,   0.00000
-17074732.24534,-30540650.73265,281631.56369,  -0.00002,  -0.00011,   0.00000,26514945.66425,   0.00000,274640135.82653,   0.00000,   0.00000,   0.00000,-448125190.16227,   0.00000
-19874673.95416,-35632942.37851,334028.13368,  -0.00002,  -0.00012,   0.00000,30933005.99548,   0.00000,274640135.82653,   0.00000,   0.00000,   0.00000,-443707129.83105,   0.00000
-22684440.01985,-40748157.52374,386424.70367,  -0.00002,  -0.00014,   0.00001,35370821.27237,   0.00000,274640135.82653,   0.00000,   0.00000,   0.00000,-439269314.55416,   0.00000
-25494206.08553,-45863372.66897,438821.27366,  -0.00003,  -0.00016,   0.00001,39808678.88080,   0.00000,274640135.82653,   0.00000,   0.00000,   0.00000,-434831456.94573,   0.00000
-28281048.65185,-50968763.45732,497767.41490,  -0.00003,  -0.00018,   0.00001,44237154.06029,   0.00000,274640135.82653,   0.00000,   0.00000,   0.00000,-430402981.76624,   0.00000
-31077715.57504,-56097077.74505,550163.98489,  -0.00003,  -0.00019,   0.00001,48685167.67329,   0.00000,274640135.82653,   0.00000,   0.00000,   0.00000,-425954968.15324,   0.00000
-33851458.99887,-61215567.67590,609110.12613,  -0.00003,  -0.00021,   0.00001,53123853.10196,   0.00000,274640135.82653,   0.00000,   0.00000,   0.00000,-421516282.72457,   0.00000
-36635026.77956,-66356981.10612,668056.26737,  -0.00004,  -0.00023,   0.00001,57582317.13255,   0.00000,274640135.82653,   0.00000,   0.00000,   0.00000,-417057818.69398,   0.00000
-39385846.70401,-71465646.68010,727002.40860,  -0.00004,  -0.00025,   0.00001,62011564.79850,   0.00000,274640135.82653,   0.00000,   0.00000,   0.00000,-412628571.02803,   0.00000
-42133391.84284,-76610334.89595,785948.54984,  -0.00004,  -0.00027,   0.00001,66470790.63046,   0.00000,274640135.82653,   0.00000,   0.00000,   0.00000,-408169345.19607,   0.00000
-44871112.62479,-81732099.61243,851444.26233,  -0.00004,  -0.00028,   0.00001,70910630.23601,   0.00000,274640135.82653,   0.00000,   0.00000,   0.00000,-403729505.59052,   0.00000
-47618657.76362,-86876787.82828,910390.40357,  -0.00005,  -0.00030,   0.00001,75370042.02886,   0.00000,274640135.82653,   0.00000,   0.00000,   0.00000,-399270093.79767,   0.00000
-50343279.40307,-92011651.68725,975886.11606,  -0.00005,  -0.00032,   0.00001,79820289.39547,   0.00000,274640135.82653,   0.00000,   0.00000,   0.00000,-394819846.43106,   0.00000
-53067901.04253,-97146515.54623,1041381.82854,  -0.00005,  -0.00034,   0.00001,84270631.64910,   0.00000,274640135.82653,   0.00000,   0.00000,   0.00000,-390369504.17743,   0.00000
-55779423.53949,-102294478.54770,1106877.54103,  -0.00005,  -0.00036,   0.00001,88731352.52408,   0.00000,274640135.82653,   0.00000,   0.00000,   0.00000,-385908783.30245,   0.00000
-58490946.03645,-107442441.54917,1172373.25352,  -0.00006,  -0.00037,   0.00002,93192179.61152,   0.00000,274640135.82653,   0.00000,   0.00000,   0.00000,-381447956.21501,   0.00000
-61189369.39091,-112603503.69314,1237868.96600,  -0.00006,  -0.00039,   0.00002,97663440.17578,   0.00000,274640135.82653,   0.00000,   0.00000,   0.00000,-376976695.65075,   0.00000
-63877968.38849,-117741642.33774,1303364.67849,  -0.00006,  -0.00041,   0.00002,102115075.07232,   0.00000,274640135.82653,   0.00000,   0.00000,   0.00000,-372525060.75421,   0.00000
-66553468.24359,-122892880.12483,1368860.39098,  -0.00006,  -0.00043,   0.00002,106577192.97385,   0.00000,274640135.82653,   0.00000,   0.00000,   0.00000,-368062942.85268,   0.00000
-69228968.09868,-128044117.91193,1434356.10346,  -0.00007,  -0.00045,   0.00002,111039435.03998,   0.00000,274640135.82653,   0.00000,   0.00000,   0.00000,-363600700.78655,   0.00000
-71891368.81127,-133208454.84152,1506401.38720,  -0.00007,  -0.00047,   0.00002,115512470.88713,   0.00000,274640135.82653,   0.00000,   0.00000,   0.00000,-359127664.93939,   0.00000
-74543945.16699,-138349868.27175,1571897.09969,  -0.00007,  -0.00048,   0.00002,119965634.24179,   0.00000,274640135.82653,   0.00000,   0.00000,   0.00000,-354674501.58474,   0.00000
-77183422.38021,-143504380.84447,1643942.38342,  -0.00007,  -0.00050,   0.00002,124429644.42378,   0.00000,274640135.82653,   0.00000,   0.00000,   0.00000,-350210491.40275,   0.00000
-79822899.59344,-148658893.41719,1715987.66716,  -0.00007,  -0.00052,   0.00002,128893800.50893,   0.00000,274640135.82653,   0.00000,   0.00000,   0.00000,-345746335.31760,   0.00000
-82472201.16353,-153836329.48928,1781483.37964,  -0.00008,  -0.00054,   0.00002,133377586.47048,   0.00000,274640135.82653,   0.00000,   0.00000,   0.00000,-341262549.35605,   0.00000
-85098579.23426,-159003941.20450,1853528.66338,  -0.00008,  -0.00056,   0.00002,137852525.26748,   0.00000,274640135.82653,   0.00000,   0.00000,   0.00000,-336787610.55905,   0.00000
-87692209.44874,-164138805.06347,1925573.94712,  -0.00008,  -0.00058,   0.00003,142298629.50307,   0.00000,274640135.82653,   0.00000,   0.00000,   0.00000,-332341506.32346,   0.00000
-90295664.02009,-169296592.42182,1997619.23085,  -0.00008,  -0.00059,   0.00003,146764663.20329,   0.00000,274640135.82653,   0.00000,   0.00000,   0.00000,-327875472.62324,   0.00000
-92908942.94832,-174477303.27953,2063114.94334,  -0.00008,  -0.00061,   0.00003,151250350.58837,   0.00000,274640135.82653,   0.00000,   0.00000,   0.00000,-323389785.23816,   0.00000
-95489474.02031,-179625266.28101,2135160.22707,  -0.00008,  -0.00063,   0.00003,155707515.76225,   0.00000,274640135.82653,   0.00000,   0.00000,   0.00000,-318932620.06428,   0.00000
-98079829.44916,-184796152.78185,2207205.51081,  -0.00009,  -0.00065,   0.00003,160184615.82981,   0.00000,274640135.82653,   0.00000,   0.00000,   0.00000,-314455519.99672,   0.00000
-100647261.37865,-189957214.92582,2279250.79454,  -0.00009,  -0.00067,   0.00003,164652744.33349,   0.00000,274640135.82653,   0.00000,   0.00000,   0.00000,-309987391.49304,   0.00000
-103214693.30814,-195118277.06979,2351296.07828,  -0.00009,  -0.00069,   0.00003,169121044.26874,   0.00000,274640135.82653,   0.00000,   0.00000,   0.00000,-305519091.55779,   0.00000
-105759201.73826,-200269514.85688,2423341.36202,  -0.00009,  -0.00070,   0.00003,173580416.69389,   0.00000,274640135.82653,   0.00000,   0.00000,   0.00000,-301059719.13264,   0.00000
-108303710.16837,-205420752.64398,2495386.64575,  -0.00009,  -0.00072,   0.00003,178039968.71396,   0.00000,274640135.82653,   0.00000,   0.00000,   0.00000,-296600167.11257,   0.00000
-110858042.95536,-210594913.93045,2567431.92949,  -0.00009,  -0.00074,   0.00003,182519474.48621,   0.00000,274640135.82653,   0.00000,   0.00000,   0.00000,-292120661.34032,   0.00000
-113379627.88611,-215736327.36067,2632927.64197,  -0.00010,  -0.00076,   0.00003,186970038.69310,   0.00000,274640135.82653,   0.00000,   0.00000,   0.00000,-287670097.13343,   0.00000
-115888113.67436,-220890839.93339,2704972.92571,  -0.00010,  -0.00078,   0.00004,191431831.01366,   0.00000,274640135.82653,   0.00000,   0.00000,   0.00000,-283208304.81287,   0.00000
-118396599.46261,-226045352.50611,2777018.20945,  -0.00010,  -0.00080,   0.00004,195893824.77066,   0.00000,274640135.82653,   0.00000,   0.00000,   0.00000,-278746311.05587,   0.00000
-120905085.25086,-231199865.07883,2849063.49318,  -0.00010,  -0.00082,   0.00004,200356006.50594,   0.00000,274640135.82653,   0.00000,   0.00000,   0.00000,-274284129.32059,   0.00000
-123390647.53974,-236344553.29468,2921108.77692,  -0.00010,  -0.00083,   0.00004,204809401.46457,   0.00000,274640135.82653,   0.00000,   0.00000,   0.00000,-269830734.36196,   0.00000
-125876209.82861,-241489241.51053,2986604.48940,  -0.00010,  -0.00085,   0.00004,209262712.75491,   0.00000,274640135.82653,   0.00000,   0.00000,   0.00000,-265377423.07162,   0.00000
-128371596.47437,-246656853.22575,3058649.77314,  -0.00010,  -0.00087,   0.00004,213736290.81178,   0.00000,274640135.82653,   0.00000,   0.00000,   0.00000,-260903845.01475,   0.00000
-130834235.26387,-251791717.08472,3124145.48563,  -0.00010,  -0.00089,   0.00004,218181048.70507,   0.00000,274640135.82653,   0.00000,   0.00000,   0.00000,-256459087.12146,   0.00000
-133296874.05338,-256926580.94369,3196190.76936,  -0.00011,  -0.00091,   0.00004,222626281.99093,   0.00000,274640135.82653,   0.00000,   0.00000,   0.00000,-252013853.83560,   0.00000
-135746413.70039,-262074543.94517,3261686.48185,  -0.00011,  -0.00093,   0.00004,227082345.74705,   0.00000,274640135.82653,   0.00000,   0.00000,   0.00000,-247557790.07948,   0.00000
-138195953.34740,-267222506.94664,3333731.76558,  -0.00011,  -0.00095,   0.00004,231538899.40899,   0.00000,274640135.82653,   0.00000,   0.00000,   0.00000,-243101236.41754,   0.00000
-140612745.13817,-272337722.09187,3399227.47807,  -0.00011,  -0.00096,   0.00004,235966710.58395,   0.00000,274640135.82653,   0.00000,   0.00000,   0.00000,-238673425.24258,   0.00000
-143039361.28581,-277475860.73647,3464723.19056,  -0.00011,  -0.00098,   0.00005,240414548.63814,   0.00000,274640135.82653,   0.00000,   0.00000,   0.00000,-234225587.18839,   0.00000
-145465977.43345,-282613999.38107,3536768.47429,  -0.00011,  -0.00100,   0.00005,244862875.45116,   0.00000,274640135.82653,   0.00000,   0.00000,   0.00000,-229777260.37537,   0.00000
-147859845.72485,-287719390.16942,3602264.18678,  -0.00011,  -0.00102,   0.00005,249282501.86597,   0.00000,274640135.82653,   0.00000,   0.00000,   0.00000,-225357633.96056,   0.00000
-150263538.37312,-292847704.45715,3667759.89927,  -0.00011,  -0.00104,   0.00005,253722159.22558,   0.00000,274640135.82653,   0.00000,   0.00000,   0.00000,-220917976.60095,   0.00000
-152644307.52202,-297966194.38800,3726706.04051,  -0.00011,  -0.00106,   0.00005,258152976.39840,   0.00000,274640135.82653,   0.00000,   0.00000,   0.00000,-216487159.42813,   0.00000
-155025076.67092,-303084684.31885,3792201.75299,  -0.00011,  -0.00108,   0.00005,262584303.07918,   0.00000,274640135.82653,   0.00000,   0.00000,   0.00000,-212055832.74735,   0.00000
-157405845.81982,-308203174.24971,3857697.46548,  -0.00012,  -0.00110,   0.00005,267015844.24510,   0.00000,274640135.82653,   0.00000,   0.00000,   0.00000,-207624291.58143,   0.00000
-159763691.46935,-313311839.82369,3916643.60672,  -0.00012,  -0.00111,   0.00005,271438593.91353,   0.00000,274640135.82653,   0.00000,   0.00000,   0.00000,-203201541.91299,   0.00000
-162111712.76200,-318397581.89829,3982139.31920,  -0.00012,  -0.00113,   0.00005,275842024.59591,   0.00000,274640135.82653,   0.00000,   0.00000,   0.00000,-198798111.23062,   0.00000
-164446634.91216,-323496423.11540,4041085.46044,  -0.00012,  -0.00115,   0.00005,280256533.25131,   0.00000,274640135.82653,   0.00000,   0.00000,   0.00000,-194383602.57522,   0.00000
-166781557.06232,-328595264.33251,4100031.60168,  -0.00012,  -0.00117,   0.00005,284671277.90946,   0.00000,274640135.82653,   0.00000,   0.00000,   0.00000,-189968857.91707,   0.00000
-169116479.21248,-333694105.54962,4158977.74292,  -0.00012,  -0.00119,   0.00005,289086247.75813,   0.00000,274640135.82653,   0.00000,   0.00000,   0.00000,-185553888.06840,   0.00000
-171418653.50639,-338760198.91048,4217923.88416,  -0.00012,  -0.00121,   0.00005,293472967.44794,   0.00000,274640135.82653,   0.00000,   0.00000,   0.00000,-181167168.37859,   0.00000
-173730652.15718,-343849215.77071,4270320.45415,  -0.00012,  -0.00123,   0.00006,297879474.10967,   0.00000,274640135.82653,   0.00000,   0.00000,   0.00000,-176760661.71686,   0.00000
-176032826.45110,-348915309.13158,4329266.59539,  -0.00012,  -0.00124,   0.00006,302266651.35939,   0.00000,274640135.82653,   0.00000,   0.00000,   0.00000,-172373484.46714,   0.00000
-178321901.60252,-353994501.63494,4381663.16538,  -0.00012,  -0.00126,   0.00006,306665015.94869,   0.00000,274640135.82653,   0.00000,   0.00000,   0.00000,-167975119.87784,   0.00000
-180601152.39706,-359050770.63893,4434059.73536,  -0.00012,  -0.00128,   0.00006,311043778.03506,   0.00000,274640135.82653,   0.00000,   0.00000,   0.00000,-163596357.79147,   0.00000
-182880403.19161,-364107039.64292,4486456.30535,  -0.00012,  -0.00130,   0.00006,315422765.26084,   0.00000,274640135.82653,   0.00000,   0.00000,   0.00000,-159217370.56569,   0.00000
-185146554.84365,-369176407.78940,4538852.87534,  -0.00012,  -0.00132,   0.00006,319813274.21367,   0.00000,274640135.82653,   0.00000,   0.00000,   0.00000,-154826861.61285,   0.00000
-187402882.13883,-374222852.43652,4591249.44533,  -0.00012,  -0.00134,   0.00006,324184177.78364,   0.00000,274640135.82653,   0.00000,   0.00000,   0.00000,-150455958.04289,   0.00000
-189636285.93463,-379259472.72677,4637096.44407,  -0.00012,  -0.00136,   0.00006,328546524.51811,   0.00000,274640135.82653,   0.00000,   0.00000,   0.00000,-146093611.30842,   0.00000
-191859865.37356,-384273169.51764,4682943.44281,  -0.00012,  -0.00137,   0.00006,332889272.97201,   0.00000,274640135.82653,   0.00000,   0.00000,   0.00000,-141750862.85452,   0.00000
-194093269.16937,-389309789.80788,4735340.01280,  -0.00012,  -0.00139,   0.00006,337252383.37004,   0.00000,274640135.82653,   0.00000,   0.00000,   0.00000,-137387752.45649,   0.00000
-196303749.46580,-394336585.74126,4774637.44030,  -0.00012,  -0.00141,   0.00006,341606712.55687,   0.00000,274640135.82653,   0.00000,   0.00000,   0.00000,-133033423.26966,   0.00000
-198504405.40536,-399340458.17526,4820484.43904,  -0.00012,  -0.00143,   0.00006,345941716.92246,   0.00000,274640135.82653,   0.00000,   0.00000,   0.00000,-128698418.90407,   0.00000
-200705061.34492,-404344330.60926,4866331.43778,  -0.00012,  -0.00145,   0.00006,350276960.71952,   0.00000,274640135.82653,   0.00000,   0.00000,   0.00000,-124363175.10701,   0.00000
-202905717.28448,-409348203.04326,4905628.86527,  -0.00012,  -0.00147,   0.00006,354612163.16923,   0.00000,274640135.82653,   0.00000,   0.00000,   0.00000,-120027972.65730,   0.00000
-205083449.72467,-414342251.12039,4944926.29276,  -0.00013,  -0.00149,   0.00006,358939188.54891,   0.00000,274640135.82653,   0.00000,   0.00000,   0.00000,-115700947.27762,   0.00000
-207238258.66549,-419326474.84064,4984223.72025,  -0.00013,  -0.00150,   0.00006,363258072.66591,   0.00000,274640135.82653,   0.00000,   0.00000,   0.00000,-111382063.16062,   0.00000
-209406166.74881,-424297599.41840,5016971.57650,  -0.00013,  -0.00152,   0.00007,367565465.87120,   0.00000,274640135.82653,   0.00000,   0.00000,   0.00000,-107074669.95533,   0.00000
-211560975.68963,-429281823.13865,5056269.00399,  -0.00013,  -0.00154,   0.00007,371884856.28172,   0.00000,274640135.82653,   0.00000,   0.00000,   0.00000,-102755279.54480,   0.00000
-213705960.27358,-434243123.35954,5089016.86023,  -0.00013,  -0.00156,   0.00007,376184367.36468,   0.00000,274640135.82653,   0.00000,   0.00000,   0.00000,-98455768.46185,   0.00000
-215828021.35815,-439194599.22355,5121764.71648,  -0.00013,  -0.00158,   0.00007,380475790.12381,   0.00000,274640135.82653,   0.00000,   0.00000,   0.00000,-94164345.70272,   0.00000
-217940258.08586,-444123151.58819,5147963.00147,  -0.00013,  -0.00160,   0.00007,384747345.87949,   0.00000,274640135.82653,   0.00000,   0.00000,   0.00000,-89892789.94704,   0.00000
-220062319.17043,-449074627.45220,5180710.85772,  -0.00013,  -0.00161,   0.00007,389039279.04165,   0.00000,274640135.82653,   0.00000,   0.00000,   0.00000,-85600856.78488,   0.00000
-222174555.89813,-454003179.81684,5206909.14271,  -0.00013,  -0.00163,   0.00007,393311328.88419,   0.00000,274640135.82653,   0.00000,   0.00000,   0.00000,-81328806.94234,   0.00000
-224263869.12647,-458921907.82461,5233107.42771,  -0.00013,  -0.00165,   0.00007,397575343.85492,   0.00000,274640135.82653,   0.00000,   0.00000,   0.00000,-77064791.97161,   0.00000
-226343357.99793,-463817712.33301,5252756.14145,  -0.00013,  -0.00167,   0.00007,401819489.09489,   0.00000,274640135.82653,   0.00000,   0.00000,   0.00000,-72820646.73164,   0.00000
-228409747.72689,-468726615.98390,5278954.42645,  -0.00013,  -0.00169,   0.00007,406075765.53905,   0.00000,274640135.82653,   0.00000,   0.00000,   0.00000,-68564370.28748,   0.00000
-230489236.59835,-473622420.49230,5298603.14019,  -0.00013,  -0.00171,   0.00007,410320412.39896,   0.00000,274640135.82653,   0.00000,   0.00000,   0.00000,-64319723.42757,   0.00000
-232545801.97044,-478508400.64382,5318251.85394,  -0.00012,  -0.00172,   0.00007,414557078.25560,   0.00000,274640135.82653,   0.00000,   0.00000,   0.00000,-60083057.57093,   0.00000
-234569619.48628,-483361632.93910,5331350.99644,  -0.00012,  -0.00174,   0.00007,418765674.54967,   0.00000,274640135.82653,   0.00000,   0.00000,   0.00000,-55874461.27685,   0.00000
-236616360.50150,-488224689.59126,5344450.13893,  -0.00012,  -0.00176,   0.00007,422982729.98701,   0.00000,274640135.82653,   0.00000,   0.00000,   0.00000,-51657405.83952,   0.00000
-238640178.01735,-493077921.88654,5357549.28143,  -0.00012,  -0.00178,   0.00007,427191852.17368,   0.00000,274640135.82653,   0.00000,   0.00000,   0.00000,-47448283.65285,   0.00000
-240663995.53319,-497931154.18182,5370648.42393,  -0.00012,  -0.00180,   0.00007,431401232.70393,   0.00000,274640135.82653,   0.00000,   0.00000,   0.00000,-43238903.12260,   0.00000
-242655065.19279,-502751638.62086,5377197.99518,  -0.00012,  -0.00181,   0.00007,435582600.58132,   0.00000,274640135.82653,   0.00000,   0.00000,   0.00000,-39057535.24521,   0.00000
-244669058.35177,-507581947.41677,5383747.56642,  -0.00012,  -0.00183,   0.00007,439772371.30236,   0.00000,274640135.82653,   0.00000,   0.00000,   0.00000,-34867764.52417,   0.00000
-246650303.65450,-512379508.35643,5390297.13767,  -0.00012,  -0.00185,   0.00007,443934384.18721,   0.00000,274640135.82653,   0.00000,   0.00000,   0.00000,-30705751.63932,   0.00000
-248608625.45786,-517167244.93923,5396846.70892,  -0.00012,  -0.00187,   0.00007,448088549.12518,   0.00000,274640135.82653,   0.00000,   0.00000,   0.00000,-26551586.70135,   0.00000
-250589870.76059,-521964805.87889,5396846.70892,  -0.00012,  -0.00189,   0.00007,452250844.68736,   0.00000,274640135.82653,   0.00000,   0.00000,   0.00000,-22389291.13917,   0.00000
-252548192.56394,-526752542.46169,5396846.70892,  -0.00012,  -0.00190,   0.00007,456405308.79165,   0.00000,274640135.82653,   0.00000,   0.00000,   0.00000,-18234827.03487,   0.00000
-254496690.01043,-531517355.54511,5390297.13767,  -0.00012,  -0.00192,   0.00007,460539925.20986,   0.00000,274640135.82653,   0.00000,   0.00000,   0.00000,-14100210.61667,   0.00000
-256412439.60067,-536249420.77229,5390297.13767,  -0.00012,  -0.00194,   0.00007,464647096.35982,   0.00000,274640135.82653,   0.00000,   0.00000,   0.00000,-9993039.46671,   0.00000
-258360937.04716,-541014233.85572,5383747.56642,  -0.00012,  -0.00196,   0.00007,468782236.03837,   0.00000,274640135.82653,   0.00000,   0.00000,   0.00000,-5857899.78816,   0.00000
-260266862.28053,-545723375.58353,5370648.42393,  -0.00012,  -0.00198,   0.00007,472869604.87734,   0.00000,274640135.82653,   0.00000,   0.00000,   0.00000,-1770530.94919,   0.00000
-261092609.26375,-547763041.20875,5367825.35732,  -0.00012,  -0.00198,   0.00007,474640136.19391,   0.00000,274640135.82653,   0.00000,   0.00000,   0.00000,   0.36738,   0.00000
-261102815.59767,-547774947.85543,5334313.54385,  -0.00012,  -0.00199,   0.00007,474640136.19391,   0.00001,274649193.94757,   0.00000,  -0.00001,   0.00000,   0.00000,   2.00000
-261121504.55244,-547796004.71642,5269728.44268,  -0.00012,  -0.00201,   0.00007,478736950.98017,   0.00002,274665035.68012,   0.00000,  -0.00003,   0.00000,   0.00000,   2.00000
-261120482.51521,-547816505.95140,5199629.86576,  -0.00012,  -0.00203,   0.00007,478724702.92931,   0.00004,274680765.00967,   0.00000,  -0.00005,   0.00000,   0.00000,   2.00000
-261120090.77934,-547836820.23813,5136448.17686,  -0.00012,  -0.00205,   0.00007,478760567.94082,   0.00005,274696568.85637,   0.00000,  -0.00006,   0.00000,   0.00000,   2.00000
-261118557.18972,-547857086.96102,5067871.69751,  -0.00012,  -0.00206,   0.00007,478736418.65966,   0.00007,274712214.41992,   0.00000,  -0.00008,   0.00000,   0.00000,   2.00000
-261117195.87298,-547877529.31920,4993467.70437,  -0.00012,  -0.00208,   0.00007,478751892.62924,   0.00008,274727855.86584,   0.00000,  -0.00010,   0.00000,   0.00000,   2.00000
-261096852.85424,-547897280.07242,4919869.89342,  -0.00012,  -0.00210,   0.00007,478759571.18003,   0.00009,274743463.27900,   0.00000,  -0.00012,   0.00000,   0.00000,   2.00000
-261076097.66014,-547916853.45170,4847204.05785,  -0.00012,  -0.00212,   0.00007,478755346.18397,   0.00011,274758990.73741,   0.00000,  -0.00013,   0.00000,   0.00000,   2.00000
-261055589.73642,-547936367.11884,4775229.48045,  -0.00011,  -0.00213,   0.00007,478770927.74307,   0.00012,274774515.25703,   0.00000,  -0.00015,   0.00001,   0.00000,   2.00000
-261034756.50646,-547955927.91049,4697675.68381,  -0.00011,  -0.00215,   0.00007,478766423.36111,   0.00014,274789959.12797,   0.00001,  -0.00017,   0.00001,   0.00000,   2.00000
-260995105.09578,-547974792.41053,4620943.61269,  -0.00011,  -0.00217,   0.00007,478773927.49313,   0.00015,274805369.41563,   0.00001,  -0.00018,   0.00001,   0.00000,   2.00000
-260974928.46215,-547994227.75803,4544849.88938,  -0.00011,  -0.00219,   0.00007,478797408.26232,   0.00016,274820807.81772,   0.00001,  -0.00020,   0.00001,   0.00000,   2.00000
-260934680.46876,-548012946.24546,4463495.83123,  -0.00011,  -0.00220,   0.00007,478764946.89733,   0.00018,274836058.11666,   0.00001,  -0.00022,   0.00001,   0.00000,   2.00000
-260875771.81426,-548030960.20372,4382985.56655,  -0.00011,  -0.00222,   0.00007,478772282.85024,   0.00019,274851275.27224,   0.00001,  -0.00024,   0.00001,   0.00000,   2.00000
-260836587.19350,-548049751.09845,4296658.13089,  -0.00011,  -0.00224,   0.00006,478795407.42925,   0.00021,274866520.21630,   0.00001,  -0.00025,   0.00001,   0.00000,   2.00000
-260778053.41218,-548067711.22439,4211415.82316,  -0.00011,  -0.00225,   0.00006,478782857.91204,   0.00022,274881655.18024,   0.00001,  -0.00027,   0.00001,   0.00000,   2.00000
-260739158.41658,-548086245.42566,4126886.27730,  -0.00011,  -0.00227,   0.00006,478806078.43137,   0.00023,274896818.64130,   0.00001,  -0.00029,   0.00001,   0.00000,   2.00000
-260680976.44378,-548104137.78892,4036922.30985,  -0.00011,  -0.00229,   0.00006,478793281.59852,   0.00025,274911871.54517,   0.00001,  -0.00030,   0.00001,   0.00000,   2.00000
-260603583.85886,-548121187.50819,3948049.67486,  -0.00011,  -0.00231,   0.00006,478780567.75159,   0.00026,274926814.94159,   0.00001,  -0.00032,   0.00001,   0.00000,   2.00000
-260545990.90170,-548138816.34462,3859918.45480,  -0.00011,  -0.00232,   0.00006,478803610.63194,   0.00028,274941787.18435,   0.00001,  -0.00034,   0.00001,   0.00000,   2.00000
-260469238.00245,-548155777.22273,3766357.29440,  -0.00010,  -0.00234,   0.00006,478790662.34250,   0.00029,274956649.37991,   0.00001,  -0.00035,   0.00001,   0.00000,   2.00000
-260393186.07834,-548172656.45530,3673649.08881,  -0.00010,  -0.00236,   0.00006,478805650.31930,   0.00030,274971509.88112,   0.00001,  -0.00037,   0.00001,   0.00000,   2.00000
-260317134.38814,-548189341.70212,3581954.76380,  -0.00010,  -0.00237,   0.00006,478800744.42217,   0.00032,274986291.88391,   0.00001,  -0.00039,   0.00001,   0.00000,   2.00000
-260241840.12985,-548206113.74083,3484602.98084,  -0.00010,  -0.00239,   0.00006,478815504.61307,   0.00033,275001071.64137,   0.00001,  -0.00040,   0.00001,  -0.00000,   2.00000
-260166589.34269,-548222845.04615,3381804.07782,  -0.00010,  -0.00241,   0.00006,478810381.70692,   0.00034,275015772.41368,   0.00001,  -0.00042,   0.00001,   0.00000,   2.00000
-260072137.34721,-548238536.47906,3286638.72580,  -0.00010,  -0.00242,   0.00006,478797502.86229,   0.00036,275030364.84963,   0.00001,  -0.00044,   0.00001,   0.00000,   2.00000
-259977866.77203,-548254180.41306,3185985.63900,  -0.00010,  -0.00244,   0.00006,478792216.76486,   0.00037,275044878.71418,   0.00001,  -0.00045,   0.00001,   0.00000,   2.00000
-259884477.44949,-548269878.52995,3079738.62891,  -0.00010,  -0.00246,   0.00005,478806754.28448,   0.00038,275059390.82335,   0.00002,  -0.00047,   0.00001,   0.00000,   2.00000
-259791900.80971,-548285477.55532,2974437.70141,  -0.00010,  -0.00247,   0.00005,478821424.00922,   0.00040,275073901.68567,   0.00002,  -0.00048,   0.00001,   0.00000,   2.00000
-259698681.13481,-548300750.35815,2870344.77405,  -0.00010,  -0.00249,   0.00005,478796305.29736,   0.00041,275088257.83279,   0.00002,  -0.00050,   0.00002,   0.00000,   2.00000
-259587186.56203,-548315358.42714,2760729.85933,  -0.00009,  -0.00251,   0.00005,478802761.27211,   0.00042,275102581.93309,   0.00002,  -0.00052,   0.00002,   0.00000,   2.00000
-259475902.66707,-548329745.41663,2652203.43584,  -0.00009,  -0.00252,   0.00005,478797373.40298,   0.00044,275116828.44493,   0.00002,  -0.00053,   0.00002,   0.00000,   2.00000
-259384696.73742,-548344741.29807,2544577.99656,  -0.00009,  -0.00254,   0.00005,478819729.68276,   0.00045,275131104.44718,   0.00002,  -0.00055,   0.00002,   0.00000,   2.00000
-259255284.40023,-548358206.48676,2431609.96063,  -0.00009,  -0.00255,   0.00005,478798313.90961,   0.00046,275145241.49558,   0.00002,  -0.00056,   0.00002,   0.00000,   2.00000
-259145343.26559,-548372165.30662,2319687.73318,  -0.00009,  -0.00257,   0.00005,478800683.71082,   0.00047,275159331.65326,   0.00002,  -0.00058,   0.00002,   0.00000,   2.00000
-259035602.21710,-548386006.42710,2202344.67963,  -0.00009,  -0.00259,   0.00005,478794969.52036,   0.00049,275173343.95463,   0.00002,  -0.00060,   0.00002,   0.00000,   2.00000
-258907606.45119,-548398999.78176,2086050.02544,  -0.00009,  -0.00260,   0.00004,478801257.96364,   0.00050,275187325.21009,   0.00002,  -0.00061,   0.00002,   0.00000,   2.00000
-258799053.85173,-548412500.62366,1970809.18643,  -0.00009,  -0.00262,   0.00004,478803459.28372,   0.00051,275201259.57275,   0.00002,  -0.00063,   0.00002,   0.00000,   2.00000
-258672257.75568,-548425235.78809,1850095.51479,  -0.00009,  -0.00263,   0.00004,478809597.71415,   0.00053,275215162.62677,   0.00002,  -0.00064,   0.00002,   0.00000,   2.00000
-258544931.28193,-548437615.59304,1730574.96495,  -0.00008,  -0.00265,   0.00004,478783921.77446,   0.00054,275228911.91736,   0.00002,  -0.00066,   0.00002,   0.00000,   2.00000
-258399474.32750,-548449194.65941,1605599.21978,  -0.00008,  -0.00267,   0.00004,478789922.57482,   0.00055,275242630.35477,   0.00002,  -0.00067,   0.00002,   0.00000,   2.00000
-258273565.29571,-548461287.59851,1481717.90660,  -0.00008,  -0.00268,   0.00004,478791871.52851,   0.00056,275256302.23480,   0.00002,  -0.00069,   0.00002,   0.00000,   2.00000
-258147858.33049,-548473139.17261,1358940.25008,  -0.00008,  -0.00270,   0.00004,478785861.55878,   0.00058,275269897.09120,   0.00002,  -0.00070,   0.00002,   0.00000,   2.00000
-258003970.02099,-548484151.67636,1230715.48290,  -0.00008,  -0.00271,   0.00003,478791741.22577,   0.00059,275283461.25489,   0.00002,  -0.00072,   0.00002,   0.00000,   2.00000
-257859584.41612,-548494791.30782,1103662.29273,  -0.00008,  -0.00273,   0.00003,478765753.11909,   0.00060,275296872.10984,   0.00003,  -0.00074,   0.00002,   0.00000,   2.00000
-257716332.49674,-548505344.79199,971159.55512,  -0.00008,  -0.00274,   0.00003,478779363.81028,   0.00061,275310282.80371,   0.00003,  -0.00075,   0.00002,   0.00000,   2.00000
-257574183.56113,-548515757.77225,839747.63741,  -0.00008,  -0.00276,   0.00003,478793022.18066,   0.00063,275323693.50930,   0.00003,  -0.00077,   0.00002,   0.00000,   2.00000
-257431480.60941,-548525826.96173,702988.11671,  -0.00007,  -0.00277,   0.00003,478766851.47213,   0.00064,275336950.84900,   0.00003,  -0.00078,   0.00002,   0.00000,   2.00000
-257289021.39303,-548535629.35998,567368.32872,  -0.00007,  -0.00279,   0.00003,478760463.25400,   0.00065,275350131.63978,   0.00003,  -0.00080,   0.00002,   0.00000,   2.00000
-257128402.11566,-548544470.71146,432853.99770,  -0.00007,  -0.00280,   0.00002,478766052.15962,   0.00066,275363282.51875,   0.00003,  -0.00081,   0.00002,   0.00000,   2.00000
-256968140.85290,-548553058.07179,292942.72920,  -0.00007,  -0.00282,   0.00002,478759562.18045,   0.00067,275376357.09799,   0.00003,  -0.00082,   0.00002,   0.00000,   2.00000
-256827457.19565,-548562201.62836,154158.82868,  -0.00007,  -0.00283,   0.00002,478760845.78269,   0.00069,275389385.41148,   0.00003,  -0.00084,   0.00002,   0.00000,   2.00000
-256667698.70278,-548570237.96388,16486.00535,  -0.00007,  -0.00285,   0.00002,478746402.60594,   0.00070,275402307.31189,   0.00003,  -0.00085,   0.00002,   0.00000,   2.00000
-256509111.37553,-548578120.74067,-126592.29446,  -0.00007,  -0.00286,   0.00002,478759602.78585,   0.00071,275415229.64626,   0.00003,  -0.00087,   0.00002,   0.00000,   2.00000
-256349916.35919,-548585585.77651,-275059.07485,  -0.00007,  -0.00288,   0.00002,478733016.62797,   0.00072,275427999.26165,   0.00003,  -0.00088,   0.00002,   0.00000,   2.00000
-256172593.67560,-548592020.13071,-422369.76272,  -0.00006,  -0.00289,   0.00001,478738272.03882,   0.00073,275440739.54974,   0.00003,  -0.00090,   0.00002,   0.00000,   2.00000
-256014027.63553,-548598904.30444,-568571.29985,  -0.00006,  -0.00291,   0.00001,478719319.66804,   0.00074,275453357.25258,   0.00003,  -0.00091,   0.00002,   0.00000,   2.00000
-255856589.01767,-548605629.74004,-713640.33169,  -0.00006,  -0.00292,   0.00001,478732221.83016,   0.00076,275465975.47313,   0.00003,  -0.00093,   0.00002,   0.00000,   2.00000
-255680033.69354,-548611105.31289,-870640.19720,  -0.00006,  -0.00294,   0.00001,478717505.22617,   0.00077,275478488.10874,   0.00003,  -0.00094,   0.00002,   0.00000,   2.00000
-255503808.99726,-548616314.06970,-1019982.85699,  -0.00006,  -0.00295,   0.00001,478710400.66322,   0.00078,275490924.88477,   0.00003,  -0.00095,   0.00002,   0.00000,   2.00000
-255328791.53998,-548621299.07072,-1174684.73270,  -0.00006,  -0.00297,   0.00000,478723197.03871,   0.00079,275503362.69175,   0.00004,  -0.00097,   0.00002,   0.00000,   2.00000
-255153115.16571,-548625847.04554,-1328330.39973,  -0.00006,  -0.00298,   0.00000,478696149.83409,   0.00080,275515648.19263,   0.00004,  -0.00098,   0.00002,   0.00000,   2.00000
-254977670.71828,-548630020.20896,-1487387.19839,  -0.00005,  -0.00299,  -0.00000,478688911.31639,   0.00081,275527858.24012,   0.00004,  -0.00100,   0.00002,   0.00000,   2.00000
-254803416.22785,-548634008.86453,-1645251.71855,  -0.00005,  -0.00301,  -0.00000,478701448.31382,   0.00082,275540069.23322,   0.00004,  -0.00101,   0.00002,   0.00000,   2.00000
-254628421.14074,-548637553.22806,-1802102.42049,  -0.00005,  -0.00302,  -0.00001,478674176.09832,   0.00084,275552127.98085,   0.00004,  -0.00102,   0.00002,  -0.00000,   2.00000
-254435219.28893,-548639882.89145,-1964328.71085,  -0.00005,  -0.00304,  -0.00001,478678899.12606,   0.00085,275564158.40711,   0.00004,  -0.00104,   0.00002,   0.00000,   2.00000
-254260656.34127,-548642602.96567,-2132019.16139,  -0.00005,  -0.00305,  -0.00001,478659295.34735,   0.00086,275576066.83087,   0.00004,  -0.00105,   0.00002,   0.00000,   2.00000
-254067920.35635,-548644270.21553,-2292024.38458,  -0.00005,  -0.00306,  -0.00001,478663726.48615,   0.00087,275587946.41242,   0.00004,  -0.00106,   0.00002,   0.00000,   2.00000
-253894729.85338,-548646355.11308,-2463936.05315,  -0.00005,  -0.00308,  -0.00002,478663969.42174,   0.00088,275599780.96329,   0.00004,  -0.00108,   0.00002,   0.00000,   2.00000
-253702332.50873,-548647242.60548,-2628268.99162,  -0.00004,  -0.00309,  -0.00002,478648429.41234,   0.00089,275611510.12055,   0.00004,  -0.00109,   0.00002,   0.00000,   2.00000
-253509098.92835,-548647527.36282,-2798183.51368,  -0.00004,  -0.00310,  -0.00002,478620820.61393,   0.00090,275623087.87812,   0.00004,  -0.00110,   0.00002,   0.00000,   2.00000
-253317089.49664,-548647606.56680,-2966890.26168,  -0.00004,  -0.00312,  -0.00002,478632764.90584,   0.00091,275634667.03048,   0.00004,  -0.00112,   0.00002,   0.00000,   2.00000
-253125209.02195,-548647197.11378,-3141047.55283,  -0.00004,  -0.00313,  -0.00003,478624931.44628,   0.00092,275646171.46958,   0.00004,  -0.00113,   0.00002,   0.00000,   2.00000
-252933490.54980,-548646434.25038,-3314130.63176,  -0.00004,  -0.00314,  -0.00003,478616904.25024,   0.00093,275657600.74895,   0.00004,  -0.00114,   0.00002,   0.00000,   2.00000
-252741853.08014,-548645157.08728,-3492665.93872,  -0.00004,  -0.00316,  -0.00003,478608942.70357,   0.00094,275668955.42395,   0.00004,  -0.00115,   0.00002,   0.00000,   2.00000
-252530917.04005,-548642480.88331,-3670195.82208,  -0.00003,  -0.00317,  -0.00003,478593109.33762,   0.00095,275680205.68278,   0.00004,  -0.00117,   0.00001,   0.00000,   2.00000
-252338557.74820,-548640332.14846,-3846791.43561,  -0.00003,  -0.00318,  -0.00004,478572608.60229,   0.00096,275691333.81072,   0.00005,  -0.00118,   0.00001,   0.00000,   2.00000
-252127849.39626,-548636728.51419,-4028756.77955,  -0.00003,  -0.00320,  -0.00004,478576629.97713,   0.00097,275702434.82603,   0.00005,  -0.00119,   0.00001,   0.00000,   2.00000
-251936757.67905,-548633808.17130,-4209603.62812,  -0.00003,  -0.00321,  -0.00004,478575877.59840,   0.00098,275713490.28875,   0.00005,  -0.00120,   0.00001,   0.00000,   2.00000
-251726178.24138,-548629240.22456,-4396012.38379,  -0.00003,  -0.00322,  -0.00004,478559958.60925,   0.00099,275724442.19614,   0.00005,  -0.00122,   0.00001,  -0.00000,   2.00000
-251514622.68909,-548624127.29278,-4581598.32243,  -0.00003,  -0.00324,  -0.00005,478531519.37655,   0.00100,275735242.78699,   0.00005,  -0.00123,   0.00001,   0.00000,   2.00000
-251304290.94416,-548618777.32470,-4765953.48097,  -0.00002,  -0.00325,  -0.00005,478542737.68029,   0.00101,275746045.26334,   0.00005,  -0.00124,   0.00001,   0.00000,   2.00000
-251093962.24159,-548612807.99646,-4955822.63718,  -0.00002,  -0.00326,  -0.00005,478534252.36144,   0.00102,275756773.79272,   0.00005,  -0.00125,   0.00001,  -0.00000,   2.00000
-250882564.58414,-548606280.44655,-5144924.60391,  -0.00002,  -0.00327,  -0.00006,478505594.82601,   0.00103,275767351.04445,   0.00005,  -0.00127,   0.00001,   0.00000,   2.00000
-250672261.62102,-548599261.95661,-5339302.70411,  -0.00002,  -0.00329,  -0.00006,478516815.87996,   0.00104,275777931.08482,   0.00005,  -0.00128,   0.00001,   0.00000,   2.00000
-250460826.31966,-548591670.32018,-5532937.96634,  -0.00002,  -0.00330,  -0.00006,478488019.04204,   0.00105,275788359.89603,   0.00005,  -0.00129,   0.00001,   0.00000,   2.00000
-250250557.38839,-548583830.15847,-5725333.17188,  -0.00002,  -0.00331,  -0.00006,478498880.40395,   0.00106,275798790.70140,   0.00005,  -0.00130,   0.00001,   0.00000,   2.00000
-250038993.85010,-548575140.05287,-5923557.02400,  -0.00001,  -0.00332,  -0.00007,478470172.52660,   0.00107,275809071.20719,   0.00005,  -0.00131,   0.00001,  -0.00000,   2.00000
-249807862.91805,-548564861.30321,-6120926.41515,  -0.00001,  -0.00333,  -0.00007,478453429.89888,   0.00108,275819248.22220,   0.00005,  -0.00132,   0.00001,   0.00000,   2.00000
-249596307.97507,-548555322.91116,-6317246.06631,  -0.00001,  -0.00335,  -0.00007,478451717.81876,   0.00109,275829379.84517,   0.00005,  -0.00134,   0.00001,   0.00000,   2.00000
-249365015.05587,-548543873.37991,-6519271.58454,  -0.00001,  -0.00336,  -0.00008,478435106.12861,   0.00110,275839409.06386,   0.00005,  -0.00135,   0.00001,  -0.00000,   2.00000
-249153269.26533,-548533172.26118,-6720248.46688,  -0.00001,  -0.00337,  -0.00008,478433239.57920,   0.00111,275849392.88133,   0.00006,  -0.00136,   0.00001,   0.00000,   2.00000
-248921717.93775,-548520507.00450,-6926946.52588,  -0.00001,  -0.00338,  -0.00008,478416524.20872,   0.00112,275859274.47348,   0.00006,  -0.00137,   0.00001,   0.00000,   2.00000
-248690117.48422,-548507380.13533,-7132724.85074,  -0.00000,  -0.00339,  -0.00009,478406986.59013,   0.00113,275869081.87212,   0.00006,  -0.00138,   0.00001,   0.00000,   2.00000
-248476776.66127,-548494842.31975,-7337822.33287,  -0.00000,  -0.00340,  -0.00009,478384975.08990,   0.00114,275878767.19408,   0.00006,  -0.00139,   0.00001,   0.00000,   2.00000
-248244785.79372,-548480446.45654,-7548338.68173,  -0.00000,  -0.00341,  -0.00009,478387927.11247,   0.00115,275888427.18315,   0.00006,  -0.00140,   0.00001,   0.00000,   2.00000
-248011411.59845,-548465392.22173,-7758334.19635,   0.00000,  -0.00343,  -0.00010,478358271.47124,   0.00116,275897936.38835,   0.00006,  -0.00141,   0.00000,  -0.00000,   2.00000
-247777758.70312,-548449488.63216,-7973982.39217,   0.00000,  -0.00344,  -0.00010,478348697.87121,   0.00116,275907372.73050,   0.00006,  -0.00142,   0.00000,   0.00000,   2.00000
-247544085.37592,-548433476.85624,-8182258.99761,   0.00000,  -0.00345,  -0.00010,478338398.71439,   0.00117,275916733.69427,   0.00006,  -0.00143,   0.00000,   0.00000,   2.00000
-247309939.24060,-548416204.62818,-8402742.48458,   0.00001,  -0.00346,  -0.00011,478329035.70287,   0.00118,275926023.18490,   0.00006,  -0.00145,   0.00000,   0.00000,   2.00000
-247075734.06329,-548398828.82117,-8615866.43423,   0.00001,  -0.00347,  -0.00011,478318584.30308,   0.00119,275935237.28354,   0.00006,  -0.00146,   0.00000,   0.00000,   2.00000
-246820187.48088,-548379047.41875,-8835273.49361,   0.00001,  -0.00348,  -0.00011,478281407.74879,   0.00120,275944273.49704,   0.00006,  -0.00147,   0.00000,  -0.00000,   2.00000
-246585460.16389,-548360259.05222,-9053302.48701,   0.00001,  -0.00349,  -0.00012,478298422.80543,   0.00121,275953341.11217,   0.00006,  -0.00148,   0.00000,  -0.00000,   2.00000
-246348953.85522,-548340328.79497,-9277491.94829,   0.00001,  -0.00350,  -0.00012,478268577.68829,   0.00122,275962259.49524,   0.00006,  -0.00149,   0.00000,   0.00000,   2.00000
-246092480.46871,-548318532.18974,-9501064.48372,   0.00001,  -0.00351,  -0.00012,478250702.31150,   0.00122,275971075.47769,   0.00006,  -0.00150,  -0.00000,   0.00000,   2.00000
-245855448.82843,-548297547.02197,-9723710.92758,   0.00002,  -0.00352,  -0.00013,478247576.97687,   0.00123,275979846.14575,   0.00007,  -0.00151,  -0.00000,  -0.00000,   2.00000
-245617903.22999,-548275570.81148,-9952128.45997,   0.00002,  -0.00353,  -0.00013,478237378.77573,   0.00124,275988544.42461,   0.00007,  -0.00152,  -0.00000,   0.00000,   2.00000
-245358904.89228,-548251462.14361,-10180456.97575,   0.00002,  -0.00354,  -0.00013,478199421.08160,   0.00125,275997063.75996,   0.00007,  -0.00153,  -0.00000,   0.00000,   2.00000
-245119301.89057,-548228178.07164,-10407895.46305,   0.00002,  -0.00355,  -0.00014,478195985.31588,   0.00126,276005537.75069,   0.00007,  -0.00154,  -0.00000,   0.00000,   2.00000
-244860806.99984,-548202670.43906,-10640838.36459,   0.00002,  -0.00356,  -0.00014,478198061.53310,   0.00126,276013987.94706,   0.00007,  -0.00155,  -0.00000,   0.00000,   2.00000
-244600533.48087,-548176361.26931,-10873589.89758,   0.00002,  -0.00357,  -0.00015,478167287.49015,   0.00127,276022287.81570,   0.00007,  -0.00155,  -0.00000,  -0.00000,   2.00000
-244358173.83424,-548150666.39774,-11106001.25374,   0.00003,  -0.00358,  -0.00015,478143716.55037,   0.00128,276030465.57596,   0.00007,  -0.00156,  -0.00001,   0.00000,   2.00000
-244096845.87131,-548122665.01054,-11343943.97980,   0.00003,  -0.00359,  -0.00015,478145568.33085,   0.00129,276038619.83875,   0.00007,  -0.00157,  -0.00001,   0.00000,   2.00000
-243833628.08138,-548093827.33713,-11581778.11748,   0.00003,  -0.00360,  -0.00016,478114515.80024,   0.00129,276046623.82256,   0.00007,  -0.00158,  -0.00001,   0.00000,   2.00000
-243569957.13993,-548064381.95947,-11818994.01877,   0.00003,  -0.00361,  -0.00016,478103212.35208,   0.00130,276054554.25699,   0.00007,  -0.00159,  -0.00001,  -0.00000,   2.00000
-243305811.82899,-548034327.97280,-12055616.42621,   0.00003,  -0.00362,  -0.00016,478091833.57965,   0.00131,276062411.13013,   0.00007,  -0.00160,  -0.00001,   0.00000,   2.00000
-243040959.63367,-548003088.63573,-12298173.63599,   0.00003,  -0.00363,  -0.00017,478080887.31622,   0.00132,276070196.39340,   0.00007,  -0.00161,  -0.00001,   0.00000,   2.00000
-242773854.62838,-547970383.28503,-12547246.53402,   0.00004,  -0.00364,  -0.00017,478050001.71769,   0.00132,276077833.40870,   0.00007,  -0.00162,  -0.00001,   0.00000,   2.00000
-242506409.81317,-547937619.89961,-12789242.93947,   0.00004,  -0.00365,  -0.00018,478037839.68478,   0.00133,276085394.96942,   0.00007,  -0.00163,  -0.00001,   0.00000,   2.00000
-242238168.93146,-547903608.15931,-13037225.13016,   0.00004,  -0.00366,  -0.00018,478026646.78534,   0.00134,276092885.10446,   0.00007,  -0.00163,  -0.00001,   0.00000,   2.00000
-241969326.51133,-547868936.37003,-13284684.36963,   0.00004,  -0.00366,  -0.00018,478014863.34147,   0.00134,276100301.80419,   0.00007,  -0.00164,  -0.00001,   0.00000,   2.00000
-241698066.36134,-547832705.34462,-13538782.28274,   0.00004,  -0.00367,  -0.00019,477983670.54122,   0.00135,276107570.44372,   0.00008,  -0.00165,  -0.00001,   0.00000,   2.00000
-241406544.07950,-547794867.14767,-13786119.56845,   0.00005,  -0.00368,  -0.00019,477963875.24963,   0.00136,276114735.68185,   0.00008,  -0.00166,  -0.00001,  -0.00000,   2.00000
-241134025.54542,-547757257.67115,-14039282.64517,   0.00005,  -0.00369,  -0.00020,477959605.68274,   0.00136,276121857.73683,   0.00008,  -0.00167,  -0.00001,   0.00000,   2.00000
-240860561.62783,-547718284.94578,-14298503.54321,   0.00005,  -0.00370,  -0.00020,477948063.86420,   0.00137,276128908.69645,   0.00008,  -0.00168,  -0.00002,   0.00000,   2.00000
-240584996.95143,-547678994.06927,-14551457.37083,   0.00005,  -0.00371,  -0.00021,477915389.94028,   0.00138,276135807.22224,   0.00008,  -0.00168,  -0.00002,   0.00000,   2.00000
-240288549.94785,-547636689.27758,-14810778.86126,   0.00005,  -0.00371,  -0.00021,477896446.75508,   0.00138,276142607.02612,   0.00008,  -0.00169,  -0.00002,   0.00000,   2.00000
-240011271.81362,-547595264.58026,-15069459.90766,   0.00005,  -0.00372,  -0.00021,477891232.50495,   0.00139,276149361.40146,   0.00008,  -0.00170,  -0.00002,   0.00000,   2.00000
-239713031.33373,-547550747.07972,-15334537.91436,   0.00006,  -0.00373,  -0.00022,477872208.47606,   0.00140,276156017.27415,   0.00008,  -0.00171,  -0.00002,  -0.00000,   2.00000
-239432518.78491,-547507538.64562,-15593220.57265,   0.00006,  -0.00374,  -0.00022,477846318.92056,   0.00140,276162548.37745,   0.00008,  -0.00171,  -0.00002,   0.00000,   2.00000
-239130962.28481,-547461172.12781,-15858366.68878,   0.00006,  -0.00375,  -0.00023,477827117.70063,   0.00141,276168981.12795,   0.00008,  -0.00172,  -0.00002,   0.00000,   2.00000
-238848506.53815,-547415698.43179,-16122939.05855,   0.00006,  -0.00375,  -0.00023,477821516.86059,   0.00141,276175368.35787,   0.00008,  -0.00173,  -0.00002,   0.00000,   2.00000
-238543214.16108,-547366670.39329,-16394772.53896,   0.00006,  -0.00376,  -0.00023,477782353.72067,   0.00142,276181580.59640,   0.00008,  -0.00173,  -0.00002,  -0.00000,   2.00000
-238237028.65762,-547316812.69336,-16666338.01178,   0.00007,  -0.00377,  -0.00024,477769412.38130,   0.00142,276187719.87334,   0.00008,  -0.00174,  -0.00002,   0.00000,   2.00000
-237949887.46837,-547267848.35492,-16937377.20283,   0.00007,  -0.00377,  -0.00024,477763510.79118,   0.00143,276193813.58608,   0.00008,  -0.00175,  -0.00002,   0.00000,   2.00000
-237640025.47877,-547215994.89083,-17209289.13145,   0.00007,  -0.00378,  -0.00025,477723441.07462,   0.00144,276199729.84337,   0.00008,  -0.00176,  -0.00002,   0.00000,   2.00000
-237330957.41105,-547163624.85997,-17480201.55143,   0.00007,  -0.00379,  -0.00025,477730087.73909,   0.00144,276205650.01464,   0.00008,  -0.00176,  -0.00002,   0.00000,   2.00000
-237018821.41335,-547109235.03894,-17758273.15605,   0.00007,  -0.00380,  -0.00026,477697710.73029,   0.00145,276211423.10137,   0.00008,  -0.00177,  -0.00003,   0.00000,   2.00000
-236703855.84574,-547053613.39281,-18037032.09067,   0.00008,  -0.00380,  -0.00026,477664482.68971,   0.00145,276217046.34953,   0.00009,  -0.00178,  -0.00003,   0.00000,   2.00000
-236389636.38036,-546997444.56671,-18314814.86533,   0.00008,  -0.00381,  -0.00027,477670861.78493,   0.00146,276222673.60878,   0.00009,  -0.00178,  -0.00003,   0.00000,   2.00000
-236072508.00622,-546940020.26342,-18593361.70544,   0.00008,  -0.00382,  -0.00027,477637492.26187,   0.00146,276228150.98235,   0.00009,  -0.00179,  -0.00003,  -0.00000,   2.00000
-235752108.64367,-546880439.04438,-18879214.56826,   0.00008,  -0.00382,  -0.00027,477604758.73687,   0.00147,276233481.48441,   0.00009,  -0.00179,  -0.00003,   0.00000,   2.00000
-235432406.41813,-546820277.34763,-19164115.96749,   0.00008,  -0.00383,  -0.00028,477610872.33916,   0.00147,276238816.09822,   0.00009,  -0.00180,  -0.00003,  -0.00000,   2.00000
-235109656.24792,-546758790.64139,-19449884.96934,   0.00008,  -0.00383,  -0.00028,477577245.91826,   0.00148,276244000.86761,   0.00009,  -0.00181,  -0.00003,   0.00000,   2.00000
-234783806.58284,-546695957.01443,-19736570.69020,   0.00009,  -0.00384,  -0.00029,477543477.28264,   0.00148,276249035.78483,   0.00009,  -0.00181,  -0.00003,  -0.00000,   2.00000
-234458283.49172,-546631596.46698,-20028843.31730,   0.00009,  -0.00385,  -0.00029,477550126.84701,   0.00149,276254078.02750,   0.00009,  -0.00182,  -0.00003,   0.00000,   2.00000
-234129903.02365,-546566784.40616,-20315599.70900,   0.00009,  -0.00385,  -0.00030,477515407.84364,   0.00149,276258967.21385,   0.00009,  -0.00182,  -0.00003,   0.00000,   2.00000
-233797951.07812,-546499612.38412,-20609889.56028,   0.00009,  -0.00386,  -0.00030,477482209.11122,   0.00150,276263709.79426,   0.00009,  -0.00183,  -0.00003,  -0.00000,   2.00000
-233446486.75219,-546429868.37178,-20903643.73209,   0.00009,  -0.00386,  -0.00031,477480824.43428,   0.00150,276268429.73445,   0.00009,  -0.00183,  -0.00003,   0.00000,   2.00000
-233111858.66897,-546360601.77802,-21198157.42450,   0.00010,  -0.00387,  -0.00031,477453601.12641,   0.00150,276273026.82176,   0.00009,  -0.00184,  -0.00004,   0.00000,   2.00000
-232775480.54255,-546289275.46878,-21499307.96029,   0.00010,  -0.00388,  -0.00032,477440046.93064,   0.00151,276277554.53081,   0.00009,  -0.00184,  -0.00004,   0.00000,   2.00000
-232415870.32747,-546215454.12626,-21795499.74409,   0.00010,  -0.00388,  -0.00032,477397899.48887,   0.00151,276281902.21406,   0.00009,  -0.00185,  -0.00004,  -0.00000,   2.00000
-232074630.71435,-546141496.29415,-22098033.93338,   0.00010,  -0.00389,  -0.00032,477391056.37166,   0.00152,276286207.48089,   0.00009,  -0.00185,  -0.00004,   0.00000,   2.00000
-231711713.13313,-546064392.86157,-22401150.57680,   0.00010,  -0.00389,  -0.00033,477369480.32217,   0.00152,276290413.34558,   0.00009,  -0.00186,  -0.00004,   0.00000,   2.00000
-231365432.22969,-545987718.67516,-22705207.98088,   0.00011,  -0.00390,  -0.00033,477341737.33712,   0.00152,276294496.14699,   0.00009,  -0.00186,  -0.00004,   0.00000,   2.00000
-230997009.97199,-545906761.08624,-23016402.30603,   0.00011,  -0.00390,  -0.00034,477320927.08295,   0.00153,276298483.31335,   0.00009,  -0.00187,  -0.00004,   0.00000,   2.00000
-230647590.54703,-545827744.88141,-23321035.78487,   0.00011,  -0.00391,  -0.00034,477311866.09935,   0.00153,276302420.76553,   0.00009,  -0.00187,  -0.00004,  -0.00000,   2.00000
-230273840.94893,-545743885.19178,-23633965.86144,   0.00011,  -0.00391,  -0.00035,477271124.66711,   0.00154,276306185.61919,   0.00009,  -0.00188,  -0.00004,   0.00000,   2.00000
-229898818.39016,-545659884.80898,-23940776.63811,   0.00011,  -0.00391,  -0.00035,477254988.14895,   0.00154,276309874.12037,   0.00010,  -0.00188,  -0.00004,   0.00000,   2.00000
-229541977.39578,-545575641.28968,-24254081.21687,   0.00012,  -0.00392,  -0.00036,477247543.27413,   0.00154,276313520.28032,   0.00010,  -0.00188,  -0.00004,   0.00000,   2.00000
-229160985.66014,-545487502.51807,-24569331.61100,   0.00012,  -0.00392,  -0.00036,477205627.12987,   0.00155,276316990.22524,   0.00010,  -0.00189,  -0.00004,   0.00000,   2.00000
-228778231.23339,-545398057.12620,-24885033.66046,   0.00012,  -0.00393,  -0.00037,477190203.41429,   0.00155,276320387.63494,   0.00010,  -0.00189,  -0.00004,   0.00000,   2.00000
-228391094.86532,-545305603.09033,-25208861.93895,   0.00012,  -0.00393,  -0.00037,477155917.44091,   0.00155,276323639.35696,   0.00010,  -0.00190,  -0.00004,  -0.00000,   2.00000
-228004718.41714,-545213485.95196,-25525531.32261,   0.00012,  -0.00394,  -0.00038,477159097.47121,   0.00155,276326891.73568,   0.00010,  -0.00190,  -0.00005,  -0.00000,   2.00000
-227611626.47955,-545117750.66164,-25851609.52897,   0.00012,  -0.00394,  -0.00038,477104878.09775,   0.00156,276329921.26237,   0.00010,  -0.00190,  -0.00005,   0.00000,   2.00000
-227219258.83292,-545022356.29527,-26170568.34889,   0.00013,  -0.00394,  -0.00039,477107822.33674,   0.00156,276332951.35290,   0.00010,  -0.00191,  -0.00005,   0.00000,   2.00000
-226822274.10068,-544923785.85440,-26497826.56453,   0.00013,  -0.00395,  -0.00039,477073259.99093,   0.00156,276335835.87316,   0.00010,  -0.00191,  -0.00005,   0.00000,   2.00000
-226423292.24611,-544823765.01716,-26825708.22160,   0.00013,  -0.00395,  -0.00040,477057323.67093,   0.00157,276338647.91208,   0.00010,  -0.00191,  -0.00005,   0.00000,   2.00000
-226019980.19527,-544721706.74292,-27155502.30345,   0.00013,  -0.00395,  -0.00040,477021501.27043,   0.00157,276341310.18680,   0.00010,  -0.00192,  -0.00005,   0.00000,   2.00000
-225614586.77744,-544618150.40143,-27485987.20018,   0.00013,  -0.00396,  -0.00041,477005362.65363,   0.00157,276343899.96747,   0.00010,  -0.00192,  -0.00005,   0.00000,   2.00000
-225207077.86210,-544513078.12333,-27817190.33681,   0.00014,  -0.00396,  -0.00041,476989158.36289,   0.00157,276346417.24210,   0.00010,  -0.00192,  -0.00005,   0.00000,   2.00000
-224794624.75951,-544404565.57887,-28156909.66962,   0.00014,  -0.00396,  -0.00042,476954238.21154,   0.00157,276348789.22241,   0.00010,  -0.00192,  -0.00005,  -0.00000,   2.00000
-224359989.12728,-544293406.26538,-28491383.24618,   0.00014,  -0.00397,  -0.00042,476930079.49637,   0.00158,276351058.43407,   0.00010,  -0.00193,  -0.00005,  -0.00000,   2.00000
-223941150.13735,-544182398.16506,-28827565.29067,   0.00014,  -0.00397,  -0.00043,476900406.42571,   0.00158,276353203.65218,   0.00010,  -0.00193,  -0.00005,   0.00000,   2.00000
-223521986.10905,-544069046.56814,-29169708.24221,   0.00014,  -0.00397,  -0.00043,476904808.81774,   0.00158,276355358.39868,   0.00010,  -0.00193,  -0.00005,  -0.00000,   2.00000
-223075629.54558,-543951691.58455,-29509443.22705,   0.00015,  -0.00397,  -0.00044,476840861.14537,   0.00158,276357255.58760,   0.00010,  -0.00193,  -0.00005,  -0.00000,   2.00000
-222649357.33789,-543834344.66095,-29854718.90368,   0.00015,  -0.00398,  -0.00044,476851643.72078,   0.00158,276359188.15658,   0.00010,  -0.00194,  -0.00005,   0.00000,   2.00000
-222197715.51475,-543712145.83066,-30202785.00060,   0.00015,  -0.00398,  -0.00045,476808554.97614,   0.00159,276360945.36384,   0.00010,  -0.00194,  -0.00005,   0.00000,   2.00000
-221743605.15617,-543588157.45394,-30551824.42000,   0.00015,  -0.00398,  -0.00045,476791668.19524,   0.00159,276362630.27651,   0.00010,  -0.00194,  -0.00005,   0.00000,   2.00000
-221305442.75842,-543465620.06332,-30896375.52327,   0.00015,  -0.00398,  -0.00045,476760153.97093,   0.00159,276364185.86480,   0.00010,  -0.00194,  -0.00005,   0.00000,   2.00000
-220843728.34108,-543337312.54658,-31248900.99624,   0.00016,  -0.00398,  -0.00046,476737836.62899,   0.00159,276365648.57653,   0.00010,  -0.00194,  -0.00005,   0.00000,   2.00000
-220379405.62975,-543207127.50061,-31602499.46886,   0.00016,  -0.00399,  -0.00046,476720692.96607,   0.00159,276367038.97184,   0.00010,  -0.00194,  -0.00005,   0.00000,   2.00000
-219930397.52871,-543076903.62680,-31958196.38937,   0.00016,  -0.00399,  -0.00047,476690157.03437,   0.00159,276368304.79707,   0.00010,  -0.00195,  -0.00005,   0.88257,   1.00000
-219458120.38153,-542942167.79333,-32315522.28526,   0.00016,  -0.00399,  -0.00047,476666380.81736,   0.00159,276369472.96739,   0.00010,  -0.00195,  -0.00005,   0.75172,   1.00000
-218980460.18505,-542804714.73432,-32675533.46236,   0.00016,  -0.00399,  -0.00048,476629212.80966,   0.00160,276370491.29264,   0.00010,  -0.00195,  -0.00005,   0.57128,   1.00000
-218502634.70996,-542666002.48437,-33035235.50016,   0.00017,  -0.00399,  -0.00048,476631452.65419,   0.00160,276371514.80852,   0.00010,  -0.00195,  -0.00006,   0.57716,   1.00000
-218016621.40589,-542523722.65879,-33399256.99176,   0.00017,  -0.00399,  -0.00049,476574407.14924,   0.00160,276372310.88751,   0.00010,  -0.00195,  -0.00006,   0.34918,   1.00000
-217530378.95628,-542380134.30591,-33763010.54025,   0.00017,  -0.00399,  -0.00049,476576450.33437,   0.00160,276373112.18182,   0.00010,  -0.00195,  -0.00006,   0.35378,   1.00000
-217038468.26125,-542233647.04517,-34129646.52190,   0.00017,  -0.00400,  -0.00050,476538986.91957,   0.00160,276373763.54192,   0.00010,  -0.00195,  -0.00006,   0.23378,   1.00000
-216522891.70689,-542082264.88427,-34498143.60970,   0.00017,  -0.00400,  -0.00050,476514828.05637,   0.00160,276374317.71216,   0.00010,  -0.00195,  -0.00006,   0.16922,   1.00000
-216022136.44145,-541930600.52651,-34869119.18484,   0.00018,  -0.00400,  -0.00051,476483503.39075,   0.00160,276374746.82493,   0.00010,  -0.00195,  -0.00006,   0.10147,   1.00000
-215518250.51649,-541776702.88429,-35241521.22605,   0.00018,  -0.00400,  -0.00051,476465481.97746,   0.00160,276375103.57470,   0.00010,  -0.00195,  -0.00006,   0.07013,   1.00000
-214990492.73299,-541617723.94664,-35615901.35568,   0.00018,  -0.00400,  -0.00052,476441134.88262,   0.00160,276375363.30841,   0.00010,  -0.00195,  -0.00006,   0.03717,   1.00000
-214477362.53762,-541458375.78099,-35992904.25238,   0.00018,  -0.00400,  -0.00052,476409523.75648,   0.00160,276375497.73592,   0.00010,  -0.00195,  -0.00006,   0.00996,   1.00000
-213940210.07067,-541293809.20062,-36371969.48313,   0.00019,  -0.00400,  -0.00053,476385031.91663,   0.00160,276375535.27146,   0.00010,  -0.00195,  -0.00006,   0.00078,   1.00000
-213409694.79953,-541103871.63441,-36751844.61555,   0.00019,  -0.00400,  -0.00053,476353209.16288,   0.00160,276375535.27146,   0.00010,  -0.00195,  -0.00006,-22326.10859,   0.00000
-212856256.02902,-540904109.71132,-37131719.74798,   0.00019,  -0.00400,  -0.00054,476326056.18815,   0.00160,276375535.27146,   0.00010,  -0.00195,  -0.00006,-49479.08331,   0.00000
-212306092.04412,-540668325.14637,-37511594.88040,   0.00019,  -0.00400,  -0.00054,476267041.25225,   0.00160,276375535.27146,   0.00010,  -0.00195,  -0.00006,-108494.01921,   0.00000
-211713355.84612,-540376869.22580,-37891470.01283,   0.00019,  -0.00400,  -0.00055,476163833.07817,   0.00160,276375535.27146,   0.00010,  -0.00195,  -0.00006,-211702.19330,   0.00000
-211110795.29124,-540062489.80587,-38264795.57400,   0.00020,  -0.00400,  -0.00055,476040778.50000,   0.00160,276375535.27146,   0.00010,  -0.00195,  -0.00006,-334756.77146,   0.00000
-210498410.37949,-539725186.88656,-38644670.70643,   0.00020,  -0.00400,  -0.00056,475901035.90206,   0.00160,276375535.27146,   0.00010,  -0.00195,  -0.00006,-474499.36940,   0.00000
-209866376.75399,-539342036.96851,-39024545.83885,   0.00020,  -0.00400,  -0.00056,475723360.09206,   0.00160,276375535.27146,   0.00010,  -0.00195,  -0.00006,-652175.17940,   0.00000
-209234343.12849,-538958887.05046,-39397871.40003,   0.00020,  -0.00400,  -0.00057,475545539.75658,   0.00160,276375535.27146,   0.00010,  -0.00195,  -0.00006,-829995.51488,   0.00000
-208572836.43237,-538506966.63430,-39777746.53245,   0.00020,  -0.00400,  -0.00057,475311753.58833,   0.00160,276375535.27146,   0.00010,  -0.00195,  -0.00006,-1063781.68313,   0.00000
-207911329.73625,-538055046.21814,-40151072.09363,   0.00021,  -0.00400,  -0.00058,475077824.60750,   0.00160,276375535.27146,   0.00010,  -0.00195,  -0.00006,-1297710.66396,   0.00000
-207230174.32639,-537557278.80324,-40530947.22605,   0.00021,  -0.00400,  -0.00058,474807705.91683,   0.00160,276375535.27146,   0.00010,  -0.00195,  -0.00006,-1567829.35464,   0.00000
-206516271.06028,-537026763.53210,-40904272.78723,   0.00021,  -0.00399,  -0.00059,474511779.51126,   0.00160,276375535.27146,   0.00010,  -0.00195,  -0.00006,-1863755.76021,   0.00000
-205805642.57980,-536460225.61909,-41277598.34840,   0.00021,  -0.00399,  -0.00059,474184051.93887,   0.00160,276375535.27146,   0.00010,  -0.00195,  -0.00006,-2191483.33260,   0.00000
-205062266.24307,-535860939.84983,-41650923.90958,   0.00022,  -0.00399,  -0.00060,473832269.44173,   0.00160,276375535.27146,   0.00010,  -0.00195,  -0.00006,-2543265.82973,   0.00000
-204331989.04884,-535248554.93808,-42024249.47075,   0.00022,  -0.00399,  -0.00060,473468360.16431,   0.00160,276375535.27146,   0.00010,  -0.00195,  -0.00006,-2907175.10715,   0.00000
-203559139.64150,-534580498.67071,-42397575.03193,   0.00022,  -0.00399,  -0.00061,473060830.77956,   0.00160,276375535.27146,   0.00010,  -0.00195,  -0.00006,-3314704.49191,   0.00000
-202799389.37665,-533899343.26085,-42770900.59310,   0.00022,  -0.00399,  -0.00061,472641185.33688,   0.00160,276375535.27146,   0.00010,  -0.00195,  -0.00006,-3734349.93459,   0.00000
-202006891.25556,-533185439.99474,-43144226.15428,   0.00022,  -0.00399,  -0.00062,472197667.39408,   0.00160,276375535.27146,   0.00010,  -0.00195,  -0.00006,-4177867.87738,   0.00000
-201194744.42072,-532425689.72989,-43511002.14420,   0.00023,  -0.00398,  -0.00062,471714756.62885,   0.00160,276375535.27146,   0.00010,  -0.00195,  -0.00006,-4660778.64261,   0.00000
-200382597.58588,-531665939.46504,-43884327.70538,   0.00023,  -0.00398,  -0.00063,471235352.30183,   0.00160,276375535.27146,   0.00010,  -0.00195,  -0.00006,-5140182.96963,   0.00000
-199540977.68042,-530837418.70208,-44251103.69531,   0.00023,  -0.00398,  -0.00063,470696961.84015,   0.00160,276375535.27146,   0.00010,  -0.00195,  -0.00006,-5678573.43132,   0.00000
-198699357.77497,-530008897.93912,-44617879.68523,   0.00023,  -0.00398,  -0.00064,470160296.70967,   0.00160,276375535.27146,   0.00010,  -0.00195,  -0.00006,-6215238.56179,   0.00000
-197838089.15576,-529134530.17742,-44984655.67516,   0.00023,  -0.00398,  -0.00064,469586151.76439,   0.00160,276375535.27146,   0.00010,  -0.00195,  -0.00006,-6789383.50707,   0.00000
-196966996.17969,-528237238.91635,-45351431.66509,   0.00024,  -0.00397,  -0.00065,468994171.61052,   0.00160,276375535.27146,   0.00010,  -0.00195,  -0.00006,-7381363.66095,   0.00000
-196053330.99050,-527284276.29967,-45718207.65501,   0.00024,  -0.00397,  -0.00065,468359094.51129,   0.00160,276375535.27146,   0.00010,  -0.00195,  -0.00006,-8016440.76018,   0.00000
-195162589.30067,-526341138.03986,-46078434.07369,   0.00024,  -0.00397,  -0.00066,467729619.28914,   0.00160,276375535.27146,   0.00010,  -0.00195,  -0.00006,-8645915.98232,   0.00000
-194252198.89711,-525352152.78130,-46445210.06362,   0.00024,  -0.00397,  -0.00066,467064731.00500,   0.00160,276375535.27146,   0.00010,  -0.00195,  -0.00006,-9310804.26646,   0.00000
-193299236.28042,-524307496.16714,-46805436.48230,   0.00025,  -0.00396,  -0.00066,466354964.96910,   0.00160,276375535.27146,   0.00010,  -0.00195,  -0.00006,-10020570.30236,   0.00000
-192346273.66374,-523262839.55297,-47165662.90097,   0.00025,  -0.00396,  -0.00067,465647109.07007,   0.00160,276375535.27146,   0.00010,  -0.00195,  -0.00006,-10728426.20140,   0.00000
-191396585.83268,-522182160.29694,-47525889.31965,   0.00025,  -0.00396,  -0.00067,464907635.34716,   0.00160,276375535.27146,   0.00010,  -0.00195,  -0.00006,-11467899.92430,   0.00000
-190404325.78850,-521045809.68529,-47886115.73833,   0.00025,  -0.00395,  -0.00068,464125421.85603,   0.00160,276375535.27146,   0.00010,  -0.00195,  -0.00006,-12250113.41543,   0.00000
-189412065.74432,-519909459.07364,-48239792.58576,   0.00026,  -0.00395,  -0.00068,463343160.52660,   0.00160,276375535.27146,   0.00010,  -0.00195,  -0.00006,-13032374.74486,   0.00000
-188400156.98640,-518727261.46325,-48600019.00444,   0.00026,  -0.00395,  -0.00069,462525868.45122,   0.00160,276375535.27146,   0.00010,  -0.00195,  -0.00006,-13849666.82024,   0.00000
-187378423.87160,-517522140.35349,-48953695.85187,   0.00026,  -0.00394,  -0.00069,461689018.19649,   0.00160,276375535.27146,   0.00010,  -0.00195,  -0.00006,-14686517.07497,   0.00000
-186337042.04306,-516271172.24499,-49307372.69930,   0.00026,  -0.00394,  -0.00070,460815173.80384,   0.00160,276375535.27146,   0.00010,  -0.00195,  -0.00006,-15560361.46762,   0.00000
-185272736.71515,-515010379.77962,-49661049.54673,   0.00026,  -0.00394,  -0.00070,459937990.68835,   0.00160,276375535.27146,   0.00010,  -0.00195,  -0.00006,-16437544.58311,   0.00000
-184211706.17286,-513713564.67238,-50008176.82291,   0.00027,  -0.00393,  -0.00071,459027210.77789,   0.00160,276375535.27146,   0.00010,  -0.00195,  -0.00006,-17348324.49357,   0.00000
-183140851.27370,-512393826.06577,-50361853.67034,   0.00027,  -0.00393,  -0.00071,458101202.59375,   0.00160,276375535.27146,   0.00010,  -0.00195,  -0.00006,-18274332.67772,   0.00000
-182027424.16142,-511018416.10354,-50708980.94652,   0.00027,  -0.00392,  -0.00072,457130879.51629,   0.00160,276375535.27146,   0.00010,  -0.00195,  -0.00006,-19244655.75517,   0.00000
-180936920.54851,-509652830.49819,-51056108.22270,   0.00027,  -0.00392,  -0.00072,456168106.85729,   0.00160,276375535.27146,   0.00010,  -0.00195,  -0.00006,-20207428.41417,   0.00000
-179803844.72249,-508231573.53722,-51403235.49888,   0.00028,  -0.00392,  -0.00072,455163313.37776,   0.00160,276375535.27146,   0.00010,  -0.00195,  -0.00006,-21212221.89371,   0.00000
-178651120.18272,-506764469.57752,-51743813.20381,   0.00028,  -0.00391,  -0.00073,454119672.36017,   0.00160,276375535.27146,   0.00010,  -0.00195,  -0.00006,-22255862.91129,   0.00000
-177498395.64295,-505297365.61781,-52084390.90874,   0.00028,  -0.00391,  -0.00073,453078346.16692,   0.00160,276375535.27146,   0.00010,  -0.00195,  -0.00006,-23297189.10454,   0.00000
-176326022.38943,-503784414.65936,-52424968.61367,   0.00028,  -0.00390,  -0.00074,452000478.59390,   0.00160,276375535.27146,   0.00010,  -0.00195,  -0.00006,-24375056.67756,   0.00000
-175143824.77905,-502248540.20154,-52765546.31861,   0.00029,  -0.00390,  -0.00074,450905570.83177,   0.00160,276375535.27146,   0.00010,  -0.00195,  -0.00006,-25469964.43969,   0.00000
-173951802.81178,-500689742.24435,-53106124.02354,   0.00029,  -0.00389,  -0.00075,449793670.03530,   0.00160,276375535.27146,   0.00010,  -0.00195,  -0.00006,-26581865.23616,   0.00000
-172727032.98828,-499098196.43092,-53440152.15722,   0.00029,  -0.00389,  -0.00075,448657371.00150,   0.00160,276375535.27146,   0.00010,  -0.00195,  -0.00006,-27718164.26996,   0.00000
-171505537.95040,-497470627.97562,-53774180.29091,   0.00029,  -0.00388,  -0.00076,447489882.54318,   0.00160,276375535.27146,   0.00010,  -0.00195,  -0.00006,-28885652.72828,   0.00000
-170274218.55564,-495820136.02095,-54108208.42459,   0.00030,  -0.00388,  -0.00076,446305529.02715,   0.00160,276375535.27146,   0.00010,  -0.00195,  -0.00006,-30070006.24431,   0.00000
-169010151.30465,-494136896.21004,-54435686.98702,   0.00030,  -0.00387,  -0.00076,445096937.64358,   0.00160,276375535.27146,   0.00010,  -0.00195,  -0.00006,-31278597.62789,   0.00000
-167736259.69678,-492430732.89975,-54763165.54946,   0.00030,  -0.00387,  -0.00077,443871606.57999,   0.00160,276375535.27146,   0.00010,  -0.00195,  -0.00006,-32503928.69148,   0.00000
-166442719.37516,-490678722.59073,-55090644.11189,   0.00030,  -0.00386,  -0.00077,442610239.27913,   0.00160,276375535.27146,   0.00010,  -0.00195,  -0.00006,-33765295.99233,   0.00000
-165139354.69667,-488903788.78233,-55418122.67433,   0.00031,  -0.00386,  -0.00078,441332267.03848,   0.00160,276375535.27146,   0.00010,  -0.00195,  -0.00006,-35043268.23299,   0.00000
-163835990.01818,-487128854.97394,-55739051.66551,   0.00031,  -0.00385,  -0.00078,440054587.97073,   0.00160,276375535.27146,   0.00010,  -0.00195,  -0.00006,-36320947.30073,   0.00000
-162503152.26907,-485285150.66743,-56059980.65670,   0.00031,  -0.00385,  -0.00078,438721722.18453,   0.00160,276375535.27146,   0.00010,  -0.00195,  -0.00006,-37653813.08694,   0.00000
-161170314.51996,-483441446.36092,-56380909.64788,   0.00031,  -0.00384,  -0.00079,437391716.08319,   0.00160,276375535.27146,   0.00010,  -0.00195,  -0.00006,-38983819.18827,   0.00000
-159827652.41398,-481574818.55505,-56701838.63907,   0.00032,  -0.00383,  -0.00079,436045304.00671,   0.00160,276375535.27146,   0.00010,  -0.00195,  -0.00006,-40330231.26475,   0.00000
-158442418.09488,-479652519.39356,-57016218.05901,   0.00032,  -0.00383,  -0.00080,434655934.68809,   0.00160,276375535.27146,   0.00010,  -0.00195,  -0.00006,-41719600.58337,   0.00000
-157070282.91828,-477717121.08957,-57330597.47894,   0.00032,  -0.00382,  -0.00080,433255063.92374,   0.00160,276375535.27146,   0.00010,  -0.00195,  -0.00006,-43120471.34772,   0.00000
-155665399.88544,-475748974.92933,-57644976.89888,   0.00032,  -0.00382,  -0.00081,431833277.46407,   0.00160,276375535.27146,   0.00010,  -0.00195,  -0.00006,-44542257.80739,   0.00000
-154250692.49572,-473757905.26973,-57952806.74757,   0.00033,  -0.00381,  -0.00081,430392759.47390,   0.00160,276375535.27146,   0.00010,  -0.00195,  -0.00006,-45982775.79756,   0.00000
-152816336.39225,-471720988.61139,-58260636.59626,   0.00033,  -0.00380,  -0.00081,428916956.78270,   0.00160,276375535.27146,   0.00010,  -0.00195,  -0.00006,-47458578.48876,   0.00000
-151381980.28879,-469684071.95305,-58561916.87370,   0.00033,  -0.00380,  -0.00082,427441716.26546,   0.00160,276375535.27146,   0.00010,  -0.00195,  -0.00006,-48933819.00600,   0.00000
-149927975.47158,-467601308.29596,-58869746.72239,   0.00033,  -0.00379,  -0.00082,425934038.44480,   0.00160,276375535.27146,   0.00010,  -0.00195,  -0.00006,-50441496.82666,   0.00000
-148464146.29750,-465495621.13951,-59171026.99983,   0.00034,  -0.00378,  -0.00083,424407819.61086,   0.00160,276375535.27146,   0.00010,  -0.00195,  -0.00006,-51967715.66060,   0.00000
-147000317.12342,-463389933.98305,-59465757.70602,   0.00034,  -0.00378,  -0.00083,422882236.47080,   0.00160,276375535.27146,   0.00010,  -0.00195,  -0.00006,-53493298.80066,   0.00000
-145484091.37934,-461205651.97161,-59767037.98346,   0.00034,  -0.00377,  -0.00083,421300944.13243,   0.00160,276375535.27146,   0.00010,  -0.00195,  -0.00006,-55074591.13903,   0.00000
-143990789.13464,-459031194.31705,-60061768.68965,   0.00034,  -0.00376,  -0.00084,419724872.95729,   0.00160,276375535.27146,   0.00010,  -0.00195,  -0.00006,-56650662.31418,   0.00000
-142464739.03370,-456823988.80624,-60349949.82459,   0.00035,  -0.00375,  -0.00084,418126054.67569,   0.00160,276375535.27146,   0.00010,  -0.00195,  -0.00006,-58249480.59577,   0.00000
-140919040.21901,-454570936.29669,-60644680.53078,   0.00035,  -0.00375,  -0.00084,416495550.75361,   0.00160,276375535.27146,   0.00010,  -0.00195,  -0.00006,-59879984.51785,   0.00000
-139396264.90368,-452327708.14401,-60932861.66573,   0.00035,  -0.00374,  -0.00085,414870247.29247,   0.00160,276375535.27146,   0.00010,  -0.00195,  -0.00006,-61505287.97899,   0.00000
-137830917.37525,-450028808.63572,-61214493.22942,   0.00035,  -0.00373,  -0.00085,413203399.53955,   0.00160,276375535.27146,   0.00010,  -0.00195,  -0.00006,-63172135.73191,   0.00000
-136232821.99057,-447697161.27119,-61496124.79311,   0.00036,  -0.00373,  -0.00086,411517195.76995,   0.00160,276375535.27146,   0.00010,  -0.00195,  -0.00006,-64858339.50151,   0.00000
-134647825.74838,-445352414.76415,-61777756.35681,   0.00036,  -0.00372,  -0.00086,409820142.88794,   0.00160,276375535.27146,   0.00010,  -0.00195,  -0.00006,-66555392.38353,   0.00000
-133053005.14933,-442984744.75775,-62059387.92050,   0.00036,  -0.00371,  -0.00086,408108120.02364,   0.00160,276375535.27146,   0.00010,  -0.00195,  -0.00006,-68267415.24782,   0.00000
-131425436.69403,-440584326.89511,-62334469.91295,   0.00036,  -0.00370,  -0.00087,406374169.17304,   0.00160,276375535.27146,   0.00010,  -0.00195,  -0.00006,-70001366.09842,   0.00000
-129810967.38122,-438170809.88996,-62609551.90539,   0.00037,  -0.00369,  -0.00087,404629506.03166,   0.00160,276375535.27146,   0.00010,  -0.00195,  -0.00006,-71746029.23980,   0.00000
-128163750.21218,-435724545.02858,-62878084.32659,   0.00037,  -0.00369,  -0.00087,402863121.57381,   0.00160,276375535.27146,   0.00010,  -0.00195,  -0.00006,-73512413.69765,   0.00000
-126506708.68626,-433255356.66782,-63146616.74778,   0.00037,  -0.00368,  -0.00088,401082195.87926,   0.00160,276375535.27146,   0.00010,  -0.00195,  -0.00006,-75293339.39220,   0.00000
-124830018.44659,-430740321.30832,-63408599.59773,   0.00038,  -0.00367,  -0.00088,399264808.31699,   0.00160,276375535.27146,   0.00010,  -0.00195,  -0.00006,-77110726.95447,   0.00000
-123153328.20693,-428225285.94882,-63677132.01893,   0.00038,  -0.00366,  -0.00088,397455154.72051,   0.00160,276375535.27146,   0.00010,  -0.00195,  -0.00006,-78920380.55095,   0.00000
-121456989.25352,-425664403.59059,-63932565.29763,   0.00038,  -0.00365,  -0.00089,395606100.23957,   0.00160,276375535.27146,   0.00010,  -0.00195,  -0.00006,-80769435.03190,   0.00000
-119760650.30011,-423103521.23235,-64194548.14757,   0.00038,  -0.00365,  -0.00089,393764993.65495,   0.00160,276375535.27146,   0.00010,  -0.00195,  -0.00006,-82610541.61652,   0.00000
-118044662.63295,-420496791.87537,-64449981.42627,   0.00039,  -0.00364,  -0.00089,391887857.34694,   0.00160,276375535.27146,   0.00010,  -0.00195,  -0.00006,-84487677.92452,   0.00000
-116305751.46642,-417880238.16152,-64698865.13372,   0.00039,  -0.00363,  -0.00090,390008814.76773,   0.00160,276375535.27146,   0.00010,  -0.00195,  -0.00006,-86366720.50374,   0.00000
-114570115.08552,-415227661.80580,-64954298.41242,   0.00039,  -0.00362,  -0.00090,388104140.72306,   0.00160,276375535.27146,   0.00010,  -0.00195,  -0.00006,-88271394.54840,   0.00000
-112801730.84837,-412542337.59383,-65196632.54862,   0.00039,  -0.00361,  -0.00090,386175767.94511,   0.00160,276375535.27146,   0.00010,  -0.00195,  -0.00006,-90199767.32635,   0.00000
-111033346.61122,-409857013.38187,-65445516.25607,   0.00040,  -0.00360,  -0.00091,384256068.84498,   0.00160,276375535.27146,   0.00010,  -0.00195,  -0.00006,-92119466.42649,   0.00000
-109245313.66033,-407125842.17116,-65687850.39228,   0.00040,  -0.00359,  -0.00091,382301034.08254,   0.00160,276375535.27146,   0.00010,  -0.00195,  -0.00006,-94074501.18892,   0.00000
-107447456.35256,-404371747.46109,-65923634.95723,   0.00040,  -0.00358,  -0.00091,380329498.29557,   0.00160,276375535.27146,   0.00010,  -0.00195,  -0.00006,-96046036.97590,   0.00000
-105639774.68792,-401594729.25164,-66159419.52218,   0.00041,  -0.00358,  -0.00092,378344972.50439,   0.00160,276375535.27146,   0.00010,  -0.00195,  -0.00006,-98030562.76707,   0.00000
-103809169.52392,-398807886.68532,-66395204.08713,   0.00041,  -0.00357,  -0.00092,376363026.90432,   0.00160,276375535.27146,   0.00010,  -0.00195,  -0.00006,-100012508.36714,   0.00000
-101981839.14553,-395985021.47714,-66624439.08084,   0.00041,  -0.00356,  -0.00092,374349568.76420,   0.00160,276375535.27146,   0.00010,  -0.00195,  -0.00006,-102025966.50726,   0.00000
-100121760.91090,-393129408.41271,-66853674.07454,   0.00041,  -0.00355,  -0.00093,372320468.60531,   0.00160,276375535.27146,   0.00010,  -0.00195,  -0.00006,-104055066.66615,   0.00000
-98284606.17564,-390283619.70515,-67082909.06825,   0.00042,  -0.00354,  -0.00093,370300750.51086,   0.00160,276375535.27146,   0.00010,  -0.00195,  -0.00006,-106074784.76060,   0.00000
-96404879.22727,-387382159.64198,-67305594.49070,   0.00042,  -0.00353,  -0.00093,368243719.81321,   0.00160,276375535.27146,   0.00010,  -0.00195,  -0.00006,-108131815.45826,   0.00000
-94525152.27889,-384480699.57881,-67521730.34191,   0.00042,  -0.00352,  -0.00093,366189661.63871,   0.00160,276375535.27146,   0.00010,  -0.00195,  -0.00006,-110185873.63275,   0.00000
-92625776.61677,-381533392.51690,-67737866.19312,   0.00043,  -0.00351,  -0.00094,364105332.09690,   0.00160,276375535.27146,   0.00010,  -0.00195,  -0.00006,-112270203.17456,   0.00000
-90726400.95465,-378586085.45499,-67954002.04432,   0.00043,  -0.00350,  -0.00094,362027885.84168,   0.00160,276375535.27146,   0.00010,  -0.00195,  -0.00006,-114347649.42979,   0.00000
-88784453.07942,-375583107.03746,-68163588.32428,   0.00043,  -0.00349,  -0.00094,359914202.24279,   0.00160,276375535.27146,   0.00010,  -0.00195,  -0.00006,-116461333.02867,   0.00000
-86865428.70355,-372589952.97681,-68373174.60424,   0.00043,  -0.00348,  -0.00095,357810512.39942,   0.00160,276375535.27146,   0.00010,  -0.00195,  -0.00006,-118565022.87205,   0.00000
-84936579.97081,-369573875.41679,-68576211.31295,   0.00044,  -0.00347,  -0.00095,355692031.47860,   0.00160,276375535.27146,   0.00010,  -0.00195,  -0.00006,-120683503.79286,   0.00000
-82974983.38183,-366525050.00052,-68779248.02166,   0.00044,  -0.00346,  -0.00095,353560185.94796,   0.00160,276375535.27146,   0.00010,  -0.00195,  -0.00006,-122815349.32350,   0.00000
-80993738.07910,-363430377.58551,-68975735.15912,   0.00044,  -0.00345,  -0.00095,351395782.94289,   0.00160,276375535.27146,   0.00010,  -0.00195,  -0.00006,-124979752.32857,   0.00000
-79012492.77637,-360335705.17051,-69172222.29658,   0.00045,  -0.00344,  -0.00096,349239403.77047,   0.00160,276375535.27146,   0.00010,  -0.00195,  -0.00006,-127136131.50099,   0.00000
-77031247.47364,-357241032.75550,-69362159.86279,   0.00045,  -0.00343,  -0.00096,347087271.20442,   0.00160,276375535.27146,   0.00010,  -0.00195,  -0.00006,-129288264.06705,   0.00000
-75030353.45716,-354100513.34175,-69552097.42900,   0.00045,  -0.00342,  -0.00096,344907123.12697,   0.00160,276375535.27146,   0.00010,  -0.00195,  -0.00006,-131468412.14449,   0.00000
-73019635.08381,-350937070.42863,-69742034.99522,   0.00046,  -0.00341,  -0.00096,342717452.17386,   0.00160,276375535.27146,   0.00010,  -0.00195,  -0.00006,-133658083.09760,   0.00000
-71008916.71047,-347773627.51552,-69925422.99018,   0.00046,  -0.00340,  -0.00097,340532565.31265,   0.00160,276375535.27146,   0.00010,  -0.00195,  -0.00006,-135842969.95881,   0.00000
-68955626.12400,-344554513.24678,-70102261.41389,   0.00046,  -0.00339,  -0.00097,338314498.57215,   0.00160,276375535.27146,   0.00010,  -0.00195,  -0.00006,-138061036.69931,   0.00000
-66925259.03691,-341345223.33492,-70279099.83761,   0.00046,  -0.00338,  -0.00097,336107705.83249,   0.00160,276375535.27146,   0.00010,  -0.00195,  -0.00006,-140267829.43897,   0.00000
-64862144.09357,-338103185.56682,-70455938.26132,   0.00047,  -0.00337,  -0.00097,333890523.96702,   0.00160,276375535.27146,   0.00010,  -0.00195,  -0.00006,-142485011.30445,   0.00000
-62789204.79336,-334838224.29935,-70626227.11379,   0.00047,  -0.00336,  -0.00097,331661102.21329,   0.00160,276375535.27146,   0.00010,  -0.00195,  -0.00006,-144714433.05817,   0.00000
-60706441.13627,-331550339.53250,-70789966.39501,   0.00047,  -0.00334,  -0.00098,329419666.22475,   0.00160,276375535.27146,   0.00010,  -0.00195,  -0.00006,-146955869.04671,   0.00000
-58613853.12232,-328239531.26629,-70953705.67622,   0.00048,  -0.00333,  -0.00098,327170712.37619,   0.00160,276375535.27146,   0.00010,  -0.00195,  -0.00006,-149204822.89527,   0.00000
-56521265.10836,-324928723.00008,-71117444.95744,   0.00048,  -0.00332,  -0.00098,324932329.68993,   0.00160,276375535.27146,   0.00010,  -0.00195,  -0.00006,-151443205.58153,   0.00000
-54409028.38066,-321572067.73512,-71274634.66741,   0.00048,  -0.00331,  -0.00098,322665049.23506,   0.00160,276375535.27146,   0.00010,  -0.00195,  -0.00006,-153710486.03641,   0.00000
-52296791.65295,-318215412.47017,-71431824.37738,   0.00049,  -0.00330,  -0.00098,320408917.83108,   0.00160,276375535.27146,   0.00010,  -0.00195,  -0.00006,-155966617.44038,   0.00000
-50151807.06901,-314826009.34897,-71582464.51610,   0.00049,  -0.00329,  -0.00099,318140966.10199,   0.00160,276375535.27146,   0.00010,  -0.00195,  -0.00006,-158234569.16948,   0.00000
-48029745.98443,-311446430.58464,-71726555.08357,   0.00049,  -0.00328,  -0.00099,315881526.50476,   0.00160,276375535.27146,   0.00010,  -0.00195,  -0.00006,-160494008.76670,   0.00000
-45865112.68674,-308011180.46471,-71870645.65104,   0.00050,  -0.00327,  -0.00099,313597987.03297,   0.00160,276375535.27146,   0.00010,  -0.00195,  -0.00006,-162777548.23849,   0.00000
-43700479.38904,-304575930.34477,-72014736.21851,   0.00050,  -0.00325,  -0.00099,311326969.23917,   0.00160,276375535.27146,   0.00010,  -0.00195,  -0.00006,-165048566.03229,   0.00000
-41526021.73448,-301117756.72546,-72152277.21474,   0.00050,  -0.00324,  -0.00099,309046832.54785,   0.00160,276375535.27146,   0.00010,  -0.00195,  -0.00006,-167328702.72361,   0.00000
-39341739.72304,-297636659.60678,-72289818.21096,   0.00050,  -0.00323,  -0.00100,306762551.63066,   0.00160,276375535.27146,   0.00010,  -0.00195,  -0.00006,-169612983.64081,   0.00000
-37147633.35473,-294132638.98873,-72420809.63593,   0.00051,  -0.00322,  -0.00100,304469941.95896,   0.00160,276375535.27146,   0.00010,  -0.00195,  -0.00006,-171905593.31251,   0.00000
-34953526.98642,-290628618.37068,-72545251.48966,   0.00051,  -0.00321,  -0.00100,302186512.19187,   0.00160,276375535.27146,   0.00010,  -0.00195,  -0.00006,-174189023.07959,   0.00000
-32749596.26123,-287101674.25326,-72676242.91463,   0.00051,  -0.00320,  -0.00100,299904905.51029,   0.00160,276375535.27146,   0.00010,  -0.00195,  -0.00006,-176470629.76117,   0.00000
-30512917.67980,-283541982.27959,-72794135.19711,   0.00052,  -0.00318,  -0.00100,297611086.91309,   0.00160,276375535.27146,   0.00010,  -0.00195,  -0.00006,-178764448.35837,   0.00000
-28289338.24087,-279969191.16343,-72912027.47958,   0.00052,  -0.00317,  -0.00100,295315734.03142,   0.00160,276375535.27146,   0.00010,  -0.00195,  -0.00006,-181059801.24004,   0.00000
-26042835.30257,-276386575.69040,-73029919.76206,   0.00052,  -0.00316,  -0.00101,293035810.03569,   0.00160,276375535.27146,   0.00010,  -0.00195,  -0.00006,-183339725.23577,   0.00000
-23809431.50677,-272790861.07486,-73141262.47329,   0.00053,  -0.00315,  -0.00101,290750202.78715,   0.00160,276375535.27146,   0.00010,  -0.00195,  -0.00006,-185625332.48432,   0.00000
-21543279.85472,-269162398.60309,-73246055.61327,   0.00053,  -0.00314,  -0.00101,288459395.47517,   0.00160,276375535.27146,   0.00010,  -0.00195,  -0.00006,-187916139.79630,   0.00000
-19267303.84580,-265511012.63194,-73350848.75325,   0.00053,  -0.00312,  -0.00101,286168982.43871,   0.00160,276375535.27146,   0.00010,  -0.00195,  -0.00006,-190206552.83276,   0.00000
-16991327.83688,-261859626.66080,-73449092.32198,   0.00054,  -0.00311,  -0.00101,283891060.12963,   0.00160,276375535.27146,   0.00010,  -0.00195,  -0.00006,-192484475.14184,   0.00000
-14705527.47108,-258185317.19028,-73547335.89071,   0.00054,  -0.00310,  -0.00101,281614614.54644,   0.00160,276375535.27146,   0.00010,  -0.00195,  -0.00006,-194760920.72503,   0.00000
-12419727.10529,-254511007.71976,-73645579.45944,   0.00054,  -0.00309,  -0.00101,279356688.71977,   0.00160,276375535.27146,   0.00010,  -0.00195,  -0.00006,-197018846.55169,   0.00000
-10091354.52638,-250781026.89363,-73737273.45692,   0.00055,  -0.00308,  -0.00101,277080845.82971,   0.00160,276375535.27146,   0.00010,  -0.00195,  -0.00006,-199294689.44175,   0.00000
-7795729.80371,-247083793.92375,-73822417.88315,   0.00055,  -0.00306,  -0.00102,274834903.66575,   0.00160,276375535.27146,   0.00010,  -0.00195,  -0.00006,-201540631.60571,   0.00000
-5480456.36730,-243340713.95512,-73907562.30938,   0.00055,  -0.00305,  -0.00102,272576784.78643,   0.00160,276375535.27146,   0.00010,  -0.00195,  -0.00006,-203798750.48503,   0.00000
-3142259.43152,-239587809.62962,-73986157.16437,   0.00056,  -0.00304,  -0.00102,270335346.59534,   0.00160,276375535.27146,   0.00010,  -0.00195,  -0.00006,-206040188.67613,   0.00000
-794238.13886,-235811981.80475,-74064752.01935,   0.00056,  -0.00303,  -0.00102,268099595.64016,   0.00160,276375535.27146,   0.00010,  -0.00195,  -0.00006,-208275939.63130,   0.00000
1540684.01130,-232023054.83738,-74136797.30309,   0.00056,  -0.00301,  -0.00102,265863386.04105,   0.00160,276375535.27146,   0.00010,  -0.00195,  -0.00006,-210512149.23042,   0.00000
3898529.66083,-228224303.51314,-74208842.58682,   0.00057,  -0.00300,  -0.00102,263651526.48594,   0.00160,276375535.27146,   0.00010,  -0.00195,  -0.00006,-212724008.78552,   0.00000
6266199.66723,-224402628.68953,-74274338.29931,   0.00057,  -0.00299,  -0.00102,261442132.57939,   0.00160,276375535.27146,   0.00010,  -0.00195,  -0.00006,-214933402.69207,   0.00000
8633869.67363,-220580953.86591,-74333284.44055,   0.00057,  -0.00297,  -0.00102,259251383.11928,   0.00160,276375535.27146,   0.00010,  -0.00195,  -0.00006,-217124152.15218,   0.00000
11011364.03691,-216736355.54293,-74392230.58179,   0.00058,  -0.00296,  -0.00102,257070170.91779,   0.00160,276375535.27146,   0.00010,  -0.00195,  -0.00006,-219305364.35367,   0.00000
13398682.75705,-212868833.72058,-74451176.72303,   0.00058,  -0.00295,  -0.00102,254899509.97874,   0.00160,276375535.27146,   0.00010,  -0.00195,  -0.00006,-221476025.29273,   0.00000
15808924.97657,-208991487.54135,-74503573.29302,   0.00058,  -0.00294,  -0.00102,252752135.54237,   0.00160,276375535.27146,   0.00010,  -0.00195,  -0.00006,-223623399.72909,   0.00000
18196243.69672,-205123965.71900,-74549420.29176,   0.00059,  -0.00292,  -0.00103,250623778.72567,   0.00160,276375535.27146,   0.00010,  -0.00195,  -0.00006,-225751756.54580,   0.00000
20603211.13062,-201210596.89791,-74595267.29050,   0.00059,  -0.00291,  -0.00103,248493747.86689,   0.00160,276375535.27146,   0.00010,  -0.00195,  -0.00006,-227881787.40458,   0.00000
23033102.06388,-197287403.71994,-74634564.71799,   0.00059,  -0.00290,  -0.00103,246389811.30512,   0.00160,276375535.27146,   0.00010,  -0.00195,  -0.00006,-229985723.96635,   0.00000
25440069.49778,-193374034.89885,-74673862.14548,   0.00060,  -0.00288,  -0.00103,244312751.32332,   0.00160,276375535.27146,   0.00010,  -0.00195,  -0.00006,-232062783.94814,   0.00000
27879784.78791,-189427918.22151,-74713159.57297,   0.00060,  -0.00287,  -0.00103,242255230.76814,   0.00160,276375535.27146,   0.00010,  -0.00195,  -0.00006,-234120304.50333,   0.00000
30306400.93555,-185468702.40168,-74739357.85797,   0.00060,  -0.00286,  -0.00103,240199752.71277,   0.00160,276375535.27146,   0.00010,  -0.00195,  -0.00006,-236175782.55870,   0.00000
32755940.58256,-181499662.22497,-74765556.14296,   0.00061,  -0.00284,  -0.00103,238180470.10392,   0.00160,276375535.27146,   0.00010,  -0.00195,  -0.00006,-238195065.16755,   0.00000
35215304.58645,-177507698.54889,-74791754.42796,   0.00061,  -0.00283,  -0.00103,236181091.50250,   0.00160,276375535.27146,   0.00010,  -0.00195,  -0.00006,-240194443.76896,   0.00000
37674668.59033,-173515734.87281,-74811403.14170,   0.00061,  -0.00282,  -0.00103,234210326.05006,   0.00160,276375535.27146,   0.00010,  -0.00195,  -0.00006,-242165209.22140,   0.00000
40134032.59422,-169523771.19673,-74831051.85545,   0.00062,  -0.00280,  -0.00103,232275227.04137,   0.00160,276375535.27146,   0.00010,  -0.00195,  -0.00006,-244100308.23009,   0.00000
42613045.31185,-165485960.52192,-74844150.99795,   0.00062,  -0.00279,  -0.00103,230343821.95018,   0.00160,276375535.27146,   0.00010,  -0.00195,  -0.00006,-246031713.32128,   0.00000
45082233.67260,-161471073.34647,-74850700.56920,   0.00062,  -0.00278,  -0.00103,228457160.33349,   0.00160,276375535.27146,   0.00010,  -0.00195,  -0.00006,-247918374.93797,   0.00000
47571070.74711,-157410339.17228,-74857250.14045,   0.00063,  -0.00276,  -0.00103,226583370.36776,   0.00160,276375535.27146,   0.00010,  -0.00195,  -0.00006,-249792164.90370,   0.00000
50050083.46474,-153372528.49746,-74857250.14045,   0.00063,  -0.00275,  -0.00103,224756034.18105,   0.00160,276375535.27146,   0.00010,  -0.00195,  -0.00006,-251619501.09041,   0.00000
52538920.53924,-149311794.32327,-74857250.14045,   0.00063,  -0.00274,  -0.00103,222957068.26372,   0.00160,276375535.27146,   0.00010,  -0.00195,  -0.00006,-253418467.00774,   0.00000
55037581.97061,-145228136.64971,-74850700.56920,   0.00064,  -0.00272,  -0.00103,221181451.99432,   0.00160,276375535.27146,   0.00010,  -0.00195,  -0.00006,-255194083.27714,   0.00000
57559166.90136,-141134654.61928,-74844150.99795,   0.00064,  -0.00271,  -0.00103,219455194.48281,   0.00160,276375535.27146,   0.00010,  -0.00195,  -0.00006,-256920340.78865,   0.00000
60067652.68961,-137028073.44635,-74831051.85545,   0.00064,  -0.00269,  -0.00103,217749464.98657,   0.00160,276375535.27146,   0.00010,  -0.00195,  -0.00006,-258626070.28489,   0.00000
62576138.47786,-132921492.27342,-74817952.71295,   0.00065,  -0.00268,  -0.00103,216089768.53764,   0.00160,276375535.27146,   0.00010,  -0.00195,  -0.00006,-260285766.73382,   0.00000
65107547.76548,-128805086.74362,-74798303.99921,   0.00065,  -0.00267,  -0.00103,214476771.06888,   0.00160,276375535.27146,   0.00010,  -0.00195,  -0.00006,-261898764.20258,   0.00000
67625857.91060,-124675582.07131,-74778655.28546,   0.00065,  -0.00265,  -0.00103,212894557.18723,   0.00160,276375535.27146,   0.00010,  -0.00195,  -0.00006,-263480978.08423,   0.00000
70167091.55509,-120536253.04214,-74752457.00047,   0.00066,  -0.00264,  -0.00103,211361956.89025,   0.00160,276375535.27146,   0.00010,  -0.00195,  -0.00006,-265013578.38121,   0.00000
72695226.05709,-116383824.87047,-74719709.14422,   0.00066,  -0.00263,  -0.00103,209855769.14898,   0.00160,276375535.27146,   0.00010,  -0.00195,  -0.00006,-266519766.12248,   0.00000
75246284.05845,-112221572.34193,-74686961.28798,   0.00066,  -0.00261,  -0.00103,208409134.71516,   0.00160,276375535.27146,   0.00010,  -0.00195,  -0.00006,-267966400.55630,   0.00000
77784242.91732,-108046220.67089,-74647663.86049,   0.00067,  -0.00260,  -0.00103,206991518.86474,   0.00160,276375535.27146,   0.00010,  -0.00195,  -0.00006,-269384016.40673,   0.00000
80345125.27556,-103861044.64297,-74608366.43299,   0.00067,  -0.00258,  -0.00103,205636595.52318,   0.00160,276375535.27146,   0.00010,  -0.00195,  -0.00006,-270738939.74828,   0.00000
82906007.63380,-99675868.61506,-74562519.43425,   0.00067,  -0.00257,  -0.00103,204330910.83680,   0.00160,276375535.27146,   0.00010,  -0.00195,  -0.00006,-272044624.43466,   0.00000
85453790.84954,-95477593.44465,-74516672.43551,   0.00068,  -0.00256,  -0.00102,203065129.78392,   0.00160,276375535.27146,   0.00010,  -0.00195,  -0.00006,-273310405.48755,   0.00000
88024497.56465,-91269493.91736,-74464275.86552,   0.00068,  -0.00254,  -0.00102,201859280.63140,   0.00160,276375535.27146,   0.00010,  -0.00195,  -0.00006,-274516254.64006,   0.00000
90595204.27976,-87061394.39008,-74411879.29553,   0.00069,  -0.00253,  -0.00102,200713491.28090,   0.00160,276375535.27146,   0.00010,  -0.00195,  -0.00006,-275662043.99057,   0.00000
93175735.35175,-82830371.36342,-74352933.15430,   0.00069,  -0.00251,  -0.00102,199613238.15250,   0.00160,276375535.27146,   0.00010,  -0.00195,  -0.00006,-276762297.11896,   0.00000
95733342.92436,-78609172.69364,-74287437.44181,   0.00069,  -0.00250,  -0.00102,198558968.44652,   0.00160,276375535.27146,   0.00010,  -0.00195,  -0.00006,-277816566.82495,   0.00000
98323698.35322,-74355226.16761,-74221941.72932,   0.00070,  -0.00248,  -0.00102,197569785.25877,   0.00160,276375535.27146,   0.00010,  -0.00195,  -0.00006,-278805750.01270,   0.00000
100904229.42521,-70124203.14096,-74156446.01683,   0.00070,  -0.00247,  -0.00102,196653074.02018,   0.00160,276375535.27146,   0.00010,  -0.00195,  -0.00006,-279722461.25128,   0.00000
103494584.85406,-65870256.61493,-74084400.73310,   0.00070,  -0.00246,  -0.00102,195787461.18986,   0.00160,276375535.27146,   0.00010,  -0.00195,  -0.00006,-280588074.08160,   0.00000
106071841.14042,-61603210.94641,-74005805.87812,   0.00071,  -0.00244,  -0.00102,194964445.47169,   0.00160,276375535.27146,   0.00010,  -0.00195,  -0.00006,-281411089.79978,   0.00000
108672020.92615,-57326340.92101,-73927211.02313,   0.00071,  -0.00243,  -0.00102,194219938.22656,   0.00160,276375535.27146,   0.00010,  -0.00195,  -0.00006,-282155597.04490,   0.00000
111272200.71189,-53049470.89562,-73842066.59690,   0.00071,  -0.00241,  -0.00102,193537161.24980,   0.00160,276375535.27146,   0.00010,  -0.00195,  -0.00006,-282838374.02167,   0.00000
113872380.49762,-48772600.87022,-73756922.17066,   0.00072,  -0.00240,  -0.00102,192924307.70709,   0.00160,276375535.27146,   0.00010,  -0.00195,  -0.00006,-283451227.56437,   0.00000
116459461.14085,-44482631.70233,-73665228.17318,   0.00072,  -0.00238,  -0.00101,192358081.33786,   0.00160,276375535.27146,   0.00010,  -0.00195,  -0.00006,-284017453.93360,   0.00000
119069465.28345,-40182838.17756,-73573534.17570,   0.00072,  -0.00237,  -0.00101,191874807.87111,   0.00160,276375535.27146,   0.00010,  -0.00195,  -0.00006,-284500727.40035,   0.00000
121679469.42606,-35883044.65280,-73475290.60697,   0.00073,  -0.00235,  -0.00101,191456446.73774,   0.00160,276375535.27146,   0.00010,  -0.00195,  -0.00006,-284919088.53372,   0.00000
124299297.92553,-31560327.62866,-73370497.46699,   0.00073,  -0.00234,  -0.00101,191099413.93686,   0.00160,276375535.27146,   0.00010,  -0.00195,  -0.00006,-285276121.33460,   0.00000
126886378.56877,-27270358.46077,-73265704.32701,   0.00073,  -0.00233,  -0.00101,190807895.10876,   0.00160,276375535.27146,   0.00010,  -0.00195,  -0.00006,-285567640.16271,   0.00000
129506207.06824,-22947641.43663,-73160911.18703,   0.00074,  -0.00231,  -0.00101,190598716.41089,   0.00160,276375535.27146,   0.00010,  -0.00195,  -0.00006,-285776818.86057,   0.00000
132135859.92459,-18602000.91312,-73049568.47581,   0.00074,  -0.00230,  -0.00101,190453746.79029,   0.00160,276375535.27146,   0.00010,  -0.00195,  -0.00006,-285921788.48117,   0.00000
134732764.92470,-14289108.24586,-72931676.19333,   0.00074,  -0.00228,  -0.00100,190366477.61120,   0.00160,276375535.27146,   0.00010,  -0.00195,  -0.00006,-286009057.66026,   0.00000
137362417.78105,-9943467.72235,-72813783.91085,   0.00075,  -0.00227,  -0.00100,190364667.20145,   0.00160,276375535.27146,   0.00010,  -0.00195,  -0.00006,-286010868.07001,   0.00000
139969147.13803,-5607651.55572,-72695891.62838,   0.00075,  -0.00225,  -0.00100,190425271.67147,   0.00160,276375535.27146,   0.00010,  -0.00195,  -0.00006,-285950263.59999,   0.00000
142598799.99438,-1262011.03221,-72564900.20340,   0.00075,  -0.00224,  -0.00100,190559612.49710,   0.00160,276375535.27146,   0.00010,  -0.00195,  -0.00006,-285815922.77436,   0.00000
145205529.35136,3073805.13443,-72440458.34968,   0.00076,  -0.00222,  -0.00100,190763257.85717,   0.00160,276375535.27146,   0.00010,  -0.00195,  -0.00006,-285612277.41430,   0.00000
147845006.56458,7442369.15730,-72302917.35346,   0.00076,  -0.00221,  -0.00100,191040187.60800,   0.00160,276375535.27146,   0.00010,  -0.00195,  -0.00006,-285335347.66346,   0.00000
150461560.27843,11801108.82331,-72171925.92848,   0.00076,  -0.00219,  -0.00099,191386244.85837,   0.00160,276375535.27146,   0.00010,  -0.00195,  -0.00006,-284989290.41309,   0.00000
153091213.13478,16146749.34681,-72027835.36101,   0.00077,  -0.00218,  -0.00099,191806513.98803,   0.00160,276375535.27146,   0.00010,  -0.00195,  -0.00006,-284569021.28343,   0.00000
155717591.20551,20528412.51219,-71890294.36479,   0.00077,  -0.00216,  -0.00099,192295065.60235,   0.00160,276375535.27146,   0.00010,  -0.00195,  -0.00006,-284080469.66911,   0.00000
158334144.91936,24887152.17819,-71739654.22607,   0.00078,  -0.00215,  -0.00099,192842733.32615,   0.00160,276375535.27146,   0.00010,  -0.00195,  -0.00006,-283532801.94531,   0.00000
160950698.63322,29245891.84420,-71595563.65860,   0.00078,  -0.00213,  -0.00099,193471127.20658,   0.00160,276375535.27146,   0.00010,  -0.00195,  -0.00006,-282904408.06488,   0.00000
163577076.70394,33627555.00957,-71438373.94863,   0.00078,  -0.00212,  -0.00098,194159468.35278,   0.00160,276375535.27146,   0.00010,  -0.00195,  -0.00006,-282216066.91868,   0.00000
166203454.77467,38009218.17495,-71281184.23866,   0.00079,  -0.00211,  -0.00098,194920618.07500,   0.00160,276375535.27146,   0.00010,  -0.00195,  -0.00006,-281454917.19646,   0.00000
168829832.84539,42390881.34032,-71123994.52869,   0.00079,  -0.00209,  -0.00098,195753727.06978,   0.00160,276375535.27146,   0.00010,  -0.00195,  -0.00006,-280621808.20169,   0.00000
171456210.91612,46772544.50570,-70960255.24747,   0.00079,  -0.00208,  -0.00098,196650790.48851,   0.00160,276375535.27146,   0.00010,  -0.00195,  -0.00006,-279724744.78295,   0.00000
174082588.98684,51154207.67107,-70796515.96626,   0.00080,  -0.00206,  -0.00098,197618025.14130,   0.00160,276375535.27146,   0.00010,  -0.00195,  -0.00006,-278757510.13016,   0.00000
176708967.05757,55535870.83645,-70626227.11379,   0.00080,  -0.00205,  -0.00097,198647420.03598,   0.00160,276375535.27146,   0.00010,  -0.00195,  -0.00006,-277728115.23548,   0.00000
179345169.48517,59940457.50119,-70449388.69008,   0.00080,  -0.00203,  -0.00097,199741998.22261,   0.00160,276375535.27146,   0.00010,  -0.00195,  -0.00006,-276633537.04885,   0.00000
181948624.05652,64312296.30970,-70272550.26636,   0.00081,  -0.00202,  -0.00097,200884378.16823,   0.00160,276375535.27146,   0.00010,  -0.00195,  -0.00006,-275491157.10323,   0.00000
184584826.48412,68716882.97444,-70095711.84265,   0.00081,  -0.00200,  -0.00097,202113088.91240,   0.00160,276375535.27146,   0.00010,  -0.00195,  -0.00006,-274262446.35906,   0.00000
187198105.41235,73111645.28231,-69912323.84768,   0.00081,  -0.00199,  -0.00097,203384564.17039,   0.00160,276375535.27146,   0.00010,  -0.00195,  -0.00006,-272990971.10107,   0.00000
189811384.34058,77506407.59019,-69722386.28147,   0.00082,  -0.00197,  -0.00096,204713555.41149,   0.00160,276375535.27146,   0.00010,  -0.00195,  -0.00006,-271661979.85998,   0.00000
192447586.76818,81910994.25493,-69532448.71526,   0.00082,  -0.00196,  -0.00096,206121798.29315,   0.00160,276375535.27146,   0.00010,  -0.00195,  -0.00006,-270253736.97831,   0.00000
195060865.69640,86305756.56280,-69342511.14905,   0.00082,  -0.00194,  -0.00096,207575771.49020,   0.00160,276375535.27146,   0.00010,  -0.00195,  -0.00006,-268799763.78126,   0.00000
197674144.62463,90700518.87068,-69146024.01159,   0.00083,  -0.00193,  -0.00096,209083767.90548,   0.00160,276375535.27146,   0.00010,  -0.00195,  -0.00006,-267291767.36599,   0.00000
200287423.55286,95095281.17855,-68949536.87412,   0.00083,  -0.00191,  -0.00095,210651113.41280,   0.00160,276375535.27146,   0.00010,  -0.00195,  -0.00006,-265724421.85866,   0.00000
202877778.98172,99480219.12955,-68746500.16542,   0.00083,  -0.00190,  -0.00095,212253681.11762,   0.00160,276375535.27146,   0.00010,  -0.00195,  -0.00006,-264121854.15384,   0.00000
205491057.90995,103874981.43742,-68536913.88546,   0.00084,  -0.00188,  -0.00095,213923193.03537,   0.00160,276375535.27146,   0.00010,  -0.00195,  -0.00006,-262452342.23609,   0.00000
208104336.83817,108269743.74529,-68327327.60550,   0.00084,  -0.00187,  -0.00094,215648371.87631,   0.00160,276375535.27146,   0.00010,  -0.00195,  -0.00006,-260727163.39516,   0.00000
210704516.62391,112677605.19566,-68117741.32554,   0.00084,  -0.00185,  -0.00094,217419032.63314,   0.00160,276375535.27146,   0.00010,  -0.00195,  -0.00006,-258956502.63832,   0.00000
213294872.05276,117062543.14666,-67901605.47433,   0.00085,  -0.00184,  -0.00094,219229070.53424,   0.00160,276375535.27146,   0.00010,  -0.00195,  -0.00006,-257146464.73722,   0.00000
215895051.83849,121470404.59703,-67678920.05188,   0.00085,  -0.00182,  -0.00094,221093152.22810,   0.00160,276375535.27146,   0.00010,  -0.00195,  -0.00006,-255282383.04336,   0.00000
218485407.26735,125855342.54803,-67462784.20067,   0.00085,  -0.00181,  -0.00093,223005754.22980,   0.00160,276375535.27146,   0.00010,  -0.00195,  -0.00006,-253369781.04166,   0.00000
221075762.69621,130240280.49903,-67233549.20697,   0.00086,  -0.00179,  -0.00093,224955783.62866,   0.00160,276375535.27146,   0.00010,  -0.00195,  -0.00006,-251419751.64281,   0.00000
223675942.48194,134648141.94940,-67004314.21326,   0.00086,  -0.00178,  -0.00093,226963066.79988,   0.00160,276375535.27146,   0.00010,  -0.00195,  -0.00006,-249412468.47159,   0.00000
226266297.91080,139033079.90040,-66775079.21956,   0.00086,  -0.00176,  -0.00092,229008445.72850,   0.00160,276375535.27146,   0.00010,  -0.00195,  -0.00006,-247367089.54296,   0.00000
228843554.19716,143431116.99390,-66539294.65461,   0.00086,  -0.00175,  -0.00092,231086573.00620,   0.00160,276375535.27146,   0.00010,  -0.00195,  -0.00006,-245288962.26526,   0.00000
231410986.12665,147806230.58802,-66303510.08965,   0.00087,  -0.00173,  -0.00092,233199929.40680,   0.00160,276375535.27146,   0.00010,  -0.00195,  -0.00006,-243175605.86466,   0.00000
233978418.05613,152181344.18215,-66061175.95345,   0.00087,  -0.00172,  -0.00091,235351117.20321,   0.00160,276375535.27146,   0.00010,  -0.00195,  -0.00006,-241024418.06825,   0.00000
236555674.34249,156579381.27565,-65818841.81725,   0.00087,  -0.00170,  -0.00091,237554853.44021,   0.00160,276375535.27146,   0.00010,  -0.00195,  -0.00006,-238820681.83126,   0.00000
239123106.27198,160954494.86977,-65569958.10980,   0.00088,  -0.00169,  -0.00091,239784338.12451,   0.00160,276375535.27146,   0.00010,  -0.00195,  -0.00006,-236591197.14695,   0.00000
241690538.20147,165329608.46390,-65321074.40235,   0.00088,  -0.00167,  -0.00091,242053964.90018,   0.00160,276375535.27146,   0.00010,  -0.00195,  -0.00006,-234321570.37129,   0.00000
244235046.63158,169694897.70115,-65065641.12365,   0.00088,  -0.00166,  -0.00090,244340516.53430,   0.00160,276375535.27146,   0.00010,  -0.00195,  -0.00006,-232035018.73716,   0.00000
246802478.56107,174070011.29528,-64810207.84495,   0.00089,  -0.00164,  -0.00090,246682004.10268,   0.00160,276375535.27146,   0.00010,  -0.00195,  -0.00006,-229693531.16878,   0.00000
249356811.34806,178458224.03190,-64554774.56625,   0.00089,  -0.00163,  -0.00090,249054893.83820,   0.00160,276375535.27146,   0.00010,  -0.00195,  -0.00006,-227320641.43326,   0.00000
251901319.77818,182823513.26916,-64292791.71630,   0.00089,  -0.00161,  -0.00089,251447642.32561,   0.00160,276375535.27146,   0.00010,  -0.00195,  -0.00006,-224927892.94585,   0.00000
254422904.70893,187178978.14954,-64024259.29511,   0.00090,  -0.00160,  -0.00089,253853663.19051,   0.00160,276375535.27146,   0.00010,  -0.00195,  -0.00006,-222521872.08095,   0.00000
256957588.78217,191521343.88742,-63762276.44516,   0.00090,  -0.00158,  -0.00089,256303820.81421,   0.00160,276375535.27146,   0.00010,  -0.00195,  -0.00006,-220071714.45725,   0.00000
259479173.71292,195876808.76780,-63487194.45272,   0.00090,  -0.00157,  -0.00088,258772264.53705,   0.00160,276375535.27146,   0.00010,  -0.00195,  -0.00006,-217603270.73441,   0.00000
262000758.64366,200232273.64818,-63212112.46027,   0.00090,  -0.00155,  -0.00088,261273165.14421,   0.00160,276375535.27146,   0.00010,  -0.00195,  -0.00006,-215102370.12725,   0.00000
264522343.57441,204587738.52856,-62937030.46783,   0.00091,  -0.00154,  -0.00087,263805599.55484,   0.00160,276375535.27146,   0.00010,  -0.00195,  -0.00006,-212569935.71662,   0.00000
267034104.14828,208920279.90957,-62655398.90413,   0.00091,  -0.00152,  -0.00087,266351559.76118,   0.00160,276375535.27146,   0.00010,  -0.00195,  -0.00006,-210023975.51028,   0.00000
269522941.22278,213242996.93371,-62373767.34044,   0.00091,  -0.00151,  -0.00087,268910342.70670,   0.00160,276375535.27146,   0.00010,  -0.00195,  -0.00006,-207465192.56477,   0.00000
272044526.15353,217598461.81409,-62092135.77674,   0.00092,  -0.00149,  -0.00086,271527428.32716,   0.00160,276375535.27146,   0.00010,  -0.00195,  -0.00006,-204848106.94431,   0.00000
274533363.22803,221921178.83822,-61803954.64180,   0.00092,  -0.00148,  -0.00086,274138643.70488,   0.00160,276375535.27146,   0.00010,  -0.00195,  -0.00006,-202236891.56658,   0.00000
276999276.80317,226234071.50549,-61509223.93561,   0.00092,  -0.00146,  -0.00086,276756091.44453,   0.00160,276375535.27146,   0.00010,  -0.00195,  -0.00006,-199619443.82693,   0.00000
279488113.87767,230556788.52962,-61221042.80067,   0.00093,  -0.00145,  -0.00085,279421196.06959,   0.00160,276375535.27146,   0.00010,  -0.00195,  -0.00006,-196954339.20188,   0.00000
281954027.45280,234869681.19689,-60919762.52323,   0.00093,  -0.00144,  -0.00085,282086938.01739,   0.00160,276375535.27146,   0.00010,  -0.00195,  -0.00006,-194288597.25408,   0.00000
284433040.17043,239169474.72165,-60625031.81704,   0.00093,  -0.00142,  -0.00084,284785313.20388,   0.00160,276375535.27146,   0.00010,  -0.00195,  -0.00006,-191590222.06758,   0.00000
286876030.24619,243472543.03205,-60317201.96835,   0.00093,  -0.00141,  -0.00084,287480075.62473,   0.00160,276375535.27146,   0.00010,  -0.00195,  -0.00006,-188895459.64673,   0.00000
289332119.46445,247762512.19994,-60015921.69091,   0.00094,  -0.00139,  -0.00084,290205819.36963,   0.00160,276375535.27146,   0.00010,  -0.00195,  -0.00006,-186169715.90183,   0.00000
291765285.18334,252042657.01096,-59708091.84222,   0.00094,  -0.00138,  -0.00083,292934043.06159,   0.00160,276375535.27146,   0.00010,  -0.00195,  -0.00006,-183441492.20987,   0.00000
294198450.90223,256322801.82198,-59400261.99353,   0.00094,  -0.00136,  -0.00083,295684814.27848,   0.00160,276375535.27146,   0.00010,  -0.00195,  -0.00006,-180690720.99299,   0.00000
296631616.62112,260602946.63300,-59085882.57359,   0.00094,  -0.00135,  -0.00082,298453619.47142,   0.00160,276375535.27146,   0.00010,  -0.00195,  -0.00006,-177921915.80005,   0.00000
299064782.34001,264883091.44402,-58771503.15366,   0.00095,  -0.00133,  -0.00082,301243856.08604,   0.00160,276375535.27146,   0.00010,  -0.00195,  -0.00006,-175131679.18543,   0.00000
301465200.20266,269130488.39880,-58450574.16247,   0.00095,  -0.00132,  -0.00082,304020425.32203,   0.00160,276375535.27146,   0.00010,  -0.00195,  -0.00006,-172355109.94943,   0.00000
303875442.42218,273400808.85294,-58129645.17129,   0.00095,  -0.00130,  -0.00081,306831650.88231,   0.00160,276375535.27146,   0.00010,  -0.00195,  -0.00006,-169543884.38915,   0.00000
306275860.28482,277648205.80772,-57808716.18010,   0.00096,  -0.00129,  -0.00081,309648233.79172,   0.00160,276375535.27146,   0.00010,  -0.00195,  -0.00006,-166727301.47974,   0.00000
308676278.14747,281895602.76250,-57481237.61766,   0.00096,  -0.00127,  -0.00080,312480348.33428,   0.00160,276375535.27146,   0.00010,  -0.00195,  -0.00006,-163895186.93718,   0.00000
311053772.51074,286133175.36040,-57153759.05523,   0.00096,  -0.00126,  -0.00080,315314916.10942,   0.00160,276375535.27146,   0.00010,  -0.00195,  -0.00006,-161060619.16204,   0.00000
313421442.51714,290347824.45894,-56819730.92155,   0.00096,  -0.00124,  -0.00079,318149448.04277,   0.00160,276375535.27146,   0.00010,  -0.00195,  -0.00006,-158226087.22869,   0.00000
315766189.02418,294552649.20060,-56485702.78786,   0.00097,  -0.00123,  -0.00079,320985491.31574,   0.00160,276375535.27146,   0.00010,  -0.00195,  -0.00006,-155390043.95572,   0.00000
318133859.03058,298767298.29913,-56151674.65418,   0.00097,  -0.00121,  -0.00079,323855043.08875,   0.00160,276375535.27146,   0.00010,  -0.00195,  -0.00006,-152520492.18272,   0.00000
320478605.53761,302972123.04079,-55811096.94925,   0.00097,  -0.00120,  -0.00078,326721894.07251,   0.00160,276375535.27146,   0.00010,  -0.00195,  -0.00006,-149653641.19895,   0.00000
322800428.54527,307167123.42558,-55470519.24432,   0.00097,  -0.00119,  -0.00078,329589160.65530,   0.00160,276375535.27146,   0.00010,  -0.00195,  -0.00006,-146786374.61617,   0.00000
325135350.69543,311349024.66787,-55123391.96814,   0.00098,  -0.00117,  -0.00077,332470152.24772,   0.00160,276375535.27146,   0.00010,  -0.00195,  -0.00006,-143905383.02374,   0.00000
327457173.70309,315544025.05265,-54776264.69195,   0.00098,  -0.00116,  -0.00077,335366061.57185,   0.00160,276375535.27146,   0.00010,  -0.00195,  -0.00006,-141009473.69961,   0.00000
329769172.35388,319716101.93807,-54429137.41577,   0.00098,  -0.00114,  -0.00076,338261986.55567,   0.00160,276375535.27146,   0.00010,  -0.00195,  -0.00006,-138113548.71579,   0.00000
332048423.14842,323855430.96724,-54082010.13959,   0.00098,  -0.00113,  -0.00076,341141322.27542,   0.00160,276375535.27146,   0.00010,  -0.00195,  -0.00006,-135234212.99604,   0.00000
334337498.29984,328017683.49579,-53728333.29216,   0.00098,  -0.00111,  -0.00075,344047603.03236,   0.00160,276375535.27146,   0.00010,  -0.00195,  -0.00006,-132327932.23911,   0.00000
336616749.09439,332157012.52496,-53368106.87349,   0.00099,  -0.00110,  -0.00075,346949517.20546,   0.00160,276375535.27146,   0.00010,  -0.00195,  -0.00006,-129426018.06600,   0.00000
338873076.38956,336286517.19726,-53007880.45481,   0.00099,  -0.00108,  -0.00075,349849457.75341,   0.00160,276375535.27146,   0.00010,  -0.00195,  -0.00006,-126526077.51805,   0.00000
341129403.68474,340416021.86956,-52647654.03613,   0.00099,  -0.00107,  -0.00074,352763022.27591,   0.00160,276375535.27146,   0.00010,  -0.00195,  -0.00006,-123612512.99556,   0.00000
343375906.62304,344522603.04249,-52287427.61745,   0.00099,  -0.00106,  -0.00074,355674009.93757,   0.00160,276375535.27146,   0.00010,  -0.00195,  -0.00006,-120701525.33389,   0.00000
345622409.56134,348629184.21542,-51920651.62753,   0.00100,  -0.00104,  -0.00073,358594982.65040,   0.00160,276375535.27146,   0.00010,  -0.00195,  -0.00006,-117780552.62106,   0.00000
347845989.00027,352725941.03148,-51553875.63760,   0.00100,  -0.00103,  -0.00073,361512826.90348,   0.00160,276375535.27146,   0.00010,  -0.00195,  -0.00006,-114862708.36799,   0.00000
350046644.93983,356812873.49066,-51187099.64767,   0.00100,  -0.00101,  -0.00072,364427343.37117,   0.00160,276375535.27146,   0.00010,  -0.00195,  -0.00006,-111948191.90029,   0.00000
352260400.02189,360886706.80735,-50813774.08650,   0.00100,  -0.00100,  -0.00072,367350823.84832,   0.00160,276375535.27146,   0.00010,  -0.00195,  -0.00006,-109024711.42315,   0.00000
354451231.60458,364950715.76716,-50440448.52532,   0.00100,  -0.00098,  -0.00071,370270423.32413,   0.00160,276375535.27146,   0.00010,  -0.00195,  -0.00006,-106105111.94733,   0.00000
356609315.33102,368981976.87073,-50060573.39290,   0.00101,  -0.00097,  -0.00071,373167088.47407,   0.00160,276375535.27146,   0.00010,  -0.00195,  -0.00006,-103208446.79740,   0.00000
358777223.41434,373036161.47367,-49680698.26047,   0.00101,  -0.00096,  -0.00070,376091359.77870,   0.00160,276375535.27146,   0.00010,  -0.00195,  -0.00006,-100284175.49276,   0.00000
360935307.14078,377067422.57724,-49300823.12805,   0.00101,  -0.00094,  -0.00070,379010428.10517,   0.00160,276375535.27146,   0.00010,  -0.00195,  -0.00006,-97365107.16629,   0.00000
363093390.86723,381098683.68081,-48920947.99562,   0.00101,  -0.00093,  -0.00069,381940285.04516,   0.00160,276375535.27146,   0.00010,  -0.00195,  -0.00006,-94435250.22630,   0.00000
365218726.73743,385097196.92814,-48534523.29195,   0.00101,  -0.00091,  -0.00069,384846282.77132,   0.00160,276375535.27146,   0.00010,  -0.00195,  -0.00006,-91529252.50014,   0.00000
367321139.10826,389085885.81859,-48148098.58828,   0.00102,  -0.00090,  -0.00068,387747202.67488,   0.00160,276375535.27146,   0.00010,  -0.00195,  -0.00006,-88628332.59658,   0.00000
369446474.97846,393084399.06592,-47755124.31336,   0.00102,  -0.00089,  -0.00068,390671284.78255,   0.00160,276375535.27146,   0.00010,  -0.00195,  -0.00006,-85704250.48891,   0.00000
371525963.84992,397063263.59950,-47362150.03844,   0.00102,  -0.00087,  -0.00067,393574624.64631,   0.00160,276375535.27146,   0.00010,  -0.00195,  -0.00006,-82800910.62515,   0.00000
373618551.86387,401029028.99058,-46969175.76351,   0.00102,  -0.00086,  -0.00067,396486481.15524,   0.00160,276375535.27146,   0.00010,  -0.00195,  -0.00006,-79889054.11622,   0.00000
375688216.37846,404984970.02479,-46576201.48859,   0.00102,  -0.00084,  -0.00066,399392549.32739,   0.00160,276375535.27146,   0.00010,  -0.00195,  -0.00006,-76982985.94407,   0.00000
377725133.03680,408908163.20276,-46176677.64242,   0.00102,  -0.00083,  -0.00066,402273698.35748,   0.00160,276375535.27146,   0.00010,  -0.00195,  -0.00006,-74101836.91398,   0.00000
379784973.19452,412841180.73760,-45777153.79625,   0.00103,  -0.00082,  -0.00065,405179260.38509,   0.00160,276375535.27146,   0.00010,  -0.00195,  -0.00006,-71196274.88637,   0.00000
381798966.35349,416754549.55869,-45377629.95008,   0.00103,  -0.00080,  -0.00065,408063398.18893,   0.00160,276375535.27146,   0.00010,  -0.00195,  -0.00006,-68312137.08253,   0.00000
383835883.01183,420677742.73666,-44971556.53266,   0.00103,  -0.00079,  -0.00064,410969412.68864,   0.00160,276375535.27146,   0.00010,  -0.00195,  -0.00006,-65406122.58282,   0.00000
385840051.81393,424568188.05838,-44565483.11524,   0.00103,  -0.00077,  -0.00064,413852059.40269,   0.00160,276375535.27146,   0.00010,  -0.00195,  -0.00006,-62523475.86877,   0.00000
387821297.11666,428448809.02323,-44159409.69782,   0.00103,  -0.00076,  -0.00063,416728122.37930,   0.00160,276375535.27146,   0.00010,  -0.00195,  -0.00006,-59647412.89216,   0.00000
389792718.06252,432306506.48871,-43746786.70916,   0.00103,  -0.00075,  -0.00062,419593487.13823,   0.00160,276375535.27146,   0.00010,  -0.00195,  -0.00006,-56782048.13323,   0.00000
391764139.00837,436164203.95419,-43340713.29174,   0.00104,  -0.00073,  -0.00062,422469066.18295,   0.00160,276375535.27146,   0.00010,  -0.00195,  -0.00006,-53906469.08852,   0.00000
393712636.45486,440012077.06280,-42921540.73182,   0.00104,  -0.00072,  -0.00061,425333667.97064,   0.00160,276375535.27146,   0.00010,  -0.00195,  -0.00006,-51041867.30082,   0.00000
395651309.54447,443837026.67204,-42508917.74315,   0.00104,  -0.00071,  -0.00061,428191065.32633,   0.00160,276375535.27146,   0.00010,  -0.00195,  -0.00006,-48184469.94513,   0.00000
397567059.13472,447652151.92440,-42089745.18324,   0.00104,  -0.00069,  -0.00060,431039332.34037,   0.00160,276375535.27146,   0.00010,  -0.00195,  -0.00006,-45336202.93109,   0.00000
399482808.72496,451467277.17676,-41677122.19457,   0.00104,  -0.00068,  -0.00060,433897163.43560,   0.00160,276375535.27146,   0.00010,  -0.00195,  -0.00006,-42478371.83586,   0.00000
401365810.45896,455249654.57288,-41251400.06341,   0.00104,  -0.00067,  -0.00059,436726629.88061,   0.00160,276375535.27146,   0.00010,  -0.00195,  -0.00006,-39648905.39086,   0.00000
403248812.19296,459032031.96900,-40832227.50349,   0.00104,  -0.00065,  -0.00059,439565355.39928,   0.00160,276375535.27146,   0.00010,  -0.00195,  -0.00006,-36810179.87219,   0.00000
405099066.07071,462781661.50888,-40406505.37232,   0.00104,  -0.00064,  -0.00058,442377392.86450,   0.00160,276375535.27146,   0.00010,  -0.00195,  -0.00006,-33998142.40696,   0.00000
406949319.94847,466531291.04875,-39980783.24116,   0.00105,  -0.00062,  -0.00058,445196576.79827,   0.00160,276375535.27146,   0.00010,  -0.00195,  -0.00006,-31178958.47319,   0.00000
408776650.32685,470271096.23176,-39555061.10999,   0.00105,  -0.00061,  -0.00057,448008056.75630,   0.00160,276375535.27146,   0.00010,  -0.00195,  -0.00006,-28367478.51517,   0.00000
410594156.34836,473987977.91539,-39122789.40758,   0.00105,  -0.00060,  -0.00056,450807329.66246,   0.00160,276375535.27146,   0.00010,  -0.00195,  -0.00006,-25568205.60900,   0.00000
412411662.36988,477704859.59902,-38697067.27642,   0.00105,  -0.00058,  -0.00056,453615085.64111,   0.00160,276375535.27146,   0.00010,  -0.00195,  -0.00006,-22760449.63035,   0.00000
414196420.53515,481388993.42641,-38264795.57400,   0.00105,  -0.00057,  -0.00055,456395687.48504,   0.00160,276375535.27146,   0.00010,  -0.00195,  -0.00006,-19979847.78642,   0.00000
415958255.20104,485063302.89693,-37825974.30034,   0.00105,  -0.00056,  -0.00055,459166642.67717,   0.00160,276375535.27146,   0.00010,  -0.00195,  -0.00006,-17208892.59429,   0.00000
417720089.86694,488737612.36744,-37393702.59793,   0.00105,  -0.00054,  -0.00054,461945748.80990,   0.00160,276375535.27146,   0.00010,  -0.00195,  -0.00006,-14429786.46156,   0.00000
419449176.67660,492379173.98172,-36954881.32426,   0.00105,  -0.00053,  -0.00054,464697550.46409,   0.00160,276375535.27146,   0.00010,  -0.00195,  -0.00006,-11677984.80737,   0.00000
421178263.48625,496020735.59599,-36516060.05060,   0.00105,  -0.00052,  -0.00053,467455683.06295,   0.00160,276375535.27146,   0.00010,  -0.00195,  -0.00006,-8919852.20852,   0.00000
422897525.93903,499639373.71089,-36077238.77694,   0.00105,  -0.00051,  -0.00053,470202368.85495,   0.00160,276375535.27146,   0.00010,  -0.00195,  -0.00006,-6173166.41651,   0.00000
424593864.89244,503248187.46892,-35631867.93203,   0.00105,  -0.00049,  -0.00052,472939198.43304,   0.00160,276375535.27146,   0.00010,  -0.00195,  -0.00006,-3436336.83842,   0.00000
426267280.34649,506847176.87008,-35193046.65837,   0.00105,  -0.00048,  -0.00051,475669148.63038,   0.00160,276375535.27146,   0.00010,  -0.00195,  -0.00006,-706386.64108,   0.00000
426700184.07263,507777749.44675,-35077151.17263,   0.00105,  -0.00048,  -0.00051,476375535.02155,   0.00160,276375535.27146,   0.00010,  -0.00195,  -0.00006,  -0.24991,   0.00000
426186334.36524,508267219.49551,-34574348.40417,   0.00106,  -0.00047,  -0.00051,476375535.02155,   0.00161,276382169.65090,   0.00011,  -0.00195,  -0.00006,   0.00000,   2.00000
425488539.70287,508922295.05889,-33895087.79161,   0.00106,  -0.00045,  -0.00050,479071231.05907,   0.00161,276391043.79580,   0.00011,  -0.00194,  -0.00006,   0.00000,   2.00000
424789313.84056,509565444.08757,-33226277.89489,   0.00106,  -0.00044,  -0.00050,479087284.47241,   0.00162,276399941.47641,   0.00012,  -0.00193,  -0.00006,  -0.00000,   2.00000
424079436.56496,510203853.90938,-32562641.59906,   0.00106,  -0.00043,  -0.00049,479087587.74668,   0.00163,276408810.83981,   0.00012,  -0.00192,  -0.00007,  -0.00000,   2.00000
423370652.54394,510833468.84523,-31896585.87044,   0.00106,  -0.00041,  -0.00048,479100813.55184,   0.00164,276417694.73038,   0.00013,  -0.00191,  -0.00007,  -0.00000,   2.00000
422656715.16920,511454865.93240,-31237033.53364,   0.00106,  -0.00040,  -0.00048,479083251.80094,   0.00165,276426491.66813,   0.00013,  -0.00190,  -0.00007,  -0.00000,   2.00000
421938687.04747,512069600.15228,-30577448.68098,   0.00106,  -0.00039,  -0.00047,479064285.63477,   0.00166,276435197.44641,   0.00014,  -0.00190,  -0.00008,   0.00000,   2.00000
421219651.21590,512673113.27166,-29928188.05395,   0.00106,  -0.00038,  -0.00047,479079820.09809,   0.00166,276443926.39913,   0.00014,  -0.00189,  -0.00008,   0.00000,   2.00000
420501814.01240,513268226.86935,-29276378.83148,   0.00106,  -0.00036,  -0.00046,479092814.10179,   0.00167,276452670.15758,   0.00015,  -0.00188,  -0.00008,   0.00000,   2.00000
419777777.16459,513854511.49030,-28637174.14686,   0.00106,  -0.00035,  -0.00046,479076115.95846,   0.00168,276461330.84453,   0.00015,  -0.00187,  -0.00008,   0.00000,   2.00000
419049545.45355,514434732.91851,-27997566.17446,   0.00106,  -0.00034,  -0.00045,479056898.79704,   0.00169,276469900.53709,   0.00015,  -0.00186,  -0.00009,   0.00000,   2.00000
418317123.73552,515010088.78547,-27354068.69896,   0.00106,  -0.00033,  -0.00044,479087728.16898,   0.00170,276478544.89874,   0.00016,  -0.00185,  -0.00009,  -0.00000,   2.00000
417583922.98561,515573829.31925,-26724155.77573,   0.00106,  -0.00031,  -0.00044,479052747.58796,   0.00170,276487046.50273,   0.00016,  -0.00184,  -0.00009,   0.00000,   2.00000
416835567.80597,516138208.39236,-26091232.43970,   0.00106,  -0.00030,  -0.00043,479069517.42402,   0.00171,276495576.91513,   0.00017,  -0.00184,  -0.00009,   0.00000,   2.00000
416098406.95904,516687115.31619,-25464320.05808,   0.00106,  -0.00029,  -0.00042,479047189.96675,   0.00172,276504006.92581,   0.00017,  -0.00183,  -0.00009,   0.00000,   2.00000
415356327.07533,517230177.64116,-24839949.75188,   0.00106,  -0.00028,  -0.00042,479078935.69519,   0.00173,276512515.65692,   0.00018,  -0.00182,  -0.00010,   0.00000,   2.00000
414608931.82866,517766671.55576,-24221188.50596,   0.00106,  -0.00026,  -0.00041,479060584.24843,   0.00174,276520937.43480,   0.00018,  -0.00181,  -0.00010,   0.00000,   2.00000
413856182.37472,518296748.65351,-23607920.29884,   0.00106,  -0.00025,  -0.00041,479042112.62025,   0.00174,276529272.26154,   0.00019,  -0.00180,  -0.00010,   0.00000,   2.00000
413104821.81267,518819201.83771,-22991751.34535,   0.00106,  -0.00024,  -0.00040,479054593.62321,   0.00175,276537622.81904,   0.00019,  -0.00179,  -0.00010,   0.00000,   2.00000
412341951.09977,519337348.68693,-22386391.38975,   0.00106,  -0.00023,  -0.00039,479055156.63162,   0.00176,276545949.83039,   0.00019,  -0.00178,  -0.00010,   0.00000,   2.00000
411574409.35002,519850401.18441,-21779814.19797,   0.00106,  -0.00021,  -0.00039,479035626.93878,   0.00177,276554186.99772,   0.00020,  -0.00178,  -0.00011,   0.00000,   2.00000
410812832.82091,520352180.36825,-21177683.23974,   0.00106,  -0.00020,  -0.00038,479030664.84120,   0.00177,276562382.84712,   0.00020,  -0.00177,  -0.00011,  -0.00000,   2.00000
410040460.82755,520850934.91693,-20579704.69396,   0.00106,  -0.00019,  -0.00038,479030113.79104,   0.00178,276570552.25809,   0.00021,  -0.00176,  -0.00011,   0.00000,   2.00000
409269547.78790,521342333.88019,-19978679.21737,   0.00106,  -0.00018,  -0.00037,479042426.04515,   0.00179,276578737.96691,   0.00021,  -0.00175,  -0.00011,   0.00000,   2.00000
408492357.80014,521827188.74558,-19389112.80592,   0.00105,  -0.00016,  -0.00036,479024410.63514,   0.00180,276586839.60694,   0.00021,  -0.00174,  -0.00011,   0.00000,   2.00000
407704976.91509,522310038.15218,-18797061.86417,   0.00105,  -0.00015,  -0.00036,479023007.72099,   0.00180,276594912.59632,   0.00022,  -0.00173,  -0.00011,   0.00000,   2.00000
406923020.99440,522781377.30387,-18215675.59412,   0.00105,  -0.00014,  -0.00035,479018414.12678,   0.00181,276602946.49833,   0.00022,  -0.00173,  -0.00011,   0.00000,   2.00000
406135946.42835,523248268.65127,-17632494.79491,   0.00105,  -0.00013,  -0.00035,478998593.08610,   0.00182,276610891.02139,   0.00022,  -0.00172,  -0.00012,   0.00000,   2.00000
405350343.11517,523708107.98189,-17046099.65595,   0.00105,  -0.00012,  -0.00034,479010655.81801,   0.00183,276618852.23661,   0.00023,  -0.00171,  -0.00012,   0.00000,   2.00000
404541311.12411,524169645.42054,-16470585.05070,   0.00105,  -0.00010,  -0.00033,478997145.29612,   0.00183,276626745.46458,   0.00023,  -0.00170,  -0.00012,   0.00000,   2.00000
403750311.31239,524615858.95842,-15898474.33712,   0.00105,  -0.00009,  -0.00033,479004903.73773,   0.00184,276634641.46073,   0.00024,  -0.00169,  -0.00012,   0.00000,   2.00000
402936831.97594,525065369.28514,-15324093.75113,   0.00105,  -0.00008,  -0.00032,478990022.48245,   0.00185,276642465.22230,   0.00024,  -0.00168,  -0.00012,   0.00000,   2.00000
402128920.65717,525504177.90772,-14760058.65544,   0.00105,  -0.00007,  -0.00031,478984804.06284,   0.00186,276650249.09156,   0.00024,  -0.00168,  -0.00012,   0.00000,   2.00000
401322551.21255,525936175.49504,-14192646.46678,   0.00105,  -0.00006,  -0.00031,478996693.86513,   0.00186,276658050.09740,   0.00025,  -0.00167,  -0.00012,  -0.00000,   2.00000
400497925.29271,526368488.33267,-13629901.22841,   0.00105,  -0.00005,  -0.00030,478964023.04186,   0.00187,276665720.16370,   0.00025,  -0.00166,  -0.00012,   0.00000,   2.00000
399674377.41700,526793365.33072,-13070221.94754,   0.00104,  -0.00003,  -0.00030,478976432.67637,   0.00188,276673409.69414,   0.00025,  -0.00165,  -0.00013,   0.00000,   2.00000
398856905.22640,527208703.37691,-12514178.40952,   0.00104,  -0.00002,  -0.00029,478970260.43459,   0.00189,276681056.79752,   0.00026,  -0.00164,  -0.00013,   0.00000,   2.00000
398015912.84846,527626717.46323,-11961947.08762,   0.00104,  -0.00001,  -0.00028,478956065.95853,   0.00189,276688635.06657,   0.00026,  -0.00164,  -0.00013,  -0.00000,   2.00000
397181356.03601,528035856.78060,-11406721.78832,   0.00104,   0.00000,  -0.00028,478949283.22329,   0.00190,276696169.38123,   0.00026,  -0.00163,  -0.00013,  -0.00000,   2.00000
396352458.23325,528435238.41031,-10861481.80501,   0.00104,   0.00001,  -0.00027,478943318.90884,   0.00191,276703662.60530,   0.00027,  -0.00162,  -0.00013,   0.00000,   2.00000
395495247.63795,528839885.60715,-10312853.74229,   0.00104,   0.00002,  -0.00026,478947295.90219,   0.00191,276711148.23454,   0.00027,  -0.00161,  -0.00013,   0.00000,   2.00000
394648571.26704,529232872.46951,-9774563.82455,   0.00104,   0.00003,  -0.00026,478922609.56921,   0.00192,276718530.59398,   0.00027,  -0.00160,  -0.00013,  -0.00000,   2.00000
393803412.26847,529619370.60247,-9232612.45632,   0.00103,   0.00005,  -0.00025,478934158.99995,   0.00193,276725930.99518,   0.00028,  -0.00160,  -0.00013,   0.00000,   2.00000
392934160.29896,530008535.31447,-8694094.45626,   0.00103,   0.00006,  -0.00024,478920061.73023,   0.00193,276733263.88685,   0.00028,  -0.00159,  -0.00013,   0.00000,   2.00000
392070894.79482,530388806.62103,-8158782.84267,   0.00103,   0.00007,  -0.00024,478913347.11777,   0.00194,276740554.12294,   0.00028,  -0.00158,  -0.00013,  -0.00000,   2.00000
391208886.62166,530762243.48309,-7626271.84116,   0.00103,   0.00008,  -0.00023,478925203.99717,   0.00195,276747863.98233,   0.00028,  -0.00157,  -0.00013,   0.00000,   2.00000
390327428.75137,531136787.03552,-7090828.47473,   0.00103,   0.00009,  -0.00023,478892178.45045,   0.00196,276755043.31324,   0.00029,  -0.00156,  -0.00013,   0.00000,   2.00000
389451655.77873,531502366.08677,-6564961.96405,   0.00103,   0.00010,  -0.00022,478885520.21143,   0.00196,276762180.75534,   0.00029,  -0.00156,  -0.00013,   0.00000,   2.00000
388564223.20275,531865918.93199,-6041987.86778,   0.00102,   0.00011,  -0.00021,478884323.53505,   0.00197,276769294.82600,   0.00029,  -0.00155,  -0.00013,   0.00000,   2.00000
387678276.85990,532223056.26197,-5515180.85594,   0.00102,   0.00012,  -0.00021,478895756.00240,   0.00198,276776427.97098,   0.00030,  -0.00154,  -0.00013,   0.00000,   2.00000
386785003.43861,532576174.74643,-4997985.04966,   0.00102,   0.00014,  -0.00020,478876069.18010,   0.00198,276783475.77868,   0.00030,  -0.00153,  -0.00013,  -0.00000,   2.00000
385880102.32495,532927490.73498,-4477046.46511,   0.00102,   0.00015,  -0.00019,478874691.67840,   0.00199,276790500.04164,   0.00030,  -0.00153,  -0.00013,   0.00000,   2.00000
384967868.80969,533275043.38187,-3959058.08394,   0.00102,   0.00016,  -0.00019,478854762.30219,   0.00199,276797438.53384,   0.00030,  -0.00152,  -0.00014,  -0.00000,   2.00000
384061315.97333,533614231.68888,-3450342.51926,   0.00101,   0.00017,  -0.00018,478847583.98436,   0.00200,276804334.32809,   0.00031,  -0.00151,  -0.00014,  -0.00000,   2.00000
383142925.83384,533951602.56167,-2937741.00997,   0.00101,   0.00018,  -0.00017,478846188.90148,   0.00201,276811207.08544,   0.00031,  -0.00150,  -0.00014,   0.00000,   2.00000
382216945.58401,534285352.21502,-2427878.96793,   0.00101,   0.00019,  -0.00017,478826134.34835,   0.00201,276817994.07955,   0.00031,  -0.00150,  -0.00014,   0.00000,   2.00000
381292292.58970,534612665.91037,-1920525.21869,   0.00101,   0.00020,  -0.00016,478837470.82524,   0.00202,276824801.32539,   0.00031,  -0.00149,  -0.00014,   0.00000,   2.00000
380355556.18378,534937966.19502,-1415721.15842,   0.00100,   0.00021,  -0.00015,478836259.37700,   0.00203,276831586.55861,   0.00032,  -0.00148,  -0.00014,   0.00000,   2.00000
379411005.38780,535259716.43102,-913475.32670,   0.00100,   0.00022,  -0.00015,478816183.25030,   0.00203,276838286.21456,   0.00032,  -0.00147,  -0.00014,  -0.00000,   2.00000
378472109.06264,535573676.80379,-407177.13320,   0.00100,   0.00023,  -0.00014,478808488.63716,   0.00204,276844942.28705,   0.00032,  -0.00147,  -0.00014,   0.00000,   2.00000
377507297.50582,535889849.97469,90156.25361,   0.00100,   0.00024,  -0.00013,478794835.75738,   0.00205,276851534.89923,   0.00032,  -0.00146,  -0.00014,  -0.00000,   2.00000
376548055.64766,536198267.53548,585128.29585,   0.00099,   0.00025,  -0.00013,478787071.46505,   0.00205,276858084.09140,   0.00033,  -0.00145,  -0.00014,   0.00000,   2.00000
375590181.06887,536500446.68521,1077736.34630,   0.00099,   0.00026,  -0.00012,478798156.94114,   0.00206,276864653.79775,   0.00033,  -0.00145,  -0.00014,   0.00000,   2.00000
374610188.51161,536803318.80754,1574668.95282,   0.00099,   0.00027,  -0.00012,478765693.00639,   0.00206,276871096.53897,   0.00033,  -0.00144,  -0.00014,  -0.00000,   2.00000
373631588.89369,537099992.35531,2062742.84462,   0.00098,   0.00028,  -0.00011,478776682.95462,   0.00207,276877559.95950,   0.00033,  -0.00143,  -0.00014,   0.00000,   2.00000
372644447.80804,537393142.54622,2555223.12220,   0.00098,   0.00029,  -0.00010,478756559.87278,   0.00208,276883938.47299,   0.00033,  -0.00142,  -0.00014,   0.00000,   2.00000
371658743.11469,537680225.72019,3038883.91642,   0.00098,   0.00030,  -0.00010,478767422.02736,   0.00208,276890337.52184,   0.00034,  -0.00142,  -0.00014,  -0.00000,   2.00000
370650247.99702,537967789.65878,3527168.90615,   0.00098,   0.00032,  -0.00009,478735153.23412,   0.00209,276896610.55689,   0.00034,  -0.00141,  -0.00014,   0.00000,   2.00000
369647146.08568,538248096.38336,4006873.22935,   0.00097,   0.00033,  -0.00008,478726871.94320,   0.00209,276902839.42818,   0.00034,  -0.00140,  -0.00013,   0.00000,   2.00000
368631105.92775,538526032.11912,4491031.79365,   0.00097,   0.00034,  -0.00008,478725783.55886,   0.00210,276909048.80935,   0.00034,  -0.00140,  -0.00013,  -0.00000,   2.00000
367616409.64888,538797815.69239,4972977.08806,   0.00097,   0.00035,  -0.00007,478736645.99840,   0.00211,276915279.48880,   0.00034,  -0.00139,  -0.00013,   0.00000,   2.00000
366578523.14306,539070295.62931,5446768.16770,   0.00096,   0.00036,  -0.00006,478704185.42126,   0.00211,276921383.73945,   0.00035,  -0.00138,  -0.00013,   0.00000,   2.00000
365545599.09512,539335240.68737,5925218.01503,   0.00096,   0.00037,  -0.00006,478696102.41877,   0.00212,276927445.02756,   0.00035,  -0.00138,  -0.00013,   0.00000,   2.00000
364513993.91669,539594110.21029,6401524.12243,   0.00096,   0.00038,  -0.00005,478706823.88354,   0.00212,276933527.71778,   0.00035,  -0.00137,  -0.00013,   0.00000,   2.00000
363454827.59072,539854394.75513,6876087.03809,   0.00095,   0.00039,  -0.00004,478693791.07368,   0.00213,276939550.66075,   0.00035,  -0.00136,  -0.00013,   0.00000,   2.00000
362400880.89179,540107821.19142,7342358.68406,   0.00095,   0.00040,  -0.00004,478685116.14709,   0.00213,276945528.86059,   0.00035,  -0.00136,  -0.00013,   0.00000,   2.00000
361337108.68814,540357476.47180,7813668.33472,   0.00094,   0.00041,  -0.00003,478665121.96687,   0.00214,276951423.65473,   0.00035,  -0.00135,  -0.00013,   0.00000,   2.00000
360259993.27435,540604666.01279,8283149.65402,   0.00094,   0.00041,  -0.00002,478663996.55117,   0.00215,276957300.00867,   0.00036,  -0.00134,  -0.00013,   0.00000,   2.00000
359173017.60815,540848320.52246,8751236.63001,   0.00094,   0.00042,  -0.00002,478643754.51904,   0.00215,276963092.35309,   0.00036,  -0.00134,  -0.00013,   0.00000,   2.00000
358087316.41825,541085876.31229,9217298.67092,   0.00093,   0.00043,  -0.00001,478654353.22157,   0.00216,276968906.85677,   0.00036,  -0.00133,  -0.00013,  -0.00000,   2.00000
356991547.90575,541319909.82150,9682065.45566,   0.00093,   0.00044,  -0.00000,478634102.05471,   0.00216,276974637.37644,   0.00036,  -0.00132,  -0.00013,   0.00000,   2.00000
355882451.00962,541551785.92195,10138611.55373,   0.00093,   0.00045,   0.00000,478632639.77590,   0.00217,276980348.84264,   0.00036,  -0.00132,  -0.00013,  -0.00000,   2.00000
354777721.68930,541776215.13792,10600209.62750,   0.00092,   0.00046,   0.00001,478624365.09388,   0.00217,276986017.77890,   0.00036,  -0.00131,  -0.00013,  -0.00000,   2.00000
353644238.41766,542001291.48449,11060462.44622,   0.00092,   0.00047,   0.00002,478611852.37142,   0.00218,276991629.77668,   0.00037,  -0.00130,  -0.00013,   0.00000,   2.00000
352515271.88641,542219356.42754,11519308.51338,   0.00091,   0.00048,   0.00002,478603145.88428,   0.00218,276997198.05319,   0.00037,  -0.00130,  -0.00013,   0.00000,   2.00000
351387549.61379,542431369.35642,11976225.09512,   0.00091,   0.00049,   0.00003,478613603.86489,   0.00219,277002788.96066,   0.00037,  -0.00129,  -0.00013,  -0.00000,   2.00000
350233877.68013,542642924.90744,12432485.77521,   0.00090,   0.00050,   0.00003,478582043.25504,   0.00219,277008257.10735,   0.00037,  -0.00129,  -0.00013,   0.00000,   2.00000
349069621.95221,542851289.36842,12881306.12684,   0.00090,   0.00051,   0.00004,478561352.19964,   0.00220,277013640.39754,   0.00037,  -0.00128,  -0.00013,  -0.00000,   2.00000
347906182.91829,543052927.09182,13334791.85702,   0.00090,   0.00052,   0.00005,478572272.48935,   0.00220,277019048.64508,   0.00037,  -0.00127,  -0.00013,   0.00000,   2.00000
346728555.10228,543251520.95186,13786785.55394,   0.00089,   0.00053,   0.00005,478571446.78408,   0.00221,277024441.08327,   0.00037,  -0.00127,  -0.00012,  -0.00000,   2.00000
345555115.01363,543443229.57486,14237586.91818,   0.00089,   0.00054,   0.00006,478562555.67102,   0.00221,277029789.66462,   0.00037,  -0.00126,  -0.00012,   0.00000,   2.00000
344354759.97395,543634028.56329,14688031.83730,   0.00088,   0.00055,   0.00007,478531290.12730,   0.00222,277035016.68834,   0.00038,  -0.00126,  -0.00012,   0.00000,   2.00000
343155927.31200,543819359.07519,15130161.24048,   0.00088,   0.00056,   0.00007,478541029.85105,   0.00222,277040265.21682,   0.00038,  -0.00125,  -0.00012,  -0.00000,   2.00000
341945031.68103,544000001.70691,15578155.93753,   0.00087,   0.00057,   0.00008,478521578.63450,   0.00223,277045433.43119,   0.00038,  -0.00124,  -0.00012,   0.00000,   2.00000
340719531.46391,544177277.01099,16024788.66055,   0.00087,   0.00057,   0.00009,478520900.96216,   0.00223,277050587.08111,   0.00038,  -0.00124,  -0.00012,   0.00000,   2.00000
339495584.11352,544349122.98287,16463136.55852,   0.00086,   0.00058,   0.00009,478530587.83116,   0.00224,277055762.41367,   0.00038,  -0.00123,  -0.00012,   0.00000,   2.00000
338261863.63621,544515419.00342,16908261.74629,   0.00086,   0.00059,   0.00010,478491905.88229,   0.00224,277060790.10773,   0.00038,  -0.00123,  -0.00012,   0.00000,   2.00000
337010672.43489,544678833.92228,17351279.86619,   0.00085,   0.00060,   0.00011,478510699.40237,   0.00225,277065871.88326,   0.00038,  -0.00122,  -0.00012,   0.00000,   2.00000
335750211.02159,544838151.04773,17788186.08273,   0.00085,   0.00061,   0.00011,478470701.23098,   0.00225,277070801.39494,   0.00038,  -0.00121,  -0.00012,  -0.00000,   2.00000
334471751.15018,544993534.68847,18229506.07689,   0.00084,   0.00062,   0.00012,478490346.69342,   0.00226,277075788.45750,   0.00038,  -0.00121,  -0.00012,  -0.00000,   2.00000
333199743.06814,545142247.97126,18664357.64371,   0.00084,   0.00063,   0.00013,478461100.20213,   0.00226,277080660.98196,   0.00038,  -0.00120,  -0.00012,   0.00000,   2.00000
331912086.09684,545286274.21327,19104515.78941,   0.00083,   0.00064,   0.00013,478461413.69085,   0.00227,277085523.27553,   0.00039,  -0.00120,  -0.00012,  -0.00000,   2.00000
330609695.36659,545427277.82173,19536986.61043,   0.00083,   0.00064,   0.00014,478460280.66089,   0.00227,277090370.30168,   0.00039,  -0.00119,  -0.00011,  -0.00000,   2.00000
329293797.49190,545562741.84432,19975724.61621,   0.00082,   0.00065,   0.00015,478441378.81211,   0.00228,277095139.40633,   0.00039,  -0.00119,  -0.00011,   0.00000,   2.00000
327962997.25437,545695001.88358,20406816.68907,   0.00082,   0.00066,   0.00015,478440345.58034,   0.00228,277099893.88646,   0.00039,  -0.00118,  -0.00011,   0.00000,   2.00000
326635330.07235,545820284.03625,20837237.82750,   0.00081,   0.00067,   0.00016,478431195.71512,   0.00228,277104605.00960,   0.00039,  -0.00118,  -0.00011,   0.00000,   2.00000
325294227.26710,545940793.33161,21267558.47453,   0.00080,   0.00068,   0.00017,478411542.33298,   0.00229,277109235.65454,   0.00039,  -0.00117,  -0.00011,   0.00000,   2.00000
323937454.07864,546056961.29486,21696801.22759,   0.00080,   0.00069,   0.00017,478411414.76603,   0.00229,277113855.23822,   0.00039,  -0.00117,  -0.00011,  -0.00000,   2.00000
322581027.44557,546165619.20971,22130902.87732,   0.00079,   0.00070,   0.00018,478422614.87726,   0.00230,277118504.00183,   0.00039,  -0.00116,  -0.00011,   0.00000,   2.00000
321194625.84837,546272259.57843,22559060.52314,   0.00079,   0.00070,   0.00018,478391989.91181,   0.00230,277123033.25999,   0.00039,  -0.00116,  -0.00011,  -0.00000,   2.00000
319810931.36009,546371804.67420,22986697.46742,   0.00078,   0.00071,   0.00019,478382800.46161,   0.00231,277127519.45363,   0.00039,  -0.00115,  -0.00011,   0.00000,   2.00000
318411804.57320,546467751.08575,23406841.28763,   0.00078,   0.00072,   0.00020,478381944.89855,   0.00231,277131992.38911,   0.00039,  -0.00115,  -0.00011,   0.00000,   2.00000
317012942.67791,546556022.40529,23831888.51100,   0.00077,   0.00073,   0.00020,478393207.31520,   0.00231,277136495.33626,   0.00039,  -0.00114,  -0.00011,   0.00000,   2.00000
315584397.43460,546640181.12485,24258802.38015,   0.00076,   0.00074,   0.00021,478344346.64132,   0.00232,277140813.41812,   0.00039,  -0.00113,  -0.00010,   0.00000,   2.00000
314154935.41056,546718105.51557,24682989.93846,   0.00076,   0.00075,   0.00022,478374205.71243,   0.00232,277145228.61727,   0.00039,  -0.00113,  -0.00010,  -0.00000,   2.00000
312711351.24407,546791643.51617,25100911.05023,   0.00075,   0.00075,   0.00022,478354052.82132,   0.00233,277149561.59443,   0.00039,  -0.00113,  -0.00010,  -0.00000,   2.00000
311252257.18262,546858322.21505,25525561.61996,   0.00074,   0.00076,   0.00023,478335988.01589,   0.00233,277153819.97491,   0.00040,  -0.00112,  -0.00010,   0.00000,   2.00000
309793856.93642,546918208.95771,25948657.00013,   0.00074,   0.00077,   0.00024,478346349.46498,   0.00233,277158105.98125,   0.00040,  -0.00112,  -0.00010,   0.00000,   2.00000
308303579.79962,546974882.69528,26366212.44204,   0.00073,   0.00078,   0.00024,478316514.59485,   0.00234,277162275.01445,   0.00040,  -0.00111,  -0.00010,   0.00000,   2.00000
306813947.38548,547024653.32023,26782243.54255,   0.00073,   0.00078,   0.00025,478326912.47088,   0.00234,277166472.16201,   0.00040,  -0.00111,  -0.00010,  -0.00000,   2.00000
305308173.57482,547067083.37725,27205116.51674,   0.00072,   0.00079,   0.00026,478309179.48920,   0.00235,277170595.92114,   0.00040,  -0.00110,  -0.00010,  -0.00000,   2.00000
303803656.65437,547103862.17502,27619995.23694,   0.00071,   0.00080,   0.00026,478318474.11192,   0.00235,277174744.00429,   0.00040,  -0.00110,  -0.00010,   0.00000,   2.00000
302265775.08474,547135532.63573,28035956.35712,   0.00071,   0.00081,   0.00027,478290190.25362,   0.00235,277178780.49867,   0.00040,  -0.00109,  -0.00010,  -0.00000,   2.00000
300728463.83994,547160130.14485,28450406.59502,   0.00070,   0.00082,   0.00027,478300670.18025,   0.00236,277182845.95845,   0.00040,  -0.00109,  -0.00010,   0.00000,   2.00000
299175022.52425,547178229.60236,28865351.82289,   0.00069,   0.00082,   0.00028,478282107.31872,   0.00236,277186834.99722,   0.00040,  -0.00108,  -0.00009,   0.00000,   2.00000
297605021.54142,547191499.72739,29273000.45779,   0.00069,   0.00083,   0.00029,478282032.13133,   0.00237,277190814.89938,   0.00040,  -0.00108,  -0.00009,   0.00000,   2.00000
296035745.60629,547195791.03295,29687000.08502,   0.00068,   0.00084,   0.00029,478274148.06146,   0.00237,277194757.23432,   0.00040,  -0.00107,  -0.00009,  -0.00000,   2.00000
294431197.20792,547194454.84197,30100830.36498,   0.00067,   0.00085,   0.00030,478266171.69651,   0.00237,277198661.79655,   0.00040,  -0.00107,  -0.00009,  -0.00000,   2.00000
292828482.57904,547186763.53355,30508144.68178,   0.00066,   0.00085,   0.00031,478255936.95818,   0.00238,277202520.33992,   0.00040,  -0.00106,  -0.00009,   0.00000,   2.00000
291225595.80710,547170369.73007,30920418.66268,   0.00066,   0.00086,   0.00031,478267763.59901,   0.00238,277206413.51719,   0.00040,  -0.00106,  -0.00009,   0.00000,   2.00000
289588221.36313,547148822.25186,31327579.99447,   0.00065,   0.00087,   0.00032,478239304.25812,   0.00238,277210193.93129,   0.00040,  -0.00106,  -0.00009,   0.00000,   2.00000
287951283.31227,547119847.50925,31733261.89508,   0.00064,   0.00088,   0.00033,478249966.80055,   0.00239,277214005.04944,   0.00040,  -0.00105,  -0.00009,   0.00000,   2.00000
286296959.85402,547083424.38684,32139653.21152,   0.00064,   0.00088,   0.00033,478232035.43552,   0.00239,277217741.91419,   0.00040,  -0.00105,  -0.00009,   0.00000,   2.00000
284624745.68298,547039840.53114,32545254.78866,   0.00063,   0.00089,   0.00034,478233853.86764,   0.00239,277221477.22161,   0.00040,  -0.00104,  -0.00008,   0.00000,   2.00000
282934794.39724,546988463.07093,32951606.79348,   0.00062,   0.00090,   0.00034,478216158.96380,   0.00240,277225139.16126,   0.00040,  -0.00104,  -0.00008,   0.00000,   2.00000
281245210.64297,546929439.90362,33356477.03337,   0.00061,   0.00091,   0.00035,478226961.72204,   0.00240,277228832.83661,   0.00040,  -0.00103,  -0.00008,   0.00000,   2.00000
279537596.42667,546862420.87126,33762139.82998,   0.00061,   0.00091,   0.00036,478209411.88343,   0.00240,277232453.55744,   0.00040,  -0.00103,  -0.00008,   0.00000,   2.00000
277812452.78816,546789306.29261,34160600.11227,   0.00060,   0.00092,   0.00036,478210228.10518,   0.00241,277236069.32077,   0.00040,  -0.00103,  -0.00008,  -0.00000,   2.00000
276068231.33785,546706245.23531,34566324.87886,   0.00059,   0.00093,   0.00037,478194318.37174,   0.00241,277239618.21785,   0.00040,  -0.00102,  -0.00008,   0.00000,   2.00000
274325017.33192,546616939.66407,34964145.34357,   0.00058,   0.00093,   0.00038,478203842.19014,   0.00241,277243194.60148,   0.00040,  -0.00102,  -0.00008,   0.00000,   2.00000
272563131.74341,546519085.94961,35362850.20395,   0.00057,   0.00094,   0.00038,478186668.18479,   0.00242,277246699.29990,   0.00040,  -0.00101,  -0.00008,   0.00000,   2.00000
270782354.92255,546412485.21608,35762461.66427,   0.00057,   0.00095,   0.00039,478169594.22327,   0.00242,277250132.76518,   0.00040,  -0.00101,  -0.00008,  -0.00000,   2.00000
268983308.11847,546298003.19782,36159622.01099,   0.00056,   0.00095,   0.00039,478192012.40334,   0.00242,277253642.22554,   0.00040,  -0.00101,  -0.00008,   0.00000,   2.00000
267183591.83438,546174347.26181,36558699.17529,   0.00055,   0.00096,   0.00040,478163799.07756,   0.00243,277257038.64830,   0.00040,  -0.00100,  -0.00007,   0.00000,   2.00000
265346572.48088,546042040.13635,36956001.02602,   0.00054,   0.00097,   0.00041,478178259.13043,   0.00243,277260481.68529,   0.00040,  -0.00100,  -0.00007,   0.00000,   2.00000
263529010.99575,545903273.90698,37346422.27799,   0.00053,   0.00098,   0.00041,478176425.51187,   0.00243,277263910.21908,   0.00040,  -0.00099,  -0.00007,   0.00000,   2.00000
261671920.56257,545752618.62087,37744951.79143,   0.00053,   0.00098,   0.00042,478153395.67253,   0.00244,277267244.87762,   0.00040,  -0.00099,  -0.00007,   0.00000,   2.00000
259796479.97645,545594541.62098,38136300.09147,   0.00052,   0.00099,   0.00043,478155208.59387,   0.00244,277270579.02333,   0.00040,  -0.00099,  -0.00007,   0.00000,   2.00000
257920339.81157,545427417.00873,38527942.99087,   0.00051,   0.00100,   0.00043,478146902.87797,   0.00244,277273874.57226,   0.00040,  -0.00098,  -0.00007,   0.00000,   2.00000
256044417.02305,545251904.60733,38918093.23208,   0.00050,   0.00100,   0.00044,478158230.92138,   0.00245,277277205.47201,   0.00040,  -0.00098,  -0.00007,   0.00000,   2.00000
254128759.55440,545065239.28869,39310004.24653,   0.00049,   0.00101,   0.00044,478134427.52796,   0.00245,277280439.23717,   0.00040,  -0.00098,  -0.00007,  -0.00000,   2.00000
252213269.08424,544869959.91115,39700405.82550,   0.00048,   0.00102,   0.00045,478145931.01329,   0.00245,277283709.30598,   0.00040,  -0.00097,  -0.00007,   0.00000,   2.00000
250277869.50640,544666041.21722,40085487.11734,   0.00048,   0.00102,   0.00046,478128517.65271,   0.00246,277286906.23552,   0.00040,  -0.00097,  -0.00007,   0.00000,   2.00000
248322276.96378,544450245.04913,40476159.27863,   0.00047,   0.00103,   0.00046,478134211.31630,   0.00246,277290117.68137,   0.00040,  -0.00096,  -0.00006,   0.00000,   2.00000
246347872.47259,544226117.46964,40859636.08706,   0.00046,   0.00103,   0.00047,478136793.34117,   0.00246,277293331.82927,   0.00040,  -0.00096,  -0.00006,   0.00000,   2.00000
244372156.78242,543992394.21683,41243488.14446,   0.00045,   0.00104,   0.00047,478128884.54614,   0.00247,277296508.75657,   0.00040,  -0.00096,  -0.00006,   0.00000,   2.00000
242375173.89399,543747465.41177,41628448.68693,   0.00044,   0.00105,   0.00048,478113640.54267,   0.00247,277299620.57236,   0.00040,  -0.00095,  -0.00006,   0.00000,   2.00000
240358427.39849,543491871.47747,42012585.41666,   0.00043,   0.00105,   0.00049,478118226.87501,   0.00247,277302742.97509,   0.00040,  -0.00095,  -0.00006,  -0.00000,   2.00000
238342577.21644,543229184.04787,42388806.69634,   0.00042,   0.00106,   0.00049,478128403.02952,   0.00247,277305897.27108,   0.00040,  -0.00095,  -0.00006,   0.00000,   2.00000
236304337.57991,542952832.69572,42772526.91906,   0.00041,   0.00107,   0.00050,478115322.80751,   0.00248,277308994.46922,   0.00040,  -0.00094,  -0.00006,   0.00000,   2.00000
234246899.85386,542667354.04138,43149029.45955,   0.00040,   0.00107,   0.00050,478118570.55707,   0.00248,277312097.19347,   0.00040,  -0.00094,  -0.00006,   0.00000,   2.00000
232187611.25543,542371790.82404,43525968.83037,   0.00040,   0.00108,   0.00051,478110999.21096,   0.00248,277315163.87632,   0.00040,  -0.00094,  -0.00006,   0.00000,   2.00000
230085890.63565,542061780.33006,43904765.84168,   0.00039,   0.00108,   0.00052,478089737.03967,   0.00249,277318141.96429,   0.00040,  -0.00093,  -0.00005,   0.00000,   2.00000
227986580.28478,541743230.70608,44279944.15253,   0.00038,   0.00109,   0.00052,478121656.56573,   0.00249,277321236.28344,   0.00040,  -0.00093,  -0.00005,   0.00000,   2.00000
225882817.26947,541413363.32386,44657620.56212,   0.00037,   0.00110,   0.00053,478094670.22910,   0.00249,277324219.51031,   0.00040,  -0.00093,  -0.00005,  -0.00000,   2.00000
223741583.21901,541072241.79033,45026685.77427,   0.00036,   0.00110,   0.00053,478111511.06664,   0.00249,277327261.08906,   0.00039,  -0.00092,  -0.00005,   0.00000,   2.00000
221594802.85227,540717375.48626,45404635.23611,   0.00035,   0.00111,   0.00054,478086609.70020,   0.00250,277330199.42905,   0.00039,  -0.00092,  -0.00005,   0.00000,   2.00000
219451574.49040,540356034.40052,45772534.83289,   0.00034,   0.00111,   0.00055,478116809.53286,   0.00250,277333248.11904,   0.00039,  -0.00092,  -0.00005,   0.00000,   2.00000
217264745.59258,539978580.22122,46142287.86251,   0.00033,   0.00112,   0.00055,478096964.50046,   0.00250,277336212.85787,   0.00039,  -0.00091,  -0.00005,   0.00000,   2.00000
215075326.77284,539590169.20275,46512519.54843,   0.00032,   0.00113,   0.00056,478090049.55052,   0.00251,277339143.94928,   0.00039,  -0.00091,  -0.00005,   0.00000,   2.00000
212866131.48082,539191138.95520,46875454.68266,   0.00031,   0.00113,   0.00056,478094600.76497,   0.00251,277342086.07287,   0.00039,  -0.00091,  -0.00005,   0.00000,   2.00000
210656594.09747,538780084.32999,47243066.27519,   0.00030,   0.00114,   0.00057,478109321.61727,   0.00251,277345078.85608,   0.00039,  -0.00090,  -0.00005,   0.00000,   2.00000
208424134.88894,538356973.73366,47605515.19274,   0.00029,   0.00114,   0.00057,478094568.57233,   0.00251,277348007.10833,   0.00039,  -0.00090,  -0.00004,   0.00000,   2.00000
206167879.33999,537919371.19042,47969134.14211,   0.00028,   0.00115,   0.00058,478081933.54804,   0.00252,277350879.17615,   0.00039,  -0.00090,  -0.00004,   0.00000,   2.00000
203894358.39752,537469606.00317,48329532.80453,   0.00027,   0.00115,   0.00059,478108658.22880,   0.00252,277353849.37451,   0.00039,  -0.00089,  -0.00004,   0.00000,   2.00000
201614378.33570,537006965.50452,48692628.94590,   0.00026,   0.00116,   0.00059,478082717.37084,   0.00252,277356710.83679,   0.00039,  -0.00089,  -0.00004,   0.00000,   2.00000
199317925.44498,536534175.82823,49046135.72637,   0.00025,   0.00117,   0.00060,478107691.11705,   0.00253,277359663.84690,   0.00039,  -0.00089,  -0.00004,   0.00000,   2.00000
197014026.87511,536046063.56663,49408691.78427,   0.00024,   0.00117,   0.00060,478083908.42821,   0.00253,277362516.27931,   0.00039,  -0.00088,  -0.00004,   0.00000,   2.00000
194672613.87994,535543851.90101,49762237.11921,   0.00023,   0.00118,   0.00061,478103619.64393,   0.00253,277365439.82178,   0.00039,  -0.00088,  -0.00004,   0.00000,   2.00000
192327880.94183,535029626.92835,50116278.77377,   0.00022,   0.00118,   0.00062,478097654.91372,   0.00253,277368332.93049,   0.00039,  -0.00088,  -0.00004,  -0.00000,   2.00000
189980352.45727,534505639.86090,50464531.85607,   0.00021,   0.00119,   0.00062,478089588.41887,   0.00254,277371187.27263,   0.00039,  -0.00087,  -0.00004,   0.00000,   2.00000
187611436.58828,533964869.94318,50817946.33404,   0.00020,   0.00119,   0.00063,478099890.19904,   0.00254,277374075.69250,   0.00039,  -0.00087,  -0.00003,   0.00000,   2.00000
185222371.03208,533411658.81350,51163891.09120,   0.00019,   0.00120,   0.00063,478106286.32026,   0.00254,277376982.64799,   0.00039,  -0.00087,  -0.00003,  -0.00000,   2.00000
182829716.18618,532846115.14487,51510346.00947,   0.00018,   0.00120,   0.00064,478100601.91199,   0.00254,277379860.04952,   0.00039,  -0.00086,  -0.00003,   0.00000,   2.00000
180394771.94117,532261167.64232,51856190.76129,   0.00017,   0.00121,   0.00064,478104404.70417,   0.00255,277382745.74444,   0.00039,  -0.00086,  -0.00003,   0.00000,   2.00000
177977623.99829,531668018.49929,52201937.51748,   0.00016,   0.00121,   0.00065,478103940.71184,   0.00255,277385622.62849,   0.00038,  -0.00086,  -0.00003,   0.00000,   2.00000
175518070.72523,531054960.52901,52547017.53389,   0.00015,   0.00122,   0.00065,478108245.67933,   0.00255,277388509.79845,   0.00038,  -0.00085,  -0.00003,   0.00000,   2.00000
173059931.49937,530433269.33447,52883953.03658,   0.00014,   0.00122,   0.00066,478120311.81529,   0.00256,277391438.25349,   0.00038,  -0.00085,  -0.00003,   0.00000,   2.00000
170597919.16043,529798754.51917,53221391.30268,   0.00013,   0.00123,   0.00067,478115126.57447,   0.00256,277394338.77431,   0.00038,  -0.00085,  -0.00003,   0.00000,   2.00000
168110189.69607,529146451.50682,53559895.98574,   0.00012,   0.00123,   0.00067,478105405.19963,   0.00256,277397193.17996,   0.00038,  -0.00085,  -0.00003,   0.00000,   2.00000
165602158.42347,528480468.97195,53890795.85361,   0.00010,   0.00124,   0.00068,478113087.79015,   0.00256,277400071.47687,   0.00038,  -0.00084,  -0.00002,   0.00000,   2.00000
163072777.37151,527795839.22083,54226598.75998,   0.00009,   0.00124,   0.00068,478125460.06585,   0.00257,277402992.52397,   0.00038,  -0.00084,  -0.00002,  -0.00000,   2.00000
160539788.32597,527100213.87921,54556608.39851,   0.00008,   0.00125,   0.00069,478118578.22742,   0.00257,277405878.58170,   0.00038,  -0.00084,  -0.00002,   0.00000,   2.00000
157986005.23214,526388040.37554,54885210.42430,   0.00007,   0.00125,   0.00069,478129067.13675,   0.00257,277408799.84419,   0.00038,  -0.00083,  -0.00002,  -0.00000,   2.00000
155433456.47805,525664587.49159,55211857.39558,   0.00006,   0.00126,   0.00070,478143894.68953,   0.00257,277411773.78098,   0.00038,  -0.00083,  -0.00002,   0.00000,   2.00000
152855159.01351,524924457.13538,55533229.93188,   0.00005,   0.00126,   0.00070,478133204.23898,   0.00258,277414696.93591,   0.00038,  -0.00083,  -0.00002,   0.00000,   2.00000
150277716.35712,524170546.34708,55858878.11952,   0.00004,   0.00127,   0.00071,478150464.70053,   0.00258,277417682.74637,   0.00038,  -0.00082,  -0.00002,   0.00000,   2.00000
147674324.93006,523399562.40667,56179226.21211,   0.00003,   0.00127,   0.00071,478140147.03377,   0.00258,277420619.05339,   0.00038,  -0.00082,  -0.00002,   0.00000,   2.00000
145050260.05996,522611253.61927,56498042.77853,   0.00002,   0.00128,   0.00072,478151604.47544,   0.00259,277423594.53492,   0.00038,  -0.00082,  -0.00001,   0.00000,   2.00000
142422204.00582,521811307.47864,56811061.11807,   0.00000,   0.00128,   0.00073,478145396.85625,   0.00259,277426537.08844,   0.00037,  -0.00081,  -0.00001,   0.00000,   2.00000
139773520.30045,520993760.52985,57122509.49446,  -0.00001,   0.00129,   0.00073,478157191.86830,   0.00259,277429520.24065,   0.00037,  -0.00081,  -0.00001,   0.00000,   2.00000
137103842.47822,520155923.82415,57438580.28897,  -0.00002,   0.00129,   0.00074,478171644.00668,   0.00259,277432554.80161,   0.00037,  -0.00081,  -0.00001,  -0.00000,   2.00000
134430061.16552,519306116.93012,57748825.14930,  -0.00003,   0.00130,   0.00074,478165843.10228,   0.00260,277435557.72673,   0.00037,  -0.00080,  -0.00001,   0.00000,   2.00000
131758545.66701,518447185.25047,58050760.95732,  -0.00004,   0.00130,   0.00075,478179113.80017,   0.00260,277438607.21545,   0.00037,  -0.00080,  -0.00001,   0.00000,   2.00000
129059652.13974,517564736.05552,58359765.48545,  -0.00005,   0.00131,   0.00075,478174980.34177,   0.00260,277441631.72693,   0.00037,  -0.00080,  -0.00001,   0.00000,   2.00000
126340752.67101,516666424.10089,58660828.81691,  -0.00006,   0.00131,   0.00076,478185424.83531,   0.00261,277444691.23700,   0.00037,  -0.00079,  -0.00001,   0.00000,   2.00000
123617162.25292,515753268.75801,58962286.14640,  -0.00008,   0.00132,   0.00076,478182411.71619,   0.00261,277447730.22220,   0.00037,  -0.00079,  -0.00000,   0.00000,   2.00000
120880538.82820,514827143.81100,59253231.98972,  -0.00009,   0.00132,   0.00077,478212199.44228,   0.00261,277450883.99585,   0.00037,  -0.00079,  -0.00000,   0.00000,   2.00000
118131876.01356,513880324.27725,59553317.50605,  -0.00010,   0.00132,   0.00077,478192890.84432,   0.00261,277453949.54317,   0.00037,  -0.00078,  -0.00000,   0.00000,   2.00000
115370481.96602,512920411.25824,59842824.70843,  -0.00011,   0.00133,   0.00078,478223002.98748,   0.00262,277457131.42080,   0.00036,  -0.00078,  -0.00000,   0.00000,   2.00000
112581827.88968,511938119.47577,60133035.40854,  -0.00012,   0.00133,   0.00078,478217989.31819,   0.00262,277460283.92812,   0.00036,  -0.00078,   0.00000,   0.00000,   2.00000
109788707.93262,510942985.74867,60417384.70735,  -0.00013,   0.00134,   0.00079,478213200.11488,   0.00262,277463407.98781,   0.00036,  -0.00077,   0.00000,   0.00000,   2.00000
106997874.38914,509933371.84554,60705723.78423,  -0.00015,   0.00134,   0.00079,478232259.89174,   0.00263,277466602.68389,   0.00036,  -0.00077,   0.00000,   0.00000,   2.00000
104187461.42127,508906955.16963,60985938.19394,  -0.00016,   0.00135,   0.00080,478244173.49666,   0.00263,277469838.15825,   0.00036,  -0.00077,   0.00000,   0.00000,   2.00000
101357278.87318,507860996.11279,61264196.37538,  -0.00017,   0.00135,   0.00080,478258877.73257,   0.00263,277473125.95998,   0.00036,  -0.00076,   0.00001,  -0.00000,   2.00000
98522597.63232,506801924.10137,61536572.56236,  -0.00018,   0.00135,   0.00081,478254561.30002,   0.00264,277476386.59698,   0.00036,  -0.00076,   0.00001,  -0.00000,   2.00000
95682809.84851,505724529.07606,61815457.57862,  -0.00019,   0.00136,   0.00081,478255323.78406,   0.00264,277479641.28888,   0.00036,  -0.00076,   0.00001,   0.00000,   2.00000
92831686.97125,504633747.12988,62083529.35415,  -0.00021,   0.00136,   0.00082,478286719.85677,   0.00264,277483018.18052,   0.00036,  -0.00075,   0.00001,   0.00000,   2.00000
89944925.49234,503515000.22692,62354724.74586,  -0.00022,   0.00137,   0.00082,478264878.76669,   0.00265,277486294.03371,   0.00035,  -0.00075,   0.00001,   0.00000,   2.00000
87069936.80432,502390818.86351,62614808.24867,  -0.00023,   0.00137,   0.00083,478298351.92493,   0.00265,277489700.99887,   0.00035,  -0.00075,   0.00001,  -0.00000,   2.00000
84167376.36891,501242263.31870,62875380.75662,  -0.00024,   0.00137,   0.00083,478295662.10604,   0.00265,277493086.93299,   0.00035,  -0.00074,   0.00001,   0.00000,   2.00000
81268429.54006,500081676.15237,63133601.70148,  -0.00025,   0.00138,   0.00084,478313259.74848,   0.00265,277496537.15185,   0.00035,  -0.00074,   0.00002,   0.00000,   2.00000
78364676.56997,498904853.66960,63392077.73286,  -0.00027,   0.00138,   0.00084,478312318.92773,   0.00266,277499973.41347,   0.00035,  -0.00073,   0.00002,   0.00000,   2.00000
75442082.09480,497710104.02187,63642186.42627,  -0.00028,   0.00139,   0.00085,478326182.68494,   0.00266,277503458.15353,   0.00035,  -0.00073,   0.00002,  -0.00000,   2.00000
72500628.19840,496494662.73840,63890067.54394,  -0.00029,   0.00139,   0.00085,478342961.71791,   0.00266,277507003.57535,   0.00035,  -0.00073,   0.00002,  -0.00000,   2.00000
69554418.32713,495262647.59564,64138160.62702,  -0.00030,   0.00139,   0.00086,478342550.23021,   0.00267,277510536.83186,   0.00034,  -0.00072,   0.00002,  -0.00000,   2.00000
66612405.77858,494018698.03086,64383842.35964,  -0.00032,   0.00140,   0.00086,478360594.81167,   0.00267,277514136.02453,   0.00034,  -0.00072,   0.00002,   0.00000,   2.00000
63642871.21173,492751682.23755,64623676.71668,  -0.00033,   0.00140,   0.00087,478356914.27678,   0.00267,277517708.91680,   0.00034,  -0.00072,   0.00003,  -0.00000,   2.00000
60677754.82473,491472716.81209,64861077.39397,  -0.00034,   0.00141,   0.00087,478375169.11354,   0.00268,277521348.60086,   0.00034,  -0.00071,   0.00003,   0.00000,   2.00000
57694337.50885,490172634.38668,65096117.25036,  -0.00035,   0.00141,   0.00088,478392940.71203,   0.00268,277525052.87102,   0.00034,  -0.00071,   0.00003,   0.00000,   2.00000
54715729.23241,488863340.47293,65322545.56086,  -0.00037,   0.00141,   0.00088,478408741.69884,   0.00269,277528813.15211,   0.00034,  -0.00070,   0.00003,  -0.00000,   2.00000
51709590.17288,487527671.96869,65549195.68330,  -0.00038,   0.00142,   0.00088,478408723.63604,   0.00269,277532561.92620,   0.00034,  -0.00070,   0.00003,  -0.00000,   2.00000
48698790.75984,486174901.61615,65775988.28297,  -0.00039,   0.00142,   0.00089,478409260.97306,   0.00269,277536301.53137,   0.00033,  -0.00070,   0.00003,   0.00000,   2.00000
45702806.49970,484818303.46991,65991520.51059,  -0.00041,   0.00142,   0.00089,478443401.76025,   0.00270,277540175.40757,   0.00033,  -0.00069,   0.00004,   0.00000,   2.00000
42679358.34278,483434886.10010,66207210.72368,  -0.00042,   0.00143,   0.00090,478444059.35303,   0.00270,277544040.10869,   0.00033,  -0.00069,   0.00004,   0.00000,   2.00000
39628447.96981,482024282.18556,66423002.85653,  -0.00043,   0.00143,   0.00090,478445113.04016,   0.00270,277547897.32933,   0.00033,  -0.00068,   0.00004,   0.00000,   2.00000
36615981.35923,480617555.13811,66633667.29756,  -0.00044,   0.00143,   0.00091,478482026.48652,   0.00271,277551900.64594,   0.00033,  -0.00068,   0.00004,   0.00000,   2.00000
33576101.30550,479186194.15556,66838274.15001,  -0.00046,   0.00144,   0.00091,478480648.64959,   0.00271,277555885.44489,   0.00033,  -0.00068,   0.00004,   0.00000,   2.00000
30508863.86386,477727213.86157,67042915.89571,  -0.00047,   0.00144,   0.00092,478482396.58736,   0.00271,277559865.17067,   0.00032,  -0.00067,   0.00004,   0.00000,   2.00000
27447535.31186,476256575.71092,67244999.11791,  -0.00048,   0.00144,   0.00092,478501819.11525,   0.00272,277563915.76663,   0.00032,  -0.00067,   0.00005,   0.00000,   2.00000
24392165.81606,474777072.15177,67438400.68317,  -0.00050,   0.00145,   0.00092,478518472.89685,   0.00272,277568025.08619,   0.00032,  -0.00066,   0.00005,   0.00000,   2.00000
21320150.79481,473275679.20201,67629149.78272,  -0.00051,   0.00145,   0.00093,478538701.56801,   0.00273,277572208.36952,   0.00032,  -0.00066,   0.00005,   0.00000,   2.00000
18243723.44644,471759322.69015,67813833.24610,  -0.00052,   0.00146,   0.00093,478537821.63893,   0.00273,277576374.32395,   0.00032,  -0.00066,   0.00005,   0.00000,   2.00000
15151093.98665,470218282.55672,68001933.56555,  -0.00053,   0.00146,   0.00094,478561306.17114,   0.00273,277580628.17945,   0.00031,  -0.00065,   0.00005,  -0.00000,   2.00000
12076916.75288,468672973.71447,68184102.60233,  -0.00055,   0.00146,   0.00094,478559615.81966,   0.00274,277584860.79837,   0.00031,  -0.00065,   0.00006,   0.00000,   2.00000
8974637.15763,467103804.64459,68354615.78644,  -0.00056,   0.00146,   0.00095,478596598.46491,   0.00274,277589239.57923,   0.00031,  -0.00064,   0.00006,   0.00000,   2.00000
5880212.18847,465518640.52891,68534082.14903,  -0.00057,   0.00147,   0.00095,478583058.86333,   0.00275,277593545.22366,   0.00031,  -0.00064,   0.00006,  -0.00000,   2.00000
2780970.11048,463920635.11681,68702020.70857,  -0.00059,   0.00147,   0.00095,478619153.45913,   0.00275,277597993.09709,   0.00031,  -0.00063,   0.00006,   0.00000,   2.00000
-322523.94464,462307442.82503,68863865.44301,  -0.00060,   0.00147,   0.00096,478619009.62331,   0.00276,277602425.48009,   0.00030,  -0.00063,   0.00006,   0.00000,   2.00000
-3441161.18663,460669419.62002,69028992.59426,  -0.00061,   0.00148,   0.00096,478643696.55567,   0.00276,277606950.26953,   0.00030,  -0.00063,   0.00007,   0.00000,   2.00000
-6563973.17001,459016034.13607,69187988.25117,  -0.00063,   0.00148,   0.00097,478643912.58439,   0.00276,277611460.73476,   0.00030,  -0.00062,   0.00007,   0.00000,   2.00000
-9667877.82161,457361620.42151,69335681.56240,  -0.00064,   0.00148,   0.00097,478678746.49426,   0.00277,277616107.53393,   0.00030,  -0.00062,   0.00007,   0.00000,   2.00000
-12797961.05703,455675166.88746,69489195.05187,  -0.00065,   0.00149,   0.00097,478686773.19889,   0.00277,277620773.47252,   0.00029,  -0.00061,   0.00007,  -0.00000,   2.00000
-15932109.21891,453973250.44369,69636561.26557,  -0.00067,   0.00149,   0.00098,478687379.04254,   0.00278,277625426.06711,   0.00029,  -0.00061,   0.00007,   0.00000,   2.00000
-19058518.98890,452263324.51689,69775210.28771,  -0.00068,   0.00149,   0.00098,478705168.85664,   0.00278,277630140.29633,   0.00029,  -0.00060,   0.00008,   0.00000,   2.00000
-22176360.03791,450540432.93405,69917373.36768,  -0.00069,   0.00150,   0.00099,478728682.54282,   0.00279,277634940.93421,   0.00029,  -0.00060,   0.00008,   0.00000,   2.00000
-25308756.63638,448797880.58441,70050468.34863,  -0.00071,   0.00150,   0.00099,478748955.47627,   0.00279,277639813.52663,   0.00028,  -0.00059,   0.00008,  -0.00000,   2.00000
-28445074.93066,447039839.27597,70177423.44017,  -0.00072,   0.00150,   0.00099,478749985.59496,   0.00280,277644673.57545,   0.00028,  -0.00059,   0.00008,   0.00000,   2.00000
-31595223.27421,445259450.55853,70301378.11204,  -0.00073,   0.00150,   0.00100,478773597.68688,   0.00280,277649620.00836,   0.00028,  -0.00058,   0.00008,  -0.00000,   2.00000
-34714017.06305,443481236.45016,70423148.36761,  -0.00075,   0.00151,   0.00100,478791891.84981,   0.00280,277654629.15302,   0.00028,  -0.00058,   0.00009,  -0.00000,   2.00000
-37858673.64154,441672689.56120,70544445.87527,  -0.00076,   0.00151,   0.00101,478798939.25230,   0.00281,277659651.44247,   0.00027,  -0.00057,   0.00009,   0.00000,   2.00000
-41017050.52496,439844336.51223,70656579.60022,  -0.00077,   0.00151,   0.00101,478820258.58146,   0.00281,277664749.47593,   0.00027,  -0.00057,   0.00009,  -0.00000,   2.00000
-44143719.37613,438018690.36909,70766581.09483,  -0.00079,   0.00152,   0.00101,478838472.18641,   0.00282,277669909.26970,   0.00027,  -0.00056,   0.00009,  -0.00000,   2.00000
-47283807.31276,436173437.08343,70867429.78350,  -0.00080,   0.00152,   0.00102,478859976.58671,   0.00282,277675145.06986,   0.00026,  -0.00056,   0.00010,  -0.00000,   2.00000
-50427000.51810,434310080.48095,70968221.33682,  -0.00082,   0.00152,   0.00102,478864781.20494,   0.00283,277680383.06088,   0.00026,  -0.00055,   0.00010,  -0.00000,   2.00000
-53573289.86516,432428554.90890,71068938.91089,  -0.00083,   0.00152,   0.00102,478869694.08397,   0.00283,277685623.64744,   0.00026,  -0.00055,   0.00010,   0.00000,   2.00000
-56719630.06180,430536155.07323,71157939.93126,  -0.00084,   0.00153,   0.00103,478908259.42563,   0.00284,277691015.14404,   0.00026,  -0.00054,   0.00010,   0.00000,   2.00000
-59846712.69294,428638562.47622,71247430.81995,  -0.00086,   0.00153,   0.00103,478909772.53001,   0.00284,277696393.49151,   0.00025,  -0.00054,   0.00011,   0.00000,   2.00000
-62986431.73201,426721430.31626,71327713.46608,  -0.00087,   0.00153,   0.00104,478932094.91335,   0.00285,277701850.56957,   0.00025,  -0.00053,   0.00011,   0.00000,   2.00000
-66137927.08234,424782246.13055,71404857.99231,  -0.00088,   0.00153,   0.00104,478957677.45529,   0.00286,277707400.48865,   0.00025,  -0.00053,   0.00011,   0.00000,   2.00000
-69270076.44683,422838062.50335,71482526.00475,  -0.00090,   0.00154,   0.00104,478959298.43314,   0.00286,277712936.89708,   0.00024,  -0.00052,   0.00011,   0.00000,   2.00000
-72414318.42835,420874375.00170,71550943.97489,  -0.00091,   0.00154,   0.00105,478982203.80398,   0.00287,277718553.97013,   0.00024,  -0.00052,   0.00012,   0.00000,   2.00000
-75547813.44273,418902061.32490,71616832.65659,  -0.00092,   0.00154,   0.00105,479004091.42999,   0.00287,277724246.85928,   0.00024,  -0.00051,   0.00012,   0.00000,   2.00000
-78670434.79399,416921324.81839,71680209.06472,  -0.00094,   0.00154,   0.00105,479025968.51121,   0.00288,277730015.18852,   0.00023,  -0.00051,   0.00012,   0.00000,   2.00000
-81796252.50393,414925000.81593,71737431.57639,  -0.00095,   0.00155,   0.00106,479028961.56687,   0.00288,277735774.91145,   0.00023,  -0.00050,   0.00012,   0.00000,   2.00000
-84910990.27795,412920495.26826,71792167.53289,  -0.00097,   0.00155,   0.00106,479050864.18171,   0.00289,277741609.86779,   0.00023,  -0.00049,   0.00013,   0.00000,   2.00000
-88036962.53725,410896766.82312,71837634.24061,  -0.00098,   0.00155,   0.00106,479074529.82627,   0.00289,277747527.57689,   0.00022,  -0.00049,   0.00013,  -0.00000,   2.00000
-91165219.56348,408854983.92509,71883030.76062,  -0.00099,   0.00155,   0.00107,479080909.17665,   0.00290,277753450.90496,   0.00022,  -0.00048,   0.00013,  -0.00000,   2.00000
-94281937.96526,406805338.71393,71925954.55325,  -0.00101,   0.00156,   0.00107,479103069.05598,   0.00290,277759449.88707,   0.00021,  -0.00048,   0.00013,  -0.00000,   2.00000
-97387769.75020,404750408.13965,71960343.97865,  -0.00102,   0.00156,   0.00107,479122255.37293,   0.00291,277765510.95376,   0.00021,  -0.00047,   0.00014,   0.00000,   2.00000
-100481843.73741,402688007.37421,71992316.46737,  -0.00104,   0.00156,   0.00108,479144371.55387,   0.00292,277771646.84272,   0.00021,  -0.00047,   0.00014,   0.00000,   2.00000
-103600279.59374,400596103.47639,72017360.28998,  -0.00105,   0.00156,   0.00108,479153335.73365,   0.00292,277777798.69526,   0.00020,  -0.00046,   0.00014,   0.00000,   2.00000
-106685241.57841,398510911.47454,72040804.38002,  -0.00106,   0.00157,   0.00108,479170332.32935,   0.00293,277784002.12268,   0.00020,  -0.00045,   0.00014,  -0.00000,   2.00000
-109779450.72426,396404575.95570,72061044.94005,  -0.00108,   0.00157,   0.00108,479197959.33578,   0.00293,277790304.26171,   0.00019,  -0.00045,   0.00015,  -0.00000,   2.00000
-112876379.44985,394282681.24742,72075145.11024,  -0.00109,   0.00157,   0.00109,479202100.51135,   0.00294,277796599.96314,   0.00019,  -0.00044,   0.00015,   0.00000,   2.00000
-115947517.08846,392167257.06890,72078491.49848,  -0.00111,   0.00157,   0.00109,479236713.88761,   0.00295,277803025.09145,   0.00019,  -0.00044,   0.00015,   0.00000,   2.00000
-119019575.53105,390031805.39768,72087911.66568,  -0.00112,   0.00158,   0.00109,479246860.26590,   0.00295,277809469.90235,   0.00018,  -0.00043,   0.00016,  -0.00000,   2.00000
-122095185.21279,387883145.14701,72085127.20311,  -0.00113,   0.00158,   0.00110,479248255.89381,   0.00296,277815895.17364,   0.00018,  -0.00043,   0.00016,   0.00000,   2.00000
-125163748.77066,385722731.74090,72082939.21739,  -0.00115,   0.00158,   0.00110,479294627.53204,   0.00296,277822501.83242,   0.00017,  -0.00042,   0.00016,  -0.00000,   2.00000
-128213839.60420,383561341.61565,72075565.58689,  -0.00116,   0.00158,   0.00110,479293171.48856,   0.00297,277829075.34424,   0.00017,  -0.00041,   0.00016,  -0.00000,   2.00000
-131272842.86121,381381601.43148,72058909.51464,  -0.00118,   0.00158,   0.00110,479318824.64532,   0.00298,277835736.98447,   0.00017,  -0.00041,   0.00017,   0.00000,   2.00000
-134317744.72782,379193657.58452,72046091.33114,  -0.00119,   0.00159,   0.00111,479344357.06586,   0.00298,277842485.79551,   0.00016,  -0.00040,   0.00017,   0.00000,   2.00000
-137345285.75502,377007191.22007,72022068.95376,  -0.00120,   0.00159,   0.00111,479339842.47604,   0.00299,277849186.88822,   0.00016,  -0.00039,   0.00017,   0.00000,   2.00000
-140365610.89568,374812362.82932,71992665.01303,  -0.00122,   0.00159,   0.00111,479383383.88221,   0.00300,277856055.50065,   0.00015,  -0.00039,   0.00018,   0.00000,   2.00000
-143387287.50802,372600061.53571,71963298.83255,  -0.00123,   0.00159,   0.00112,479391342.43657,   0.00300,277862931.56180,   0.00015,  -0.00038,   0.00018,   0.00000,   2.00000
-146410263.23541,370370237.06162,71933949.00341,  -0.00125,   0.00159,   0.00112,479399437.08624,   0.00301,277869815.57969,   0.00014,  -0.00038,   0.00018,   0.00000,   2.00000
-149406847.89603,368151797.70981,71888093.58577,  -0.00126,   0.00160,   0.00112,479430528.52846,   0.00302,277876810.48201,   0.00014,  -0.00037,   0.00019,   0.00000,   2.00000
-152403625.41428,365913813.06788,71848396.12473,  -0.00127,   0.00160,   0.00112,479441658.02439,   0.00302,277883826.27066,   0.00013,  -0.00036,   0.00019,   0.00000,   2.00000
-155387698.84775,363673085.87461,71800507.82972,  -0.00129,   0.00160,   0.00113,479461265.68971,   0.00303,277890900.79588,   0.00013,  -0.00036,   0.00019,   0.00000,   2.00000
-158379224.48934,361414785.78958,71743389.50565,  -0.00130,   0.00160,   0.00113,479488050.82030,   0.00304,277898065.95422,   0.00012,  -0.00035,   0.00019,   0.00000,   2.00000
-161336528.97402,359166914.91629,71685320.73987,  -0.00132,   0.00160,   0.00113,479503470.18488,   0.00304,277905270.27383,   0.00012,  -0.00034,   0.00020,   0.00000,   2.00000
-164294929.04634,356901837.15392,71627354.20346,  -0.00133,   0.00161,   0.00113,479511923.48533,   0.00305,277912482.25638,   0.00011,  -0.00034,   0.00020,   0.00000,   2.00000
-167240360.31014,354634572.65300,71561295.85054,  -0.00134,   0.00161,   0.00113,479531511.56203,   0.00306,277919751.77616,   0.00011,  -0.00033,   0.00020,   0.00000,   2.00000
-170191537.82578,352348044.60446,71492139.31532,  -0.00136,   0.00161,   0.00114,479561630.14125,   0.00306,277927125.82241,   0.00010,  -0.00033,   0.00021,   0.00000,   2.00000
-173109636.94094,350074803.61493,71416084.28283,  -0.00137,   0.00161,   0.00114,479573676.27725,   0.00307,277934522.67720,   0.00010,  -0.00032,   0.00021,   0.00000,   2.00000
-176028693.75128,347784513.45780,71340178.93052,  -0.00139,   0.00161,   0.00114,479582401.52528,   0.00308,277941927.25192,   0.00009,  -0.00031,   0.00021,   0.00000,   2.00000
-178938914.76413,345490719.71221,71253077.59518,  -0.00140,   0.00162,   0.00114,479623531.16234,   0.00309,277949485.06193,   0.00009,  -0.00031,   0.00022,   0.00000,   2.00000
-181830282.24142,343195272.65932,71167333.95889,  -0.00141,   0.00162,   0.00115,479624554.04496,   0.00309,277957015.09206,   0.00008,  -0.00030,   0.00022,   0.00000,   2.00000
-184723696.14926,340884869.62233,71075664.11753,  -0.00143,   0.00162,   0.00115,479630589.81753,   0.00310,277964539.92290,   0.00008,  -0.00029,   0.00022,   0.00000,   2.00000
-187606523.23388,338569555.02192,70978976.14924,  -0.00144,   0.00162,   0.00115,479674717.32970,   0.00311,277972230.78724,   0.00007,  -0.00029,   0.00023,   0.00000,   2.00000
-190455203.26132,336266645.63746,70881735.62897,  -0.00146,   0.00162,   0.00115,479688992.65260,   0.00312,277979952.61286,   0.00007,  -0.00028,   0.00023,  -0.00000,   2.00000
-193307140.22888,333950903.51221,70772519.27203,  -0.00147,   0.00162,   0.00115,479692266.94015,   0.00312,277987655.70589,   0.00006,  -0.00027,   0.00023,   0.00000,   2.00000
-196143045.24572,331630464.90411,70667699.19777,  -0.00148,   0.00163,   0.00116,479717568.67549,   0.00313,277995439.16553,   0.00005,  -0.00027,   0.00024,  -0.00000,   2.00000
-198984463.95307,329293884.54315,70553816.09696,  -0.00150,   0.00163,   0.00116,479745664.23482,   0.00314,278003315.14392,   0.00005,  -0.00026,   0.00024,   0.00000,   2.00000
-201808641.88340,326958037.19909,70435345.29277,  -0.00151,   0.00163,   0.00116,479743601.82941,   0.00314,278011147.43011,   0.00004,  -0.00025,   0.00024,  -0.00000,   2.00000
-204602263.96268,324634226.49685,70313344.04575,  -0.00153,   0.00163,   0.00116,479778931.13750,   0.00315,278019104.41485,   0.00004,  -0.00025,   0.00025,   0.00000,   2.00000
-207397814.75547,322295749.11838,70185536.40344,  -0.00154,   0.00163,   0.00116,479785457.04367,   0.00316,278027055.82212,   0.00003,  -0.00024,   0.00025,   0.00000,   2.00000
-210178292.51415,319955259.76511,70056162.45316,  -0.00156,   0.00163,   0.00116,479807786.63297,   0.00317,278035072.73720,   0.00003,  -0.00023,   0.00025,   0.00000,   2.00000
-212925002.86904,317628584.53420,69926572.50443,  -0.00157,   0.00164,   0.00117,479820970.52912,   0.00318,278043113.59946,   0.00002,  -0.00022,   0.00026,   0.00000,   2.00000
-215692315.39867,315271650.13248,69789874.08380,  -0.00158,   0.00164,   0.00117,479836722.29387,   0.00318,278051189.80065,   0.00001,  -0.00022,   0.00026,  -0.00000,   2.00000
-218430019.55431,312929817.27978,69643748.77906,  -0.00160,   0.00164,   0.00117,479868725.50531,   0.00319,278059374.26726,   0.00001,  -0.00021,   0.00026,   0.00000,   2.00000
-221168208.97910,310571625.16556,69498001.60721,  -0.00161,   0.00164,   0.00117,479878456.89591,   0.00320,278067566.14602,   0.00000,  -0.00020,   0.00027,   0.00000,   2.00000
-223874136.36887,308229661.33323,69346078.66736,  -0.00163,   0.00164,   0.00117,479888373.18455,   0.00321,278075766.14420,  -0.00001,  -0.00020,   0.00027,  -0.00000,   2.00000
-226564889.74296,305886582.84900,69192792.45385,  -0.00164,   0.00164,   0.00117,479910365.18487,   0.00321,278084028.52531,  -0.00001,  -0.00019,   0.00027,   0.00000,   2.00000
-229259939.85175,303528539.90581,69030664.37449,  -0.00165,   0.00165,   0.00118,479939161.64352,   0.00322,278092383.57479,  -0.00002,  -0.00018,   0.00028,   0.00000,   2.00000
-231921535.64702,301185456.17042,68868624.88603,  -0.00167,   0.00165,   0.00118,479951541.49794,   0.00323,278100756.84538,  -0.00002,  -0.00018,   0.00028,   0.00000,   2.00000
-234585079.30032,298827955.77842,68700919.50989,  -0.00168,   0.00165,   0.00118,479958542.42087,   0.00324,278109123.95032,  -0.00003,  -0.00017,   0.00028,   0.95005,   1.00000
-237233256.95617,296469857.98891,68531962.54493,  -0.00170,   0.00165,   0.00118,479980498.67761,   0.00325,278117552.19379,  -0.00004,  -0.00016,   0.00029,   0.89626,   1.00000
-239867468.07318,294113016.37720,68355654.78255,  -0.00171,   0.00165,   0.00118,479999607.81457,   0.00325,278126028.38957,  -0.00004,  -0.00016,   0.00029,   0.84368,   1.00000
-242468603.89814,291771723.08809,68179602.20515,  -0.00172,   0.00165,   0.00118,480011356.81912,   0.00326,278134519.08405,  -0.00005,  -0.00015,   0.00030,   0.78959,   1.00000
-245073509.61274,289416109.55928,67994841.60847,  -0.00174,   0.00165,   0.00118,480040406.14095,   0.00327,278143102.04120,  -0.00006,  -0.00014,   0.00030,   0.75395,   1.00000
-247661348.85121,287060381.03308,67812066.86894,  -0.00175,   0.00166,   0.00118,480040242.54921,   0.00328,278151645.20423,  -0.00006,  -0.00013,   0.00030,   0.70025,   1.00000
-250219407.45548,284722427.99754,67620436.23912,  -0.00176,   0.00166,   0.00118,480070700.51263,   0.00329,278160286.55814,  -0.00007,  -0.00013,   0.00031,   0.67463,   1.00000
-252779522.08630,282370210.38495,67423260.86968,  -0.00178,   0.00166,   0.00119,480077941.56986,   0.00330,278168921.03215,  -0.00008,  -0.00012,   0.00031,   0.63721,   1.00000
-255324237.28043,280018327.13905,67225081.73690,  -0.00179,   0.00166,   0.00119,480099528.36363,   0.00330,278177613.16658,  -0.00008,  -0.00011,   0.00031,   0.61464,   1.00000
-257853539.66167,277666931.70719,67025924.64338,  -0.00181,   0.00166,   0.00119,480121076.71383,   0.00331,278186362.43561,  -0.00009,  -0.00011,   0.00032,   0.59697,   1.00000
-260351895.96154,275333640.23409,66821161.86898,  -0.00182,   0.00166,   0.00119,480129091.05015,   0.00332,278195107.56750,  -0.00010,  -0.00010,   0.00032,   0.57646,   1.00000
-262853427.65219,272986746.10756,66607865.48528,  -0.00183,   0.00166,   0.00119,480158444.11842,   0.00333,278203944.54829,  -0.00011,  -0.00009,   0.00032,   0.57388,   1.00000
-265338599.52742,270640025.63210,66396742.41043,  -0.00185,   0.00166,   0.00119,480157862.38651,   0.00334,278212738.14468,  -0.00011,  -0.00008,   0.00033,   0.55929,   1.00000
-267794013.85932,268312478.11978,66177103.82302,  -0.00186,   0.00167,   0.00119,480187457.15042,   0.00335,278221624.27701,  -0.00012,  -0.00008,   0.00033,   0.56770,   1.00000
-270233443.80540,265985191.77898,65959704.13722,  -0.00188,   0.00167,   0.00119,480186574.75417,   0.00335,278230465.30138,  -0.00013,  -0.00007,   0.00033,   0.56409,   1.00000
-272675771.77913,263644669.91172,65733857.20384,  -0.00189,   0.00167,   0.00119,480216048.15616,   0.00336,278239397.91932,  -0.00013,  -0.00006,   0.00034,   0.58369,   1.00000
-275087806.31605,261322856.06756,65502646.73016,  -0.00190,   0.00167,   0.00119,480223287.75022,   0.00337,278248321.60605,  -0.00014,  -0.00006,   0.00034,   0.59584,   1.00000
-277484659.82845,259002469.37644,65270758.96829,  -0.00192,   0.00167,   0.00119,480244225.05241,   0.00338,278257297.93374,  -0.00015,  -0.00005,   0.00034,   0.62191,   1.00000
-279866333.54579,256683646.39766,65038218.53085,  -0.00193,   0.00167,   0.00119,480265123.02352,   0.00339,278266326.39392,  -0.00016,  -0.00004,   0.00035,   0.65393,   1.00000
-282235666.85307,254368041.83118,64795681.77647,  -0.00194,   0.00167,   0.00119,480258612.09825,   0.00340,278275283.43814,  -0.00016,  -0.00003,   0.00035,   0.67342,   1.00000
-284588519.53467,252054134.12492,64555779.03899,  -0.00196,   0.00167,   0.00119,480304041.56012,   0.00341,278284402.81181,  -0.00017,  -0.00003,   0.00035,   0.73444,   1.00000
-286929236.21184,249743446.06563,64305918.41758,  -0.00197,   0.00168,   0.00119,480297496.26662,   0.00342,278293450.06390,  -0.00018,  -0.00002,   0.00036,   0.76410,   1.00000
-289254862.66530,247434690.85502,64055545.18911,  -0.00198,   0.00168,   0.00119,480318157.24037,   0.00342,278302547.72500,  -0.00019,  -0.00001,   0.00036,   0.81971,   1.00000
-291533721.94092,245161451.15562,63804893.72961,  -0.00200,   0.00168,   0.00119,480337191.02142,   0.00343,278311688.17357,  -0.00019,  -0.00001,   0.00037,   0.87953,   1.00000
-293815270.15737,242874137.15907,63548976.88927,  -0.00201,   0.00168,   0.00120,480344691.41435,   0.00344,278320819.32348,  -0.00020,   0.00000,   0.00037,   0.93533,   1.00000
-296083514.61803,240590407.88776,63286467.90056,  -0.00203,   0.00168,   0.00120,480362433.84548,   0.00345,278329987.14794,  -0.00021,   0.00001,   0.00037,  -0.00000,   2.00000
-298352760.90410,238291242.58291,63024899.22290,  -0.00204,   0.00168,   0.00120,480372750.16696,   0.00346,278339158.04673,  -0.00022,   0.00002,   0.00038,  -0.00000,   2.00000
-300592750.38125,236013667.94561,62755479.95321,  -0.00205,   0.00168,   0.00120,480400471.37487,   0.00347,278348410.05978,  -0.00022,   0.00002,   0.00038,   0.00000,   2.00000
-302804147.88642,233755797.54156,62481156.00372,  -0.00207,   0.00168,   0.00120,480405946.24916,   0.00348,278357642.89523,  -0.00023,   0.00003,   0.00038,   0.00000,   2.00000
-305001510.31317,231498381.35880,62209429.78722,  -0.00208,   0.00169,   0.00120,480403917.98616,   0.00349,278366822.92765,  -0.00024,   0.00004,   0.00039,  -0.00000,   2.00000
-307185204.71586,229247147.04494,61928429.86562,  -0.00209,   0.00169,   0.00119,480443282.54816,   0.00349,278376136.00279,  -0.00025,   0.00004,   0.00039,   0.00000,   2.00000
-309355052.23265,226996395.35063,61650069.08255,  -0.00211,   0.00169,   0.00119,480441193.31604,   0.00350,278385395.51079,  -0.00026,   0.00005,   0.00039,  -0.00000,   2.00000
-311511959.80479,224749726.26134,61365326.13549,  -0.00212,   0.00169,   0.00119,480458481.09483,   0.00351,278394688.52024,  -0.00026,   0.00006,   0.00040,   0.00000,   2.00000
-313654344.16050,222506010.90783,61080445.96566,  -0.00213,   0.00169,   0.00119,480478261.85652,   0.00352,278404025.96762,  -0.00027,   0.00007,   0.00040,   0.00000,   2.00000
-315769061.04045,220282324.31893,60790839.37032,  -0.00215,   0.00169,   0.00119,480482865.18667,   0.00353,278413339.57756,  -0.00028,   0.00007,   0.00040,  -0.00000,   2.00000
-317871074.82298,218062912.39341,60494956.47088,  -0.00216,   0.00169,   0.00119,480499895.23431,   0.00354,278422685.06769,  -0.00029,   0.00008,   0.00041,  -0.00000,   2.00000
-319944223.76545,215862439.63315,60200648.05628,  -0.00217,   0.00169,   0.00119,480506601.17731,   0.00355,278432015.99912,  -0.00030,   0.00009,   0.00041,   0.00000,   2.00000
-322019380.87989,213650615.66504,59898526.85232,  -0.00219,   0.00169,   0.00119,480536246.13149,   0.00356,278441435.05200,  -0.00030,   0.00009,   0.00041,   0.00000,   2.00000
-324067492.35928,211458999.77186,59591828.51598,  -0.00220,   0.00170,   0.00119,480540300.42775,   0.00357,278450827.21117,  -0.00031,   0.00010,   0.00042,   0.00000,   2.00000
-326102954.66117,209267740.16680,59287924.84336,  -0.00221,   0.00170,   0.00119,480537517.04000,   0.00358,278460161.97131,  -0.00032,   0.00011,   0.00042,  -0.00000,   2.00000
-328110375.70988,207099804.39190,58976785.60375,  -0.00223,   0.00170,   0.00119,480563092.77498,   0.00358,278469566.40580,  -0.00033,   0.00012,   0.00042,   0.00000,   2.00000
-330121240.22130,204917588.69473,58660649.39984,  -0.00224,   0.00170,   0.00119,480570784.77362,   0.00359,278478960.13180,  -0.00034,   0.00012,   0.00043,   0.00000,   2.00000
-332088499.77220,202773526.72460,58345216.96428,  -0.00225,   0.00170,   0.00119,480585392.37605,   0.00360,278488374.08301,  -0.00034,   0.00013,   0.00043,   0.00000,   2.00000
-334057795.53087,200614090.25483,58031048.93814,  -0.00226,   0.00170,   0.00119,480595389.56176,   0.00361,278497787.48628,  -0.00035,   0.00014,   0.00043,  -0.00000,   2.00000
-336000994.80003,198479493.29305,57703581.18503,  -0.00228,   0.00170,   0.00119,480618035.26272,   0.00362,278507256.79250,  -0.00036,   0.00014,   0.00044,   0.00000,   2.00000
-337932463.07609,196345112.24159,57379030.49132,  -0.00229,   0.00170,   0.00119,480614746.30027,   0.00363,278516665.86960,  -0.00037,   0.00015,   0.00044,  -0.00000,   2.00000
-339852055.50472,194215513.10401,57048528.16860,  -0.00230,   0.00170,   0.00119,480630933.21629,   0.00364,278526101.89931,  -0.00038,   0.00016,   0.00044,  -0.00000,   2.00000
-341758190.60623,192089752.23991,56718358.75905,  -0.00232,   0.00171,   0.00118,480649441.84276,   0.00365,278535575.04380,  -0.00039,   0.00016,   0.00045,   0.00000,   2.00000
-343623487.03177,190003738.62587,56382908.90788,  -0.00233,   0.00171,   0.00118,480660344.49112,   0.00366,278545051.16877,  -0.00040,   0.00017,   0.00045,  -0.00000,   2.00000
-345479378.76433,187918757.21863,56044179.33620,  -0.00234,   0.00171,   0.00118,480654302.37505,   0.00367,278554454.66576,  -0.00040,   0.00018,   0.00045,   0.00000,   2.00000
