# sigma_xx, sigma_yy, sigma_xy, epsilon_xx, epsilon_yy, epsilon_xy, vonMises, epsPlastic, hardening, epsilonP__xx, epsilonP__yy, epsilonP__xy, yieldValue, iteration
   0.00000,   0.00000,   0.00000,   0.00000,   0.00000,   0.00000,1181185.37500,   0.00000,274640576.00000,   0.00000,   0.00000,   0.00000,-473459392.00000,   0.00000
   0.00000,   0.00000,   0.00000,   0.00000,   0.00000,   0.00000,1181185.37500,   0.00000,274640576.00000,   0.00000,   0.00000,   0.00000,-473459392.00000,   0.00000
-1511538.56622,-1377551.76810,-238663.98414,  -0.00000,  -0.00000,  -0.00000,710243.68750,   0.00000,274640576.00000,   0.00000,   0.00000,   0.00000,-473930336.00000,   0.00000
-3023077.13243,-2755103.53620,-473140.88084,  -0.00001,  -0.00001,  -0.00001,2656942.00000,   0.00000,274640576.00000,   0.00000,   0.00000,   0.00000,-471983648.00000,   0.00000
-4540896.32981,-4147310.11035,-703430.69009,  -0.00001,  -0.00001,  -0.00001,4096183.75000,   0.00000,274640576.00000,   0.00000,   0.00000,   0.00000,-470544384.00000,   0.00000
-6052434.89602,-5524861.87845,-933720.49935,  -0.00002,  -0.00001,  -0.00001,5574814.50000,   0.00000,274640576.00000,   0.00000,   0.00000,   0.00000,-469065760.00000,   0.00000
-7555599.28736,-6910787.82144,-1164010.30861,  -0.00002,  -0.00002,  -0.00002,7050031.00000,   0.00000,274640576.00000,   0.00000,   0.00000,   0.00000,-467590544.00000,   0.00000
-9073418.48473,-8302994.39558,-1390113.03043,  -0.00003,  -0.00002,  -0.00002,8540802.00000,   0.00000,274640576.00000,   0.00000,   0.00000,   0.00000,-466099776.00000,   0.00000
-10576582.87607,-9688920.33857,-1612028.66480,  -0.00003,  -0.00002,  -0.00002,10028962.00000,   0.00000,274640576.00000,   0.00000,   0.00000,   0.00000,-464611616.00000,   0.00000
-12079747.26740,-11074846.28155,-1833944.29918,  -0.00003,  -0.00003,  -0.00002,11526828.00000,   0.00000,274640576.00000,   0.00000,   0.00000,   0.00000,-463113744.00000,   0.00000
-13582911.65874,-12460772.22454,-2051672.84611,  -0.00004,  -0.00003,  -0.00003,13029505.00000,   0.00000,274640576.00000,   0.00000,   0.00000,   0.00000,-461611072.00000,   0.00000
-15092356.68123,-13861352.97356,-2269401.39304,  -0.00004,  -0.00003,  -0.00003,14545735.00000,   0.00000,274640576.00000,   0.00000,   0.00000,   0.00000,-460094848.00000,   0.00000
-16580866.26652,-15240998.28539,-2487129.93998,  -0.00005,  -0.00004,  -0.00003,16044268.00000,   0.00000,274640576.00000,   0.00000,   0.00000,   0.00000,-458596304.00000,   0.00000
-18090311.28902,-16641579.03442,-2700671.39947,  -0.00005,  -0.00004,  -0.00004,17563268.00000,   0.00000,274640576.00000,   0.00000,   0.00000,   0.00000,-457077312.00000,   0.00000
-19585101.50547,-18035879.15228,-2910025.77152,  -0.00005,  -0.00004,  -0.00004,19071098.00000,   0.00000,274640576.00000,   0.00000,   0.00000,   0.00000,-455569472.00000,   0.00000
-21079891.72192,-19430179.27015,-3119380.14358,  -0.00006,  -0.00005,  -0.00004,20579696.00000,   0.00000,274640576.00000,   0.00000,   0.00000,   0.00000,-454060880.00000,   0.00000
-22574681.93837,-20824479.38802,-3324547.42819,  -0.00006,  -0.00005,  -0.00004,22086300.00000,   0.00000,274640576.00000,   0.00000,   0.00000,   0.00000,-452554272.00000,   0.00000
-24054817.34878,-22212498.87472,-3529714.71280,  -0.00007,  -0.00005,  -0.00005,23581388.00000,   0.00000,274640576.00000,   0.00000,   0.00000,   0.00000,-451059184.00000,   0.00000
-25555888.19639,-23621453.79863,-3730694.90997,  -0.00007,  -0.00006,  -0.00005,25093524.00000,   0.00000,274640576.00000,   0.00000,   0.00000,   0.00000,-449547056.00000,   0.00000
-27042304.23796,-25024128.09138,-3931675.10714,  -0.00007,  -0.00006,  -0.00005,26593074.00000,   0.00000,274640576.00000,   0.00000,   0.00000,   0.00000,-448047504.00000,   0.00000
-28522439.64837,-26412147.57808,-4128468.21687,  -0.00008,  -0.00006,  -0.00005,28078858.00000,   0.00000,274640576.00000,   0.00000,   0.00000,   0.00000,-446561712.00000,   0.00000
-30008855.68994,-27814821.87083,-4325261.32659,  -0.00008,  -0.00007,  -0.00006,29572380.00000,   0.00000,274640576.00000,   0.00000,   0.00000,   0.00000,-445068192.00000,   0.00000
-31486897.55663,-29225870.33846,-4517867.34888,  -0.00009,  -0.00007,  -0.00006,31061500.00000,   0.00000,274640576.00000,   0.00000,   0.00000,   0.00000,-443579072.00000,   0.00000
-32973313.59819,-30628544.63121,-4710473.37117,  -0.00009,  -0.00008,  -0.00006,32550136.00000,   0.00000,274640576.00000,   0.00000,   0.00000,   0.00000,-442090432.00000,   0.00000
-34445074.83372,-32024938.29280,-4903079.39346,  -0.00009,  -0.00008,  -0.00006,34027256.00000,   0.00000,274640576.00000,   0.00000,   0.00000,   0.00000,-440613312.00000,   0.00000
-35923116.70041,-33435986.76043,-5087311.24086,  -0.00010,  -0.00008,  -0.00007,35509888.00000,   0.00000,274640576.00000,   0.00000,   0.00000,   0.00000,-439130688.00000,   0.00000
-37386503.76105,-34840754.59690,-5275730.17571,  -0.00010,  -0.00009,  -0.00007,36983624.00000,   0.00000,274640576.00000,   0.00000,   0.00000,   0.00000,-437656960.00000,   0.00000
-38864545.62774,-36251803.06453,-5455774.93568,  -0.00011,  -0.00009,  -0.00007,38464336.00000,   0.00000,274640576.00000,   0.00000,   0.00000,   0.00000,-436176240.00000,   0.00000
-40327932.68838,-37656570.90100,-5640006.78308,  -0.00011,  -0.00009,  -0.00007,39936360.00000,   0.00000,274640576.00000,   0.00000,   0.00000,   0.00000,-434704224.00000,   0.00000
-41797600.38019,-39075993.54351,-5815864.45561,  -0.00011,  -0.00010,  -0.00008,41414708.00000,   0.00000,274640576.00000,   0.00000,   0.00000,   0.00000,-433225872.00000,   0.00000
-43260987.44083,-40480761.37998,-5991722.12813,  -0.00012,  -0.00010,  -0.00008,42883400.00000,   0.00000,274640576.00000,   0.00000,   0.00000,   0.00000,-431757184.00000,   0.00000
-44716000.32659,-41893903.39133,-6167579.80065,  -0.00012,  -0.00010,  -0.00008,44351236.00000,   0.00000,274640576.00000,   0.00000,   0.00000,   0.00000,-430289344.00000,   0.00000
-46171013.21235,-43307045.40268,-6339250.38574,  -0.00013,  -0.00011,  -0.00008,45817256.00000,   0.00000,274640576.00000,   0.00000,   0.00000,   0.00000,-428823328.00000,   0.00000
-47626026.09812,-44720187.41403,-6510920.97082,  -0.00013,  -0.00011,  -0.00008,47283112.00000,   0.00000,274640576.00000,   0.00000,   0.00000,   0.00000,-427357472.00000,   0.00000
-49081038.98388,-46133329.42539,-6678404.46846,  -0.00013,  -0.00011,  -0.00009,48746892.00000,   0.00000,274640576.00000,   0.00000,   0.00000,   0.00000,-425893680.00000,   0.00000
-50521397.06360,-47540190.80557,-6845887.96610,  -0.00014,  -0.00012,  -0.00009,50199836.00000,   0.00000,274640576.00000,   0.00000,   0.00000,   0.00000,-424440736.00000,   0.00000
-51982690.58052,-48967987.62297,-7009184.37630,  -0.00014,  -0.00012,  -0.00009,51671064.00000,   0.00000,274640576.00000,   0.00000,   0.00000,   0.00000,-422969504.00000,   0.00000
-53414674.48535,-50383223.17804,-7172480.78650,  -0.00014,  -0.00013,  -0.00009,53121024.00000,   0.00000,274640576.00000,   0.00000,   0.00000,   0.00000,-421519552.00000,   0.00000
-54861313.19623,-51804739.36427,-7331590.10926,  -0.00015,  -0.00013,  -0.00010,54579688.00000,   0.00000,274640576.00000,   0.00000,   0.00000,   0.00000,-420060896.00000,   0.00000
-56293297.10107,-53219974.91935,-7490699.43202,  -0.00015,  -0.00013,  -0.00010,56027888.00000,   0.00000,274640576.00000,   0.00000,   0.00000,   0.00000,-418612688.00000,   0.00000
-57725281.00591,-54635210.47442,-7645621.66734,  -0.00016,  -0.00014,  -0.00010,57474496.00000,   0.00000,274640576.00000,   0.00000,   0.00000,   0.00000,-417166080.00000,   0.00000
-59163545.54190,-56065100.83553,-7800543.90266,  -0.00016,  -0.00014,  -0.00010,58931352.00000,   0.00000,274640576.00000,   0.00000,   0.00000,   0.00000,-415709216.00000,   0.00000
-60601810.07790,-57494991.19665,-7951279.05054,  -0.00016,  -0.00014,  -0.00010,60387020.00000,   0.00000,274640576.00000,   0.00000,   0.00000,   0.00000,-414253552.00000,   0.00000
-62025419.80785,-58918600.92660,-8102014.19841,  -0.00017,  -0.00015,  -0.00011,61832848.00000,   0.00000,274640576.00000,   0.00000,   0.00000,   0.00000,-412807728.00000,   0.00000
-63449029.53781,-60342210.65656,-8248562.25885,  -0.00017,  -0.00015,  -0.00011,63277764.00000,   0.00000,274640576.00000,   0.00000,   0.00000,   0.00000,-411362816.00000,   0.00000
-64857984.46172,-61759539.75535,-8395110.31929,  -0.00017,  -0.00015,  -0.00011,64713032.00000,   0.00000,274640576.00000,   0.00000,   0.00000,   0.00000,-409927552.00000,   0.00000
-66287874.82283,-63197804.29135,-8537471.29228,  -0.00018,  -0.00016,  -0.00011,66167952.00000,   0.00000,274640576.00000,   0.00000,   0.00000,   0.00000,-408472624.00000,   0.00000
-67696829.74674,-64615133.39014,-8679832.26528,  -0.00018,  -0.00016,  -0.00011,67603280.00000,   0.00000,274640576.00000,   0.00000,   0.00000,   0.00000,-407037296.00000,   0.00000
-69112065.30182,-66047117.29497,-8818006.15083,  -0.00019,  -0.00017,  -0.00011,69047672.00000,   0.00000,274640576.00000,   0.00000,   0.00000,   0.00000,-405592896.00000,   0.00000
-70512646.05084,-67472820.56865,-8956180.03639,  -0.00019,  -0.00017,  -0.00012,70482344.00000,   0.00000,274640576.00000,   0.00000,   0.00000,   0.00000,-404158240.00000,   0.00000
-71913226.79987,-68898523.84232,-9090166.83450,  -0.00019,  -0.00017,  -0.00012,71915952.00000,   0.00000,274640576.00000,   0.00000,   0.00000,   0.00000,-402724624.00000,   0.00000
-73320088.18006,-70338881.92204,-9224153.63261,  -0.00020,  -0.00018,  -0.00012,73359984.00000,   0.00000,274640576.00000,   0.00000,   0.00000,   0.00000,-401280592.00000,   0.00000
-74712294.75421,-71772959.37060,-9358140.43073,  -0.00020,  -0.00018,  -0.00012,74793816.00000,   0.00000,274640576.00000,   0.00000,   0.00000,   0.00000,-399846752.00000,   0.00000
-76104501.32835,-73207036.81915,-9483753.05396,  -0.00020,  -0.00018,  -0.00012,76224520.00000,   0.00000,274640576.00000,   0.00000,   0.00000,   0.00000,-398416064.00000,   0.00000
-77496707.90250,-74641114.26771,-9613552.76463,  -0.00021,  -0.00019,  -0.00012,77656744.00000,   0.00000,274640576.00000,   0.00000,   0.00000,   0.00000,-396983840.00000,   0.00000
-78888914.47665,-76075191.71627,-9739165.38786,  -0.00021,  -0.00019,  -0.00013,79087104.00000,   0.00000,274640576.00000,   0.00000,   0.00000,   0.00000,-395553472.00000,   0.00000
-80266466.24475,-77502988.53366,-9860590.92365,  -0.00021,  -0.00020,  -0.00013,80505072.00000,   0.00000,274640576.00000,   0.00000,   0.00000,   0.00000,-394135504.00000,   0.00000
-81650298.64401,-78945440.15710,-9982016.45944,  -0.00022,  -0.00020,  -0.00013,81932496.00000,   0.00000,274640576.00000,   0.00000,   0.00000,   0.00000,-392708080.00000,   0.00000
-83019476.23723,-80381611.14938,-10099254.90779,  -0.00022,  -0.00020,  -0.00013,83347264.00000,   0.00000,274640576.00000,   0.00000,   0.00000,   0.00000,-391293312.00000,   0.00000
-84388653.83045,-81817782.14165,-10216493.35614,  -0.00022,  -0.00021,  -0.00013,84761296.00000,   0.00000,274640576.00000,   0.00000,   0.00000,   0.00000,-389879280.00000,   0.00000
-85757831.42367,-83253953.13393,-10333731.80449,  -0.00023,  -0.00021,  -0.00013,86174536.00000,   0.00000,274640576.00000,   0.00000,   0.00000,   0.00000,-388466048.00000,   0.00000
-87133289.64805,-84704778.93225,-10446783.16540,  -0.00023,  -0.00022,  -0.00014,87595632.00000,   0.00000,274640576.00000,   0.00000,   0.00000,   0.00000,-387044944.00000,   0.00000
-88487812.43523,-86134669.29337,-10555647.43886,  -0.00023,  -0.00022,  -0.00014,88993992.00000,   0.00000,274640576.00000,   0.00000,   0.00000,   0.00000,-385646592.00000,   0.00000
-89848615.85357,-87579214.46053,-10664511.71233,  -0.00024,  -0.00022,  -0.00014,90401664.00000,   0.00000,274640576.00000,   0.00000,   0.00000,   0.00000,-384238912.00000,   0.00000
-91201045.09703,-89032133.80257,-10773375.98580,  -0.00024,  -0.00023,  -0.00014,91808512.00000,   0.00000,274640576.00000,   0.00000,   0.00000,   0.00000,-382832064.00000,   0.00000
-92547193.70932,-90470398.33856,-10878053.17182,  -0.00024,  -0.00023,  -0.00014,93203336.00000,   0.00000,274640576.00000,   0.00000,   0.00000,   0.00000,-381437248.00000,   0.00000
-93893342.32161,-91908662.87456,-10982730.35785,  -0.00025,  -0.00024,  -0.00014,94597880.00000,   0.00000,274640576.00000,   0.00000,   0.00000,   0.00000,-380042688.00000,   0.00000
-95231116.75903,-93355301.58544,-11083220.45643,  -0.00025,  -0.00024,  -0.00014,95990448.00000,   0.00000,274640576.00000,   0.00000,   0.00000,   0.00000,-378650128.00000,   0.00000
-96568891.19644,-94801940.29632,-11179523.46758,  -0.00025,  -0.00024,  -0.00015,97381576.00000,   0.00000,274640576.00000,   0.00000,   0.00000,   0.00000,-377259008.00000,   0.00000
-97906665.63385,-96248579.00720,-11280013.56616,  -0.00026,  -0.00025,  -0.00015,98774256.00000,   0.00000,274640576.00000,   0.00000,   0.00000,   0.00000,-375866320.00000,   0.00000
-99236065.89638,-97703591.89296,-11372129.48987,  -0.00026,  -0.00025,  -0.00015,100164296.00000,   0.00000,274640576.00000,   0.00000,   0.00000,   0.00000,-374476288.00000,   0.00000
-100559185.52775,-99143949.97268,-11468432.50101,  -0.00026,  -0.00026,  -0.00015,101545944.00000,   0.00000,274640576.00000,   0.00000,   0.00000,   0.00000,-373094624.00000,   0.00000
-101873930.98424,-100592682.22728,-11560548.42471,  -0.00027,  -0.00026,  -0.00015,102926704.00000,   0.00000,274640576.00000,   0.00000,   0.00000,   0.00000,-371713872.00000,   0.00000
-103203331.24677,-102047695.11304,-11648477.26097,  -0.00027,  -0.00026,  -0.00015,104317088.00000,   0.00000,274640576.00000,   0.00000,   0.00000,   0.00000,-370323488.00000,   0.00000
-104503421.89721,-103490146.73648,-11736406.09724,  -0.00027,  -0.00027,  -0.00015,105687664.00000,   0.00000,274640576.00000,   0.00000,   0.00000,   0.00000,-368952912.00000,   0.00000
-105824447.98486,-104953533.79712,-11820147.84606,  -0.00028,  -0.00027,  -0.00015,107078280.00000,   0.00000,274640576.00000,   0.00000,   0.00000,   0.00000,-367562304.00000,   0.00000
-107124538.63530,-106395985.42056,-11903889.59488,  -0.00028,  -0.00028,  -0.00015,108449336.00000,   0.00000,274640576.00000,   0.00000,   0.00000,   0.00000,-366191232.00000,   0.00000
-108416255.11086,-107846811.21888,-11987631.34370,  -0.00028,  -0.00028,  -0.00016,109821328.00000,   0.00000,274640576.00000,   0.00000,   0.00000,   0.00000,-364819248.00000,   0.00000
-109722626.39247,-109303917.64836,-12067186.00508,  -0.00029,  -0.00028,  -0.00016,111203248.00000,   0.00000,274640576.00000,   0.00000,   0.00000,   0.00000,-363437328.00000,   0.00000
-110999688.06199,-110748462.81552,-12142553.57902,  -0.00029,  -0.00029,  -0.00016,112564216.00000,   0.00000,274640576.00000,   0.00000,   0.00000,   0.00000,-362076352.00000,   0.00000
-112297685.16871,-112213943.41989,-12222108.24040,  -0.00029,  -0.00029,  -0.00016,113948192.00000,   0.00000,274640576.00000,   0.00000,   0.00000,   0.00000,-360692384.00000,   0.00000
-113581027.46939,-113673143.39309,-12293288.72690,  -0.00030,  -0.00030,  -0.00016,115319952.00000,   0.00000,274640576.00000,   0.00000,   0.00000,   0.00000,-359320624.00000,   0.00000
-114864369.77007,-115132343.36629,-12368656.30083,  -0.00030,  -0.00030,  -0.00016,116694016.00000,   0.00000,274640576.00000,   0.00000,   0.00000,   0.00000,-357946560.00000,   0.00000
-116133057.26470,-116585262.70833,-12435649.69989,  -0.00030,  -0.00030,  -0.00016,118055896.00000,   0.00000,274640576.00000,   0.00000,   0.00000,   0.00000,-356584672.00000,   0.00000
-117401744.75934,-118038182.05037,-12506830.18639,  -0.00030,  -0.00031,  -0.00016,119419704.00000,   0.00000,274640576.00000,   0.00000,   0.00000,   0.00000,-355220864.00000,   0.00000
-118662058.07909,-119499475.56730,-12573823.58544,  -0.00031,  -0.00031,  -0.00016,120782944.00000,   0.00000,274640576.00000,   0.00000,   0.00000,   0.00000,-353857632.00000,   0.00000
-119916090.76768,-120946114.27818,-12636629.89706,  -0.00031,  -0.00032,  -0.00016,122134968.00000,   0.00000,274640576.00000,   0.00000,   0.00000,   0.00000,-352505600.00000,   0.00000
-121176404.08743,-122407407.79510,-12699436.20868,  -0.00031,  -0.00032,  -0.00017,123497696.00000,   0.00000,274640576.00000,   0.00000,   0.00000,   0.00000,-351142880.00000,   0.00000
-122428343.23231,-123877075.48691,-12762242.52029,  -0.00032,  -0.00032,  -0.00017,124860808.00000,   0.00000,274640576.00000,   0.00000,   0.00000,   0.00000,-349779776.00000,   0.00000
-123674001.74602,-125332088.37267,-12820861.74447,  -0.00032,  -0.00033,  -0.00017,126212488.00000,   0.00000,274640576.00000,   0.00000,   0.00000,   0.00000,-348428096.00000,   0.00000
-124911286.08484,-126795475.43331,-12875293.88120,  -0.00032,  -0.00033,  -0.00017,127563200.00000,   0.00000,274640576.00000,   0.00000,   0.00000,   0.00000,-347077376.00000,   0.00000
-126148570.42367,-128258862.49395,-12933913.10537,  -0.00032,  -0.00034,  -0.00017,128915160.00000,   0.00000,274640576.00000,   0.00000,   0.00000,   0.00000,-345725408.00000,   0.00000
-127385854.76250,-129722249.55460,-12984158.15467,  -0.00033,  -0.00034,  -0.00017,130264680.00000,   0.00000,274640576.00000,   0.00000,   0.00000,   0.00000,-344375904.00000,   0.00000
-128608484.29528,-131179355.98408,-13038590.29140,  -0.00033,  -0.00035,  -0.00017,131605176.00000,   0.00000,274640576.00000,   0.00000,   0.00000,   0.00000,-343035392.00000,   0.00000
-129837394.45923,-132651117.21961,-13088835.34069,  -0.00033,  -0.00035,  -0.00017,132954736.00000,   0.00000,274640576.00000,   0.00000,   0.00000,   0.00000,-341685840.00000,   0.00000
-131045369.18597,-134101943.01793,-13134893.30254,  -0.00033,  -0.00035,  -0.00017,134282464.00000,   0.00000,274640576.00000,   0.00000,   0.00000,   0.00000,-340358112.00000,   0.00000
-132259624.54387,-135567423.62229,-13180951.26440,  -0.00034,  -0.00036,  -0.00017,135620592.00000,   0.00000,274640576.00000,   0.00000,   0.00000,   0.00000,-339019984.00000,   0.00000
-133465505.72689,-137041278.40154,-13227009.22625,  -0.00034,  -0.00036,  -0.00017,136959056.00000,   0.00000,274640576.00000,   0.00000,   0.00000,   0.00000,-337681520.00000,   0.00000
-134665106.27875,-138500478.37474,-13268880.10066,  -0.00034,  -0.00037,  -0.00017,138285968.00000,   0.00000,274640576.00000,   0.00000,   0.00000,   0.00000,-336354608.00000,   0.00000
-135870987.46177,-139974333.15399,-13310750.97507,  -0.00035,  -0.00037,  -0.00017,139623488.00000,   0.00000,274640576.00000,   0.00000,   0.00000,   0.00000,-335017088.00000,   0.00000
-137055933.20758,-141427252.49603,-13348434.76204,  -0.00035,  -0.00038,  -0.00017,140939504.00000,   0.00000,274640576.00000,   0.00000,   0.00000,   0.00000,-333701072.00000,   0.00000
-138247159.58456,-142894826.64411,-13386118.54901,  -0.00035,  -0.00038,  -0.00017,142266384.00000,   0.00000,274640576.00000,   0.00000,   0.00000,   0.00000,-332374192.00000,   0.00000
-139430011.78665,-144370774.96708,-13423802.33598,  -0.00035,  -0.00038,  -0.00017,143594160.00000,   0.00000,274640576.00000,   0.00000,   0.00000,   0.00000,-331046416.00000,   0.00000
-140606583.35758,-145832068.48400,-13457299.03550,  -0.00036,  -0.00039,  -0.00017,144910960.00000,   0.00000,274640576.00000,   0.00000,   0.00000,   0.00000,-329729616.00000,   0.00000
-141774780.75363,-147301736.17581,-13486608.64759,  -0.00036,  -0.00039,  -0.00018,146227648.00000,   0.00000,274640576.00000,   0.00000,   0.00000,   0.00000,-328412928.00000,   0.00000
-142942978.14968,-148771403.86761,-13520105.34712,  -0.00036,  -0.00040,  -0.00018,147546432.00000,   0.00000,274640576.00000,   0.00000,   0.00000,   0.00000,-327094144.00000,   0.00000
-144111175.54573,-150241071.55942,-13545227.87177,  -0.00036,  -0.00040,  -0.00018,148863904.00000,   0.00000,274640576.00000,   0.00000,   0.00000,   0.00000,-325776672.00000,   0.00000
-145264718.13574,-151704458.62006,-13574537.48385,  -0.00037,  -0.00041,  -0.00018,150173328.00000,   0.00000,274640576.00000,   0.00000,   0.00000,   0.00000,-324467248.00000,   0.00000
-146409886.55087,-153176219.85559,-13599660.00850,  -0.00037,  -0.00041,  -0.00018,151483360.00000,   0.00000,274640576.00000,   0.00000,   0.00000,   0.00000,-323157216.00000,   0.00000
-147569709.77203,-154654261.72227,-13620595.44570,  -0.00037,  -0.00042,  -0.00018,152803296.00000,   0.00000,274640576.00000,   0.00000,   0.00000,   0.00000,-321837280.00000,   0.00000
-148700223.38111,-156119742.32664,-13645717.97035,  -0.00037,  -0.00042,  -0.00018,154105200.00000,   0.00000,274640576.00000,   0.00000,   0.00000,   0.00000,-320535376.00000,   0.00000
-149845391.79624,-157591503.56216,-13662466.32012,  -0.00037,  -0.00042,  -0.00018,155416000.00000,   0.00000,274640576.00000,   0.00000,   0.00000,   0.00000,-319224576.00000,   0.00000
-150967531.23044,-159065358.34141,-13683401.75732,  -0.00038,  -0.00043,  -0.00018,156719328.00000,   0.00000,274640576.00000,   0.00000,   0.00000,   0.00000,-317921248.00000,   0.00000
-152098044.83952,-160530838.94578,-13700150.10708,  -0.00038,  -0.00043,  -0.00018,158021840.00000,   0.00000,274640576.00000,   0.00000,   0.00000,   0.00000,-316618736.00000,   0.00000
-153220184.27372,-162004693.72502,-13712711.36941,  -0.00038,  -0.00044,  -0.00018,159324784.00000,   0.00000,274640576.00000,   0.00000,   0.00000,   0.00000,-315315792.00000,   0.00000
-154327668.90187,-163472267.87311,-13725272.63173,  -0.00038,  -0.00044,  -0.00018,160618688.00000,   0.00000,274640576.00000,   0.00000,   0.00000,   0.00000,-314021888.00000,   0.00000
-155441434.16119,-164954496.82723,-13737833.89405,  -0.00039,  -0.00045,  -0.00018,161924464.00000,   0.00000,274640576.00000,   0.00000,   0.00000,   0.00000,-312716112.00000,   0.00000
-156548918.78935,-166422070.97532,-13746208.06894,  -0.00039,  -0.00045,  -0.00018,163219856.00000,   0.00000,274640576.00000,   0.00000,   0.00000,   0.00000,-311420720.00000,   0.00000
-157648029.24262,-167898019.29829,-13754582.24382,  -0.00039,  -0.00046,  -0.00018,164517568.00000,   0.00000,274640576.00000,   0.00000,   0.00000,   0.00000,-310123008.00000,   0.00000
-158747139.69589,-169373967.62125,-13762956.41870,  -0.00039,  -0.00046,  -0.00018,165817280.00000,   0.00000,274640576.00000,   0.00000,   0.00000,   0.00000,-308823296.00000,   0.00000
-159831595.34312,-170843635.31306,-13767143.50614,  -0.00039,  -0.00047,  -0.00018,167108112.00000,   0.00000,274640576.00000,   0.00000,   0.00000,   0.00000,-307532464.00000,   0.00000
-160922331.62151,-172327957.81091,-13771330.59358,  -0.00040,  -0.00047,  -0.00018,168411920.00000,   0.00000,274640576.00000,   0.00000,   0.00000,   0.00000,-306228656.00000,   0.00000
-161992132.46270,-173791344.87155,-13771330.59358,  -0.00040,  -0.00047,  -0.00018,169696112.00000,   0.00000,274640576.00000,   0.00000,   0.00000,   0.00000,-304944464.00000,   0.00000
-163068213.93505,-175269386.73824,-13771330.59358,  -0.00040,  -0.00048,  -0.00018,170992912.00000,   0.00000,274640576.00000,   0.00000,   0.00000,   0.00000,-303647664.00000,   0.00000
-164129640.60135,-176741147.97376,-13767143.50614,  -0.00040,  -0.00048,  -0.00018,172280064.00000,   0.00000,274640576.00000,   0.00000,   0.00000,   0.00000,-302360512.00000,   0.00000
-165191067.26765,-178212909.20929,-13767143.50614,  -0.00040,  -0.00049,  -0.00018,173568608.00000,   0.00000,274640576.00000,   0.00000,   0.00000,   0.00000,-301071968.00000,   0.00000
-166258774.56512,-179699325.25086,-13758769.33126,  -0.00041,  -0.00049,  -0.00018,174865456.00000,   0.00000,274640576.00000,   0.00000,   0.00000,   0.00000,-299775120.00000,   0.00000
-167311827.05654,-181179460.66127,-13754582.24382,  -0.00041,  -0.00050,  -0.00018,176151920.00000,   0.00000,274640576.00000,   0.00000,   0.00000,   0.00000,-298488656.00000,   0.00000
-168343944.11076,-182638660.63447,-13746208.06894,  -0.00041,  -0.00050,  -0.00018,177414416.00000,   0.00000,274640576.00000,   0.00000,   0.00000,   0.00000,-297226160.00000,   0.00000
-169388622.42730,-184127170.21976,-13733646.80661,  -0.00041,  -0.00051,  -0.00018,178695200.00000,   0.00000,274640576.00000,   0.00000,   0.00000,   0.00000,-295945376.00000,   0.00000
-170427020.11267,-185601024.99901,-13725272.63173,  -0.00041,  -0.00051,  -0.00018,179964080.00000,   0.00000,274640576.00000,   0.00000,   0.00000,   0.00000,-294676496.00000,   0.00000
-171450762.99201,-187068599.14709,-13712711.36941,  -0.00042,  -0.00052,  -0.00018,181221296.00000,   0.00000,274640576.00000,   0.00000,   0.00000,   0.00000,-293419280.00000,   0.00000
-172480786.50250,-188550828.10122,-13695963.01964,  -0.00042,  -0.00052,  -0.00018,182489024.00000,   0.00000,274640576.00000,   0.00000,   0.00000,   0.00000,-292151552.00000,   0.00000
-173496155.20696,-190026776.42419,-13679214.66988,  -0.00042,  -0.00053,  -0.00018,183748640.00000,   0.00000,274640576.00000,   0.00000,   0.00000,   0.00000,-290891936.00000,   0.00000
-174496869.10537,-191496444.11599,-13662466.32012,  -0.00042,  -0.00053,  -0.00018,185000880.00000,   0.00000,274640576.00000,   0.00000,   0.00000,   0.00000,-289639696.00000,   0.00000
-175518518.44098,-192987047.24500,-13641530.88291,  -0.00042,  -0.00054,  -0.00018,186274992.00000,   0.00000,274640576.00000,   0.00000,   0.00000,   0.00000,-288365584.00000,   0.00000
-176504577.53334,-194450434.30564,-13620595.44570,  -0.00042,  -0.00054,  -0.00018,187520064.00000,   0.00000,274640576.00000,   0.00000,   0.00000,   0.00000,-287120512.00000,   0.00000
-177511572.06292,-195934756.80349,-13599660.00850,  -0.00043,  -0.00055,  -0.00018,188786256.00000,   0.00000,274640576.00000,   0.00000,   0.00000,   0.00000,-285854320.00000,   0.00000
-178503911.78644,-197412798.67018,-13574537.48385,  -0.00043,  -0.00055,  -0.00018,190041456.00000,   0.00000,274640576.00000,   0.00000,   0.00000,   0.00000,-284599120.00000,   0.00000
-179487877.33509,-198899214.71175,-13549414.95921,  -0.00043,  -0.00055,  -0.00018,191296832.00000,   0.00000,274640576.00000,   0.00000,   0.00000,   0.00000,-283343744.00000,   0.00000
-180465562.25257,-200370975.94728,-13524292.43456,  -0.00043,  -0.00056,  -0.00018,192540160.00000,   0.00000,274640576.00000,   0.00000,   0.00000,   0.00000,-282100416.00000,   0.00000
-181434872.99517,-201851111.35768,-13494982.82247,  -0.00043,  -0.00056,  -0.00018,193782448.00000,   0.00000,274640576.00000,   0.00000,   0.00000,   0.00000,-280858128.00000,   0.00000
-182404183.73777,-203331246.76809,-13465673.21039,  -0.00043,  -0.00057,  -0.00018,195023328.00000,   0.00000,274640576.00000,   0.00000,   0.00000,   0.00000,-279617248.00000,   0.00000
-183373494.48037,-204811382.17850,-13436363.59830,  -0.00043,  -0.00057,  -0.00017,196263200.00000,   0.00000,274640576.00000,   0.00000,   0.00000,   0.00000,-278377376.00000,   0.00000
-184328150.41693,-206285236.95775,-13402866.89877,  -0.00044,  -0.00058,  -0.00017,197491632.00000,   0.00000,274640576.00000,   0.00000,   0.00000,   0.00000,-277148944.00000,   0.00000
-185268151.54744,-207752811.10583,-13365183.11180,  -0.00044,  -0.00058,  -0.00017,198709296.00000,   0.00000,274640576.00000,   0.00000,   0.00000,   0.00000,-275931280.00000,   0.00000
-186229088.11516,-209241320.69112,-13331686.41227,  -0.00044,  -0.00059,  -0.00017,199948128.00000,   0.00000,274640576.00000,   0.00000,   0.00000,   0.00000,-274692448.00000,   0.00000
-187160715.07079,-210717269.01409,-13294002.62530,  -0.00044,  -0.00059,  -0.00017,201167296.00000,   0.00000,274640576.00000,   0.00000,   0.00000,   0.00000,-273473280.00000,   0.00000
-188092342.02642,-212193217.33705,-13256318.83833,  -0.00044,  -0.00060,  -0.00017,202387280.00000,   0.00000,274640576.00000,   0.00000,   0.00000,   0.00000,-272253296.00000,   0.00000
-189023968.98206,-213669165.66002,-13214447.96392,  -0.00044,  -0.00060,  -0.00017,203607392.00000,   0.00000,274640576.00000,   0.00000,   0.00000,   0.00000,-271033184.00000,   0.00000
-189947221.76281,-215153488.15787,-13172577.08951,  -0.00044,  -0.00061,  -0.00017,204830512.00000,   0.00000,274640576.00000,   0.00000,   0.00000,   0.00000,-269810064.00000,   0.00000
-190870474.54356,-216637810.65572,-13130706.21510,  -0.00045,  -0.00061,  -0.00017,206055392.00000,   0.00000,274640576.00000,   0.00000,   0.00000,   0.00000,-268585184.00000,   0.00000
-191772791.88710,-218101197.71636,-13084648.25325,  -0.00045,  -0.00062,  -0.00017,207261120.00000,   0.00000,274640576.00000,   0.00000,   0.00000,   0.00000,-267379456.00000,   0.00000
-192687670.49297,-219593894.38909,-13038590.29140,  -0.00045,  -0.00062,  -0.00017,208491344.00000,   0.00000,274640576.00000,   0.00000,   0.00000,   0.00000,-266149232.00000,   0.00000
-193581613.66163,-221065655.62462,-12992532.32955,  -0.00045,  -0.00063,  -0.00017,209703856.00000,   0.00000,274640576.00000,   0.00000,   0.00000,   0.00000,-264936720.00000,   0.00000
-194475556.83029,-222537416.86015,-12942287.28026,  -0.00045,  -0.00063,  -0.00017,210918224.00000,   0.00000,274640576.00000,   0.00000,   0.00000,   0.00000,-263722352.00000,   0.00000
-195375780.63011,-224023832.90171,-12892042.23096,  -0.00045,  -0.00064,  -0.00017,212146672.00000,   0.00000,274640576.00000,   0.00000,   0.00000,   0.00000,-262493904.00000,   0.00000
-196246694.81785,-225497687.68096,-12841797.18167,  -0.00045,  -0.00064,  -0.00017,213358816.00000,   0.00000,274640576.00000,   0.00000,   0.00000,   0.00000,-261281760.00000,   0.00000
-197132263.81163,-226977823.09137,-12791552.13238,  -0.00045,  -0.00065,  -0.00017,214582432.00000,   0.00000,274640576.00000,   0.00000,   0.00000,   0.00000,-260058144.00000,   0.00000
-198003177.99937,-228451677.87061,-12737119.99565,  -0.00046,  -0.00065,  -0.00017,215797184.00000,   0.00000,274640576.00000,   0.00000,   0.00000,   0.00000,-258843392.00000,   0.00000
-198865718.01222,-229933906.82474,-12678500.77147,  -0.00046,  -0.00066,  -0.00016,217013600.00000,   0.00000,274640576.00000,   0.00000,   0.00000,   0.00000,-257626976.00000,   0.00000
-199728258.02508,-231416135.77887,-12624068.63474,  -0.00046,  -0.00066,  -0.00016,218231360.00000,   0.00000,274640576.00000,   0.00000,   0.00000,   0.00000,-256409216.00000,   0.00000
-200584517.40677,-232883709.92696,-12565449.41056,  -0.00046,  -0.00067,  -0.00016,219439456.00000,   0.00000,274640576.00000,   0.00000,   0.00000,   0.00000,-255201120.00000,   0.00000
-201432402.61358,-234359658.24992,-12506830.18639,  -0.00046,  -0.00067,  -0.00016,220654064.00000,   0.00000,274640576.00000,   0.00000,   0.00000,   0.00000,-253986512.00000,   0.00000
-202286568.45155,-235850261.37893,-12444023.87477,  -0.00046,  -0.00068,  -0.00016,221885552.00000,   0.00000,274640576.00000,   0.00000,   0.00000,   0.00000,-252755024.00000,   0.00000
-203119798.85232,-237319929.07074,-12381217.56316,  -0.00046,  -0.00068,  -0.00016,223101344.00000,   0.00000,274640576.00000,   0.00000,   0.00000,   0.00000,-251539232.00000,   0.00000
-203959309.88425,-238804251.56859,-12318411.25154,  -0.00046,  -0.00069,  -0.00016,224330864.00000,   0.00000,274640576.00000,   0.00000,   0.00000,   0.00000,-250309712.00000,   0.00000
-204784166.11013,-240282293.43528,-12255604.93993,  -0.00046,  -0.00069,  -0.00016,225549568.00000,   0.00000,274640576.00000,   0.00000,   0.00000,   0.00000,-249091008.00000,   0.00000
-205609022.33602,-241760335.30196,-12188611.54087,  -0.00046,  -0.00070,  -0.00016,226764000.00000,   0.00000,274640576.00000,   0.00000,   0.00000,   0.00000,-247876576.00000,   0.00000
-206419223.75586,-243232096.53749,-12121618.14181,  -0.00046,  -0.00070,  -0.00016,227964608.00000,   0.00000,274640576.00000,   0.00000,   0.00000,   0.00000,-246675968.00000,   0.00000
-207229425.17570,-244703857.77301,-12050437.65531,  -0.00047,  -0.00071,  -0.00016,229160592.00000,   0.00000,274640576.00000,   0.00000,   0.00000,   0.00000,-245479984.00000,   0.00000
-208031252.42066,-246183993.18342,-11983444.25626,  -0.00047,  -0.00071,  -0.00016,230356096.00000,   0.00000,274640576.00000,   0.00000,   0.00000,   0.00000,-244284480.00000,   0.00000
-208833079.66562,-247664128.59383,-11908076.68232,  -0.00047,  -0.00072,  -0.00015,231548176.00000,   0.00000,274640576.00000,   0.00000,   0.00000,   0.00000,-243092400.00000,   0.00000
-209620252.10453,-249137983.37308,-11836896.19582,  -0.00047,  -0.00072,  -0.00015,232730944.00000,   0.00000,274640576.00000,   0.00000,   0.00000,   0.00000,-241909632.00000,   0.00000
-210407424.54345,-250611838.15232,-11765715.70932,  -0.00047,  -0.00073,  -0.00015,233913728.00000,   0.00000,274640576.00000,   0.00000,   0.00000,   0.00000,-240726848.00000,   0.00000
-211194596.98237,-252085692.93157,-11690348.13539,  -0.00047,  -0.00074,  -0.00015,235097056.00000,   0.00000,274640576.00000,   0.00000,   0.00000,   0.00000,-239543520.00000,   0.00000
-211973395.24640,-253567921.88570,-11610793.47401,  -0.00047,  -0.00074,  -0.00015,236283680.00000,   0.00000,274640576.00000,   0.00000,   0.00000,   0.00000,-238356896.00000,   0.00000
-212745912.87927,-255035496.03378,-11535425.90007,  -0.00047,  -0.00075,  -0.00015,237461888.00000,   0.00000,274640576.00000,   0.00000,   0.00000,   0.00000,-237178688.00000,   0.00000
-213510056.33726,-256511444.35675,-11455871.23869,  -0.00047,  -0.00075,  -0.00015,238644448.00000,   0.00000,274640576.00000,   0.00000,   0.00000,   0.00000,-235996128.00000,   0.00000
-214259544.98921,-257981112.04855,-11376316.57731,  -0.00047,  -0.00076,  -0.00015,239820720.00000,   0.00000,274640576.00000,   0.00000,   0.00000,   0.00000,-234819856.00000,   0.00000
-215023688.44720,-259457060.37152,-11296761.91593,  -0.00047,  -0.00076,  -0.00015,241008800.00000,   0.00000,274640576.00000,   0.00000,   0.00000,   0.00000,-233631776.00000,   0.00000
-215779457.73031,-260941382.86937,-11213020.16711,  -0.00047,  -0.00077,  -0.00015,242201152.00000,   0.00000,274640576.00000,   0.00000,   0.00000,   0.00000,-232439424.00000,   0.00000
-216514291.57621,-262404769.93001,-11129278.41829,  -0.00047,  -0.00077,  -0.00014,243374992.00000,   0.00000,274640576.00000,   0.00000,   0.00000,   0.00000,-231265584.00000,   0.00000
-217255406.05327,-263882811.79670,-11045536.66947,  -0.00047,  -0.00078,  -0.00014,244561968.00000,   0.00000,274640576.00000,   0.00000,   0.00000,   0.00000,-230078608.00000,   0.00000
-217981865.72429,-265354573.03223,-10957607.83320,  -0.00047,  -0.00078,  -0.00014,245740768.00000,   0.00000,274640576.00000,   0.00000,   0.00000,   0.00000,-228899808.00000,   0.00000
-218708325.39531,-266826334.26775,-10873866.08438,  -0.00047,  -0.00079,  -0.00014,246921232.00000,   0.00000,274640576.00000,   0.00000,   0.00000,   0.00000,-227719344.00000,   0.00000
-219441065.69750,-268312750.30932,-10785937.24812,  -0.00048,  -0.00079,  -0.00014,248113728.00000,   0.00000,274640576.00000,   0.00000,   0.00000,   0.00000,-226526848.00000,   0.00000
-220152870.56247,-269778230.91369,-10693821.32442,  -0.00048,  -0.00080,  -0.00014,249285792.00000,   0.00000,274640576.00000,   0.00000,   0.00000,   0.00000,-225354784.00000,   0.00000
-220856301.25257,-271252085.69293,-10605892.48816,  -0.00048,  -0.00080,  -0.00014,250461808.00000,   0.00000,274640576.00000,   0.00000,   0.00000,   0.00000,-224178768.00000,   0.00000
-221568106.11754,-272717566.29730,-10513776.56445,  -0.00048,  -0.00081,  -0.00014,251635360.00000,   0.00000,274640576.00000,   0.00000,   0.00000,   0.00000,-223005216.00000,   0.00000
-222256882.00160,-274185140.44538,-10421660.64075,  -0.00048,  -0.00081,  -0.00014,252803296.00000,   0.00000,274640576.00000,   0.00000,   0.00000,   0.00000,-221837280.00000,   0.00000
-222960312.69169,-275658995.22463,-10325357.62961,  -0.00048,  -0.00082,  -0.00013,253980528.00000,   0.00000,274640576.00000,   0.00000,   0.00000,   0.00000,-220660048.00000,   0.00000
-223640714.40086,-277134943.54759,-10233241.70590,  -0.00048,  -0.00082,  -0.00013,255152816.00000,   0.00000,274640576.00000,   0.00000,   0.00000,   0.00000,-219487760.00000,   0.00000
-224329490.28491,-278602517.69568,-10136938.69476,  -0.00048,  -0.00083,  -0.00013,256323104.00000,   0.00000,274640576.00000,   0.00000,   0.00000,   0.00000,-218317472.00000,   0.00000
-225009891.99408,-280078466.01865,-10040635.68362,  -0.00048,  -0.00084,  -0.00013,257497168.00000,   0.00000,274640576.00000,   0.00000,   0.00000,   0.00000,-217143408.00000,   0.00000
-225675638.89720,-281548133.71045,-9940145.58503,  -0.00048,  -0.00084,  -0.00013,258663328.00000,   0.00000,274640576.00000,   0.00000,   0.00000,   0.00000,-215977248.00000,   0.00000
-226341385.80033,-283017801.40226,-9843842.57389,  -0.00048,  -0.00085,  -0.00013,259831568.00000,   0.00000,274640576.00000,   0.00000,   0.00000,   0.00000,-214809008.00000,   0.00000
-227007132.70346,-284487469.09406,-9743352.47530,  -0.00048,  -0.00085,  -0.00013,261001280.00000,   0.00000,274640576.00000,   0.00000,   0.00000,   0.00000,-213639296.00000,   0.00000
-227658224.80054,-285950856.15470,-9642862.37672,  -0.00048,  -0.00086,  -0.00013,262164288.00000,   0.00000,274640576.00000,   0.00000,   0.00000,   0.00000,-212476288.00000,   0.00000
-228309316.89762,-287414243.21535,-9538185.19069,  -0.00048,  -0.00086,  -0.00012,263329312.00000,   0.00000,274640576.00000,   0.00000,   0.00000,   0.00000,-211311264.00000,   0.00000
-228952034.81982,-288886004.45087,-9437695.09211,  -0.00048,  -0.00087,  -0.00012,264500096.00000,   0.00000,274640576.00000,   0.00000,   0.00000,   0.00000,-210140480.00000,   0.00000
-229594752.74202,-290357765.68640,-9333017.90608,  -0.00048,  -0.00087,  -0.00012,265672720.00000,   0.00000,274640576.00000,   0.00000,   0.00000,   0.00000,-208967856.00000,   0.00000
-230237470.66422,-291829526.92193,-9228340.72005,  -0.00048,  -0.00088,  -0.00012,266847056.00000,   0.00000,274640576.00000,   0.00000,   0.00000,   0.00000,-207793520.00000,   0.00000
-230865533.78037,-293295007.52629,-9119476.44659,  -0.00048,  -0.00088,  -0.00012,268012384.00000,   0.00000,274640576.00000,   0.00000,   0.00000,   0.00000,-206628192.00000,   0.00000
-231493596.89653,-294760488.13065,-9014799.26056,  -0.00048,  -0.00089,  -0.00012,269176960.00000,   0.00000,274640576.00000,   0.00000,   0.00000,   0.00000,-205463616.00000,   0.00000
-232107005.20664,-296219688.10386,-8905934.98709,  -0.00048,  -0.00090,  -0.00012,270329280.00000,   0.00000,274640576.00000,   0.00000,   0.00000,   0.00000,-204311296.00000,   0.00000
-232726694.14792,-297693542.88310,-8797070.71363,  -0.00048,  -0.00090,  -0.00011,271489440.00000,   0.00000,274640576.00000,   0.00000,   0.00000,   0.00000,-203151136.00000,   0.00000
-233325447.65199,-299146462.22514,-8684019.35272,  -0.00048,  -0.00091,  -0.00011,272624864.00000,   0.00000,274640576.00000,   0.00000,   0.00000,   0.00000,-202015712.00000,   0.00000
-233930481.78722,-300614036.37323,-8575155.07925,  -0.00048,  -0.00091,  -0.00011,273769344.00000,   0.00000,274640576.00000,   0.00000,   0.00000,   0.00000,-200871232.00000,   0.00000
-234535515.92245,-302081610.52131,-8462103.71834,  -0.00048,  -0.00092,  -0.00011,274912384.00000,   0.00000,274640576.00000,   0.00000,   0.00000,   0.00000,-199728192.00000,   0.00000
-235125895.25163,-303542904.03824,-8349052.35743,  -0.00048,  -0.00092,  -0.00011,276048032.00000,   0.00000,274640576.00000,   0.00000,   0.00000,   0.00000,-198592544.00000,   0.00000
-235701619.77478,-304997916.92400,-8236000.99653,  -0.00048,  -0.00093,  -0.00011,277177728.00000,   0.00000,274640576.00000,   0.00000,   0.00000,   0.00000,-197462848.00000,   0.00000
-236298279.73512,-306473865.24697,-8118762.54818,  -0.00048,  -0.00093,  -0.00011,278331008.00000,   0.00000,274640576.00000,   0.00000,   0.00000,   0.00000,-196309568.00000,   0.00000
-236874004.25827,-307928878.13273,-8005711.18727,  -0.00048,  -0.00094,  -0.00010,279468768.00000,   0.00000,274640576.00000,   0.00000,   0.00000,   0.00000,-195171808.00000,   0.00000
-237441354.60653,-309392265.19337,-7888472.73892,  -0.00048,  -0.00094,  -0.00010,280613152.00000,   0.00000,274640576.00000,   0.00000,   0.00000,   0.00000,-194027424.00000,   0.00000
-238008704.95479,-310855652.25401,-7771234.29057,  -0.00048,  -0.00095,  -0.00010,281761056.00000,   0.00000,274640576.00000,   0.00000,   0.00000,   0.00000,-192879520.00000,   0.00000
-238576055.30305,-312319039.31466,-7653995.84222,  -0.00048,  -0.00096,  -0.00010,282911744.00000,   0.00000,274640576.00000,   0.00000,   0.00000,   0.00000,-191728832.00000,   0.00000
-239128750.84527,-313776145.74414,-7532570.30643,  -0.00048,  -0.00096,  -0.00010,284055744.00000,   0.00000,274640576.00000,   0.00000,   0.00000,   0.00000,-190584832.00000,   0.00000
-239681446.38749,-315233252.17362,-7411144.77064,  -0.00048,  -0.00097,  -0.00010,285201536.00000,   0.00000,274640576.00000,   0.00000,   0.00000,   0.00000,-189439040.00000,   0.00000
-240219487.12366,-316684077.97194,-7289719.23485,  -0.00048,  -0.00097,  -0.00009,286340288.00000,   0.00000,274640576.00000,   0.00000,   0.00000,   0.00000,-188300288.00000,   0.00000
-240763808.49099,-318149558.57631,-7168293.69906,  -0.00048,  -0.00098,  -0.00009,287492288.00000,   0.00000,274640576.00000,   0.00000,   0.00000,   0.00000,-187148288.00000,   0.00000
-241301849.22717,-319600384.37463,-7046868.16327,  -0.00047,  -0.00098,  -0.00009,288633472.00000,   0.00000,274640576.00000,   0.00000,   0.00000,   0.00000,-186007104.00000,   0.00000
-241831515.78846,-321059584.34783,-6921255.54004,  -0.00047,  -0.00099,  -0.00009,289778944.00000,   0.00000,274640576.00000,   0.00000,   0.00000,   0.00000,-184861632.00000,   0.00000
-242361182.34975,-322518784.32103,-6799830.00425,  -0.00047,  -0.00099,  -0.00009,290925920.00000,   0.00000,274640576.00000,   0.00000,   0.00000,   0.00000,-183714656.00000,   0.00000
-242876194.10500,-323971703.66307,-6674217.38102,  -0.00047,  -0.00100,  -0.00009,292065472.00000,   0.00000,274640576.00000,   0.00000,   0.00000,   0.00000,-182575104.00000,   0.00000
-243405860.66629,-325430903.63628,-6548604.75779,  -0.00047,  -0.00101,  -0.00009,293214880.00000,   0.00000,274640576.00000,   0.00000,   0.00000,   0.00000,-181425696.00000,   0.00000
-243912498.24666,-326892197.15320,-6418805.04712,  -0.00047,  -0.00101,  -0.00008,294360608.00000,   0.00000,274640576.00000,   0.00000,   0.00000,   0.00000,-180279968.00000,   0.00000
-244412855.19586,-328338835.86408,-6293192.42388,  -0.00047,  -0.00102,  -0.00008,295496352.00000,   0.00000,274640576.00000,   0.00000,   0.00000,   0.00000,-179144224.00000,   0.00000
-244913212.14507,-329785474.57496,-6163392.71321,  -0.00047,  -0.00102,  -0.00008,296633536.00000,   0.00000,274640576.00000,   0.00000,   0.00000,   0.00000,-178007040.00000,   0.00000
-245419849.72543,-331246768.09188,-6033593.00254,  -0.00047,  -0.00103,  -0.00008,297784320.00000,   0.00000,274640576.00000,   0.00000,   0.00000,   0.00000,-176856256.00000,   0.00000
-245911832.49975,-332701780.97764,-5903793.29187,  -0.00047,  -0.00103,  -0.00008,298928736.00000,   0.00000,274640576.00000,   0.00000,   0.00000,   0.00000,-175711840.00000,   0.00000
-246403815.27408,-334156793.86340,-5773993.58119,  -0.00047,  -0.00104,  -0.00008,300075008.00000,   0.00000,274640576.00000,   0.00000,   0.00000,   0.00000,-174565568.00000,   0.00000
-246881143.24235,-335605526.11800,-5644193.87052,  -0.00047,  -0.00105,  -0.00007,301214912.00000,   0.00000,274640576.00000,   0.00000,   0.00000,   0.00000,-173425664.00000,   0.00000
-247358471.21063,-337054258.37260,-5510207.07241,  -0.00047,  -0.00105,  -0.00007,302356576.00000,   0.00000,274640576.00000,   0.00000,   0.00000,   0.00000,-172284000.00000,   0.00000
-247835799.17891,-338502990.62720,-5376220.27430,  -0.00047,  -0.00106,  -0.00007,303500288.00000,   0.00000,274640576.00000,   0.00000,   0.00000,   0.00000,-171140288.00000,   0.00000
-248298472.34115,-339945442.25064,-5242233.47618,  -0.00047,  -0.00106,  -0.00007,304637792.00000,   0.00000,274640576.00000,   0.00000,   0.00000,   0.00000,-170002784.00000,   0.00000
-248767426.13454,-341402548.68013,-5108246.67807,  -0.00047,  -0.00107,  -0.00007,305789312.00000,   0.00000,274640576.00000,   0.00000,   0.00000,   0.00000,-168851264.00000,   0.00000
-249230099.29678,-342845000.30356,-4974259.87996,  -0.00047,  -0.00107,  -0.00006,306930816.00000,   0.00000,274640576.00000,   0.00000,   0.00000,   0.00000,-167709760.00000,   0.00000
-249684398.28413,-344295826.10188,-4840273.08184,  -0.00046,  -0.00108,  -0.00006,308078080.00000,   0.00000,274640576.00000,   0.00000,   0.00000,   0.00000,-166562496.00000,   0.00000
-250138697.27148,-345746651.90021,-4702099.19629,  -0.00046,  -0.00109,  -0.00006,309227168.00000,   0.00000,274640576.00000,   0.00000,   0.00000,   0.00000,-165413408.00000,   0.00000
-250578341.45279,-347191197.06736,-4563925.31073,  -0.00046,  -0.00109,  -0.00006,310370080.00000,   0.00000,274640576.00000,   0.00000,   0.00000,   0.00000,-164270496.00000,   0.00000
-251017985.63410,-348635742.23452,-4425751.42518,  -0.00046,  -0.00110,  -0.00006,311514752.00000,   0.00000,274640576.00000,   0.00000,   0.00000,   0.00000,-163125824.00000,   0.00000
-251457629.81541,-350080287.40168,-4287577.53963,  -0.00046,  -0.00110,  -0.00006,312661344.00000,   0.00000,274640576.00000,   0.00000,   0.00000,   0.00000,-161979232.00000,   0.00000
-251882619.19068,-351518551.93768,-4149403.65407,  -0.00046,  -0.00111,  -0.00005,313801472.00000,   0.00000,274640576.00000,   0.00000,   0.00000,   0.00000,-160839104.00000,   0.00000
-252307608.56594,-352956816.47368,-4011229.76852,  -0.00046,  -0.00111,  -0.00005,314943264.00000,   0.00000,274640576.00000,   0.00000,   0.00000,   0.00000,-159697312.00000,   0.00000
-252738878.57237,-354409735.81572,-3868868.79552,  -0.00046,  -0.00112,  -0.00005,316098656.00000,   0.00000,274640576.00000,   0.00000,   0.00000,   0.00000,-158541920.00000,   0.00000
-253149213.14159,-355841719.72055,-3730694.90997,  -0.00046,  -0.00113,  -0.00005,317235456.00000,   0.00000,274640576.00000,   0.00000,   0.00000,   0.00000,-157405120.00000,   0.00000
-253565828.34198,-357288358.43143,-3588333.93697,  -0.00046,  -0.00113,  -0.00005,318385824.00000,   0.00000,274640576.00000,   0.00000,   0.00000,   0.00000,-156254752.00000,   0.00000
-253982443.54236,-358734997.14231,-3445972.96398,  -0.00046,  -0.00114,  -0.00004,319537536.00000,   0.00000,274640576.00000,   0.00000,   0.00000,   0.00000,-155103040.00000,   0.00000
-254384403.93670,-360175355.22203,-3303611.99098,  -0.00046,  -0.00114,  -0.00004,320682464.00000,   0.00000,274640576.00000,   0.00000,   0.00000,   0.00000,-153958112.00000,   0.00000
-254780083.69988,-361601058.49571,-3157063.93054,  -0.00045,  -0.00115,  -0.00004,321816352.00000,   0.00000,274640576.00000,   0.00000,   0.00000,   0.00000,-152824224.00000,   0.00000
-255182044.09422,-363041416.57542,-3014702.95755,  -0.00045,  -0.00115,  -0.00004,322963776.00000,   0.00000,274640576.00000,   0.00000,   0.00000,   0.00000,-151676800.00000,   0.00000
-255575630.31368,-364490148.83002,-2872341.98455,  -0.00045,  -0.00116,  -0.00004,324116608.00000,   0.00000,274640576.00000,   0.00000,   0.00000,   0.00000,-150523968.00000,   0.00000
-255962935.90197,-365924226.27858,-2725793.92412,  -0.00045,  -0.00117,  -0.00004,325258464.00000,   0.00000,274640576.00000,   0.00000,   0.00000,   0.00000,-149382112.00000,   0.00000
-256335586.68422,-367352023.09597,-2579245.86368,  -0.00045,  -0.00117,  -0.00003,326393632.00000,   0.00000,274640576.00000,   0.00000,   0.00000,   0.00000,-148246944.00000,   0.00000
-256722892.27252,-368786100.54453,-2432697.80324,  -0.00045,  -0.00118,  -0.00003,327537696.00000,   0.00000,274640576.00000,   0.00000,   0.00000,   0.00000,-147102880.00000,   0.00000
-257101823.68593,-370228552.16797,-2286149.74281,  -0.00045,  -0.00118,  -0.00003,328687328.00000,   0.00000,274640576.00000,   0.00000,   0.00000,   0.00000,-145953248.00000,   0.00000
-257459819.66214,-371650068.35420,-2139601.68237,  -0.00045,  -0.00119,  -0.00003,329817888.00000,   0.00000,274640576.00000,   0.00000,   0.00000,   0.00000,-144822688.00000,   0.00000
-257838751.07556,-373092519.97764,-1993053.62194,  -0.00045,  -0.00119,  -0.00003,330969184.00000,   0.00000,274640576.00000,   0.00000,   0.00000,   0.00000,-143671392.00000,   0.00000
-258203027.68293,-374528690.96992,-1842318.47406,  -0.00044,  -0.00120,  -0.00002,332113280.00000,   0.00000,274640576.00000,   0.00000,   0.00000,   0.00000,-142527296.00000,   0.00000
-258546368.85309,-375943926.52499,-1695770.41362,  -0.00044,  -0.00121,  -0.00002,333237792.00000,   0.00000,274640576.00000,   0.00000,   0.00000,   0.00000,-141402784.00000,   0.00000
-258910645.46046,-377380097.51727,-1545035.26574,  -0.00044,  -0.00121,  -0.00002,334382240.00000,   0.00000,274640576.00000,   0.00000,   0.00000,   0.00000,-140258336.00000,   0.00000
-259260267.26179,-378809987.87838,-1394300.11787,  -0.00044,  -0.00122,  -0.00002,335518912.00000,   0.00000,274640576.00000,   0.00000,   0.00000,   0.00000,-139121664.00000,   0.00000
-259595234.25707,-380233597.60834,-1243564.96999,  -0.00044,  -0.00122,  -0.00002,336647936.00000,   0.00000,274640576.00000,   0.00000,   0.00000,   0.00000,-137992640.00000,   0.00000
-259944856.05840,-381663487.96945,-1092829.82211,  -0.00044,  -0.00123,  -0.00001,337784896.00000,   0.00000,274640576.00000,   0.00000,   0.00000,   0.00000,-136855680.00000,   0.00000
-260279823.05368,-383087097.69940,-942094.67423,  -0.00044,  -0.00124,  -0.00001,338915104.00000,   0.00000,274640576.00000,   0.00000,   0.00000,   0.00000,-135725472.00000,   0.00000
-260621070.68013,-384525362.23540,-791359.52636,  -0.00044,  -0.00124,  -0.00001,340058944.00000,   0.00000,274640576.00000,   0.00000,   0.00000,   0.00000,-134581632.00000,   0.00000
-260941382.86937,-385942691.33419,-640624.37848,  -0.00043,  -0.00125,  -0.00001,341184960.00000,   0.00000,274640576.00000,   0.00000,   0.00000,   0.00000,-133455616.00000,   0.00000
-261261695.05861,-387360020.43299,-485702.14316,  -0.00043,  -0.00125,  -0.00001,342313696.00000,   0.00000,274640576.00000,   0.00000,   0.00000,   0.00000,-132326880.00000,   0.00000
-261588287.87901,-388792004.33782,-334966.99528,  -0.00043,  -0.00126,  -0.00000,343457952.00000,   0.00000,274640576.00000,   0.00000,   0.00000,   0.00000,-131182624.00000,   0.00000
-261908600.06825,-390209333.43661,-180044.75996,  -0.00043,  -0.00126,  -0.00000,344593504.00000,   0.00000,274640576.00000,   0.00000,   0.00000,   0.00000,-130047072.00000,   0.00000
-262220538.08261,-391635036.71029,-29309.61209,  -0.00043,  -0.00127,  -0.00000,345737376.00000,   0.00000,274640576.00000,   0.00000,   0.00000,   0.00000,-128903200.00000,   0.00000
-262532476.09696,-393060739.98396,125612.62323,  -0.00043,  -0.00128,   0.00000,346884640.00000,   0.00000,274640576.00000,   0.00000,   0.00000,   0.00000,-127755936.00000,   0.00000
-262838133.48016,-394471788.45159,280534.85855,  -0.00043,  -0.00128,   0.00000,348022976.00000,   0.00000,274640576.00000,   0.00000,   0.00000,   0.00000,-126617600.00000,   0.00000
-263135416.68847,-395891211.09411,435457.09387,  -0.00043,  -0.00129,   0.00001,349169056.00000,   0.00000,274640576.00000,   0.00000,   0.00000,   0.00000,-125471520.00000,   0.00000
-263447354.70283,-397316914.36778,590379.32919,  -0.00042,  -0.00129,   0.00001,350325216.00000,   0.00000,274640576.00000,   0.00000,   0.00000,   0.00000,-124315360.00000,   0.00000
-263729983.10510,-398730056.37913,745301.56451,  -0.00042,  -0.00130,   0.00001,351468672.00000,   0.00000,274640576.00000,   0.00000,   0.00000,   0.00000,-123171904.00000,   0.00000
-264027266.31342,-400149479.02165,900223.79982,  -0.00042,  -0.00131,   0.00001,352621312.00000,   0.00000,274640576.00000,   0.00000,   0.00000,   0.00000,-122019264.00000,   0.00000
-264309894.71569,-401562621.03300,1059333.12258,  -0.00042,  -0.00131,   0.00001,353768128.00000,   0.00000,274640576.00000,   0.00000,   0.00000,   0.00000,-120872448.00000,   0.00000
-264592523.11796,-402975763.04435,1214255.35790,  -0.00042,  -0.00132,   0.00002,354915904.00000,   0.00000,274640576.00000,   0.00000,   0.00000,   0.00000,-119724672.00000,   0.00000
-264875151.52023,-404388905.05570,1373364.68066,  -0.00042,  -0.00132,   0.00002,356064544.00000,   0.00000,274640576.00000,   0.00000,   0.00000,   0.00000,-118576032.00000,   0.00000
-265157779.92250,-405802047.06705,1528286.91598,  -0.00042,  -0.00133,   0.00002,357213728.00000,   0.00000,274640576.00000,   0.00000,   0.00000,   0.00000,-117426848.00000,   0.00000
-265425753.51872,-407208908.44724,1687396.23874,  -0.00041,  -0.00134,   0.00002,358356064.00000,   0.00000,274640576.00000,   0.00000,   0.00000,   0.00000,-116284512.00000,   0.00000
-265700007.74611,-408630424.63347,1846505.56150,  -0.00041,  -0.00134,   0.00002,359511040.00000,   0.00000,274640576.00000,   0.00000,   0.00000,   0.00000,-115129536.00000,   0.00000
-265967981.34234,-410037286.01366,2001427.79682,  -0.00041,  -0.00135,   0.00003,360653216.00000,   0.00000,274640576.00000,   0.00000,   0.00000,   0.00000,-113987360.00000,   0.00000
-266221300.13252,-411437866.76269,2160537.11958,  -0.00041,  -0.00135,   0.00003,361788448.00000,   0.00000,274640576.00000,   0.00000,   0.00000,   0.00000,-112852128.00000,   0.00000
-266480899.55387,-412853102.31776,2319646.44234,  -0.00041,  -0.00136,   0.00003,362935712.00000,   0.00000,274640576.00000,   0.00000,   0.00000,   0.00000,-111704864.00000,   0.00000
-266734218.34405,-414253683.06679,2478755.76510,  -0.00041,  -0.00136,   0.00003,364070400.00000,   0.00000,274640576.00000,   0.00000,   0.00000,   0.00000,-110570176.00000,   0.00000
-266993817.76539,-415668918.62186,2637865.08786,  -0.00040,  -0.00137,   0.00003,365217024.00000,   0.00000,274640576.00000,   0.00000,   0.00000,   0.00000,-109423552.00000,   0.00000
-267232481.74953,-417063218.73973,2796974.41062,  -0.00040,  -0.00138,   0.00004,366343616.00000,   0.00000,274640576.00000,   0.00000,   0.00000,   0.00000,-108296960.00000,   0.00000
-267477426.36483,-418472173.66364,2956083.73337,  -0.00040,  -0.00138,   0.00004,367482240.00000,   0.00000,274640576.00000,   0.00000,   0.00000,   0.00000,-107158336.00000,   0.00000
-267716090.34897,-419866473.78151,3119380.14358,  -0.00040,  -0.00139,   0.00004,368608256.00000,   0.00000,274640576.00000,   0.00000,   0.00000,   0.00000,-106032320.00000,   0.00000
-267961034.96427,-421275428.70542,3278489.46633,  -0.00040,  -0.00139,   0.00004,369746112.00000,   0.00000,274640576.00000,   0.00000,   0.00000,   0.00000,-104894464.00000,   0.00000
-268191324.77353,-422678102.99816,3437598.78909,  -0.00040,  -0.00140,   0.00004,370876608.00000,   0.00000,274640576.00000,   0.00000,   0.00000,   0.00000,-103763968.00000,   0.00000
-268415333.95163,-424066122.48487,3596708.11185,  -0.00039,  -0.00141,   0.00005,371994432.00000,   0.00000,274640576.00000,   0.00000,   0.00000,   0.00000,-102646144.00000,   0.00000
-268645623.76088,-425468796.77762,3760004.52205,  -0.00039,  -0.00141,   0.00005,373124736.00000,   0.00000,274640576.00000,   0.00000,   0.00000,   0.00000,-101515840.00000,   0.00000
-268875913.57014,-426871471.07037,3919113.84481,  -0.00039,  -0.00142,   0.00005,374255008.00000,   0.00000,274640576.00000,   0.00000,   0.00000,   0.00000,-100385568.00000,   0.00000
-269106203.37940,-428274145.36311,4082410.25501,  -0.00039,  -0.00142,   0.00005,375385664.00000,   0.00000,274640576.00000,   0.00000,   0.00000,   0.00000,-99254912.00000,   0.00000
-269315557.75145,-429655884.21866,4241519.57777,  -0.00039,  -0.00143,   0.00006,376497152.00000,   0.00000,274640576.00000,   0.00000,   0.00000,   0.00000,-98143424.00000,   0.00000
-269531192.75466,-431052277.88025,4404815.98797,  -0.00039,  -0.00144,   0.00006,377621696.00000,   0.00000,274640576.00000,   0.00000,   0.00000,   0.00000,-97018880.00000,   0.00000
-269746827.75788,-432448671.54183,4568112.39818,  -0.00038,  -0.00144,   0.00006,378747040.00000,   0.00000,274640576.00000,   0.00000,   0.00000,   0.00000,-95893536.00000,   0.00000
-269947807.95505,-433838784.57226,4727221.72093,  -0.00038,  -0.00145,   0.00006,379866080.00000,   0.00000,274640576.00000,   0.00000,   0.00000,   0.00000,-94774496.00000,   0.00000
-270148788.15222,-435228897.60268,4890518.13114,  -0.00038,  -0.00145,   0.00006,380986400.00000,   0.00000,274640576.00000,   0.00000,   0.00000,   0.00000,-93654176.00000,   0.00000
-270364423.15543,-436625291.26427,5053814.54134,  -0.00038,  -0.00146,   0.00007,382115008.00000,   0.00000,274640576.00000,   0.00000,   0.00000,   0.00000,-92525568.00000,   0.00000
-270550748.54656,-438009123.66353,5212923.86410,  -0.00038,  -0.00147,   0.00007,383230816.00000,   0.00000,274640576.00000,   0.00000,   0.00000,   0.00000,-91409760.00000,   0.00000
-270751728.74373,-439399236.69396,5376220.27430,  -0.00038,  -0.00147,   0.00007,384355296.00000,   0.00000,274640576.00000,   0.00000,   0.00000,   0.00000,-90285280.00000,   0.00000
-270938054.13485,-440783069.09322,5539516.68450,  -0.00037,  -0.00148,   0.00007,385474400.00000,   0.00000,274640576.00000,   0.00000,   0.00000,   0.00000,-89166176.00000,   0.00000
-271139034.33202,-442173182.12365,5702813.09470,  -0.00037,  -0.00148,   0.00007,386602080.00000,   0.00000,274640576.00000,   0.00000,   0.00000,   0.00000,-88038496.00000,   0.00000
-271325359.72315,-443557014.52291,5866109.50490,  -0.00037,  -0.00149,   0.00008,387724640.00000,   0.00000,274640576.00000,   0.00000,   0.00000,   0.00000,-86915936.00000,   0.00000
-271511685.11428,-444940846.92218,6029405.91510,  -0.00037,  -0.00150,   0.00008,388848832.00000,   0.00000,274640576.00000,   0.00000,   0.00000,   0.00000,-85791744.00000,   0.00000
-271683355.69936,-446318398.69028,6192702.32530,  -0.00037,  -0.00150,   0.00008,389968096.00000,   0.00000,274640576.00000,   0.00000,   0.00000,   0.00000,-84672480.00000,   0.00000
-271869681.09048,-447702231.08954,6351811.64806,  -0.00036,  -0.00151,   0.00008,391095808.00000,   0.00000,274640576.00000,   0.00000,   0.00000,   0.00000,-83544768.00000,   0.00000
-272041351.67557,-449079782.85765,6515108.05826,  -0.00036,  -0.00151,   0.00008,392218688.00000,   0.00000,274640576.00000,   0.00000,   0.00000,   0.00000,-82421888.00000,   0.00000
-272219302.89181,-450471989.43179,6678404.46846,  -0.00036,  -0.00152,   0.00009,393355936.00000,   0.00000,274640576.00000,   0.00000,   0.00000,   0.00000,-81284640.00000,   0.00000
-272376318.67085,-451843260.56873,6841700.87866,  -0.00036,  -0.00152,   0.00009,394475744.00000,   0.00000,274640576.00000,   0.00000,   0.00000,   0.00000,-80164832.00000,   0.00000
-272547989.25593,-453220812.33683,7004997.28886,  -0.00036,  -0.00153,   0.00009,395604128.00000,   0.00000,274640576.00000,   0.00000,   0.00000,   0.00000,-79036448.00000,   0.00000
-272705005.03497,-454592083.47378,7168293.69906,  -0.00035,  -0.00154,   0.00009,396727552.00000,   0.00000,274640576.00000,   0.00000,   0.00000,   0.00000,-77913024.00000,   0.00000
-272876675.62005,-455969635.24188,7331590.10926,  -0.00035,  -0.00154,   0.00010,397859424.00000,   0.00000,274640576.00000,   0.00000,   0.00000,   0.00000,-76781152.00000,   0.00000
-273033691.39909,-457340906.37882,7494886.51946,  -0.00035,  -0.00155,   0.00010,398986208.00000,   0.00000,274640576.00000,   0.00000,   0.00000,   0.00000,-75654368.00000,   0.00000
-273190707.17813,-458712177.51576,7658182.92966,  -0.00035,  -0.00155,   0.00010,400114528.00000,   0.00000,274640576.00000,   0.00000,   0.00000,   0.00000,-74526048.00000,   0.00000
-273333068.15113,-460077168.02154,7821479.33986,  -0.00035,  -0.00156,   0.00010,401237856.00000,   0.00000,274640576.00000,   0.00000,   0.00000,   0.00000,-73402720.00000,   0.00000
-273496364.56133,-461463093.96452,7984775.75006,  -0.00034,  -0.00157,   0.00010,402381696.00000,   0.00000,274640576.00000,   0.00000,   0.00000,   0.00000,-72258880.00000,   0.00000
-273638725.53432,-462828084.47030,8148072.16026,  -0.00034,  -0.00157,   0.00011,403507776.00000,   0.00000,274640576.00000,   0.00000,   0.00000,   0.00000,-71132800.00000,   0.00000
-273781086.50732,-464193074.97608,8311368.57047,  -0.00034,  -0.00158,   0.00011,404635360.00000,   0.00000,274640576.00000,   0.00000,   0.00000,   0.00000,-70005216.00000,   0.00000
-273923447.48032,-465558065.48186,8474664.98067,  -0.00034,  -0.00158,   0.00011,405764128.00000,   0.00000,274640576.00000,   0.00000,   0.00000,   0.00000,-68876448.00000,   0.00000
-274065808.45331,-466923055.98764,8637961.39087,  -0.00034,  -0.00159,   0.00011,406893984.00000,   0.00000,274640576.00000,   0.00000,   0.00000,   0.00000,-67746592.00000,   0.00000
-274193514.62026,-468281765.86226,8801257.80107,  -0.00033,  -0.00160,   0.00011,408018528.00000,   0.00000,274640576.00000,   0.00000,   0.00000,   0.00000,-66622048.00000,   0.00000
-274335875.59326,-469646756.36804,8964554.21127,  -0.00033,  -0.00160,   0.00012,409150528.00000,   0.00000,274640576.00000,   0.00000,   0.00000,   0.00000,-65490048.00000,   0.00000
-274463581.76021,-471005466.24265,9127850.62147,  -0.00033,  -0.00161,   0.00012,410277120.00000,   0.00000,274640576.00000,   0.00000,   0.00000,   0.00000,-64363456.00000,   0.00000
-274591287.92716,-472364176.11727,9291147.03167,  -0.00033,  -0.00161,   0.00012,411404544.00000,   0.00000,274640576.00000,   0.00000,   0.00000,   0.00000,-63236032.00000,   0.00000
-274718994.09411,-473722885.99189,9454443.44187,  -0.00033,  -0.00162,   0.00012,412532800.00000,   0.00000,274640576.00000,   0.00000,   0.00000,   0.00000,-62107776.00000,   0.00000
-274832045.45502,-475075315.23535,9617739.85207,  -0.00032,  -0.00163,   0.00013,413655584.00000,   0.00000,274640576.00000,   0.00000,   0.00000,   0.00000,-60984992.00000,   0.00000
-274959751.62197,-476434025.10996,9781036.26227,  -0.00032,  -0.00163,   0.00013,414785408.00000,   0.00000,274640576.00000,   0.00000,   0.00000,   0.00000,-59855168.00000,   0.00000
-275072802.98288,-477786454.35342,9944332.67247,  -0.00032,  -0.00164,   0.00013,415909632.00000,   0.00000,274640576.00000,   0.00000,   0.00000,   0.00000,-58730944.00000,   0.00000
-275200509.14983,-479145164.22804,10107629.08267,  -0.00032,  -0.00164,   0.00013,417040896.00000,   0.00000,274640576.00000,   0.00000,   0.00000,   0.00000,-57599680.00000,   0.00000
-275313560.51074,-480497593.47149,10270925.49287,  -0.00032,  -0.00165,   0.00013,418166592.00000,   0.00000,274640576.00000,   0.00000,   0.00000,   0.00000,-56473984.00000,   0.00000
-275426611.87165,-481850022.71495,10430034.81563,  -0.00031,  -0.00166,   0.00014,419292640.00000,   0.00000,274640576.00000,   0.00000,   0.00000,   0.00000,-55347936.00000,   0.00000
-275539663.23256,-483202451.95841,10593331.22583,  -0.00031,  -0.00166,   0.00014,420419712.00000,   0.00000,274640576.00000,   0.00000,   0.00000,   0.00000,-54220864.00000,   0.00000
-275638059.78742,-484548600.57070,10756627.63603,  -0.00031,  -0.00167,   0.00014,421541312.00000,   0.00000,274640576.00000,   0.00000,   0.00000,   0.00000,-53099264.00000,   0.00000
-275751111.14833,-485901029.81416,10919924.04623,  -0.00031,  -0.00167,   0.00014,422669824.00000,   0.00000,274640576.00000,   0.00000,   0.00000,   0.00000,-51970752.00000,   0.00000
-275849507.70319,-487247178.42645,11079033.36899,  -0.00030,  -0.00168,   0.00014,423792640.00000,   0.00000,274640576.00000,   0.00000,   0.00000,   0.00000,-50847936.00000,   0.00000
-275947904.25806,-488593327.03875,11242329.77919,  -0.00030,  -0.00169,   0.00015,424916704.00000,   0.00000,274640576.00000,   0.00000,   0.00000,   0.00000,-49723872.00000,   0.00000
-276046300.81292,-489939475.65104,11405626.18939,  -0.00030,  -0.00169,   0.00015,426041664.00000,   0.00000,274640576.00000,   0.00000,   0.00000,   0.00000,-48598912.00000,   0.00000
-276138416.73663,-491270969.45729,11564735.51215,  -0.00030,  -0.00170,   0.00015,427154656.00000,   0.00000,274640576.00000,   0.00000,   0.00000,   0.00000,-47485920.00000,   0.00000
-276236813.29149,-492617118.06959,11728031.92235,  -0.00030,  -0.00170,   0.00015,428281536.00000,   0.00000,274640576.00000,   0.00000,   0.00000,   0.00000,-46359040.00000,   0.00000
-276335209.84635,-493963266.68188,11887141.24511,  -0.00029,  -0.00171,   0.00015,429409248.00000,   0.00000,274640576.00000,   0.00000,   0.00000,   0.00000,-45231328.00000,   0.00000
-276412670.96401,-495288479.85697,12050437.65531,  -0.00029,  -0.00171,   0.00016,430519872.00000,   0.00000,274640576.00000,   0.00000,   0.00000,   0.00000,-44120704.00000,   0.00000
-276496412.71283,-496628347.83810,12209546.97807,  -0.00029,  -0.00172,   0.00016,431643872.00000,   0.00000,274640576.00000,   0.00000,   0.00000,   0.00000,-42996704.00000,   0.00000
-276594809.26770,-497974496.45040,12372843.38827,  -0.00029,  -0.00173,   0.00016,432775648.00000,   0.00000,274640576.00000,   0.00000,   0.00000,   0.00000,-41864928.00000,   0.00000
-276672270.38536,-499299709.62549,12531952.71103,  -0.00029,  -0.00173,   0.00016,433890016.00000,   0.00000,274640576.00000,   0.00000,   0.00000,   0.00000,-40750560.00000,   0.00000
-276756012.13418,-500639577.60662,12695249.12124,  -0.00028,  -0.00174,   0.00017,435018560.00000,   0.00000,274640576.00000,   0.00000,   0.00000,   0.00000,-39622016.00000,   0.00000
-276833473.25184,-501964790.78171,12854358.44399,  -0.00028,  -0.00174,   0.00017,436135872.00000,   0.00000,274640576.00000,   0.00000,   0.00000,   0.00000,-38504704.00000,   0.00000
-276902560.19462,-503298378.13168,13013467.76675,  -0.00028,  -0.00175,   0.00017,437261184.00000,   0.00000,274640576.00000,   0.00000,   0.00000,   0.00000,-37379392.00000,   0.00000
-276980021.31227,-504623591.30677,13172577.08951,  -0.00028,  -0.00176,   0.00017,438381664.00000,   0.00000,274640576.00000,   0.00000,   0.00000,   0.00000,-36258912.00000,   0.00000
-277042827.62389,-505942523.85070,13331686.41227,  -0.00027,  -0.00176,   0.00017,439497728.00000,   0.00000,274640576.00000,   0.00000,   0.00000,   0.00000,-35142848.00000,   0.00000
-277126569.37271,-507282391.83183,13490795.73503,  -0.00027,  -0.00177,   0.00018,440634112.00000,   0.00000,274640576.00000,   0.00000,   0.00000,   0.00000,-34006464.00000,   0.00000
-277189375.68433,-508601324.37576,13654092.14523,  -0.00027,  -0.00177,   0.00018,441753952.00000,   0.00000,274640576.00000,   0.00000,   0.00000,   0.00000,-32886624.00000,   0.00000
-277252181.99594,-509920256.91969,13813201.46799,  -0.00027,  -0.00178,   0.00018,442875040.00000,   0.00000,274640576.00000,   0.00000,   0.00000,   0.00000,-31765536.00000,   0.00000
-277321268.93872,-511253844.26966,13968123.70331,  -0.00026,  -0.00179,   0.00018,444010048.00000,   0.00000,274640576.00000,   0.00000,   0.00000,   0.00000,-30630528.00000,   0.00000
-277384075.25034,-512572776.81358,14127233.02607,  -0.00026,  -0.00179,   0.00018,445134368.00000,   0.00000,274640576.00000,   0.00000,   0.00000,   0.00000,-29506208.00000,   0.00000
-277446881.56195,-513891709.35751,14286342.34883,  -0.00026,  -0.00180,   0.00019,446260352.00000,   0.00000,274640576.00000,   0.00000,   0.00000,   0.00000,-28380224.00000,   0.00000
-277495033.06752,-515204361.27028,14445451.67159,  -0.00026,  -0.00180,   0.00019,447381792.00000,   0.00000,274640576.00000,   0.00000,   0.00000,   0.00000,-27258784.00000,   0.00000
-277557839.37914,-516523293.81421,14604560.99435,  -0.00026,  -0.00181,   0.00019,448510624.00000,   0.00000,274640576.00000,   0.00000,   0.00000,   0.00000,-26129952.00000,   0.00000
-277605990.88471,-517835945.72697,14759483.22967,  -0.00025,  -0.00181,   0.00019,449634336.00000,   0.00000,274640576.00000,   0.00000,   0.00000,   0.00000,-25006240.00000,   0.00000
-277668797.19633,-519154878.27090,14918592.55243,  -0.00025,  -0.00182,   0.00019,450765728.00000,   0.00000,274640576.00000,   0.00000,   0.00000,   0.00000,-23874848.00000,   0.00000
-277710668.07074,-520452875.37762,15073514.78775,  -0.00025,  -0.00183,   0.00020,451879168.00000,   0.00000,274640576.00000,   0.00000,   0.00000,   0.00000,-22761408.00000,   0.00000
-277758819.57631,-521765527.29039,15232624.11051,  -0.00025,  -0.00183,   0.00020,453006720.00000,   0.00000,274640576.00000,   0.00000,   0.00000,   0.00000,-21633856.00000,   0.00000
-277806971.08188,-523078179.20316,15387546.34582,  -0.00024,  -0.00184,   0.00020,454134688.00000,   0.00000,274640576.00000,   0.00000,   0.00000,   0.00000,-20505888.00000,   0.00000
-277855122.58745,-524390831.11592,15546655.66858,  -0.00024,  -0.00184,   0.00020,455264032.00000,   0.00000,274640576.00000,   0.00000,   0.00000,   0.00000,-19376544.00000,   0.00000
-277896993.46186,-525688828.22264,15701577.90390,  -0.00024,  -0.00185,   0.00020,456380928.00000,   0.00000,274640576.00000,   0.00000,   0.00000,   0.00000,-18259648.00000,   0.00000
-277945144.96743,-527001480.13541,15856500.13922,  -0.00024,  -0.00186,   0.00021,457511104.00000,   0.00000,274640576.00000,   0.00000,   0.00000,   0.00000,-17129472.00000,   0.00000
-277972361.03580,-528293196.61097,16011422.37454,  -0.00023,  -0.00186,   0.00021,458623360.00000,   0.00000,274640576.00000,   0.00000,   0.00000,   0.00000,-16017216.00000,   0.00000
-278020512.54137,-529605848.52374,16166344.60986,  -0.00023,  -0.00187,   0.00021,459754560.00000,   0.00000,274640576.00000,   0.00000,   0.00000,   0.00000,-14886016.00000,   0.00000
-278047728.60974,-530897564.99930,16321266.84518,  -0.00023,  -0.00187,   0.00021,460867776.00000,   0.00000,274640576.00000,   0.00000,   0.00000,   0.00000,-13772800.00000,   0.00000
-278089599.48415,-532195562.10602,16476189.08049,  -0.00023,  -0.00188,   0.00021,461987104.00000,   0.00000,274640576.00000,   0.00000,   0.00000,   0.00000,-12653472.00000,   0.00000
-278123096.18368,-533501933.38763,16631111.31581,  -0.00023,  -0.00189,   0.00022,463113888.00000,   0.00000,274640576.00000,   0.00000,   0.00000,   0.00000,-11526688.00000,   0.00000
-278150312.25205,-534793649.86319,16786033.55113,  -0.00022,  -0.00189,   0.00022,464228384.00000,   0.00000,274640576.00000,   0.00000,   0.00000,   0.00000,-10412192.00000,   0.00000
-278177528.32041,-536085366.33875,16936768.69901,  -0.00022,  -0.00190,   0.00022,465343072.00000,   0.00000,274640576.00000,   0.00000,   0.00000,   0.00000,-9297504.00000,   0.00000
-278204744.38878,-537377082.81431,17091690.93433,  -0.00022,  -0.00190,   0.00022,466458720.00000,   0.00000,274640576.00000,   0.00000,   0.00000,   0.00000,-8181856.00000,   0.00000
-278231960.45715,-538668799.28987,17242426.08221,  -0.00022,  -0.00191,   0.00022,467574752.00000,   0.00000,274640576.00000,   0.00000,   0.00000,   0.00000,-7065824.00000,   0.00000
-278259176.52551,-539960515.76543,17397348.31752,  -0.00021,  -0.00191,   0.00023,468692096.00000,   0.00000,274640576.00000,   0.00000,   0.00000,   0.00000,-5948480.00000,   0.00000
-278286392.59388,-541252232.24099,17548083.46540,  -0.00021,  -0.00192,   0.00023,469810240.00000,   0.00000,274640576.00000,   0.00000,   0.00000,   0.00000,-4830336.00000,   0.00000
-278307328.03108,-542529293.91051,17698818.61328,  -0.00021,  -0.00193,   0.00023,470917088.00000,   0.00000,274640576.00000,   0.00000,   0.00000,   0.00000,-3723488.00000,   0.00000
-278319889.29341,-543814729.75491,17853740.84860,  -0.00021,  -0.00193,   0.00023,472033216.00000,   0.00000,274640576.00000,   0.00000,   0.00000,   0.00000,-2607360.00000,   0.00000
-278347105.36177,-545106446.23047,18004475.99647,  -0.00020,  -0.00194,   0.00023,473156640.00000,   0.00000,274640576.00000,   0.00000,   0.00000,   0.00000,-1483936.00000,   0.00000
-278353385.99294,-546377227.26883,18155211.14435,  -0.00020,  -0.00194,   0.00024,474264288.00000,   0.00000,274640576.00000,   0.00000,   0.00000,   0.00000,-376288.00000,   0.00000
-278362475.73452,-546808640.38859,18205554.32851,  -0.00020,  -0.00195,   0.00024,474640864.00000,   0.00000,274640576.00000,   0.00000,   0.00000,   0.00000, 288.00000,   0.00000
-278002731.68513,-546807309.32564,18273146.35417,  -0.00020,  -0.00195,   0.00024,474640864.00000,   0.00000,274643456.00000,  -0.00000,  -0.00000,   0.00000, -64.00000,   2.00000
-277452554.78679,-546805118.90644,18375105.81173,  -0.00020,  -0.00195,   0.00024,475755872.00000,   0.00001,274647680.00000,  -0.00000,  -0.00001,   0.00000, -32.00000,   2.00000
-276903831.85431,-546802644.75698,18472581.67139,  -0.00019,  -0.00196,   0.00024,475760672.00000,   0.00001,274651936.00000,  -0.00000,  -0.00001,   0.00000,   0.00000,   2.00000
-276367874.35577,-546798782.54607,18573084.08769,  -0.00019,  -0.00197,   0.00024,475784800.00000,   0.00001,274656256.00000,  -0.00000,  -0.00002,   0.00000, 128.00000,   2.00000
-275821153.84143,-546793884.35213,18674062.22161,  -0.00019,  -0.00197,   0.00025,475772000.00000,   0.00002,274660512.00000,  -0.00000,  -0.00002,   0.00000, -64.00000,   2.00000
-275275834.23130,-546788772.17551,18770558.44220,  -0.00019,  -0.00198,   0.00025,475776672.00000,   0.00002,274664768.00000,  -0.00000,  -0.00003,   0.00000, 128.00000,   2.00000
-274731331.27163,-546782197.35364,18870884.27405,  -0.00018,  -0.00198,   0.00025,475782528.00000,   0.00003,274669056.00000,  -0.00000,  -0.00003,   0.00000, -64.00000,   2.00000
-274188197.61550,-546775568.36710,18966729.52802,  -0.00018,  -0.00199,   0.00025,475787200.00000,   0.00003,274673312.00000,  -0.00000,  -0.00004,   0.00000, 128.00000,   2.00000
-273645979.26046,-546767979.83679,19062241.85022,  -0.00018,  -0.00200,   0.00025,475792384.00000,   0.00003,274677600.00000,  -0.00000,  -0.00004,   0.00001,  96.00000,   2.00000
-273092399.11417,-546758820.58564,19162407.01030,  -0.00018,  -0.00200,   0.00026,475779840.00000,   0.00004,274681824.00000,  -0.00000,  -0.00005,   0.00001,  32.00000,   2.00000
-272552019.38057,-546749784.23458,19257243.24763,  -0.00017,  -0.00201,   0.00026,475802304.00000,   0.00004,274686112.00000,  -0.00000,  -0.00005,   0.00001,   0.00000,   2.00000
-272012440.34559,-546740060.51436,19351743.10639,  -0.00017,  -0.00201,   0.00026,475807200.00000,   0.00005,274690400.00000,  -0.00000,  -0.00006,   0.00001,   0.00000,   2.00000
-271461474.63765,-546729390.44302,19446746.55980,  -0.00017,  -0.00202,   0.00026,475793856.00000,   0.00005,274694624.00000,  -0.00000,  -0.00006,   0.00001,  96.00000,   2.00000
-270923529.49265,-546718890.19919,19536406.05662,  -0.00017,  -0.00202,   0.00026,475816192.00000,   0.00005,274698944.00000,  -0.00000,  -0.00006,   0.00001, -32.00000,   2.00000
-270373889.07368,-546707133.09905,19630747.64425,  -0.00016,  -0.00203,   0.00026,475802880.00000,   0.00006,274703168.00000,  -0.00000,  -0.00007,   0.00001,  64.00000,   2.00000
-269836801.49809,-546694838.86556,19724487.77276,  -0.00016,  -0.00204,   0.00027,475812832.00000,   0.00006,274707424.00000,  -0.00000,  -0.00007,   0.00001,  64.00000,   2.00000
-269288482.41788,-546682534.17987,19813997.30832,  -0.00016,  -0.00204,   0.00027,475811264.00000,   0.00006,274711680.00000,  -0.00000,  -0.00008,   0.00001,  32.00000,   2.00000
-268752447.75094,-546669204.95896,19907072.78942,  -0.00016,  -0.00205,   0.00027,475821312.00000,   0.00007,274715936.00000,  -0.00000,  -0.00008,   0.00001, -32.00000,   2.00000
-268205221.27904,-546656047.78889,19995936.81589,  -0.00015,  -0.00205,   0.00027,475819616.00000,   0.00007,274720192.00000,  -0.00000,  -0.00009,   0.00001,  96.00000,   2.00000
-267658502.20449,-546642318.09870,20084487.05134,  -0.00015,  -0.00206,   0.00027,475823712.00000,   0.00008,274724416.00000,   0.00000,  -0.00009,   0.00001, -96.00000,   2.00000
-267124499.26794,-546628439.64379,20172482.84937,  -0.00015,  -0.00206,   0.00028,475833088.00000,   0.00008,274728704.00000,   0.00000,  -0.00010,   0.00001, -64.00000,   2.00000
-266579102.98744,-546614004.31062,20260455.83442,  -0.00015,  -0.00207,   0.00028,475831808.00000,   0.00008,274732960.00000,   0.00000,  -0.00010,   0.00001,  64.00000,   2.00000
-266034196.19261,-546598828.65750,20348774.12344,  -0.00014,  -0.00208,   0.00028,475823488.00000,   0.00009,274737152.00000,   0.00000,  -0.00011,   0.00002, -32.00000,   2.00000
-265490396.17541,-546583555.03245,20436211.06944,  -0.00014,  -0.00208,   0.00028,475840320.00000,   0.00009,274741408.00000,   0.00000,  -0.00011,   0.00002,  96.00000,   2.00000
-264947218.15646,-546567449.10132,20524021.20181,  -0.00014,  -0.00209,   0.00028,475832000.00000,   0.00010,274745632.00000,   0.00000,  -0.00012,   0.00002,  32.00000,   2.00000
-264405327.55027,-546551095.46271,20610965.77858,  -0.00014,  -0.00209,   0.00029,475848864.00000,   0.00010,274749888.00000,   0.00000,  -0.00012,   0.00002, 128.00000,   2.00000
-263864499.76561,-546534516.89496,20694165.48476,  -0.00013,  -0.00210,   0.00029,475840288.00000,   0.00010,274754112.00000,   0.00000,  -0.00013,   0.00002,  32.00000,   2.00000
-263324647.59863,-546516833.32457,20781313.24565,  -0.00013,  -0.00210,   0.00029,475845376.00000,   0.00011,274758336.00000,   0.00000,  -0.00013,   0.00002,  64.00000,   2.00000
-262786328.19613,-546499145.40810,20864105.27832,  -0.00013,  -0.00211,   0.00029,475849664.00000,   0.00011,274762560.00000,   0.00000,  -0.00014,   0.00002,  64.00000,   2.00000
-262237131.99545,-546480320.23936,20946966.61768,  -0.00013,  -0.00212,   0.00029,475849376.00000,   0.00011,274766784.00000,   0.00000,  -0.00014,   0.00002,  64.00000,   2.00000
-261701333.70820,-546460583.50325,21033530.57375,  -0.00012,  -0.00212,   0.00029,475860032.00000,   0.00012,274771008.00000,   0.00000,  -0.00014,   0.00002, 128.00000,   2.00000
-261167208.26108,-546440620.55316,21115748.92996,  -0.00012,  -0.00213,   0.00030,475864672.00000,   0.00012,274775264.00000,   0.00000,  -0.00015,   0.00002,  64.00000,   2.00000
-260634204.30029,-546419740.87119,21198433.00592,  -0.00012,  -0.00213,   0.00030,475857312.00000,   0.00013,274779456.00000,   0.00000,  -0.00015,   0.00002,   0.00000,   2.00000
-260090868.05090,-546397795.45696,21280553.43587,  -0.00012,  -0.00214,   0.00030,475870080.00000,   0.00013,274783680.00000,   0.00000,  -0.00016,   0.00002,  96.00000,   2.00000
-259561176.55114,-546375924.35116,21358732.73151,  -0.00011,  -0.00214,   0.00030,475867360.00000,   0.00013,274787904.00000,   0.00000,  -0.00016,   0.00002, -32.00000,   2.00000
-259020944.93539,-546352329.61387,21440502.92946,  -0.00011,  -0.00215,   0.00030,475880960.00000,   0.00014,274792160.00000,   0.00000,  -0.00017,   0.00002,  96.00000,   2.00000
-258493975.57107,-546327921.46445,21522464.94369,  -0.00011,  -0.00215,   0.00031,475878912.00000,   0.00014,274796384.00000,   0.00000,  -0.00017,   0.00003, -32.00000,   2.00000
-257968837.28171,-546303505.15545,21600100.96292,  -0.00011,  -0.00216,   0.00031,475883744.00000,   0.00015,274800608.00000,   0.00000,  -0.00018,   0.00003,   0.00000,   2.00000
-257432634.45587,-546277183.47230,21681969.27867,  -0.00010,  -0.00217,   0.00031,475884704.00000,   0.00015,274804832.00000,   0.00000,  -0.00018,   0.00003,  96.00000,   2.00000
-256910409.92249,-546250962.41443,21759224.17308,  -0.00010,  -0.00217,   0.00031,475894816.00000,   0.00015,274809056.00000,   0.00000,  -0.00019,   0.00003, -32.00000,   2.00000
-256377285.90562,-546223451.93490,21836557.34747,  -0.00010,  -0.00218,   0.00031,475895328.00000,   0.00016,274813280.00000,   0.00000,  -0.00019,   0.00003, -32.00000,   2.00000
-255845640.95246,-546195289.01976,21913707.98718,  -0.00010,  -0.00218,   0.00031,475900736.00000,   0.00016,274817504.00000,   0.00000,  -0.00020,   0.00003,  64.00000,   2.00000
-255327063.48504,-546166506.98644,21991054.17558,  -0.00009,  -0.00219,   0.00032,475898624.00000,   0.00017,274821728.00000,   0.00000,  -0.00020,   0.00003,  64.00000,   2.00000
-254798067.92182,-546136681.98954,22067807.69616,  -0.00009,  -0.00219,   0.00032,475911712.00000,   0.00017,274825952.00000,   0.00000,  -0.00021,   0.00003, 160.00000,   2.00000
-254269617.33976,-546105614.32015,22145012.20163,  -0.00009,  -0.00220,   0.00032,475904608.00000,   0.00017,274830144.00000,   0.00000,  -0.00021,   0.00003, -64.00000,   2.00000
-253755875.29630,-546075578.85073,22216954.35462,  -0.00009,  -0.00220,   0.00032,475926848.00000,   0.00018,274834432.00000,   0.00000,  -0.00022,   0.00003,   0.00000,   2.00000
-253229944.83137,-546043282.60377,22293774.75625,  -0.00008,  -0.00221,   0.00032,475915168.00000,   0.00018,274838624.00000,   0.00000,  -0.00022,   0.00003,   0.00000,   2.00000
-252705173.85563,-546010230.14264,22370384.78700,  -0.00008,  -0.00222,   0.00032,475920576.00000,   0.00018,274842848.00000,   0.00000,  -0.00022,   0.00003,   0.00000,   2.00000
-252194319.98516,-545977962.95911,22442385.12107,  -0.00008,  -0.00222,   0.00033,475930080.00000,   0.00019,274847072.00000,   0.00000,  -0.00023,   0.00003,  32.00000,   2.00000
-251672045.01342,-545944250.39371,22514442.56290,  -0.00008,  -0.00223,   0.00033,475930400.00000,   0.00019,274851296.00000,   0.00000,  -0.00023,   0.00003,   0.00000,   2.00000
-251150896.84502,-545909991.47023,22586303.82042,  -0.00007,  -0.00223,   0.00033,475935520.00000,   0.00020,274855520.00000,   0.00000,  -0.00024,   0.00004,  64.00000,   2.00000
-250629806.34694,-545874267.05586,22662787.15538,  -0.00007,  -0.00224,   0.00033,475928544.00000,   0.00020,274859712.00000,   0.00000,  -0.00024,   0.00004,   0.00000,   2.00000
-250110730.75451,-545838697.17673,22734226.31450,  -0.00007,  -0.00224,   0.00033,475945728.00000,   0.00020,274863936.00000,   0.00001,  -0.00025,   0.00004,   0.00000,   2.00000
-249592186.92549,-545803132.00061,22802007.23201,  -0.00007,  -0.00225,   0.00033,475937504.00000,   0.00021,274868128.00000,   0.00001,  -0.00025,   0.00004,  32.00000,   2.00000
-249087704.76373,-545767268.72372,22872792.13797,  -0.00006,  -0.00225,   0.00034,475960672.00000,   0.00021,274872384.00000,   0.00001,  -0.00026,   0.00004,   0.00000,   2.00000
-248570852.85414,-545729956.23675,22944325.54052,  -0.00006,  -0.00226,   0.00034,475948096.00000,   0.00022,274876608.00000,   0.00001,  -0.00026,   0.00004,  96.00000,   2.00000
-248054905.51985,-545691965.07534,23015648.47803,  -0.00006,  -0.00227,   0.00034,475953088.00000,   0.00022,274880800.00000,   0.00001,  -0.00027,   0.00004, -32.00000,   2.00000
-247540209.09828,-545654259.16983,23082630.67436,  -0.00006,  -0.00227,   0.00034,475957312.00000,   0.00022,274884992.00000,   0.00001,  -0.00027,   0.00004,  32.00000,   2.00000
-247026468.41837,-545616097.57510,23149423.08061,  -0.00005,  -0.00228,   0.00034,475962272.00000,   0.00023,274889216.00000,   0.00001,  -0.00028,   0.00004, 128.00000,   2.00000
-246513338.47082,-545576597.23353,23220158.45319,  -0.00005,  -0.00228,   0.00034,475967808.00000,   0.00023,274893408.00000,   0.00001,  -0.00028,   0.00004,  32.00000,   2.00000
-246000523.31955,-545537145.84076,23287247.56877,  -0.00005,  -0.00229,   0.00035,475959264.00000,   0.00023,274897568.00000,   0.00001,  -0.00029,   0.00004,   0.00000,   2.00000
-245489538.61923,-545497512.92102,23353449.84735,  -0.00005,  -0.00229,   0.00035,475976800.00000,   0.00024,274901792.00000,   0.00001,  -0.00029,   0.00004,  96.00000,   2.00000
-244978504.44319,-545457070.13772,23420155.04150,  -0.00004,  -0.00230,   0.00035,475968992.00000,   0.00024,274905984.00000,   0.00001,  -0.00029,   0.00004,  32.00000,   2.00000
-244469334.19364,-545416508.57427,23485971.81761,  -0.00004,  -0.00230,   0.00035,475986336.00000,   0.00025,274910208.00000,   0.00001,  -0.00030,   0.00005,  64.00000,   2.00000
-243960071.29239,-545375119.73346,23552294.30262,  -0.00004,  -0.00231,   0.00035,475978528.00000,   0.00025,274914368.00000,   0.00001,  -0.00030,   0.00005,  32.00000,   2.00000
-243451725.94822,-545333360.08939,23618429.03906,  -0.00004,  -0.00232,   0.00035,475983264.00000,   0.00025,274918560.00000,   0.00001,  -0.00031,   0.00005, -64.00000,   2.00000
-242944533.82133,-545291877.11350,23680232.23624,  -0.00003,  -0.00232,   0.00036,475987360.00000,   0.00026,274922752.00000,   0.00001,  -0.00031,   0.00005,  32.00000,   2.00000
-242437970.80774,-545249254.76088,23745996.64325,  -0.00003,  -0.00233,   0.00036,475992736.00000,   0.00026,274926944.00000,   0.00001,  -0.00032,   0.00005, -32.00000,   2.00000
-241931555.17723,-545206651.41945,23808139.92187,  -0.00003,  -0.00233,   0.00036,475984192.00000,   0.00027,274931072.00000,   0.00001,  -0.00032,   0.00005,   0.00000,   2.00000
-241426782.21465,-545163197.98356,23873533.04398,  -0.00003,  -0.00234,   0.00036,476002336.00000,   0.00027,274935264.00000,   0.00001,  -0.00033,   0.00005, 128.00000,   2.00000
-240923126.68591,-545119942.47420,23934590.35300,  -0.00002,  -0.00234,   0.00036,476006368.00000,   0.00027,274939488.00000,   0.00001,  -0.00033,   0.00005, -32.00000,   2.00000
-240419377.53938,-545076153.07614,23996191.80887,  -0.00002,  -0.00235,   0.00036,475998432.00000,   0.00028,274943616.00000,   0.00001,  -0.00034,   0.00005,  96.00000,   2.00000
-239916444.99694,-545031763.07582,24057604.48451,  -0.00002,  -0.00235,   0.00037,476003168.00000,   0.00028,274947776.00000,   0.00001,  -0.00034,   0.00005,  32.00000,   2.00000
-239414422.66627,-544987027.80852,24118841.12831,  -0.00001,  -0.00236,   0.00037,476007808.00000,   0.00028,274951936.00000,   0.00001,  -0.00035,   0.00005,  32.00000,   2.00000
-238900519.05705,-544940745.57163,24180156.60002,  -0.00001,  -0.00236,   0.00037,476007872.00000,   0.00029,274956096.00000,   0.00001,  -0.00035,   0.00005,   0.00000,   2.00000
-238400285.84586,-544895148.64639,24241031.65724,  -0.00001,  -0.00237,   0.00037,476017184.00000,   0.00029,274960256.00000,   0.00001,  -0.00035,   0.00006,   0.00000,   2.00000
-237900970.25266,-544849213.04704,24301730.48263,  -0.00001,  -0.00237,   0.00037,476021856.00000,   0.00030,274964416.00000,   0.00001,  -0.00036,   0.00006, -32.00000,   2.00000
-237402535.39466,-544802832.61390,24362247.84207,  -0.00000,  -0.00238,   0.00037,476026592.00000,   0.00030,274968608.00000,   0.00001,  -0.00036,   0.00006,  64.00000,   2.00000
-236904097.13895,-544756416.25594,24419171.31684,  -0.00000,  -0.00239,   0.00037,476017952.00000,   0.00030,274972736.00000,   0.00001,  -0.00037,   0.00006, -64.00000,   2.00000
-236407474.06165,-544709261.34413,24479340.13718,   0.00000,  -0.00239,   0.00038,476036000.00000,   0.00031,274976896.00000,   0.00001,  -0.00037,   0.00006,  32.00000,   2.00000
-235910838.27978,-544662106.99917,24535920.62771,   0.00000,  -0.00240,   0.00038,476027328.00000,   0.00031,274981056.00000,   0.00001,  -0.00038,   0.00006, -32.00000,   2.00000
-235414840.17443,-544613830.02766,24596471.63565,   0.00001,  -0.00240,   0.00038,476032704.00000,   0.00031,274985184.00000,   0.00001,  -0.00038,   0.00006,  32.00000,   2.00000
-234919996.53435,-544565878.44638,24652703.93174,   0.00001,  -0.00241,   0.00038,476036672.00000,   0.00032,274989312.00000,   0.00002,  -0.00039,   0.00006,  64.00000,   2.00000
-234426040.13675,-544517495.41548,24708765.70371,   0.00001,  -0.00241,   0.00038,476041376.00000,   0.00032,274993472.00000,   0.00002,  -0.00039,   0.00006, -32.00000,   2.00000
-233932987.29755,-544468720.50179,24764658.91333,   0.00001,  -0.00242,   0.00038,476046080.00000,   0.00033,274997600.00000,   0.00002,  -0.00040,   0.00006,  32.00000,   2.00000
-233440866.03915,-544419629.34832,24820387.32799,   0.00002,  -0.00242,   0.00039,476050816.00000,   0.00033,275001760.00000,   0.00002,  -0.00040,   0.00006,  96.00000,   2.00000
-232935512.03907,-544368492.13509,24876944.40030,   0.00002,  -0.00243,   0.00039,476038272.00000,   0.00033,275005856.00000,   0.00002,  -0.00041,   0.00006,  64.00000,   2.00000
-232445218.48525,-544318565.69024,24932330.24215,   0.00002,  -0.00243,   0.00039,476060128.00000,   0.00034,275010016.00000,   0.00002,  -0.00041,   0.00006,  64.00000,   2.00000
-231954532.87318,-544267843.59321,24988288.25242,   0.00002,  -0.00244,   0.00039,476052128.00000,   0.00034,275014112.00000,   0.00002,  -0.00041,   0.00007, -32.00000,   2.00000
-231465055.29820,-544217607.46668,25039946.80430,   0.00003,  -0.00244,   0.00039,476055968.00000,   0.00034,275018240.00000,   0.00002,  -0.00042,   0.00007,   0.00000,   2.00000
-230977493.72328,-544166477.86499,25094832.21620,   0.00003,  -0.00245,   0.00039,476074144.00000,   0.00035,275022400.00000,   0.00002,  -0.00042,   0.00007, -64.00000,   2.00000
-230489768.67957,-544115307.30572,25146158.11951,   0.00003,  -0.00245,   0.00039,476065440.00000,   0.00035,275026528.00000,   0.00002,  -0.00043,   0.00007, -64.00000,   2.00000
-230001433.87441,-544062870.28556,25202225.72683,   0.00003,  -0.00246,   0.00040,476057920.00000,   0.00036,275030592.00000,   0.00002,  -0.00043,   0.00007, -64.00000,   2.00000
-229515614.54605,-544011177.14024,25253237.25698,   0.00004,  -0.00246,   0.00040,476074624.00000,   0.00036,275034720.00000,   0.00002,  -0.00044,   0.00007,  64.00000,   2.00000
-229030364.70840,-543958106.77971,25308215.69216,   0.00004,  -0.00247,   0.00040,476080032.00000,   0.00036,275038848.00000,   0.00002,  -0.00044,   0.00007, -64.00000,   2.00000
-228545003.87482,-543905317.13840,25359659.16629,   0.00004,  -0.00248,   0.00040,476071264.00000,   0.00037,275042944.00000,   0.00002,  -0.00045,   0.00007,  64.00000,   2.00000
-228061856.42800,-543852276.17480,25410176.34741,   0.00004,  -0.00248,   0.00040,476088800.00000,   0.00037,275047072.00000,   0.00002,  -0.00045,   0.00007, -32.00000,   2.00000
-227578288.14298,-543798683.43221,25461305.31450,   0.00005,  -0.00249,   0.00040,476080672.00000,   0.00037,275051168.00000,   0.00002,  -0.00046,   0.00007, -32.00000,   2.00000
-227095595.27190,-543744619.83418,25512272.67039,   0.00005,  -0.00249,   0.00041,476085312.00000,   0.00038,275055264.00000,   0.00002,  -0.00046,   0.00007, -32.00000,   2.00000
-226613841.01569,-543690268.97235,25563088.63481,   0.00005,  -0.00250,   0.00041,476089920.00000,   0.00038,275059360.00000,   0.00002,  -0.00046,   0.00007,  32.00000,   2.00000
-226132965.49008,-543635450.90814,25613743.56846,   0.00005,  -0.00250,   0.00041,476094560.00000,   0.00039,275063456.00000,   0.00002,  -0.00047,   0.00007, -32.00000,   2.00000
-225653007.03046,-543580276.30530,25664243.78340,   0.00006,  -0.00251,   0.00041,476099200.00000,   0.00039,275067552.00000,   0.00002,  -0.00047,   0.00008, -64.00000,   2.00000
-225172505.01849,-543524395.55232,25715357.01152,   0.00006,  -0.00251,   0.00041,476091136.00000,   0.00039,275071616.00000,   0.00002,  -0.00048,   0.00008,   0.00000,   2.00000
-224694423.07519,-543468621.76348,25765552.66454,   0.00006,  -0.00252,   0.00041,476108416.00000,   0.00040,275075712.00000,   0.00002,  -0.00048,   0.00008, -96.00000,   2.00000
-224215999.77406,-543412819.13051,25812224.88239,   0.00006,  -0.00252,   0.00041,476099744.00000,   0.00040,275079776.00000,   0.00003,  -0.00049,   0.00008,   0.00000,   2.00000
-223738221.25409,-543355871.03135,25862887.79672,   0.00007,  -0.00253,   0.00042,476105024.00000,   0.00040,275083840.00000,   0.00003,  -0.00049,   0.00008, -64.00000,   2.00000
-223261365.55191,-543298606.52627,25913399.39071,   0.00007,  -0.00253,   0.00042,476109600.00000,   0.00041,275087904.00000,   0.00003,  -0.00050,   0.00008,   0.00000,   2.00000
-222798718.21354,-543243268.83211,25959364.60038,   0.00007,  -0.00254,   0.00042,476117888.00000,   0.00041,275092000.00000,   0.00003,  -0.00050,   0.00008,  32.00000,   2.00000
-222323667.18958,-543185330.24979,26009583.61446,   0.00007,  -0.00254,   0.00042,476118912.00000,   0.00042,275096064.00000,   0.00003,  -0.00051,   0.00008, 192.00000,   2.00000
-221849717.55894,-543127614.42791,26055504.74306,   0.00008,  -0.00255,   0.00042,476122912.00000,   0.00042,275100160.00000,   0.00003,  -0.00051,   0.00008, -96.00000,   2.00000
-221376762.53962,-543069798.80621,26101298.03191,   0.00008,  -0.00255,   0.00042,476127392.00000,   0.00042,275104224.00000,   0.00003,  -0.00051,   0.00008,  64.00000,   2.00000
-220902803.87477,-543010246.70621,26151852.67519,   0.00008,  -0.00256,   0.00042,476120064.00000,   0.00043,275108256.00000,   0.00003,  -0.00052,   0.00008, -64.00000,   2.00000
-220431640.96288,-542951624.53845,26197346.59797,   0.00008,  -0.00256,   0.00043,476136512.00000,   0.00043,275112352.00000,   0.00003,  -0.00052,   0.00008, -64.00000,   2.00000
-219972909.78482,-542893975.51513,26243232.80601,   0.00009,  -0.00257,   0.00043,476132544.00000,   0.00043,275116416.00000,   0.00003,  -0.00053,   0.00009,  32.00000,   2.00000
-219501672.91988,-542833506.38219,26293365.49790,   0.00009,  -0.00257,   0.00043,476133824.00000,   0.00044,275120448.00000,   0.00003,  -0.00053,   0.00009,  32.00000,   2.00000
-219031583.45127,-542773438.81188,26339212.92454,   0.00009,  -0.00258,   0.00043,476137600.00000,   0.00044,275124512.00000,   0.00003,  -0.00054,   0.00009,  32.00000,   2.00000
-218562431.28174,-542713128.29289,26384927.17786,   0.00010,  -0.00258,   0.00043,476142208.00000,   0.00045,275128544.00000,   0.00003,  -0.00054,   0.00009,   0.00000,   2.00000
-218107295.77103,-542654073.59614,26430244.35356,   0.00010,  -0.00259,   0.00043,476150976.00000,   0.00045,275132608.00000,   0.00003,  -0.00055,   0.00009,  32.00000,   2.00000
-217638224.27109,-542592613.82952,26476469.51980,   0.00010,  -0.00259,   0.00043,476138624.00000,   0.00045,275136640.00000,   0.00003,  -0.00055,   0.00009, -64.00000,   2.00000
-217171783.89196,-542531350.63483,26521773.43752,   0.00010,  -0.00260,   0.00044,476155744.00000,   0.00046,275140672.00000,   0.00003,  -0.00055,   0.00009,  32.00000,   2.00000
-216717688.16855,-542471008.96379,26567476.96585,   0.00011,  -0.00260,   0.00044,476151872.00000,   0.00046,275144704.00000,   0.00003,  -0.00056,   0.00009,  64.00000,   2.00000
-216251301.63491,-542408625.23818,26613299.09924,   0.00011,  -0.00261,   0.00044,476152256.00000,   0.00046,275148736.00000,   0.00003,  -0.00056,   0.00009,  64.00000,   2.00000
-215787756.55298,-542346983.32566,26654050.60194,   0.00011,  -0.00261,   0.00044,476168960.00000,   0.00047,275152800.00000,   0.00003,  -0.00057,   0.00009, -96.00000,   2.00000
-215336366.41210,-542285752.84733,26699364.52955,   0.00011,  -0.00262,   0.00044,476165440.00000,   0.00047,275156832.00000,   0.00004,  -0.00057,   0.00009,   0.00000,   2.00000
-214870863.68511,-542221910.03970,26745589.16890,   0.00012,  -0.00262,   0.00044,476153184.00000,   0.00048,275160800.00000,   0.00004,  -0.00058,   0.00009,   0.00000,   2.00000
-214421232.91463,-542159967.27776,26790629.90062,   0.00012,  -0.00263,   0.00044,476174368.00000,   0.00048,275164864.00000,   0.00004,  -0.00058,   0.00010,-128.00000,   2.00000
-213959263.89815,-542095904.47371,26835789.99552,   0.00012,  -0.00263,   0.00045,476174944.00000,   0.00048,275168896.00000,   0.00004,  -0.00059,   0.00010, -96.00000,   2.00000
-213509887.90339,-542033779.66490,26877239.70019,   0.00012,  -0.00264,   0.00045,476169952.00000,   0.00049,275172864.00000,   0.00004,  -0.00059,   0.00010, -64.00000,   2.00000
-213049732.42997,-541969215.05061,26922152.62209,   0.00013,  -0.00265,   0.00045,476183904.00000,   0.00049,275176928.00000,   0.00004,  -0.00059,   0.00010, -64.00000,   2.00000
-212601880.45730,-541905725.99057,26967486.98612,   0.00013,  -0.00265,   0.00045,476179744.00000,   0.00049,275180928.00000,   0.00004,  -0.00060,   0.00010,   0.00000,   2.00000
-212141893.73651,-541840858.59698,27008808.93973,   0.00013,  -0.00266,   0.00045,476179552.00000,   0.00050,275184896.00000,   0.00004,  -0.00060,   0.00010,  64.00000,   2.00000
-211695767.40094,-541776645.99136,27053886.93786,   0.00013,  -0.00266,   0.00045,476188768.00000,   0.00050,275188928.00000,   0.00004,  -0.00061,   0.00010,   0.00000,   2.00000
-211250554.47977,-541712284.41327,27098845.25979,   0.00014,  -0.00267,   0.00045,476193152.00000,   0.00050,275192928.00000,   0.00004,  -0.00061,   0.00010,   0.00000,   2.00000
-210793178.66513,-541646503.76538,27139791.94407,   0.00014,  -0.00267,   0.00045,476193024.00000,   0.00051,275196928.00000,   0.00004,  -0.00062,   0.00010, -64.00000,   2.00000
-210349718.53631,-541581523.60325,27184503.35656,   0.00014,  -0.00268,   0.00046,476202112.00000,   0.00051,275200960.00000,   0.00004,  -0.00062,   0.00010,   0.00000,   2.00000
-209905249.87734,-541515900.27075,27229905.24805,   0.00014,  -0.00268,   0.00046,476193888.00000,   0.00052,275204928.00000,   0.00004,  -0.00063,   0.00010,  64.00000,   2.00000
-209448569.07090,-541448780.66861,27271294.06480,   0.00015,  -0.00268,   0.00046,476193824.00000,   0.00052,275208896.00000,   0.00004,  -0.00063,   0.00010,   0.00000,   2.00000
-209007749.69929,-541382960.68255,27315636.38497,   0.00015,  -0.00269,   0.00046,476215552.00000,   0.00052,275212896.00000,   0.00004,  -0.00063,   0.00011,  64.00000,   2.00000
-208566095.10366,-541317197.69058,27356537.88341,   0.00015,  -0.00269,   0.00046,476206592.00000,   0.00053,275216896.00000,   0.00004,  -0.00064,   0.00011,   0.00000,   2.00000
-208125062.38460,-541250387.05529,27401458.75923,   0.00015,  -0.00270,   0.00046,476211744.00000,   0.00053,275220864.00000,   0.00004,  -0.00064,   0.00011,  32.00000,   2.00000
-207685127.59186,-541184097.74246,27442125.52445,   0.00016,  -0.00270,   0.00046,476215488.00000,   0.00053,275224864.00000,   0.00005,  -0.00065,   0.00011,   0.00000,   2.00000
-207245780.37440,-541116652.88891,27486806.61555,   0.00016,  -0.00271,   0.00047,476220640.00000,   0.00054,275228832.00000,   0.00005,  -0.00065,   0.00011, -32.00000,   2.00000
-206805357.42151,-541048681.76909,27532197.92891,   0.00016,  -0.00271,   0.00047,476212224.00000,   0.00054,275232800.00000,   0.00005,  -0.00066,   0.00011, 128.00000,   2.00000
-206367994.90084,-540981602.93659,27572510.41206,   0.00016,  -0.00272,   0.00047,476228768.00000,   0.00055,275236768.00000,   0.00005,  -0.00066,   0.00011, 160.00000,   2.00000
-205929194.18795,-540912883.55124,27617659.40514,   0.00017,  -0.00272,   0.00047,476221312.00000,   0.00055,275240736.00000,   0.00005,  -0.00066,   0.00011, -32.00000,   2.00000
-205493571.31239,-540845382.77957,27657747.19483,   0.00017,  -0.00273,   0.00047,476237536.00000,   0.00055,275244736.00000,   0.00005,  -0.00067,   0.00011,  32.00000,   2.00000
-205056471.60734,-540776198.49877,27702672.65418,   0.00017,  -0.00273,   0.00047,476229952.00000,   0.00056,275248672.00000,   0.00005,  -0.00067,   0.00011,   0.00000,   2.00000
-204620211.62235,-540706748.27454,27747479.68795,   0.00017,  -0.00274,   0.00047,476234368.00000,   0.00056,275252640.00000,   0.00005,  -0.00068,   0.00011,   0.00000,   2.00000
-204185085.78237,-540638027.80122,27788049.10056,   0.00018,  -0.00274,   0.00048,476238016.00000,   0.00056,275256576.00000,   0.00005,  -0.00068,   0.00011,  96.00000,   2.00000
-203750499.20282,-540568041.37792,27832629.83391,   0.00018,  -0.00275,   0.00048,476243264.00000,   0.00057,275260544.00000,   0.00005,  -0.00069,   0.00012,  96.00000,   2.00000
-203314658.40110,-540497321.28556,27877923.30340,   0.00018,  -0.00275,   0.00048,476234816.00000,   0.00057,275264480.00000,   0.00005,  -0.00069,   0.00012,   0.00000,   2.00000
-202895411.68699,-540429830.05521,27917901.17033,   0.00018,  -0.00276,   0.00048,476254816.00000,   0.00057,275268448.00000,   0.00005,  -0.00070,   0.00012, -64.00000,   2.00000
-202461234.56734,-540358739.97981,27962982.88302,   0.00019,  -0.00276,   0.00048,476243488.00000,   0.00058,275272352.00000,   0.00005,  -0.00070,   0.00012,   0.00000,   2.00000
-202029992.44876,-540287819.11343,28007113.70306,   0.00019,  -0.00277,   0.00048,476260608.00000,   0.00058,275276352.00000,   0.00005,  -0.00070,   0.00012, -64.00000,   2.00000
-201611106.55145,-540219147.63195,28047592.91745,   0.00019,  -0.00277,   0.00048,476255296.00000,   0.00059,275280288.00000,   0.00005,  -0.00071,   0.00012, -32.00000,   2.00000
-201179338.47805,-540147202.10269,28092337.44578,   0.00019,  -0.00278,   0.00049,476256640.00000,   0.00059,275284192.00000,   0.00006,  -0.00071,   0.00012, -32.00000,   2.00000
-200761841.45709,-540077237.78182,28136729.90063,   0.00020,  -0.00278,   0.00049,476264640.00000,   0.00059,275288160.00000,   0.00006,  -0.00072,   0.00012, -64.00000,   2.00000
-200331731.51328,-540004959.93694,28181259.03068,   0.00020,  -0.00279,   0.00049,476265312.00000,   0.00060,275292096.00000,   0.00006,  -0.00072,   0.00012,   0.00000,   2.00000
-199913647.27120,-539933962.50857,28226262.30646,   0.00020,  -0.00279,   0.00049,476260736.00000,   0.00060,275295968.00000,   0.00006,  -0.00073,   0.00012,   0.00000,   2.00000
-199485150.38361,-539861210.44523,28270567.95397,   0.00020,  -0.00280,   0.00049,476273984.00000,   0.00060,275299904.00000,   0.00006,  -0.00073,   0.00012,  64.00000,   2.00000
-199068688.57533,-539789841.45696,28315356.57321,   0.00021,  -0.00280,   0.00049,476269376.00000,   0.00061,275303808.00000,   0.00006,  -0.00073,   0.00012,   0.00000,   2.00000
-198655290.97364,-539718942.12714,28359205.70207,   0.00021,  -0.00281,   0.00049,476286304.00000,   0.00061,275307776.00000,   0.00006,  -0.00074,   0.00013,  96.00000,   2.00000
-198226904.93715,-539644832.35832,28404015.01202,   0.00021,  -0.00281,   0.00050,476274496.00000,   0.00061,275311680.00000,   0.00006,  -0.00074,   0.00013, 128.00000,   2.00000
-197812832.66262,-539572849.34793,28448481.27187,   0.00021,  -0.00282,   0.00050,476282336.00000,   0.00062,275315584.00000,   0.00006,  -0.00075,   0.00013,  64.00000,   2.00000
-197399514.25435,-539500552.60059,28492833.98276,   0.00022,  -0.00282,   0.00050,476286624.00000,   0.00062,275319520.00000,   0.00006,  -0.00075,   0.00013, -96.00000,   2.00000
-196986997.52788,-539428119.60433,28537084.33215,   0.00022,  -0.00283,   0.00050,476290784.00000,   0.00062,275323424.00000,   0.00006,  -0.00076,   0.00013, -96.00000,   2.00000
-196575300.95905,-539355623.20477,28581236.97210,   0.00022,  -0.00283,   0.00050,476295136.00000,   0.00063,275327360.00000,   0.00006,  -0.00076,   0.00013, -64.00000,   2.00000
-196161798.46100,-539281379.88794,28630248.06472,   0.00022,  -0.00284,   0.00050,476287648.00000,   0.00063,275331232.00000,   0.00006,  -0.00076,   0.00013,   0.00000,   2.00000
-195751610.13254,-539208296.00583,28674167.87673,   0.00023,  -0.00284,   0.00050,476303776.00000,   0.00064,275335136.00000,   0.00006,  -0.00077,   0.00013, -32.00000,   2.00000
-195339669.95869,-539133744.07921,28722965.92142,   0.00023,  -0.00285,   0.00051,476296032.00000,   0.00064,275339040.00000,   0.00007,  -0.00077,   0.00013, -64.00000,   2.00000
-194931061.35379,-539060357.47349,28766671.63459,   0.00023,  -0.00285,   0.00051,476312224.00000,   0.00064,275342944.00000,   0.00007,  -0.00078,   0.00013, -32.00000,   2.00000
-194520624.99184,-538985319.33412,28815247.75111,   0.00023,  -0.00285,   0.00051,476304640.00000,   0.00065,275346848.00000,   0.00007,  -0.00078,   0.00013, -96.00000,   2.00000
-194111226.37857,-538911068.18367,28859592.28882,   0.00024,  -0.00286,   0.00051,476308192.00000,   0.00065,275350720.00000,   0.00007,  -0.00079,   0.00013,   0.00000,   2.00000
-193702311.20414,-538835616.82524,28907950.25348,   0.00024,  -0.00286,   0.00051,476313248.00000,   0.00065,275354624.00000,   0.00007,  -0.00079,   0.00014,  64.00000,   2.00000
-193305346.77081,-538761871.61187,28956818.32090,   0.00024,  -0.00287,   0.00051,476308320.00000,   0.00066,275358464.00000,   0.00007,  -0.00079,   0.00014,  96.00000,   2.00000
-192897950.83535,-538686111.98955,29004954.99483,   0.00024,  -0.00287,   0.00051,476321792.00000,   0.00066,275362368.00000,   0.00007,  -0.00080,   0.00014,   0.00000,   2.00000
-192491532.56963,-538610959.51236,29048850.88096,   0.00024,  -0.00288,   0.00052,476325248.00000,   0.00066,275366272.00000,   0.00007,  -0.00080,   0.00014,-128.00000,   2.00000
-192096800.46419,-538536655.56176,29097395.16863,   0.00025,  -0.00288,   0.00052,476321056.00000,   0.00067,275370144.00000,   0.00007,  -0.00081,   0.00014,   0.00000,   2.00000
-191689206.98393,-538459693.55295,29146060.41326,   0.00025,  -0.00289,   0.00052,476321792.00000,   0.00067,275373984.00000,   0.00007,  -0.00081,   0.00014, -32.00000,   2.00000
-191298176.50936,-538384809.67057,29197651.63544,   0.00025,  -0.00289,   0.00052,476342784.00000,   0.00067,275377888.00000,   0.00007,  -0.00082,   0.00014, -32.00000,   2.00000
-190892061.60553,-538307535.48825,29246091.11305,   0.00025,  -0.00290,   0.00052,476330208.00000,   0.00068,275381760.00000,   0.00007,  -0.00082,   0.00014,  32.00000,   2.00000
-190500303.61974,-538232608.56476,29294189.82199,   0.00026,  -0.00290,   0.00052,476337824.00000,   0.00068,275385632.00000,   0.00007,  -0.00082,   0.00014,   0.00000,   2.00000
-190109037.59801,-538156657.54684,29346304.09737,   0.00026,  -0.00291,   0.00052,476342944.00000,   0.00069,275389504.00000,   0.00007,  -0.00083,   0.00014,  64.00000,   2.00000
-189716208.30175,-538080682.38438,29395030.87848,   0.00026,  -0.00291,   0.00053,476333760.00000,   0.00069,275393344.00000,   0.00008,  -0.00083,   0.00014,  32.00000,   2.00000
-189312760.38270,-538001825.20000,29447143.17668,   0.00026,  -0.00292,   0.00053,476347872.00000,   0.00069,275397216.00000,   0.00008,  -0.00084,   0.00014,  32.00000,   2.00000
-188921416.34045,-537925643.02741,29495650.37620,   0.00027,  -0.00292,   0.00053,476342112.00000,   0.00070,275401024.00000,   0.00008,  -0.00084,   0.00015,  64.00000,   2.00000
-188533034.59931,-537848892.45216,29547295.60254,   0.00027,  -0.00293,   0.00053,476359776.00000,   0.00070,275404928.00000,   0.00008,  -0.00085,   0.00015, -64.00000,   2.00000
-188142858.26829,-537771436.56245,29599694.94583,   0.00027,  -0.00293,   0.00053,476351264.00000,   0.00070,275408768.00000,   0.00008,  -0.00085,   0.00015, -64.00000,   2.00000
-187753418.50599,-537693911.32197,29651981.21004,   0.00027,  -0.00293,   0.00053,476355424.00000,   0.00071,275412608.00000,   0.00008,  -0.00085,   0.00015, -64.00000,   2.00000
-187378288.76909,-537618627.92116,29703907.61100,   0.00028,  -0.00294,   0.00054,476363008.00000,   0.00071,275416480.00000,   0.00008,  -0.00086,   0.00015,-192.00000,   2.00000
-186990027.17188,-537539969.85643,29760083.29084,   0.00028,  -0.00294,   0.00054,476364576.00000,   0.00071,275420320.00000,   0.00008,  -0.00086,   0.00015,   0.00000,   2.00000
-186602685.09260,-537461949.90182,29812002.50108,   0.00028,  -0.00295,   0.00054,476368032.00000,   0.00072,275424160.00000,   0.00008,  -0.00087,   0.00015,  96.00000,   2.00000
-186216045.99901,-537383754.50493,29863801.31794,   0.00028,  -0.00295,   0.00054,476372224.00000,   0.00072,275428000.00000,   0.00008,  -0.00087,   0.00015,  32.00000,   2.00000
-185840928.04349,-537306412.16123,29920244.65197,   0.00029,  -0.00296,   0.00054,476367872.00000,   0.00072,275431840.00000,   0.00008,  -0.00088,   0.00015,  32.00000,   2.00000
-185455465.30506,-537227088.93708,29975920.41960,   0.00029,  -0.00296,   0.00054,476381312.00000,   0.00073,275435680.00000,   0.00008,  -0.00088,   0.00015,  64.00000,   2.00000
-185081987.18366,-537150451.57083,30027992.20718,   0.00029,  -0.00297,   0.00054,476375392.00000,   0.00073,275439520.00000,   0.00008,  -0.00088,   0.00015,   0.00000,   2.00000
-184695249.26757,-537070046.39622,30084288.95242,   0.00029,  -0.00297,   0.00055,476377056.00000,   0.00074,275443328.00000,   0.00009,  -0.00089,   0.00015, -64.00000,   2.00000
-184322959.82114,-536992386.96535,30140242.65004,   0.00030,  -0.00298,   0.00055,476384384.00000,   0.00074,275447136.00000,   0.00009,  -0.00089,   0.00016,  64.00000,   2.00000
-183951052.68153,-536913456.44365,30200173.24161,   0.00030,  -0.00298,   0.00055,476389440.00000,   0.00074,275450976.00000,   0.00009,  -0.00090,   0.00016,  32.00000,   2.00000
-183566378.78267,-536832701.12743,30256076.86590,   0.00030,  -0.00299,   0.00055,476389440.00000,   0.00075,275454816.00000,   0.00009,  -0.00090,   0.00016,   0.00000,   2.00000
-183195892.45652,-536753672.96319,30315748.52782,   0.00030,  -0.00299,   0.00055,476397664.00000,   0.00075,275458624.00000,   0.00009,  -0.00090,   0.00016,   0.00000,   2.00000
-182826304.00286,-536675387.28355,30371157.94056,   0.00030,  -0.00299,   0.00055,476401088.00000,   0.00075,275462464.00000,   0.00009,  -0.00091,   0.00016,  96.00000,   2.00000
-182454418.74746,-536595229.72600,30431434.46241,   0.00031,  -0.00300,   0.00056,476393408.00000,   0.00076,275466272.00000,   0.00009,  -0.00091,   0.00016,  32.00000,   2.00000
-182085973.71920,-536515894.93722,30490697.86045,   0.00031,  -0.00300,   0.00056,476410080.00000,   0.00076,275470112.00000,   0.00009,  -0.00092,   0.00016,  32.00000,   2.00000
-181729171.49891,-536438349.19495,30550476.30703,   0.00031,  -0.00301,   0.00056,476404896.00000,   0.00076,275473920.00000,   0.00009,  -0.00092,   0.00016,  64.00000,   2.00000
-181359263.77037,-536357881.11017,30610335.50451,   0.00031,  -0.00301,   0.00056,476405856.00000,   0.00077,275477696.00000,   0.00009,  -0.00093,   0.00016,  96.00000,   2.00000
-180990021.76740,-536277315.18638,30670053.97375,   0.00032,  -0.00302,   0.00056,476409920.00000,   0.00077,275481504.00000,   0.00009,  -0.00093,   0.00016,  32.00000,   2.00000
-180621202.33594,-536195702.14867,30733748.01723,   0.00032,  -0.00302,   0.00056,476414784.00000,   0.00077,275485312.00000,   0.00009,  -0.00093,   0.00016, -32.00000,   2.00000
-180266827.10840,-536116921.34582,30797075.33327,   0.00032,  -0.00303,   0.00057,476422048.00000,   0.00078,275489120.00000,   0.00010,  -0.00094,   0.00017,  64.00000,   2.00000
-179899530.06484,-536036034.94261,30856348.03502,   0.00032,  -0.00303,   0.00057,476422240.00000,   0.00078,275492928.00000,   0.00010,  -0.00094,   0.00017,  32.00000,   2.00000
-179543599.32007,-535956091.96933,30920263.42952,   0.00033,  -0.00303,   0.00057,476417696.00000,   0.00078,275496704.00000,   0.00010,  -0.00095,   0.00017, -32.00000,   2.00000
-179190890.14607,-535876016.71502,30987252.80934,   0.00033,  -0.00304,   0.00057,476435232.00000,   0.00079,275500544.00000,   0.00010,  -0.00095,   0.00017, -32.00000,   2.00000
-178836221.23089,-535795997.93508,31050861.73693,   0.00033,  -0.00304,   0.00057,476425792.00000,   0.00079,275504320.00000,   0.00010,  -0.00095,   0.00017,   0.00000,   2.00000
-178468397.32729,-535713072.93987,31114541.78088,   0.00033,  -0.00305,   0.00057,476426880.00000,   0.00079,275508064.00000,   0.00010,  -0.00096,   0.00017,  32.00000,   2.00000
-178117581.94736,-535632756.95135,31181057.10062,   0.00033,  -0.00305,   0.00058,476447520.00000,   0.00080,275511904.00000,   0.00010,  -0.00096,   0.00017,  96.00000,   2.00000
-177764501.10324,-535551444.38440,31248305.88575,   0.00034,  -0.00306,   0.00058,476439072.00000,   0.00080,275515680.00000,   0.00010,  -0.00097,   0.00017,  64.00000,   2.00000
-177412046.81931,-535470164.82387,31315397.65874,   0.00034,  -0.00306,   0.00058,476443104.00000,   0.00081,275519488.00000,   0.00010,  -0.00097,   0.00017, -32.00000,   2.00000
-177071081.94571,-535390749.05488,31383002.24290,   0.00034,  -0.00307,   0.00058,476437856.00000,   0.00081,275523232.00000,   0.00010,  -0.00098,   0.00017, -32.00000,   2.00000
-176719557.67001,-535308381.88650,31453880.14737,   0.00034,  -0.00307,   0.00058,476452160.00000,   0.00081,275527008.00000,   0.00010,  -0.00098,   0.00017,  32.00000,   2.00000
-176368832.39471,-535226835.62719,31520465.12007,   0.00035,  -0.00308,   0.00058,476455520.00000,   0.00082,275530816.00000,   0.00010,  -0.00098,   0.00017,  32.00000,   2.00000
-176029361.10567,-535146352.89233,31591691.81860,   0.00035,  -0.00308,   0.00059,476450976.00000,   0.00082,275534560.00000,   0.00011,  -0.00099,   0.00018,  96.00000,   2.00000
-175679513.93038,-535063679.75774,31662048.85343,   0.00035,  -0.00308,   0.00059,476464512.00000,   0.00082,275538368.00000,   0.00011,  -0.00099,   0.00018,  32.00000,   2.00000
-175341110.47779,-534982954.91602,31732922.23519,   0.00035,  -0.00309,   0.00059,476459168.00000,   0.00083,275542144.00000,   0.00011,  -0.00100,   0.00018, -64.00000,   2.00000
-175003281.65712,-534902359.21473,31803635.32466,   0.00035,  -0.00309,   0.00059,476463136.00000,   0.00083,275545888.00000,   0.00011,  -0.00100,   0.00018, 160.00000,   2.00000
-174651867.15664,-534817596.41883,31878498.07205,   0.00036,  -0.00310,   0.00059,476465152.00000,   0.00083,275549664.00000,   0.00011,  -0.00100,   0.00018,  32.00000,   2.00000
-174314818.24734,-534735741.05338,31952957.31584,   0.00036,  -0.00310,   0.00060,476472224.00000,   0.00084,275553408.00000,   0.00011,  -0.00101,   0.00018, -32.00000,   2.00000
-173978308.46770,-534653962.02370,32027244.38299,   0.00036,  -0.00311,   0.00060,476476320.00000,   0.00084,275557184.00000,   0.00011,  -0.00101,   0.00018,  32.00000,   2.00000
-173639336.19717,-534571236.55916,32102277.37110,   0.00036,  -0.00311,   0.00060,476467808.00000,   0.00084,275560896.00000,   0.00011,  -0.00102,   0.00018,  96.00000,   2.00000
-173303782.72735,-534489168.74047,32176190.44121,   0.00037,  -0.00311,   0.00060,476484576.00000,   0.00085,275564672.00000,   0.00011,  -0.00102,   0.00018, -32.00000,   2.00000
-172982374.80986,-534409249.64050,32253827.13747,   0.00037,  -0.00312,   0.00060,476492512.00000,   0.00085,275568480.00000,   0.00011,  -0.00103,   0.00018,  64.00000,   2.00000
-172644579.46496,-534325299.90035,32332427.31627,   0.00037,  -0.00312,   0.00060,476481088.00000,   0.00085,275572192.00000,   0.00011,  -0.00103,   0.00018,  64.00000,   2.00000
-172321118.08601,-534244312.74812,32410620.34564,   0.00037,  -0.00313,   0.00061,476488192.00000,   0.00086,275575936.00000,   0.00011,  -0.00103,   0.00019,  32.00000,   2.00000
-171984260.09304,-534160264.96551,32488852.51693,   0.00037,  -0.00313,   0.00061,476489248.00000,   0.00086,275579680.00000,   0.00012,  -0.00104,   0.00019,  96.00000,   2.00000
-171661712.43444,-534079079.61099,32566672.18155,   0.00038,  -0.00314,   0.00061,476496384.00000,   0.00086,275583424.00000,   0.00012,  -0.00104,   0.00019, -32.00000,   2.00000
-171339449.26914,-533997108.85304,32648438.66730,   0.00038,  -0.00314,   0.00061,476501184.00000,   0.00087,275587168.00000,   0.00012,  -0.00105,   0.00019, 224.00000,   2.00000
-171003721.16748,-533911797.07629,32730221.95578,   0.00038,  -0.00315,   0.00061,476502496.00000,   0.00087,275590912.00000,   0.00012,  -0.00105,   0.00019,  64.00000,   2.00000
-170682374.60519,-533829595.77644,32811603.20437,   0.00038,  -0.00315,   0.00062,476509472.00000,   0.00087,275594656.00000,   0.00012,  -0.00105,   0.00019, 160.00000,   2.00000
-170358214.22601,-533745366.80441,32897853.60062,   0.00039,  -0.00315,   0.00062,476501856.00000,   0.00088,275598368.00000,   0.00012,  -0.00106,   0.00019,  32.00000,   2.00000
-170051669.44108,-533665999.61407,32978622.85882,   0.00039,  -0.00316,   0.00062,476520544.00000,   0.00088,275602144.00000,   0.00012,  -0.00106,   0.00019,  32.00000,   2.00000
-169728466.80164,-533581738.93316,33064506.48183,   0.00039,  -0.00316,   0.00062,476509952.00000,   0.00088,275605856.00000,   0.00012,  -0.00107,   0.00019,  64.00000,   2.00000
-169405735.96133,-533497302.96920,33150192.10937,   0.00039,  -0.00317,   0.00062,476514016.00000,   0.00089,275609568.00000,   0.00012,  -0.00107,   0.00019,  32.00000,   2.00000
-169097177.13848,-533414933.71264,33239576.80890,   0.00039,  -0.00317,   0.00063,476521824.00000,   0.00089,275613280.00000,   0.00012,  -0.00107,   0.00019,  32.00000,   2.00000
-168775452.32820,-533330324.82121,33324874.78878,   0.00040,  -0.00318,   0.00063,476521984.00000,   0.00090,275617024.00000,   0.00012,  -0.00108,   0.00020, -96.00000,   2.00000
-168467964.73978,-533247905.98327,33413881.73299,   0.00040,  -0.00318,   0.00063,476529824.00000,   0.00090,275620736.00000,   0.00013,  -0.00108,   0.00020,  64.00000,   2.00000
-168160982.08827,-533165267.77310,33502683.25552,   0.00040,  -0.00318,   0.00063,476533920.00000,   0.00090,275624480.00000,   0.00013,  -0.00109,   0.00020,  64.00000,   2.00000
-167854334.92600,-533081597.51952,33595400.97168,   0.00040,  -0.00319,   0.00063,476538720.00000,   0.00091,275628224.00000,   0.00013,  -0.00109,   0.00020, -96.00000,   2.00000
-167545407.27476,-532997952.28944,33684784.34095,   0.00041,  -0.00319,   0.00064,476529216.00000,   0.00091,275631904.00000,   0.00013,  -0.00109,   0.00020,  96.00000,   2.00000
-167239946.54455,-532914137.99311,33777105.64126,   0.00041,  -0.00320,   0.00064,476546592.00000,   0.00091,275635648.00000,   0.00013,  -0.00110,   0.00020,  32.00000,   2.00000
-166931773.25973,-532828364.99476,33874313.89137,   0.00041,  -0.00320,   0.00064,476538976.00000,   0.00092,275639328.00000,   0.00013,  -0.00110,   0.00020,  32.00000,   2.00000
-166624459.30676,-532743464.27558,33967202.73554,   0.00041,  -0.00321,   0.00064,476542048.00000,   0.00092,275643040.00000,   0.00013,  -0.00111,   0.00020,  32.00000,   2.00000
-166331466.45671,-532660567.89055,34063768.24198,   0.00041,  -0.00321,   0.00065,476549664.00000,   0.00092,275646752.00000,   0.00013,  -0.00111,   0.00020,   0.00000,   2.00000
-166025222.72030,-532574474.25282,34160351.62669,   0.00042,  -0.00321,   0.00065,476550688.00000,   0.00093,275650464.00000,   0.00013,  -0.00111,   0.00020, -64.00000,   2.00000
-165733591.31644,-532491480.17850,34256501.74316,   0.00042,  -0.00322,   0.00065,476557472.00000,   0.00093,275654176.00000,   0.00013,  -0.00112,   0.00020,   0.00000,   2.00000
-165442433.37591,-532407496.46501,34356554.34348,   0.00042,  -0.00322,   0.00065,476562272.00000,   0.00093,275657888.00000,   0.00013,  -0.00112,   0.00021,  96.00000,   2.00000
-165148768.01781,-532322341.09232,34457371.11595,   0.00042,  -0.00323,   0.00065,476553664.00000,   0.00094,275661568.00000,   0.00014,  -0.00113,   0.00021,   0.00000,   2.00000
-164859001.36367,-532238131.10701,34556977.75071,   0.00042,  -0.00323,   0.00066,476570016.00000,   0.00094,275665280.00000,   0.00014,  -0.00113,   0.00021,  64.00000,   2.00000
-164566786.16195,-532153011.14704,34657373.18281,   0.00043,  -0.00324,   0.00066,476561408.00000,   0.00094,275668960.00000,   0.00014,  -0.00113,   0.00021, 192.00000,   2.00000
-164288958.34736,-532069871.71562,34761418.27934,   0.00043,  -0.00324,   0.00066,476569056.00000,   0.00095,275672672.00000,   0.00014,  -0.00114,   0.00021,  64.00000,   2.00000
-163997859.30326,-531983336.18386,34865452.19462,   0.00043,  -0.00324,   0.00066,476570048.00000,   0.00095,275676352.00000,   0.00014,  -0.00114,   0.00021, -32.00000,   2.00000
-163724705.62323,-531901223.09618,34968047.36653,   0.00043,  -0.00325,   0.00067,476589056.00000,   0.00095,275680096.00000,   0.00014,  -0.00115,   0.00021,  64.00000,   2.00000
-163431547.28488,-531812596.67342,35076743.72756,   0.00043,  -0.00325,   0.00067,476566048.00000,   0.00096,275683744.00000,   0.00014,  -0.00115,   0.00021,   0.00000,   2.00000
-163156316.62734,-531728255.84023,35183975.51688,   0.00044,  -0.00326,   0.00067,476585088.00000,   0.00096,275687456.00000,   0.00014,  -0.00115,   0.00021, -32.00000,   2.00000
-162881773.49532,-531643938.55010,35290976.75021,   0.00044,  -0.00326,   0.00067,476589056.00000,   0.00096,275691168.00000,   0.00014,  -0.00116,   0.00021, -32.00000,   2.00000
-162604586.60425,-531558418.61305,35398749.20175,   0.00044,  -0.00326,   0.00067,476580320.00000,   0.00097,275694816.00000,   0.00014,  -0.00116,   0.00021, -64.00000,   2.00000
-162331137.85568,-531473010.49742,35509381.38655,   0.00044,  -0.00327,   0.00068,476597600.00000,   0.00097,275698528.00000,   0.00014,  -0.00117,   0.00022,  32.00000,   2.00000
-162068971.60946,-531389724.12217,35620561.49769,   0.00044,  -0.00327,   0.00068,476591744.00000,   0.00097,275702208.00000,   0.00015,  -0.00117,   0.00022, -32.00000,   2.00000
-161793187.05803,-531302050.92734,35735823.77318,   0.00045,  -0.00328,   0.00068,476593792.00000,   0.00098,275705888.00000,   0.00015,  -0.00117,   0.00022, -64.00000,   2.00000
-161535328.11034,-531218874.15911,35849597.76848,   0.00045,  -0.00328,   0.00068,476612800.00000,   0.00098,275709632.00000,   0.00015,  -0.00118,   0.00022,  64.00000,   2.00000
-161260674.32854,-531131137.10786,35964366.54066,   0.00045,  -0.00329,   0.00069,476601568.00000,   0.00098,275713280.00000,   0.00015,  -0.00118,   0.00022,  64.00000,   2.00000
-160997221.76137,-531045618.47986,36079696.81669,   0.00045,  -0.00329,   0.00069,476595616.00000,   0.00099,275716928.00000,   0.00015,  -0.00119,   0.00022,  32.00000,   2.00000
-160737370.68940,-530959982.70588,36197835.84505,   0.00045,  -0.00329,   0.00069,476612896.00000,   0.00099,275720640.00000,   0.00015,  -0.00119,   0.00022, -96.00000,   2.00000
-160478052.55300,-530874536.01716,36315738.49529,   0.00046,  -0.00330,   0.00069,476616704.00000,   0.00099,275724320.00000,   0.00015,  -0.00120,   0.00022, -64.00000,   2.00000
-160229618.90321,-530790316.80151,36438307.66543,   0.00046,  -0.00330,   0.00070,476611744.00000,   0.00100,275727968.00000,   0.00015,  -0.00120,   0.00022,  96.00000,   2.00000
-159971171.80888,-530704712.28907,36555689.84375,   0.00046,  -0.00331,   0.00070,476624640.00000,   0.00100,275731680.00000,   0.00015,  -0.00120,   0.00022,  64.00000,   2.00000
-159723550.23160,-530620278.67519,36677741.73751,   0.00046,  -0.00331,   0.00070,476619744.00000,   0.00100,275735328.00000,   0.00015,  -0.00121,   0.00023,  64.00000,   2.00000
-159462087.28983,-530531426.34352,36803863.38024,   0.00046,  -0.00331,   0.00070,476621824.00000,   0.00101,275739008.00000,   0.00015,  -0.00121,   0.00023,  96.00000,   2.00000
-159215029.12391,-530445911.11426,36929495.13909,   0.00047,  -0.00332,   0.00071,476628416.00000,   0.00101,275742656.00000,   0.00016,  -0.00122,   0.00023,  96.00000,   2.00000
-158968338.35868,-530360418.68245,37054869.04503,   0.00047,  -0.00332,   0.00071,476632256.00000,   0.00101,275746336.00000,   0.00016,  -0.00122,   0.00023,   0.00000,   2.00000
-158721980.96900,-530274850.71150,37179978.84014,   0.00047,  -0.00333,   0.00071,476636256.00000,   0.00102,275750016.00000,   0.00016,  -0.00122,   0.00023,  96.00000,   2.00000
-158486317.87073,-530190370.27951,37309754.76043,   0.00047,  -0.00333,   0.00072,476631328.00000,   0.00102,275753664.00000,   0.00016,  -0.00123,   0.00023, -32.00000,   2.00000
-158240358.12781,-530103621.32993,37438426.26673,   0.00047,  -0.00333,   0.00072,476644960.00000,   0.00102,275757344.00000,   0.00016,  -0.00123,   0.00023, -32.00000,   2.00000
-158005091.49489,-530018071.18022,37571771.46332,   0.00048,  -0.00334,   0.00072,476640064.00000,   0.00103,275760960.00000,   0.00016,  -0.00123,   0.00023,  64.00000,   2.00000
-157759514.76616,-529930232.69719,37703998.03365,   0.00048,  -0.00334,   0.00072,476653792.00000,   0.00103,275764672.00000,   0.00016,  -0.00124,   0.00023,  32.00000,   2.00000
-157524824.48385,-529844604.65757,37836799.18151,   0.00048,  -0.00335,   0.00073,476647936.00000,   0.00104,275768288.00000,   0.00016,  -0.00124,   0.00023, 160.00000,   2.00000
-157290163.53854,-529757775.51670,37973413.64635,   0.00048,  -0.00335,   0.00073,476652832.00000,   0.00104,275771968.00000,   0.00016,  -0.00125,   0.00024, -32.00000,   2.00000
-157055785.05273,-529670964.50536,38109752.86688,   0.00048,  -0.00335,   0.00073,476656704.00000,   0.00104,275775616.00000,   0.00016,  -0.00125,   0.00024, -96.00000,   2.00000
-156832254.96924,-529586356.05402,38246669.79491,   0.00048,  -0.00336,   0.00073,476650752.00000,   0.00105,275779232.00000,   0.00017,  -0.00125,   0.00024, -64.00000,   2.00000
-156598160.65562,-529498329.40257,38386535.39411,   0.00049,  -0.00336,   0.00074,476665440.00000,   0.00105,275782880.00000,   0.00017,  -0.00126,   0.00024,   0.00000,   2.00000
-156378387.92004,-529413748.61639,38525885.90357,   0.00049,  -0.00337,   0.00074,476671968.00000,   0.00105,275786560.00000,   0.00017,  -0.00126,   0.00024,  32.00000,   2.00000
-156155155.64614,-529326791.37529,38670133.07354,   0.00049,  -0.00337,   0.00074,476664544.00000,   0.00106,275790176.00000,   0.00017,  -0.00127,   0.00024, -64.00000,   2.00000
-155932196.42376,-529239885.42555,38814093.73020,   0.00049,  -0.00337,   0.00075,476668416.00000,   0.00106,275793792.00000,   0.00017,  -0.00127,   0.00024,  32.00000,   2.00000
-155709462.72953,-529152787.30285,38957747.84641,   0.00049,  -0.00338,   0.00075,476672320.00000,   0.00106,275797408.00000,   0.00017,  -0.00127,   0.00024,  96.00000,   2.00000
-155486994.26078,-529065670.03237,39101109.92003,   0.00050,  -0.00338,   0.00075,476676160.00000,   0.00107,275801056.00000,   0.00017,  -0.00128,   0.00024,  32.00000,   2.00000
-155278371.07510,-528979707.22170,39252113.20474,   0.00050,  -0.00339,   0.00075,476684768.00000,   0.00107,275804704.00000,   0.00017,  -0.00128,   0.00024,  32.00000,   2.00000
-155056186.16740,-528891400.75040,39398957.24818,   0.00050,  -0.00339,   0.00076,476684928.00000,   0.00107,275808320.00000,   0.00017,  -0.00129,   0.00025,  32.00000,   2.00000
-154848094.95734,-528805394.24269,39549347.82895,   0.00050,  -0.00339,   0.00076,476692576.00000,   0.00108,275811968.00000,   0.00017,  -0.00129,   0.00025,  96.00000,   2.00000
-154636745.53652,-528718057.96406,39700546.88378,   0.00050,  -0.00340,   0.00076,476683968.00000,   0.00108,275815584.00000,   0.00017,  -0.00129,   0.00025,   0.00000,   2.00000
-154425428.77251,-528629551.29975,39855519.27700,   0.00050,  -0.00340,   0.00077,476688992.00000,   0.00108,275819200.00000,   0.00018,  -0.00130,   0.00025, -32.00000,   2.00000
-154217885.22180,-528542186.97319,40009034.37845,   0.00051,  -0.00341,   0.00077,476705184.00000,   0.00109,275822848.00000,   0.00018,  -0.00130,   0.00025, -32.00000,   2.00000
-154021169.44778,-528457086.14986,40163133.91151,   0.00051,  -0.00341,   0.00077,476699264.00000,   0.00109,275826464.00000,   0.00018,  -0.00131,   0.00025, 128.00000,   2.00000
-153810375.01495,-528367098.19133,40321214.57512,   0.00051,  -0.00341,   0.00078,476701696.00000,   0.00109,275830080.00000,   0.00018,  -0.00131,   0.00025, -32.00000,   2.00000
-153613967.95427,-528280756.15364,40478745.27787,   0.00051,  -0.00342,   0.00078,476707968.00000,   0.00110,275833696.00000,   0.00018,  -0.00131,   0.00025,   0.00000,   2.00000
-153414052.66224,-528191915.75845,40641173.25908,   0.00051,  -0.00342,   0.00078,476700608.00000,   0.00110,275837280.00000,   0.00018,  -0.00132,   0.00025,   0.00000,   2.00000
-153217936.17155,-528104223.22272,40802104.62074,   0.00051,  -0.00343,   0.00079,476716800.00000,   0.00110,275840896.00000,   0.00018,  -0.00132,   0.00025, 128.00000,   2.00000
-153018327.41118,-528014097.49397,40967938.41895,   0.00052,  -0.00343,   0.00079,476709440.00000,   0.00111,275844512.00000,   0.00018,  -0.00133,   0.00026,  64.00000,   2.00000
-152836587.19507,-527928560.52897,41132010.25697,   0.00052,  -0.00343,   0.00079,476728224.00000,   0.00111,275848160.00000,   0.00018,  -0.00133,   0.00026, -64.00000,   2.00000
-152637490.36305,-527838179.16297,41297143.46984,   0.00052,  -0.00344,   0.00079,476717152.00000,   0.00111,275851744.00000,   0.00018,  -0.00133,   0.00026, -64.00000,   2.00000
-152452531.24578,-527750161.46618,41465770.92324,   0.00052,  -0.00344,   0.00080,476724544.00000,   0.00112,275855328.00000,   0.00019,  -0.00134,   0.00026,  64.00000,   2.00000
-152267847.15827,-527662101.58409,41634044.62595,   0.00052,  -0.00345,   0.00080,476728512.00000,   0.00112,275858944.00000,   0.00019,  -0.00134,   0.00026,  32.00000,   2.00000
-152079627.71151,-527571486.77315,41807216.96483,   0.00052,  -0.00345,   0.00080,476721056.00000,   0.00112,275862528.00000,   0.00019,  -0.00135,   0.00026, 160.00000,   2.00000
-151909292.80000,-527485438.64979,41978579.42341,   0.00053,  -0.00345,   0.00081,476739904.00000,   0.00113,275866144.00000,   0.00019,  -0.00135,   0.00026, -32.00000,   2.00000
-151721612.85142,-527394732.78598,42151034.77393,   0.00053,  -0.00346,   0.00081,476728640.00000,   0.00113,275869696.00000,   0.00019,  -0.00135,   0.00026,  96.00000,   2.00000
-151551582.89055,-527307358.51450,42325735.90928,   0.00053,  -0.00346,   0.00081,476748704.00000,   0.00113,275873344.00000,   0.00019,  -0.00136,   0.00026, -64.00000,   2.00000
-151378016.77480,-527217555.00867,42505347.78712,   0.00053,  -0.00346,   0.00082,476741152.00000,   0.00114,275876928.00000,   0.00019,  -0.00136,   0.00027, -32.00000,   2.00000
-151204964.86391,-527128916.53547,42680513.09840,   0.00053,  -0.00347,   0.00082,476743840.00000,   0.00114,275880512.00000,   0.00019,  -0.00136,   0.00027,  64.00000,   2.00000
-151031665.27527,-527037648.32845,42863432.20900,   0.00053,  -0.00347,   0.00082,476750144.00000,   0.00114,275884096.00000,   0.00019,  -0.00137,   0.00027,  32.00000,   2.00000
-150869378.49132,-526949837.89851,43042870.18685,   0.00054,  -0.00348,   0.00083,476742816.00000,   0.00115,275887648.00000,   0.00019,  -0.00137,   0.00027, -32.00000,   2.00000
-150696342.42739,-526857141.62694,43229080.02120,   0.00054,  -0.00348,   0.00083,476758880.00000,   0.00115,275891264.00000,   0.00020,  -0.00138,   0.00027,  32.00000,   2.00000
-150537922.99179,-526769230.95439,43410584.03098,   0.00054,  -0.00348,   0.00084,476764128.00000,   0.00115,275894848.00000,   0.00020,  -0.00138,   0.00027,  32.00000,   2.00000
-150375897.60775,-526678704.44303,43596998.04278,   0.00054,  -0.00349,   0.00084,476756736.00000,   0.00116,275898432.00000,   0.00020,  -0.00138,   0.00027, -32.00000,   2.00000
-150213869.59006,-526586828.42445,43787078.63762,   0.00054,  -0.00349,   0.00084,476761760.00000,   0.00116,275901984.00000,   0.00020,  -0.00139,   0.00027,  32.00000,   2.00000
-150066186.23777,-526498462.90754,43976506.13443,   0.00054,  -0.00349,   0.00085,476768160.00000,   0.00116,275905568.00000,   0.00020,  -0.00139,   0.00027,  32.00000,   2.00000
-149904624.84542,-526406367.37471,44165777.47010,   0.00054,  -0.00350,   0.00085,476769504.00000,   0.00117,275909152.00000,   0.00020,  -0.00140,   0.00028,  32.00000,   2.00000
-149757151.41253,-526316477.00532,44358449.87412,   0.00055,  -0.00350,   0.00085,476777088.00000,   0.00117,275912736.00000,   0.00020,  -0.00140,   0.00028,  96.00000,   2.00000
-149606028.72289,-526223928.93927,44556032.69240,   0.00055,  -0.00351,   0.00086,476769632.00000,   0.00117,275916288.00000,   0.00020,  -0.00140,   0.00028,  96.00000,   2.00000
-149455112.63875,-526131172.70252,44753187.63089,   0.00055,  -0.00351,   0.00086,476773600.00000,   0.00118,275919840.00000,   0.00020,  -0.00141,   0.00028,  64.00000,   2.00000
-149322194.54653,-526043420.41794,44948414.91510,   0.00055,  -0.00351,   0.00086,476792288.00000,   0.00118,275923456.00000,   0.00020,  -0.00141,   0.00028,  64.00000,   2.00000
-149171447.91913,-525949174.48991,45148795.23315,   0.00055,  -0.00352,   0.00087,476782592.00000,   0.00118,275927008.00000,   0.00020,  -0.00141,   0.00028,   0.00000,   2.00000
-149035046.91252,-525858518.75626,45348502.00787,   0.00055,  -0.00352,   0.00087,476788864.00000,   0.00119,275930560.00000,   0.00021,  -0.00142,   0.00028,  96.00000,   2.00000
-148898576.85812,-525766382.28225,45551829.20959,   0.00055,  -0.00352,   0.00088,476794016.00000,   0.00119,275934144.00000,   0.00021,  -0.00142,   0.00028,   0.00000,   2.00000
-148758666.61566,-525672850.55263,45756023.76123,   0.00056,  -0.00353,   0.00088,476785408.00000,   0.00119,275937664.00000,   0.00021,  -0.00143,   0.00028, 128.00000,   2.00000
-148622345.67191,-525579174.37620,45962531.87261,   0.00056,  -0.00353,   0.00088,476802880.00000,   0.00120,275941248.00000,   0.00021,  -0.00143,   0.00029, -64.00000,   2.00000
-148496656.89065,-525487586.48311,46169637.75054,   0.00056,  -0.00354,   0.00089,476796800.00000,   0.00120,275944800.00000,   0.00021,  -0.00143,   0.00029,   0.00000,   2.00000
-148370904.76258,-525394658.61997,46380363.73941,   0.00056,  -0.00354,   0.00089,476801856.00000,   0.00120,275948352.00000,   0.00021,  -0.00144,   0.00029, -32.00000,   2.00000
-148245332.87839,-525301630.51750,46590645.70310,   0.00056,  -0.00354,   0.00090,476805792.00000,   0.00121,275951904.00000,   0.00021,  -0.00144,   0.00029,  32.00000,   2.00000
-148119637.85426,-525206958.17713,46804509.00675,   0.00056,  -0.00355,   0.00090,476810944.00000,   0.00121,275955456.00000,   0.00021,  -0.00145,   0.00029, -32.00000,   2.00000
-147994170.05267,-525112431.13620,47017945.54305,   0.00056,  -0.00355,   0.00090,476814784.00000,   0.00121,275959008.00000,   0.00021,  -0.00145,   0.00029,  64.00000,   2.00000
-147878988.57694,-525018404.28260,47236013.18116,   0.00057,  -0.00355,   0.00091,476810112.00000,   0.00122,275962528.00000,   0.00021,  -0.00145,   0.00029,   0.00000,   2.00000
-147767654.83600,-524925698.10311,47452287.51237,   0.00057,  -0.00356,   0.00091,476826336.00000,   0.00122,275966112.00000,   0.00022,  -0.00146,   0.00029,   0.00000,   2.00000
-147652511.54590,-524830099.22520,47673487.28908,   0.00057,  -0.00356,   0.00092,476819168.00000,   0.00122,275969632.00000,   0.00022,  -0.00146,   0.00030,  64.00000,   2.00000
-147537511.25628,-524734337.14059,47894218.10293,   0.00057,  -0.00356,   0.00092,476822976.00000,   0.00123,275973184.00000,   0.00022,  -0.00146,   0.00030,  32.00000,   2.00000
-147422393.10874,-524637075.61711,48118522.55704,   0.00057,  -0.00357,   0.00092,476828192.00000,   0.00123,275976736.00000,   0.00022,  -0.00147,   0.00030,   0.00000,   2.00000
-147317827.43633,-524541851.26001,48343441.36584,   0.00057,  -0.00357,   0.00093,476822112.00000,   0.00123,275980224.00000,   0.00022,  -0.00147,   0.00030,  32.00000,   2.00000
-147216820.55599,-524446524.41402,48570555.09861,   0.00057,  -0.00358,   0.00093,476839616.00000,   0.00123,275983776.00000,   0.00022,  -0.00148,   0.00030, -64.00000,   2.00000
-147112213.35609,-524349562.51251,48798557.64916,   0.00057,  -0.00358,   0.00094,476831104.00000,   0.00124,275987296.00000,   0.00022,  -0.00148,   0.00030, -32.00000,   2.00000
-147007472.30873,-524251136.76179,49030123.94393,   0.00058,  -0.00358,   0.00094,476836384.00000,   0.00124,275990816.00000,   0.00022,  -0.00148,   0.00030,  32.00000,   2.00000
-146916952.06091,-524156113.13105,49260918.56450,   0.00058,  -0.00359,   0.00094,476842688.00000,   0.00124,275994336.00000,   0.00022,  -0.00149,   0.00030,  32.00000,   2.00000
-146812121.82380,-524055820.07132,49495529.11608,   0.00058,  -0.00359,   0.00095,476845536.00000,   0.00125,275997888.00000,   0.00022,  -0.00149,   0.00031, -64.00000,   2.00000
-146721545.78286,-523959105.11335,49729376.82672,   0.00058,  -0.00359,   0.00095,476851872.00000,   0.00125,276001408.00000,   0.00023,  -0.00149,   0.00031,  64.00000,   2.00000
-146641183.96396,-523863003.11423,49967886.80222,   0.00058,  -0.00360,   0.00096,476847104.00000,   0.00125,276004928.00000,   0.00023,  -0.00150,   0.00031,  32.00000,   2.00000
-146550456.68254,-523764349.82880,50204744.59425,   0.00058,  -0.00360,   0.00096,476860992.00000,   0.00126,276008480.00000,   0.00023,  -0.00150,   0.00031, -32.00000,   2.00000
-146455808.72241,-523662607.27286,50446545.07648,   0.00058,  -0.00360,   0.00097,476853952.00000,   0.00126,276011968.00000,   0.00023,  -0.00151,   0.00031, -32.00000,   2.00000
-146375426.48331,-523564615.29584,50687585.41251,   0.00058,  -0.00361,   0.00097,476860192.00000,   0.00126,276015488.00000,   0.00023,  -0.00151,   0.00031, 128.00000,   2.00000
-146291043.79701,-523463249.06869,50933546.90551,   0.00059,  -0.00361,   0.00098,476853312.00000,   0.00127,276018944.00000,   0.00023,  -0.00151,   0.00031, 224.00000,   2.00000
-146224319.83008,-523365455.91478,51181298.20043,   0.00059,  -0.00361,   0.00098,476873216.00000,   0.00127,276022496.00000,   0.00023,  -0.00152,   0.00031, 128.00000,   2.00000
-146139728.84560,-523262115.27691,51430239.50702,   0.00059,  -0.00362,   0.00098,476862432.00000,   0.00127,276025984.00000,   0.00023,  -0.00152,   0.00032,  64.00000,   2.00000
-146072814.17276,-523162426.70027,51680953.26996,   0.00059,  -0.00362,   0.00099,476882272.00000,   0.00128,276029536.00000,   0.00023,  -0.00153,   0.00032, -64.00000,   2.00000
-146002193.65076,-523061062.22029,51932600.21211,   0.00059,  -0.00362,   0.00099,476873920.00000,   0.00128,276033024.00000,   0.00023,  -0.00153,   0.00032,  32.00000,   2.00000
-145927824.56493,-522957779.47749,52185165.77576,   0.00059,  -0.00363,   0.00100,476865696.00000,   0.00128,276036480.00000,   0.00023,  -0.00153,   0.00032,  32.00000,   2.00000
-145856961.50662,-522854346.01911,52439750.60659,   0.00059,  -0.00363,   0.00100,476883200.00000,   0.00129,276040000.00000,   0.00024,  -0.00154,   0.00032,  32.00000,   2.00000
-145799986.23171,-522752954.39929,52697526.15802,   0.00059,  -0.00363,   0.00101,476890912.00000,   0.00129,276043520.00000,   0.00024,  -0.00154,   0.00032,  96.00000,   2.00000
-145739249.32737,-522649734.80715,52956237.07834,   0.00059,  -0.00364,   0.00101,476882592.00000,   0.00129,276047008.00000,   0.00024,  -0.00154,   0.00032,  32.00000,   2.00000
-145678224.27494,-522544742.61305,53218411.46244,   0.00059,  -0.00364,   0.00102,476887936.00000,   0.00130,276050496.00000,   0.00024,  -0.00155,   0.00032, -32.00000,   2.00000
-145616923.88854,-522438049.39068,53484048.63054,   0.00060,  -0.00364,   0.00102,476893344.00000,   0.00130,276053984.00000,   0.00024,  -0.00155,   0.00033,  32.00000,   2.00000
-145555604.06864,-522330988.08083,53749114.45431,   0.00060,  -0.00365,   0.00103,476897312.00000,   0.00130,276057472.00000,   0.00024,  -0.00155,   0.00033, -32.00000,   2.00000
-145504677.78823,-522225903.80000,54014850.39231,   0.00060,  -0.00365,   0.00103,476891296.00000,   0.00131,276060928.00000,   0.00024,  -0.00156,   0.00033,  96.00000,   2.00000
-145453408.66031,-522118873.94177,54284015.74525,   0.00060,  -0.00365,   0.00104,476896736.00000,   0.00131,276064416.00000,   0.00024,  -0.00156,   0.00033, -32.00000,   2.00000
-145405586.96240,-522011612.37913,54555088.34204,   0.00060,  -0.00366,   0.00104,476914272.00000,   0.00131,276067936.00000,   0.00024,  -0.00157,   0.00033, -96.00000,   2.00000
-145364377.35166,-521904807.68786,54828377.52445,   0.00060,  -0.00366,   0.00105,476896032.00000,   0.00132,276071360.00000,   0.00024,  -0.00157,   0.00033,  32.00000,   2.00000
-145312413.44606,-521793821.21633,55103827.90732,   0.00060,  -0.00366,   0.00105,476911488.00000,   0.00132,276074848.00000,   0.00025,  -0.00157,   0.00033,   0.00000,   2.00000
-145274564.36994,-521686279.16087,55378395.50529,   0.00060,  -0.00367,   0.00106,476917824.00000,   0.00132,276078336.00000,   0.00025,  -0.00158,   0.00034, -32.00000,   2.00000
-145246755.12297,-521579123.06108,55657641.79743,   0.00060,  -0.00367,   0.00106,476913248.00000,   0.00133,276081792.00000,   0.00025,  -0.00158,   0.00034, 128.00000,   2.00000
-145204706.79751,-521467800.71128,55936591.48765,   0.00060,  -0.00367,   0.00107,476914944.00000,   0.00133,276085248.00000,   0.00025,  -0.00158,   0.00034,  96.00000,   2.00000
-145162294.86380,-521354536.36405,56218937.25851,   0.00061,  -0.00368,   0.00107,476920416.00000,   0.00133,276088736.00000,   0.00025,  -0.00159,   0.00034,   0.00000,   2.00000
-145133683.63969,-521243183.54682,56504375.64492,   0.00061,  -0.00368,   0.00108,476928224.00000,   0.00134,276092192.00000,   0.00025,  -0.00159,   0.00034,  96.00000,   2.00000
-145101208.36362,-521129819.60853,56790789.20996,   0.00061,  -0.00368,   0.00108,476919936.00000,   0.00134,276095648.00000,   0.00025,  -0.00160,   0.00034, -32.00000,   2.00000
-145086276.18717,-521019929.46303,57078682.96790,   0.00061,  -0.00369,   0.00109,476940032.00000,   0.00134,276099136.00000,   0.00025,  -0.00160,   0.00034,   0.00000,   2.00000
-145053315.56417,-520904300.34862,57367874.02776,   0.00061,  -0.00369,   0.00109,476929408.00000,   0.00135,276102592.00000,   0.00025,  -0.00160,   0.00035,  64.00000,   2.00000
-145034097.04569,-520790379.14011,57660110.84908,   0.00061,  -0.00369,   0.00110,476937280.00000,   0.00135,276106048.00000,   0.00025,  -0.00161,   0.00035,  32.00000,   2.00000
-145010988.46482,-520674398.99825,57953338.71482,   0.00061,  -0.00370,   0.00110,476929024.00000,   0.00135,276109472.00000,   0.00025,  -0.00161,   0.00035, -96.00000,   2.00000
-144990960.25893,-520556589.73573,58252290.92237,   0.00061,  -0.00370,   0.00111,476948352.00000,   0.00135,276112960.00000,   0.00026,  -0.00161,   0.00035, -32.00000,   2.00000
-144981474.95465,-520441969.51304,58547925.80026,   0.00061,  -0.00370,   0.00111,476940992.00000,   0.00136,276116384.00000,   0.00026,  -0.00162,   0.00035,  32.00000,   2.00000
-144971562.72669,-520325399.29710,58846913.86552,   0.00061,  -0.00371,   0.00112,476946464.00000,   0.00136,276119840.00000,   0.00026,  -0.00162,   0.00035,  32.00000,   2.00000
-144961211.31331,-520206815.09072,59149236.99826,   0.00061,  -0.00371,   0.00112,476952096.00000,   0.00136,276123264.00000,   0.00026,  -0.00163,   0.00035,  64.00000,   2.00000
-144946613.73611,-520084393.61640,59456525.43854,   0.00061,  -0.00371,   0.00113,476945472.00000,   0.00137,276126688.00000,   0.00026,  -0.00163,   0.00036,  32.00000,   2.00000
-144935687.01354,-519963324.02845,59761505.22997,   0.00062,  -0.00372,   0.00113,476961664.00000,   0.00137,276130144.00000,   0.00026,  -0.00163,   0.00036,  32.00000,   2.00000
-144934961.31734,-519843733.69898,60067153.98227,   0.00062,  -0.00372,   0.00114,476955904.00000,   0.00137,276133568.00000,   0.00026,  -0.00164,   0.00036, -32.00000,   2.00000
-144933800.04416,-519722233.18974,60376134.50584,   0.00062,  -0.00372,   0.00114,476961440.00000,   0.00138,276137024.00000,   0.00026,  -0.00164,   0.00036,  32.00000,   2.00000
-144928345.26142,-519596717.18271,60690075.69233,   0.00062,  -0.00372,   0.00115,476954880.00000,   0.00138,276140416.00000,   0.00026,  -0.00164,   0.00036, -96.00000,   2.00000
-144940728.15997,-519476527.40741,61001357.42108,   0.00062,  -0.00373,   0.00116,476973440.00000,   0.00138,276143872.00000,   0.00026,  -0.00165,   0.00036,  32.00000,   2.00000
-144948762.60347,-519352144.53303,61317582.40189,   0.00062,  -0.00373,   0.00116,476967008.00000,   0.00139,276147296.00000,   0.00027,  -0.00165,   0.00036, -32.00000,   2.00000
-144956320.67171,-519225724.05349,61637096.49008,   0.00062,  -0.00373,   0.00117,476972576.00000,   0.00139,276150720.00000,   0.00027,  -0.00165,   0.00037,   0.00000,   2.00000
-144963704.67294,-519098830.02338,61955919.59012,   0.00062,  -0.00374,   0.00117,476976768.00000,   0.00139,276154144.00000,   0.00027,  -0.00166,   0.00037,  64.00000,   2.00000
-144966772.48364,-518967849.08858,62279711.74385,   0.00062,  -0.00374,   0.00118,476970304.00000,   0.00140,276157536.00000,   0.00027,  -0.00166,   0.00037, -32.00000,   2.00000
-144983846.67221,-518840298.80590,62602489.83132,   0.00062,  -0.00374,   0.00118,476976576.00000,   0.00140,276160928.00000,   0.00027,  -0.00167,   0.00037,   0.00000,   2.00000
-145004173.63083,-518712272.61677,62926764.33837,   0.00062,  -0.00375,   0.00119,476994528.00000,   0.00140,276164384.00000,   0.00027,  -0.00167,   0.00037,  32.00000,   2.00000
-145016391.51823,-518578430.94237,63257776.99034,   0.00062,  -0.00375,   0.00120,476975968.00000,   0.00141,276167744.00000,   0.00027,  -0.00167,   0.00037,  64.00000,   2.00000
-145032204.99860,-518445859.51585,63586313.23478,   0.00062,  -0.00375,   0.00120,476992224.00000,   0.00141,276171168.00000,   0.00027,  -0.00168,   0.00037,  32.00000,   2.00000
-145057813.05190,-518312830.85763,63919473.76219,   0.00062,  -0.00376,   0.00121,476988160.00000,   0.00141,276174560.00000,   0.00027,  -0.00168,   0.00038,   0.00000,   2.00000
-145083241.73147,-518179446.93005,64251935.76091,   0.00062,  -0.00376,   0.00121,476992128.00000,   0.00142,276177952.00000,   0.00027,  -0.00168,   0.00038,   0.00000,   2.00000
-145108104.93986,-518043714.42093,64587600.65850,   0.00062,  -0.00376,   0.00122,476998016.00000,   0.00142,276181376.00000,   0.00027,  -0.00169,   0.00038, -32.00000,   2.00000
-145146560.92526,-517909474.22483,64926117.13264,   0.00062,  -0.00376,   0.00123,477006240.00000,   0.00142,276184800.00000,   0.00028,  -0.00169,   0.00038,  32.00000,   2.00000
-145166840.83592,-517769039.07422,65266045.01596,   0.00063,  -0.00377,   0.00123,476995904.00000,   0.00142,276188160.00000,   0.00028,  -0.00169,   0.00038, -32.00000,   2.00000
-145200697.70303,-517629975.65637,65608799.37004,   0.00063,  -0.00377,   0.00124,477004192.00000,   0.00143,276191552.00000,   0.00028,  -0.00170,   0.00038,   0.00000,   2.00000
-145248128.10935,-517492388.23437,65954382.58493,   0.00063,  -0.00377,   0.00124,477012416.00000,   0.00143,276194976.00000,   0.00028,  -0.00170,   0.00039,  64.00000,   2.00000
-145281145.32566,-517350398.05175,66299560.21681,   0.00063,  -0.00378,   0.00125,477014240.00000,   0.00143,276198368.00000,   0.00028,  -0.00170,   0.00039,  64.00000,   2.00000
-145323930.52403,-517207903.61568,66649379.08125,   0.00063,  -0.00378,   0.00126,477010400.00000,   0.00144,276201728.00000,   0.00028,  -0.00171,   0.00039,   0.00000,   2.00000
-145366462.62245,-517064823.40937,66998439.23670,   0.00063,  -0.00378,   0.00126,477014560.00000,   0.00144,276205120.00000,   0.00028,  -0.00171,   0.00039, -32.00000,   2.00000
-145408381.40310,-516919307.79408,67350651.66765,   0.00063,  -0.00378,   0.00127,477020544.00000,   0.00144,276208512.00000,   0.00028,  -0.00172,   0.00039,   0.00000,   2.00000
-145450030.58601,-516773121.65337,67702086.98088,   0.00063,  -0.00379,   0.00127,477024800.00000,   0.00145,276211904.00000,   0.00028,  -0.00172,   0.00039, -64.00000,   2.00000
-145501083.69856,-516624625.96511,68062097.03277,   0.00063,  -0.00379,   0.00128,477022688.00000,   0.00145,276215264.00000,   0.00028,  -0.00172,   0.00040,  32.00000,   2.00000
-145551853.92128,-516475475.61937,68421323.46171,   0.00063,  -0.00379,   0.00129,477027104.00000,   0.00145,276218624.00000,   0.00028,  -0.00173,   0.00040,  64.00000,   2.00000
-145602315.05912,-516325543.38288,68779749.47532,   0.00063,  -0.00380,   0.00129,477031360.00000,   0.00146,276222016.00000,   0.00029,  -0.00173,   0.00040,-128.00000,   2.00000
-145662527.66028,-516175139.03214,69142856.79990,   0.00063,  -0.00380,   0.00130,477027456.00000,   0.00146,276225344.00000,   0.00029,  -0.00173,   0.00040,   0.00000,   2.00000
-145711681.18693,-516020234.13171,69507523.20558,   0.00063,  -0.00380,   0.00131,477043392.00000,   0.00146,276228736.00000,   0.00029,  -0.00174,   0.00040,  32.00000,   2.00000
-145770920.05992,-515866560.52108,69872950.61766,   0.00063,  -0.00380,   0.00131,477038016.00000,   0.00147,276232096.00000,   0.00029,  -0.00174,   0.00040, -32.00000,   2.00000
-145825711.39642,-515708419.73285,70243423.40348,   0.00063,  -0.00381,   0.00132,477032032.00000,   0.00147,276235424.00000,   0.00029,  -0.00174,   0.00041,  32.00000,   2.00000
-145897727.05588,-515553390.25673,70614666.42513,   0.00063,  -0.00381,   0.00133,477052736.00000,   0.00147,276238816.00000,   0.00029,  -0.00175,   0.00041,  64.00000,   2.00000
-145965612.89029,-515395625.07106,70987047.35518,   0.00063,  -0.00381,   0.00133,477044928.00000,   0.00148,276242176.00000,   0.00029,  -0.00175,   0.00041,  32.00000,   2.00000
-146018665.02576,-515231587.27383,71362923.60931,   0.00063,  -0.00381,   0.00134,477048704.00000,   0.00148,276245504.00000,   0.00029,  -0.00175,   0.00041,  32.00000,   2.00000
-146099283.41748,-515072449.42544,71741100.25941,   0.00063,  -0.00382,   0.00135,477059808.00000,   0.00148,276248896.00000,   0.00029,  -0.00176,   0.00041,  96.00000,   2.00000
-146161610.83142,-514906779.67288,72120832.64803,   0.00063,  -0.00382,   0.00135,477049728.00000,   0.00148,276252224.00000,   0.00029,  -0.00176,   0.00041,   0.00000,   2.00000
-146237335.46821,-514742221.67601,72503249.29373,   0.00063,  -0.00382,   0.00136,477058304.00000,   0.00149,276255552.00000,   0.00029,  -0.00177,   0.00042, -96.00000,   2.00000
-146312690.76721,-514577017.37789,72884875.09157,   0.00063,  -0.00382,   0.00137,477062720.00000,   0.00149,276258912.00000,   0.00030,  -0.00177,   0.00042, -32.00000,   2.00000
-146383501.87413,-514407116.90970,73271577.14352,   0.00063,  -0.00383,   0.00137,477056992.00000,   0.00149,276262208.00000,   0.00030,  -0.00177,   0.00042,   0.00000,   2.00000
-146471406.03466,-514240281.52818,73658923.48313,   0.00063,  -0.00383,   0.00138,477077824.00000,   0.00150,276265600.00000,   0.00030,  -0.00178,   0.00042,  32.00000,   2.00000
-146540575.77756,-514064887.25022,74051739.86634,   0.00063,  -0.00383,   0.00139,477069984.00000,   0.00150,276268928.00000,   0.00030,  -0.00178,   0.00042, 128.00000,   2.00000
-146619667.81080,-513890347.50264,74445352.42158,   0.00063,  -0.00383,   0.00139,477064832.00000,   0.00150,276272224.00000,   0.00030,  -0.00178,   0.00042,  32.00000,   2.00000
-146702060.26995,-513717177.92416,74836125.94438,   0.00063,  -0.00384,   0.00140,477081408.00000,   0.00151,276275584.00000,   0.00030,  -0.00179,   0.00043,   0.00000,   2.00000
-146793520.51413,-513540886.42666,75235424.89059,   0.00063,  -0.00384,   0.00141,477080256.00000,   0.00151,276278912.00000,   0.00030,  -0.00179,   0.00043,   0.00000,   2.00000
-146884444.60827,-513363843.51875,75633899.84088,   0.00063,  -0.00384,   0.00141,477084832.00000,   0.00151,276282240.00000,   0.00030,  -0.00179,   0.00043,  64.00000,   2.00000
-146971040.98066,-513183830.51739,76033598.24692,   0.00063,  -0.00384,   0.00142,477077472.00000,   0.00152,276285536.00000,   0.00030,  -0.00180,   0.00043,  96.00000,   2.00000
-147056186.39646,-512998824.32711,76440132.54529,   0.00063,  -0.00385,   0.00143,477086080.00000,   0.00152,276288864.00000,   0.00030,  -0.00180,   0.00043,  32.00000,   2.00000
-147140685.26162,-512813007.69942,76845814.11958,   0.00063,  -0.00385,   0.00143,477090880.00000,   0.00152,276292160.00000,   0.00030,  -0.00180,   0.00044,  32.00000,   2.00000
-147238582.37685,-512630040.23392,77250194.50845,   0.00063,  -0.00385,   0.00144,477098208.00000,   0.00152,276295488.00000,   0.00030,  -0.00181,   0.00044,  64.00000,   2.00000
-147331533.16712,-512441907.17856,77659613.67284,   0.00063,  -0.00385,   0.00145,477093024.00000,   0.00153,276298784.00000,   0.00031,  -0.00181,   0.00044,  32.00000,   2.00000
-147423187.39307,-512250727.76007,78071944.67543,   0.00063,  -0.00386,   0.00146,477100000.00000,   0.00153,276302080.00000,   0.00031,  -0.00181,   0.00044,  32.00000,   2.00000
-147527511.38792,-512060010.23312,78486683.42053,   0.00063,  -0.00386,   0.00146,477109792.00000,   0.00153,276305408.00000,   0.00031,  -0.00182,   0.00044,   0.00000,   2.00000
-147627094.29764,-511866158.28843,78902581.49939,   0.00063,  -0.00386,   0.00147,477102880.00000,   0.00154,276308704.00000,   0.00031,  -0.00182,   0.00044, -64.00000,   2.00000
-147725028.62771,-511668900.84939,79321243.26804,   0.00063,  -0.00386,   0.00148,477110176.00000,   0.00154,276312000.00000,   0.00031,  -0.00182,   0.00045, -96.00000,   2.00000
-147821249.88930,-511468396.52220,79742654.11536,   0.00063,  -0.00387,   0.00148,477117856.00000,   0.00154,276315296.00000,   0.00031,  -0.00183,   0.00045,  64.00000,   2.00000
-147916083.34328,-511266572.80137,80162928.74293,   0.00063,  -0.00387,   0.00149,477123456.00000,   0.00155,276318592.00000,   0.00031,  -0.00183,   0.00045,  96.00000,   2.00000
-148019412.52216,-511062595.71700,80587533.78794,   0.00063,  -0.00387,   0.00150,477121856.00000,   0.00155,276321888.00000,   0.00031,  -0.00183,   0.00045,  32.00000,   2.00000
-148121200.36263,-510857183.85670,81010915.20954,   0.00063,  -0.00387,   0.00151,477127872.00000,   0.00155,276325184.00000,   0.00031,  -0.00184,   0.00045,  64.00000,   2.00000
-148217384.68375,-510645882.45156,81439045.21261,   0.00063,  -0.00388,   0.00151,477123936.00000,   0.00156,276328448.00000,   0.00031,  -0.00184,   0.00046,  64.00000,   2.00000
-148329135.00935,-510436402.83830,81866922.26227,   0.00063,  -0.00388,   0.00152,477147136.00000,   0.00156,276331776.00000,   0.00031,  -0.00184,   0.00046, -32.00000,   2.00000
-148432401.36363,-510221107.98703,82298011.43099,   0.00063,  -0.00388,   0.00153,477128768.00000,   0.00156,276335008.00000,   0.00031,  -0.00185,   0.00046, -32.00000,   2.00000
-148536993.58259,-510001818.12398,82733090.56002,   0.00063,  -0.00388,   0.00154,477151392.00000,   0.00156,276338336.00000,   0.00032,  -0.00185,   0.00046,   0.00000,   2.00000
-148637632.45800,-509781105.74883,83165431.77073,   0.00063,  -0.00388,   0.00154,477142848.00000,   0.00157,276341600.00000,   0.00032,  -0.00185,   0.00046,  64.00000,   2.00000
-148736686.95414,-509554323.63225,83604117.30752,   0.00063,  -0.00389,   0.00155,477152800.00000,   0.00157,276344864.00000,   0.00032,  -0.00186,   0.00047,  64.00000,   2.00000
-148849637.03095,-509329836.66657,84041218.93734,   0.00063,  -0.00389,   0.00156,477160448.00000,   0.00157,276348192.00000,   0.00032,  -0.00186,   0.00047,   0.00000,   2.00000
-148958742.15331,-509099636.51839,84483375.82256,   0.00063,  -0.00389,   0.00157,477154976.00000,   0.00158,276351456.00000,   0.00032,  -0.00186,   0.00047,  32.00000,   2.00000
-149068511.42955,-508868740.88488,84924688.28256,   0.00063,  -0.00389,   0.00158,477158688.00000,   0.00158,276354752.00000,   0.00032,  -0.00187,   0.00047,   0.00000,   2.00000
-149192802.74852,-508638400.04437,85368454.44580,   0.00063,  -0.00390,   0.00158,477167008.00000,   0.00158,276358048.00000,   0.00032,  -0.00187,   0.00047,   0.00000,   2.00000
-149300048.56248,-508399596.15292,85818077.71965,   0.00063,  -0.00390,   0.00159,477157184.00000,   0.00159,276361312.00000,   0.00032,  -0.00188,   0.00048,   0.00000,   2.00000
-149422593.37989,-508164094.49977,86266480.29236,   0.00063,  -0.00390,   0.00160,477162400.00000,   0.00159,276364608.00000,   0.00032,  -0.00188,   0.00048,  64.00000,   2.00000
-149545326.63034,-507923726.61422,86721617.18269,   0.00063,  -0.00390,   0.00161,477169312.00000,   0.00159,276367904.00000,   0.00032,  -0.00188,   0.00048,   0.00000,   2.00000
-149679974.80504,-507686940.24388,87174054.23589,   0.00063,  -0.00390,   0.00161,477159904.00000,   0.00160,276371168.00000,   0.00032,  -0.00189,   0.00048, -64.00000,   2.00000
-149800275.37210,-507441507.15783,87633528.15531,   0.00063,  -0.00391,   0.00162,477164736.00000,   0.00160,276374432.00000,   0.00032,  -0.00189,   0.00048,   0.00000,   2.00000
-149935161.31653,-507199383.99314,88091456.71270,   0.00063,  -0.00391,   0.00163,477170208.00000,   0.00160,276377728.00000,   0.00032,  -0.00189,   0.00049,   0.00000,   2.00000
-150065998.91903,-506951866.78740,88554291.41053,   0.00063,  -0.00391,   0.00164,477164128.00000,   0.00160,276380992.00000,   0.00033,  -0.00190,   0.00049, 160.00000,   2.00000
-150210839.93912,-506707110.91476,89015306.85937,   0.00063,  -0.00391,   0.00165,477170592.00000,   0.00161,276384256.00000,   0.00033,  -0.00190,   0.00049,  96.00000,   2.00000
-150337036.26631,-506452766.89517,89481545.76272,   0.00063,  -0.00391,   0.00166,477162912.00000,   0.00161,276387520.00000,   0.00033,  -0.00190,   0.00049,  32.00000,   2.00000
-150480112.70416,-506200979.75359,89947113.20645,   0.00063,  -0.00392,   0.00166,477184352.00000,   0.00161,276390816.00000,   0.00033,  -0.00191,   0.00049, -64.00000,   2.00000
-150615161.31183,-505942935.14652,90416050.45903,   0.00063,  -0.00392,   0.00167,477165504.00000,   0.00162,276394048.00000,   0.00033,  -0.00191,   0.00050, -32.00000,   2.00000
-150766364.49763,-505684763.05345,90887907.90194,   0.00063,  -0.00392,   0.00168,477189760.00000,   0.00162,276397344.00000,   0.00033,  -0.00191,   0.00050,  96.00000,   2.00000
-150899558.99365,-505421338.30920,91357571.42019,   0.00063,  -0.00392,   0.00169,477178272.00000,   0.00162,276400608.00000,   0.00033,  -0.00192,   0.00050,  64.00000,   2.00000
-151045133.14257,-505155289.53143,91832641.91157,   0.00063,  -0.00392,   0.00170,477190848.00000,   0.00163,276403872.00000,   0.00033,  -0.00192,   0.00050,   0.00000,   2.00000
-151186273.93089,-504885218.37349,92308796.64748,   0.00063,  -0.00392,   0.00170,477184288.00000,   0.00163,276407136.00000,   0.00033,  -0.00192,   0.00050, -32.00000,   2.00000
-151329932.34547,-504613925.80561,92784800.93630,   0.00063,  -0.00393,   0.00171,477203808.00000,   0.00163,276410432.00000,   0.00033,  -0.00193,   0.00051,  96.00000,   2.00000
-151479534.76715,-504339705.57488,93263984.00105,   0.00063,  -0.00393,   0.00172,477187936.00000,   0.00164,276413696.00000,   0.00033,  -0.00193,   0.00051,  64.00000,   2.00000
-151631619.65623,-504064238.64889,93743065.78295,   0.00063,  -0.00393,   0.00173,477207296.00000,   0.00164,276416992.00000,   0.00033,  -0.00193,   0.00051, -32.00000,   2.00000
-151778777.66013,-503782449.99617,94227157.41986,   0.00063,  -0.00393,   0.00174,477203008.00000,   0.00164,276420256.00000,   0.00034,  -0.00194,   0.00051,  64.00000,   2.00000
-151920960.33013,-503494098.08326,94716249.60366,   0.00063,  -0.00393,   0.00175,477198912.00000,   0.00164,276423488.00000,   0.00034,  -0.00194,   0.00052,   0.00000,   2.00000
-152066165.46650,-503207228.61232,95201664.33047,   0.00063,  -0.00393,   0.00176,477215712.00000,   0.00165,276426784.00000,   0.00034,  -0.00194,   0.00052,  64.00000,   2.00000
-152220466.37254,-502917524.40472,95691581.05470,   0.00063,  -0.00394,   0.00176,477213984.00000,   0.00165,276430048.00000,   0.00034,  -0.00195,   0.00052,   0.00000,   2.00000
-152370342.76251,-502623984.81909,96182967.52360,   0.00063,  -0.00394,   0.00177,477207200.00000,   0.00165,276433280.00000,   0.00034,  -0.00195,   0.00052,  64.00000,   2.00000
-152518890.63137,-502326548.42282,96676841.57466,   0.00062,  -0.00394,   0.00178,477214816.00000,   0.00166,276436544.00000,   0.00034,  -0.00195,   0.00052, -32.00000,   2.00000
-152666074.11841,-502025150.32144,97173171.08301,   0.00062,  -0.00394,   0.00179,477222336.00000,   0.00166,276439808.00000,   0.00034,  -0.00196,   0.00053,   0.00000,   2.00000
-152825964.70330,-501723586.88728,97671389.92867,   0.00062,  -0.00394,   0.00180,477232448.00000,   0.00166,276443104.00000,   0.00034,  -0.00196,   0.00053, -32.00000,   2.00000
-152967256.99179,-501414278.87913,98171600.27520,   0.00062,  -0.00394,   0.00181,477223200.00000,   0.00167,276446336.00000,   0.00034,  -0.00196,   0.00053,   0.00000,   2.00000
-153121201.73909,-501104712.97220,98673637.90943,   0.00062,  -0.00395,   0.00182,477233472.00000,   0.00167,276449600.00000,   0.00034,  -0.00196,   0.00053, 128.00000,   2.00000
-153284624.08891,-500794563.65170,99176467.93050,   0.00062,  -0.00395,   0.00183,477229536.00000,   0.00167,276452832.00000,   0.00034,  -0.00197,   0.00054,  96.00000,   2.00000
-153432455.89294,-500476592.87934,99682189.05303,   0.00062,  -0.00395,   0.00183,477234720.00000,   0.00167,276456096.00000,   0.00034,  -0.00197,   0.00054,   0.00000,   2.00000
-153589175.18469,-500155414.47106,100192280.00976,   0.00062,  -0.00395,   0.00184,477233344.00000,   0.00168,276459328.00000,   0.00034,  -0.00197,   0.00054,   0.00000,   2.00000
-153747971.76878,-499832880.54405,100701954.21767,   0.00062,  -0.00395,   0.00185,477252896.00000,   0.00168,276462624.00000,   0.00035,  -0.00198,   0.00054,  32.00000,   2.00000
-153898479.64618,-499503147.67788,101215624.39150,   0.00062,  -0.00395,   0.00186,477234944.00000,   0.00168,276465824.00000,   0.00035,  -0.00198,   0.00054,  64.00000,   2.00000
-154050987.62047,-499171889.13947,101728771.36025,   0.00062,  -0.00396,   0.00187,477254592.00000,   0.00169,276469088.00000,   0.00035,  -0.00198,   0.00055,   0.00000,   2.00000
-154212285.26356,-498837222.90316,102246192.65070,   0.00062,  -0.00396,   0.00188,477253536.00000,   0.00169,276472352.00000,   0.00035,  -0.00199,   0.00055,   0.00000,   2.00000
-154354863.19886,-498494415.91282,102765509.99301,   0.00062,  -0.00396,   0.00189,477244768.00000,   0.00169,276475552.00000,   0.00035,  -0.00199,   0.00055, -32.00000,   2.00000
-154513429.61191,-498153788.35866,103283598.70505,   0.00062,  -0.00396,   0.00190,477267264.00000,   0.00170,276478848.00000,   0.00035,  -0.00199,   0.00055,  64.00000,   2.00000
-154667272.10439,-497808456.64129,103802924.61732,   0.00062,  -0.00396,   0.00191,477261184.00000,   0.00170,276482112.00000,   0.00035,  -0.00200,   0.00056,   0.00000,   2.00000
-154829227.31522,-497456742.26525,104329992.00561,   0.00062,  -0.00396,   0.00192,477263200.00000,   0.00170,276485344.00000,   0.00035,  -0.00200,   0.00056,  32.00000,   2.00000
-154976070.62605,-497099700.43873,104856182.74607,   0.00062,  -0.00396,   0.00192,477266176.00000,   0.00171,276488576.00000,   0.00035,  -0.00200,   0.00056,  96.00000,   2.00000
-155135855.04752,-496744429.03418,105380197.40024,   0.00061,  -0.00396,   0.00193,477274624.00000,   0.00171,276491840.00000,   0.00035,  -0.00201,   0.00056, -64.00000,   2.00000
-155290433.57412,-496381914.75054,105909055.95291,   0.00061,  -0.00397,   0.00194,477271360.00000,   0.00171,276495072.00000,   0.00035,  -0.00201,   0.00057,  32.00000,   2.00000
-155443377.84085,-496014845.38153,106439893.53820,   0.00061,  -0.00397,   0.00195,477279936.00000,   0.00171,276498336.00000,   0.00035,  -0.00201,   0.00057,   0.00000,   2.00000
-155605194.54219,-495643798.44225,106974866.85890,   0.00061,  -0.00397,   0.00196,477279552.00000,   0.00172,276501568.00000,   0.00035,  -0.00202,   0.00057,  64.00000,   2.00000
-155752231.52356,-495267671.73692,107509037.32696,   0.00061,  -0.00397,   0.00197,477282368.00000,   0.00172,276504800.00000,   0.00035,  -0.00202,   0.00057, 160.00000,   2.00000
-155911931.08500,-494890593.47125,108044543.86956,   0.00061,  -0.00397,   0.00198,477293600.00000,   0.00172,276508064.00000,   0.00036,  -0.00202,   0.00058,  64.00000,   2.00000
-156066878.66816,-494506162.50204,108584964.21630,   0.00061,  -0.00397,   0.00199,477290336.00000,   0.00173,276511328.00000,   0.00036,  -0.00203,   0.00058,  32.00000,   2.00000
-156221451.58416,-494120324.97805,109123998.21665,   0.00061,  -0.00397,   0.00200,477295552.00000,   0.00173,276514560.00000,   0.00036,  -0.00203,   0.00058,  64.00000,   2.00000
-156389131.95965,-493733934.71182,109664494.21057,   0.00061,  -0.00397,   0.00201,477306368.00000,   0.00173,276517856.00000,   0.00036,  -0.00203,   0.00058,   0.00000,   2.00000
-156538343.19232,-493336715.90914,110210665.25251,   0.00061,  -0.00398,   0.00202,477300192.00000,   0.00174,276521120.00000,   0.00036,  -0.00204,   0.00059,   0.00000,   2.00000
-156697747.29698,-492938647.46881,110757678.49123,   0.00061,  -0.00398,   0.00203,477296416.00000,   0.00174,276524320.00000,   0.00036,  -0.00204,   0.00059,   0.00000,   2.00000
-156856115.50683,-492536479.49499,111306737.59426,   0.00061,  -0.00398,   0.00204,477304480.00000,   0.00174,276527584.00000,   0.00036,  -0.00204,   0.00059,  96.00000,   2.00000
-157013098.78315,-492129867.94301,111857645.76089,   0.00061,  -0.00398,   0.00205,477312832.00000,   0.00174,276530848.00000,   0.00036,  -0.00205,   0.00059, 128.00000,   2.00000
-157182965.10933,-491725079.45876,112406080.35611,   0.00060,  -0.00398,   0.00206,477321568.00000,   0.00175,276534112.00000,   0.00036,  -0.00205,   0.00060,  96.00000,   2.00000
-157332930.13966,-491308326.72777,112959548.20195,   0.00060,  -0.00398,   0.00207,477316608.00000,   0.00175,276537376.00000,   0.00036,  -0.00205,   0.00060, -32.00000,   2.00000
-157490711.19302,-490886678.23878,113516546.21642,   0.00060,  -0.00398,   0.00208,477317760.00000,   0.00175,276540608.00000,   0.00036,  -0.00205,   0.00060,  96.00000,   2.00000
-157646332.14066,-490462233.48661,114071225.76537,   0.00060,  -0.00398,   0.00209,477325056.00000,   0.00176,276543872.00000,   0.00036,  -0.00206,   0.00060,  64.00000,   2.00000
-157799147.71224,-490031953.38388,114626996.49298,   0.00060,  -0.00398,   0.00210,477335456.00000,   0.00176,276547136.00000,   0.00036,  -0.00206,   0.00061,  64.00000,   2.00000
-157945926.32631,-489592648.01562,115186983.72139,   0.00060,  -0.00398,   0.00211,477334144.00000,   0.00176,276550400.00000,   0.00036,  -0.00206,   0.00061,   0.00000,   2.00000
-158091358.71424,-489150973.65629,115745003.46316,   0.00060,  -0.00398,   0.00212,477340960.00000,   0.00177,276553696.00000,   0.00036,  -0.00207,   0.00061,  64.00000,   2.00000
-158245559.02475,-488704409.56208,116306916.28791,   0.00060,  -0.00399,   0.00213,477341632.00000,   0.00177,276556960.00000,   0.00037,  -0.00207,   0.00062,  32.00000,   2.00000
-158398354.18588,-488252982.63359,116870542.29582,   0.00060,  -0.00399,   0.00214,477350624.00000,   0.00177,276560256.00000,   0.00037,  -0.00207,   0.00062, -32.00000,   2.00000
-158550703.51698,-487800027.06704,117432631.25428,   0.00060,  -0.00399,   0.00215,477356128.00000,   0.00178,276563552.00000,   0.00037,  -0.00208,   0.00062,  32.00000,   2.00000
-158698427.92404,-487339200.74727,117999644.15470,   0.00060,  -0.00399,   0.00216,477353216.00000,   0.00178,276566816.00000,   0.00037,  -0.00208,   0.00062,   0.00000,   2.00000
-158845063.60485,-486873888.27199,118568485.56383,   0.00059,  -0.00399,   0.00217,477361632.00000,   0.00178,276570112.00000,   0.00037,  -0.00208,   0.00063,  32.00000,   2.00000
-159001794.27982,-486407288.94068,119138145.10557,   0.00059,  -0.00399,   0.00218,477358432.00000,   0.00178,276573376.00000,   0.00037,  -0.00209,   0.00063,  32.00000,   2.00000
-159156602.19777,-485933042.66814,119712887.39229,   0.00059,  -0.00399,   0.00219,477370112.00000,   0.00179,276576704.00000,   0.00037,  -0.00209,   0.00063,   0.00000,   2.00000
-159294193.24849,-485453427.78619,120286611.48372,   0.00059,  -0.00399,   0.00220,477358336.00000,   0.00179,276579968.00000,   0.00037,  -0.00209,   0.00063,   0.00000,   2.00000
-159443709.42529,-484969568.46975,120864556.35929,   0.00059,  -0.00399,   0.00221,477373088.00000,   0.00179,276583264.00000,   0.00037,  -0.00210,   0.00064,  32.00000,   2.00000
-159606632.85817,-484487767.39869,121440089.93861,   0.00059,  -0.00399,   0.00222,477381504.00000,   0.00180,276586560.00000,   0.00037,  -0.00210,   0.00064, 160.00000,   2.00000
-159751316.83755,-483997044.10161,122017805.74133,   0.00059,  -0.00399,   0.00223,477373248.00000,   0.00180,276589856.00000,   0.00037,  -0.00210,   0.00064,   0.00000,   2.00000
-159890196.98286,-483494820.61707,122603556.19321,   0.00059,  -0.00399,   0.00224,477374048.00000,   0.00180,276593120.00000,   0.00037,  -0.00211,   0.00065,   0.00000,   2.00000
-160045891.07060,-482998226.47903,123183665.27560,   0.00059,  -0.00399,   0.00225,477393984.00000,   0.00181,276596448.00000,   0.00037,  -0.00211,   0.00065,  96.00000,   2.00000
-160193598.88046,-482492377.72652,123768311.82330,   0.00059,  -0.00399,   0.00226,477377440.00000,   0.00181,276599712.00000,   0.00037,  -0.00211,   0.00065,  64.00000,   2.00000
-160342504.44119,-481982307.68460,124354591.49700,   0.00058,  -0.00400,   0.00227,477401280.00000,   0.00181,276603040.00000,   0.00037,  -0.00211,   0.00065,  96.00000,   2.00000
-160483321.99831,-481462692.86188,124945376.96162,   0.00058,  -0.00400,   0.00228,477384960.00000,   0.00182,276606304.00000,   0.00038,  -0.00212,   0.00066,  32.00000,   2.00000
-160626854.01210,-480945194.02899,125531228.58809,   0.00058,  -0.00400,   0.00229,477402176.00000,   0.00182,276609632.00000,   0.00038,  -0.00212,   0.00066,  64.00000,   2.00000
-160779052.50591,-480422395.41892,126120908.46967,   0.00058,  -0.00400,   0.00230,477403104.00000,   0.00182,276612928.00000,   0.00038,  -0.00212,   0.00066, -32.00000,   2.00000
-160911962.78615,-479887165.28803,126716035.02440,   0.00058,  -0.00400,   0.00231,477398496.00000,   0.00182,276616192.00000,   0.00038,  -0.00213,   0.00067, -32.00000,   2.00000
-161057084.29176,-479350467.04124,127311764.78134,   0.00058,  -0.00400,   0.00232,477410816.00000,   0.00183,276619520.00000,   0.00038,  -0.00213,   0.00067, -32.00000,   2.00000
-161201224.07081,-478811916.91855,127905663.01944,   0.00058,  -0.00400,   0.00234,477417024.00000,   0.00183,276622848.00000,   0.00038,  -0.00213,   0.00067,  96.00000,   2.00000
-161339956.94183,-478264289.41702,128504149.07019,   0.00058,  -0.00400,   0.00235,477415488.00000,   0.00183,276626144.00000,   0.00038,  -0.00214,   0.00068,   0.00000,   2.00000
-161476862.16791,-477711605.82900,129103995.64412,   0.00058,  -0.00400,   0.00236,477425056.00000,   0.00184,276629504.00000,   0.00038,  -0.00214,   0.00068,   0.00000,   2.00000
-161609149.35946,-477153062.62379,129705232.30580,   0.00058,  -0.00400,   0.00237,477420256.00000,   0.00184,276632800.00000,   0.00038,  -0.00214,   0.00068,  32.00000,   2.00000
-161739497.61688,-476589199.10545,130307718.30283,   0.00057,  -0.00400,   0.00238,477430080.00000,   0.00184,276636128.00000,   0.00038,  -0.00215,   0.00068,-128.00000,   2.00000
-161879160.91817,-476023066.60535,130910774.58949,   0.00057,  -0.00400,   0.00239,477428128.00000,   0.00185,276639424.00000,   0.00038,  -0.00215,   0.00069, -32.00000,   2.00000
-162015984.94720,-475448364.46349,131518205.34560,   0.00057,  -0.00400,   0.00240,477441536.00000,   0.00185,276642784.00000,   0.00038,  -0.00215,   0.00069, -32.00000,   2.00000
-162134950.55306,-474867286.63800,132124659.69735,   0.00057,  -0.00400,   0.00241,477430720.00000,   0.00185,276646048.00000,   0.00038,  -0.00215,   0.00069,  64.00000,   2.00000
-162264932.79150,-474281084.16915,132734546.37318,   0.00057,  -0.00400,   0.00242,477447072.00000,   0.00186,276649408.00000,   0.00038,  -0.00216,   0.00070, -64.00000,   2.00000
-162393652.72355,-473692843.20442,133342410.45197,   0.00057,  -0.00400,   0.00243,477453760.00000,   0.00186,276652768.00000,   0.00038,  -0.00216,   0.00070,  64.00000,   2.00000
-162516648.81069,-473095053.50646,133954687.47688,   0.00057,  -0.00400,   0.00244,477452896.00000,   0.00186,276656096.00000,   0.00038,  -0.00216,   0.00070,  32.00000,   2.00000
-162648635.91852,-472494346.41699,134567305.76940,   0.00057,  -0.00400,   0.00246,477451680.00000,   0.00187,276659424.00000,   0.00038,  -0.00217,   0.00071, -96.00000,   2.00000
-162764482.29237,-471884837.58163,135181887.83985,   0.00056,  -0.00400,   0.00247,477459040.00000,   0.00187,276662752.00000,   0.00039,  -0.00217,   0.00071, 160.00000,   2.00000
-162891877.70662,-471273121.35091,135796474.51731,   0.00056,  -0.00400,   0.00248,477472736.00000,   0.00187,276666144.00000,   0.00039,  -0.00217,   0.00071,  96.00000,   2.00000
-162999421.52332,-470647976.58553,136416237.43459,   0.00056,  -0.00400,   0.00249,477469344.00000,   0.00187,276669472.00000,   0.00039,  -0.00218,   0.00072,  96.00000,   2.00000
-163119365.59297,-470024131.01562,137032915.56883,   0.00056,  -0.00400,   0.00250,477479296.00000,   0.00188,276672864.00000,   0.00039,  -0.00218,   0.00072,  64.00000,   2.00000
-163234238.28596,-469393762.16418,137650812.84261,   0.00056,  -0.00400,   0.00251,477475392.00000,   0.00188,276676192.00000,   0.00039,  -0.00218,   0.00072,   0.00000,   2.00000
-163345683.43867,-468754266.12084,138272591.53924,   0.00056,  -0.00400,   0.00252,477490016.00000,   0.00188,276679584.00000,   0.00039,  -0.00219,   0.00073,  32.00000,   2.00000
-163452005.63638,-468108152.57531,138895575.69686,   0.00056,  -0.00400,   0.00253,477486336.00000,   0.00189,276682944.00000,   0.00039,  -0.00219,   0.00073,  96.00000,   2.00000
-163556643.59980,-467459554.79824,139516268.39714,   0.00056,  -0.00400,   0.00255,477493568.00000,   0.00189,276686336.00000,   0.00039,  -0.00219,   0.00073, -64.00000,   2.00000
-163655245.91256,-466800979.03406,140141264.07071,   0.00056,  -0.00400,   0.00256,477493472.00000,   0.00189,276689696.00000,   0.00039,  -0.00219,   0.00074, -32.00000,   2.00000
-163765087.70700,-466140017.47350,140766048.81550,   0.00055,  -0.00400,   0.00257,477507520.00000,   0.00190,276693088.00000,   0.00039,  -0.00220,   0.00074, -64.00000,   2.00000
-163854960.14219,-465465437.98857,141396056.31821,   0.00055,  -0.00400,   0.00258,477504544.00000,   0.00190,276696480.00000,   0.00039,  -0.00220,   0.00074, -32.00000,   2.00000
-163957021.26389,-464792002.02447,142022859.54224,   0.00055,  -0.00400,   0.00259,477514976.00000,   0.00190,276699872.00000,   0.00039,  -0.00220,   0.00075,  64.00000,   2.00000
-164042564.97209,-464109304.98812,142651384.66702,   0.00055,  -0.00400,   0.00260,477523040.00000,   0.00191,276703296.00000,   0.00039,  -0.00221,   0.00075, -32.00000,   2.00000
-164136888.72265,-463423419.47747,143280279.54556,   0.00055,  -0.00400,   0.00262,477522464.00000,   0.00191,276706720.00000,   0.00039,  -0.00221,   0.00075, 160.00000,   2.00000
-164225058.31979,-462726973.38120,143913373.58257,   0.00055,  -0.00400,   0.00263,477522848.00000,   0.00191,276710112.00000,   0.00039,  -0.00221,   0.00076,  64.00000,   2.00000
-164310664.81799,-462024980.77462,144547306.22318,   0.00055,  -0.00400,   0.00264,477533760.00000,   0.00192,276713536.00000,   0.00039,  -0.00222,   0.00076,  96.00000,   2.00000
-164394651.43616,-461320740.83772,145179049.69176,   0.00055,  -0.00400,   0.00265,477541024.00000,   0.00192,276716960.00000,   0.00039,  -0.00222,   0.00076, 128.00000,   2.00000
-164472601.96948,-460606101.19228,145815091.09875,   0.00054,  -0.00400,   0.00266,477541152.00000,   0.00192,276720384.00000,   0.00039,  -0.00222,   0.00077, -64.00000,   2.00000
-164544568.38849,-459881115.96513,146455462.28709,   0.00054,  -0.00400,   0.00267,477541152.00000,   0.00193,276723776.00000,   0.00039,  -0.00223,   0.00077,   0.00000,   2.00000
-164615013.18314,-459153960.37085,147093675.35797,   0.00054,  -0.00400,   0.00269,477548320.00000,   0.00193,276727200.00000,   0.00040,  -0.00223,   0.00077,   0.00000,   2.00000
-164696799.72265,-458424674.34694,147731657.96895,   0.00054,  -0.00400,   0.00270,477562368.00000,   0.00193,276730688.00000,   0.00040,  -0.00223,   0.00078,  96.00000,   2.00000
-164759859.56637,-457685037.51251,148372062.39027,   0.00054,  -0.00400,   0.00271,477555392.00000,   0.00194,276734112.00000,   0.00040,  -0.00223,   0.00078,  32.00000,   2.00000
-164830841.79271,-456938316.62233,149015711.36289,   0.00054,  -0.00399,   0.00272,477558624.00000,   0.00194,276737536.00000,   0.00040,  -0.00224,   0.00078, -32.00000,   2.00000
-164889008.11179,-456187390.93588,149657523.73771,   0.00054,  -0.00399,   0.00273,477577056.00000,   0.00194,276741024.00000,   0.00040,  -0.00224,   0.00079, -96.00000,   2.00000
-164952756.60133,-455428028.53813,150303224.58347,   0.00054,  -0.00399,   0.00275,477565696.00000,   0.00194,276744448.00000,   0.00040,  -0.00224,   0.00079,   0.00000,   2.00000
-165000320.98047,-454659601.15992,150950600.85479,   0.00053,  -0.00399,   0.00276,477573376.00000,   0.00195,276747872.00000,   0.00040,  -0.00225,   0.00080, -32.00000,   2.00000
-165059326.49394,-453888929.31432,151597472.58576,   0.00053,  -0.00399,   0.00277,477587456.00000,   0.00195,276751360.00000,   0.00040,  -0.00225,   0.00080, -64.00000,   2.00000
-165113579.92482,-453111104.42387,152245562.17620,   0.00053,  -0.00399,   0.00278,477583776.00000,   0.00195,276754848.00000,   0.00040,  -0.00225,   0.00080,   0.00000,   2.00000
-165165455.21316,-452327448.06131,152894028.22739,   0.00053,  -0.00399,   0.00279,477594688.00000,   0.00196,276758336.00000,   0.00040,  -0.00226,   0.00081, -64.00000,   2.00000
-165211586.98739,-451533077.17041,153546474.47071,   0.00053,  -0.00399,   0.00281,477595040.00000,   0.00196,276761824.00000,   0.00040,  -0.00226,   0.00081,   0.00000,   2.00000
-165242635.38557,-450732948.86221,154197375.09223,   0.00053,  -0.00399,   0.00282,477598976.00000,   0.00196,276765312.00000,   0.00040,  -0.00226,   0.00081,  64.00000,   2.00000
-165282796.32205,-449928874.30290,154848162.81323,   0.00053,  -0.00399,   0.00283,477598784.00000,   0.00197,276768800.00000,   0.00040,  -0.00226,   0.00082,   0.00000,   2.00000
-165319551.42178,-449115287.29212,155501788.10721,   0.00052,  -0.00399,   0.00284,477614016.00000,   0.00197,276772320.00000,   0.00040,  -0.00227,   0.00082,  32.00000,   2.00000
-165366484.20736,-448301250.32996,156152339.18547,   0.00052,  -0.00399,   0.00285,477609952.00000,   0.00197,276775840.00000,   0.00040,  -0.00227,   0.00082,  64.00000,   2.00000
-165396153.17546,-447474020.15574,156806541.97702,   0.00052,  -0.00399,   0.00287,477622464.00000,   0.00198,276779360.00000,   0.00040,  -0.00227,   0.00083,   0.00000,   2.00000
-165421073.83616,-446638958.43537,157461306.03255,   0.00052,  -0.00399,   0.00288,477619456.00000,   0.00198,276782912.00000,   0.00040,  -0.00228,   0.00083, -96.00000,   2.00000
-165440190.92460,-445792498.55122,158119359.44572,   0.00052,  -0.00398,   0.00289,477620896.00000,   0.00198,276786432.00000,   0.00040,  -0.00228,   0.00084, -64.00000,   2.00000
-165461521.95777,-444948913.13519,158770485.59123,   0.00052,  -0.00398,   0.00290,477639072.00000,   0.00199,276790016.00000,   0.00040,  -0.00228,   0.00084, -96.00000,   2.00000
-165473493.27955,-444088222.13405,159428349.68925,   0.00052,  -0.00398,   0.00292,477630560.00000,   0.00199,276793536.00000,   0.00040,  -0.00228,   0.00084,   0.00000,   2.00000
-165500334.72029,-443230213.81021,160080643.40944,   0.00052,  -0.00398,   0.00293,477656224.00000,   0.00199,276797184.00000,   0.00040,  -0.00229,   0.00085,  32.00000,   2.00000
-165505092.05307,-442355107.49709,160737994.24277,   0.00051,  -0.00398,   0.00294,477640896.00000,   0.00200,276800736.00000,   0.00040,  -0.00229,   0.00085,  32.00000,   2.00000
-165510914.93463,-441479193.60139,161390694.44087,   0.00051,  -0.00398,   0.00295,477663872.00000,   0.00200,276804416.00000,   0.00041,  -0.00229,   0.00086,  64.00000,   2.00000
-165522190.91154,-440592953.89540,162046099.43256,   0.00051,  -0.00398,   0.00297,477655104.00000,   0.00200,276808000.00000,   0.00041,  -0.00230,   0.00086,  96.00000,   2.00000
-165520711.08155,-439702442.41117,162697851.61059,   0.00051,  -0.00398,   0.00298,477675136.00000,   0.00201,276811680.00000,   0.00041,  -0.00230,   0.00086, -32.00000,   2.00000
-165509710.75202,-438794183.76803,163356040.22406,   0.00051,  -0.00398,   0.00299,477667904.00000,   0.00201,276815328.00000,   0.00041,  -0.00230,   0.00087, -64.00000,   2.00000
-165514726.20249,-437892641.83348,164005613.15056,   0.00051,  -0.00398,   0.00300,477690048.00000,   0.00202,276819040.00000,   0.00041,  -0.00231,   0.00087, -32.00000,   2.00000
-165499954.65473,-436975598.33327,164659083.37689,   0.00051,  -0.00397,   0.00302,477690112.00000,   0.00202,276822720.00000,   0.00041,  -0.00231,   0.00088,   0.00000,   2.00000
-165494088.00542,-436053681.78742,165311490.36601,   0.00051,  -0.00397,   0.00303,477692384.00000,   0.00202,276826432.00000,   0.00041,  -0.00231,   0.00088,  32.00000,   2.00000
-165471935.22400,-435121938.38875,165964002.34013,   0.00050,  -0.00397,   0.00304,477702688.00000,   0.00203,276830176.00000,   0.00041,  -0.00231,   0.00089,   0.00000,   2.00000
-165444963.79900,-434181958.79979,166616829.59523,   0.00050,  -0.00397,   0.00306,477701856.00000,   0.00203,276833888.00000,   0.00041,  -0.00232,   0.00089,   0.00000,   2.00000
-165428175.12436,-433235683.80553,167270033.38413,   0.00050,  -0.00397,   0.00307,477722944.00000,   0.00203,276837664.00000,   0.00041,  -0.00232,   0.00089,  32.00000,   2.00000
-165393902.82132,-432281225.11919,167922332.94243,   0.00050,  -0.00397,   0.00308,477714752.00000,   0.00204,276841408.00000,   0.00041,  -0.00232,   0.00090, -32.00000,   2.00000
-165369877.24332,-431320688.74586,168575164.74881,   0.00050,  -0.00397,   0.00309,477735808.00000,   0.00204,276845216.00000,   0.00041,  -0.00233,   0.00090, -32.00000,   2.00000
-165328463.81759,-430352139.17132,169227398.87869,   0.00050,  -0.00397,   0.00311,477727424.00000,   0.00204,276848960.00000,   0.00041,  -0.00233,   0.00091,  32.00000,   2.00000
-165297359.43660,-429377651.83583,169880313.51897,   0.00050,  -0.00396,   0.00312,477748544.00000,   0.00205,276852800.00000,   0.00041,  -0.00233,   0.00091,  96.00000,   2.00000
-165247698.68204,-428391241.17603,170535256.34459,   0.00049,  -0.00396,   0.00313,477744576.00000,   0.00205,276856608.00000,   0.00041,  -0.00234,   0.00092, -64.00000,   2.00000
-165195887.11908,-427399356.54947,171189874.10273,   0.00049,  -0.00396,   0.00315,477757888.00000,   0.00205,276860448.00000,   0.00041,  -0.00234,   0.00092,  32.00000,   2.00000
-165153247.95644,-426402904.62316,171844325.04240,   0.00049,  -0.00396,   0.00316,477760064.00000,   0.00206,276864256.00000,   0.00041,  -0.00234,   0.00093, -64.00000,   2.00000
-165094764.06350,-425397466.53243,172499846.41505,   0.00049,  -0.00396,   0.00317,477769984.00000,   0.00206,276868128.00000,   0.00041,  -0.00234,   0.00093, -32.00000,   2.00000
-165031824.68168,-424383997.62172,173156656.08066,   0.00049,  -0.00396,   0.00319,477768832.00000,   0.00206,276871936.00000,   0.00041,  -0.00235,   0.00093,  32.00000,   2.00000
-164980770.22919,-423368801.23591,173812146.21766,   0.00049,  -0.00396,   0.00320,477784960.00000,   0.00207,276875808.00000,   0.00041,  -0.00235,   0.00094,  64.00000,   2.00000
-164910380.00775,-422338119.55397,174472653.28832,   0.00049,  -0.00395,   0.00321,477785024.00000,   0.00207,276879680.00000,   0.00041,  -0.00235,   0.00094, -32.00000,   2.00000
-164839543.27854,-421306185.70842,175130858.84611,   0.00049,  -0.00395,   0.00323,477793088.00000,   0.00208,276883552.00000,   0.00041,  -0.00236,   0.00095,  96.00000,   2.00000
-164764549.54641,-420266149.14123,175790478.24659,   0.00048,  -0.00395,   0.00324,477791520.00000,   0.00208,276887392.00000,   0.00041,  -0.00236,   0.00095, 128.00000,   2.00000
-164686827.89864,-419217085.08811,176452439.16255,   0.00048,  -0.00395,   0.00325,477808736.00000,   0.00208,276891296.00000,   0.00041,  -0.00236,   0.00096,   0.00000,   2.00000
-164605200.36805,-418160103.47660,177115890.26532,   0.00048,  -0.00395,   0.00327,477806752.00000,   0.00209,276895200.00000,   0.00041,  -0.00237,   0.00096,  96.00000,   2.00000
-164523477.85286,-417101796.93541,177776951.66547,   0.00048,  -0.00395,   0.00328,477814528.00000,   0.00209,276899104.00000,   0.00042,  -0.00237,   0.00097, 160.00000,   2.00000
-164450598.03100,-416035353.88225,178440547.34170,   0.00048,  -0.00394,   0.00329,477820096.00000,   0.00209,276903008.00000,   0.00042,  -0.00237,   0.00097,  96.00000,   2.00000
-164350049.07799,-414960023.11020,179104158.54595,   0.00048,  -0.00394,   0.00331,477821376.00000,   0.00210,276906912.00000,   0.00042,  -0.00237,   0.00098, -32.00000,   2.00000
