# sigma_xx, sigma_yy, sigma_xy, epsilon_xx, epsilon_yy, epsilon_xy, vonMises, epsPlastic, hardening, epsilonP__xx, epsilonP__yy, epsilonP__xy, yieldValue, iteration
   0.00000,   0.00000,   0.00000,   0.00000,   0.00000,   0.00000,1181185.37500,   0.00000,274640576.00000,   0.00000,   0.00000,   0.00000,-473459392.00000,   0.00000
   0.00000,   0.00000,   0.00000,   0.00000,   0.00000,   0.00000,1181185.37500,   0.00000,274640576.00000,   0.00000,   0.00000,   0.00000,-473459392.00000,   0.00000
24469.05964,2789472.79882,336449.57003,  -0.00001,   0.00001,   0.00000,3987690.50000,   0.00000,274640576.00000,   0.00000,   0.00000,   0.00000,-470652896.00000,   0.00000
48938.11928,5578945.59763,666781.87516,  -0.00001,   0.00003,   0.00001,6563718.00000,   0.00000,274640576.00000,   0.00000,   0.00000,   0.00000,-468076864.00000,   0.00000
103993.50346,8399004.72100,997114.18028,  -0.00002,   0.00004,   0.00001,9106404.00000,   0.00000,274640576.00000,   0.00000,   0.00000,   0.00000,-465534176.00000,   0.00000
159048.88765,11219063.84436,1327446.48540,  -0.00002,   0.00005,   0.00002,11952067.00000,   0.00000,274640576.00000,   0.00000,   0.00000,   0.00000,-462688512.00000,   0.00000
214104.27184,14039122.96773,1651661.52562,  -0.00003,   0.00006,   0.00002,14914227.00000,   0.00000,274640576.00000,   0.00000,   0.00000,   0.00000,-459726352.00000,   0.00000
278335.55339,16880592.51828,1981993.83074,  -0.00003,   0.00008,   0.00003,17861678.00000,   0.00000,274640576.00000,   0.00000,   0.00000,   0.00000,-456778896.00000,   0.00000
354801.36476,19709827.53901,2306208.87095,  -0.00004,   0.00009,   0.00003,20725720.00000,   0.00000,274640576.00000,   0.00000,   0.00000,   0.00000,-453914848.00000,   0.00000
440443.07350,22560472.98692,2624306.64626,  -0.00004,   0.00010,   0.00003,23560076.00000,   0.00000,274640576.00000,   0.00000,   0.00000,   0.00000,-451080496.00000,   0.00000
535260.67960,25432528.86202,2948521.68647,  -0.00005,   0.00011,   0.00004,26392688.00000,   0.00000,274640576.00000,   0.00000,   0.00000,   0.00000,-448247888.00000,   0.00000
620902.38833,28283174.30993,3266619.46177,  -0.00005,   0.00013,   0.00004,29203560.00000,   0.00000,274640576.00000,   0.00000,   0.00000,   0.00000,-445437024.00000,   0.00000
737130.42162,31164406.08240,3584717.23708,  -0.00006,   0.00014,   0.00005,32036546.00000,   0.00000,274640576.00000,   0.00000,   0.00000,   0.00000,-442604032.00000,   0.00000
853358.45490,34045637.85486,3902815.01238,  -0.00006,   0.00015,   0.00005,34880564.00000,   0.00000,274640576.00000,   0.00000,   0.00000,   0.00000,-439760016.00000,   0.00000
969586.48819,36926869.62732,4214795.52277,  -0.00007,   0.00017,   0.00005,37732800.00000,   0.00000,274640576.00000,   0.00000,   0.00000,   0.00000,-436907776.00000,   0.00000
1094990.41883,39829511.82697,4526776.03317,  -0.00007,   0.00018,   0.00006,40609560.00000,   0.00000,274640576.00000,   0.00000,   0.00000,   0.00000,-434031008.00000,   0.00000
1232628.87930,42719919.49679,4838756.54356,  -0.00008,   0.00019,   0.00006,43473288.00000,   0.00000,274640576.00000,   0.00000,   0.00000,   0.00000,-431167296.00000,   0.00000
1379443.23713,45631737.59380,5144619.78905,  -0.00008,   0.00020,   0.00007,46353524.00000,   0.00000,274640576.00000,   0.00000,   0.00000,   0.00000,-428287056.00000,   0.00000
1526257.59497,48543555.69082,5456600.29944,  -0.00009,   0.00022,   0.00007,49236708.00000,   0.00000,274640576.00000,   0.00000,   0.00000,   0.00000,-425403872.00000,   0.00000
1673071.95280,51455373.78783,5762463.54492,  -0.00009,   0.00023,   0.00007,52118168.00000,   0.00000,274640576.00000,   0.00000,   0.00000,   0.00000,-422522400.00000,   0.00000
1841296.73782,54376367.78220,6062209.52550,  -0.00010,   0.00024,   0.00008,54997800.00000,   0.00000,274640576.00000,   0.00000,   0.00000,   0.00000,-419642784.00000,   0.00000
2018697.42020,57318772.20376,6368072.77098,  -0.00010,   0.00026,   0.00008,57896888.00000,   0.00000,274640576.00000,   0.00000,   0.00000,   0.00000,-416743680.00000,   0.00000
2208332.63240,60248942.09550,6667818.75156,  -0.00011,   0.00027,   0.00009,60777224.00000,   0.00000,274640576.00000,   0.00000,   0.00000,   0.00000,-413863360.00000,   0.00000
2385733.31478,63191346.51706,6967564.73213,  -0.00011,   0.00028,   0.00009,63674924.00000,   0.00000,274640576.00000,   0.00000,   0.00000,   0.00000,-410965648.00000,   0.00000
2575368.52698,66121516.40880,7261193.44780,  -0.00012,   0.00030,   0.00009,66552068.00000,   0.00000,274640576.00000,   0.00000,   0.00000,   0.00000,-408088512.00000,   0.00000
2774179.63654,69073096.72772,7554822.16346,  -0.00012,   0.00031,   0.00010,69444288.00000,   0.00000,274640576.00000,   0.00000,   0.00000,   0.00000,-405196288.00000,   0.00000
2994401.17329,72033852.94401,7848450.87913,  -0.00013,   0.00032,   0.00010,72334320.00000,   0.00000,274640576.00000,   0.00000,   0.00000,   0.00000,-402306256.00000,   0.00000
3214622.71004,74994609.16030,8142079.59479,  -0.00013,   0.00033,   0.00011,75223560.00000,   0.00000,274640576.00000,   0.00000,   0.00000,   0.00000,-399417024.00000,   0.00000
3434844.24679,77955365.37659,8429591.04555,  -0.00014,   0.00035,   0.00011,78110984.00000,   0.00000,274640576.00000,   0.00000,   0.00000,   0.00000,-396529600.00000,   0.00000
3655065.78354,80916121.59287,8717102.49630,  -0.00014,   0.00036,   0.00011,80998920.00000,   0.00000,274640576.00000,   0.00000,   0.00000,   0.00000,-393641664.00000,   0.00000
3896697.74747,83886053.70653,9004613.94706,  -0.00015,   0.00037,   0.00012,83886408.00000,   0.00000,274640576.00000,   0.00000,   0.00000,   0.00000,-390754176.00000,   0.00000
4138329.71140,86855985.82018,9286008.13290,  -0.00015,   0.00039,   0.00012,86771112.00000,   0.00000,274640576.00000,   0.00000,   0.00000,   0.00000,-387869472.00000,   0.00000
4389137.57270,89847328.36102,9567402.31875,  -0.00016,   0.00040,   0.00012,89671800.00000,   0.00000,274640576.00000,   0.00000,   0.00000,   0.00000,-384968768.00000,   0.00000
4652179.96382,92826436.37203,9848796.50459,  -0.00016,   0.00041,   0.00013,92555296.00000,   0.00000,274640576.00000,   0.00000,   0.00000,   0.00000,-382085280.00000,   0.00000
4915222.35493,95805544.38305,10124073.42553,  -0.00016,   0.00043,   0.00013,95438600.00000,   0.00000,274640576.00000,   0.00000,   0.00000,   0.00000,-379201984.00000,   0.00000
5178264.74605,98784652.39407,10399350.34647,  -0.00017,   0.00044,   0.00014,98324336.00000,   0.00000,274640576.00000,   0.00000,   0.00000,   0.00000,-376316240.00000,   0.00000
5462717.56435,101772936.30245,10674627.26740,  -0.00017,   0.00045,   0.00014,101212288.00000,   0.00000,274640576.00000,   0.00000,   0.00000,   0.00000,-373428288.00000,   0.00000
5747170.38265,104761220.21083,10949904.18834,  -0.00018,   0.00047,   0.00014,104103336.00000,   0.00000,274640576.00000,   0.00000,   0.00000,   0.00000,-370537248.00000,   0.00000
6031623.20095,107749504.11921,11219063.84436,  -0.00018,   0.00048,   0.00015,106995248.00000,   0.00000,274640576.00000,   0.00000,   0.00000,   0.00000,-367645328.00000,   0.00000
6346662.34380,110768374.35214,11488223.50039,  -0.00019,   0.00049,   0.00015,109906288.00000,   0.00000,274640576.00000,   0.00000,   0.00000,   0.00000,-364734288.00000,   0.00000
6621939.26474,113735247.83334,11751265.89151,  -0.00019,   0.00050,   0.00015,112784096.00000,   0.00000,274640576.00000,   0.00000,   0.00000,   0.00000,-361856480.00000,   0.00000
6949212.93740,116741883.53645,12020425.54753,  -0.00020,   0.00052,   0.00016,115681936.00000,   0.00000,274640576.00000,   0.00000,   0.00000,   0.00000,-358958640.00000,   0.00000
7255076.18289,119739343.34220,12277350.67374,  -0.00020,   0.00053,   0.00016,118577808.00000,   0.00000,274640576.00000,   0.00000,   0.00000,   0.00000,-356062768.00000,   0.00000
7582349.85556,122745979.04531,12540393.06486,  -0.00020,   0.00054,   0.00016,121476192.00000,   0.00000,274640576.00000,   0.00000,   0.00000,   0.00000,-353164384.00000,   0.00000
7909623.52822,125752614.74842,12797318.19106,  -0.00021,   0.00056,   0.00017,124373048.00000,   0.00000,274640576.00000,   0.00000,   0.00000,   0.00000,-350267520.00000,   0.00000
8249131.73071,128747015.92171,13054243.31727,  -0.00021,   0.00057,   0.00017,127252640.00000,   0.00000,274640576.00000,   0.00000,   0.00000,   0.00000,-347387936.00000,   0.00000
8597815.83056,131762827.52219,13311168.44348,  -0.00022,   0.00058,   0.00017,130148768.00000,   0.00000,274640576.00000,   0.00000,   0.00000,   0.00000,-344491808.00000,   0.00000
8937324.03305,134757228.69548,13561976.30477,  -0.00022,   0.00060,   0.00018,133025304.00000,   0.00000,274640576.00000,   0.00000,   0.00000,   0.00000,-341615264.00000,   0.00000
9276832.23554,137751629.86877,13812784.16607,  -0.00023,   0.00061,   0.00018,135900688.00000,   0.00000,274640576.00000,   0.00000,   0.00000,   0.00000,-338739888.00000,   0.00000
9637750.86521,140755206.93943,14063592.02737,  -0.00023,   0.00062,   0.00018,138774320.00000,   0.00000,274640576.00000,   0.00000,   0.00000,   0.00000,-335866256.00000,   0.00000
9998669.49488,143758784.01008,14308282.62376,  -0.00023,   0.00063,   0.00019,141644288.00000,   0.00000,274640576.00000,   0.00000,   0.00000,   0.00000,-332996288.00000,   0.00000
10371822.65437,146750126.55092,14552973.22014,  -0.00024,   0.00065,   0.00019,144494976.00000,   0.00000,274640576.00000,   0.00000,   0.00000,   0.00000,-330145600.00000,   0.00000
10754151.71123,149762879.51894,14791546.55162,  -0.00024,   0.00066,   0.00019,147358736.00000,   0.00000,274640576.00000,   0.00000,   0.00000,   0.00000,-327281840.00000,   0.00000
11127304.87072,152754222.05977,15036237.14801,  -0.00025,   0.00067,   0.00020,150205088.00000,   0.00000,274640576.00000,   0.00000,   0.00000,   0.00000,-324435488.00000,   0.00000
11521868.45739,155754740.49798,15274810.47949,  -0.00025,   0.00069,   0.00020,153046816.00000,   0.00000,274640576.00000,   0.00000,   0.00000,   0.00000,-321593760.00000,   0.00000
11895021.61688,158746083.03881,15507266.54605,  -0.00026,   0.00070,   0.00020,155884256.00000,   0.00000,274640576.00000,   0.00000,   0.00000,   0.00000,-318756320.00000,   0.00000
12310995.63074,161755777.37438,15739722.61262,  -0.00026,   0.00071,   0.00020,158718576.00000,   0.00000,274640576.00000,   0.00000,   0.00000,   0.00000,-315922000.00000,   0.00000
12696383.32005,164734885.38540,15972178.67919,  -0.00026,   0.00072,   0.00021,161533840.00000,   0.00000,274640576.00000,   0.00000,   0.00000,   0.00000,-313106736.00000,   0.00000
13112357.33391,167744579.72096,16204634.74576,  -0.00027,   0.00074,   0.00021,164363056.00000,   0.00000,274640576.00000,   0.00000,   0.00000,   0.00000,-310277520.00000,   0.00000
13540565.87759,170742039.52671,16430973.54742,  -0.00027,   0.00075,   0.00021,167171152.00000,   0.00000,274640576.00000,   0.00000,   0.00000,   0.00000,-307469424.00000,   0.00000
13938188.09672,173708913.00791,16657312.34908,  -0.00028,   0.00076,   0.00022,169960736.00000,   0.00000,274640576.00000,   0.00000,   0.00000,   0.00000,-304679840.00000,   0.00000
14366396.64040,176706372.81365,16883651.15073,  -0.00028,   0.00078,   0.00022,172765536.00000,   0.00000,274640576.00000,   0.00000,   0.00000,   0.00000,-301875040.00000,   0.00000
14785429.28671,179682422.19221,17103872.68748,  -0.00028,   0.00079,   0.00022,175550800.00000,   0.00000,274640576.00000,   0.00000,   0.00000,   0.00000,-299089776.00000,   0.00000
15225872.36021,182667647.46814,17324094.22423,  -0.00029,   0.00080,   0.00023,178335424.00000,   0.00000,274640576.00000,   0.00000,   0.00000,   0.00000,-296305152.00000,   0.00000
15666315.43371,185652872.74407,17538198.49607,  -0.00029,   0.00081,   0.00023,181118800.00000,   0.00000,274640576.00000,   0.00000,   0.00000,   0.00000,-293521776.00000,   0.00000
16118993.03702,188625863.49017,17752302.76791,  -0.00029,   0.00083,   0.00023,183886192.00000,   0.00000,274640576.00000,   0.00000,   0.00000,   0.00000,-290754384.00000,   0.00000
16550260.21316,191589678.33892,17966407.03975,  -0.00030,   0.00084,   0.00023,186655584.00000,   0.00000,274640576.00000,   0.00000,   0.00000,   0.00000,-287984992.00000,   0.00000
17002937.81647,194562669.08503,18180511.31159,  -0.00030,   0.00085,   0.00024,189427168.00000,   0.00000,274640576.00000,   0.00000,   0.00000,   0.00000,-285213408.00000,   0.00000
17467849.94961,197523425.30131,18388498.31852,  -0.00031,   0.00086,   0.00024,192182624.00000,   0.00000,274640576.00000,   0.00000,   0.00000,   0.00000,-282457952.00000,   0.00000
17932762.08275,200484181.51760,18596485.32545,  -0.00031,   0.00088,   0.00024,194941232.00000,   0.00000,274640576.00000,   0.00000,   0.00000,   0.00000,-279699344.00000,   0.00000
18397674.21588,203444937.73389,18798355.06747,  -0.00031,   0.00089,   0.00024,197701040.00000,   0.00000,274640576.00000,   0.00000,   0.00000,   0.00000,-276939536.00000,   0.00000
18853410.45165,206384283.52299,19000224.80949,  -0.00032,   0.00090,   0.00025,200446480.00000,   0.00000,274640576.00000,   0.00000,   0.00000,   0.00000,-274194096.00000,   0.00000
19330557.11461,209332805.20946,19202094.55151,  -0.00032,   0.00091,   0.00025,203193936.00000,   0.00000,274640576.00000,   0.00000,   0.00000,   0.00000,-271446640.00000,   0.00000
19829114.20475,212290502.79330,19397847.02862,  -0.00032,   0.00093,   0.00025,205940752.00000,   0.00000,274640576.00000,   0.00000,   0.00000,   0.00000,-268699824.00000,   0.00000
20297084.97034,215217614.05258,19599716.77063,  -0.00033,   0.00094,   0.00025,208670368.00000,   0.00000,274640576.00000,   0.00000,   0.00000,   0.00000,-265970208.00000,   0.00000
20786466.16311,218153901.20923,19789351.98283,  -0.00033,   0.00095,   0.00026,211393456.00000,   0.00000,274640576.00000,   0.00000,   0.00000,   0.00000,-263247120.00000,   0.00000
21266671.45852,221068777.93870,19985104.45994,  -0.00033,   0.00096,   0.00026,214093808.00000,   0.00000,274640576.00000,   0.00000,   0.00000,   0.00000,-260546768.00000,   0.00000
21768287.18112,223992830.56553,20174739.67215,  -0.00034,   0.00098,   0.00026,216782608.00000,   0.00000,274640576.00000,   0.00000,   0.00000,   0.00000,-257857968.00000,   0.00000
22269902.90371,226916883.19236,20358257.61944,  -0.00034,   0.00099,   0.00026,219456848.00000,   0.00000,274640576.00000,   0.00000,   0.00000,   0.00000,-255183728.00000,   0.00000
22762342.72894,229819525.39200,20547892.83164,  -0.00034,   0.00100,   0.00027,222101344.00000,   0.00000,274640576.00000,   0.00000,   0.00000,   0.00000,-252539232.00000,   0.00000
23276192.98136,232731343.48901,20725293.51402,  -0.00035,   0.00101,   0.00027,224731344.00000,   0.00000,274640576.00000,   0.00000,   0.00000,   0.00000,-249909232.00000,   0.00000
23780867.33641,235621751.15884,20908811.46131,  -0.00035,   0.00103,   0.00027,227339072.00000,   0.00000,274640576.00000,   0.00000,   0.00000,   0.00000,-247301504.00000,   0.00000
24306952.11864,238521334.72603,21086212.14369,  -0.00035,   0.00104,   0.00027,229947968.00000,   0.00000,274640576.00000,   0.00000,   0.00000,   0.00000,-244692608.00000,   0.00000
24811626.47369,241411742.39586,21263612.82607,  -0.00036,   0.00105,   0.00028,232568880.00000,   0.00000,274640576.00000,   0.00000,   0.00000,   0.00000,-242071696.00000,   0.00000
25328535.35856,244289915.53586,21441013.50845,  -0.00036,   0.00106,   0.00028,235196736.00000,   0.00000,274640576.00000,   0.00000,   0.00000,   0.00000,-239443840.00000,   0.00000
25857678.77324,247155854.14605,21612296.92592,  -0.00036,   0.00107,   0.00028,237839776.00000,   0.00000,274640576.00000,   0.00000,   0.00000,   0.00000,-236800800.00000,   0.00000
26395998.08530,250043203.18342,21783580.34339,  -0.00037,   0.00109,   0.00028,240539744.00000,   0.00000,274640576.00000,   0.00000,   0.00000,   0.00000,-234100832.00000,   0.00000
26915965.60262,252887731.36643,21948746.49595,  -0.00037,   0.00110,   0.00029,243245568.00000,   0.00000,274640576.00000,   0.00000,   0.00000,   0.00000,-231395008.00000,   0.00000
27457343.54713,255741435.44680,22113912.64852,  -0.00037,   0.00111,   0.00029,245998688.00000,   0.00000,274640576.00000,   0.00000,   0.00000,   0.00000,-228641888.00000,   0.00000
27977311.06445,258585963.62980,22279078.80108,  -0.00038,   0.00112,   0.00029,248803056.00000,   0.00000,274640576.00000,   0.00000,   0.00000,   0.00000,-225837520.00000,   0.00000
28530923.53878,261427433.18035,22444244.95364,  -0.00038,   0.00113,   0.00029,251642304.00000,   0.00000,274640576.00000,   0.00000,   0.00000,   0.00000,-222998272.00000,   0.00000
29053949.68855,264238316.40635,22603293.84129,  -0.00038,   0.00115,   0.00029,254502448.00000,   0.00000,274640576.00000,   0.00000,   0.00000,   0.00000,-220138128.00000,   0.00000
29607562.16288,267079785.95690,22756225.46403,  -0.00039,   0.00116,   0.00030,257411664.00000,   0.00000,274640576.00000,   0.00000,   0.00000,   0.00000,-217228912.00000,   0.00000
30164233.26966,269887610.55045,22915274.35168,  -0.00039,   0.00117,   0.00030,260302256.00000,   0.00000,274640576.00000,   0.00000,   0.00000,   0.00000,-214338320.00000,   0.00000
30699493.94926,272686259.24663,23068205.97443,  -0.00039,   0.00118,   0.00030,263195456.00000,   0.00000,274640576.00000,   0.00000,   0.00000,   0.00000,-211445120.00000,   0.00000
31246989.15868,275472673.41299,23215020.33226,  -0.00039,   0.00119,   0.00030,266061504.00000,   0.00000,274640576.00000,   0.00000,   0.00000,   0.00000,-208579072.00000,   0.00000
31794484.36809,278259087.57935,23367951.95500,  -0.00040,   0.00120,   0.00030,268911712.00000,   0.00000,274640576.00000,   0.00000,   0.00000,   0.00000,-205728864.00000,   0.00000
32363390.00469,281054677.64308,23514766.31283,  -0.00040,   0.00122,   0.00031,271733280.00000,   0.00000,274640576.00000,   0.00000,   0.00000,   0.00000,-202907296.00000,   0.00000
32913943.84657,283807446.85244,23655463.40576,  -0.00040,   0.00123,   0.00031,274478688.00000,   0.00000,274640576.00000,   0.00000,   0.00000,   0.00000,-200161888.00000,   0.00000
33473673.58580,286581626.48898,23802277.76359,  -0.00041,   0.00124,   0.00031,277202112.00000,   0.00000,274640576.00000,   0.00000,   0.00000,   0.00000,-197438464.00000,   0.00000
34036461.95749,289322161.16852,23936857.59160,  -0.00041,   0.00125,   0.00031,279838144.00000,   0.00000,274640576.00000,   0.00000,   0.00000,   0.00000,-194802432.00000,   0.00000
34599250.32919,292062695.84806,24077554.68453,  -0.00041,   0.00126,   0.00031,282425056.00000,   0.00000,274640576.00000,   0.00000,   0.00000,   0.00000,-192215520.00000,   0.00000
35183449.12806,294812406.42496,24212134.51254,  -0.00041,   0.00127,   0.00031,284958560.00000,   0.00000,274640576.00000,   0.00000,   0.00000,   0.00000,-189682016.00000,   0.00000
35727885.70502,297510120.25014,24346714.34055,  -0.00042,   0.00128,   0.00032,287405184.00000,   0.00000,274640576.00000,   0.00000,   0.00000,   0.00000,-187235392.00000,   0.00000
36302908.60653,300238420.39986,24481294.16856,  -0.00042,   0.00130,   0.00032,289820192.00000,   0.00000,274640576.00000,   0.00000,   0.00000,   0.00000,-184820384.00000,   0.00000
36880990.14050,302933075.59257,24609756.73167,  -0.00042,   0.00131,   0.00032,292155616.00000,   0.00000,274640576.00000,   0.00000,   0.00000,   0.00000,-182484960.00000,   0.00000
37437661.24728,305618554.88792,24738219.29477,  -0.00043,   0.00132,   0.00032,294450624.00000,   0.00000,274640576.00000,   0.00000,   0.00000,   0.00000,-180189952.00000,   0.00000
38037153.20843,308322385.97801,24860564.59296,  -0.00043,   0.00133,   0.00032,296710016.00000,   0.00000,274640576.00000,   0.00000,   0.00000,   0.00000,-177930560.00000,   0.00000
38596882.94767,310974220.31635,24982909.89116,  -0.00043,   0.00134,   0.00032,298909760.00000,   0.00000,274640576.00000,   0.00000,   0.00000,   0.00000,-175730816.00000,   0.00000
39178023.11409,313635230.55207,25105255.18935,  -0.00043,   0.00135,   0.00033,301088928.00000,   0.00000,274640576.00000,   0.00000,   0.00000,   0.00000,-173551648.00000,   0.00000
39759163.28051,316296240.78778,25221483.22264,  -0.00044,   0.00136,   0.00033,303254944.00000,   0.00000,274640576.00000,   0.00000,   0.00000,   0.00000,-171385632.00000,   0.00000
40321951.65220,318914430.16913,25337711.25592,  -0.00044,   0.00137,   0.00033,305386592.00000,   0.00000,274640576.00000,   0.00000,   0.00000,   0.00000,-169253984.00000,   0.00000
40915326.34844,321563205.87502,25453939.28920,  -0.00044,   0.00138,   0.00033,307539616.00000,   0.00000,274640576.00000,   0.00000,   0.00000,   0.00000,-167100960.00000,   0.00000
41490349.24995,324169160.72655,25564050.05758,  -0.00044,   0.00139,   0.00033,309674880.00000,   0.00000,274640576.00000,   0.00000,   0.00000,   0.00000,-164965696.00000,   0.00000
42065372.15146,326775115.57807,25674160.82595,  -0.00045,   0.00140,   0.00033,311831552.00000,   0.00000,274640576.00000,   0.00000,   0.00000,   0.00000,-162809024.00000,   0.00000
42652629.58279,329368835.89978,25784271.59433,  -0.00045,   0.00142,   0.00034,313998880.00000,   0.00000,274640576.00000,   0.00000,   0.00000,   0.00000,-160641696.00000,   0.00000
43230711.11675,331941145.79430,25888265.09779,  -0.00045,   0.00143,   0.00034,316177056.00000,   0.00000,274640576.00000,   0.00000,   0.00000,   0.00000,-158463520.00000,   0.00000
43808792.65072,334513455.68883,25992258.60126,  -0.00045,   0.00144,   0.00034,318383104.00000,   0.00000,274640576.00000,   0.00000,   0.00000,   0.00000,-156257472.00000,   0.00000
44377698.28732,337064355.15617,26096252.10472,  -0.00046,   0.00145,   0.00034,320598464.00000,   0.00000,274640576.00000,   0.00000,   0.00000,   0.00000,-154042112.00000,   0.00000
44958838.45374,339603020.09369,26194128.34328,  -0.00046,   0.00146,   0.00034,322818208.00000,   0.00000,274640576.00000,   0.00000,   0.00000,   0.00000,-151822368.00000,   0.00000
45539978.62016,342141685.03121,26292004.58183,  -0.00046,   0.00147,   0.00034,325056800.00000,   0.00000,274640576.00000,   0.00000,   0.00000,   0.00000,-149583776.00000,   0.00000
46133353.31640,344668115.43891,26389880.82039,  -0.00046,   0.00148,   0.00034,327293888.00000,   0.00000,274640576.00000,   0.00000,   0.00000,   0.00000,-147346688.00000,   0.00000
46717552.11527,347173135.41942,26481639.79403,  -0.00046,   0.00149,   0.00034,329523936.00000,   0.00000,274640576.00000,   0.00000,   0.00000,   0.00000,-145116640.00000,   0.00000
47292575.01678,349656744.97276,26573398.76768,  -0.00047,   0.00150,   0.00035,331745280.00000,   0.00000,274640576.00000,   0.00000,   0.00000,   0.00000,-142895296.00000,   0.00000
47867597.91829,352140354.52609,26665157.74132,  -0.00047,   0.00151,   0.00035,333973632.00000,   0.00000,274640576.00000,   0.00000,   0.00000,   0.00000,-140666944.00000,   0.00000
48454855.34962,354611729.54960,26750799.45006,  -0.00047,   0.00152,   0.00035,336188768.00000,   0.00000,274640576.00000,   0.00000,   0.00000,   0.00000,-138451808.00000,   0.00000
49032936.88359,357061694.14593,26836441.15879,  -0.00047,   0.00153,   0.00035,338390016.00000,   0.00000,274640576.00000,   0.00000,   0.00000,   0.00000,-136250560.00000,   0.00000
49601842.52019,359490248.31508,26922082.86753,  -0.00048,   0.00154,   0.00035,340576416.00000,   0.00000,274640576.00000,   0.00000,   0.00000,   0.00000,-134064160.00000,   0.00000
50170748.15679,361918802.48422,27001607.31136,  -0.00048,   0.00155,   0.00035,342762816.00000,   0.00000,274640576.00000,   0.00000,   0.00000,   0.00000,-131877760.00000,   0.00000
50751888.32321,364335122.12355,27081131.75518,  -0.00048,   0.00156,   0.00035,344933696.00000,   0.00000,274640576.00000,   0.00000,   0.00000,   0.00000,-129706880.00000,   0.00000
51323852.59227,366730031.33569,27160656.19901,  -0.00048,   0.00157,   0.00035,347087296.00000,   0.00000,274640576.00000,   0.00000,   0.00000,   0.00000,-127553280.00000,   0.00000
51917227.28851,369134116.44520,27234063.37792,  -0.00048,   0.00158,   0.00035,349240544.00000,   0.00000,274640576.00000,   0.00000,   0.00000,   0.00000,-125400032.00000,   0.00000
52470839.76283,371486204.80297,27307470.55684,  -0.00049,   0.00159,   0.00035,351357920.00000,   0.00000,274640576.00000,   0.00000,   0.00000,   0.00000,-123282656.00000,   0.00000
53045862.66434,373847469.05811,27374760.47085,  -0.00049,   0.00160,   0.00036,353474944.00000,   0.00000,274640576.00000,   0.00000,   0.00000,   0.00000,-121165632.00000,   0.00000
53633120.09567,376196498.78343,27448167.64976,  -0.00049,   0.00161,   0.00036,355576896.00000,   0.00000,274640576.00000,   0.00000,   0.00000,   0.00000,-119063680.00000,   0.00000
54189791.20246,378514942.18420,27515457.56377,  -0.00049,   0.00162,   0.00036,357659488.00000,   0.00000,274640576.00000,   0.00000,   0.00000,   0.00000,-116981088.00000,   0.00000
54767872.73642,380842561.48234,27576630.21287,  -0.00049,   0.00163,   0.00036,359742080.00000,   0.00000,274640576.00000,   0.00000,   0.00000,   0.00000,-114898496.00000,   0.00000
55327602.47566,383127359.92610,27643920.12687,  -0.00050,   0.00164,   0.00036,361792000.00000,   0.00000,274640576.00000,   0.00000,   0.00000,   0.00000,-112848576.00000,   0.00000
55887332.21489,385412158.36987,27705092.77597,  -0.00050,   0.00164,   0.00036,363841248.00000,   0.00000,274640576.00000,   0.00000,   0.00000,   0.00000,-110799328.00000,   0.00000
56437886.05677,387675546.38646,27760148.16016,  -0.00050,   0.00165,   0.00036,365872160.00000,   0.00000,274640576.00000,   0.00000,   0.00000,   0.00000,-108768416.00000,   0.00000
57009850.32582,389948110.30040,27821320.80925,  -0.00050,   0.00166,   0.00036,367905376.00000,   0.00000,274640576.00000,   0.00000,   0.00000,   0.00000,-106735200.00000,   0.00000
57563462.80015,392177853.35998,27876376.19344,  -0.00050,   0.00167,   0.00036,369901152.00000,   0.00000,274640576.00000,   0.00000,   0.00000,   0.00000,-104739424.00000,   0.00000
58117075.27447,394407596.41956,27925314.31272,  -0.00050,   0.00168,   0.00036,371893408.00000,   0.00000,274640576.00000,   0.00000,   0.00000,   0.00000,-102747168.00000,   0.00000
58673746.38126,396603694.52214,27980369.69690,  -0.00051,   0.00169,   0.00036,373849504.00000,   0.00000,274640576.00000,   0.00000,   0.00000,   0.00000,-100791072.00000,   0.00000
59209007.06085,398790616.72736,28029307.81618,  -0.00051,   0.00170,   0.00036,375799168.00000,   0.00000,274640576.00000,   0.00000,   0.00000,   0.00000,-98841408.00000,   0.00000
59756502.27027,400965304.40275,28078245.93546,  -0.00051,   0.00171,   0.00037,377728320.00000,   0.00000,274640576.00000,   0.00000,   0.00000,   0.00000,-96912256.00000,   0.00000
60325407.90687,403149167.97551,28121066.78983,  -0.00051,   0.00172,   0.00037,379655072.00000,   0.00000,274640576.00000,   0.00000,   0.00000,   0.00000,-94985504.00000,   0.00000
60854551.32156,405281034.79653,28163887.64420,  -0.00051,   0.00173,   0.00037,381545728.00000,   0.00000,274640576.00000,   0.00000,   0.00000,   0.00000,-93094848.00000,   0.00000
61405105.16343,407422077.51492,28206708.49856,  -0.00052,   0.00173,   0.00037,383441056.00000,   0.00000,274640576.00000,   0.00000,   0.00000,   0.00000,-91199520.00000,   0.00000
61915896.78339,409511123.48158,28249529.35293,  -0.00052,   0.00174,   0.00037,385305376.00000,   0.00000,274640576.00000,   0.00000,   0.00000,   0.00000,-89335200.00000,   0.00000
62448098.83053,411609345.34560,28286232.94239,  -0.00052,   0.00175,   0.00037,387175136.00000,   0.00000,274640576.00000,   0.00000,   0.00000,   0.00000,-87465440.00000,   0.00000
62992535.40749,413695332.67981,28322936.53185,  -0.00052,   0.00176,   0.00037,389032160.00000,   0.00000,274640576.00000,   0.00000,   0.00000,   0.00000,-85608416.00000,   0.00000
63515561.55727,415772144.11664,28353522.85640,  -0.00052,   0.00177,   0.00037,390888512.00000,   0.00000,274640576.00000,   0.00000,   0.00000,   0.00000,-83752064.00000,   0.00000
64041646.33951,417815310.59648,28390226.44585,  -0.00052,   0.00178,   0.00037,392711680.00000,   0.00000,274640576.00000,   0.00000,   0.00000,   0.00000,-81928896.00000,   0.00000
64558555.22437,419837066.64913,28414695.50549,  -0.00052,   0.00178,   0.00037,394513600.00000,   0.00000,274640576.00000,   0.00000,   0.00000,   0.00000,-80126976.00000,   0.00000
65075464.10924,421858822.70178,28445281.83004,  -0.00053,   0.00179,   0.00037,396315968.00000,   0.00000,274640576.00000,   0.00000,   0.00000,   0.00000,-78324608.00000,   0.00000
65574021.19938,423837757.90007,28475868.15459,  -0.00053,   0.00180,   0.00037,398082848.00000,   0.00000,274640576.00000,   0.00000,   0.00000,   0.00000,-76557728.00000,   0.00000
66093988.71670,425825868.99571,28500337.21423,  -0.00053,   0.00181,   0.00037,399850816.00000,   0.00000,274640576.00000,   0.00000,   0.00000,   0.00000,-74789760.00000,   0.00000
66583369.90948,427783393.76681,28518689.00896,  -0.00053,   0.00182,   0.00037,401600480.00000,   0.00000,274640576.00000,   0.00000,   0.00000,   0.00000,-73040096.00000,   0.00000
67084985.63207,429728684.00809,28543158.06860,  -0.00053,   0.00182,   0.00037,403337760.00000,   0.00000,274640576.00000,   0.00000,   0.00000,   0.00000,-71302816.00000,   0.00000
67577425.45730,431652563.82219,28561509.86333,  -0.00053,   0.00183,   0.00037,405059072.00000,   0.00000,274640576.00000,   0.00000,   0.00000,   0.00000,-69581504.00000,   0.00000
68069865.28253,433576443.63629,28579861.65805,  -0.00054,   0.00184,   0.00037,406784160.00000,   0.00000,274640576.00000,   0.00000,   0.00000,   0.00000,-67856416.00000,   0.00000
68565363.74022,435466678.49338,28598213.45278,  -0.00054,   0.00185,   0.00037,408478464.00000,   0.00000,274640576.00000,   0.00000,   0.00000,   0.00000,-66162112.00000,   0.00000
69030275.87335,437326327.02592,28610447.98260,  -0.00054,   0.00186,   0.00037,410155200.00000,   0.00000,274640576.00000,   0.00000,   0.00000,   0.00000,-64485376.00000,   0.00000
69516598.43367,439195151.45583,28622682.51242,  -0.00054,   0.00186,   0.00037,411836000.00000,   0.00000,274640576.00000,   0.00000,   0.00000,   0.00000,-62804576.00000,   0.00000
69993745.09663,441042565.45856,28634917.04224,  -0.00054,   0.00187,   0.00037,413501184.00000,   0.00000,274640576.00000,   0.00000,   0.00000,   0.00000,-61139392.00000,   0.00000
70452539.96486,442847158.60692,28641034.30715,  -0.00054,   0.00188,   0.00037,415130560.00000,   0.00000,274640576.00000,   0.00000,   0.00000,   0.00000,-59510016.00000,   0.00000
70911334.83308,444651751.75527,28653268.83697,  -0.00054,   0.00188,   0.00037,416762240.00000,   0.00000,274640576.00000,   0.00000,   0.00000,   0.00000,-57878336.00000,   0.00000
71360953.80394,446434934.47645,28653268.83697,  -0.00055,   0.00189,   0.00037,418373504.00000,   0.00000,274640576.00000,   0.00000,   0.00000,   0.00000,-56267072.00000,   0.00000
71801396.87744,448196706.77044,28659386.10188,  -0.00055,   0.00190,   0.00037,419967680.00000,   0.00000,274640576.00000,   0.00000,   0.00000,   0.00000,-54672896.00000,   0.00000
72254074.48076,449946244.53461,28659386.10188,  -0.00055,   0.00191,   0.00037,421543328.00000,   0.00000,274640576.00000,   0.00000,   0.00000,   0.00000,-53097248.00000,   0.00000
72676165.75953,451665195.97423,28659386.10188,  -0.00055,   0.00191,   0.00037,423098080.00000,   0.00000,274640576.00000,   0.00000,   0.00000,   0.00000,-51542496.00000,   0.00000
73119667.46548,453393323.31121,28659386.10188,  -0.00055,   0.00192,   0.00037,424652608.00000,   0.00000,274640576.00000,   0.00000,   0.00000,   0.00000,-49987968.00000,   0.00000
73544817.37670,455078629.79383,28659386.10188,  -0.00055,   0.00193,   0.00037,426169248.00000,   0.00000,274640576.00000,   0.00000,   0.00000,   0.00000,-48471328.00000,   0.00000
73960791.39056,456742525.84927,28653268.83697,  -0.00055,   0.00193,   0.00037,427664736.00000,   0.00000,274640576.00000,   0.00000,   0.00000,   0.00000,-46975840.00000,   0.00000
74376765.40442,458406421.90470,28647151.57206,  -0.00056,   0.00194,   0.00037,429158208.00000,   0.00000,274640576.00000,   0.00000,   0.00000,   0.00000,-45482368.00000,   0.00000
74795798.05073,460036673.00313,28641034.30715,  -0.00056,   0.00195,   0.00037,430615296.00000,   0.00000,274640576.00000,   0.00000,   0.00000,   0.00000,-44025280.00000,   0.00000
75193420.26986,461657748.20420,28628799.77733,  -0.00056,   0.00195,   0.00037,432068096.00000,   0.00000,274640576.00000,   0.00000,   0.00000,   0.00000,-42572480.00000,   0.00000
75581866.59163,463257412.97808,28616565.24751,  -0.00056,   0.00196,   0.00037,433501440.00000,   0.00000,274640576.00000,   0.00000,   0.00000,   0.00000,-41139136.00000,   0.00000
75982547.44321,464844843.22215,28604330.71769,  -0.00056,   0.00197,   0.00037,434917120.00000,   0.00000,274640576.00000,   0.00000,   0.00000,   0.00000,-39723456.00000,   0.00000
76364876.50007,466389452.61184,28592096.18787,  -0.00056,   0.00197,   0.00037,436296128.00000,   0.00000,274640576.00000,   0.00000,   0.00000,   0.00000,-38344448.00000,   0.00000
76725795.12974,467924886.10417,28579861.65805,  -0.00056,   0.00198,   0.00037,437673088.00000,   0.00000,274640576.00000,   0.00000,   0.00000,   0.00000,-36967488.00000,   0.00000
77098948.28923,469448085.06669,28561509.86333,  -0.00056,   0.00199,   0.00037,439032160.00000,   0.00000,274640576.00000,   0.00000,   0.00000,   0.00000,-35608416.00000,   0.00000
77462925.55136,470949873.60201,28543158.06860,  -0.00057,   0.00199,   0.00037,440373312.00000,   0.00000,274640576.00000,   0.00000,   0.00000,   0.00000,-34267264.00000,   0.00000
77817726.91612,472430251.71016,28518689.00896,  -0.00057,   0.00200,   0.00037,441695328.00000,   0.00000,274640576.00000,   0.00000,   0.00000,   0.00000,-32945248.00000,   0.00000
78163352.38352,473889219.39112,28500337.21423,  -0.00057,   0.00200,   0.00037,443000320.00000,   0.00000,274640576.00000,   0.00000,   0.00000,   0.00000,-31640256.00000,   0.00000
78499801.95355,475326776.64489,28475868.15459,  -0.00057,   0.00201,   0.00037,444285440.00000,   0.00000,274640576.00000,   0.00000,   0.00000,   0.00000,-30355136.00000,   0.00000
78836251.52358,476764333.89867,28451399.09495,  -0.00057,   0.00202,   0.00037,445569312.00000,   0.00000,274640576.00000,   0.00000,   0.00000,   0.00000,-29071264.00000,   0.00000
79154349.29888,478159070.29808,28420812.77040,  -0.00057,   0.00202,   0.00037,446815072.00000,   0.00000,274640576.00000,   0.00000,   0.00000,   0.00000,-27825504.00000,   0.00000
79463271.17682,479532396.27030,28396343.71076,  -0.00057,   0.00203,   0.00037,448042784.00000,   0.00000,274640576.00000,   0.00000,   0.00000,   0.00000,-26597792.00000,   0.00000
79793603.48195,480914898.13989,28365757.38622,  -0.00057,   0.00203,   0.00037,449269216.00000,   0.00000,274640576.00000,   0.00000,   0.00000,   0.00000,-25371360.00000,   0.00000
80084173.56516,482245403.25775,28335171.06167,  -0.00058,   0.00204,   0.00037,450457792.00000,   0.00000,274640576.00000,   0.00000,   0.00000,   0.00000,-24182784.00000,   0.00000
80374743.64837,483575908.37561,28304584.73712,  -0.00058,   0.00204,   0.00037,451645632.00000,   0.00000,274640576.00000,   0.00000,   0.00000,   0.00000,-22994944.00000,   0.00000
80668372.36403,484872768.53646,28267881.14766,  -0.00058,   0.00205,   0.00037,452798144.00000,   0.00000,274640576.00000,   0.00000,   0.00000,   0.00000,-21842432.00000,   0.00000
80940590.65251,486160452.79995,28231177.55820,  -0.00058,   0.00205,   0.00037,453949504.00000,   0.00000,274640576.00000,   0.00000,   0.00000,   0.00000,-20691072.00000,   0.00000
81194457.14627,487405316.20907,28194473.96874,  -0.00058,   0.00206,   0.00037,455066336.00000,   0.00000,274640576.00000,   0.00000,   0.00000,   0.00000,-19574240.00000,   0.00000
81469734.06720,488659355.51556,28157770.37929,  -0.00058,   0.00206,   0.00037,456185408.00000,   0.00000,274640576.00000,   0.00000,   0.00000,   0.00000,-18455168.00000,   0.00000
81714424.66359,489882808.49749,28121066.78983,  -0.00058,   0.00207,   0.00037,457286528.00000,   0.00000,274640576.00000,   0.00000,   0.00000,   0.00000,-17354048.00000,   0.00000
81962173.89243,491072616.52243,28078245.93546,  -0.00058,   0.00207,   0.00037,458353856.00000,   0.00000,274640576.00000,   0.00000,   0.00000,   0.00000,-16286720.00000,   0.00000
82188512.69409,492253248.65000,28035425.08109,  -0.00059,   0.00208,   0.00036,459421312.00000,   0.00000,274640576.00000,   0.00000,   0.00000,   0.00000,-15219264.00000,   0.00000
82405675.59838,493412470.35038,27992604.22672,  -0.00059,   0.00208,   0.00036,460472128.00000,   0.00000,274640576.00000,   0.00000,   0.00000,   0.00000,-14168448.00000,   0.00000
82635073.03250,494559457.52095,27949783.37236,  -0.00059,   0.00209,   0.00036,461507744.00000,   0.00000,274640576.00000,   0.00000,   0.00000,   0.00000,-13132832.00000,   0.00000
82833884.14206,495675858.36697,27900845.25308,  -0.00059,   0.00209,   0.00036,462524256.00000,   0.00000,274640576.00000,   0.00000,   0.00000,   0.00000,-12116320.00000,   0.00000
83023519.35426,496770848.78580,27851907.13380,  -0.00059,   0.00210,   0.00036,463523776.00000,   0.00000,274640576.00000,   0.00000,   0.00000,   0.00000,-11116800.00000,   0.00000
83225389.09628,497853604.67481,27802969.01452,  -0.00059,   0.00210,   0.00036,464507808.00000,   0.00000,274640576.00000,   0.00000,   0.00000,   0.00000,-10132768.00000,   0.00000
83396672.51375,498905774.23928,27754030.89525,  -0.00059,   0.00211,   0.00036,465473056.00000,   0.00000,274640576.00000,   0.00000,   0.00000,   0.00000,-9167520.00000,   0.00000
83558780.03386,499936533.37656,27705092.77597,  -0.00059,   0.00211,   0.00036,466420928.00000,   0.00000,274640576.00000,   0.00000,   0.00000,   0.00000,-8219648.00000,   0.00000
83711711.65660,500945882.08666,27650037.39178,  -0.00060,   0.00212,   0.00036,467350208.00000,   0.00000,274640576.00000,   0.00000,   0.00000,   0.00000,-7290368.00000,   0.00000
83855467.38198,501933820.36957,27594982.00759,  -0.00060,   0.00212,   0.00036,468261792.00000,   0.00000,274640576.00000,   0.00000,   0.00000,   0.00000,-6378784.00000,   0.00000
83990047.20999,502900348.22531,27539926.62341,  -0.00060,   0.00212,   0.00036,469155616.00000,   0.00000,274640576.00000,   0.00000,   0.00000,   0.00000,-5484960.00000,   0.00000
84115451.14064,503845465.65385,27484871.23922,  -0.00060,   0.00213,   0.00036,470031712.00000,   0.00000,274640576.00000,   0.00000,   0.00000,   0.00000,-4608864.00000,   0.00000
84240855.07129,504790583.08240,27429815.85503,  -0.00060,   0.00213,   0.00036,470907712.00000,   0.00000,274640576.00000,   0.00000,   0.00000,   0.00000,-3732864.00000,   0.00000
84347907.20721,505692879.65658,27368643.20594,  -0.00060,   0.00214,   0.00036,471746880.00000,   0.00000,274640576.00000,   0.00000,   0.00000,   0.00000,-2893696.00000,   0.00000
84445783.44576,506573765.80357,27307470.55684,  -0.00060,   0.00214,   0.00035,472568096.00000,   0.00000,274640576.00000,   0.00000,   0.00000,   0.00000,-2072480.00000,   0.00000
84522249.25713,507445476.05320,27246297.90774,  -0.00060,   0.00214,   0.00035,473387680.00000,   0.00000,274640576.00000,   0.00000,   0.00000,   0.00000,-1252896.00000,   0.00000
84601773.70096,508283541.34583,27185125.25865,  -0.00061,   0.00215,   0.00035,474172864.00000,   0.00000,274640576.00000,   0.00000,   0.00000,   0.00000,-467712.00000,   0.00000
84636505.90622,508778932.27347,27148565.04258,  -0.00061,   0.00215,   0.00035,474641184.00000,   0.00000,274640576.00000,   0.00000,   0.00000,   0.00000, 608.00000,   0.00000
84634857.02103,508786724.62611,27104698.36492,  -0.00061,   0.00215,   0.00035,474641184.00000,   0.00000,274641952.00000,  -0.00000,   0.00000,   0.00000,   0.00000,   2.00000
84636737.55814,508810473.36769,26991939.74760,  -0.00061,   0.00215,   0.00035,475390240.00000,   0.00000,274645216.00000,  -0.00000,   0.00000,   0.00000,   0.00000,   2.00000
84617375.72910,508826330.39644,26879436.08886,  -0.00061,   0.00216,   0.00035,475392256.00000,   0.00001,274648480.00000,  -0.00000,   0.00001,   0.00000, 192.00000,   2.00000
84582536.66802,508835680.76837,26769235.71331,  -0.00061,   0.00216,   0.00035,475360064.00000,   0.00001,274651584.00000,  -0.00000,   0.00001,   0.00000, -64.00000,   2.00000
84547793.58619,508845196.29268,26659212.99609,  -0.00061,   0.00217,   0.00035,475363072.00000,   0.00001,274654688.00000,  -0.00001,   0.00001,   0.00000,   0.00000,   2.00000
84505358.70528,508851513.32235,26550414.80831,  -0.00061,   0.00217,   0.00035,475348480.00000,   0.00002,274657696.00000,  -0.00001,   0.00002,   0.00000,  96.00000,   2.00000
84447539.88236,508852463.68439,26437835.65889,  -0.00062,   0.00217,   0.00035,475315072.00000,   0.00002,274660576.00000,  -0.00001,   0.00002,   0.00000,-128.00000,   2.00000
84389754.31341,508852529.45316,26331474.09113,  -0.00062,   0.00217,   0.00035,475318848.00000,   0.00002,274663456.00000,  -0.00001,   0.00002,   0.00000,  32.00000,   2.00000
84303077.86012,508842560.25337,26220334.69733,  -0.00062,   0.00218,   0.00035,475301824.00000,   0.00002,274666240.00000,  -0.00001,   0.00003,   0.00000,   0.00000,   2.00000
84208744.58966,508829413.33438,26110391.23857,  -0.00062,   0.00218,   0.00034,475286816.00000,   0.00003,274668928.00000,  -0.00001,   0.00003,   0.00001, -32.00000,   2.00000
84128044.15362,508820967.47905,26001559.11985,  -0.00062,   0.00218,   0.00034,475273152.00000,   0.00003,274671584.00000,  -0.00001,   0.00003,   0.00001,-128.00000,   2.00000
84018454.35239,508802527.98863,25887927.57628,  -0.00062,   0.00219,   0.00034,475255744.00000,   0.00003,274674112.00000,  -0.00001,   0.00003,   0.00001,   0.00000,   2.00000
83901130.53440,508779925.46261,25781524.05345,  -0.00062,   0.00219,   0.00034,475241632.00000,   0.00003,274676608.00000,  -0.00001,   0.00004,   0.00001,  96.00000,   2.00000
83754934.12336,508747374.75967,25670303.33378,  -0.00063,   0.00219,   0.00034,475224064.00000,   0.00003,274679008.00000,  -0.00001,   0.00004,   0.00001,-160.00000,   2.00000
83622299.23888,508718383.18890,25566210.13700,  -0.00063,   0.00219,   0.00034,475211168.00000,   0.00004,274681312.00000,  -0.00002,   0.00004,   0.00001, -32.00000,   2.00000
83460786.89250,508679514.06576,25457282.71518,  -0.00063,   0.00220,   0.00034,475193472.00000,   0.00004,274683552.00000,  -0.00002,   0.00004,   0.00001, -32.00000,   2.00000
83312988.17491,508646327.26019,25343361.03891,  -0.00063,   0.00220,   0.00034,475178560.00000,   0.00004,274685728.00000,  -0.00002,   0.00005,   0.00001, 128.00000,   2.00000
83143945.81640,508603980.89035,25235675.96548,  -0.00063,   0.00220,   0.00034,475180512.00000,   0.00004,274687872.00000,  -0.00002,   0.00005,   0.00001, -64.00000,   2.00000
82938124.83092,508547734.85143,25130204.13342,  -0.00063,   0.00220,   0.00034,475145888.00000,   0.00004,274689888.00000,  -0.00002,   0.00005,   0.00001, 192.00000,   2.00000
82753842.06279,508500153.92584,25018700.31788,  -0.00063,   0.00221,   0.00033,475148352.00000,   0.00005,274691872.00000,  -0.00002,   0.00005,   0.00001,  96.00000,   2.00000
82554017.96236,508446116.90646,24909290.85437,  -0.00064,   0.00221,   0.00033,475115072.00000,   0.00005,274693728.00000,  -0.00002,   0.00006,   0.00001, -32.00000,   2.00000
82332981.98003,508383200.43593,24806112.61488,  -0.00064,   0.00221,   0.00033,475116640.00000,   0.00005,274695584.00000,  -0.00002,   0.00006,   0.00001, -32.00000,   2.00000
82096464.55135,508314924.86848,24698943.68559,  -0.00064,   0.00221,   0.00033,475082112.00000,   0.00005,274697280.00000,  -0.00002,   0.00006,   0.00001,-128.00000,   2.00000
81860185.87881,508247575.83020,24585804.54213,  -0.00064,   0.00221,   0.00033,475083008.00000,   0.00005,274698944.00000,  -0.00002,   0.00006,   0.00001,   0.00000,   2.00000
81594813.96641,508168076.44815,24479861.87748,  -0.00064,   0.00222,   0.00033,475066944.00000,   0.00005,274700576.00000,  -0.00002,   0.00006,   0.00001,   0.00000,   2.00000
81313825.61778,508082020.66326,24375939.51742,  -0.00064,   0.00222,   0.00033,475033280.00000,   0.00006,274702016.00000,  -0.00002,   0.00006,   0.00001,-128.00000,   2.00000
81054396.91040,508004977.93958,24265972.04400,  -0.00065,   0.00222,   0.00033,475034880.00000,   0.00006,274703488.00000,  -0.00002,   0.00007,   0.00001,  32.00000,   2.00000
80744565.93429,507908496.15628,24157159.75512,  -0.00065,   0.00222,   0.00033,475016832.00000,   0.00006,274704832.00000,  -0.00002,   0.00007,   0.00001,   0.00000,   2.00000
80448247.39344,507815922.71458,24055385.31986,  -0.00065,   0.00222,   0.00032,475002560.00000,   0.00006,274706144.00000,  -0.00002,   0.00007,   0.00001,  64.00000,   2.00000
80130812.02006,507715942.82817,23947657.27727,  -0.00065,   0.00222,   0.00032,475002112.00000,   0.00006,274707456.00000,  -0.00003,   0.00007,   0.00001,-160.00000,   2.00000
79818985.00236,507617596.31261,23841838.80727,  -0.00065,   0.00222,   0.00032,474969280.00000,   0.00006,274708576.00000,  -0.00003,   0.00007,   0.00001,  32.00000,   2.00000
79456691.80421,507499799.63050,23731021.97930,  -0.00065,   0.00223,   0.00032,474949632.00000,   0.00006,274709664.00000,  -0.00003,   0.00007,   0.00001,-928.00000,   1.00000
79115938.79999,507390860.57017,23626361.46173,  -0.00066,   0.00223,   0.00032,474952256.00000,   0.00006,274710720.00000,  -0.00003,   0.00007,   0.00001,  32.00000,   2.00000
78737910.97521,507265319.03536,23523578.00268,  -0.00066,   0.00223,   0.00032,474917952.00000,   0.00006,274711616.00000,  -0.00003,   0.00007,   0.00001,-960.00000,   1.00000
78360134.99512,507141445.52475,23414811.99506,  -0.00066,   0.00223,   0.00032,474917280.00000,   0.00007,274712544.00000,  -0.00003,   0.00007,   0.00001,-928.00000,   1.00000
77966486.05769,507011049.02968,23307945.91998,  -0.00066,   0.00223,   0.00032,474883136.00000,   0.00007,274713280.00000,  -0.00003,   0.00008,   0.00001,-800.00000,   1.00000
77551605.75898,506872249.99652,23201158.76871,  -0.00066,   0.00223,   0.00031,474883168.00000,   0.00007,274714016.00000,  -0.00003,   0.00008,   0.00001,-672.00000,   1.00000
77150079.78430,506737061.59630,23101327.10733,  -0.00067,   0.00223,   0.00031,474868608.00000,   0.00007,274714720.00000,  -0.00003,   0.00008,   0.00001,-704.00000,   1.00000
76719326.14384,506591224.56808,22996417.23664,  -0.00067,   0.00223,   0.00031,474850048.00000,   0.00007,274715296.00000,  -0.00003,   0.00008,   0.00001,-608.00000,   1.00000
76259310.12491,506434565.07717,22886412.73956,  -0.00067,   0.00223,   0.00031,474831520.00000,   0.00007,274715808.00000,  -0.00003,   0.00008,   0.00001,-608.00000,   1.00000
75791251.45825,506273606.16207,22783405.16813,  -0.00067,   0.00223,   0.00031,474815488.00000,   0.00007,274716256.00000,  -0.00003,   0.00008,   0.00001,-416.00000,   1.00000
75315143.82386,506108700.32847,22681287.17481,  -0.00067,   0.00224,   0.00031,474799040.00000,   0.00007,274716608.00000,  -0.00003,   0.00008,   0.00001,-320.00000,   1.00000
74839137.23820,505944253.49686,22573093.62982,  -0.00068,   0.00224,   0.00031,474798976.00000,   0.00007,274716992.00000,  -0.00003,   0.00008,   0.00001,-448.00000,   1.00000
74325541.97678,505764122.41535,22472823.53537,  -0.00068,   0.00224,   0.00031,474764160.00000,   0.00007,274717184.00000,  -0.00003,   0.00008,   0.00001,-160.00000,   1.00000
73811997.61567,505584076.88923,22366450.97465,  -0.00068,   0.00224,   0.00030,474764288.00000,   0.00007,274717408.00000,  -0.00003,   0.00008,   0.00001,-288.00000,   1.00000
73290267.99381,505399545.79234,22267031.98120,  -0.00068,   0.00224,   0.00030,474748096.00000,   0.00007,274717536.00000,  -0.00003,   0.00008,   0.00001, -96.00000,   1.00000
72730538.25458,505194617.41787,22163038.47774,  -0.00068,   0.00224,   0.00030,474711776.00000,   0.00007,274717536.00000,  -0.00003,   0.00008,   0.00001,-5760.00000,   0.00000
72170808.51534,504989689.04339,22059044.97427,  -0.00069,   0.00224,   0.00030,474706688.00000,   0.00007,274717536.00000,  -0.00003,   0.00008,   0.00001,-10848.00000,   0.00000
71601902.87874,504763350.24174,21955051.47081,  -0.00069,   0.00224,   0.00030,474684448.00000,   0.00007,274717536.00000,  -0.00003,   0.00008,   0.00001,-33088.00000,   0.00000
71011586.81495,504527835.54271,21851057.96734,  -0.00069,   0.00224,   0.00030,474662080.00000,   0.00007,274717536.00000,  -0.00003,   0.00008,   0.00001,-55456.00000,   0.00000
70402918.95644,504249499.98932,21740947.19897,  -0.00069,   0.00224,   0.00030,474604256.00000,   0.00007,274717536.00000,  -0.00003,   0.00008,   0.00001,-113280.00000,   0.00000
69763664.77338,503940578.11138,21636953.69551,  -0.00069,   0.00224,   0.00029,474529312.00000,   0.00007,274717536.00000,  -0.00003,   0.00008,   0.00001,-188224.00000,   0.00000
69145821.01750,503640832.13081,21532960.19204,  -0.00070,   0.00224,   0.00029,474455968.00000,   0.00007,274717536.00000,  -0.00003,   0.00008,   0.00001,-261568.00000,   0.00000
68475980.50989,503301323.92832,21422849.42367,  -0.00070,   0.00224,   0.00029,474363200.00000,   0.00007,274717536.00000,  -0.00003,   0.00008,   0.00001,-354336.00000,   0.00000
67818374.53210,502949581.19601,21318855.92020,  -0.00070,   0.00224,   0.00029,474255328.00000,   0.00007,274717536.00000,  -0.00003,   0.00008,   0.00001,-462208.00000,   0.00000
67130182.22976,502567252.13916,21208745.15183,  -0.00070,   0.00224,   0.00029,474128928.00000,   0.00007,274717536.00000,  -0.00003,   0.00008,   0.00001,-588608.00000,   0.00000
66411403.60287,502154336.75776,21104751.64836,  -0.00071,   0.00224,   0.00029,473985856.00000,   0.00007,274717536.00000,  -0.00003,   0.00008,   0.00001,-731680.00000,   0.00000
65704859.50580,501729186.84653,20994640.87999,  -0.00071,   0.00223,   0.00029,473825888.00000,   0.00007,274717536.00000,  -0.00003,   0.00008,   0.00001,-891648.00000,   0.00000
64976904.98155,501294861.03794,20884530.11161,  -0.00071,   0.00223,   0.00028,473666272.00000,   0.00007,274717536.00000,  -0.00003,   0.00008,   0.00001,-1051264.00000,   0.00000
64209188.23538,500808538.47762,20774419.34324,  -0.00071,   0.00223,   0.00028,473471648.00000,   0.00007,274717536.00000,  -0.00003,   0.00008,   0.00001,-1245888.00000,   0.00000
63441471.48922,500322215.91730,20664308.57487,  -0.00072,   0.00223,   0.00028,473277984.00000,   0.00007,274717536.00000,  -0.00003,   0.00008,   0.00001,-1439552.00000,   0.00000
62664578.84569,499814482.92980,20554197.80649,  -0.00072,   0.00223,   0.00028,473067808.00000,   0.00007,274717536.00000,  -0.00003,   0.00008,   0.00001,-1649728.00000,   0.00000
61857099.87761,499276163.61775,20444087.03812,  -0.00072,   0.00223,   0.00028,472840672.00000,   0.00007,274717536.00000,  -0.00003,   0.00008,   0.00001,-1876864.00000,   0.00000
61049620.90953,498737844.30570,20333976.26974,  -0.00072,   0.00223,   0.00028,472614496.00000,   0.00007,274717536.00000,  -0.00003,   0.00008,   0.00001,-2103040.00000,   0.00000
60202379.71954,498147528.24191,20223865.50137,  -0.00073,   0.00223,   0.00028,472353984.00000,   0.00007,274717536.00000,  -0.00003,   0.00008,   0.00001,-2363552.00000,   0.00000
59355138.52955,497557212.17813,20113754.73299,  -0.00073,   0.00223,   0.00027,472094688.00000,   0.00007,274717536.00000,  -0.00003,   0.00008,   0.00001,-2622848.00000,   0.00000
58498721.44219,496945485.68716,19997526.69971,  -0.00073,   0.00223,   0.00027,471818400.00000,   0.00007,274717536.00000,  -0.00003,   0.00008,   0.00001,-2899136.00000,   0.00000
57611718.03029,496303172.87164,19887415.93134,  -0.00074,   0.00223,   0.00027,471526272.00000,   0.00007,274717536.00000,  -0.00003,   0.00008,   0.00001,-3191264.00000,   0.00000
56715538.72102,495639449.62894,19771187.89805,  -0.00074,   0.00222,   0.00027,471217312.00000,   0.00007,274717536.00000,  -0.00003,   0.00008,   0.00001,-3500224.00000,   0.00000
55797948.98456,494966550.48887,19661077.12968,  -0.00074,   0.00222,   0.00027,470910144.00000,   0.00007,274717536.00000,  -0.00003,   0.00008,   0.00001,-3807392.00000,   0.00000
54862007.45338,494250830.49444,19544849.09639,  -0.00074,   0.00222,   0.00027,470568576.00000,   0.00007,274717536.00000,  -0.00003,   0.00008,   0.00001,-4148960.00000,   0.00000
53904655.49502,493525934.60264,19434738.32802,  -0.00075,   0.00222,   0.00027,470229152.00000,   0.00007,274717536.00000,  -0.00003,   0.00008,   0.00001,-4488384.00000,   0.00000
52938127.63929,492779628.28366,19318510.29473,  -0.00075,   0.00222,   0.00026,469872960.00000,   0.00007,274717536.00000,  -0.00003,   0.00008,   0.00001,-4844576.00000,   0.00000
51941013.45901,492002735.64013,19208399.52636,  -0.00075,   0.00222,   0.00026,469501408.00000,   0.00007,274717536.00000,  -0.00003,   0.00008,   0.00001,-5216128.00000,   0.00000
50943899.27873,491225842.99660,19092171.49308,  -0.00076,   0.00222,   0.00026,469130592.00000,   0.00007,274717536.00000,  -0.00003,   0.00008,   0.00001,-5586944.00000,   0.00000
49928433.30372,490406129.49870,18975943.45979,  -0.00076,   0.00221,   0.00026,468726400.00000,   0.00007,274717536.00000,  -0.00003,   0.00008,   0.00001,-5991136.00000,   0.00000
48891556.90153,489577240.10344,18859715.42651,  -0.00076,   0.00221,   0.00026,468323616.00000,   0.00007,274717536.00000,  -0.00003,   0.00008,   0.00001,-6393920.00000,   0.00000
47824094.17479,488717764.38363,18749604.65813,  -0.00076,   0.00221,   0.00026,467905696.00000,   0.00007,274717536.00000,  -0.00003,   0.00008,   0.00001,-6811840.00000,   0.00000
46756631.44805,487858288.66382,18633376.62485,  -0.00077,   0.00221,   0.00026,467488832.00000,   0.00007,274717536.00000,  -0.00003,   0.00008,   0.00001,-7228704.00000,   0.00000
45670816.92658,486955992.08964,18517148.59157,  -0.00077,   0.00221,   0.00025,467038944.00000,   0.00007,274717536.00000,  -0.00003,   0.00008,   0.00001,-7678592.00000,   0.00000
44563591.97793,486044519.61810,18400920.55828,  -0.00077,   0.00220,   0.00025,466591296.00000,   0.00007,274717536.00000,  -0.00003,   0.00008,   0.00001,-8126240.00000,   0.00000
43425780.70472,485102460.82200,18284692.52500,  -0.00078,   0.00220,   0.00025,466128864.00000,   0.00007,274717536.00000,  -0.00003,   0.00008,   0.00001,-8588672.00000,   0.00000
42278793.53416,484138991.59873,18168464.49171,  -0.00078,   0.00220,   0.00025,465652000.00000,   0.00007,274717536.00000,  -0.00003,   0.00008,   0.00001,-9065536.00000,   0.00000
41131806.36359,483175522.37545,18052236.45843,  -0.00078,   0.00220,   0.00025,465177824.00000,   0.00007,274717536.00000,  -0.00003,   0.00008,   0.00001,-9539712.00000,   0.00000
39954232.86848,482181466.82763,17936008.42515,  -0.00079,   0.00220,   0.00025,464689344.00000,   0.00007,274717536.00000,  -0.00003,   0.00008,   0.00001,-10028192.00000,   0.00000
38767483.47600,481166000.85262,17819780.39186,  -0.00079,   0.00219,   0.00024,464185536.00000,   0.00007,274717536.00000,  -0.00003,   0.00008,   0.00001,-10532000.00000,   0.00000
37550147.75897,480119948.55307,17703552.35858,  -0.00079,   0.00219,   0.00024,463664928.00000,   0.00007,274717536.00000,  -0.00003,   0.00008,   0.00001,-11052608.00000,   0.00000
36311401.61476,479064720.35614,17587324.32529,  -0.00080,   0.00219,   0.00024,463142784.00000,   0.00007,274717536.00000,  -0.00003,   0.00008,   0.00001,-11574752.00000,   0.00000
35054303.67582,477966671.30486,17464979.02710,  -0.00080,   0.00219,   0.00024,462580512.00000,   0.00007,274717536.00000,  -0.00003,   0.00008,   0.00001,-12137024.00000,   0.00000
33797205.73688,476868622.25357,17348750.99382,  -0.00081,   0.00218,   0.00024,462011648.00000,   0.00007,274717536.00000,  -0.00003,   0.00008,   0.00001,-12705888.00000,   0.00000
32518697.37075,475761397.30491,17232522.96053,  -0.00081,   0.00218,   0.00024,461434656.00000,   0.00007,274717536.00000,  -0.00003,   0.00008,   0.00001,-13282880.00000,   0.00000
31200426.78272,474602175.60453,17116294.92725,  -0.00081,   0.00218,   0.00024,460814816.00000,   0.00007,274717536.00000,  -0.00003,   0.00008,   0.00001,-13902720.00000,   0.00000
29882156.19468,473442953.90414,17000066.89396,  -0.00082,   0.00218,   0.00023,460190656.00000,   0.00007,274717536.00000,  -0.00003,   0.00008,   0.00001,-14526880.00000,   0.00000
28554709.70928,472262321.77657,16883838.86068,  -0.00082,   0.00217,   0.00023,459548768.00000,   0.00007,274717536.00000,  -0.00003,   0.00008,   0.00001,-15168768.00000,   0.00000
27184442.36951,471063337.85427,16761493.56249,  -0.00082,   0.00217,   0.00023,458909824.00000,   0.00007,274717536.00000,  -0.00003,   0.00008,   0.00001,-15807712.00000,   0.00000
25826409.55956,469852119.40216,16645265.52920,  -0.00083,   0.00217,   0.00023,458260160.00000,   0.00007,274717536.00000,  -0.00003,   0.00008,   0.00001,-16457376.00000,   0.00000
24437790.42506,468610314.62549,16529037.49592,  -0.00083,   0.00216,   0.00023,457600032.00000,   0.00007,274717536.00000,  -0.00003,   0.00008,   0.00001,-17117504.00000,   0.00000
23018584.96601,467337923.52428,16412809.46263,  -0.00084,   0.00216,   0.00023,456929536.00000,   0.00007,274717536.00000,  -0.00003,   0.00008,   0.00001,-17788000.00000,   0.00000
21599379.50696,466065532.42306,16290464.16444,  -0.00084,   0.00216,   0.00022,456265120.00000,   0.00007,274717536.00000,  -0.00003,   0.00008,   0.00001,-18452416.00000,   0.00000
20149587.72337,464762554.99730,16174236.13116,  -0.00084,   0.00216,   0.00022,455590752.00000,   0.00007,274717536.00000,  -0.00003,   0.00008,   0.00001,-19126784.00000,   0.00000
18669209.61522,463428991.24699,16058008.09787,  -0.00085,   0.00215,   0.00022,454906048.00000,   0.00007,274717536.00000,  -0.00003,   0.00008,   0.00001,-19811488.00000,   0.00000
17188831.50708,462095427.49667,15941780.06459,  -0.00085,   0.00215,   0.00022,454228384.00000,   0.00007,274717536.00000,  -0.00003,   0.00008,   0.00001,-20489152.00000,   0.00000
15699277.50157,460740453.31918,15819434.76639,  -0.00086,   0.00215,   0.00022,453540160.00000,   0.00007,274717536.00000,  -0.00003,   0.00008,   0.00001,-21177376.00000,   0.00000
14179137.17151,459354892.81714,15703206.73311,  -0.00086,   0.00214,   0.00022,452843936.00000,   0.00007,274717536.00000,  -0.00003,   0.00008,   0.00001,-21873600.00000,   0.00000
12628410.51691,457938745.99054,15586978.69983,  -0.00086,   0.00214,   0.00022,452139744.00000,   0.00007,274717536.00000,  -0.00003,   0.00008,   0.00001,-22577792.00000,   0.00000
11077683.86230,456522599.16395,15470750.66654,  -0.00087,   0.00214,   0.00021,451444128.00000,   0.00007,274717536.00000,  -0.00003,   0.00008,   0.00001,-23273408.00000,   0.00000
9505546.78051,455097276.43999,15348405.36835,  -0.00087,   0.00213,   0.00021,450757600.00000,   0.00007,274717536.00000,  -0.00003,   0.00008,   0.00001,-23959936.00000,   0.00000
7915057.90400,453629132.86167,15232177.33506,  -0.00088,   0.00213,   0.00021,450046240.00000,   0.00007,274717536.00000,  -0.00003,   0.00008,   0.00001,-24671296.00000,   0.00000
6303158.60029,452151813.38598,15115949.30178,  -0.00088,   0.00213,   0.00021,449344096.00000,   0.00007,274717536.00000,  -0.00003,   0.00008,   0.00001,-25373440.00000,   0.00000
4669848.86941,450665318.01293,14999721.26850,  -0.00089,   0.00212,   0.00021,448650880.00000,   0.00007,274717536.00000,  -0.00003,   0.00008,   0.00001,-26066656.00000,   0.00000
3018187.34379,449136001.78550,14877375.97030,  -0.00089,   0.00212,   0.00021,447929984.00000,   0.00007,274717536.00000,  -0.00003,   0.00008,   0.00001,-26787552.00000,   0.00000
1366525.81818,447606685.55808,14761147.93702,  -0.00090,   0.00211,   0.00021,447215328.00000,   0.00007,274717536.00000,  -0.00003,   0.00008,   0.00001,-27502208.00000,   0.00000
-327956.56181,446059017.53593,14644919.90373,  -0.00090,   0.00211,   0.00020,446508576.00000,   0.00007,274717536.00000,  -0.00003,   0.00008,   0.00001,-28208960.00000,   0.00000
-2019380.30933,444477704.55678,14528691.87045,  -0.00091,   0.00211,   0.00020,445770816.00000,   0.00007,274717536.00000,  -0.00003,   0.00008,   0.00001,-28946720.00000,   0.00000
-3744449.01387,442899450.21008,14412463.83717,  -0.00091,   0.00210,   0.00020,445056416.00000,   0.00007,274717536.00000,  -0.00003,   0.00008,   0.00001,-29661120.00000,   0.00000
-5487869.51313,441278375.00901,14296235.80388,  -0.00091,   0.00210,   0.00020,444312064.00000,   0.00007,274717536.00000,  -0.00003,   0.00008,   0.00001,-30405472.00000,   0.00000
-7231290.01239,439657299.80795,14173890.50569,  -0.00092,   0.00209,   0.00020,443570400.00000,   0.00007,274717536.00000,  -0.00003,   0.00008,   0.00001,-31147136.00000,   0.00000
-9026707.26338,437996462.38497,14057662.47240,  -0.00092,   0.00209,   0.00020,442820160.00000,   0.00007,274717536.00000,  -0.00003,   0.00008,   0.00001,-31897376.00000,   0.00000
-10800714.08719,436344800.85935,13941434.43912,  -0.00093,   0.00209,   0.00019,442073088.00000,   0.00007,274717536.00000,  -0.00003,   0.00008,   0.00001,-32644448.00000,   0.00000
-12626717.66273,434653377.11182,13825206.40584,  -0.00093,   0.00208,   0.00019,441318720.00000,   0.00007,274717536.00000,  -0.00003,   0.00008,   0.00001,-33398816.00000,   0.00000
-14452721.23827,432961953.36429,13708978.37255,  -0.00094,   0.00208,   0.00019,440571168.00000,   0.00007,274717536.00000,  -0.00003,   0.00008,   0.00001,-34146368.00000,   0.00000
-16297076.60854,431227708.76240,13592750.33927,  -0.00094,   0.00207,   0.00019,439797824.00000,   0.00007,274717536.00000,  -0.00003,   0.00008,   0.00001,-34919712.00000,   0.00000
-18153666.50863,429505698.69032,13476522.30598,  -0.00095,   0.00207,   0.00019,439051040.00000,   0.00007,274717536.00000,  -0.00003,   0.00008,   0.00001,-35666496.00000,   0.00000
-20040842.73327,427753102.29370,13360294.27270,  -0.00095,   0.00207,   0.00019,438298016.00000,   0.00007,274717536.00000,  -0.00003,   0.00008,   0.00001,-36419520.00000,   0.00000
-21937194.85527,425979095.46989,13244066.23942,  -0.00096,   0.00206,   0.00019,437536704.00000,   0.00007,274717536.00000,  -0.00003,   0.00008,   0.00001,-37180832.00000,   0.00000
-23864133.30182,424174502.32153,13127838.20613,  -0.00097,   0.00206,   0.00018,436769248.00000,   0.00007,274717536.00000,  -0.00003,   0.00008,   0.00001,-37948288.00000,   0.00000
-25812482.17556,422360733.27581,13011610.17285,  -0.00097,   0.00205,   0.00018,436011616.00000,   0.00007,274717536.00000,  -0.00003,   0.00008,   0.00001,-38705920.00000,   0.00000
-27760831.04929,420546964.23009,12901499.40447,  -0.00098,   0.00205,   0.00018,435261312.00000,   0.00007,274717536.00000,  -0.00003,   0.00008,   0.00001,-39456224.00000,   0.00000
-29739766.24758,418702608.85982,12785271.37119,  -0.00098,   0.00204,   0.00018,434503232.00000,   0.00007,274717536.00000,  -0.00003,   0.00008,   0.00001,-40214304.00000,   0.00000
-31727877.34323,416836843.06236,12669043.33791,  -0.00099,   0.00204,   0.00018,433735296.00000,   0.00007,274717536.00000,  -0.00003,   0.00008,   0.00001,-40982240.00000,   0.00000
-33737398.86606,414961901.36754,12552815.30462,  -0.00099,   0.00203,   0.00018,432976448.00000,   0.00007,274717536.00000,  -0.00003,   0.00008,   0.00001,-41741088.00000,   0.00000
-35777506.71344,413056373.34818,12436587.27134,  -0.00100,   0.00203,   0.00017,432210880.00000,   0.00007,274717536.00000,  -0.00003,   0.00008,   0.00001,-42506656.00000,   0.00000
-37817614.56082,411150845.32881,12326476.50296,  -0.00100,   0.00202,   0.00017,431452448.00000,   0.00007,274717536.00000,  -0.00003,   0.00008,   0.00001,-43265088.00000,   0.00000
-39888308.73275,409214730.98489,12210248.46968,  -0.00101,   0.00202,   0.00017,430687360.00000,   0.00007,274717536.00000,  -0.00003,   0.00008,   0.00001,-44030176.00000,   0.00000
-41968178.80204,407257206.21379,12094020.43639,  -0.00101,   0.00201,   0.00017,429913408.00000,   0.00007,274717536.00000,  -0.00003,   0.00008,   0.00001,-44804128.00000,   0.00000
-44069459.29852,405290505.54533,11983909.66802,  -0.00102,   0.00201,   0.00017,429150464.00000,   0.00007,274717536.00000,  -0.00003,   0.00008,   0.00001,-45567072.00000,   0.00000
-46192150.22218,403314628.97950,11867681.63474,  -0.00103,   0.00201,   0.00017,428397888.00000,   0.00007,274717536.00000,  -0.00003,   0.00008,   0.00001,-46319648.00000,   0.00000
-48324017.04320,401317341.98649,11757570.86636,  -0.00103,   0.00200,   0.00017,427637472.00000,   0.00007,274717536.00000,  -0.00003,   0.00008,   0.00001,-47080064.00000,   0.00000
-50486470.18878,399289468.66893,11641342.83308,  -0.00104,   0.00200,   0.00016,426871616.00000,   0.00007,274717536.00000,  -0.00003,   0.00008,   0.00001,-47845920.00000,   0.00000
-52648923.33435,397261595.35137,11531232.06470,  -0.00104,   0.00199,   0.00016,426114592.00000,   0.00007,274717536.00000,  -0.00003,   0.00008,   0.00001,-48602944.00000,   0.00000
-54832786.90711,395224546.13644,11421121.29633,  -0.00105,   0.00199,   0.00016,425368992.00000,   0.00007,274717536.00000,  -0.00003,   0.00008,   0.00001,-49348544.00000,   0.00000
-57047236.80442,393156910.59697,11304893.26305,  -0.00106,   0.00198,   0.00016,424619648.00000,   0.00007,274717536.00000,  -0.00003,   0.00008,   0.00001,-50097888.00000,   0.00000
-59270862.59909,391067864.63031,11194782.49467,  -0.00106,   0.00197,   0.00016,423864704.00000,   0.00007,274717536.00000,  -0.00003,   0.00008,   0.00001,-50852832.00000,   0.00000
-61515898.82094,388969642.76629,11084671.72630,  -0.00107,   0.00197,   0.00016,423123936.00000,   0.00007,274717536.00000,  -0.00003,   0.00008,   0.00001,-51593600.00000,   0.00000
-63782345.46998,386862245.00490,10968443.69301,  -0.00107,   0.00196,   0.00016,422398112.00000,   0.00007,274717536.00000,  -0.00003,   0.00008,   0.00001,-52319424.00000,   0.00000
-66057968.01638,384733436.81633,10858332.92464,  -0.00108,   0.00196,   0.00015,421669440.00000,   0.00007,274717536.00000,  -0.00003,   0.00008,   0.00001,-53048096.00000,   0.00000
-68342766.46015,382583218.20057,10748222.15626,  -0.00109,   0.00195,   0.00015,420938592.00000,   0.00007,274717536.00000,  -0.00003,   0.00008,   0.00001,-53778944.00000,   0.00000
-70670385.75829,380414647.79009,10638111.38789,  -0.00109,   0.00195,   0.00015,420230400.00000,   0.00007,274717536.00000,  -0.00003,   0.00008,   0.00001,-54487136.00000,   0.00000
-72998005.05642,378246077.37961,10528000.61952,  -0.00110,   0.00194,   0.00015,419537120.00000,   0.00007,274717536.00000,  -0.00003,   0.00008,   0.00001,-55180416.00000,   0.00000
-75334800.25192,376056096.54194,10417889.85114,  -0.00111,   0.00194,   0.00015,418843680.00000,   0.00007,274717536.00000,  -0.00003,   0.00008,   0.00001,-55873856.00000,   0.00000
-77714416.30179,373847763.90954,10307779.08277,  -0.00111,   0.00193,   0.00015,418174560.00000,   0.00007,274717536.00000,  -0.00003,   0.00008,   0.00001,-56542976.00000,   0.00000
-80081797.82184,371627196.74733,10197668.31439,  -0.00112,   0.00193,   0.00015,417500832.00000,   0.00007,274717536.00000,  -0.00003,   0.00008,   0.00001,-57216704.00000,   0.00000
-82492000.19626,369388277.79038,10087557.54602,  -0.00113,   0.00192,   0.00014,416850912.00000,   0.00007,274717536.00000,  -0.00003,   0.00008,   0.00001,-57866624.00000,   0.00000
-84911378.46804,367127948.40625,9977446.77764,  -0.00113,   0.00192,   0.00014,416199776.00000,   0.00007,274717536.00000,  -0.00003,   0.00008,   0.00001,-58517760.00000,   0.00000
-87330756.73982,364867619.02212,9867336.00927,  -0.00114,   0.00191,   0.00014,415561312.00000,   0.00007,274717536.00000,  -0.00003,   0.00008,   0.00001,-59156224.00000,   0.00000
-89802131.76333,362567527.41608,9763342.50580,  -0.00114,   0.00190,   0.00014,414930080.00000,   0.00007,274717536.00000,  -0.00003,   0.00008,   0.00001,-59787456.00000,   0.00000
-92252096.35966,360276611.70740,9653231.73743,  -0.00115,   0.00190,   0.00014,414303872.00000,   0.00007,274717536.00000,  -0.00003,   0.00008,   0.00001,-60413664.00000,   0.00000
-94744881.81036,357967344.20400,9543120.96906,  -0.00116,   0.00189,   0.00014,413697824.00000,   0.00007,274717536.00000,  -0.00003,   0.00008,   0.00001,-61019712.00000,   0.00000
-97246843.15842,355636666.27341,9439127.46559,  -0.00117,   0.00189,   0.00014,413086720.00000,   0.00007,274717536.00000,  -0.00003,   0.00008,   0.00001,-61630816.00000,   0.00000
-99770214.93367,353296812.44545,9329016.69722,  -0.00117,   0.00188,   0.00013,412490080.00000,   0.00007,274717536.00000,  -0.00003,   0.00008,   0.00001,-62227456.00000,   0.00000
-102302762.60628,350935548.19031,9225023.19375,  -0.00118,   0.00188,   0.00013,411888960.00000,   0.00007,274717536.00000,  -0.00003,   0.00008,   0.00001,-62828576.00000,   0.00000
-104856720.70607,348565108.03781,9121029.69029,  -0.00119,   0.00187,   0.00013,411304416.00000,   0.00007,274717536.00000,  -0.00003,   0.00008,   0.00001,-63413120.00000,   0.00000
-107419854.70323,346173257.45812,9010918.92191,  -0.00119,   0.00186,   0.00013,410716704.00000,   0.00007,274717536.00000,  -0.00003,   0.00008,   0.00001,-64000832.00000,   0.00000
-110004399.12757,343772230.98107,8906925.41845,  -0.00120,   0.00186,   0.00013,410148608.00000,   0.00007,274717536.00000,  -0.00003,   0.00008,   0.00001,-64568928.00000,   0.00000
-112610353.97910,341362028.60665,8802931.91498,  -0.00121,   0.00185,   0.00013,409600480.00000,   0.00007,274717536.00000,  -0.00003,   0.00008,   0.00001,-65117056.00000,   0.00000
-115225484.72799,338930415.80505,8692821.14661,  -0.00121,   0.00185,   0.00013,409052480.00000,   0.00007,274717536.00000,  -0.00003,   0.00008,   0.00001,-65665056.00000,   0.00000
-117862025.90406,336489627.10609,8588827.64314,  -0.00122,   0.00184,   0.00012,408526432.00000,   0.00007,274717536.00000,  -0.00003,   0.00008,   0.00001,-66191104.00000,   0.00000
-120498567.08014,334048838.40712,8484834.13968,  -0.00123,   0.00183,   0.00012,408015456.00000,   0.00007,274717536.00000,  -0.00003,   0.00008,   0.00001,-66702080.00000,   0.00000
-123165694.58076,331577463.38361,8380840.63622,  -0.00124,   0.00183,   0.00012,407512192.00000,   0.00007,274717536.00000,  -0.00003,   0.00008,   0.00001,-67205344.00000,   0.00000
-125863408.40593,329075502.03555,8276847.13275,  -0.00124,   0.00182,   0.00012,407016448.00000,   0.00007,274717536.00000,  -0.00003,   0.00008,   0.00001,-67701088.00000,   0.00000
-128551946.33374,326594951.11467,8172853.62929,  -0.00125,   0.00182,   0.00012,406550496.00000,   0.00007,274717536.00000,  -0.00003,   0.00008,   0.00001,-68167040.00000,   0.00000
-131271070.58609,324083813.86924,8068860.12582,  -0.00126,   0.00181,   0.00012,406093248.00000,   0.00007,274717536.00000,  -0.00003,   0.00008,   0.00001,-68624288.00000,   0.00000
-133999370.73581,321551266.19663,7970983.88727,  -0.00127,   0.00180,   0.00012,405639328.00000,   0.00007,274717536.00000,  -0.00003,   0.00008,   0.00001,-69078208.00000,   0.00000
-136739905.41535,319030953.05384,7866990.38380,  -0.00127,   0.00180,   0.00012,405223296.00000,   0.00007,274717536.00000,  -0.00003,   0.00008,   0.00001,-69494240.00000,   0.00000
-139498791.88962,316467819.05668,7762996.88034,  -0.00128,   0.00179,   0.00011,404797984.00000,   0.00007,274717536.00000,  -0.00003,   0.00008,   0.00001,-69919552.00000,   0.00000
-142269912.89371,313916919.58935,7665120.64178,  -0.00129,   0.00179,   0.00011,404412288.00000,   0.00007,274717536.00000,  -0.00003,   0.00008,   0.00001,-70305248.00000,   0.00000
-145071620.22235,311335433.79746,7561127.13832,  -0.00130,   0.00178,   0.00011,404038176.00000,   0.00007,274717536.00000,  -0.00003,   0.00008,   0.00001,-70679360.00000,   0.00000
-147873327.55098,308753948.00557,7463250.89976,  -0.00130,   0.00177,   0.00011,403680672.00000,   0.00007,274717536.00000,  -0.00003,   0.00008,   0.00001,-71036864.00000,   0.00000
-150696445.30680,306163286.31632,7359257.39630,  -0.00131,   0.00177,   0.00011,403337760.00000,   0.00007,274717536.00000,  -0.00003,   0.00008,   0.00001,-71379776.00000,   0.00000
-153528738.95999,303551214.19988,7261381.15774,  -0.00132,   0.00176,   0.00011,402975712.00000,   0.00007,274717536.00000,  -0.00003,   0.00008,   0.00001,-71741824.00000,   0.00000
-156382443.04036,300929966.18608,7157387.65428,  -0.00133,   0.00175,   0.00011,402643584.00000,   0.00007,274717536.00000,  -0.00003,   0.00008,   0.00001,-72073952.00000,   0.00000
-159266733.44527,298278131.84773,7059511.41572,  -0.00134,   0.00175,   0.00010,402206176.00000,   0.00007,274717536.00000,  -0.00003,   0.00008,   0.00001,-72511360.00000,   0.00000
-162151023.85019,295626297.50938,6961635.17717,  -0.00134,   0.00174,   0.00010,401904128.00000,   0.00007,274717536.00000,  -0.00003,   0.00008,   0.00001,-72813408.00000,   0.00000
-165035314.25511,292974463.17103,6863758.93861,  -0.00135,   0.00173,   0.00010,401663392.00000,   0.00007,274717536.00000,  -0.00003,   0.00008,   0.00001,-73054144.00000,   0.00000
-167941015.08721,290313452.93532,6765882.70006,  -0.00136,   0.00173,   0.00010,401445248.00000,   0.00007,274717536.00000,  -0.00003,   0.00008,   0.00001,-73272288.00000,   0.00000
-170877302.24386,287621856.37506,6668006.46150,  -0.00137,   0.00172,   0.00010,401231648.00000,   0.00007,274717536.00000,  -0.00003,   0.00008,   0.00001,-73485888.00000,   0.00000
-173813589.40051,284930259.81480,6570130.22295,  -0.00138,   0.00172,   0.00010,401031168.00000,   0.00007,274717536.00000,  -0.00003,   0.00008,   0.00001,-73686368.00000,   0.00000
-176771286.98434,282229487.35717,6472253.98439,  -0.00138,   0.00171,   0.00010,400858112.00000,   0.00007,274717536.00000,  -0.00003,   0.00008,   0.00001,-73859424.00000,   0.00000
-179738160.46554,279507304.47236,6374377.74584,  -0.00139,   0.00170,   0.00010,400695552.00000,   0.00007,274717536.00000,  -0.00003,   0.00008,   0.00001,-74021984.00000,   0.00000
-182726444.37392,276775945.69019,6276501.50728,  -0.00140,   0.00170,   0.00009,400562976.00000,   0.00007,274717536.00000,  -0.00003,   0.00008,   0.00001,-74154560.00000,   0.00000
-185714728.28230,274044586.90801,6184742.53364,  -0.00141,   0.00169,   0.00009,400448064.00000,   0.00007,274717536.00000,  -0.00003,   0.00008,   0.00001,-74269472.00000,   0.00000
-188733598.51523,271282641.80129,6086866.29508,  -0.00142,   0.00168,   0.00009,400346272.00000,   0.00007,274717536.00000,  -0.00003,   0.00008,   0.00001,-74371264.00000,   0.00000
-191764703.27798,268532931.22438,5988990.05653,  -0.00143,   0.00168,   0.00009,400285888.00000,   0.00007,274717536.00000,  -0.00003,   0.00008,   0.00001,-74431648.00000,   0.00000
-194804983.93810,265761810.22030,5897231.08288,  -0.00143,   0.00167,   0.00009,400237824.00000,   0.00007,274717536.00000,  -0.00003,   0.00008,   0.00001,-74479712.00000,   0.00000
-197854440.49557,262969278.78902,5799354.84433,  -0.00144,   0.00166,   0.00009,400204736.00000,   0.00007,274717536.00000,  -0.00003,   0.00008,   0.00001,-74512800.00000,   0.00000
-200916131.58287,260188981.88757,5707595.87068,  -0.00145,   0.00166,   0.00009,400220000.00000,   0.00007,274717536.00000,  -0.00003,   0.00008,   0.00001,-74497536.00000,   0.00000
-203986998.56753,257387274.55893,5609719.63213,  -0.00146,   0.00165,   0.00009,400249504.00000,   0.00007,274717536.00000,  -0.00003,   0.00008,   0.00001,-74468032.00000,   0.00000
-207079275.97938,254576391.33293,5517960.65848,  -0.00147,   0.00164,   0.00008,400312224.00000,   0.00007,274717536.00000,  -0.00003,   0.00008,   0.00001,-74405312.00000,   0.00000
-210202139.71578,251734921.78238,5426201.68484,  -0.00148,   0.00164,   0.00008,400394368.00000,   0.00007,274717536.00000,  -0.00003,   0.00008,   0.00001,-74323168.00000,   0.00000
-213325003.45217,248893452.23184,5334442.71119,  -0.00149,   0.00163,   0.00008,400494880.00000,   0.00007,274717536.00000,  -0.00003,   0.00008,   0.00001,-74222656.00000,   0.00000
-216438691.29120,246073393.10847,5242683.73755,  -0.00149,   0.00162,   0.00008,400623584.00000,   0.00007,274717536.00000,  -0.00003,   0.00008,   0.00001,-74093952.00000,   0.00000
-219592141.35214,243201337.23337,5150924.76390,  -0.00150,   0.00161,   0.00008,400756064.00000,   0.00007,274717536.00000,  -0.00003,   0.00008,   0.00001,-73961472.00000,   0.00000
-222757825.94291,240341515.88809,5059165.79026,  -0.00151,   0.00161,   0.00008,400926208.00000,   0.00007,274717536.00000,  -0.00003,   0.00008,   0.00001,-73791328.00000,   0.00000
-225911276.00385,237469460.01300,4967406.81661,  -0.00152,   0.00160,   0.00008,401092704.00000,   0.00007,274717536.00000,  -0.00003,   0.00008,   0.00001,-73624832.00000,   0.00000
-229098371.02180,234600462.77035,4875647.84297,  -0.00153,   0.00159,   0.00008,401309728.00000,   0.00007,274717536.00000,  -0.00003,   0.00008,   0.00001,-73407808.00000,   0.00000
-232303817.83447,231688644.67334,4783888.86932,  -0.00154,   0.00159,   0.00008,401526624.00000,   0.00007,274717536.00000,  -0.00003,   0.00008,   0.00001,-73190912.00000,   0.00000
-235500088.74978,228798237.00352,4692129.89567,  -0.00155,   0.00158,   0.00007,401777920.00000,   0.00007,274717536.00000,  -0.00003,   0.00008,   0.00001,-72939616.00000,   0.00000
-238717770.09228,225898653.43632,4606488.18694,  -0.00156,   0.00157,   0.00007,402065088.00000,   0.00007,274717536.00000,  -0.00003,   0.00008,   0.00001,-72652448.00000,   0.00000
-241944627.33214,222977659.44195,4514729.21329,  -0.00157,   0.00157,   0.00007,402368512.00000,   0.00007,274717536.00000,  -0.00003,   0.00008,   0.00001,-72349024.00000,   0.00000
-245192894.99918,220047489.55021,4422970.23965,  -0.00157,   0.00156,   0.00007,402711104.00000,   0.00007,274717536.00000,  -0.00003,   0.00008,   0.00001,-72006432.00000,   0.00000
-248441162.66622,217117319.65847,4337328.53091,  -0.00158,   0.00155,   0.00007,403082496.00000,   0.00007,274717536.00000,  -0.00003,   0.00008,   0.00001,-71635040.00000,   0.00000
-251698606.23063,214165739.33955,4245569.55727,  -0.00159,   0.00155,   0.00007,403472928.00000,   0.00007,274717536.00000,  -0.00003,   0.00008,   0.00001,-71244608.00000,   0.00000
-254968284.32486,211226393.55044,4159927.84853,  -0.00160,   0.00154,   0.00007,403913280.00000,   0.00007,274717536.00000,  -0.00003,   0.00008,   0.00001,-70804256.00000,   0.00000
-258268548.74364,208256461.43679,4074286.13980,  -0.00161,   0.00153,   0.00007,404383488.00000,   0.00007,274717536.00000,  -0.00003,   0.00008,   0.00001,-70334048.00000,   0.00000
-261568813.16241,205286529.32314,3982527.16615,  -0.00162,   0.00152,   0.00006,404881152.00000,   0.00007,274717536.00000,  -0.00003,   0.00008,   0.00001,-69836384.00000,   0.00000
-264869077.58119,202316597.20948,3896885.45742,  -0.00163,   0.00152,   0.00006,405405312.00000,   0.00007,274717536.00000,  -0.00003,   0.00008,   0.00001,-69312224.00000,   0.00000
-268199928.32451,199316078.77128,3811243.74868,  -0.00164,   0.00151,   0.00006,405957344.00000,   0.00007,274717536.00000,  -0.00003,   0.00008,   0.00001,-68760192.00000,   0.00000
-271521603.17047,196336970.76027,3725602.03994,  -0.00165,   0.00150,   0.00006,406542400.00000,   0.00007,274717536.00000,  -0.00003,   0.00008,   0.00001,-68175136.00000,   0.00000
-274852453.91380,193336452.32207,3639960.33121,  -0.00166,   0.00150,   0.00006,407140736.00000,   0.00007,274717536.00000,  -0.00003,   0.00008,   0.00001,-67576800.00000,   0.00000
-278204715.08430,190326757.98650,3554318.62247,  -0.00167,   0.00149,   0.00006,407772736.00000,   0.00007,274717536.00000,  -0.00003,   0.00008,   0.00001,-66944800.00000,   0.00000
-281556976.25481,187317063.65093,3468676.91374,  -0.00168,   0.00148,   0.00006,408425536.00000,   0.00007,274717536.00000,  -0.00003,   0.00008,   0.00001,-66292000.00000,   0.00000
-284939823.74987,184276782.99082,3383035.20500,  -0.00169,   0.00147,   0.00006,409102688.00000,   0.00007,274717536.00000,  -0.00003,   0.00008,   0.00001,-65614848.00000,   0.00000
-288313495.34756,181257912.75789,3303510.76118,  -0.00169,   0.00147,   0.00006,409809216.00000,   0.00007,274717536.00000,  -0.00003,   0.00008,   0.00001,-64908320.00000,   0.00000
-291717753.26980,178208456.20041,3217869.05244,  -0.00170,   0.00146,   0.00005,410540256.00000,   0.00007,274717536.00000,  -0.00003,   0.00008,   0.00001,-64177280.00000,   0.00000
-295112835.29468,175180410.07012,3132227.34370,  -0.00171,   0.00145,   0.00005,411303232.00000,   0.00007,274717536.00000,  -0.00003,   0.00008,   0.00001,-63414304.00000,   0.00000
-298517093.21692,172130953.51264,3052702.89988,  -0.00172,   0.00145,   0.00005,412105728.00000,   0.00007,274717536.00000,  -0.00003,   0.00008,   0.00001,-62611808.00000,   0.00000
-301930527.03652,169060086.52798,2967061.19114,  -0.00173,   0.00144,   0.00005,412951488.00000,   0.00007,274717536.00000,  -0.00003,   0.00008,   0.00001,-61766048.00000,   0.00000
-305356195.38595,166001454.07313,2881419.48241,  -0.00174,   0.00143,   0.00005,413831040.00000,   0.00007,274717536.00000,  -0.00003,   0.00008,   0.00001,-60886496.00000,   0.00000
-308803274.16255,162933645.72092,2801895.03858,  -0.00175,   0.00142,   0.00005,414746016.00000,   0.00007,274717536.00000,  -0.00003,   0.00008,   0.00001,-59971520.00000,   0.00000
-312238118.40934,159853602.83890,2722370.59476,  -0.00176,   0.00142,   0.00005,415637120.00000,   0.00007,274717536.00000,  -0.00003,   0.00008,   0.00001,-59080416.00000,   0.00000
-315694373.08332,156764384.05951,2636728.88602,  -0.00177,   0.00141,   0.00005,416551040.00000,   0.00007,274717536.00000,  -0.00003,   0.00008,   0.00001,-58166496.00000,   0.00000
-319162862.28711,153687399.80993,2557204.44219,  -0.00178,   0.00140,   0.00005,417505792.00000,   0.00007,274717536.00000,  -0.00003,   0.00008,   0.00001,-57211744.00000,   0.00000
-322619116.96108,150598181.03054,2477679.99837,  -0.00179,   0.00139,   0.00005,418463776.00000,   0.00007,274717536.00000,  -0.00003,   0.00008,   0.00001,-56253760.00000,   0.00000
-326105957.95960,147478375.92660,2398155.55454,  -0.00180,   0.00139,   0.00004,419454240.00000,   0.00007,274717536.00000,  -0.00003,   0.00008,   0.00001,-55263296.00000,   0.00000
-329583623.06076,144379981.24985,2318631.11072,  -0.00181,   0.00138,   0.00004,420480160.00000,   0.00007,274717536.00000,  -0.00003,   0.00008,   0.00001,-54237376.00000,   0.00000
-333082698.58910,141272410.67573,2239106.66689,  -0.00182,   0.00137,   0.00004,421549184.00000,   0.00007,274717536.00000,  -0.00003,   0.00008,   0.00001,-53168352.00000,   0.00000
-336590950.01480,138143429.67442,2159582.22306,  -0.00183,   0.00136,   0.00004,422641920.00000,   0.00007,274717536.00000,  -0.00003,   0.00008,   0.00001,-52075616.00000,   0.00000
-340099201.44051,135014448.67312,2080057.77924,  -0.00184,   0.00136,   0.00004,423764800.00000,   0.00007,274717536.00000,  -0.00003,   0.00008,   0.00001,-50952736.00000,   0.00000
-343598276.96885,131906878.09900,2000533.33541,  -0.00185,   0.00135,   0.00004,424923424.00000,   0.00007,274717536.00000,  -0.00003,   0.00008,   0.00001,-49794112.00000,   0.00000
-347127938.82174,128768721.20033,1921008.89159,  -0.00186,   0.00134,   0.00004,426117888.00000,   0.00007,274717536.00000,  -0.00003,   0.00008,   0.00001,-48599648.00000,   0.00000
-350657600.67463,125630564.30166,1841484.44776,  -0.00187,   0.00134,   0.00004,427339744.00000,   0.00007,274717536.00000,  -0.00003,   0.00008,   0.00001,-47377792.00000,   0.00000
-354187262.52752,122492407.40299,1761960.00393,  -0.00188,   0.00133,   0.00004,428587840.00000,   0.00007,274717536.00000,  -0.00003,   0.00008,   0.00001,-46129696.00000,   0.00000
-357747510.70495,119323664.17977,1688552.82502,  -0.00189,   0.00132,   0.00004,429870400.00000,   0.00007,274717536.00000,  -0.00003,   0.00008,   0.00001,-44847136.00000,   0.00000
-361298582.98503,116176331.38374,1609028.38119,  -0.00190,   0.00131,   0.00003,431182496.00000,   0.00007,274717536.00000,  -0.00003,   0.00008,   0.00001,-43535040.00000,   0.00000
-364849655.26510,113028998.58770,1535621.20228,  -0.00191,   0.00131,   0.00003,432515776.00000,   0.00007,274717536.00000,  -0.00003,   0.00008,   0.00001,-42201760.00000,   0.00000
-368409903.44254,109860255.36449,1456096.75845,  -0.00192,   0.00130,   0.00003,433861536.00000,   0.00007,274717536.00000,  -0.00003,   0.00008,   0.00001,-40856000.00000,   0.00000
-371991562.04716,106682336.24390,1382689.57953,  -0.00193,   0.00129,   0.00003,435237696.00000,   0.00007,274717536.00000,  -0.00003,   0.00008,   0.00001,-39479840.00000,   0.00000
-375542634.32723,103535003.44787,1303165.13571,  -0.00194,   0.00128,   0.00003,436618272.00000,   0.00007,274717536.00000,  -0.00003,   0.00008,   0.00001,-38099264.00000,   0.00000
-379124292.93185,100357084.32729,1229757.95679,  -0.00195,   0.00128,   0.00003,438022272.00000,   0.00007,274717536.00000,  -0.00003,   0.00008,   0.00001,-36695264.00000,   0.00000
-382705951.53647,97179165.20671,1156350.77788,  -0.00196,   0.00127,   0.00003,439441024.00000,   0.00007,274717536.00000,  -0.00003,   0.00008,   0.00001,-35276512.00000,   0.00000
-386309020.56828,93992070.18876,1076826.33405,  -0.00197,   0.00126,   0.00003,440890912.00000,   0.00007,274717536.00000,  -0.00003,   0.00008,   0.00001,-33826624.00000,   0.00000
-389890679.17290,90814151.06818,1003419.15513,  -0.00198,   0.00125,   0.00003,442343840.00000,   0.00007,274717536.00000,  -0.00003,   0.00008,   0.00001,-32373696.00000,   0.00000
-393502924.10207,87605645.62305,930011.97622,  -0.00199,   0.00125,   0.00003,443826560.00000,   0.00007,274717536.00000,  -0.00003,   0.00008,   0.00001,-30890976.00000,   0.00000
-397105993.13387,84418550.60510,856604.79730,  -0.00200,   0.00124,   0.00002,445335264.00000,   0.00007,274717536.00000,  -0.00003,   0.00008,   0.00001,-29382272.00000,   0.00000
-400709062.16568,81231455.58716,783197.61838,  -0.00201,   0.00123,   0.00002,446866336.00000,   0.00007,274717536.00000,  -0.00003,   0.00008,   0.00001,-27851200.00000,   0.00000
-404342717.52203,78013774.24466,709790.43947,  -0.00202,   0.00122,   0.00002,448431328.00000,   0.00007,274717536.00000,  -0.00003,   0.00008,   0.00001,-26286208.00000,   0.00000
-407945786.55384,74826679.22671,636383.26055,  -0.00203,   0.00122,   0.00002,450008864.00000,   0.00007,274717536.00000,  -0.00003,   0.00008,   0.00001,-24708672.00000,   0.00000
-411579441.91019,71608997.88422,562976.08164,  -0.00204,   0.00121,   0.00002,451621216.00000,   0.00007,274717536.00000,  -0.00003,   0.00008,   0.00001,-23096320.00000,   0.00000
-415191686.83936,68400492.43909,489568.90272,  -0.00205,   0.00120,   0.00002,453241440.00000,   0.00007,274717536.00000,  -0.00003,   0.00008,   0.00001,-21476096.00000,   0.00000
-418816166.29835,65204221.52378,416161.72380,  -0.00206,   0.00119,   0.00002,454907136.00000,   0.00007,274717536.00000,  -0.00003,   0.00008,   0.00001,-19810400.00000,   0.00000
-422449821.65470,61986540.18128,348871.80980,  -0.00207,   0.00119,   0.00002,456602240.00000,   0.00007,274717536.00000,  -0.00003,   0.00008,   0.00001,-18115296.00000,   0.00000
-426104887.43824,58759682.94142,275464.63088,  -0.00208,   0.00118,   0.00002,458355008.00000,   0.00007,274717536.00000,  -0.00003,   0.00008,   0.00001,-16362528.00000,   0.00000
-429738542.79460,55542001.59893,202057.45196,  -0.00209,   0.00117,   0.00002,460120064.00000,   0.00007,274717536.00000,  -0.00003,   0.00008,   0.00001,-14597472.00000,   0.00000
-433372198.15095,52324320.25643,134767.53796,  -0.00210,   0.00116,   0.00001,461841696.00000,   0.00007,274717536.00000,  -0.00003,   0.00008,   0.00001,-12875840.00000,   0.00000
-437027263.93449,49097463.01657,61360.35904,  -0.00211,   0.00116,   0.00001,463643200.00000,   0.00007,274717536.00000,  -0.00003,   0.00008,   0.00001,-11074336.00000,   0.00000
-440660919.29084,45879781.67408,-12046.81987,  -0.00212,   0.00115,   0.00001,465514144.00000,   0.00007,274717536.00000,  -0.00003,   0.00008,   0.00001,-9203392.00000,   0.00000
-444315985.07438,42652924.43422,-79336.73388,  -0.00213,   0.00114,   0.00001,467343648.00000,   0.00007,274717536.00000,  -0.00003,   0.00008,   0.00001,-7373888.00000,   0.00000
-447971050.85792,39426067.19436,-146626.64789,  -0.00214,   0.00113,   0.00001,469184544.00000,   0.00007,274717536.00000,  -0.00003,   0.00008,   0.00001,-5532992.00000,   0.00000
-451613882.11163,36186975.42468,-220033.82680,  -0.00215,   0.00113,   0.00001,471025248.00000,   0.00007,274717536.00000,  -0.00003,   0.00008,   0.00001,-3692288.00000,   0.00000
-455268947.89517,32960118.18482,-287323.74081,  -0.00217,   0.00112,   0.00001,472895712.00000,   0.00007,274717536.00000,  -0.00003,   0.00008,   0.00001,-1821824.00000,   0.00000
-458813362.27315,29830949.00593,-358508.63208,  -0.00218,   0.00111,   0.00001,474717792.00000,   0.00007,274717536.00000,  -0.00003,   0.00008,   0.00001, 256.00000,   0.00000
-458871442.14790,29724952.91787,-360716.51752,  -0.00218,   0.00111,   0.00001,474717792.00000,   0.00007,274717792.00000,  -0.00003,   0.00008,   0.00001,-224.00000,   1.00000
-460799296.96940,26215531.74480,-427314.35349,  -0.00219,   0.00110,   0.00001,476604320.00000,   0.00008,274726368.00000,  -0.00004,   0.00008,   0.00001, 160.00000,   2.00000
-462690618.72614,22737448.49407,-493713.51156,  -0.00220,   0.00110,   0.00001,476635840.00000,   0.00009,274735040.00000,  -0.00005,   0.00009,   0.00001,  96.00000,   2.00000
-464567066.64792,19249261.23218,-559734.45800,  -0.00221,   0.00109,   0.00001,476663424.00000,   0.00009,274743776.00000,  -0.00006,   0.00009,   0.00001,  32.00000,   2.00000
-466405462.60147,15793539.55203,-625233.66561,  -0.00222,   0.00108,   0.00000,476696544.00000,   0.00010,274752608.00000,  -0.00006,   0.00010,   0.00001, 128.00000,   2.00000
-468227821.96981,12328213.40000,-690116.65881,  -0.00223,   0.00107,   0.00000,476725376.00000,   0.00011,274761472.00000,  -0.00007,   0.00010,   0.00001,  96.00000,   2.00000
-470012410.05721,8895591.92733,-754337.88780,  -0.00224,   0.00106,   0.00000,476757536.00000,   0.00012,274770464.00000,  -0.00008,   0.00011,   0.00001, 160.00000,   2.00000
-471787354.52860,5442485.66195,-817878.34751,  -0.00225,   0.00106,   0.00000,476801728.00000,   0.00013,274779584.00000,  -0.00009,   0.00011,   0.00001, 128.00000,   2.00000
-473531198.35398,2011498.39831,-880834.24396,  -0.00226,   0.00105,   0.00000,476813440.00000,   0.00013,274788672.00000,  -0.00010,   0.00012,   0.00001,   0.00000,   2.00000
-475240187.77184,-1387053.72931,-943258.16032,  -0.00227,   0.00104,   0.00000,476841888.00000,   0.00014,274797856.00000,  -0.00011,   0.00012,   0.00001,  32.00000,   2.00000
-476936113.76433,-4795722.51493,-1005253.86012,  -0.00228,   0.00103,  -0.00000,476866304.00000,   0.00015,274807104.00000,  -0.00012,   0.00013,   0.00001,  32.00000,   2.00000
-478608929.54456,-8193156.39138,-1066924.79643,  -0.00229,   0.00103,  -0.00000,476891488.00000,   0.00016,274816416.00000,  -0.00013,   0.00013,   0.00001, 128.00000,   2.00000
-480258894.41693,-11579146.32176,-1128374.23558,  -0.00230,   0.00102,  -0.00000,476916064.00000,   0.00017,274825792.00000,  -0.00014,   0.00014,   0.00001,  64.00000,   2.00000
-481870926.66013,-14921909.98325,-1189728.97842,  -0.00231,   0.00101,  -0.00000,476924320.00000,   0.00018,274835136.00000,  -0.00015,   0.00014,   0.00001,  64.00000,   2.00000
-483475353.31262,-18283949.53713,-1244881.96787,  -0.00232,   0.00100,  -0.00000,476964448.00000,   0.00019,274844608.00000,  -0.00016,   0.00014,   0.00001, 224.00000,   2.00000
-485056250.44374,-21633197.36639,-1306116.70363,  -0.00233,   0.00100,  -0.00000,476989312.00000,   0.00019,274854176.00000,  -0.00017,   0.00015,   0.00001, 128.00000,   2.00000
-486613278.54328,-24969092.59639,-1367323.38298,  -0.00234,   0.00099,  -0.00001,477014464.00000,   0.00020,274863776.00000,  -0.00018,   0.00015,   0.00001, 128.00000,   2.00000
-488141554.50325,-28281390.45895,-1422440.35358,  -0.00235,   0.00098,  -0.00001,477022944.00000,   0.00021,274873344.00000,  -0.00019,   0.00016,   0.00001,  64.00000,   2.00000
-489649840.01485,-31589163.80732,-1483533.56139,  -0.00236,   0.00097,  -0.00001,477066432.00000,   0.00022,274883072.00000,  -0.00020,   0.00016,   0.00001, 128.00000,   2.00000
-491129087.40736,-34872851.36048,-1538431.36408,  -0.00237,   0.00097,  -0.00001,477075776.00000,   0.00023,274892800.00000,  -0.00021,   0.00017,   0.00001,  32.00000,   2.00000
-492583920.38695,-38141925.01589,-1599214.42092,  -0.00238,   0.00096,  -0.00001,477102528.00000,   0.00024,274902560.00000,  -0.00022,   0.00017,   0.00001,  96.00000,   2.00000
-494018521.95341,-41405583.29291,-1653539.88706,  -0.00239,   0.00095,  -0.00001,477146848.00000,   0.00025,274912480.00000,  -0.00023,   0.00018,   0.00001,  96.00000,   2.00000
-495425050.10263,-44645286.47813,-1713637.59830,  -0.00240,   0.00094,  -0.00001,477156192.00000,   0.00026,274922336.00000,  -0.00024,   0.00018,   0.00001,  96.00000,   2.00000
-496804269.97411,-47861343.60397,-1767228.19865,  -0.00241,   0.00094,  -0.00001,477165184.00000,   0.00027,274932224.00000,  -0.00025,   0.00018,   0.00001, -64.00000,   2.00000
-498164423.70307,-51071863.90095,-1820238.01000,  -0.00242,   0.00093,  -0.00001,477208672.00000,   0.00028,274942208.00000,  -0.00026,   0.00019,   0.00001, -32.00000,   2.00000
-499501669.12972,-54267703.96705,-1878758.57949,  -0.00243,   0.00092,  -0.00001,477234816.00000,   0.00028,274952256.00000,  -0.00027,   0.00019,   0.00001,  32.00000,   2.00000
-500812708.59260,-57440006.43333,-1930615.80836,  -0.00244,   0.00091,  -0.00001,477242880.00000,   0.00029,274962304.00000,  -0.00028,   0.00020,   0.00001,   0.00000,   2.00000
-502101242.29516,-60597385.97087,-1981841.93901,  -0.00245,   0.00090,  -0.00001,477268352.00000,   0.00030,274972352.00000,  -0.00029,   0.00020,   0.00001,  96.00000,   2.00000
-503367068.10244,-63739584.37351,-2038528.66952,  -0.00246,   0.00090,  -0.00002,477293728.00000,   0.00031,274982496.00000,  -0.00030,   0.00021,   0.00001,  64.00000,   2.00000
-504610442.65553,-66866428.49930,-2088500.69755,  -0.00247,   0.00089,  -0.00002,477318592.00000,   0.00032,274992672.00000,  -0.00031,   0.00021,   0.00001,  96.00000,   2.00000
-505831270.75036,-69977860.28166,-2137932.65838,  -0.00248,   0.00088,  -0.00002,477343200.00000,   0.00033,275002912.00000,  -0.00032,   0.00021,   0.00001,   0.00000,   2.00000
-507027062.16515,-73065861.77161,-2187002.54683,  -0.00249,   0.00087,  -0.00002,477349280.00000,   0.00034,275013120.00000,  -0.00033,   0.00022,   0.00001,  64.00000,   2.00000
-508204786.38935,-76147043.33772,-2235650.96984,  -0.00250,   0.00087,  -0.00002,477390016.00000,   0.00035,275023424.00000,  -0.00034,   0.00022,   0.00001,  64.00000,   2.00000
-509359012.05789,-79205649.06320,-2284199.20166,  -0.00251,   0.00086,  -0.00002,477394432.00000,   0.00036,275033728.00000,  -0.00035,   0.00023,   0.00001,  64.00000,   2.00000
-510490992.82090,-82242350.02301,-2332802.48358,  -0.00252,   0.00085,  -0.00002,477397760.00000,   0.00037,275044000.00000,  -0.00036,   0.00023,   0.00001,  64.00000,   2.00000
-511607657.67079,-85273309.61830,-2381438.27313,  -0.00253,   0.00084,  -0.00002,477436000.00000,   0.00038,275054368.00000,  -0.00037,   0.00023,   0.00001, 128.00000,   2.00000
-512703933.07665,-88283386.04703,-2430423.38083,  -0.00254,   0.00084,  -0.00002,477438080.00000,   0.00039,275064704.00000,  -0.00038,   0.00024,   0.00001,  32.00000,   2.00000
-513783702.19552,-91280723.20147,-2479782.62428,  -0.00255,   0.00083,  -0.00002,477457408.00000,   0.00040,275075072.00000,  -0.00040,   0.00024,   0.00001, -64.00000,   2.00000
-514847607.22274,-94265556.17404,-2529587.59096,  -0.00256,   0.00082,  -0.00002,477476544.00000,   0.00041,275085440.00000,  -0.00041,   0.00025,   0.00001,  64.00000,   2.00000
-515900790.87843,-97251713.87474,-2573841.76581,  -0.00257,   0.00081,  -0.00002,477479680.00000,   0.00042,275095808.00000,  -0.00042,   0.00025,   0.00001,   0.00000,   2.00000
-516933610.18702,-100211381.48930,-2624565.85115,  -0.00258,   0.00081,  -0.00002,477515392.00000,   0.00043,275106272.00000,  -0.00043,   0.00025,   0.00001,  32.00000,   2.00000
-517948296.96006,-103150739.00106,-2675679.69675,  -0.00259,   0.00080,  -0.00003,477517600.00000,   0.00043,275116672.00000,  -0.00044,   0.00026,   0.00001,  64.00000,   2.00000
-518944212.86931,-106069239.84207,-2727022.03589,  -0.00260,   0.00079,  -0.00003,477520704.00000,   0.00044,275127040.00000,  -0.00045,   0.00026,   0.00001,  64.00000,   2.00000
-519923173.93260,-108973155.45907,-2772236.83919,  -0.00261,   0.00078,  -0.00003,477542560.00000,   0.00045,275137408.00000,  -0.00046,   0.00026,   0.00001, 128.00000,   2.00000
-520883660.28335,-111861319.26054,-2823288.69461,  -0.00262,   0.00077,  -0.00003,477565760.00000,   0.00046,275147840.00000,  -0.00047,   0.00027,   0.00001, -96.00000,   2.00000
-521824903.28370,-114732621.55881,-2873811.43586,  -0.00263,   0.00077,  -0.00003,477590080.00000,   0.00047,275158272.00000,  -0.00048,   0.00027,   0.00001,  96.00000,   2.00000
-522743347.14828,-117579300.43244,-2917564.31601,  -0.00264,   0.00076,  -0.00003,477597472.00000,   0.00048,275168704.00000,  -0.00049,   0.00028,   0.00001, -32.00000,   2.00000
-523640510.45042,-120407217.06913,-2966439.54517,  -0.00265,   0.00075,  -0.00003,477623680.00000,   0.00049,275179136.00000,  -0.00051,   0.00028,   0.00001,  96.00000,   2.00000
-524515434.12884,-123215547.34609,-3008053.99028,  -0.00266,   0.00074,  -0.00003,477650464.00000,   0.00050,275189632.00000,  -0.00052,   0.00028,   0.00001,  32.00000,   2.00000
-525365767.46823,-125997429.26868,-3054577.76847,  -0.00267,   0.00074,  -0.00003,477659488.00000,   0.00051,275200096.00000,  -0.00053,   0.00029,   0.00001, -32.00000,   2.00000
-526193492.15866,-128758886.27438,-3093642.73590,  -0.00268,   0.00073,  -0.00003,477686656.00000,   0.00052,275210592.00000,  -0.00054,   0.00029,   0.00001,  96.00000,   2.00000
-526996513.07459,-131493714.61947,-3137569.39751,  -0.00269,   0.00072,  -0.00003,477695584.00000,   0.00053,275221056.00000,  -0.00055,   0.00029,   0.00001,  32.00000,   2.00000
-527777559.97725,-134208318.94276,-3174113.90481,  -0.00270,   0.00071,  -0.00003,477721792.00000,   0.00054,275231520.00000,  -0.00056,   0.00030,   0.00001,  32.00000,   2.00000
-528537019.84270,-136903251.39730,-3209523.69762,  -0.00271,   0.00071,  -0.00003,477747424.00000,   0.00055,275242080.00000,  -0.00057,   0.00030,   0.00001,  96.00000,   2.00000
-529274564.39934,-139574009.33986,-3250208.41020,  -0.00272,   0.00070,  -0.00004,477753472.00000,   0.00056,275252544.00000,  -0.00059,   0.00030,   0.00001,  64.00000,   2.00000
-529999078.31234,-142248522.07546,-3283985.29657,  -0.00273,   0.00069,  -0.00004,477779200.00000,   0.00057,275263104.00000,  -0.00060,   0.00030,   0.00001, -64.00000,   2.00000
-530699991.76272,-144881753.60195,-3317366.72953,  -0.00274,   0.00068,  -0.00004,477777984.00000,   0.00058,275273568.00000,  -0.00061,   0.00031,   0.00001,  64.00000,   2.00000
-531386357.81674,-147501591.26069,-3350283.67176,  -0.00275,   0.00068,  -0.00004,477796288.00000,   0.00059,275284064.00000,  -0.00062,   0.00031,   0.00001,  96.00000,   2.00000
-532058034.45351,-150103680.26153,-3389059.88503,  -0.00276,   0.00067,  -0.00004,477794816.00000,   0.00060,275294528.00000,  -0.00063,   0.00031,   0.00001,  96.00000,   2.00000
-532717880.66911,-152693477.32528,-3421418.71602,  -0.00277,   0.00066,  -0.00004,477810400.00000,   0.00061,275304992.00000,  -0.00064,   0.00032,   0.00001,  32.00000,   2.00000
-533365661.19200,-155269959.07502,-3453594.56636,  -0.00278,   0.00065,  -0.00004,477826816.00000,   0.00062,275315488.00000,  -0.00065,   0.00032,   0.00000,  96.00000,   2.00000
-533999045.85216,-157826573.84202,-3485918.50113,  -0.00279,   0.00064,  -0.00004,477826592.00000,   0.00063,275325888.00000,  -0.00067,   0.00032,   0.00000, 128.00000,   2.00000
-534618054.55541,-160366901.04136,-3518400.75091,  -0.00280,   0.00064,  -0.00004,477846624.00000,   0.00064,275336320.00000,  -0.00068,   0.00032,   0.00000, 128.00000,   2.00000
-535220140.06402,-162885080.79574,-3551350.40145,  -0.00281,   0.00063,  -0.00004,477850016.00000,   0.00065,275346720.00000,  -0.00069,   0.00033,   0.00000,  32.00000,   2.00000
-535804834.31450,-165380904.88313,-3584849.21234,  -0.00281,   0.00062,  -0.00004,477854432.00000,   0.00066,275357056.00000,  -0.00070,   0.00033,   0.00000,  64.00000,   2.00000
-536372938.75147,-167859080.62883,-3618753.66643,  -0.00282,   0.00061,  -0.00004,477877536.00000,   0.00067,275367392.00000,  -0.00071,   0.00033,   0.00000,  96.00000,   2.00000
-536924629.14209,-170319882.46850,-3653019.29663,  -0.00283,   0.00061,  -0.00004,477900384.00000,   0.00067,275377792.00000,  -0.00072,   0.00033,   0.00000,  32.00000,   2.00000
-537459373.49682,-172759422.28737,-3687701.57214,  -0.00284,   0.00060,  -0.00004,477903776.00000,   0.00068,275388128.00000,  -0.00073,   0.00034,   0.00000,  32.00000,   2.00000
-537978774.07164,-175182546.17393,-3722531.56409,  -0.00285,   0.00059,  -0.00005,477925056.00000,   0.00069,275398464.00000,  -0.00075,   0.00034,   0.00000, -32.00000,   2.00000
-538481480.71641,-177581350.79408,-3757666.02307,  -0.00286,   0.00058,  -0.00005,477908256.00000,   0.00070,275408704.00000,  -0.00076,   0.00034,   0.00000, -32.00000,   2.00000
-538970728.48112,-179968549.94558,-3792538.42537,  -0.00287,   0.00058,  -0.00005,477946240.00000,   0.00071,275419008.00000,  -0.00077,   0.00034,   0.00000,  96.00000,   2.00000
-539445435.56332,-182336286.09459,-3821241.54741,  -0.00288,   0.00057,  -0.00005,477946368.00000,   0.00072,275429280.00000,  -0.00078,   0.00035,   0.00000,  96.00000,   2.00000
-539905150.45618,-184684593.71003,-3855869.38842,  -0.00289,   0.00056,  -0.00005,477946240.00000,   0.00073,275439488.00000,  -0.00079,   0.00035,   0.00000,   0.00000,   2.00000
-540351902.01651,-187017632.76180,-3890084.45749,  -0.00290,   0.00055,  -0.00005,477963808.00000,   0.00074,275449728.00000,  -0.00080,   0.00035,   0.00000,  64.00000,   2.00000
-540784525.21249,-189331517.04081,-3917899.28733,  -0.00290,   0.00055,  -0.00005,477962848.00000,   0.00075,275459904.00000,  -0.00081,   0.00035,   0.00000, -32.00000,   2.00000
-541203592.64968,-191626437.30248,-3951490.84572,  -0.00291,   0.00054,  -0.00005,477961632.00000,   0.00076,275470016.00000,  -0.00082,   0.00035,   0.00000, 160.00000,   2.00000
-541609594.26792,-193905839.23749,-3984575.33725,  -0.00292,   0.00053,  -0.00005,477979008.00000,   0.00077,275480160.00000,  -0.00084,   0.00036,   0.00000, -32.00000,   2.00000
-542002717.11758,-196166464.83812,-4011251.02284,  -0.00293,   0.00052,  -0.00005,477977536.00000,   0.00078,275490208.00000,  -0.00085,   0.00036,   0.00000, 160.00000,   2.00000
-542382952.46555,-198411480.98349,-4043576.49884,  -0.00294,   0.00052,  -0.00005,477994944.00000,   0.00079,275500320.00000,  -0.00086,   0.00036,   0.00000, 128.00000,   2.00000
-542750582.52488,-200637905.36004,-4069564.89451,  -0.00295,   0.00051,  -0.00005,477993792.00000,   0.00080,275510336.00000,  -0.00087,   0.00036,  -0.00000, 224.00000,   2.00000
-543105195.64484,-202845780.44540,-4101459.87003,  -0.00296,   0.00050,  -0.00005,477993024.00000,   0.00081,275520288.00000,  -0.00088,   0.00036,  -0.00000,  96.00000,   2.00000
-543448231.06332,-205038538.25096,-4126937.84015,  -0.00296,   0.00049,  -0.00005,478010368.00000,   0.00082,275530272.00000,  -0.00089,   0.00037,  -0.00000, 128.00000,   2.00000
-543778915.42929,-207213274.75443,-4158413.84089,  -0.00297,   0.00048,  -0.00006,478009728.00000,   0.00082,275540192.00000,  -0.00090,   0.00037,  -0.00000, 128.00000,   2.00000
-544098380.44959,-209373215.55621,-4183546.22699,  -0.00298,   0.00048,  -0.00006,478027424.00000,   0.00083,275550144.00000,  -0.00091,   0.00037,  -0.00000,  32.00000,   2.00000
-544405761.61739,-211513111.27432,-4208832.88257,  -0.00299,   0.00047,  -0.00006,478008384.00000,   0.00084,275559936.00000,  -0.00092,   0.00037,  -0.00000,  64.00000,   2.00000
-544701953.41181,-213638608.42029,-4240008.47714,  -0.00300,   0.00046,  -0.00006,478026304.00000,   0.00085,275569760.00000,  -0.00094,   0.00037,  -0.00000,  64.00000,   2.00000
-544987607.58798,-215750014.95624,-4264875.38513,  -0.00301,   0.00045,  -0.00006,478043808.00000,   0.00086,275579584.00000,  -0.00095,   0.00037,  -0.00000,   0.00000,   2.00000
-545262099.67136,-217842655.53994,-4289900.53255,  -0.00301,   0.00045,  -0.00006,478024352.00000,   0.00087,275589248.00000,  -0.00096,   0.00037,  -0.00000,  32.00000,   2.00000
-545526104.31291,-219921592.15508,-4314694.17340,  -0.00302,   0.00044,  -0.00006,478041824.00000,   0.00088,275598976.00000,  -0.00097,   0.00038,  -0.00000,-128.00000,   2.00000
-545780336.76396,-221987131.16383,-4339227.70357,  -0.00303,   0.00043,  -0.00006,478058880.00000,   0.00089,275608672.00000,  -0.00098,   0.00038,  -0.00000,  32.00000,   2.00000
-546023930.34065,-224034930.58957,-4363825.20242,  -0.00304,   0.00042,  -0.00006,478039072.00000,   0.00090,275618240.00000,  -0.00099,   0.00038,  -0.00000,  64.00000,   2.00000
-546257801.63991,-226069605.66152,-4388071.29609,  -0.00305,   0.00042,  -0.00006,478055712.00000,   0.00091,275627840.00000,  -0.00100,   0.00038,  -0.00000,  64.00000,   2.00000
-546483862.35153,-228108112.92333,-4412036.05065,  -0.00305,   0.00041,  -0.00006,478060000.00000,   0.00091,275637376.00000,  -0.00101,   0.00038,  -0.00000, 128.00000,   2.00000
-546698063.72582,-230112709.32987,-4435795.73912,  -0.00306,   0.00040,  -0.00006,478051520.00000,   0.00092,275646848.00000,  -0.00102,   0.00038,  -0.00000,   0.00000,   2.00000
-546903038.55804,-232104456.12045,-4459043.08505,  -0.00307,   0.00039,  -0.00006,478067520.00000,   0.00093,275656320.00000,  -0.00103,   0.00038,  -0.00001,  32.00000,   2.00000
-547098353.75073,-234079767.67321,-4482121.57591,  -0.00308,   0.00039,  -0.00006,478046336.00000,   0.00094,275665664.00000,  -0.00104,   0.00038,  -0.00001, 160.00000,   2.00000
-547284635.81893,-236042306.40312,-4504596.76961,  -0.00308,   0.00038,  -0.00006,478062016.00000,   0.00095,275675008.00000,  -0.00105,   0.00038,  -0.00001,  64.00000,   2.00000
-547463475.54560,-238010590.79746,-4526362.94383,  -0.00309,   0.00037,  -0.00006,478084192.00000,   0.00096,275684384.00000,  -0.00106,   0.00039,  -0.00001, 192.00000,   2.00000
-547631188.00882,-239944116.90705,-4547992.22037,  -0.00310,   0.00036,  -0.00007,478056160.00000,   0.00097,275693600.00000,  -0.00107,   0.00039,  -0.00001,   0.00000,   2.00000
-547790694.67829,-241865104.02046,-4562965.48546,  -0.00311,   0.00035,  -0.00007,478071104.00000,   0.00097,275702816.00000,  -0.00109,   0.00039,  -0.00001, 224.00000,   2.00000
-547940923.57703,-243770566.08429,-4584017.99746,  -0.00311,   0.00035,  -0.00007,478049632.00000,   0.00098,275711936.00000,  -0.00110,   0.00039,  -0.00001,   0.00000,   2.00000
-548084240.75360,-245682209.30913,-4604713.02732,  -0.00312,   0.00034,  -0.00007,478071648.00000,   0.00099,275721056.00000,  -0.00111,   0.00039,  -0.00001,  32.00000,   2.00000
-548218626.04260,-247563652.78242,-4619430.88982,  -0.00313,   0.00033,  -0.00007,478079808.00000,   0.00100,275730144.00000,  -0.00112,   0.00039,  -0.00001,  96.00000,   2.00000
-548346275.88726,-249449892.90373,-4641046.17389,  -0.00313,   0.00032,  -0.00007,478064960.00000,   0.00101,275739168.00000,  -0.00113,   0.00039,  -0.00001,  64.00000,   2.00000
-548465902.28230,-251306531.89521,-4663819.44178,  -0.00314,   0.00032,  -0.00007,478054304.00000,   0.00102,275748064.00000,  -0.00114,   0.00039,  -0.00001,  64.00000,   2.00000
-548579407.64520,-253153905.53371,-4681759.91188,  -0.00315,   0.00031,  -0.00007,478068640.00000,   0.00102,275756992.00000,  -0.00115,   0.00039,  -0.00001, -32.00000,   2.00000
-548687817.39616,-255009680.88027,-4701358.21247,  -0.00316,   0.00030,  -0.00007,478071424.00000,   0.00103,275765856.00000,  -0.00116,   0.00039,  -0.00001, -64.00000,   2.00000
-548789097.24235,-256837445.80634,-4728752.80677,  -0.00316,   0.00029,  -0.00007,478059840.00000,   0.00104,275774624.00000,  -0.00117,   0.00039,  -0.00001,  64.00000,   2.00000
-548884766.81719,-258672852.13829,-4751188.50386,  -0.00317,   0.00029,  -0.00007,478062336.00000,   0.00105,275783392.00000,  -0.00118,   0.00039,  -0.00001,  32.00000,   2.00000
-548972965.53174,-260496267.49293,-4774164.92873,  -0.00318,   0.00028,  -0.00007,478057984.00000,   0.00106,275792064.00000,  -0.00119,   0.00039,  -0.00001,   0.00000,   2.00000
-549051818.94473,-262288008.38898,-4803069.29789,  -0.00318,   0.00027,  -0.00007,478046784.00000,   0.00107,275800640.00000,  -0.00120,   0.00039,  -0.00001,   0.00000,   2.00000
-549122286.84982,-264083363.11603,-4824799.58956,  -0.00319,   0.00026,  -0.00007,478068928.00000,   0.00107,275809280.00000,  -0.00121,   0.00039,  -0.00001,  64.00000,   2.00000
-549182911.07087,-265862066.18368,-4845500.07746,  -0.00320,   0.00025,  -0.00007,478047392.00000,   0.00108,275817792.00000,  -0.00122,   0.00039,  -0.00001,  96.00000,   2.00000
-549232992.46921,-267606997.21296,-4864810.65904,  -0.00320,   0.00025,  -0.00007,478055392.00000,   0.00109,275826272.00000,  -0.00123,   0.00039,  -0.00001,  32.00000,   2.00000
-549273609.79898,-269353355.05545,-4882847.32421,  -0.00321,   0.00024,  -0.00007,478060288.00000,   0.00110,275834720.00000,  -0.00123,   0.00039,  -0.00001,   0.00000,   2.00000
-549304495.67502,-271083508.21068,-4900112.47537,  -0.00321,   0.00023,  -0.00008,478039072.00000,   0.00110,275843040.00000,  -0.00124,   0.00039,  -0.00001,  32.00000,   2.00000
-549326024.66910,-272798421.56764,-4916447.55748,  -0.00322,   0.00022,  -0.00008,478054944.00000,   0.00111,275851360.00000,  -0.00125,   0.00039,  -0.00001,   0.00000,   2.00000
-549338729.96764,-274498590.84429,-4932311.54824,  -0.00323,   0.00022,  -0.00008,478052064.00000,   0.00112,275859616.00000,  -0.00126,   0.00039,  -0.00001, 224.00000,   2.00000
-549342446.13738,-276184403.61665,-4947913.58995,  -0.00323,   0.00021,  -0.00008,478049312.00000,   0.00113,275867840.00000,  -0.00127,   0.00039,  -0.00001,   0.00000,   2.00000
-549338093.97114,-277856716.71118,-4963434.66635,  -0.00324,   0.00020,  -0.00008,478046048.00000,   0.00113,275875968.00000,  -0.00128,   0.00039,  -0.00001,  96.00000,   2.00000
-549325664.45652,-279516005.76072,-4972920.43924,  -0.00324,   0.00019,  -0.00008,478042624.00000,   0.00114,275884064.00000,  -0.00129,   0.00039,  -0.00001,  32.00000,   2.00000
-549305539.41254,-281162639.69146,-4988443.52039,  -0.00325,   0.00019,  -0.00008,478057440.00000,   0.00115,275892160.00000,  -0.00130,   0.00039,  -0.00001,  64.00000,   2.00000
-549277233.55065,-282814924.54521,-5004317.87325,  -0.00326,   0.00018,  -0.00008,478043040.00000,   0.00116,275900160.00000,  -0.00131,   0.00039,  -0.00001,-128.00000,   2.00000
-549242737.46117,-284439644.70800,-5014488.90300,  -0.00326,   0.00017,  -0.00008,478029632.00000,   0.00116,275908064.00000,  -0.00132,   0.00039,  -0.00001,  64.00000,   2.00000
-549201164.56286,-286054551.13582,-5031075.29049,  -0.00327,   0.00016,  -0.00008,478024032.00000,   0.00117,275915904.00000,  -0.00133,   0.00039,  -0.00001,   0.00000,   2.00000
-549153215.30997,-287678019.91953,-5041786.82449,  -0.00327,   0.00015,  -0.00008,478025280.00000,   0.00118,275923712.00000,  -0.00134,   0.00039,  -0.00002,  32.00000,   2.00000
-549100349.75253,-289276561.03500,-5058792.55931,  -0.00328,   0.00015,  -0.00008,478027328.00000,   0.00119,275931520.00000,  -0.00134,   0.00039,  -0.00002,  32.00000,   2.00000
-549042053.72132,-290886238.30417,-5070111.46769,  -0.00328,   0.00014,  -0.00008,478007968.00000,   0.00119,275939200.00000,  -0.00135,   0.00039,  -0.00002,  96.00000,   2.00000
-548979710.05628,-292490264.60282,-5081702.17507,  -0.00329,   0.00013,  -0.00008,477997696.00000,   0.00120,275946848.00000,  -0.00136,   0.00039,  -0.00002, 160.00000,   2.00000
-548914126.68006,-294071964.46547,-5093626.51659,  -0.00329,   0.00012,  -0.00008,477978496.00000,   0.00121,275954368.00000,  -0.00137,   0.00039,  -0.00002,   0.00000,   2.00000
-548844336.65148,-295664885.00026,-5105645.71482,  -0.00330,   0.00012,  -0.00008,477976160.00000,   0.00121,275961888.00000,  -0.00138,   0.00039,  -0.00002,   0.00000,   2.00000
-548770965.51147,-297250777.32760,-5123704.38351,  -0.00330,   0.00011,  -0.00008,477984384.00000,   0.00122,275969376.00000,  -0.00139,   0.00039,  -0.00002,  64.00000,   2.00000
-548693596.09719,-298830467.72228,-5136042.22992,  -0.00331,   0.00010,  -0.00008,477956672.00000,   0.00123,275976768.00000,  -0.00140,   0.00039,  -0.00002,   0.00000,   2.00000
-548611961.11043,-300402305.63671,-5142465.75440,  -0.00331,   0.00009,  -0.00008,477948160.00000,   0.00124,275984064.00000,  -0.00140,   0.00039,  -0.00002,  64.00000,   2.00000
-548525111.13621,-301965254.12598,-5155190.67301,  -0.00332,   0.00008,  -0.00009,477941216.00000,   0.00124,275991296.00000,  -0.00141,   0.00039,  -0.00002, 192.00000,   2.00000
-548432538.91362,-303518624.12047,-5168123.17201,  -0.00332,   0.00008,  -0.00009,477935168.00000,   0.00125,275998496.00000,  -0.00142,   0.00039,  -0.00002,  32.00000,   2.00000
-548333793.18224,-305061904.40379,-5181296.80637,  -0.00333,   0.00007,  -0.00009,477929792.00000,   0.00126,276005600.00000,  -0.00143,   0.00039,  -0.00002,   0.00000,   2.00000
-548227397.47663,-306612342.20560,-5194871.47659,  -0.00333,   0.00006,  -0.00009,477915680.00000,   0.00126,276012640.00000,  -0.00144,   0.00039,  -0.00002,  32.00000,   2.00000
-548115892.56845,-308134770.64584,-5202589.41772,  -0.00334,   0.00005,  -0.00009,477920576.00000,   0.00127,276019616.00000,  -0.00144,   0.00039,  -0.00002,  96.00000,   2.00000
-547995923.72168,-309662529.79143,-5216732.33736,  -0.00334,   0.00005,  -0.00009,477925696.00000,   0.00127,276026592.00000,  -0.00145,   0.00039,  -0.00002, -64.00000,   2.00000
-547870695.40046,-311163681.00019,-5225390.81921,  -0.00335,   0.00004,  -0.00009,477912544.00000,   0.00128,276033472.00000,  -0.00146,   0.00038,  -0.00002,  32.00000,   2.00000
-547736867.31050,-312671808.37362,-5240860.23509,  -0.00335,   0.00003,  -0.00009,477899744.00000,   0.00129,276040256.00000,  -0.00147,   0.00038,  -0.00002,  96.00000,   2.00000
-547596533.68282,-314167962.86956,-5250742.64741,  -0.00335,   0.00002,  -0.00009,477914272.00000,   0.00129,276047072.00000,  -0.00148,   0.00038,  -0.00002, 128.00000,   2.00000
-547448842.88400,-315655326.43832,-5261625.08572,  -0.00336,   0.00001,  -0.00009,477892416.00000,   0.00130,276053728.00000,  -0.00148,   0.00038,  -0.00002,   0.00000,   2.00000
-547294494.29888,-317132694.17309,-5273381.42216,  -0.00336,   0.00001,  -0.00009,477888512.00000,   0.00131,276060352.00000,  -0.00149,   0.00038,  -0.00002,  96.00000,   2.00000
-547133077.57551,-318600095.90490,-5286017.94733,  -0.00337,  -0.00000,  -0.00009,477884672.00000,   0.00131,276066912.00000,  -0.00150,   0.00038,  -0.00002, -32.00000,   2.00000
-546965059.37518,-320058098.32765,-5299472.19404,  -0.00337,  -0.00001,  -0.00009,477880448.00000,   0.00132,276073408.00000,  -0.00151,   0.00038,  -0.00002,  96.00000,   2.00000
-546790319.76997,-321507060.72892,-5313575.03746,  -0.00337,  -0.00002,  -0.00009,477875808.00000,   0.00132,276079872.00000,  -0.00151,   0.00038,  -0.00002,  96.00000,   2.00000
-546606990.68407,-322962971.21531,-5327951.33668,  -0.00338,  -0.00003,  -0.00009,477880320.00000,   0.00133,276086304.00000,  -0.00152,   0.00038,  -0.00002,  32.00000,   2.00000
-546419210.74190,-324395659.81254,-5342367.38582,  -0.00338,  -0.00003,  -0.00009,477864512.00000,   0.00134,276092640.00000,  -0.00153,   0.00038,  -0.00002, -32.00000,   2.00000
-546223004.45336,-325838939.94767,-5356302.64365,  -0.00338,  -0.00004,  -0.00009,477848736.00000,   0.00134,276098880.00000,  -0.00153,   0.00038,  -0.00002,  64.00000,   2.00000
-546021092.62380,-327276207.21831,-5362968.97358,  -0.00339,  -0.00005,  -0.00009,477840256.00000,   0.00135,276105088.00000,  -0.00154,   0.00037,  -0.00002, 128.00000,   2.00000
-545814237.64405,-328706095.67274,-5373743.04218,  -0.00339,  -0.00006,  -0.00009,477848864.00000,   0.00135,276111296.00000,  -0.00155,   0.00037,  -0.00002, -64.00000,   2.00000
-545602486.13126,-330133966.09409,-5376395.00097,  -0.00339,  -0.00007,  -0.00009,477819584.00000,   0.00136,276117376.00000,  -0.00155,   0.00037,  -0.00002,  32.00000,   2.00000
-545386517.12741,-331558051.68897,-5382579.15083,  -0.00340,  -0.00007,  -0.00009,477807776.00000,   0.00136,276123392.00000,  -0.00156,   0.00037,  -0.00002,-128.00000,   2.00000
-545166931.65980,-332981308.40766,-5380334.25811,  -0.00340,  -0.00008,  -0.00009,477777088.00000,   0.00137,276129312.00000,  -0.00157,   0.00037,  -0.00002,  32.00000,   2.00000
-544942122.55260,-334413896.20790,-5375066.68445,  -0.00340,  -0.00009,  -0.00009,477792736.00000,   0.00138,276135232.00000,  -0.00157,   0.00037,  -0.00002,  64.00000,   2.00000
-544716099.92041,-335830137.56179,-5368491.15431,  -0.00340,  -0.00010,  -0.00009,477752992.00000,   0.00138,276141024.00000,  -0.00158,   0.00037,  -0.00002, -64.00000,   2.00000
-544484857.67773,-337254587.36953,-5360146.65632,  -0.00341,  -0.00011,  -0.00009,477770176.00000,   0.00139,276146848.00000,  -0.00159,   0.00037,  -0.00002, 128.00000,   2.00000
-544249236.76231,-338676294.98046,-5351885.09768,  -0.00341,  -0.00011,  -0.00009,477742784.00000,   0.00139,276152544.00000,  -0.00159,   0.00037,  -0.00003, -64.00000,   2.00000
-544011079.67688,-340079826.99085,-5344707.96762,  -0.00341,  -0.00012,  -0.00010,477706688.00000,   0.00140,276158080.00000,  -0.00160,   0.00037,  -0.00003, -32.00000,   2.00000
-543762939.90004,-341503450.17637,-5337955.34664,  -0.00342,  -0.00013,  -0.00010,477738176.00000,   0.00140,276163680.00000,  -0.00161,   0.00036,  -0.00003, -64.00000,   2.00000
-543512025.34807,-342905453.45426,-5326992.03482,  -0.00342,  -0.00014,  -0.00010,477721696.00000,   0.00141,276169216.00000,  -0.00161,   0.00036,  -0.00003,   0.00000,   2.00000
-543253856.84608,-344302694.63178,-5324333.70246,  -0.00342,  -0.00015,  -0.00010,477698592.00000,   0.00141,276174624.00000,  -0.00162,   0.00036,  -0.00003,  64.00000,   2.00000
-542986631.96031,-345707264.31762,-5317374.88491,  -0.00342,  -0.00015,  -0.00010,477703200.00000,   0.00142,276180000.00000,  -0.00163,   0.00036,  -0.00003,  96.00000,   2.00000
-542715300.21909,-347090187.68020,-5318479.22193,  -0.00342,  -0.00016,  -0.00010,477687328.00000,   0.00142,276185312.00000,  -0.00163,   0.00036,  -0.00003,  96.00000,   2.00000
-542434979.94982,-348480975.77200,-5314971.80711,  -0.00343,  -0.00017,  -0.00010,477691360.00000,   0.00143,276190592.00000,  -0.00164,   0.00036,  -0.00003,  96.00000,   2.00000
-542147496.25066,-349868359.38042,-5313089.39672,  -0.00343,  -0.00018,  -0.00010,477666752.00000,   0.00143,276195776.00000,  -0.00164,   0.00036,  -0.00003,   0.00000,   2.00000
-541853989.00794,-351249929.76811,-5312310.05690,  -0.00343,  -0.00019,  -0.00010,477659552.00000,   0.00144,276200896.00000,  -0.00165,   0.00036,  -0.00003,  32.00000,   2.00000
-541554452.11020,-352625940.81111,-5312371.72707,  -0.00343,  -0.00019,  -0.00010,477651904.00000,   0.00144,276205952.00000,  -0.00165,   0.00035,  -0.00003, -32.00000,   2.00000
-541246041.12530,-354010771.34324,-5312919.96485,  -0.00343,  -0.00020,  -0.00010,477654624.00000,   0.00145,276211008.00000,  -0.00166,   0.00035,  -0.00003, -32.00000,   2.00000
-540935107.92406,-355376637.26472,-5314018.15817,  -0.00343,  -0.00021,  -0.00010,477635584.00000,   0.00145,276215968.00000,  -0.00167,   0.00035,  -0.00003, -96.00000,   2.00000
-540614946.18544,-356755144.42972,-5309380.94853,  -0.00343,  -0.00022,  -0.00010,477619616.00000,   0.00146,276220832.00000,  -0.00167,   0.00035,  -0.00003,  32.00000,   2.00000
-540289053.20457,-358128931.29578,-5311002.71851,  -0.00344,  -0.00023,  -0.00010,477611264.00000,   0.00146,276225664.00000,  -0.00168,   0.00035,  -0.00003,  32.00000,   2.00000
-539957914.07706,-359498405.49963,-5306589.47056,  -0.00344,  -0.00023,  -0.00010,477602400.00000,   0.00146,276230464.00000,  -0.00168,   0.00035,  -0.00003,   0.00000,   2.00000
-539621226.59832,-360863479.13538,-5302193.93290,  -0.00344,  -0.00024,  -0.00010,477593728.00000,   0.00147,276235168.00000,  -0.00169,   0.00035,  -0.00003,  32.00000,   2.00000
-539277939.96521,-362227625.10966,-5304099.12349,  -0.00344,  -0.00025,  -0.00010,477567200.00000,   0.00147,276239808.00000,  -0.00169,   0.00035,  -0.00003, -32.00000,   2.00000
-538926036.44160,-363601341.74536,-5299717.26214,  -0.00344,  -0.00026,  -0.00010,477569248.00000,   0.00148,276244384.00000,  -0.00170,   0.00034,  -0.00003,  64.00000,   2.00000
-538568383.46082,-364970731.95250,-5295292.81537,  -0.00344,  -0.00027,  -0.00010,477560640.00000,   0.00148,276248928.00000,  -0.00170,   0.00034,  -0.00003,  32.00000,   2.00000
-538205374.27674,-366336114.63879,-5284735.86491,  -0.00344,  -0.00028,  -0.00010,477551680.00000,   0.00149,276253440.00000,  -0.00171,   0.00034,  -0.00003,   0.00000,   2.00000
-537835381.79227,-367700854.56223,-5280503.93121,  -0.00344,  -0.00028,  -0.00010,477525536.00000,   0.00149,276257824.00000,  -0.00171,   0.00034,  -0.00003,  64.00000,   2.00000
-537460713.38515,-369057821.57573,-5276043.37876,  -0.00344,  -0.00029,  -0.00010,477534784.00000,   0.00149,276262208.00000,  -0.00172,   0.00034,  -0.00003,   0.00000,   2.00000
-537074497.59389,-370431491.89359,-5265822.49033,  -0.00344,  -0.00030,  -0.00010,477501888.00000,   0.00150,276266496.00000,  -0.00172,   0.00034,  -0.00003,  96.00000,   2.00000
-536686937.09979,-371784019.34617,-5261679.49220,  -0.00344,  -0.00031,  -0.00010,477500000.00000,   0.00150,276270720.00000,  -0.00173,   0.00034,  -0.00003,   0.00000,   2.00000
-536288817.24351,-373149671.50467,-5251593.85838,  -0.00344,  -0.00032,  -0.00010,477484992.00000,   0.00151,276274880.00000,  -0.00173,   0.00033,  -0.00003, 128.00000,   2.00000
-535884378.67647,-374511163.16305,-5241614.18010,  -0.00344,  -0.00033,  -0.00010,477476800.00000,   0.00151,276279008.00000,  -0.00173,   0.00033,  -0.00003, -64.00000,   2.00000
-535473840.24893,-375868713.90646,-5231765.29813,  -0.00344,  -0.00033,  -0.00010,477468448.00000,   0.00151,276283072.00000,  -0.00174,   0.00033,  -0.00003, -32.00000,   2.00000
-535053251.55137,-377235170.61450,-5221913.09109,  -0.00344,  -0.00034,  -0.00010,477471776.00000,   0.00152,276287136.00000,  -0.00174,   0.00033,  -0.00003, -32.00000,   2.00000
-534628856.33684,-378588857.37646,-5212614.76481,  -0.00344,  -0.00035,  -0.00010,477434336.00000,   0.00152,276291040.00000,  -0.00175,   0.00033,  -0.00003,   0.00000,   2.00000
-534194244.16548,-379951467.14517,-5197240.47547,  -0.00344,  -0.00036,  -0.00010,477437504.00000,   0.00152,276294944.00000,  -0.00175,   0.00033,  -0.00003, -64.00000,   2.00000
-533753070.62020,-381310120.77352,-5188172.42377,  -0.00344,  -0.00037,  -0.00010,477429600.00000,   0.00153,276298784.00000,  -0.00176,   0.00033,  -0.00003,  32.00000,   2.00000
-533299787.90485,-382681552.94717,-5173278.29603,  -0.00344,  -0.00038,  -0.00010,477415488.00000,   0.00153,276302592.00000,  -0.00176,   0.00032,  -0.00003,   0.00000,   2.00000
-532845406.48829,-384032420.36351,-5158524.17171,  -0.00344,  -0.00038,  -0.00010,477413280.00000,   0.00154,276306368.00000,  -0.00176,   0.00032,  -0.00003,  32.00000,   2.00000
-532377064.13507,-385400322.73966,-5144297.30202,  -0.00344,  -0.00039,  -0.00010,477381824.00000,   0.00154,276309984.00000,  -0.00177,   0.00032,  -0.00003,  64.00000,   2.00000
-531903280.58249,-386759997.27579,-5130057.49014,  -0.00344,  -0.00040,  -0.00010,477391392.00000,   0.00154,276313664.00000,  -0.00177,   0.00032,  -0.00003, -96.00000,   2.00000
-531421065.34611,-388120261.62390,-5116264.15615,  -0.00344,  -0.00041,  -0.00010,477365728.00000,   0.00155,276317184.00000,  -0.00178,   0.00032,  -0.00003, 128.00000,   2.00000
-530931515.80257,-389476542.03123,-5102677.83081,  -0.00344,  -0.00042,  -0.00010,477357856.00000,   0.00155,276320704.00000,  -0.00178,   0.00032,  -0.00003,   0.00000,   2.00000
-530430806.59016,-390841288.44304,-5083041.80141,  -0.00343,  -0.00043,  -0.00010,477361536.00000,   0.00155,276324224.00000,  -0.00178,   0.00032,  -0.00003,  64.00000,   2.00000
-529926904.36980,-392190005.44001,-5069869.15521,  -0.00343,  -0.00044,  -0.00010,477341760.00000,   0.00155,276327616.00000,  -0.00179,   0.00032,  -0.00003, -32.00000,   2.00000
-529409736.99092,-393551556.43051,-5050850.17112,  -0.00343,  -0.00044,  -0.00010,477328256.00000,   0.00156,276330976.00000,  -0.00179,   0.00031,  -0.00003,  32.00000,   2.00000
-528884893.75037,-394909158.93693,-5032015.01910,  -0.00343,  -0.00045,  -0.00010,477320320.00000,   0.00156,276334304.00000,  -0.00179,   0.00031,  -0.00003,  32.00000,   2.00000
-528345954.01039,-396279186.91552,-5013417.44160,  -0.00343,  -0.00046,  -0.00010,477307264.00000,   0.00156,276337568.00000,  -0.00180,   0.00031,  -0.00004,  32.00000,   2.00000
-527803870.42780,-397633778.77799,-4995134.27733,  -0.00343,  -0.00047,  -0.00010,477286944.00000,   0.00157,276340736.00000,  -0.00180,   0.00031,  -0.00004, -96.00000,   2.00000
-527249477.89455,-398996223.07370,-4976836.91655,  -0.00343,  -0.00048,  -0.00010,477291296.00000,   0.00157,276343904.00000,  -0.00180,   0.00031,  -0.00004,  32.00000,   2.00000
-526682588.93073,-400366328.97773,-4952404.89471,  -0.00342,  -0.00049,  -0.00010,477295840.00000,   0.00157,276347072.00000,  -0.00181,   0.00031,  -0.00004, 128.00000,   2.00000
-526112208.38833,-401721100.14124,-4928253.43933,  -0.00342,  -0.00050,  -0.00010,477275744.00000,   0.00158,276350176.00000,  -0.00181,   0.00031,  -0.00004, -32.00000,   2.00000
-525531735.17720,-403077074.95550,-4910533.68772,  -0.00342,  -0.00051,  -0.00010,477250656.00000,   0.00158,276353184.00000,  -0.00181,   0.00030,  -0.00004,  32.00000,   2.00000
-524936250.49450,-404445570.96699,-4886846.12062,  -0.00342,  -0.00051,  -0.00010,477238048.00000,   0.00158,276356096.00000,  -0.00182,   0.00030,  -0.00004,  64.00000,   2.00000
-524334716.95816,-405805538.04027,-4863001.64454,  -0.00341,  -0.00052,  -0.00010,477247552.00000,   0.00158,276359072.00000,  -0.00182,   0.00030,  -0.00004,  32.00000,   2.00000
-523717973.96731,-407178098.60223,-4833166.92782,  -0.00341,  -0.00053,  -0.00010,477235104.00000,   0.00159,276361984.00000,  -0.00182,   0.00030,  -0.00004,  32.00000,   2.00000
-523097749.04230,-408536288.69282,-4809652.82252,  -0.00341,  -0.00054,  -0.00010,477214816.00000,   0.00159,276364800.00000,  -0.00183,   0.00030,  -0.00004, -32.00000,   2.00000
-522464274.52834,-409902120.30763,-4785990.66932,  -0.00341,  -0.00055,  -0.00010,477219936.00000,   0.00159,276367616.00000,  -0.00183,   0.00030,  -0.00004,   0.00000,   2.00000
-521820274.99043,-411270146.08125,-4756484.68373,  -0.00340,  -0.00056,  -0.00010,477194848.00000,   0.00159,276370368.00000,  -0.00183,   0.00030,  -0.00004, -64.00000,   2.00000
-521168171.53117,-412635531.66494,-4727030.74231,  -0.00340,  -0.00057,  -0.00010,477187008.00000,   0.00160,276373056.00000,  -0.00183,   0.00029,  -0.00004,  32.00000,   2.00000
-520502758.44363,-414008967.32556,-4697476.55166,  -0.00340,  -0.00058,  -0.00010,477191936.00000,   0.00160,276375744.00000,  -0.00184,   0.00029,  -0.00004, -64.00000,   2.00000
-519826969.95953,-415385655.73205,-4668310.39863,  -0.00340,  -0.00058,  -0.00010,477166592.00000,   0.00160,276378336.00000,  -0.00184,   0.00029,  -0.00004,  96.00000,   2.00000
-519143425.43493,-416760811.00627,-4633291.80900,  -0.00339,  -0.00059,  -0.00010,477157920.00000,   0.00160,276380896.00000,  -0.00184,   0.00029,  -0.00004, -32.00000,   2.00000
-518452201.34776,-418134834.58149,-4604778.98193,  -0.00339,  -0.00060,  -0.00010,477148960.00000,   0.00161,276383424.00000,  -0.00185,   0.00029,  -0.00004, -32.00000,   2.00000
-517748877.83219,-419518873.63994,-4570554.37043,  -0.00339,  -0.00061,  -0.00010,477152128.00000,   0.00161,276385920.00000,  -0.00185,   0.00029,  -0.00004,  32.00000,   2.00000
-517035325.42571,-420907425.46145,-4537260.57044,  -0.00338,  -0.00062,  -0.00010,477125408.00000,   0.00161,276388352.00000,  -0.00185,   0.00029,  -0.00004,  64.00000,   2.00000
-516313525.09124,-422294079.63026,-4504678.70096,  -0.00338,  -0.00063,  -0.00010,477115808.00000,   0.00161,276390720.00000,  -0.00185,   0.00029,  -0.00004,  64.00000,   2.00000
-515581579.03010,-423676003.14649,-4472567.28998,  -0.00337,  -0.00064,  -0.00010,477107872.00000,   0.00162,276393088.00000,  -0.00186,   0.00028,  -0.00004,  32.00000,   2.00000
-514827770.57029,-425063854.83256,-4440430.24195,  -0.00337,  -0.00065,  -0.00010,477099456.00000,   0.00162,276395392.00000,  -0.00186,   0.00028,  -0.00004,  32.00000,   2.00000
-514057229.25199,-426438285.15140,-4401486.54754,  -0.00337,  -0.00066,  -0.00010,477098176.00000,   0.00162,276397696.00000,  -0.00186,   0.00028,  -0.00004,  32.00000,   2.00000
-513268521.93859,-427798419.01730,-4367623.43532,  -0.00336,  -0.00067,  -0.00009,477098816.00000,   0.00162,276400000.00000,  -0.00186,   0.00028,  -0.00004,  32.00000,   2.00000
-512455848.67493,-429164101.06668,-4326949.71434,  -0.00336,  -0.00067,  -0.00009,477093696.00000,   0.00162,276402272.00000,  -0.00186,   0.00028,  -0.00004,  32.00000,   2.00000
-511636424.15176,-430521763.19361,-4286011.56832,  -0.00335,  -0.00068,  -0.00009,477103680.00000,   0.00163,276404576.00000,  -0.00187,   0.00028,  -0.00004,   0.00000,   2.00000
-510807725.17653,-431887983.68700,-4239749.04025,  -0.00335,  -0.00069,  -0.00009,477076512.00000,   0.00163,276406784.00000,  -0.00187,   0.00028,  -0.00004,   0.00000,   2.00000
-509970493.25979,-433263415.40016,-4200454.14784,  -0.00335,  -0.00070,  -0.00009,477048576.00000,   0.00163,276408864.00000,  -0.00187,   0.00027,  -0.00004,  96.00000,   2.00000
-509125329.37584,-434644404.57283,-4155049.17297,  -0.00334,  -0.00071,  -0.00009,477068224.00000,   0.00163,276411008.00000,  -0.00187,   0.00027,  -0.00004,   0.00000,   2.00000
-508268026.28104,-436029971.90542,-4116167.66884,  -0.00334,  -0.00072,  -0.00009,477043712.00000,   0.00163,276413088.00000,  -0.00187,   0.00027,  -0.00004,   0.00000,   2.00000
-507397137.41355,-437418718.96005,-4071589.55080,  -0.00333,  -0.00073,  -0.00009,477020064.00000,   0.00164,276415040.00000,  -0.00188,   0.00027,  -0.00004, -32.00000,   2.00000
-506519333.07379,-438798852.91878,-4027197.75544,  -0.00333,  -0.00074,  -0.00009,477029632.00000,   0.00164,276417024.00000,  -0.00188,   0.00027,  -0.00004,  32.00000,   2.00000
-505621771.44269,-440191067.34524,-3977351.39743,  -0.00332,  -0.00075,  -0.00009,477019648.00000,   0.00164,276418976.00000,  -0.00188,   0.00027,  -0.00004,  64.00000,   2.00000
-504713607.60012,-441580720.05973,-3934390.23777,  -0.00332,  -0.00076,  -0.00009,477012064.00000,   0.00164,276420896.00000,  -0.00188,   0.00027,  -0.00004,  32.00000,   2.00000
-503789716.04815,-442977028.81703,-3885982.37409,  -0.00331,  -0.00077,  -0.00009,477017856.00000,   0.00164,276422848.00000,  -0.00188,   0.00027,  -0.00004,  96.00000,   2.00000
-502856911.31557,-444367690.71764,-3838519.55015,  -0.00331,  -0.00078,  -0.00009,476979776.00000,   0.00165,276424640.00000,  -0.00189,   0.00027,  -0.00004,  32.00000,   2.00000
-501907288.06727,-445763731.36628,-3791456.43326,  -0.00330,  -0.00079,  -0.00009,476986720.00000,   0.00165,276426464.00000,  -0.00189,   0.00026,  -0.00004,   0.00000,   2.00000
-500945999.83120,-447155867.47314,-3744703.33211,  -0.00330,  -0.00080,  -0.00009,476980480.00000,   0.00165,276428256.00000,  -0.00189,   0.00026,  -0.00004,   0.00000,   2.00000
-499966480.82264,-448551664.10790,-3691867.28761,  -0.00329,  -0.00080,  -0.00009,476989184.00000,   0.00165,276430080.00000,  -0.00189,   0.00026,  -0.00004,   0.00000,   2.00000
-498969803.44020,-449948191.41000,-3645246.21010,  -0.00329,  -0.00081,  -0.00009,476968384.00000,   0.00165,276431808.00000,  -0.00189,   0.00026,  -0.00004, -32.00000,   2.00000
-497960033.59938,-451339552.38522,-3592416.24822,  -0.00328,  -0.00082,  -0.00009,476963744.00000,   0.00165,276433504.00000,  -0.00189,   0.00026,  -0.00004,  32.00000,   2.00000
-496931058.00940,-452733622.21689,-3539343.47726,  -0.00327,  -0.00083,  -0.00009,476973952.00000,   0.00166,276435264.00000,  -0.00190,   0.00026,  -0.00004,  64.00000,   2.00000
-495894661.60280,-454114570.71743,-3486258.46592,  -0.00327,  -0.00084,  -0.00009,476955264.00000,   0.00166,276436928.00000,  -0.00190,   0.00026,  -0.00004, -32.00000,   2.00000
-494834380.83984,-455504180.61689,-3426980.07420,  -0.00326,  -0.00085,  -0.00008,476949376.00000,   0.00166,276438592.00000,  -0.00190,   0.00026,  -0.00004,  64.00000,   2.00000
-493754252.42458,-456895912.57377,-3373630.03830,  -0.00326,  -0.00086,  -0.00008,476959968.00000,   0.00166,276440256.00000,  -0.00190,   0.00025,  -0.00004, -64.00000,   2.00000
-492660339.81066,-458282173.75019,-3314157.54275,  -0.00325,  -0.00087,  -0.00008,476956032.00000,   0.00166,276441920.00000,  -0.00190,   0.00025,  -0.00004, -32.00000,   2.00000
-491552414.57129,-459662799.89870,-3254726.71985,  -0.00324,  -0.00088,  -0.00008,476952160.00000,   0.00166,276443552.00000,  -0.00190,   0.00025,  -0.00004,  64.00000,   2.00000
-490425065.96256,-461043479.05087,-3189406.49778,  -0.00324,  -0.00089,  -0.00008,476932544.00000,   0.00166,276445120.00000,  -0.00190,   0.00025,  -0.00004, -64.00000,   2.00000
-489277096.42371,-462425360.52689,-3130196.56133,  -0.00323,  -0.00090,  -0.00008,476943840.00000,   0.00167,276446688.00000,  -0.00191,   0.00025,  -0.00004,  96.00000,   2.00000
-488120341.44501,-463793870.40052,-3065147.19668,  -0.00322,  -0.00091,  -0.00008,476925408.00000,   0.00167,276448224.00000,  -0.00191,   0.00025,  -0.00004,   0.00000,   2.00000
-486936530.09403,-465170120.36679,-3006150.48528,  -0.00322,  -0.00092,  -0.00008,476951872.00000,   0.00167,276449856.00000,  -0.00191,   0.00025,  -0.00004,  64.00000,   2.00000
-485738300.37196,-466539049.57732,-2935356.19863,  -0.00321,  -0.00093,  -0.00008,476917984.00000,   0.00167,276451328.00000,  -0.00191,   0.00025,  -0.00004,   0.00000,   2.00000
-484524204.48170,-467902232.83464,-2870660.18367,  -0.00320,  -0.00094,  -0.00008,476945408.00000,   0.00167,276452928.00000,  -0.00191,   0.00025,  -0.00004,  32.00000,   2.00000
-483283068.12486,-469271530.27656,-2806179.68820,  -0.00320,  -0.00095,  -0.00008,476941792.00000,   0.00167,276454496.00000,  -0.00191,   0.00024,  -0.00004, -64.00000,   2.00000
-482032735.97150,-470627787.77325,-2735893.08954,  -0.00319,  -0.00096,  -0.00008,476923616.00000,   0.00167,276456000.00000,  -0.00191,   0.00024,  -0.00004,  64.00000,   2.00000
-480754868.55477,-471989949.34283,-2665809.30283,  -0.00318,  -0.00097,  -0.00008,476920352.00000,   0.00168,276457472.00000,  -0.00191,   0.00024,  -0.00004,   0.00000,   2.00000
-479467426.78830,-473339599.86227,-2595828.94830,  -0.00317,  -0.00098,  -0.00007,476932608.00000,   0.00168,276459008.00000,  -0.00192,   0.00024,  -0.00004, -32.00000,   2.00000
-478152327.96569,-474695099.48258,-2526027.74280,  -0.00317,  -0.00099,  -0.00007,476929632.00000,   0.00168,276460512.00000,  -0.00192,   0.00024,  -0.00004, -64.00000,   2.00000
-476821586.74976,-476044080.65034,-2450275.76502,  -0.00316,  -0.00100,  -0.00007,476926688.00000,   0.00168,276461984.00000,  -0.00192,   0.00024,  -0.00004,   0.00000,   2.00000
-475475175.79073,-477386594.92573,-2380779.99599,  -0.00315,  -0.00101,  -0.00007,476923904.00000,   0.00168,276463488.00000,  -0.00192,   0.00024,  -0.00004,  64.00000,   2.00000
-474106734.88010,-478728760.43862,-2305359.50150,  -0.00314,  -0.00102,  -0.00007,476905952.00000,   0.00168,276464896.00000,  -0.00192,   0.00024,  -0.00004,  32.00000,   2.00000
-472722715.47574,-480064190.62276,-2223800.03714,  -0.00314,  -0.00103,  -0.00007,476933760.00000,   0.00168,276466400.00000,  -0.00192,   0.00023,  -0.00004,   0.00000,   2.00000
-471316205.33157,-481399002.78761,-2148504.98942,  -0.00313,  -0.00104,  -0.00007,476916160.00000,   0.00169,276467840.00000,  -0.00192,   0.00023,  -0.00004, -32.00000,   2.00000
-469887474.86131,-482732709.51328,-2073212.50661,  -0.00312,  -0.00105,  -0.00007,476929408.00000,   0.00169,276469312.00000,  -0.00192,   0.00023,  -0.00004,  32.00000,   2.00000
-468442490.83391,-484059464.90145,-1991859.07579,  -0.00311,  -0.00106,  -0.00007,476927264.00000,   0.00169,276470784.00000,  -0.00193,   0.00023,  -0.00004,  32.00000,   2.00000
-466980832.57037,-485378852.28524,-1910546.62387,  -0.00310,  -0.00107,  -0.00007,476925408.00000,   0.00169,276472256.00000,  -0.00193,   0.00023,  -0.00004, -32.00000,   2.00000
-465495670.49148,-486697060.64436,-1823211.57673,  -0.00310,  -0.00108,  -0.00006,476908832.00000,   0.00169,276473632.00000,  -0.00193,   0.00023,  -0.00004, -64.00000,   2.00000
-463994485.90484,-488006838.47534,-1741898.95066,  -0.00309,  -0.00109,  -0.00006,476938016.00000,   0.00169,276475136.00000,  -0.00193,   0.00023,  -0.00004,  96.00000,   2.00000
-462462895.73815,-489319759.00226,-1654488.40954,  -0.00308,  -0.00110,  -0.00006,476938080.00000,   0.00169,276476608.00000,  -0.00193,   0.00023,  -0.00004,  64.00000,   2.00000
-460919650.08614,-490619064.06332,-1567158.15172,  -0.00307,  -0.00111,  -0.00006,476921664.00000,   0.00170,276478048.00000,  -0.00193,   0.00022,  -0.00004,   0.00000,   2.00000
-459352697.92759,-491914830.08699,-1479789.84840,  -0.00306,  -0.00112,  -0.00006,476936928.00000,   0.00170,276479520.00000,  -0.00193,   0.00022,  -0.00004, -64.00000,   2.00000
-457767848.68184,-493201768.97257,-1392446.75896,  -0.00305,  -0.00113,  -0.00006,476936832.00000,   0.00170,276480992.00000,  -0.00193,   0.00022,  -0.00004,   0.00000,   2.00000
-456158860.32664,-494484311.46077,-1298965.39778,  -0.00305,  -0.00114,  -0.00006,476952992.00000,   0.00170,276482528.00000,  -0.00193,   0.00022,  -0.00004, -96.00000,   2.00000
-454531384.34267,-495757228.70600,-1211638.92450,  -0.00304,  -0.00115,  -0.00006,476953568.00000,   0.00170,276484032.00000,  -0.00194,   0.00022,  -0.00004,   0.00000,   2.00000
-452877456.03956,-497026339.36671,-1118300.59798,  -0.00303,  -0.00116,  -0.00006,476939904.00000,   0.00170,276485504.00000,  -0.00194,   0.00022,  -0.00004, -32.00000,   2.00000
-451204775.63157,-498285614.19663,-1018915.41579,  -0.00302,  -0.00117,  -0.00005,476940896.00000,   0.00170,276486944.00000,  -0.00194,   0.00022,  -0.00004,  64.00000,   2.00000
-449515043.80010,-499532876.45243,-925619.29190,  -0.00301,  -0.00118,  -0.00005,476972704.00000,   0.00171,276488512.00000,  -0.00194,   0.00021,  -0.00004,  64.00000,   2.00000
-447798184.15462,-500775751.00464,-826344.64785,  -0.00300,  -0.00119,  -0.00005,476959968.00000,   0.00171,276490048.00000,  -0.00194,   0.00021,  -0.00004,   0.00000,   2.00000
-446056076.59107,-502011968.52070,-727123.48664,  -0.00299,  -0.00120,  -0.00005,476978112.00000,   0.00171,276491616.00000,  -0.00194,   0.00021,  -0.00004,  32.00000,   2.00000
-444294442.21669,-503237126.84965,-628013.76733,  -0.00298,  -0.00121,  -0.00005,476980256.00000,   0.00171,276493184.00000,  -0.00194,   0.00021,  -0.00004, -32.00000,   2.00000
-442513115.43482,-504451011.06711,-529021.36597,  -0.00297,  -0.00122,  -0.00005,476982560.00000,   0.00171,276494752.00000,  -0.00194,   0.00021,  -0.00004,  32.00000,   2.00000
-440706267.15219,-505657291.95484,-424006.17908,  -0.00296,  -0.00123,  -0.00005,477001600.00000,   0.00171,276496416.00000,  -0.00194,   0.00021,  -0.00004, -64.00000,   2.00000
-438879514.20585,-506851839.65250,-319125.50606,  -0.00295,  -0.00124,  -0.00005,477004512.00000,   0.00171,276498048.00000,  -0.00194,   0.00021,  -0.00004,   0.00000,   2.00000
-437023610.61976,-508040008.11719,-214398.19241,  -0.00294,  -0.00126,  -0.00004,476993792.00000,   0.00172,276499648.00000,  -0.00195,   0.00020,  -0.00004,   0.00000,   2.00000
-435150950.86211,-509213909.85155,-109751.25080,  -0.00293,  -0.00127,  -0.00004,477027584.00000,   0.00172,276501344.00000,  -0.00195,   0.00020,  -0.00004,  32.00000,   2.00000
-433257931.61004,-510375270.65699, 884.84881,  -0.00292,  -0.00128,  -0.00004,477031232.00000,   0.00172,276503072.00000,  -0.00195,   0.00020,  -0.00004, -64.00000,   2.00000
-431335102.22365,-511529554.37364,105285.58952,  -0.00291,  -0.00129,  -0.00004,477021280.00000,   0.00172,276504736.00000,  -0.00195,   0.00020,  -0.00004,  64.00000,   2.00000
-429395659.95957,-512668692.74399,215724.26703,  -0.00290,  -0.00130,  -0.00004,477055680.00000,   0.00172,276506528.00000,  -0.00195,   0.00020,  -0.00004, -64.00000,   2.00000
-427426057.52808,-513800363.98157,332165.85759,  -0.00289,  -0.00131,  -0.00004,477045984.00000,   0.00172,276508288.00000,  -0.00195,   0.00020,  -0.00004,   0.00000,   2.00000
-425445644.82114,-514913621.96940,442397.16469,  -0.00288,  -0.00132,  -0.00004,477063680.00000,   0.00173,276510080.00000,  -0.00195,   0.00019,  -0.00004,  64.00000,   2.00000
-423429356.90351,-516022132.47917,558616.50020,  -0.00287,  -0.00133,  -0.00003,477071424.00000,   0.00173,276511904.00000,  -0.00195,   0.00019,  -0.00004, -32.00000,   2.00000
-421392421.73247,-517117408.24351,674658.16023,  -0.00286,  -0.00134,  -0.00003,477075808.00000,   0.00173,276513760.00000,  -0.00195,   0.00019,  -0.00004,   0.00000,   2.00000
-419344921.86427,-518193979.14861,790440.17068,  -0.00285,  -0.00135,  -0.00003,477093632.00000,   0.00173,276515648.00000,  -0.00195,   0.00019,  -0.00004,   0.00000,   2.00000
-417261117.87381,-519264814.48879,905864.53661,  -0.00284,  -0.00136,  -0.00003,477102336.00000,   0.00173,276517568.00000,  -0.00196,   0.00019,  -0.00004,-160.00000,   2.00000
-415166692.88904,-520316198.20153,1026942.23161,  -0.00283,  -0.00137,  -0.00003,477120832.00000,   0.00173,276519552.00000,  -0.00196,   0.00018,  -0.00004,  32.00000,   2.00000
-413039945.12011,-521357299.39560,1147592.18387,  -0.00282,  -0.00138,  -0.00003,477113696.00000,   0.00174,276521472.00000,  -0.00196,   0.00018,  -0.00004,  32.00000,   2.00000
-410896923.64600,-522380198.42038,1267832.98292,  -0.00281,  -0.00140,  -0.00002,477149440.00000,   0.00174,276523552.00000,  -0.00196,   0.00018,  -0.00004, -32.00000,   2.00000
-408721703.74532,-523393487.62140,1388033.68297,  -0.00280,  -0.00141,  -0.00002,477140896.00000,   0.00174,276525600.00000,  -0.00196,   0.00018,  -0.00004, -96.00000,   2.00000
-406537338.34980,-524388829.85250,1508321.13274,  -0.00279,  -0.00142,  -0.00002,477156416.00000,   0.00174,276527680.00000,  -0.00196,   0.00018,  -0.00004,  32.00000,   2.00000
-404316369.14202,-525375752.29690,1634791.47385,  -0.00278,  -0.00143,  -0.00002,477166336.00000,   0.00174,276529824.00000,  -0.00196,   0.00017,  -0.00004,   0.00000,   2.00000
-402083095.06999,-526336077.12381,1761162.66009,  -0.00277,  -0.00144,  -0.00002,477190432.00000,   0.00175,276532032.00000,  -0.00196,   0.00017,  -0.00004,  32.00000,   2.00000
-399807657.48105,-527277275.57775,1887418.46832,  -0.00275,  -0.00145,  -0.00002,477211232.00000,   0.00175,276534304.00000,  -0.00196,   0.00017,  -0.00004,  64.00000,   2.00000
-397522619.69777,-528187395.29989,2019673.34865,  -0.00274,  -0.00146,  -0.00001,477221248.00000,   0.00175,276536576.00000,  -0.00196,   0.00017,  -0.00004,  32.00000,   2.00000
-395205126.75982,-529081363.76730,2151546.92429,  -0.00273,  -0.00147,  -0.00001,477267392.00000,   0.00175,276539040.00000,  -0.00197,   0.00016,  -0.00004, -32.00000,   2.00000
-392870803.69379,-529958374.62707,2283069.82121,  -0.00272,  -0.00148,  -0.00001,477257600.00000,   0.00175,276541440.00000,  -0.00197,   0.00016,  -0.00004,   0.00000,   2.00000
-390512605.38202,-530825511.18661,2414014.45150,  -0.00271,  -0.00150,  -0.00001,477279648.00000,   0.00176,276543936.00000,  -0.00197,   0.00016,  -0.00004,   0.00000,   2.00000
-388136278.33121,-531683770.72801,2544501.80820,  -0.00270,  -0.00151,  -0.00001,477282368.00000,   0.00176,276546400.00000,  -0.00197,   0.00016,  -0.00004, -64.00000,   2.00000
-385742616.60380,-532534759.81227,2680773.16942,  -0.00269,  -0.00152,  -0.00001,477284096.00000,   0.00176,276548864.00000,  -0.00197,   0.00015,  -0.00004,  64.00000,   2.00000
-383327579.20402,-533380518.69978,2816763.26705,  -0.00267,  -0.00153,  -0.00000,477303040.00000,   0.00176,276551392.00000,  -0.00197,   0.00015,  -0.00004,  96.00000,   2.00000
-380908116.38615,-534215758.13755,2952666.82025,  -0.00266,  -0.00154,  -0.00000,477316128.00000,   0.00177,276553952.00000,  -0.00197,   0.00015,  -0.00004, -32.00000,   2.00000
-378455023.06883,-535049948.58681,3088668.40123,  -0.00265,  -0.00155,  -0.00000,477323488.00000,   0.00177,276556544.00000,  -0.00197,   0.00014,  -0.00004,  96.00000,   2.00000
-376001107.38967,-535870817.45223,3231070.72493,  -0.00264,  -0.00156,   0.00000,477319488.00000,   0.00177,276559072.00000,  -0.00197,   0.00014,  -0.00004,  64.00000,   2.00000
-373521180.52896,-536685435.17219,3367554.88608,  -0.00263,  -0.00157,   0.00000,477357856.00000,   0.00177,276561760.00000,  -0.00197,   0.00014,  -0.00004,  96.00000,   2.00000
-371026220.54184,-537486580.56722,3510799.30559,  -0.00261,  -0.00159,   0.00001,477344352.00000,   0.00178,276564352.00000,  -0.00197,   0.00014,  -0.00004,  32.00000,   2.00000
-368506856.71576,-538273056.65902,3660814.80568,  -0.00260,  -0.00160,   0.00001,477368960.00000,   0.00178,276567072.00000,  -0.00198,   0.00013,  -0.00004,  32.00000,   2.00000
-365965288.70727,-539038466.88031,3805648.83440,  -0.00259,  -0.00161,   0.00001,477378880.00000,   0.00178,276569792.00000,  -0.00198,   0.00013,  -0.00004,   0.00000,   2.00000
-363412777.20562,-539773791.07816,3957539.96254,  -0.00258,  -0.00162,   0.00001,477403552.00000,   0.00178,276572640.00000,  -0.00198,   0.00013,  -0.00004, -32.00000,   2.00000
-360831681.91827,-540480703.96212,4110122.34386,  -0.00257,  -0.00163,   0.00001,477437120.00000,   0.00179,276575616.00000,  -0.00198,   0.00012,  -0.00004,   0.00000,   2.00000
-358212017.06972,-541161376.36181,4262704.39511,  -0.00255,  -0.00164,   0.00002,477442528.00000,   0.00179,276578592.00000,  -0.00198,   0.00012,  -0.00004,  32.00000,   2.00000
-355592589.94418,-541809549.78436,4414291.61460,  -0.00254,  -0.00165,   0.00002,477497600.00000,   0.00179,276581792.00000,  -0.00198,   0.00012,  -0.00004,  32.00000,   2.00000
-352940177.37227,-542437310.65232,4570126.71071,  -0.00253,  -0.00167,   0.00002,477482784.00000,   0.00180,276584928.00000,  -0.00198,   0.00011,  -0.00004,   0.00000,   2.00000
-350262925.83707,-543044168.86306,4723519.24318,  -0.00252,  -0.00168,   0.00002,477514528.00000,   0.00180,276588160.00000,  -0.00198,   0.00011,  -0.00004,  32.00000,   2.00000
-347574845.91372,-543624757.17165,4874279.77598,  -0.00250,  -0.00169,   0.00002,477558944.00000,   0.00180,276591552.00000,  -0.00198,   0.00011,  -0.00004, -64.00000,   2.00000
-344866750.08444,-544176852.02663,5022967.52265,  -0.00249,  -0.00170,   0.00003,477559808.00000,   0.00180,276594944.00000,  -0.00198,   0.00010,  -0.00004,   0.00000,   2.00000
-342131800.70436,-544697210.26122,5175731.91088,  -0.00248,  -0.00171,   0.00003,477599360.00000,   0.00181,276598464.00000,  -0.00198,   0.00010,  -0.00004,  96.00000,   2.00000
-339384972.30888,-545181174.18423,5320579.26890,  -0.00247,  -0.00172,   0.00003,477649920.00000,   0.00181,276602208.00000,  -0.00198,   0.00009,  -0.00004,  96.00000,   2.00000
-336601408.49015,-545631669.40338,5470773.58837,  -0.00245,  -0.00174,   0.00003,477644544.00000,   0.00182,276605920.00000,  -0.00199,   0.00009,  -0.00004,  32.00000,   2.00000
-333822469.45863,-546044165.46881,5625722.97719,  -0.00244,  -0.00175,   0.00003,477703136.00000,   0.00182,276609856.00000,  -0.00199,   0.00009,  -0.00004,  64.00000,   2.00000
-331006123.98947,-546428144.71577,5774099.97204,  -0.00243,  -0.00176,   0.00004,477711904.00000,   0.00182,276613856.00000,  -0.00199,   0.00008,  -0.00004, -32.00000,   2.00000
-328166457.57329,-546784587.69601,5927872.46861,  -0.00241,  -0.00177,   0.00004,477746752.00000,   0.00183,276617984.00000,  -0.00199,   0.00008,  -0.00004,  32.00000,   2.00000
-325322433.24917,-547115637.06085,6075058.41808,  -0.00240,  -0.00178,   0.00004,477770112.00000,   0.00183,276622176.00000,  -0.00199,   0.00007,  -0.00004,  32.00000,   2.00000
-322458757.08686,-547425739.87705,6234163.45163,  -0.00239,  -0.00180,   0.00004,477783008.00000,   0.00183,276626432.00000,  -0.00199,   0.00007,  -0.00004,   0.00000,   2.00000
-319592496.79876,-547717284.01497,6386747.94961,  -0.00237,  -0.00181,   0.00005,477803008.00000,   0.00184,276630752.00000,  -0.00199,   0.00006,  -0.00004,  32.00000,   2.00000
-316706642.51250,-547994167.49776,6538787.28189,  -0.00236,  -0.00182,   0.00005,477831168.00000,   0.00184,276635168.00000,  -0.00199,   0.00006,  -0.00004, 160.00000,   2.00000
-313802665.63910,-548257032.09039,6696653.43132,  -0.00235,  -0.00183,   0.00005,477841376.00000,   0.00185,276639616.00000,  -0.00199,   0.00005,  -0.00004,   0.00000,   2.00000
-310897244.72222,-548506003.96996,6854076.20386,  -0.00233,  -0.00184,   0.00005,477860320.00000,   0.00185,276644096.00000,  -0.00199,   0.00005,  -0.00004,  32.00000,   2.00000
-307956682.98646,-548743804.08012,7011025.81745,  -0.00232,  -0.00186,   0.00005,477880096.00000,   0.00186,276648640.00000,  -0.00199,   0.00004,  -0.00004,  32.00000,   2.00000
-305030972.89265,-548965592.40781,7173412.63157,  -0.00231,  -0.00187,   0.00006,477909664.00000,   0.00186,276653248.00000,  -0.00199,   0.00004,  -0.00004, -64.00000,   2.00000
-302071299.89257,-549174605.36669,7329437.75248,  -0.00229,  -0.00188,   0.00006,477913088.00000,   0.00186,276657888.00000,  -0.00199,   0.00003,  -0.00004,   0.00000,   2.00000
-299110082.10264,-549366420.07628,7490944.24606,  -0.00228,  -0.00189,   0.00006,477935936.00000,   0.00187,276662560.00000,  -0.00199,   0.00003,  -0.00004, -64.00000,   2.00000
-296146683.17734,-549540082.14030,7651425.22375,  -0.00227,  -0.00190,   0.00006,477978016.00000,   0.00187,276667392.00000,  -0.00199,   0.00002,  -0.00004,  32.00000,   2.00000
-293165386.32349,-549694662.43906,7811274.55400,  -0.00225,  -0.00192,   0.00007,477994560.00000,   0.00188,276672224.00000,  -0.00199,   0.00001,  -0.00004,  64.00000,   2.00000
-290165432.35108,-549828225.43395,7976179.85210,  -0.00224,  -0.00193,   0.00007,478031136.00000,   0.00188,276677216.00000,  -0.00199,   0.00001,  -0.00004,   0.00000,   2.00000
-287148461.57375,-549939352.38796,8134566.39946,  -0.00223,  -0.00194,   0.00007,478031808.00000,   0.00189,276682176.00000,  -0.00199,   0.00000,  -0.00003,   0.00000,   2.00000
-284147352.71778,-550024734.83753,8297612.27518,  -0.00221,  -0.00195,   0.00007,478088640.00000,   0.00189,276687360.00000,  -0.00199,  -0.00000,  -0.00003,   0.00000,   2.00000
-281111265.13724,-550084557.55895,8459978.45300,  -0.00220,  -0.00196,   0.00008,478102496.00000,   0.00190,276692544.00000,  -0.00199,  -0.00001,  -0.00003,  32.00000,   2.00000
-278073606.42878,-550118253.81193,8621290.73838,  -0.00219,  -0.00198,   0.00008,478131776.00000,   0.00190,276697856.00000,  -0.00199,  -0.00002,  -0.00003,  64.00000,   2.00000
-275034307.53835,-550128649.45536,8787418.58517,  -0.00217,  -0.00199,   0.00008,478175520.00000,   0.00191,276703328.00000,  -0.00199,  -0.00002,  -0.00003,  32.00000,   2.00000
-271960483.33418,-550118670.87662,8953373.09041,  -0.00216,  -0.00200,   0.00008,478180992.00000,   0.00191,276708800.00000,  -0.00199,  -0.00003,  -0.00003,   0.00000,   2.00000
-268906860.71252,-550088419.16326,9112911.89155,  -0.00214,  -0.00201,   0.00009,478211808.00000,   0.00192,276714400.00000,  -0.00199,  -0.00003,  -0.00003, -32.00000,   2.00000
-265838706.32229,-550033818.27294,9278099.77337,  -0.00213,  -0.00203,   0.00009,478250976.00000,   0.00192,276720160.00000,  -0.00199,  -0.00004,  -0.00003,  96.00000,   2.00000
-262754011.48569,-549951700.24612,9449267.51349,  -0.00212,  -0.00204,   0.00009,478256128.00000,   0.00193,276725920.00000,  -0.00199,  -0.00005,  -0.00003,  32.00000,   2.00000
-259671552.75991,-549844220.18219,9612912.84516,  -0.00210,  -0.00205,   0.00009,478304960.00000,   0.00193,276731840.00000,  -0.00199,  -0.00005,  -0.00003, -32.00000,   2.00000
-256572292.13210,-549711985.47322,9781473.74816,  -0.00209,  -0.00206,   0.00010,478326016.00000,   0.00194,276737856.00000,  -0.00199,  -0.00006,  -0.00003, -96.00000,   2.00000
-253475641.55461,-549558513.55605,9948117.85405,  -0.00207,  -0.00207,   0.00010,478370368.00000,   0.00194,276744000.00000,  -0.00199,  -0.00007,  -0.00003, -64.00000,   2.00000
-250381113.63861,-549385304.05834,10113174.43248,  -0.00206,  -0.00209,   0.00010,478394336.00000,   0.00195,276750240.00000,  -0.00199,  -0.00008,  -0.00003, -32.00000,   2.00000
-247269618.46032,-549192043.30374,10277230.97095,  -0.00204,  -0.00210,   0.00010,478391680.00000,   0.00196,276756480.00000,  -0.00199,  -0.00008,  -0.00003, 128.00000,   2.00000
-244163545.67504,-548980504.48553,10438811.43201,  -0.00203,  -0.00211,   0.00011,478451936.00000,   0.00196,276762912.00000,  -0.00199,  -0.00009,  -0.00003, -32.00000,   2.00000
-241040831.65495,-548748481.29563,10605530.45109,  -0.00202,  -0.00212,   0.00011,478450080.00000,   0.00197,276769376.00000,  -0.00199,  -0.00010,  -0.00003,  32.00000,   2.00000
-237921843.01720,-548497781.04263,10770681.10717,  -0.00200,  -0.00214,   0.00011,478473952.00000,   0.00197,276775872.00000,  -0.00199,  -0.00010,  -0.00003,  96.00000,   2.00000
-234790031.76704,-548227041.12020,10927874.84162,  -0.00199,  -0.00215,   0.00011,478510208.00000,   0.00198,276782528.00000,  -0.00199,  -0.00011,  -0.00003,  96.00000,   2.00000
-231662296.71137,-547935741.38938,11095698.20287,  -0.00197,  -0.00216,   0.00012,478536544.00000,   0.00199,276789280.00000,  -0.00199,  -0.00012,  -0.00003,  96.00000,   2.00000
-228522667.41884,-547623736.11304,11255536.01243,  -0.00196,  -0.00217,   0.00012,478574208.00000,   0.00199,276796160.00000,  -0.00199,  -0.00013,  -0.00003,  32.00000,   2.00000
-225405175.89964,-547293525.44714,11414171.86733,  -0.00194,  -0.00219,   0.00012,478588576.00000,   0.00200,276803072.00000,  -0.00199,  -0.00014,  -0.00003,   0.00000,   2.00000
-222276219.42510,-546940995.81282,11577004.87890,  -0.00193,  -0.00220,   0.00013,478628384.00000,   0.00201,276810144.00000,  -0.00198,  -0.00014,  -0.00002, -96.00000,   2.00000
-219134198.33662,-546566162.51308,11738464.40426,  -0.00192,  -0.00221,   0.00013,478649856.00000,   0.00201,276817280.00000,  -0.00198,  -0.00015,  -0.00002, -64.00000,   2.00000
-215998149.04486,-546169829.37020,11898355.19741,  -0.00190,  -0.00222,   0.00013,478677888.00000,   0.00202,276824544.00000,  -0.00198,  -0.00016,  -0.00002,-896.00000,   1.00000
-212869261.45385,-545754621.66277,12056764.49821,  -0.00189,  -0.00224,   0.00013,478705280.00000,   0.00203,276831872.00000,  -0.00198,  -0.00017,  -0.00002,-608.00000,   1.00000
-209728094.38705,-545316510.21736,12213854.78386,  -0.00187,  -0.00225,   0.00014,478728288.00000,   0.00203,276839296.00000,  -0.00198,  -0.00018,  -0.00002,-224.00000,   1.00000
-206616569.12515,-544861109.22674,12374818.39281,  -0.00186,  -0.00226,   0.00014,478782176.00000,   0.00204,276846880.00000,  -0.00198,  -0.00019,  -0.00002, 416.00000,   1.00000
-203473950.82986,-544380128.79398,12528589.87433,  -0.00184,  -0.00227,   0.00014,478799872.00000,   0.00205,276854560.00000,  -0.00198,  -0.00019,  -0.00002, 736.00000,   1.00000
-200358611.31229,-543880727.13105,12686855.73056,  -0.00183,  -0.00229,   0.00015,478834976.00000,   0.00206,276862368.00000,  -0.00198,  -0.00020,  -0.00002, -64.00000,   2.00000
-197232271.85689,-543359558.87342,12843965.92826,  -0.00181,  -0.00230,   0.00015,478857792.00000,   0.00206,276870240.00000,  -0.00197,  -0.00021,  -0.00002, -96.00000,   2.00000
-194114592.58857,-542819423.11120,12999791.37940,  -0.00180,  -0.00231,   0.00015,478886528.00000,   0.00207,276878208.00000,  -0.00197,  -0.00022,  -0.00002, -64.00000,   2.00000
-191009391.59194,-542261780.34371,13153806.39552,  -0.00178,  -0.00233,   0.00015,478933568.00000,   0.00208,276886336.00000,  -0.00197,  -0.00023,  -0.00002,   0.00000,   2.00000
-187913044.54730,-541685913.42473,13312754.73882,  -0.00177,  -0.00234,   0.00016,478962464.00000,   0.00209,276894560.00000,  -0.00197,  -0.00024,  -0.00002, -32.00000,   2.00000
-184805927.81085,-541090062.25451,13464710.05802,  -0.00175,  -0.00235,   0.00016,478985184.00000,   0.00209,276902880.00000,  -0.00197,  -0.00025,  -0.00002, -32.00000,   2.00000
-181707650.61967,-540477538.40235,13621781.88378,  -0.00174,  -0.00236,   0.00016,479013696.00000,   0.00210,276911296.00000,  -0.00197,  -0.00026,  -0.00001,  32.00000,   2.00000
-178618262.88712,-539849553.32983,13777987.45168,  -0.00172,  -0.00238,   0.00017,479041408.00000,   0.00211,276919776.00000,  -0.00196,  -0.00027,  -0.00001, -64.00000,   2.00000
-175517713.75057,-539202751.91428,13933628.58569,  -0.00171,  -0.00239,   0.00017,479064352.00000,   0.00212,276928320.00000,  -0.00196,  -0.00028,  -0.00001, -64.00000,   2.00000
-172450931.10495,-538546769.72260,14087928.67989,  -0.00169,  -0.00240,   0.00017,479115072.00000,   0.00213,276937024.00000,  -0.00196,  -0.00029,  -0.00001,  32.00000,   2.00000
-169368923.03023,-537870856.12840,14242471.65856,  -0.00168,  -0.00241,   0.00017,479119936.00000,   0.00213,276945760.00000,  -0.00196,  -0.00030,  -0.00001,  64.00000,   2.00000
-166301215.20078,-537181484.76869,14395828.06703,  -0.00166,  -0.00243,   0.00018,479166624.00000,   0.00214,276954624.00000,  -0.00196,  -0.00031,  -0.00001, -64.00000,   2.00000
-163243171.48335,-536478424.09839,14554507.95399,  -0.00165,  -0.00244,   0.00018,479194816.00000,   0.00215,276963584.00000,  -0.00195,  -0.00032,  -0.00001, 864.00000,   1.00000
-160194023.38018,-535761497.61168,14706036.96099,  -0.00164,  -0.00245,   0.00018,479222080.00000,   0.00216,276972640.00000,  -0.00195,  -0.00033,  -0.00001, 736.00000,   1.00000
-157132884.17253,-535026744.96103,14862584.92455,  -0.00162,  -0.00247,   0.00019,479244256.00000,   0.00217,276981728.00000,  -0.00195,  -0.00034,  -0.00001, 800.00000,   1.00000
-154100898.90615,-534284627.06057,15017724.66353,  -0.00161,  -0.00248,   0.00019,479273184.00000,   0.00218,276990912.00000,  -0.00195,  -0.00035,  -0.00001, 672.00000,   1.00000
-151057808.50735,-533524822.81649,15171706.07813,  -0.00159,  -0.00249,   0.00019,479293984.00000,   0.00219,277000160.00000,  -0.00194,  -0.00036,  -0.00000, 544.00000,   1.00000
-148030656.83577,-532753369.24282,15323782.16339,  -0.00158,  -0.00250,   0.00020,479337184.00000,   0.00219,277009568.00000,  -0.00194,  -0.00037,  -0.00000, 480.00000,   1.00000
-145009898.26142,-531966029.52767,15475164.14804,  -0.00156,  -0.00252,   0.00020,479343904.00000,   0.00220,277018976.00000,  -0.00194,  -0.00038,  -0.00000, 128.00000,   1.00000
-142007244.18471,-531165477.79377,15630659.83401,  -0.00155,  -0.00253,   0.00020,479388096.00000,   0.00221,277028576.00000,  -0.00194,  -0.00039,  -0.00000,-256.00000,   1.00000
-139018013.24737,-530351175.82337,15778735.06692,  -0.00153,  -0.00254,   0.00020,479412928.00000,   0.00222,277038272.00000,  -0.00193,  -0.00040,  -0.00000,-672.00000,   1.00000
-136042462.19062,-529523591.73601,15931618.04220,  -0.00152,  -0.00256,   0.00021,479438784.00000,   0.00223,277048032.00000,  -0.00193,  -0.00041,   0.00000, -64.00000,   2.00000
-133074565.78775,-528680937.23585,16077772.08117,  -0.00150,  -0.00257,   0.00021,479446144.00000,   0.00224,277057856.00000,  -0.00193,  -0.00042,   0.00000,   0.00000,   2.00000
-130125909.08909,-527826812.35110,16228122.17523,  -0.00149,  -0.00258,   0.00021,479490496.00000,   0.00225,277067808.00000,  -0.00192,  -0.00043,   0.00000, -64.00000,   2.00000
-127169543.38150,-526954848.33234,16377360.61612,  -0.00147,  -0.00259,   0.00022,479512960.00000,   0.00226,277077824.00000,  -0.00192,  -0.00044,   0.00000,  32.00000,   2.00000
-124253184.04832,-526079757.36844,16524639.09005,  -0.00146,  -0.00261,   0.00022,479559200.00000,   0.00227,277088032.00000,  -0.00192,  -0.00046,   0.00001, -64.00000,   2.00000
-121342967.93813,-525192317.75287,16671390.43071,  -0.00144,  -0.00262,   0.00022,479565632.00000,   0.00228,277098240.00000,  -0.00191,  -0.00047,   0.00001,  32.00000,   2.00000
-118423969.35549,-524288342.52169,16817038.29322,  -0.00143,  -0.00263,   0.00023,479587968.00000,   0.00229,277108512.00000,  -0.00191,  -0.00048,   0.00001,  96.00000,   2.00000
-115538017.33923,-523381447.65342,16961394.87715,  -0.00141,  -0.00265,   0.00023,479614944.00000,   0.00230,277118880.00000,  -0.00191,  -0.00049,   0.00001,  96.00000,   2.00000
-112663939.83950,-522465203.99059,17104533.68831,  -0.00140,  -0.00266,   0.00023,479639488.00000,   0.00231,277129312.00000,  -0.00190,  -0.00050,   0.00001,   0.00000,   2.00000
-109808559.31525,-521541910.93991,17251840.18714,  -0.00138,  -0.00267,   0.00024,479682528.00000,   0.00232,277139872.00000,  -0.00190,  -0.00051,   0.00001,  64.00000,   2.00000
-106937372.46147,-520601360.94857,17392586.24011,  -0.00137,  -0.00268,   0.00024,479685984.00000,   0.00233,277150432.00000,  -0.00189,  -0.00052,   0.00001,  96.00000,   2.00000
-104106599.48242,-519661558.06430,17531329.58994,  -0.00135,  -0.00270,   0.00024,479730720.00000,   0.00234,277161152.00000,  -0.00189,  -0.00054,   0.00001,  96.00000,   2.00000
-101281157.12372,-518709999.58658,17675576.00339,  -0.00134,  -0.00271,   0.00025,479737728.00000,   0.00235,277171840.00000,  -0.00189,  -0.00055,   0.00002,  32.00000,   2.00000
-98468515.99995,-517750144.69388,17818550.01366,  -0.00132,  -0.00272,   0.00025,479762112.00000,   0.00236,277182624.00000,  -0.00188,  -0.00056,   0.00002,   0.00000,   2.00000
-95676379.62749,-516785375.91144,17953496.67353,  -0.00131,  -0.00274,   0.00025,479803904.00000,   0.00237,277193568.00000,  -0.00188,  -0.00057,   0.00002,  96.00000,   2.00000
-92890170.44788,-515808921.93481,18093958.02689,  -0.00129,  -0.00275,   0.00025,479811104.00000,   0.00238,277204480.00000,  -0.00187,  -0.00058,   0.00002,  64.00000,   2.00000
-90125147.20593,-514827276.91295,18232443.71975,  -0.00128,  -0.00276,   0.00026,479853504.00000,   0.00239,277215552.00000,  -0.00187,  -0.00060,   0.00002, 128.00000,   2.00000
-87366434.96032,-513835641.55546,18364322.00321,  -0.00126,  -0.00277,   0.00026,479859392.00000,   0.00240,277226624.00000,  -0.00187,  -0.00061,   0.00002, 128.00000,   2.00000
-84642829.52349,-512843262.49297,18500971.43972,  -0.00125,  -0.00279,   0.00026,479885760.00000,   0.00241,277237760.00000,  -0.00186,  -0.00062,   0.00002,  64.00000,   2.00000
-81919845.18187,-511838870.79713,18635711.65688,  -0.00123,  -0.00280,   0.00027,479926432.00000,   0.00242,277249056.00000,  -0.00186,  -0.00063,   0.00002,  32.00000,   2.00000
-79224262.11977,-510832195.66307,18769883.01481,  -0.00122,  -0.00281,   0.00027,479934016.00000,   0.00243,277260352.00000,  -0.00185,  -0.00064,   0.00003,  32.00000,   2.00000
-76542635.05938,-509818864.02674,18902830.67070,  -0.00120,  -0.00283,   0.00027,479958112.00000,   0.00244,277271712.00000,  -0.00185,  -0.00066,   0.00003, 128.00000,   2.00000
-73883039.71613,-508802336.60796,19033831.44435,  -0.00119,  -0.00284,   0.00028,479999712.00000,   0.00245,277283200.00000,  -0.00184,  -0.00067,   0.00003,  32.00000,   2.00000
-71229042.10475,-507776494.08349,19164361.03247,  -0.00117,  -0.00285,   0.00028,480005792.00000,   0.00246,277294688.00000,  -0.00184,  -0.00068,   0.00003,  64.00000,   2.00000
-68588731.80377,-506744780.49597,19293688.22301,  -0.00116,  -0.00287,   0.00028,480029568.00000,   0.00247,277306272.00000,  -0.00183,  -0.00069,   0.00003,  64.00000,   2.00000
-65983297.95826,-505715983.77402,19421789.96535,  -0.00114,  -0.00288,   0.00029,480053984.00000,   0.00249,277317888.00000,  -0.00183,  -0.00071,   0.00003,  96.00000,   2.00000
-63391303.88124,-504681932.18519,19548696.35481,  -0.00113,  -0.00289,   0.00029,480077696.00000,   0.00250,277329568.00000,  -0.00182,  -0.00072,   0.00004,  32.00000,   2.00000
-60812742.51506,-503642914.65570,19674405.02100,  -0.00111,  -0.00290,   0.00029,480101280.00000,   0.00251,277341312.00000,  -0.00182,  -0.00073,   0.00004,  32.00000,   2.00000
-58247655.48144,-502599117.94666,19798902.42408,  -0.00110,  -0.00292,   0.00030,480124960.00000,   0.00252,277353120.00000,  -0.00181,  -0.00074,   0.00004,   0.00000,   2.00000
-55696130.53659,-501549917.97962,19928213.98246,  -0.00108,  -0.00293,   0.00030,480149440.00000,   0.00253,277364992.00000,  -0.00181,  -0.00076,   0.00004, -64.00000,   2.00000
-53170772.28231,-500501887.12893,20050924.26485,  -0.00107,  -0.00294,   0.00030,480155424.00000,   0.00254,277376832.00000,  -0.00180,  -0.00077,   0.00004, -96.00000,   2.00000
-50668185.47712,-499453589.72290,20171594.35244,  -0.00105,  -0.00296,   0.00031,480196576.00000,   0.00255,277388800.00000,  -0.00180,  -0.00078,   0.00004, 128.00000,   2.00000
-48170644.37994,-498396820.99027,20291692.08875,  -0.00104,  -0.00297,   0.00031,480203200.00000,   0.00256,277400800.00000,  -0.00179,  -0.00079,   0.00004, -64.00000,   2.00000
-45696574.40555,-497340119.97813,20409658.02390,  -0.00102,  -0.00298,   0.00031,480244544.00000,   0.00258,277412896.00000,  -0.00179,  -0.00081,   0.00005, 128.00000,   2.00000
-43249197.32491,-496284253.48717,20526977.83392,  -0.00101,  -0.00299,   0.00031,480251200.00000,   0.00259,277424992.00000,  -0.00178,  -0.00082,   0.00005,  64.00000,   2.00000
-40816510.09310,-495224506.11486,20642843.70400,  -0.00099,  -0.00301,   0.00032,480274976.00000,   0.00260,277437120.00000,  -0.00177,  -0.00083,   0.00005,   0.00000,   2.00000
-38419932.35959,-494170444.34760,20757231.76553,  -0.00098,  -0.00302,   0.00032,480298400.00000,   0.00261,277449344.00000,  -0.00177,  -0.00085,   0.00005,  64.00000,   2.00000
-36016793.53510,-493103393.58000,20870081.12981,  -0.00097,  -0.00303,   0.00032,480322240.00000,   0.00262,277461632.00000,  -0.00176,  -0.00086,   0.00005,  96.00000,   2.00000
-33649575.40342,-492042363.31467,20981398.86700,  -0.00095,  -0.00304,   0.00033,480345184.00000,   0.00263,277473952.00000,  -0.00176,  -0.00087,   0.00005,   0.00000,   2.00000
-31307918.70225,-490983489.25111,21092008.52261,  -0.00094,  -0.00306,   0.00033,480350208.00000,   0.00264,277486272.00000,  -0.00175,  -0.00088,   0.00006,  96.00000,   2.00000
-28967156.29313,-489916811.94609,21200311.09101,  -0.00092,  -0.00307,   0.00033,480389888.00000,   0.00266,277498688.00000,  -0.00175,  -0.00090,   0.00006,  32.00000,   2.00000
-26647466.96855,-488853269.84263,21308135.78078,  -0.00091,  -0.00308,   0.00034,480393024.00000,   0.00267,277511104.00000,  -0.00174,  -0.00091,   0.00006,  96.00000,   2.00000
-24352681.52482,-487799089.95048,21409025.43603,  -0.00089,  -0.00310,   0.00034,480410400.00000,   0.00268,277523520.00000,  -0.00173,  -0.00092,   0.00006,  64.00000,   2.00000
-22023531.63961,-486728473.15415,21516484.07646,  -0.00088,  -0.00311,   0.00034,480410336.00000,   0.00269,277535840.00000,  -0.00173,  -0.00094,   0.00006,   0.00000,   2.00000
-19758519.44339,-485676949.78761,21622671.43350,  -0.00086,  -0.00312,   0.00035,480442464.00000,   0.00270,277548288.00000,  -0.00172,  -0.00095,   0.00007, 192.00000,   2.00000
-17533100.02595,-484604967.52456,21720399.30100,  -0.00085,  -0.00313,   0.00035,480456224.00000,   0.00272,277560928.00000,  -0.00172,  -0.00096,   0.00007,   0.00000,   2.00000
-15350558.63801,-483550863.51687,21822778.67834,  -0.00084,  -0.00315,   0.00035,480499008.00000,   0.00273,277573664.00000,  -0.00171,  -0.00098,   0.00007, 192.00000,   2.00000
-13093410.56710,-482509165.76216,21924204.01267,  -0.00082,  -0.00316,   0.00036,480472512.00000,   0.00274,277586016.00000,  -0.00170,  -0.00099,   0.00007,  32.00000,   2.00000
-10816765.57322,-481451387.45972,22030780.59435,  -0.00081,  -0.00317,   0.00036,480469696.00000,   0.00275,277598304.00000,  -0.00170,  -0.00100,   0.00007,  64.00000,   2.00000
-8648118.56860,-480412949.76812,22126080.35013,  -0.00079,  -0.00318,   0.00036,480517856.00000,   0.00276,277610880.00000,  -0.00169,  -0.00102,   0.00007, 128.00000,   2.00000
-6486173.74282,-479355497.63617,22219130.76749,  -0.00078,  -0.00320,   0.00037,480531424.00000,   0.00278,277623552.00000,  -0.00168,  -0.00103,   0.00008, 128.00000,   2.00000
-4367351.22613,-478305695.25822,22316580.23256,  -0.00076,  -0.00321,   0.00037,480554848.00000,   0.00279,277636256.00000,  -0.00168,  -0.00104,   0.00008,  96.00000,   2.00000
-2284099.11990,-477266557.85839,22406964.57402,  -0.00075,  -0.00322,   0.00037,480573504.00000,   0.00280,277649024.00000,  -0.00167,  -0.00106,   0.00008,  96.00000,   2.00000
-212457.84786,-476226861.60920,22496504.91753,  -0.00074,  -0.00323,   0.00037,480593568.00000,   0.00281,277661824.00000,  -0.00166,  -0.00107,   0.00008,   0.00000,   2.00000
1838385.19287,-475192878.96635,22580202.93982,  -0.00072,  -0.00325,   0.00038,480594080.00000,   0.00282,277674592.00000,  -0.00166,  -0.00108,   0.00008, 192.00000,   2.00000
3879535.57499,-474157725.98688,22669264.57399,  -0.00071,  -0.00326,   0.00038,480614528.00000,   0.00284,277687360.00000,  -0.00165,  -0.00109,   0.00009,  96.00000,   2.00000
5922676.48358,-473116812.64825,22758536.51188,  -0.00069,  -0.00327,   0.00038,480617248.00000,   0.00285,277700096.00000,  -0.00164,  -0.00111,   0.00009,  96.00000,   2.00000
7925893.27535,-472093028.69470,22840441.13500,  -0.00068,  -0.00328,   0.00039,480650496.00000,   0.00286,277712928.00000,  -0.00164,  -0.00112,   0.00009,  64.00000,   2.00000
9911448.27719,-471073458.23021,22928900.20940,  -0.00067,  -0.00330,   0.00039,480651968.00000,   0.00287,277725696.00000,  -0.00163,  -0.00113,   0.00009,  96.00000,   2.00000
11889401.82364,-470054522.34001,23010964.94105,  -0.00065,  -0.00331,   0.00039,480670080.00000,   0.00288,277738496.00000,  -0.00162,  -0.00115,   0.00009, 160.00000,   2.00000
13847549.53829,-469040581.25366,23093728.71009,  -0.00064,  -0.00332,   0.00040,480670944.00000,   0.00290,277751232.00000,  -0.00162,  -0.00116,   0.00010, -32.00000,   2.00000
15793174.92183,-468026865.52163,23176244.25295,  -0.00063,  -0.00333,   0.00040,480690816.00000,   0.00291,277764000.00000,  -0.00161,  -0.00117,   0.00010, 192.00000,   2.00000
17702937.32246,-467024314.19116,23258514.75072,  -0.00061,  -0.00335,   0.00040,480709504.00000,   0.00292,277776832.00000,  -0.00160,  -0.00119,   0.00010,  32.00000,   2.00000
19608765.28309,-466016340.75213,23341187.37817,  -0.00060,  -0.00336,   0.00041,480713856.00000,   0.00293,277789600.00000,  -0.00160,  -0.00120,   0.00010, 128.00000,   2.00000
21468395.81099,-465027007.85949,23416532.89423,  -0.00058,  -0.00337,   0.00041,480748000.00000,   0.00295,277802496.00000,  -0.00159,  -0.00121,   0.00010,  32.00000,   2.00000
23337819.58588,-464024959.96334,23499021.80757,  -0.00057,  -0.00338,   0.00041,480736544.00000,   0.00296,277815296.00000,  -0.00158,  -0.00123,   0.00011,  32.00000,   2.00000
25163306.29043,-463042063.09720,23574138.21553,  -0.00056,  -0.00340,   0.00041,480769664.00000,   0.00297,277828160.00000,  -0.00157,  -0.00124,   0.00011, 160.00000,   2.00000
26968093.45258,-462064703.61218,23649661.12251,  -0.00054,  -0.00341,   0.00042,480770880.00000,   0.00298,277840992.00000,  -0.00157,  -0.00125,   0.00011,  32.00000,   2.00000
28773519.64194,-461081463.02723,23725507.68991,  -0.00053,  -0.00342,   0.00042,480774272.00000,   0.00299,277853792.00000,  -0.00156,  -0.00127,   0.00011,  96.00000,   2.00000
30547346.25483,-460110460.83135,23801024.72147,  -0.00052,  -0.00343,   0.00042,480791040.00000,   0.00301,277866592.00000,  -0.00155,  -0.00128,   0.00011,  64.00000,   2.00000
32289932.37263,-459152449.25270,23870223.22932,  -0.00050,  -0.00344,   0.00043,480806688.00000,   0.00302,277879424.00000,  -0.00155,  -0.00129,   0.00012,  96.00000,   2.00000
34022175.18059,-458194351.42204,23945114.12104,  -0.00049,  -0.00346,   0.00043,480826432.00000,   0.00303,277892256.00000,  -0.00154,  -0.00130,   0.00012,  32.00000,   2.00000
35746930.61059,-457236243.63981,24015436.03436,  -0.00048,  -0.00347,   0.00043,480808992.00000,   0.00304,277904992.00000,  -0.00153,  -0.00132,   0.00012,  96.00000,   2.00000
37450174.94238,-456285698.91644,24084621.83018,  -0.00046,  -0.00348,   0.00043,480843616.00000,   0.00306,277917824.00000,  -0.00152,  -0.00133,   0.00012, 128.00000,   2.00000
39113792.68752,-455352508.11002,24154610.51900,  -0.00045,  -0.00349,   0.00044,480839872.00000,   0.00307,277930560.00000,  -0.00152,  -0.00134,   0.00012, -32.00000,   2.00000
40788994.85862,-454408753.16549,24224146.34856,  -0.00044,  -0.00350,   0.00044,480860448.00000,   0.00308,277943360.00000,  -0.00151,  -0.00136,   0.00013, 128.00000,   2.00000
42425259.59458,-453483417.22871,24288420.37166,  -0.00042,  -0.00352,   0.00044,480855168.00000,   0.00309,277956064.00000,  -0.00150,  -0.00137,   0.00013,  32.00000,   2.00000
44052618.13653,-452559221.54037,24352351.37080,  -0.00041,  -0.00353,   0.00045,480872384.00000,   0.00310,277968800.00000,  -0.00149,  -0.00138,   0.00013, 128.00000,   2.00000
45662269.74744,-451640899.66439,24416859.09783,  -0.00040,  -0.00354,   0.00045,480870560.00000,   0.00312,277981504.00000,  -0.00149,  -0.00140,   0.00013,  64.00000,   2.00000
47242557.14005,-450735626.32891,24481079.04488,  -0.00039,  -0.00355,   0.00045,480884160.00000,   0.00313,277994176.00000,  -0.00148,  -0.00141,   0.00013, 128.00000,   2.00000
48826586.16100,-449825260.27496,24539590.86169,  -0.00037,  -0.00356,   0.00045,480884000.00000,   0.00314,278006816.00000,  -0.00147,  -0.00142,   0.00014, -32.00000,   2.00000
50381406.05397,-448927306.42792,24603784.73531,  -0.00036,  -0.00357,   0.00046,480898272.00000,   0.00315,278019456.00000,  -0.00147,  -0.00143,   0.00014, -32.00000,   2.00000
51919619.07587,-448036334.90474,24662335.21960,  -0.00035,  -0.00359,   0.00046,480894496.00000,   0.00316,278032032.00000,  -0.00146,  -0.00145,   0.00014,  96.00000,   2.00000
53449885.50765,-447146672.55421,24720278.71636,  -0.00034,  -0.00360,   0.00046,480910752.00000,   0.00318,278044640.00000,  -0.00145,  -0.00146,   0.00014,  64.00000,   2.00000
54943179.86836,-446275981.35974,24772703.15097,  -0.00032,  -0.00361,   0.00046,480903520.00000,   0.00319,278057152.00000,  -0.00144,  -0.00147,   0.00014,   0.00000,   2.00000
56440842.11710,-445398542.32213,24831330.42349,  -0.00031,  -0.00362,   0.00047,480904384.00000,   0.00320,278069632.00000,  -0.00144,  -0.00148,   0.00014, -64.00000,   2.00000
57918931.26124,-444530796.37183,24882409.87356,  -0.00030,  -0.00363,   0.00047,480935168.00000,   0.00321,278082176.00000,  -0.00143,  -0.00150,   0.00015,  64.00000,   2.00000
59372820.69342,-443674781.49569,24928769.83191,  -0.00029,  -0.00364,   0.00047,480911648.00000,   0.00322,278094560.00000,  -0.00142,  -0.00151,   0.00015, 128.00000,   2.00000
60819190.59234,-442819384.85688,24980496.41141,  -0.00027,  -0.00365,   0.00048,480928352.00000,   0.00324,278106976.00000,  -0.00141,  -0.00152,   0.00015,  96.00000,   2.00000
62237819.17089,-441978530.35771,25025680.76426,  -0.00026,  -0.00367,   0.00048,480939520.00000,   0.00325,278119392.00000,  -0.00141,  -0.00153,   0.00015,  64.00000,   2.00000
63653258.33352,-441136326.45528,25072035.60765,  -0.00025,  -0.00368,   0.00048,480920096.00000,   0.00326,278131680.00000,  -0.00140,  -0.00155,   0.00015,  32.00000,   2.00000
65028617.46133,-440315622.25169,25117117.79116,  -0.00024,  -0.00369,   0.00048,480947584.00000,   0.00327,278144032.00000,  -0.00139,  -0.00156,   0.00016,  32.00000,   2.00000
66421848.74059,-439482070.47729,25157199.19230,  -0.00022,  -0.00370,   0.00049,480930784.00000,   0.00328,278156224.00000,  -0.00138,  -0.00157,   0.00016,  64.00000,   2.00000
67766582.38981,-438673844.76699,25203118.90443,  -0.00021,  -0.00371,   0.00049,480939808.00000,   0.00330,278168448.00000,  -0.00138,  -0.00158,   0.00016, -32.00000,   2.00000
69104742.50854,-437869081.15494,25236438.32862,  -0.00020,  -0.00372,   0.00049,480953024.00000,   0.00331,278180672.00000,  -0.00137,  -0.00160,   0.00016,  32.00000,   2.00000
70427548.44977,-437069722.63111,25276350.07674,  -0.00019,  -0.00373,   0.00049,480949984.00000,   0.00332,278192800.00000,  -0.00136,  -0.00161,   0.00016,  32.00000,   2.00000
71735482.71100,-436277522.24955,25310811.67168,  -0.00018,  -0.00374,   0.00050,480944832.00000,   0.00333,278204896.00000,  -0.00135,  -0.00162,   0.00017, 128.00000,   2.00000
73048827.28017,-435479101.45629,25345720.58534,  -0.00017,  -0.00376,   0.00050,480944384.00000,   0.00334,278216896.00000,  -0.00135,  -0.00163,   0.00017,  96.00000,   2.00000
74314068.94882,-434707478.14597,25380711.29118,  -0.00015,  -0.00377,   0.00050,480951744.00000,   0.00335,278228928.00000,  -0.00134,  -0.00164,   0.00017,  32.00000,   2.00000
75585011.11288,-433930418.91720,25410213.28193,  -0.00014,  -0.00378,   0.00050,480950240.00000,   0.00336,278240864.00000,  -0.00133,  -0.00166,   0.00017,   0.00000,   2.00000
76807991.29533,-433180454.69441,25439945.18709,  -0.00013,  -0.00379,   0.00050,480957024.00000,   0.00338,278252800.00000,  -0.00133,  -0.00167,   0.00017, -64.00000,   2.00000
78036801.21072,-432425104.33132,25464321.95540,  -0.00012,  -0.00380,   0.00051,480955488.00000,   0.00339,278264672.00000,  -0.00132,  -0.00168,   0.00018,  32.00000,   2.00000
79250539.86735,-431675250.73543,25495674.73086,  -0.00011,  -0.00381,   0.00051,480951744.00000,   0.00340,278276448.00000,  -0.00131,  -0.00169,   0.00018, 128.00000,   2.00000
80449723.95673,-430932563.14209,25521952.71900,  -0.00010,  -0.00382,   0.00051,480945952.00000,   0.00341,278288192.00000,  -0.00130,  -0.00170,   0.00018,  32.00000,   2.00000
81642057.22675,-430192647.26359,25542206.43133,  -0.00009,  -0.00383,   0.00051,480959584.00000,   0.00342,278299936.00000,  -0.00130,  -0.00171,   0.00018,  64.00000,   2.00000
82799424.70134,-429471842.00962,25563780.40690,  -0.00007,  -0.00384,   0.00052,480950240.00000,   0.00343,278311584.00000,  -0.00129,  -0.00173,   0.00018,   0.00000,   2.00000
83942388.59497,-428757427.52136,25586477.95186,  -0.00006,  -0.00385,   0.00052,480944992.00000,   0.00344,278323136.00000,  -0.00128,  -0.00174,   0.00019,  64.00000,   2.00000
85091331.40969,-428036575.72273,25610094.85045,  -0.00005,  -0.00386,   0.00052,480943904.00000,   0.00345,278334656.00000,  -0.00127,  -0.00175,   0.00019,  96.00000,   2.00000
86193173.04645,-427344083.49995,25628262.53799,  -0.00004,  -0.00387,   0.00052,480948480.00000,   0.00347,278346176.00000,  -0.00127,  -0.00176,   0.00019,   0.00000,   2.00000
87301550.09809,-426645876.34133,25641390.79316,  -0.00003,  -0.00388,   0.00052,480946176.00000,   0.00348,278357600.00000,  -0.00126,  -0.00177,   0.00019,  96.00000,   2.00000
88395860.04951,-425953212.38506,25661807.85292,  -0.00002,  -0.00389,   0.00053,480941408.00000,   0.00349,278368960.00000,  -0.00125,  -0.00178,   0.00019,   0.00000,   2.00000
89463808.13746,-425276046.86625,25676614.20481,  -0.00001,  -0.00390,   0.00053,480949792.00000,   0.00350,278380320.00000,  -0.00125,  -0.00179,   0.00019,  32.00000,   2.00000
90511405.58648,-424610275.94776,25687670.77200,   0.00000,  -0.00391,   0.00053,480922912.00000,   0.00351,278391520.00000,  -0.00124,  -0.00180,   0.00020,  64.00000,   2.00000
91553116.31779,-423946376.36190,25698990.44729,   0.00001,  -0.00392,   0.00053,480936224.00000,   0.00352,278402688.00000,  -0.00123,  -0.00181,   0.00020,  32.00000,   2.00000
92581893.52343,-423288498.40150,25711579.08592,   0.00002,  -0.00393,   0.00053,480929856.00000,   0.00353,278413824.00000,  -0.00122,  -0.00183,   0.00020, 128.00000,   2.00000
93598269.60324,-422637504.15937,25719398.14989,   0.00003,  -0.00394,   0.00054,480922304.00000,   0.00354,278424864.00000,  -0.00122,  -0.00184,   0.00020,   0.00000,   2.00000
94602247.07183,-421992475.01155,25728491.24942,   0.00004,  -0.00395,   0.00054,480915488.00000,   0.00355,278435840.00000,  -0.00121,  -0.00185,   0.00020,  64.00000,   2.00000
95581000.67267,-421362050.60815,25738054.11517,   0.00005,  -0.00396,   0.00054,480923584.00000,   0.00356,278446784.00000,  -0.00120,  -0.00186,   0.00020,  32.00000,   2.00000
96548225.69263,-420738375.73162,25742823.04362,   0.00006,  -0.00397,   0.00054,480915424.00000,   0.00357,278457664.00000,  -0.00120,  -0.00187,   0.00021,  32.00000,   2.00000
97517000.56786,-420111513.95710,25749594.41426,   0.00007,  -0.00398,   0.00054,480893120.00000,   0.00358,278468384.00000,  -0.00119,  -0.00188,   0.00021,  96.00000,   2.00000
98461579.31486,-419500010.76557,25750769.76471,   0.00008,  -0.00399,   0.00054,480899520.00000,   0.00359,278479072.00000,  -0.00118,  -0.00189,   0.00021,  64.00000,   2.00000
99395167.30655,-418894130.48149,25753156.44420,   0.00009,  -0.00400,   0.00055,480891840.00000,   0.00360,278489696.00000,  -0.00118,  -0.00190,   0.00021, 160.00000,   2.00000
