# sigma_xx, sigma_yy, sigma_xy, epsilon_xx, epsilon_yy, epsilon_xy, vonMises, epsPlastic, hardening, epsilonP__xx, epsilonP__yy, epsilonP__xy, yieldValue, iteration
   0.00000,   0.00000,   0.00000,   0.00000,   0.00000,   0.00000,1181185.37500,   0.00000,274640576.00000,   0.00000,   0.00000,   0.00000,-473459392.00000,   0.00000
   0.00000,   0.00000,   0.00000,   0.00000,   0.00000,   0.00000,1181185.37500,   0.00000,274640576.00000,   0.00000,   0.00000,   0.00000,-473459392.00000,   0.00000
-2853380.67692,-2654802.40280,-264771.03216,  -0.00001,  -0.00001,  -0.00000,2481577.25000,   0.00000,274640576.00000,   0.00000,   0.00000,   0.00000,-472159008.00000,   0.00000
-5723309.54334,-5316696.88681,-534270.11846,  -0.00002,  -0.00001,  -0.00001,5127609.50000,   0.00000,274640576.00000,   0.00000,   0.00000,   0.00000,-469512960.00000,   0.00000
-8576690.22026,-7971499.28961,-803769.20476,  -0.00002,  -0.00002,  -0.00001,7906855.50000,   0.00000,274640576.00000,   0.00000,   0.00000,   0.00000,-466733728.00000,   0.00000
-11439527.00546,-10616845.58412,-1077996.34521,  -0.00003,  -0.00003,  -0.00001,10729384.00000,   0.00000,274640576.00000,   0.00000,   0.00000,   0.00000,-463911200.00000,   0.00000
-14302363.79067,-13262191.87862,-1352223.48566,  -0.00004,  -0.00003,  -0.00002,13551206.00000,   0.00000,274640576.00000,   0.00000,   0.00000,   0.00000,-461089376.00000,   0.00000
-17148652.38637,-15900446.09191,-1626450.62611,  -0.00005,  -0.00004,  -0.00002,16354009.00000,   0.00000,274640576.00000,   0.00000,   0.00000,   0.00000,-458286560.00000,   0.00000
-20011489.17157,-18545792.38641,-1905405.82071,  -0.00005,  -0.00005,  -0.00002,19172964.00000,   0.00000,274640576.00000,   0.00000,   0.00000,   0.00000,-455467616.00000,   0.00000
-22874325.95678,-21191138.68092,-2184361.01530,  -0.00006,  -0.00005,  -0.00003,21997208.00000,   0.00000,274640576.00000,   0.00000,   0.00000,   0.00000,-452643360.00000,   0.00000
-25730070.66077,-23819936.78592,-2468044.26404,  -0.00007,  -0.00006,  -0.00003,24812032.00000,   0.00000,274640576.00000,   0.00000,   0.00000,   0.00000,-449828544.00000,   0.00000
-28585815.36476,-26448734.89091,-2746999.45864,  -0.00008,  -0.00006,  -0.00004,27620820.00000,   0.00000,274640576.00000,   0.00000,   0.00000,   0.00000,-447019760.00000,   0.00000
-31441560.06875,-29077532.99591,-3035410.76152,  -0.00009,  -0.00007,  -0.00004,30425890.00000,   0.00000,274640576.00000,   0.00000,   0.00000,   0.00000,-444214688.00000,   0.00000
-34290212.69152,-31689782.91139,-3319094.01026,  -0.00009,  -0.00008,  -0.00004,33213168.00000,   0.00000,274640576.00000,   0.00000,   0.00000,   0.00000,-441427408.00000,   0.00000
-37155413.50380,-34309124.90810,-3607505.31315,  -0.00010,  -0.00008,  -0.00005,36011824.00000,   0.00000,274640576.00000,   0.00000,   0.00000,   0.00000,-438628752.00000,   0.00000
-40004066.12657,-36921374.82358,-3900644.67018,  -0.00011,  -0.00009,  -0.00005,38799632.00000,   0.00000,274640576.00000,   0.00000,   0.00000,   0.00000,-435840944.00000,   0.00000
-42869266.93884,-39540716.82029,-4193784.02721,  -0.00012,  -0.00010,  -0.00005,41600688.00000,   0.00000,274640576.00000,   0.00000,   0.00000,   0.00000,-433039888.00000,   0.00000
-45717919.56161,-42152966.73578,-4486923.38425,  -0.00013,  -0.00010,  -0.00006,44390376.00000,   0.00000,274640576.00000,   0.00000,   0.00000,   0.00000,-430250208.00000,   0.00000
-48576028.29268,-44755760.54297,-4780062.74128,  -0.00013,  -0.00011,  -0.00006,47181236.00000,   0.00000,274640576.00000,   0.00000,   0.00000,   0.00000,-427459344.00000,   0.00000
-51434137.02374,-47358554.35016,-5077930.15246,  -0.00014,  -0.00012,  -0.00007,49972744.00000,   0.00000,274640576.00000,   0.00000,   0.00000,   0.00000,-424667840.00000,   0.00000
-54285153.67358,-49944799.96785,-5380525.61778,  -0.00015,  -0.00012,  -0.00007,52753512.00000,   0.00000,274640576.00000,   0.00000,   0.00000,   0.00000,-421887072.00000,   0.00000
-57143262.40464,-52547593.77504,-5683121.08310,  -0.00016,  -0.00013,  -0.00007,55544336.00000,   0.00000,274640576.00000,   0.00000,   0.00000,   0.00000,-419096240.00000,   0.00000
-59994279.05448,-55133839.39273,-5985716.54843,  -0.00017,  -0.00013,  -0.00008,58323940.00000,   0.00000,274640576.00000,   0.00000,   0.00000,   0.00000,-416316640.00000,   0.00000
-62838203.62311,-57703536.82090,-6288312.01375,  -0.00017,  -0.00014,  -0.00008,61093536.00000,   0.00000,274640576.00000,   0.00000,   0.00000,   0.00000,-413547040.00000,   0.00000
-65689220.27295,-60289782.43859,-6595635.53322,  -0.00018,  -0.00015,  -0.00009,63877456.00000,   0.00000,274640576.00000,   0.00000,   0.00000,   0.00000,-410763120.00000,   0.00000
-68533144.84157,-62859479.86676,-6907687.10683,  -0.00019,  -0.00015,  -0.00009,66654372.00000,   0.00000,274640576.00000,   0.00000,   0.00000,   0.00000,-407986208.00000,   0.00000
-71393617.59971,-65436269.37616,-7215010.62630,  -0.00020,  -0.00016,  -0.00009,69444560.00000,   0.00000,274640576.00000,   0.00000,   0.00000,   0.00000,-405196016.00000,   0.00000
-74230450.08711,-67989418.61482,-7527062.19992,  -0.00021,  -0.00016,  -0.00010,72215032.00000,   0.00000,274640576.00000,   0.00000,   0.00000,   0.00000,-402425536.00000,   0.00000
-77083830.76403,-70549659.93471,-7843841.82768,  -0.00021,  -0.00017,  -0.00010,75000304.00000,   0.00000,274640576.00000,   0.00000,   0.00000,   0.00000,-399640272.00000,   0.00000
-79920663.25144,-73102809.17337,-8160621.45544,  -0.00022,  -0.00018,  -0.00011,77773136.00000,   0.00000,274640576.00000,   0.00000,   0.00000,   0.00000,-396867440.00000,   0.00000
-82774043.92835,-75663050.49325,-8477401.08320,  -0.00023,  -0.00018,  -0.00011,80556536.00000,   0.00000,274640576.00000,   0.00000,   0.00000,   0.00000,-394084032.00000,   0.00000
-85620332.52405,-78206743.62363,-8794180.71096,  -0.00024,  -0.00019,  -0.00011,83326320.00000,   0.00000,274640576.00000,   0.00000,   0.00000,   0.00000,-391314256.00000,   0.00000
-88466621.11975,-80750436.75400,-9115688.39286,  -0.00025,  -0.00019,  -0.00012,86093928.00000,   0.00000,274640576.00000,   0.00000,   0.00000,   0.00000,-388546656.00000,   0.00000
-91305817.63422,-83277581.69487,-9441924.12892,  -0.00025,  -0.00020,  -0.00012,88848392.00000,   0.00000,274640576.00000,   0.00000,   0.00000,   0.00000,-385792192.00000,   0.00000
-94145014.14870,-85804726.63573,-9768159.86497,  -0.00026,  -0.00021,  -0.00013,91599176.00000,   0.00000,274640576.00000,   0.00000,   0.00000,   0.00000,-383041408.00000,   0.00000
-96984210.66318,-88331871.57659,-10094395.60102,  -0.00027,  -0.00021,  -0.00013,94346976.00000,   0.00000,274640576.00000,   0.00000,   0.00000,   0.00000,-380293600.00000,   0.00000
-99823407.17766,-90859016.51746,-10420631.33707,  -0.00028,  -0.00022,  -0.00014,97092880.00000,   0.00000,274640576.00000,   0.00000,   0.00000,   0.00000,-377547696.00000,   0.00000
-102672059.80043,-93376705.35003,-10751595.12727,  -0.00029,  -0.00022,  -0.00014,99840848.00000,   0.00000,274640576.00000,   0.00000,   0.00000,   0.00000,-374799728.00000,   0.00000
-105504164.23369,-95887302.10138,-11082558.91746,  -0.00029,  -0.00023,  -0.00014,102577240.00000,   0.00000,274640576.00000,   0.00000,   0.00000,   0.00000,-372063328.00000,   0.00000
-108345724.77524,-98388442.74445,-11418250.76181,  -0.00030,  -0.00024,  -0.00015,105318056.00000,   0.00000,274640576.00000,   0.00000,   0.00000,   0.00000,-369322528.00000,   0.00000
-111170737.12728,-100882491.30629,-11753942.60615,  -0.00031,  -0.00024,  -0.00015,108049272.00000,   0.00000,274640576.00000,   0.00000,   0.00000,   0.00000,-366591296.00000,   0.00000
-114012297.66883,-103383631.94935,-12089634.45049,  -0.00032,  -0.00025,  -0.00016,110795696.00000,   0.00000,274640576.00000,   0.00000,   0.00000,   0.00000,-363844880.00000,   0.00000
-116846766.12917,-105868224.40291,-12430054.34898,  -0.00033,  -0.00025,  -0.00016,113535808.00000,   0.00000,274640576.00000,   0.00000,   0.00000,   0.00000,-361104768.00000,   0.00000
-119681234.58950,-108352816.85646,-12770474.24747,  -0.00033,  -0.00026,  -0.00017,116278640.00000,   0.00000,274640576.00000,   0.00000,   0.00000,   0.00000,-358361936.00000,   0.00000
-122508610.96861,-110820861.12050,-13115622.20011,  -0.00034,  -0.00027,  -0.00017,119014264.00000,   0.00000,274640576.00000,   0.00000,   0.00000,   0.00000,-355626304.00000,   0.00000
-125335987.34773,-113288905.38454,-13460770.15274,  -0.00035,  -0.00027,  -0.00017,121751160.00000,   0.00000,274640576.00000,   0.00000,   0.00000,   0.00000,-352889408.00000,   0.00000
-128163363.72684,-115756949.64859,-13805918.10537,  -0.00036,  -0.00028,  -0.00018,124488072.00000,   0.00000,274640576.00000,   0.00000,   0.00000,   0.00000,-350152512.00000,   0.00000
-130983648.02474,-118208445.72312,-14155794.11215,  -0.00037,  -0.00028,  -0.00018,127215008.00000,   0.00000,274640576.00000,   0.00000,   0.00000,   0.00000,-347425568.00000,   0.00000
-133803932.32263,-120659941.79765,-14505670.11893,  -0.00037,  -0.00029,  -0.00019,129940200.00000,   0.00000,274640576.00000,   0.00000,   0.00000,   0.00000,-344700384.00000,   0.00000
-136640764.81004,-123118529.95341,-14855546.12571,  -0.00038,  -0.00029,  -0.00019,132675568.00000,   0.00000,274640576.00000,   0.00000,   0.00000,   0.00000,-341965008.00000,   0.00000
-139453957.02672,-125553477.83843,-15210150.18664,  -0.00039,  -0.00030,  -0.00020,135386784.00000,   0.00000,274640576.00000,   0.00000,   0.00000,   0.00000,-339253792.00000,   0.00000
-142276605.35168,-127978969.61516,-15564754.24757,  -0.00040,  -0.00030,  -0.00020,138097168.00000,   0.00000,274640576.00000,   0.00000,   0.00000,   0.00000,-336543408.00000,   0.00000
-145089797.56836,-130413917.50018,-15919358.30849,  -0.00041,  -0.00031,  -0.00021,140804112.00000,   0.00000,274640576.00000,   0.00000,   0.00000,   0.00000,-333836464.00000,   0.00000
-147905353.81211,-132822861.08741,-16278690.42356,  -0.00041,  -0.00032,  -0.00021,143502080.00000,   0.00000,274640576.00000,   0.00000,   0.00000,   0.00000,-331138496.00000,   0.00000
-150728002.13708,-135248352.86414,-16638022.53863,  -0.00042,  -0.00032,  -0.00022,146210656.00000,   0.00000,274640576.00000,   0.00000,   0.00000,   0.00000,-328429920.00000,   0.00000
-153543558.38083,-137657296.45136,-17002082.70785,  -0.00043,  -0.00033,  -0.00022,148911152.00000,   0.00000,274640576.00000,   0.00000,   0.00000,   0.00000,-325729424.00000,   0.00000
-156352022.54336,-140049691.84907,-17361414.82292,  -0.00044,  -0.00033,  -0.00023,151601392.00000,   0.00000,274640576.00000,   0.00000,   0.00000,   0.00000,-323039184.00000,   0.00000
-159160486.70589,-142442087.24678,-17730203.04629,  -0.00045,  -0.00034,  -0.00023,154297776.00000,   0.00000,274640576.00000,   0.00000,   0.00000,   0.00000,-320342800.00000,   0.00000
-161968950.86843,-144834482.64450,-18094263.21550,  -0.00045,  -0.00034,  -0.00024,156995808.00000,   0.00000,274640576.00000,   0.00000,   0.00000,   0.00000,-317644768.00000,   0.00000
-164770322.94974,-147210329.85270,-18463051.43887,  -0.00046,  -0.00035,  -0.00024,159687088.00000,   0.00000,274640576.00000,   0.00000,   0.00000,   0.00000,-314953488.00000,   0.00000
-167571695.03105,-149586177.06090,-18831839.66223,  -0.00047,  -0.00035,  -0.00024,162380240.00000,   0.00000,274640576.00000,   0.00000,   0.00000,   0.00000,-312260336.00000,   0.00000
-170382523.22066,-151952568.16081,-19205355.93974,  -0.00048,  -0.00036,  -0.00025,165077632.00000,   0.00000,274640576.00000,   0.00000,   0.00000,   0.00000,-309562944.00000,   0.00000
-173176803.22075,-154311867.17950,-19578872.21724,  -0.00049,  -0.00036,  -0.00025,167764752.00000,   0.00000,274640576.00000,   0.00000,   0.00000,   0.00000,-306875824.00000,   0.00000
-175987631.41035,-156678258.27941,-19952388.49475,  -0.00050,  -0.00037,  -0.00026,170468000.00000,   0.00000,274640576.00000,   0.00000,   0.00000,   0.00000,-304172576.00000,   0.00000
-178767727.24801,-159004460.91909,-20330632.82641,  -0.00050,  -0.00037,  -0.00026,173143920.00000,   0.00000,274640576.00000,   0.00000,   0.00000,   0.00000,-301496656.00000,   0.00000
-181571463.35640,-161354303.82949,-20708877.15806,  -0.00051,  -0.00038,  -0.00027,175845056.00000,   0.00000,274640576.00000,   0.00000,   0.00000,   0.00000,-298795520.00000,   0.00000
-184368107.38357,-163687598.55038,-21087121.48972,  -0.00052,  -0.00039,  -0.00027,178530592.00000,   0.00000,274640576.00000,   0.00000,   0.00000,   0.00000,-296109984.00000,   0.00000
-187141111.14000,-165997253.00054,-21470093.87552,  -0.00053,  -0.00039,  -0.00028,181184544.00000,   0.00000,274640576.00000,   0.00000,   0.00000,   0.00000,-293456032.00000,   0.00000
-189930663.08595,-168313999.53192,-21853066.26131,  -0.00054,  -0.00040,  -0.00028,183845024.00000,   0.00000,274640576.00000,   0.00000,   0.00000,   0.00000,-290795552.00000,   0.00000
-192720215.03190,-170630746.06330,-22236038.64711,  -0.00054,  -0.00040,  -0.00029,186511808.00000,   0.00000,274640576.00000,   0.00000,   0.00000,   0.00000,-288128768.00000,   0.00000
-195502674.89663,-172930944.40518,-22623739.08706,  -0.00055,  -0.00041,  -0.00029,189180240.00000,   0.00000,274640576.00000,   0.00000,   0.00000,   0.00000,-285460336.00000,   0.00000
-198285134.76136,-175231142.74705,-23011439.52701,  -0.00056,  -0.00041,  -0.00030,191852544.00000,   0.00000,274640576.00000,   0.00000,   0.00000,   0.00000,-282788032.00000,   0.00000
-201077050.73438,-177521884.98063,-23399139.96695,  -0.00057,  -0.00042,  -0.00030,194522192.00000,   0.00000,274640576.00000,   0.00000,   0.00000,   0.00000,-280118384.00000,   0.00000
-203845326.43668,-179788986.94348,-23791568.46104,  -0.00058,  -0.00042,  -0.00031,197162416.00000,   0.00000,274640576.00000,   0.00000,   0.00000,   0.00000,-277478160.00000,   0.00000
-206613602.13897,-182056088.90633,-24183996.95513,  -0.00059,  -0.00043,  -0.00031,199795088.00000,   0.00000,274640576.00000,   0.00000,   0.00000,   0.00000,-274845488.00000,   0.00000
-209381877.84126,-184323190.86918,-24576425.44922,  -0.00059,  -0.00043,  -0.00032,202423712.00000,   0.00000,274640576.00000,   0.00000,   0.00000,   0.00000,-272216864.00000,   0.00000
-212159609.65185,-186580836.72374,-24973581.99746,  -0.00060,  -0.00044,  -0.00032,205059472.00000,   0.00000,274640576.00000,   0.00000,   0.00000,   0.00000,-269581104.00000,   0.00000
-214913701.19171,-188814842.30757,-25370738.54570,  -0.00061,  -0.00044,  -0.00033,207683728.00000,   0.00000,274640576.00000,   0.00000,   0.00000,   0.00000,-266956848.00000,   0.00000
-217691433.00229,-191072488.16213,-25767895.09393,  -0.00062,  -0.00044,  -0.00033,210340288.00000,   0.00000,274640576.00000,   0.00000,   0.00000,   0.00000,-264300288.00000,   0.00000
-220438432.46093,-193289945.55646,-26169779.69632,  -0.00063,  -0.00045,  -0.00034,212979296.00000,   0.00000,274640576.00000,   0.00000,   0.00000,   0.00000,-261661280.00000,   0.00000
-223201980.10908,-195514495.03200,-26571664.29870,  -0.00063,  -0.00045,  -0.00035,215611392.00000,   0.00000,274640576.00000,   0.00000,   0.00000,   0.00000,-259029184.00000,   0.00000
-225965527.75722,-197739044.50754,-26973548.90108,  -0.00064,  -0.00046,  -0.00035,218203760.00000,   0.00000,274640576.00000,   0.00000,   0.00000,   0.00000,-256436816.00000,   0.00000
-228698343.05342,-199923405.52284,-27375433.50346,  -0.00065,  -0.00046,  -0.00036,220752016.00000,   0.00000,274640576.00000,   0.00000,   0.00000,   0.00000,-253888560.00000,   0.00000
-231454798.62035,-202131406.80887,-27782046.15999,  -0.00066,  -0.00047,  -0.00036,223335136.00000,   0.00000,274640576.00000,   0.00000,   0.00000,   0.00000,-251305440.00000,   0.00000
-234204162.10606,-204322859.90539,-28188658.81652,  -0.00067,  -0.00047,  -0.00037,225923648.00000,   0.00000,274640576.00000,   0.00000,   0.00000,   0.00000,-248716928.00000,   0.00000
-236946433.51056,-206497764.81240,-28599999.52719,  -0.00068,  -0.00048,  -0.00037,228517008.00000,   0.00000,274640576.00000,   0.00000,   0.00000,   0.00000,-246123568.00000,   0.00000
-239688704.91505,-208672669.71941,-29006612.18372,  -0.00068,  -0.00048,  -0.00038,231118272.00000,   0.00000,274640576.00000,   0.00000,   0.00000,   0.00000,-243522304.00000,   0.00000
-242423884.23832,-210831026.43691,-29417952.89440,  -0.00069,  -0.00049,  -0.00038,233716512.00000,   0.00000,274640576.00000,   0.00000,   0.00000,   0.00000,-240924064.00000,   0.00000
-245159063.56160,-212989383.15442,-29834021.65922,  -0.00070,  -0.00049,  -0.00039,236319200.00000,   0.00000,274640576.00000,   0.00000,   0.00000,   0.00000,-238321376.00000,   0.00000
-247887150.80365,-215131191.68241,-30245362.36989,  -0.00071,  -0.00050,  -0.00039,238910192.00000,   0.00000,274640576.00000,   0.00000,   0.00000,   0.00000,-235730384.00000,   0.00000
-250615238.04571,-217273000.21040,-30661431.13471,  -0.00072,  -0.00050,  -0.00040,241502032.00000,   0.00000,274640576.00000,   0.00000,   0.00000,   0.00000,-233138544.00000,   0.00000
-253352781.39605,-219405352.63010,-31077499.89953,  -0.00072,  -0.00050,  -0.00040,244094240.00000,   0.00000,274640576.00000,   0.00000,   0.00000,   0.00000,-230546336.00000,   0.00000
-256066684.47567,-221514064.77907,-31498296.71849,  -0.00073,  -0.00051,  -0.00041,246663648.00000,   0.00000,274640576.00000,   0.00000,   0.00000,   0.00000,-227976928.00000,   0.00000
-258780587.55529,-223622776.92804,-31914365.48331,  -0.00074,  -0.00051,  -0.00041,249229712.00000,   0.00000,274640576.00000,   0.00000,   0.00000,   0.00000,-225410864.00000,   0.00000
-261494490.63491,-225731489.07701,-32335162.30228,  -0.00075,  -0.00052,  -0.00042,251796240.00000,   0.00000,274640576.00000,   0.00000,   0.00000,   0.00000,-222844336.00000,   0.00000
-264210757.74160,-227814196.92818,-32760687.17539,  -0.00076,  -0.00052,  -0.00043,254354448.00000,   0.00000,274640576.00000,   0.00000,   0.00000,   0.00000,-220286128.00000,   0.00000
-266917568.74000,-229906360.88764,-33181483.99435,  -0.00077,  -0.00053,  -0.00043,256905216.00000,   0.00000,274640576.00000,   0.00000,   0.00000,   0.00000,-217735360.00000,   0.00000
-269626743.76547,-231972520.54931,-33607008.86747,  -0.00077,  -0.00053,  -0.00044,259442608.00000,   0.00000,274640576.00000,   0.00000,   0.00000,   0.00000,-215197968.00000,   0.00000
-272319370.60143,-234031588.12975,-34032533.74058,  -0.00078,  -0.00053,  -0.00044,261958496.00000,   0.00000,274640576.00000,   0.00000,   0.00000,   0.00000,-212682080.00000,   0.00000
-275028545.62690,-236097747.79141,-34462786.66783,  -0.00079,  -0.00054,  -0.00045,264485568.00000,   0.00000,274640576.00000,   0.00000,   0.00000,   0.00000,-210155008.00000,   0.00000
-277714080.38165,-238140267.18234,-34888311.54094,  -0.00080,  -0.00054,  -0.00045,267000208.00000,   0.00000,274640576.00000,   0.00000,   0.00000,   0.00000,-207640368.00000,   0.00000
-280409071.24468,-240173330.46498,-35318564.46820,  -0.00081,  -0.00055,  -0.00046,269534240.00000,   0.00000,274640576.00000,   0.00000,   0.00000,   0.00000,-205106336.00000,   0.00000
-283087513.91821,-242199301.66640,-35748817.39546,  -0.00082,  -0.00055,  -0.00046,272059296.00000,   0.00000,274640576.00000,   0.00000,   0.00000,   0.00000,-202581280.00000,   0.00000
-285775412.70003,-244215816.75953,-36183798.37686,  -0.00082,  -0.00055,  -0.00047,274585600.00000,   0.00000,274640576.00000,   0.00000,   0.00000,   0.00000,-200054976.00000,   0.00000
-288446763.29233,-246225239.77145,-36618779.35826,  -0.00083,  -0.00056,  -0.00048,277095584.00000,   0.00000,274640576.00000,   0.00000,   0.00000,   0.00000,-197544992.00000,   0.00000
-291127569.99293,-248225206.67507,-37053760.33966,  -0.00084,  -0.00056,  -0.00048,279602432.00000,   0.00000,274640576.00000,   0.00000,   0.00000,   0.00000,-195038144.00000,   0.00000
-293801284.61231,-250208625.38918,-37488741.32107,  -0.00085,  -0.00057,  -0.00049,282092928.00000,   0.00000,274640576.00000,   0.00000,   0.00000,   0.00000,-192547648.00000,   0.00000
-296474999.23169,-252192044.10329,-37923722.30247,  -0.00086,  -0.00057,  -0.00049,284578112.00000,   0.00000,274640576.00000,   0.00000,   0.00000,   0.00000,-190062464.00000,   0.00000
-299125073.58034,-254151822.54667,-38363431.33802,  -0.00087,  -0.00057,  -0.00050,287038976.00000,   0.00000,274640576.00000,   0.00000,   0.00000,   0.00000,-187601600.00000,   0.00000
-301791696.11850,-256118693.07127,-38803140.37356,  -0.00087,  -0.00058,  -0.00050,289510464.00000,   0.00000,274640576.00000,   0.00000,   0.00000,   0.00000,-185130112.00000,   0.00000
-304451226.57545,-258069015.40636,-39242849.40911,  -0.00088,  -0.00058,  -0.00051,291971488.00000,   0.00000,274640576.00000,   0.00000,   0.00000,   0.00000,-182669088.00000,   0.00000
-307103664.95117,-260002789.55195,-39682558.44466,  -0.00089,  -0.00058,  -0.00052,294423488.00000,   0.00000,274640576.00000,   0.00000,   0.00000,   0.00000,-180217088.00000,   0.00000
-309739555.13739,-261929471.61631,-40126995.53435,  -0.00090,  -0.00059,  -0.00052,296867040.00000,   0.00000,274640576.00000,   0.00000,   0.00000,   0.00000,-177773536.00000,   0.00000
-312384901.43189,-263846697.57238,-40571432.62405,  -0.00091,  -0.00059,  -0.00053,299315904.00000,   0.00000,274640576.00000,   0.00000,   0.00000,   0.00000,-175324672.00000,   0.00000
-315030247.72640,-265763923.52845,-41015869.71374,  -0.00092,  -0.00059,  -0.00053,301768256.00000,   0.00000,274640576.00000,   0.00000,   0.00000,   0.00000,-172872320.00000,   0.00000
-317668501.93968,-267664601.29501,-41460306.80343,  -0.00092,  -0.00060,  -0.00054,304214368.00000,   0.00000,274640576.00000,   0.00000,   0.00000,   0.00000,-170426208.00000,   0.00000
-320299664.07175,-269548730.87207,-41909471.94727,  -0.00093,  -0.00060,  -0.00054,306656192.00000,   0.00000,274640576.00000,   0.00000,   0.00000,   0.00000,-167984384.00000,   0.00000
-322914278.01431,-271425768.36790,-42358637.09111,  -0.00094,  -0.00061,  -0.00055,309089280.00000,   0.00000,274640576.00000,   0.00000,   0.00000,   0.00000,-165551296.00000,   0.00000
-325538348.06516,-273293349.75544,-42807802.23495,  -0.00095,  -0.00061,  -0.00056,311528224.00000,   0.00000,274640576.00000,   0.00000,   0.00000,   0.00000,-163112352.00000,   0.00000
-328155326.03479,-275144382.95347,-43256967.37879,  -0.00096,  -0.00061,  -0.00056,313960032.00000,   0.00000,274640576.00000,   0.00000,   0.00000,   0.00000,-160680544.00000,   0.00000
-330772304.00443,-276995416.15151,-43706132.52263,  -0.00096,  -0.00062,  -0.00057,316394176.00000,   0.00000,274640576.00000,   0.00000,   0.00000,   0.00000,-158246400.00000,   0.00000
-333382189.89284,-278829901.16003,-44160025.72061,  -0.00097,  -0.00062,  -0.00057,318821792.00000,   0.00000,274640576.00000,   0.00000,   0.00000,   0.00000,-155818784.00000,   0.00000
-335968435.51052,-280640745.89782,-44613918.91860,  -0.00098,  -0.00062,  -0.00058,321227584.00000,   0.00000,274640576.00000,   0.00000,   0.00000,   0.00000,-153412992.00000,   0.00000
-338571229.31772,-282458682.71683,-45067812.11658,  -0.00099,  -0.00062,  -0.00059,323646240.00000,   0.00000,274640576.00000,   0.00000,   0.00000,   0.00000,-150994336.00000,   0.00000
-341174023.12491,-284276619.53585,-45521705.31457,  -0.00100,  -0.00063,  -0.00059,326064576.00000,   0.00000,274640576.00000,   0.00000,   0.00000,   0.00000,-148576000.00000,   0.00000
-343762632.76967,-286061459.97584,-45980326.56670,  -0.00101,  -0.00063,  -0.00060,328463616.00000,   0.00000,274640576.00000,   0.00000,   0.00000,   0.00000,-146176960.00000,   0.00000
-346334694.22492,-287839208.33461,-46434219.76468,  -0.00101,  -0.00063,  -0.00060,330846912.00000,   0.00000,274640576.00000,   0.00000,   0.00000,   0.00000,-143793664.00000,   0.00000
-348923303.86968,-289624048.77461,-46892841.01682,  -0.00102,  -0.00064,  -0.00061,333243104.00000,   0.00000,274640576.00000,   0.00000,   0.00000,   0.00000,-141397472.00000,   0.00000
-351497729.35200,-291375792.83558,-47351462.26895,  -0.00103,  -0.00064,  -0.00062,335617504.00000,   0.00000,274640576.00000,   0.00000,   0.00000,   0.00000,-139023072.00000,   0.00000
-354055606.64481,-293120444.81533,-47814811.57522,  -0.00104,  -0.00064,  -0.00062,337979424.00000,   0.00000,274640576.00000,   0.00000,   0.00000,   0.00000,-136661152.00000,   0.00000
-356630032.12713,-294872188.87631,-48273432.82735,  -0.00105,  -0.00065,  -0.00063,340350240.00000,   0.00000,274640576.00000,   0.00000,   0.00000,   0.00000,-134290336.00000,   0.00000
-359197365.52823,-296607384.74777,-48736782.13363,  -0.00106,  -0.00065,  -0.00063,342711648.00000,   0.00000,274640576.00000,   0.00000,   0.00000,   0.00000,-131928928.00000,   0.00000
-361741058.65860,-298318940.34850,-49195403.38576,  -0.00106,  -0.00065,  -0.00064,345047456.00000,   0.00000,274640576.00000,   0.00000,   0.00000,   0.00000,-129593120.00000,   0.00000
-364294207.89727,-300021039.84095,-49658752.69204,  -0.00107,  -0.00065,  -0.00065,347387456.00000,   0.00000,274640576.00000,   0.00000,   0.00000,   0.00000,-127253120.00000,   0.00000
-366847357.13593,-301723139.33339,-50126830.05246,  -0.00108,  -0.00066,  -0.00065,349729536.00000,   0.00000,274640576.00000,   0.00000,   0.00000,   0.00000,-124911040.00000,   0.00000
-369376866.10387,-303401598.55511,-50590179.35873,  -0.00109,  -0.00066,  -0.00066,352048128.00000,   0.00000,274640576.00000,   0.00000,   0.00000,   0.00000,-122592448.00000,   0.00000
-371922923.26132,-305087149.85804,-51053528.66501,  -0.00110,  -0.00066,  -0.00066,354381024.00000,   0.00000,274640576.00000,   0.00000,   0.00000,   0.00000,-120259552.00000,   0.00000
-374438248.06682,-306732512.70074,-51521606.02543,  -0.00111,  -0.00067,  -0.00067,356685952.00000,   0.00000,274640576.00000,   0.00000,   0.00000,   0.00000,-117954624.00000,   0.00000
-376960664.95354,-308394423.73294,-51989683.38585,  -0.00111,  -0.00067,  -0.00068,359003872.00000,   0.00000,274640576.00000,   0.00000,   0.00000,   0.00000,-115636704.00000,   0.00000
-379485445.86733,-310030330.46734,-52457760.74628,  -0.00112,  -0.00067,  -0.00068,361318240.00000,   0.00000,274640576.00000,   0.00000,   0.00000,   0.00000,-113322336.00000,   0.00000
-381993678.59161,-311659145.12053,-52925838.10670,  -0.00113,  -0.00067,  -0.00069,363623392.00000,   0.00000,274640576.00000,   0.00000,   0.00000,   0.00000,-111017184.00000,   0.00000
-384494819.23467,-313271411.58421,-53393915.46712,  -0.00114,  -0.00068,  -0.00069,365921728.00000,   0.00000,274640576.00000,   0.00000,   0.00000,   0.00000,-108718848.00000,   0.00000
-387012508.06724,-314890770.12910,-53866720.88169,  -0.00115,  -0.00068,  -0.00070,368236576.00000,   0.00000,274640576.00000,   0.00000,   0.00000,   0.00000,-106404000.00000,   0.00000
-389506556.62909,-316486488.40327,-54334798.24211,  -0.00116,  -0.00068,  -0.00071,370527392.00000,   0.00000,274640576.00000,   0.00000,   0.00000,   0.00000,-104113184.00000,   0.00000
-391993513.10971,-318065658.48792,-54807603.65668,  -0.00116,  -0.00068,  -0.00071,372809472.00000,   0.00000,274640576.00000,   0.00000,   0.00000,   0.00000,-101831104.00000,   0.00000
-394473377.50912,-319628280.38307,-55280409.07124,  -0.00117,  -0.00069,  -0.00072,375080320.00000,   0.00000,274640576.00000,   0.00000,   0.00000,   0.00000,-99560256.00000,   0.00000
-396953241.90853,-321190902.27821,-55753214.48581,  -0.00118,  -0.00069,  -0.00072,377350016.00000,   0.00000,274640576.00000,   0.00000,   0.00000,   0.00000,-97290560.00000,   0.00000
-399426014.22671,-322736975.98385,-56226019.90038,  -0.00119,  -0.00069,  -0.00073,379609184.00000,   0.00000,274640576.00000,   0.00000,   0.00000,   0.00000,-95031392.00000,   0.00000
-401898786.54490,-324283049.68949,-56698825.31495,  -0.00120,  -0.00069,  -0.00074,381868576.00000,   0.00000,274640576.00000,   0.00000,   0.00000,   0.00000,-92772000.00000,   0.00000
-404364466.78187,-325812575.20561,-57176358.78366,  -0.00120,  -0.00069,  -0.00074,384120832.00000,   0.00000,274640576.00000,   0.00000,   0.00000,   0.00000,-90519744.00000,   0.00000
-406806506.74812,-327318460.45101,-57649164.19823,  -0.00121,  -0.00070,  -0.00075,386348928.00000,   0.00000,274640576.00000,   0.00000,   0.00000,   0.00000,-88291648.00000,   0.00000
-409258002.82265,-328814889.58812,-58126697.66694,  -0.00122,  -0.00070,  -0.00076,388582144.00000,   0.00000,274640576.00000,   0.00000,   0.00000,   0.00000,-86058432.00000,   0.00000
-411709498.89718,-330311318.72522,-58604231.13565,  -0.00123,  -0.00070,  -0.00076,390814976.00000,   0.00000,274640576.00000,   0.00000,   0.00000,   0.00000,-83825600.00000,   0.00000
-414137354.70099,-331784107.59160,-59081764.60437,  -0.00124,  -0.00070,  -0.00077,393024672.00000,   0.00000,274640576.00000,   0.00000,   0.00000,   0.00000,-81615904.00000,   0.00000
-416581758.69430,-333263988.53920,-59559298.07308,  -0.00125,  -0.00070,  -0.00077,395246720.00000,   0.00000,274640576.00000,   0.00000,   0.00000,   0.00000,-79393856.00000,   0.00000
-419002522.41689,-334720229.21606,-60036831.54179,  -0.00125,  -0.00071,  -0.00078,397447008.00000,   0.00000,274640576.00000,   0.00000,   0.00000,   0.00000,-77193568.00000,   0.00000
-421432742.24776,-336167013.78464,-60514365.01051,  -0.00126,  -0.00071,  -0.00079,399652448.00000,   0.00000,274640576.00000,   0.00000,   0.00000,   0.00000,-74988128.00000,   0.00000
-423839321.80791,-337590158.08249,-60996626.53337,  -0.00127,  -0.00071,  -0.00079,401841760.00000,   0.00000,274640576.00000,   0.00000,   0.00000,   0.00000,-72798816.00000,   0.00000
-426245901.36806,-339013302.38034,-61474160.00208,  -0.00128,  -0.00071,  -0.00080,404035040.00000,   0.00000,274640576.00000,   0.00000,   0.00000,   0.00000,-70605536.00000,   0.00000
-428645388.84699,-340419898.48868,-61956421.52494,  -0.00129,  -0.00071,  -0.00081,406227776.00000,   0.00000,274640576.00000,   0.00000,   0.00000,   0.00000,-68412800.00000,   0.00000
-431044876.32592,-341826494.59702,-62438683.04780,  -0.00129,  -0.00071,  -0.00081,408426560.00000,   0.00000,274640576.00000,   0.00000,   0.00000,   0.00000,-66214016.00000,   0.00000
-433437271.72364,-343216542.51584,-62920944.57066,  -0.00130,  -0.00072,  -0.00082,410617472.00000,   0.00000,274640576.00000,   0.00000,   0.00000,   0.00000,-64023104.00000,   0.00000
-435822575.04013,-344590042.24516,-63398478.03937,  -0.00131,  -0.00072,  -0.00082,412791168.00000,   0.00000,274640576.00000,   0.00000,   0.00000,   0.00000,-61849408.00000,   0.00000
-438200786.27540,-345946993.78497,-63880739.56223,  -0.00132,  -0.00072,  -0.00083,414943712.00000,   0.00000,274640576.00000,   0.00000,   0.00000,   0.00000,-59696864.00000,   0.00000
-440562449.32117,-347296853.24356,-64367729.13923,  -0.00133,  -0.00072,  -0.00084,417066784.00000,   0.00000,274640576.00000,   0.00000,   0.00000,   0.00000,-57573792.00000,   0.00000
-442933568.47523,-348637256.59386,-64849990.66209,  -0.00134,  -0.00072,  -0.00084,419173728.00000,   0.00000,274640576.00000,   0.00000,   0.00000,   0.00000,-55466848.00000,   0.00000
-445281047.35855,-349954019.67343,-65332252.18495,  -0.00134,  -0.00072,  -0.00085,421251232.00000,   0.00000,274640576.00000,   0.00000,   0.00000,   0.00000,-53389344.00000,   0.00000
-447645074.43139,-351277874.83422,-65814513.70781,  -0.00135,  -0.00073,  -0.00086,423345472.00000,   0.00000,274640576.00000,   0.00000,   0.00000,   0.00000,-51295104.00000,   0.00000
-449985461.23350,-352578089.72428,-66301503.28482,  -0.00136,  -0.00073,  -0.00086,425433152.00000,   0.00000,274640576.00000,   0.00000,   0.00000,   0.00000,-49207424.00000,   0.00000
-452318755.95439,-353861756.42483,-66783764.80767,  -0.00137,  -0.00073,  -0.00087,427525056.00000,   0.00000,274640576.00000,   0.00000,   0.00000,   0.00000,-47115520.00000,   0.00000
-454652050.67528,-355145423.12539,-67270754.38468,  -0.00138,  -0.00073,  -0.00087,429633920.00000,   0.00000,274640576.00000,   0.00000,   0.00000,   0.00000,-45006656.00000,   0.00000
-456978253.31496,-356412541.63643,-67757743.96168,  -0.00138,  -0.00073,  -0.00088,431745056.00000,   0.00000,274640576.00000,   0.00000,   0.00000,   0.00000,-42895520.00000,   0.00000
-459297363.87341,-357663111.95796,-68240005.48454,  -0.00139,  -0.00073,  -0.00089,433853184.00000,   0.00000,274640576.00000,   0.00000,   0.00000,   0.00000,-40787392.00000,   0.00000
-461616474.43187,-358913682.27949,-68726995.06155,  -0.00140,  -0.00073,  -0.00089,435969664.00000,   0.00000,274640576.00000,   0.00000,   0.00000,   0.00000,-38670912.00000,   0.00000
-463911944.71959,-360140612.33029,-69213984.63855,  -0.00141,  -0.00073,  -0.00090,438068160.00000,   0.00000,274640576.00000,   0.00000,   0.00000,   0.00000,-36572416.00000,   0.00000
-466216871.11561,-361358086.27280,-69700974.21556,  -0.00142,  -0.00074,  -0.00091,440173056.00000,   0.00000,274640576.00000,   0.00000,   0.00000,   0.00000,-34467520.00000,   0.00000
-468505249.32212,-362568468.13410,-70187963.79256,  -0.00142,  -0.00074,  -0.00091,442267232.00000,   0.00000,274640576.00000,   0.00000,   0.00000,   0.00000,-32373344.00000,   0.00000
-470786535.44740,-363762301.80588,-70674953.36957,  -0.00143,  -0.00074,  -0.00092,444353472.00000,   0.00000,274640576.00000,   0.00000,   0.00000,   0.00000,-30287104.00000,   0.00000
-473077277.68098,-364946679.36937,-71161942.94657,  -0.00144,  -0.00074,  -0.00093,446444064.00000,   0.00000,274640576.00000,   0.00000,   0.00000,   0.00000,-28196512.00000,   0.00000
-475351471.72505,-366123964.85165,-71653660.57772,  -0.00145,  -0.00074,  -0.00093,448524640.00000,   0.00000,274640576.00000,   0.00000,   0.00000,   0.00000,-26115936.00000,   0.00000
-477594933.41718,-367261061.87368,-72140650.15473,  -0.00146,  -0.00074,  -0.00094,450571552.00000,   0.00000,274640576.00000,   0.00000,   0.00000,   0.00000,-24069024.00000,   0.00000
-479862035.38003,-368421799.16644,-72627639.73173,  -0.00146,  -0.00074,  -0.00094,452640512.00000,   0.00000,274640576.00000,   0.00000,   0.00000,   0.00000,-22000064.00000,   0.00000
-482114953.18044,-369549440.08019,-73114629.30873,  -0.00147,  -0.00074,  -0.00095,454690496.00000,   0.00000,274640576.00000,   0.00000,   0.00000,   0.00000,-19950080.00000,   0.00000
-484351322.79135,-370669988.91271,-73606346.93989,  -0.00148,  -0.00074,  -0.00096,456729504.00000,   0.00000,274640576.00000,   0.00000,   0.00000,   0.00000,-17911072.00000,   0.00000
-486597148.51054,-371781081.63695,-74093336.51689,  -0.00149,  -0.00074,  -0.00096,458769024.00000,   0.00000,274640576.00000,   0.00000,   0.00000,   0.00000,-15871552.00000,   0.00000
-488826426.04023,-372885082.27996,-74585054.14804,  -0.00150,  -0.00074,  -0.00097,460797120.00000,   0.00000,274640576.00000,   0.00000,   0.00000,   0.00000,-13843456.00000,   0.00000
-491048611.48870,-373972534.73347,-75072043.72504,  -0.00151,  -0.00074,  -0.00098,462812544.00000,   0.00000,274640576.00000,   0.00000,   0.00000,   0.00000,-11828032.00000,   0.00000
-493263704.85595,-375043438.99746,-75563761.35620,  -0.00151,  -0.00074,  -0.00098,464819840.00000,   0.00000,274640576.00000,   0.00000,   0.00000,   0.00000,-9820736.00000,   0.00000
-495478798.22320,-376114343.26146,-76050750.93320,  -0.00152,  -0.00075,  -0.00099,466823552.00000,   0.00000,274640576.00000,   0.00000,   0.00000,   0.00000,-7817024.00000,   0.00000
-497663159.23850,-377145059.06522,-76542468.56435,  -0.00153,  -0.00075,  -0.00100,468796736.00000,   0.00000,274640576.00000,   0.00000,   0.00000,   0.00000,-5843840.00000,   0.00000
-499871160.52453,-378199415.13970,-77029458.14135,  -0.00154,  -0.00075,  -0.00100,470788384.00000,   0.00000,274640576.00000,   0.00000,   0.00000,   0.00000,-3852192.00000,   0.00000
-502048429.45861,-379213582.75395,-77521175.77250,  -0.00154,  -0.00075,  -0.00101,472749376.00000,   0.00000,274640576.00000,   0.00000,   0.00000,   0.00000,-1891200.00000,   0.00000
-504149153.78173,-380192096.03801,-77995606.45569,  -0.00155,  -0.00075,  -0.00101,474639872.00000,   0.00000,274640576.00000,   0.00000,   0.00000,   0.00000,-704.00000,   0.00000
-504153457.87319,-380176452.27673,-77999793.74001,  -0.00155,  -0.00075,  -0.00101,474639872.00000,   0.00000,274640832.00000,  -0.00000,  -0.00000,  -0.00000,-192.00000,   1.00000
-504265636.31146,-379715744.17173,-78113478.86675,  -0.00156,  -0.00075,  -0.00102,476586688.00000,   0.00001,274647840.00000,  -0.00001,  -0.00000,  -0.00001,   0.00000,   2.00000
-504374065.22909,-379254825.17292,-78230748.62400,  -0.00157,  -0.00075,  -0.00103,476596960.00000,   0.00001,274654880.00000,  -0.00001,  -0.00001,  -0.00001,   0.00000,   2.00000
-504483913.02766,-378785846.74170,-78349097.78036,  -0.00158,  -0.00075,  -0.00103,476595744.00000,   0.00002,274661888.00000,  -0.00002,  -0.00001,  -0.00001,   0.00000,   2.00000
-504594540.38404,-378312921.68115,-78466701.53734,  -0.00158,  -0.00075,  -0.00104,476579360.00000,   0.00003,274668800.00000,  -0.00003,  -0.00001,  -0.00002,  64.00000,   2.00000
-504704560.93683,-377837483.24485,-78585448.00139,  -0.00159,  -0.00075,  -0.00105,476602080.00000,   0.00003,274675776.00000,  -0.00003,  -0.00001,  -0.00002,   0.00000,   2.00000
-504812901.38930,-377356323.38837,-78707718.67090,  -0.00160,  -0.00075,  -0.00105,476587936.00000,   0.00004,274682688.00000,  -0.00004,  -0.00002,  -0.00003,   0.00000,   2.00000
-504922658.07163,-376867087.81435,-78831064.53684,  -0.00161,  -0.00075,  -0.00106,476586496.00000,   0.00004,274689568.00000,  -0.00005,  -0.00002,  -0.00003,   0.00000,   2.00000
-505036209.09182,-376371454.84047,-78951215.30067,  -0.00162,  -0.00075,  -0.00107,476583008.00000,   0.00005,274696416.00000,  -0.00005,  -0.00002,  -0.00004,  96.00000,   2.00000
-505145983.36864,-375875689.21565,-79074928.71066,  -0.00162,  -0.00075,  -0.00107,476593024.00000,   0.00006,274703296.00000,  -0.00006,  -0.00002,  -0.00004,   0.00000,   2.00000
-505251704.87175,-375384018.77106,-79200447.20581,  -0.00163,  -0.00075,  -0.00108,476587776.00000,   0.00006,274710112.00000,  -0.00006,  -0.00003,  -0.00005, -32.00000,   2.00000
-505363991.66619,-374871834.33711,-79326260.18692,  -0.00164,  -0.00075,  -0.00108,476590368.00000,   0.00007,274716928.00000,  -0.00007,  -0.00003,  -0.00005, -32.00000,   2.00000
-505474675.97757,-374365467.67778,-79449627.75831,  -0.00165,  -0.00075,  -0.00109,476582816.00000,   0.00008,274723680.00000,  -0.00008,  -0.00003,  -0.00006,  64.00000,   2.00000
-505581615.00148,-373858999.49486,-79576554.74082,  -0.00166,  -0.00075,  -0.00110,476592832.00000,   0.00008,274730432.00000,  -0.00008,  -0.00003,  -0.00006,  32.00000,   2.00000
-505689648.74977,-373344185.33409,-79704508.43926,  -0.00166,  -0.00075,  -0.00110,476591552.00000,   0.00009,274737184.00000,  -0.00009,  -0.00004,  -0.00007, -64.00000,   2.00000
-505798695.00976,-372825305.31736,-79831809.26144,  -0.00167,  -0.00075,  -0.00111,476574912.00000,   0.00009,274743840.00000,  -0.00010,  -0.00004,  -0.00007,  64.00000,   2.00000
-505909062.26327,-372293926.73198,-79961856.89601,  -0.00168,  -0.00075,  -0.00112,476588928.00000,   0.00010,274750528.00000,  -0.00010,  -0.00004,  -0.00008,  64.00000,   2.00000
-506015352.91672,-371766585.01017,-80093722.91002,  -0.00169,  -0.00075,  -0.00112,476583616.00000,   0.00011,274757184.00000,  -0.00011,  -0.00004,  -0.00008,  96.00000,   2.00000
-506125141.80248,-371232535.41209,-80222356.15560,  -0.00169,  -0.00075,  -0.00113,476580000.00000,   0.00011,274763808.00000,  -0.00012,  -0.00004,  -0.00009, -96.00000,   2.00000
-506231253.48190,-370698505.62490,-80354554.30350,  -0.00170,  -0.00075,  -0.00114,476589952.00000,   0.00012,274770432.00000,  -0.00012,  -0.00005,  -0.00009,  64.00000,   2.00000
-506338359.83376,-370156043.24505,-80487772.10013,  -0.00171,  -0.00075,  -0.00114,476588768.00000,   0.00012,274777024.00000,  -0.00013,  -0.00005,  -0.00010,  64.00000,   2.00000
-506446111.54854,-369609114.82116,-80620305.10744,  -0.00172,  -0.00075,  -0.00115,476572160.00000,   0.00013,274783552.00000,  -0.00013,  -0.00005,  -0.00010,  64.00000,   2.00000
-506552900.63644,-369059909.29426,-80753833.41922,  -0.00172,  -0.00074,  -0.00115,476594944.00000,   0.00014,274790112.00000,  -0.00014,  -0.00005,  -0.00010,  32.00000,   2.00000
-506660311.24946,-368506172.96488,-80886690.01867,  -0.00173,  -0.00074,  -0.00116,476578432.00000,   0.00014,274796608.00000,  -0.00015,  -0.00006,  -0.00011,  32.00000,   2.00000
-506766079.64301,-367942199.68130,-81024809.26487,  -0.00174,  -0.00074,  -0.00117,476579616.00000,   0.00015,274803104.00000,  -0.00015,  -0.00006,  -0.00011, -32.00000,   2.00000
-506873202.99379,-367381738.27662,-81157996.92300,  -0.00175,  -0.00074,  -0.00117,476584672.00000,   0.00015,274809568.00000,  -0.00016,  -0.00006,  -0.00012,  64.00000,   2.00000
-506975657.09122,-366813074.41118,-81298976.40663,  -0.00176,  -0.00074,  -0.00118,476572992.00000,   0.00016,274815968.00000,  -0.00016,  -0.00006,  -0.00012,  32.00000,   2.00000
-507082173.34717,-366245672.52294,-81432440.19484,  -0.00176,  -0.00074,  -0.00119,476590944.00000,   0.00017,274822432.00000,  -0.00017,  -0.00006,  -0.00013,   0.00000,   2.00000
-507184266.91262,-365670200.03380,-81573759.16632,  -0.00177,  -0.00074,  -0.00119,476579264.00000,   0.00017,274828832.00000,  -0.00018,  -0.00007,  -0.00013,  32.00000,   2.00000
-507289575.55345,-365087746.86054,-81711831.42210,  -0.00178,  -0.00074,  -0.00120,476575616.00000,   0.00018,274835200.00000,  -0.00018,  -0.00007,  -0.00014,   0.00000,   2.00000
-507390840.53964,-364509187.80890,-81851797.25860,  -0.00179,  -0.00074,  -0.00121,476570112.00000,   0.00018,274841504.00000,  -0.00019,  -0.00007,  -0.00014,  64.00000,   2.00000
-507493054.11797,-363918120.01500,-81994424.39292,  -0.00179,  -0.00074,  -0.00121,476584256.00000,   0.00019,274847840.00000,  -0.00019,  -0.00007,  -0.00015,  96.00000,   2.00000
-507593582.27114,-363332508.32294,-82134676.47471,  -0.00180,  -0.00074,  -0.00122,476576480.00000,   0.00019,274854144.00000,  -0.00020,  -0.00007,  -0.00015,  32.00000,   2.00000
-507694853.68835,-362738211.45494,-82275961.70333,  -0.00181,  -0.00074,  -0.00122,476575232.00000,   0.00020,274860416.00000,  -0.00021,  -0.00008,  -0.00015,   0.00000,   2.00000
-507796800.99221,-362135200.17475,-82418272.36437,  -0.00182,  -0.00074,  -0.00123,476573984.00000,   0.00021,274866688.00000,  -0.00021,  -0.00008,  -0.00016, -64.00000,   2.00000
-507897307.66143,-361533884.26908,-82559873.28629,  -0.00182,  -0.00073,  -0.00124,476581440.00000,   0.00021,274872928.00000,  -0.00022,  -0.00008,  -0.00016,  32.00000,   2.00000
-507998425.15031,-360923809.10618,-82702499.70483,  -0.00183,  -0.00073,  -0.00124,476580192.00000,   0.00022,274879168.00000,  -0.00022,  -0.00008,  -0.00017,  96.00000,   2.00000
-508097328.55863,-360306943.78555,-82848752.09143,  -0.00184,  -0.00073,  -0.00125,476566112.00000,   0.00022,274885312.00000,  -0.00023,  -0.00008,  -0.00017,  96.00000,   2.00000
-508194767.81565,-359691777.88629,-82994291.99035,  -0.00185,  -0.00073,  -0.00126,476573536.00000,   0.00023,274891488.00000,  -0.00024,  -0.00009,  -0.00018,  32.00000,   2.00000
-508290711.05413,-359078286.64597,-83139117.41755,  -0.00185,  -0.00073,  -0.00126,476580992.00000,   0.00023,274897664.00000,  -0.00024,  -0.00009,  -0.00018,  32.00000,   2.00000
-508384455.74439,-358457901.67980,-83287591.16332,  -0.00186,  -0.00073,  -0.00127,476566848.00000,   0.00024,274903776.00000,  -0.00025,  -0.00009,  -0.00019, -32.00000,   2.00000
-508481416.52502,-357826683.78584,-83434448.14358,  -0.00187,  -0.00073,  -0.00127,476578688.00000,   0.00025,274909888.00000,  -0.00025,  -0.00009,  -0.00019,  96.00000,   2.00000
-508574162.90684,-357199118.26753,-83583228.71044,  -0.00188,  -0.00073,  -0.00128,476573088.00000,   0.00025,274915968.00000,  -0.00026,  -0.00009,  -0.00019,  96.00000,   2.00000
-508669856.84311,-356564257.11966,-83728786.04271,  -0.00188,  -0.00073,  -0.00129,476569504.00000,   0.00026,274922048.00000,  -0.00026,  -0.00009,  -0.00020, -32.00000,   2.00000
-508763456.59398,-355918832.72065,-83879595.01816,  -0.00189,  -0.00072,  -0.00129,476570848.00000,   0.00026,274928064.00000,  -0.00027,  -0.00010,  -0.00020,   0.00000,   2.00000
-508855304.45273,-355278615.76264,-84028088.13123,  -0.00190,  -0.00072,  -0.00130,476562720.00000,   0.00027,274934080.00000,  -0.00028,  -0.00010,  -0.00021, -32.00000,   2.00000
-508942984.35244,-354638383.37321,-84180065.76815,  -0.00191,  -0.00072,  -0.00131,476572512.00000,   0.00027,274940064.00000,  -0.00028,  -0.00010,  -0.00021,   0.00000,   2.00000
-509033800.44185,-353990927.07373,-84328849.92907,  -0.00191,  -0.00072,  -0.00131,476568928.00000,   0.00028,274946048.00000,  -0.00029,  -0.00010,  -0.00022,  96.00000,   2.00000
-509122061.70075,-353332592.09436,-84482779.94612,  -0.00192,  -0.00072,  -0.00132,476570432.00000,   0.00028,274952000.00000,  -0.00029,  -0.00010,  -0.00022, -32.00000,   2.00000
-509211477.61952,-352677735.44841,-84631760.21693,  -0.00193,  -0.00072,  -0.00133,476575264.00000,   0.00029,274957984.00000,  -0.00030,  -0.00011,  -0.00023,   0.00000,   2.00000
-509298490.58803,-352015598.98815,-84784376.25418,  -0.00194,  -0.00072,  -0.00133,476561088.00000,   0.00029,274963872.00000,  -0.00030,  -0.00011,  -0.00023,  32.00000,   2.00000
-509383805.46079,-351355100.65348,-84936193.73418,  -0.00194,  -0.00071,  -0.00134,476568480.00000,   0.00030,274969760.00000,  -0.00031,  -0.00011,  -0.00023, -32.00000,   2.00000
-509469413.21870,-350685524.90824,-85088957.57518,  -0.00195,  -0.00071,  -0.00134,476567328.00000,   0.00031,274975648.00000,  -0.00032,  -0.00011,  -0.00024, -32.00000,   2.00000
-509553329.46638,-350017622.89754,-85240901.02778,  -0.00196,  -0.00071,  -0.00135,476574688.00000,   0.00031,274981536.00000,  -0.00032,  -0.00011,  -0.00024,  32.00000,   2.00000
-509634866.81835,-349342336.52677,-85396456.69287,  -0.00196,  -0.00071,  -0.00136,476560512.00000,   0.00032,274987328.00000,  -0.00033,  -0.00011,  -0.00025,  64.00000,   2.00000
-509716405.95166,-348657771.55551,-85552864.73898,  -0.00197,  -0.00071,  -0.00136,476559616.00000,   0.00032,274993120.00000,  -0.00033,  -0.00011,  -0.00025,  96.00000,   2.00000
-509796299.82172,-347974936.09422,-85708417.78943,  -0.00198,  -0.00071,  -0.00137,476566848.00000,   0.00033,274998944.00000,  -0.00034,  -0.00012,  -0.00025,   0.00000,   2.00000
-509874585.36527,-347293852.35911,-85863115.52331,  -0.00199,  -0.00070,  -0.00138,476574176.00000,   0.00033,275004736.00000,  -0.00034,  -0.00012,  -0.00026,  64.00000,   2.00000
-509952955.65542,-346606803.29209,-86017180.77179,  -0.00199,  -0.00070,  -0.00138,476557472.00000,   0.00034,275010464.00000,  -0.00035,  -0.00012,  -0.00026,   0.00000,   2.00000
-510028668.66590,-345908771.19377,-86176281.80759,  -0.00200,  -0.00070,  -0.00139,476559008.00000,   0.00034,275016192.00000,  -0.00035,  -0.00012,  -0.00027,   0.00000,   2.00000
-510105525.95692,-345214226.71565,-86330340.49400,  -0.00201,  -0.00070,  -0.00139,476563648.00000,   0.00035,275021920.00000,  -0.00036,  -0.00012,  -0.00027,  96.00000,   2.00000
-510177824.54764,-344519608.26366,-86487680.70966,  -0.00202,  -0.00070,  -0.00140,476573568.00000,   0.00035,275027648.00000,  -0.00037,  -0.00012,  -0.00028,  96.00000,   2.00000
-510250227.70783,-343818876.22754,-86644424.14393,  -0.00202,  -0.00069,  -0.00141,476556896.00000,   0.00036,275033312.00000,  -0.00037,  -0.00013,  -0.00028,  64.00000,   2.00000
-510325071.26144,-343107140.71536,-86799265.04327,  -0.00203,  -0.00069,  -0.00141,476569024.00000,   0.00036,275039008.00000,  -0.00038,  -0.00013,  -0.00028, -32.00000,   2.00000
-510395681.45518,-342398693.55948,-86956013.92794,  -0.00204,  -0.00069,  -0.00142,476563072.00000,   0.00037,275044640.00000,  -0.00038,  -0.00013,  -0.00029,  96.00000,   2.00000
-510462019.90615,-341693442.74725,-87114664.75923,  -0.00204,  -0.00069,  -0.00143,476557056.00000,   0.00037,275050272.00000,  -0.00039,  -0.00013,  -0.00029,   0.00000,   2.00000
-510530698.74967,-340977118.16086,-87271393.59585,  -0.00205,  -0.00069,  -0.00143,476569216.00000,   0.00038,275055904.00000,  -0.00039,  -0.00013,  -0.00030,  32.00000,   2.00000
-510596635.68725,-340252721.25219,-87431729.96600,  -0.00206,  -0.00068,  -0.00144,476555168.00000,   0.00038,275061472.00000,  -0.00040,  -0.00013,  -0.00030,  32.00000,   2.00000
-510660806.37187,-339529968.49481,-87591173.44378,  -0.00206,  -0.00068,  -0.00144,476562208.00000,   0.00039,275067040.00000,  -0.00040,  -0.00013,  -0.00031,   0.00000,   2.00000
-510726172.78430,-338810650.60536,-87745584.75658,  -0.00207,  -0.00068,  -0.00145,476566528.00000,   0.00039,275072608.00000,  -0.00041,  -0.00013,  -0.00031,  64.00000,   2.00000
-510785919.13296,-338081348.05812,-87907714.83271,  -0.00208,  -0.00068,  -0.00146,476555040.00000,   0.00040,275078112.00000,  -0.00041,  -0.00014,  -0.00031,  32.00000,   2.00000
-510843955.50397,-337353677.99100,-88068891.00090,  -0.00209,  -0.00068,  -0.00146,476561920.00000,   0.00040,275083648.00000,  -0.00042,  -0.00014,  -0.00032, 128.00000,   2.00000
-510904564.14046,-336617988.54959,-88226664.61107,  -0.00209,  -0.00067,  -0.00147,476558272.00000,   0.00041,275089152.00000,  -0.00042,  -0.00014,  -0.00032,  32.00000,   2.00000
-510963476.60723,-335883938.49689,-88383501.49830,  -0.00210,  -0.00067,  -0.00147,476565120.00000,   0.00041,275094656.00000,  -0.00043,  -0.00014,  -0.00033,  32.00000,   2.00000
-511016789.11409,-335139750.20423,-88548075.99023,  -0.00211,  -0.00067,  -0.00148,476553600.00000,   0.00042,275100096.00000,  -0.00044,  -0.00014,  -0.00033,  32.00000,   2.00000
-511073707.85737,-334397546.04506,-88704800.59839,  -0.00211,  -0.00067,  -0.00149,476570944.00000,   0.00042,275105600.00000,  -0.00044,  -0.00014,  -0.00033, -32.00000,   2.00000
-511127840.48877,-333646821.46329,-88865255.33707,  -0.00212,  -0.00066,  -0.00149,476556704.00000,   0.00043,275111008.00000,  -0.00045,  -0.00014,  -0.00034,   0.00000,   2.00000
-511176433.10881,-332910453.43908,-89026115.86785,  -0.00213,  -0.00066,  -0.00150,476558336.00000,   0.00043,275116416.00000,  -0.00045,  -0.00014,  -0.00034,  32.00000,   2.00000
-511228413.74948,-332151333.35870,-89186900.30026,  -0.00213,  -0.00066,  -0.00151,476562656.00000,   0.00044,275121856.00000,  -0.00046,  -0.00015,  -0.00035, -64.00000,   2.00000
-511278914.51157,-331396660.06954,-89345811.77293,  -0.00214,  -0.00066,  -0.00151,476553760.00000,   0.00044,275127200.00000,  -0.00046,  -0.00015,  -0.00035, -64.00000,   2.00000
-511324987.67106,-330641963.11468,-89508424.89679,  -0.00215,  -0.00066,  -0.00152,476563200.00000,   0.00045,275132576.00000,  -0.00047,  -0.00015,  -0.00035,  32.00000,   2.00000
-511367784.03370,-329878229.51592,-89675073.93001,  -0.00216,  -0.00065,  -0.00152,476549248.00000,   0.00045,275137888.00000,  -0.00047,  -0.00015,  -0.00036, -32.00000,   2.00000
-511414305.47973,-329116664.68133,-89834331.75479,  -0.00216,  -0.00065,  -0.00153,476566528.00000,   0.00046,275143232.00000,  -0.00048,  -0.00015,  -0.00036,  32.00000,   2.00000
-511456620.31541,-328357837.66325,-89996004.20783,  -0.00217,  -0.00065,  -0.00154,476560320.00000,   0.00046,275148576.00000,  -0.00048,  -0.00015,  -0.00037,   0.00000,   2.00000
-511495378.00623,-327587156.30334,-90162978.08369,  -0.00218,  -0.00065,  -0.00154,476562464.00000,   0.00047,275153856.00000,  -0.00049,  -0.00015,  -0.00037,   0.00000,   2.00000
-511533727.37751,-326809001.11136,-90329728.21999,  -0.00218,  -0.00064,  -0.00155,476545920.00000,   0.00047,275159104.00000,  -0.00049,  -0.00015,  -0.00037, -96.00000,   2.00000
-511571827.26623,-326043224.62951,-90491328.18884,  -0.00219,  -0.00064,  -0.00155,476573696.00000,   0.00048,275164416.00000,  -0.00050,  -0.00015,  -0.00038,   0.00000,   2.00000
-511606831.84608,-325268337.85013,-90656717.74317,  -0.00220,  -0.00064,  -0.00156,476560128.00000,   0.00048,275169632.00000,  -0.00050,  -0.00016,  -0.00038,   0.00000,   2.00000
-511640984.54710,-324483153.85360,-90822897.24512,  -0.00220,  -0.00064,  -0.00157,476559648.00000,   0.00049,275174880.00000,  -0.00051,  -0.00016,  -0.00039, -32.00000,   2.00000
-511671115.16700,-323700699.62587,-90991065.01163,  -0.00221,  -0.00063,  -0.00157,476553440.00000,   0.00049,275180064.00000,  -0.00051,  -0.00016,  -0.00039,   0.00000,   2.00000
-511704742.70654,-322920463.67243,-91151228.11783,  -0.00222,  -0.00063,  -0.00158,476571232.00000,   0.00050,275185280.00000,  -0.00052,  -0.00016,  -0.00039, -32.00000,   2.00000
-511731386.07721,-322141195.80157,-91317394.60948,  -0.00222,  -0.00063,  -0.00158,476567712.00000,   0.00050,275190496.00000,  -0.00052,  -0.00016,  -0.00040,   0.00000,   2.00000
-511757727.05392,-321354167.91871,-91482914.96772,  -0.00223,  -0.00062,  -0.00159,476551360.00000,   0.00051,275195616.00000,  -0.00053,  -0.00016,  -0.00040,   0.00000,   2.00000
-511782941.22364,-320554266.29279,-91650241.85270,  -0.00224,  -0.00062,  -0.00160,476566784.00000,   0.00051,275200768.00000,  -0.00053,  -0.00016,  -0.00041, -32.00000,   2.00000
-511805946.02634,-319770457.61611,-91813601.17234,  -0.00224,  -0.00062,  -0.00160,476565408.00000,   0.00052,275205920.00000,  -0.00054,  -0.00016,  -0.00041,  32.00000,   2.00000
-511828381.37942,-318976324.28764,-91977575.83473,  -0.00225,  -0.00062,  -0.00161,476564960.00000,   0.00052,275211040.00000,  -0.00054,  -0.00016,  -0.00041,  96.00000,   2.00000
-511849862.21266,-318171646.51696,-92142098.65765,  -0.00226,  -0.00061,  -0.00161,476564608.00000,   0.00053,275216160.00000,  -0.00055,  -0.00016,  -0.00042,  32.00000,   2.00000
-511866480.43310,-317381478.31729,-92306865.29765,  -0.00226,  -0.00061,  -0.00162,476565728.00000,   0.00053,275221248.00000,  -0.00055,  -0.00016,  -0.00042,  64.00000,   2.00000
-511884676.88943,-316579953.24222,-92469308.26107,  -0.00227,  -0.00061,  -0.00163,476578528.00000,   0.00054,275226400.00000,  -0.00056,  -0.00017,  -0.00042, -32.00000,   2.00000
-511899639.16935,-315768680.57482,-92635339.72559,  -0.00228,  -0.00060,  -0.00163,476564832.00000,   0.00054,275231456.00000,  -0.00056,  -0.00017,  -0.00043,  64.00000,   2.00000
-511909676.21994,-314971813.82217,-92801669.15593,  -0.00228,  -0.00060,  -0.00164,476565920.00000,   0.00054,275236512.00000,  -0.00057,  -0.00017,  -0.00043, -32.00000,   2.00000
-511924332.70778,-314165273.17192,-92961657.40760,  -0.00229,  -0.00060,  -0.00164,476575776.00000,   0.00055,275241568.00000,  -0.00057,  -0.00017,  -0.00044,  64.00000,   2.00000
-511932438.36108,-313347007.21690,-93129357.22780,  -0.00230,  -0.00060,  -0.00165,476565024.00000,   0.00055,275246592.00000,  -0.00058,  -0.00017,  -0.00044,   0.00000,   2.00000
-511941320.97812,-312544225.97772,-93290437.75502,  -0.00230,  -0.00059,  -0.00166,476576192.00000,   0.00056,275251648.00000,  -0.00058,  -0.00017,  -0.00044, -32.00000,   2.00000
-511949264.07041,-311730720.13404,-93452271.47707,  -0.00231,  -0.00059,  -0.00166,476575776.00000,   0.00056,275256672.00000,  -0.00059,  -0.00017,  -0.00045,   0.00000,   2.00000
-511953064.74453,-310919328.30224,-93616192.22837,  -0.00232,  -0.00059,  -0.00167,476569408.00000,   0.00057,275261632.00000,  -0.00059,  -0.00017,  -0.00045, -32.00000,   2.00000
-511955919.99499,-310097172.61618,-93780894.82094,  -0.00232,  -0.00058,  -0.00167,476568864.00000,   0.00057,275266624.00000,  -0.00060,  -0.00017,  -0.00046, 128.00000,   2.00000
-511956922.90144,-309276430.53765,-93944699.55806,  -0.00233,  -0.00058,  -0.00168,476575808.00000,   0.00058,275271584.00000,  -0.00060,  -0.00017,  -0.00046,  96.00000,   2.00000
-511956343.09371,-308457250.80821,-94107675.42591,  -0.00233,  -0.00058,  -0.00169,476582528.00000,   0.00058,275276576.00000,  -0.00061,  -0.00017,  -0.00046,  64.00000,   2.00000
-511951742.21288,-307640149.94738,-94272827.13149,  -0.00234,  -0.00058,  -0.00169,476575968.00000,   0.00059,275281504.00000,  -0.00061,  -0.00017,  -0.00047,  96.00000,   2.00000
-511948520.40426,-306826179.30765,-94433081.04605,  -0.00235,  -0.00057,  -0.00170,476579872.00000,   0.00059,275286464.00000,  -0.00062,  -0.00017,  -0.00047, 160.00000,   2.00000
-511940927.67423,-305999539.91577,-94598169.40608,  -0.00235,  -0.00057,  -0.00170,476582304.00000,   0.00060,275291392.00000,  -0.00062,  -0.00018,  -0.00047, -64.00000,   2.00000
-511932404.65787,-305176563.30926,-94761410.34302,  -0.00236,  -0.00057,  -0.00171,476572928.00000,   0.00060,275296288.00000,  -0.00063,  -0.00018,  -0.00048,   0.00000,   2.00000
-511922097.15742,-304340566.33509,-94926507.51408,  -0.00237,  -0.00056,  -0.00172,476588576.00000,   0.00060,275301216.00000,  -0.00063,  -0.00018,  -0.00048,  64.00000,   2.00000
-511910199.54259,-303520599.95723,-95088114.01657,  -0.00237,  -0.00056,  -0.00172,476586208.00000,   0.00061,275306112.00000,  -0.00064,  -0.00018,  -0.00049,   0.00000,   2.00000
-511896993.91420,-302689567.03006,-95250514.85947,  -0.00238,  -0.00056,  -0.00173,476585856.00000,   0.00061,275311008.00000,  -0.00064,  -0.00018,  -0.00049, -96.00000,   2.00000
-511879785.12694,-301860461.83828,-95415162.20264,  -0.00239,  -0.00055,  -0.00173,476579200.00000,   0.00062,275315872.00000,  -0.00065,  -0.00018,  -0.00049,   0.00000,   2.00000
-511860861.98521,-301032837.75985,-95578988.96594,  -0.00239,  -0.00055,  -0.00174,476585952.00000,   0.00062,275320704.00000,  -0.00065,  -0.00018,  -0.00050,   0.00000,   2.00000
-511840568.42604,-300194083.40571,-95743599.41120,  -0.00240,  -0.00055,  -0.00175,476585600.00000,   0.00063,275325568.00000,  -0.00065,  -0.00018,  -0.00050, -32.00000,   2.00000
-511821346.98810,-299371108.42182,-95901746.05185,  -0.00240,  -0.00054,  -0.00175,476596256.00000,   0.00063,275330432.00000,  -0.00066,  -0.00018,  -0.00051, -64.00000,   2.00000
-511797857.70651,-298535473.72326,-96064781.30851,  -0.00241,  -0.00054,  -0.00176,476598816.00000,   0.00064,275335296.00000,  -0.00066,  -0.00018,  -0.00051,  32.00000,   2.00000
-511773217.44505,-297703136.93078,-96225985.44491,  -0.00242,  -0.00054,  -0.00176,476589376.00000,   0.00064,275340096.00000,  -0.00067,  -0.00018,  -0.00051,  32.00000,   2.00000
-511743943.94169,-296857937.70583,-96391992.64789,  -0.00242,  -0.00053,  -0.00177,476591968.00000,   0.00064,275344896.00000,  -0.00067,  -0.00018,  -0.00052,   0.00000,   2.00000
-511715998.54999,-296028691.16594,-96551574.66849,  -0.00243,  -0.00053,  -0.00178,476602592.00000,   0.00065,275349728.00000,  -0.00068,  -0.00018,  -0.00052,  32.00000,   2.00000
-511684004.81156,-295188266.79630,-96714973.60889,  -0.00244,  -0.00053,  -0.00178,476589056.00000,   0.00065,275354496.00000,  -0.00068,  -0.00018,  -0.00052, -32.00000,   2.00000
-511652891.14570,-294349303.02723,-96874506.88326,  -0.00244,  -0.00052,  -0.00179,476608864.00000,   0.00066,275359328.00000,  -0.00069,  -0.00018,  -0.00053, -32.00000,   2.00000
-511617736.07463,-293512015.74052,-97036319.72252,  -0.00245,  -0.00052,  -0.00179,476602112.00000,   0.00066,275364096.00000,  -0.00069,  -0.00018,  -0.00053,  64.00000,   2.00000
-511578375.75156,-292676267.76234,-97200374.06711,  -0.00245,  -0.00052,  -0.00180,476595456.00000,   0.00067,275368832.00000,  -0.00070,  -0.00018,  -0.00054, 128.00000,   2.00000
-511539887.69921,-291842027.30468,-97360536.08445,  -0.00246,  -0.00052,  -0.00180,476615136.00000,   0.00067,275373632.00000,  -0.00070,  -0.00018,  -0.00054,  32.00000,   2.00000
-511500403.11705,-290997958.40453,-97520492.77987,  -0.00247,  -0.00051,  -0.00181,476598848.00000,   0.00068,275378368.00000,  -0.00071,  -0.00019,  -0.00054,   0.00000,   2.00000
-511456268.02276,-290166856.35810,-97682131.88539,  -0.00247,  -0.00051,  -0.00182,476614976.00000,   0.00068,275383136.00000,  -0.00071,  -0.00019,  -0.00055,  32.00000,   2.00000
-511413600.49555,-289325856.73869,-97840477.32461,  -0.00248,  -0.00051,  -0.00182,476611872.00000,   0.00068,275387872.00000,  -0.00072,  -0.00019,  -0.00055,  64.00000,   2.00000
-511366863.44326,-288486327.54103,-98001118.57655,  -0.00248,  -0.00050,  -0.00183,476605088.00000,   0.00069,275392576.00000,  -0.00072,  -0.00019,  -0.00055,  64.00000,   2.00000
-511315382.15819,-287646752.13032,-98164967.48509,  -0.00249,  -0.00050,  -0.00183,476614464.00000,   0.00069,275397312.00000,  -0.00072,  -0.00019,  -0.00056,   0.00000,   2.00000
-511265439.25147,-286810249.70332,-98323970.55086,  -0.00250,  -0.00050,  -0.00184,476617888.00000,   0.00070,275402048.00000,  -0.00073,  -0.00019,  -0.00056, -32.00000,   2.00000
-511213889.68559,-285962240.27590,-98483729.61574,  -0.00250,  -0.00049,  -0.00185,476617728.00000,   0.00070,275406752.00000,  -0.00073,  -0.00019,  -0.00056,   0.00000,   2.00000
-511160857.62254,-285128846.02637,-98641126.07232,  -0.00251,  -0.00049,  -0.00185,476630752.00000,   0.00071,275411488.00000,  -0.00074,  -0.00019,  -0.00057, -32.00000,   2.00000
-511103711.50846,-284283689.95787,-98802399.96139,  -0.00251,  -0.00049,  -0.00186,476617344.00000,   0.00071,275416160.00000,  -0.00074,  -0.00019,  -0.00057,  64.00000,   2.00000
-511048285.59642,-283454699.24759,-98957300.11171,  -0.00252,  -0.00048,  -0.00186,476627328.00000,   0.00071,275420864.00000,  -0.00075,  -0.00019,  -0.00058,  64.00000,   2.00000
-510988019.49407,-282612527.53752,-99116966.64970,  -0.00253,  -0.00048,  -0.00187,476630176.00000,   0.00072,275425568.00000,  -0.00075,  -0.00019,  -0.00058,  32.00000,   2.00000
-510926791.89912,-281773065.74182,-99274933.64285,  -0.00253,  -0.00048,  -0.00187,476620384.00000,   0.00072,275430208.00000,  -0.00076,  -0.00019,  -0.00058,   0.00000,   2.00000
-510863582.34410,-280933973.87260,-99433018.89902,  -0.00254,  -0.00047,  -0.00188,476642880.00000,   0.00073,275434912.00000,  -0.00076,  -0.00019,  -0.00059,  64.00000,   2.00000
-510799484.36949,-280097554.38213,-99589434.66835,  -0.00254,  -0.00047,  -0.00189,476633088.00000,   0.00073,275439584.00000,  -0.00077,  -0.00019,  -0.00059, 128.00000,   2.00000
-510733861.16138,-279262600.54826,-99745057.24942,  -0.00255,  -0.00046,  -0.00189,476639456.00000,   0.00074,275444256.00000,  -0.00077,  -0.00019,  -0.00059,  64.00000,   2.00000
-510664375.67278,-278428793.99383,-99903078.87711,  -0.00256,  -0.00046,  -0.00190,476632384.00000,   0.00074,275448896.00000,  -0.00078,  -0.00019,  -0.00060,   0.00000,   2.00000
-510592831.95364,-277595384.39552,-100061176.85039,  -0.00256,  -0.00046,  -0.00190,476655008.00000,   0.00074,275453600.00000,  -0.00078,  -0.00019,  -0.00060,  64.00000,   2.00000
-510523688.26793,-276766030.21347,-100213657.14287,  -0.00257,  -0.00045,  -0.00191,476642048.00000,   0.00075,275458240.00000,  -0.00078,  -0.00019,  -0.00061,   0.00000,   2.00000
-510449908.11521,-275936612.07589,-100369370.29083,  -0.00257,  -0.00045,  -0.00191,476651296.00000,   0.00075,275462912.00000,  -0.00079,  -0.00019,  -0.00061, -32.00000,   2.00000
-510371791.86759,-275094787.07261,-100529000.53438,  -0.00258,  -0.00045,  -0.00192,476638080.00000,   0.00076,275467488.00000,  -0.00079,  -0.00019,  -0.00061, -32.00000,   2.00000
-510295377.24478,-274268395.19090,-100683215.82342,  -0.00258,  -0.00044,  -0.00193,476663808.00000,   0.00076,275472160.00000,  -0.00080,  -0.00019,  -0.00062,  64.00000,   2.00000
-510218191.20558,-273444377.55182,-100835853.49674,  -0.00259,  -0.00044,  -0.00193,476653824.00000,   0.00077,275476800.00000,  -0.00080,  -0.00019,  -0.00062, -96.00000,   2.00000
-510136114.75167,-272606929.57934,-100993276.55875,  -0.00260,  -0.00044,  -0.00194,476656768.00000,   0.00077,275481408.00000,  -0.00081,  -0.00019,  -0.00062,  96.00000,   2.00000
-510056230.66232,-271785801.95040,-101144430.69891,  -0.00260,  -0.00043,  -0.00194,476666304.00000,   0.00077,275486048.00000,  -0.00081,  -0.00019,  -0.00063, -64.00000,   2.00000
-509972677.59691,-270965571.42052,-101298094.54004,  -0.00261,  -0.00043,  -0.00195,476659168.00000,   0.00078,275490656.00000,  -0.00082,  -0.00019,  -0.00063, -64.00000,   2.00000
-509887116.93938,-270133173.82809,-101452494.12968,  -0.00261,  -0.00043,  -0.00195,476659264.00000,   0.00078,275495232.00000,  -0.00082,  -0.00019,  -0.00063, -32.00000,   2.00000
-509800944.50820,-269315777.84721,-101604710.73283,  -0.00262,  -0.00042,  -0.00196,476671520.00000,   0.00079,275499872.00000,  -0.00082,  -0.00019,  -0.00064, -32.00000,   2.00000
-509712910.14884,-268486247.34684,-101757706.23548,  -0.00263,  -0.00042,  -0.00196,476671520.00000,   0.00079,275504448.00000,  -0.00083,  -0.00019,  -0.00064, -32.00000,   2.00000
-509624351.86983,-267671766.97928,-101908540.21410,  -0.00263,  -0.00042,  -0.00197,476683776.00000,   0.00080,275509088.00000,  -0.00083,  -0.00019,  -0.00065,  64.00000,   2.00000
-509531900.95535,-266857910.48043,-102061864.98275,  -0.00264,  -0.00041,  -0.00198,476676800.00000,   0.00080,275513696.00000,  -0.00084,  -0.00019,  -0.00065,  32.00000,   2.00000
-509441616.66090,-266046976.81947,-102210559.79564,  -0.00264,  -0.00041,  -0.00198,476679712.00000,   0.00080,275518272.00000,  -0.00084,  -0.00019,  -0.00065,  96.00000,   2.00000
-509345988.38291,-265222247.15102,-102363973.64136,  -0.00265,  -0.00041,  -0.00199,476682976.00000,   0.00081,275522848.00000,  -0.00085,  -0.00019,  -0.00066,  32.00000,   2.00000
-509253300.09096,-264414121.70906,-102511306.94668,  -0.00265,  -0.00040,  -0.00199,476692096.00000,   0.00081,275527456.00000,  -0.00085,  -0.00019,  -0.00066, 160.00000,   2.00000
-509156142.19599,-263605915.37285,-102661930.98470,  -0.00266,  -0.00040,  -0.00200,476701312.00000,   0.00082,275532096.00000,  -0.00086,  -0.00019,  -0.00066, -64.00000,   2.00000
-509058481.52261,-262799691.28158,-102811145.29340,  -0.00266,  -0.00040,  -0.00200,476691040.00000,   0.00082,275536640.00000,  -0.00086,  -0.00019,  -0.00067,  96.00000,   2.00000
-508959651.09741,-261994835.16530,-102959696.65050,  -0.00267,  -0.00039,  -0.00201,476697088.00000,   0.00083,275541216.00000,  -0.00087,  -0.00019,  -0.00067, -32.00000,   2.00000
-508859790.84745,-261191407.03989,-103107619.68075,  -0.00268,  -0.00039,  -0.00202,476703136.00000,   0.00083,275545824.00000,  -0.00087,  -0.00019,  -0.00068,  64.00000,   2.00000
-508758771.13533,-260389347.87942,-103254886.01638,  -0.00268,  -0.00039,  -0.00202,476709216.00000,   0.00083,275550400.00000,  -0.00087,  -0.00019,  -0.00068, 128.00000,   2.00000
-508653949.58082,-259587679.08447,-103404726.84228,  -0.00269,  -0.00038,  -0.00203,476702080.00000,   0.00084,275554944.00000,  -0.00088,  -0.00019,  -0.00068,  96.00000,   2.00000
-508548012.22008,-258787375.40355,-103553918.75585,  -0.00269,  -0.00038,  -0.00203,476708096.00000,   0.00084,275559520.00000,  -0.00088,  -0.00019,  -0.00069, -64.00000,   2.00000
-508441097.59532,-257988497.95583,-103702495.38337,  -0.00270,  -0.00038,  -0.00204,476714112.00000,   0.00085,275564096.00000,  -0.00089,  -0.00019,  -0.00069,   0.00000,   2.00000
-508337269.71714,-257206244.96618,-103845036.31423,  -0.00270,  -0.00037,  -0.00204,476722880.00000,   0.00085,275568672.00000,  -0.00089,  -0.00019,  -0.00069, -64.00000,   2.00000
-508228295.02259,-256410143.44725,-103992375.28873,  -0.00271,  -0.00037,  -0.00205,476726176.00000,   0.00085,275573248.00000,  -0.00090,  -0.00019,  -0.00070,  64.00000,   2.00000
-508119770.77263,-255629597.27820,-104136931.39733,  -0.00271,  -0.00037,  -0.00205,476721728.00000,   0.00086,275577792.00000,  -0.00090,  -0.00019,  -0.00070,  32.00000,   2.00000
-508009817.34752,-254850204.66499,-104281616.89602,  -0.00272,  -0.00036,  -0.00206,476743968.00000,   0.00086,275582400.00000,  -0.00091,  -0.00019,  -0.00070,  96.00000,   2.00000
-507899274.95984,-254072397.09836,-104424948.21229,  -0.00273,  -0.00036,  -0.00207,476733792.00000,   0.00087,275586976.00000,  -0.00091,  -0.00019,  -0.00071,  64.00000,   2.00000
-507787759.44729,-253295978.51633,-104567676.63340,  -0.00273,  -0.00036,  -0.00207,476739616.00000,   0.00087,275591552.00000,  -0.00091,  -0.00019,  -0.00071,  32.00000,   2.00000
-507672502.60713,-252519730.86067,-104713041.01611,  -0.00274,  -0.00035,  -0.00208,476732352.00000,   0.00088,275596064.00000,  -0.00092,  -0.00019,  -0.00072,   0.00000,   2.00000
-507559021.03524,-251746091.72431,-104854548.11276,  -0.00274,  -0.00035,  -0.00208,476751520.00000,   0.00088,275600640.00000,  -0.00092,  -0.00019,  -0.00072, -32.00000,   2.00000
-507443097.84011,-250986654.02500,-104997332.43094,  -0.00275,  -0.00035,  -0.00209,476749888.00000,   0.00088,275605216.00000,  -0.00093,  -0.00019,  -0.00072,  64.00000,   2.00000
-507325027.70580,-250214555.44284,-105140905.00749,  -0.00275,  -0.00034,  -0.00209,476750240.00000,   0.00089,275609760.00000,  -0.00093,  -0.00019,  -0.00073,  96.00000,   2.00000
-507210434.24359,-249459249.60233,-105278527.05077,  -0.00276,  -0.00034,  -0.00210,476758656.00000,   0.00089,275614336.00000,  -0.00094,  -0.00019,  -0.00073,  32.00000,   2.00000
-507091671.21384,-248703967.90327,-105419507.73854,  -0.00276,  -0.00034,  -0.00210,476767616.00000,   0.00090,275618912.00000,  -0.00094,  -0.00019,  -0.00073,  32.00000,   2.00000
-506972561.31511,-247950130.89519,-105559231.37510,  -0.00277,  -0.00033,  -0.00211,476757248.00000,   0.00090,275623456.00000,  -0.00095,  -0.00019,  -0.00074,  32.00000,   2.00000
-506849154.54178,-247196263.59251,-105702273.18022,  -0.00277,  -0.00033,  -0.00212,476766336.00000,   0.00091,275628000.00000,  -0.00095,  -0.00019,  -0.00074, -32.00000,   2.00000
-506728273.74785,-246445208.01335,-105840811.34119,  -0.00278,  -0.00033,  -0.00212,476768928.00000,   0.00091,275632544.00000,  -0.00095,  -0.00019,  -0.00074,  32.00000,   2.00000
-506607746.84958,-245709648.12132,-105977367.46361,  -0.00278,  -0.00032,  -0.00213,476780352.00000,   0.00091,275637088.00000,  -0.00096,  -0.00019,  -0.00075, -32.00000,   2.00000
-506486444.41798,-244975510.45212,-106113360.67704,  -0.00279,  -0.00032,  -0.00213,476786208.00000,   0.00092,275641696.00000,  -0.00096,  -0.00019,  -0.00075, -32.00000,   2.00000
-506364367.48565,-244242799.03000,-106248789.96988,  -0.00280,  -0.00032,  -0.00214,476791968.00000,   0.00092,275646272.00000,  -0.00097,  -0.00019,  -0.00076,   0.00000,   2.00000
-506238576.96360,-243509983.97501,-106386903.67373,  -0.00280,  -0.00031,  -0.00214,476784736.00000,   0.00093,275650816.00000,  -0.00097,  -0.00019,  -0.00076,  64.00000,   2.00000
-506113416.85889,-242792782.51449,-106523082.89636,  -0.00281,  -0.00031,  -0.00215,476795936.00000,   0.00093,275655360.00000,  -0.00098,  -0.00019,  -0.00076, -96.00000,   2.00000
-505985979.32881,-242062726.68374,-106660027.90962,  -0.00281,  -0.00031,  -0.00215,476796384.00000,   0.00093,275659936.00000,  -0.00098,  -0.00019,  -0.00077, -64.00000,   2.00000
-505859277.84989,-241348350.93791,-106795056.98256,  -0.00282,  -0.00031,  -0.00216,476807456.00000,   0.00094,275664512.00000,  -0.00099,  -0.00019,  -0.00077,-128.00000,   2.00000
-505735182.07134,-240636735.70324,-106925608.04085,  -0.00282,  -0.00030,  -0.00216,476810048.00000,   0.00094,275669088.00000,  -0.00099,  -0.00019,  -0.00077,  32.00000,   2.00000
-505606928.66343,-239925160.16774,-107059493.79001,  -0.00283,  -0.00030,  -0.00217,476819264.00000,   0.00095,275673696.00000,  -0.00099,  -0.00019,  -0.00078,  32.00000,   2.00000
-505479953.85974,-239229011.25027,-107190857.08448,  -0.00283,  -0.00030,  -0.00218,476813824.00000,   0.00095,275678240.00000,  -0.00100,  -0.00019,  -0.00078,  32.00000,   2.00000
-505352231.42807,-238534229.28828,-107321654.51191,  -0.00284,  -0.00029,  -0.00218,476819648.00000,   0.00096,275682816.00000,  -0.00100,  -0.00019,  -0.00079, -96.00000,   2.00000
-505220588.90681,-237839555.62825,-107455832.39020,  -0.00284,  -0.00029,  -0.00219,476828512.00000,   0.00096,275687392.00000,  -0.00101,  -0.00019,  -0.00079, -32.00000,   2.00000
-505091517.49450,-237147569.37988,-107585517.79436,  -0.00285,  -0.00029,  -0.00219,476831104.00000,   0.00096,275691968.00000,  -0.00101,  -0.00019,  -0.00079,  32.00000,   2.00000
-504963355.37276,-236471324.15599,-107713317.69735,  -0.00285,  -0.00028,  -0.00220,476842112.00000,   0.00097,275696576.00000,  -0.00102,  -0.00019,  -0.00080, -32.00000,   2.00000
-504831783.06950,-235794784.83072,-107843914.82261,  -0.00286,  -0.00028,  -0.00220,476834528.00000,   0.00097,275701120.00000,  -0.00102,  -0.00019,  -0.00080,   0.00000,   2.00000
-504702371.51493,-235121323.53461,-107970625.74367,  -0.00286,  -0.00028,  -0.00221,476853600.00000,   0.00098,275705760.00000,  -0.00103,  -0.00019,  -0.00080, -64.00000,   2.00000
-504572744.19675,-234448776.71958,-108096204.69293,  -0.00287,  -0.00027,  -0.00221,476842752.00000,   0.00098,275710304.00000,  -0.00103,  -0.00019,  -0.00081,  32.00000,   2.00000
-504440962.60154,-233790758.77202,-108223864.18661,  -0.00287,  -0.00027,  -0.00222,476856832.00000,   0.00099,275714912.00000,  -0.00103,  -0.00019,  -0.00081,  32.00000,   2.00000
-504308640.90059,-233134115.37763,-108350998.59853,  -0.00288,  -0.00027,  -0.00222,476862400.00000,   0.00099,275719520.00000,  -0.00104,  -0.00019,  -0.00082,  96.00000,   2.00000
-504178944.40688,-232480067.56236,-108473666.79298,  -0.00288,  -0.00027,  -0.00223,476864960.00000,   0.00099,275724128.00000,  -0.00104,  -0.00019,  -0.00082,  32.00000,   2.00000
-504047705.64592,-231840060.27556,-108597888.31537,  -0.00289,  -0.00026,  -0.00223,476862368.00000,   0.00100,275728704.00000,  -0.00105,  -0.00019,  -0.00082,  64.00000,   2.00000
-503915457.94615,-231201937.56463,-108722142.48695,  -0.00289,  -0.00026,  -0.00224,476884512.00000,   0.00100,275733344.00000,  -0.00105,  -0.00019,  -0.00083,   0.00000,   2.00000
-503783030.89778,-230564521.19873,-108845302.63079,  -0.00290,  -0.00026,  -0.00225,476873664.00000,   0.00101,275737920.00000,  -0.00106,  -0.00019,  -0.00083,  64.00000,   2.00000
-503652030.49765,-229942977.40069,-108966688.80799,  -0.00290,  -0.00025,  -0.00225,476884320.00000,   0.00101,275742528.00000,  -0.00106,  -0.00019,  -0.00083, -64.00000,   2.00000
-503520617.66202,-229322760.88331,-109087592.35052,  -0.00291,  -0.00025,  -0.00226,476889824.00000,   0.00102,275747136.00000,  -0.00107,  -0.00019,  -0.00084,  64.00000,   2.00000
-503388629.38588,-228703805.23234,-109207973.50073,  -0.00292,  -0.00025,  -0.00226,476895488.00000,   0.00102,275751776.00000,  -0.00107,  -0.00019,  -0.00084, -64.00000,   2.00000
-503256200.33890,-228086157.26679,-109327865.59889,  -0.00292,  -0.00025,  -0.00227,476901088.00000,   0.00102,275756384.00000,  -0.00108,  -0.00019,  -0.00085, -64.00000,   2.00000
-503128694.15023,-227485674.62117,-109442130.44545,  -0.00293,  -0.00024,  -0.00227,476908288.00000,   0.00103,275761024.00000,  -0.00108,  -0.00019,  -0.00085, -32.00000,   2.00000
-502994386.67895,-226883181.50340,-109563152.03418,  -0.00293,  -0.00024,  -0.00228,476903872.00000,   0.00103,275765632.00000,  -0.00108,  -0.00019,  -0.00085,  96.00000,   2.00000
-502865004.81200,-226297803.67565,-109678542.68198,  -0.00294,  -0.00024,  -0.00228,476911104.00000,   0.00104,275770240.00000,  -0.00109,  -0.00019,  -0.00086,  32.00000,   2.00000
-502734993.20435,-225714492.82305,-109794029.03600,  -0.00294,  -0.00023,  -0.00229,476932960.00000,   0.00104,275774944.00000,  -0.00109,  -0.00019,  -0.00086,  64.00000,   2.00000
-502604810.19181,-225131552.52830,-109908490.29752,  -0.00295,  -0.00023,  -0.00229,476922144.00000,   0.00105,275779552.00000,  -0.00110,  -0.00019,  -0.00086, -32.00000,   2.00000
-502476361.59951,-224564501.30565,-110021259.24808,  -0.00295,  -0.00023,  -0.00230,476932416.00000,   0.00105,275784224.00000,  -0.00110,  -0.00019,  -0.00087, -64.00000,   2.00000
-502344604.41973,-223996565.98181,-110136958.31400,  -0.00296,  -0.00023,  -0.00230,476924704.00000,   0.00105,275788832.00000,  -0.00111,  -0.00019,  -0.00087, -64.00000,   2.00000
-502215589.92456,-223431945.94589,-110248858.11678,  -0.00296,  -0.00022,  -0.00231,476943296.00000,   0.00106,275793472.00000,  -0.00111,  -0.00019,  -0.00088,  64.00000,   2.00000
-502088246.57349,-222883158.75613,-110359050.90324,  -0.00297,  -0.00022,  -0.00231,476953760.00000,   0.00106,275798176.00000,  -0.00112,  -0.00019,  -0.00088,   0.00000,   2.00000
-501957742.08626,-222333446.09620,-110472229.03390,  -0.00297,  -0.00022,  -0.00232,476945824.00000,   0.00107,275802784.00000,  -0.00112,  -0.00019,  -0.00088,  96.00000,   2.00000
-501828911.05666,-221799522.01265,-110583695.94835,  -0.00298,  -0.00022,  -0.00233,476956096.00000,   0.00107,275807456.00000,  -0.00112,  -0.00019,  -0.00089,   0.00000,   2.00000
-501703357.66448,-221268003.91469,-110690914.56678,  -0.00298,  -0.00021,  -0.00233,476958080.00000,   0.00108,275812096.00000,  -0.00113,  -0.00019,  -0.00089,  64.00000,   2.00000
-501574098.03580,-220736345.16180,-110801579.17875,  -0.00299,  -0.00021,  -0.00234,476966848.00000,   0.00108,275816768.00000,  -0.00113,  -0.00019,  -0.00090,   0.00000,   2.00000
-501450242.78975,-220221788.90755,-110906756.15346,  -0.00299,  -0.00021,  -0.00234,476973632.00000,   0.00108,275821472.00000,  -0.00114,  -0.00018,  -0.00090, -64.00000,   2.00000
-501322775.14622,-219707089.08992,-111015405.73653,  -0.00300,  -0.00021,  -0.00235,476982368.00000,   0.00109,275826144.00000,  -0.00114,  -0.00018,  -0.00090,  32.00000,   2.00000
-501200738.49010,-219209460.55846,-111118579.26283,  -0.00300,  -0.00020,  -0.00235,476989088.00000,   0.00109,275830848.00000,  -0.00115,  -0.00018,  -0.00091,  32.00000,   2.00000
-501075351.18744,-218710589.35222,-111224741.26111,  -0.00301,  -0.00020,  -0.00236,476981216.00000,   0.00110,275835520.00000,  -0.00115,  -0.00018,  -0.00091,  32.00000,   2.00000
-500955152.64534,-218229819.07405,-111325925.33085,  -0.00301,  -0.00020,  -0.00236,477004512.00000,   0.00110,275840256.00000,  -0.00116,  -0.00018,  -0.00091, -64.00000,   2.00000
-500831782.13035,-217747802.34910,-111430155.85608,  -0.00302,  -0.00020,  -0.00237,476996576.00000,   0.00111,275844928.00000,  -0.00116,  -0.00018,  -0.00092,  32.00000,   2.00000
-500711585.25076,-217267969.63918,-111530144.43492,  -0.00302,  -0.00019,  -0.00237,476998560.00000,   0.00111,275849600.00000,  -0.00117,  -0.00018,  -0.00092,  96.00000,   2.00000
-500590192.02900,-216802752.67837,-111632438.92798,  -0.00303,  -0.00019,  -0.00238,477011808.00000,   0.00111,275854304.00000,  -0.00117,  -0.00018,  -0.00093,  32.00000,   2.00000
-500472024.93894,-216339690.25655,-111730511.68452,  -0.00303,  -0.00019,  -0.00238,477013760.00000,   0.00112,275859008.00000,  -0.00117,  -0.00018,  -0.00093, -96.00000,   2.00000
-500352786.98190,-215891259.59736,-111830922.89498,  -0.00304,  -0.00019,  -0.00239,477026880.00000,   0.00112,275863744.00000,  -0.00118,  -0.00018,  -0.00093, 128.00000,   2.00000
-500236729.81383,-215444919.58176,-111927108.01761,  -0.00304,  -0.00019,  -0.00239,477028896.00000,   0.00113,275868448.00000,  -0.00118,  -0.00018,  -0.00094,  64.00000,   2.00000
-500120579.97266,-214999507.01655,-112022965.11352,  -0.00304,  -0.00018,  -0.00240,477034016.00000,   0.00113,275873184.00000,  -0.00119,  -0.00018,  -0.00094, -32.00000,   2.00000
-500003670.16351,-214567526.26344,-112120725.79905,  -0.00305,  -0.00018,  -0.00240,477030720.00000,   0.00114,275877888.00000,  -0.00119,  -0.00018,  -0.00095,  64.00000,   2.00000
-499892245.77364,-214153703.56420,-112213568.60060,  -0.00305,  -0.00018,  -0.00241,477053664.00000,   0.00114,275882656.00000,  -0.00120,  -0.00018,  -0.00095,  96.00000,   2.00000
-499777461.05688,-213738283.40342,-112309468.58939,  -0.00306,  -0.00018,  -0.00241,477045760.00000,   0.00115,275887360.00000,  -0.00120,  -0.00018,  -0.00095,   0.00000,   2.00000
-499662725.77332,-213323751.98739,-112405079.40601,  -0.00306,  -0.00017,  -0.00242,477050848.00000,   0.00115,275892096.00000,  -0.00121,  -0.00018,  -0.00096,  96.00000,   2.00000
-499553708.35458,-212926124.66262,-112495326.10041,  -0.00307,  -0.00017,  -0.00242,477057216.00000,   0.00115,275896832.00000,  -0.00121,  -0.00018,  -0.00096,   0.00000,   2.00000
-499443747.66725,-212543051.54382,-112587953.36922,  -0.00307,  -0.00017,  -0.00243,477070208.00000,   0.00116,275901600.00000,  -0.00122,  -0.00018,  -0.00097,  96.00000,   2.00000
-499337197.68979,-212161959.22181,-112676444.55126,  -0.00308,  -0.00017,  -0.00243,477072000.00000,   0.00116,275906336.00000,  -0.00122,  -0.00018,  -0.00097, -64.00000,   2.00000
-499230596.55314,-211781640.42548,-112764643.15053,  -0.00308,  -0.00017,  -0.00244,477077152.00000,   0.00117,275911104.00000,  -0.00123,  -0.00018,  -0.00097,   0.00000,   2.00000
-499126523.41099,-211417048.46215,-112851396.33225,  -0.00309,  -0.00017,  -0.00244,477086784.00000,   0.00117,275915872.00000,  -0.00123,  -0.00018,  -0.00098,  64.00000,   2.00000
-499024870.34329,-211068115.02728,-112936679.29792,  -0.00309,  -0.00016,  -0.00245,477096384.00000,   0.00118,275920672.00000,  -0.00123,  -0.00018,  -0.00098,   0.00000,   2.00000
-498920029.31418,-210717411.15357,-113025112.64038,  -0.00310,  -0.00016,  -0.00245,477088384.00000,   0.00118,275925408.00000,  -0.00124,  -0.00018,  -0.00099,  96.00000,   2.00000
-498821805.14214,-210371096.48957,-113106008.83726,  -0.00310,  -0.00016,  -0.00246,477103072.00000,   0.00119,275930208.00000,  -0.00124,  -0.00018,  -0.00099, -96.00000,   2.00000
-498719512.57297,-210036767.82106,-113192743.70762,  -0.00311,  -0.00016,  -0.00246,477102912.00000,   0.00119,275934976.00000,  -0.00125,  -0.00017,  -0.00099,   0.00000,   2.00000
-498623261.42909,-209719271.72831,-113274221.74082,  -0.00311,  -0.00016,  -0.00247,477109088.00000,   0.00119,275939744.00000,  -0.00125,  -0.00017,  -0.00100,   0.00000,   2.00000
-498530253.92376,-209404956.63109,-113352023.76873,  -0.00312,  -0.00015,  -0.00247,477127232.00000,   0.00120,275944576.00000,  -0.00126,  -0.00017,  -0.00100,  32.00000,   2.00000
-498434002.98624,-209088738.16306,-113432998.52985,  -0.00312,  -0.00015,  -0.00248,477119232.00000,   0.00120,275949344.00000,  -0.00126,  -0.00017,  -0.00101,  32.00000,   2.00000
-498340391.33460,-208788153.74191,-113512571.06708,  -0.00313,  -0.00015,  -0.00248,477128608.00000,   0.00121,275954144.00000,  -0.00127,  -0.00017,  -0.00101,  64.00000,   2.00000
-498249440.85038,-208503181.23374,-113590750.08401,  -0.00313,  -0.00015,  -0.00249,477138112.00000,   0.00121,275958976.00000,  -0.00127,  -0.00017,  -0.00101, -32.00000,   2.00000
-498158581.68972,-208218811.66069,-113668703.82521,  -0.00314,  -0.00015,  -0.00250,477143136.00000,   0.00122,275963776.00000,  -0.00128,  -0.00017,  -0.00102, 160.00000,   2.00000
-498070349.23941,-207948541.23409,-113744812.95549,  -0.00314,  -0.00015,  -0.00250,477136160.00000,   0.00122,275968544.00000,  -0.00128,  -0.00017,  -0.00102, -32.00000,   2.00000
-497982152.14689,-207680294.41192,-113821132.59898,  -0.00315,  -0.00014,  -0.00251,477157568.00000,   0.00123,275973408.00000,  -0.00129,  -0.00017,  -0.00103, -64.00000,   2.00000
-497900130.54047,-207428789.47449,-113892258.58327,  -0.00315,  -0.00014,  -0.00251,477163488.00000,   0.00123,275978240.00000,  -0.00129,  -0.00017,  -0.00103,  32.00000,   2.00000
-497814758.52712,-207175161.74539,-113966568.67631,  -0.00316,  -0.00014,  -0.00252,477155520.00000,   0.00123,275983040.00000,  -0.00129,  -0.00017,  -0.00103, -32.00000,   2.00000
-497735386.32945,-206939678.34205,-114036080.15230,  -0.00316,  -0.00014,  -0.00252,477177792.00000,   0.00124,275987904.00000,  -0.00130,  -0.00017,  -0.00104,   0.00000,   2.00000
-497652938.42805,-206702122.09854,-114108856.09515,  -0.00317,  -0.00014,  -0.00252,477169728.00000,   0.00124,275992704.00000,  -0.00130,  -0.00017,  -0.00104,  32.00000,   2.00000
-497576507.96138,-206481185.81082,-114176409.78405,  -0.00317,  -0.00014,  -0.00253,477175776.00000,   0.00125,275997536.00000,  -0.00131,  -0.00017,  -0.00105, -32.00000,   2.00000
-497499398.14752,-206274582.20331,-114246447.43891,  -0.00317,  -0.00014,  -0.00253,477188480.00000,   0.00125,276002368.00000,  -0.00131,  -0.00017,  -0.00105, -32.00000,   2.00000
-497429232.80880,-206072239.34129,-114309057.65814,  -0.00318,  -0.00014,  -0.00254,477202880.00000,   0.00126,276007264.00000,  -0.00132,  -0.00017,  -0.00105,  32.00000,   2.00000
-497358358.86782,-205882666.30597,-114373736.89729,  -0.00318,  -0.00013,  -0.00254,477199328.00000,   0.00126,276012128.00000,  -0.00132,  -0.00017,  -0.00106,   0.00000,   2.00000
-497287653.42437,-205693519.15552,-114438253.56405,  -0.00319,  -0.00013,  -0.00255,477204288.00000,   0.00127,276016992.00000,  -0.00133,  -0.00017,  -0.00106,  32.00000,   2.00000
-497216359.66052,-205517144.06107,-114504869.35284,  -0.00319,  -0.00013,  -0.00255,477200480.00000,   0.00127,276021824.00000,  -0.00133,  -0.00017,  -0.00107,   0.00000,   2.00000
-497151925.23168,-205344946.00583,-114564041.45601,  -0.00320,  -0.00013,  -0.00256,477215072.00000,   0.00127,276026688.00000,  -0.00134,  -0.00017,  -0.00107, -32.00000,   2.00000
-497086840.98742,-205187005.83014,-114625723.67025,  -0.00320,  -0.00013,  -0.00256,477227648.00000,   0.00128,276031584.00000,  -0.00134,  -0.00016,  -0.00107, -64.00000,   2.00000
-497028007.10381,-205045604.39251,-114682277.07739,  -0.00321,  -0.00013,  -0.00257,477233504.00000,   0.00128,276036480.00000,  -0.00135,  -0.00016,  -0.00108,  32.00000,   2.00000
-496965907.46339,-204901831.40237,-114742109.31762,  -0.00321,  -0.00013,  -0.00257,477225504.00000,   0.00129,276041312.00000,  -0.00135,  -0.00016,  -0.00108,  32.00000,   2.00000
-496909944.96072,-204776082.50397,-114797191.07100,  -0.00322,  -0.00013,  -0.00258,477247744.00000,   0.00129,276046240.00000,  -0.00136,  -0.00016,  -0.00109,   0.00000,   2.00000
-496850801.18646,-204647952.01109,-114855582.08968,  -0.00322,  -0.00013,  -0.00258,477239648.00000,   0.00130,276051104.00000,  -0.00136,  -0.00016,  -0.00109,  32.00000,   2.00000
-496801124.85629,-204538932.61262,-114905378.02890,  -0.00323,  -0.00012,  -0.00259,477258464.00000,   0.00130,276056032.00000,  -0.00137,  -0.00016,  -0.00109, -32.00000,   2.00000
-496748313.50289,-204427510.48433,-114958516.56754,  -0.00323,  -0.00012,  -0.00259,477250336.00000,   0.00131,276060896.00000,  -0.00137,  -0.00016,  -0.00110,  32.00000,   2.00000
-496700922.92156,-204346404.17484,-115009199.93848,  -0.00324,  -0.00012,  -0.00260,477264000.00000,   0.00131,276065792.00000,  -0.00137,  -0.00016,  -0.00110,  32.00000,   2.00000
-496650920.04956,-204250421.41574,-115060893.38675,  -0.00324,  -0.00012,  -0.00260,477264608.00000,   0.00132,276070688.00000,  -0.00138,  -0.00016,  -0.00111, -64.00000,   2.00000
-496609701.14778,-204187414.85639,-115106687.78346,  -0.00325,  -0.00012,  -0.00261,477291168.00000,   0.00132,276075680.00000,  -0.00138,  -0.00016,  -0.00111,-160.00000,   2.00000
-496565481.41736,-204121947.30910,-115155879.58484,  -0.00325,  -0.00012,  -0.00261,477282912.00000,   0.00132,276080608.00000,  -0.00139,  -0.00016,  -0.00112,  64.00000,   2.00000
-496524647.97106,-204057722.29664,-115201089.58912,  -0.00325,  -0.00012,  -0.00262,477284608.00000,   0.00133,276085504.00000,  -0.00139,  -0.00016,  -0.00112,   0.00000,   2.00000
-496483159.05103,-204005969.87303,-115248462.06664,  -0.00326,  -0.00012,  -0.00262,477280736.00000,   0.00133,276090368.00000,  -0.00140,  -0.00016,  -0.00112,  32.00000,   2.00000
-496447922.29715,-203972110.88482,-115291135.43051,  -0.00326,  -0.00012,  -0.00263,477302944.00000,   0.00134,276095328.00000,  -0.00140,  -0.00016,  -0.00113, -64.00000,   2.00000
-496412844.61152,-203938352.88611,-115333717.52641,  -0.00327,  -0.00012,  -0.00263,477307808.00000,   0.00134,276100256.00000,  -0.00141,  -0.00016,  -0.00113,   0.00000,   2.00000
-496386576.96976,-203935884.30298,-115370047.23861,  -0.00327,  -0.00012,  -0.00264,477318048.00000,   0.00135,276105248.00000,  -0.00141,  -0.00016,  -0.00114, -96.00000,   2.00000
-496350900.97986,-203914537.09078,-115414708.14659,  -0.00328,  -0.00012,  -0.00264,477308992.00000,   0.00135,276110144.00000,  -0.00142,  -0.00016,  -0.00114,   0.00000,   2.00000
-496324863.18203,-203912147.77627,-115450847.55030,  -0.00328,  -0.00012,  -0.00265,477327872.00000,   0.00136,276115104.00000,  -0.00142,  -0.00016,  -0.00114, -32.00000,   2.00000
-496301693.98025,-203923277.23465,-115485396.73182,  -0.00329,  -0.00012,  -0.00265,477320640.00000,   0.00136,276120032.00000,  -0.00143,  -0.00016,  -0.00115,   0.00000,   2.00000
-496281273.81685,-203951002.52382,-115519074.29242,  -0.00329,  -0.00012,  -0.00265,477346368.00000,   0.00137,276125024.00000,  -0.00143,  -0.00015,  -0.00115,  96.00000,   2.00000
-496260935.65653,-203977102.30958,-115552301.62265,  -0.00330,  -0.00011,  -0.00266,477334976.00000,   0.00137,276129952.00000,  -0.00144,  -0.00015,  -0.00116, 128.00000,   2.00000
-496239704.39216,-204016977.98415,-115588046.62614,  -0.00330,  -0.00011,  -0.00266,477347776.00000,   0.00138,276134944.00000,  -0.00144,  -0.00015,  -0.00116, -32.00000,   2.00000
-496225597.52057,-204060689.52071,-115616497.16973,  -0.00331,  -0.00011,  -0.00267,477362112.00000,   0.00138,276139936.00000,  -0.00145,  -0.00015,  -0.00117,  64.00000,   2.00000
-496214234.30432,-204117785.35425,-115643355.58818,  -0.00331,  -0.00011,  -0.00267,477354976.00000,   0.00138,276144896.00000,  -0.00145,  -0.00015,  -0.00117,   0.00000,   2.00000
-496202152.41976,-204188648.09480,-115672797.46661,  -0.00332,  -0.00011,  -0.00268,477367648.00000,   0.00139,276149888.00000,  -0.00146,  -0.00015,  -0.00117, -32.00000,   2.00000
-496193539.23895,-204260494.68192,-115698352.16795,  -0.00332,  -0.00011,  -0.00268,477369216.00000,   0.00139,276154848.00000,  -0.00146,  -0.00015,  -0.00118, -64.00000,   2.00000
-496187600.32815,-204347207.37243,-115722673.13112,  -0.00332,  -0.00011,  -0.00269,477378528.00000,   0.00140,276159840.00000,  -0.00147,  -0.00015,  -0.00118, -32.00000,   2.00000
-496185279.95487,-204434923.14442,-115743163.84865,  -0.00333,  -0.00011,  -0.00269,477379904.00000,   0.00140,276164800.00000,  -0.00147,  -0.00015,  -0.00119,   0.00000,   2.00000
-496184765.31616,-204551323.32258,-115765057.80382,  -0.00333,  -0.00011,  -0.00270,477397248.00000,   0.00141,276169824.00000,  -0.00147,  -0.00015,  -0.00119,  32.00000,   2.00000
-496181675.84798,-204650897.02369,-115787718.01995,  -0.00334,  -0.00011,  -0.00270,477381344.00000,   0.00141,276174752.00000,  -0.00148,  -0.00015,  -0.00120,   0.00000,   2.00000
-496187326.88580,-204782992.67975,-115804532.54245,  -0.00334,  -0.00011,  -0.00270,477408096.00000,   0.00142,276179776.00000,  -0.00148,  -0.00015,  -0.00120,  96.00000,   2.00000
-496192974.94944,-204914781.31250,-115821303.17883,  -0.00335,  -0.00011,  -0.00271,477413088.00000,   0.00142,276184800.00000,  -0.00149,  -0.00015,  -0.00120,  64.00000,   2.00000
-496201288.56936,-205059758.36417,-115836507.39212,  -0.00335,  -0.00011,  -0.00271,477405952.00000,   0.00143,276189792.00000,  -0.00149,  -0.00015,  -0.00121,  64.00000,   2.00000
-496213062.71914,-205207099.32555,-115848231.06431,  -0.00336,  -0.00011,  -0.00272,477424000.00000,   0.00143,276194816.00000,  -0.00150,  -0.00015,  -0.00121,  32.00000,   2.00000
-496223959.64092,-205366411.57681,-115862186.16162,  -0.00336,  -0.00011,  -0.00272,477420448.00000,   0.00144,276199808.00000,  -0.00150,  -0.00015,  -0.00122,  64.00000,   2.00000
-496237479.56555,-205540371.19629,-115874932.57533,  -0.00337,  -0.00011,  -0.00273,477429824.00000,   0.00144,276204800.00000,  -0.00151,  -0.00015,  -0.00122,  64.00000,   2.00000
-496257746.51337,-205717722.38823,-115880358.08870,  -0.00337,  -0.00011,  -0.00273,477444448.00000,   0.00145,276209856.00000,  -0.00151,  -0.00015,  -0.00123,  32.00000,   2.00000
-496277149.53870,-205906991.00092,-115888039.39168,  -0.00337,  -0.00011,  -0.00274,477440768.00000,   0.00145,276214880.00000,  -0.00152,  -0.00015,  -0.00123, -96.00000,   2.00000
-496299316.19791,-206110883.62400,-115894569.98403,  -0.00338,  -0.00011,  -0.00274,477450176.00000,   0.00145,276219904.00000,  -0.00152,  -0.00014,  -0.00123,  64.00000,   2.00000
-496324709.06688,-206315401.33818,-115897227.96625,  -0.00338,  -0.00012,  -0.00274,477451872.00000,   0.00146,276224896.00000,  -0.00153,  -0.00014,  -0.00124,  32.00000,   2.00000
-496352721.23669,-206534458.30812,-115898713.10529,  -0.00339,  -0.00012,  -0.00275,477461280.00000,   0.00146,276229952.00000,  -0.00153,  -0.00014,  -0.00124,  32.00000,   2.00000
-496380446.90621,-206752920.19124,-115900130.45649,  -0.00339,  -0.00012,  -0.00275,477466464.00000,   0.00147,276234976.00000,  -0.00154,  -0.00014,  -0.00125,  32.00000,   2.00000
-496409958.38407,-206998231.50664,-115902648.01584,  -0.00340,  -0.00012,  -0.00276,477467264.00000,   0.00147,276239968.00000,  -0.00154,  -0.00014,  -0.00125,  64.00000,   2.00000
-496443659.28446,-207231770.46695,-115899071.13465,  -0.00340,  -0.00012,  -0.00276,477477472.00000,   0.00148,276245024.00000,  -0.00155,  -0.00014,  -0.00125,  96.00000,   2.00000
-496482300.92679,-207494666.10971,-115893086.21556,  -0.00341,  -0.00012,  -0.00277,477491488.00000,   0.00148,276250080.00000,  -0.00155,  -0.00014,  -0.00126,  32.00000,   2.00000
-496520797.74952,-207755453.96349,-115886735.98943,  -0.00341,  -0.00012,  -0.00277,477480160.00000,   0.00149,276255072.00000,  -0.00156,  -0.00014,  -0.00126,   0.00000,   2.00000
-496565297.71764,-208033243.06988,-115875778.47386,  -0.00342,  -0.00012,  -0.00277,477502592.00000,   0.00149,276260128.00000,  -0.00156,  -0.00014,  -0.00127, 128.00000,   2.00000
-496605978.55182,-208307651.92041,-115868216.56863,  -0.00342,  -0.00012,  -0.00278,477494816.00000,   0.00150,276265152.00000,  -0.00157,  -0.00014,  -0.00127,   0.00000,   2.00000
-496652487.15825,-208598948.64748,-115856005.61836,  -0.00342,  -0.00012,  -0.00278,477517344.00000,   0.00150,276270240.00000,  -0.00157,  -0.00014,  -0.00128, -32.00000,   2.00000
-496701437.04562,-208903071.03467,-115842261.84156,  -0.00343,  -0.00012,  -0.00279,477510528.00000,   0.00151,276275264.00000,  -0.00158,  -0.00014,  -0.00128,   0.00000,   2.00000
-496750136.71552,-209206410.59410,-115828507.72367,  -0.00343,  -0.00012,  -0.00279,477515680.00000,   0.00151,276280320.00000,  -0.00158,  -0.00014,  -0.00129, -32.00000,   2.00000
-496801121.11080,-209523914.96601,-115813544.78284,  -0.00344,  -0.00012,  -0.00279,477525376.00000,   0.00152,276285376.00000,  -0.00159,  -0.00014,  -0.00129, -32.00000,   2.00000
-496857851.98861,-209856735.32958,-115793574.06451,  -0.00344,  -0.00012,  -0.00280,477531424.00000,   0.00152,276290432.00000,  -0.00159,  -0.00014,  -0.00129,   0.00000,   2.00000
-496914244.16447,-210188668.86682,-115773589.11176,  -0.00345,  -0.00012,  -0.00280,477536704.00000,   0.00152,276295488.00000,  -0.00160,  -0.00014,  -0.00130, -32.00000,   2.00000
-496972992.74773,-210534709.78520,-115752434.39228,  -0.00345,  -0.00013,  -0.00281,477546272.00000,   0.00153,276300544.00000,  -0.00160,  -0.00014,  -0.00130,  64.00000,   2.00000
-497037236.96171,-210895903.07852,-115726225.35048,  -0.00346,  -0.00013,  -0.00281,477552608.00000,   0.00153,276305632.00000,  -0.00161,  -0.00014,  -0.00131, -32.00000,   2.00000
-497097841.85998,-211253637.79721,-115703499.86410,  -0.00346,  -0.00013,  -0.00282,477544864.00000,   0.00154,276310656.00000,  -0.00161,  -0.00014,  -0.00131,  64.00000,   2.00000
-497167372.68157,-211629029.67989,-115672280.06502,  -0.00346,  -0.00013,  -0.00282,477564128.00000,   0.00154,276315712.00000,  -0.00162,  -0.00014,  -0.00132,   0.00000,   2.00000
-497235654.67243,-212015820.45735,-115643323.56202,  -0.00347,  -0.00013,  -0.00282,477560832.00000,   0.00155,276320768.00000,  -0.00162,  -0.00014,  -0.00132,  32.00000,   2.00000
-497306959.89772,-212404072.47351,-115610919.38305,  -0.00347,  -0.00013,  -0.00283,477579168.00000,   0.00155,276325856.00000,  -0.00163,  -0.00013,  -0.00132,  32.00000,   2.00000
-497380322.86967,-212804850.01998,-115576934.44494,  -0.00348,  -0.00013,  -0.00283,477572512.00000,   0.00156,276330912.00000,  -0.00163,  -0.00013,  -0.00133,  32.00000,   2.00000
-497453262.11630,-213204531.01471,-115542954.71699,  -0.00348,  -0.00013,  -0.00283,477577760.00000,   0.00156,276335936.00000,  -0.00163,  -0.00013,  -0.00133, -64.00000,   2.00000
-497528273.35824,-213618012.00375,-115507774.62051,  -0.00349,  -0.00014,  -0.00284,477587616.00000,   0.00157,276341024.00000,  -0.00164,  -0.00013,  -0.00134,   0.00000,   2.00000
-497608726.09187,-214046434.62590,-115467568.68287,  -0.00349,  -0.00014,  -0.00284,477593984.00000,   0.00157,276346080.00000,  -0.00164,  -0.00013,  -0.00134,  96.00000,   2.00000
-497688602.64462,-214473625.48638,-115427347.18936,  -0.00350,  -0.00014,  -0.00285,477599360.00000,   0.00158,276351136.00000,  -0.00165,  -0.00013,  -0.00135, -32.00000,   2.00000
-497773874.75045,-214915698.62915,-115382104.07338,  -0.00350,  -0.00014,  -0.00285,477605856.00000,   0.00158,276356224.00000,  -0.00165,  -0.00013,  -0.00135, -64.00000,   2.00000
-497857664.82329,-215368951.71094,-115339097.91140,  -0.00350,  -0.00014,  -0.00285,477602752.00000,   0.00159,276361248.00000,  -0.00166,  -0.00013,  -0.00135,   0.00000,   2.00000
-497944281.80132,-215823320.75145,-115292645.47833,  -0.00351,  -0.00014,  -0.00286,477621184.00000,   0.00159,276366336.00000,  -0.00166,  -0.00013,  -0.00136,  32.00000,   2.00000
-498032794.87927,-216290042.75985,-115244602.89105,  -0.00351,  -0.00014,  -0.00286,477614656.00000,   0.00160,276371392.00000,  -0.00167,  -0.00013,  -0.00136,  32.00000,   2.00000
-498127402.14678,-216758982.56672,-115189274.42444,  -0.00352,  -0.00015,  -0.00286,477629632.00000,   0.00160,276376448.00000,  -0.00167,  -0.00013,  -0.00137, -64.00000,   2.00000
-498219517.37033,-217252656.58444,-115138807.53812,  -0.00352,  -0.00015,  -0.00287,477634656.00000,   0.00161,276381536.00000,  -0.00168,  -0.00013,  -0.00137,  64.00000,   2.00000
-498311977.83068,-217731264.09179,-115085736.18052,  -0.00353,  -0.00015,  -0.00287,477632064.00000,   0.00161,276386592.00000,  -0.00168,  -0.00013,  -0.00138,  64.00000,   2.00000
-498411795.18841,-218239252.56409,-115026344.73789,  -0.00353,  -0.00015,  -0.00288,477643424.00000,   0.00161,276391648.00000,  -0.00169,  -0.00013,  -0.00138, -32.00000,   2.00000
-498511077.53978,-218745782.63638,-114967008.88486,  -0.00354,  -0.00015,  -0.00288,477648672.00000,   0.00162,276396704.00000,  -0.00169,  -0.00013,  -0.00138,   0.00000,   2.00000
-498609566.71600,-219250757.28725,-114907661.03344,  -0.00354,  -0.00015,  -0.00288,477654240.00000,   0.00162,276401760.00000,  -0.00170,  -0.00013,  -0.00139,  32.00000,   2.00000
-498712028.57656,-219782693.80999,-114845445.42688,  -0.00354,  -0.00016,  -0.00289,477652672.00000,   0.00163,276406816.00000,  -0.00170,  -0.00013,  -0.00139,   0.00000,   2.00000
-498820563.44223,-220316568.21283,-114775994.50430,  -0.00355,  -0.00016,  -0.00289,477667776.00000,   0.00163,276411872.00000,  -0.00171,  -0.00013,  -0.00140,  32.00000,   2.00000
-498921439.33542,-220845246.15185,-114713795.92337,  -0.00355,  -0.00016,  -0.00289,477663648.00000,   0.00164,276416928.00000,  -0.00171,  -0.00013,  -0.00140, -64.00000,   2.00000
-499030773.78025,-221389593.27091,-114642730.75804,  -0.00356,  -0.00016,  -0.00290,477666976.00000,   0.00164,276421952.00000,  -0.00172,  -0.00013,  -0.00141,   0.00000,   2.00000
-499141280.04195,-221947904.27307,-114570774.30643,  -0.00356,  -0.00016,  -0.00290,477693792.00000,   0.00165,276427072.00000,  -0.00172,  -0.00013,  -0.00141,  32.00000,   2.00000
-499254582.90095,-222504809.58163,-114494653.02495,  -0.00357,  -0.00017,  -0.00290,477679488.00000,   0.00165,276432096.00000,  -0.00173,  -0.00013,  -0.00141,   0.00000,   2.00000
-499362443.11475,-223071194.45566,-114424534.03932,  -0.00357,  -0.00017,  -0.00291,477680128.00000,   0.00166,276437088.00000,  -0.00173,  -0.00013,  -0.00142,  64.00000,   2.00000
-499481763.73948,-223655206.91162,-114342062.66529,  -0.00357,  -0.00017,  -0.00291,477696800.00000,   0.00166,276442144.00000,  -0.00174,  -0.00013,  -0.00142,  32.00000,   2.00000
-499596620.47952,-224236047.44035,-114263419.74873,  -0.00358,  -0.00017,  -0.00291,477705824.00000,   0.00167,276447232.00000,  -0.00174,  -0.00013,  -0.00143,   0.00000,   2.00000
-499712942.71906,-224828867.55504,-114183150.61699,  -0.00358,  -0.00017,  -0.00292,477699840.00000,   0.00167,276452256.00000,  -0.00175,  -0.00012,  -0.00143,  64.00000,   2.00000
-499834893.44331,-225423149.72359,-114095610.59984,  -0.00359,  -0.00018,  -0.00292,477715200.00000,   0.00168,276457312.00000,  -0.00175,  -0.00012,  -0.00144,   0.00000,   2.00000
-499954840.76396,-226028096.78711,-114010286.37458,  -0.00359,  -0.00018,  -0.00292,477712608.00000,   0.00168,276462336.00000,  -0.00176,  -0.00012,  -0.00144, 128.00000,   2.00000
-500079154.64405,-226646944.39467,-113919828.45703,  -0.00360,  -0.00018,  -0.00293,477719904.00000,   0.00169,276467360.00000,  -0.00176,  -0.00012,  -0.00145, 128.00000,   2.00000
-500202315.75319,-227263733.43656,-113829373.10553,  -0.00360,  -0.00018,  -0.00293,477725600.00000,   0.00169,276472416.00000,  -0.00177,  -0.00012,  -0.00145,  64.00000,   2.00000
-500324721.97871,-227877804.58925,-113738574.82614,  -0.00360,  -0.00018,  -0.00293,477714656.00000,   0.00169,276477376.00000,  -0.00177,  -0.00012,  -0.00145,   0.00000,   2.00000
-500453235.72845,-228521007.33610,-113641736.77574,  -0.00361,  -0.00019,  -0.00294,477743360.00000,   0.00170,276482432.00000,  -0.00178,  -0.00012,  -0.00146, -32.00000,   2.00000
-500580919.45418,-229161419.71471,-113544552.55980,  -0.00361,  -0.00019,  -0.00294,477732672.00000,   0.00170,276487424.00000,  -0.00178,  -0.00012,  -0.00146,   0.00000,   2.00000
-500707374.45011,-229799679.20932,-113447374.51057,  -0.00362,  -0.00019,  -0.00294,477738368.00000,   0.00171,276492416.00000,  -0.00179,  -0.00012,  -0.00147,   0.00000,   2.00000
-500841324.98788,-230453644.26940,-113341665.01786,  -0.00362,  -0.00019,  -0.00294,477758784.00000,   0.00171,276497472.00000,  -0.00179,  -0.00012,  -0.00147,  32.00000,   2.00000
-500969610.77650,-231116054.64907,-113241524.23686,  -0.00362,  -0.00020,  -0.00295,477743584.00000,   0.00172,276502432.00000,  -0.00180,  -0.00012,  -0.00148,  64.00000,   2.00000
-501103138.81451,-231779431.32046,-113134107.98554,  -0.00363,  -0.00020,  -0.00295,477759040.00000,   0.00172,276507456.00000,  -0.00180,  -0.00012,  -0.00148, -32.00000,   2.00000
-501240854.79699,-232456433.78945,-113021596.64924,  -0.00363,  -0.00020,  -0.00295,477766400.00000,   0.00173,276512480.00000,  -0.00181,  -0.00012,  -0.00148, -32.00000,   2.00000
-501374103.31123,-233129271.41599,-112912549.15130,  -0.00364,  -0.00020,  -0.00296,477759200.00000,   0.00173,276517440.00000,  -0.00181,  -0.00012,  -0.00149,  64.00000,   2.00000
-501507908.24894,-233814290.92220,-112802195.24891,  -0.00364,  -0.00021,  -0.00296,477770176.00000,   0.00174,276522400.00000,  -0.00182,  -0.00012,  -0.00149,   0.00000,   2.00000
-501643822.67335,-234498333.13805,-112688035.58259,  -0.00365,  -0.00021,  -0.00296,477772608.00000,   0.00174,276527392.00000,  -0.00182,  -0.00012,  -0.00150,  64.00000,   2.00000
-501783645.51496,-235195831.83931,-112568733.95375,  -0.00365,  -0.00021,  -0.00296,477780224.00000,   0.00175,276532352.00000,  -0.00183,  -0.00012,  -0.00150,  64.00000,   2.00000
-501923861.31067,-235905354.13476,-112448126.80546,  -0.00365,  -0.00022,  -0.00297,477791360.00000,   0.00175,276537376.00000,  -0.00183,  -0.00012,  -0.00151,  32.00000,   2.00000
-502062941.44932,-236612043.28460,-112327126.61528,  -0.00366,  -0.00022,  -0.00297,477780736.00000,   0.00176,276542304.00000,  -0.00183,  -0.00012,  -0.00151,   0.00000,   2.00000
-502207190.97061,-237319446.37212,-112198929.49747,  -0.00366,  -0.00022,  -0.00297,477796352.00000,   0.00176,276547264.00000,  -0.00184,  -0.00012,  -0.00151,  64.00000,   2.00000
-502348560.86680,-238037056.93841,-112072826.24127,  -0.00367,  -0.00022,  -0.00297,477794368.00000,   0.00176,276552224.00000,  -0.00184,  -0.00012,  -0.00152,  64.00000,   2.00000
-502493571.02266,-238767928.29218,-111941555.77906,  -0.00367,  -0.00023,  -0.00298,477802176.00000,   0.00177,276557152.00000,  -0.00185,  -0.00012,  -0.00152,  32.00000,   2.00000
-502634061.11034,-239494667.50172,-111813759.89139,  -0.00367,  -0.00023,  -0.00298,477794976.00000,   0.00177,276562048.00000,  -0.00185,  -0.00012,  -0.00153, -32.00000,   2.00000
-502781217.30263,-240236271.49478,-111677388.47634,  -0.00368,  -0.00023,  -0.00298,477815904.00000,   0.00178,276567008.00000,  -0.00186,  -0.00012,  -0.00153, -32.00000,   2.00000
-502927088.28490,-240975074.29408,-111540604.13483,  -0.00368,  -0.00024,  -0.00298,477805504.00000,   0.00178,276571904.00000,  -0.00186,  -0.00012,  -0.00153,   0.00000,   2.00000
-503073119.42760,-241725681.53889,-111402523.15087,  -0.00369,  -0.00024,  -0.00299,477816640.00000,   0.00179,276576832.00000,  -0.00187,  -0.00012,  -0.00154,   0.00000,   2.00000
-503221020.32160,-242475142.79420,-111260654.03969,  -0.00369,  -0.00024,  -0.00299,477819232.00000,   0.00179,276581728.00000,  -0.00187,  -0.00012,  -0.00154, 128.00000,   2.00000
-503368793.66675,-243236252.23207,-111117437.66860,  -0.00369,  -0.00024,  -0.00299,477830656.00000,   0.00180,276586656.00000,  -0.00188,  -0.00012,  -0.00155,   0.00000,   2.00000
-503515375.52196,-243994674.34639,-110973826.69187,  -0.00370,  -0.00025,  -0.00299,477820096.00000,   0.00180,276591520.00000,  -0.00188,  -0.00012,  -0.00155,  32.00000,   2.00000
-503665298.85047,-244766164.03878,-110825029.69473,  -0.00370,  -0.00025,  -0.00300,477828096.00000,   0.00181,276596384.00000,  -0.00189,  -0.00012,  -0.00156,  32.00000,   2.00000
-503815026.79528,-245549217.89482,-110674893.51263,  -0.00371,  -0.00025,  -0.00300,477839488.00000,   0.00181,276601280.00000,  -0.00189,  -0.00012,  -0.00156,  32.00000,   2.00000
-503965031.93374,-246316881.63717,-110522370.75637,  -0.00371,  -0.00026,  -0.00300,477836736.00000,   0.00182,276606144.00000,  -0.00190,  -0.00012,  -0.00156,   0.00000,   2.00000
-504116668.74614,-247110260.08733,-110366620.81162,  -0.00371,  -0.00026,  -0.00300,477837216.00000,   0.00182,276610976.00000,  -0.00190,  -0.00012,  -0.00157,  64.00000,   2.00000
-504265250.85668,-247886881.96054,-110212373.33572,  -0.00372,  -0.00026,  -0.00300,477837568.00000,   0.00182,276615808.00000,  -0.00191,  -0.00012,  -0.00157,  64.00000,   2.00000
-504418270.12413,-248690536.04603,-110051482.89912,  -0.00372,  -0.00027,  -0.00301,477851232.00000,   0.00183,276620672.00000,  -0.00191,  -0.00012,  -0.00158, -32.00000,   2.00000
-504571606.86783,-249478857.49216,-109888230.95289,  -0.00373,  -0.00027,  -0.00301,477848384.00000,   0.00183,276625472.00000,  -0.00192,  -0.00012,  -0.00158,  64.00000,   2.00000
-504729274.54720,-250294127.56097,-109718345.32698,  -0.00373,  -0.00027,  -0.00301,477862176.00000,   0.00184,276630336.00000,  -0.00192,  -0.00012,  -0.00158,  32.00000,   2.00000
-504880885.20555,-251091319.90722,-109553344.19025,  -0.00373,  -0.00028,  -0.00301,477849408.00000,   0.00184,276635104.00000,  -0.00193,  -0.00012,  -0.00159,  32.00000,   2.00000
-505035412.50247,-251901350.35466,-109383116.05046,  -0.00374,  -0.00028,  -0.00301,477857600.00000,   0.00185,276639904.00000,  -0.00193,  -0.00012,  -0.00159,   0.00000,   2.00000
-505189502.91503,-252722744.81366,-109211566.66818,  -0.00374,  -0.00028,  -0.00302,477869120.00000,   0.00185,276644704.00000,  -0.00193,  -0.00012,  -0.00160,  96.00000,   2.00000
-505342179.84601,-253541614.21258,-109039562.43962,  -0.00374,  -0.00029,  -0.00302,477858592.00000,   0.00186,276649440.00000,  -0.00194,  -0.00012,  -0.00160,   0.00000,   2.00000
-505497708.43942,-254373248.42595,-108862335.82047,  -0.00375,  -0.00029,  -0.00302,477866880.00000,   0.00186,276654208.00000,  -0.00194,  -0.00012,  -0.00160,  64.00000,   2.00000
-505654713.56174,-255203578.25669,-108681306.17642,  -0.00375,  -0.00029,  -0.00302,477869664.00000,   0.00186,276658944.00000,  -0.00195,  -0.00012,  -0.00161,  96.00000,   2.00000
-505809848.90308,-256031161.53143,-108500377.49964,  -0.00376,  -0.00030,  -0.00302,477875520.00000,   0.00187,276663712.00000,  -0.00195,  -0.00012,  -0.00161, -32.00000,   2.00000
-505964795.09596,-256870289.74011,-108317554.03681,  -0.00376,  -0.00030,  -0.00302,477870688.00000,   0.00187,276668416.00000,  -0.00196,  -0.00012,  -0.00162, -32.00000,   2.00000
-506121143.04560,-257708095.88897,-108130915.89676,  -0.00376,  -0.00030,  -0.00303,477873440.00000,   0.00188,276673120.00000,  -0.00196,  -0.00012,  -0.00162, -64.00000,   2.00000
-506280225.80706,-258558573.69877,-107939071.90136,  -0.00377,  -0.00031,  -0.00303,477881792.00000,   0.00188,276677824.00000,  -0.00197,  -0.00012,  -0.00162,  32.00000,   2.00000
-506437341.12732,-259406223.04358,-107747333.99410,  -0.00377,  -0.00031,  -0.00303,477887872.00000,   0.00189,276682528.00000,  -0.00197,  -0.00012,  -0.00163,  32.00000,   2.00000
-506592997.22127,-260251510.58485,-107555120.79752,  -0.00377,  -0.00032,  -0.00303,477877312.00000,   0.00189,276687168.00000,  -0.00198,  -0.00012,  -0.00163,  96.00000,   2.00000
-506751076.35585,-261109308.05041,-107357640.87219,  -0.00378,  -0.00032,  -0.00303,477885920.00000,   0.00190,276691840.00000,  -0.00198,  -0.00012,  -0.00164,   0.00000,   2.00000
-506904324.17517,-261963277.50586,-107163580.85084,  -0.00378,  -0.00032,  -0.00303,477878560.00000,   0.00190,276696448.00000,  -0.00199,  -0.00012,  -0.00164, -64.00000,   2.00000
-507066196.55333,-262832185.46561,-106957052.94922,  -0.00378,  -0.00033,  -0.00303,477897056.00000,   0.00190,276701120.00000,  -0.00199,  -0.00012,  -0.00164,  64.00000,   2.00000
-507223066.68955,-263697192.99246,-106753919.38311,  -0.00379,  -0.00033,  -0.00304,477889984.00000,   0.00191,276705728.00000,  -0.00199,  -0.00012,  -0.00165, -32.00000,   2.00000
-507379471.39519,-264573699.64146,-106548830.46718,  -0.00379,  -0.00033,  -0.00304,477885280.00000,   0.00191,276710304.00000,  -0.00200,  -0.00012,  -0.00165,   0.00000,   2.00000
-507536592.91281,-265448132.29866,-106340554.19791,  -0.00380,  -0.00034,  -0.00304,477904448.00000,   0.00192,276714944.00000,  -0.00200,  -0.00012,  -0.00166,   0.00000,   2.00000
-507695441.37597,-266321753.59154,-106127834.26454,  -0.00380,  -0.00034,  -0.00304,477890880.00000,   0.00192,276719488.00000,  -0.00201,  -0.00012,  -0.00166,   0.00000,   2.00000
-507849472.59812,-267191636.01517,-105918532.40689,  -0.00380,  -0.00035,  -0.00304,477883616.00000,   0.00193,276724000.00000,  -0.00201,  -0.00012,  -0.00166,   0.00000,   2.00000
-508008311.44133,-268074525.83588,-105700641.01706,  -0.00381,  -0.00035,  -0.00304,477905504.00000,   0.00193,276728544.00000,  -0.00202,  -0.00012,  -0.00167, -96.00000,   2.00000
-508166442.99663,-268968810.37972,-105480750.05831,  -0.00381,  -0.00035,  -0.00304,477901120.00000,   0.00193,276733088.00000,  -0.00202,  -0.00012,  -0.00167,  64.00000,   2.00000
-508324841.77806,-269847904.58351,-105258526.09242,  -0.00381,  -0.00036,  -0.00304,477897952.00000,   0.00194,276737600.00000,  -0.00203,  -0.00012,  -0.00167, -32.00000,   2.00000
-508479155.45686,-270736878.57306,-105038210.99816,  -0.00382,  -0.00036,  -0.00304,477896800.00000,   0.00194,276742048.00000,  -0.00203,  -0.00012,  -0.00168, 160.00000,   2.00000
-508638279.98011,-271639250.51512,-104808559.47941,  -0.00382,  -0.00037,  -0.00304,477902688.00000,   0.00195,276746528.00000,  -0.00204,  -0.00012,  -0.00168, -96.00000,   2.00000
-508792781.37791,-272537990.25968,-104582370.06577,  -0.00382,  -0.00037,  -0.00305,477895296.00000,   0.00195,276750976.00000,  -0.00204,  -0.00012,  -0.00169,  32.00000,   2.00000
-508950858.07735,-273435666.52264,-104349060.21391,  -0.00383,  -0.00037,  -0.00305,477911488.00000,   0.00196,276755424.00000,  -0.00204,  -0.00012,  -0.00169,  64.00000,   2.00000
-509104035.93543,-274329611.10761,-104119143.32518,  -0.00383,  -0.00038,  -0.00305,477904352.00000,   0.00196,276759840.00000,  -0.00205,  -0.00012,  -0.00169,  32.00000,   2.00000
-509259247.77055,-275236298.42375,-103883128.88563,  -0.00383,  -0.00038,  -0.00305,477897088.00000,   0.00196,276764224.00000,  -0.00205,  -0.00012,  -0.00170, -32.00000,   2.00000
-509415507.11939,-276141365.00559,-103643300.36407,  -0.00384,  -0.00039,  -0.00305,477899968.00000,   0.00197,276768576.00000,  -0.00206,  -0.00012,  -0.00170,  32.00000,   2.00000
-509569428.76647,-277043201.78055,-103403593.31443,  -0.00384,  -0.00039,  -0.00305,477905952.00000,   0.00197,276772960.00000,  -0.00206,  -0.00012,  -0.00170,  32.00000,   2.00000
-509724833.33358,-277956749.77826,-103158534.52747,  -0.00384,  -0.00039,  -0.00305,477915136.00000,   0.00198,276777312.00000,  -0.00207,  -0.00012,  -0.00171,  64.00000,   2.00000
-509878397.11825,-278868071.61326,-102912844.12264,  -0.00385,  -0.00040,  -0.00305,477905024.00000,   0.00198,276781632.00000,  -0.00207,  -0.00012,  -0.00171,  96.00000,   2.00000
-510030045.55059,-279777179.66108,-102666488.27504,  -0.00385,  -0.00040,  -0.00305,477894816.00000,   0.00198,276785920.00000,  -0.00207,  -0.00012,  -0.00171,   0.00000,   2.00000
-510182516.59270,-280684554.12313,-102416269.99136,  -0.00385,  -0.00041,  -0.00305,477897728.00000,   0.00199,276790144.00000,  -0.00208,  -0.00012,  -0.00172,   0.00000,   2.00000
-510336253.06794,-281603490.38471,-102160669.47558,  -0.00386,  -0.00041,  -0.00305,477906912.00000,   0.00199,276794432.00000,  -0.00208,  -0.00012,  -0.00172, -32.00000,   2.00000
-510487610.30168,-282519093.94257,-101905211.01773,  -0.00386,  -0.00041,  -0.00305,477912992.00000,   0.00200,276798688.00000,  -0.00209,  -0.00012,  -0.00172, -32.00000,   2.00000
-510640237.86382,-283434120.40437,-101645080.32026,  -0.00386,  -0.00042,  -0.00305,477899808.00000,   0.00200,276802912.00000,  -0.00209,  -0.00012,  -0.00173,   0.00000,   2.00000
-510788113.83707,-284358723.88700,-101386707.77868,  -0.00386,  -0.00042,  -0.00305,477899040.00000,   0.00200,276807072.00000,  -0.00209,  -0.00012,  -0.00173,  32.00000,   2.00000
-510939346.50442,-285281760.66157,-101121297.80615,  -0.00387,  -0.00043,  -0.00305,477915264.00000,   0.00201,276811296.00000,  -0.00210,  -0.00013,  -0.00174,  64.00000,   2.00000
-511085880.74515,-286202437.88275,-100858312.58202,  -0.00387,  -0.00043,  -0.00305,477891904.00000,   0.00201,276815392.00000,  -0.00210,  -0.00013,  -0.00174,   0.00000,   2.00000
-511235871.81664,-287121581.75763,-100588328.19175,  -0.00387,  -0.00044,  -0.00305,477907968.00000,   0.00202,276819552.00000,  -0.00211,  -0.00013,  -0.00174,  32.00000,   2.00000
-511383890.83749,-288038726.67185,-100317617.25960,  -0.00388,  -0.00044,  -0.00305,477897824.00000,   0.00202,276823648.00000,  -0.00211,  -0.00013,  -0.00175,  96.00000,   2.00000
-511530032.66923,-288966951.74453,-100044587.99081,  -0.00388,  -0.00044,  -0.00305,477894208.00000,   0.00202,276827712.00000,  -0.00212,  -0.00013,  -0.00175,   0.00000,   2.00000
-511676772.10078,-289893336.71998,-99767670.41398,  -0.00388,  -0.00045,  -0.00305,477897120.00000,   0.00203,276831776.00000,  -0.00212,  -0.00013,  -0.00175, -96.00000,   2.00000
-511824206.88702,-290817941.90635,-99486895.36742,  -0.00389,  -0.00045,  -0.00305,477900000.00000,   0.00203,276835808.00000,  -0.00212,  -0.00013,  -0.00176, -32.00000,   2.00000
-511966593.78167,-291752074.57607,-99207813.76576,  -0.00389,  -0.00046,  -0.00305,477899456.00000,   0.00203,276839840.00000,  -0.00213,  -0.00013,  -0.00176,  64.00000,   2.00000
-512112605.23220,-292672988.60977,-98922388.68514,  -0.00389,  -0.00046,  -0.00305,477892768.00000,   0.00204,276843840.00000,  -0.00213,  -0.00013,  -0.00176,  64.00000,   2.00000
-512253443.69370,-293603429.83475,-98638626.19709,  -0.00389,  -0.00047,  -0.00305,477892192.00000,   0.00204,276847776.00000,  -0.00214,  -0.00013,  -0.00176,  64.00000,   2.00000
-512398008.80958,-294533686.36206,-98346963.44441,  -0.00390,  -0.00047,  -0.00305,477892224.00000,   0.00205,276851744.00000,  -0.00214,  -0.00013,  -0.00177,  32.00000,   2.00000
-512537389.60839,-295460604.02057,-98058531.38407,  -0.00390,  -0.00047,  -0.00305,477884800.00000,   0.00205,276855616.00000,  -0.00214,  -0.00013,  -0.00177,  64.00000,   2.00000
-512680403.37547,-296387352.94042,-97762178.43412,  -0.00390,  -0.00048,  -0.00305,477884832.00000,   0.00205,276859488.00000,  -0.00215,  -0.00013,  -0.00177,  96.00000,   2.00000
-512818087.11287,-297323635.47054,-97467459.50509,  -0.00390,  -0.00048,  -0.00304,477884256.00000,   0.00206,276863360.00000,  -0.00215,  -0.00013,  -0.00178, -32.00000,   2.00000
-512956448.49619,-298245395.69230,-97170449.29808,  -0.00391,  -0.00049,  -0.00304,477880192.00000,   0.00206,276867200.00000,  -0.00215,  -0.00013,  -0.00178, -64.00000,   2.00000
-513095713.48124,-299179994.45298,-96866993.34759,  -0.00391,  -0.00049,  -0.00304,477873792.00000,   0.00206,276870976.00000,  -0.00216,  -0.00013,  -0.00178, -32.00000,   2.00000
-513232360.45446,-300111252.50080,-96563712.61632,  -0.00391,  -0.00050,  -0.00304,477879616.00000,   0.00207,276874752.00000,  -0.00216,  -0.00013,  -0.00179,   0.00000,   2.00000
-513366833.99731,-301040979.74484,-96259574.58151,  -0.00391,  -0.00050,  -0.00304,477869248.00000,   0.00207,276878496.00000,  -0.00217,  -0.00013,  -0.00179,   0.00000,   2.00000
-513501899.71151,-301969089.50106,-95951595.72721,  -0.00392,  -0.00050,  -0.00304,477872064.00000,   0.00207,276882208.00000,  -0.00217,  -0.00013,  -0.00179,  64.00000,   2.00000
-513636959.89652,-302908060.05847,-95638139.33321,  -0.00392,  -0.00051,  -0.00304,477881984.00000,   0.00208,276885952.00000,  -0.00217,  -0.00013,  -0.00180,  96.00000,   2.00000
-513773051.11443,-303834531.79557,-95321326.12190,  -0.00392,  -0.00051,  -0.00304,477861792.00000,   0.00208,276889600.00000,  -0.00218,  -0.00013,  -0.00180,  32.00000,   2.00000
-513904105.04347,-304758158.81201,-95007760.41151,  -0.00392,  -0.00052,  -0.00304,477854176.00000,   0.00208,276893216.00000,  -0.00218,  -0.00013,  -0.00180,-160.00000,   2.00000
-514035262.34461,-305692745.77958,-94688780.30651,  -0.00393,  -0.00052,  -0.00304,477863904.00000,   0.00209,276896832.00000,  -0.00218,  -0.00013,  -0.00180,  64.00000,   2.00000
-514164062.53411,-306625958.41719,-94368909.25492,  -0.00393,  -0.00053,  -0.00303,477853728.00000,   0.00209,276900416.00000,  -0.00219,  -0.00013,  -0.00181,  32.00000,   2.00000
-514293091.26798,-307557455.88712,-94045200.46886,  -0.00393,  -0.00053,  -0.00303,477856512.00000,   0.00209,276903968.00000,  -0.00219,  -0.00014,  -0.00181,   0.00000,   2.00000
-514422850.48827,-308489328.20080,-93716549.78885,  -0.00393,  -0.00054,  -0.00303,477843424.00000,   0.00210,276907456.00000,  -0.00219,  -0.00014,  -0.00181,   0.00000,   2.00000
-514549649.75450,-309417799.20461,-93388160.94563,  -0.00394,  -0.00054,  -0.00303,477849088.00000,   0.00210,276910976.00000,  -0.00220,  -0.00014,  -0.00182,   0.00000,   2.00000
-514674182.76955,-310345107.47327,-93058935.74725,  -0.00394,  -0.00055,  -0.00303,477838720.00000,   0.00210,276914432.00000,  -0.00220,  -0.00014,  -0.00182,   0.00000,   2.00000
-514796219.54841,-311271173.49885,-92728823.46201,  -0.00394,  -0.00055,  -0.00303,477828384.00000,   0.00211,276917824.00000,  -0.00221,  -0.00014,  -0.00182, -32.00000,   2.00000
-514921214.01189,-312197083.30746,-92390813.61044,  -0.00394,  -0.00055,  -0.00302,477828576.00000,   0.00211,276921184.00000,  -0.00221,  -0.00014,  -0.00182, -32.00000,   2.00000
-515043264.74368,-313119611.36989,-92053145.11892,  -0.00394,  -0.00056,  -0.00302,477834240.00000,   0.00211,276924576.00000,  -0.00221,  -0.00014,  -0.00183,  64.00000,   2.00000
-515160279.71790,-314041580.28897,-91717430.53903,  -0.00395,  -0.00056,  -0.00302,477810752.00000,   0.00212,276927872.00000,  -0.00222,  -0.00014,  -0.00183,  32.00000,   2.00000
-515281748.36326,-314974855.04227,-91369251.28682,  -0.00395,  -0.00057,  -0.00302,477831456.00000,   0.00212,276931200.00000,  -0.00222,  -0.00014,  -0.00183, -32.00000,   2.00000
-515398730.23778,-315893311.11138,-91025814.41550,  -0.00395,  -0.00057,  -0.00302,477816512.00000,   0.00212,276934464.00000,  -0.00222,  -0.00014,  -0.00183, -32.00000,   2.00000
-515516209.19450,-316812403.65770,-90677146.46674,  -0.00395,  -0.00058,  -0.00301,477803392.00000,   0.00213,276937696.00000,  -0.00223,  -0.00014,  -0.00184, -96.00000,   2.00000
-515627939.93559,-317741306.60581,-90329920.79935,  -0.00395,  -0.00058,  -0.00301,477802816.00000,   0.00213,276940864.00000,  -0.00223,  -0.00014,  -0.00184,  32.00000,   2.00000
-515743476.59566,-318658089.95567,-89976103.99028,  -0.00396,  -0.00059,  -0.00301,477795552.00000,   0.00213,276944032.00000,  -0.00223,  -0.00014,  -0.00184, -64.00000,   2.00000
-515856593.17244,-319571898.85316,-89622499.20481,  -0.00396,  -0.00059,  -0.00301,477800736.00000,   0.00214,276947168.00000,  -0.00223,  -0.00014,  -0.00184, -32.00000,   2.00000
-515967141.80196,-320499600.56855,-89264882.07394,  -0.00396,  -0.00059,  -0.00301,477781728.00000,   0.00214,276950240.00000,  -0.00224,  -0.00014,  -0.00185, -32.00000,   2.00000
-516078684.73066,-321413746.25562,-88904988.04589,  -0.00396,  -0.00060,  -0.00300,477777184.00000,   0.00214,276953280.00000,  -0.00224,  -0.00014,  -0.00185,  32.00000,   2.00000
-516190084.51551,-322326268.14953,-88541217.34570,  -0.00396,  -0.00060,  -0.00300,477780224.00000,   0.00214,276956320.00000,  -0.00224,  -0.00014,  -0.00185, -64.00000,   2.00000
-516299122.67422,-323238210.94897,-88176309.76825,  -0.00397,  -0.00061,  -0.00300,477770048.00000,   0.00215,276959296.00000,  -0.00225,  -0.00014,  -0.00185,  96.00000,   2.00000
-516404793.32093,-324161551.77670,-87808518.55242,  -0.00397,  -0.00061,  -0.00300,477767232.00000,   0.00215,276962240.00000,  -0.00225,  -0.00014,  -0.00185,   0.00000,   2.00000
-516511942.05716,-325071755.89005,-87438170.51066,  -0.00397,  -0.00062,  -0.00299,477762240.00000,   0.00215,276965152.00000,  -0.00225,  -0.00015,  -0.00186,  64.00000,   2.00000
-516617190.40159,-325981776.80925,-87066348.37473,  -0.00397,  -0.00062,  -0.00299,477751424.00000,   0.00216,276968032.00000,  -0.00226,  -0.00015,  -0.00186, -64.00000,   2.00000
-516720806.24099,-326891792.17440,-86693092.45938,  -0.00397,  -0.00063,  -0.00299,477740384.00000,   0.00216,276970848.00000,  -0.00226,  -0.00015,  -0.00186,  32.00000,   2.00000
-516827531.58999,-327802115.34504,-86311463.29281,  -0.00397,  -0.00063,  -0.00298,477740064.00000,   0.00216,276973632.00000,  -0.00226,  -0.00015,  -0.00186, -64.00000,   2.00000
-516929658.83357,-328710734.19288,-85932718.04824,  -0.00398,  -0.00064,  -0.00298,477731616.00000,   0.00216,276976416.00000,  -0.00226,  -0.00015,  -0.00186,  32.00000,   2.00000
-517034422.99911,-329619360.61901,-85545708.11341,  -0.00398,  -0.00064,  -0.00298,477731744.00000,   0.00217,276979136.00000,  -0.00227,  -0.00015,  -0.00187,  64.00000,   2.00000
-517135128.95617,-330514221.77549,-85163174.35050,  -0.00398,  -0.00064,  -0.00298,477716000.00000,   0.00217,276981824.00000,  -0.00227,  -0.00015,  -0.00187,  64.00000,   2.00000
-517234898.40876,-331422005.36125,-84773559.77920,  -0.00398,  -0.00065,  -0.00297,477710496.00000,   0.00217,276984480.00000,  -0.00227,  -0.00015,  -0.00187,  32.00000,   2.00000
-517333148.89793,-332317632.90657,-84384138.71086,  -0.00398,  -0.00065,  -0.00297,477692320.00000,   0.00217,276987040.00000,  -0.00227,  -0.00015,  -0.00187, -96.00000,   2.00000
-517429968.54180,-333223372.58394,-83989092.38244,  -0.00398,  -0.00066,  -0.00297,477702592.00000,   0.00218,276989632.00000,  -0.00228,  -0.00015,  -0.00187, -96.00000,   2.00000
-517525553.83355,-334117252.77144,-83594192.40167,  -0.00398,  -0.00066,  -0.00296,477684160.00000,   0.00218,276992128.00000,  -0.00228,  -0.00015,  -0.00188,  32.00000,   2.00000
-517620991.92060,-335009681.88173,-83195176.85665,  -0.00398,  -0.00067,  -0.00296,477686656.00000,   0.00218,276994624.00000,  -0.00228,  -0.00015,  -0.00188, -32.00000,   2.00000
-517711819.50766,-335903445.50260,-82797332.28292,  -0.00399,  -0.00067,  -0.00296,477662528.00000,   0.00218,276997056.00000,  -0.00229,  -0.00015,  -0.00188,  64.00000,   2.00000
-517805037.72155,-336797323.62706,-82391066.95853,  -0.00399,  -0.00068,  -0.00295,477662400.00000,   0.00218,276999456.00000,  -0.00229,  -0.00015,  -0.00188, -64.00000,   2.00000
-517895607.61463,-337688322.66610,-81984902.59640,  -0.00399,  -0.00068,  -0.00295,477667104.00000,   0.00219,277001856.00000,  -0.00229,  -0.00015,  -0.00188, -96.00000,   2.00000
-517987964.60527,-338569600.57091,-81574534.94753,  -0.00399,  -0.00068,  -0.00295,477645792.00000,   0.00219,277004160.00000,  -0.00229,  -0.00015,  -0.00188, 128.00000,   2.00000
-518076263.04925,-339462304.13089,-81161012.27599,  -0.00399,  -0.00069,  -0.00294,477642848.00000,   0.00219,277006464.00000,  -0.00229,  -0.00015,  -0.00189,-128.00000,   2.00000
-518163801.78734,-340343889.35372,-80747504.71155,  -0.00399,  -0.00069,  -0.00294,477623904.00000,   0.00219,277008672.00000,  -0.00230,  -0.00015,  -0.00189,  64.00000,   2.00000
-518248691.10630,-341225559.29886,-80332365.10390,  -0.00399,  -0.00070,  -0.00293,477612928.00000,   0.00220,277010848.00000,  -0.00230,  -0.00016,  -0.00189, -32.00000,   2.00000
-518333300.18733,-342105870.66532,-79913040.79139,  -0.00399,  -0.00070,  -0.00293,477615104.00000,   0.00220,277012992.00000,  -0.00230,  -0.00016,  -0.00189, -64.00000,   2.00000
-518417016.63881,-342975176.74176,-79493653.70687,  -0.00399,  -0.00071,  -0.00293,477596000.00000,   0.00220,277015072.00000,  -0.00230,  -0.00016,  -0.00189,   0.00000,   2.00000
-518501339.37396,-343855926.36605,-79064264.95982,  -0.00399,  -0.00071,  -0.00292,477604000.00000,   0.00220,277017184.00000,  -0.00231,  -0.00016,  -0.00189,  64.00000,   2.00000
-518579649.24590,-344725662.49192,-78641520.40189,  -0.00399,  -0.00071,  -0.00292,477574144.00000,   0.00220,277019168.00000,  -0.00231,  -0.00016,  -0.00190, -32.00000,   2.00000
-518660155.21545,-345595649.13244,-78210299.19143,  -0.00400,  -0.00072,  -0.00291,477573824.00000,   0.00221,277021152.00000,  -0.00231,  -0.00016,  -0.00190, -64.00000,   2.00000
-518740252.87503,-346464295.49415,-77774880.22173,  -0.00400,  -0.00072,  -0.00291,477576160.00000,   0.00221,277023136.00000,  -0.00231,  -0.00016,  -0.00190, -32.00000,   2.00000
-518817130.99779,-347323913.71053,-77341752.01284,  -0.00400,  -0.00073,  -0.00290,477543744.00000,   0.00221,277024992.00000,  -0.00231,  -0.00016,  -0.00190,  32.00000,   2.00000
-518891581.60887,-348193169.43121,-76902825.42559,  -0.00400,  -0.00073,  -0.00290,477554112.00000,   0.00221,277026848.00000,  -0.00232,  -0.00016,  -0.00190,  32.00000,   2.00000
-518967525.19630,-349053336.79499,-76459343.70237,  -0.00400,  -0.00074,  -0.00290,477532512.00000,   0.00221,277028640.00000,  -0.00232,  -0.00016,  -0.00190,  96.00000,   2.00000
-519038233.74994,-349912461.59642,-76018350.50862,  -0.00400,  -0.00074,  -0.00289,477523680.00000,   0.00221,277030400.00000,  -0.00232,  -0.00016,  -0.00190, -32.00000,   2.00000
-519110493.63012,-350762703.67003,-75572724.11625,  -0.00400,  -0.00074,  -0.00289,477501920.00000,   0.00222,277032064.00000,  -0.00232,  -0.00016,  -0.00190,  64.00000,   2.00000
-519179570.93205,-351610053.77879,-75127087.23849,  -0.00400,  -0.00075,  -0.00288,477506272.00000,   0.00222,277033760.00000,  -0.00232,  -0.00016,  -0.00191, -32.00000,   2.00000
-519248422.58717,-352459639.61665,-74675261.49931,  -0.00400,  -0.00075,  -0.00288,477492768.00000,   0.00222,277035392.00000,  -0.00232,  -0.00016,  -0.00191, -64.00000,   2.00000
-519314454.20584,-353309887.50339,-74221509.49351,  -0.00400,  -0.00076,  -0.00287,477481536.00000,   0.00222,277036960.00000,  -0.00233,  -0.00016,  -0.00191,  32.00000,   2.00000
-519381942.43393,-354151479.36843,-73762957.68580,  -0.00400,  -0.00076,  -0.00287,477459712.00000,   0.00222,277038432.00000,  -0.00233,  -0.00016,  -0.00191,  64.00000,   2.00000
-519444302.56310,-355001085.31698,-73302878.55697,  -0.00400,  -0.00077,  -0.00286,477472256.00000,   0.00222,277039968.00000,  -0.00233,  -0.00016,  -0.00191, -32.00000,   2.00000
-519508152.94120,-355833527.91127,-72841796.01965,  -0.00400,  -0.00077,  -0.00286,477428608.00000,   0.00222,277041344.00000,  -0.00233,  -0.00016,  -0.00191,  64.00000,   2.00000
-519566912.52123,-356674040.95443,-72379178.35469,  -0.00400,  -0.00077,  -0.00285,477441024.00000,   0.00223,277042752.00000,  -0.00233,  -0.00016,  -0.00191, -32.00000,   2.00000
-519627221.27003,-357506230.88733,-71911619.72563,  -0.00400,  -0.00078,  -0.00285,477419008.00000,   0.00223,277044064.00000,  -0.00233,  -0.00016,  -0.00191, -64.00000,   2.00000
-519686828.86165,-358337276.33939,-71439653.72460,  -0.00400,  -0.00078,  -0.00284,477420768.00000,   0.00223,277045408.00000,  -0.00233,  -0.00016,  -0.00191,   0.00000,   2.00000
-519745821.82236,-359162263.07474,-70964957.79853,  -0.00400,  -0.00079,  -0.00284,477385504.00000,   0.00223,277046592.00000,  -0.00234,  -0.00016,  -0.00191, -64.00000,   2.00000
-519799652.37109,-359995290.86292,-70488718.90788,  -0.00400,  -0.00079,  -0.00283,477397888.00000,   0.00223,277047840.00000,  -0.00234,  -0.00017,  -0.00191,   0.00000,   2.00000
-519854980.59133,-360808262.61589,-70013211.19649,  -0.00400,  -0.00079,  -0.00283,477369280.00000,   0.00223,277048960.00000,  -0.00234,  -0.00017,  -0.00192,  64.00000,   2.00000
-519907435.15799,-361634352.14175,-69529647.60443,  -0.00400,  -0.00080,  -0.00282,477364192.00000,   0.00223,277050048.00000,  -0.00234,  -0.00017,  -0.00192,  32.00000,   2.00000
-519959137.37919,-362451053.63187,-69045264.26827,  -0.00400,  -0.00080,  -0.00281,477344064.00000,   0.00223,277051072.00000,  -0.00234,  -0.00017,  -0.00192,  32.00000,   2.00000
-520010040.78599,-363266703.50817,-68556375.91975,  -0.00400,  -0.00081,  -0.00281,477345792.00000,   0.00223,277052128.00000,  -0.00234,  -0.00017,  -0.00192, -64.00000,   2.00000
-520057229.09593,-364074835.98304,-68068667.73393,  -0.00400,  -0.00081,  -0.00280,477312160.00000,   0.00224,277053024.00000,  -0.00234,  -0.00017,  -0.00192,-832.00000,   1.00000
-520106641.28976,-364883950.71322,-67572151.39117,  -0.00400,  -0.00081,  -0.00280,477310912.00000,   0.00224,277053920.00000,  -0.00234,  -0.00017,  -0.00192,-928.00000,   1.00000
-520153344.40367,-365682660.86898,-67079087.90576,  -0.00400,  -0.00082,  -0.00279,477292544.00000,   0.00224,277054752.00000,  -0.00234,  -0.00017,  -0.00192,-960.00000,   1.00000
-520196959.09342,-366494569.90643,-66577806.31467,  -0.00400,  -0.00082,  -0.00278,477287456.00000,   0.00224,277055584.00000,  -0.00234,  -0.00017,  -0.00192,-768.00000,   1.00000
-520242277.01805,-367287208.41733,-66076881.65316,  -0.00400,  -0.00082,  -0.00278,477258528.00000,   0.00224,277056288.00000,  -0.00235,  -0.00017,  -0.00192,-704.00000,   1.00000
-520281942.10233,-368091442.99220,-65572034.52488,  -0.00400,  -0.00083,  -0.00277,477255680.00000,   0.00224,277056992.00000,  -0.00235,  -0.00017,  -0.00192,-736.00000,   1.00000
-520323188.40954,-368884506.12185,-65063968.67382,  -0.00399,  -0.00083,  -0.00277,477248384.00000,   0.00224,277057664.00000,  -0.00235,  -0.00017,  -0.00192,-736.00000,   1.00000
-520363833.12345,-369668855.24532,-64554744.69178,  -0.00399,  -0.00084,  -0.00276,477227936.00000,   0.00224,277058240.00000,  -0.00235,  -0.00017,  -0.00192,-544.00000,   1.00000
-520401373.38967,-370458636.33917,-64040582.92254,  -0.00399,  -0.00084,  -0.00275,477201056.00000,   0.00224,277058752.00000,  -0.00235,  -0.00017,  -0.00192,-544.00000,   1.00000
-520437777.23485,-371247405.55738,-63521710.23986,  -0.00399,  -0.00084,  -0.00275,477202560.00000,   0.00224,277059232.00000,  -0.00235,  -0.00017,  -0.00192,-416.00000,   1.00000
-520473554.18177,-372027639.95644,-63001542.38877,  -0.00399,  -0.00085,  -0.00274,477181984.00000,   0.00224,277059680.00000,  -0.00235,  -0.00017,  -0.00192,-384.00000,   1.00000
-520508789.29074,-372799472.69257,-62480038.80227,  -0.00399,  -0.00085,  -0.00273,477161312.00000,   0.00224,277060032.00000,  -0.00235,  -0.00017,  -0.00192,-320.00000,   1.00000
-520539968.86157,-373580195.86523,-61952387.92159,  -0.00399,  -0.00085,  -0.00273,477171808.00000,   0.00224,277060416.00000,  -0.00235,  -0.00017,  -0.00192,-416.00000,   1.00000
-520571398.26261,-374345396.45501,-61426701.84087,  -0.00399,  -0.00086,  -0.00272,477128800.00000,   0.00224,277060640.00000,  -0.00235,  -0.00017,  -0.00192,-192.00000,   1.00000
-520600708.45615,-375120816.03201,-60890390.45594,  -0.00399,  -0.00086,  -0.00271,477137408.00000,   0.00224,277060896.00000,  -0.00235,  -0.00017,  -0.00192,-256.00000,   1.00000
-520630091.63257,-375880808.19952,-60355863.78813,  -0.00399,  -0.00086,  -0.00271,477094464.00000,   0.00224,277061024.00000,  -0.00235,  -0.00017,  -0.00192,-128.00000,   1.00000
-520653396.55044,-376648371.11899,-59819613.16557,  -0.00398,  -0.00087,  -0.00270,477106592.00000,   0.00224,277061184.00000,  -0.00235,  -0.00017,  -0.00192,-192.00000,   1.00000
-520678081.21263,-377409195.21412,-59277294.94174,  -0.00398,  -0.00087,  -0.00269,477083936.00000,   0.00224,277061248.00000,  -0.00235,  -0.00017,  -0.00192, -96.00000,   1.00000
-520704085.51043,-378163319.85035,-58728840.66085,  -0.00398,  -0.00087,  -0.00269,477061408.00000,   0.00224,277061248.00000,  -0.00235,  -0.00017,  -0.00192, 160.00000,   0.00000
-520713541.61872,-378910352.40537,-58180386.37995,  -0.00398,  -0.00088,  -0.00268,477051424.00000,   0.00224,277061248.00000,  -0.00235,  -0.00017,  -0.00192,-9824.00000,   0.00000
-520699357.45628,-379633744.68966,-57622475.99076,  -0.00398,  -0.00088,  -0.00267,477018688.00000,   0.00224,277061248.00000,  -0.00235,  -0.00017,  -0.00192,-42560.00000,   0.00000
-520668625.10434,-380350044.89273,-57064565.60157,  -0.00398,  -0.00088,  -0.00266,476975776.00000,   0.00224,277061248.00000,  -0.00235,  -0.00017,  -0.00192,-85472.00000,   0.00000
-520614252.48166,-381042704.82507,-56497199.10409,  -0.00398,  -0.00089,  -0.00266,476910240.00000,   0.00224,277061248.00000,  -0.00235,  -0.00017,  -0.00192,-151008.00000,   0.00000
-520552787.77777,-381718816.56790,-55925104.55246,  -0.00397,  -0.00089,  -0.00265,476837120.00000,   0.00224,277061248.00000,  -0.00235,  -0.00017,  -0.00192,-224128.00000,   0.00000
-520458226.69485,-382380744.14830,-55348281.94669,  -0.00397,  -0.00089,  -0.00264,476738848.00000,   0.00224,277061248.00000,  -0.00235,  -0.00017,  -0.00192,-322400.00000,   0.00000
-520363665.61194,-383042671.72869,-54762003.23262,  -0.00397,  -0.00090,  -0.00263,476640576.00000,   0.00224,277061248.00000,  -0.00235,  -0.00017,  -0.00192,-420672.00000,   0.00000
-520228916.06879,-383673866.95714,-54175724.51856,  -0.00397,  -0.00090,  -0.00263,476509632.00000,   0.00224,277061248.00000,  -0.00235,  -0.00017,  -0.00192,-551616.00000,   0.00000
-520087074.44442,-384288513.99608,-53579989.69620,  -0.00397,  -0.00090,  -0.00262,476369600.00000,   0.00224,277061248.00000,  -0.00235,  -0.00017,  -0.00192,-691648.00000,   0.00000
-519912136.44103,-384888976.87258,-52984254.87385,  -0.00397,  -0.00091,  -0.00261,476206144.00000,   0.00224,277061248.00000,  -0.00235,  -0.00017,  -0.00192,-855104.00000,   0.00000
-519737198.43764,-385489439.74908,-52379063.94320,  -0.00396,  -0.00091,  -0.00260,476042848.00000,   0.00224,277061248.00000,  -0.00235,  -0.00017,  -0.00192,-1018400.00000,   0.00000
-519531528.08230,-386049714.16534,-51769144.95841,  -0.00396,  -0.00091,  -0.00260,475849440.00000,   0.00224,277061248.00000,  -0.00235,  -0.00017,  -0.00192,-1211808.00000,   0.00000
-519309309.53746,-386602896.50039,-51149769.86533,  -0.00396,  -0.00092,  -0.00259,475643040.00000,   0.00224,277061248.00000,  -0.00235,  -0.00017,  -0.00192,-1418208.00000,   0.00000
-519070542.80310,-387148986.75421,-50530394.77224,  -0.00396,  -0.00092,  -0.00258,475426688.00000,   0.00224,277061248.00000,  -0.00235,  -0.00017,  -0.00192,-1634560.00000,   0.00000
-518808135.79801,-387671436.73731,-49906291.62501,  -0.00396,  -0.00092,  -0.00257,475189600.00000,   0.00224,277061248.00000,  -0.00235,  -0.00017,  -0.00192,-1871648.00000,   0.00000
-518522088.52220,-388170246.44968,-49272732.36949,  -0.00395,  -0.00092,  -0.00256,474930272.00000,   0.00224,277061248.00000,  -0.00235,  -0.00017,  -0.00192,-2130976.00000,   0.00000
-518219493.05688,-388661964.08083,-48634445.05983,  -0.00395,  -0.00093,  -0.00255,474659648.00000,   0.00224,277061248.00000,  -0.00235,  -0.00017,  -0.00192,-2401600.00000,   0.00000
-517893257.32083,-389130041.44125,-47991429.69602,  -0.00395,  -0.00093,  -0.00255,474368512.00000,   0.00224,277061248.00000,  -0.00235,  -0.00017,  -0.00192,-2692736.00000,   0.00000
-517543381.31405,-389574478.53094,-47343686.27806,  -0.00395,  -0.00093,  -0.00254,474056832.00000,   0.00224,277061248.00000,  -0.00235,  -0.00017,  -0.00192,-3004416.00000,   0.00000
-517193505.30727,-390018915.62064,-46691214.80595,  -0.00394,  -0.00094,  -0.00253,473747136.00000,   0.00224,277061248.00000,  -0.00235,  -0.00017,  -0.00192,-3314112.00000,   0.00000
-516803440.84025,-390432620.35838,-46034015.27971,  -0.00394,  -0.00094,  -0.00252,473403936.00000,   0.00224,277061248.00000,  -0.00235,  -0.00017,  -0.00192,-3657312.00000,   0.00000
-516389736.10250,-390822684.82540,-45367359.64517,  -0.00394,  -0.00094,  -0.00251,473038848.00000,   0.00224,277061248.00000,  -0.00235,  -0.00017,  -0.00192,-4022400.00000,   0.00000
-515959483.17524,-391205657.21120,-44700704.01062,  -0.00394,  -0.00094,  -0.00250,472664416.00000,   0.00224,277061248.00000,  -0.00235,  -0.00017,  -0.00192,-4396832.00000,   0.00000
-515522138.16677,-391572081.40749,-44024592.26779,  -0.00393,  -0.00095,  -0.00249,472281504.00000,   0.00224,277061248.00000,  -0.00235,  -0.00017,  -0.00192,-4779744.00000,   0.00000
-515051696.77927,-391924321.44134,-43348480.52496,  -0.00393,  -0.00095,  -0.00249,471876128.00000,   0.00224,277061248.00000,  -0.00235,  -0.00017,  -0.00192,-5185120.00000,   0.00000
-514557615.12105,-392252921.20447,-42662912.67384,  -0.00393,  -0.00095,  -0.00248,471449248.00000,   0.00224,277061248.00000,  -0.00235,  -0.00017,  -0.00192,-5612000.00000,   0.00000
-514056441.38161,-392564972.77808,-41972616.76857,  -0.00392,  -0.00095,  -0.00247,471015616.00000,   0.00224,277061248.00000,  -0.00235,  -0.00017,  -0.00192,-6045632.00000,   0.00000
-513515079.18193,-392846291.99975,-41277592.80916,  -0.00392,  -0.00096,  -0.00246,470548832.00000,   0.00224,277061248.00000,  -0.00235,  -0.00017,  -0.00192,-6512416.00000,   0.00000
-512973716.98225,-393127611.22142,-40577840.79560,  -0.00392,  -0.00096,  -0.00245,470084800.00000,   0.00224,277061248.00000,  -0.00235,  -0.00017,  -0.00192,-6976448.00000,   0.00000
-512392166.32233,-393378198.09114,-39868632.67374,  -0.00391,  -0.00096,  -0.00244,469586624.00000,   0.00224,277061248.00000,  -0.00235,  -0.00017,  -0.00192,-7474624.00000,   0.00000
-511786975.39168,-393605144.69013,-39159424.55189,  -0.00391,  -0.00096,  -0.00243,469069792.00000,   0.00224,277061248.00000,  -0.00235,  -0.00017,  -0.00192,-7991456.00000,   0.00000
-511181784.46104,-393832091.28912,-38445488.37590,  -0.00391,  -0.00096,  -0.00242,468555776.00000,   0.00224,277061248.00000,  -0.00235,  -0.00017,  -0.00192,-8505472.00000,   0.00000
-510536405.07015,-394028305.53617,-37722096.09161,  -0.00390,  -0.00097,  -0.00241,468007744.00000,   0.00224,277061248.00000,  -0.00235,  -0.00017,  -0.00192,-9053504.00000,   0.00000
-509883933.59805,-394207971.59371,-36998703.80732,  -0.00390,  -0.00097,  -0.00240,467454080.00000,   0.00224,277061248.00000,  -0.00235,  -0.00017,  -0.00192,-9607168.00000,   0.00000
-509198365.74693,-394373453.48880,-36265855.41474,  -0.00390,  -0.00097,  -0.00239,466875968.00000,   0.00224,277061248.00000,  -0.00235,  -0.00017,  -0.00192,-10185280.00000,   0.00000
-508498613.73337,-394505839.00488,-35528278.96801,  -0.00389,  -0.00097,  -0.00238,466281408.00000,   0.00224,277061248.00000,  -0.00235,  -0.00017,  -0.00192,-10779840.00000,   0.00000
-507765765.34079,-394624040.35852,-34785974.46714,  -0.00389,  -0.00097,  -0.00237,465663488.00000,   0.00224,277061248.00000,  -0.00235,  -0.00017,  -0.00192,-11397760.00000,   0.00000
-507032916.94821,-394742241.71217,-34043669.96627,  -0.00389,  -0.00098,  -0.00237,465049472.00000,   0.00224,277061248.00000,  -0.00235,  -0.00017,  -0.00192,-12011776.00000,   0.00000
-506252788.01417,-394813162.52435,-33291909.35711,  -0.00388,  -0.00098,  -0.00236,464391296.00000,   0.00224,277061248.00000,  -0.00235,  -0.00017,  -0.00192,-12669952.00000,   0.00000
-505472659.08013,-394884083.33654,-32535420.69380,  -0.00388,  -0.00098,  -0.00235,463735840.00000,   0.00224,277061248.00000,  -0.00235,  -0.00017,  -0.00192,-13325408.00000,   0.00000
-504652341.68586,-394924271.79678,-31774203.97635,  -0.00388,  -0.00098,  -0.00234,463046560.00000,   0.00224,277061248.00000,  -0.00235,  -0.00017,  -0.00192,-14014688.00000,   0.00000
-503824932.21037,-394947912.06750,-31003531.15060,  -0.00387,  -0.00098,  -0.00233,462348736.00000,   0.00224,277061248.00000,  -0.00235,  -0.00017,  -0.00192,-14712512.00000,   0.00000
-502964426.35585,-394957368.17580,-30232858.32486,  -0.00387,  -0.00099,  -0.00232,461627296.00000,   0.00224,277061248.00000,  -0.00235,  -0.00017,  -0.00192,-15433952.00000,   0.00000
-502073188.14939,-394926635.82385,-29457457.44497,  -0.00386,  -0.00099,  -0.00231,460874624.00000,   0.00224,277061248.00000,  -0.00235,  -0.00017,  -0.00192,-16186624.00000,   0.00000
-501181949.94293,-394895903.47190,-28677328.51093,  -0.00386,  -0.00099,  -0.00230,460123872.00000,   0.00224,277061248.00000,  -0.00235,  -0.00017,  -0.00192,-16937376.00000,   0.00000
-500250523.27624,-394834438.76801,-27892471.52275,  -0.00386,  -0.00099,  -0.00229,459340928.00000,   0.00224,277061248.00000,  -0.00235,  -0.00017,  -0.00192,-17720320.00000,   0.00000
-499319096.60954,-394772974.06411,-27098158.42627,  -0.00385,  -0.00099,  -0.00227,458564800.00000,   0.00224,277061248.00000,  -0.00235,  -0.00017,  -0.00192,-18496448.00000,   0.00000
-498340389.40138,-394664228.81876,-26303845.32980,  -0.00385,  -0.00099,  -0.00226,457753184.00000,   0.00224,277061248.00000,  -0.00235,  -0.00017,  -0.00192,-19308064.00000,   0.00000
-497345134.00372,-394548391.49219,-25504804.17918,  -0.00384,  -0.00099,  -0.00225,456935040.00000,   0.00224,277061248.00000,  -0.00235,  -0.00017,  -0.00192,-20126208.00000,   0.00000
-496342786.52483,-394416005.97612,-24701034.97442,  -0.00384,  -0.00100,  -0.00224,456105952.00000,   0.00224,277061248.00000,  -0.00235,  -0.00017,  -0.00192,-20955296.00000,   0.00000
-495300250.58571,-394252888.10809,-23887809.66136,  -0.00384,  -0.00100,  -0.00223,455235168.00000,   0.00224,277061248.00000,  -0.00235,  -0.00017,  -0.00192,-21826080.00000,   0.00000
-494241166.45708,-394082678.15885,-23074584.34830,  -0.00383,  -0.00100,  -0.00222,454354400.00000,   0.00224,277061248.00000,  -0.00235,  -0.00017,  -0.00192,-22706848.00000,   0.00000
-493167898.16601,-393879371.83058,-22256630.98110,  -0.00383,  -0.00100,  -0.00221,453468640.00000,   0.00224,277061248.00000,  -0.00235,  -0.00017,  -0.00192,-23592608.00000,   0.00000
-492061533.49592,-393661881.33988,-21429221.50561,  -0.00382,  -0.00100,  -0.00220,452575968.00000,   0.00224,277061248.00000,  -0.00235,  -0.00017,  -0.00192,-24485280.00000,   0.00000
-490931528.55511,-393420750.57845,-20601812.03011,  -0.00382,  -0.00100,  -0.00219,451672512.00000,   0.00224,277061248.00000,  -0.00235,  -0.00017,  -0.00192,-25388736.00000,   0.00000
-489777883.34356,-393155979.54629,-19769674.50047,  -0.00381,  -0.00100,  -0.00218,450745600.00000,   0.00224,277061248.00000,  -0.00235,  -0.00017,  -0.00192,-26315648.00000,   0.00000
-488600597.86129,-392867568.24341,-18932808.91669,  -0.00381,  -0.00100,  -0.00217,449788256.00000,   0.00224,277061248.00000,  -0.00235,  -0.00017,  -0.00192,-27272992.00000,   0.00000
-487416220.29780,-392562608.75101,-18086487.22461,  -0.00380,  -0.00101,  -0.00216,448813408.00000,   0.00224,277061248.00000,  -0.00235,  -0.00017,  -0.00192,-28247840.00000,   0.00000
-486198746.35529,-392243465.09618,-17240165.53254,  -0.00380,  -0.00101,  -0.00215,447809280.00000,   0.00224,277061248.00000,  -0.00235,  -0.00017,  -0.00192,-29251968.00000,   0.00000
-484950540.06083,-391884132.98111,-16389115.78632,  -0.00379,  -0.00101,  -0.00214,446771712.00000,   0.00224,277061248.00000,  -0.00235,  -0.00017,  -0.00192,-30289536.00000,   0.00000
-483685785.57686,-391517708.78482,-15533337.98595,  -0.00379,  -0.00101,  -0.00212,445723136.00000,   0.00224,277061248.00000,  -0.00235,  -0.00017,  -0.00192,-31338112.00000,   0.00000
-482397390.82216,-391127644.31780,-14672832.13144,  -0.00378,  -0.00101,  -0.00211,444654112.00000,   0.00224,277061248.00000,  -0.00235,  -0.00017,  -0.00192,-32407136.00000,   0.00000
-481085355.79674,-390713939.58005,-13807598.22278,  -0.00378,  -0.00101,  -0.00210,443564064.00000,   0.00224,277061248.00000,  -0.00235,  -0.00017,  -0.00192,-33497184.00000,   0.00000
-479749680.50058,-390276594.57158,-12937636.25997,  -0.00377,  -0.00101,  -0.00209,442451872.00000,   0.00224,277061248.00000,  -0.00235,  -0.00017,  -0.00192,-34609376.00000,   0.00000
-478397457.01492,-389832157.48188,-12062946.24302,  -0.00377,  -0.00101,  -0.00208,441328928.00000,   0.00224,277061248.00000,  -0.00235,  -0.00017,  -0.00192,-35732320.00000,   0.00000
-477014501.17731,-389347531.93195,-11188256.22607,  -0.00376,  -0.00101,  -0.00207,440179968.00000,   0.00224,277061248.00000,  -0.00235,  -0.00017,  -0.00192,-36881280.00000,   0.00000
-475614997.15019,-388855814.30080,-10304110.10083,  -0.00376,  -0.00101,  -0.00206,439030752.00000,   0.00224,277061248.00000,  -0.00235,  -0.00017,  -0.00192,-38030496.00000,   0.00000
-474191852.85234,-388340456.39892,-9415235.92144,  -0.00375,  -0.00101,  -0.00204,437873600.00000,   0.00224,277061248.00000,  -0.00235,  -0.00017,  -0.00192,-39187648.00000,   0.00000
-472721428.01304,-387777817.95559,-8526361.74206,  -0.00375,  -0.00101,  -0.00203,436684160.00000,   0.00224,277061248.00000,  -0.00235,  -0.00017,  -0.00192,-40377088.00000,   0.00000
-471251003.17373,-387215179.51225,-7632759.50852,  -0.00374,  -0.00101,  -0.00202,435507104.00000,   0.00224,277061248.00000,  -0.00235,  -0.00017,  -0.00192,-41554144.00000,   0.00000
-469756938.06370,-386628900.79819,-6729701.16670,  -0.00373,  -0.00101,  -0.00201,434317440.00000,   0.00224,277061248.00000,  -0.00235,  -0.00017,  -0.00192,-42743808.00000,   0.00000
-468239232.68294,-386018981.81339,-5826642.82488,  -0.00373,  -0.00101,  -0.00200,433114368.00000,   0.00224,277061248.00000,  -0.00235,  -0.00017,  -0.00192,-43946880.00000,   0.00000
-466704979.11266,-385401970.74738,-4918856.42891,  -0.00372,  -0.00101,  -0.00199,431906848.00000,   0.00224,277061248.00000,  -0.00235,  -0.00017,  -0.00192,-45154400.00000,   0.00000
-465123445.00094,-384737679.13992,-4011070.03294,  -0.00372,  -0.00101,  -0.00197,430660128.00000,   0.00224,277061248.00000,  -0.00235,  -0.00017,  -0.00192,-46401120.00000,   0.00000
-463534818.80799,-384056839.34294,-3093827.52868,  -0.00371,  -0.00101,  -0.00196,429409152.00000,   0.00224,277061248.00000,  -0.00235,  -0.00017,  -0.00192,-47652096.00000,   0.00000
-461929644.42553,-383368907.46474,-2171856.97027,  -0.00370,  -0.00101,  -0.00195,428150432.00000,   0.00224,277061248.00000,  -0.00235,  -0.00017,  -0.00192,-48910816.00000,   0.00000
-460277189.50162,-382633695.04509,-1249886.41186,  -0.00370,  -0.00101,  -0.00194,426849952.00000,   0.00224,277061248.00000,  -0.00235,  -0.00017,  -0.00192,-50211296.00000,   0.00000
-458624734.57770,-381898482.62544,-323187.79931,  -0.00369,  -0.00101,  -0.00193,425553984.00000,   0.00224,277061248.00000,  -0.00235,  -0.00017,  -0.00192,-51507264.00000,   0.00000
-456932091.19355,-381132537.85384,608238.86739,  -0.00369,  -0.00101,  -0.00191,424226560.00000,   0.00224,277061248.00000,  -0.00235,  -0.00017,  -0.00192,-52834688.00000,   0.00000
-455225263.64696,-380333496.70322,1544393.58823,  -0.00368,  -0.00101,  -0.00190,422883296.00000,   0.00224,277061248.00000,  -0.00235,  -0.00017,  -0.00192,-54177952.00000,   0.00000
-453485339.72135,-379520271.39016,2485276.36322,  -0.00367,  -0.00101,  -0.00189,421519616.00000,   0.00224,277061248.00000,  -0.00235,  -0.00017,  -0.00192,-55541632.00000,   0.00000
-451738323.71453,-378690497.88760,3426159.13821,  -0.00367,  -0.00101,  -0.00188,420150976.00000,   0.00224,277061248.00000,  -0.00235,  -0.00017,  -0.00192,-56910272.00000,   0.00000
-449951119.24746,-377829992.03308,4376498.02149,  -0.00366,  -0.00101,  -0.00187,418751744.00000,   0.00224,277061248.00000,  -0.00235,  -0.00017,  -0.00192,-58309504.00000,   0.00000
-448156822.69918,-376952937.98906,5326836.90477,  -0.00365,  -0.00101,  -0.00185,417347616.00000,   0.00224,277061248.00000,  -0.00235,  -0.00017,  -0.00192,-59713632.00000,   0.00000
-446322337.69065,-376045151.59309,6281903.84220,  -0.00365,  -0.00101,  -0.00184,415912864.00000,   0.00224,277061248.00000,  -0.00235,  -0.00017,  -0.00192,-61148384.00000,   0.00000
-444487852.68213,-375137365.19712,7236970.77963,  -0.00364,  -0.00101,  -0.00183,414483200.00000,   0.00224,277061248.00000,  -0.00235,  -0.00017,  -0.00192,-62578048.00000,   0.00000
-442606087.13215,-374182298.25969,8201493.82534,  -0.00363,  -0.00101,  -0.00182,413012736.00000,   0.00224,277061248.00000,  -0.00235,  -0.00017,  -0.00192,-64048512.00000,   0.00000
-440717229.50096,-373210683.13276,9166016.87106,  -0.00363,  -0.00101,  -0.00180,411537376.00000,   0.00224,277061248.00000,  -0.00235,  -0.00017,  -0.00192,-65523872.00000,   0.00000
-438788183.40952,-372208335.65387,10135267.97093,  -0.00362,  -0.00101,  -0.00179,410032192.00000,   0.00224,277061248.00000,  -0.00235,  -0.00017,  -0.00192,-67029056.00000,   0.00000
-436842589.12857,-371198896.09377,11109247.12494,  -0.00361,  -0.00101,  -0.00178,408522080.00000,   0.00224,277061248.00000,  -0.00235,  -0.00017,  -0.00192,-68539168.00000,   0.00000
-434882810.68519,-370156360.15465,12083226.27894,  -0.00361,  -0.00101,  -0.00177,407000480.00000,   0.00224,277061248.00000,  -0.00235,  -0.00017,  -0.00192,-70060768.00000,   0.00000
-432882843.78157,-369083091.86358,13061933.48710,  -0.00360,  -0.00100,  -0.00175,405455936.00000,   0.00224,277061248.00000,  -0.00235,  -0.00017,  -0.00192,-71605312.00000,   0.00000
-430866328.68844,-368002731.49130,14045368.74940,  -0.00359,  -0.00100,  -0.00174,403912192.00000,   0.00224,277061248.00000,  -0.00235,  -0.00017,  -0.00192,-73149056.00000,   0.00000
-428835629.43287,-366889274.73999,15028804.01170,  -0.00359,  -0.00100,  -0.00173,402336256.00000,   0.00224,277061248.00000,  -0.00235,  -0.00017,  -0.00192,-74724992.00000,   0.00000
-426771833.79828,-365761633.82625,16021695.38229,  -0.00358,  -0.00100,  -0.00171,400646816.00000,   0.00224,277061248.00000,  -0.00235,  -0.00017,  -0.00192,-76414432.00000,   0.00000
-424677305.81175,-364593804.45226,17014586.75288,  -0.00357,  -0.00100,  -0.00170,398869760.00000,   0.00224,277061248.00000,  -0.00235,  -0.00017,  -0.00192,-78191488.00000,   0.00000
-422582777.82521,-363425975.07828,18007478.12348,  -0.00356,  -0.00100,  -0.00169,397252096.00000,   0.00224,277061248.00000,  -0.00235,  -0.00017,  -0.00192,-79809152.00000,   0.00000
-420448061.37844,-362227413.35235,19009825.60236,  -0.00356,  -0.00100,  -0.00168,395660224.00000,   0.00224,277061248.00000,  -0.00235,  -0.00017,  -0.00192,-81401024.00000,   0.00000
-418282612.57972,-360988663.16619,20012173.08124,  -0.00355,  -0.00100,  -0.00166,394032192.00000,   0.00224,277061248.00000,  -0.00235,  -0.00017,  -0.00192,-83029056.00000,   0.00000
-416117163.78100,-359749912.98002,21014520.56013,  -0.00354,  -0.00099,  -0.00165,392410272.00000,   0.00224,277061248.00000,  -0.00235,  -0.00017,  -0.00192,-84650976.00000,   0.00000
-413904434.44083,-358463882.25239,22026324.14730,  -0.00353,  -0.00099,  -0.00164,390754176.00000,   0.00224,277061248.00000,  -0.00235,  -0.00017,  -0.00192,-86307072.00000,   0.00000
-411675156.91114,-357170759.44355,23038127.73448,  -0.00353,  -0.00099,  -0.00162,389097280.00000,   0.00224,277061248.00000,  -0.00235,  -0.00017,  -0.00192,-87963968.00000,   0.00000
-409422239.11073,-355853996.36398,24049931.32165,  -0.00352,  -0.00099,  -0.00161,387428800.00000,   0.00224,277061248.00000,  -0.00235,  -0.00017,  -0.00192,-89632448.00000,   0.00000
-407155137.14787,-354504136.90539,25066462.96297,  -0.00351,  -0.00099,  -0.00160,385751392.00000,   0.00224,277061248.00000,  -0.00235,  -0.00017,  -0.00192,-91309856.00000,   0.00000
-404854938.80600,-353140093.28436,26087722.65844,  -0.00350,  -0.00099,  -0.00158,384060864.00000,   0.00224,277061248.00000,  -0.00235,  -0.00017,  -0.00192,-93000384.00000,   0.00000
-402547648.38291,-351759501.47383,27113710.40805,  -0.00350,  -0.00099,  -0.00157,382371808.00000,   0.00224,277061248.00000,  -0.00235,  -0.00017,  -0.00192,-94689440.00000,   0.00000
-400193077.41837,-350331629.12183,28139698.15766,  -0.00349,  -0.00098,  -0.00156,380646976.00000,   0.00224,277061248.00000,  -0.00235,  -0.00017,  -0.00192,-96414272.00000,   0.00000
-397821958.26431,-348896664.68862,29165685.90727,  -0.00348,  -0.00098,  -0.00154,378920832.00000,   0.00224,277061248.00000,  -0.00235,  -0.00017,  -0.00192,-98140416.00000,   0.00000
-395443747.02903,-347445152.06590,30201129.76518,  -0.00347,  -0.00098,  -0.00153,377197504.00000,   0.00224,277061248.00000,  -0.00235,  -0.00017,  -0.00192,-99863744.00000,   0.00000
-393025347.33352,-345962907.09123,31231845.56893,  -0.00346,  -0.00098,  -0.00152,375449088.00000,   0.00224,277061248.00000,  -0.00235,  -0.00017,  -0.00192,-101612160.00000,   0.00000
-390592763.47557,-344447565.73754,32272017.48098,  -0.00346,  -0.00098,  -0.00150,373693888.00000,   0.00224,277061248.00000,  -0.00235,  -0.00017,  -0.00192,-103367360.00000,   0.00000
-388127083.23860,-342918040.22141,33312189.39303,  -0.00345,  -0.00097,  -0.00149,371926432.00000,   0.00224,277061248.00000,  -0.00235,  -0.00017,  -0.00192,-105134816.00000,   0.00000
-385654310.92041,-341371966.51578,34352361.30508,  -0.00344,  -0.00097,  -0.00148,370161248.00000,   0.00224,277061248.00000,  -0.00235,  -0.00017,  -0.00192,-106900000.00000,   0.00000
-383134258.06077,-339778612.26868,35397261.27127,  -0.00343,  -0.00097,  -0.00146,368364416.00000,   0.00224,277061248.00000,  -0.00235,  -0.00017,  -0.00192,-108696832.00000,   0.00000
-380614205.20112,-338185258.02159,36442161.23747,  -0.00342,  -0.00097,  -0.00145,366580928.00000,   0.00224,277061248.00000,  -0.00235,  -0.00017,  -0.00192,-110480320.00000,   0.00000
-378053963.88124,-336561171.42255,37491789.25781,  -0.00341,  -0.00096,  -0.00144,364776896.00000,   0.00224,277061248.00000,  -0.00235,  -0.00017,  -0.00192,-112284352.00000,   0.00000
-375479538.39892,-334903988.44449,38546145.33229,  -0.00341,  -0.00096,  -0.00142,362966272.00000,   0.00224,277061248.00000,  -0.00235,  -0.00017,  -0.00192,-114094976.00000,   0.00000
-372888564.72709,-333239713.38521,39600501.40678,  -0.00340,  -0.00096,  -0.00141,361156736.00000,   0.00224,277061248.00000,  -0.00235,  -0.00017,  -0.00192,-115904512.00000,   0.00000
-370266858.70331,-331535249.86570,40654857.48127,  -0.00339,  -0.00096,  -0.00139,359326848.00000,   0.00224,277061248.00000,  -0.00235,  -0.00017,  -0.00192,-117734400.00000,   0.00000
-367612056.30051,-329816602.18374,41713941.60990,  -0.00338,  -0.00095,  -0.00138,357487296.00000,   0.00224,277061248.00000,  -0.00235,  -0.00017,  -0.00192,-119573952.00000,   0.00000
-364950161.81650,-328081406.31228,42777753.79267,  -0.00337,  -0.00095,  -0.00137,355651744.00000,   0.00224,277061248.00000,  -0.00235,  -0.00017,  -0.00192,-121409504.00000,   0.00000
-362257534.98053,-326306021.98058,43841565.97545,  -0.00336,  -0.00095,  -0.00135,353794880.00000,   0.00224,277061248.00000,  -0.00235,  -0.00017,  -0.00192,-123266368.00000,   0.00000
-359548359.95506,-324523545.56766,44905378.15823,  -0.00335,  -0.00094,  -0.00134,351936832.00000,   0.00224,277061248.00000,  -0.00235,  -0.00017,  -0.00192,-125124416.00000,   0.00000
-356808452.57764,-322700880.69450,45973918.39515,  -0.00334,  -0.00094,  -0.00132,350058720.00000,   0.00224,277061248.00000,  -0.00235,  -0.00017,  -0.00192,-127002528.00000,   0.00000
-354051997.01071,-320871123.74012,47042458.63207,  -0.00334,  -0.00094,  -0.00131,348185632.00000,   0.00224,277061248.00000,  -0.00235,  -0.00017,  -0.00192,-128875616.00000,   0.00000
-351281357.28135,-319008270.40673,48115726.92314,  -0.00333,  -0.00094,  -0.00130,346314208.00000,   0.00224,277061248.00000,  -0.00235,  -0.00017,  -0.00192,-130747040.00000,   0.00000
-348477621.17296,-317131232.91089,49188995.21421,  -0.00332,  -0.00093,  -0.00128,344436864.00000,   0.00224,277061248.00000,  -0.00235,  -0.00017,  -0.00192,-132624384.00000,   0.00000
-345643152.71263,-315214006.95482,50262263.50528,  -0.00331,  -0.00093,  -0.00127,342542208.00000,   0.00224,277061248.00000,  -0.00235,  -0.00017,  -0.00192,-134519040.00000,   0.00000
-342808684.25229,-313296780.99875,51340259.85049,  -0.00330,  -0.00093,  -0.00126,340668608.00000,   0.00224,277061248.00000,  -0.00235,  -0.00017,  -0.00192,-136392640.00000,   0.00000
-339926935.25051,-311332274.50122,52418256.19571,  -0.00329,  -0.00092,  -0.00124,338771392.00000,   0.00224,277061248.00000,  -0.00235,  -0.00017,  -0.00192,-138289856.00000,   0.00000
-337045186.24872,-309367768.00369,53496252.54092,  -0.00328,  -0.00092,  -0.00123,336896512.00000,   0.00224,277061248.00000,  -0.00235,  -0.00017,  -0.00192,-140164736.00000,   0.00000
-334116156.70547,-307355980.96471,54578976.94028,  -0.00327,  -0.00092,  -0.00121,335000768.00000,   0.00224,277061248.00000,  -0.00235,  -0.00017,  -0.00192,-142060480.00000,   0.00000
-331187127.16222,-305344193.92572,55666429.39379,  -0.00326,  -0.00091,  -0.00120,333128768.00000,   0.00224,277061248.00000,  -0.00235,  -0.00017,  -0.00192,-143932480.00000,   0.00000
-328227365.26703,-303292218.42650,56749153.79315,  -0.00325,  -0.00091,  -0.00118,331241952.00000,   0.00224,277061248.00000,  -0.00235,  -0.00017,  -0.00192,-145819296.00000,   0.00000
-325243963.10111,-301216602.65655,57836606.24665,  -0.00324,  -0.00091,  -0.00117,329355552.00000,   0.00224,277061248.00000,  -0.00235,  -0.00017,  -0.00192,-147705696.00000,   0.00000
-322244012.74568,-299133894.80538,58924058.70016,  -0.00323,  -0.00090,  -0.00116,327477152.00000,   0.00224,277061248.00000,  -0.00235,  -0.00017,  -0.00192,-149584096.00000,   0.00000
-319213330.03830,-297010998.49397,60016239.20781,  -0.00322,  -0.00090,  -0.00114,325587968.00000,   0.00224,277061248.00000,  -0.00235,  -0.00017,  -0.00192,-151473280.00000,   0.00000
-316175555.24970,-294871553.99305,61103691.66131,  -0.00321,  -0.00089,  -0.00113,323704864.00000,   0.00224,277061248.00000,  -0.00235,  -0.00017,  -0.00192,-153356384.00000,   0.00000
-313104684.08209,-292717925.32970,62200600.22311,  -0.00320,  -0.00089,  -0.00111,321824576.00000,   0.00224,277061248.00000,  -0.00235,  -0.00017,  -0.00192,-155236672.00000,   0.00000
-310019628.75203,-290531200.28732,63292780.73076,  -0.00319,  -0.00089,  -0.00110,319941888.00000,   0.00224,277061248.00000,  -0.00235,  -0.00017,  -0.00192,-157119360.00000,   0.00000
-306894384.96174,-288313742.89300,64389689.29256,  -0.00318,  -0.00088,  -0.00109,318052512.00000,   0.00224,277061248.00000,  -0.00235,  -0.00017,  -0.00192,-159008736.00000,   0.00000
-303762049.09023,-286079737.30917,65481869.80021,  -0.00317,  -0.00088,  -0.00107,316176256.00000,   0.00224,277061248.00000,  -0.00235,  -0.00017,  -0.00192,-160884992.00000,   0.00000
-300606072.94799,-283822091.45461,66578778.36201,  -0.00316,  -0.00087,  -0.00106,314310432.00000,   0.00224,277061248.00000,  -0.00235,  -0.00017,  -0.00192,-162750816.00000,   0.00000
-297433548.61624,-281557353.51883,67680414.97795,  -0.00315,  -0.00087,  -0.00104,312469024.00000,   0.00224,277061248.00000,  -0.00235,  -0.00017,  -0.00192,-164592224.00000,   0.00000
-294230291.93255,-279252427.12281,68777323.53975,  -0.00314,  -0.00087,  -0.00103,310624224.00000,   0.00224,277061248.00000,  -0.00235,  -0.00017,  -0.00192,-166437024.00000,   0.00000
-291019943.16763,-276930952.53728,69878960.15569,  -0.00313,  -0.00086,  -0.00101,308793472.00000,   0.00224,277061248.00000,  -0.00235,  -0.00017,  -0.00192,-168267776.00000,   0.00000
-287769405.94248,-274578745.59981,70980596.77163,  -0.00312,  -0.00086,  -0.00100,306952096.00000,   0.00224,277061248.00000,  -0.00235,  -0.00017,  -0.00192,-170109152.00000,   0.00000
-284511776.63611,-272209990.47283,72082233.38757,  -0.00311,  -0.00085,  -0.00099,305135744.00000,   0.00224,277061248.00000,  -0.00235,  -0.00017,  -0.00192,-171925504.00000,   0.00000
-281230507.05901,-269817595.07511,73183870.00352,  -0.00310,  -0.00085,  -0.00097,303325184.00000,   0.00224,277061248.00000,  -0.00235,  -0.00017,  -0.00192,-173736064.00000,   0.00000
-277925597.21118,-267401559.40667,74290234.67360,  -0.00309,  -0.00084,  -0.00096,301512640.00000,   0.00224,277061248.00000,  -0.00235,  -0.00017,  -0.00192,-175548608.00000,   0.00000
-274604139.17384,-264978431.65701,75396599.34369,  -0.00308,  -0.00084,  -0.00094,299706080.00000,   0.00224,277061248.00000,  -0.00235,  -0.00017,  -0.00192,-177355168.00000,   0.00000
-271251948.78456,-262515115.44712,76498235.95964,  -0.00307,  -0.00083,  -0.00093,297888960.00000,   0.00224,277061248.00000,  -0.00235,  -0.00017,  -0.00192,-179172288.00000,   0.00000
-267892666.31406,-260035251.04771,77604600.62972,  -0.00306,  -0.00083,  -0.00091,296100544.00000,   0.00224,277061248.00000,  -0.00235,  -0.00017,  -0.00192,-180960704.00000,   0.00000
-264509743.57283,-257531746.37757,78710965.29981,  -0.00305,  -0.00083,  -0.00090,294338464.00000,   0.00224,277061248.00000,  -0.00235,  -0.00017,  -0.00192,-182722784.00000,   0.00000
-261103180.56087,-255004601.43671,79817329.96990,  -0.00304,  -0.00082,  -0.00088,292613408.00000,   0.00224,277061248.00000,  -0.00235,  -0.00017,  -0.00192,-184447840.00000,   0.00000
-257672977.27818,-252453816.22512,80928422.69413,  -0.00303,  -0.00082,  -0.00087,290934688.00000,   0.00224,277061248.00000,  -0.00235,  -0.00017,  -0.00192,-186126560.00000,   0.00000
-254219133.72476,-249879390.74280,82034787.36422,  -0.00302,  -0.00081,  -0.00086,289290752.00000,   0.00224,277061248.00000,  -0.00235,  -0.00017,  -0.00192,-187770496.00000,   0.00000
-250758198.09013,-247288417.07097,83141152.03431,  -0.00301,  -0.00081,  -0.00084,287684768.00000,   0.00224,277061248.00000,  -0.00235,  -0.00017,  -0.00192,-189376480.00000,   0.00000
-247257073.99525,-244666711.04719,84252244.75854,  -0.00300,  -0.00080,  -0.00083,286088320.00000,   0.00224,277061248.00000,  -0.00235,  -0.00017,  -0.00192,-190972928.00000,   0.00000
-243748857.81916,-242028456.83390,85358609.42863,  -0.00299,  -0.00080,  -0.00081,284504288.00000,   0.00224,277061248.00000,  -0.00235,  -0.00017,  -0.00192,-192556960.00000,   0.00000
-240217001.37234,-239366562.34989,86469702.15287,  -0.00298,  -0.00079,  -0.00080,282923872.00000,   0.00224,277061248.00000,  -0.00235,  -0.00017,  -0.00192,-194137376.00000,   0.00000
-236678052.84430,-236688119.67636,87576066.82295,  -0.00297,  -0.00078,  -0.00078,281341152.00000,   0.00224,277061248.00000,  -0.00235,  -0.00017,  -0.00192,-195720096.00000,   0.00000
-233098915.85603,-233978944.65089,88687159.54719,  -0.00295,  -0.00078,  -0.00077,279741120.00000,   0.00224,277061248.00000,  -0.00235,  -0.00017,  -0.00192,-197320128.00000,   0.00000
-229512686.78653,-231253221.43591,89798252.27142,  -0.00294,  -0.00077,  -0.00076,278146720.00000,   0.00224,277061248.00000,  -0.00235,  -0.00017,  -0.00192,-198914528.00000,   0.00000
-225909909.52753,-228520406.13971,90904616.94151,  -0.00293,  -0.00077,  -0.00074,276580768.00000,   0.00224,277061248.00000,  -0.00235,  -0.00017,  -0.00192,-200480480.00000,   0.00000
-222292948.10608,-225754494.46449,92015709.66574,  -0.00292,  -0.00076,  -0.00073,275070208.00000,   0.00224,277061248.00000,  -0.00235,  -0.00017,  -0.00192,-201991040.00000,   0.00000
-218635798.22440,-222957850.43732,93122074.33583,  -0.00291,  -0.00076,  -0.00071,273584192.00000,   0.00224,277061248.00000,  -0.00235,  -0.00017,  -0.00192,-203477056.00000,   0.00000
-214971556.26151,-220144658.22064,94233167.06007,  -0.00290,  -0.00075,  -0.00070,272125920.00000,   0.00224,277061248.00000,  -0.00235,  -0.00017,  -0.00192,-204935328.00000,   0.00000
-211283674.02788,-217307825.73324,95344259.78430,  -0.00289,  -0.00075,  -0.00068,270685824.00000,   0.00224,277061248.00000,  -0.00235,  -0.00017,  -0.00192,-206375424.00000,   0.00000
-207572151.52352,-214447352.97510,96450624.45439,  -0.00288,  -0.00074,  -0.00067,269274912.00000,   0.00224,277061248.00000,  -0.00235,  -0.00017,  -0.00192,-207786336.00000,   0.00000
-203853536.93795,-211570332.02746,97556989.12448,  -0.00287,  -0.00073,  -0.00065,267914832.00000,   0.00224,277061248.00000,  -0.00235,  -0.00017,  -0.00192,-209146416.00000,   0.00000
-200118374.16286,-208686218.99859,98668081.84871,  -0.00285,  -0.00073,  -0.00064,266612384.00000,   0.00224,277061248.00000,  -0.00235,  -0.00017,  -0.00192,-210448864.00000,   0.00000
-196352479.03583,-205761917.50949,99774446.51880,  -0.00284,  -0.00072,  -0.00063,265335776.00000,   0.00224,277061248.00000,  -0.00235,  -0.00017,  -0.00192,-211725472.00000,   0.00000
-192562943.63807,-202813975.74967,100880811.18889,  -0.00283,  -0.00072,  -0.00061,264095264.00000,   0.00224,277061248.00000,  -0.00235,  -0.00017,  -0.00192,-212965984.00000,   0.00000
-188773408.24031,-199866033.98984,101987175.85898,  -0.00282,  -0.00071,  -0.00060,262902960.00000,   0.00224,277061248.00000,  -0.00235,  -0.00017,  -0.00192,-214158288.00000,   0.00000
-184953140.49061,-196877903.76977,103093540.52906,  -0.00281,  -0.00070,  -0.00058,261726528.00000,   0.00224,277061248.00000,  -0.00235,  -0.00017,  -0.00192,-215334720.00000,   0.00000
-181125780.65968,-193873225.36019,104199905.19915,  -0.00280,  -0.00070,  -0.00057,260579088.00000,   0.00224,277061248.00000,  -0.00235,  -0.00017,  -0.00192,-216482160.00000,   0.00000
-177265324.44974,-190854362.78818,105301541.81509,  -0.00278,  -0.00069,  -0.00055,259444832.00000,   0.00224,277061248.00000,  -0.00235,  -0.00017,  -0.00192,-217616416.00000,   0.00000
-173390684.07736,-187802403.83714,106407906.48518,  -0.00277,  -0.00069,  -0.00054,258334496.00000,   0.00224,277061248.00000,  -0.00235,  -0.00017,  -0.00192,-218726752.00000,   0.00000
-169516043.70498,-184750444.88611,107509543.10113,  -0.00276,  -0.00068,  -0.00052,257257760.00000,   0.00224,277061248.00000,  -0.00235,  -0.00017,  -0.00192,-219803488.00000,   0.00000
-165594122.79114,-181651205.39362,108611179.71707,  -0.00275,  -0.00067,  -0.00051,256193568.00000,   0.00224,277061248.00000,  -0.00235,  -0.00017,  -0.00192,-220867680.00000,   0.00000
-161672201.87730,-178551965.90113,109712816.33301,  -0.00274,  -0.00067,  -0.00050,255183696.00000,   0.00224,277061248.00000,  -0.00235,  -0.00017,  -0.00192,-221877552.00000,   0.00000
-157719548.61151,-175412537.94840,110814452.94895,  -0.00273,  -0.00066,  -0.00048,254211392.00000,   0.00224,277061248.00000,  -0.00235,  -0.00017,  -0.00192,-222849856.00000,   0.00000
-153766895.34573,-172273109.99567,111911361.51075,  -0.00271,  -0.00065,  -0.00047,253301184.00000,   0.00224,277061248.00000,  -0.00235,  -0.00017,  -0.00192,-223760064.00000,   0.00000
-149790601.80921,-169110041.77221,113012998.12669,  -0.00270,  -0.00065,  -0.00045,252452400.00000,   0.00224,277061248.00000,  -0.00235,  -0.00017,  -0.00192,-224608848.00000,   0.00000
-145790668.00197,-165923333.27803,114109906.68849,  -0.00269,  -0.00064,  -0.00044,251654432.00000,   0.00224,277061248.00000,  -0.00235,  -0.00017,  -0.00192,-225406816.00000,   0.00000
-141783642.11351,-162720076.59433,115206815.25029,  -0.00268,  -0.00063,  -0.00042,250933264.00000,   0.00224,277061248.00000,  -0.00235,  -0.00017,  -0.00192,-226127984.00000,   0.00000
-137752975.95432,-159493179.63991,116298995.75794,  -0.00267,  -0.00063,  -0.00041,250288800.00000,   0.00224,277061248.00000,  -0.00235,  -0.00017,  -0.00192,-226772448.00000,   0.00000
-133715217.71392,-156249734.49597,117395904.31973,  -0.00265,  -0.00062,  -0.00040,249718800.00000,   0.00224,277061248.00000,  -0.00235,  -0.00017,  -0.00192,-227342448.00000,   0.00000
-129637271.01327,-152975557.00009,118488084.82738,  -0.00264,  -0.00061,  -0.00038,249199984.00000,   0.00224,277061248.00000,  -0.00235,  -0.00017,  -0.00192,-227861264.00000,   0.00000
-125568780.42092,-149691923.39592,119575537.28089,  -0.00263,  -0.00061,  -0.00037,248780896.00000,   0.00224,277061248.00000,  -0.00235,  -0.00017,  -0.00192,-228280352.00000,   0.00000
-121460101.36832,-146377557.43980,120667717.78854,  -0.00262,  -0.00060,  -0.00035,248469984.00000,   0.00224,277061248.00000,  -0.00235,  -0.00017,  -0.00192,-228591264.00000,   0.00000
-117351422.31573,-143063191.48368,121755170.24205,  -0.00261,  -0.00059,  -0.00034,247968560.00000,   0.00224,277061248.00000,  -0.00235,  -0.00017,  -0.00192,-229092688.00000,   0.00000
-113228559.10070,-139715729.14855,122842622.69555,  -0.00259,  -0.00058,  -0.00033,247595712.00000,   0.00224,277061248.00000,  -0.00235,  -0.00017,  -0.00192,-229465536.00000,   0.00000
-109072599.50665,-136354082.65097,123930075.14906,  -0.00258,  -0.00058,  -0.00031,247456800.00000,   0.00224,277061248.00000,  -0.00235,  -0.00017,  -0.00192,-229604448.00000,   0.00000
-104919003.93968,-132966431.85559,125012799.54842,  -0.00257,  -0.00057,  -0.00030,247422656.00000,   0.00224,277061248.00000,  -0.00235,  -0.00017,  -0.00192,-229638592.00000,   0.00000
-100732311.99368,-129564596.89778,126095523.94778,  -0.00256,  -0.00056,  -0.00028,247431744.00000,   0.00224,277061248.00000,  -0.00235,  -0.00017,  -0.00192,-229629504.00000,   0.00000
-96538527.96647,-126146213.75045,127173520.29299,  -0.00254,  -0.00056,  -0.00027,247526992.00000,   0.00224,277061248.00000,  -0.00235,  -0.00017,  -0.00192,-229534256.00000,   0.00000
-92337651.85803,-122711282.41362,128251516.63821,  -0.00253,  -0.00055,  -0.00026,247679984.00000,   0.00224,277061248.00000,  -0.00235,  -0.00017,  -0.00192,-229381264.00000,   0.00000
-88113135.47887,-119252710.80606,129329512.98342,  -0.00252,  -0.00054,  -0.00024,247890672.00000,   0.00224,277061248.00000,  -0.00235,  -0.00017,  -0.00192,-229170576.00000,   0.00000
-83864978.82898,-115770498.92777,130402781.27449,  -0.00251,  -0.00053,  -0.00023,248154064.00000,   0.00224,277061248.00000,  -0.00235,  -0.00017,  -0.00192,-228907184.00000,   0.00000
-79609730.09787,-112271738.85997,131476049.56556,  -0.00249,  -0.00053,  -0.00021,248457344.00000,   0.00224,277061248.00000,  -0.00235,  -0.00017,  -0.00192,-228603904.00000,   0.00000
-75337933.17725,-108765886.71095,132549317.85663,  -0.00248,  -0.00052,  -0.00020,248793680.00000,   0.00224,277061248.00000,  -0.00235,  -0.00017,  -0.00192,-228267568.00000,   0.00000
-71051952.09420,-105226938.18291,133617858.09355,  -0.00247,  -0.00051,  -0.00019,249153312.00000,   0.00224,277061248.00000,  -0.00235,  -0.00017,  -0.00192,-227907936.00000,   0.00000
-66749422.82163,-101680897.57365,134681670.27633,  -0.00246,  -0.00050,  -0.00017,249552864.00000,   0.00224,277061248.00000,  -0.00235,  -0.00017,  -0.00192,-227508384.00000,   0.00000
-62439801.46785,-98118308.77489,135750210.51325,  -0.00244,  -0.00049,  -0.00016,250014464.00000,   0.00224,277061248.00000,  -0.00235,  -0.00017,  -0.00192,-227046784.00000,   0.00000
-58106539.84334,-94532079.70539,136809294.64188,  -0.00243,  -0.00049,  -0.00014,250518864.00000,   0.00224,277061248.00000,  -0.00235,  -0.00017,  -0.00192,-226542384.00000,   0.00000
-53766186.13761,-90929302.44639,137873106.82466,  -0.00242,  -0.00048,  -0.00013,251096528.00000,   0.00224,277061248.00000,  -0.00235,  -0.00017,  -0.00192,-225964720.00000,   0.00000
-49402192.16115,-87302884.91665,138927462.89914,  -0.00240,  -0.00047,  -0.00012,251724912.00000,   0.00224,277061248.00000,  -0.00235,  -0.00017,  -0.00192,-225336336.00000,   0.00000
-45038198.18469,-83676467.38692,139986547.02777,  -0.00239,  -0.00046,  -0.00010,252436752.00000,   0.00224,277061248.00000,  -0.00235,  -0.00017,  -0.00192,-224624496.00000,   0.00000
-40643471.85628,-80009861.39695,141040903.10226,  -0.00238,  -0.00045,  -0.00009,253208032.00000,   0.00224,277061248.00000,  -0.00235,  -0.00017,  -0.00192,-223853216.00000,   0.00000
-36248745.52788,-76343255.40698,142090531.12260,  -0.00237,  -0.00045,  -0.00008,254056416.00000,   0.00224,277061248.00000,  -0.00235,  -0.00017,  -0.00192,-223004832.00000,   0.00000
-31830378.92874,-72653009.14628,143140159.14294,  -0.00235,  -0.00044,  -0.00006,254988672.00000,   0.00224,277061248.00000,  -0.00235,  -0.00017,  -0.00192,-222072576.00000,   0.00000
-27404920.24839,-68946214.69607,144185059.10913,  -0.00234,  -0.00043,  -0.00005,255999792.00000,   0.00224,277061248.00000,  -0.00235,  -0.00017,  -0.00192,-221061456.00000,   0.00000
-22955821.29731,-65215779.97513,145229959.07533,  -0.00233,  -0.00042,  -0.00003,257093072.00000,   0.00224,277061248.00000,  -0.00235,  -0.00017,  -0.00192,-219968176.00000,   0.00000
-18499630.26501,-61468797.06468,146270130.98738,  -0.00231,  -0.00041,  -0.00002,258249872.00000,   0.00224,277061248.00000,  -0.00235,  -0.00017,  -0.00192,-218811376.00000,   0.00000
-14026891.04320,-57714722.07301,147310302.89943,  -0.00230,  -0.00040,  -0.00001,259467136.00000,   0.00224,277061248.00000,  -0.00235,  -0.00017,  -0.00192,-217594112.00000,   0.00000
-9547059.74017,-53944098.89184,148345746.75733,  -0.00229,  -0.00040,   0.00001,260714320.00000,   0.00224,277061248.00000,  -0.00235,  -0.00017,  -0.00192,-216346928.00000,   0.00000
-5043588.16641,-50149835.43993,149376462.56109,  -0.00228,  -0.00039,   0.00002,261975520.00000,   0.00224,277061248.00000,  -0.00235,  -0.00017,  -0.00192,-215085728.00000,   0.00000
-549572.70095,-46346115.87973,150407178.36484,  -0.00226,  -0.00038,   0.00003,263250480.00000,   0.00224,277061248.00000,  -0.00235,  -0.00017,  -0.00192,-213810768.00000,   0.00000
3984631.22475,-42511663.96759,151433166.11446,  -0.00225,  -0.00037,   0.00005,264534848.00000,   0.00224,277061248.00000,  -0.00235,  -0.00017,  -0.00192,-212526400.00000,   0.00000
8518835.15046,-38677212.05545,152459153.86407,  -0.00224,  -0.00036,   0.00006,265861984.00000,   0.00224,277061248.00000,  -0.00235,  -0.00017,  -0.00192,-211199264.00000,   0.00000
13060131.15738,-34826211.95379,153480413.55953,  -0.00222,  -0.00035,   0.00007,267251008.00000,   0.00224,277061248.00000,  -0.00235,  -0.00017,  -0.00192,-209810240.00000,   0.00000
17608519.24552,-30958663.66263,154501673.25500,  -0.00221,  -0.00034,   0.00009,268738592.00000,   0.00224,277061248.00000,  -0.00235,  -0.00017,  -0.00192,-208322656.00000,   0.00000
22180547.60439,-27067475.10074,155518204.89632,  -0.00220,  -0.00034,   0.00010,270336096.00000,   0.00224,277061248.00000,  -0.00235,  -0.00017,  -0.00192,-206725152.00000,   0.00000
26776216.23399,-23152646.26812,156530008.48349,  -0.00218,  -0.00033,   0.00011,272053472.00000,   0.00224,277061248.00000,  -0.00235,  -0.00017,  -0.00192,-205007776.00000,   0.00000
31371884.86358,-19237817.43550,157537084.01652,  -0.00217,  -0.00032,   0.00013,273893472.00000,   0.00224,277061248.00000,  -0.00235,  -0.00017,  -0.00192,-203167776.00000,   0.00000
35974645.57440,-15306440.41337,158544159.54955,  -0.00216,  -0.00031,   0.00014,275857408.00000,   0.00224,277061248.00000,  -0.00235,  -0.00017,  -0.00192,-201203840.00000,   0.00000
40584498.36643,-11358515.20173,159546507.02844,  -0.00214,  -0.00030,   0.00015,277927616.00000,   0.00224,277061248.00000,  -0.00235,  -0.00017,  -0.00192,-199133632.00000,   0.00000
45210899.34798,-7403497.90887,160548854.50732,  -0.00213,  -0.00029,   0.00016,280100000.00000,   0.00224,277061248.00000,  -0.00235,  -0.00017,  -0.00192,-196961248.00000,   0.00000
49868032.68147,-3408292.15578,161546473.93206,  -0.00212,  -0.00028,   0.00018,282348192.00000,   0.00224,277061248.00000,  -0.00235,  -0.00017,  -0.00192,-194713056.00000,   0.00000
54508617.82545,579821.51610,162539365.30265,  -0.00210,  -0.00027,   0.00019,284647808.00000,   0.00224,277061248.00000,  -0.00235,  -0.00017,  -0.00192,-192413440.00000,   0.00000
59172843.24016,4591575.45871,163527528.61910,  -0.00209,  -0.00026,   0.00020,286985440.00000,   0.00224,277061248.00000,  -0.00235,  -0.00017,  -0.00192,-190075808.00000,   0.00000
63853616.84438,8610421.48253,164515691.93554,  -0.00208,  -0.00025,   0.00022,289355232.00000,   0.00224,277061248.00000,  -0.00235,  -0.00017,  -0.00192,-187706016.00000,   0.00000
68524934.34031,12638723.61465,165499127.19784,  -0.00206,  -0.00025,   0.00023,291735872.00000,   0.00224,277061248.00000,  -0.00235,  -0.00017,  -0.00192,-185325376.00000,   0.00000
73219892.10696,16690666.01749,166477834.40600,  -0.00205,  -0.00024,   0.00024,294136096.00000,   0.00224,277061248.00000,  -0.00235,  -0.00017,  -0.00192,-182925152.00000,   0.00000
77938490.14435,20766248.69106,167456541.61415,  -0.00204,  -0.00023,   0.00025,296576224.00000,   0.00224,277061248.00000,  -0.00235,  -0.00017,  -0.00192,-180485024.00000,   0.00000
82640539.99222,24834739.28342,168425792.71402,  -0.00202,  -0.00022,   0.00027,299053696.00000,   0.00224,277061248.00000,  -0.00235,  -0.00017,  -0.00192,-178007552.00000,   0.00000
87366230.11082,28926870.14650,169395043.81388,  -0.00201,  -0.00021,   0.00028,301618720.00000,   0.00224,277061248.00000,  -0.00235,  -0.00017,  -0.00192,-175442528.00000,   0.00000
92099012.31065,33035549.19909,170364294.91374,  -0.00200,  -0.00020,   0.00029,304304736.00000,   0.00224,277061248.00000,  -0.00235,  -0.00017,  -0.00192,-172756512.00000,   0.00000
96855434.78120,37167868.52242,171324089.90531,  -0.00198,  -0.00019,   0.00030,307111424.00000,   0.00224,277061248.00000,  -0.00235,  -0.00017,  -0.00192,-169949824.00000,   0.00000
101611857.25175,41300187.84574,172283884.89689,  -0.00197,  -0.00018,   0.00032,309952224.00000,   0.00224,277061248.00000,  -0.00235,  -0.00017,  -0.00192,-167109024.00000,   0.00000
106375371.80352,45449055.35857,173234223.78017,  -0.00196,  -0.00017,   0.00033,312816480.00000,   0.00224,277061248.00000,  -0.00235,  -0.00017,  -0.00192,-164244768.00000,   0.00000
111138886.35528,49597922.87140,174184562.66345,  -0.00194,  -0.00016,   0.00034,315855616.00000,   0.00224,277061248.00000,  -0.00235,  -0.00017,  -0.00192,-161205632.00000,   0.00000
115926041.17778,53770430.65496,175134901.54673,  -0.00193,  -0.00015,   0.00035,319079456.00000,   0.00224,277061248.00000,  -0.00235,  -0.00017,  -0.00192,-157981792.00000,   0.00000
120720288.08150,57959486.62803,176075784.32172,  -0.00191,  -0.00014,   0.00037,322377984.00000,   0.00224,277061248.00000,  -0.00235,  -0.00017,  -0.00192,-154683264.00000,   0.00000
125521627.06643,62165090.79060,177016667.09671,  -0.00190,  -0.00013,   0.00038,325673632.00000,   0.00224,277061248.00000,  -0.00235,  -0.00017,  -0.00192,-151387616.00000,   0.00000
130339514.24087,66377787.03440,177948093.76341,  -0.00189,  -0.00012,   0.00039,328903392.00000,   0.00224,277061248.00000,  -0.00235,  -0.00017,  -0.00192,-148157856.00000,   0.00000
135140853.22581,70583391.19698,178879520.43011,  -0.00187,  -0.00011,   0.00040,332078176.00000,   0.00224,277061248.00000,  -0.00235,  -0.00017,  -0.00192,-144983072.00000,   0.00000
139972924.56269,74829183.81980,179806219.04266,  -0.00186,  -0.00010,   0.00042,335223008.00000,   0.00224,277061248.00000,  -0.00235,  -0.00017,  -0.00192,-141838240.00000,   0.00000
144804995.89957,79074976.44262,180728189.60106,  -0.00185,  -0.00009,   0.00043,338316128.00000,   0.00224,277061248.00000,  -0.00235,  -0.00017,  -0.00192,-138745120.00000,   0.00000
149660707.50718,83344409.33616,181650160.15947,  -0.00183,  -0.00008,   0.00044,341375904.00000,   0.00224,277061248.00000,  -0.00235,  -0.00017,  -0.00192,-135685344.00000,   0.00000
154499870.92528,87606750.14849,182562674.60959,  -0.00182,  -0.00007,   0.00045,344411904.00000,   0.00224,277061248.00000,  -0.00235,  -0.00017,  -0.00192,-132649344.00000,   0.00000
159362674.61411,91892731.23154,183475189.05970,  -0.00180,  -0.00006,   0.00046,347495008.00000,   0.00224,277061248.00000,  -0.00235,  -0.00017,  -0.00192,-129566240.00000,   0.00000
164225478.30293,96178712.31460,184378247.40153,  -0.00179,  -0.00005,   0.00047,350624256.00000,   0.00224,277061248.00000,  -0.00235,  -0.00017,  -0.00192,-126436992.00000,   0.00000
169095374.07298,100481241.58716,185281305.74335,  -0.00178,  -0.00004,   0.00049,353809376.00000,   0.00224,277061248.00000,  -0.00235,  -0.00017,  -0.00192,-123251872.00000,   0.00000
173988910.11376,104807411.13046,186179636.03103,  -0.00176,  -0.00003,   0.00050,357023104.00000,   0.00224,277061248.00000,  -0.00235,  -0.00017,  -0.00192,-120038144.00000,   0.00000
178882446.15453,109133580.67375,187073238.26456,  -0.00175,  -0.00002,   0.00051,360246784.00000,   0.00224,277061248.00000,  -0.00235,  -0.00017,  -0.00192,-116814464.00000,   0.00000
183766526.08701,113469206.32534,187962112.44395,  -0.00174,  -0.00001,   0.00052,363531616.00000,   0.00224,277061248.00000,  -0.00235,  -0.00017,  -0.00192,-113529632.00000,   0.00000
188667154.20901,117811924.05814,188846258.56919,  -0.00172,  -0.00000,   0.00053,366936000.00000,   0.00224,277061248.00000,  -0.00235,  -0.00017,  -0.00192,-110125248.00000,   0.00000
193574874.41222,122171189.98045,189725676.64029,  -0.00171,   0.00001,   0.00054,370364608.00000,   0.00224,277061248.00000,  -0.00235,  -0.00017,  -0.00192,-106696640.00000,   0.00000
198506234.88616,126554096.17349,190600366.65724,  -0.00169,   0.00002,   0.00056,373773632.00000,   0.00224,277061248.00000,  -0.00235,  -0.00017,  -0.00192,-103287616.00000,   0.00000
203421047.17059,130929910.28532,191470328.62004,  -0.00168,   0.00003,   0.00057,377246016.00000,   0.00224,277061248.00000,  -0.00235,  -0.00017,  -0.00192,-99815232.00000,   0.00000
208359499.72575,135329364.66787,192340290.58285,  -0.00167,   0.00004,   0.00058,380839136.00000,   0.00224,277061248.00000,  -0.00235,  -0.00017,  -0.00192,-96222112.00000,   0.00000
213297952.28091,139728819.05042,193200796.43736,  -0.00165,   0.00005,   0.00059,384477472.00000,   0.00224,277061248.00000,  -0.00235,  -0.00017,  -0.00192,-92583776.00000,   0.00000
218226948.72777,144137729.54126,194056574.23773,  -0.00164,   0.00006,   0.00060,388105632.00000,   0.00224,277061248.00000,  -0.00235,  -0.00017,  -0.00192,-88955616.00000,   0.00000
223172493.36415,148553732.11333,194912352.03809,  -0.00162,   0.00007,   0.00061,391708096.00000,   0.00224,277061248.00000,  -0.00235,  -0.00017,  -0.00192,-85353152.00000,   0.00000
228141678.27126,152993374.95611,195758673.73017,  -0.00161,   0.00008,   0.00062,395279584.00000,   0.00224,277061248.00000,  -0.00235,  -0.00017,  -0.00192,-81781664.00000,   0.00000
233094314.98885,157425925.71769,196600267.36810,  -0.00160,   0.00009,   0.00063,398848224.00000,   0.00224,277061248.00000,  -0.00235,  -0.00017,  -0.00192,-78213024.00000,   0.00000
238054043.78767,161875024.66877,197441861.00603,  -0.00158,   0.00010,   0.00064,402479680.00000,   0.00224,277061248.00000,  -0.00235,  -0.00017,  -0.00192,-74581568.00000,   0.00000
243030320.77599,166331215.70107,198273998.53567,  -0.00157,   0.00011,   0.00066,406189632.00000,   0.00224,277061248.00000,  -0.00235,  -0.00017,  -0.00192,-70871616.00000,   0.00000
247997141.65602,170796862.84166,199106136.06531,  -0.00156,   0.00012,   0.00067,409986816.00000,   0.00224,277061248.00000,  -0.00235,  -0.00017,  -0.00192,-67074432.00000,   0.00000
252980510.72557,175269602.06347,199928817.48666,  -0.00154,   0.00013,   0.00068,413856928.00000,   0.00224,277061248.00000,  -0.00235,  -0.00017,  -0.00192,-63204320.00000,   0.00000
