# sigma_xx, sigma_yy, sigma_xy, epsilon_xx, epsilon_yy, epsilon_xy, vonMises, epsPlastic, hardening, epsilonP__xx, epsilonP__yy, epsilonP__xy, yieldValue, iteration
   0.00000,   0.00000,   0.00000,   0.00000,   0.00000,   0.00000,1181185.37500,   0.00000,274640576.00000,   0.00000,   0.00000,   0.00000,-473459392.00000,   0.00000
   0.00000,   0.00000,   0.00000,   0.00000,   0.00000,   0.00000,1181185.37500,   0.00000,274640576.00000,   0.00000,   0.00000,   0.00000,-473459392.00000,   0.00000
803898.90971,-803898.90971,-1172352.57666,   0.00001,  -0.00001,  -0.00002,3309291.75000,   0.00000,274640576.00000,   0.00000,   0.00000,   0.00000,-471331296.00000,   0.00000
1620358.73989,-1578489.00501,-2336331.20635,   0.00001,  -0.00001,  -0.00003,7113780.00000,   0.00000,274640576.00000,   0.00000,   0.00000,   0.00000,-467526800.00000,   0.00000
2424257.64960,-2382387.91472,-3500309.83604,   0.00002,  -0.00002,  -0.00005,9730760.00000,   0.00000,274640576.00000,   0.00000,   0.00000,   0.00000,-464909824.00000,   0.00000
3211408.66536,-3169538.93048,-4664288.46573,   0.00002,  -0.00002,  -0.00006,11501269.00000,   0.00000,274640576.00000,   0.00000,   0.00000,   0.00000,-463139312.00000,   0.00000
3985998.76066,-3985998.76066,-5828267.09541,   0.00003,  -0.00003,  -0.00008,13040187.00000,   0.00000,274640576.00000,   0.00000,   0.00000,   0.00000,-461600384.00000,   0.00000
4760588.85595,-4802458.59083,-6983871.77812,   0.00003,  -0.00003,  -0.00009,14655129.00000,   0.00000,274640576.00000,   0.00000,   0.00000,   0.00000,-459985440.00000,   0.00000
5505870.13683,-5631479.34147,-8139476.46084,   0.00004,  -0.00004,  -0.00011,16436587.00000,   0.00000,274640576.00000,   0.00000,   0.00000,   0.00000,-458203984.00000,   0.00000
6251151.41771,-6460500.09211,-9295081.14355,   0.00004,  -0.00004,  -0.00012,18385748.00000,   0.00000,274640576.00000,   0.00000,   0.00000,   0.00000,-456254832.00000,   0.00000
6996432.69859,-7289520.84275,-10450685.82626,   0.00005,  -0.00005,  -0.00014,20479862.00000,   0.00000,274640576.00000,   0.00000,   0.00000,   0.00000,-454160720.00000,   0.00000
7712405.16505,-8131102.51386,-11597916.56199,   0.00005,  -0.00005,  -0.00015,22675836.00000,   0.00000,274640576.00000,   0.00000,   0.00000,   0.00000,-451964736.00000,   0.00000
8428377.63151,-8972684.18496,-12745147.29773,   0.00006,  -0.00006,  -0.00017,24959162.00000,   0.00000,274640576.00000,   0.00000,   0.00000,   0.00000,-449681408.00000,   0.00000
9144350.09798,-9814265.85607,-13892378.03346,   0.00006,  -0.00006,  -0.00018,27304250.00000,   0.00000,274640576.00000,   0.00000,   0.00000,   0.00000,-447336320.00000,   0.00000
9860322.56444,-10655847.52717,-15031234.82222,   0.00007,  -0.00007,  -0.00020,29676916.00000,   0.00000,274640576.00000,   0.00000,   0.00000,   0.00000,-444963664.00000,   0.00000
10546986.21648,-11509990.11874,-16178465.55796,   0.00007,  -0.00007,  -0.00021,32074332.00000,   0.00000,274640576.00000,   0.00000,   0.00000,   0.00000,-442566240.00000,   0.00000
11191780.13365,-12406002.44519,-17317322.34671,   0.00008,  -0.00008,  -0.00023,34466676.00000,   0.00000,274640576.00000,   0.00000,   0.00000,   0.00000,-440173904.00000,   0.00000
11878443.78569,-13260145.03676,-18456179.13547,   0.00008,  -0.00008,  -0.00024,36857456.00000,   0.00000,274640576.00000,   0.00000,   0.00000,   0.00000,-437783120.00000,   0.00000
12523237.70286,-14156157.36321,-19586661.97726,   0.00008,  -0.00009,  -0.00025,39230740.00000,   0.00000,274640576.00000,   0.00000,   0.00000,   0.00000,-435409840.00000,   0.00000
13180592.54049,-15022860.87524,-20717144.81904,   0.00009,  -0.00009,  -0.00027,41588320.00000,   0.00000,274640576.00000,   0.00000,   0.00000,   0.00000,-433052256.00000,   0.00000
13796077.64324,-15931434.12216,-21847627.66082,   0.00009,  -0.00010,  -0.00028,43941708.00000,   0.00000,274640576.00000,   0.00000,   0.00000,   0.00000,-430698864.00000,   0.00000
14411562.74598,-16840007.36907,-22978110.50260,   0.00010,  -0.00010,  -0.00030,46294136.00000,   0.00000,274640576.00000,   0.00000,   0.00000,   0.00000,-428346432.00000,   0.00000
15039608.76920,-17719271.80157,-24100219.39741,   0.00010,  -0.00011,  -0.00031,48629388.00000,   0.00000,274640576.00000,   0.00000,   0.00000,   0.00000,-426011184.00000,   0.00000
15655093.87195,-18627845.04849,-25222328.29222,   0.00011,  -0.00012,  -0.00033,50981772.00000,   0.00000,274640576.00000,   0.00000,   0.00000,   0.00000,-423658800.00000,   0.00000
16241270.16028,-19548979.21586,-26344437.18702,   0.00011,  -0.00012,  -0.00034,53338704.00000,   0.00000,274640576.00000,   0.00000,   0.00000,   0.00000,-421301872.00000,   0.00000
16827446.44861,-20470113.38324,-27458172.13485,   0.00012,  -0.00013,  -0.00036,55698196.00000,   0.00000,274640576.00000,   0.00000,   0.00000,   0.00000,-418942384.00000,   0.00000
17401061.81648,-21420556.36504,-28571907.08268,   0.00012,  -0.00013,  -0.00037,58081668.00000,   0.00000,274640576.00000,   0.00000,   0.00000,   0.00000,-416558912.00000,   0.00000
17987238.10481,-22341690.53242,-29685642.03051,   0.00013,  -0.00014,  -0.00039,60472284.00000,   0.00000,274640576.00000,   0.00000,   0.00000,   0.00000,-414168288.00000,   0.00000
18544105.57872,-23275385.62026,-30791003.03137,   0.00013,  -0.00014,  -0.00040,62856648.00000,   0.00000,274640576.00000,   0.00000,   0.00000,   0.00000,-411783936.00000,   0.00000
19100973.05264,-24209080.70810,-31896364.03222,   0.00013,  -0.00015,  -0.00041,65252892.00000,   0.00000,274640576.00000,   0.00000,   0.00000,   0.00000,-409387680.00000,   0.00000
19615970.79167,-25184645.53082,-33001725.03308,   0.00014,  -0.00015,  -0.00043,67658760.00000,   0.00000,274640576.00000,   0.00000,   0.00000,   0.00000,-406981824.00000,   0.00000
20160277.34512,-26147649.43308,-34107086.03393,   0.00014,  -0.00016,  -0.00044,70079104.00000,   0.00000,274640576.00000,   0.00000,   0.00000,   0.00000,-404561472.00000,   0.00000
20687836.00462,-27093905.44139,-35204073.08781,   0.00015,  -0.00016,  -0.00046,72475384.00000,   0.00000,274640576.00000,   0.00000,   0.00000,   0.00000,-402165184.00000,   0.00000
21202833.74366,-28069470.26411,-36301060.14169,   0.00015,  -0.00017,  -0.00047,74882232.00000,   0.00000,274640576.00000,   0.00000,   0.00000,   0.00000,-399758336.00000,   0.00000
21688522.66827,-29057596.00730,-37389673.24859,   0.00016,  -0.00017,  -0.00049,77269552.00000,   0.00000,274640576.00000,   0.00000,   0.00000,   0.00000,-397371024.00000,   0.00000
22174211.59289,-30045721.75049,-38478286.35549,   0.00016,  -0.00018,  -0.00050,79657040.00000,   0.00000,274640576.00000,   0.00000,   0.00000,   0.00000,-394983536.00000,   0.00000
22689209.33193,-31021286.57321,-39566899.46239,   0.00016,  -0.00019,  -0.00051,82051848.00000,   0.00000,274640576.00000,   0.00000,   0.00000,   0.00000,-392588736.00000,   0.00000
23145589.44213,-32021973.23687,-40647138.62232,   0.00017,  -0.00019,  -0.00053,84416704.00000,   0.00000,274640576.00000,   0.00000,   0.00000,   0.00000,-390223872.00000,   0.00000
23631278.36675,-33010098.98005,-41727377.78224,   0.00017,  -0.00020,  -0.00054,86787376.00000,   0.00000,274640576.00000,   0.00000,   0.00000,   0.00000,-387853200.00000,   0.00000
24087658.47695,-34010785.64371,-42807616.94217,   0.00018,  -0.00020,  -0.00056,89147392.00000,   0.00000,274640576.00000,   0.00000,   0.00000,   0.00000,-385493184.00000,   0.00000
24531477.66668,-35040781.12177,-43887856.10210,   0.00018,  -0.00021,  -0.00057,91512480.00000,   0.00000,274640576.00000,   0.00000,   0.00000,   0.00000,-383128096.00000,   0.00000
24987857.77688,-36041467.78543,-44959721.31504,   0.00018,  -0.00021,  -0.00058,93851216.00000,   0.00000,274640576.00000,   0.00000,   0.00000,   0.00000,-380789360.00000,   0.00000
25431676.96662,-37071463.26349,-46023212.58102,   0.00019,  -0.00022,  -0.00060,96180472.00000,   0.00000,274640576.00000,   0.00000,   0.00000,   0.00000,-378460096.00000,   0.00000
25846187.34194,-38114019.66203,-47095077.79397,   0.00019,  -0.00022,  -0.00061,98507632.00000,   0.00000,274640576.00000,   0.00000,   0.00000,   0.00000,-376132944.00000,   0.00000
26273258.63773,-39127267.24614,-48158569.05994,   0.00020,  -0.00023,  -0.00063,100804800.00000,   0.00000,274640576.00000,   0.00000,   0.00000,   0.00000,-373835776.00000,   0.00000
26687769.01305,-40169823.64468,-49213686.37894,   0.00020,  -0.00023,  -0.00064,103089896.00000,   0.00000,274640576.00000,   0.00000,   0.00000,   0.00000,-371550688.00000,   0.00000
27102279.38837,-41212380.04321,-50268803.69794,   0.00020,  -0.00024,  -0.00065,105365240.00000,   0.00000,274640576.00000,   0.00000,   0.00000,   0.00000,-369275328.00000,   0.00000
27487480.94927,-42267497.36221,-51323921.01693,   0.00021,  -0.00025,  -0.00067,107623712.00000,   0.00000,274640576.00000,   0.00000,   0.00000,   0.00000,-367016864.00000,   0.00000
27860121.58971,-43351923.49562,-52379038.33593,   0.00021,  -0.00025,  -0.00068,109882048.00000,   0.00000,274640576.00000,   0.00000,   0.00000,   0.00000,-364758528.00000,   0.00000
28245323.15061,-44407040.81462,-53425781.70795,   0.00022,  -0.00026,  -0.00069,112109712.00000,   0.00000,274640576.00000,   0.00000,   0.00000,   0.00000,-362530864.00000,   0.00000
28630524.71152,-45462158.13361,-54472525.07997,   0.00022,  -0.00026,  -0.00071,114329368.00000,   0.00000,274640576.00000,   0.00000,   0.00000,   0.00000,-360311200.00000,   0.00000
29003165.35196,-46546584.26703,-55510894.50502,   0.00022,  -0.00027,  -0.00072,116539800.00000,   0.00000,274640576.00000,   0.00000,   0.00000,   0.00000,-358100768.00000,   0.00000
29359058.09844,-47614262.50649,-56549263.93006,   0.00023,  -0.00027,  -0.00074,118728864.00000,   0.00000,274640576.00000,   0.00000,   0.00000,   0.00000,-355911712.00000,   0.00000
29702389.92447,-48711249.56037,-57579259.40813,   0.00023,  -0.00028,  -0.00075,120912240.00000,   0.00000,274640576.00000,   0.00000,   0.00000,   0.00000,-353728336.00000,   0.00000
30045721.75049,-49808236.61425,-58609254.88620,   0.00023,  -0.00029,  -0.00076,123093568.00000,   0.00000,274640576.00000,   0.00000,   0.00000,   0.00000,-351547008.00000,   0.00000
30389053.57651,-50905223.66812,-59639250.36427,   0.00024,  -0.00029,  -0.00078,125274560.00000,   0.00000,274640576.00000,   0.00000,   0.00000,   0.00000,-349366016.00000,   0.00000
30703076.58812,-52014771.64247,-60669245.84234,   0.00024,  -0.00030,  -0.00079,127450288.00000,   0.00000,274640576.00000,   0.00000,   0.00000,   0.00000,-347190288.00000,   0.00000
31046408.41414,-53111758.69634,-61690867.37343,   0.00024,  -0.00030,  -0.00080,129622496.00000,   0.00000,274640576.00000,   0.00000,   0.00000,   0.00000,-345018080.00000,   0.00000
31360431.42575,-54221306.67069,-62704114.95754,   0.00025,  -0.00031,  -0.00082,131779704.00000,   0.00000,274640576.00000,   0.00000,   0.00000,   0.00000,-342860864.00000,   0.00000
31674454.43735,-55330854.64503,-63717362.54166,   0.00025,  -0.00031,  -0.00083,133940344.00000,   0.00000,274640576.00000,   0.00000,   0.00000,   0.00000,-340700224.00000,   0.00000
31975916.52850,-56469711.43379,-64730610.12578,   0.00026,  -0.00032,  -0.00084,136114784.00000,   0.00000,274640576.00000,   0.00000,   0.00000,   0.00000,-338525792.00000,   0.00000
32260630.72569,-57591820.32859,-65735483.76292,   0.00026,  -0.00032,  -0.00085,138264992.00000,   0.00000,274640576.00000,   0.00000,   0.00000,   0.00000,-336375584.00000,   0.00000
32562092.81683,-58730677.11735,-66740357.40006,   0.00026,  -0.00033,  -0.00087,140434896.00000,   0.00000,274640576.00000,   0.00000,   0.00000,   0.00000,-334205680.00000,   0.00000
32834246.09355,-59882094.82658,-67745231.03720,   0.00027,  -0.00034,  -0.00088,142601760.00000,   0.00000,274640576.00000,   0.00000,   0.00000,   0.00000,-332038816.00000,   0.00000
33106399.37028,-61033512.53580,-68741730.72736,   0.00027,  -0.00034,  -0.00089,144758976.00000,   0.00000,274640576.00000,   0.00000,   0.00000,   0.00000,-329881600.00000,   0.00000
33378552.64700,-62184930.24502,-69729856.47055,   0.00027,  -0.00035,  -0.00091,146905984.00000,   0.00000,274640576.00000,   0.00000,   0.00000,   0.00000,-327734592.00000,   0.00000
33650705.92373,-63336347.95424,-70726356.16071,   0.00028,  -0.00035,  -0.00092,149065936.00000,   0.00000,274640576.00000,   0.00000,   0.00000,   0.00000,-325574640.00000,   0.00000
33893550.38604,-64500326.58393,-71706107.95692,   0.00028,  -0.00036,  -0.00093,151196208.00000,   0.00000,274640576.00000,   0.00000,   0.00000,   0.00000,-323444368.00000,   0.00000
34165703.66276,-65651744.29316,-72694233.70011,   0.00028,  -0.00037,  -0.00095,153344000.00000,   0.00000,274640576.00000,   0.00000,   0.00000,   0.00000,-321296576.00000,   0.00000
34395987.20461,-66845031.73726,-73673985.49632,   0.00029,  -0.00037,  -0.00096,155483568.00000,   0.00000,274640576.00000,   0.00000,   0.00000,   0.00000,-319157008.00000,   0.00000
34638831.66692,-68009010.36695,-74645363.34556,   0.00029,  -0.00038,  -0.00097,157599776.00000,   0.00000,274640576.00000,   0.00000,   0.00000,   0.00000,-317040800.00000,   0.00000
34869115.20876,-69202297.81105,-75616741.19479,   0.00029,  -0.00038,  -0.00098,159725120.00000,   0.00000,274640576.00000,   0.00000,   0.00000,   0.00000,-314915456.00000,   0.00000
35111959.67107,-70366276.44074,-76588119.04403,   0.00030,  -0.00039,  -0.00100,161838864.00000,   0.00000,274640576.00000,   0.00000,   0.00000,   0.00000,-312801712.00000,   0.00000
35342243.21292,-71559563.88484,-77551122.94629,   0.00030,  -0.00039,  -0.00101,163950000.00000,   0.00000,274640576.00000,   0.00000,   0.00000,   0.00000,-310690576.00000,   0.00000
35543217.94034,-72765412.24941,-78514126.84855,   0.00030,  -0.00040,  -0.00102,166054640.00000,   0.00000,274640576.00000,   0.00000,   0.00000,   0.00000,-308585936.00000,   0.00000
35773501.48219,-73958699.69351,-79468756.80383,   0.00031,  -0.00041,  -0.00103,168152704.00000,   0.00000,274640576.00000,   0.00000,   0.00000,   0.00000,-306487872.00000,   0.00000
35974476.20962,-75164548.05808,-80423386.75912,   0.00031,  -0.00041,  -0.00105,170244928.00000,   0.00000,274640576.00000,   0.00000,   0.00000,   0.00000,-304395648.00000,   0.00000
36162890.01658,-76399705.23707,-81369642.76742,   0.00031,  -0.00042,  -0.00106,172336256.00000,   0.00000,274640576.00000,   0.00000,   0.00000,   0.00000,-302304320.00000,   0.00000
36363864.74401,-77605553.60163,-82315898.77573,   0.00032,  -0.00042,  -0.00107,174417664.00000,   0.00000,274640576.00000,   0.00000,   0.00000,   0.00000,-300222912.00000,   0.00000
36564839.47144,-78811401.96620,-83262154.78404,   0.00032,  -0.00043,  -0.00108,176500000.00000,   0.00000,274640576.00000,   0.00000,   0.00000,   0.00000,-298140576.00000,   0.00000
36753253.27840,-80046559.14519,-84191662.89839,   0.00032,  -0.00044,  -0.00109,178570768.00000,   0.00000,274640576.00000,   0.00000,   0.00000,   0.00000,-296069808.00000,   0.00000
36912358.27095,-81294277.24464,-85129544.95972,   0.00033,  -0.00044,  -0.00111,180649360.00000,   0.00000,274640576.00000,   0.00000,   0.00000,   0.00000,-293991216.00000,   0.00000
37113332.99838,-82500125.60920,-86059053.07408,   0.00033,  -0.00045,  -0.00112,182712592.00000,   0.00000,274640576.00000,   0.00000,   0.00000,   0.00000,-291927984.00000,   0.00000
37272437.99092,-83747843.70865,-86988561.18843,   0.00033,  -0.00045,  -0.00113,184782768.00000,   0.00000,274640576.00000,   0.00000,   0.00000,   0.00000,-289857808.00000,   0.00000
37460851.79789,-84983000.88764,-87909695.35581,   0.00034,  -0.00046,  -0.00114,186848560.00000,   0.00000,274640576.00000,   0.00000,   0.00000,   0.00000,-287792016.00000,   0.00000
37619956.79043,-86230718.98709,-88822455.57621,   0.00034,  -0.00047,  -0.00115,188898448.00000,   0.00000,274640576.00000,   0.00000,   0.00000,   0.00000,-285742128.00000,   0.00000
37766500.86252,-87507745.90095,-89743589.74359,   0.00034,  -0.00047,  -0.00117,190972160.00000,   0.00000,274640576.00000,   0.00000,   0.00000,   0.00000,-283668416.00000,   0.00000
37925605.85506,-88755464.00040,-90647976.01702,   0.00035,  -0.00048,  -0.00118,193011776.00000,   0.00000,274640576.00000,   0.00000,   0.00000,   0.00000,-281628800.00000,   0.00000
38084710.84761,-90003182.09985,-91560736.23742,   0.00035,  -0.00048,  -0.00119,195062800.00000,   0.00000,274640576.00000,   0.00000,   0.00000,   0.00000,-279577776.00000,   0.00000
38231254.91969,-91280209.01372,-92456748.56387,   0.00035,  -0.00049,  -0.00120,197100000.00000,   0.00000,274640576.00000,   0.00000,   0.00000,   0.00000,-277540576.00000,   0.00000
38390359.91224,-92527927.11317,-93361134.83729,   0.00036,  -0.00050,  -0.00121,199135808.00000,   0.00000,274640576.00000,   0.00000,   0.00000,   0.00000,-275504768.00000,   0.00000
38507595.16991,-93817514.94750,-94248773.21677,   0.00036,  -0.00050,  -0.00123,201151392.00000,   0.00000,274640576.00000,   0.00000,   0.00000,   0.00000,-273489184.00000,   0.00000
38654139.24199,-95094541.86136,-95144785.54322,   0.00036,  -0.00051,  -0.00124,203182016.00000,   0.00000,274640576.00000,   0.00000,   0.00000,   0.00000,-271458560.00000,   0.00000
38800683.31407,-96371568.77523,-96024049.97572,   0.00036,  -0.00051,  -0.00125,205188304.00000,   0.00000,274640576.00000,   0.00000,   0.00000,   0.00000,-269452272.00000,   0.00000
38917918.57174,-97661156.60956,-96911688.35519,   0.00037,  -0.00052,  -0.00126,207201248.00000,   0.00000,274640576.00000,   0.00000,   0.00000,   0.00000,-267439328.00000,   0.00000
39035153.82941,-98950744.44389,-97790952.78769,   0.00037,  -0.00053,  -0.00127,209204976.00000,   0.00000,274640576.00000,   0.00000,   0.00000,   0.00000,-265435600.00000,   0.00000
39181697.90149,-100227771.35775,-98661843.27321,   0.00037,  -0.00053,  -0.00128,211206304.00000,   0.00000,274640576.00000,   0.00000,   0.00000,   0.00000,-263434272.00000,   0.00000
39298933.15916,-101517359.19208,-99532733.75873,   0.00038,  -0.00054,  -0.00129,213206336.00000,   0.00000,274640576.00000,   0.00000,   0.00000,   0.00000,-261434240.00000,   0.00000
39403607.49636,-102836255.84083,-100395250.29728,   0.00038,  -0.00054,  -0.00131,215210160.00000,   0.00000,274640576.00000,   0.00000,   0.00000,   0.00000,-259430416.00000,   0.00000
39520842.75402,-104125843.67516,-101257766.83582,   0.00038,  -0.00055,  -0.00132,217206240.00000,   0.00000,274640576.00000,   0.00000,   0.00000,   0.00000,-257434336.00000,   0.00000
39625517.09123,-105444740.32390,-102111909.42739,   0.00039,  -0.00056,  -0.00133,219204816.00000,   0.00000,274640576.00000,   0.00000,   0.00000,   0.00000,-255435760.00000,   0.00000
39742752.34889,-106734328.15823,-102966052.01896,   0.00039,  -0.00056,  -0.00134,221194192.00000,   0.00000,274640576.00000,   0.00000,   0.00000,   0.00000,-253446384.00000,   0.00000
39847426.68609,-108053224.80698,-103811820.66355,   0.00039,  -0.00057,  -0.00135,223184864.00000,   0.00000,274640576.00000,   0.00000,   0.00000,   0.00000,-251455712.00000,   0.00000
39952101.02330,-109372121.45573,-104657589.30814,   0.00040,  -0.00058,  -0.00136,225176880.00000,   0.00000,274640576.00000,   0.00000,   0.00000,   0.00000,-249463696.00000,   0.00000
40056775.36050,-110691018.10447,-105494984.00576,   0.00040,  -0.00058,  -0.00137,227158336.00000,   0.00000,274640576.00000,   0.00000,   0.00000,   0.00000,-247482240.00000,   0.00000
40161449.69770,-112009914.75322,-106332378.70338,   0.00040,  -0.00059,  -0.00138,229140912.00000,   0.00000,274640576.00000,   0.00000,   0.00000,   0.00000,-245499664.00000,   0.00000
40266124.03490,-113328811.40197,-107161399.45402,   0.00040,  -0.00059,  -0.00139,231112656.00000,   0.00000,274640576.00000,   0.00000,   0.00000,   0.00000,-243527920.00000,   0.00000
40341489.55769,-114660268.97118,-107990420.20466,   0.00041,  -0.00060,  -0.00140,233079728.00000,   0.00000,274640576.00000,   0.00000,   0.00000,   0.00000,-241560848.00000,   0.00000
40446163.89489,-115979165.61992,-108811067.00832,   0.00041,  -0.00061,  -0.00141,235040896.00000,   0.00000,274640576.00000,   0.00000,   0.00000,   0.00000,-239599680.00000,   0.00000
40538277.31163,-117327371.08309,-109623339.86501,   0.00041,  -0.00061,  -0.00143,237002528.00000,   0.00000,274640576.00000,   0.00000,   0.00000,   0.00000,-237638048.00000,   0.00000
40613642.83441,-118658828.65230,-110443986.66868,   0.00042,  -0.00062,  -0.00144,238958864.00000,   0.00000,274640576.00000,   0.00000,   0.00000,   0.00000,-235681712.00000,   0.00000
40705756.25115,-120007034.11546,-111247885.57839,   0.00042,  -0.00063,  -0.00145,240908784.00000,   0.00000,274640576.00000,   0.00000,   0.00000,   0.00000,-233731792.00000,   0.00000
40781121.77394,-121338491.68467,-112051784.48810,   0.00042,  -0.00063,  -0.00146,242841296.00000,   0.00000,274640576.00000,   0.00000,   0.00000,   0.00000,-231799280.00000,   0.00000
40873235.19067,-122686697.14783,-112855683.39781,   0.00043,  -0.00064,  -0.00147,244790128.00000,   0.00000,274640576.00000,   0.00000,   0.00000,   0.00000,-229850448.00000,   0.00000
40936039.79300,-124047463.53146,-113651208.36055,   0.00043,  -0.00064,  -0.00148,246721360.00000,   0.00000,274640576.00000,   0.00000,   0.00000,   0.00000,-227919216.00000,   0.00000
41028153.20973,-125395668.99462,-114438359.37631,   0.00043,  -0.00065,  -0.00149,248645136.00000,   0.00000,274640576.00000,   0.00000,   0.00000,   0.00000,-225995440.00000,   0.00000
41120266.62647,-126743874.45779,-115225510.39207,   0.00043,  -0.00066,  -0.00150,250567584.00000,   0.00000,274640576.00000,   0.00000,   0.00000,   0.00000,-224072992.00000,   0.00000
41183071.22879,-128104640.84141,-116004287.46085,   0.00044,  -0.00066,  -0.00151,252472400.00000,   0.00000,274640576.00000,   0.00000,   0.00000,   0.00000,-222168176.00000,   0.00000
41275184.64553,-129452846.30458,-116783064.52964,   0.00044,  -0.00067,  -0.00152,254381040.00000,   0.00000,274640576.00000,   0.00000,   0.00000,   0.00000,-220259536.00000,   0.00000
41337989.24785,-130813612.68820,-117553467.65144,   0.00044,  -0.00068,  -0.00153,256272192.00000,   0.00000,274640576.00000,   0.00000,   0.00000,   0.00000,-218368384.00000,   0.00000
41430102.66459,-132161818.15137,-118323870.77325,   0.00045,  -0.00068,  -0.00154,258167424.00000,   0.00000,274640576.00000,   0.00000,   0.00000,   0.00000,-216473152.00000,   0.00000
41492907.26691,-133522584.53499,-119085899.94808,   0.00045,  -0.00069,  -0.00155,260045488.00000,   0.00000,274640576.00000,   0.00000,   0.00000,   0.00000,-214595088.00000,   0.00000
41572459.76318,-134900098.81257,-119847929.12291,   0.00045,  -0.00069,  -0.00156,261940256.00000,   0.00000,274640576.00000,   0.00000,   0.00000,   0.00000,-212700320.00000,   0.00000
41635264.36551,-136260865.19620,-120601584.35077,   0.00046,  -0.00070,  -0.00157,263806544.00000,   0.00000,274640576.00000,   0.00000,   0.00000,   0.00000,-210834032.00000,   0.00000
41714816.86178,-137638379.47378,-121346865.63165,   0.00046,  -0.00071,  -0.00158,265678480.00000,   0.00000,274640576.00000,   0.00000,   0.00000,   0.00000,-208962096.00000,   0.00000
41777621.46410,-138999145.85741,-122092146.91253,   0.00046,  -0.00071,  -0.00159,267533744.00000,   0.00000,274640576.00000,   0.00000,   0.00000,   0.00000,-207106832.00000,   0.00000
41857173.96037,-140376660.13499,-122837428.19340,   0.00046,  -0.00072,  -0.00160,269406720.00000,   0.00000,274640576.00000,   0.00000,   0.00000,   0.00000,-205233856.00000,   0.00000
41919978.56270,-141737426.51862,-123574335.52731,   0.00047,  -0.00073,  -0.00161,271252288.00000,   0.00000,274640576.00000,   0.00000,   0.00000,   0.00000,-203388288.00000,   0.00000
41999531.05897,-143114940.79619,-124302868.91423,   0.00047,  -0.00073,  -0.00162,273104128.00000,   0.00000,274640576.00000,   0.00000,   0.00000,   0.00000,-201536448.00000,   0.00000
42049774.74083,-144505015.99424,-125031402.30116,   0.00047,  -0.00074,  -0.00163,274952288.00000,   0.00000,274640576.00000,   0.00000,   0.00000,   0.00000,-199688288.00000,   0.00000
42129327.23710,-145882530.27182,-125751561.74111,   0.00048,  -0.00075,  -0.00163,276794880.00000,   0.00000,274640576.00000,   0.00000,   0.00000,   0.00000,-197845696.00000,   0.00000
42208879.73337,-147260044.54940,-126463347.23409,   0.00048,  -0.00075,  -0.00164,278626976.00000,   0.00000,274640576.00000,   0.00000,   0.00000,   0.00000,-196013600.00000,   0.00000
42259123.41523,-148650119.74744,-127175132.72706,   0.00048,  -0.00076,  -0.00165,280455584.00000,   0.00000,274640576.00000,   0.00000,   0.00000,   0.00000,-194184992.00000,   0.00000
42338675.91150,-150027634.02502,-127886918.22003,   0.00049,  -0.00077,  -0.00166,282289568.00000,   0.00000,274640576.00000,   0.00000,   0.00000,   0.00000,-192351008.00000,   0.00000
42418228.40778,-151405148.30260,-128590329.76603,   0.00049,  -0.00077,  -0.00167,284112928.00000,   0.00000,274640576.00000,   0.00000,   0.00000,   0.00000,-190527648.00000,   0.00000
42497780.90405,-152782662.58018,-129285367.36505,   0.00049,  -0.00078,  -0.00168,285925632.00000,   0.00000,274640576.00000,   0.00000,   0.00000,   0.00000,-188714944.00000,   0.00000
42577333.40032,-154160176.85776,-129972031.01710,   0.00049,  -0.00078,  -0.00169,287727616.00000,   0.00000,274640576.00000,   0.00000,   0.00000,   0.00000,-186912960.00000,   0.00000
42627577.08218,-155550252.05580,-130667068.61612,   0.00050,  -0.00079,  -0.00170,289536928.00000,   0.00000,274640576.00000,   0.00000,   0.00000,   0.00000,-185103648.00000,   0.00000
42707129.57846,-156927766.33338,-131345358.32119,   0.00050,  -0.00080,  -0.00171,291328512.00000,   0.00000,274640576.00000,   0.00000,   0.00000,   0.00000,-183312064.00000,   0.00000
42786682.07473,-158305280.61096,-132023648.02626,   0.00050,  -0.00080,  -0.00172,293120608.00000,   0.00000,274640576.00000,   0.00000,   0.00000,   0.00000,-181519968.00000,   0.00000
42853673.65054,-159712103.70296,-132693563.78435,   0.00051,  -0.00081,  -0.00173,294914528.00000,   0.00000,274640576.00000,   0.00000,   0.00000,   0.00000,-179726048.00000,   0.00000
42933226.14681,-161089617.98054,-133363479.54245,   0.00051,  -0.00082,  -0.00173,296696288.00000,   0.00000,274640576.00000,   0.00000,   0.00000,   0.00000,-177944288.00000,   0.00000
43029526.53704,-162483880.15207,-134025021.35356,   0.00051,  -0.00082,  -0.00174,298484512.00000,   0.00000,274640576.00000,   0.00000,   0.00000,   0.00000,-176156064.00000,   0.00000
43109079.03331,-163861394.42965,-134686563.16468,   0.00052,  -0.00083,  -0.00175,300256096.00000,   0.00000,274640576.00000,   0.00000,   0.00000,   0.00000,-174384480.00000,   0.00000
43188631.52959,-165238908.70723,-135339731.02882,   0.00052,  -0.00084,  -0.00176,302017376.00000,   0.00000,274640576.00000,   0.00000,   0.00000,   0.00000,-172623200.00000,   0.00000
43255623.10539,-166645731.79923,-135984524.94599,   0.00052,  -0.00084,  -0.00177,303780992.00000,   0.00000,274640576.00000,   0.00000,   0.00000,   0.00000,-170859584.00000,   0.00000
43364484.41608,-168010685.15634,-136629318.86315,   0.00052,  -0.00085,  -0.00178,305537120.00000,   0.00000,274640576.00000,   0.00000,   0.00000,   0.00000,-169103456.00000,   0.00000
43431475.99189,-169417508.24834,-137265738.83334,   0.00053,  -0.00086,  -0.00178,307291744.00000,   0.00000,274640576.00000,   0.00000,   0.00000,   0.00000,-167348832.00000,   0.00000
43540337.30258,-170782461.60545,-137902158.80353,   0.00053,  -0.00086,  -0.00179,309038880.00000,   0.00000,274640576.00000,   0.00000,   0.00000,   0.00000,-165601696.00000,   0.00000
43607328.87839,-172189284.69745,-138530204.82674,   0.00053,  -0.00087,  -0.00180,310784640.00000,   0.00000,274640576.00000,   0.00000,   0.00000,   0.00000,-163855936.00000,   0.00000
43703629.26862,-173583546.86898,-139149876.90298,   0.00054,  -0.00088,  -0.00181,312524992.00000,   0.00000,274640576.00000,   0.00000,   0.00000,   0.00000,-162115584.00000,   0.00000
43783181.76489,-174961061.14656,-139769548.97922,   0.00054,  -0.00088,  -0.00182,314249120.00000,   0.00000,274640576.00000,   0.00000,   0.00000,   0.00000,-160391456.00000,   0.00000
43879482.15512,-176355323.31809,-140380847.10848,   0.00054,  -0.00089,  -0.00182,315980864.00000,   0.00000,274640576.00000,   0.00000,   0.00000,   0.00000,-158659712.00000,   0.00000
43988343.46581,-177720276.67521,-140992145.23774,   0.00055,  -0.00089,  -0.00183,317700416.00000,   0.00000,274640576.00000,   0.00000,   0.00000,   0.00000,-156940160.00000,   0.00000
44084643.85604,-179114538.84674,-141595069.42002,   0.00055,  -0.00090,  -0.00184,319423488.00000,   0.00000,274640576.00000,   0.00000,   0.00000,   0.00000,-155217088.00000,   0.00000
44180944.24626,-180508801.01827,-142189619.65533,   0.00055,  -0.00091,  -0.00185,321136128.00000,   0.00000,274640576.00000,   0.00000,   0.00000,   0.00000,-153504448.00000,   0.00000
44289805.55695,-181873754.37539,-142784169.89064,   0.00056,  -0.00091,  -0.00186,322836480.00000,   0.00000,274640576.00000,   0.00000,   0.00000,   0.00000,-151804096.00000,   0.00000
44386105.94718,-183268016.54692,-143370346.17897,   0.00056,  -0.00092,  -0.00186,324539872.00000,   0.00000,274640576.00000,   0.00000,   0.00000,   0.00000,-150100704.00000,   0.00000
44511715.15182,-184649717.79799,-143956522.46730,   0.00056,  -0.00093,  -0.00187,326248000.00000,   0.00000,274640576.00000,   0.00000,   0.00000,   0.00000,-148392576.00000,   0.00000
44620576.46251,-186014671.15510,-144534324.80866,   0.00057,  -0.00093,  -0.00188,327927904.00000,   0.00000,274640576.00000,   0.00000,   0.00000,   0.00000,-146712672.00000,   0.00000
44716876.85274,-187408933.32663,-145103753.20303,   0.00057,  -0.00094,  -0.00189,329610368.00000,   0.00000,274640576.00000,   0.00000,   0.00000,   0.00000,-145030208.00000,   0.00000
44842486.05738,-188790634.57770,-145673181.59741,   0.00057,  -0.00095,  -0.00189,331297504.00000,   0.00000,274640576.00000,   0.00000,   0.00000,   0.00000,-143343072.00000,   0.00000
44980656.18249,-190143027.01435,-146234236.04482,   0.00058,  -0.00095,  -0.00190,332960128.00000,   0.00000,274640576.00000,   0.00000,   0.00000,   0.00000,-141680448.00000,   0.00000
45076956.57271,-191537289.18589,-146786916.54524,   0.00058,  -0.00096,  -0.00191,334620896.00000,   0.00000,274640576.00000,   0.00000,   0.00000,   0.00000,-140019680.00000,   0.00000
45202565.77735,-192918990.43695,-147339597.04567,   0.00058,  -0.00097,  -0.00192,336286176.00000,   0.00000,274640576.00000,   0.00000,   0.00000,   0.00000,-138354400.00000,   0.00000
45340735.90246,-194271382.87360,-147892277.54610,   0.00059,  -0.00097,  -0.00192,337937888.00000,   0.00000,274640576.00000,   0.00000,   0.00000,   0.00000,-136702688.00000,   0.00000
45466345.10710,-195653084.12467,-148428210.15257,   0.00059,  -0.00098,  -0.00193,339581312.00000,   0.00000,274640576.00000,   0.00000,   0.00000,   0.00000,-135059264.00000,   0.00000
45604515.23221,-197005476.56132,-148964142.75905,   0.00059,  -0.00099,  -0.00194,341211296.00000,   0.00000,274640576.00000,   0.00000,   0.00000,   0.00000,-133429280.00000,   0.00000
45730124.43685,-198387177.81239,-149500075.36552,   0.00059,  -0.00099,  -0.00194,342855040.00000,   0.00000,274640576.00000,   0.00000,   0.00000,   0.00000,-131785536.00000,   0.00000
45897603.37638,-199727009.32858,-150019260.07805,   0.00060,  -0.00100,  -0.00195,344467680.00000,   0.00000,274640576.00000,   0.00000,   0.00000,   0.00000,-130172896.00000,   0.00000
46023212.58102,-201108710.57964,-150538444.79057,   0.00060,  -0.00100,  -0.00196,346090272.00000,   0.00000,274640576.00000,   0.00000,   0.00000,   0.00000,-128550304.00000,   0.00000
46190691.52054,-202448542.09583,-151057629.50309,   0.00060,  -0.00101,  -0.00196,347704160.00000,   0.00000,274640576.00000,   0.00000,   0.00000,   0.00000,-126936416.00000,   0.00000
46316300.72518,-203830243.34690,-151568440.26864,   0.00061,  -0.00102,  -0.00197,349316960.00000,   0.00000,274640576.00000,   0.00000,   0.00000,   0.00000,-125323616.00000,   0.00000
46483779.66471,-205170074.86309,-152070877.08721,   0.00061,  -0.00102,  -0.00198,350910240.00000,   0.00000,274640576.00000,   0.00000,   0.00000,   0.00000,-123730336.00000,   0.00000
46638697.68377,-206539215.19369,-152564939.95880,   0.00061,  -0.00103,  -0.00198,352507232.00000,   0.00000,274640576.00000,   0.00000,   0.00000,   0.00000,-122133344.00000,   0.00000
46806176.62329,-207879046.70988,-153059002.83039,   0.00062,  -0.00104,  -0.00199,354091392.00000,   0.00000,274640576.00000,   0.00000,   0.00000,   0.00000,-120549184.00000,   0.00000
46973655.56281,-209218878.22606,-153553065.70199,   0.00062,  -0.00104,  -0.00200,355676512.00000,   0.00000,274640576.00000,   0.00000,   0.00000,   0.00000,-118964064.00000,   0.00000
47128573.58187,-210588018.55667,-154030380.67963,   0.00063,  -0.00105,  -0.00200,357254656.00000,   0.00000,274640576.00000,   0.00000,   0.00000,   0.00000,-117385920.00000,   0.00000
47296052.52140,-211927850.07285,-154507695.65727,   0.00063,  -0.00106,  -0.00201,358820128.00000,   0.00000,274640576.00000,   0.00000,   0.00000,   0.00000,-115820448.00000,   0.00000
47492840.27534,-213255120.66858,-154985010.63491,   0.00063,  -0.00106,  -0.00201,360391008.00000,   0.00000,274640576.00000,   0.00000,   0.00000,   0.00000,-114249568.00000,   0.00000
47660319.21486,-214594952.18476,-155453951.66558,   0.00064,  -0.00107,  -0.00202,361947744.00000,   0.00000,274640576.00000,   0.00000,   0.00000,   0.00000,-112692832.00000,   0.00000
47857106.96880,-215922222.78049,-155914518.74927,   0.00064,  -0.00108,  -0.00203,363498944.00000,   0.00000,274640576.00000,   0.00000,   0.00000,   0.00000,-111141632.00000,   0.00000
48053894.72274,-217249493.37621,-156366711.88598,   0.00064,  -0.00108,  -0.00203,365040384.00000,   0.00000,274640576.00000,   0.00000,   0.00000,   0.00000,-109600192.00000,   0.00000
48250682.47668,-218576763.97193,-156818905.02269,   0.00065,  -0.00109,  -0.00204,366582816.00000,   0.00000,274640576.00000,   0.00000,   0.00000,   0.00000,-108057760.00000,   0.00000
48447470.23062,-219904034.56765,-157262724.21243,   0.00065,  -0.00110,  -0.00204,368115424.00000,   0.00000,274640576.00000,   0.00000,   0.00000,   0.00000,-106525152.00000,   0.00000
48644257.98456,-221231305.16338,-157706543.40217,   0.00065,  -0.00110,  -0.00205,369648640.00000,   0.00000,274640576.00000,   0.00000,   0.00000,   0.00000,-104991936.00000,   0.00000
48841045.73850,-222558575.75910,-158141988.64493,   0.00066,  -0.00111,  -0.00206,371171904.00000,   0.00000,274640576.00000,   0.00000,   0.00000,   0.00000,-103468672.00000,   0.00000
49079703.22732,-223843976.61994,-158569059.94071,   0.00066,  -0.00111,  -0.00206,372675136.00000,   0.00000,274640576.00000,   0.00000,   0.00000,   0.00000,-101965440.00000,   0.00000
49276490.98126,-225171247.21566,-158987757.28952,   0.00066,  -0.00112,  -0.00207,374178016.00000,   0.00000,274640576.00000,   0.00000,   0.00000,   0.00000,-100462560.00000,   0.00000
49515148.47008,-226456648.07650,-159406454.63833,   0.00067,  -0.00113,  -0.00207,375671360.00000,   0.00000,274640576.00000,   0.00000,   0.00000,   0.00000,-98969216.00000,   0.00000
49741245.03844,-227771357.75176,-159825151.98714,   0.00067,  -0.00113,  -0.00208,377179136.00000,   0.00000,274640576.00000,   0.00000,   0.00000,   0.00000,-97461440.00000,   0.00000
49979902.52726,-229056758.61260,-160227101.44199,   0.00067,  -0.00114,  -0.00208,378651872.00000,   0.00000,274640576.00000,   0.00000,   0.00000,   0.00000,-95988704.00000,   0.00000
50205999.09561,-230371468.28786,-160629050.89685,   0.00068,  -0.00115,  -0.00209,380138784.00000,   0.00000,274640576.00000,   0.00000,   0.00000,   0.00000,-94501792.00000,   0.00000
50444656.58443,-231656869.14870,-161031000.35171,   0.00068,  -0.00115,  -0.00209,381611968.00000,   0.00000,274640576.00000,   0.00000,   0.00000,   0.00000,-93028608.00000,   0.00000
50683314.07326,-232942270.00955,-161416201.91261,   0.00068,  -0.00116,  -0.00210,383064416.00000,   0.00000,274640576.00000,   0.00000,   0.00000,   0.00000,-91576160.00000,   0.00000
50921971.56208,-234227670.87039,-161809777.42049,   0.00069,  -0.00117,  -0.00210,384528160.00000,   0.00000,274640576.00000,   0.00000,   0.00000,   0.00000,-90112416.00000,   0.00000
51189937.86531,-235500510.81077,-162186605.03442,   0.00069,  -0.00117,  -0.00211,385976544.00000,   0.00000,274640576.00000,   0.00000,   0.00000,   0.00000,-88664032.00000,   0.00000
51457904.16855,-236773350.75114,-162563432.64834,   0.00070,  -0.00118,  -0.00211,387426272.00000,   0.00000,274640576.00000,   0.00000,   0.00000,   0.00000,-87214304.00000,   0.00000
51696561.65737,-238058751.61199,-162931886.31530,   0.00070,  -0.00118,  -0.00212,388862976.00000,   0.00000,274640576.00000,   0.00000,   0.00000,   0.00000,-85777600.00000,   0.00000
51977088.88107,-239302282.73795,-163291966.03527,   0.00070,  -0.00119,  -0.00212,390281248.00000,   0.00000,274640576.00000,   0.00000,   0.00000,   0.00000,-84359328.00000,   0.00000
52245055.18431,-240575122.67832,-163652045.75525,   0.00071,  -0.00120,  -0.00213,391715840.00000,   0.00000,274640576.00000,   0.00000,   0.00000,   0.00000,-82924736.00000,   0.00000
52554891.22243,-241806092.88382,-164003751.52825,   0.00071,  -0.00120,  -0.00213,393131744.00000,   0.00000,274640576.00000,   0.00000,   0.00000,   0.00000,-81508832.00000,   0.00000
52822857.52567,-243078932.82420,-164355457.30124,   0.00071,  -0.00121,  -0.00214,394559200.00000,   0.00000,274640576.00000,   0.00000,   0.00000,   0.00000,-80081376.00000,   0.00000
53103384.74937,-244322463.95016,-164690415.18029,   0.00072,  -0.00122,  -0.00214,395952448.00000,   0.00000,274640576.00000,   0.00000,   0.00000,   0.00000,-78688128.00000,   0.00000
53413220.78749,-245553434.15566,-165033747.00631,   0.00072,  -0.00122,  -0.00215,397361088.00000,   0.00000,274640576.00000,   0.00000,   0.00000,   0.00000,-77279488.00000,   0.00000
53723056.82560,-246784404.36115,-165360330.93838,   0.00073,  -0.00123,  -0.00215,398749472.00000,   0.00000,274640576.00000,   0.00000,   0.00000,   0.00000,-75891104.00000,   0.00000
54032892.86372,-248015374.56665,-165686914.87046,   0.00073,  -0.00123,  -0.00215,400137984.00000,   0.00000,274640576.00000,   0.00000,   0.00000,   0.00000,-74502592.00000,   0.00000
54342728.90184,-249246344.77215,-166005124.85555,   0.00073,  -0.00124,  -0.00216,401516640.00000,   0.00000,274640576.00000,   0.00000,   0.00000,   0.00000,-73123936.00000,   0.00000
54665125.86042,-250448006.16323,-166323334.84064,   0.00074,  -0.00125,  -0.00216,402881024.00000,   0.00000,274640576.00000,   0.00000,   0.00000,   0.00000,-71759552.00000,   0.00000
54974961.89854,-251678976.36872,-166633170.87876,   0.00074,  -0.00125,  -0.00217,404250496.00000,   0.00000,274640576.00000,   0.00000,   0.00000,   0.00000,-70390080.00000,   0.00000
55297358.85712,-252880637.75980,-166934632.96990,   0.00074,  -0.00126,  -0.00217,405595648.00000,   0.00000,274640576.00000,   0.00000,   0.00000,   0.00000,-69044928.00000,   0.00000
55649064.63012,-254069738.23042,-167227721.11407,   0.00075,  -0.00126,  -0.00217,406935968.00000,   0.00000,274640576.00000,   0.00000,   0.00000,   0.00000,-67704608.00000,   0.00000
56000770.40312,-255258838.70103,-167520809.25824,   0.00075,  -0.00127,  -0.00218,408277504.00000,   0.00000,274640576.00000,   0.00000,   0.00000,   0.00000,-66363072.00000,   0.00000
56323167.36170,-256460500.09211,-167813897.40240,   0.00076,  -0.00128,  -0.00218,409615520.00000,   0.00000,274640576.00000,   0.00000,   0.00000,   0.00000,-65025056.00000,   0.00000
56674873.13470,-257649600.56273,-168090237.65262,   0.00076,  -0.00128,  -0.00219,410938976.00000,   0.00000,274640576.00000,   0.00000,   0.00000,   0.00000,-63701600.00000,   0.00000
57026578.90770,-258838701.03335,-168366577.90283,   0.00076,  -0.00129,  -0.00219,412263712.00000,   0.00000,274640576.00000,   0.00000,   0.00000,   0.00000,-62376864.00000,   0.00000
57390845.60117,-259998492.68954,-168634544.20607,   0.00077,  -0.00129,  -0.00219,413564960.00000,   0.00000,274640576.00000,   0.00000,   0.00000,   0.00000,-61075616.00000,   0.00000
57771860.18858,-261175032.23970,-168902510.50930,   0.00077,  -0.00130,  -0.00220,414886784.00000,   0.00000,274640576.00000,   0.00000,   0.00000,   0.00000,-59753792.00000,   0.00000
58136126.88204,-262334823.89590,-169162102.86556,   0.00078,  -0.00131,  -0.00220,416180576.00000,   0.00000,274640576.00000,   0.00000,   0.00000,   0.00000,-58460000.00000,   0.00000
58529702.38992,-263482054.63163,-169413321.27485,   0.00078,  -0.00131,  -0.00220,417470048.00000,   0.00000,274640576.00000,   0.00000,   0.00000,   0.00000,-57170528.00000,   0.00000
58893969.08339,-264641846.28783,-169664539.68413,   0.00078,  -0.00132,  -0.00221,418756320.00000,   0.00000,274640576.00000,   0.00000,   0.00000,   0.00000,-55884256.00000,   0.00000
59287544.59127,-265789077.02356,-169907384.14644,   0.00079,  -0.00132,  -0.00221,420038080.00000,   0.00000,274640576.00000,   0.00000,   0.00000,   0.00000,-54602496.00000,   0.00000
59693681.01961,-266906998.94488,-170141854.66178,   0.00079,  -0.00133,  -0.00221,421296288.00000,   0.00000,274640576.00000,   0.00000,   0.00000,   0.00000,-53344288.00000,   0.00000
60087256.52749,-268054229.68062,-170376325.17711,   0.00080,  -0.00134,  -0.00221,422570464.00000,   0.00000,274640576.00000,   0.00000,   0.00000,   0.00000,-52070112.00000,   0.00000
60522701.77025,-269159590.68147,-170602421.74547,   0.00080,  -0.00134,  -0.00222,423825248.00000,   0.00000,274640576.00000,   0.00000,   0.00000,   0.00000,-50815328.00000,   0.00000
60928838.19860,-270277512.60279,-170820144.36685,   0.00080,  -0.00135,  -0.00222,425066432.00000,   0.00000,274640576.00000,   0.00000,   0.00000,   0.00000,-49574144.00000,   0.00000
61334974.62694,-271395434.52411,-171037866.98823,   0.00081,  -0.00135,  -0.00222,426308800.00000,   0.00000,274640576.00000,   0.00000,   0.00000,   0.00000,-48331776.00000,   0.00000
61770419.86970,-272500795.52496,-171247215.66263,   0.00081,  -0.00136,  -0.00223,427546592.00000,   0.00000,274640576.00000,   0.00000,   0.00000,   0.00000,-47093984.00000,   0.00000
62218426.03293,-273576847.71140,-171448190.39006,   0.00082,  -0.00137,  -0.00223,428760256.00000,   0.00000,274640576.00000,   0.00000,   0.00000,   0.00000,-45880320.00000,   0.00000
62666432.19615,-274652899.89784,-171649165.11749,   0.00082,  -0.00137,  -0.00223,429974784.00000,   0.00000,274640576.00000,   0.00000,   0.00000,   0.00000,-44665792.00000,   0.00000
63072568.62450,-275770821.81916,-171841765.89794,   0.00082,  -0.00138,  -0.00223,431190688.00000,   0.00000,274640576.00000,   0.00000,   0.00000,   0.00000,-43449888.00000,   0.00000
63549883.60214,-276834313.08513,-172034366.67839,   0.00083,  -0.00138,  -0.00224,432401664.00000,   0.00000,274640576.00000,   0.00000,   0.00000,   0.00000,-42238912.00000,   0.00000
64010450.68583,-277881056.45715,-172210219.56489,   0.00083,  -0.00139,  -0.00224,433574016.00000,   0.00000,274640576.00000,   0.00000,   0.00000,   0.00000,-41066560.00000,   0.00000
64458456.84905,-278957108.64359,-172386072.45139,   0.00084,  -0.00139,  -0.00224,434762112.00000,   0.00000,274640576.00000,   0.00000,   0.00000,   0.00000,-39878464.00000,   0.00000
64948332.74716,-279991291.09514,-172561925.33789,   0.00084,  -0.00140,  -0.00224,435940896.00000,   0.00000,274640576.00000,   0.00000,   0.00000,   0.00000,-38699680.00000,   0.00000
65396338.91038,-281067343.28158,-172729404.27741,   0.00085,  -0.00141,  -0.00225,437121184.00000,   0.00000,274640576.00000,   0.00000,   0.00000,   0.00000,-37519392.00000,   0.00000
65886214.80849,-282101525.73314,-172888509.26996,   0.00085,  -0.00141,  -0.00225,438282176.00000,   0.00000,274640576.00000,   0.00000,   0.00000,   0.00000,-36358400.00000,   0.00000
66388651.62706,-283106399.37028,-173039240.31553,   0.00085,  -0.00142,  -0.00225,439419136.00000,   0.00000,274640576.00000,   0.00000,   0.00000,   0.00000,-35221440.00000,   0.00000
66878527.52516,-284140581.82184,-173189971.36110,   0.00086,  -0.00142,  -0.00225,440572288.00000,   0.00000,274640576.00000,   0.00000,   0.00000,   0.00000,-34068288.00000,   0.00000
67380964.34373,-285145455.45898,-173332328.45970,   0.00086,  -0.00143,  -0.00225,441701728.00000,   0.00000,274640576.00000,   0.00000,   0.00000,   0.00000,-32938848.00000,   0.00000
67883401.16230,-286150329.09612,-173474685.55829,   0.00087,  -0.00143,  -0.00226,442832288.00000,   0.00000,274640576.00000,   0.00000,   0.00000,   0.00000,-31808288.00000,   0.00000
68385837.98087,-287155202.73326,-173600294.76293,   0.00087,  -0.00144,  -0.00226,443944448.00000,   0.00000,274640576.00000,   0.00000,   0.00000,   0.00000,-30696128.00000,   0.00000
68888274.79944,-288160076.37040,-173734277.91455,   0.00088,  -0.00145,  -0.00226,445067424.00000,   0.00000,274640576.00000,   0.00000,   0.00000,   0.00000,-29573152.00000,   0.00000
69420020.43243,-289152389.08707,-173851513.17222,   0.00088,  -0.00145,  -0.00226,446177248.00000,   0.00000,274640576.00000,   0.00000,   0.00000,   0.00000,-28463328.00000,   0.00000
69935018.17146,-290127953.90980,-173968748.42989,   0.00088,  -0.00146,  -0.00226,447268096.00000,   0.00000,274640576.00000,   0.00000,   0.00000,   0.00000,-27372480.00000,   0.00000
70479324.72492,-291090957.81206,-174077609.74058,   0.00089,  -0.00146,  -0.00226,448355296.00000,   0.00000,274640576.00000,   0.00000,   0.00000,   0.00000,-26285280.00000,   0.00000
71023631.27837,-292053961.71431,-174186471.05127,   0.00089,  -0.00147,  -0.00226,449443840.00000,   0.00000,274640576.00000,   0.00000,   0.00000,   0.00000,-25196736.00000,   0.00000
71580498.75228,-292987656.80216,-174286958.41498,   0.00090,  -0.00147,  -0.00227,450508480.00000,   0.00000,274640576.00000,   0.00000,   0.00000,   0.00000,-24132096.00000,   0.00000
72124805.30573,-293950660.70442,-174379071.83172,   0.00090,  -0.00148,  -0.00227,451579936.00000,   0.00000,274640576.00000,   0.00000,   0.00000,   0.00000,-23060640.00000,   0.00000
72681672.77965,-294884355.79226,-174471185.24846,   0.00091,  -0.00148,  -0.00227,452637280.00000,   0.00000,274640576.00000,   0.00000,   0.00000,   0.00000,-22003296.00000,   0.00000
73238540.25356,-295818050.88010,-174554924.71822,   0.00091,  -0.00149,  -0.00227,453685920.00000,   0.00000,274640576.00000,   0.00000,   0.00000,   0.00000,-20954656.00000,   0.00000
73807968.64794,-296722437.15353,-174630290.24100,   0.00091,  -0.00149,  -0.00227,454710720.00000,   0.00000,274640576.00000,   0.00000,   0.00000,   0.00000,-19929856.00000,   0.00000
74406705.85674,-297614262.50649,-174705655.76379,   0.00092,  -0.00150,  -0.00227,455741824.00000,   0.00000,274640576.00000,   0.00000,   0.00000,   0.00000,-18898752.00000,   0.00000
74963573.33065,-298547957.59433,-174772647.33960,   0.00092,  -0.00150,  -0.00227,456774752.00000,   0.00000,274640576.00000,   0.00000,   0.00000,   0.00000,-17865824.00000,   0.00000
75562310.53945,-299439782.94729,-174839638.91541,   0.00093,  -0.00151,  -0.00227,457798720.00000,   0.00000,274640576.00000,   0.00000,   0.00000,   0.00000,-16841856.00000,   0.00000
76144299.85429,-300314860.40630,-174889882.59726,   0.00093,  -0.00151,  -0.00227,458784256.00000,   0.00000,274640576.00000,   0.00000,   0.00000,   0.00000,-15856320.00000,   0.00000
76755597.98355,-301177376.94485,-174948500.22610,   0.00094,  -0.00152,  -0.00227,459786144.00000,   0.00000,274640576.00000,   0.00000,   0.00000,   0.00000,-14854432.00000,   0.00000
77354335.19235,-302069202.29781,-174990369.96098,   0.00094,  -0.00153,  -0.00227,460785920.00000,   0.00000,274640576.00000,   0.00000,   0.00000,   0.00000,-13854656.00000,   0.00000
77978194.24207,-302902410.02194,-175032239.69586,   0.00095,  -0.00153,  -0.00228,461756864.00000,   0.00000,274640576.00000,   0.00000,   0.00000,   0.00000,-12883712.00000,   0.00000
78589492.37133,-303764926.56049,-175065735.48376,   0.00095,  -0.00154,  -0.00228,462735744.00000,   0.00000,274640576.00000,   0.00000,   0.00000,   0.00000,-11904832.00000,   0.00000
79213351.42106,-304598134.28461,-175099231.27167,   0.00095,  -0.00154,  -0.00228,463701472.00000,   0.00000,274640576.00000,   0.00000,   0.00000,   0.00000,-10939104.00000,   0.00000
79837210.47078,-305431342.00874,-175124353.11260,   0.00096,  -0.00155,  -0.00228,464659936.00000,   0.00000,274640576.00000,   0.00000,   0.00000,   0.00000,-9980640.00000,   0.00000
80461069.52051,-306264549.73287,-175141101.00655,   0.00096,  -0.00155,  -0.00228,465611680.00000,   0.00000,274640576.00000,   0.00000,   0.00000,   0.00000,-9028896.00000,   0.00000
81114237.38465,-307085196.53654,-175157848.90050,   0.00097,  -0.00156,  -0.00228,466571168.00000,   0.00000,274640576.00000,   0.00000,   0.00000,   0.00000,-8069408.00000,   0.00000
81750657.35484,-307889095.44625,-175166222.84748,   0.00097,  -0.00156,  -0.00228,467502752.00000,   0.00000,274640576.00000,   0.00000,   0.00000,   0.00000,-7137824.00000,   0.00000
82387077.32503,-308692994.35596,-175174596.79445,   0.00098,  -0.00157,  -0.00228,468436768.00000,   0.00000,274640576.00000,   0.00000,   0.00000,   0.00000,-6203808.00000,   0.00000
83065367.03010,-309455023.53079,-175166222.84748,   0.00098,  -0.00157,  -0.00228,469343872.00000,   0.00000,274640576.00000,   0.00000,   0.00000,   0.00000,-5296704.00000,   0.00000
83701787.00028,-310258922.44050,-175166222.84748,   0.00099,  -0.00157,  -0.00228,470272096.00000,   0.00000,274640576.00000,   0.00000,   0.00000,   0.00000,-4368480.00000,   0.00000
84380076.70535,-311020951.61533,-175149474.95352,   0.00099,  -0.00158,  -0.00228,471173088.00000,   0.00000,274640576.00000,   0.00000,   0.00000,   0.00000,-3467488.00000,   0.00000
85058366.41042,-311782980.79017,-175132727.05957,   0.00099,  -0.00158,  -0.00228,472075200.00000,   0.00000,274640576.00000,   0.00000,   0.00000,   0.00000,-2565376.00000,   0.00000
85749217.03596,-312515701.15058,-175115979.16562,   0.00100,  -0.00159,  -0.00228,472962560.00000,   0.00000,274640576.00000,   0.00000,   0.00000,   0.00000,-1678016.00000,   0.00000
86398197.92661,-313290291.24588,-175082483.37772,   0.00100,  -0.00159,  -0.00228,473841920.00000,   0.00000,274640576.00000,   0.00000,   0.00000,   0.00000,-798656.00000,   0.00000
87049403.14693,-313941496.46619,-175059226.04842,   0.00101,  -0.00160,  -0.00228,474641536.00000,   0.00000,274640576.00000,   0.00000,   0.00000,   0.00000, 960.00000,   0.00000
87086643.96855,-313953068.85401,-175033112.69707,   0.00101,  -0.00160,  -0.00228,474641536.00000,   0.00000,274640896.00000,   0.00000,  -0.00000,  -0.00000,-320.00000,   1.00000
87579509.92422,-314149641.00461,-174672198.66480,   0.00101,  -0.00160,  -0.00228,475501696.00000,   0.00000,274644928.00000,   0.00000,  -0.00000,  -0.00000,   0.00000,   2.00000
88087948.80139,-314323986.19295,-174317164.06986,   0.00102,  -0.00161,  -0.00227,475491840.00000,   0.00001,274648928.00000,   0.00000,  -0.00001,  -0.00001, -32.00000,   2.00000
88598134.48139,-314502196.28123,-173957396.19837,   0.00102,  -0.00161,  -0.00227,475487808.00000,   0.00001,274652864.00000,   0.00001,  -0.00001,  -0.00001, 128.00000,   2.00000
89107887.47731,-314678643.91171,-173597691.60014,   0.00103,  -0.00162,  -0.00227,475492896.00000,   0.00001,274656832.00000,   0.00001,  -0.00001,  -0.00002, -32.00000,   2.00000
89619391.77931,-314859509.48774,-173233180.68235,   0.00103,  -0.00162,  -0.00227,475488576.00000,   0.00002,274660736.00000,   0.00001,  -0.00001,  -0.00002,   0.00000,   2.00000
90146553.26143,-315019564.95184,-172874507.23435,   0.00104,  -0.00163,  -0.00227,475477952.00000,   0.00002,274664576.00000,   0.00001,  -0.00002,  -0.00002,  32.00000,   2.00000
90703174.32713,-315167951.82609,-172508832.58619,   0.00104,  -0.00163,  -0.00227,475479552.00000,   0.00003,274668416.00000,   0.00001,  -0.00002,  -0.00003, -64.00000,   2.00000
91249402.67433,-315317450.34917,-172146050.94494,   0.00105,  -0.00163,  -0.00227,475454176.00000,   0.00003,274672128.00000,   0.00002,  -0.00002,  -0.00003,  96.00000,   2.00000
91794782.56816,-315465481.77593,-171783309.95642,   0.00105,  -0.00164,  -0.00227,475459392.00000,   0.00003,274675840.00000,   0.00002,  -0.00002,  -0.00004, -96.00000,   2.00000
92341394.68175,-315617761.27176,-171415597.34109,   0.00105,  -0.00164,  -0.00227,475455488.00000,   0.00004,274679520.00000,   0.00002,  -0.00003,  -0.00004,   0.00000,   2.00000
92889153.46447,-315774107.33121,-171042838.98976,   0.00106,  -0.00165,  -0.00227,475451712.00000,   0.00004,274683136.00000,   0.00002,  -0.00003,  -0.00004,  96.00000,   2.00000
93480083.15395,-315893250.66869,-170673724.39931,   0.00106,  -0.00165,  -0.00227,475447136.00000,   0.00004,274686752.00000,   0.00002,  -0.00003,  -0.00005, -64.00000,   2.00000
94044193.41418,-316032708.37742,-170301659.74467,   0.00107,  -0.00166,  -0.00226,475437568.00000,   0.00005,274690272.00000,   0.00002,  -0.00003,  -0.00005,  32.00000,   2.00000
94623572.07591,-316151249.17059,-169935325.62141,   0.00107,  -0.00166,  -0.00226,475427104.00000,   0.00005,274693760.00000,   0.00003,  -0.00004,  -0.00005,  32.00000,   2.00000
95215577.79586,-316276747.36333,-169556024.46176,   0.00108,  -0.00166,  -0.00226,475445120.00000,   0.00005,274697280.00000,   0.00003,  -0.00004,  -0.00006,  32.00000,   2.00000
95811274.97690,-316378415.10117,-169190216.91149,   0.00108,  -0.00167,  -0.00226,475412960.00000,   0.00005,274700672.00000,   0.00003,  -0.00004,  -0.00006, -32.00000,   2.00000
96391697.60444,-316503413.70605,-168813569.76163,   0.00109,  -0.00167,  -0.00226,475425056.00000,   0.00006,274704064.00000,   0.00003,  -0.00004,  -0.00006,  32.00000,   2.00000
97017375.24444,-316596946.84063,-168435265.16449,   0.00109,  -0.00168,  -0.00226,475411584.00000,   0.00006,274707392.00000,   0.00003,  -0.00005,  -0.00007, 128.00000,   2.00000
97614032.81932,-316705198.95614,-168059006.07365,   0.00110,  -0.00168,  -0.00226,475410880.00000,   0.00006,274710720.00000,   0.00003,  -0.00005,  -0.00007, -64.00000,   2.00000
98211728.31431,-316817627.21706,-167677526.39062,   0.00110,  -0.00168,  -0.00225,475407232.00000,   0.00007,274713984.00000,   0.00004,  -0.00005,  -0.00007,   0.00000,   2.00000
98852484.48427,-316893023.92327,-167299487.36677,   0.00111,  -0.00169,  -0.00225,475402624.00000,   0.00007,274717248.00000,   0.00004,  -0.00005,  -0.00008,  64.00000,   2.00000
99466327.28411,-316988872.37481,-166918192.29854,   0.00111,  -0.00169,  -0.00225,475393024.00000,   0.00007,274720416.00000,   0.00004,  -0.00006,  -0.00008, -64.00000,   2.00000
100095457.01541,-317064274.87217,-166542473.31418,   0.00111,  -0.00170,  -0.00225,475382176.00000,   0.00008,274723520.00000,   0.00004,  -0.00006,  -0.00008,  32.00000,   2.00000
100736802.03530,-317146567.91377,-166153612.16030,   0.00112,  -0.00170,  -0.00225,475400512.00000,   0.00008,274726720.00000,   0.00004,  -0.00006,  -0.00009,  96.00000,   2.00000
101367762.08705,-317230376.57994,-165767078.90762,   0.00112,  -0.00170,  -0.00224,475374976.00000,   0.00008,274729760.00000,   0.00004,  -0.00006,  -0.00009,   0.00000,   2.00000
102013949.83445,-317293692.19286,-165385963.08182,   0.00113,  -0.00171,  -0.00224,475364224.00000,   0.00008,274732768.00000,   0.00005,  -0.00007,  -0.00009,   0.00000,   2.00000
102661044.26093,-317361305.61979,-164999390.66502,   0.00113,  -0.00171,  -0.00224,475360480.00000,   0.00009,274735712.00000,   0.00005,  -0.00007,  -0.00009,  32.00000,   2.00000
103334524.19227,-317411106.15905,-164610481.40602,   0.00114,  -0.00172,  -0.00224,475371744.00000,   0.00009,274738688.00000,   0.00005,  -0.00007,  -0.00010,  96.00000,   2.00000
103981122.57776,-317481655.77382,-164218205.54535,   0.00114,  -0.00172,  -0.00224,475361920.00000,   0.00009,274741632.00000,   0.00005,  -0.00007,  -0.00010,  64.00000,   2.00000
104642956.64417,-317531782.70910,-163831253.07734,   0.00115,  -0.00172,  -0.00223,475351008.00000,   0.00009,274744480.00000,   0.00005,  -0.00007,  -0.00010,   0.00000,   2.00000
105322262.69684,-317567127.58464,-163444255.31817,   0.00115,  -0.00173,  -0.00223,475331328.00000,   0.00010,274747232.00000,   0.00005,  -0.00008,  -0.00011,  32.00000,   2.00000
105983536.77572,-317620318.84286,-163051527.56044,   0.00116,  -0.00173,  -0.00223,475352064.00000,   0.00010,274750080.00000,   0.00005,  -0.00008,  -0.00011,   0.00000,   2.00000
106662321.22573,-317658727.14365,-162658710.26258,   0.00116,  -0.00173,  -0.00223,475332448.00000,   0.00010,274752800.00000,   0.00006,  -0.00008,  -0.00011,  64.00000,   2.00000
107341843.42902,-317701201.17032,-162260147.95628,   0.00116,  -0.00174,  -0.00222,475328896.00000,   0.00010,274755520.00000,   0.00006,  -0.00008,  -0.00011, -64.00000,   2.00000
108036663.51110,-317723412.72983,-161866845.97474,   0.00117,  -0.00174,  -0.00222,475317728.00000,   0.00011,274758144.00000,   0.00006,  -0.00008,  -0.00012,  32.00000,   2.00000
108732225.53437,-317749765.77847,-161467790.78289,   0.00117,  -0.00174,  -0.00222,475314144.00000,   0.00011,274760768.00000,   0.00006,  -0.00009,  -0.00012,  32.00000,   2.00000
109443046.91332,-317755759.08516,-161073887.51311,   0.00118,  -0.00175,  -0.00222,475302944.00000,   0.00011,274763296.00000,   0.00006,  -0.00009,  -0.00012,  96.00000,   2.00000
110108036.18757,-317796319.84758,-160676492.12754,   0.00118,  -0.00175,  -0.00221,475317088.00000,   0.00011,274765920.00000,   0.00006,  -0.00009,  -0.00012, -96.00000,   2.00000
110837213.13245,-317791458.26165,-160276418.03195,   0.00119,  -0.00175,  -0.00221,475279552.00000,   0.00012,274768320.00000,   0.00006,  -0.00009,  -0.00013, -64.00000,   2.00000
111545667.04128,-317798985.31183,-159876084.25224,   0.00119,  -0.00176,  -0.00221,475308704.00000,   0.00012,274770848.00000,   0.00006,  -0.00009,  -0.00013,-128.00000,   2.00000
112244262.62011,-317808310.96437,-159477579.54305,   0.00120,  -0.00176,  -0.00220,475282496.00000,   0.00012,274773248.00000,   0.00007,  -0.00009,  -0.00013,   0.00000,   2.00000
112971012.53593,-317804806.60735,-159070911.58155,   0.00120,  -0.00176,  -0.00220,475285600.00000,   0.00012,274775648.00000,   0.00007,  -0.00010,  -0.00013,  64.00000,   2.00000
113685661.21027,-317797659.37874,-158671508.72649,   0.00121,  -0.00177,  -0.00220,475267680.00000,   0.00013,274777952.00000,   0.00007,  -0.00010,  -0.00013,  32.00000,   2.00000
114401041.05887,-317794451.32140,-158266158.12548,   0.00121,  -0.00177,  -0.00219,475263904.00000,   0.00013,274780256.00000,   0.00007,  -0.00010,  -0.00014, -32.00000,   2.00000
115114844.84997,-317789863.58779,-157860438.05198,   0.00121,  -0.00177,  -0.00219,475268512.00000,   0.00013,274782528.00000,   0.00007,  -0.00010,  -0.00014, -64.00000,   2.00000
115846430.07276,-317770028.11805,-157454068.03713,   0.00122,  -0.00177,  -0.00219,475248864.00000,   0.00013,274784736.00000,   0.00007,  -0.00010,  -0.00014,  64.00000,   2.00000
116576444.61187,-317748778.14311,-157047305.53624,   0.00122,  -0.00178,  -0.00218,475253568.00000,   0.00013,274786912.00000,   0.00007,  -0.00010,  -0.00014,  32.00000,   2.00000
117324265.11342,-317712041.77741,-156639729.73275,   0.00123,  -0.00178,  -0.00218,475234016.00000,   0.00014,274789024.00000,   0.00007,  -0.00011,  -0.00015, -96.00000,   2.00000
118070586.67216,-317673944.50842,-156231789.72343,   0.00123,  -0.00178,  -0.00218,475238496.00000,   0.00014,274791136.00000,   0.00008,  -0.00011,  -0.00015,  32.00000,   2.00000
118817739.22202,-317639540.00008,-155817761.89810,   0.00124,  -0.00179,  -0.00217,475234720.00000,   0.00014,274793216.00000,   0.00008,  -0.00011,  -0.00015, -64.00000,   2.00000
119553402.34562,-317601596.38667,-155410944.06638,   0.00124,  -0.00179,  -0.00217,475215936.00000,   0.00014,274795200.00000,   0.00008,  -0.00011,  -0.00015, -32.00000,   2.00000
120317233.48648,-317550223.87648,-154995666.76215,   0.00125,  -0.00179,  -0.00217,475219264.00000,   0.00014,274797184.00000,   0.00008,  -0.00011,  -0.00015,   0.00000,   2.00000
121052522.75285,-317514474.58421,-154582355.72663,   0.00125,  -0.00179,  -0.00216,475216224.00000,   0.00014,274799168.00000,   0.00008,  -0.00011,  -0.00015, -64.00000,   2.00000
121803826.88377,-317458178.84069,-154173922.85328,   0.00125,  -0.00180,  -0.00216,475204416.00000,   0.00015,274801056.00000,   0.00008,  -0.00012,  -0.00016, 128.00000,   2.00000
122558715.01949,-317410706.02420,-153753656.17197,   0.00126,  -0.00180,  -0.00216,475192320.00000,   0.00015,274802912.00000,   0.00008,  -0.00012,  -0.00016,  96.00000,   2.00000
123327288.22066,-317337381.00217,-153343892.17587,   0.00126,  -0.00180,  -0.00215,475188544.00000,   0.00015,274804736.00000,   0.00008,  -0.00012,  -0.00016,  32.00000,   2.00000
124097166.22302,-317267752.82876,-152928011.98022,   0.00127,  -0.00180,  -0.00215,475184224.00000,   0.00015,274806496.00000,   0.00008,  -0.00012,  -0.00016, -32.00000,   2.00000
124868459.20976,-317201925.87174,-152506071.49990,   0.00127,  -0.00181,  -0.00215,475179776.00000,   0.00015,274808256.00000,   0.00009,  -0.00012,  -0.00016,   0.00000,   2.00000
125626632.65964,-317127735.83795,-152097109.56027,   0.00128,  -0.00181,  -0.00214,475168160.00000,   0.00015,274809952.00000,   0.00009,  -0.00012,  -0.00016,  64.00000,   2.00000
126415738.79499,-317045101.96666,-151673832.58461,   0.00128,  -0.00181,  -0.00214,475163200.00000,   0.00016,274811616.00000,   0.00009,  -0.00012,  -0.00017, 160.00000,   2.00000
127194237.93843,-316959275.27903,-151257709.10345,   0.00128,  -0.00181,  -0.00213,475143328.00000,   0.00016,274813184.00000,   0.00009,  -0.00012,  -0.00017,   0.00000,   2.00000
127954453.61195,-316891409.15350,-150836220.30497,   0.00129,  -0.00182,  -0.00213,475162624.00000,   0.00016,274814848.00000,   0.00009,  -0.00013,  -0.00017, -32.00000,   2.00000
128750954.08997,-316788991.91713,-150418694.59713,   0.00129,  -0.00182,  -0.00212,475126560.00000,   0.00016,274816320.00000,   0.00009,  -0.00013,  -0.00017, -32.00000,   2.00000
129546461.27879,-316685342.95433,-150000809.92844,   0.00130,  -0.00182,  -0.00212,475129984.00000,   0.00016,274817792.00000,   0.00009,  -0.00013,  -0.00017,  64.00000,   2.00000
130313966.29068,-316597822.60569,-149584956.01771,   0.00130,  -0.00182,  -0.00212,475125856.00000,   0.00016,274819232.00000,   0.00009,  -0.00013,  -0.00017, -64.00000,   2.00000
131085258.47423,-316519013.93318,-149156934.55007,   0.00131,  -0.00183,  -0.00211,475113792.00000,   0.00016,274820608.00000,   0.00009,  -0.00013,  -0.00017,   0.00000,   2.00000
131897345.71937,-316397277.25487,-148736959.07239,   0.00131,  -0.00183,  -0.00211,475117248.00000,   0.00017,274822016.00000,   0.00009,  -0.00013,  -0.00017, -32.00000,   2.00000
132683760.57790,-316296602.67087,-148313022.43634,   0.00131,  -0.00183,  -0.00210,475105504.00000,   0.00017,274823360.00000,   0.00009,  -0.00013,  -0.00018,  64.00000,   2.00000
133486464.70152,-316175311.41798,-147893552.70452,   0.00132,  -0.00183,  -0.00210,475093440.00000,   0.00017,274824608.00000,   0.00009,  -0.00013,  -0.00018,  64.00000,   2.00000
134263583.58323,-316075076.58425,-147470083.47140,   0.00132,  -0.00183,  -0.00209,475081632.00000,   0.00017,274825824.00000,   0.00009,  -0.00013,  -0.00018,  32.00000,   2.00000
135083850.16603,-315936608.00822,-147048559.10997,   0.00133,  -0.00184,  -0.00209,475077408.00000,   0.00017,274827008.00000,   0.00010,  -0.00013,  -0.00018,   0.00000,   2.00000
135878594.34939,-315819138.80225,-146622977.36186,   0.00133,  -0.00184,  -0.00209,475065440.00000,   0.00017,274828128.00000,   0.00010,  -0.00014,  -0.00018,-128.00000,   2.00000
136669751.70885,-315695464.99851,-146202914.33670,   0.00133,  -0.00184,  -0.00208,475076800.00000,   0.00017,274829312.00000,   0.00010,  -0.00014,  -0.00018,  32.00000,   2.00000
137482331.55070,-315560707.36503,-145775175.21111,   0.00134,  -0.00184,  -0.00208,475049216.00000,   0.00017,274830336.00000,   0.00010,  -0.00014,  -0.00018, -64.00000,   2.00000
138266833.27457,-315441586.02656,-145349119.50764,   0.00134,  -0.00184,  -0.00207,475044448.00000,   0.00017,274831328.00000,   0.00010,  -0.00014,  -0.00018,-896.00000,   1.00000
139077513.11080,-315304518.01068,-144920636.60238,   0.00135,  -0.00184,  -0.00207,475055072.00000,   0.00017,274832384.00000,   0.00010,  -0.00014,  -0.00018,  96.00000,   2.00000
139877577.00444,-315163212.75431,-144498390.99639,   0.00135,  -0.00185,  -0.00206,475035456.00000,   0.00018,274833344.00000,   0.00010,  -0.00014,  -0.00018,-928.00000,   1.00000
140679390.19298,-315025851.79358,-144069860.58223,   0.00135,  -0.00185,  -0.00206,475030240.00000,   0.00018,274834272.00000,   0.00010,  -0.00014,  -0.00019,-960.00000,   1.00000
141497969.16398,-314867815.90791,-143645650.31298,   0.00136,  -0.00185,  -0.00205,475017600.00000,   0.00018,274835136.00000,   0.00010,  -0.00014,  -0.00019,-832.00000,   1.00000
142291470.45335,-314730875.70473,-143217333.74238,   0.00136,  -0.00185,  -0.00205,475004992.00000,   0.00018,274835936.00000,   0.00010,  -0.00014,  -0.00019,-736.00000,   1.00000
143128256.71497,-314555254.53597,-142790689.15520,   0.00137,  -0.00185,  -0.00204,475000800.00000,   0.00018,274836704.00000,   0.00010,  -0.00014,  -0.00019,-704.00000,   1.00000
143937546.67705,-314396047.25353,-142366034.58170,   0.00137,  -0.00185,  -0.00204,474995488.00000,   0.00018,274837472.00000,   0.00010,  -0.00014,  -0.00019,-864.00000,   1.00000
144748392.38402,-314240152.99048,-141934736.36363,   0.00137,  -0.00185,  -0.00203,474991008.00000,   0.00018,274838176.00000,   0.00010,  -0.00014,  -0.00019,-704.00000,   1.00000
145531807.40602,-314100661.19884,-141505417.05949,   0.00138,  -0.00186,  -0.00203,474985600.00000,   0.00018,274838880.00000,   0.00010,  -0.00014,  -0.00019,-704.00000,   1.00000
146352694.23005,-313925989.04298,-141078897.65571,   0.00138,  -0.00186,  -0.00202,474949312.00000,   0.00018,274839392.00000,   0.00010,  -0.00014,  -0.00019,-544.00000,   1.00000
147154697.71898,-313769084.65064,-140647077.43982,   0.00138,  -0.00186,  -0.00202,474968000.00000,   0.00018,274840000.00000,   0.00010,  -0.00014,  -0.00019,-576.00000,   1.00000
147973797.07567,-313591586.47331,-140219454.13768,   0.00139,  -0.00186,  -0.00201,474954848.00000,   0.00018,274840544.00000,   0.00010,  -0.00014,  -0.00019,-512.00000,   1.00000
148791969.35162,-313412640.04489,-139791262.91437,   0.00139,  -0.00186,  -0.00201,474957664.00000,   0.00018,274841088.00000,   0.00010,  -0.00015,  -0.00019,-512.00000,   1.00000
149603465.64510,-313235767.77084,-139363553.71496,   0.00140,  -0.00186,  -0.00200,474928512.00000,   0.00018,274841504.00000,   0.00010,  -0.00015,  -0.00019,-416.00000,   1.00000
150414108.90822,-313057529.53506,-138935292.53258,   0.00140,  -0.00186,  -0.00200,474931072.00000,   0.00018,274841920.00000,   0.00010,  -0.00015,  -0.00019,-288.00000,   1.00000
151226389.90226,-312882489.65807,-138500219.52131,   0.00140,  -0.00186,  -0.00199,474926432.00000,   0.00018,274842336.00000,   0.00010,  -0.00015,  -0.00019,-480.00000,   1.00000
152029641.78924,-312704969.61833,-138071789.77785,   0.00141,  -0.00187,  -0.00199,474904352.00000,   0.00018,274842624.00000,   0.00010,  -0.00015,  -0.00019,-320.00000,   1.00000
152850106.92560,-312506754.64666,-137647362.60918,   0.00141,  -0.00187,  -0.00198,474891072.00000,   0.00018,274842848.00000,   0.00010,  -0.00015,  -0.00019,-128.00000,   1.00000
153651578.34752,-312326339.71329,-137217712.08007,   0.00141,  -0.00187,  -0.00198,474909440.00000,   0.00018,274843168.00000,   0.00011,  -0.00015,  -0.00019,-288.00000,   1.00000
154446679.95967,-312148035.58592,-136788348.48188,   0.00142,  -0.00187,  -0.00197,474880032.00000,   0.00018,274843328.00000,   0.00011,  -0.00015,  -0.00019,-192.00000,   1.00000
155285289.12595,-311930916.84540,-136360400.49078,   0.00142,  -0.00187,  -0.00197,474875392.00000,   0.00018,274843488.00000,   0.00011,  -0.00015,  -0.00019,-256.00000,   1.00000
156099429.88259,-311735087.31387,-135928064.45402,   0.00142,  -0.00187,  -0.00196,474861792.00000,   0.00019,274843584.00000,   0.00011,  -0.00015,  -0.00019,-160.00000,   1.00000
156883982.35430,-311551375.72260,-135503916.48066,   0.00143,  -0.00187,  -0.00195,474862592.00000,   0.00019,274843680.00000,   0.00011,  -0.00015,  -0.00019,-160.00000,   1.00000
157687881.26401,-311350400.99518,-135076845.18488,   0.00143,  -0.00187,  -0.00195,474841920.00000,   0.00019,274843680.00000,   0.00011,  -0.00015,  -0.00019,-1760.00000,   0.00000
158491780.17373,-311149426.26775,-134641399.94212,   0.00143,  -0.00187,  -0.00194,474835424.00000,   0.00019,274843680.00000,   0.00011,  -0.00015,  -0.00019,-8256.00000,   0.00000
159295679.08344,-310948451.54032,-134214328.64633,   0.00144,  -0.00187,  -0.00194,474838432.00000,   0.00019,274843680.00000,   0.00011,  -0.00015,  -0.00019,-5248.00000,   0.00000
160082830.09920,-310730728.91894,-133778883.40357,   0.00144,  -0.00187,  -0.00193,474811968.00000,   0.00019,274843680.00000,   0.00011,  -0.00015,  -0.00019,-31712.00000,   0.00000
160869981.11496,-310513006.29756,-133343438.16081,   0.00144,  -0.00187,  -0.00193,474787840.00000,   0.00019,274843680.00000,   0.00011,  -0.00015,  -0.00019,-55840.00000,   0.00000
161669693.05118,-310265974.86176,-132899618.97107,   0.00145,  -0.00187,  -0.00192,474743392.00000,   0.00019,274843680.00000,   0.00011,  -0.00015,  -0.00019,-100288.00000,   0.00000
162440096.17299,-310031504.34643,-132464173.72831,   0.00145,  -0.00187,  -0.00191,474699200.00000,   0.00019,274843680.00000,   0.00011,  -0.00015,  -0.00019,-144480.00000,   0.00000
163210499.29480,-309797033.83110,-132020354.53858,   0.00145,  -0.00187,  -0.00191,474650432.00000,   0.00019,274843680.00000,   0.00011,  -0.00015,  -0.00019,-193248.00000,   0.00000
163993463.33707,-309533254.50135,-131568161.40186,   0.00146,  -0.00188,  -0.00190,474581536.00000,   0.00019,274843680.00000,   0.00011,  -0.00015,  -0.00019,-262144.00000,   0.00000
164747118.56492,-309282036.09206,-131124342.21213,   0.00146,  -0.00188,  -0.00190,474512704.00000,   0.00019,274843680.00000,   0.00011,  -0.00015,  -0.00019,-330976.00000,   0.00000
165513334.71324,-309001508.86836,-130672149.07541,   0.00146,  -0.00188,  -0.00189,474423712.00000,   0.00019,274843680.00000,   0.00011,  -0.00015,  -0.00019,-419968.00000,   0.00000
166279550.86156,-308720981.64466,-130219955.93870,   0.00146,  -0.00188,  -0.00189,474337152.00000,   0.00019,274843680.00000,   0.00011,  -0.00015,  -0.00019,-506528.00000,   0.00000
167016458.19547,-308453015.34142,-129767762.80199,   0.00147,  -0.00188,  -0.00188,474243552.00000,   0.00019,274843680.00000,   0.00011,  -0.00015,  -0.00019,-600128.00000,   0.00000
167765926.44983,-308155740.22377,-129315569.66527,   0.00147,  -0.00188,  -0.00187,474136768.00000,   0.00019,274843680.00000,   0.00011,  -0.00015,  -0.00019,-706912.00000,   0.00000
168486085.88978,-307871026.02658,-128855002.58158,   0.00147,  -0.00188,  -0.00187,474015808.00000,   0.00019,274843680.00000,   0.00011,  -0.00015,  -0.00019,-827872.00000,   0.00000
169206245.32973,-307586311.82939,-128394435.49789,   0.00148,  -0.00188,  -0.00186,473897184.00000,   0.00019,274843680.00000,   0.00011,  -0.00015,  -0.00019,-946496.00000,   0.00000
169938965.69015,-307272288.81778,-127933868.41421,   0.00148,  -0.00188,  -0.00186,473765280.00000,   0.00019,274843680.00000,   0.00011,  -0.00015,  -0.00019,-1078400.00000,   0.00000
170642377.23615,-306970826.72664,-127473301.33052,   0.00148,  -0.00188,  -0.00185,473625856.00000,   0.00019,274843680.00000,   0.00011,  -0.00015,  -0.00019,-1217824.00000,   0.00000
171358349.70261,-306640055.82108,-127004360.29985,   0.00148,  -0.00188,  -0.00184,473466112.00000,   0.00019,274843680.00000,   0.00011,  -0.00015,  -0.00019,-1377568.00000,   0.00000
172074322.16907,-306309284.91552,-126535419.26919,   0.00149,  -0.00188,  -0.00184,473308672.00000,   0.00019,274843680.00000,   0.00011,  -0.00015,  -0.00019,-1535008.00000,   0.00000
172760985.82112,-305991074.93043,-126066478.23852,   0.00149,  -0.00188,  -0.00183,473143552.00000,   0.00019,274843680.00000,   0.00011,  -0.00015,  -0.00019,-1700128.00000,   0.00000
173460210.39363,-305643556.13092,-125597537.20785,   0.00149,  -0.00188,  -0.00183,472964800.00000,   0.00019,274843680.00000,   0.00011,  -0.00015,  -0.00019,-1878880.00000,   0.00000
174130126.15172,-305308598.25187,-125128596.17719,   0.00149,  -0.00188,  -0.00182,472778144.00000,   0.00019,274843680.00000,   0.00011,  -0.00015,  -0.00019,-2065536.00000,   0.00000
174812602.83028,-304944331.55841,-124651281.19955,   0.00150,  -0.00188,  -0.00181,472571040.00000,   0.00019,274843680.00000,   0.00011,  -0.00015,  -0.00019,-2272640.00000,   0.00000
175465770.69442,-304592625.78541,-124173966.22191,   0.00150,  -0.00188,  -0.00181,472355968.00000,   0.00019,274843680.00000,   0.00011,  -0.00015,  -0.00019,-2487712.00000,   0.00000
176118938.55856,-304240920.01241,-123696651.24426,   0.00150,  -0.00187,  -0.00180,472142720.00000,   0.00019,274843680.00000,   0.00011,  -0.00015,  -0.00019,-2700960.00000,   0.00000
176772106.42270,-303889214.23941,-123219336.26662,   0.00150,  -0.00187,  -0.00179,471931072.00000,   0.00019,274843680.00000,   0.00011,  -0.00015,  -0.00019,-2912608.00000,   0.00000
177408526.39289,-303520760.57246,-122742021.28898,   0.00150,  -0.00187,  -0.00179,471695744.00000,   0.00019,274843680.00000,   0.00011,  -0.00015,  -0.00019,-3147936.00000,   0.00000
178057507.28354,-303122998.09109,-122256332.36436,   0.00151,  -0.00187,  -0.00178,471439968.00000,   0.00019,274843680.00000,   0.00011,  -0.00015,  -0.00019,-3403712.00000,   0.00000
178664618.43931,-302767105.34460,-121779017.38672,   0.00151,  -0.00187,  -0.00178,471197824.00000,   0.00019,274843680.00000,   0.00011,  -0.00015,  -0.00019,-3645856.00000,   0.00000
179296851.43602,-302352594.96928,-121293328.46210,   0.00151,  -0.00187,  -0.00177,470919776.00000,   0.00019,274843680.00000,   0.00011,  -0.00015,  -0.00019,-3923904.00000,   0.00000
179916523.51225,-301967393.40838,-120807639.53749,   0.00151,  -0.00187,  -0.00176,470658880.00000,   0.00019,274843680.00000,   0.00011,  -0.00015,  -0.00019,-4184800.00000,   0.00000
180519447.69454,-301565443.95352,-120321950.61287,   0.00151,  -0.00187,  -0.00176,470374048.00000,   0.00019,274843680.00000,   0.00011,  -0.00015,  -0.00019,-4469632.00000,   0.00000
181093063.06240,-301176055.41913,-119836261.68825,   0.00152,  -0.00187,  -0.00175,470080576.00000,   0.00019,274843680.00000,   0.00011,  -0.00015,  -0.00019,-4763104.00000,   0.00000
181666678.43027,-300786666.88474,-119342198.81666,   0.00152,  -0.00187,  -0.00174,469782496.00000,   0.00019,274843680.00000,   0.00011,  -0.00015,  -0.00019,-5061184.00000,   0.00000
182252854.71860,-300367969.53593,-118856509.89204,   0.00152,  -0.00187,  -0.00174,469476896.00000,   0.00019,274843680.00000,   0.00011,  -0.00015,  -0.00019,-5366784.00000,   0.00000
182809722.19252,-299961833.10759,-118362447.02045,   0.00152,  -0.00187,  -0.00173,469156352.00000,   0.00019,274843680.00000,   0.00011,  -0.00015,  -0.00019,-5687328.00000,   0.00000
183379150.58690,-299526387.86483,-117868384.14885,   0.00152,  -0.00187,  -0.00173,468821952.00000,   0.00019,274843680.00000,   0.00011,  -0.00015,  -0.00019,-6021728.00000,   0.00000
183919270.16686,-299103503.54253,-117374321.27726,   0.00153,  -0.00187,  -0.00172,468479072.00000,   0.00019,274843680.00000,   0.00011,  -0.00015,  -0.00019,-6364608.00000,   0.00000
184459389.74682,-298680619.22023,-116880258.40566,   0.00153,  -0.00187,  -0.00171,468137792.00000,   0.00019,274843680.00000,   0.00011,  -0.00015,  -0.00019,-6705888.00000,   0.00000
184982761.43283,-298240987.00399,-116386195.53407,   0.00153,  -0.00186,  -0.00171,467772704.00000,   0.00019,274843680.00000,   0.00011,  -0.00015,  -0.00019,-7070976.00000,   0.00000
185506133.11884,-297801354.78774,-115892132.66248,   0.00153,  -0.00186,  -0.00170,467409056.00000,   0.00019,274843680.00000,   0.00011,  -0.00015,  -0.00019,-7434624.00000,   0.00000
186000195.99044,-297374283.49195,-115389695.84391,   0.00153,  -0.00186,  -0.00169,467030848.00000,   0.00019,274843680.00000,   0.00011,  -0.00015,  -0.00019,-7812832.00000,   0.00000
186494258.86203,-296947212.19617,-114895632.97231,   0.00153,  -0.00186,  -0.00169,466660736.00000,   0.00019,274843680.00000,   0.00011,  -0.00015,  -0.00019,-8182944.00000,   0.00000
186971573.83967,-296503393.00643,-114393196.15374,   0.00153,  -0.00186,  -0.00168,466260192.00000,   0.00019,274843680.00000,   0.00011,  -0.00015,  -0.00019,-8583488.00000,   0.00000
187461449.73778,-296030265.00228,-113890759.33517,   0.00154,  -0.00186,  -0.00167,465845952.00000,   0.00019,274843680.00000,   0.00011,  -0.00015,  -0.00019,-8997728.00000,   0.00000
187909455.90100,-295599006.73300,-113396696.46358,   0.00154,  -0.00186,  -0.00167,465444832.00000,   0.00019,274843680.00000,   0.00011,  -0.00015,  -0.00019,-9398848.00000,   0.00000
188370022.98469,-295138439.64932,-112894259.64501,   0.00154,  -0.00186,  -0.00166,465023712.00000,   0.00019,274843680.00000,   0.00011,  -0.00015,  -0.00019,-9819968.00000,   0.00000
188801281.25397,-294690433.48609,-112391822.82644,   0.00154,  -0.00186,  -0.00165,464594080.00000,   0.00019,274843680.00000,   0.00011,  -0.00015,  -0.00019,-10249600.00000,   0.00000
189245100.44370,-294213118.50845,-111889386.00787,   0.00154,  -0.00185,  -0.00165,464150816.00000,   0.00019,274843680.00000,   0.00011,  -0.00015,  -0.00019,-10692864.00000,   0.00000
189659610.81902,-293748364.45127,-111386949.18930,   0.00154,  -0.00185,  -0.00164,463698592.00000,   0.00019,274843680.00000,   0.00011,  -0.00015,  -0.00019,-11145088.00000,   0.00000
190074121.19434,-293283610.39409,-110884512.37073,   0.00154,  -0.00185,  -0.00163,463248288.00000,   0.00019,274843680.00000,   0.00011,  -0.00015,  -0.00019,-11595392.00000,   0.00000
190471883.67571,-292802108.44296,-110373701.60518,   0.00154,  -0.00185,  -0.00163,462767520.00000,   0.00019,274843680.00000,   0.00011,  -0.00015,  -0.00019,-12076160.00000,   0.00000
190869646.15708,-292320606.49184,-109871264.78661,   0.00154,  -0.00185,  -0.00162,462294528.00000,   0.00019,274843680.00000,   0.00011,  -0.00015,  -0.00019,-12549152.00000,   0.00000
191238099.82403,-291851665.46117,-109368827.96804,   0.00154,  -0.00185,  -0.00161,461812352.00000,   0.00019,274843680.00000,   0.00011,  -0.00015,  -0.00019,-13031328.00000,   0.00000
191606553.49098,-291382724.43050,-108858017.20250,   0.00155,  -0.00185,  -0.00161,461326176.00000,   0.00019,274843680.00000,   0.00011,  -0.00015,  -0.00019,-13517504.00000,   0.00000
191958259.26398,-290897035.50589,-108355580.38392,   0.00155,  -0.00184,  -0.00160,460821184.00000,   0.00019,274843680.00000,   0.00011,  -0.00015,  -0.00019,-14022496.00000,   0.00000
192309965.03698,-290411346.58127,-107844769.61838,   0.00155,  -0.00184,  -0.00159,460311744.00000,   0.00019,274843680.00000,   0.00011,  -0.00015,  -0.00019,-14531936.00000,   0.00000
192644922.91603,-289908909.76270,-107342332.79981,   0.00155,  -0.00184,  -0.00159,459783456.00000,   0.00019,274843680.00000,   0.00011,  -0.00015,  -0.00019,-15060224.00000,   0.00000
192938011.06019,-289448342.67901,-106831522.03426,   0.00155,  -0.00184,  -0.00158,459255392.00000,   0.00019,274843680.00000,   0.00011,  -0.00015,  -0.00019,-15588288.00000,   0.00000
193243660.12482,-288958466.78090,-106329085.21569,   0.00155,  -0.00184,  -0.00158,458718944.00000,   0.00019,274843680.00000,   0.00011,  -0.00015,  -0.00019,-16124736.00000,   0.00000
193532561.29550,-288451842.98885,-105818274.45015,   0.00155,  -0.00184,  -0.00157,458151840.00000,   0.00019,274843680.00000,   0.00011,  -0.00015,  -0.00019,-16691840.00000,   0.00000
193808901.54571,-287974528.01120,-105315837.63158,   0.00155,  -0.00184,  -0.00156,457607168.00000,   0.00019,274843680.00000,   0.00011,  -0.00015,  -0.00019,-17236512.00000,   0.00000
194068493.90198,-287480465.13961,-104805026.86603,   0.00155,  -0.00183,  -0.00156,457031744.00000,   0.00019,274843680.00000,   0.00011,  -0.00015,  -0.00019,-17811936.00000,   0.00000
194328086.25824,-286986402.26802,-104294216.10048,   0.00155,  -0.00183,  -0.00155,456457504.00000,   0.00019,274843680.00000,   0.00011,  -0.00015,  -0.00019,-18386176.00000,   0.00000
194570930.72055,-286475591.50247,-103791779.28191,   0.00155,  -0.00183,  -0.00154,455863840.00000,   0.00019,274843680.00000,   0.00011,  -0.00015,  -0.00019,-18979840.00000,   0.00000
194801214.26239,-285994089.55134,-103280968.51637,   0.00155,  -0.00183,  -0.00154,455280960.00000,   0.00019,274843680.00000,   0.00011,  -0.00015,  -0.00019,-19562720.00000,   0.00000
195014749.91028,-285495839.70626,-102770157.75082,   0.00155,  -0.00183,  -0.00153,454672736.00000,   0.00019,274843680.00000,   0.00011,  -0.00015,  -0.00019,-20170944.00000,   0.00000
195211537.66422,-284980841.96722,-102267720.93225,   0.00155,  -0.00182,  -0.00152,454044832.00000,   0.00019,274843680.00000,   0.00011,  -0.00015,  -0.00019,-20798848.00000,   0.00000
195395764.49770,-284495153.04261,-101756910.16670,   0.00155,  -0.00182,  -0.00152,453427776.00000,   0.00019,274843680.00000,   0.00011,  -0.00015,  -0.00019,-21415904.00000,   0.00000
195563243.43722,-283992716.22404,-101246099.40116,   0.00155,  -0.00182,  -0.00151,452785344.00000,   0.00019,274843680.00000,   0.00011,  -0.00015,  -0.00019,-22058336.00000,   0.00000
195730722.37674,-283490279.40547,-100743662.58259,   0.00155,  -0.00182,  -0.00150,452149472.00000,   0.00019,274843680.00000,   0.00011,  -0.00015,  -0.00019,-22694208.00000,   0.00000
195881453.42232,-282971094.69294,-100232851.81704,   0.00155,  -0.00182,  -0.00150,451482496.00000,   0.00019,274843680.00000,   0.00011,  -0.00015,  -0.00019,-23361184.00000,   0.00000
195990314.73301,-282493779.71530,-99722041.05150,   0.00155,  -0.00181,  -0.00149,450820768.00000,   0.00019,274843680.00000,   0.00011,  -0.00015,  -0.00019,-24022912.00000,   0.00000
196111736.96416,-281987155.92324,-99219604.23293,   0.00155,  -0.00181,  -0.00148,450150176.00000,   0.00019,274843680.00000,   0.00011,  -0.00015,  -0.00019,-24693504.00000,   0.00000
196203850.38090,-281493093.05165,-98708793.46738,   0.00155,  -0.00181,  -0.00148,449463968.00000,   0.00019,274843680.00000,   0.00011,  -0.00015,  -0.00019,-25379712.00000,   0.00000
196308524.71810,-280969721.36564,-98206356.64881,   0.00155,  -0.00181,  -0.00147,448768928.00000,   0.00019,274843680.00000,   0.00011,  -0.00015,  -0.00019,-26074752.00000,   0.00000
196371329.32042,-280488219.41451,-97695545.88326,   0.00155,  -0.00181,  -0.00146,448073504.00000,   0.00019,274843680.00000,   0.00011,  -0.00015,  -0.00019,-26770176.00000,   0.00000
196417386.02879,-279989969.56943,-97193109.06469,   0.00155,  -0.00180,  -0.00146,447357984.00000,   0.00019,274843680.00000,   0.00011,  -0.00015,  -0.00019,-27485696.00000,   0.00000
196463442.73716,-279491719.72435,-96690672.24612,   0.00154,  -0.00180,  -0.00145,446643360.00000,   0.00019,274843680.00000,   0.00011,  -0.00015,  -0.00019,-28200320.00000,   0.00000
196522060.36599,-278964161.06485,-96179861.48058,   0.00154,  -0.00180,  -0.00144,445909184.00000,   0.00019,274843680.00000,   0.00011,  -0.00015,  -0.00019,-28934496.00000,   0.00000
196509499.44553,-278491033.06069,-95677424.66201,   0.00154,  -0.00180,  -0.00144,445173984.00000,   0.00019,274843680.00000,   0.00011,  -0.00015,  -0.00019,-29669696.00000,   0.00000
196509499.44553,-277988596.24212,-95174987.84344,   0.00154,  -0.00180,  -0.00143,444424416.00000,   0.00019,274843680.00000,   0.00011,  -0.00015,  -0.00019,-30419264.00000,   0.00000
196509499.44553,-277486159.42355,-94672551.02487,   0.00154,  -0.00179,  -0.00142,443676096.00000,   0.00019,274843680.00000,   0.00011,  -0.00015,  -0.00019,-31167584.00000,   0.00000
196463442.73716,-276979535.63150,-94170114.20630,   0.00154,  -0.00179,  -0.00142,442890368.00000,   0.00019,274843680.00000,   0.00011,  -0.00015,  -0.00019,-31953312.00000,   0.00000
196404825.10833,-276502220.65385,-93667677.38773,   0.00154,  -0.00179,  -0.00141,442121120.00000,   0.00019,274843680.00000,   0.00011,  -0.00015,  -0.00019,-32722560.00000,   0.00000
196358768.39996,-275995596.86180,-93165240.56916,   0.00154,  -0.00179,  -0.00140,441337632.00000,   0.00019,274843680.00000,   0.00011,  -0.00015,  -0.00019,-33506048.00000,   0.00000
196283402.87717,-275501533.99020,-92662803.75059,   0.00154,  -0.00178,  -0.00140,440543456.00000,   0.00019,274843680.00000,   0.00011,  -0.00015,  -0.00019,-34300224.00000,   0.00000
196178728.53997,-275020032.03907,-92160366.93202,   0.00153,  -0.00178,  -0.00139,439738880.00000,   0.00019,274843680.00000,   0.00011,  -0.00015,  -0.00019,-35104800.00000,   0.00000
196086615.12323,-274509221.27353,-91666304.06042,   0.00153,  -0.00178,  -0.00138,438925184.00000,   0.00019,274843680.00000,   0.00011,  -0.00015,  -0.00019,-35918496.00000,   0.00000
195952631.97161,-274040280.24286,-91163867.24185,   0.00153,  -0.00178,  -0.00138,438111008.00000,   0.00019,274843680.00000,   0.00011,  -0.00015,  -0.00019,-36732672.00000,   0.00000
195801900.92604,-273554591.31824,-90661430.42328,   0.00153,  -0.00177,  -0.00137,437270848.00000,   0.00019,274843680.00000,   0.00011,  -0.00015,  -0.00019,-37572832.00000,   0.00000
195651169.88047,-273068902.39363,-90167367.55169,   0.00153,  -0.00177,  -0.00136,436436896.00000,   0.00019,274843680.00000,   0.00011,  -0.00015,  -0.00019,-38406784.00000,   0.00000
195471130.02048,-272595774.38947,-89673304.68009,   0.00153,  -0.00177,  -0.00136,435592064.00000,   0.00019,274843680.00000,   0.00011,  -0.00015,  -0.00019,-39251616.00000,   0.00000
195274342.26654,-272105898.49137,-89170867.86152,   0.00152,  -0.00177,  -0.00135,434716064.00000,   0.00019,274843680.00000,   0.00011,  -0.00015,  -0.00019,-40127616.00000,   0.00000
195077554.51260,-271616022.59326,-88676804.98993,   0.00152,  -0.00176,  -0.00135,433846304.00000,   0.00019,274843680.00000,   0.00011,  -0.00015,  -0.00019,-40997376.00000,   0.00000
194838897.02378,-271168016.43004,-88182742.11834,   0.00152,  -0.00176,  -0.00134,432981024.00000,   0.00019,274843680.00000,   0.00011,  -0.00015,  -0.00019,-41862656.00000,   0.00000
194612800.45543,-270690701.45239,-87688679.24674,   0.00152,  -0.00176,  -0.00133,432101216.00000,   0.00019,274843680.00000,   0.00011,  -0.00015,  -0.00019,-42742464.00000,   0.00000
194369955.99312,-270196638.58080,-87202990.32213,   0.00152,  -0.00176,  -0.00133,431200448.00000,   0.00019,274843680.00000,   0.00011,  -0.00015,  -0.00019,-43643232.00000,   0.00000
194085241.79593,-269744445.44409,-86708927.45053,   0.00151,  -0.00175,  -0.00132,430298912.00000,   0.00019,274843680.00000,   0.00011,  -0.00015,  -0.00019,-44544768.00000,   0.00000
193800527.59874,-269292252.30737,-86214864.57894,   0.00151,  -0.00175,  -0.00131,429398336.00000,   0.00019,274843680.00000,   0.00011,  -0.00015,  -0.00019,-45445344.00000,   0.00000
193469756.69318,-268835872.19717,-85729175.65432,   0.00151,  -0.00175,  -0.00131,428464928.00000,   0.00019,274843680.00000,   0.00011,  -0.00015,  -0.00019,-46378752.00000,   0.00000
193168294.60204,-268366931.16651,-85243486.72970,   0.00151,  -0.00174,  -0.00130,427544000.00000,   0.00019,274843680.00000,   0.00011,  -0.00015,  -0.00019,-47299680.00000,   0.00000
192808214.88206,-267923111.97677,-84757797.80508,   0.00151,  -0.00174,  -0.00129,426600480.00000,   0.00019,274843680.00000,   0.00011,  -0.00015,  -0.00019,-48243200.00000,   0.00000
192448135.16209,-267479292.78703,-84263734.93349,   0.00150,  -0.00174,  -0.00129,425652768.00000,   0.00019,274843680.00000,   0.00011,  -0.00015,  -0.00019,-49190912.00000,   0.00000
192071307.54816,-267018725.70334,-83786419.95585,   0.00150,  -0.00174,  -0.00128,424688736.00000,   0.00019,274843680.00000,   0.00011,  -0.00015,  -0.00019,-50154944.00000,   0.00000
191681919.01377,-266587467.43407,-83300731.03123,   0.00150,  -0.00173,  -0.00128,423735776.00000,   0.00019,274843680.00000,   0.00011,  -0.00015,  -0.00019,-51107904.00000,   0.00000
191275782.58542,-266139461.27085,-82815042.10661,   0.00149,  -0.00173,  -0.00127,422756544.00000,   0.00019,274843680.00000,   0.00011,  -0.00015,  -0.00019,-52087136.00000,   0.00000
190840337.34266,-265704016.02809,-82337727.12897,   0.00149,  -0.00173,  -0.00126,421771328.00000,   0.00019,274843680.00000,   0.00011,  -0.00015,  -0.00019,-53072352.00000,   0.00000
190404892.09990,-265268570.78533,-81852038.20435,   0.00149,  -0.00173,  -0.00126,420781984.00000,   0.00019,274843680.00000,   0.00011,  -0.00015,  -0.00019,-54061696.00000,   0.00000
189940138.04272,-264845686.46303,-81374723.22671,   0.00149,  -0.00172,  -0.00125,419786304.00000,   0.00019,274843680.00000,   0.00011,  -0.00015,  -0.00019,-55057376.00000,   0.00000
189446075.17113,-264435363.06120,-80897408.24907,   0.00148,  -0.00172,  -0.00124,418779744.00000,   0.00019,274843680.00000,   0.00011,  -0.00015,  -0.00019,-56063936.00000,   0.00000
188952012.29954,-264025039.65936,-80420093.27143,   0.00148,  -0.00172,  -0.00124,417773792.00000,   0.00019,274843680.00000,   0.00011,  -0.00015,  -0.00019,-57069888.00000,   0.00000
188441201.53399,-263597968.36358,-79951152.24076,   0.00148,  -0.00171,  -0.00123,416746112.00000,   0.00019,274843680.00000,   0.00011,  -0.00015,  -0.00019,-58097568.00000,   0.00000
187888521.03356,-263212766.80268,-79473837.26312,   0.00147,  -0.00171,  -0.00123,415718080.00000,   0.00019,274843680.00000,   0.00011,  -0.00015,  -0.00019,-59125600.00000,   0.00000
187319092.63918,-262810817.34782,-79004896.23246,   0.00147,  -0.00171,  -0.00122,414668192.00000,   0.00019,274843680.00000,   0.00011,  -0.00015,  -0.00019,-60175488.00000,   0.00000
186749664.24480,-262408867.89296,-78527581.25482,   0.00147,  -0.00171,  -0.00121,413614048.00000,   0.00019,274843680.00000,   0.00011,  -0.00015,  -0.00019,-61229632.00000,   0.00000
186180235.85043,-262006918.43811,-78058640.22415,   0.00146,  -0.00170,  -0.00121,412565376.00000,   0.00019,274843680.00000,   0.00011,  -0.00015,  -0.00019,-62278304.00000,   0.00000
185552189.82721,-261630090.82418,-77589699.19348,   0.00146,  -0.00170,  -0.00120,411493696.00000,   0.00019,274843680.00000,   0.00011,  -0.00015,  -0.00019,-63349984.00000,   0.00000
184924143.80400,-261253263.21025,-77129132.10980,   0.00146,  -0.00170,  -0.00120,410427264.00000,   0.00019,274843680.00000,   0.00011,  -0.00015,  -0.00019,-64416416.00000,   0.00000
184266788.96637,-260888996.51679,-76660191.07913,   0.00145,  -0.00169,  -0.00119,409345184.00000,   0.00019,274843680.00000,   0.00011,  -0.00015,  -0.00019,-65498496.00000,   0.00000
183621995.04921,-260495421.00891,-76199623.99544,   0.00145,  -0.00169,  -0.00118,408252480.00000,   0.00019,274843680.00000,   0.00011,  -0.00015,  -0.00019,-66591200.00000,   0.00000
182935331.39716,-260143715.23591,-75730682.96478,   0.00145,  -0.00169,  -0.00118,407159776.00000,   0.00019,274843680.00000,   0.00011,  -0.00015,  -0.00019,-67683904.00000,   0.00000
182231919.85116,-259775261.56896,-75270115.88109,   0.00144,  -0.00168,  -0.00117,406044864.00000,   0.00019,274843680.00000,   0.00011,  -0.00015,  -0.00019,-68798816.00000,   0.00000
181486638.57028,-259448677.63689,-74809548.79740,   0.00144,  -0.00168,  -0.00117,404934496.00000,   0.00019,274843680.00000,   0.00011,  -0.00015,  -0.00019,-69909184.00000,   0.00000
180753918.20987,-259092784.89040,-74357355.66068,   0.00143,  -0.00168,  -0.00116,403813664.00000,   0.00019,274843680.00000,   0.00011,  -0.00015,  -0.00019,-71030016.00000,   0.00000
179991889.03504,-258749453.06438,-73896788.57699,   0.00143,  -0.00168,  -0.00115,402677088.00000,   0.00019,274843680.00000,   0.00011,  -0.00015,  -0.00019,-72166592.00000,   0.00000
179229859.86021,-258406121.23836,-73444595.44028,   0.00142,  -0.00167,  -0.00115,401545888.00000,   0.00019,274843680.00000,   0.00011,  -0.00015,  -0.00019,-73297792.00000,   0.00000
178409213.05654,-258087911.25326,-72992402.30357,   0.00142,  -0.00167,  -0.00114,400391776.00000,   0.00019,274843680.00000,   0.00011,  -0.00015,  -0.00019,-74451904.00000,   0.00000
177588566.25288,-257769701.26817,-72540209.16686,   0.00142,  -0.00167,  -0.00114,399238624.00000,   0.00019,274843680.00000,   0.00011,  -0.00015,  -0.00019,-75605056.00000,   0.00000
176767919.44921,-257451491.28307,-72088016.03014,   0.00141,  -0.00166,  -0.00113,398086144.00000,   0.00019,274843680.00000,   0.00011,  -0.00015,  -0.00019,-76757536.00000,   0.00000
175888655.01671,-257158403.13891,-71644196.84041,   0.00141,  -0.00166,  -0.00112,396915776.00000,   0.00019,274843680.00000,   0.00011,  -0.00015,  -0.00019,-77927904.00000,   0.00000
175038699.39863,-256852754.07428,-71192003.70369,   0.00140,  -0.00166,  -0.00112,395753344.00000,   0.00019,274843680.00000,   0.00011,  -0.00015,  -0.00019,-79090336.00000,   0.00000
174130126.15172,-256572226.85058,-70748184.51396,   0.00140,  -0.00165,  -0.00111,394573408.00000,   0.00019,274843680.00000,   0.00011,  -0.00015,  -0.00019,-80270272.00000,   0.00000
173234113.82527,-256262390.81246,-70304365.32422,   0.00139,  -0.00165,  -0.00111,393378208.00000,   0.00019,274843680.00000,   0.00011,  -0.00015,  -0.00019,-81465472.00000,   0.00000
172266922.94952,-256006985.42968,-69868920.08146,   0.00139,  -0.00165,  -0.00110,392181664.00000,   0.00019,274843680.00000,   0.00011,  -0.00015,  -0.00019,-82662016.00000,   0.00000
171329040.88819,-255739019.12645,-69425100.89172,   0.00138,  -0.00164,  -0.00110,390993184.00000,   0.00019,274843680.00000,   0.00011,  -0.00015,  -0.00019,-83850496.00000,   0.00000
170345102.11849,-255466865.84972,-68989655.64896,   0.00138,  -0.00164,  -0.00109,389771424.00000,   0.00019,274843680.00000,   0.00011,  -0.00015,  -0.00019,-85072256.00000,   0.00000
169348602.42833,-255224021.38741,-68554210.40620,   0.00137,  -0.00164,  -0.00108,388566976.00000,   0.00019,274843680.00000,   0.00011,  -0.00015,  -0.00019,-86276704.00000,   0.00000
168352102.73816,-254981176.92510,-68118765.16344,   0.00137,  -0.00164,  -0.00108,387363584.00000,   0.00019,274843680.00000,   0.00011,  -0.00015,  -0.00019,-87480096.00000,   0.00000
167309546.33963,-254734145.48931,-67683319.92068,   0.00136,  -0.00163,  -0.00107,386122816.00000,   0.00019,274843680.00000,   0.00011,  -0.00015,  -0.00019,-88720864.00000,   0.00000
166254429.02063,-254516422.86793,-67256248.62489,   0.00136,  -0.00163,  -0.00107,384903744.00000,   0.00019,274843680.00000,   0.00011,  -0.00015,  -0.00019,-89939936.00000,   0.00000
165182563.80768,-254281952.35259,-66820803.38213,   0.00135,  -0.00163,  -0.00106,383654144.00000,   0.00019,274843680.00000,   0.00011,  -0.00015,  -0.00019,-91189536.00000,   0.00000
164098137.67427,-254076790.65168,-66393732.08635,   0.00135,  -0.00162,  -0.00106,382426528.00000,   0.00019,274843680.00000,   0.00011,  -0.00015,  -0.00019,-92417152.00000,   0.00000
162996963.64690,-253854881.05681,-65966660.79056,   0.00134,  -0.00162,  -0.00105,381172736.00000,   0.00019,274843680.00000,   0.00011,  -0.00015,  -0.00019,-93670944.00000,   0.00000
161853919.88466,-253674841.19682,-65547963.44176,   0.00134,  -0.00162,  -0.00104,379929632.00000,   0.00019,274843680.00000,   0.00011,  -0.00015,  -0.00019,-94914048.00000,   0.00000
160694128.22846,-253478053.44288,-65120892.14597,   0.00133,  -0.00161,  -0.00104,378656256.00000,   0.00019,274843680.00000,   0.00011,  -0.00015,  -0.00019,-96187424.00000,   0.00000
159534336.57226,-253281265.68894,-64702194.79716,   0.00133,  -0.00161,  -0.00103,377388416.00000,   0.00019,274843680.00000,   0.00011,  -0.00015,  -0.00019,-97455264.00000,   0.00000
158332675.18118,-253126347.66988,-64283497.44835,   0.00132,  -0.00161,  -0.00103,376127136.00000,   0.00019,274843680.00000,   0.00011,  -0.00015,  -0.00019,-98716544.00000,   0.00000
157143574.71056,-252942120.83641,-63864800.09955,   0.00131,  -0.00160,  -0.00102,374851008.00000,   0.00019,274843680.00000,   0.00011,  -0.00015,  -0.00019,-99992672.00000,   0.00000
155912604.50507,-252799763.73781,-63454476.69771,   0.00131,  -0.00160,  -0.00102,373585600.00000,   0.00019,274843680.00000,   0.00011,  -0.00015,  -0.00019,-101258080.00000,   0.00000
154652325.48515,-252669967.55968,-63035779.34891,   0.00130,  -0.00160,  -0.00101,372306336.00000,   0.00019,274843680.00000,   0.00011,  -0.00015,  -0.00019,-102537344.00000,   0.00000
153375298.57129,-252523423.48760,-62625455.94707,   0.00130,  -0.00160,  -0.00101,371005280.00000,   0.00019,274843680.00000,   0.00011,  -0.00015,  -0.00019,-103838400.00000,   0.00000
152085710.73696,-252406188.22993,-62215132.54524,   0.00129,  -0.00159,  -0.00100,369722176.00000,   0.00019,274843680.00000,   0.00011,  -0.00015,  -0.00019,-105121504.00000,   0.00000
150779375.00868,-252272205.07831,-61813183.09038,   0.00128,  -0.00159,  -0.00100,368417408.00000,   0.00019,274843680.00000,   0.00011,  -0.00015,  -0.00019,-106426272.00000,   0.00000
149460478.35993,-252167530.74111,-61402859.68855,   0.00128,  -0.00159,  -0.00099,367126560.00000,   0.00019,274843680.00000,   0.00011,  -0.00015,  -0.00019,-107717120.00000,   0.00000
148082964.08235,-252087978.24484,-61000910.23370,   0.00127,  -0.00158,  -0.00099,365820160.00000,   0.00019,274843680.00000,   0.00011,  -0.00015,  -0.00019,-109023520.00000,   0.00000
146705449.80477,-252008425.74856,-60598960.77884,   0.00126,  -0.00158,  -0.00098,364516512.00000,   0.00019,274843680.00000,   0.00011,  -0.00015,  -0.00019,-110327168.00000,   0.00000
145340496.44765,-251899564.43787,-60197011.32398,   0.00126,  -0.00158,  -0.00098,363202368.00000,   0.00019,274843680.00000,   0.00011,  -0.00015,  -0.00019,-111641312.00000,   0.00000
143933673.35566,-251832572.86206,-59803435.81610,   0.00125,  -0.00157,  -0.00097,361915008.00000,   0.00019,274843680.00000,   0.00011,  -0.00015,  -0.00019,-112928672.00000,   0.00000
142497541.44925,-251778142.20672,-59401486.36125,   0.00124,  -0.00157,  -0.00096,360639808.00000,   0.00019,274843680.00000,   0.00011,  -0.00015,  -0.00019,-114203872.00000,   0.00000
141032100.72842,-251736272.47184,-59007910.85337,   0.00124,  -0.00157,  -0.00096,359371232.00000,   0.00019,274843680.00000,   0.00011,  -0.00015,  -0.00019,-115472448.00000,   0.00000
139566660.00759,-251694402.73696,-58614335.34549,   0.00123,  -0.00156,  -0.00095,358074400.00000,   0.00019,274843680.00000,   0.00011,  -0.00015,  -0.00019,-116769280.00000,   0.00000
138071910.47234,-251665093.92254,-58229133.78458,   0.00122,  -0.00156,  -0.00095,356736864.00000,   0.00019,274843680.00000,   0.00011,  -0.00015,  -0.00019,-118106816.00000,   0.00000
136577160.93710,-251635785.10812,-57835558.27670,   0.00122,  -0.00156,  -0.00094,355389600.00000,   0.00019,274843680.00000,   0.00011,  -0.00015,  -0.00019,-119454080.00000,   0.00000
135040541.66697,-251648346.02859,-57450356.71580,   0.00121,  -0.00156,  -0.00094,354065440.00000,   0.00019,274843680.00000,   0.00011,  -0.00015,  -0.00019,-120778240.00000,   0.00000
133487174.50289,-251644159.05510,-57065155.15490,   0.00120,  -0.00155,  -0.00093,352728320.00000,   0.00019,274843680.00000,   0.00011,  -0.00015,  -0.00019,-122115360.00000,   0.00000
131891937.60393,-251681841.81649,-56679953.59399,   0.00120,  -0.00155,  -0.00093,351408096.00000,   0.00019,274843680.00000,   0.00011,  -0.00015,  -0.00019,-123435584.00000,   0.00000
130309261.62543,-251690215.76347,-56303125.98007,   0.00119,  -0.00155,  -0.00092,350080352.00000,   0.00019,274843680.00000,   0.00011,  -0.00015,  -0.00019,-124763328.00000,   0.00000
128714024.72647,-251727898.52486,-55917924.41916,   0.00118,  -0.00154,  -0.00092,348769440.00000,   0.00019,274843680.00000,   0.00011,  -0.00015,  -0.00019,-126074240.00000,   0.00000
127072731.11915,-251761394.31277,-55541096.80523,   0.00117,  -0.00154,  -0.00091,347427840.00000,   0.00019,274843680.00000,   0.00011,  -0.00015,  -0.00019,-127415840.00000,   0.00000
125418876.59135,-251824198.91509,-55164269.19131,   0.00117,  -0.00154,  -0.00091,346105920.00000,   0.00019,274843680.00000,   0.00011,  -0.00015,  -0.00019,-128737760.00000,   0.00000
123735713.24914,-251899564.43787,-54795815.52436,   0.00116,  -0.00153,  -0.00091,344780576.00000,   0.00019,274843680.00000,   0.00011,  -0.00015,  -0.00019,-130063104.00000,   0.00000
122052549.90693,-251974929.96066,-54418987.91043,   0.00115,  -0.00153,  -0.00090,343453760.00000,   0.00019,274843680.00000,   0.00011,  -0.00015,  -0.00019,-131389920.00000,   0.00000
120340077.75031,-252062856.40391,-54050534.24348,   0.00114,  -0.00153,  -0.00090,342124032.00000,   0.00019,274843680.00000,   0.00011,  -0.00015,  -0.00019,-132719648.00000,   0.00000
118615044.67322,-252180091.66158,-53682080.57653,   0.00114,  -0.00153,  -0.00089,340814944.00000,   0.00019,274843680.00000,   0.00011,  -0.00015,  -0.00019,-134028736.00000,   0.00000
116843954.88776,-252293139.94575,-53313626.90957,   0.00113,  -0.00152,  -0.00089,339472224.00000,   0.00019,274843680.00000,   0.00011,  -0.00015,  -0.00019,-135371456.00000,   0.00000
115089612.99625,-252422936.12388,-52953547.18960,   0.00112,  -0.00152,  -0.00088,338164384.00000,   0.00019,274843680.00000,   0.00011,  -0.00015,  -0.00019,-136679296.00000,   0.00000
113289214.39637,-252548545.32853,-52585093.52265,   0.00111,  -0.00152,  -0.00088,336819424.00000,   0.00019,274843680.00000,   0.00011,  -0.00015,  -0.00019,-138024256.00000,   0.00000
111476254.87603,-252703463.34759,-52225013.80267,   0.00111,  -0.00151,  -0.00087,335500576.00000,   0.00019,274843680.00000,   0.00011,  -0.00015,  -0.00019,-139343104.00000,   0.00000
109633986.54128,-252870942.28711,-51864934.08270,   0.00110,  -0.00151,  -0.00087,334177056.00000,   0.00019,274843680.00000,   0.00011,  -0.00015,  -0.00019,-140666624.00000,   0.00000
107791718.20652,-253038421.22663,-51513228.30970,   0.00109,  -0.00151,  -0.00086,332862976.00000,   0.00019,274843680.00000,   0.00011,  -0.00015,  -0.00019,-141980704.00000,   0.00000
105920141.05735,-253218461.08662,-51153148.58972,   0.00108,  -0.00151,  -0.00086,331541920.00000,   0.00019,274843680.00000,   0.00011,  -0.00015,  -0.00019,-143301760.00000,   0.00000
104036002.98771,-253427809.76102,-50801442.81672,   0.00107,  -0.00150,  -0.00085,330250080.00000,   0.00019,274843680.00000,   0.00011,  -0.00015,  -0.00019,-144593600.00000,   0.00000
102105808.20970,-253632971.46194,-50449737.04372,   0.00106,  -0.00150,  -0.00085,328930176.00000,   0.00019,274843680.00000,   0.00011,  -0.00015,  -0.00019,-145913504.00000,   0.00000
100192361.32565,-253854881.05681,-50098031.27073,   0.00106,  -0.00150,  -0.00084,327646496.00000,   0.00019,274843680.00000,   0.00011,  -0.00015,  -0.00019,-147197184.00000,   0.00000
98220296.81276,-254101912.49261,-49746325.49773,   0.00105,  -0.00149,  -0.00084,326355552.00000,   0.00019,274843680.00000,   0.00011,  -0.00015,  -0.00019,-148488128.00000,   0.00000
96248232.29987,-254348943.92840,-49402993.67170,   0.00104,  -0.00149,  -0.00083,325079200.00000,   0.00019,274843680.00000,   0.00011,  -0.00015,  -0.00019,-149764480.00000,   0.00000
94276167.78698,-254595975.36420,-49059661.84568,   0.00103,  -0.00149,  -0.00083,323814080.00000,   0.00019,274843680.00000,   0.00011,  -0.00015,  -0.00019,-151029600.00000,   0.00000
92274794.45968,-254855567.72046,-48716330.01966,   0.00102,  -0.00149,  -0.00083,322552544.00000,   0.00019,274843680.00000,   0.00011,  -0.00015,  -0.00019,-152291136.00000,   0.00000
90231551.39750,-255157029.81160,-48372998.19364,   0.00101,  -0.00148,  -0.00082,321314144.00000,   0.00019,274843680.00000,   0.00011,  -0.00015,  -0.00019,-153529536.00000,   0.00000
88200869.25577,-255429183.08833,-48029666.36761,   0.00100,  -0.00148,  -0.00082,320068800.00000,   0.00019,274843680.00000,   0.00011,  -0.00015,  -0.00019,-154774880.00000,   0.00000
86128317.37917,-255743206.09993,-47694708.48857,   0.00100,  -0.00148,  -0.00081,318850496.00000,   0.00019,274843680.00000,   0.00011,  -0.00015,  -0.00019,-155993184.00000,   0.00000
84026456.68815,-256069790.03200,-47351376.66254,   0.00099,  -0.00148,  -0.00081,317632800.00000,   0.00019,274843680.00000,   0.00011,  -0.00015,  -0.00019,-157210880.00000,   0.00000
81924595.99714,-256396373.96408,-47016418.78350,   0.00098,  -0.00147,  -0.00080,316429504.00000,   0.00019,274843680.00000,   0.00011,  -0.00015,  -0.00019,-158414176.00000,   0.00000
79810174.38565,-256752266.71056,-46689834.85143,   0.00097,  -0.00147,  -0.00080,315259552.00000,   0.00019,274843680.00000,   0.00011,  -0.00015,  -0.00019,-159584128.00000,   0.00000
77637135.14534,-257133281.29798,-46354876.97238,   0.00096,  -0.00147,  -0.00080,314081376.00000,   0.00019,274843680.00000,   0.00011,  -0.00015,  -0.00019,-160762304.00000,   0.00000
75505965.63990,-257472426.15051,-46028293.04031,   0.00095,  -0.00147,  -0.00079,312901984.00000,   0.00019,274843680.00000,   0.00011,  -0.00015,  -0.00019,-161941696.00000,   0.00000
73303617.58517,-257866001.65839,-45693335.16126,   0.00094,  -0.00146,  -0.00079,311732800.00000,   0.00019,274843680.00000,   0.00011,  -0.00015,  -0.00019,-163110880.00000,   0.00000
71088708.60998,-258288885.98069,-45366751.22919,   0.00093,  -0.00146,  -0.00078,310594048.00000,   0.00019,274843680.00000,   0.00011,  -0.00015,  -0.00019,-164249632.00000,   0.00000
68886360.55524,-258682461.48857,-45040167.29712,   0.00092,  -0.00146,  -0.00078,309441152.00000,   0.00019,274843680.00000,   0.00011,  -0.00015,  -0.00019,-165402528.00000,   0.00000
66642142.76563,-259117906.73133,-44721957.31203,   0.00091,  -0.00146,  -0.00077,308311072.00000,   0.00019,274843680.00000,   0.00011,  -0.00015,  -0.00019,-166532608.00000,   0.00000
64368616.16160,-259565912.89455,-44395373.37996,   0.00090,  -0.00145,  -0.00077,307176704.00000,   0.00019,274843680.00000,   0.00011,  -0.00015,  -0.00019,-167666976.00000,   0.00000
62095089.55757,-260013919.05778,-44077163.39486,   0.00089,  -0.00145,  -0.00077,306051296.00000,   0.00019,274843680.00000,   0.00011,  -0.00015,  -0.00019,-168792384.00000,   0.00000
59821562.95354,-260461925.22100,-43758953.40977,   0.00089,  -0.00145,  -0.00076,304931840.00000,   0.00019,274843680.00000,   0.00011,  -0.00015,  -0.00019,-169911840.00000,   0.00000
57506166.61463,-260951801.11911,-43440743.42467,   0.00088,  -0.00145,  -0.00076,303832800.00000,   0.00019,274843680.00000,   0.00011,  -0.00015,  -0.00019,-171010880.00000,   0.00000
55161461.46130,-261454237.93768,-43122533.43958,   0.00087,  -0.00144,  -0.00075,302735200.00000,   0.00019,274843680.00000,   0.00011,  -0.00015,  -0.00019,-172108480.00000,   0.00000
52816756.30798,-261956674.75625,-42804323.45448,   0.00086,  -0.00144,  -0.00075,301645824.00000,   0.00019,274843680.00000,   0.00011,  -0.00015,  -0.00019,-173197856.00000,   0.00000
50442742.34023,-262471672.49529,-42494487.41637,   0.00085,  -0.00144,  -0.00075,300563488.00000,   0.00019,274843680.00000,   0.00011,  -0.00015,  -0.00019,-174280192.00000,   0.00000
48056167.45203,-263015979.04874,-42176277.43127,   0.00084,  -0.00144,  -0.00074,299508576.00000,   0.00019,274843680.00000,   0.00011,  -0.00015,  -0.00019,-175335104.00000,   0.00000
45652844.66987,-263543537.70823,-41866441.39315,   0.00083,  -0.00144,  -0.00074,298442848.00000,   0.00019,274843680.00000,   0.00011,  -0.00015,  -0.00019,-176400832.00000,   0.00000
43236960.96724,-264100405.18215,-41556605.35503,   0.00082,  -0.00143,  -0.00073,297410432.00000,   0.00019,274843680.00000,   0.00011,  -0.00015,  -0.00019,-177433248.00000,   0.00000
40779207.52974,-264699142.39095,-41255143.26389,   0.00081,  -0.00143,  -0.00073,296411168.00000,   0.00019,274843680.00000,   0.00011,  -0.00015,  -0.00019,-178432512.00000,   0.00000
38334015.01270,-265268570.78533,-40945307.22577,   0.00080,  -0.00143,  -0.00073,295402368.00000,   0.00019,274843680.00000,   0.00011,  -0.00015,  -0.00019,-179441312.00000,   0.00000
35846952.76077,-265879868.91459,-40635471.18766,   0.00079,  -0.00143,  -0.00072,294425312.00000,   0.00019,274843680.00000,   0.00011,  -0.00015,  -0.00019,-180418368.00000,   0.00000
33359890.50885,-266491167.04385,-40334009.09651,   0.00078,  -0.00142,  -0.00072,293468064.00000,   0.00019,274843680.00000,   0.00011,  -0.00015,  -0.00019,-181375616.00000,   0.00000
30830958.52205,-267144334.90799,-40032547.00537,   0.00077,  -0.00142,  -0.00071,292544128.00000,   0.00019,274843680.00000,   0.00011,  -0.00015,  -0.00019,-182299552.00000,   0.00000
28314587.45571,-267768193.95771,-39731084.91423,   0.00076,  -0.00142,  -0.00071,291616128.00000,   0.00019,274843680.00000,   0.00011,  -0.00015,  -0.00019,-183227552.00000,   0.00000
25756346.65449,-268433922.74232,-39429622.82309,   0.00075,  -0.00142,  -0.00071,290722368.00000,   0.00019,274843680.00000,   0.00011,  -0.00015,  -0.00019,-184121312.00000,   0.00000
23198105.85327,-269099651.52692,-39128160.73195,   0.00074,  -0.00142,  -0.00070,289845600.00000,   0.00019,274843680.00000,   0.00011,  -0.00015,  -0.00019,-184998080.00000,   0.00000
20597995.31717,-269807250.04641,-38826698.64080,   0.00073,  -0.00141,  -0.00070,289003584.00000,   0.00019,274843680.00000,   0.00011,  -0.00015,  -0.00019,-185840096.00000,   0.00000
17997884.78107,-270514848.56589,-38533610.49664,   0.00071,  -0.00141,  -0.00069,288181280.00000,   0.00019,274843680.00000,   0.00011,  -0.00015,  -0.00019,-186662400.00000,   0.00000
15397774.24497,-271222447.08538,-38232148.40550,   0.00070,  -0.00141,  -0.00069,287371616.00000,   0.00019,274843680.00000,   0.00011,  -0.00015,  -0.00019,-187472064.00000,   0.00000
12768354.89446,-271942606.52533,-37939060.26133,   0.00069,  -0.00141,  -0.00069,286577312.00000,   0.00019,274843680.00000,   0.00011,  -0.00015,  -0.00019,-188266368.00000,   0.00000
10097065.80906,-272704635.70016,-37645972.11716,   0.00068,  -0.00141,  -0.00068,285817312.00000,   0.00019,274843680.00000,   0.00011,  -0.00015,  -0.00019,-189026368.00000,   0.00000
7425776.72366,-273466664.87499,-37352883.97300,   0.00067,  -0.00141,  -0.00068,285072288.00000,   0.00019,274843680.00000,   0.00011,  -0.00015,  -0.00019,-189771392.00000,   0.00000
4754487.63826,-274228694.04982,-37059795.82883,   0.00066,  -0.00140,  -0.00067,284341888.00000,   0.00019,274843680.00000,   0.00011,  -0.00015,  -0.00019,-190501792.00000,   0.00000
2053889.73845,-275003284.14512,-36766707.68467,   0.00065,  -0.00140,  -0.00067,283623648.00000,   0.00019,274843680.00000,   0.00011,  -0.00015,  -0.00019,-191220032.00000,   0.00000
-659269.08183,-275807183.05483,-36473619.54050,   0.00064,  -0.00140,  -0.00067,282943264.00000,   0.00019,274843680.00000,   0.00011,  -0.00015,  -0.00019,-191900416.00000,   0.00000
-3372427.90211,-276611081.96454,-36188905.34331,   0.00063,  -0.00140,  -0.00066,282281856.00000,   0.00019,274843680.00000,   0.00011,  -0.00015,  -0.00019,-192561824.00000,   0.00000
-6127456.45727,-277456850.60914,-35895817.19915,   0.00062,  -0.00140,  -0.00066,281654784.00000,   0.00019,274843680.00000,   0.00011,  -0.00015,  -0.00019,-193188896.00000,   0.00000
-8911793.82684,-278315180.17419,-35611103.00196,   0.00061,  -0.00140,  -0.00066,281047072.00000,   0.00019,274843680.00000,   0.00011,  -0.00015,  -0.00019,-193796608.00000,   0.00000
-11696131.19642,-279173509.73925,-35318014.85779,   0.00060,  -0.00139,  -0.00065,280456256.00000,   0.00019,274843680.00000,   0.00011,  -0.00015,  -0.00019,-194387424.00000,   0.00000
-14480468.56599,-280031839.30431,-35033300.66060,   0.00059,  -0.00139,  -0.00065,279889344.00000,   0.00019,274843680.00000,   0.00011,  -0.00015,  -0.00019,-194954336.00000,   0.00000
-17306675.67045,-280932038.60425,-34748586.46341,   0.00057,  -0.00139,  -0.00064,279366752.00000,   0.00019,274843680.00000,   0.00011,  -0.00015,  -0.00019,-195476928.00000,   0.00000
-20132882.77491,-281832237.90419,-34463872.26622,   0.00056,  -0.00139,  -0.00064,278868288.00000,   0.00019,274843680.00000,   0.00011,  -0.00015,  -0.00019,-195975392.00000,   0.00000
-22971650.79983,-282761746.01854,-34179158.06903,   0.00055,  -0.00139,  -0.00064,278418592.00000,   0.00019,274843680.00000,   0.00011,  -0.00015,  -0.00019,-196425088.00000,   0.00000
-25827166.71870,-283674506.23894,-33894443.87184,   0.00054,  -0.00139,  -0.00063,277971520.00000,   0.00019,274843680.00000,   0.00011,  -0.00015,  -0.00019,-196872160.00000,   0.00000
-28695243.55804,-284616575.27376,-33609729.67465,   0.00053,  -0.00139,  -0.00063,277575424.00000,   0.00019,274843680.00000,   0.00011,  -0.00015,  -0.00019,-197268256.00000,   0.00000
-31575881.31784,-285587953.12300,-33333389.42444,   0.00052,  -0.00138,  -0.00063,277234432.00000,   0.00019,274843680.00000,   0.00011,  -0.00015,  -0.00019,-197609248.00000,   0.00000
-34485827.89206,-286571891.89270,-33048675.22725,   0.00051,  -0.00138,  -0.00062,276919808.00000,   0.00019,274843680.00000,   0.00011,  -0.00015,  -0.00019,-197923872.00000,   0.00000
-37395774.46628,-287555830.66240,-32763961.03006,   0.00050,  -0.00138,  -0.00062,276635040.00000,   0.00019,274843680.00000,   0.00011,  -0.00015,  -0.00019,-198208640.00000,   0.00000
-40335029.85491,-288552330.35256,-32487620.77985,   0.00048,  -0.00138,  -0.00062,276384256.00000,   0.00019,274843680.00000,   0.00011,  -0.00015,  -0.00019,-198459424.00000,   0.00000
-43286846.16401,-289578138.85714,-32202906.58266,   0.00047,  -0.00138,  -0.00061,276184544.00000,   0.00019,274843680.00000,   0.00011,  -0.00015,  -0.00019,-198659136.00000,   0.00000
-46238662.47311,-290603947.36172,-31926566.33244,   0.00046,  -0.00138,  -0.00061,276017920.00000,   0.00019,274843680.00000,   0.00011,  -0.00015,  -0.00019,-198825760.00000,   0.00000
-49232348.51709,-291671625.60118,-31641852.13525,   0.00045,  -0.00138,  -0.00060,275904160.00000,   0.00019,274843680.00000,   0.00011,  -0.00015,  -0.00019,-198939520.00000,   0.00000
-52226034.56107,-292739303.84064,-31365511.88504,   0.00044,  -0.00138,  -0.00060,275822880.00000,   0.00019,274843680.00000,   0.00011,  -0.00015,  -0.00019,-199020800.00000,   0.00000
-55219720.60505,-293806982.08010,-31080797.68785,   0.00043,  -0.00138,  -0.00060,275767680.00000,   0.00019,274843680.00000,   0.00011,  -0.00015,  -0.00019,-199076000.00000,   0.00000
-58225967.56949,-294903969.13398,-30804457.43764,   0.00042,  -0.00138,  -0.00059,275767744.00000,   0.00019,274843680.00000,   0.00011,  -0.00015,  -0.00019,-199075936.00000,   0.00000
-61261523.34836,-296013517.10833,-30528117.18742,   0.00040,  -0.00137,  -0.00059,275798016.00000,   0.00019,274843680.00000,   0.00011,  -0.00015,  -0.00019,-199045664.00000,   0.00000
-64297079.12722,-297123065.08267,-30243402.99023,   0.00039,  -0.00137,  -0.00059,275852352.00000,   0.00019,274843680.00000,   0.00011,  -0.00015,  -0.00019,-198991328.00000,   0.00000
-67374504.64096,-298274482.79189,-29967062.74002,   0.00038,  -0.00137,  -0.00058,275962976.00000,   0.00019,274843680.00000,   0.00011,  -0.00015,  -0.00019,-198880704.00000,   0.00000
-70451930.15470,-299425900.50111,-29690722.48981,   0.00037,  -0.00137,  -0.00058,276098944.00000,   0.00019,274843680.00000,   0.00011,  -0.00015,  -0.00019,-198744736.00000,   0.00000
-73529355.66844,-300577318.21034,-29406008.29262,   0.00036,  -0.00137,  -0.00058,276256416.00000,   0.00019,274843680.00000,   0.00011,  -0.00015,  -0.00019,-198587264.00000,   0.00000
-76619342.10265,-301758044.73398,-29129668.04240,   0.00035,  -0.00137,  -0.00057,276464736.00000,   0.00019,274843680.00000,   0.00011,  -0.00015,  -0.00019,-198378944.00000,   0.00000
-79709328.53685,-302938771.25762,-28853327.79219,   0.00033,  -0.00137,  -0.00057,276696032.00000,   0.00019,274843680.00000,   0.00011,  -0.00015,  -0.00019,-198147648.00000,   0.00000
-82841184.70594,-304161367.51614,-28568613.59500,   0.00032,  -0.00137,  -0.00056,276976576.00000,   0.00019,274843680.00000,   0.00011,  -0.00015,  -0.00019,-197867104.00000,   0.00000
-85973040.87503,-305383963.77466,-28292273.34479,   0.00031,  -0.00137,  -0.00056,277282496.00000,   0.00019,274843680.00000,   0.00011,  -0.00015,  -0.00019,-197561184.00000,   0.00000
-89134205.85853,-306619120.95364,-28015933.09457,   0.00030,  -0.00137,  -0.00056,277616256.00000,   0.00019,274843680.00000,   0.00011,  -0.00015,  -0.00019,-197227424.00000,   0.00000
-92278622.94808,-307871026.02658,-27739592.84436,   0.00029,  -0.00137,  -0.00055,277992896.00000,   0.00019,274843680.00000,   0.00011,  -0.00015,  -0.00019,-196850784.00000,   0.00000
-95464909.77251,-309164800.83440,-27454878.64717,   0.00027,  -0.00137,  -0.00055,278420992.00000,   0.00019,274843680.00000,   0.00011,  -0.00015,  -0.00019,-196422688.00000,   0.00000
-98638635.67648,-310429266.82780,-27178538.39695,   0.00026,  -0.00137,  -0.00055,278850816.00000,   0.00019,274843680.00000,   0.00011,  -0.00015,  -0.00019,-195992864.00000,   0.00000
-101824922.50091,-311723041.63562,-26893824.19977,   0.00025,  -0.00137,  -0.00054,279328160.00000,   0.00019,274843680.00000,   0.00011,  -0.00015,  -0.00019,-195515520.00000,   0.00000
-105040518.13976,-313029377.36390,-26617483.94955,   0.00024,  -0.00137,  -0.00054,279839264.00000,   0.00019,274843680.00000,   0.00011,  -0.00015,  -0.00019,-195004416.00000,   0.00000
-108239365.88466,-314352460.98613,-26332769.75236,   0.00023,  -0.00137,  -0.00054,280393312.00000,   0.00019,274843680.00000,   0.00011,  -0.00015,  -0.00019,-194450368.00000,   0.00000
-111480083.36443,-315717414.34325,-26056429.50215,   0.00021,  -0.00137,  -0.00053,281007424.00000,   0.00019,274843680.00000,   0.00011,  -0.00015,  -0.00019,-193836256.00000,   0.00000
-114708239.92375,-317053058.88595,-25771715.30496,   0.00020,  -0.00137,  -0.00053,281621024.00000,   0.00019,274843680.00000,   0.00011,  -0.00015,  -0.00019,-193222656.00000,   0.00000
-117978266.21794,-318430573.16353,-25487001.10777,   0.00019,  -0.00137,  -0.00052,282293472.00000,   0.00019,274843680.00000,   0.00011,  -0.00015,  -0.00019,-192550208.00000,   0.00000
-121231544.61818,-319824835.33506,-25210660.85756,   0.00018,  -0.00137,  -0.00052,283012704.00000,   0.00019,274843680.00000,   0.00011,  -0.00015,  -0.00019,-191830976.00000,   0.00000
-124501570.91237,-321202349.61264,-24925946.66037,   0.00017,  -0.00137,  -0.00052,283739360.00000,   0.00019,274843680.00000,   0.00011,  -0.00015,  -0.00019,-191104320.00000,   0.00000
-127767410.23308,-322625920.59859,-24641232.46318,   0.00015,  -0.00137,  -0.00051,284535584.00000,   0.00019,274843680.00000,   0.00011,  -0.00015,  -0.00019,-190308096.00000,   0.00000
-131049997.44774,-324032743.69058,-24356518.26599,   0.00014,  -0.00137,  -0.00051,285344224.00000,   0.00019,274843680.00000,   0.00011,  -0.00015,  -0.00019,-189499456.00000,   0.00000
-134345145.58286,-325468875.59700,-24071804.06880,   0.00013,  -0.00137,  -0.00051,286211328.00000,   0.00019,274843680.00000,   0.00011,  -0.00015,  -0.00019,-188632352.00000,   0.00000
-137682163.45286,-326946877.23829,-23787089.87161,   0.00012,  -0.00137,  -0.00050,287151104.00000,   0.00019,274843680.00000,   0.00011,  -0.00015,  -0.00019,-187692576.00000,   0.00000
-140989872.50845,-328412317.95912,-23494001.72744,   0.00010,  -0.00137,  -0.00050,288125024.00000,   0.00019,274843680.00000,   0.00011,  -0.00015,  -0.00019,-186718656.00000,   0.00000
-144326890.37845,-329890319.60041,-23209287.53025,   0.00009,  -0.00137,  -0.00049,289155232.00000,   0.00019,274843680.00000,   0.00011,  -0.00015,  -0.00019,-185688448.00000,   0.00000
-147647160.35450,-331385069.13566,-22924573.33306,   0.00008,  -0.00137,  -0.00049,290239520.00000,   0.00019,274843680.00000,   0.00011,  -0.00015,  -0.00019,-184604160.00000,   0.00000
-150996739.14497,-332892379.59137,-22631485.18890,   0.00007,  -0.00137,  -0.00049,291357920.00000,   0.00019,274843680.00000,   0.00011,  -0.00015,  -0.00019,-183485760.00000,   0.00000
-154358878.85590,-334428998.86149,-22338397.04473,   0.00006,  -0.00137,  -0.00048,292514816.00000,   0.00019,274843680.00000,   0.00011,  -0.00015,  -0.00019,-182328864.00000,   0.00000
-157721018.56683,-335965618.13162,-22053682.84754,   0.00004,  -0.00137,  -0.00048,293679104.00000,   0.00019,274843680.00000,   0.00011,  -0.00015,  -0.00019,-181164576.00000,   0.00000
-161095719.19823,-337531546.21616,-21760594.70337,   0.00003,  -0.00137,  -0.00048,294875904.00000,   0.00019,274843680.00000,   0.00011,  -0.00015,  -0.00019,-179967776.00000,   0.00000
-164457858.90916,-339068165.48629,-21467506.55921,   0.00002,  -0.00137,  -0.00047,296070976.00000,   0.00019,274843680.00000,   0.00011,  -0.00015,  -0.00019,-178772704.00000,   0.00000
-167845120.46102,-340663402.38525,-21166044.46807,   0.00001,  -0.00137,  -0.00047,297344960.00000,   0.00019,274843680.00000,   0.00011,  -0.00015,  -0.00019,-177498720.00000,   0.00000
-171261690.82730,-342271200.20468,-20872956.32390,  -0.00001,  -0.00137,  -0.00046,298653984.00000,   0.00019,274843680.00000,   0.00011,  -0.00015,  -0.00019,-176189696.00000,   0.00000
-174648952.37916,-343866437.10364,-20571494.23276,  -0.00002,  -0.00137,  -0.00046,299966432.00000,   0.00019,274843680.00000,   0.00011,  -0.00015,  -0.00019,-174877248.00000,   0.00000
-178078083.66590,-345503543.73748,-20278406.08859,  -0.00003,  -0.00137,  -0.00046,301327296.00000,   0.00019,274843680.00000,   0.00011,  -0.00015,  -0.00019,-173516384.00000,   0.00000
-181477906.13822,-347128089.45085,-19976943.99745,  -0.00004,  -0.00137,  -0.00045,302685792.00000,   0.00019,274843680.00000,   0.00011,  -0.00015,  -0.00019,-172157888.00000,   0.00000
-184907037.42496,-348765196.08469,-19675481.90631,  -0.00006,  -0.00137,  -0.00045,304070144.00000,   0.00019,274843680.00000,   0.00011,  -0.00015,  -0.00019,-170773536.00000,   0.00000
-188319420.81775,-350419050.61249,-19374019.81517,  -0.00007,  -0.00137,  -0.00044,305491104.00000,   0.00019,274843680.00000,   0.00011,  -0.00015,  -0.00019,-169352576.00000,   0.00000
-191773673.94542,-352114774.87516,-19064183.77705,  -0.00008,  -0.00138,  -0.00044,306978144.00000,   0.00019,274843680.00000,   0.00011,  -0.00015,  -0.00019,-167865536.00000,   0.00000
-195227927.07309,-353810499.13783,-18762721.68591,  -0.00009,  -0.00138,  -0.00044,308504032.00000,   0.00019,274843680.00000,   0.00011,  -0.00015,  -0.00019,-166339648.00000,   0.00000
-198652871.38634,-355493662.48004,-18452885.64779,  -0.00011,  -0.00138,  -0.00043,310054944.00000,   0.00019,274843680.00000,   0.00011,  -0.00015,  -0.00019,-164788736.00000,   0.00000
-202119685.43447,-357218695.55714,-18143049.60967,  -0.00012,  -0.00138,  -0.00043,311677664.00000,   0.00019,274843680.00000,   0.00011,  -0.00015,  -0.00019,-163166016.00000,   0.00000
-205586499.48261,-358943728.63423,-17833213.57155,  -0.00013,  -0.00138,  -0.00042,313327936.00000,   0.00019,274843680.00000,   0.00011,  -0.00015,  -0.00019,-161515744.00000,   0.00000
-209065874.45120,-360698070.52573,-17523377.53343,  -0.00014,  -0.00138,  -0.00042,315024480.00000,   0.00019,274843680.00000,   0.00011,  -0.00015,  -0.00019,-159819200.00000,   0.00000
-212515940.60539,-362439851.49678,-17205167.54834,  -0.00015,  -0.00138,  -0.00042,316724992.00000,   0.00019,274843680.00000,   0.00011,  -0.00015,  -0.00019,-158118688.00000,   0.00000
-216007876.49445,-364223502.20270,-16895331.51022,  -0.00017,  -0.00138,  -0.00041,318482720.00000,   0.00019,274843680.00000,   0.00011,  -0.00015,  -0.00019,-156360960.00000,   0.00000
-219499812.38351,-366007152.90862,-16577121.52513,  -0.00018,  -0.00138,  -0.00041,320258304.00000,   0.00019,274843680.00000,   0.00011,  -0.00015,  -0.00019,-154585376.00000,   0.00000
-222962439.45815,-367778242.69408,-16258911.54003,  -0.00019,  -0.00139,  -0.00040,322041120.00000,   0.00019,274843680.00000,   0.00011,  -0.00015,  -0.00019,-152802560.00000,   0.00000
-226466936.26768,-369591202.21442,-15932327.60796,  -0.00020,  -0.00139,  -0.00040,323883584.00000,   0.00019,274843680.00000,   0.00011,  -0.00015,  -0.00019,-150960096.00000,   0.00000
-229954685.18325,-371420909.62872,-15614117.62287,  -0.00022,  -0.00139,  -0.00040,325760768.00000,   0.00019,274843680.00000,   0.00011,  -0.00015,  -0.00019,-149082912.00000,   0.00000
-233471742.91325,-373263177.96347,-15287533.69080,  -0.00023,  -0.00139,  -0.00039,327671584.00000,   0.00019,274843680.00000,   0.00011,  -0.00015,  -0.00019,-147172096.00000,   0.00000
-236959491.82882,-375092885.37777,-14960949.75873,  -0.00024,  -0.00139,  -0.00039,329585568.00000,   0.00019,274843680.00000,   0.00011,  -0.00015,  -0.00019,-145258112.00000,   0.00000
-240489110.47927,-376964462.52694,-14625991.87968,  -0.00025,  -0.00139,  -0.00038,331550688.00000,   0.00019,274843680.00000,   0.00011,  -0.00015,  -0.00019,-143292992.00000,   0.00000
-243989420.31531,-378823478.75565,-14299407.94761,  -0.00027,  -0.00139,  -0.00038,333512256.00000,   0.00019,274843680.00000,   0.00011,  -0.00015,  -0.00019,-141331424.00000,   0.00000
-247502291.07181,-380711803.79877,-13964450.06856,  -0.00028,  -0.00140,  -0.00037,335505856.00000,   0.00019,274843680.00000,   0.00011,  -0.00015,  -0.00019,-139337824.00000,   0.00000
-251015161.82832,-382600128.84190,-13629492.18952,  -0.00029,  -0.00140,  -0.00037,337508896.00000,   0.00019,274843680.00000,   0.00011,  -0.00015,  -0.00019,-137334784.00000,   0.00000
-254540593.50528,-384517762.69944,-13286160.36349,  -0.00030,  -0.00140,  -0.00037,339547456.00000,   0.00019,274843680.00000,   0.00011,  -0.00015,  -0.00019,-135296224.00000,   0.00000
-258066025.18225,-386435396.55698,-12942828.53747,  -0.00032,  -0.00140,  -0.00036,341601056.00000,   0.00019,274843680.00000,   0.00011,  -0.00015,  -0.00019,-133242624.00000,   0.00000
-261604017.77968,-388382339.22894,-12599496.71145,  -0.00033,  -0.00140,  -0.00036,343696480.00000,   0.00019,274843680.00000,   0.00011,  -0.00015,  -0.00019,-131147200.00000,   0.00000
-265112701.56270,-390316720.98044,-12256164.88542,  -0.00034,  -0.00141,  -0.00035,345795200.00000,   0.00019,274843680.00000,   0.00011,  -0.00015,  -0.00019,-129048480.00000,   0.00000
-268663255.08059,-392292972.46681,-11904459.11242,  -0.00035,  -0.00141,  -0.00035,347950880.00000,   0.00019,274843680.00000,   0.00011,  -0.00015,  -0.00019,-126892800.00000,   0.00000
-272184499.78407,-394256663.03272,-11552753.33943,  -0.00036,  -0.00141,  -0.00034,350109056.00000,   0.00019,274843680.00000,   0.00011,  -0.00015,  -0.00019,-124734624.00000,   0.00000
-275705744.48755,-396220353.59864,-11201047.56643,  -0.00038,  -0.00141,  -0.00034,352283872.00000,   0.00019,274843680.00000,   0.00011,  -0.00015,  -0.00019,-122559808.00000,   0.00000
-279239550.11149,-398213352.97896,-10849341.79343,  -0.00039,  -0.00141,  -0.00033,354498944.00000,   0.00019,274843680.00000,   0.00011,  -0.00015,  -0.00019,-120344736.00000,   0.00000
-282773355.73543,-400206352.35929,-10489262.07345,  -0.00040,  -0.00142,  -0.00033,356728672.00000,   0.00019,274843680.00000,   0.00011,  -0.00015,  -0.00019,-118115008.00000,   0.00000
-286319722.27984,-402228660.55404,-10129182.35348,  -0.00041,  -0.00142,  -0.00032,358996608.00000,   0.00019,274843680.00000,   0.00011,  -0.00015,  -0.00019,-115847072.00000,   0.00000
-289878649.74471,-404280277.56320,-9760728.68653,  -0.00043,  -0.00142,  -0.00032,361298176.00000,   0.00019,274843680.00000,   0.00011,  -0.00015,  -0.00019,-113545504.00000,   0.00000
-293408268.39517,-406319333.65189,-9392275.01957,  -0.00044,  -0.00142,  -0.00031,363589120.00000,   0.00019,274843680.00000,   0.00011,  -0.00015,  -0.00019,-111254560.00000,   0.00000
-296937887.04562,-408358389.74059,-9023821.35262,  -0.00045,  -0.00143,  -0.00031,365881376.00000,   0.00019,274843680.00000,   0.00011,  -0.00015,  -0.00019,-108962304.00000,   0.00000
-300480066.61654,-410426754.64370,-8646993.73870,  -0.00046,  -0.00143,  -0.00031,368198944.00000,   0.00019,274843680.00000,   0.00011,  -0.00015,  -0.00019,-106644736.00000,   0.00000
-304022246.18746,-412495119.54682,-8278540.07174,  -0.00047,  -0.00143,  -0.00030,370524320.00000,   0.00019,274843680.00000,   0.00011,  -0.00015,  -0.00019,-104319360.00000,   0.00000
-307547677.86443,-414580232.34388,-7893338.51084,  -0.00049,  -0.00143,  -0.00030,372869888.00000,   0.00019,274843680.00000,   0.00011,  -0.00015,  -0.00019,-101973792.00000,   0.00000
-311102418.35581,-416677906.06141,-7516510.89691,  -0.00050,  -0.00144,  -0.00029,375250624.00000,   0.00019,274843680.00000,   0.00011,  -0.00015,  -0.00019,-99593056.00000,   0.00000
-314640410.95324,-418792327.67290,-7131309.33601,  -0.00051,  -0.00144,  -0.00029,377658496.00000,   0.00019,274843680.00000,   0.00011,  -0.00015,  -0.00019,-97185184.00000,   0.00000
-318178403.55067,-420906749.28438,-6737733.82813,  -0.00052,  -0.00144,  -0.00028,380086432.00000,   0.00019,274843680.00000,   0.00011,  -0.00015,  -0.00019,-94757248.00000,   0.00000
-321699648.25415,-423037918.78981,-6352532.26723,  -0.00053,  -0.00144,  -0.00028,382540576.00000,   0.00019,274843680.00000,   0.00011,  -0.00015,  -0.00019,-92303104.00000,   0.00000
-325250201.77204,-425181649.21571,-5950582.81237,  -0.00055,  -0.00145,  -0.00027,385028032.00000,   0.00019,274843680.00000,   0.00011,  -0.00015,  -0.00019,-89815648.00000,   0.00000
-328771446.47552,-427312818.72115,-5557007.30449,  -0.00056,  -0.00145,  -0.00026,387513120.00000,   0.00019,274843680.00000,   0.00011,  -0.00015,  -0.00019,-87330560.00000,   0.00000
-332305252.09947,-429473297.04100,-5155057.84963,  -0.00057,  -0.00145,  -0.00026,390033120.00000,   0.00019,274843680.00000,   0.00011,  -0.00015,  -0.00019,-84810560.00000,   0.00000
-335822309.82946,-431650523.25480,-4753108.39478,  -0.00058,  -0.00146,  -0.00025,392567744.00000,   0.00019,274843680.00000,   0.00011,  -0.00015,  -0.00019,-82275936.00000,   0.00000
-339339367.55945,-433827749.46861,-4342784.99295,  -0.00059,  -0.00146,  -0.00025,395107744.00000,   0.00019,274843680.00000,   0.00011,  -0.00015,  -0.00019,-79735936.00000,   0.00000
-342856425.28944,-436004975.68241,-3932461.59111,  -0.00060,  -0.00146,  -0.00024,397651648.00000,   0.00019,274843680.00000,   0.00011,  -0.00015,  -0.00019,-77192032.00000,   0.00000
-346386043.93989,-438211510.71063,-3513764.24230,  -0.00062,  -0.00147,  -0.00024,400224320.00000,   0.00019,274843680.00000,   0.00011,  -0.00015,  -0.00019,-74619360.00000,   0.00000
-349898914.69639,-440434793.63280,-3095066.89350,  -0.00063,  -0.00147,  -0.00023,402816960.00000,   0.00019,274843680.00000,   0.00011,  -0.00015,  -0.00019,-72026720.00000,   0.00000
-353411785.45290,-442658076.55497,-2676369.54469,  -0.00064,  -0.00147,  -0.00023,405425760.00000,   0.00019,274843680.00000,   0.00011,  -0.00015,  -0.00019,-69417920.00000,   0.00000
-356924656.20940,-444881359.47715,-2249298.24890,  -0.00065,  -0.00148,  -0.00022,407999776.00000,   0.00019,274843680.00000,   0.00011,  -0.00015,  -0.00019,-66843904.00000,   0.00000
-360420779.07195,-447121390.29327,-1813853.00614,  -0.00066,  -0.00148,  -0.00022,410584256.00000,   0.00019,274843680.00000,   0.00011,  -0.00015,  -0.00019,-64259424.00000,   0.00000
-363916901.93450,-449361421.10940,-1386781.71036,  -0.00067,  -0.00148,  -0.00021,413222080.00000,   0.00019,274843680.00000,   0.00011,  -0.00015,  -0.00019,-61621600.00000,   0.00000
-367425585.71751,-451630760.73994,-942962.52062,  -0.00069,  -0.00149,  -0.00020,415882208.00000,   0.00019,274843680.00000,   0.00011,  -0.00015,  -0.00019,-58961472.00000,   0.00000
-370934269.50053,-453900100.37048,-507517.27786,  -0.00070,  -0.00149,  -0.00020,418540256.00000,   0.00019,274843680.00000,   0.00011,  -0.00015,  -0.00019,-56303424.00000,   0.00000
-374396896.57517,-456173626.97451,-63698.08812,  -0.00071,  -0.00149,  -0.00019,421191776.00000,   0.00019,274843680.00000,   0.00011,  -0.00015,  -0.00019,-53651904.00000,   0.00000
-377888832.46423,-458459714.49900,388495.04859,  -0.00072,  -0.00150,  -0.00019,423869792.00000,   0.00019,274843680.00000,   0.00011,  -0.00015,  -0.00019,-50973888.00000,   0.00000
-381364020.45934,-460762549.91745,840688.18530,  -0.00073,  -0.00150,  -0.00018,426557280.00000,   0.00019,274843680.00000,   0.00011,  -0.00015,  -0.00019,-48286400.00000,   0.00000
-384839208.45445,-463065385.33590,1301255.26899,  -0.00074,  -0.00150,  -0.00018,429247168.00000,   0.00019,274843680.00000,   0.00011,  -0.00015,  -0.00019,-45596512.00000,   0.00000
-388326957.37003,-465397529.56876,1761822.35268,  -0.00075,  -0.00151,  -0.00017,431964224.00000,   0.00019,274843680.00000,   0.00011,  -0.00015,  -0.00019,-42879456.00000,   0.00000
-391785397.47118,-467717112.88116,2222389.43637,  -0.00077,  -0.00151,  -0.00016,434671488.00000,   0.00019,274843680.00000,   0.00011,  -0.00015,  -0.00019,-40172192.00000,   0.00000
-395214528.75793,-470024135.27309,2691330.46704,  -0.00078,  -0.00151,  -0.00016,437370912.00000,   0.00019,274843680.00000,   0.00011,  -0.00015,  -0.00019,-37472768.00000,   0.00000
-398685529.77955,-472373027.39991,3168645.44468,  -0.00079,  -0.00152,  -0.00015,440121632.00000,   0.00019,274843680.00000,   0.00011,  -0.00015,  -0.00019,-34722048.00000,   0.00000
-402110474.09280,-474726106.50021,3645960.42232,  -0.00080,  -0.00152,  -0.00015,442865088.00000,   0.00019,274843680.00000,   0.00011,  -0.00015,  -0.00019,-31978592.00000,   0.00000
-405564727.22047,-477091746.52098,4123275.39996,  -0.00081,  -0.00153,  -0.00014,445633088.00000,   0.00019,274843680.00000,   0.00011,  -0.00015,  -0.00019,-29210592.00000,   0.00000
-408989671.53372,-479444825.62128,4608964.32458,  -0.00082,  -0.00153,  -0.00013,448387328.00000,   0.00019,274843680.00000,   0.00011,  -0.00015,  -0.00019,-26456352.00000,   0.00000
-412397867.95302,-481814652.61554,5103027.19617,  -0.00083,  -0.00154,  -0.00013,451151264.00000,   0.00019,274843680.00000,   0.00011,  -0.00015,  -0.00019,-23692416.00000,   0.00000
-415818625.29279,-484213788.42421,5597090.06777,  -0.00084,  -0.00154,  -0.00012,453945248.00000,   0.00019,274843680.00000,   0.00011,  -0.00015,  -0.00019,-20898432.00000,   0.00000
-419226821.71209,-486583615.41846,6091152.93936,  -0.00085,  -0.00154,  -0.00011,456724576.00000,   0.00019,274843680.00000,   0.00011,  -0.00015,  -0.00019,-18119104.00000,   0.00000
-422630831.15790,-488999499.12109,6601963.70491,  -0.00086,  -0.00155,  -0.00011,459535392.00000,   0.00019,274843680.00000,   0.00011,  -0.00015,  -0.00019,-15308288.00000,   0.00000
-426022279.68325,-491386074.00929,7104400.52348,  -0.00087,  -0.00155,  -0.00010,462321088.00000,   0.00019,274843680.00000,   0.00011,  -0.00015,  -0.00019,-12522592.00000,   0.00000
-429409541.23511,-493818705.60587,7615211.28902,  -0.00089,  -0.00156,  -0.00009,465131840.00000,   0.00019,274843680.00000,   0.00011,  -0.00015,  -0.00019,-9711840.00000,   0.00000
-432784241.86650,-496222028.38803,8134396.00154,  -0.00090,  -0.00156,  -0.00009,467928704.00000,   0.00019,274843680.00000,   0.00011,  -0.00015,  -0.00019,-6914976.00000,   0.00000
-436154755.52441,-498671407.87856,8653580.71407,  -0.00091,  -0.00157,  -0.00008,470761344.00000,   0.00019,274843680.00000,   0.00011,  -0.00015,  -0.00019,-4082336.00000,   0.00000
-439512708.26185,-501091478.55467,9181139.37357,  -0.00092,  -0.00157,  -0.00007,473573728.00000,   0.00019,274843680.00000,   0.00011,  -0.00015,  -0.00019,-1269952.00000,   0.00000
-441020165.91585,-502190902.55796,9422937.09250,  -0.00092,  -0.00157,  -0.00007,474843136.00000,   0.00019,274843680.00000,   0.00011,  -0.00015,  -0.00019,-544.00000,   0.00000
-441446008.76841,-501886012.15208,9679203.83367,  -0.00093,  -0.00157,  -0.00007,474843136.00000,   0.00019,274848768.00000,   0.00010,  -0.00015,  -0.00019,  32.00000,   2.00000
-442205263.47020,-501335804.74293,10142598.75502,  -0.00094,  -0.00158,  -0.00006,477683872.00000,   0.00020,274858176.00000,   0.00010,  -0.00016,  -0.00019,  96.00000,   2.00000
-442943817.07880,-500793133.23324,10603406.83639,  -0.00095,  -0.00158,  -0.00005,477678048.00000,   0.00021,274867520.00000,   0.00009,  -0.00017,  -0.00019,   0.00000,   2.00000
-443661728.14038,-500257713.12877,11070026.47208,  -0.00096,  -0.00159,  -0.00005,477672384.00000,   0.00022,274876800.00000,   0.00008,  -0.00018,  -0.00019,  32.00000,   2.00000
-444362934.40195,-499727450.49986,11541294.11329,  -0.00097,  -0.00159,  -0.00004,477708224.00000,   0.00022,274886176.00000,   0.00008,  -0.00019,  -0.00019, 128.00000,   2.00000
-445055834.03297,-499197188.43259,12009501.12030,  -0.00098,  -0.00160,  -0.00003,477721408.00000,   0.00023,274895552.00000,   0.00007,  -0.00019,  -0.00019, 160.00000,   2.00000
-445720690.45988,-498679942.48533,12482884.00156,  -0.00099,  -0.00160,  -0.00002,477737920.00000,   0.00024,274904960.00000,   0.00007,  -0.00020,  -0.00019,  96.00000,   2.00000
-446365864.74814,-498170089.07596,12962111.49829,  -0.00100,  -0.00161,  -0.00002,477732288.00000,   0.00025,274914304.00000,   0.00006,  -0.00021,  -0.00018,  64.00000,   2.00000
-446995430.30094,-497666257.63551,13437499.51075,  -0.00101,  -0.00161,  -0.00001,477767424.00000,   0.00026,274923744.00000,   0.00005,  -0.00022,  -0.00018,   0.00000,   2.00000
-447617542.33298,-497162739.03236,13909755.54143,  -0.00102,  -0.00162,  -0.00000,477780384.00000,   0.00027,274933184.00000,   0.00005,  -0.00023,  -0.00018,  64.00000,   2.00000
-448200727.66877,-496679770.70161,14396028.69634,  -0.00103,  -0.00162,   0.00001,477777984.00000,   0.00028,274942560.00000,   0.00004,  -0.00024,  -0.00018,  96.00000,   2.00000
-448776707.17636,-496196905.55830,14879005.06427,  -0.00104,  -0.00163,   0.00001,477790880.00000,   0.00028,274951968.00000,   0.00004,  -0.00025,  -0.00018,   0.00000,   2.00000
-449337717.07335,-495720494.63183,15357819.72699,  -0.00105,  -0.00163,   0.00002,477825696.00000,   0.00029,274961440.00000,   0.00003,  -0.00025,  -0.00018,  96.00000,   2.00000
-449880030.64921,-495251424.39630,15842244.81558,  -0.00106,  -0.00164,   0.00003,477819712.00000,   0.00030,274970880.00000,   0.00002,  -0.00026,  -0.00018,  96.00000,   2.00000
-450403813.18311,-494789646.21032,16332186.10769,  -0.00107,  -0.00164,   0.00004,477813664.00000,   0.00031,274980256.00000,   0.00002,  -0.00027,  -0.00018,   0.00000,   2.00000
-450912918.66513,-494334434.77368,16817573.45357,  -0.00108,  -0.00165,   0.00004,477848128.00000,   0.00032,274989728.00000,   0.00001,  -0.00028,  -0.00017,  32.00000,   2.00000
-451403722.26492,-493886477.06098,17308295.05131,  -0.00109,  -0.00165,   0.00005,477841952.00000,   0.00033,274999136.00000,   0.00000,  -0.00029,  -0.00017,  96.00000,   2.00000
-451868444.14863,-493452175.81833,17803302.41377,  -0.00110,  -0.00166,   0.00006,477857440.00000,   0.00034,275008544.00000,  -0.00000,  -0.00030,  -0.00017,  64.00000,   2.00000
-452326734.23664,-493018049.01518,18294277.72450,  -0.00111,  -0.00167,   0.00007,477869888.00000,   0.00034,275017984.00000,  -0.00001,  -0.00030,  -0.00017,  64.00000,   2.00000
-452767180.85755,-492591188.63820,18790332.54908,  -0.00112,  -0.00167,   0.00008,477863360.00000,   0.00035,275027360.00000,  -0.00002,  -0.00031,  -0.00017,   0.00000,   2.00000
-453185560.63196,-492177827.10531,19280150.05014,  -0.00112,  -0.00168,   0.00009,477919200.00000,   0.00036,275036896.00000,  -0.00002,  -0.00032,  -0.00017,  64.00000,   2.00000
-453594386.24391,-491765091.76784,19776007.69566,  -0.00113,  -0.00168,   0.00009,477891040.00000,   0.00037,275046304.00000,  -0.00003,  -0.00033,  -0.00016,  96.00000,   2.00000
-453977850.19074,-491366237.06920,20275763.25118,  -0.00114,  -0.00169,   0.00010,477906208.00000,   0.00038,275055744.00000,  -0.00004,  -0.00034,  -0.00016,  96.00000,   2.00000
-454354624.15251,-490966627.58103,20779480.20407,  -0.00115,  -0.00169,   0.00011,477919552.00000,   0.00039,275065184.00000,  -0.00004,  -0.00035,  -0.00016,  64.00000,   2.00000
-454696843.36260,-490589869.55991,21279860.22307,  -0.00116,  -0.00170,   0.00012,477913856.00000,   0.00040,275074592.00000,  -0.00005,  -0.00035,  -0.00016, -32.00000,   2.00000
-455044480.11999,-490205788.35915,21775007.56065,  -0.00117,  -0.00170,   0.00013,477945568.00000,   0.00041,275084064.00000,  -0.00005,  -0.00036,  -0.00016,  32.00000,   2.00000
-455356098.48845,-489842516.95845,22283608.13655,  -0.00118,  -0.00171,   0.00014,477941984.00000,   0.00041,275093472.00000,  -0.00006,  -0.00037,  -0.00015,  96.00000,   2.00000
-455663008.05164,-489479713.64525,22788209.37771,  -0.00119,  -0.00172,   0.00014,477954176.00000,   0.00042,275102912.00000,  -0.00007,  -0.00038,  -0.00015,  64.00000,   2.00000
-455953730.89432,-489123900.52180,23298392.20283,  -0.00120,  -0.00172,   0.00015,477947680.00000,   0.00043,275112288.00000,  -0.00007,  -0.00039,  -0.00015, -32.00000,   2.00000
-456222188.95499,-488783773.35436,23804814.30628,  -0.00120,  -0.00173,   0.00016,477961280.00000,   0.00044,275121664.00000,  -0.00008,  -0.00039,  -0.00015, 160.00000,   2.00000
-456485224.14123,-488442577.51448,24315982.91135,  -0.00121,  -0.00173,   0.00017,477974720.00000,   0.00045,275131072.00000,  -0.00009,  -0.00040,  -0.00014,   0.00000,   2.00000
-456725055.92131,-488115553.52044,24831948.18143,  -0.00122,  -0.00174,   0.00018,477989568.00000,   0.00046,275140480.00000,  -0.00009,  -0.00041,  -0.00014,   0.00000,   2.00000
-456951227.23842,-487796931.04903,25345989.25078,  -0.00123,  -0.00175,   0.00019,477981632.00000,   0.00047,275149856.00000,  -0.00010,  -0.00042,  -0.00014,  64.00000,   2.00000
-457163548.08920,-487483026.47585,25872084.17817,  -0.00124,  -0.00175,   0.00020,478017792.00000,   0.00047,275159296.00000,  -0.00011,  -0.00043,  -0.00014,  64.00000,   2.00000
-457353866.58929,-487186759.48439,26389624.58340,  -0.00125,  -0.00176,   0.00021,477988416.00000,   0.00048,275168608.00000,  -0.00011,  -0.00043,  -0.00014,  64.00000,   2.00000
-457548862.16494,-486880006.76344,26919543.86981,  -0.00125,  -0.00177,   0.00022,478023040.00000,   0.00049,275177984.00000,  -0.00012,  -0.00044,  -0.00013,  32.00000,   2.00000
-457713034.99184,-486596638.06165,27447984.52787,  -0.00126,  -0.00177,   0.00023,478016352.00000,   0.00050,275187328.00000,  -0.00013,  -0.00045,  -0.00013, 160.00000,   2.00000
-457863172.34337,-486319646.33203,27983381.73612,  -0.00127,  -0.00178,   0.00024,478009632.00000,   0.00051,275196608.00000,  -0.00013,  -0.00046,  -0.00013, 128.00000,   2.00000
-458001775.56989,-486048510.83447,28522886.81450,  -0.00128,  -0.00178,   0.00025,478044224.00000,   0.00052,275205952.00000,  -0.00014,  -0.00047,  -0.00013,  32.00000,   2.00000
-458128219.54342,-485785266.21761,29061165.82374,  -0.00128,  -0.00179,   0.00026,478035776.00000,   0.00053,275215264.00000,  -0.00015,  -0.00047,  -0.00012,  64.00000,   2.00000
-458241221.07920,-485528280.65027,29606466.62720,  -0.00129,  -0.00180,   0.00026,478028704.00000,   0.00053,275224512.00000,  -0.00015,  -0.00048,  -0.00012,  64.00000,   2.00000
-458343020.11266,-485276883.55106,30155721.88324,  -0.00130,  -0.00180,   0.00027,478063232.00000,   0.00054,275233824.00000,  -0.00016,  -0.00049,  -0.00012,  32.00000,   2.00000
-458422877.80591,-485040864.68693,30705077.01349,  -0.00131,  -0.00181,   0.00028,478034528.00000,   0.00055,275243040.00000,  -0.00017,  -0.00050,  -0.00011,  32.00000,   2.00000
-458491830.25853,-484810287.94659,31258134.10185,  -0.00131,  -0.00182,   0.00029,478068928.00000,   0.00056,275252320.00000,  -0.00017,  -0.00051,  -0.00011,   0.00000,   2.00000
-458547550.04931,-484585329.93714,31817788.67019,  -0.00132,  -0.00182,   0.00030,478061952.00000,   0.00057,275261536.00000,  -0.00018,  -0.00051,  -0.00011,  96.00000,   2.00000
-458591619.25460,-484367552.86043,32375658.01945,  -0.00133,  -0.00183,   0.00031,478053056.00000,   0.00058,275270688.00000,  -0.00019,  -0.00052,  -0.00011, -64.00000,   2.00000
-458623266.48740,-484153251.54985,32944773.20515,  -0.00134,  -0.00184,   0.00032,478089248.00000,   0.00058,275279936.00000,  -0.00019,  -0.00053,  -0.00010,  96.00000,   2.00000
-458633170.48235,-483953749.88933,33513212.06353,  -0.00134,  -0.00184,   0.00033,478060512.00000,   0.00059,275289088.00000,  -0.00020,  -0.00054,  -0.00010,   0.00000,   2.00000
-458633569.57772,-483760616.11502,34075900.51643,  -0.00135,  -0.00185,   0.00034,478093536.00000,   0.00060,275298272.00000,  -0.00021,  -0.00054,  -0.00010,  64.00000,   2.00000
-458619149.63466,-483570901.55242,34652307.69055,  -0.00136,  -0.00186,   0.00036,478088288.00000,   0.00061,275307456.00000,  -0.00021,  -0.00055,  -0.00010,   0.00000,   2.00000
-458592900.77735,-483387780.06175,35225760.65137,  -0.00136,  -0.00186,   0.00037,478079872.00000,   0.00062,275316544.00000,  -0.00022,  -0.00056,  -0.00009,  96.00000,   2.00000
-458545447.23318,-483217058.45368,35802454.74531,  -0.00137,  -0.00187,   0.00038,478094560.00000,   0.00063,275325696.00000,  -0.00023,  -0.00057,  -0.00009,  96.00000,   2.00000
-458496079.71198,-483044844.76704,36374059.90665,  -0.00138,  -0.00188,   0.00039,478106368.00000,   0.00064,275334816.00000,  -0.00023,  -0.00057,  -0.00009,  64.00000,   2.00000
-458422967.68863,-482885062.34601,36952101.13704,  -0.00138,  -0.00189,   0.00040,478079584.00000,   0.00064,275343872.00000,  -0.00024,  -0.00058,  -0.00008, -96.00000,   2.00000
-458338622.57246,-482729666.05696,37530965.96786,  -0.00139,  -0.00189,   0.00041,478114816.00000,   0.00065,275352992.00000,  -0.00025,  -0.00059,  -0.00008,  96.00000,   2.00000
-458240451.95796,-482578607.82727,38114198.30582,  -0.00140,  -0.00190,   0.00042,478108576.00000,   0.00066,275362048.00000,  -0.00025,  -0.00060,  -0.00008,  96.00000,   2.00000
-458120618.19274,-482439326.22401,38699716.99128,  -0.00140,  -0.00191,   0.00043,478123840.00000,   0.00067,275371168.00000,  -0.00026,  -0.00060,  -0.00007, -64.00000,   2.00000
-457988919.60167,-482306274.49926,39281377.93302,  -0.00141,  -0.00191,   0.00044,478115776.00000,   0.00068,275380192.00000,  -0.00027,  -0.00061,  -0.00007,   0.00000,   2.00000
-457843409.42246,-482177319.90648,39867369.42076,  -0.00141,  -0.00192,   0.00045,478109600.00000,   0.00069,275389216.00000,  -0.00027,  -0.00062,  -0.00007,   0.00000,   2.00000
-457696210.16892,-482046787.92107,40447645.57513,  -0.00142,  -0.00193,   0.00046,478121600.00000,   0.00069,275398240.00000,  -0.00028,  -0.00063,  -0.00006,   0.00000,   2.00000
-457515283.42089,-481933432.09684,41040380.75384,  -0.00143,  -0.00194,   0.00047,478119008.00000,   0.00070,275407232.00000,  -0.00028,  -0.00063,  -0.00006, -32.00000,   2.00000
-457325228.43664,-481826059.03467,41625287.64860,  -0.00143,  -0.00194,   0.00049,478152192.00000,   0.00071,275416288.00000,  -0.00029,  -0.00064,  -0.00005, -64.00000,   2.00000
-457121587.96983,-481722507.59312,42214891.62925,  -0.00144,  -0.00195,   0.00050,478146208.00000,   0.00072,275425312.00000,  -0.00030,  -0.00065,  -0.00005,  96.00000,   2.00000
-456896038.11904,-481632281.25098,42803392.68430,  -0.00144,  -0.00196,   0.00051,478117920.00000,   0.00073,275434240.00000,  -0.00030,  -0.00066,  -0.00005, -32.00000,   2.00000
-456665270.87782,-481535869.39943,43402851.07979,  -0.00145,  -0.00196,   0.00052,478134176.00000,   0.00073,275443200.00000,  -0.00031,  -0.00066,  -0.00004,  96.00000,   2.00000
-456415351.20864,-481452725.56296,43996999.69850,  -0.00145,  -0.00197,   0.00053,478147200.00000,   0.00074,275452160.00000,  -0.00032,  -0.00067,  -0.00004, -32.00000,   2.00000
-456152162.47962,-481373042.33126,44596501.97059,  -0.00146,  -0.00198,   0.00054,478141024.00000,   0.00075,275461088.00000,  -0.00032,  -0.00068,  -0.00004,   0.00000,   2.00000
-455877824.96288,-481298926.36986,45193453.55624,  -0.00146,  -0.00199,   0.00056,478132576.00000,   0.00076,275469952.00000,  -0.00033,  -0.00069,  -0.00003, 128.00000,   2.00000
-455590684.35518,-481225690.66995,45799344.92014,  -0.00147,  -0.00200,   0.00057,478169984.00000,   0.00077,275478912.00000,  -0.00034,  -0.00069,  -0.00003,   0.00000,   2.00000
-455282287.84548,-481165514.64388,46405323.65588,  -0.00147,  -0.00200,   0.00058,478141504.00000,   0.00078,275487776.00000,  -0.00034,  -0.00070,  -0.00002,  32.00000,   2.00000
-454955574.58557,-481118432.09120,47006710.73227,  -0.00148,  -0.00201,   0.00059,478154080.00000,   0.00078,275496640.00000,  -0.00035,  -0.00071,  -0.00002,  64.00000,   2.00000
-454623769.27960,-481063915.91727,47619824.24514,  -0.00148,  -0.00202,   0.00060,478170368.00000,   0.00079,275505536.00000,  -0.00035,  -0.00072,  -0.00002, -64.00000,   2.00000
-454270912.11548,-481022158.74570,48233559.28313,  -0.00149,  -0.00203,   0.00062,478141632.00000,   0.00080,275514336.00000,  -0.00036,  -0.00072,  -0.00001, -32.00000,   2.00000
-453915491.86869,-480975363.39638,48851176.14912,  -0.00149,  -0.00203,   0.00063,478155296.00000,   0.00081,275523136.00000,  -0.00037,  -0.00073,  -0.00001, 128.00000,   2.00000
-453528878.04742,-480945955.56408,49475024.07681,  -0.00150,  -0.00204,   0.00064,478150528.00000,   0.00082,275531904.00000,  -0.00037,  -0.00074,  -0.00000, -64.00000,   2.00000
-453142598.90825,-480914178.54046,50094908.05002,  -0.00150,  -0.00205,   0.00065,478161248.00000,   0.00082,275540672.00000,  -0.00038,  -0.00074,   0.00000, -32.00000,   2.00000
-452722670.50534,-480896761.27913,50729184.96726,  -0.00151,  -0.00206,   0.00067,478159328.00000,   0.00083,275549440.00000,  -0.00038,  -0.00075,   0.00001, -32.00000,   2.00000
-452310469.45040,-480868835.07402,51362309.43097,  -0.00151,  -0.00207,   0.00068,478148960.00000,   0.00084,275558112.00000,  -0.00039,  -0.00076,   0.00001,   0.00000,   2.00000
-451880466.03325,-480853247.06367,51991398.64087,  -0.00151,  -0.00207,   0.00069,478161280.00000,   0.00085,275566848.00000,  -0.00040,  -0.00077,   0.00002,   0.00000,   2.00000
-451427681.63895,-480844359.90047,52632433.34614,  -0.00152,  -0.00208,   0.00070,478179200.00000,   0.00086,275575584.00000,  -0.00040,  -0.00077,   0.00002,  32.00000,   2.00000
-450960853.51380,-480839011.44157,53277704.77358,  -0.00152,  -0.00209,   0.00072,478129504.00000,   0.00086,275584128.00000,  -0.00041,  -0.00078,   0.00002,  96.00000,   2.00000
-450484726.52253,-480835585.97046,53924287.23992,  -0.00153,  -0.00210,   0.00073,478164352.00000,   0.00087,275592800.00000,  -0.00041,  -0.00079,   0.00003,  64.00000,   2.00000
-449988484.90775,-480841219.54573,54574782.85811,  -0.00153,  -0.00211,   0.00074,478179712.00000,   0.00088,275601472.00000,  -0.00042,  -0.00079,   0.00003, 160.00000,   2.00000
-449488878.60126,-480842687.50586,55227003.27308,  -0.00153,  -0.00211,   0.00076,478149920.00000,   0.00089,275610048.00000,  -0.00043,  -0.00080,   0.00004, -32.00000,   2.00000
-448969123.24910,-480852963.97204,55883087.32440,  -0.00154,  -0.00212,   0.00077,478165280.00000,   0.00090,275618656.00000,  -0.00043,  -0.00081,   0.00004,  64.00000,   2.00000
-448425031.77444,-480870903.73236,56548642.67128,  -0.00154,  -0.00213,   0.00078,478140256.00000,   0.00090,275627136.00000,  -0.00044,  -0.00082,   0.00005,  64.00000,   2.00000
-447874679.06727,-480893083.79240,57207231.29745,  -0.00154,  -0.00214,   0.00080,478172480.00000,   0.00091,275635712.00000,  -0.00044,  -0.00082,   0.00005,  64.00000,   2.00000
-447308232.97162,-480912437.66212,57880369.46944,  -0.00155,  -0.00215,   0.00081,478170176.00000,   0.00092,275644256.00000,  -0.00045,  -0.00083,   0.00006,  96.00000,   2.00000
-446731367.09304,-480935113.68981,58552182.91113,  -0.00155,  -0.00215,   0.00082,478161984.00000,   0.00093,275652736.00000,  -0.00045,  -0.00084,   0.00006,  64.00000,   2.00000
-446140977.33239,-480957682.07395,59230498.49513,  -0.00155,  -0.00216,   0.00084,478156992.00000,   0.00094,275661216.00000,  -0.00046,  -0.00084,   0.00007, -32.00000,   2.00000
-445521637.96119,-480998049.40353,59907113.91459,  -0.00155,  -0.00217,   0.00085,478150976.00000,   0.00094,275669632.00000,  -0.00046,  -0.00085,   0.00007,  64.00000,   2.00000
-444900240.43966,-481031064.14548,60587230.07759,  -0.00156,  -0.00218,   0.00086,478165600.00000,   0.00095,275678080.00000,  -0.00047,  -0.00086,   0.00008,  96.00000,   2.00000
-444265154.45936,-481063565.16551,61273620.16244,  -0.00156,  -0.00219,   0.00088,478161152.00000,   0.00096,275686496.00000,  -0.00048,  -0.00087,   0.00008,   0.00000,   2.00000
-443616363.79117,-481095525.54742,61966196.70502,  -0.00156,  -0.00220,   0.00089,478156896.00000,   0.00097,275694880.00000,  -0.00048,  -0.00087,   0.00009,  32.00000,   2.00000
-442938001.43956,-481144414.04158,62656681.46323,  -0.00156,  -0.00220,   0.00091,478151840.00000,   0.00097,275703200.00000,  -0.00049,  -0.00088,   0.00009,  64.00000,   2.00000
-442257569.70148,-481185607.03017,63350203.36232,  -0.00157,  -0.00221,   0.00092,478167168.00000,   0.00098,275711584.00000,  -0.00049,  -0.00089,   0.00010,  96.00000,   2.00000
-441551011.53830,-481232216.69735,64052595.13298,  -0.00157,  -0.00222,   0.00093,478144704.00000,   0.00099,275719872.00000,  -0.00050,  -0.00089,   0.00010,  32.00000,   2.00000
-440835553.41358,-481278674.56117,64754356.57168,  -0.00157,  -0.00223,   0.00095,478181632.00000,   0.00100,275728256.00000,  -0.00050,  -0.00090,   0.00011, 128.00000,   2.00000
-440108667.60660,-481326913.96961,65453965.44949,  -0.00157,  -0.00224,   0.00096,478175328.00000,   0.00101,275736608.00000,  -0.00051,  -0.00091,   0.00011, -32.00000,   2.00000
-439355482.91891,-481380465.53040,66162329.15316,  -0.00157,  -0.00225,   0.00098,478153600.00000,   0.00101,275744864.00000,  -0.00051,  -0.00091,   0.00012, 128.00000,   2.00000
-438599628.82977,-481425458.31422,66873047.05546,  -0.00157,  -0.00226,   0.00099,478170176.00000,   0.00102,275753152.00000,  -0.00052,  -0.00092,   0.00012,   0.00000,   2.00000
-437813415.86619,-481486475.83314,67581073.54742,  -0.00158,  -0.00226,   0.00101,478166816.00000,   0.00103,275761408.00000,  -0.00052,  -0.00093,   0.00013,-128.00000,   2.00000
-437012484.32297,-481545602.99486,68294531.92546,  -0.00158,  -0.00227,   0.00102,478164896.00000,   0.00104,275769632.00000,  -0.00053,  -0.00093,   0.00013,  32.00000,   2.00000
-436208816.81270,-481596032.24504,69010084.05134,  -0.00158,  -0.00228,   0.00103,478182176.00000,   0.00104,275777888.00000,  -0.00053,  -0.00094,   0.00014,  64.00000,   2.00000
-435380839.66566,-481654471.24779,69726502.95184,  -0.00158,  -0.00229,   0.00105,478158496.00000,   0.00105,275786080.00000,  -0.00054,  -0.00095,   0.00014,  64.00000,   2.00000
-434534217.51999,-481706846.79242,70455899.80217,  -0.00158,  -0.00230,   0.00106,478161056.00000,   0.00106,275794240.00000,  -0.00054,  -0.00096,   0.00015, -32.00000,   2.00000
-433672362.09047,-481772040.83260,71171439.06887,  -0.00158,  -0.00231,   0.00108,478174144.00000,   0.00107,275802400.00000,  -0.00055,  -0.00096,   0.00015,  32.00000,   2.00000
-432791656.50483,-481831005.36891,71899967.43562,  -0.00158,  -0.00232,   0.00109,478177312.00000,   0.00107,275810592.00000,  -0.00055,  -0.00097,   0.00016,   0.00000,   2.00000
-431892287.34070,-481898910.93808,72622281.99156,  -0.00158,  -0.00233,   0.00111,478194528.00000,   0.00108,275818784.00000,  -0.00056,  -0.00098,   0.00016,   0.00000,   2.00000
-430983437.24707,-481956587.32809,73353904.88278,  -0.00158,  -0.00234,   0.00112,478173280.00000,   0.00109,275826912.00000,  -0.00056,  -0.00098,   0.00017,   0.00000,   2.00000
-430052437.60237,-482019396.00714,74087010.53211,  -0.00158,  -0.00234,   0.00114,478194720.00000,   0.00110,275835072.00000,  -0.00057,  -0.00099,   0.00018, 160.00000,   2.00000
-429095665.93622,-482089408.54315,74821481.92058,  -0.00158,  -0.00235,   0.00115,478172832.00000,   0.00110,275843136.00000,  -0.00057,  -0.00100,   0.00018,  32.00000,   2.00000
-428135710.15046,-482150534.88029,75558080.70690,  -0.00158,  -0.00236,   0.00117,478191808.00000,   0.00111,275851264.00000,  -0.00058,  -0.00100,   0.00019,  32.00000,   2.00000
-427159450.67254,-482208981.14053,76300421.09764,  -0.00158,  -0.00237,   0.00119,478192448.00000,   0.00112,275859360.00000,  -0.00058,  -0.00101,   0.00019,   0.00000,   2.00000
-426150970.68732,-482282388.43567,77040497.55904,  -0.00158,  -0.00238,   0.00120,478192256.00000,   0.00113,275867424.00000,  -0.00059,  -0.00102,   0.00020, 192.00000,   2.00000
-425125871.80416,-482352809.58813,77786576.30762,  -0.00158,  -0.00239,   0.00122,478193248.00000,   0.00113,275875456.00000,  -0.00059,  -0.00102,   0.00021,  96.00000,   2.00000
-424100999.88996,-482418505.85900,78527656.21736,  -0.00158,  -0.00240,   0.00123,478208608.00000,   0.00114,275883520.00000,  -0.00060,  -0.00103,   0.00021,  32.00000,   2.00000
-423042261.34368,-482482898.66880,79286182.79681,  -0.00158,  -0.00241,   0.00125,478195584.00000,   0.00115,275891520.00000,  -0.00060,  -0.00104,   0.00022,  32.00000,   2.00000
-421970165.27341,-482548391.20499,80043612.13501,  -0.00158,  -0.00242,   0.00126,478192640.00000,   0.00116,275899488.00000,  -0.00060,  -0.00104,   0.00022, 128.00000,   2.00000
-420878847.02831,-482622700.80127,80795821.35852,  -0.00158,  -0.00243,   0.00128,478211008.00000,   0.00116,275907488.00000,  -0.00061,  -0.00105,   0.00023,  32.00000,   2.00000
-419770442.91003,-482693720.35676,81554768.06508,  -0.00158,  -0.00243,   0.00130,478212256.00000,   0.00117,275915456.00000,  -0.00061,  -0.00106,   0.00024,   0.00000,   2.00000
-418644956.50991,-482761453.32243,82320589.34469,  -0.00158,  -0.00244,   0.00131,478213440.00000,   0.00118,275923392.00000,  -0.00062,  -0.00106,   0.00024,  64.00000,   2.00000
-417502171.69216,-482825609.47821,83093356.42933,  -0.00158,  -0.00245,   0.00133,478214752.00000,   0.00119,275931328.00000,  -0.00062,  -0.00107,   0.00025,  96.00000,   2.00000
-416331777.23486,-482895886.49613,83869479.32402,  -0.00158,  -0.00246,   0.00134,478193568.00000,   0.00119,275939168.00000,  -0.00063,  -0.00108,   0.00025,   0.00000,   2.00000
-415156146.04959,-482968920.85636,84637124.39565,  -0.00158,  -0.00247,   0.00136,478229856.00000,   0.00120,275947072.00000,  -0.00063,  -0.00108,   0.00026,  96.00000,   2.00000
-413945440.28876,-483038940.90155,85423235.22957,  -0.00158,  -0.00248,   0.00138,478217408.00000,   0.00121,275954944.00000,  -0.00063,  -0.00109,   0.00027,  64.00000,   2.00000
-412735149.71938,-483103490.94113,86205385.20899,  -0.00157,  -0.00249,   0.00139,478232352.00000,   0.00122,275962848.00000,  -0.00064,  -0.00110,   0.00027,   0.00000,   2.00000
-411496950.86002,-483173162.16228,86991218.21275,  -0.00157,  -0.00250,   0.00141,478211008.00000,   0.00122,275970624.00000,  -0.00064,  -0.00110,   0.00028,  32.00000,   2.00000
-410241287.96112,-483237750.07331,87784308.54032,  -0.00157,  -0.00251,   0.00143,478212352.00000,   0.00123,275978400.00000,  -0.00065,  -0.00111,   0.00028,  64.00000,   2.00000
-408968015.92330,-483296710.65886,88584509.68684,  -0.00157,  -0.00252,   0.00144,478213824.00000,   0.00124,275986144.00000,  -0.00065,  -0.00112,   0.00029, -32.00000,   2.00000
-407671859.96426,-483357351.64460,89387008.60681,  -0.00157,  -0.00253,   0.00146,478237088.00000,   0.00124,275993952.00000,  -0.00066,  -0.00112,   0.00030,  32.00000,   2.00000
-406361747.47530,-483415698.43484,90188757.87730,  -0.00157,  -0.00254,   0.00147,478234368.00000,   0.00125,276001728.00000,  -0.00066,  -0.00113,   0.00030,  96.00000,   2.00000
-405022921.73870,-483476217.20535,90993278.90189,  -0.00156,  -0.00255,   0.00149,478213792.00000,   0.00126,276009408.00000,  -0.00066,  -0.00114,   0.00031,   0.00000,   2.00000
-403680990.51067,-483523488.97791,91799802.99624,  -0.00156,  -0.00255,   0.00151,478233632.00000,   0.00127,276017152.00000,  -0.00067,  -0.00114,   0.00031, 160.00000,   2.00000
-402306098.61596,-483566710.50135,92615491.50148,  -0.00156,  -0.00256,   0.00153,478218272.00000,   0.00127,276024864.00000,  -0.00067,  -0.00115,   0.00032, 128.00000,   2.00000
-400931873.51699,-483599910.67278,93424754.91294,  -0.00156,  -0.00257,   0.00154,478233792.00000,   0.00128,276032576.00000,  -0.00067,  -0.00115,   0.00033,  96.00000,   2.00000
-399519447.32530,-483635217.17354,94237310.05302,  -0.00155,  -0.00258,   0.00156,478240640.00000,   0.00129,276040352.00000,  -0.00068,  -0.00116,   0.00033,  64.00000,   2.00000
-398088882.01743,-483659410.63125,95053549.76392,  -0.00155,  -0.00259,   0.00158,478244128.00000,   0.00129,276048096.00000,  -0.00068,  -0.00117,   0.00034,  96.00000,   2.00000
-396643972.96921,-483676800.88726,95865796.89093,  -0.00155,  -0.00260,   0.00159,478243136.00000,   0.00130,276055872.00000,  -0.00069,  -0.00117,   0.00035,   0.00000,   2.00000
-395189407.64930,-483679644.85580,96678817.55384,  -0.00154,  -0.00261,   0.00161,478220928.00000,   0.00131,276063552.00000,  -0.00069,  -0.00118,   0.00035,  64.00000,   2.00000
-393707521.30045,-483685628.31209,97484598.83730,  -0.00154,  -0.00262,   0.00163,478268960.00000,   0.00132,276071392.00000,  -0.00069,  -0.00119,   0.00036,  96.00000,   2.00000
-392195771.40656,-483675901.49011,98302085.29233,  -0.00154,  -0.00263,   0.00164,478236288.00000,   0.00132,276079136.00000,  -0.00070,  -0.00119,   0.00037,   0.00000,   2.00000
-390685554.52927,-483654510.98519,99111167.64586,  -0.00153,  -0.00264,   0.00166,478254176.00000,   0.00133,276086944.00000,  -0.00070,  -0.00120,   0.00037,  96.00000,   2.00000
-389136378.06838,-483632676.95163,99921983.36936,  -0.00153,  -0.00265,   0.00168,478265728.00000,   0.00134,276094784.00000,  -0.00070,  -0.00121,   0.00038, 128.00000,   2.00000
-387576475.21704,-483596049.72982,100734068.84895,  -0.00153,  -0.00266,   0.00170,478246496.00000,   0.00135,276102528.00000,  -0.00071,  -0.00121,   0.00039,  64.00000,   2.00000
-385997630.03473,-483560168.44953,101537248.84189,  -0.00152,  -0.00267,   0.00171,478270208.00000,   0.00135,276110368.00000,  -0.00071,  -0.00122,   0.00039,  64.00000,   2.00000
-384395566.83535,-483506874.65408,102351161.60563,  -0.00152,  -0.00268,   0.00173,478283456.00000,   0.00136,276118240.00000,  -0.00071,  -0.00123,   0.00040,  64.00000,   2.00000
-382782218.88997,-483452389.06805,103155042.15769,  -0.00152,  -0.00269,   0.00175,478280864.00000,   0.00137,276126080.00000,  -0.00072,  -0.00123,   0.00041,  32.00000,   2.00000
-381149247.16302,-483386054.71942,103963174.77776,  -0.00151,  -0.00270,   0.00177,478288992.00000,   0.00137,276133952.00000,  -0.00072,  -0.00124,   0.00042,  32.00000,   2.00000
-379496418.94683,-483307849.62448,104775696.07038,  -0.00151,  -0.00271,   0.00178,478297120.00000,   0.00138,276141824.00000,  -0.00072,  -0.00125,   0.00042,  64.00000,   2.00000
-377810328.58265,-483226780.99865,105589886.80455,  -0.00150,  -0.00272,   0.00180,478283680.00000,   0.00139,276149664.00000,  -0.00073,  -0.00125,   0.00043, -64.00000,   2.00000
-376118200.87050,-483137973.68587,106399027.77716,  -0.00150,  -0.00273,   0.00182,478329120.00000,   0.00140,276157600.00000,  -0.00073,  -0.00126,   0.00044, 192.00000,   2.00000
-374395656.52735,-483038461.52085,107215636.39443,  -0.00149,  -0.00274,   0.00184,478294368.00000,   0.00140,276165440.00000,  -0.00073,  -0.00127,   0.00044,   0.00000,   2.00000
-372649567.15692,-482934569.11227,108031374.81631,  -0.00149,  -0.00275,   0.00186,478323904.00000,   0.00141,276173344.00000,  -0.00073,  -0.00127,   0.00045,   0.00000,   2.00000
-370887441.45583,-482824644.76305,108845147.65675,  -0.00148,  -0.00275,   0.00187,478326304.00000,   0.00142,276181248.00000,  -0.00074,  -0.00128,   0.00046,  32.00000,   2.00000
-369112014.41628,-482700996.44196,109662696.07695,  -0.00148,  -0.00276,   0.00189,478307520.00000,   0.00143,276189088.00000,  -0.00074,  -0.00129,   0.00047, -32.00000,   2.00000
-367313120.18235,-482573453.04308,110479457.06781,  -0.00147,  -0.00277,   0.00191,478337632.00000,   0.00143,276196992.00000,  -0.00074,  -0.00129,   0.00047,   0.00000,   2.00000
-365479442.50901,-482442967.89762,111298387.87811,  -0.00147,  -0.00278,   0.00193,478325696.00000,   0.00144,276204832.00000,  -0.00075,  -0.00130,   0.00048,  96.00000,   2.00000
-363643118.41590,-482297952.94185,112117808.52366,  -0.00146,  -0.00279,   0.00195,478350720.00000,   0.00145,276212768.00000,  -0.00075,  -0.00131,   0.00049,  64.00000,   2.00000
-361771276.94611,-482149734.41849,112938987.68022,  -0.00146,  -0.00280,   0.00196,478339776.00000,   0.00146,276220608.00000,  -0.00075,  -0.00131,   0.00050, -32.00000,   2.00000
-359878071.19684,-481989635.72706,113764237.18531,  -0.00145,  -0.00281,   0.00198,478350464.00000,   0.00146,276228480.00000,  -0.00075,  -0.00132,   0.00050, 128.00000,   2.00000
-357983431.42252,-481828173.23960,114576299.87171,  -0.00145,  -0.00282,   0.00200,478392544.00000,   0.00147,276236512.00000,  -0.00076,  -0.00133,   0.00051,   0.00000,   2.00000
-356054928.55663,-481655093.01919,115395186.45925,  -0.00144,  -0.00283,   0.00202,478361184.00000,   0.00148,276244384.00000,  -0.00076,  -0.00134,   0.00052,  64.00000,   2.00000
-354085388.47975,-481471303.82883,116221153.72490,  -0.00143,  -0.00284,   0.00204,478358240.00000,   0.00148,276252224.00000,  -0.00076,  -0.00134,   0.00053,   0.00000,   2.00000
-352114798.56288,-481285859.73365,117032870.20004,  -0.00143,  -0.00285,   0.00206,478401088.00000,   0.00149,276260224.00000,  -0.00076,  -0.00135,   0.00054,  64.00000,   2.00000
-350124138.03616,-481078930.21016,117852984.52550,  -0.00142,  -0.00286,   0.00208,478392288.00000,   0.00150,276268160.00000,  -0.00077,  -0.00136,   0.00054,  32.00000,   2.00000
-348094207.65801,-480874226.12552,118666733.23148,  -0.00142,  -0.00287,   0.00209,478405920.00000,   0.00151,276276160.00000,  -0.00077,  -0.00136,   0.00055,  64.00000,   2.00000
-346067448.21887,-480651444.45265,119477914.33122,  -0.00141,  -0.00288,   0.00211,478406112.00000,   0.00151,276284128.00000,  -0.00077,  -0.00137,   0.00056,  96.00000,   2.00000
-344001169.75456,-480430065.22773,120282619.56973,  -0.00140,  -0.00289,   0.00213,478420256.00000,   0.00152,276292128.00000,  -0.00077,  -0.00138,   0.00057,  32.00000,   2.00000
-341914179.78814,-480185767.00010,121095783.60326,  -0.00140,  -0.00290,   0.00215,478412192.00000,   0.00153,276300096.00000,  -0.00078,  -0.00138,   0.00057,  64.00000,   2.00000
-339803181.64113,-479934478.30148,121904978.99834,  -0.00139,  -0.00291,   0.00217,478447360.00000,   0.00154,276308192.00000,  -0.00078,  -0.00139,   0.00058,  32.00000,   2.00000
-337678133.04388,-479680461.85993,122704051.10070,  -0.00138,  -0.00292,   0.00219,478447776.00000,   0.00154,276316256.00000,  -0.00078,  -0.00140,   0.00059,   0.00000,   2.00000
-335530684.45623,-479411017.93996,123506294.71066,  -0.00137,  -0.00293,   0.00221,478460864.00000,   0.00155,276324352.00000,  -0.00078,  -0.00140,   0.00060,  96.00000,   2.00000
-333365040.11725,-479132102.98016,124305571.22985,  -0.00137,  -0.00294,   0.00222,478467200.00000,   0.00156,276332480.00000,  -0.00078,  -0.00141,   0.00061,  96.00000,   2.00000
-331178352.94396,-478828451.20117,125114729.55008,  -0.00136,  -0.00295,   0.00224,478458688.00000,   0.00157,276340544.00000,  -0.00079,  -0.00142,   0.00062,  64.00000,   2.00000
-328952520.93007,-478522468.40647,125918142.52579,  -0.00135,  -0.00296,   0.00226,478473248.00000,   0.00157,276348672.00000,  -0.00079,  -0.00142,   0.00062,  96.00000,   2.00000
-326730127.42832,-478202467.80362,126713280.25209,  -0.00134,  -0.00297,   0.00228,478494752.00000,   0.00158,276356896.00000,  -0.00079,  -0.00143,   0.00063,   0.00000,   2.00000
-324469649.53664,-477869537.23689,127508412.66975,  -0.00134,  -0.00298,   0.00230,478489408.00000,   0.00159,276365056.00000,  -0.00079,  -0.00144,   0.00064,  96.00000,   2.00000
-322186718.80156,-477518014.25649,128306615.53783,  -0.00133,  -0.00299,   0.00232,478503264.00000,   0.00160,276373280.00000,  -0.00079,  -0.00144,   0.00065,  96.00000,   2.00000
-319883998.54408,-477157580.19786,129103563.37969,  -0.00132,  -0.00300,   0.00234,478508032.00000,   0.00161,276381504.00000,  -0.00080,  -0.00145,   0.00066,  64.00000,   2.00000
-317560783.92120,-476791386.05788,129901305.44080,  -0.00131,  -0.00301,   0.00236,478509696.00000,   0.00161,276389696.00000,  -0.00080,  -0.00146,   0.00067, 160.00000,   2.00000
-315217051.69341,-476420174.34749,130700796.82031,  -0.00131,  -0.00302,   0.00238,478509632.00000,   0.00162,276397888.00000,  -0.00080,  -0.00146,   0.00068,  64.00000,   2.00000
-312849478.24356,-476036182.84930,131508148.97502,  -0.00130,  -0.00303,   0.00239,478515936.00000,   0.00163,276406080.00000,  -0.00080,  -0.00147,   0.00068, -32.00000,   2.00000
-310445737.12634,-475650114.68522,132314010.51576,  -0.00129,  -0.00304,   0.00241,478496864.00000,   0.00164,276414176.00000,  -0.00080,  -0.00148,   0.00069,  96.00000,   2.00000
-308041352.44061,-475245462.15053,133121334.62249,  -0.00128,  -0.00305,   0.00243,478518784.00000,   0.00164,276422368.00000,  -0.00081,  -0.00149,   0.00070,   0.00000,   2.00000
-305593895.97575,-474819510.59523,133936820.59544,  -0.00127,  -0.00306,   0.00245,478516832.00000,   0.00165,276430528.00000,  -0.00081,  -0.00149,   0.00071, -64.00000,   2.00000
-303155374.54157,-474383566.09729,134738731.52073,  -0.00126,  -0.00307,   0.00247,478528032.00000,   0.00166,276438784.00000,  -0.00081,  -0.00150,   0.00072,  32.00000,   2.00000
-300674314.01930,-473913764.79427,135553056.62656,  -0.00125,  -0.00308,   0.00249,478508192.00000,   0.00167,276446944.00000,  -0.00081,  -0.00151,   0.00073, -64.00000,   2.00000
-298181444.84360,-473439264.04638,136348853.41941,  -0.00124,  -0.00309,   0.00251,478530688.00000,   0.00167,276455264.00000,  -0.00081,  -0.00151,   0.00074, 128.00000,   2.00000
-295691288.21415,-472937825.10548,137140327.46536,  -0.00124,  -0.00310,   0.00253,478559008.00000,   0.00168,276463680.00000,  -0.00081,  -0.00152,   0.00074,   0.00000,   2.00000
-293163574.27571,-472414874.22253,137928387.41095,  -0.00123,  -0.00311,   0.00255,478557568.00000,   0.00169,276472160.00000,  -0.00081,  -0.00153,   0.00075,  96.00000,   2.00000
-290617096.88492,-471863778.15053,138714338.83626,  -0.00122,  -0.00312,   0.00257,478576352.00000,   0.00170,276480704.00000,  -0.00081,  -0.00154,   0.00076,   0.00000,   2.00000
-288036751.61829,-471297244.34656,139489258.57224,  -0.00121,  -0.00313,   0.00259,478571904.00000,   0.00171,276489280.00000,  -0.00082,  -0.00154,   0.00077,  64.00000,   2.00000
-285461430.11603,-470704492.84351,140257367.49345,  -0.00120,  -0.00314,   0.00260,478604704.00000,   0.00171,276498016.00000,  -0.00082,  -0.00155,   0.00078,   0.00000,   2.00000
-282873915.63285,-470089808.41895,141017286.24783,  -0.00119,  -0.00315,   0.00262,478593696.00000,   0.00172,276506688.00000,  -0.00082,  -0.00156,   0.00079, 128.00000,   2.00000
-280270806.61593,-469456671.48159,141766880.15297,  -0.00118,  -0.00315,   0.00264,478639072.00000,   0.00173,276515584.00000,  -0.00082,  -0.00157,   0.00080,  96.00000,   2.00000
-277630535.52597,-468800688.71137,142510501.57050,  -0.00117,  -0.00316,   0.00266,478649216.00000,   0.00174,276524544.00000,  -0.00082,  -0.00157,   0.00081,  64.00000,   2.00000
-274998779.95099,-468117755.59377,143247695.19694,  -0.00116,  -0.00317,   0.00268,478661792.00000,   0.00175,276533504.00000,  -0.00082,  -0.00158,   0.00082, -32.00000,   2.00000
-272330781.46775,-467422632.64294,143970811.11789,  -0.00115,  -0.00318,   0.00270,478696256.00000,   0.00176,276542624.00000,  -0.00082,  -0.00159,   0.00083,  32.00000,   2.00000
-269642609.71759,-466704385.19449,144690877.45945,  -0.00114,  -0.00319,   0.00272,478700096.00000,   0.00176,276551744.00000,  -0.00082,  -0.00160,   0.00084, 128.00000,   2.00000
-266961982.10484,-465988799.19355,145390869.44526,  -0.00113,  -0.00320,   0.00274,478752608.00000,   0.00177,276561024.00000,  -0.00082,  -0.00160,   0.00085, 128.00000,   2.00000
-264233627.03562,-465253302.25228,146093084.24435,  -0.00112,  -0.00321,   0.00276,478744960.00000,   0.00178,276570208.00000,  -0.00082,  -0.00161,   0.00086, 128.00000,   2.00000
-261490665.32002,-464516448.32379,146778930.04076,  -0.00111,  -0.00322,   0.00278,478790464.00000,   0.00179,276579552.00000,  -0.00082,  -0.00162,   0.00087,  32.00000,   2.00000
-258727021.95081,-463756257.79265,147462983.02775,  -0.00110,  -0.00323,   0.00280,478798240.00000,   0.00180,276588864.00000,  -0.00082,  -0.00163,   0.00088, 160.00000,   2.00000
-255940437.23021,-462974805.91301,148144728.36714,  -0.00108,  -0.00324,   0.00282,478833728.00000,   0.00181,276598272.00000,  -0.00082,  -0.00164,   0.00089,  64.00000,   2.00000
-253134471.58919,-462190428.74934,148816338.20843,  -0.00107,  -0.00325,   0.00284,478849504.00000,   0.00182,276607648.00000,  -0.00082,  -0.00164,   0.00090,   0.00000,   2.00000
-250303290.71814,-461399318.29402,149486831.63758,  -0.00106,  -0.00326,   0.00285,478868160.00000,   0.00183,276617056.00000,  -0.00082,  -0.00165,   0.00091,  64.00000,   2.00000
-247445857.68262,-460603664.54627,150158998.12037,  -0.00105,  -0.00327,   0.00287,478882624.00000,   0.00183,276626400.00000,  -0.00082,  -0.00166,   0.00092,   0.00000,   2.00000
-244562333.64077,-459803963.16534,150834521.34129,  -0.00104,  -0.00328,   0.00289,478894784.00000,   0.00184,276635744.00000,  -0.00082,  -0.00167,   0.00093,   0.00000,   2.00000
-241650240.79389,-458991976.84666,151519341.35883,  -0.00103,  -0.00329,   0.00291,478914240.00000,   0.00185,276645056.00000,  -0.00082,  -0.00167,   0.00094, 128.00000,   2.00000
-238692154.69862,-458176558.54854,152204851.00091,  -0.00102,  -0.00330,   0.00293,478909184.00000,   0.00186,276654272.00000,  -0.00082,  -0.00168,   0.00095,  64.00000,   2.00000
-235733473.07985,-457345717.32155,152895216.01948,  -0.00101,  -0.00331,   0.00295,478911776.00000,   0.00187,276663424.00000,  -0.00082,  -0.00169,   0.00096, 192.00000,   2.00000
-232758484.58869,-456512287.40546,153575946.75466,  -0.00099,  -0.00332,   0.00297,478950080.00000,   0.00188,276672672.00000,  -0.00082,  -0.00170,   0.00097,  32.00000,   2.00000
-229764917.97540,-455663464.49506,154251730.22287,  -0.00098,  -0.00333,   0.00299,478970272.00000,   0.00189,276681984.00000,  -0.00082,  -0.00170,   0.00098, -32.00000,   2.00000
-226727116.53476,-454790018.91963,154925784.09665,  -0.00097,  -0.00334,   0.00301,478954464.00000,   0.00190,276691232.00000,  -0.00082,  -0.00171,   0.00100,  96.00000,   2.00000
-223694626.90832,-453894311.75136,155594161.06025,  -0.00096,  -0.00335,   0.00303,478995392.00000,   0.00190,276700608.00000,  -0.00082,  -0.00172,   0.00101,   0.00000,   2.00000
-220619505.68639,-452974307.95202,156257609.07931,  -0.00095,  -0.00336,   0.00305,479010240.00000,   0.00191,276710016.00000,  -0.00082,  -0.00173,   0.00102,  64.00000,   2.00000
-217556878.55703,-452045972.12472,156904545.15584,  -0.00093,  -0.00337,   0.00307,479034336.00000,   0.00192,276719520.00000,  -0.00082,  -0.00174,   0.00103,  32.00000,   2.00000
-214478128.75464,-451097342.80755,157543873.93257,  -0.00092,  -0.00338,   0.00309,479057312.00000,   0.00193,276729088.00000,  -0.00082,  -0.00174,   0.00104, 160.00000,   2.00000
-211354237.11209,-450115694.02087,158183983.11327,  -0.00091,  -0.00339,   0.00311,479080416.00000,   0.00194,276738752.00000,  -0.00082,  -0.00175,   0.00105, 192.00000,   2.00000
-208243542.23894,-449126226.87192,158808184.82894,  -0.00090,  -0.00340,   0.00312,479103232.00000,   0.00195,276748480.00000,  -0.00082,  -0.00176,   0.00106, 160.00000,   2.00000
-205089950.60042,-448111775.14776,159427863.61658,  -0.00088,  -0.00341,   0.00314,479117472.00000,   0.00196,276758272.00000,  -0.00082,  -0.00177,   0.00107,  64.00000,   2.00000
-201942995.68281,-447080950.00216,160039589.65797,  -0.00087,  -0.00342,   0.00316,479117728.00000,   0.00197,276768032.00000,  -0.00082,  -0.00178,   0.00108,  96.00000,   2.00000
-198748479.87069,-446019534.01454,160652302.48736,  -0.00086,  -0.00343,   0.00318,479138912.00000,   0.00198,276777888.00000,  -0.00082,  -0.00178,   0.00109,  96.00000,   2.00000
-195570550.85087,-444966201.28548,161242678.47886,  -0.00084,  -0.00343,   0.00320,479177792.00000,   0.00199,276787872.00000,  -0.00082,  -0.00179,   0.00110, -32.00000,   2.00000
-192340263.58149,-443880945.93285,161836833.69162,  -0.00083,  -0.00344,   0.00322,479167808.00000,   0.00200,276797792.00000,  -0.00082,  -0.00180,   0.00112,  64.00000,   2.00000
-189116992.79015,-442787448.22879,162421973.96504,  -0.00082,  -0.00345,   0.00324,479192256.00000,   0.00200,276807808.00000,  -0.00082,  -0.00181,   0.00113, -32.00000,   2.00000
-185840345.90155,-441662730.76890,163011020.95221,  -0.00080,  -0.00346,   0.00326,479181184.00000,   0.00201,276817760.00000,  -0.00082,  -0.00182,   0.00114, -96.00000,   2.00000
-182579887.46400,-440549524.62550,163578434.26281,  -0.00079,  -0.00347,   0.00328,479216384.00000,   0.00202,276827840.00000,  -0.00082,  -0.00182,   0.00115,  96.00000,   2.00000
-179272843.44003,-439416033.05799,164141892.30255,  -0.00078,  -0.00348,   0.00330,479226240.00000,   0.00203,276837920.00000,  -0.00082,  -0.00183,   0.00116, -64.00000,   2.00000
-175967732.95921,-438263330.74289,164703395.85209,  -0.00076,  -0.00349,   0.00331,479230496.00000,   0.00204,276848032.00000,  -0.00082,  -0.00184,   0.00117, 128.00000,   2.00000
-172644723.30553,-437095637.61540,165257383.81914,  -0.00075,  -0.00350,   0.00333,479249568.00000,   0.00205,276858208.00000,  -0.00082,  -0.00185,   0.00119,  96.00000,   2.00000
-169279887.15667,-435912660.62999,165800644.66468,  -0.00073,  -0.00351,   0.00335,479255264.00000,   0.00206,276868384.00000,  -0.00081,  -0.00186,   0.00120, 128.00000,   2.00000
-165926798.79123,-434719617.79997,166332875.74280,  -0.00072,  -0.00352,   0.00337,479284448.00000,   0.00207,276878656.00000,  -0.00081,  -0.00187,   0.00121, -64.00000,   2.00000
-162559141.06802,-433508589.13730,166856170.70935,  -0.00071,  -0.00353,   0.00339,479309312.00000,   0.00208,276889024.00000,  -0.00081,  -0.00187,   0.00122,   0.00000,   2.00000
-159180170.04767,-432285812.63716,167365287.65803,  -0.00069,  -0.00354,   0.00341,479327808.00000,   0.00209,276899456.00000,  -0.00081,  -0.00188,   0.00123, -96.00000,   2.00000
-155753083.44608,-431022767.55542,167875068.26804,  -0.00068,  -0.00355,   0.00343,479331584.00000,   0.00210,276909888.00000,  -0.00081,  -0.00189,   0.00125,  64.00000,   2.00000
-152341563.71111,-429745565.51779,168373740.07348,  -0.00066,  -0.00356,   0.00345,479368576.00000,   0.00211,276920416.00000,  -0.00081,  -0.00190,   0.00126,  96.00000,   2.00000
-148920074.04481,-428453434.24471,168859246.16710,  -0.00065,  -0.00357,   0.00347,479392192.00000,   0.00212,276931040.00000,  -0.00081,  -0.00191,   0.00127,   0.00000,   2.00000
-145486573.07024,-427138424.55671,169337378.61591,  -0.00063,  -0.00358,   0.00348,479425568.00000,   0.00213,276941760.00000,  -0.00080,  -0.00192,   0.00128,  64.00000,   2.00000
-142040814.21543,-425800298.01756,169808817.36685,  -0.00062,  -0.00358,   0.00350,479459712.00000,   0.00214,276952576.00000,  -0.00080,  -0.00192,   0.00129,  64.00000,   2.00000
-138584136.80821,-424446878.63667,170269189.01180,  -0.00060,  -0.00359,   0.00352,479485184.00000,   0.00215,276963424.00000,  -0.00080,  -0.00193,   0.00131, 160.00000,   2.00000
-135134657.32918,-423074417.58521,170724634.36253,  -0.00059,  -0.00360,   0.00354,479495648.00000,   0.00216,276974272.00000,  -0.00080,  -0.00194,   0.00132,  32.00000,   2.00000
-131637179.34004,-421664155.58937,171182929.46471,  -0.00057,  -0.00361,   0.00356,479532128.00000,   0.00217,276985216.00000,  -0.00080,  -0.00195,   0.00133,   0.00000,   2.00000
-128114376.52483,-420239631.73723,171637479.03120,  -0.00056,  -0.00362,   0.00358,479547680.00000,   0.00218,276996128.00000,  -0.00080,  -0.00196,   0.00134,   0.00000,   2.00000
-124582281.57983,-418810890.08256,172096936.76229,  -0.00054,  -0.00363,   0.00359,479549952.00000,   0.00219,277006976.00000,  -0.00079,  -0.00197,   0.00136,  64.00000,   2.00000
-120967160.81436,-417347861.33819,172586477.59311,  -0.00053,  -0.00364,   0.00361,479526432.00000,   0.00220,277017632.00000,  -0.00079,  -0.00198,   0.00137,  64.00000,   2.00000
-117312763.48705,-415868283.37749,173129727.13864,  -0.00051,  -0.00365,   0.00363,479450208.00000,   0.00221,277027904.00000,  -0.00079,  -0.00199,   0.00138,  64.00000,   2.00000
-113677980.37026,-414434955.46247,173650056.51626,  -0.00050,  -0.00366,   0.00365,479427840.00000,   0.00222,277038176.00000,  -0.00079,  -0.00199,   0.00139,   0.00000,   2.00000
-110138073.75074,-412979967.24834,174073432.44234,  -0.00048,  -0.00367,   0.00367,479579104.00000,   0.00223,277049184.00000,  -0.00079,  -0.00200,   0.00140,   0.00000,   2.00000
-106616366.52304,-411454361.48786,174440806.75398,  -0.00047,  -0.00368,   0.00369,479723392.00000,   0.00224,277060800.00000,  -0.00078,  -0.00201,   0.00142, 160.00000,   2.00000
-103079433.23585,-409886685.90263,174780481.84363,  -0.00045,  -0.00368,   0.00370,479756352.00000,   0.00225,277072544.00000,  -0.00078,  -0.00202,   0.00143, 128.00000,   2.00000
-99528101.81375,-408303169.72751,175107929.75863,  -0.00043,  -0.00369,   0.00372,479805344.00000,   0.00226,277084480.00000,  -0.00078,  -0.00203,   0.00144,  64.00000,   2.00000
-95928813.96463,-406684051.97984,175449387.89632,  -0.00042,  -0.00370,   0.00374,479791552.00000,   0.00228,277096256.00000,  -0.00077,  -0.00204,   0.00146, 160.00000,   2.00000
-92286841.55629,-405058005.54703,175798176.66421,  -0.00040,  -0.00371,   0.00376,479771072.00000,   0.00229,277107936.00000,  -0.00077,  -0.00205,   0.00147, 160.00000,   2.00000
-88620030.14335,-403427115.80185,176160939.04699,  -0.00038,  -0.00372,   0.00377,479725760.00000,   0.00230,277119392.00000,  -0.00077,  -0.00206,   0.00148,  96.00000,   2.00000
-84891820.20998,-401793561.79871,176527586.84117,  -0.00037,  -0.00373,   0.00379,479718464.00000,   0.00231,277130784.00000,  -0.00077,  -0.00207,   0.00150,  96.00000,   2.00000
-81144477.72755,-400158969.88296,176901599.64484,  -0.00035,  -0.00374,   0.00381,479669824.00000,   0.00232,277142016.00000,  -0.00076,  -0.00208,   0.00151, 160.00000,   2.00000
-77360299.57080,-398517967.51367,177278474.25635,  -0.00034,  -0.00375,   0.00383,479645728.00000,   0.00233,277153184.00000,  -0.00076,  -0.00208,   0.00152, 160.00000,   2.00000
-73541276.25787,-396876154.52769,177651858.95669,  -0.00032,  -0.00376,   0.00385,479610528.00000,   0.00234,277164288.00000,  -0.00076,  -0.00209,   0.00154,  96.00000,   2.00000
-69676251.07612,-395218256.62036,178030426.81680,  -0.00030,  -0.00376,   0.00386,479551360.00000,   0.00235,277175200.00000,  -0.00076,  -0.00210,   0.00155, 128.00000,   2.00000
-65778928.23649,-393561402.78575,178409207.02506,  -0.00029,  -0.00377,   0.00388,479526752.00000,   0.00236,277186144.00000,  -0.00075,  -0.00211,   0.00156, 160.00000,   2.00000
-61825342.68865,-391885827.12087,178805764.48265,  -0.00027,  -0.00378,   0.00390,479443744.00000,   0.00237,277196864.00000,  -0.00075,  -0.00212,   0.00157, 256.00000,   2.00000
-57834609.29246,-390195166.69301,179235846.45697,  -0.00025,  -0.00379,   0.00391,479352736.00000,   0.00238,277207296.00000,  -0.00075,  -0.00213,   0.00158,  96.00000,   2.00000
-53788017.27476,-388518534.65798,179697433.66036,  -0.00023,  -0.00380,   0.00393,479260800.00000,   0.00239,277217440.00000,  -0.00075,  -0.00214,   0.00160,  32.00000,   2.00000
-49659521.11851,-386845951.23418,180225438.05836,  -0.00022,  -0.00381,   0.00395,479105632.00000,   0.00240,277226976.00000,  -0.00075,  -0.00214,   0.00161, 192.00000,   2.00000
-45452071.49298,-385218654.18556,180838393.89562,  -0.00020,  -0.00382,   0.00397,478931808.00000,   0.00241,277235744.00000,  -0.00074,  -0.00215,   0.00162, -32.00000,   2.00000
-41167327.35151,-383685439.04088,181572868.67995,  -0.00018,  -0.00382,   0.00398,478720992.00000,   0.00242,277243488.00000,  -0.00074,  -0.00216,   0.00162, -64.00000,   2.00000
-36830416.05616,-382347601.28340,182460303.20898,  -0.00016,  -0.00383,   0.00400,478433344.00000,   0.00242,277249728.00000,  -0.00074,  -0.00217,   0.00163,-128.00000,   2.00000
