# sigma_xx, sigma_yy, sigma_xy, epsilon_xx, epsilon_yy, epsilon_xy, vonMises, epsPlastic, hardening, epsilonP__xx, epsilonP__yy, epsilonP__xy, yieldValue, iteration
   0.00000,   0.00000,   0.00000,   0.00000,   0.00000,   0.00000,   0.00000,   0.00000,274640135.82653,   0.00000,   0.00000,   0.00000,-474640135.82653,   0.00000
   0.00000,   0.00000,   0.00000,   0.00000,   0.00000,   0.00000,   0.00000,   0.00000,274640135.82653,   0.00000,   0.00000,   0.00000,-474640135.82653,   0.00000
482022.74271,225842.82351,-593258.76026,   0.00000,   0.00000,  -0.00001,1109214.76644,   0.00000,274640135.82653,   0.00000,   0.00000,   0.00000,-473530921.06009,   0.00000
977528.63906,438202.49337,-1186517.52052,   0.00000,   0.00000,  -0.00002,2223218.31089,   0.00000,274640135.82653,   0.00000,   0.00000,   0.00000,-472416917.51564,   0.00000
1473034.53541,650562.16324,-1786517.85759,   0.00001,   0.00000,  -0.00002,3348088.93302,   0.00000,274640135.82653,   0.00000,   0.00000,   0.00000,-471292046.89351,   0.00000
1968540.43176,862921.83310,-2379776.61785,   0.00001,   0.00000,  -0.00003,4462185.47981,   0.00000,274640135.82653,   0.00000,   0.00000,   0.00000,-470177950.34672,   0.00000
2487641.84699,1085393.86820,-2973035.37811,   0.00001,   0.00000,  -0.00004,5584190.96016,   0.00000,274640135.82653,   0.00000,   0.00000,   0.00000,-469055944.86637,   0.00000
3020226.41586,1294382.74965,-3573035.71519,   0.00001,   0.00000,  -0.00005,6722173.60673,   0.00000,274640135.82653,   0.00000,   0.00000,   0.00000,-467917962.21980,   0.00000
3552810.98473,1503371.63111,-4173036.05227,   0.00001,  -0.00000,  -0.00005,7860285.40130,   0.00000,274640135.82653,   0.00000,   0.00000,   0.00000,-466779850.42523,   0.00000
4108991.07247,1722472.87779,-4766294.81253,   0.00002,  -0.00000,  -0.00006,8995876.47151,   0.00000,274640135.82653,   0.00000,   0.00000,   0.00000,-465644259.35502,   0.00000
4665171.16021,1941574.12448,-5366295.14960,   0.00002,  -0.00000,  -0.00007,10142343.28555,   0.00000,274640135.82653,   0.00000,   0.00000,   0.00000,-464497792.54098,   0.00000
5244946.76682,2170787.73640,-5966295.48668,   0.00002,  -0.00000,  -0.00008,11297175.10562,   0.00000,274640135.82653,   0.00000,   0.00000,   0.00000,-463342960.72091,   0.00000
5814610.00821,2376405.82944,-6566295.82376,   0.00002,  -0.00000,  -0.00009,12449411.37684,   0.00000,274640135.82653,   0.00000,   0.00000,   0.00000,-462190724.44969,   0.00000
6407868.76847,2592136.28772,-7166296.16084,   0.00002,  -0.00000,  -0.00009,13610190.50274,   0.00000,274640135.82653,   0.00000,   0.00000,   0.00000,-461029945.32379,   0.00000
7001127.52872,2807866.74599,-7766296.49792,   0.00003,  -0.00000,  -0.00010,14771179.81223,   0.00000,274640135.82653,   0.00000,   0.00000,   0.00000,-459868956.01430,   0.00000
7617981.80785,3033709.56950,-8373038.41182,   0.00003,  -0.00000,  -0.00011,15951476.82829,   0.00000,274640135.82653,   0.00000,   0.00000,   0.00000,-458688658.99824,   0.00000
8234836.08699,3259552.39301,-8973038.74890,   0.00003,  -0.00000,  -0.00012,17121378.46894,   0.00000,274640135.82653,   0.00000,   0.00000,   0.00000,-457518757.35759,   0.00000
8865173.51976,3471912.06287,-9573039.08598,   0.00003,  -0.00000,  -0.00012,18297420.69391,   0.00000,274640135.82653,   0.00000,   0.00000,   0.00000,-456342715.13262,   0.00000
9495510.95253,3684271.73274,-10179780.99988,   0.00004,  -0.00000,  -0.00013,19484310.80322,   0.00000,274640135.82653,   0.00000,   0.00000,   0.00000,-455155825.02331,   0.00000
10149443.90418,3906743.76783,-10786522.91378,   0.00004,  -0.00000,  -0.00014,20680179.19217,   0.00000,274640135.82653,   0.00000,   0.00000,   0.00000,-453959956.63436,   0.00000
10803376.85583,4129215.80293,-11386523.25086,   0.00004,  -0.00000,  -0.00015,21865786.86956,   0.00000,274640135.82653,   0.00000,   0.00000,   0.00000,-452774348.95697,   0.00000
11457309.80748,4351687.83803,-11993265.16476,   0.00004,  -0.00000,  -0.00016,23062170.91375,   0.00000,274640135.82653,   0.00000,   0.00000,   0.00000,-451577964.91278,   0.00000
12124725.91277,4560676.71948,-12600007.07866,   0.00005,  -0.00000,  -0.00016,24265043.38643,   0.00000,274640135.82653,   0.00000,   0.00000,   0.00000,-450375092.44010,   0.00000
12825849.90216,4803373.48504,-13206748.99256,   0.00005,  -0.00000,  -0.00017,25479837.75583,   0.00000,274640135.82653,   0.00000,   0.00000,   0.00000,-449160298.07070,   0.00000
13516861.52633,5022474.73173,-13813490.90646,   0.00005,  -0.00000,  -0.00018,26692326.52941,   0.00000,274640135.82653,   0.00000,   0.00000,   0.00000,-447947809.29712,   0.00000
14197760.78526,5217980.45954,-14420232.82036,   0.00005,  -0.00000,  -0.00019,27902498.75593,   0.00000,274640135.82653,   0.00000,   0.00000,   0.00000,-446737637.07060,   0.00000
14912367.92830,5447194.07146,-15026974.73426,   0.00006,  -0.00000,  -0.00020,29124731.54044,   0.00000,274640135.82653,   0.00000,   0.00000,   0.00000,-445515404.28609,   0.00000
15626975.07133,5676407.68338,-15633716.64816,   0.00006,  -0.00000,  -0.00020,30347292.48895,   0.00000,274640135.82653,   0.00000,   0.00000,   0.00000,-444292843.33758,   0.00000
16355065.36801,5892138.14165,-16240458.56206,   0.00006,  -0.00001,  -0.00021,31576836.97785,   0.00000,274640135.82653,   0.00000,   0.00000,   0.00000,-443063298.84868,   0.00000
17083155.66469,6107868.59993,-16847200.47596,   0.00007,  -0.00001,  -0.00022,32806753.69276,   0.00000,274640135.82653,   0.00000,   0.00000,   0.00000,-441833382.13377,   0.00000
17834841.48025,6333711.42343,-17460683.96668,   0.00007,  -0.00001,  -0.00023,34056764.16741,   0.00000,274640135.82653,   0.00000,   0.00000,   0.00000,-440583371.65912,   0.00000
18586527.29580,6559554.24694,-18067425.88058,   0.00007,  -0.00001,  -0.00023,35296785.24494,   0.00000,274640135.82653,   0.00000,   0.00000,   0.00000,-439343350.58159,   0.00000
19328100.74612,6761801.55157,-18674167.79448,   0.00007,  -0.00001,  -0.00024,36534617.63191,   0.00000,274640135.82653,   0.00000,   0.00000,   0.00000,-438105518.19462,   0.00000
20103382.08055,6997756.74031,-19287651.28520,   0.00008,  -0.00001,  -0.00025,37795191.08715,   0.00000,274640135.82653,   0.00000,   0.00000,   0.00000,-436844944.73938,   0.00000
20868551.04975,7210116.41018,-19901134.77592,   0.00008,  -0.00001,  -0.00026,39053591.57993,   0.00000,274640135.82653,   0.00000,   0.00000,   0.00000,-435586544.24660,   0.00000
21657315.53782,7432588.44527,-20507876.68982,   0.00008,  -0.00001,  -0.00027,40311683.08386,   0.00000,274640135.82653,   0.00000,   0.00000,   0.00000,-434328452.74267,   0.00000
22446080.02589,7655060.48037,-21121360.18054,   0.00009,  -0.00001,  -0.00027,41580475.30957,   0.00000,274640135.82653,   0.00000,   0.00000,   0.00000,-433059660.51696,   0.00000
23248327.66760,7864049.36183,-21734843.67126,   0.00009,  -0.00001,  -0.00028,42856881.63632,   0.00000,274640135.82653,   0.00000,   0.00000,   0.00000,-431783254.19021,   0.00000
24037092.15567,8086521.39692,-22341585.58516,   0.00009,  -0.00001,  -0.00029,44116170.58340,   0.00000,274640135.82653,   0.00000,   0.00000,   0.00000,-430523965.24313,   0.00000
24862935.31626,8305622.64361,-22955069.07588,   0.00010,  -0.00001,  -0.00030,45403219.60307,   0.00000,274640135.82653,   0.00000,   0.00000,   0.00000,-429236916.22346,   0.00000
25665182.95797,8514611.52506,-23568552.56660,   0.00010,  -0.00001,  -0.00031,46680843.75133,   0.00000,274640135.82653,   0.00000,   0.00000,   0.00000,-427959292.07520,   0.00000
26491026.11855,8733712.77175,-24182036.05732,   0.00010,  -0.00001,  -0.00031,47968737.67443,   0.00000,274640135.82653,   0.00000,   0.00000,   0.00000,-426671398.15210,   0.00000
27316869.27914,8952814.01843,-24795519.54804,   0.00011,  -0.00001,  -0.00032,49257027.36476,   0.00000,274640135.82653,   0.00000,   0.00000,   0.00000,-425383108.46177,   0.00000
28166307.95860,9182027.63035,-25409003.03877,   0.00011,  -0.00001,  -0.00033,50555702.18852,   0.00000,274640135.82653,   0.00000,   0.00000,   0.00000,-424084433.63801,   0.00000
29005634.27283,9387645.72340,-26022486.52949,   0.00011,  -0.00001,  -0.00034,51852381.90087,   0.00000,274640135.82653,   0.00000,   0.00000,   0.00000,-422787753.92566,   0.00000
29878668.47116,9626971.70055,-26635970.02021,   0.00012,  -0.00001,  -0.00035,53161988.43782,   0.00000,274640135.82653,   0.00000,   0.00000,   0.00000,-421478147.38871,   0.00000
30717994.78539,9832589.79359,-27249453.51093,   0.00012,  -0.00002,  -0.00035,54459487.08545,   0.00000,274640135.82653,   0.00000,   0.00000,   0.00000,-420180648.74108,   0.00000
31580916.61849,10048320.25187,-27862937.00165,   0.00012,  -0.00002,  -0.00036,55767532.17950,   0.00000,274640135.82653,   0.00000,   0.00000,   0.00000,-418872603.64703,   0.00000
32467433.97047,10274163.07537,-28483162.06919,   0.00013,  -0.00002,  -0.00037,57096309.41361,   0.00000,274640135.82653,   0.00000,   0.00000,   0.00000,-417543826.41292,   0.00000
33343838.95721,10476410.38001,-29096645.55991,   0.00013,  -0.00002,  -0.00038,58413075.40964,   0.00000,274640135.82653,   0.00000,   0.00000,   0.00000,-416227060.41689,   0.00000
34230356.30919,10702253.20351,-29710129.05063,   0.00013,  -0.00002,  -0.00039,59732645.01790,   0.00000,274640135.82653,   0.00000,   0.00000,   0.00000,-414907490.80863,   0.00000
35106761.29593,10904500.50815,-30323612.54136,   0.00014,  -0.00002,  -0.00039,61050270.73081,   0.00000,274640135.82653,   0.00000,   0.00000,   0.00000,-413589865.09572,   0.00000
36006761.80155,11116860.17801,-30943837.60890,   0.00014,  -0.00002,  -0.00040,62388721.71425,   0.00000,274640135.82653,   0.00000,   0.00000,   0.00000,-412251414.11228,   0.00000
36906762.30717,11329219.84788,-31557321.09962,   0.00015,  -0.00002,  -0.00041,63717572.51545,   0.00000,274640135.82653,   0.00000,   0.00000,   0.00000,-410922563.31108,   0.00000
37806762.81279,11541579.51774,-32170804.59034,   0.00015,  -0.00002,  -0.00042,65046841.71275,   0.00000,274640135.82653,   0.00000,   0.00000,   0.00000,-409593294.11378,   0.00000
38720246.47205,11740456.03396,-32791029.65788,   0.00015,  -0.00002,  -0.00043,66394708.53528,   0.00000,274640135.82653,   0.00000,   0.00000,   0.00000,-408245427.29125,   0.00000
39643842.49654,11962928.06906,-33404513.14860,   0.00016,  -0.00002,  -0.00043,67735322.80719,   0.00000,274640135.82653,   0.00000,   0.00000,   0.00000,-406904813.01934,   0.00000
40557326.15580,12161804.58528,-34024738.21615,   0.00016,  -0.00002,  -0.00044,69084038.33377,   0.00000,274640135.82653,   0.00000,   0.00000,   0.00000,-405556097.49276,   0.00000
41494405.33394,12370793.46674,-34638221.70687,   0.00016,  -0.00002,  -0.00045,70433817.84090,   0.00000,274640135.82653,   0.00000,   0.00000,   0.00000,-404206317.98563,   0.00000
42407888.99320,12569669.98296,-35258446.77441,   0.00017,  -0.00003,  -0.00046,71783331.56000,   0.00000,274640135.82653,   0.00000,   0.00000,   0.00000,-402856804.26653,   0.00000
43344968.17133,12778658.86442,-35871930.26513,   0.00017,  -0.00003,  -0.00047,73133959.06988,   0.00000,274640135.82653,   0.00000,   0.00000,   0.00000,-401506176.75665,   0.00000
44305642.86834,12997760.11110,-36492155.33267,   0.00018,  -0.00003,  -0.00047,74505636.31554,   0.00000,274640135.82653,   0.00000,   0.00000,   0.00000,-400134499.51099,   0.00000
45232609.68124,13183153.47368,-37105638.82339,   0.00018,  -0.00003,  -0.00048,75854870.48384,   0.00000,274640135.82653,   0.00000,   0.00000,   0.00000,-398785265.34269,   0.00000
46193284.37825,13402254.72037,-37725863.89093,   0.00018,  -0.00003,  -0.00049,77227379.91531,   0.00000,274640135.82653,   0.00000,   0.00000,   0.00000,-397412755.91122,   0.00000
47143846.71003,13597760.44818,-38346088.95848,   0.00019,  -0.00003,  -0.00050,78598080.46568,   0.00000,274640135.82653,   0.00000,   0.00000,   0.00000,-396042055.36085,   0.00000
48118004.56068,13803378.54122,-38959572.44920,   0.00019,  -0.00003,  -0.00051,79970178.48378,   0.00000,274640135.82653,   0.00000,   0.00000,   0.00000,-394669957.34275,   0.00000
49068566.89245,13998884.26904,-39579797.51674,   0.00020,  -0.00003,  -0.00051,81341680.23148,   0.00000,274640135.82653,   0.00000,   0.00000,   0.00000,-393298455.59505,   0.00000
50032612.37787,14180906.84321,-40200022.58428,   0.00020,  -0.00003,  -0.00052,82722294.77189,   0.00000,274640135.82653,   0.00000,   0.00000,   0.00000,-391917841.05464,   0.00000
51006770.22852,14386524.93625,-40813506.07500,   0.00020,  -0.00003,  -0.00053,84095656.07973,   0.00000,274640135.82653,   0.00000,   0.00000,   0.00000,-390544479.74680,   0.00000
51970815.71394,14568547.51042,-41433731.14255,   0.00021,  -0.00004,  -0.00054,85477079.93275,   0.00000,274640135.82653,   0.00000,   0.00000,   0.00000,-389163055.89378,   0.00000
52968569.08347,14784277.96870,-42047214.63327,   0.00021,  -0.00004,  -0.00055,86862229.49084,   0.00000,274640135.82653,   0.00000,   0.00000,   0.00000,-387777906.33569,   0.00000
53932614.56888,14966300.54287,-42667439.70081,   0.00022,  -0.00004,  -0.00055,88244413.87046,   0.00000,274640135.82653,   0.00000,   0.00000,   0.00000,-386395721.95607,   0.00000
54920255.57318,15158435.48227,-43287664.76835,   0.00022,  -0.00004,  -0.00056,89638012.31068,   0.00000,274640135.82653,   0.00000,   0.00000,   0.00000,-385002123.51585,   0.00000
55897784.21224,15326974.90279,-43901148.25907,   0.00022,  -0.00004,  -0.00057,91020145.89727,   0.00000,274640135.82653,   0.00000,   0.00000,   0.00000,-383619989.92926,   0.00000
56909020.73540,15529222.20743,-44521373.32661,   0.00023,  -0.00004,  -0.00058,92425638.23684,   0.00000,274640135.82653,   0.00000,   0.00000,   0.00000,-382214497.58969,   0.00000
57896661.73970,15721357.14683,-45141598.39416,   0.00023,  -0.00004,  -0.00059,93820371.62076,   0.00000,274640135.82653,   0.00000,   0.00000,   0.00000,-380819764.20577,   0.00000
58897785.89763,15900008.93259,-45755081.88488,   0.00024,  -0.00004,  -0.00059,95214844.95967,   0.00000,274640135.82653,   0.00000,   0.00000,   0.00000,-379425290.86686,   0.00000
59875314.53669,16068548.35312,-46375306.95242,   0.00024,  -0.00004,  -0.00060,96608226.53919,   0.00000,274640135.82653,   0.00000,   0.00000,   0.00000,-378031909.28734,   0.00000
60876438.69463,16247200.13888,-46995532.01996,   0.00025,  -0.00004,  -0.00061,98013165.98701,   0.00000,274640135.82653,   0.00000,   0.00000,   0.00000,-376626969.83952,   0.00000
61901158.37144,16435964.28987,-47609015.51068,   0.00025,  -0.00005,  -0.00062,99420039.10208,   0.00000,274640135.82653,   0.00000,   0.00000,   0.00000,-375220096.72445,   0.00000
62902282.52937,16614616.07563,-48229240.57823,   0.00025,  -0.00005,  -0.00063,100825712.39766,   0.00000,274640135.82653,   0.00000,   0.00000,   0.00000,-373814423.42887,   0.00000
63893294.32208,16769672.34251,-48849465.64577,   0.00026,  -0.00005,  -0.00064,102229722.88316,   0.00000,274640135.82653,   0.00000,   0.00000,   0.00000,-372410412.94336,   0.00000
64907901.63365,16934840.97463,-49462949.13649,   0.00026,  -0.00005,  -0.00064,103635754.22118,   0.00000,274640135.82653,   0.00000,   0.00000,   0.00000,-371004381.60535,   0.00000
65932621.31046,17123605.12562,-50083174.20403,   0.00027,  -0.00005,  -0.00065,105053782.64586,   0.00000,274640135.82653,   0.00000,   0.00000,   0.00000,-369586353.18067,   0.00000
66923633.10316,17278661.39251,-50696657.69475,   0.00027,  -0.00005,  -0.00066,106449177.15020,   0.00000,274640135.82653,   0.00000,   0.00000,   0.00000,-368190958.67633,   0.00000
67938240.41474,17443830.02462,-51316882.76229,   0.00028,  -0.00005,  -0.00067,107865916.61841,   0.00000,274640135.82653,   0.00000,   0.00000,   0.00000,-366774219.20812,   0.00000
68942735.36109,17585403.13787,-51937107.82984,   0.00028,  -0.00005,  -0.00068,109281063.67080,   0.00000,274640135.82653,   0.00000,   0.00000,   0.00000,-365359072.15573,   0.00000
69980938.19154,17760684.13522,-52550591.32056,   0.00028,  -0.00006,  -0.00068,110700308.11535,   0.00000,274640135.82653,   0.00000,   0.00000,   0.00000,-363939827.71118,   0.00000
70995545.50312,17925852.76733,-53170816.38810,   0.00029,  -0.00006,  -0.00069,112118041.05061,   0.00000,274640135.82653,   0.00000,   0.00000,   0.00000,-362522094.77592,   0.00000
72000040.44946,18067425.88058,-53784299.87882,   0.00029,  -0.00006,  -0.00070,113524601.07316,   0.00000,274640135.82653,   0.00000,   0.00000,   0.00000,-361115534.75337,   0.00000
73028130.91468,18219111.35905,-54404524.94636,   0.00030,  -0.00006,  -0.00071,114952569.68874,   0.00000,274640135.82653,   0.00000,   0.00000,   0.00000,-359687566.13779,   0.00000
74056221.37990,18370796.83753,-55018008.43708,   0.00030,  -0.00006,  -0.00072,116371311.16018,   0.00000,274640135.82653,   0.00000,   0.00000,   0.00000,-358268824.66635,   0.00000
75060716.32625,18512369.95077,-55631491.92780,   0.00031,  -0.00006,  -0.00072,117778843.21703,   0.00000,274640135.82653,   0.00000,   0.00000,   0.00000,-356861292.60950,   0.00000
76088806.79146,18664055.42924,-56251716.99535,   0.00031,  -0.00006,  -0.00073,119207779.82702,   0.00000,274640135.82653,   0.00000,   0.00000,   0.00000,-355432355.99951,   0.00000
77106784.89145,18792145.38885,-56865200.48607,   0.00031,  -0.00006,  -0.00074,120625669.62064,   0.00000,274640135.82653,   0.00000,   0.00000,   0.00000,-354014466.20589,   0.00000
78134875.35667,18943830.86732,-57485425.55361,   0.00032,  -0.00007,  -0.00075,122055217.27716,   0.00000,274640135.82653,   0.00000,   0.00000,   0.00000,-352584918.54937,   0.00000
79152853.45666,19071920.82692,-58098909.04433,   0.00032,  -0.00007,  -0.00076,123473742.61937,   0.00000,274640135.82653,   0.00000,   0.00000,   0.00000,-351166393.20716,   0.00000
80170831.55665,19200010.78652,-58712392.53505,   0.00033,  -0.00007,  -0.00076,124892581.55553,   0.00000,274640135.82653,   0.00000,   0.00000,   0.00000,-349747554.27100,   0.00000
81188809.65663,19328100.74612,-59325876.02577,   0.00033,  -0.00007,  -0.00077,126311723.51800,   0.00000,274640135.82653,   0.00000,   0.00000,   0.00000,-348328412.30853,   0.00000
82206787.75662,19456190.70573,-59939359.51649,   0.00034,  -0.00007,  -0.00078,127731158.40657,   0.00000,274640135.82653,   0.00000,   0.00000,   0.00000,-346908977.41996,   0.00000
83214653.49138,19560685.14645,-60559584.58404,   0.00034,  -0.00007,  -0.00079,129158635.70643,   0.00000,274640135.82653,   0.00000,   0.00000,   0.00000,-345481500.12010,   0.00000
84232631.59137,19688775.10605,-61173068.07476,   0.00034,  -0.00007,  -0.00080,130578633.48583,   0.00000,274640135.82653,   0.00000,   0.00000,   0.00000,-344061502.34070,   0.00000
85240497.32612,19793269.54678,-61786551.56548,   0.00035,  -0.00008,  -0.00080,131997203.10271,   0.00000,274640135.82653,   0.00000,   0.00000,   0.00000,-342642932.72382,   0.00000
86248363.06088,19897763.98751,-62400035.05620,   0.00035,  -0.00008,  -0.00081,133416058.60965,   0.00000,274640135.82653,   0.00000,   0.00000,   0.00000,-341224077.21688,   0.00000
87279824.31451,20012370.79347,-63013518.54692,   0.00036,  -0.00008,  -0.00082,134846939.41342,   0.00000,274640135.82653,   0.00000,   0.00000,   0.00000,-339793196.41311,   0.00000
88287690.04926,20116865.23419,-63627002.03764,   0.00036,  -0.00008,  -0.00083,136266353.45316,   0.00000,274640135.82653,   0.00000,   0.00000,   0.00000,-338373782.37337,   0.00000
89295555.78402,20221359.67492,-64240485.52836,   0.00037,  -0.00008,  -0.00084,137686027.11153,   0.00000,274640135.82653,   0.00000,   0.00000,   0.00000,-336954108.71499,   0.00000
90293309.15354,20302258.59677,-64847227.44226,   0.00037,  -0.00008,  -0.00084,139094910.01068,   0.00000,274640135.82653,   0.00000,   0.00000,   0.00000,-335545225.81585,   0.00000
91301174.88830,20406753.03750,-65460710.93298,   0.00038,  -0.00009,  -0.00085,140515100.98596,   0.00000,274640135.82653,   0.00000,   0.00000,   0.00000,-334125034.84057,   0.00000
92298928.25782,20487651.95936,-66074194.42370,   0.00038,  -0.00009,  -0.00086,141933946.70835,   0.00000,274640135.82653,   0.00000,   0.00000,   0.00000,-332706189.11818,   0.00000
93296681.62735,20568550.88121,-66687677.91443,   0.00038,  -0.00009,  -0.00087,143353052.64201,   0.00000,274640135.82653,   0.00000,   0.00000,   0.00000,-331287083.18452,   0.00000
94318030.51575,20659562.16829,-67294419.82833,   0.00039,  -0.00009,  -0.00087,144774845.86218,   0.00000,274640135.82653,   0.00000,   0.00000,   0.00000,-329865289.96435,   0.00000
95315783.88527,20740461.09015,-67907903.31905,   0.00039,  -0.00009,  -0.00088,146194466.64123,   0.00000,274640135.82653,   0.00000,   0.00000,   0.00000,-328445669.18530,   0.00000
96313537.25480,20821360.01200,-68514645.23295,   0.00040,  -0.00009,  -0.00089,147604937.22182,   0.00000,274640135.82653,   0.00000,   0.00000,   0.00000,-327035198.60470,   0.00000
97277582.74022,20868551.04975,-69128128.72367,   0.00040,  -0.00009,  -0.00090,149011666.88482,   0.00000,274640135.82653,   0.00000,   0.00000,   0.00000,-325628468.94171,   0.00000
98265223.74451,20925854.45273,-69734870.63757,   0.00041,  -0.00010,  -0.00091,150421136.68234,   0.00000,274640135.82653,   0.00000,   0.00000,   0.00000,-324218999.14419,   0.00000
99262977.11403,21006753.37458,-70348354.12829,   0.00041,  -0.00010,  -0.00091,151841701.18613,   0.00000,274640135.82653,   0.00000,   0.00000,   0.00000,-322798434.64040,   0.00000
100250618.11832,21064056.77756,-70955096.04219,   0.00042,  -0.00010,  -0.00092,153251666.13148,   0.00000,274640135.82653,   0.00000,   0.00000,   0.00000,-321388469.69505,   0.00000
101214663.60374,21111247.81531,-71561837.95609,   0.00042,  -0.00010,  -0.00093,154649975.82223,   0.00000,274640135.82653,   0.00000,   0.00000,   0.00000,-319990160.00430,   0.00000
102192192.24280,21144955.69941,-72168579.86999,   0.00042,  -0.00010,  -0.00094,156059013.48680,   0.00000,274640135.82653,   0.00000,   0.00000,   0.00000,-318581122.33973,   0.00000
103156237.72822,21192146.73716,-72775321.78389,   0.00043,  -0.00010,  -0.00095,157457793.45916,   0.00000,274640135.82653,   0.00000,   0.00000,   0.00000,-317182342.36737,   0.00000
104133766.36728,21225854.62127,-73382063.69779,   0.00043,  -0.00011,  -0.00095,158867340.36233,   0.00000,274640135.82653,   0.00000,   0.00000,   0.00000,-315772795.46420,   0.00000
105087699.48747,21249450.14014,-73988805.61169,   0.00044,  -0.00011,  -0.00096,160265211.29602,   0.00000,274640135.82653,   0.00000,   0.00000,   0.00000,-314374924.53051,   0.00000
106051744.97289,21296641.17789,-74595547.52559,   0.00044,  -0.00011,  -0.00097,161664655.10496,   0.00000,274640135.82653,   0.00000,   0.00000,   0.00000,-312975480.72157,   0.00000
106995565.72785,21296641.17789,-75202289.43949,   0.00045,  -0.00011,  -0.00098,163061659.65908,   0.00000,274640135.82653,   0.00000,   0.00000,   0.00000,-311578476.16745,   0.00000
107949498.84803,21320236.69676,-75809031.35339,   0.00045,  -0.00011,  -0.00099,164460225.07533,   0.00000,274640135.82653,   0.00000,   0.00000,   0.00000,-310179910.75120,   0.00000
108903431.96822,21343832.21564,-76409031.69047,   0.00045,  -0.00012,  -0.00099,165849692.37262,   0.00000,274640135.82653,   0.00000,   0.00000,   0.00000,-308790443.45391,   0.00000
109823657.20430,21333719.85040,-77015773.60437,   0.00046,  -0.00012,  -0.00100,167235475.60335,   0.00000,274640135.82653,   0.00000,   0.00000,   0.00000,-307404660.22318,   0.00000
110777590.32449,21357315.36928,-77615773.94145,   0.00046,  -0.00012,  -0.00101,168625391.32368,   0.00000,274640135.82653,   0.00000,   0.00000,   0.00000,-306014744.50285,   0.00000
111697815.56057,21347203.00405,-78222515.85535,   0.00047,  -0.00012,  -0.00102,170011632.22979,   0.00000,274640135.82653,   0.00000,   0.00000,   0.00000,-304628503.59674,   0.00000
112618040.79665,21337090.63881,-78822516.19242,   0.00047,  -0.00012,  -0.00102,171388798.88276,   0.00000,274640135.82653,   0.00000,   0.00000,   0.00000,-303251336.94376,   0.00000
113561861.55161,21337090.63881,-79422516.52950,   0.00048,  -0.00012,  -0.00103,172778171.36026,   0.00000,274640135.82653,   0.00000,   0.00000,   0.00000,-301861964.46627,   0.00000
114448378.90358,21293270.38948,-80022516.86658,   0.00048,  -0.00013,  -0.00104,174142654.55911,   0.00000,274640135.82653,   0.00000,   0.00000,   0.00000,-300497481.26742,   0.00000
115368604.13967,21283158.02425,-80622517.20366,   0.00048,  -0.00013,  -0.00105,175520512.31820,   0.00000,274640135.82653,   0.00000,   0.00000,   0.00000,-299119623.50833,   0.00000
116278717.01052,21249450.14014,-81222517.54074,   0.00049,  -0.00013,  -0.00106,176897463.03541,   0.00000,274640135.82653,   0.00000,   0.00000,   0.00000,-297742672.79112,   0.00000
117165234.36249,21205629.89080,-81822517.87782,   0.00049,  -0.00013,  -0.00106,178262675.79592,   0.00000,274640135.82653,   0.00000,   0.00000,   0.00000,-296377460.03061,   0.00000
118051751.71447,21161809.64147,-82422518.21490,   0.00050,  -0.00013,  -0.00107,179628127.24957,   0.00000,274640135.82653,   0.00000,   0.00000,   0.00000,-295012008.57696,   0.00000
118938269.06644,21117989.39213,-83015776.97516,   0.00050,  -0.00014,  -0.00108,180984534.97576,   0.00000,274640135.82653,   0.00000,   0.00000,   0.00000,-293655600.85077,   0.00000
119824786.41842,21074169.14279,-83615777.31223,   0.00050,  -0.00014,  -0.00109,182350450.71342,   0.00000,274640135.82653,   0.00000,   0.00000,   0.00000,-292289685.11311,   0.00000
120687708.25152,21020236.52822,-84209036.07249,   0.00051,  -0.00014,  -0.00109,183695330.26723,   0.00000,274640135.82653,   0.00000,   0.00000,   0.00000,-290944805.55930,   0.00000
121540517.71939,20942708.39478,-84809036.40957,   0.00051,  -0.00014,  -0.00110,185048709.34924,   0.00000,274640135.82653,   0.00000,   0.00000,   0.00000,-289591426.47729,   0.00000
122393327.18726,20865180.26134,-85402295.16983,   0.00052,  -0.00014,  -0.00111,186393077.96585,   0.00000,274640135.82653,   0.00000,   0.00000,   0.00000,-288247057.86068,   0.00000
123246136.65513,20787652.12789,-85995553.93009,   0.00052,  -0.00015,  -0.00112,187737702.00399,   0.00000,274640135.82653,   0.00000,   0.00000,   0.00000,-286902433.82254,   0.00000
124098946.12300,20710123.99445,-86588812.69034,   0.00052,  -0.00015,  -0.00113,189082576.01452,   0.00000,274640135.82653,   0.00000,   0.00000,   0.00000,-285557559.81201,   0.00000
124928160.07200,20622483.49578,-87182071.45060,   0.00053,  -0.00015,  -0.00113,190415713.19752,   0.00000,274640135.82653,   0.00000,   0.00000,   0.00000,-284224422.62901,   0.00000
125747261.65576,20511247.47823,-87775330.21086,   0.00053,  -0.00015,  -0.00114,191748214.24040,   0.00000,274640135.82653,   0.00000,   0.00000,   0.00000,-282891921.58613,   0.00000
126576475.60476,20423606.97955,-88361847.39430,   0.00054,  -0.00015,  -0.00115,193072597.57088,   0.00000,274640135.82653,   0.00000,   0.00000,   0.00000,-281567538.25565,   0.00000
127395577.18853,20312370.96201,-88955106.15455,   0.00054,  -0.00016,  -0.00116,194405637.80772,   0.00000,274640135.82653,   0.00000,   0.00000,   0.00000,-280234498.01881,   0.00000
128191083.25342,20191022.57923,-89548364.91481,   0.00054,  -0.00016,  -0.00116,195726981.12116,   0.00000,274640135.82653,   0.00000,   0.00000,   0.00000,-278913154.70537,   0.00000
128986589.31831,20069674.19645,-90134882.09825,   0.00055,  -0.00016,  -0.00117,197039346.66860,   0.00000,274640135.82653,   0.00000,   0.00000,   0.00000,-277600789.15793,   0.00000
129782095.38320,19948325.81367,-90721399.28168,   0.00055,  -0.00016,  -0.00118,198351983.41388,   0.00000,274640135.82653,   0.00000,   0.00000,   0.00000,-276288152.41265,   0.00000
130543893.56399,19793269.54678,-91307916.46512,   0.00056,  -0.00016,  -0.00119,199652192.62709,   0.00000,274640135.82653,   0.00000,   0.00000,   0.00000,-274987943.19944,   0.00000
131339399.62888,19671921.16400,-91894433.64856,   0.00056,  -0.00017,  -0.00119,200965382.26445,   0.00000,274640135.82653,   0.00000,   0.00000,   0.00000,-273674753.56208,   0.00000
132101197.80966,19516864.89712,-92480950.83199,   0.00056,  -0.00017,  -0.00120,202266191.06546,   0.00000,274640135.82653,   0.00000,   0.00000,   0.00000,-272373944.76107,   0.00000
132839400.47157,19351696.26500,-93067468.01543,   0.00057,  -0.00017,  -0.00121,203555367.27004,   0.00000,274640135.82653,   0.00000,   0.00000,   0.00000,-271084768.55649,   0.00000
133577603.13348,19186527.63288,-93653985.19887,   0.00057,  -0.00017,  -0.00122,204844856.80321,   0.00000,274640135.82653,   0.00000,   0.00000,   0.00000,-269795279.02332,   0.00000
134315805.79540,19021359.00076,-94233760.80548,   0.00057,  -0.00018,  -0.00123,206125407.57953,   0.00000,274640135.82653,   0.00000,   0.00000,   0.00000,-268514728.24700,   0.00000
135054008.45731,18856190.36865,-94813536.41210,   0.00058,  -0.00018,  -0.00123,207406260.95417,   0.00000,274640135.82653,   0.00000,   0.00000,   0.00000,-267233874.87236,   0.00000
135758503.23511,18657313.85242,-95400053.59554,   0.00058,  -0.00018,  -0.00124,208684183.00371,   0.00000,274640135.82653,   0.00000,   0.00000,   0.00000,-265955952.82282,   0.00000
136462998.01292,18458437.33620,-95979829.20215,   0.00058,  -0.00018,  -0.00125,209953215.92931,   0.00000,274640135.82653,   0.00000,   0.00000,   0.00000,-264686919.89722,   0.00000
137167492.79073,18259560.81998,-96559604.80877,   0.00059,  -0.00018,  -0.00126,211222598.94522,   0.00000,274640135.82653,   0.00000,   0.00000,   0.00000,-263417536.88131,   0.00000
137848392.04966,18050571.93852,-97139380.41538,   0.00059,  -0.00019,  -0.00126,212480440.75428,   0.00000,274640135.82653,   0.00000,   0.00000,   0.00000,-262159695.07224,   0.00000
138529291.30859,17841583.05707,-97712414.44518,   0.00060,  -0.00019,  -0.00127,213729391.02950,   0.00000,274640135.82653,   0.00000,   0.00000,   0.00000,-260910744.79703,   0.00000
139210190.56752,17632594.17561,-98292190.05179,   0.00060,  -0.00019,  -0.00128,214987935.97631,   0.00000,274640135.82653,   0.00000,   0.00000,   0.00000,-259652199.85022,   0.00000
139857381.94235,17389897.41005,-98865224.08159,   0.00060,  -0.00019,  -0.00129,216225317.41170,   0.00000,274640135.82653,   0.00000,   0.00000,   0.00000,-258414818.41483,   0.00000
140504573.31718,17147200.64449,-99438258.11138,   0.00061,  -0.00020,  -0.00129,217463107.28839,   0.00000,274640135.82653,   0.00000,   0.00000,   0.00000,-257177028.53814,   0.00000
141151764.69200,16904503.87893,-100018033.71800,   0.00061,  -0.00020,  -0.00130,218710547.48171,   0.00000,274640135.82653,   0.00000,   0.00000,   0.00000,-255929588.34482,   0.00000
141775360.54796,16651694.74814,-100591067.74779,   0.00061,  -0.00020,  -0.00131,219937310.39039,   0.00000,274640135.82653,   0.00000,   0.00000,   0.00000,-254702825.43614,   0.00000
142398956.40391,16398885.61735,-101157360.20076,   0.00062,  -0.00020,  -0.00132,221155231.91794,   0.00000,274640135.82653,   0.00000,   0.00000,   0.00000,-253484903.90859,   0.00000
142998956.74099,16135964.12133,-101730394.23056,   0.00062,  -0.00021,  -0.00132,222371005.89486,   0.00000,274640135.82653,   0.00000,   0.00000,   0.00000,-252269129.93167,   0.00000
143588844.71283,15849447.10643,-102303428.26035,   0.00062,  -0.00021,  -0.00133,223586966.97630,   0.00000,274640135.82653,   0.00000,   0.00000,   0.00000,-251053168.85023,   0.00000
144178732.68468,15562930.09153,-102869720.71333,   0.00063,  -0.00021,  -0.00134,224794142.56837,   0.00000,274640135.82653,   0.00000,   0.00000,   0.00000,-249845993.25816,   0.00000
144745025.13765,15266300.71140,-103436013.16630,   0.00063,  -0.00021,  -0.00134,225990016.63458,   0.00000,274640135.82653,   0.00000,   0.00000,   0.00000,-248650119.19195,   0.00000
145311317.59063,14969671.33128,-104002305.61927,   0.00063,  -0.00022,  -0.00135,227186368.73065,   0.00000,274640135.82653,   0.00000,   0.00000,   0.00000,-247453767.09588,   0.00000
145854014.52473,14662929.58592,-104568598.07225,   0.00064,  -0.00022,  -0.00136,228371458.41941,   0.00000,274640135.82653,   0.00000,   0.00000,   0.00000,-246268677.40712,   0.00000
146396711.45883,14356187.84055,-105134890.52522,   0.00064,  -0.00022,  -0.00137,229557039.06345,   0.00000,274640135.82653,   0.00000,   0.00000,   0.00000,-245083096.76308,   0.00000
146929296.02769,14025850.57632,-105694441.40137,   0.00064,  -0.00022,  -0.00137,230733783.81515,   0.00000,274640135.82653,   0.00000,   0.00000,   0.00000,-243906352.01137,   0.00000
147438285.07769,13685400.94685,-106260733.85434,   0.00064,  -0.00023,  -0.00138,231908638.77250,   0.00000,274640135.82653,   0.00000,   0.00000,   0.00000,-242731497.05403,   0.00000
147923678.60881,13334838.95216,-106820284.73050,   0.00065,  -0.00023,  -0.00139,233063111.36964,   0.00000,274640135.82653,   0.00000,   0.00000,   0.00000,-241577024.45689,   0.00000
148432667.65880,12994389.32269,-107379835.60665,   0.00065,  -0.00023,  -0.00140,234229815.34200,   0.00000,274640135.82653,   0.00000,   0.00000,   0.00000,-240410320.48453,   0.00000
148894465.67105,12633714.96276,-107939386.48280,   0.00065,  -0.00023,  -0.00140,235373779.09457,   0.00000,274640135.82653,   0.00000,   0.00000,   0.00000,-239266356.73196,   0.00000
149369746.83694,12259557.44919,-108498937.35895,   0.00066,  -0.00024,  -0.00141,236530059.93008,   0.00000,274640135.82653,   0.00000,   0.00000,   0.00000,-238110075.89645,   0.00000
149831544.84918,11898883.08926,-109051746.65828,   0.00066,  -0.00024,  -0.00142,237665936.90112,   0.00000,274640135.82653,   0.00000,   0.00000,   0.00000,-236974198.92541,   0.00000
150259634.97732,11504500.84523,-109611297.53444,   0.00066,  -0.00024,  -0.00142,238800249.13547,   0.00000,274640135.82653,   0.00000,   0.00000,   0.00000,-235839886.69105,   0.00000
150687725.10546,11110118.60119,-110164106.83377,   0.00066,  -0.00024,  -0.00143,239925942.82106,   0.00000,274640135.82653,   0.00000,   0.00000,   0.00000,-234714193.00547,   0.00000
151082107.34950,10682028.47305,-110716916.13310,   0.00067,  -0.00025,  -0.00144,241040975.92538,   0.00000,274640135.82653,   0.00000,   0.00000,   0.00000,-233599159.90115,   0.00000
151486601.95877,10277533.86378,-111269725.43243,   0.00067,  -0.00025,  -0.00145,242156488.63332,   0.00000,274640135.82653,   0.00000,   0.00000,   0.00000,-232483647.19321,   0.00000
151891096.56803,9873039.25452,-111815793.15494,   0.00067,  -0.00025,  -0.00145,243263376.11432,   0.00000,274640135.82653,   0.00000,   0.00000,   0.00000,-231376759.71221,   0.00000
152261883.29319,9434836.76114,-112368602.45427,   0.00067,  -0.00025,  -0.00146,244369064.50584,   0.00000,274640135.82653,   0.00000,   0.00000,   0.00000,-230271071.32068,   0.00000
152609074.49948,8986521.90254,-112914670.17678,   0.00068,  -0.00026,  -0.00147,245454742.52573,   0.00000,274640135.82653,   0.00000,   0.00000,   0.00000,-229185393.30080,   0.00000
152979861.22464,8548319.40917,-113460737.89929,   0.00068,  -0.00026,  -0.00147,246552647.76933,   0.00000,274640135.82653,   0.00000,   0.00000,   0.00000,-228087488.05720,   0.00000
153303456.91205,8089892.18533,-114006805.62180,   0.00068,  -0.00026,  -0.00148,247628437.38747,   0.00000,274640135.82653,   0.00000,   0.00000,   0.00000,-227011698.43906,   0.00000
153616940.23424,7607869.44262,-114552873.34431,   0.00068,  -0.00026,  -0.00149,248705506.07741,   0.00000,274640135.82653,   0.00000,   0.00000,   0.00000,-225934629.74912,   0.00000
153940535.92165,7149442.21879,-115092199.49000,   0.00069,  -0.00027,  -0.00150,249773612.11209,   0.00000,274640135.82653,   0.00000,   0.00000,   0.00000,-224866523.71444,   0.00000
154230423.72496,6657307.11085,-115631525.63569,   0.00069,  -0.00027,  -0.00150,250831683.01928,   0.00000,274640135.82653,   0.00000,   0.00000,   0.00000,-223808452.80725,   0.00000
154496716.00939,6155059.63767,-116177593.35820,   0.00069,  -0.00027,  -0.00151,251888632.35858,   0.00000,274640135.82653,   0.00000,   0.00000,   0.00000,-222751503.46795,   0.00000
154763008.29382,5652812.16450,-116710177.92707,   0.00069,  -0.00028,  -0.00152,252927842.87406,   0.00000,274640135.82653,   0.00000,   0.00000,   0.00000,-221712292.95247,   0.00000
154995592.69415,5116856.80722,-117249504.07276,   0.00070,  -0.00028,  -0.00152,253966659.89959,   0.00000,274640135.82653,   0.00000,   0.00000,   0.00000,-220673475.92694,   0.00000
155238289.45971,4604496.96882,-117788830.21844,   0.00070,  -0.00028,  -0.00153,255005802.37740,   0.00000,274640135.82653,   0.00000,   0.00000,   0.00000,-219634333.44913,   0.00000
155470873.86004,4068541.61154,-118321414.78731,   0.00070,  -0.00028,  -0.00154,256037258.07347,   0.00000,274640135.82653,   0.00000,   0.00000,   0.00000,-218602877.75306,   0.00000
155656267.22262,3512361.52380,-118853999.35618,   0.00070,  -0.00029,  -0.00155,257047288.67292,   0.00000,274640135.82653,   0.00000,   0.00000,   0.00000,-217592847.15361,   0.00000
155865256.10408,2966293.80129,-119386583.92505,   0.00070,  -0.00029,  -0.00155,258069572.17030,   0.00000,274640135.82653,   0.00000,   0.00000,   0.00000,-216570563.65622,   0.00000
156027053.94778,2400001.34832,-119919168.49391,   0.00071,  -0.00029,  -0.00156,259070564.41646,   0.00000,274640135.82653,   0.00000,   0.00000,   0.00000,-215569571.41007,   0.00000
156188851.79149,1833708.89534,-120445011.48596,   0.00071,  -0.00030,  -0.00157,260063294.98977,   0.00000,274640135.82653,   0.00000,   0.00000,   0.00000,-214576840.83676,   0.00000
156340537.26996,1243820.92349,-120970854.47801,   0.00071,  -0.00030,  -0.00157,261058027.94077,   0.00000,274640135.82653,   0.00000,   0.00000,   0.00000,-213582107.88576,   0.00000
156478739.59480,667416.10529,-121496697.47005,   0.00071,  -0.00030,  -0.00158,262041881.09324,   0.00000,274640135.82653,   0.00000,   0.00000,   0.00000,-212598254.73329,   0.00000
156583234.03552,57303.40298,-122022540.46210,   0.00071,  -0.00031,  -0.00159,263016807.17213,   0.00000,274640135.82653,   0.00000,   0.00000,   0.00000,-211623328.65440,   0.00000
156687728.47625,-552809.29933,-122548383.45415,   0.00071,  -0.00031,  -0.00159,263992967.99013,   0.00000,274640135.82653,   0.00000,   0.00000,   0.00000,-210647167.83640,   0.00000
156782110.55175,-1186517.52052,-123067484.86937,   0.00072,  -0.00031,  -0.00160,264962035.45070,   0.00000,274640135.82653,   0.00000,   0.00000,   0.00000,-209678100.37583,   0.00000
156839413.95473,-1816854.95329,-123586586.28460,   0.00072,  -0.00031,  -0.00161,265909364.49501,   0.00000,274640135.82653,   0.00000,   0.00000,   0.00000,-208730771.33152,   0.00000
156886604.99247,-2470787.90494,-124105687.69982,   0.00072,  -0.00032,  -0.00161,266859158.17775,   0.00000,274640135.82653,   0.00000,   0.00000,   0.00000,-207780977.64878,   0.00000
156933796.03022,-3124720.85658,-124624789.11505,   0.00072,  -0.00032,  -0.00162,267810322.25879,   0.00000,274640135.82653,   0.00000,   0.00000,   0.00000,-206829813.56774,   0.00000
156957391.54910,-3788766.17346,-125143890.53028,   0.00072,  -0.00032,  -0.00163,268751990.46323,   0.00000,274640135.82653,   0.00000,   0.00000,   0.00000,-205888145.36329,   0.00000
156957391.54910,-4462923.85558,-125656250.36868,   0.00072,  -0.00033,  -0.00163,269674821.05017,   0.00000,274640135.82653,   0.00000,   0.00000,   0.00000,-204965314.77636,   0.00000
156957391.54910,-5137081.53769,-126168610.20708,   0.00072,  -0.00033,  -0.00164,270599094.40298,   0.00000,274640135.82653,   0.00000,   0.00000,   0.00000,-204041041.42355,   0.00000
156923683.66499,-5844947.10390,-126680970.04549,   0.00073,  -0.00033,  -0.00165,271515415.85517,   0.00000,274640135.82653,   0.00000,   0.00000,   0.00000,-203124719.97136,   0.00000
156876492.62724,-6539329.51648,-127186588.30707,   0.00073,  -0.00034,  -0.00165,272411726.22302,   0.00000,274640135.82653,   0.00000,   0.00000,   0.00000,-202228409.60351,   0.00000
156819189.22426,-7257307.44793,-127692206.56866,   0.00073,  -0.00034,  -0.00166,273311014.31410,   0.00000,274640135.82653,   0.00000,   0.00000,   0.00000,-201329121.51243,   0.00000
156738290.30241,-7985397.74461,-128197824.83024,   0.00073,  -0.00034,  -0.00167,274201244.86871,   0.00000,274640135.82653,   0.00000,   0.00000,   0.00000,-200438890.95782,   0.00000
156647279.01533,-8737083.56016,-128703443.09182,   0.00073,  -0.00035,  -0.00167,275094666.99546,   0.00000,274640135.82653,   0.00000,   0.00000,   0.00000,-199545468.83107,   0.00000
156542784.57460,-9475286.22207,-129209061.35341,   0.00073,  -0.00035,  -0.00168,275977638.13158,   0.00000,274640135.82653,   0.00000,   0.00000,   0.00000,-198662497.69495,   0.00000
156404582.24977,-10247196.76809,-129707938.03817,   0.00073,  -0.00035,  -0.00169,276843917.19959,   0.00000,274640135.82653,   0.00000,   0.00000,   0.00000,-197796218.62694,   0.00000
156276492.29016,-10995511.79523,-130206814.72293,   0.00073,  -0.00035,  -0.00169,277710329.54740,   0.00000,274640135.82653,   0.00000,   0.00000,   0.00000,-196929806.27913,   0.00000
156114694.44646,-11777534.70648,-130705691.40769,   0.00073,  -0.00036,  -0.00170,278569717.80327,   0.00000,274640135.82653,   0.00000,   0.00000,   0.00000,-196070418.02325,   0.00000
155952896.60275,-12559557.61773,-131204568.09245,   0.00073,  -0.00036,  -0.00171,279430964.46503,   0.00000,274640135.82653,   0.00000,   0.00000,   0.00000,-195209171.36150,   0.00000
155733795.35606,-13385400.77832,-131696703.20040,   0.00073,  -0.00036,  -0.00171,280265602.84332,   0.00000,274640135.82653,   0.00000,   0.00000,   0.00000,-194374532.98321,   0.00000
155524806.47461,-14187648.42003,-132188838.30834,   0.00074,  -0.00037,  -0.00172,281100432.21495,   0.00000,274640135.82653,   0.00000,   0.00000,   0.00000,-193539703.61158,   0.00000
155305705.22792,-15013491.58061,-132680973.41628,   0.00074,  -0.00037,  -0.00172,281939124.67715,   0.00000,274640135.82653,   0.00000,   0.00000,   0.00000,-192701011.14938,   0.00000
155063008.46236,-15849447.10643,-133173108.52422,   0.00074,  -0.00037,  -0.00173,282769579.37476,   0.00000,274640135.82653,   0.00000,   0.00000,   0.00000,-191870556.45177,   0.00000
154796716.17793,-16695514.99748,-133658502.05534,   0.00074,  -0.00038,  -0.00174,283582368.93721,   0.00000,274640135.82653,   0.00000,   0.00000,   0.00000,-191057766.88932,   0.00000
154506828.37462,-17551695.25376,-134143895.58646,   0.00074,  -0.00038,  -0.00174,284387118.12643,   0.00000,274640135.82653,   0.00000,   0.00000,   0.00000,-190253017.70010,   0.00000
154216940.57131,-18407875.51004,-134629289.11758,   0.00074,  -0.00038,  -0.00175,285194069.62358,   0.00000,274640135.82653,   0.00000,   0.00000,   0.00000,-189446066.20295,   0.00000
153893344.88390,-19297763.65043,-135107941.07188,   0.00074,  -0.00039,  -0.00176,285985716.25249,   0.00000,274640135.82653,   0.00000,   0.00000,   0.00000,-188654419.57404,   0.00000
153569749.19649,-20187651.79082,-135586593.02618,   0.00074,  -0.00039,  -0.00176,286779696.63283,   0.00000,274640135.82653,   0.00000,   0.00000,   0.00000,-187860439.19370,   0.00000
153222557.99020,-21087652.29643,-136065244.98047,   0.00074,  -0.00039,  -0.00177,287565989.04963,   0.00000,274640135.82653,   0.00000,   0.00000,   0.00000,-187074146.77690,   0.00000
152851771.26504,-21997765.16728,-136543896.93477,   0.00074,  -0.00040,  -0.00178,288344707.58332,   0.00000,274640135.82653,   0.00000,   0.00000,   0.00000,-186295428.24321,   0.00000
152457389.02101,-22917990.40337,-137022548.88907,   0.00074,  -0.00040,  -0.00178,289115968.84626,   0.00000,274640135.82653,   0.00000,   0.00000,   0.00000,-185524166.98027,   0.00000
152052894.41174,-23861811.15832,-137494459.26655,   0.00074,  -0.00041,  -0.00179,289882571.34618,   0.00000,274640135.82653,   0.00000,   0.00000,   0.00000,-184757564.48035,   0.00000
151634916.64883,-24792148.75963,-137966369.64403,   0.00074,  -0.00041,  -0.00179,290639487.09043,   0.00000,274640135.82653,   0.00000,   0.00000,   0.00000,-184000648.73610,   0.00000
151183231.00182,-25756194.24505,-138431538.44468,   0.00074,  -0.00041,  -0.00180,291382099.74345,   0.00000,274640135.82653,   0.00000,   0.00000,   0.00000,-183258036.08308,   0.00000
150731545.35480,-26720239.73047,-138903448.82216,   0.00074,  -0.00042,  -0.00181,292137052.23268,   0.00000,274640135.82653,   0.00000,   0.00000,   0.00000,-182503083.59385,   0.00000
150256264.18891,-27694397.58112,-139368617.62282,   0.00074,  -0.00042,  -0.00181,292875427.51002,   0.00000,274640135.82653,   0.00000,   0.00000,   0.00000,-181764708.31651,   0.00000
149747275.13892,-28702263.31588,-139827044.84665,   0.00074,  -0.00042,  -0.00182,293599999.08805,   0.00000,274640135.82653,   0.00000,   0.00000,   0.00000,-181040136.73848,   0.00000
149248398.45416,-29686533.53176,-140292213.64731,   0.00074,  -0.00043,  -0.00182,294334432.11714,   0.00000,274640135.82653,   0.00000,   0.00000,   0.00000,-180305703.70938,   0.00000
148715813.88529,-30704511.63175,-140750640.87115,   0.00074,  -0.00043,  -0.00183,295055309.20200,   0.00000,274640135.82653,   0.00000,   0.00000,   0.00000,-179584826.62453,   0.00000
148159633.79755,-31732602.09697,-141209068.09498,   0.00074,  -0.00043,  -0.00184,295769722.19238,   0.00000,274640135.82653,   0.00000,   0.00000,   0.00000,-178870413.63415,   0.00000
147579858.19093,-32770804.92742,-141667495.31882,   0.00074,  -0.00044,  -0.00184,296477804.62112,   0.00000,274640135.82653,   0.00000,   0.00000,   0.00000,-178162331.20541,   0.00000
147000082.58432,-33809007.75787,-142119180.96583,   0.00073,  -0.00044,  -0.00185,297179381.87745,   0.00000,274640135.82653,   0.00000,   0.00000,   0.00000,-177460753.94908,   0.00000
146396711.45883,-34857322.95355,-142570866.61285,   0.00073,  -0.00044,  -0.00185,297874778.32190,   0.00000,274640135.82653,   0.00000,   0.00000,   0.00000,-176765357.50463,   0.00000
145759632.44923,-35939346.03334,-143022552.25986,   0.00073,  -0.00045,  -0.00186,298567185.53468,   0.00000,274640135.82653,   0.00000,   0.00000,   0.00000,-176072950.29185,   0.00000
145122553.43964,-37021369.11313,-143467496.33005,   0.00073,  -0.00045,  -0.00187,299253304.76876,   0.00000,274640135.82653,   0.00000,   0.00000,   0.00000,-175386831.05777,   0.00000
144461878.91117,-38113504.55815,-143912440.40025,   0.00073,  -0.00046,  -0.00187,299933648.78665,   0.00000,274640135.82653,   0.00000,   0.00000,   0.00000,-174706487.03988,   0.00000
143777608.86383,-39215752.36840,-144357384.47044,   0.00073,  -0.00046,  -0.00188,300608360.66747,   0.00000,274640135.82653,   0.00000,   0.00000,   0.00000,-174031775.15906,   0.00000
143069743.29761,-40328112.54388,-144802328.54063,   0.00073,  -0.00046,  -0.00188,301277586.07353,   0.00000,274640135.82653,   0.00000,   0.00000,   0.00000,-173362549.75300,   0.00000
142361877.73139,-41440472.71937,-145240531.03401,   0.00073,  -0.00047,  -0.00189,301940716.17776,   0.00000,274640135.82653,   0.00000,   0.00000,   0.00000,-172699419.64877,   0.00000
141620304.28107,-42586540.77896,-145678733.52738,   0.00073,  -0.00047,  -0.00189,302601921.85443,   0.00000,274640135.82653,   0.00000,   0.00000,   0.00000,-172038213.97210,   0.00000
140855135.31187,-43742721.20378,-146110194.44393,   0.00073,  -0.00047,  -0.00190,303248328.07030,   0.00000,274640135.82653,   0.00000,   0.00000,   0.00000,-171391807.75623,   0.00000
140089966.34268,-44898901.62860,-146548396.93730,   0.00072,  -0.00048,  -0.00191,303908363.80396,   0.00000,274640135.82653,   0.00000,   0.00000,   0.00000,-170731772.02257,   0.00000
139277606.33573,-46075306.78388,-146979857.85385,   0.00072,  -0.00048,  -0.00191,304545037.40186,   0.00000,274640135.82653,   0.00000,   0.00000,   0.00000,-170095098.42467,   0.00000
138465246.32879,-47251711.93916,-147404577.19358,   0.00072,  -0.00049,  -0.00192,305176009.52245,   0.00000,274640135.82653,   0.00000,   0.00000,   0.00000,-169464126.30408,   0.00000
137652886.32185,-48428117.09445,-147836038.11013,   0.00072,  -0.00049,  -0.00192,305820784.49238,   0.00000,274640135.82653,   0.00000,   0.00000,   0.00000,-168819351.33415,   0.00000
136783222.91192,-49648342.49907,-148260757.44986,   0.00072,  -0.00049,  -0.00193,306446447.00364,   0.00000,274640135.82653,   0.00000,   0.00000,   0.00000,-168193688.82289,   0.00000
135913559.50200,-50868567.90369,-148685476.78959,   0.00072,  -0.00050,  -0.00193,307076453.04074,   0.00000,274640135.82653,   0.00000,   0.00000,   0.00000,-167563682.78579,   0.00000
135020300.57320,-52098905.67354,-149103454.55250,   0.00072,  -0.00050,  -0.00194,307692554.21818,   0.00000,274640135.82653,   0.00000,   0.00000,   0.00000,-166947581.60835,   0.00000
134103446.12553,-53339355.80863,-149521432.31541,   0.00071,  -0.00050,  -0.00194,308304701.12185,   0.00000,274640135.82653,   0.00000,   0.00000,   0.00000,-166335434.70468,   0.00000
133186591.67786,-54579805.94371,-149939410.07832,   0.00071,  -0.00051,  -0.00195,308921352.17819,   0.00000,274640135.82653,   0.00000,   0.00000,   0.00000,-165718783.64833,   0.00000
132212433.82721,-55864076.32813,-150350646.26441,   0.00071,  -0.00051,  -0.00195,309520271.83003,   0.00000,274640135.82653,   0.00000,   0.00000,   0.00000,-165119863.99650,   0.00000
131248388.34179,-57124751.19368,-150761882.45050,   0.00071,  -0.00052,  -0.00196,310119886.12455,   0.00000,274640135.82653,   0.00000,   0.00000,   0.00000,-164520249.70198,   0.00000
130274230.49114,-58409021.57810,-151173118.63658,   0.00071,  -0.00052,  -0.00197,310728361.54193,   0.00000,274640135.82653,   0.00000,   0.00000,   0.00000,-163911774.28460,   0.00000
129252881.60274,-59713516.69299,-151584354.82267,   0.00070,  -0.00052,  -0.00197,311325561.85234,   0.00000,274640135.82653,   0.00000,   0.00000,   0.00000,-163314573.97419,   0.00000
128231532.71434,-61018011.80787,-151988849.43194,   0.00070,  -0.00053,  -0.00198,311917918.65729,   0.00000,274640135.82653,   0.00000,   0.00000,   0.00000,-162722217.16924,   0.00000
127176475.94184,-62356214.80686,-152393344.04120,   0.00070,  -0.00053,  -0.00198,312511745.59433,   0.00000,274640135.82653,   0.00000,   0.00000,   0.00000,-162128390.23220,   0.00000
126107936.01569,-63680934.65221,-152791097.07365,   0.00070,  -0.00054,  -0.00199,313088649.15830,   0.00000,274640135.82653,   0.00000,   0.00000,   0.00000,-161551486.66823,   0.00000
125005688.20544,-65039362.38166,-153188850.10610,   0.00070,  -0.00054,  -0.00199,313667502.92017,   0.00000,274640135.82653,   0.00000,   0.00000,   0.00000,-160972632.90636,   0.00000
123903440.39519,-66397790.11112,-153586603.13854,   0.00069,  -0.00054,  -0.00200,314251774.36845,   0.00000,274640135.82653,   0.00000,   0.00000,   0.00000,-160388361.45808,   0.00000
122787709.43130,-67742734.68693,-153977614.59417,   0.00069,  -0.00055,  -0.00200,314819301.03060,   0.00000,274640135.82653,   0.00000,   0.00000,   0.00000,-159820834.79593,   0.00000
121628158.21807,-69144982.66572,-154375367.62661,   0.00069,  -0.00055,  -0.00201,315403989.79811,   0.00000,274640135.82653,   0.00000,   0.00000,   0.00000,-159236146.02842,   0.00000
120455123.85119,-70533747.49087,-154759637.50541,   0.00069,  -0.00056,  -0.00201,315962393.15658,   0.00000,274640135.82653,   0.00000,   0.00000,   0.00000,-158677742.66995,   0.00000
119282089.48432,-71922512.31602,-155150648.96104,   0.00068,  -0.00056,  -0.00202,316536417.83957,   0.00000,274640135.82653,   0.00000,   0.00000,   0.00000,-158103717.98696,   0.00000
118075347.23334,-73344985.02527,-155534918.83984,   0.00068,  -0.00056,  -0.00202,317103834.67070,   0.00000,274640135.82653,   0.00000,   0.00000,   0.00000,-157536301.15583,   0.00000
116845009.46349,-74777570.09976,-155919188.71865,   0.00068,  -0.00057,  -0.00203,317669966.07258,   0.00000,274640135.82653,   0.00000,   0.00000,   0.00000,-156970169.75395,   0.00000
115591076.17476,-76220267.53948,-156296717.02063,   0.00067,  -0.00057,  -0.00203,318225077.70527,   0.00000,274640135.82653,   0.00000,   0.00000,   0.00000,-156415058.12126,   0.00000
114313547.36716,-77673077.34443,-156674245.32261,   0.00067,  -0.00058,  -0.00204,318779291.20978,   0.00000,274640135.82653,   0.00000,   0.00000,   0.00000,-155860844.61675,   0.00000
113036018.55956,-79125887.14937,-157051773.62459,   0.00067,  -0.00058,  -0.00204,319339790.11896,   0.00000,274640135.82653,   0.00000,   0.00000,   0.00000,-155300345.70757,   0.00000
111734894.23309,-80588809.31956,-157422560.34975,   0.00067,  -0.00058,  -0.00205,319889687.83587,   0.00000,274640135.82653,   0.00000,   0.00000,   0.00000,-154750447.99066,   0.00000
110400062.02251,-82085439.37384,-157793347.07491,   0.00066,  -0.00059,  -0.00205,320444459.76347,   0.00000,274640135.82653,   0.00000,   0.00000,   0.00000,-154195676.06306,   0.00000
109075342.17716,-83558473.90925,-158164133.80008,   0.00066,  -0.00059,  -0.00206,321000463.59584,   0.00000,274640135.82653,   0.00000,   0.00000,   0.00000,-153639672.23069,   0.00000
107693318.92883,-85075328.69400,-158528178.94842,   0.00066,  -0.00060,  -0.00206,321545109.68513,   0.00000,274640135.82653,   0.00000,   0.00000,   0.00000,-153095026.14140,   0.00000
106311295.68050,-86592183.47875,-158892224.09676,   0.00065,  -0.00060,  -0.00207,322096634.07983,   0.00000,274640135.82653,   0.00000,   0.00000,   0.00000,-152543501.74670,   0.00000
104905676.91330,-88119150.62874,-159249527.66827,   0.00065,  -0.00061,  -0.00207,322638530.07601,   0.00000,274640135.82653,   0.00000,   0.00000,   0.00000,-152001605.75052,   0.00000
103466350.26199,-89679825.66282,-159613572.81661,   0.00065,  -0.00061,  -0.00207,323196656.70110,   0.00000,274640135.82653,   0.00000,   0.00000,   0.00000,-151443479.12543,   0.00000
102037135.97592,-91216905.17804,-159964134.81131,   0.00064,  -0.00061,  -0.00208,323736290.74167,   0.00000,274640135.82653,   0.00000,   0.00000,   0.00000,-150903845.08486,   0.00000
100574213.80574,-92787692.57736,-160321438.38283,   0.00064,  -0.00062,  -0.00208,324292566.09381,   0.00000,274640135.82653,   0.00000,   0.00000,   0.00000,-150347569.73272,   0.00000
99097808.48191,-94344996.82303,-160672000.37753,   0.00063,  -0.00062,  -0.00209,324834129.38575,   0.00000,274640135.82653,   0.00000,   0.00000,   0.00000,-149806006.44077,   0.00000
97587695.27399,-95936008.95281,-161022562.37223,   0.00063,  -0.00063,  -0.00209,325382923.44394,   0.00000,274640135.82653,   0.00000,   0.00000,   0.00000,-149257212.38259,   0.00000
96053986.54718,-97537133.44783,-161366382.79010,   0.00063,  -0.00063,  -0.00210,325923334.11580,   0.00000,274640135.82653,   0.00000,   0.00000,   0.00000,-148716801.71073,   0.00000
94510165.45515,-99161853.46172,-161710203.20798,   0.00062,  -0.00064,  -0.00210,326477590.65291,   0.00000,274640135.82653,   0.00000,   0.00000,   0.00000,-148162545.17362,   0.00000
92952861.20947,-100773090.32196,-162054023.62586,   0.00062,  -0.00064,  -0.00211,327027700.56740,   0.00000,274640135.82653,   0.00000,   0.00000,   0.00000,-147612435.25913,   0.00000
91371961.44492,-102394439.54744,-162391102.46691,   0.00062,  -0.00064,  -0.00211,327569912.92285,   0.00000,274640135.82653,   0.00000,   0.00000,   0.00000,-147070222.90368,   0.00000
89757353.79627,-104049496.65702,-162728181.30797,   0.00061,  -0.00065,  -0.00212,328120817.34363,   0.00000,274640135.82653,   0.00000,   0.00000,   0.00000,-146519318.48290,   0.00000
88119150.62874,-105714666.13183,-163058518.57220,   0.00061,  -0.00065,  -0.00212,328664423.64259,   0.00000,274640135.82653,   0.00000,   0.00000,   0.00000,-145975712.18394,   0.00000
86480947.46121,-107379835.60665,-163395597.41326,   0.00060,  -0.00066,  -0.00212,329226452.54034,   0.00000,274640135.82653,   0.00000,   0.00000,   0.00000,-145413683.28619,   0.00000
84819148.77480,-109055117.44670,-163719193.10067,   0.00060,  -0.00066,  -0.00213,329771423.01928,   0.00000,274640135.82653,   0.00000,   0.00000,   0.00000,-144868712.80725,   0.00000
83133754.56952,-110740511.65197,-164049530.36490,   0.00059,  -0.00067,  -0.00213,330329686.56356,   0.00000,274640135.82653,   0.00000,   0.00000,   0.00000,-144310449.26296,   0.00000
81424764.84537,-112436018.22248,-164373126.05232,   0.00059,  -0.00067,  -0.00214,330881399.55640,   0.00000,274640135.82653,   0.00000,   0.00000,   0.00000,-143758736.27013,   0.00000
79705662.75599,-114155120.31187,-164689980.16291,   0.00059,  -0.00067,  -0.00214,331438625.37190,   0.00000,274640135.82653,   0.00000,   0.00000,   0.00000,-143201510.45463,   0.00000
77973077.51296,-115860739.24761,-165013575.85032,   0.00058,  -0.00068,  -0.00215,332002968.00276,   0.00000,274640135.82653,   0.00000,   0.00000,   0.00000,-142637167.82377,   0.00000
76206784.38583,-117600066.06745,-165330429.96092,   0.00058,  -0.00068,  -0.00215,332568227.01101,   0.00000,274640135.82653,   0.00000,   0.00000,   0.00000,-142071908.81552,   0.00000
74416895.73983,-119349505.25253,-165640542.49469,   0.00057,  -0.00069,  -0.00215,333127852.96093,   0.00000,274640135.82653,   0.00000,   0.00000,   0.00000,-141512282.86560,   0.00000
72627007.09382,-121098944.43761,-165950655.02846,   0.00057,  -0.00069,  -0.00216,333696793.68127,   0.00000,274640135.82653,   0.00000,   0.00000,   0.00000,-140943342.14526,   0.00000
70789927.41007,-122868608.35315,-166260767.56223,   0.00056,  -0.00070,  -0.00216,334265907.77225,   0.00000,274640135.82653,   0.00000,   0.00000,   0.00000,-140374228.05428,   0.00000
68942735.36109,-124661867.78757,-166564138.51918,   0.00056,  -0.00070,  -0.00217,334841826.72086,   0.00000,274640135.82653,   0.00000,   0.00000,   0.00000,-139798309.10567,   0.00000
67082060.15846,-126441644.06834,-166867509.47613,   0.00055,  -0.00071,  -0.00217,335415794.61921,   0.00000,274640135.82653,   0.00000,   0.00000,   0.00000,-139224341.20732,   0.00000
65211272.59060,-128245015.86799,-167170880.43308,   0.00055,  -0.00071,  -0.00217,336006881.84966,   0.00000,274640135.82653,   0.00000,   0.00000,   0.00000,-138633253.97687,   0.00000
63303406.35023,-130045016.87922,-167467509.81321,   0.00054,  -0.00072,  -0.00218,336581967.35282,   0.00000,274640135.82653,   0.00000,   0.00000,   0.00000,-138058168.47370,   0.00000
61385427.74462,-131868613.40933,-167764139.19334,   0.00054,  -0.00072,  -0.00218,337174631.87487,   0.00000,274640135.82653,   0.00000,   0.00000,   0.00000,-137465503.95166,   0.00000
59443853.62014,-133702322.30468,-168054026.99664,   0.00053,  -0.00072,  -0.00218,337763426.03662,   0.00000,274640135.82653,   0.00000,   0.00000,   0.00000,-136876709.78991,   0.00000
57478683.97679,-135546143.56525,-168343914.79995,   0.00053,  -0.00073,  -0.00219,338358672.19253,   0.00000,274640135.82653,   0.00000,   0.00000,   0.00000,-136281463.63400,   0.00000
55513514.33343,-137389964.82582,-168633802.60326,   0.00052,  -0.00073,  -0.00219,338964350.08924,   0.00000,274640135.82653,   0.00000,   0.00000,   0.00000,-135675785.73729,   0.00000
53514636.80598,-139267493.97050,-168916948.82975,   0.00052,  -0.00074,  -0.00220,339574597.68637,   0.00000,274640135.82653,   0.00000,   0.00000,   0.00000,-135065538.14016,   0.00000
51502276.12487,-141131539.96154,-169200095.05623,   0.00051,  -0.00074,  -0.00220,340184079.66879,   0.00000,274640135.82653,   0.00000,   0.00000,   0.00000,-134456056.15774,   0.00000
49456207.55967,-143029293.83668,-169476499.70590,   0.00050,  -0.00075,  -0.00220,340798816.99090,   0.00000,274640135.82653,   0.00000,   0.00000,   0.00000,-133841318.83563,   0.00000
47396655.84082,-144913564.55818,-169752904.35556,   0.00050,  -0.00075,  -0.00221,341413163.38907,   0.00000,274640135.82653,   0.00000,   0.00000,   0.00000,-133226972.43746,   0.00000
45326991.75674,-146821430.79856,-170029309.00523,   0.00049,  -0.00076,  -0.00221,342046693.11273,   0.00000,274640135.82653,   0.00000,   0.00000,   0.00000,-132593442.71380,   0.00000
43233732.15378,-148739409.40416,-170298972.07807,   0.00049,  -0.00076,  -0.00221,342678197.38828,   0.00000,274640135.82653,   0.00000,   0.00000,   0.00000,-131961938.43825,   0.00000
41116877.03195,-150667500.37500,-170568635.15092,   0.00048,  -0.00077,  -0.00222,343317998.68851,   0.00000,274640135.82653,   0.00000,   0.00000,   0.00000,-131322137.13802,   0.00000
38976426.39125,-152605703.71107,-170831556.64694,   0.00047,  -0.00077,  -0.00222,343956319.66314,   0.00000,274640135.82653,   0.00000,   0.00000,   0.00000,-130683816.16339,   0.00000
36835975.75055,-154543907.04714,-171094478.14297,   0.00047,  -0.00078,  -0.00222,344606217.70408,   0.00000,274640135.82653,   0.00000,   0.00000,   0.00000,-130033918.12245,   0.00000
34661817.22574,-156515818.26731,-171357399.63899,   0.00046,  -0.00078,  -0.00223,345273573.93827,   0.00000,274640135.82653,   0.00000,   0.00000,   0.00000,-129366561.88826,   0.00000
32474175.54729,-158474246.33385,-171613579.55819,   0.00046,  -0.00078,  -0.00223,345931555.93275,   0.00000,274640135.82653,   0.00000,   0.00000,   0.00000,-128708579.89378,   0.00000
30252825.98473,-160466382.28448,-171869759.47739,   0.00045,  -0.00079,  -0.00223,346607699.75815,   0.00000,274640135.82653,   0.00000,   0.00000,   0.00000,-128032436.06838,   0.00000
28031476.42218,-162458518.23512,-172119197.81977,   0.00044,  -0.00079,  -0.00224,347285963.89059,   0.00000,274640135.82653,   0.00000,   0.00000,   0.00000,-127354171.93594,   0.00000
25786531.34075,-164460766.55099,-172368636.16216,   0.00044,  -0.00080,  -0.00224,347974139.61575,   0.00000,274640135.82653,   0.00000,   0.00000,   0.00000,-126665996.21078,   0.00000
23517990.74044,-166473127.23209,-172618074.50454,   0.00043,  -0.00080,  -0.00224,348672497.31035,   0.00000,274640135.82653,   0.00000,   0.00000,   0.00000,-125967638.51618,   0.00000
21225854.62127,-168495600.27843,-172860771.27010,   0.00043,  -0.00081,  -0.00225,349371301.14779,   0.00000,274640135.82653,   0.00000,   0.00000,   0.00000,-125268834.67874,   0.00000
18933718.50209,-170518073.32476,-173103468.03566,   0.00042,  -0.00081,  -0.00225,350082664.75858,   0.00000,274640135.82653,   0.00000,   0.00000,   0.00000,-124557471.06795,   0.00000
16617986.86404,-172550658.73633,-173339423.22440,   0.00041,  -0.00082,  -0.00225,350794810.15162,   0.00000,274640135.82653,   0.00000,   0.00000,   0.00000,-123845325.67491,   0.00000
14268547.34188,-174616952.03200,-173575378.41313,   0.00041,  -0.00082,  -0.00226,351527292.82481,   0.00000,274640135.82653,   0.00000,   0.00000,   0.00000,-123112843.00171,   0.00000
11905624.66608,-176669762.17402,-173811333.60187,   0.00040,  -0.00083,  -0.00226,352261907.83136,   0.00000,274640135.82653,   0.00000,   0.00000,   0.00000,-122378227.99517,   0.00000
9532589.62505,-178746167.83493,-174040547.21379,   0.00039,  -0.00083,  -0.00226,353008941.62766,   0.00000,274640135.82653,   0.00000,   0.00000,   0.00000,-121631194.19887,   0.00000
7146071.43038,-180809090.34219,-174263019.24889,   0.00039,  -0.00084,  -0.00227,353748311.36744,   0.00000,274640135.82653,   0.00000,   0.00000,   0.00000,-120891824.45909,   0.00000
4725845.35160,-182905720.73355,-174492232.86081,   0.00038,  -0.00084,  -0.00227,354519165.10635,   0.00000,274640135.82653,   0.00000,   0.00000,   0.00000,-120120970.72018,   0.00000
2282023.75395,-185012463.49015,-174714704.89590,   0.00037,  -0.00085,  -0.00227,355292423.83726,   0.00000,274640135.82653,   0.00000,   0.00000,   0.00000,-119347711.98927,   0.00000
-161797.84371,-187119206.24675,-174930435.35418,   0.00036,  -0.00085,  -0.00227,356069262.47638,   0.00000,274640135.82653,   0.00000,   0.00000,   0.00000,-118570873.35015,   0.00000
-2629214.96023,-189236061.36857,-175146165.81245,   0.00036,  -0.00086,  -0.00228,356858789.44821,   0.00000,274640135.82653,   0.00000,   0.00000,   0.00000,-117781346.37832,   0.00000
-5120227.59563,-191363028.85563,-175361896.27073,   0.00035,  -0.00086,  -0.00228,357661274.49488,   0.00000,274640135.82653,   0.00000,   0.00000,   0.00000,-116978861.33165,   0.00000
-7621352.59627,-193513591.86157,-175570885.15218,   0.00034,  -0.00087,  -0.00228,358477568.43934,   0.00000,274640135.82653,   0.00000,   0.00000,   0.00000,-116162567.38719,   0.00000
-10159556.26941,-195660784.07909,-175779874.03364,   0.00034,  -0.00087,  -0.00229,359296847.48173,   0.00000,274640135.82653,   0.00000,   0.00000,   0.00000,-115343288.34480,   0.00000
-12707872.30779,-197831571.81549,-175982121.33827,   0.00033,  -0.00088,  -0.00229,360130425.76912,   0.00000,274640135.82653,   0.00000,   0.00000,   0.00000,-114509710.05741,   0.00000
-15246075.98094,-199978764.03301,-176184368.64290,   0.00032,  -0.00088,  -0.00229,360967938.64312,   0.00000,274640135.82653,   0.00000,   0.00000,   0.00000,-113672197.18341,   0.00000
-17841583.05707,-202169776.49987,-176386615.94754,   0.00031,  -0.00089,  -0.00229,361829554.64308,   0.00000,274640135.82653,   0.00000,   0.00000,   0.00000,-112810581.18345,   0.00000
-20437090.13320,-204360788.96674,-176582121.67535,   0.00031,  -0.00089,  -0.00230,362695745.69123,   0.00000,274640135.82653,   0.00000,   0.00000,   0.00000,-111944390.13530,   0.00000
-23046080.36297,-206538318.27995,-176777627.40316,   0.00030,  -0.00089,  -0.00230,363566071.99761,   0.00000,274640135.82653,   0.00000,   0.00000,   0.00000,-111074063.82892,   0.00000
-25665182.95797,-208739443.11205,-176966391.55415,   0.00029,  -0.00090,  -0.00230,364451412.32827,   0.00000,274640135.82653,   0.00000,   0.00000,   0.00000,-110188723.49826,   0.00000
-28307881.07184,-210950680.30937,-177155155.70514,   0.00028,  -0.00090,  -0.00230,365351620.30882,   0.00000,274640135.82653,   0.00000,   0.00000,   0.00000,-109288515.51771,   0.00000
-30984287.06982,-213195625.39080,-177343919.85613,   0.00027,  -0.00091,  -0.00231,366277605.10531,   0.00000,274640135.82653,   0.00000,   0.00000,   0.00000,-108362530.72122,   0.00000
-33674176.22145,-215427087.31859,-177525942.43030,   0.00027,  -0.00091,  -0.00231,367198626.22405,   0.00000,274640135.82653,   0.00000,   0.00000,   0.00000,-107441509.60248,   0.00000
-36364065.37307,-217658549.24638,-177707965.00447,   0.00026,  -0.00092,  -0.00231,368134489.11340,   0.00000,274640135.82653,   0.00000,   0.00000,   0.00000,-106505646.71313,   0.00000
-39077550.04357,-219900123.53940,-177883246.00182,   0.00025,  -0.00092,  -0.00231,369076291.28987,   0.00000,274640135.82653,   0.00000,   0.00000,   0.00000,-105563844.53666,   0.00000
-41824742.59817,-222175405.71652,-178058526.99917,   0.00024,  -0.00093,  -0.00231,370045008.01161,   0.00000,274640135.82653,   0.00000,   0.00000,   0.00000,-104595127.81492,   0.00000
-44561822.78754,-224427092.37477,-178227066.41970,   0.00023,  -0.00093,  -0.00232,371008163.16697,   0.00000,274640135.82653,   0.00000,   0.00000,   0.00000,-103631972.65956,   0.00000
-47332610.86102,-226712486.91713,-178395605.84023,   0.00023,  -0.00094,  -0.00232,371998669.89519,   0.00000,274640135.82653,   0.00000,   0.00000,   0.00000,-102641465.93134,   0.00000
-50126994.45337,-229007993.82472,-178564145.26076,   0.00022,  -0.00094,  -0.00232,373005839.48570,   0.00000,274640135.82653,   0.00000,   0.00000,   0.00000,-101634296.34083,   0.00000
-52934861.19936,-231290017.57866,-178725943.10446,   0.00021,  -0.00095,  -0.00232,374009030.63983,   0.00000,274640135.82653,   0.00000,   0.00000,   0.00000,-100631105.18670,   0.00000
-55752840.31058,-233595636.85148,-178887740.94817,   0.00020,  -0.00095,  -0.00233,375038867.45874,   0.00000,274640135.82653,   0.00000,   0.00000,   0.00000,-99601268.36779,   0.00000
-58594414.94068,-235911368.48953,-179042797.21505,   0.00019,  -0.00096,  -0.00233,376076269.30467,   0.00000,274640135.82653,   0.00000,   0.00000,   0.00000,-98563866.52186,   0.00000
-61435989.57078,-238227100.12758,-179197853.48194,   0.00019,  -0.00096,  -0.00233,377129190.71378,   0.00000,274640135.82653,   0.00000,   0.00000,   0.00000,-97510945.11275,   0.00000
-64301159.71975,-240552944.13087,-179352909.74883,   0.00018,  -0.00097,  -0.00233,378199581.56485,   0.00000,274640135.82653,   0.00000,   0.00000,   0.00000,-96440554.26168,   0.00000
-67189925.38760,-242888900.49938,-179501224.43889,   0.00017,  -0.00097,  -0.00233,379278111.26210,   0.00000,274640135.82653,   0.00000,   0.00000,   0.00000,-95362024.56443,   0.00000
-70102286.57432,-245234969.23313,-179649539.12895,   0.00016,  -0.00098,  -0.00234,380374630.27157,   0.00000,274640135.82653,   0.00000,   0.00000,   0.00000,-94265505.55496,   0.00000
-73024760.12627,-247604633.48575,-179791112.24220,   0.00015,  -0.00098,  -0.00234,381489099.80827,   0.00000,274640135.82653,   0.00000,   0.00000,   0.00000,-93151036.01826,   0.00000
-75960716.83186,-249960814.58473,-179932685.35544,   0.00014,  -0.00099,  -0.00234,382610180.79946,   0.00000,274640135.82653,   0.00000,   0.00000,   0.00000,-92029955.02706,   0.00000
-78896673.53746,-252316995.68371,-180067516.89186,   0.00013,  -0.00099,  -0.00234,383737555.74419,   0.00000,274640135.82653,   0.00000,   0.00000,   0.00000,-90902580.08234,   0.00000
-81866338.12716,-254706884.66679,-180202348.42829,   0.00012,  -0.00100,  -0.00234,384895354.10131,   0.00000,274640135.82653,   0.00000,   0.00000,   0.00000,-89744781.72522,   0.00000
-84849485.87050,-257083290.49623,-180337179.96471,   0.00012,  -0.00100,  -0.00234,386060052.21109,   0.00000,274640135.82653,   0.00000,   0.00000,   0.00000,-88580083.61544,   0.00000
-87866341.49794,-259493404.20978,-180465269.92431,   0.00011,  -0.00101,  -0.00235,387246337.19690,   0.00000,274640135.82653,   0.00000,   0.00000,   0.00000,-87393798.62963,   0.00000
-90873084.76016,-261879922.40445,-180593359.88391,   0.00010,  -0.00101,  -0.00235,388436687.00217,   0.00000,274640135.82653,   0.00000,   0.00000,   0.00000,-86203448.82436,   0.00000
-93889940.38761,-264290036.11800,-180714708.26669,   0.00009,  -0.00102,  -0.00235,389645718.20158,   0.00000,274640135.82653,   0.00000,   0.00000,   0.00000,-84994417.62495,   0.00000
-96953987.05280,-266720374.56201,-180836056.64947,   0.00008,  -0.00102,  -0.00235,390877561.67823,   0.00000,274640135.82653,   0.00000,   0.00000,   0.00000,-83762574.14830,   0.00000
-100007921.35276,-269127117.48714,-180957405.03225,   0.00007,  -0.00103,  -0.00235,392113368.05662,   0.00000,274640135.82653,   0.00000,   0.00000,   0.00000,-82526767.76991,   0.00000
-103071968.01796,-271557455.93116,-181072011.83821,   0.00006,  -0.00103,  -0.00235,393368200.87995,   0.00000,274640135.82653,   0.00000,   0.00000,   0.00000,-81271934.94658,   0.00000
-106183205.72090,-274008019.10563,-181186618.64417,   0.00005,  -0.00104,  -0.00236,394646664.97591,   0.00000,274640135.82653,   0.00000,   0.00000,   0.00000,-79993470.85062,   0.00000
-109270847.90497,-276448469.91487,-181294483.87331,   0.00004,  -0.00104,  -0.00236,395928258.22260,   0.00000,274640135.82653,   0.00000,   0.00000,   0.00000,-78711877.60393,   0.00000
-112405681.12679,-278909145.45458,-181402349.10244,   0.00003,  -0.00105,  -0.00236,397233952.32548,   0.00000,274640135.82653,   0.00000,   0.00000,   0.00000,-77406183.50105,   0.00000
-115540514.34860,-281369820.99428,-181510214.33158,   0.00002,  -0.00105,  -0.00236,398555951.53319,   0.00000,274640135.82653,   0.00000,   0.00000,   0.00000,-76084184.29334,   0.00000
-118698943.08929,-283840608.89922,-181611337.98390,   0.00001,  -0.00106,  -0.00236,399889215.06030,   0.00000,274640135.82653,   0.00000,   0.00000,   0.00000,-74750920.76623,   0.00000
-121857371.82998,-286311396.80416,-181705720.05939,   0.00000,  -0.00107,  -0.00236,401229593.59529,   0.00000,274640135.82653,   0.00000,   0.00000,   0.00000,-73410542.23124,   0.00000
-125039396.08955,-288792297.07432,-181806843.71171,  -0.00001,  -0.00107,  -0.00236,402599816.52214,   0.00000,274640135.82653,   0.00000,   0.00000,   0.00000,-72040319.30439,   0.00000
-128231532.71434,-291296792.86337,-181894484.21038,  -0.00002,  -0.00108,  -0.00236,403980845.39938,   0.00000,274640135.82653,   0.00000,   0.00000,   0.00000,-70659290.42715,   0.00000
-131460748.01166,-293797917.86400,-181988866.28588,  -0.00003,  -0.00108,  -0.00237,405383883.64413,   0.00000,274640135.82653,   0.00000,   0.00000,   0.00000,-69256252.18240,   0.00000
-134666367.79009,-296288930.49940,-182076506.78455,  -0.00003,  -0.00109,  -0.00237,406789343.31185,   0.00000,274640135.82653,   0.00000,   0.00000,   0.00000,-67850792.51468,   0.00000
-137929290.97151,-298823763.38414,-182164147.28323,  -0.00004,  -0.00109,  -0.00237,408233892.18465,   0.00000,274640135.82653,   0.00000,   0.00000,   0.00000,-66406243.64188,   0.00000
-141158506.26882,-301324888.38477,-182245046.20508,  -0.00005,  -0.00110,  -0.00237,409667684.47731,   0.00000,274640135.82653,   0.00000,   0.00000,   0.00000,-64972451.34922,   0.00000
-144434912.60388,-303846238.11586,-182325945.12694,  -0.00006,  -0.00110,  -0.00237,411127992.65929,   0.00000,274640135.82653,   0.00000,   0.00000,   0.00000,-63512143.16723,   0.00000
-147721431.30418,-306391183.36583,-182400102.47197,  -0.00007,  -0.00111,  -0.00237,412608805.66275,   0.00000,274640135.82653,   0.00000,   0.00000,   0.00000,-62031330.16378,   0.00000
-151021433.15811,-308922645.46216,-182474259.81700,  -0.00008,  -0.00111,  -0.00237,414098176.74926,   0.00000,274640135.82653,   0.00000,   0.00000,   0.00000,-60541959.07726,   0.00000
-154331547.37727,-311477703.07736,-182548417.16203,  -0.00009,  -0.00112,  -0.00237,415617040.03307,   0.00000,274640135.82653,   0.00000,   0.00000,   0.00000,-59023095.79345,   0.00000
-157655144.75008,-314019277.53892,-182615832.93024,  -0.00010,  -0.00112,  -0.00237,417135618.22019,   0.00000,274640135.82653,   0.00000,   0.00000,   0.00000,-57504517.60634,   0.00000
-160988854.48812,-316584447.51935,-182683248.69845,  -0.00012,  -0.00113,  -0.00237,418683728.11790,   0.00000,274640135.82653,   0.00000,   0.00000,   0.00000,-55956407.70863,   0.00000
-164346159.74503,-319159729.86502,-182743922.88984,  -0.00013,  -0.00113,  -0.00238,420245096.93913,   0.00000,274640135.82653,   0.00000,   0.00000,   0.00000,-54395038.88740,   0.00000
-167693352.63672,-321711416.69181,-182804597.08123,  -0.00014,  -0.00114,  -0.00238,421809189.37824,   0.00000,274640135.82653,   0.00000,   0.00000,   0.00000,-52830946.44828,   0.00000
-171074253.41250,-324296811.40270,-182865271.27262,  -0.00015,  -0.00114,  -0.00238,423408915.21632,   0.00000,274640135.82653,   0.00000,   0.00000,   0.00000,-51231220.61021,   0.00000
-174478749.70716,-326892318.47883,-182919203.88719,  -0.00016,  -0.00115,  -0.00238,425022310.49082,   0.00000,274640135.82653,   0.00000,   0.00000,   0.00000,-49617825.33571,   0.00000
-177873133.63659,-329464230.03608,-182973136.50176,  -0.00017,  -0.00115,  -0.00238,426638256.10131,   0.00000,274640135.82653,   0.00000,   0.00000,   0.00000,-48001879.72522,   0.00000
-181277629.93125,-332059737.11221,-183027069.11633,  -0.00018,  -0.00116,  -0.00238,428283749.48528,   0.00000,274640135.82653,   0.00000,   0.00000,   0.00000,-46356386.34125,   0.00000
-184705721.74479,-334665356.55357,-183074260.15408,  -0.00019,  -0.00116,  -0.00238,429943080.52355,   0.00000,274640135.82653,   0.00000,   0.00000,   0.00000,-44697055.30298,   0.00000
-188157409.07720,-337281088.36016,-183114709.61501,  -0.00020,  -0.00117,  -0.00238,431616494.20711,   0.00000,274640135.82653,   0.00000,   0.00000,   0.00000,-43023641.61942,   0.00000
-191598984.04437,-339873224.64788,-183161900.65275,  -0.00021,  -0.00117,  -0.00238,433300658.34839,   0.00000,274640135.82653,   0.00000,   0.00000,   0.00000,-41339477.47813,   0.00000
-195074266.89566,-342499068.81970,-183202350.11368,  -0.00022,  -0.00118,  -0.00238,435012793.19845,   0.00000,274640135.82653,   0.00000,   0.00000,   0.00000,-39627342.62808,   0.00000
-198549549.74694,-345124912.99152,-183236057.99779,  -0.00023,  -0.00118,  -0.00238,436732288.75697,   0.00000,274640135.82653,   0.00000,   0.00000,   0.00000,-37907847.06956,   0.00000
-202048428.11709,-347760869.52858,-183269765.88189,  -0.00024,  -0.00119,  -0.00238,438474712.94271,   0.00000,274640135.82653,   0.00000,   0.00000,   0.00000,-36165422.88382,   0.00000
-205547306.48725,-350396826.06563,-183303473.76600,  -0.00025,  -0.00119,  -0.00238,440232890.19064,   0.00000,274640135.82653,   0.00000,   0.00000,   0.00000,-34407245.63589,   0.00000
-209069780.37628,-353042894.96792,-183330440.07328,  -0.00026,  -0.00120,  -0.00238,442005666.26680,   0.00000,274640135.82653,   0.00000,   0.00000,   0.00000,-32634469.55973,   0.00000
-212592254.26531,-355688963.87020,-183357406.38057,  -0.00027,  -0.00120,  -0.00238,443794099.07076,   0.00000,274640135.82653,   0.00000,   0.00000,   0.00000,-30846036.75577,   0.00000
-216128211.30798,-358321549.61885,-183384372.68785,  -0.00028,  -0.00121,  -0.00238,445591545.57797,   0.00000,274640135.82653,   0.00000,   0.00000,   0.00000,-29048590.24856,   0.00000
-219674280.71589,-360977730.88637,-183404597.41831,  -0.00030,  -0.00121,  -0.00238,447410245.16602,   0.00000,274640135.82653,   0.00000,   0.00000,   0.00000,-27229890.66051,   0.00000
-223243945.64267,-363644024.51911,-183424822.14878,  -0.00031,  -0.00122,  -0.00238,449252162.07879,   0.00000,274640135.82653,   0.00000,   0.00000,   0.00000,-25387973.74774,   0.00000
-226813610.56944,-366310318.15186,-183445046.87924,  -0.00032,  -0.00122,  -0.00238,451109468.91944,   0.00000,274640135.82653,   0.00000,   0.00000,   0.00000,-23530666.90709,   0.00000
-230406871.01510,-368986724.14985,-183458530.03288,  -0.00033,  -0.00123,  -0.00238,452981841.77492,   0.00000,274640135.82653,   0.00000,   0.00000,   0.00000,-21658294.05161,   0.00000
-234000131.46075,-371663130.14783,-183465271.60970,  -0.00034,  -0.00123,  -0.00239,454861341.70942,   0.00000,274640135.82653,   0.00000,   0.00000,   0.00000,-19778794.11711,   0.00000
-237616987.42527,-374349648.51104,-183478754.76335,  -0.00035,  -0.00124,  -0.00239,456772390.45177,   0.00000,274640135.82653,   0.00000,   0.00000,   0.00000,-17867745.37476,   0.00000
-241233843.38980,-377036166.87425,-183485496.34017,  -0.00036,  -0.00125,  -0.00239,458690458.58553,   0.00000,274640135.82653,   0.00000,   0.00000,   0.00000,-15949677.24100,   0.00000
-244850699.35433,-379722685.23746,-183485496.34017,  -0.00037,  -0.00125,  -0.00239,460615457.53345,   0.00000,274640135.82653,   0.00000,   0.00000,   0.00000,-14024678.29308,   0.00000
-248491150.83773,-382419315.96591,-183492237.91699,  -0.00038,  -0.00126,  -0.00239,462571911.67309,   0.00000,274640135.82653,   0.00000,   0.00000,   0.00000,-12068224.15344,   0.00000
-252155197.84000,-385126059.05958,-183485496.34017,  -0.00040,  -0.00126,  -0.00239,464535864.76243,   0.00000,274640135.82653,   0.00000,   0.00000,   0.00000,-10104271.06410,   0.00000
-255819244.84227,-387832802.15326,-183485496.34017,  -0.00041,  -0.00127,  -0.00239,466522728.26455,   0.00000,274640135.82653,   0.00000,   0.00000,   0.00000,-8117407.56198,   0.00000
-259483291.84455,-390539545.24694,-183478754.76335,  -0.00042,  -0.00127,  -0.00239,468516369.72527,   0.00000,274640135.82653,   0.00000,   0.00000,   0.00000,-6123766.10126,   0.00000
-263170934.36569,-393256400.70584,-183472013.18652,  -0.00043,  -0.00128,  -0.00239,470533550.17483,   0.00000,274640135.82653,   0.00000,   0.00000,   0.00000,-4106585.65170,   0.00000
-266858576.88684,-395973256.16475,-183458530.03288,  -0.00044,  -0.00128,  -0.00238,472557463.97225,   0.00000,274640135.82653,   0.00000,   0.00000,   0.00000,-2082671.85427,   0.00000
-270569814.92686,-398700223.98889,-183445046.87924,  -0.00045,  -0.00129,  -0.00238,474604997.04065,   0.00000,274640135.82653,   0.00000,   0.00000,   0.00000,-35138.78588,   0.00000
-270633274.79821,-398746853.44931,-183444816.32567,  -0.00045,  -0.00129,  -0.00238,474640134.95440,   0.00000,274640135.82653,   0.00000,   0.00000,   0.00000,  -0.87213,   0.00000
-273273754.75771,-399832322.46375,-182583884.87346,  -0.00047,  -0.00129,  -0.00238,474640134.95440,   0.00001,274648687.07227,  -0.00000,  -0.00001,  -0.00001,  -0.00000,   2.00000
-275944282.57807,-400925511.24829,-181701438.99865,  -0.00048,  -0.00130,  -0.00238,476718214.80370,   0.00002,274657401.59732,  -0.00000,  -0.00001,  -0.00002,   0.00000,   2.00000
-278613610.51787,-402003978.78222,-180812095.16750,  -0.00049,  -0.00130,  -0.00238,476751601.77221,   0.00002,274666202.95536,  -0.00000,  -0.00002,  -0.00003,   0.00000,   2.00000
-281281335.55492,-403067520.02496,-179915903.72036,  -0.00050,  -0.00131,  -0.00238,476785241.92050,   0.00003,274675091.31378,  -0.00001,  -0.00002,  -0.00004,   0.00000,   2.00000
-283911613.71280,-404105392.88540,-179023312.25621,  -0.00051,  -0.00131,  -0.00238,476777433.93970,   0.00004,274683892.44790,  -0.00001,  -0.00003,  -0.00006,   0.00000,   2.00000
-286542417.18834,-405140115.25192,-178117987.07614,  -0.00052,  -0.00132,  -0.00238,476825811.72224,   0.00005,274692841.60433,  -0.00001,  -0.00003,  -0.00007,   0.00000,   2.00000
-289170901.40060,-406159639.27406,-177206055.61089,  -0.00054,  -0.00132,  -0.00238,476859760.41087,   0.00006,274701877.20943,  -0.00001,  -0.00004,  -0.00008,   0.00000,   2.00000
-291782531.97967,-407167682.10493,-176287940.50439,  -0.00055,  -0.00133,  -0.00238,476876494.70783,   0.00006,274710926.77137,  -0.00001,  -0.00004,  -0.00009,   0.00000,   2.00000
-294373239.54853,-408158270.40622,-175367417.02399,  -0.00056,  -0.00133,  -0.00238,476900690.52327,   0.00007,274720021.08220,  -0.00002,  -0.00005,  -0.00010,  -0.00000,   2.00000
-296960929.25188,-409133414.48884,-174440542.97727,  -0.00057,  -0.00134,  -0.00238,476934931.48951,   0.00008,274729201.23103,  -0.00002,  -0.00006,  -0.00011,   0.00000,   2.00000
-299531473.30708,-410097106.06131,-173507726.63918,  -0.00058,  -0.00134,  -0.00238,476951777.89346,   0.00009,274738394.41776,  -0.00002,  -0.00006,  -0.00013,  -0.00000,   2.00000
-302079044.10521,-411032069.22044,-172578791.69256,  -0.00059,  -0.00135,  -0.00238,476960989.58607,   0.00010,274747569.00341,  -0.00002,  -0.00007,  -0.00014,   0.00000,   2.00000
-304624646.00395,-411962806.01755,-171637797.41817,  -0.00061,  -0.00135,  -0.00238,477010389.67773,   0.00011,274756890.47414,  -0.00002,  -0.00007,  -0.00015,   0.00000,   2.00000
-307152831.82339,-412882139.31863,-170691107.69686,  -0.00062,  -0.00136,  -0.00238,477027338.07357,   0.00011,274766224.05641,  -0.00003,  -0.00008,  -0.00016,   0.00000,   2.00000
-309676788.14041,-413785590.90133,-169738500.12631,  -0.00063,  -0.00136,  -0.00238,477062122.10382,   0.00012,274775642.65325,  -0.00003,  -0.00009,  -0.00017,   0.00000,   2.00000
-312177588.33140,-414660581.14609,-168790136.97238,  -0.00064,  -0.00137,  -0.00238,477071338.10740,   0.00013,274785040.86798,  -0.00003,  -0.00009,  -0.00018,   0.00000,   2.00000
-314662044.48278,-415535452.02063,-167830419.65869,  -0.00066,  -0.00137,  -0.00238,477103367.91155,   0.00014,274794511.89396,  -0.00003,  -0.00010,  -0.00020,   0.00000,   2.00000
-317141629.22709,-416394268.98711,-166865074.09798,  -0.00067,  -0.00138,  -0.00238,477138400.91013,   0.00015,274804067.19815,  -0.00004,  -0.00010,  -0.00021,   0.00000,   2.00000
-319581180.55875,-417223931.96794,-165908498.16862,  -0.00068,  -0.00138,  -0.00238,477136513.81130,   0.00016,274813555.96922,  -0.00004,  -0.00011,  -0.00022,   0.00000,   2.00000
-322037681.13156,-418055374.08708,-164932406.49958,  -0.00069,  -0.00139,  -0.00238,477190639.72117,   0.00017,274823205.79066,  -0.00004,  -0.00012,  -0.00023,   0.00000,   2.00000
-324454313.55947,-418857981.08583,-163965286.16222,  -0.00070,  -0.00139,  -0.00237,477188582.82818,   0.00018,274832787.80357,  -0.00004,  -0.00012,  -0.00024,  -0.00000,   2.00000
-326866178.13787,-419655389.28316,-162987138.98075,  -0.00072,  -0.00140,  -0.00237,477238942.70633,   0.00018,274842514.26584,  -0.00005,  -0.00013,  -0.00025,   0.00000,   2.00000
-329259352.79161,-420430895.09313,-162009821.21278,  -0.00073,  -0.00140,  -0.00237,477240893.93040,   0.00019,274852188.62904,  -0.00005,  -0.00013,  -0.00027,   0.00000,   2.00000
-331647073.04643,-421200941.32636,-161021707.76558,  -0.00074,  -0.00141,  -0.00237,477291532.88091,   0.00020,274862007.10777,  -0.00005,  -0.00014,  -0.00028,   0.00000,   2.00000
-334011773.43232,-421943475.59977,-160038697.70000,  -0.00075,  -0.00142,  -0.00237,477300396.24208,   0.00021,274871800.70402,  -0.00006,  -0.00015,  -0.00029,   0.00000,   2.00000
-336354322.87881,-422680087.27301,-159049477.14176,  -0.00077,  -0.00142,  -0.00237,477339629.36389,   0.00022,274881691.25006,  -0.00006,  -0.00015,  -0.00030,   0.00000,   2.00000
-338678445.95045,-423395250.25841,-158061360.92450,  -0.00078,  -0.00143,  -0.00237,477341489.84598,   0.00023,274891528.41927,  -0.00006,  -0.00016,  -0.00031,   0.00000,   2.00000
-340995968.64438,-424094204.65134,-157068619.20889,  -0.00079,  -0.00143,  -0.00237,477377043.64098,   0.00024,274901446.99673,  -0.00007,  -0.00017,  -0.00033,   0.00000,   2.00000
-343295217.08615,-424792929.55023,-156065811.19289,  -0.00080,  -0.00144,  -0.00237,477409612.50940,   0.00025,274911434.24155,  -0.00007,  -0.00017,  -0.00034,   0.00000,   2.00000
-345567447.07157,-425459234.01925,-155072882.39933,  -0.00082,  -0.00144,  -0.00237,477424736.05213,   0.00026,274921420.36516,  -0.00007,  -0.00018,  -0.00035,   0.00000,   2.00000
-347836953.73141,-426114927.30809,-154071339.47802,  -0.00083,  -0.00145,  -0.00237,477453856.94148,   0.00027,274931460.68381,  -0.00008,  -0.00019,  -0.00036,   0.00000,   2.00000
-350083674.05047,-426754527.52761,-153069970.53438,  -0.00084,  -0.00145,  -0.00236,477477635.41083,   0.00027,274941533.58665,  -0.00008,  -0.00019,  -0.00037,   0.00000,   2.00000
-352312039.28643,-427383714.76944,-152064514.60379,  -0.00085,  -0.00146,  -0.00236,477494815.45877,   0.00028,274951612.66504,  -0.00008,  -0.00020,  -0.00039,   0.00000,   2.00000
-354532792.08976,-427996615.29415,-151055084.95011,  -0.00087,  -0.00146,  -0.00236,477530723.09297,   0.00029,274961771.52784,  -0.00009,  -0.00021,  -0.00040,   0.00000,   2.00000
-356715149.18931,-428604473.38994,-150045095.49703,  -0.00088,  -0.00147,  -0.00236,477557474.33792,   0.00030,274971973.54229,  -0.00009,  -0.00021,  -0.00041,   0.00000,   2.00000
-358890320.62809,-429185881.98621,-149036862.88974,  -0.00089,  -0.00147,  -0.00236,477577926.89896,   0.00031,274982193.60496,  -0.00009,  -0.00022,  -0.00042,   0.00000,   2.00000
-361047843.00382,-429747041.67694,-148030309.73710,  -0.00090,  -0.00148,  -0.00236,477579576.92939,   0.00032,274992357.97604,  -0.00010,  -0.00022,  -0.00043,   0.00000,   2.00000
-363196553.29608,-430302263.24823,-147014798.71031,  -0.00092,  -0.00148,  -0.00236,477631010.86653,   0.00033,275002661.37669,  -0.00010,  -0.00023,  -0.00045,  -0.00000,   2.00000
-365307895.40210,-430843015.05164,-146004669.07015,  -0.00093,  -0.00149,  -0.00236,477641754.56279,   0.00034,275012944.19788,  -0.00011,  -0.00024,  -0.00046,   0.00000,   2.00000
-367411066.29414,-431367760.08224,-144991255.40860,  -0.00094,  -0.00149,  -0.00235,477677693.49897,   0.00035,275023304.49349,  -0.00011,  -0.00025,  -0.00047,   0.00000,   2.00000
-369495920.35100,-431882799.49486,-143974454.85571,  -0.00095,  -0.00150,  -0.00235,477694780.05286,   0.00036,275033668.41249,  -0.00011,  -0.00025,  -0.00048,   0.00000,   2.00000
-371572230.54629,-432381780.00015,-142954587.47041,  -0.00097,  -0.00150,  -0.00235,477730894.49875,   0.00037,275044109.51354,  -0.00012,  -0.00026,  -0.00049,   0.00000,   2.00000
-373612961.95665,-432857158.64601,-141945795.67266,  -0.00098,  -0.00151,  -0.00235,477725525.42291,   0.00038,275054467.10317,  -0.00012,  -0.00027,  -0.00051,   0.00000,   2.00000
-375643886.97276,-433326737.16500,-140928901.80678,  -0.00099,  -0.00151,  -0.00235,477777037.50539,   0.00039,275064961.00805,  -0.00013,  -0.00027,  -0.00052,   0.00000,   2.00000
-377657989.63454,-433777085.33372,-139914138.46127,  -0.00100,  -0.00152,  -0.00235,477778476.28263,   0.00040,275075397.51374,  -0.00013,  -0.00028,  -0.00053,  -0.00000,   2.00000
-379648143.92613,-434223033.17855,-138895936.28066,  -0.00102,  -0.00152,  -0.00235,477816904.42041,   0.00041,275085919.04935,  -0.00014,  -0.00029,  -0.00054,  -0.00000,   2.00000
-381630944.98319,-434643349.95802,-137880353.21994,  -0.00103,  -0.00153,  -0.00235,477837436.21737,   0.00042,275096456.38388,  -0.00014,  -0.00029,  -0.00055,   0.00000,   2.00000
-383576217.00723,-435061107.58076,-136865991.43146,  -0.00104,  -0.00153,  -0.00234,477862414.70181,   0.00043,275107026.47059,  -0.00015,  -0.00030,  -0.00056,   0.00000,   2.00000
-385518664.73489,-435458559.09385,-135849584.16185,  -0.00106,  -0.00154,  -0.00234,477877039.79532,   0.00044,275117589.49619,  -0.00015,  -0.00031,  -0.00058,   0.00000,   2.00000
-387438807.46856,-435842255.26936,-134835314.55671,  -0.00107,  -0.00154,  -0.00234,477899632.37782,   0.00045,275128175.90604,  -0.00016,  -0.00031,  -0.00059,   0.00000,   2.00000
-389336775.51336,-436212390.84182,-133823286.59788,  -0.00108,  -0.00155,  -0.00234,477922099.84403,   0.00046,275138785.10318,  -0.00016,  -0.00032,  -0.00060,  -0.00000,   2.00000
-391223648.08462,-436576925.44609,-132804287.51231,  -0.00110,  -0.00155,  -0.00234,477973797.02757,   0.00047,275149527.57524,  -0.00017,  -0.00033,  -0.00061,   0.00000,   2.00000
-393081864.50864,-436925317.28498,-131792147.40806,  -0.00111,  -0.00156,  -0.00234,477961236.98640,   0.00048,275160159.39475,  -0.00017,  -0.00034,  -0.00062,   0.00000,   2.00000
-394930922.40337,-437258512.39591,-130778206.86472,  -0.00112,  -0.00156,  -0.00233,477997241.13393,   0.00048,275170864.71718,  -0.00018,  -0.00034,  -0.00063,   0.00000,   2.00000
-396758028.85232,-437578701.94618,-129766911.46805,  -0.00113,  -0.00157,  -0.00233,478019459.91068,   0.00049,275181591.12031,  -0.00018,  -0.00035,  -0.00065,  -0.00000,   2.00000
-398563329.81343,-437886083.57778,-128758357.18353,  -0.00115,  -0.00157,  -0.00233,478041553.28760,   0.00050,275192338.05601,  -0.00019,  -0.00036,  -0.00066,   0.00000,   2.00000
-400349313.66924,-438171225.06875,-127757438.12463,  -0.00116,  -0.00158,  -0.00233,478047850.00452,   0.00051,275203046.28264,  -0.00019,  -0.00036,  -0.00067,  -0.00000,   2.00000
-402115728.89573,-438458413.01920,-126749559.50898,  -0.00117,  -0.00158,  -0.00233,478079901.37804,   0.00052,275213812.44461,  -0.00020,  -0.00037,  -0.00068,   0.00000,   2.00000
-403872810.98852,-438730795.28370,-125740407.24718,  -0.00119,  -0.00159,  -0.00233,478115875.56386,   0.00053,275224650.74072,  -0.00020,  -0.00038,  -0.00069,   0.00000,   2.00000
-405596392.88172,-438993497.33761,-124738649.51110,  -0.00120,  -0.00159,  -0.00232,478123454.70817,   0.00054,275235454.95919,  -0.00021,  -0.00039,  -0.00070,  -0.00000,   2.00000
-407313349.95363,-439232085.73127,-123740483.00158,  -0.00121,  -0.00160,  -0.00232,478143626.42985,   0.00055,275246272.30559,  -0.00022,  -0.00039,  -0.00071,   0.00000,   2.00000
-409010707.07616,-439473089.80039,-122735758.63008,  -0.00122,  -0.00160,  -0.00232,478175614.47954,   0.00056,275257146.50171,  -0.00022,  -0.00040,  -0.00073,   0.00000,   2.00000
-410685483.27529,-439688227.74073,-121744185.42162,  -0.00124,  -0.00161,  -0.00232,478186635.15322,   0.00057,275267999.69976,  -0.00023,  -0.00041,  -0.00074,   0.00000,   2.00000
-412340825.21838,-439906078.39743,-120746239.08591,  -0.00125,  -0.00161,  -0.00232,478218467.45225,   0.00058,275278908.98711,  -0.00023,  -0.00041,  -0.00075,   0.00000,   2.00000
-413978278.04357,-440103069.56204,-119756359.24434,  -0.00126,  -0.00162,  -0.00232,478224053.40130,   0.00059,275289777.26145,  -0.00024,  -0.00042,  -0.00076,   0.00000,   2.00000
-415606466.44432,-440286028.07085,-118765833.31467,  -0.00128,  -0.00162,  -0.00231,478259796.64199,   0.00060,275300715.97063,  -0.00024,  -0.00043,  -0.00077,  -0.00000,   2.00000
-417206996.42117,-440465481.18984,-117777867.44090,  -0.00129,  -0.00163,  -0.00231,478261227.42123,   0.00061,275311598.55923,  -0.00025,  -0.00044,  -0.00078,   0.00000,   2.00000
-418794148.96841,-440626643.17992,-116794730.58325,  -0.00130,  -0.00163,  -0.00231,478301886.16846,   0.00062,275322569.54923,  -0.00026,  -0.00044,  -0.00079,   0.00000,   2.00000
-420354178.26425,-440784744.57524,-115814224.23178,  -0.00132,  -0.00164,  -0.00231,478303037.86236,   0.00063,275333483.71471,  -0.00026,  -0.00045,  -0.00080,   0.00000,   2.00000
-421905113.59739,-440929231.68891,-114833427.17267,  -0.00133,  -0.00164,  -0.00231,478338604.21224,   0.00064,275344467.35177,  -0.00027,  -0.00046,  -0.00081,   0.00000,   2.00000
-423436029.18359,-441063411.21893,-113856569.07420,  -0.00134,  -0.00165,  -0.00231,478359337.21346,   0.00065,275355465.96855,  -0.00028,  -0.00046,  -0.00083,   0.00000,   2.00000
-424947103.49989,-441187474.48808,-112883716.70667,  -0.00136,  -0.00165,  -0.00230,478379951.60518,   0.00066,275366479.17844,  -0.00028,  -0.00047,  -0.00084,   0.00000,   2.00000
-426427975.22267,-441304997.51824,-111919017.54938,  -0.00137,  -0.00166,  -0.00230,478385385.79573,   0.00067,275377451.93413,  -0.00029,  -0.00048,  -0.00085,   0.00000,   2.00000
-427907531.99665,-441404205.15420,-110953150.27793,  -0.00138,  -0.00166,  -0.00230,478400297.07722,   0.00068,275388418.97609,  -0.00030,  -0.00049,  -0.00086,   0.00000,   2.00000
-429370534.75763,-441495587.68626,-109988633.25842,  -0.00140,  -0.00167,  -0.00230,478456117.69054,   0.00070,275399528.63320,  -0.00030,  -0.00049,  -0.00087,  -0.00000,   2.00000
-430811534.11953,-441575797.20129,-109031111.03176,  -0.00141,  -0.00167,  -0.00230,478440868.65145,   0.00071,275410523.12764,  -0.00031,  -0.00050,  -0.00088,   0.00000,   2.00000
-432229938.58242,-441656217.51027,-108073726.75719,  -0.00142,  -0.00168,  -0.00229,478476595.90034,   0.00072,275421587.38218,  -0.00032,  -0.00051,  -0.00089,   0.00000,   2.00000
-433633172.96801,-441718127.85126,-107124794.53323,  -0.00143,  -0.00168,  -0.00229,478480890.37331,   0.00073,275432607.88934,  -0.00032,  -0.00052,  -0.00090,  -0.00000,   2.00000
-435021746.55155,-441775231.32321,-106174695.51807,  -0.00145,  -0.00168,  -0.00229,478496183.99644,   0.00074,275443624.60239,  -0.00033,  -0.00052,  -0.00091,   0.00000,   2.00000
-436397677.43294,-441815807.00262,-105230616.10026,  -0.00146,  -0.00169,  -0.00229,478535874.22548,   0.00075,275454725.34370,  -0.00034,  -0.00053,  -0.00092,   0.00000,   2.00000
-437749333.90424,-441855609.62023,-104289397.11677,  -0.00147,  -0.00169,  -0.00229,478535687.74515,   0.00076,275465766.74489,  -0.00034,  -0.00054,  -0.00093,   0.00000,   2.00000
-439078937.89166,-441883076.54994,-103358286.73688,  -0.00149,  -0.00170,  -0.00228,478559630.56625,   0.00077,275476835.84904,  -0.00035,  -0.00055,  -0.00094,   0.00000,   2.00000
-440404061.45380,-441902392.22626,-102422236.03632,  -0.00150,  -0.00170,  -0.00228,478590246.87200,   0.00078,275487956.31618,  -0.00036,  -0.00055,  -0.00095,   0.00000,   2.00000
-441701760.17617,-441917548.98246,-101494702.85262,  -0.00151,  -0.00171,  -0.00228,478594077.15417,   0.00079,275499032.51691,  -0.00037,  -0.00056,  -0.00096,   0.00000,   2.00000
-442991192.25417,-441920811.46104,-100567977.36946,  -0.00153,  -0.00171,  -0.00228,478628998.31221,   0.00080,275510175.58266,  -0.00037,  -0.00057,  -0.00097,  -0.00000,   2.00000
-444257823.48879,-441910941.94815,-99653613.02055,  -0.00154,  -0.00172,  -0.00228,478616862.66765,   0.00081,275521218.09955,  -0.00038,  -0.00057,  -0.00098,   0.00000,   2.00000
-445512280.02397,-441898909.60129,-98736349.08390,  -0.00155,  -0.00172,  -0.00227,478667271.60027,   0.00082,275532382.80231,  -0.00039,  -0.00058,  -0.00099,   0.00000,   2.00000
-446748361.74059,-441877891.18348,-97825712.22261,  -0.00157,  -0.00173,  -0.00227,478650674.25418,   0.00083,275543431.63862,  -0.00040,  -0.00059,  -0.00100,   0.00000,   2.00000
-447968527.83722,-441851175.28377,-96918094.70185,  -0.00158,  -0.00173,  -0.00227,478705145.04592,   0.00084,275554617.00964,  -0.00040,  -0.00060,  -0.00101,   0.00000,   2.00000
-449167193.20933,-441812160.85138,-96022759.80422,  -0.00159,  -0.00174,  -0.00227,478692423.45354,   0.00085,275565700.94742,  -0.00041,  -0.00060,  -0.00102,   0.00000,   2.00000
-450361858.90107,-441765670.55208,-95122770.63370,  -0.00161,  -0.00174,  -0.00227,478722917.41535,   0.00086,275576836.61185,  -0.00042,  -0.00061,  -0.00103,   0.00000,   2.00000
-451531265.73928,-441716685.40155,-94231373.20389,  -0.00162,  -0.00175,  -0.00226,478725544.18679,   0.00087,275587925.76389,  -0.00043,  -0.00062,  -0.00104,   0.00000,   2.00000
-452684479.83273,-441661099.91943,-93344865.70182,  -0.00163,  -0.00175,  -0.00226,478743958.14629,   0.00088,275599024.43420,  -0.00043,  -0.00063,  -0.00105,  -0.00000,   2.00000
-453830186.74564,-441594675.94131,-92459630.64202,  -0.00165,  -0.00176,  -0.00226,478778398.12820,   0.00089,275610188.98710,  -0.00044,  -0.00063,  -0.00106,   0.00000,   2.00000
-454951454.81661,-441526347.86760,-91583002.59611,  -0.00166,  -0.00176,  -0.00226,478780596.16551,   0.00090,275621306.18001,  -0.00045,  -0.00064,  -0.00107,   0.00000,   2.00000
-456057078.22944,-441451881.39471,-90711343.77700,  -0.00167,  -0.00177,  -0.00226,478798720.98785,   0.00091,275632432.29602,  -0.00046,  -0.00065,  -0.00108,   0.00000,   2.00000
-457159989.79479,-441357447.50044,-89844529.94877,  -0.00169,  -0.00177,  -0.00225,478817423.87788,   0.00092,275643569.51741,  -0.00047,  -0.00065,  -0.00109,   0.00000,   2.00000
-458234721.31434,-441271216.80889,-88982868.33516,  -0.00170,  -0.00178,  -0.00225,478834741.72665,   0.00093,275654713.12185,  -0.00047,  -0.00066,  -0.00109,   0.00000,   2.00000
-459298930.35317,-441169801.82596,-88129602.04079,  -0.00171,  -0.00178,  -0.00225,478837021.95393,   0.00094,275665810.89200,  -0.00048,  -0.00067,  -0.00110,   0.00000,   2.00000
-460348210.02887,-441062896.18717,-87281329.32135,  -0.00172,  -0.00178,  -0.00225,478854738.14681,   0.00095,275676917.08153,  -0.00049,  -0.00068,  -0.00111,   0.00000,   2.00000
-461381560.19645,-440963436.08461,-86428861.96252,  -0.00174,  -0.00179,  -0.00224,478884234.14153,   0.00096,275688072.65156,  -0.00050,  -0.00068,  -0.00112,   0.00000,   2.00000
-462401494.77570,-440845845.97442,-85590692.80463,  -0.00175,  -0.00179,  -0.00224,478889966.50491,   0.00097,275699195.10527,  -0.00051,  -0.00069,  -0.00113,  -0.00000,   2.00000
-463410450.51723,-440726404.76120,-84751625.50382,  -0.00176,  -0.00180,  -0.00224,478903809.63027,   0.00098,275710312.89400,  -0.00052,  -0.00070,  -0.00114,   0.00000,   2.00000
-464401701.54380,-440598751.45063,-83923593.70001,  -0.00178,  -0.00180,  -0.00224,478924799.36726,   0.00099,275721451.10712,  -0.00052,  -0.00070,  -0.00115,   0.00000,   2.00000
-465382273.92140,-440469452.01820,-83094661.32250,  -0.00179,  -0.00181,  -0.00224,478938541.24891,   0.00100,275732584.64102,  -0.00053,  -0.00071,  -0.00116,   0.00000,   2.00000
-466353689.08060,-440325831.50366,-82273966.02513,  -0.00180,  -0.00181,  -0.00223,478940284.02506,   0.00101,275743672.31291,  -0.00054,  -0.00072,  -0.00116,   0.00000,   2.00000
-467295707.35920,-440188955.63408,-81464555.24510,  -0.00182,  -0.00182,  -0.00223,478959725.89325,   0.00102,275754775.76969,  -0.00055,  -0.00073,  -0.00117,   0.00000,   2.00000
-468239885.58168,-440036305.76350,-80653951.83402,  -0.00183,  -0.00182,  -0.00223,478974390.14216,   0.00103,275765878.57515,  -0.00056,  -0.00073,  -0.00118,  -0.00000,   2.00000
-469158421.71991,-439893826.67752,-79848667.36757,  -0.00184,  -0.00183,  -0.00223,478990110.17448,   0.00104,275776984.53423,  -0.00057,  -0.00074,  -0.00119,   0.00000,   2.00000
-470065516.79078,-439734510.49917,-79057519.94192,  -0.00186,  -0.00183,  -0.00223,478994797.09801,   0.00105,275788056.01791,  -0.00057,  -0.00075,  -0.00120,  -0.00000,   2.00000
-470970094.64612,-439569256.74546,-78262109.16132,  -0.00187,  -0.00184,  -0.00222,479024885.86029,   0.00106,275799180.60557,  -0.00058,  -0.00075,  -0.00121,  -0.00000,   2.00000
-471854637.74986,-439405017.03030,-77474996.68326,  -0.00188,  -0.00184,  -0.00222,479024787.23165,   0.00107,275810254.57041,  -0.00059,  -0.00076,  -0.00121,   0.00000,   2.00000
-472726543.54985,-439236963.45955,-76692936.91565,  -0.00190,  -0.00184,  -0.00222,479041311.85091,   0.00108,275821335.40693,  -0.00060,  -0.00077,  -0.00122,   0.00000,   2.00000
-473585973.54355,-439065210.99600,-75915932.32186,  -0.00191,  -0.00185,  -0.00222,479057761.41510,   0.00109,275832423.00877,  -0.00061,  -0.00078,  -0.00123,   0.00000,   2.00000
-474423106.49437,-438892065.76242,-75153212.84950,  -0.00192,  -0.00185,  -0.00221,479060405.95805,   0.00111,275843470.39236,  -0.00062,  -0.00078,  -0.00124,   0.00000,   2.00000
-475258209.18508,-438713293.94715,-74386261.28998,  -0.00193,  -0.00186,  -0.00221,479090330.49880,   0.00112,275854571.12742,  -0.00063,  -0.00079,  -0.00125,  -0.00000,   2.00000
-476079673.38512,-438526523.04982,-73630237.53811,  -0.00195,  -0.00186,  -0.00221,479074171.74903,   0.00113,275865567.78583,  -0.00064,  -0.00080,  -0.00125,   0.00000,   2.00000
-476890969.08975,-438341184.35549,-72873355.42795,  -0.00196,  -0.00187,  -0.00221,479122589.38114,   0.00114,275876681.39580,  -0.00065,  -0.00080,  -0.00126,  -0.00000,   2.00000
-477689113.37818,-438148070.91001,-72127287.26868,  -0.00197,  -0.00187,  -0.00221,479106247.36620,   0.00115,275887690.81270,  -0.00065,  -0.00081,  -0.00127,  -0.00000,   2.00000
-478472845.82134,-437949274.56205,-71392327.36412,  -0.00199,  -0.00188,  -0.00220,479125154.62920,   0.00116,275898716.92630,  -0.00066,  -0.00082,  -0.00128,   0.00000,   2.00000
-479248364.86696,-437750333.46138,-70656118.68461,  -0.00200,  -0.00188,  -0.00220,479137902.96123,   0.00117,275909738.77889,  -0.00067,  -0.00082,  -0.00128,   0.00000,   2.00000
-480012766.50374,-437548602.05786,-69924854.87837,  -0.00201,  -0.00189,  -0.00220,479153640.00196,   0.00118,275920766.73014,  -0.00068,  -0.00083,  -0.00129,  -0.00000,   2.00000
-480759862.04841,-437349378.72326,-69201460.35644,  -0.00203,  -0.00189,  -0.00220,479152133.49072,   0.00119,275931742.36530,  -0.00069,  -0.00084,  -0.00130,   0.00000,   2.00000
-481499652.54799,-437139760.84600,-68486247.92836,  -0.00204,  -0.00189,  -0.00220,479187744.69970,   0.00120,275942792.17148,  -0.00070,  -0.00084,  -0.00130,   0.00000,   2.00000
-482225499.22617,-436935500.83095,-67772600.61294,  -0.00205,  -0.00190,  -0.00219,479183122.85908,   0.00121,275953779.43032,  -0.00071,  -0.00085,  -0.00131,   0.00000,   2.00000
-482946205.82453,-436718966.45753,-67066359.49887,  -0.00206,  -0.00190,  -0.00219,479183191.15534,   0.00122,275964720.59499,  -0.00072,  -0.00086,  -0.00132,  -0.00000,   2.00000
-483648518.31194,-436507541.80871,-66368659.74824,  -0.00208,  -0.00191,  -0.00219,479216579.07268,   0.00123,275975728.88098,  -0.00073,  -0.00086,  -0.00133,   0.00000,   2.00000
-484348876.06143,-436286524.66642,-65672022.02449,  -0.00209,  -0.00191,  -0.00219,479213709.94941,   0.00124,275986681.44697,  -0.00074,  -0.00087,  -0.00133,   0.00000,   2.00000
-485036437.24356,-436060965.24236,-64986429.58715,  -0.00210,  -0.00192,  -0.00218,479231634.48238,   0.00125,275997649.10274,  -0.00075,  -0.00088,  -0.00134,   0.00000,   2.00000
-485711015.24027,-435841189.66472,-64302093.02980,  -0.00212,  -0.00192,  -0.00218,479226581.92880,   0.00126,276008554.25355,  -0.00076,  -0.00088,  -0.00135,   0.00000,   2.00000
-486373244.84613,-435617086.25270,-63628757.31416,  -0.00213,  -0.00193,  -0.00218,479244221.41966,   0.00127,276019474.03267,  -0.00076,  -0.00089,  -0.00135,   0.00000,   2.00000
-487028757.06367,-435393551.91842,-62953838.42218,  -0.00214,  -0.00193,  -0.00218,479256376.55947,   0.00128,276030389.94482,  -0.00077,  -0.00090,  -0.00136,  -0.00000,   2.00000
-487672227.78419,-435165898.87201,-62289915.08922,  -0.00215,  -0.00193,  -0.00218,479273849.64551,   0.00129,276041320.16026,  -0.00078,  -0.00090,  -0.00137,  -0.00000,   2.00000
-488306209.40031,-434931973.26153,-61635630.79913,  -0.00217,  -0.00194,  -0.00217,479255892.29492,   0.00130,276052145.51114,  -0.00079,  -0.00091,  -0.00137,   0.00000,   2.00000
-488931495.96242,-434701164.45578,-60980987.04414,  -0.00218,  -0.00194,  -0.00217,479303126.77891,   0.00131,276063085.97908,  -0.00080,  -0.00092,  -0.00138,  -0.00000,   2.00000
-489550276.46186,-434466471.68277,-60329549.42506,  -0.00219,  -0.00195,  -0.00217,479282473.59215,   0.00132,276073912.82882,  -0.00081,  -0.00092,  -0.00138,  -0.00000,   2.00000
-490152277.92269,-434238158.11763,-59686765.10627,  -0.00220,  -0.00195,  -0.00217,479314664.03168,   0.00133,276084804.35993,  -0.00082,  -0.00093,  -0.00139,   0.00000,   2.00000
-490751152.50163,-433998401.58767,-59050761.50146,  -0.00222,  -0.00196,  -0.00217,479313917.86193,   0.00134,276095649.84467,  -0.00083,  -0.00094,  -0.00140,   0.00000,   2.00000
-491333572.46196,-433760645.75030,-58428137.66333,  -0.00223,  -0.00196,  -0.00216,479313145.35069,   0.00135,276106449.62283,  -0.00084,  -0.00094,  -0.00140,  -0.00000,   2.00000
-491915774.51865,-433513800.87251,-57805754.56465,  -0.00224,  -0.00196,  -0.00216,479309694.99303,   0.00136,276117195.05690,  -0.00085,  -0.00095,  -0.00141,   0.00000,   2.00000
-492484345.99497,-433276010.73554,-57185630.14496,  -0.00226,  -0.00197,  -0.00216,479338934.49311,   0.00137,276127996.05970,  -0.00086,  -0.00096,  -0.00142,   0.00000,   2.00000
-493044898.51233,-433037150.08073,-56569930.02998,  -0.00227,  -0.00197,  -0.00216,479353029.20107,   0.00138,276138801.75453,  -0.00087,  -0.00096,  -0.00142,  -0.00000,   2.00000
-493600575.83991,-432785023.02966,-55967087.41624,  -0.00228,  -0.00198,  -0.00215,479354358.04868,   0.00139,276149569.63912,  -0.00088,  -0.00097,  -0.00143,   0.00000,   2.00000
-494140207.05150,-432549786.21757,-55362546.45853,  -0.00229,  -0.00198,  -0.00215,479363324.67986,   0.00140,276160325.42753,  -0.00089,  -0.00098,  -0.00143,   0.00000,   2.00000
-494675353.04610,-432301391.97906,-54770757.48171,  -0.00231,  -0.00199,  -0.00215,479364435.60577,   0.00141,276171043.16003,  -0.00090,  -0.00098,  -0.00144,  -0.00000,   2.00000
-495203042.99146,-432052256.23204,-54183207.14564,  -0.00232,  -0.00199,  -0.00215,479378188.96776,   0.00142,276181765.39587,  -0.00091,  -0.00099,  -0.00144,   0.00000,   2.00000
-495718310.15875,-431807931.29118,-53602233.84933,  -0.00233,  -0.00199,  -0.00215,479374129.64040,   0.00143,276192432.69997,  -0.00092,  -0.00100,  -0.00145,   0.00000,   2.00000
-496231456.33557,-431557445.96174,-53023094.48264,  -0.00234,  -0.00200,  -0.00214,479405492.95669,   0.00144,276203163.74992,  -0.00093,  -0.00100,  -0.00146,   0.00000,   2.00000
-496737988.21608,-431301598.99127,-52452403.13147,  -0.00236,  -0.00200,  -0.00214,479386283.41794,   0.00145,276213789.61017,  -0.00094,  -0.00101,  -0.00146,   0.00000,   2.00000
-497227055.08282,-431061077.52088,-51886165.02026,  -0.00237,  -0.00201,  -0.00214,479396938.98477,   0.00146,276224410.42516,  -0.00095,  -0.00101,  -0.00147,   0.00000,   2.00000
-497719800.18139,-430804175.25369,-51323643.38126,  -0.00238,  -0.00201,  -0.00214,479413140.42572,   0.00147,276235044.90306,  -0.00096,  -0.00102,  -0.00147,   0.00000,   2.00000
-498193103.51309,-430560866.10305,-50771958.48316,  -0.00239,  -0.00201,  -0.00214,479425817.98945,   0.00148,276245681.32100,  -0.00097,  -0.00103,  -0.00148,   0.00000,   2.00000
-498665448.90335,-430306810.99770,-50226135.28553,  -0.00240,  -0.00202,  -0.00213,479424082.06159,   0.00149,276256271.81783,  -0.00098,  -0.00103,  -0.00148,   0.00000,   2.00000
-499133527.02538,-430054307.48188,-49677826.67993,  -0.00242,  -0.00202,  -0.00213,479435158.08318,   0.00150,276266859.30217,  -0.00098,  -0.00104,  -0.00149,   0.00000,   2.00000
-499588259.66737,-429805240.57789,-49142100.72348,  -0.00243,  -0.00203,  -0.00213,479432510.80444,   0.00151,276277398.24604,  -0.00099,  -0.00105,  -0.00149,  -0.00000,   2.00000
-500036802.52887,-429555950.95713,-48610246.43871,  -0.00244,  -0.00203,  -0.00213,479445533.85496,   0.00152,276287941.10142,  -0.00100,  -0.00105,  -0.00150,  -0.00000,   2.00000
-500484804.58305,-429296032.91399,-48084023.34140,  -0.00245,  -0.00204,  -0.00213,479443588.14968,   0.00153,276298438.22447,  -0.00101,  -0.00106,  -0.00150,  -0.00000,   2.00000
-500914435.68731,-429050295.89603,-47568410.36411,  -0.00247,  -0.00204,  -0.00213,479455489.29165,   0.00154,276308935.91437,  -0.00102,  -0.00106,  -0.00151,   0.00000,   2.00000
-501345943.34127,-428795727.73082,-47051816.60977,  -0.00248,  -0.00204,  -0.00212,479451372.85798,   0.00155,276319381.02903,  -0.00103,  -0.00107,  -0.00151,   0.00000,   2.00000
-501769564.40504,-428539404.84140,-46545413.33595,  -0.00249,  -0.00205,  -0.00212,479466128.57363,   0.00156,276329836.64182,  -0.00104,  -0.00108,  -0.00152,   0.00000,   2.00000
-502185045.54608,-428290388.75300,-46038265.22305,  -0.00250,  -0.00205,  -0.00212,479458853.63587,   0.00157,276340229.54154,  -0.00105,  -0.00108,  -0.00152,   0.00000,   2.00000
-502597402.20641,-428034127.68284,-45539213.04155,  -0.00251,  -0.00206,  -0.00212,479491460.15452,   0.00158,276350692.56808,  -0.00106,  -0.00109,  -0.00153,   0.00000,   2.00000
-502999795.40953,-427783554.10055,-45045805.53373,  -0.00253,  -0.00206,  -0.00212,479486051.66266,   0.00159,276361099.31158,  -0.00107,  -0.00109,  -0.00153,   0.00000,   2.00000
-503390432.14349,-427537041.79533,-44564451.41066,  -0.00254,  -0.00206,  -0.00211,479482400.04014,   0.00160,276371455.94862,  -0.00108,  -0.00110,  -0.00153,   0.00000,   2.00000
-503783480.59100,-427281712.59274,-44081715.32280,  -0.00255,  -0.00207,  -0.00211,479478064.35121,   0.00161,276381760.51053,  -0.00109,  -0.00111,  -0.00154,   0.00000,   2.00000
-504163801.79464,-427035609.15077,-43607344.43522,  -0.00256,  -0.00207,  -0.00211,479507113.53138,   0.00162,276392123.96694,  -0.00110,  -0.00111,  -0.00154,  -0.00000,   2.00000
-504546639.93310,-426780670.57856,-43131509.24573,  -0.00258,  -0.00208,  -0.00211,479502789.42894,   0.00162,276402435.53943,  -0.00111,  -0.00112,  -0.00155,   0.00000,   2.00000
-504918246.90388,-426530017.73624,-42667529.30146,  -0.00259,  -0.00208,  -0.00211,479498774.50320,   0.00163,276412696.56609,  -0.00112,  -0.00112,  -0.00155,  -0.00000,   2.00000
-505285011.00592,-426279669.39294,-42206896.16033,  -0.00260,  -0.00208,  -0.00210,479510939.58629,   0.00164,276422960.92303,  -0.00113,  -0.00113,  -0.00156,   0.00000,   2.00000
-505640914.19831,-426033716.08903,-41757976.92147,  -0.00261,  -0.00209,  -0.00210,479506685.33515,   0.00165,276433174.30999,  -0.00114,  -0.00113,  -0.00156,   0.00000,   2.00000
-505999690.09867,-425778924.12076,-41307293.78415,  -0.00262,  -0.00209,  -0.00210,479502152.05892,   0.00166,276443336.09469,  -0.00115,  -0.00114,  -0.00156,   0.00000,   2.00000
-506346404.11686,-425533780.15284,-40864863.63846,  -0.00263,  -0.00209,  -0.00210,479530633.88638,   0.00167,276453555.80913,  -0.00116,  -0.00115,  -0.00157,   0.00000,   2.00000
-506690141.82005,-425283890.12508,-40428933.42885,  -0.00265,  -0.00210,  -0.00210,479509621.95876,   0.00168,276463669.53931,  -0.00117,  -0.00115,  -0.00157,   0.00000,   2.00000
-507029503.46221,-425034461.30288,-39996126.08789,  -0.00266,  -0.00210,  -0.00210,479521440.82209,   0.00169,276473786.38657,  -0.00118,  -0.00116,  -0.00158,   0.00000,   2.00000
-507364547.53609,-424785514.72316,-39566424.52883,  -0.00267,  -0.00211,  -0.00209,479533238.77559,   0.00170,276483906.32602,  -0.00119,  -0.00116,  -0.00158,  -0.00000,   2.00000
-507691300.13911,-424542663.45422,-39141580.13126,  -0.00268,  -0.00211,  -0.00209,479526763.28588,   0.00171,276493968.94574,  -0.00120,  -0.00117,  -0.00158,   0.00000,   2.00000
-508012175.52661,-424298897.00756,-38726310.59034,  -0.00269,  -0.00211,  -0.00209,479540078.05377,   0.00172,276504040.00237,  -0.00121,  -0.00117,  -0.00159,   0.00000,   2.00000
-508329025.16306,-424055682.66315,-38314021.47256,  -0.00270,  -0.00212,  -0.00209,479551699.91742,   0.00173,276514113.91828,  -0.00122,  -0.00118,  -0.00159,   0.00000,   2.00000
-508643554.53386,-423807763.09141,-37907791.23118,  -0.00272,  -0.00212,  -0.00209,479530325.20600,   0.00174,276524081.73733,  -0.00123,  -0.00119,  -0.00160,  -0.00000,   2.00000
-508954180.12958,-423560452.09394,-37504451.86414,  -0.00273,  -0.00213,  -0.00209,479541799.16563,   0.00175,276534052.45323,  -0.00124,  -0.00119,  -0.00160,  -0.00000,   2.00000
-509249779.73970,-423328917.28646,-37110868.48154,  -0.00274,  -0.00213,  -0.00209,479551180.43217,   0.00176,276544019.13007,  -0.00125,  -0.00120,  -0.00160,   0.00000,   2.00000
-509547345.41865,-423087054.86620,-36721429.74326,  -0.00275,  -0.00213,  -0.00208,479547876.25304,   0.00177,276553940.00853,  -0.00126,  -0.00120,  -0.00161,   0.00000,   2.00000
-509848515.99840,-422836228.67719,-36329525.61251,  -0.00276,  -0.00214,  -0.00208,479542998.53493,   0.00178,276563810.14507,  -0.00127,  -0.00121,  -0.00161,   0.00000,   2.00000
-510133320.86793,-422600043.70129,-35953836.50114,  -0.00277,  -0.00214,  -0.00208,479553628.62465,   0.00179,276573680.95737,  -0.00128,  -0.00121,  -0.00161,  -0.00000,   2.00000
-510416306.62359,-422365839.51073,-35574254.65079,  -0.00278,  -0.00214,  -0.00208,479563283.38218,   0.00179,276583549.22061,  -0.00129,  -0.00122,  -0.00162,   0.00000,   2.00000
-510696086.17904,-422125626.55199,-35206804.93694,  -0.00280,  -0.00215,  -0.00208,479542968.84063,   0.00180,276593316.16813,  -0.00130,  -0.00122,  -0.00162,  -0.00000,   2.00000
-510974113.63495,-421887411.51185,-34835374.27183,  -0.00281,  -0.00215,  -0.00208,479552516.19804,   0.00181,276603080.71618,  -0.00131,  -0.00123,  -0.00162,   0.00000,   2.00000
-511247239.36204,-421648671.12073,-34473124.00649,  -0.00282,  -0.00216,  -0.00208,479565017.91007,   0.00182,276612852.69948,  -0.00131,  -0.00123,  -0.00163,   0.00000,   2.00000
-511511866.86945,-421415047.15862,-34121552.29331,  -0.00283,  -0.00216,  -0.00207,479559057.96252,   0.00183,276622571.23819,  -0.00132,  -0.00124,  -0.00163,   0.00000,   2.00000
-511774927.71961,-421183415.39029,-33765876.50635,  -0.00284,  -0.00216,  -0.00207,479568500.76239,   0.00184,276632287.32735,  -0.00133,  -0.00124,  -0.00163,   0.00000,   2.00000
-512035294.58897,-420945826.27723,-33422004.27898,  -0.00285,  -0.00217,  -0.00207,479547819.32193,   0.00185,276641901.75775,  -0.00134,  -0.00125,  -0.00164,   0.00000,   2.00000
-512287059.60644,-420720155.42365,-33079331.49913,  -0.00286,  -0.00217,  -0.00207,479573112.26778,   0.00186,276651566.44876,  -0.00135,  -0.00125,  -0.00164,  -0.00000,   2.00000
-512541479.91508,-420484136.98379,-32740237.68134,  -0.00287,  -0.00217,  -0.00207,479569328.61830,   0.00187,276661185.46442,  -0.00136,  -0.00126,  -0.00164,  -0.00000,   2.00000
-512787892.60952,-420253359.94260,-32411571.20628,  -0.00289,  -0.00218,  -0.00207,479562964.23314,   0.00188,276670750.50511,  -0.00137,  -0.00127,  -0.00165,   0.00000,   2.00000
-513027930.98157,-420028991.86207,-32086653.05782,  -0.00290,  -0.00218,  -0.00207,479555097.19749,   0.00188,276680256.81581,  -0.00138,  -0.00127,  -0.00165,   0.00000,   2.00000
-513265252.82564,-419805437.84979,-31763978.72680,  -0.00291,  -0.00218,  -0.00206,479565606.46997,   0.00189,276689765.19802,  -0.00139,  -0.00128,  -0.00165,  -0.00000,   2.00000
-513505464.40294,-419571517.10596,-31444664.19330,  -0.00292,  -0.00219,  -0.00206,479561605.46330,   0.00190,276699227.93646,  -0.00140,  -0.00128,  -0.00165,   0.00000,   2.00000
-513733899.23306,-419355243.95526,-31127854.37660,  -0.00293,  -0.00219,  -0.00206,479568058.89956,   0.00191,276708679.55942,  -0.00141,  -0.00129,  -0.00166,   0.00000,   2.00000
-513963931.00687,-419127447.09425,-30820924.72483,  -0.00294,  -0.00220,  -0.00206,479565283.77078,   0.00192,276718089.84454,  -0.00142,  -0.00129,  -0.00166,   0.00000,   2.00000
-514187952.59987,-418906096.30150,-30517497.76651,  -0.00295,  -0.00220,  -0.00206,479557106.94189,   0.00193,276727441.14255,  -0.00143,  -0.00130,  -0.00166,   0.00000,   2.00000
-514408130.77375,-418684527.77741,-30222738.06484,  -0.00296,  -0.00220,  -0.00206,479568639.81824,   0.00194,276736798.63933,  -0.00144,  -0.00130,  -0.00167,   0.00000,   2.00000
-514632843.50535,-418453651.56379,-29924462.19252,  -0.00297,  -0.00221,  -0.00206,479563138.89974,   0.00195,276746106.28146,  -0.00145,  -0.00131,  -0.00167,   0.00000,   2.00000
-514844781.67261,-418239478.80587,-29635114.18047,  -0.00298,  -0.00221,  -0.00206,479570499.75247,   0.00196,276755406.54734,  -0.00146,  -0.00131,  -0.00167,   0.00000,   2.00000
-515056597.89859,-418020414.50322,-29350130.04618,  -0.00299,  -0.00221,  -0.00206,479547638.76320,   0.00196,276764600.02323,  -0.00147,  -0.00131,  -0.00167,  -0.00000,   2.00000
-515260605.52168,-417813564.50548,-29066022.93395,  -0.00300,  -0.00222,  -0.00205,479572069.48219,   0.00197,276773842.73119,  -0.00147,  -0.00132,  -0.00168,   0.00000,   2.00000
-515466659.27394,-417595196.10475,-28791473.67794,  -0.00302,  -0.00222,  -0.00205,479568905.20333,   0.00198,276783043.78143,  -0.00148,  -0.00132,  -0.00168,   0.00000,   2.00000
-515672748.17563,-417371936.37105,-28521102.64268,  -0.00303,  -0.00222,  -0.00205,479545898.93688,   0.00199,276792138.07397,  -0.00149,  -0.00133,  -0.00168,   0.00000,   2.00000
-515867828.74841,-417166526.83720,-28252824.28132,  -0.00304,  -0.00223,  -0.00205,479551569.18401,   0.00200,276801220.28430,  -0.00150,  -0.00133,  -0.00168,   0.00000,   2.00000
-516062901.91402,-416955459.29719,-27991657.87699,  -0.00305,  -0.00223,  -0.00205,479581152.20479,   0.00201,276810369.23284,  -0.00151,  -0.00134,  -0.00169,   0.00000,   2.00000
-516256195.65555,-416745951.59397,-27729170.34115,  -0.00306,  -0.00223,  -0.00205,479538251.77108,   0.00202,276819346.14839,  -0.00152,  -0.00134,  -0.00169,  -0.00000,   2.00000
-516446245.13190,-416536357.16244,-27475028.56304,  -0.00307,  -0.00224,  -0.00205,479549100.94602,   0.00202,276828328.55772,  -0.00153,  -0.00135,  -0.00169,   0.00000,   2.00000
-516633115.80536,-416326712.88100,-27229181.33494,  -0.00308,  -0.00224,  -0.00205,479559916.02482,   0.00203,276837316.37200,  -0.00154,  -0.00135,  -0.00169,  -0.00000,   2.00000
-516816116.68739,-416124480.53761,-26979581.75055,  -0.00309,  -0.00224,  -0.00205,479549782.65719,   0.00204,276846240.60050,  -0.00155,  -0.00136,  -0.00170,   0.00000,   2.00000
-517001568.97349,-415910722.53689,-26739190.70080,  -0.00310,  -0.00225,  -0.00205,479546146.39876,   0.00205,276855122.96267,  -0.00156,  -0.00136,  -0.00170,   0.00000,   2.00000
-517176462.42867,-415714912.34394,-26500651.34333,  -0.00311,  -0.00225,  -0.00205,479551358.51148,   0.00206,276863992.61775,  -0.00157,  -0.00137,  -0.00170,   0.00000,   2.00000
-517350745.44261,-415513058.90716,-26272438.12675,  -0.00312,  -0.00225,  -0.00205,479528968.82050,   0.00207,276872758.90013,  -0.00157,  -0.00137,  -0.00170,  -0.00000,   2.00000
-517527723.71431,-415307545.11924,-26037870.11775,  -0.00313,  -0.00226,  -0.00204,479555855.95038,   0.00207,276881584.27408,  -0.00158,  -0.00138,  -0.00171,   0.00000,   2.00000
-517694267.26753,-415112129.70812,-25820464.93311,  -0.00314,  -0.00226,  -0.00204,479530152.67632,   0.00208,276890295.55806,  -0.00159,  -0.00138,  -0.00171,   0.00000,   2.00000
-517860418.04641,-414918524.92280,-25597827.66706,  -0.00315,  -0.00226,  -0.00204,479538304.29401,   0.00209,276899004.48146,  -0.00160,  -0.00138,  -0.00171,   0.00000,   2.00000
-518030483.24894,-414714252.82312,-25377518.20699,  -0.00316,  -0.00227,  -0.00204,479533263.48686,   0.00210,276907667.75197,  -0.00161,  -0.00139,  -0.00171,   0.00000,   2.00000
-518194654.29682,-414515516.03900,-25166410.38380,  -0.00317,  -0.00227,  -0.00204,479524866.55372,   0.00211,276916274.49606,  -0.00162,  -0.00139,  -0.00171,  -0.00000,   2.00000
-518353039.49453,-414322305.28655,-24964430.28985,  -0.00318,  -0.00227,  -0.00204,479516359.82042,   0.00211,276924824.55268,  -0.00163,  -0.00140,  -0.00172,  -0.00000,   2.00000
-518511121.13200,-414130877.50691,-24757091.68275,  -0.00319,  -0.00228,  -0.00204,479524336.49206,   0.00212,276933372.30318,  -0.00164,  -0.00140,  -0.00172,   0.00000,   2.00000
-518666611.58355,-413939475.11882,-24557697.11243,  -0.00320,  -0.00228,  -0.00204,479534414.84568,   0.00213,276941924.69844,  -0.00165,  -0.00141,  -0.00172,  -0.00000,   2.00000
-518817621.84230,-413754451.40524,-24360690.40851,  -0.00321,  -0.00228,  -0.00204,479524727.62559,   0.00214,276950416.70865,  -0.00165,  -0.00141,  -0.00172,   0.00000,   2.00000
-518969693.34815,-413564129.51212,-24166891.74298,  -0.00322,  -0.00228,  -0.00204,479500716.58601,   0.00215,276958801.50160,  -0.00166,  -0.00141,  -0.00172,   0.00000,   2.00000
-519119299.20858,-413373857.38796,-23980933.28385,  -0.00323,  -0.00229,  -0.00204,479510567.65619,   0.00215,276967190.80846,  -0.00167,  -0.00142,  -0.00173,   0.00000,   2.00000
-519264560.23956,-413189953.37685,-23797231.43199,  -0.00324,  -0.00229,  -0.00204,479500660.87500,   0.00216,276975519.63198,  -0.00168,  -0.00142,  -0.00173,  -0.00000,   2.00000
-519408553.37676,-413006924.67007,-23614662.12028,  -0.00325,  -0.00229,  -0.00204,479509400.33150,   0.00217,276983849.48556,  -0.00169,  -0.00143,  -0.00173,   0.00000,   2.00000
-519552664.83884,-412817703.82821,-23441771.67746,  -0.00326,  -0.00230,  -0.00204,479486188.23242,   0.00218,276992075.40238,  -0.00170,  -0.00143,  -0.00173,   0.00000,   2.00000
-519690091.77467,-412641099.47732,-23269116.30519,  -0.00326,  -0.00230,  -0.00204,479509006.44870,   0.00219,277000348.98323,  -0.00171,  -0.00144,  -0.00173,   0.00000,   2.00000
-519828821.55995,-412459071.84204,-23099402.62959,  -0.00327,  -0.00230,  -0.00204,479484712.05491,   0.00219,277008515.24619,  -0.00171,  -0.00144,  -0.00174,   0.00000,   2.00000
-519965319.71413,-412277113.39854,-22937361.00160,  -0.00328,  -0.00231,  -0.00204,479494224.49035,   0.00220,277016685.71206,  -0.00172,  -0.00144,  -0.00174,  -0.00000,   2.00000
-520103170.18303,-412089728.34288,-22778157.31059,  -0.00329,  -0.00231,  -0.00204,479469816.52806,   0.00221,277024748.91828,  -0.00173,  -0.00145,  -0.00174,   0.00000,   2.00000
-520231502.54598,-411920438.15378,-22620161.80749,  -0.00330,  -0.00231,  -0.00204,479473641.29321,   0.00222,277032797.92956,  -0.00174,  -0.00145,  -0.00174,   0.00000,   2.00000
-520364224.62031,-411740191.29107,-22463897.57879,  -0.00331,  -0.00231,  -0.00204,479467854.44905,   0.00222,277040801.28035,  -0.00175,  -0.00146,  -0.00174,   0.00000,   2.00000
-520491910.89166,-411565453.37394,-22316246.31326,  -0.00332,  -0.00232,  -0.00204,479458368.61458,   0.00223,277048746.96355,  -0.00175,  -0.00146,  -0.00175,   0.00000,   2.00000
-520618580.79945,-411391563.16895,-22169465.92676,  -0.00333,  -0.00232,  -0.00204,479466626.26160,   0.00224,277056693.49541,  -0.00176,  -0.00146,  -0.00175,   0.00000,   2.00000
-520740322.55306,-411223163.25075,-22031225.76514,  -0.00334,  -0.00232,  -0.00204,479457030.80899,   0.00225,277064582.19016,  -0.00177,  -0.00147,  -0.00175,   0.00000,   2.00000
-520862134.45721,-411056352.75326,-21887144.56054,  -0.00335,  -0.00233,  -0.00204,479464273.77749,   0.00225,277072468.56627,  -0.00178,  -0.00147,  -0.00175,   0.00000,   2.00000
-520981637.76523,-410888566.99756,-21753342.71441,  -0.00336,  -0.00233,  -0.00203,479421659.99658,   0.00226,277080188.81756,  -0.00179,  -0.00148,  -0.00175,  -0.00000,   2.00000
-521102098.00254,-410715433.01501,-21625956.21731,  -0.00337,  -0.00233,  -0.00203,479449370.97479,   0.00227,277087974.67569,  -0.00180,  -0.00148,  -0.00175,   0.00000,   2.00000
-521219783.67347,-410549296.54972,-21493652.89985,  -0.00337,  -0.00233,  -0.00203,479437710.53242,   0.00228,277095696.48037,  -0.00180,  -0.00148,  -0.00176,  -0.00000,   2.00000
-521332735.79600,-410388612.66905,-21369757.89716,  -0.00338,  -0.00234,  -0.00203,479427796.62320,   0.00228,277103360.18146,  -0.00181,  -0.00149,  -0.00176,   0.00000,   2.00000
-521447411.11729,-410222213.87590,-21248299.35021,  -0.00339,  -0.00234,  -0.00203,479402794.95207,   0.00229,277110916.43936,  -0.00182,  -0.00149,  -0.00176,  -0.00000,   2.00000
-521560263.62686,-410055878.02722,-21134179.76367,  -0.00340,  -0.00234,  -0.00203,479411496.46721,   0.00230,277118476.39389,  -0.00183,  -0.00149,  -0.00176,  -0.00000,   2.00000
-521672299.05333,-409890350.42673,-21020701.97951,  -0.00341,  -0.00235,  -0.00204,479419293.56216,   0.00230,277126037.06021,  -0.00183,  -0.00150,  -0.00176,  -0.00000,   2.00000
-521780713.23359,-409731005.83199,-20908836.21354,  -0.00342,  -0.00235,  -0.00204,479408260.73336,   0.00231,277133536.52948,  -0.00184,  -0.00150,  -0.00176,   0.00000,   2.00000
-521884584.11900,-409577083.99635,-20805222.23955,  -0.00343,  -0.00235,  -0.00204,479398032.61655,   0.00232,277140977.64415,  -0.00185,  -0.00150,  -0.00176,   0.00000,   2.00000
-521990316.63923,-409417335.05175,-20703867.59681,  -0.00343,  -0.00235,  -0.00204,479372778.11036,   0.00233,277148311.26721,  -0.00186,  -0.00151,  -0.00177,  -0.00000,   2.00000
-522095319.28716,-409258351.60224,-20603066.38421,  -0.00344,  -0.00236,  -0.00204,479380319.01175,   0.00233,277155645.52914,  -0.00187,  -0.00151,  -0.00177,   0.00000,   2.00000
-522199598.17545,-409100131.11363,-20502815.70227,  -0.00345,  -0.00236,  -0.00204,479387858.58632,   0.00234,277162980.42272,  -0.00187,  -0.00152,  -0.00177,   0.00000,   2.00000
-522299442.12963,-408947320.84168,-20410724.88866,  -0.00346,  -0.00236,  -0.00204,479377412.78679,   0.00235,277170256.83495,  -0.00188,  -0.00152,  -0.00177,   0.00000,   2.00000
-522401218.72470,-408788608.76755,-20320786.63564,  -0.00347,  -0.00236,  -0.00204,479351985.64566,   0.00235,277177425.77651,  -0.00189,  -0.00152,  -0.00177,   0.00000,   2.00000
-522494208.27311,-408648003.98537,-20231569.87830,  -0.00348,  -0.00237,  -0.00204,479354514.76845,   0.00236,277184579.37644,  -0.00190,  -0.00153,  -0.00177,  -0.00000,   2.00000
-522591007.95609,-408495359.33069,-20150191.22245,  -0.00348,  -0.00237,  -0.00204,479348664.52249,   0.00237,277191690.23797,  -0.00190,  -0.00153,  -0.00177,  -0.00000,   2.00000
-522689794.66633,-408336757.34388,-20070876.30662,  -0.00349,  -0.00237,  -0.00204,479323065.44233,   0.00237,277198693.65161,  -0.00191,  -0.00153,  -0.00178,  -0.00000,   2.00000
-522782599.03548,-408190936.07587,-19991282.19250,  -0.00350,  -0.00237,  -0.00204,479344254.43195,   0.00238,277205743.65301,  -0.00192,  -0.00154,  -0.00178,   0.00000,   2.00000
-522876505.93597,-408038403.88105,-19920390.75697,  -0.00351,  -0.00238,  -0.00204,479319432.35014,   0.00239,277212688.95150,  -0.00193,  -0.00154,  -0.00178,   0.00000,   2.00000
-522967112.01561,-407891918.07121,-19850792.98792,  -0.00352,  -0.00238,  -0.00204,479307659.56121,   0.00239,277219572.75063,  -0.00193,  -0.00154,  -0.00178,   0.00000,   2.00000
-523057158.62314,-407746117.42224,-19781552.59259,  -0.00352,  -0.00238,  -0.00204,479314692.78942,   0.00240,277226457.05183,  -0.00194,  -0.00155,  -0.00178,  -0.00000,   2.00000
-523143033.95732,-407605640.20849,-19720254.60770,  -0.00353,  -0.00238,  -0.00204,479303676.76372,   0.00241,277233282.53217,  -0.00195,  -0.00155,  -0.00178,   0.00000,   2.00000
-523233719.19136,-407453730.44688,-19659948.85349,  -0.00354,  -0.00239,  -0.00204,479296658.05820,   0.00241,277240062.58963,  -0.00195,  -0.00155,  -0.00178,   0.00000,   2.00000
-523313167.82999,-407325253.45311,-19601101.55757,  -0.00355,  -0.00239,  -0.00204,479279774.19688,   0.00242,277246764.83975,  -0.00196,  -0.00156,  -0.00179,   0.00000,   2.00000
-523400149.43937,-407179951.67263,-19542311.32476,  -0.00356,  -0.00239,  -0.00204,479291521.24321,   0.00242,277253483.71578,  -0.00197,  -0.00156,  -0.00179,   0.00000,   2.00000
-523485680.45364,-407033135.45989,-19492978.32481,  -0.00356,  -0.00239,  -0.00204,479247446.23972,   0.00243,277260035.75706,  -0.00197,  -0.00156,  -0.00179,   0.00000,   2.00000
-523565406.24322,-406899115.81008,-19443215.07592,  -0.00357,  -0.00240,  -0.00204,479268084.07406,   0.00244,277266634.10509,  -0.00198,  -0.00157,  -0.00179,   0.00000,   2.00000
-523646422.73112,-406758197.68501,-19401942.20545,  -0.00358,  -0.00240,  -0.00204,479242766.80810,   0.00244,277273127.64577,  -0.00199,  -0.00157,  -0.00179,   0.00000,   2.00000
-523726982.23538,-406617916.01162,-19360869.26569,  -0.00359,  -0.00240,  -0.00204,479249379.01596,   0.00245,277279621.65127,  -0.00200,  -0.00157,  -0.00179,   0.00000,   2.00000
-523804446.20077,-406483558.38163,-19320898.72218,  -0.00359,  -0.00240,  -0.00204,479237078.54582,   0.00246,277286053.94331,  -0.00200,  -0.00157,  -0.00179,  -0.00000,   2.00000
-523884140.41855,-406342916.42290,-19282686.39567,  -0.00360,  -0.00240,  -0.00205,479210773.74427,   0.00246,277292378.74459,  -0.00201,  -0.00158,  -0.00179,   0.00000,   2.00000
-523954576.89757,-406219698.11444,-19251562.28440,  -0.00361,  -0.00241,  -0.00205,479213037.25524,   0.00247,277298690.22055,  -0.00202,  -0.00158,  -0.00180,  -0.00000,   2.00000
-524030825.52108,-406085497.88188,-19214575.82519,  -0.00361,  -0.00241,  -0.00205,479204704.93720,   0.00247,277304953.64235,  -0.00202,  -0.00158,  -0.00180,   0.00000,   2.00000
-524107534.75299,-405943636.78766,-19192663.31031,  -0.00362,  -0.00241,  -0.00205,479179862.99924,   0.00248,277311114.97914,  -0.00203,  -0.00159,  -0.00180,   0.00000,   2.00000
-524179451.93883,-405815259.18594,-19163519.89001,  -0.00363,  -0.00241,  -0.00205,479199229.36632,   0.00248,277317319.77613,  -0.00203,  -0.00159,  -0.00180,  -0.00000,   2.00000
-524252765.86262,-405679829.34858,-19142737.42673,  -0.00364,  -0.00242,  -0.00205,479173507.57544,   0.00249,277323419.76149,  -0.00204,  -0.00159,  -0.00180,  -0.00000,   2.00000
-524323097.42876,-405550242.63804,-19122944.36453,  -0.00364,  -0.00242,  -0.00205,479160774.39961,   0.00250,277329457.94452,  -0.00205,  -0.00159,  -0.00180,   0.00000,   2.00000
-524390475.02820,-405426467.33799,-19104134.68898,  -0.00365,  -0.00242,  -0.00205,479147969.13810,   0.00250,277335434.26896,  -0.00205,  -0.00160,  -0.00180,   0.00000,   2.00000
-524456621.70547,-405302561.95867,-19092082.04465,  -0.00366,  -0.00242,  -0.00205,479154840.87565,   0.00251,277341413.62128,  -0.00206,  -0.00160,  -0.00180,  -0.00000,   2.00000
-524525114.12355,-405172173.44272,-19081631.68680,  -0.00366,  -0.00242,  -0.00205,479128080.80653,   0.00251,277347285.49284,  -0.00207,  -0.00160,  -0.00180,   0.00000,   2.00000
-524593263.81541,-405042324.85281,-19071226.70985,  -0.00367,  -0.00243,  -0.00205,479134043.73154,   0.00252,277353157.78720,  -0.00207,  -0.00161,  -0.00181,   0.00000,   2.00000
-524655037.88721,-404922849.54628,-19069327.02003,  -0.00368,  -0.00243,  -0.00205,479102919.12553,   0.00252,277358908.57299,  -0.00208,  -0.00161,  -0.00181,   0.00000,   2.00000
-524721763.40581,-404791573.87655,-19068089.08871,  -0.00368,  -0.00243,  -0.00206,479094881.28675,   0.00253,277364614.19058,  -0.00208,  -0.00161,  -0.00181,   0.00000,   2.00000
-524788161.93482,-404660825.22349,-19066855.71094,  -0.00369,  -0.00243,  -0.00206,479100676.96939,   0.00254,277370320.25622,  -0.00209,  -0.00161,  -0.00181,  -0.00000,   2.00000
-524849123.99137,-404541066.65925,-19067413.73391,  -0.00370,  -0.00243,  -0.00206,479068560.53645,   0.00254,277375902.10773,  -0.00210,  -0.00162,  -0.00181,   0.00000,   2.00000
-524908907.10840,-404421130.61730,-19074644.20635,  -0.00370,  -0.00244,  -0.00206,479075027.69194,   0.00255,277381486.99173,  -0.00210,  -0.00162,  -0.00181,   0.00000,   2.00000
-524965862.65398,-404306895.47711,-19082738.29594,  -0.00371,  -0.00244,  -0.00206,479061728.86752,   0.00255,277387009.90276,  -0.00211,  -0.00162,  -0.00181,   0.00000,   2.00000
-525027784.52259,-404180775.52687,-19091451.97040,  -0.00371,  -0.00244,  -0.00206,479053482.22265,   0.00256,277392487.70767,  -0.00211,  -0.00162,  -0.00181,  -0.00000,   2.00000
-525085983.51494,-404059706.93017,-19107700.50376,  -0.00372,  -0.00244,  -0.00206,479040887.10030,   0.00256,277397906.24989,  -0.00212,  -0.00163,  -0.00181,   0.00000,   2.00000
-525147496.49660,-403932614.46130,-19118756.71812,  -0.00373,  -0.00244,  -0.00206,479012774.96227,   0.00257,277403214.73557,  -0.00213,  -0.00163,  -0.00182,   0.00000,   2.00000
-525200084.82748,-403822914.30523,-19136687.55472,  -0.00373,  -0.00244,  -0.00206,479013832.17327,   0.00257,277408509.35449,  -0.00213,  -0.00163,  -0.00182,   0.00000,   2.00000
-525256755.19081,-403700603.44334,-19161878.00104,  -0.00374,  -0.00245,  -0.00207,479006185.10837,   0.00258,277413761.60146,  -0.00214,  -0.00163,  -0.00182,  -0.00000,   2.00000
-525311545.05704,-403584599.25976,-19181191.50185,  -0.00374,  -0.00245,  -0.00207,478991729.52281,   0.00258,277418949.19850,  -0.00214,  -0.00164,  -0.00182,   0.00000,   2.00000
-525362676.50508,-403473563.69390,-19208006.90336,  -0.00375,  -0.00245,  -0.00207,478978826.14407,   0.00259,277424077.45187,  -0.00215,  -0.00164,  -0.00182,   0.00000,   2.00000
-525416273.93008,-403355728.82905,-19236277.62726,  -0.00376,  -0.00245,  -0.00207,478951237.95104,   0.00259,277429098.30773,  -0.00215,  -0.00164,  -0.00182,   0.00000,   2.00000
-525468730.34878,-403237650.48681,-19271118.29869,  -0.00376,  -0.00245,  -0.00207,478957151.44814,   0.00260,277434122.27845,  -0.00216,  -0.00164,  -0.00182,   0.00000,   2.00000
-525519353.65312,-403125829.81621,-19300055.12245,  -0.00377,  -0.00246,  -0.00207,478942451.55222,   0.00260,277439081.54475,  -0.00216,  -0.00165,  -0.00182,   0.00000,   2.00000
-525571543.64043,-403006501.47100,-19337127.73977,  -0.00377,  -0.00246,  -0.00207,478915522.14166,   0.00260,277443936.14843,  -0.00217,  -0.00165,  -0.00182,   0.00000,   2.00000
-525623501.85328,-402887572.73652,-19374064.22244,  -0.00378,  -0.00246,  -0.00208,478920456.55108,   0.00261,277448791.20653,  -0.00217,  -0.00165,  -0.00182,  -0.00000,   2.00000
-525672740.32399,-402774218.89364,-19411776.18583,  -0.00378,  -0.00246,  -0.00208,478906400.05535,   0.00261,277453584.24826,  -0.00218,  -0.00165,  -0.00182,   0.00000,   2.00000
-525718366.71085,-402665752.27433,-19456942.59099,  -0.00379,  -0.00246,  -0.00208,478893098.72207,   0.00262,277458317.95109,  -0.00218,  -0.00165,  -0.00183,   0.00000,   2.00000
-525761311.51440,-402562808.83625,-19502863.12474,  -0.00380,  -0.00246,  -0.00208,478878910.64767,   0.00262,277462989.57405,  -0.00219,  -0.00166,  -0.00183,   0.00000,   2.00000
-525809243.75278,-402447733.98094,-19549287.29049,  -0.00380,  -0.00246,  -0.00208,478869881.76443,   0.00263,277467616.33479,  -0.00219,  -0.00166,  -0.00183,  -0.00000,   2.00000
-525859658.61744,-402325711.05767,-19597136.04323,  -0.00381,  -0.00247,  -0.00208,478841825.18226,   0.00263,277472135.82867,  -0.00220,  -0.00166,  -0.00183,   0.00000,   2.00000
-525901294.63801,-402221031.54391,-19651753.62575,  -0.00381,  -0.00247,  -0.00208,478842021.07912,   0.00264,277476641.27191,  -0.00220,  -0.00166,  -0.00183,  -0.00000,   2.00000
-525945440.74262,-402109337.13254,-19707781.01847,  -0.00382,  -0.00247,  -0.00209,478813843.43234,   0.00264,277481039.41438,  -0.00221,  -0.00166,  -0.00183,  -0.00000,   2.00000
-525989392.46353,-401997971.44194,-19763622.00319,  -0.00382,  -0.00247,  -0.00209,478818322.15012,   0.00264,277485438.02018,  -0.00221,  -0.00167,  -0.00183,  -0.00000,   2.00000
-526030690.04076,-401892080.63539,-19820208.17360,  -0.00383,  -0.00247,  -0.00209,478803794.52159,   0.00265,277489774.54998,  -0.00222,  -0.00167,  -0.00183,   0.00000,   2.00000
-526074499.61447,-401779127.67203,-19878217.88408,  -0.00383,  -0.00247,  -0.00209,478775457.37494,   0.00265,277494003.80597,  -0.00222,  -0.00167,  -0.00183,   0.00000,   2.00000
-526109582.52403,-401683475.50111,-19942980.06310,  -0.00384,  -0.00247,  -0.00209,478775340.37811,   0.00266,277498218.92125,  -0.00223,  -0.00167,  -0.00183,  -0.00000,   2.00000
-526154793.15478,-401563032.41015,-20008894.52193,  -0.00384,  -0.00248,  -0.00209,478752163.10428,   0.00266,277502344.16366,  -0.00223,  -0.00167,  -0.00183,   0.00000,   2.00000
-526189765.12792,-401465712.31841,-20075808.08845,  -0.00385,  -0.00248,  -0.00210,478732083.09042,   0.00266,277506389.93858,  -0.00223,  -0.00168,  -0.00183,  -0.00000,   2.00000
-526229716.60883,-401356103.92728,-20143200.30659,  -0.00385,  -0.00248,  -0.00210,478722479.92197,   0.00267,277510391.01657,  -0.00224,  -0.00168,  -0.00184,  -0.00000,   2.00000
-526268540.86002,-401246093.35403,-20217066.79666,  -0.00386,  -0.00248,  -0.00210,478727422.52969,   0.00267,277514395.41147,  -0.00224,  -0.00168,  -0.00184,   0.00000,   2.00000
-526302305.33325,-401146604.70039,-20292616.50566,  -0.00386,  -0.00248,  -0.00210,478693481.03439,   0.00268,277518275.13223,  -0.00225,  -0.00168,  -0.00184,   0.00000,   2.00000
-526341035.37714,-401034790.80274,-20368634.56627,  -0.00386,  -0.00248,  -0.00210,478683733.30504,   0.00268,277522110.23678,  -0.00225,  -0.00168,  -0.00184,   0.00000,   2.00000
-526377151.59605,-400928358.25379,-20445392.49415,  -0.00387,  -0.00248,  -0.00210,478668640.13723,   0.00268,277525883.26232,  -0.00226,  -0.00168,  -0.00184,  -0.00000,   2.00000
-526410668.79568,-400827285.47355,-20522895.54928,  -0.00387,  -0.00248,  -0.00211,478653479.24743,   0.00269,277529594.17140,  -0.00226,  -0.00169,  -0.00184,   0.00000,   2.00000
-526440633.07355,-400730854.48452,-20607827.75546,  -0.00388,  -0.00249,  -0.00211,478639124.00337,   0.00269,277533245.81042,  -0.00226,  -0.00169,  -0.00184,  -0.00000,   2.00000
-526476527.21264,-400622735.77752,-20686546.66000,  -0.00388,  -0.00249,  -0.00211,478628294.13779,   0.00269,277536850.00356,  -0.00227,  -0.00169,  -0.00184,   0.00000,   2.00000
-526508855.25410,-400519251.99674,-20772705.07249,  -0.00389,  -0.00249,  -0.00211,478613842.19193,   0.00270,277540394.97520,  -0.00227,  -0.00169,  -0.00184,  -0.00000,   2.00000
-526543701.63669,-400408466.42561,-20860318.07151,  -0.00389,  -0.00249,  -0.00211,478584768.00813,   0.00270,277543832.80522,  -0.00227,  -0.00169,  -0.00184,  -0.00000,   2.00000
-526575957.57221,-400302994.70692,-20948687.11960,  -0.00389,  -0.00249,  -0.00212,478569276.89527,   0.00270,277547208.53932,  -0.00228,  -0.00169,  -0.00184,  -0.00000,   2.00000
-526607063.64863,-400197018.26666,-21043507.48704,  -0.00390,  -0.00249,  -0.00212,478573641.99894,   0.00271,277550587.75578,  -0.00228,  -0.00170,  -0.00184,   0.00000,   2.00000
-526634169.05345,-400102125.02213,-21133394.18260,  -0.00390,  -0.00249,  -0.00212,478538164.52091,   0.00271,277553839.23001,  -0.00228,  -0.00170,  -0.00184,   0.00000,   2.00000
-526665220.89631,-399994044.39548,-21230453.96772,  -0.00390,  -0.00249,  -0.00212,478528738.00661,   0.00271,277557049.19086,  -0.00229,  -0.00170,  -0.00185,  -0.00000,   2.00000
-526693696.00296,-399891229.83551,-21328279.60547,  -0.00391,  -0.00249,  -0.00212,478513020.67071,   0.00272,277560197.04344,  -0.00229,  -0.00170,  -0.00185,   0.00000,   2.00000
-526719606.29805,-399793662.26547,-21426878.58453,  -0.00391,  -0.00249,  -0.00213,478497236.55393,   0.00272,277563282.75435,  -0.00229,  -0.00170,  -0.00185,  -0.00000,   2.00000
-526745368.78443,-399696253.64555,-21525245.77411,  -0.00392,  -0.00249,  -0.00213,478500424.44096,   0.00272,277566369.00305,  -0.00230,  -0.00170,  -0.00185,   0.00000,   2.00000
-526772633.14435,-399590665.85800,-21631806.31303,  -0.00392,  -0.00250,  -0.00213,478471836.95235,   0.00272,277569351.16257,  -0.00230,  -0.00170,  -0.00185,  -0.00000,   2.00000
-526801016.45456,-399483408.11131,-21734225.35856,  -0.00392,  -0.00250,  -0.00213,478422285.88079,   0.00273,277572160.51590,  -0.00230,  -0.00171,  -0.00185,   0.00000,   2.00000
-526823150.62458,-399388255.08519,-21842365.23552,  -0.00393,  -0.00250,  -0.00213,478439776.22457,   0.00273,277575018.42623,  -0.00231,  -0.00171,  -0.00185,  -0.00000,   2.00000
-526850194.68717,-399280533.34192,-21951009.06119,  -0.00393,  -0.00250,  -0.00213,478429105.93514,   0.00273,277577832.00034,  -0.00231,  -0.00171,  -0.00185,  -0.00000,   2.00000
-526872280.19694,-399183056.41611,-22061495.29640,  -0.00393,  -0.00250,  -0.00214,478393950.75333,   0.00273,277580520.69136,  -0.00231,  -0.00171,  -0.00185,   0.00000,   2.00000
-526894215.27450,-399085696.62328,-22171754.17243,  -0.00394,  -0.00250,  -0.00214,478396754.62067,   0.00274,277583209.96311,  -0.00232,  -0.00171,  -0.00185,  -0.00000,   2.00000
-526918653.85451,-398980777.33357,-22283585.34322,  -0.00394,  -0.00250,  -0.00214,478366884.35358,   0.00274,277585792.16970,  -0.00232,  -0.00171,  -0.00185,  -0.00000,   2.00000
-526940540.90407,-398881015.22818,-22396249.12874,  -0.00394,  -0.00250,  -0.00214,478350540.05966,   0.00274,277588312.21267,  -0.00232,  -0.00171,  -0.00185,   0.00000,   2.00000
-526964924.08296,-398773658.70836,-22510512.33010,  -0.00394,  -0.00250,  -0.00215,478320510.48647,   0.00274,277590725.20514,  -0.00232,  -0.00171,  -0.00185,   0.00000,   2.00000
-526980657.37795,-398683420.11546,-22631543.06864,  -0.00395,  -0.00250,  -0.00215,478318572.49544,   0.00275,277593124.04213,  -0.00233,  -0.00171,  -0.00185,   0.00000,   2.00000
-527001273.88238,-398580507.10249,-22753116.13833,  -0.00395,  -0.00250,  -0.00215,478307483.73609,   0.00275,277595478.63233,  -0.00233,  -0.00172,  -0.00185,   0.00000,   2.00000
-527023058.30515,-398475739.51244,-22870716.16436,  -0.00395,  -0.00250,  -0.00215,478257290.63520,   0.00275,277597660.21271,  -0.00233,  -0.00172,  -0.00185,   0.00000,   2.00000
-527043601.97430,-398370279.58925,-22994793.43280,  -0.00396,  -0.00250,  -0.00215,478260573.15727,   0.00275,277599845.62695,  -0.00233,  -0.00172,  -0.00185,   0.00000,   2.00000
-527061595.67317,-398269908.57462,-23119749.70035,  -0.00396,  -0.00250,  -0.00216,478243841.43886,   0.00275,277601968.86765,  -0.00234,  -0.00172,  -0.00185,  -0.00000,   2.00000
-527079428.38968,-398169599.68934,-23244500.89118,  -0.00396,  -0.00250,  -0.00216,478246099.35885,   0.00276,277604092.74523,  -0.00234,  -0.00172,  -0.00186,   0.00000,   2.00000
-527097352.02208,-398066582.04740,-23372033.13340,  -0.00396,  -0.00250,  -0.00216,478196654.35563,   0.00276,277606046.76541,  -0.00234,  -0.00172,  -0.00186,   0.85573,   1.00000
-527112730.72890,-397968616.00473,-23500478.49697,  -0.00396,  -0.00250,  -0.00216,478179691.56465,   0.00276,277607938.58075,  -0.00234,  -0.00172,  -0.00186,   0.80395,   1.00000
-527126837.87818,-397869895.25320,-23635408.71248,  -0.00397,  -0.00250,  -0.00216,478182721.45076,   0.00276,277609834.33192,  -0.00234,  -0.00172,  -0.00186,   0.80920,   1.00000
-527144515.39940,-397764189.56598,-23765383.62094,  -0.00397,  -0.00250,  -0.00217,478151120.95125,   0.00276,277611619.78476,  -0.00235,  -0.00172,  -0.00186,   0.71949,   1.00000
-527159648.61562,-397663510.28321,-23896302.88026,  -0.00397,  -0.00251,  -0.00217,478133990.52297,   0.00277,277613343.01241,  -0.00235,  -0.00172,  -0.00186,   0.67178,   1.00000
-527171112.45908,-397567037.75679,-24034850.36485,  -0.00397,  -0.00251,  -0.00217,478117812.84546,   0.00277,277615007.35107,  -0.00235,  -0.00172,  -0.00186,   0.62809,   1.00000
-527188530.16481,-397458552.09457,-24167355.48751,  -0.00398,  -0.00251,  -0.00217,478105037.83662,   0.00277,277616624.22536,  -0.00235,  -0.00173,  -0.00186,   0.59423,   1.00000
-527199885.27177,-397359230.86038,-24308653.85530,  -0.00398,  -0.00251,  -0.00217,478069708.36318,   0.00277,277618119.34800,  -0.00235,  -0.00173,  -0.00186,   0.50930,   1.00000
-527212216.33858,-397260721.66028,-24443114.16263,  -0.00398,  -0.00251,  -0.00218,478070324.87899,   0.00277,277619611.72462,  -0.00235,  -0.00173,  -0.00186,   0.50860,   1.00000
-527220855.49787,-397166362.06810,-24585245.34565,  -0.00398,  -0.00251,  -0.00218,478053939.57128,   0.00277,277621045.24678,  -0.00236,  -0.00173,  -0.00186,   0.47034,   1.00000
-527231922.02704,-397064094.96345,-24729208.43330,  -0.00398,  -0.00251,  -0.00218,478022912.53069,   0.00277,277622371.77663,  -0.00236,  -0.00173,  -0.00186,   0.40371,   1.00000
-527246573.62667,-396954734.56220,-24868353.32588,  -0.00398,  -0.00251,  -0.00218,477990735.76977,   0.00278,277623587.85568,  -0.00236,  -0.00173,  -0.00186,   0.34012,   1.00000
-527252539.23102,-396862350.97103,-25014374.03660,  -0.00399,  -0.00251,  -0.00219,477987645.92399,   0.00278,277624789.84695,  -0.00236,  -0.00173,  -0.00186,   0.33303,   1.00000
-527260918.28210,-396762002.87795,-25162281.50395,  -0.00399,  -0.00251,  -0.00219,477956401.61646,   0.00278,277625884.83598,  -0.00236,  -0.00173,  -0.00186,   0.27703,   1.00000
-527275257.68201,-396649566.84712,-25304235.47283,  -0.00399,  -0.00251,  -0.00219,477943056.04614,   0.00278,277626932.27110,  -0.00236,  -0.00173,  -0.00186,   0.25413,   1.00000
-527280899.64604,-396554086.32948,-25453085.44562,  -0.00399,  -0.00251,  -0.00219,477939807.63297,   0.00278,277627965.63571,  -0.00236,  -0.00173,  -0.00186,   0.24791,   1.00000
-527288937.07981,-396450591.89303,-25603872.68173,  -0.00399,  -0.00251,  -0.00219,477908410.57604,   0.00278,277628892.00014,  -0.00236,  -0.00173,  -0.00186,   0.19971,   1.00000
-527299356.14364,-396339062.69415,-25756619.28599,  -0.00399,  -0.00251,  -0.00220,477876917.45045,   0.00278,277629711.38223,  -0.00237,  -0.00173,  -0.00186,   0.15664,   1.00000
-527303494.81614,-396246180.34675,-25902949.36095,  -0.00399,  -0.00251,  -0.00220,477871269.48052,   0.00278,277630509.48911,  -0.00237,  -0.00173,  -0.00186,   0.14895,   1.00000
-527313727.92233,-396131439.05965,-26058817.21087,  -0.00399,  -0.00251,  -0.00220,477827228.05565,   0.00278,277631159.53389,  -0.00237,  -0.00173,  -0.00186,   0.09906,   1.00000
-527316462.45796,-396034467.76098,-26214957.82978,  -0.00400,  -0.00251,  -0.00220,477822505.07690,   0.00278,277631791.90151,  -0.00237,  -0.00173,  -0.00186,   0.09397,   1.00000
-527323924.55005,-395924464.13007,-26371893.71507,  -0.00400,  -0.00251,  -0.00220,477809807.35588,   0.00278,277632380.29425,  -0.00237,  -0.00173,  -0.00186,   0.08156,   1.00000
-527327700.72130,-395825081.17742,-26524583.50762,  -0.00400,  -0.00250,  -0.00221,477771314.53366,   0.00278,277632839.56947,  -0.00237,  -0.00173,  -0.00186,   0.04981,   1.00000
-527330032.17753,-395724709.89594,-26683874.79437,  -0.00400,  -0.00250,  -0.00221,477773074.16718,   0.00278,277633303.20366,  -0.00237,  -0.00173,  -0.00186,   0.05088,   1.00000
-527334703.99555,-395616174.22554,-26845259.09462,  -0.00400,  -0.00250,  -0.00221,477741153.96827,   0.00279,277633659.82162,  -0.00237,  -0.00173,  -0.00186,   0.03018,   1.00000
-527338071.38691,-395513320.48450,-27001196.77061,  -0.00400,  -0.00250,  -0.00221,477721485.59489,   0.00279,277633950.26378,  -0.00237,  -0.00173,  -0.00186,   0.02006,   1.00000
-527337597.60181,-395414343.72066,-27165031.97022,  -0.00400,  -0.00250,  -0.00222,477704030.09521,   0.00279,277634182.05059,  -0.00237,  -0.00173,  -0.00186,   0.01281,   1.00000
-527343095.36565,-395303160.02450,-27323074.01171,  -0.00400,  -0.00250,  -0.00222,477689812.14775,   0.00279,277634366.07164,  -0.00237,  -0.00173,  -0.00186,   0.00809,   1.00000
-527342361.74830,-395200709.26185,-27490334.40418,  -0.00400,  -0.00250,  -0.00222,477653196.52813,   0.00279,277634428.37035,  -0.00237,  -0.00173,  -0.00186,   0.00093,   1.00000
-527347596.19136,-395086027.49518,-27651832.82448,  -0.00400,  -0.00250,  -0.00222,477638811.09484,   0.00279,277634442.87233,  -0.00237,  -0.00173,  -0.00186,   0.00005,   1.00000
-527310517.51885,-394954566.74717,-27813630.66819,  -0.00400,  -0.00250,  -0.00222,477600867.71843,   0.00279,277634442.87233,  -0.00237,  -0.00173,  -0.00186,-33575.15391,   0.00000
-527273438.84633,-394823105.99915,-27975428.51190,  -0.00400,  -0.00250,  -0.00223,477567483.51282,   0.00279,277634442.87233,  -0.00237,  -0.00173,  -0.00186,-66959.35952,   0.00000
-527212764.65494,-394681532.88591,-28137226.35560,  -0.00400,  -0.00250,  -0.00223,477515214.44474,   0.00279,277634442.87233,  -0.00237,  -0.00173,  -0.00186,-119228.42759,   0.00000
-527118382.57945,-394506251.88856,-28299024.19931,  -0.00400,  -0.00250,  -0.00223,477430601.16760,   0.00279,277634442.87233,  -0.00237,  -0.00173,  -0.00186,-203841.70474,   0.00000
-527000404.98508,-394320858.52598,-28460822.04302,  -0.00400,  -0.00250,  -0.00223,477327109.39139,   0.00279,277634442.87233,  -0.00237,  -0.00173,  -0.00186,-307333.48094,   0.00000
-526848719.50660,-394101757.27930,-28622619.88672,  -0.00400,  -0.00250,  -0.00223,477191287.91923,   0.00279,277634442.87233,  -0.00237,  -0.00173,  -0.00186,-443154.95310,   0.00000
-526697034.02813,-393882656.03261,-28784417.73043,  -0.00400,  -0.00250,  -0.00224,477055671.59617,   0.00279,277634442.87233,  -0.00237,  -0.00173,  -0.00186,-578771.27616,   0.00000
-526498157.51190,-393643330.05546,-28946215.57414,  -0.00400,  -0.00250,  -0.00224,476882106.35096,   0.00279,277634442.87233,  -0.00237,  -0.00173,  -0.00186,-752336.52138,   0.00000
-526289168.63045,-393380408.55944,-29101271.84102,  -0.00400,  -0.00250,  -0.00224,476694072.49111,   0.00279,277634442.87233,  -0.00237,  -0.00173,  -0.00186,-940370.38122,   0.00000
-526032988.71125,-393097262.33295,-29256328.10791,  -0.00400,  -0.00250,  -0.00224,476468082.15242,   0.00279,277634442.87233,  -0.00237,  -0.00173,  -0.00186,-1166360.71991,   0.00000
-525776808.79205,-392814116.10646,-29418125.95161,  -0.00400,  -0.00249,  -0.00225,476243539.02666,   0.00279,277634442.87233,  -0.00237,  -0.00173,  -0.00186,-1390903.84567,   0.00000
-525486920.98874,-392497261.99587,-29573182.21850,  -0.00400,  -0.00249,  -0.00225,475985447.69913,   0.00279,277634442.87233,  -0.00237,  -0.00173,  -0.00186,-1648995.17320,   0.00000
-525173437.66656,-392170295.52005,-29728238.48539,  -0.00400,  -0.00249,  -0.00225,475708484.85196,   0.00279,277634442.87233,  -0.00237,  -0.00173,  -0.00186,-1925958.02037,   0.00000
-524836358.82550,-391833216.67899,-29876553.17545,  -0.00399,  -0.00249,  -0.00225,475411379.56350,   0.00279,277634442.87233,  -0.00237,  -0.00173,  -0.00186,-2223063.30884,   0.00000
-524465572.10034,-391462429.95383,-30031609.44234,  -0.00399,  -0.00249,  -0.00225,475083251.44069,   0.00279,277634442.87233,  -0.00237,  -0.00173,  -0.00186,-2551191.43164,   0.00000
-524071189.85630,-391081530.86344,-30186665.70922,  -0.00399,  -0.00249,  -0.00226,474736260.43245,   0.00279,277634442.87233,  -0.00237,  -0.00173,  -0.00186,-2898182.43988,   0.00000
-523676807.61227,-390700631.77305,-30334980.39929,  -0.00399,  -0.00249,  -0.00226,474388191.28147,   0.00279,277634442.87233,  -0.00237,  -0.00173,  -0.00186,-3246251.59086,   0.00000
-523225121.96526,-390275912.43332,-30483295.08935,  -0.00399,  -0.00249,  -0.00226,473988763.61862,   0.00279,277634442.87233,  -0.00237,  -0.00173,  -0.00186,-3645679.25372,   0.00000
-522773436.31824,-389851193.09359,-30631609.77941,  -0.00399,  -0.00249,  -0.00226,473589545.03157,   0.00279,277634442.87233,  -0.00237,  -0.00173,  -0.00186,-4044897.84076,   0.00000
-522264447.26825,-389382653.50452,-30779924.46948,  -0.00399,  -0.00249,  -0.00226,473138984.52071,   0.00279,277634442.87233,  -0.00237,  -0.00173,  -0.00186,-4495458.35163,   0.00000
-521755458.21825,-388914113.91545,-30921497.58272,  -0.00399,  -0.00248,  -0.00226,472687318.96250,   0.00279,277634442.87233,  -0.00237,  -0.00173,  -0.00186,-4947123.90984,   0.00000
-521222873.64939,-388435461.96115,-31069812.27279,  -0.00398,  -0.00248,  -0.00227,472218110.74712,   0.00279,277634442.87233,  -0.00237,  -0.00173,  -0.00186,-5416332.12522,   0.00000
-520656581.19641,-387923102.12275,-31211385.38603,  -0.00398,  -0.00248,  -0.00227,471715321.26748,   0.00279,277634442.87233,  -0.00237,  -0.00173,  -0.00186,-5919121.60485,   0.00000
-520066693.22456,-387400629.91911,-31352958.49927,  -0.00398,  -0.00248,  -0.00227,471193668.17486,   0.00279,277634442.87233,  -0.00237,  -0.00173,  -0.00186,-6440774.69747,   0.00000
-519453209.73384,-386868045.35024,-31494531.61252,  -0.00398,  -0.00248,  -0.00227,470653152.84161,   0.00279,277634442.87233,  -0.00237,  -0.00173,  -0.00186,-6981290.03073,   0.00000
-518816130.72425,-386325348.41614,-31629363.14894,  -0.00398,  -0.00248,  -0.00227,470092416.12921,   0.00279,277634442.87233,  -0.00237,  -0.00173,  -0.00186,-7542026.74313,   0.00000
-518168939.34942,-385759055.96317,-31770936.26218,  -0.00398,  -0.00248,  -0.00228,469519877.38983,   0.00279,277634442.87233,  -0.00237,  -0.00173,  -0.00186,-8114565.48251,   0.00000
-517464444.57162,-385148943.26086,-31905767.79860,  -0.00397,  -0.00248,  -0.00228,468894668.28425,   0.00279,277634442.87233,  -0.00237,  -0.00173,  -0.00186,-8739774.58808,   0.00000
-516759949.79381,-384538830.55855,-32040599.33503,  -0.00397,  -0.00247,  -0.00228,468269677.81640,   0.00279,277634442.87233,  -0.00237,  -0.00173,  -0.00186,-9364765.05593,   0.00000
-516008263.97826,-383908493.12578,-32168689.29463,  -0.00397,  -0.00247,  -0.00228,467605365.91919,   0.00279,277634442.87233,  -0.00237,  -0.00173,  -0.00186,-10029076.95314,   0.00000
-515256578.16270,-383278155.69300,-32303520.83105,  -0.00397,  -0.00247,  -0.00228,466942659.60471,   0.00279,277634442.87233,  -0.00237,  -0.00173,  -0.00186,-10691783.26762,   0.00000
-514471184.46304,-382614110.37612,-32431610.79065,  -0.00397,  -0.00247,  -0.00228,466246341.19709,   0.00279,277634442.87233,  -0.00237,  -0.00173,  -0.00186,-11388101.67525,   0.00000
-513662195.24451,-381939952.69401,-32559700.75025,  -0.00396,  -0.00247,  -0.00229,465531165.52360,   0.00279,277634442.87233,  -0.00237,  -0.00173,  -0.00186,-12103277.34873,   0.00000
-512829610.50710,-381255682.64667,-32681049.13303,  -0.00396,  -0.00247,  -0.00229,464795712.80858,   0.00279,277634442.87233,  -0.00237,  -0.00173,  -0.00186,-12838730.06375,   0.00000
-511963317.88559,-380537704.71522,-32809139.09263,  -0.00396,  -0.00247,  -0.00229,464029478.05908,   0.00279,277634442.87233,  -0.00237,  -0.00173,  -0.00186,-13604964.81326,   0.00000
-511073429.74520,-379809614.41854,-32930487.47541,  -0.00396,  -0.00246,  -0.00229,463242962.73263,   0.00279,277634442.87233,  -0.00237,  -0.00173,  -0.00186,-14391480.13970,   0.00000
-510149833.72071,-379047816.23776,-33045094.28137,  -0.00395,  -0.00246,  -0.00229,462422808.89051,   0.00279,277634442.87233,  -0.00237,  -0.00173,  -0.00186,-15211633.98183,   0.00000
-509202642.17734,-378275905.69174,-33166442.66415,  -0.00395,  -0.00246,  -0.00229,461585246.44319,   0.00279,277634442.87233,  -0.00237,  -0.00173,  -0.00186,-16049196.42915,   0.00000
-508255450.63398,-377503995.14572,-33281049.47011,  -0.00395,  -0.00246,  -0.00230,460746449.84276,   0.00279,277634442.87233,  -0.00237,  -0.00173,  -0.00186,-16887993.02957,   0.00000
-507250955.68763,-376688264.35037,-33395656.27607,  -0.00394,  -0.00246,  -0.00230,459856399.35919,   0.00279,277634442.87233,  -0.00237,  -0.00173,  -0.00186,-17778043.51314,   0.00000
-506246460.74129,-375872533.55501,-33503521.50521,  -0.00394,  -0.00246,  -0.00230,458965095.13449,   0.00279,277634442.87233,  -0.00237,  -0.00173,  -0.00186,-18669347.73785,   0.00000
-505194774.75719,-375036578.02919,-33611386.73435,  -0.00394,  -0.00245,  -0.00230,458035862.88987,   0.00279,277634442.87233,  -0.00237,  -0.00173,  -0.00186,-19598579.98246,   0.00000
-504132976.40787,-374177026.98450,-33719251.96348,  -0.00393,  -0.00245,  -0.00230,457093525.40438,   0.00279,277634442.87233,  -0.00237,  -0.00173,  -0.00186,-20540917.46795,   0.00000
-503047582.53967,-373307363.57458,-33827117.19262,  -0.00393,  -0.00245,  -0.00230,456132341.30047,   0.00279,277634442.87233,  -0.00237,  -0.00173,  -0.00186,-21502101.57186,   0.00000
-501914997.63372,-372417475.43419,-33928240.84494,  -0.00393,  -0.00245,  -0.00230,455131740.41988,   0.00279,277634442.87233,  -0.00237,  -0.00173,  -0.00186,-22502702.45246,   0.00000
-500772300.36255,-371503991.77493,-34029364.49725,  -0.00392,  -0.00245,  -0.00231,454118043.13897,   0.00279,277634442.87233,  -0.00237,  -0.00173,  -0.00186,-23516399.73337,   0.00000
-499606007.57249,-370580395.75044,-34123746.57275,  -0.00392,  -0.00244,  -0.00231,453083977.59362,   0.00279,277634442.87233,  -0.00237,  -0.00173,  -0.00186,-24550465.27872,   0.00000
-498416119.26357,-369646687.36072,-34218128.64825,  -0.00392,  -0.00244,  -0.00231,452031055.33814,   0.00279,277634442.87233,  -0.00237,  -0.00173,  -0.00186,-25603387.53420,   0.00000
-497216118.58941,-368689383.45212,-34312510.72374,  -0.00391,  -0.00244,  -0.00231,450965044.12952,   0.00279,277634442.87233,  -0.00237,  -0.00173,  -0.00186,-26669398.74282,   0.00000
-495968926.87751,-367711854.81306,-34400151.22242,  -0.00391,  -0.00244,  -0.00231,449859580.06770,   0.00279,277634442.87233,  -0.00237,  -0.00173,  -0.00186,-27774862.80463,   0.00000
-494688027.28149,-366700618.28989,-34487791.72109,  -0.00391,  -0.00244,  -0.00231,448721969.21758,   0.00279,277634442.87233,  -0.00237,  -0.00173,  -0.00186,-28912473.65475,   0.00000
-493417240.05071,-365712977.28560,-34575432.21976,  -0.00390,  -0.00243,  -0.00231,447597864.35027,   0.00279,277634442.87233,  -0.00237,  -0.00173,  -0.00186,-30036578.52206,   0.00000
-492079037.05172,-364657920.51309,-34656331.14162,  -0.00390,  -0.00243,  -0.00231,446407709.59282,   0.00279,277634442.87233,  -0.00237,  -0.00173,  -0.00186,-31226733.27951,   0.00000
-490750946.41797,-363626459.25946,-34737230.06347,  -0.00389,  -0.00243,  -0.00231,445231052.05832,   0.00279,277634442.87233,  -0.00237,  -0.00173,  -0.00186,-32403390.81402,   0.00000
-489365552.38123,-362551177.75650,-34811387.40850,  -0.00389,  -0.00243,  -0.00232,444001622.81308,   0.00279,277634442.87233,  -0.00237,  -0.00173,  -0.00186,-33632820.05925,   0.00000
-487980158.34449,-361475896.25353,-34885544.75354,  -0.00389,  -0.00243,  -0.00232,442772398.77497,   0.00279,277634442.87233,  -0.00237,  -0.00173,  -0.00186,-34862044.09736,   0.00000
-486561056.42365,-360366906.86646,-34959702.09857,  -0.00388,  -0.00242,  -0.00232,441511051.50380,   0.00279,277634442.87233,  -0.00237,  -0.00173,  -0.00186,-36123391.36854,   0.00000
-485118358.98393,-359247805.11415,-35027117.86678,  -0.00388,  -0.00242,  -0.00232,440229257.29124,   0.00279,277634442.87233,  -0.00237,  -0.00173,  -0.00186,-37405185.58109,   0.00000
-483652066.02534,-358118590.99662,-35094533.63499,  -0.00387,  -0.00242,  -0.00232,438928614.51898,   0.00279,277634442.87233,  -0.00237,  -0.00173,  -0.00186,-38705828.35335,   0.00000
-482162177.54787,-356979264.51385,-35155207.82638,  -0.00387,  -0.00242,  -0.00232,437607503.52921,   0.00279,277634442.87233,  -0.00237,  -0.00173,  -0.00186,-40026939.34313,   0.00000
-480638581.18630,-355806230.14698,-35215882.01777,  -0.00386,  -0.00241,  -0.00232,436254275.09649,   0.00279,277634442.87233,  -0.00237,  -0.00173,  -0.00186,-41380167.77585,   0.00000
-479091389.30585,-354623083.41487,-35269814.63234,  -0.00386,  -0.00241,  -0.00232,434880563.32415,   0.00279,277634442.87233,  -0.00237,  -0.00173,  -0.00186,-42753879.54819,   0.00000
-477510489.54130,-353406228.79866,-35323747.24691,  -0.00385,  -0.00241,  -0.00232,433474739.99503,   0.00279,277634442.87233,  -0.00237,  -0.00173,  -0.00186,-44159702.87730,   0.00000
-475905994.25788,-352179261.81722,-35377679.86148,  -0.00385,  -0.00241,  -0.00232,432050074.37763,   0.00279,277634442.87233,  -0.00237,  -0.00173,  -0.00186,-45584368.49470,   0.00000
-474301498.97446,-350952294.83578,-35424870.89922,  -0.00384,  -0.00240,  -0.00232,430623954.40275,   0.00279,277634442.87233,  -0.00237,  -0.00173,  -0.00186,-47010488.46959,   0.00000
-472639700.28805,-349681507.60500,-35465320.36015,  -0.00384,  -0.00240,  -0.00232,429145018.54656,   0.00279,277634442.87233,  -0.00237,  -0.00173,  -0.00186,-48489424.32577,   0.00000
-470977901.60165,-348410720.37422,-35505769.82108,  -0.00383,  -0.00240,  -0.00232,427666275.22306,   0.00279,277634442.87233,  -0.00237,  -0.00173,  -0.00186,-49968167.64927,   0.00000
-469268911.87750,-347119708.41298,-35546219.28200,  -0.00383,  -0.00240,  -0.00232,426149641.41829,   0.00279,277634442.87233,  -0.00237,  -0.00173,  -0.00186,-51484801.45404,   0.00000
-467549809.78811,-345805100.93286,-35579927.16611,  -0.00382,  -0.00239,  -0.00233,424618272.04044,   0.00279,277634442.87233,  -0.00237,  -0.00173,  -0.00186,-53016170.83190,   0.00000
-465807112.17986,-344480381.08751,-35606893.47339,  -0.00382,  -0.00239,  -0.00233,423066353.87729,   0.00279,277634442.87233,  -0.00237,  -0.00173,  -0.00186,-54568088.99505,   0.00000
-464040819.05273,-343145548.87693,-35633859.78068,  -0.00381,  -0.00239,  -0.00233,421495579.80438,   0.00279,277634442.87233,  -0.00237,  -0.00173,  -0.00186,-56138863.06795,   0.00000
-462250930.40672,-341800604.30112,-35660826.08796,  -0.00381,  -0.00239,  -0.00233,419905956.09320,   0.00279,277634442.87233,  -0.00237,  -0.00173,  -0.00186,-57728486.77913,   0.00000
-460427333.87661,-340421951.84120,-35681050.81843,  -0.00380,  -0.00238,  -0.00233,418282530.78428,   0.00279,277634442.87233,  -0.00237,  -0.00173,  -0.00186,-59351912.08805,   0.00000
-458570029.46239,-339009591.49718,-35694533.97207,  -0.00380,  -0.00238,  -0.00233,416625294.42387,   0.00279,277634442.87233,  -0.00237,  -0.00173,  -0.00186,-61009148.44846,   0.00000
-456699241.89454,-337610714.30680,-35708017.12571,  -0.00379,  -0.00238,  -0.00233,414962434.61734,   0.00279,277634442.87233,  -0.00237,  -0.00173,  -0.00186,-62672008.25499,   0.00000
-454794746.44257,-336178129.23231,-35721500.27935,  -0.00378,  -0.00238,  -0.00233,413267498.92627,   0.00279,277634442.87233,  -0.00237,  -0.00173,  -0.00186,-64366943.94606,   0.00000
-452890250.99061,-334745544.15783,-35721500.27935,  -0.00378,  -0.00237,  -0.00233,411569243.27609,   0.00279,277634442.87233,  -0.00237,  -0.00173,  -0.00186,-66065199.59624,   0.00000
-450928452.13567,-333269138.83400,-35728241.85617,  -0.00377,  -0.00237,  -0.00233,409821635.25615,   0.00279,277634442.87233,  -0.00237,  -0.00173,  -0.00186,-67812807.61619,   0.00000
-448966653.28072,-331792733.51018,-35728241.85617,  -0.00377,  -0.00237,  -0.00233,408072447.51358,   0.00279,277634442.87233,  -0.00237,  -0.00173,  -0.00186,-69561995.35876,   0.00000
-446957663.38803,-330296103.45589,-35721500.27935,  -0.00376,  -0.00236,  -0.00233,406283608.99652,   0.00279,277634442.87233,  -0.00237,  -0.00173,  -0.00186,-71350833.87581,   0.00000
-444948673.49534,-328799473.40161,-35708017.12571,  -0.00375,  -0.00236,  -0.00233,404493156.52997,   0.00279,277634442.87233,  -0.00237,  -0.00173,  -0.00186,-73141286.34237,   0.00000
-442905975.71854,-327269135.46322,-35694533.97207,  -0.00375,  -0.00236,  -0.00233,402670627.00871,   0.00279,277634442.87233,  -0.00237,  -0.00173,  -0.00186,-74963815.86363,   0.00000
-440839682.42287,-325728685.15959,-35681050.81843,  -0.00374,  -0.00236,  -0.00233,400829245.40912,   0.00279,277634442.87233,  -0.00237,  -0.00173,  -0.00186,-76805197.46322,   0.00000
-438739681.24310,-324154526.97186,-35660826.08796,  -0.00373,  -0.00235,  -0.00233,398954001.06821,   0.00279,277634442.87233,  -0.00237,  -0.00173,  -0.00186,-78680441.80412,   0.00000
-436626196.90968,-322593851.93778,-35633859.78068,  -0.00373,  -0.00235,  -0.00233,397071301.28786,   0.00279,277634442.87233,  -0.00237,  -0.00173,  -0.00186,-80563141.58447,   0.00000
-434479004.69216,-320999469.01958,-35606893.47339,  -0.00372,  -0.00235,  -0.00233,395156535.32654,   0.00279,277634442.87233,  -0.00237,  -0.00173,  -0.00186,-82477907.54579,   0.00000
-432298104.59053,-319371378.21728,-35573185.58929,  -0.00371,  -0.00234,  -0.00233,393207885.97392,   0.00279,277634442.87233,  -0.00237,  -0.00173,  -0.00186,-84426556.89841,   0.00000
-430127316.85413,-317766882.93386,-35532736.12836,  -0.00371,  -0.00234,  -0.00232,391270762.85163,   0.00279,277634442.87233,  -0.00237,  -0.00173,  -0.00186,-86363680.02070,   0.00000
-427899225.71475,-316118567.40110,-35492286.66744,  -0.00370,  -0.00234,  -0.00232,389282561.94784,   0.00279,277634442.87233,  -0.00237,  -0.00173,  -0.00186,-88351880.92450,   0.00000
-425637426.69127,-314436543.98423,-35445095.62969,  -0.00369,  -0.00233,  -0.00232,387260457.78850,   0.00279,277634442.87233,  -0.00237,  -0.00173,  -0.00186,-90373985.08383,   0.00000
-423385740.03302,-312778116.08624,-35397904.59194,  -0.00369,  -0.00233,  -0.00232,385251704.17398,   0.00279,277634442.87233,  -0.00237,  -0.00173,  -0.00186,-92382738.69835,   0.00000
-421100345.49066,-311085980.30414,-35343971.97737,  -0.00368,  -0.00233,  -0.00232,383209033.55242,   0.00279,277634442.87233,  -0.00237,  -0.00173,  -0.00186,-94425409.31991,   0.00000
-418791355.42943,-309383732.15681,-35283297.78598,  -0.00367,  -0.00232,  -0.00232,381145633.42100,   0.00279,277634442.87233,  -0.00237,  -0.00173,  -0.00186,-96488809.45134,   0.00000
-416425061.96522,-307637663.76014,-35222623.59459,  -0.00367,  -0.00232,  -0.00232,379031173.96995,   0.00279,277634442.87233,  -0.00237,  -0.00173,  -0.00186,-98603268.90238,   0.00000
-414068880.86624,-305915190.88235,-35148466.24956,  -0.00366,  -0.00232,  -0.00232,376926286.46044,   0.00279,277634442.87233,  -0.00237,  -0.00173,  -0.00186,-100708156.41189,   0.00000
-411702587.40203,-304169122.48568,-35081050.48135,  -0.00365,  -0.00231,  -0.00232,374810220.13907,   0.00279,277634442.87233,  -0.00237,  -0.00173,  -0.00186,-102824222.73326,   0.00000
-409278990.53484,-302379233.83968,-35000151.55949,  -0.00364,  -0.00231,  -0.00232,372639312.73237,   0.00279,277634442.87233,  -0.00237,  -0.00173,  -0.00186,-104995130.13997,   0.00000
-406841910.51401,-300602828.34731,-34919252.63764,  -0.00364,  -0.00231,  -0.00232,370462729.81863,   0.00279,277634442.87233,  -0.00237,  -0.00173,  -0.00186,-107171713.05370,   0.00000
-404371122.60908,-298792714.97084,-34838353.71579,  -0.00363,  -0.00230,  -0.00232,368254094.89709,   0.00279,277634442.87233,  -0.00237,  -0.00173,  -0.00186,-109380347.97524,   0.00000
-401900334.70414,-296982601.59438,-34743971.64029,  -0.00362,  -0.00230,  -0.00231,366041757.72581,   0.00279,277634442.87233,  -0.00237,  -0.00173,  -0.00186,-111592685.14652,   0.00000
-399395838.91510,-295138780.33380,-34649589.56480,  -0.00361,  -0.00230,  -0.00231,363797357.33351,   0.00279,277634442.87233,  -0.00237,  -0.00173,  -0.00186,-113837085.53882,   0.00000
-396844152.08831,-293274734.34277,-34548465.91248,  -0.00360,  -0.00229,  -0.00231,361513176.88577,   0.00279,277634442.87233,  -0.00237,  -0.00173,  -0.00186,-116121265.98656,   0.00000
-394292465.26152,-291410688.35173,-34447342.26016,  -0.00360,  -0.00229,  -0.00231,359229114.77251,   0.00279,277634442.87233,  -0.00237,  -0.00173,  -0.00186,-118405328.09983,   0.00000
-391717182.91585,-289536529.99546,-34339477.03103,  -0.00359,  -0.00229,  -0.00231,356924247.93026,   0.00279,277634442.87233,  -0.00237,  -0.00173,  -0.00186,-120710194.94207,   0.00000
-389118305.05131,-287652259.27396,-34224870.22507,  -0.00358,  -0.00228,  -0.00231,354598566.33146,   0.00279,277634442.87233,  -0.00237,  -0.00173,  -0.00186,-123035876.54088,   0.00000
-386485719.30267,-285734280.66835,-34103521.84229,  -0.00357,  -0.00228,  -0.00231,352238870.63549,   0.00279,277634442.87233,  -0.00237,  -0.00173,  -0.00186,-125395572.23684,   0.00000
-383853133.55403,-283816302.06275,-33982173.45951,  -0.00356,  -0.00228,  -0.00230,349879277.60073,   0.00279,277634442.87233,  -0.00237,  -0.00173,  -0.00186,-127755165.27160,   0.00000
-381163244.40240,-281854503.20780,-33854083.49991,  -0.00356,  -0.00227,  -0.00230,347466688.87625,   0.00279,277634442.87233,  -0.00237,  -0.00173,  -0.00186,-130167753.99608,   0.00000
-378483467.61601,-279916299.87173,-33719251.96348,  -0.00355,  -0.00227,  -0.00230,345065417.32512,   0.00279,277634442.87233,  -0.00237,  -0.00173,  -0.00186,-132569025.54722,   0.00000
-375746387.42664,-277934276.28633,-33577678.85024,  -0.00354,  -0.00226,  -0.00230,342611136.55756,   0.00279,277634442.87233,  -0.00237,  -0.00173,  -0.00186,-135023306.31478,   0.00000
-373009307.23727,-275952252.70092,-33436105.73700,  -0.00353,  -0.00226,  -0.00230,340156948.99028,   0.00279,277634442.87233,  -0.00237,  -0.00173,  -0.00186,-137477493.88206,   0.00000
-370238519.16379,-273936521.23141,-33287791.04693,  -0.00352,  -0.00226,  -0.00230,337668710.23197,   0.00279,277634442.87233,  -0.00237,  -0.00173,  -0.00186,-139965732.64037,   0.00000
-367454247.93667,-271934272.91554,-33132734.78005,  -0.00351,  -0.00225,  -0.00229,335172796.79658,   0.00279,277634442.87233,  -0.00237,  -0.00173,  -0.00186,-142461646.07576,   0.00000
-364636268.82545,-269898316.71556,-32977678.51316,  -0.00350,  -0.00225,  -0.00229,332644820.46134,   0.00279,277634442.87233,  -0.00237,  -0.00173,  -0.00186,-144989622.41099,   0.00000
-361818289.71423,-267862360.51559,-32809139.09263,  -0.00349,  -0.00225,  -0.00229,330112914.94903,   0.00279,277634442.87233,  -0.00237,  -0.00173,  -0.00186,-147521527.92331,   0.00000
-358943007.20002,-265782584.06628,-32640599.67211,  -0.00349,  -0.00224,  -0.00229,327529984.37619,   0.00279,277634442.87233,  -0.00237,  -0.00173,  -0.00186,-150104458.49615,   0.00000
-356077837.05105,-263726403.13584,-32465318.67476,  -0.00348,  -0.00224,  -0.00228,324958313.16958,   0.00279,277634442.87233,  -0.00237,  -0.00173,  -0.00186,-152676129.70275,   0.00000
-353155363.49910,-261626401.95606,-32290037.67741,  -0.00347,  -0.00223,  -0.00228,322335628.63036,   0.00279,277634442.87233,  -0.00237,  -0.00173,  -0.00186,-155298814.24198,   0.00000
-350232889.94715,-259526400.77629,-32101273.52642,  -0.00346,  -0.00223,  -0.00228,319708967.38318,   0.00279,277634442.87233,  -0.00237,  -0.00173,  -0.00186,-157925475.48916,   0.00000
-347276708.51109,-257392691.71240,-31912509.37543,  -0.00345,  -0.00223,  -0.00228,317050229.47866,   0.00279,277634442.87233,  -0.00237,  -0.00173,  -0.00186,-160584213.39368,   0.00000
-344307043.92139,-255272465.80217,-31717003.64761,  -0.00344,  -0.00222,  -0.00227,314383792.77069,   0.00279,277634442.87233,  -0.00237,  -0.00173,  -0.00186,-163250650.10164,   0.00000
-341303671.44759,-253118532.00782,-31514756.34298,  -0.00343,  -0.00222,  -0.00227,311683240.97676,   0.00279,277634442.87233,  -0.00237,  -0.00173,  -0.00186,-165951201.89558,   0.00000
-338300298.97378,-250964598.21348,-31305767.46153,  -0.00342,  -0.00222,  -0.00227,308980705.64974,   0.00279,277634442.87233,  -0.00237,  -0.00173,  -0.00186,-168653737.22259,   0.00000
-335249735.46223,-248790439.68867,-31096778.58007,  -0.00341,  -0.00221,  -0.00227,306240375.89938,   0.00279,277634442.87233,  -0.00237,  -0.00173,  -0.00186,-171394066.97296,   0.00000
-332189059.58544,-246592685.64499,-30874306.54497,  -0.00340,  -0.00221,  -0.00226,303482783.68090,   0.00279,277634442.87233,  -0.00237,  -0.00173,  -0.00186,-174151659.19143,   0.00000
-329104788.18979,-244384819.23607,-30651834.50988,  -0.00339,  -0.00220,  -0.00226,300706322.16079,   0.00279,277634442.87233,  -0.00237,  -0.00173,  -0.00186,-176928120.71155,   0.00000
-326007033.64049,-242190435.98080,-30422620.89796,  -0.00338,  -0.00220,  -0.00226,297922163.05664,   0.00279,277634442.87233,  -0.00237,  -0.00173,  -0.00186,-179712279.81570,   0.00000
-322875571.20708,-239962344.84142,-30193407.28604,  -0.00337,  -0.00220,  -0.00226,295105926.39906,   0.00279,277634442.87233,  -0.00237,  -0.00173,  -0.00186,-182528516.47327,   0.00000
-319733996.40844,-237710658.18317,-29950710.52048,  -0.00336,  -0.00219,  -0.00225,292272376.26134,   0.00279,277634442.87233,  -0.00237,  -0.00173,  -0.00186,-185362066.61100,   0.00000
-316555342.93729,-235462342.31333,-29701272.17810,  -0.00335,  -0.00219,  -0.00225,289412221.54049,   0.00279,277634442.87233,  -0.00237,  -0.00173,  -0.00186,-188222221.33184,   0.00000
-313366577.10090,-233190430.92462,-29451833.83572,  -0.00334,  -0.00218,  -0.00225,286538885.87079,   0.00279,277634442.87233,  -0.00237,  -0.00173,  -0.00186,-191095557.00154,   0.00000
-310154215.74564,-230908407.17067,-29195653.91652,  -0.00333,  -0.00218,  -0.00224,283644624.01857,   0.00279,277634442.87233,  -0.00237,  -0.00173,  -0.00186,-193989818.85376,   0.00000
-306918258.87151,-228616271.05149,-28932732.42049,  -0.00332,  -0.00217,  -0.00224,280729439.44898,   0.00279,277634442.87233,  -0.00237,  -0.00173,  -0.00186,-196905003.42336,   0.00000
-303658706.47850,-226314022.56708,-28663069.34765,  -0.00331,  -0.00217,  -0.00224,277793337.05708,   0.00279,277634442.87233,  -0.00237,  -0.00173,  -0.00186,-199841105.81525,   0.00000
-300389041.72027,-223988178.56380,-28386664.69798,  -0.00330,  -0.00217,  -0.00223,274841944.40538,   0.00279,277634442.87233,  -0.00237,  -0.00173,  -0.00186,-202792498.46696,   0.00000
-297082298.28951,-221665705.34893,-28103518.47150,  -0.00329,  -0.00216,  -0.00223,271864015.52840,   0.00279,277634442.87233,  -0.00237,  -0.00173,  -0.00186,-205770427.34394,   0.00000
-293765442.49353,-219319636.61518,-27820372.24501,  -0.00328,  -0.00216,  -0.00222,268872883.43417,   0.00279,277634442.87233,  -0.00237,  -0.00173,  -0.00186,-208761559.43816,   0.00000
-290424991.17866,-216963455.51620,-27530484.44170,  -0.00327,  -0.00215,  -0.00222,265860846.30321,   0.00279,277634442.87233,  -0.00237,  -0.00173,  -0.00186,-211773596.56913,   0.00000
-287050831.97970,-214573566.53312,-27227113.48475,  -0.00326,  -0.00215,  -0.00222,262812522.39369,   0.00279,277634442.87233,  -0.00237,  -0.00173,  -0.00186,-214821920.47865,   0.00000
-283663189.62709,-212197160.70368,-26923742.52780,  -0.00325,  -0.00215,  -0.00221,259758696.60169,   0.00279,277634442.87233,  -0.00237,  -0.00173,  -0.00186,-217875746.27064,   0.00000
-280275547.27448,-209820754.87424,-26613629.99403,  -0.00324,  -0.00214,  -0.00221,256702864.37526,   0.00279,277634442.87233,  -0.00237,  -0.00173,  -0.00186,-220931578.49708,   0.00000
-276854197.03777,-207410641.16069,-26296775.88344,  -0.00323,  -0.00214,  -0.00220,253612845.16774,   0.00279,277634442.87233,  -0.00237,  -0.00173,  -0.00186,-224021597.70459,   0.00000
-273409251.28218,-204990415.08191,-25973180.19603,  -0.00322,  -0.00213,  -0.00220,250501958.72099,   0.00279,277634442.87233,  -0.00237,  -0.00173,  -0.00186,-227132484.15134,   0.00000
-269940710.00772,-202560076.63790,-25642842.93179,  -0.00320,  -0.00213,  -0.00220,247370222.21974,   0.00279,277634442.87233,  -0.00237,  -0.00173,  -0.00186,-230264220.65259,   0.00000
-266448573.21438,-200119625.82866,-25312505.66756,  -0.00319,  -0.00212,  -0.00219,244219751.17720,   0.00279,277634442.87233,  -0.00237,  -0.00173,  -0.00186,-233414691.69514,   0.00000
-262956436.42105,-197679175.01942,-24968685.24968,  -0.00318,  -0.00212,  -0.00219,241065215.24921,   0.00279,277634442.87233,  -0.00237,  -0.00173,  -0.00186,-236569227.62312,   0.00000
-259406996.22473,-195194903.96084,-24624864.83181,  -0.00317,  -0.00212,  -0.00218,237859766.27357,   0.00279,277634442.87233,  -0.00237,  -0.00173,  -0.00186,-239774676.59876,   0.00000
-255857556.02842,-192710632.90226,-24267561.26029,  -0.00316,  -0.00211,  -0.00218,234650269.64384,   0.00279,277634442.87233,  -0.00237,  -0.00173,  -0.00186,-242984173.22849,   0.00000
-252318228.19734,-190249957.36255,-23910257.68877,  -0.00315,  -0.00211,  -0.00217,231454323.07258,   0.00279,277634442.87233,  -0.00237,  -0.00173,  -0.00186,-246180119.79975,   0.00000
-248721596.96327,-187745461.57351,-23539470.96361,  -0.00314,  -0.00210,  -0.00217,228203330.80825,   0.00279,277634442.87233,  -0.00237,  -0.00173,  -0.00186,-249431112.06408,   0.00000
-245124965.72921,-185240965.78447,-23168684.23845,  -0.00312,  -0.00210,  -0.00216,224952534.16436,   0.00279,277634442.87233,  -0.00237,  -0.00173,  -0.00186,-252681908.70797,   0.00000
-241504738.97628,-182726357.63019,-22791155.93646,  -0.00311,  -0.00209,  -0.00216,221681054.18369,   0.00279,277634442.87233,  -0.00237,  -0.00173,  -0.00186,-255953388.68864,   0.00000
-237850804.33923,-180178041.59181,-22406886.05766,  -0.00310,  -0.00209,  -0.00215,218375468.65022,   0.00279,277634442.87233,  -0.00237,  -0.00173,  -0.00186,-259258974.22211,   0.00000
-234183386.54855,-177643208.70708,-22015874.60204,  -0.00309,  -0.00208,  -0.00215,215062726.02708,   0.00279,277634442.87233,  -0.00237,  -0.00173,  -0.00186,-262571716.84526,   0.00000
-230515968.75787,-175108375.82234,-21618121.56959,  -0.00308,  -0.00208,  -0.00214,211748217.90467,   0.00279,277634442.87233,  -0.00237,  -0.00173,  -0.00186,-265886224.96766,   0.00000
-226814843.08308,-172539835.05350,-21213626.96032,  -0.00307,  -0.00208,  -0.00214,208399678.54170,   0.00279,277634442.87233,  -0.00237,  -0.00173,  -0.00186,-269234764.33063,   0.00000
-223090121.88941,-169961181.91942,-20802390.77424,  -0.00305,  -0.00207,  -0.00213,205030640.24428,   0.00279,277634442.87233,  -0.00237,  -0.00173,  -0.00186,-272603802.62805,   0.00000
-219341805.17687,-167372416.42011,-20384413.01133,  -0.00304,  -0.00207,  -0.00213,201641161.97742,   0.00279,277634442.87233,  -0.00237,  -0.00173,  -0.00186,-275993280.89491,   0.00000
-215603600.82957,-164807246.43968,-19959693.67160,  -0.00303,  -0.00206,  -0.00212,198263646.46323,   0.00279,277634442.87233,  -0.00237,  -0.00173,  -0.00186,-279370796.40910,   0.00000
-211831688.59816,-162208368.57514,-19528232.75505,  -0.00302,  -0.00206,  -0.00212,194852257.19436,   0.00279,277634442.87233,  -0.00237,  -0.00173,  -0.00186,-282782185.67797,   0.00000
-208026068.48264,-159575782.82650,-19096771.83849,  -0.00301,  -0.00205,  -0.00211,191409020.13895,   0.00279,277634442.87233,  -0.00237,  -0.00173,  -0.00186,-286225422.73338,   0.00000
-204206965.21348,-156956680.23150,-18651827.76830,  -0.00299,  -0.00205,  -0.00211,187957199.40516,   0.00279,277634442.87233,  -0.00237,  -0.00173,  -0.00186,-289677243.46717,   0.00000
-200387861.94432,-154337577.63650,-18200142.12129,  -0.00298,  -0.00204,  -0.00210,184504041.70310,   0.00279,277634442.87233,  -0.00237,  -0.00173,  -0.00186,-293130401.16923,   0.00000
-196545163.15629,-151708362.67626,-17748456.47427,  -0.00297,  -0.00204,  -0.00209,181032888.43004,   0.00279,277634442.87233,  -0.00237,  -0.00173,  -0.00186,-296601554.44229,   0.00000
-192668756.48415,-149045439.83193,-17283287.67362,  -0.00296,  -0.00204,  -0.00209,177526137.24806,   0.00279,277634442.87233,  -0.00237,  -0.00173,  -0.00186,-300108305.62427,   0.00000
-188802462.17724,-146406112.50646,-16811377.29614,  -0.00294,  -0.00203,  -0.00208,174032043.61325,   0.00279,277634442.87233,  -0.00237,  -0.00173,  -0.00186,-303602399.25908,   0.00000
-184902459.98623,-143733077.29689,-16339466.91866,  -0.00293,  -0.00203,  -0.00208,170506457.88992,   0.00279,277634442.87233,  -0.00237,  -0.00173,  -0.00186,-307127984.98242,   0.00000
-180988974.64158,-141073525.24096,-15854073.38754,  -0.00292,  -0.00202,  -0.00207,166973203.57536,   0.00279,277634442.87233,  -0.00237,  -0.00173,  -0.00186,-310661239.29697,   0.00000
-177041781.41282,-138380265.30093,-15361938.27960,  -0.00291,  -0.00202,  -0.00206,163406759.20060,   0.00279,277634442.87233,  -0.00237,  -0.00173,  -0.00186,-314227683.67173,   0.00000
-173094588.18406,-135687005.36090,-14869803.17166,  -0.00289,  -0.00201,  -0.00206,159841630.08001,   0.00279,277634442.87233,  -0.00237,  -0.00173,  -0.00186,-317792812.79232,   0.00000
-169123799.43642,-132983633.05563,-14364184.91007,  -0.00288,  -0.00201,  -0.00205,156255554.57535,   0.00279,277634442.87233,  -0.00237,  -0.00173,  -0.00186,-321378888.29698,   0.00000
-165163123.05402,-130303856.26924,-13858566.64849,  -0.00287,  -0.00200,  -0.00204,152685100.57250,   0.00279,277634442.87233,  -0.00237,  -0.00173,  -0.00186,-324949342.29983,   0.00000
-161145143.26864,-127580259.23351,-13339465.23327,  -0.00286,  -0.00200,  -0.00204,149061613.40484,   0.00279,277634442.87233,  -0.00237,  -0.00173,  -0.00186,-328572829.46749,   0.00000
-157127163.48326,-124856662.19778,-12813622.24122,  -0.00284,  -0.00199,  -0.00203,145438389.60592,   0.00279,277634442.87233,  -0.00237,  -0.00173,  -0.00186,-332196053.26642,   0.00000
-153085588.17900,-122122952.79682,-12287779.24917,  -0.00283,  -0.00199,  -0.00202,141798862.49719,   0.00279,277634442.87233,  -0.00237,  -0.00173,  -0.00186,-335835580.37515,   0.00000
-149044012.87474,-119389243.39586,-11748453.10348,  -0.00282,  -0.00199,  -0.00202,138158371.92736,   0.00279,277634442.87233,  -0.00237,  -0.00173,  -0.00186,-339476070.94497,   0.00000
-144978842.05161,-116645421.62967,-11209126.95780,  -0.00280,  -0.00198,  -0.00201,134502172.66932,   0.00279,277634442.87233,  -0.00237,  -0.00173,  -0.00186,-343132270.20302,   0.00000
-140890075.70961,-113891487.49824,-10656317.65846,  -0.00279,  -0.00198,  -0.00200,130827273.07343,   0.00279,277634442.87233,  -0.00237,  -0.00173,  -0.00186,-346807169.79891,   0.00000
-136801309.36761,-111137553.36682,-10096766.78231,  -0.00278,  -0.00197,  -0.00199,127154336.50069,   0.00279,277634442.87233,  -0.00237,  -0.00173,  -0.00186,-350480106.37164,   0.00000
-132688947.50673,-108373506.87017,-9537215.90616,  -0.00276,  -0.00197,  -0.00199,123466929.49648,   0.00279,277634442.87233,  -0.00237,  -0.00173,  -0.00186,-354167513.37586,   0.00000
-128552990.12698,-105599348.00828,-8964181.87637,  -0.00275,  -0.00196,  -0.00198,119762478.67581,   0.00279,277634442.87233,  -0.00237,  -0.00173,  -0.00186,-357871964.19652,   0.00000
-124417032.74723,-102825189.14639,-8384406.26975,  -0.00274,  -0.00196,  -0.00197,116061653.61926,   0.00279,277634442.87233,  -0.00237,  -0.00173,  -0.00186,-361572789.25307,   0.00000
-120257479.84860,-100040917.91927,-7804630.66313,  -0.00272,  -0.00195,  -0.00196,112348185.68325,   0.00279,277634442.87233,  -0.00237,  -0.00173,  -0.00186,-365286257.18908,   0.00000
-116097926.94998,-97256646.69215,-7211371.90288,  -0.00271,  -0.00195,  -0.00196,108638393.57697,   0.00279,277634442.87233,  -0.00237,  -0.00173,  -0.00186,-368996049.29537,   0.00000
-111891183.01360,-94452150.73457,-6611371.56580,  -0.00270,  -0.00194,  -0.00195,104898109.76678,   0.00279,277634442.87233,  -0.00237,  -0.00173,  -0.00186,-372736333.10556,   0.00000
-107708034.59610,-91657767.14222,-6004629.65190,  -0.00268,  -0.00194,  -0.00194,101183278.12177,   0.00279,277634442.87233,  -0.00237,  -0.00173,  -0.00186,-376451164.75057,   0.00000
-103477695.14086,-88843158.81941,-5391146.16118,  -0.00267,  -0.00194,  -0.00193,97440486.08152,   0.00279,277634442.87233,  -0.00237,  -0.00173,  -0.00186,-380193956.79081,   0.00000
-99247355.68561,-86028550.49659,-4770921.09363,  -0.00265,  -0.00193,  -0.00192,93707673.24570,   0.00279,277634442.87233,  -0.00237,  -0.00173,  -0.00186,-383926769.62663,   0.00000
-94993420.71149,-83203829.80855,-4150696.02609,  -0.00264,  -0.00193,  -0.00192,89969415.33639,   0.00279,277634442.87233,  -0.00237,  -0.00173,  -0.00186,-387665027.53594,   0.00000
-90739485.73737,-80379109.12050,-3516987.80491,  -0.00263,  -0.00192,  -0.00191,86243863.77549,   0.00279,277634442.87233,  -0.00237,  -0.00173,  -0.00186,-391390579.09684,   0.00000
-86472067.60961,-77567871.58610,-2876538.00690,  -0.00261,  -0.00192,  -0.00190,82532189.81505,   0.00279,277634442.87233,  -0.00237,  -0.00173,  -0.00186,-395102253.05729,   0.00000
-82194537.11661,-74733038.53282,-2229346.63208,  -0.00260,  -0.00191,  -0.00189,78824053.62487,   0.00279,277634442.87233,  -0.00237,  -0.00173,  -0.00186,-398810389.24746,   0.00000
-77893411.10474,-71888093.11432,-1575413.68043,  -0.00259,  -0.00191,  -0.00188,75120692.35203,   0.00279,277634442.87233,  -0.00237,  -0.00173,  -0.00186,-402513750.52030,   0.00000
-73578801.93923,-69056630.84945,-914739.15196,  -0.00257,  -0.00190,  -0.00187,71442735.37860,   0.00279,277634442.87233,  -0.00237,  -0.00173,  -0.00186,-406191707.49374,   0.00000
-69254080.40849,-66201573.06571,-240581.46985,  -0.00256,  -0.00190,  -0.00187,67780679.42762,   0.00279,277634442.87233,  -0.00237,  -0.00173,  -0.00186,-409853763.44471,   0.00000
-64915875.72411,-63359998.43561,433576.21226,  -0.00254,  -0.00189,  -0.00186,64156484.50046,   0.00279,277634442.87233,  -0.00237,  -0.00173,  -0.00186,-413477958.37187,   0.00000
-60567558.67449,-60494828.28664,1114475.47120,  -0.00253,  -0.00189,  -0.00185,60561997.31012,   0.00279,277634442.87233,  -0.00237,  -0.00173,  -0.00186,-417072445.56221,   0.00000
