# sigma_xx, sigma_yy, sigma_xy, epsilon_xx, epsilon_yy, epsilon_xy, vonMises, epsPlastic, hardening, epsilonP__xx, epsilonP__yy, epsilonP__xy, yieldValue, iteration
   0.00000,   0.00000,   0.00000,   0.00000,   0.00000,   0.00000,   0.00000,   0.00000,274640135.82653,   0.00000,   0.00000,   0.00000,-474640135.82653,   0.00000
   0.00000,   0.00000,   0.00000,   0.00000,   0.00000,   0.00000,   0.00000,   0.00000,274640135.82653,   0.00000,   0.00000,   0.00000,-474640135.82653,   0.00000
3088760.24192,2644866.55446,-801474.71347,   0.00001,   0.00001,  -0.00001,3208346.21158,   0.00000,274640135.82653,   0.00000,   0.00000,   0.00000,-471431789.61495,   0.00000
6165190.10364,5302063.48913,-1596784.23684,   0.00002,   0.00001,  -0.00002,6409553.54153,   0.00000,274640135.82653,   0.00000,   0.00000,   0.00000,-468230582.28500,   0.00000
9232372.18020,7937682.25843,-2392093.76021,   0.00003,   0.00002,  -0.00003,9598239.24084,   0.00000,274640135.82653,   0.00000,   0.00000,   0.00000,-465041896.58569,   0.00000
12277976.09139,10564053.24258,-3181238.09348,   0.00004,   0.00002,  -0.00004,12767284.44480,   0.00000,274640135.82653,   0.00000,   0.00000,   0.00000,-461872851.38173,   0.00000
15302001.83723,13181176.44158,-3970382.42674,   0.00004,   0.00003,  -0.00005,15921309.50420,   0.00000,274640135.82653,   0.00000,   0.00000,   0.00000,-458718826.32233,   0.00000
18326027.58306,15798299.64057,-4753361.56990,   0.00005,   0.00004,  -0.00006,19070732.08276,   0.00000,274640135.82653,   0.00000,   0.00000,   0.00000,-455569403.74377,   0.00000
21350053.32889,18415422.83956,-5536340.71307,   0.00006,   0.00004,  -0.00007,22220160.24427,   0.00000,274640135.82653,   0.00000,   0.00000,   0.00000,-452419975.58226,   0.00000
24352500.90937,21023298.25340,-6306989.47602,   0.00007,   0.00005,  -0.00008,25345370.95626,   0.00000,274640135.82653,   0.00000,   0.00000,   0.00000,-449294764.87027,   0.00000
27354948.48984,23631173.66724,-7083803.42908,   0.00008,   0.00005,  -0.00009,28475197.10936,   0.00000,274640135.82653,   0.00000,   0.00000,   0.00000,-446164938.71717,   0.00000
30335817.90495,26229801.29592,-7854452.19203,   0.00009,   0.00006,  -0.00010,31585425.52983,   0.00000,274640135.82653,   0.00000,   0.00000,   0.00000,-443054710.29670,   0.00000
33285861.36954,28797602.97409,-8618935.76488,   0.00010,   0.00007,  -0.00011,34663462.67978,   0.00000,274640135.82653,   0.00000,   0.00000,   0.00000,-439976673.14675,   0.00000
36245152.61928,31386982.81762,-9377254.14763,   0.00010,   0.00007,  -0.00012,37749522.94206,   0.00000,274640135.82653,   0.00000,   0.00000,   0.00000,-436890612.88447,   0.00000
39204443.86903,33976362.66114,-10135572.53038,   0.00011,   0.00008,  -0.00013,40835606.12375,   0.00000,274640135.82653,   0.00000,   0.00000,   0.00000,-433804529.70277,   0.00000
42132909.16825,36534916.55415,-10893890.91313,   0.00012,   0.00008,  -0.00014,43894081.82927,   0.00000,274640135.82653,   0.00000,   0.00000,   0.00000,-430746053.99726,   0.00000
45049044.08727,39105800.82737,-11646044.10577,   0.00013,   0.00009,  -0.00015,46945629.35916,   0.00000,274640135.82653,   0.00000,   0.00000,   0.00000,-427694506.46737,   0.00000
47955931.22114,41655106.93522,-12392032.10831,   0.00014,   0.00010,  -0.00016,49979968.07919,   0.00000,274640135.82653,   0.00000,   0.00000,   0.00000,-424660167.74734,   0.00000
50872066.14016,44225991.20844,-13131854.92075,   0.00015,   0.00010,  -0.00017,53022398.12425,   0.00000,274640135.82653,   0.00000,   0.00000,   0.00000,-421617737.70228,   0.00000
53757375.10866,46766049.53114,-13877842.92329,   0.00015,   0.00011,  -0.00018,56041790.41516,   0.00000,274640135.82653,   0.00000,   0.00000,   0.00000,-418598345.41137,   0.00000
56630353.69696,49318438.23404,-14611500.54562,   0.00016,   0.00011,  -0.00019,59049746.42872,   0.00000,274640135.82653,   0.00000,   0.00000,   0.00000,-415590389.39781,   0.00000
59494084.50010,51849248.77159,-15345158.16795,   0.00017,   0.00012,  -0.00020,62045054.10262,   0.00000,274640135.82653,   0.00000,   0.00000,   0.00000,-412595081.72391,   0.00000
62345484.92303,54392389.68934,-16072650.60018,   0.00018,   0.00013,  -0.00021,65033544.62927,   0.00000,274640135.82653,   0.00000,   0.00000,   0.00000,-409606591.19726,   0.00000
65187637.56080,56913952.44172,-16800143.03241,   0.00019,   0.00013,  -0.00022,68009369.84785,   0.00000,274640135.82653,   0.00000,   0.00000,   0.00000,-406630765.97868,   0.00000
68017459.81837,59447845.57432,-17521470.27454,   0.00019,   0.00014,  -0.00023,70978415.71687,   0.00000,274640135.82653,   0.00000,   0.00000,   0.00000,-403661720.10966,   0.00000
70838034.29079,61960160.54155,-18236632.32656,   0.00020,   0.00014,  -0.00024,73930216.38853,   0.00000,274640135.82653,   0.00000,   0.00000,   0.00000,-400709919.43800,   0.00000
73637030.59784,64463227.72363,-18951794.37858,   0.00021,   0.00015,  -0.00025,76867098.69638,   0.00000,274640135.82653,   0.00000,   0.00000,   0.00000,-397773037.13015,   0.00000
76445274.69005,66987873.07107,-19660791.24050,   0.00022,   0.00016,  -0.00026,79812210.46813,   0.00000,274640135.82653,   0.00000,   0.00000,   0.00000,-394827925.35840,   0.00000
79222692.83173,69481692.46799,-20369788.10242,   0.00022,   0.00016,  -0.00026,82729672.24593,   0.00000,274640135.82653,   0.00000,   0.00000,   0.00000,-391910463.58060,   0.00000
82009358.75858,71997090.03027,-21072619.77423,   0.00023,   0.00017,  -0.00027,85655394.59603,   0.00000,274640135.82653,   0.00000,   0.00000,   0.00000,-388984741.23050,   0.00000
84765198.73490,74481661.64204,-21769286.25594,   0.00024,   0.00017,  -0.00028,88548909.97981,   0.00000,274640135.82653,   0.00000,   0.00000,   0.00000,-386091225.84672,   0.00000
87508708.33102,76978563.63401,-22465952.73765,   0.00025,   0.00018,  -0.00029,91440339.66123,   0.00000,274640135.82653,   0.00000,   0.00000,   0.00000,-383199796.16530,   0.00000
90242970.14198,79453887.46062,-23156454.02926,   0.00026,   0.00019,  -0.00030,94314490.87233,   0.00000,274640135.82653,   0.00000,   0.00000,   0.00000,-380325644.95420,   0.00000
92986479.73810,81950789.45259,-23840790.13076,   0.00026,   0.00019,  -0.00031,97196973.74512,   0.00000,274640135.82653,   0.00000,   0.00000,   0.00000,-377443162.08141,   0.00000
95699163.38370,84416865.49405,-24525126.23227,   0.00027,   0.00020,  -0.00032,100051782.08834,   0.00000,274640135.82653,   0.00000,   0.00000,   0.00000,-374588353.73819,   0.00000
98399516.64910,86895271.91571,-25203297.14367,   0.00028,   0.00020,  -0.00033,102900043.55305,   0.00000,274640135.82653,   0.00000,   0.00000,   0.00000,-371740092.27348,   0.00000
101099869.91449,89373678.33737,-25881468.05507,   0.00029,   0.00021,  -0.00034,105748390.00499,   0.00000,274640135.82653,   0.00000,   0.00000,   0.00000,-368891745.82154,   0.00000
103778645.01452,91842836.97388,-26553473.77636,   0.00029,   0.00022,  -0.00035,108577389.90139,   0.00000,274640135.82653,   0.00000,   0.00000,   0.00000,-366062745.92514,   0.00000
106448172.32939,94290417.44502,-27219314.30756,   0.00030,   0.00022,  -0.00035,111389078.56315,   0.00000,274640135.82653,   0.00000,   0.00000,   0.00000,-363251057.26338,   0.00000
109126947.42942,96759576.08153,-27885154.83875,   0.00031,   0.00023,  -0.00036,114213723.46414,   0.00000,274640135.82653,   0.00000,   0.00000,   0.00000,-360426412.36239,   0.00000
111762566.19873,99210239.14772,-28544830.17984,   0.00032,   0.00023,  -0.00037,117004161.57010,   0.00000,274640135.82653,   0.00000,   0.00000,   0.00000,-357635974.25643,   0.00000
114398184.96803,101660902.21392,-29204505.52093,   0.00032,   0.00024,  -0.00038,119794701.45048,   0.00000,274640135.82653,   0.00000,   0.00000,   0.00000,-354845434.37605,   0.00000
117033803.73734,104111565.28012,-29858015.67191,   0.00033,   0.00025,  -0.00039,122580830.65520,   0.00000,274640135.82653,   0.00000,   0.00000,   0.00000,-352059305.17133,   0.00000
119647844.34128,106552980.56116,-30505360.63280,   0.00034,   0.00025,  -0.00040,125347680.36031,   0.00000,274640135.82653,   0.00000,   0.00000,   0.00000,-349292455.46622,   0.00000
122261884.94522,108994395.84220,-31146540.40357,   0.00034,   0.00026,  -0.00040,128110138.11782,   0.00000,274640135.82653,   0.00000,   0.00000,   0.00000,-346529997.70871,   0.00000
124854347.38380,111426563.33808,-31787720.17435,   0.00035,   0.00026,  -0.00041,130857837.72026,   0.00000,274640135.82653,   0.00000,   0.00000,   0.00000,-343782298.10627,   0.00000
127434479.44217,113871061.21417,-32428899.94513,   0.00036,   0.00027,  -0.00042,133603766.33290,   0.00000,274640135.82653,   0.00000,   0.00000,   0.00000,-341036369.49362,   0.00000
130005363.71539,116293980.92490,-33057749.33570,   0.00036,   0.00028,  -0.00043,136327868.31571,   0.00000,274640135.82653,   0.00000,   0.00000,   0.00000,-338312267.51082,   0.00000
132554669.82324,118707652.85048,-33686598.72627,   0.00037,   0.00028,  -0.00044,139037241.08801,   0.00000,274640135.82653,   0.00000,   0.00000,   0.00000,-335602894.73852,   0.00000
135113223.71625,121142902.94141,-34315448.11684,   0.00038,   0.00029,  -0.00045,141759754.32996,   0.00000,274640135.82653,   0.00000,   0.00000,   0.00000,-332880381.49657,   0.00000
137650199.44390,123568905.24719,-34938132.31731,   0.00039,   0.00029,  -0.00045,144463097.59956,   0.00000,274640135.82653,   0.00000,   0.00000,   0.00000,-330177038.22697,   0.00000
140177927.38639,125973329.38761,-35554651.32767,   0.00039,   0.00030,  -0.00046,147149075.82762,   0.00000,274640135.82653,   0.00000,   0.00000,   0.00000,-327491059.99891,   0.00000
142693324.94867,128390083.90824,-36165005.14793,   0.00040,   0.00031,  -0.00047,149828947.33534,   0.00000,274640135.82653,   0.00000,   0.00000,   0.00000,-324811188.49119,   0.00000
145208722.51096,130806838.42886,-36775358.96819,   0.00041,   0.00031,  -0.00048,152508980.88567,   0.00000,274640135.82653,   0.00000,   0.00000,   0.00000,-322131154.94086,   0.00000
147702541.90788,133214345.16433,-37379547.59835,   0.00041,   0.00032,  -0.00049,155169897.14573,   0.00000,274640135.82653,   0.00000,   0.00000,   0.00000,-319470238.68080,   0.00000
150174783.13944,135612604.11465,-37983736.22851,   0.00042,   0.00032,  -0.00049,157816168.77073,   0.00000,274640135.82653,   0.00000,   0.00000,   0.00000,-316823967.05580,   0.00000
152647024.37100,138010863.06496,-38581759.66856,   0.00043,   0.00033,  -0.00050,160458160.69270,   0.00000,274640135.82653,   0.00000,   0.00000,   0.00000,-314181975.13383,   0.00000
155128513.38771,140430700.18064,-39173617.91851,   0.00043,   0.00034,  -0.00051,163109007.99332,   0.00000,274640135.82653,   0.00000,   0.00000,   0.00000,-311531127.83321,   0.00000
157579176.45391,142819711.34580,-39765476.16846,   0.00044,   0.00034,  -0.00052,165732113.93766,   0.00000,274640135.82653,   0.00000,   0.00000,   0.00000,-308908021.88887,   0.00000
160017509.13989,145221052.89117,-40351169.22830,   0.00044,   0.00035,  -0.00052,168349329.81783,   0.00000,274640135.82653,   0.00000,   0.00000,   0.00000,-306290806.00870,   0.00000
162446594.04073,147600816.27117,-40930697.09805,   0.00045,   0.00035,  -0.00053,170949152.94690,   0.00000,274640135.82653,   0.00000,   0.00000,   0.00000,-303690982.87963,   0.00000
164863348.56135,149992910.03138,-41510224.96779,   0.00046,   0.00036,  -0.00054,173547571.80940,   0.00000,274640135.82653,   0.00000,   0.00000,   0.00000,-301092564.01713,   0.00000
167258524.91662,152375756.00644,-42083587.64743,   0.00046,   0.00037,  -0.00055,176127016.78323,   0.00000,274640135.82653,   0.00000,   0.00000,   0.00000,-298513119.04330,   0.00000
169675279.43724,154767849.76665,-42650785.13696,   0.00047,   0.00037,  -0.00055,178717033.42110,   0.00000,274640135.82653,   0.00000,   0.00000,   0.00000,-295923102.40543,   0.00000
172048877.62714,157141447.95655,-43217982.62649,   0.00048,   0.00038,  -0.00056,181277751.74004,   0.00000,274640135.82653,   0.00000,   0.00000,   0.00000,-293362384.08649,   0.00000
174431723.60220,159536624.31181,-43779014.92593,   0.00048,   0.00039,  -0.00057,183847542.22700,   0.00000,274640135.82653,   0.00000,   0.00000,   0.00000,-290792593.59953,   0.00000
176783743.62673,161900974.71656,-44340047.22536,   0.00049,   0.00039,  -0.00058,186389582.81375,   0.00000,274640135.82653,   0.00000,   0.00000,   0.00000,-288250553.01278,   0.00000
179145011.43643,164286903.28666,-44894914.33468,   0.00049,   0.00040,  -0.00058,188940738.18341,   0.00000,274640135.82653,   0.00000,   0.00000,   0.00000,-285699397.64312,   0.00000
181497031.46097,166651253.69141,-45443616.25391,   0.00050,   0.00040,  -0.00059,191474467.55774,   0.00000,274640135.82653,   0.00000,   0.00000,   0.00000,-283165668.26879,   0.00000
183815142.93993,169018686.69120,-45992318.17313,   0.00051,   0.00041,  -0.00060,193992291.50665,   0.00000,274640135.82653,   0.00000,   0.00000,   0.00000,-280647844.31988,   0.00000
186133254.41890,171386119.69100,-46534854.90225,   0.00051,   0.00042,  -0.00060,196506011.01574,   0.00000,274640135.82653,   0.00000,   0.00000,   0.00000,-278134124.81079,   0.00000
188460613.68302,173775130.85616,-47071226.44127,   0.00052,   0.00042,  -0.00061,199028973.48354,   0.00000,274640135.82653,   0.00000,   0.00000,   0.00000,-275611162.34299,   0.00000
190757146.99663,176133316.07080,-47601432.79018,   0.00052,   0.00043,  -0.00062,201519811.69776,   0.00000,274640135.82653,   0.00000,   0.00000,   0.00000,-273120324.12876,   0.00000
193053680.31023,178491501.28544,-48137804.32920,   0.00053,   0.00044,  -0.00063,204015300.65687,   0.00000,274640135.82653,   0.00000,   0.00000,   0.00000,-270624835.16966,   0.00000
195337883.24363,180862016.88029,-48661845.48801,   0.00054,   0.00044,  -0.00063,206501040.82652,   0.00000,274640135.82653,   0.00000,   0.00000,   0.00000,-268139095.00001,   0.00000
197600508.01166,183223284.68998,-49185886.64681,   0.00054,   0.00045,  -0.00064,208972421.67436,   0.00000,274640135.82653,   0.00000,   0.00000,   0.00000,-265667714.15217,   0.00000
199863132.77970,185584552.49968,-49703762.61552,   0.00055,   0.00045,  -0.00065,211439778.58326,   0.00000,274640135.82653,   0.00000,   0.00000,   0.00000,-263200357.24327,   0.00000
202104179.38237,187936572.52421,-50215473.39412,   0.00055,   0.00046,  -0.00065,213888450.25998,   0.00000,274640135.82653,   0.00000,   0.00000,   0.00000,-260751685.56655,   0.00000
204345225.98504,190288592.54875,-50727184.17272,   0.00056,   0.00047,  -0.00066,216337458.69034,   0.00000,274640135.82653,   0.00000,   0.00000,   0.00000,-258302677.13619,   0.00000
206573942.20751,192652942.95350,-51232729.76122,   0.00056,   0.00047,  -0.00067,218781283.29538,   0.00000,274640135.82653,   0.00000,   0.00000,   0.00000,-255858852.53115,   0.00000
208781080.26461,195008045.57309,-51738275.34972,   0.00057,   0.00048,  -0.00067,221210836.77827,   0.00000,274640135.82653,   0.00000,   0.00000,   0.00000,-253429299.04826,   0.00000
210978970.53656,197341570.02731,-52237655.74811,   0.00058,   0.00049,  -0.00068,223622937.14030,   0.00000,274640135.82653,   0.00000,   0.00000,   0.00000,-251017198.68623,   0.00000
213186108.59366,199696672.64690,-52730870.95641,   0.00058,   0.00049,  -0.00069,226044587.81028,   0.00000,274640135.82653,   0.00000,   0.00000,   0.00000,-248595548.01625,   0.00000
215380916.27055,202064105.64670,-53217920.97459,   0.00059,   0.00050,  -0.00069,228461224.28837,   0.00000,274640135.82653,   0.00000,   0.00000,   0.00000,-246178911.53816,   0.00000
217544897.99693,204400712.69598,-53704970.99278,   0.00059,   0.00051,  -0.00070,230850110.52451,   0.00000,274640135.82653,   0.00000,   0.00000,   0.00000,-243790025.30202,   0.00000
219718127.50846,206758897.91062,-54192021.01097,   0.00060,   0.00051,  -0.00070,233252963.43276,   0.00000,274640135.82653,   0.00000,   0.00000,   0.00000,-241387172.39377,   0.00000
221860531.06948,209086257.17474,-54666740.64895,   0.00060,   0.00052,  -0.00071,235619455.32827,   0.00000,274640135.82653,   0.00000,   0.00000,   0.00000,-239020680.49826,   0.00000
223990604.25028,211425946.81907,-55141460.28693,   0.00061,   0.00053,  -0.00072,237985373.76545,   0.00000,274640135.82653,   0.00000,   0.00000,   0.00000,-236654762.06108,   0.00000
226151503.38161,213796462.41392,-55616179.92491,   0.00061,   0.00053,  -0.00072,240379942.67037,   0.00000,274640135.82653,   0.00000,   0.00000,   0.00000,-234260193.15616,   0.00000
228259998.39705,216126904.27309,-56084734.37278,   0.00062,   0.00054,  -0.00073,242727895.15207,   0.00000,274640135.82653,   0.00000,   0.00000,   0.00000,-231912240.67446,   0.00000
230377741.19765,218478924.29763,-56547123.63056,   0.00062,   0.00054,  -0.00074,245085688.06699,   0.00000,274640135.82653,   0.00000,   0.00000,   0.00000,-229554447.75954,   0.00000
232464658.04773,220800118.37165,-57003347.69823,   0.00063,   0.00055,  -0.00074,247411459.81226,   0.00000,274640135.82653,   0.00000,   0.00000,   0.00000,-227228676.01427,   0.00000
234560822.68297,223142890.61103,-57459571.76590,   0.00063,   0.00056,  -0.00075,249751389.05107,   0.00000,274640135.82653,   0.00000,   0.00000,   0.00000,-224888746.77546,   0.00000
236635409.15284,225476415.06526,-57909630.64346,   0.00064,   0.00056,  -0.00075,252073010.94349,   0.00000,274640135.82653,   0.00000,   0.00000,   0.00000,-222567124.88304,   0.00000
238719243.40787,227831517.68485,-58359689.52103,   0.00064,   0.00057,  -0.00076,254408864.19420,   0.00000,274640135.82653,   0.00000,   0.00000,   0.00000,-220231271.63232,   0.00000
240772251.71238,230155794.35392,-58803583.20849,   0.00065,   0.00058,  -0.00076,256712723.12171,   0.00000,274640135.82653,   0.00000,   0.00000,   0.00000,-217927412.70482,   0.00000
242812929.63669,232492401.40320,-59241311.70585,   0.00065,   0.00058,  -0.00077,259012110.61239,   0.00000,274640135.82653,   0.00000,   0.00000,   0.00000,-215628025.21414,   0.00000
244853607.56099,234829008.45248,-59679040.20320,   0.00066,   0.00059,  -0.00078,261312047.14971,   0.00000,274640135.82653,   0.00000,   0.00000,   0.00000,-213328088.67682,   0.00000
246894285.48529,237165615.50175,-60110603.51046,   0.00066,   0.00060,  -0.00078,263608300.63526,   0.00000,274640135.82653,   0.00000,   0.00000,   0.00000,-211031835.19127,   0.00000
248901054.86403,239505305.14608,-60542166.81771,   0.00067,   0.00060,  -0.00079,265889949.22356,   0.00000,274640135.82653,   0.00000,   0.00000,   0.00000,-208750186.60297,   0.00000
250929402.40812,241854242.57557,-60967564.93486,   0.00067,   0.00061,  -0.00079,268182458.42636,   0.00000,274640135.82653,   0.00000,   0.00000,   0.00000,-206457677.40017,   0.00000
252914593.62149,244184684.43474,-61386797.86191,   0.00067,   0.00062,  -0.00080,270442412.35803,   0.00000,274640135.82653,   0.00000,   0.00000,   0.00000,-204197723.46850,   0.00000
254899784.83487,246515126.29392,-61806030.78896,   0.00068,   0.00062,  -0.00080,272702972.98593,   0.00000,274640135.82653,   0.00000,   0.00000,   0.00000,-201937162.84060,   0.00000
256884976.04824,248845568.15309,-62219098.52590,   0.00068,   0.00063,  -0.00081,274959939.91516,   0.00000,274640135.82653,   0.00000,   0.00000,   0.00000,-199680195.91137,   0.00000
258857836.88140,251188340.39248,-62626001.07274,   0.00069,   0.00064,  -0.00081,277212805.71306,   0.00000,274640135.82653,   0.00000,   0.00000,   0.00000,-197427330.11347,   0.00000
260799871.76405,253500286.68134,-63032903.61958,   0.00069,   0.00064,  -0.00082,279437948.41998,   0.00000,274640135.82653,   0.00000,   0.00000,   0.00000,-195202187.40655,   0.00000
262751154.43185,255833811.13557,-63433640.97632,   0.00070,   0.00065,  -0.00082,281673497.65178,   0.00000,274640135.82653,   0.00000,   0.00000,   0.00000,-192966638.17475,   0.00000
264690106.71944,258179665.97000,-63828213.14295,   0.00070,   0.00066,  -0.00083,283905110.12697,   0.00000,274640135.82653,   0.00000,   0.00000,   0.00000,-190735025.69956,   0.00000
266619811.22188,260503942.63907,-64222785.30959,   0.00071,   0.00067,  -0.00083,286123424.96949,   0.00000,274640135.82653,   0.00000,   0.00000,   0.00000,-188516710.85704,   0.00000
268537185.34411,262840549.68835,-64617357.47622,   0.00071,   0.00067,  -0.00084,288342022.13176,   0.00000,274640135.82653,   0.00000,   0.00000,   0.00000,-186298113.69477,   0.00000
270454559.46634,265177156.73763,-64999599.26264,   0.00071,   0.00068,  -0.00084,290553034.39903,   0.00000,274640135.82653,   0.00000,   0.00000,   0.00000,-184087101.42750,   0.00000
272350355.42321,267504516.00175,-65381841.04907,   0.00072,   0.00069,  -0.00085,292750384.43525,   0.00000,274640135.82653,   0.00000,   0.00000,   0.00000,-181889751.39128,   0.00000
274233820.99987,269844205.64608,-65764082.83549,   0.00072,   0.00069,  -0.00085,294948165.08250,   0.00000,274640135.82653,   0.00000,   0.00000,   0.00000,-179691970.74403,   0.00000
276108038.79138,272162317.12505,-66140159.43182,   0.00073,   0.00070,  -0.00086,297128481.30528,   0.00000,274640135.82653,   0.00000,   0.00000,   0.00000,-177511654.52125,   0.00000
277969926.20267,274492758.98422,-66510070.83803,   0.00073,   0.00071,  -0.00086,299305180.74119,   0.00000,274640135.82653,   0.00000,   0.00000,   0.00000,-175334955.08533,   0.00000
279831813.61397,276823200.84340,-66879982.24425,   0.00073,   0.00071,  -0.00087,301482646.54572,   0.00000,274640135.82653,   0.00000,   0.00000,   0.00000,-173157489.28081,   0.00000
281681370.64506,279165973.08278,-67243728.46037,   0.00074,   0.00072,  -0.00087,303656612.33056,   0.00000,274640135.82653,   0.00000,   0.00000,   0.00000,-170983523.49597,   0.00000
283509349.51079,281499497.53701,-67601309.48638,   0.00074,   0.00073,  -0.00088,305812998.53359,   0.00000,274640135.82653,   0.00000,   0.00000,   0.00000,-168827137.29294,   0.00000
285337328.37652,283833021.99123,-67958890.51239,   0.00074,   0.00074,  -0.00088,307970212.09321,   0.00000,274640135.82653,   0.00000,   0.00000,   0.00000,-166669923.73332,   0.00000
287165307.24225,286166546.44546,-68310306.34830,   0.00075,   0.00074,  -0.00089,310124161.61239,   0.00000,274640135.82653,   0.00000,   0.00000,   0.00000,-164515974.21414,   0.00000
288971707.94261,288490823.11453,-68661722.18420,   0.00075,   0.00075,  -0.00089,312264652.83682,   0.00000,274640135.82653,   0.00000,   0.00000,   0.00000,-162375482.98971,   0.00000
290765778.26277,290827430.16381,-69006972.83001,   0.00076,   0.00076,  -0.00090,314401900.07407,   0.00000,274640135.82653,   0.00000,   0.00000,   0.00000,-160238235.75246,   0.00000
292559848.58293,293164037.21309,-69346058.28571,   0.00076,   0.00076,  -0.00090,316535967.59328,   0.00000,274640135.82653,   0.00000,   0.00000,   0.00000,-158104168.23325,   0.00000
294332340.73773,295491396.47721,-69685143.74141,   0.00076,   0.00077,  -0.00091,318656673.51867,   0.00000,274640135.82653,   0.00000,   0.00000,   0.00000,-155983462.30786,   0.00000
296083254.72716,297809507.95618,-70024229.19711,   0.00077,   0.00078,  -0.00091,320764035.35702,   0.00000,274640135.82653,   0.00000,   0.00000,   0.00000,-153876100.46951,   0.00000
297843416.50175,300149197.60051,-70350984.27260,   0.00077,   0.00078,  -0.00091,322878556.21648,   0.00000,274640135.82653,   0.00000,   0.00000,   0.00000,-151761579.61005,   0.00000
299603578.27634,302488887.24484,-70683904.53820,   0.00077,   0.00079,  -0.00092,324998032.45177,   0.00000,274640135.82653,   0.00000,   0.00000,   0.00000,-149642103.37476,   0.00000
301342161.88556,304819329.10401,-71004494.42359,   0.00078,   0.00080,  -0.00092,327096195.32123,   0.00000,274640135.82653,   0.00000,   0.00000,   0.00000,-147543940.50530,   0.00000
303068415.11458,307162101.34340,-71325084.30897,   0.00078,   0.00081,  -0.00093,329195523.14604,   0.00000,274640135.82653,   0.00000,   0.00000,   0.00000,-145444612.68049,   0.00000
304794668.34360,309504873.58278,-71639509.00426,   0.00078,   0.00081,  -0.00093,331291833.70391,   0.00000,274640135.82653,   0.00000,   0.00000,   0.00000,-143348302.12262,   0.00000
306499343.40725,311838398.03700,-71953933.69955,   0.00079,   0.00082,  -0.00094,333374977.27989,   0.00000,274640135.82653,   0.00000,   0.00000,   0.00000,-141265158.54664,   0.00000
308182440.30555,314162674.70607,-72268358.39483,   0.00079,   0.00083,  -0.00094,335444972.86824,   0.00000,274640135.82653,   0.00000,   0.00000,   0.00000,-139195162.95829,   0.00000
309874784.98900,316508529.54051,-72570452.70991,   0.00079,   0.00084,  -0.00094,337522489.50979,   0.00000,274640135.82653,   0.00000,   0.00000,   0.00000,-137117646.31674,   0.00000
311557881.88729,318832806.20958,-72872547.02499,   0.00080,   0.00084,  -0.00095,339586546.60110,   0.00000,274640135.82653,   0.00000,   0.00000,   0.00000,-135053589.22543,   0.00000
313228648.40537,321169413.25886,-73174641.34007,   0.00080,   0.00085,  -0.00095,341652017.96041,   0.00000,274640135.82653,   0.00000,   0.00000,   0.00000,-132988117.86612,   0.00000
314887084.54325,323518350.68834,-73470570.46504,   0.00080,   0.00086,  -0.00096,343715031.92781,   0.00000,274640135.82653,   0.00000,   0.00000,   0.00000,-130925103.89872,   0.00000
316536272.89597,325845709.95247,-73760334.39991,   0.00080,   0.00087,  -0.00096,345760629.59534,   0.00000,274640135.82653,   0.00000,   0.00000,   0.00000,-128879506.23119,   0.00000
318173130.86849,328185399.59680,-74050098.33478,   0.00081,   0.00087,  -0.00096,347807810.16288,   0.00000,274640135.82653,   0.00000,   0.00000,   0.00000,-126832325.66365,   0.00000
319809988.84101,330525089.24113,-74339862.26965,   0.00081,   0.00088,  -0.00097,349856090.19320,   0.00000,274640135.82653,   0.00000,   0.00000,   0.00000,-124784045.63333,   0.00000
321434516.43331,332877109.26566,-74617295.82432,   0.00081,   0.00089,  -0.00097,351898206.99693,   0.00000,274640135.82653,   0.00000,   0.00000,   0.00000,-122741928.82960,   0.00000
323037465.86026,335219881.50505,-74894729.37898,   0.00082,   0.00090,  -0.00097,353927469.61003,   0.00000,274640135.82653,   0.00000,   0.00000,   0.00000,-120712666.21650,   0.00000
324640415.28721,337562653.74443,-75172162.93364,   0.00082,   0.00090,  -0.00098,355957900.01650,   0.00000,274640135.82653,   0.00000,   0.00000,   0.00000,-118682235.81003,   0.00000
326221786.54879,339896178.19866,-75443431.29820,   0.00082,   0.00091,  -0.00098,357971593.08834,   0.00000,274640135.82653,   0.00000,   0.00000,   0.00000,-116668542.73819,   0.00000
327803157.81037,342229702.65288,-75714699.66276,   0.00082,   0.00092,  -0.00098,359986457.60262,   0.00000,274640135.82653,   0.00000,   0.00000,   0.00000,-114653678.22391,   0.00000
329372198.69175,344575557.48732,-75979802.83722,   0.00083,   0.00093,  -0.00099,361999367.98460,   0.00000,274640135.82653,   0.00000,   0.00000,   0.00000,-112640767.84193,   0.00000
330941239.57312,346921412.32175,-76238740.82157,   0.00083,   0.00093,  -0.00099,364009622.06441,   0.00000,274640135.82653,   0.00000,   0.00000,   0.00000,-110630513.76212,   0.00000
332488702.28914,349258019.37103,-76497678.80593,   0.00083,   0.00094,  -0.00099,366007158.68439,   0.00000,274640135.82653,   0.00000,   0.00000,   0.00000,-108632977.14213,   0.00000
334045412.79030,351616204.58567,-76756616.79028,   0.00083,   0.00095,  -0.00100,368020716.25408,   0.00000,274640135.82653,   0.00000,   0.00000,   0.00000,-106619419.57245,   0.00000
335580545.12611,353965142.01515,-77003224.39442,   0.00084,   0.00096,  -0.00100,370013916.51838,   0.00000,274640135.82653,   0.00000,   0.00000,   0.00000,-104626219.30815,   0.00000
337094099.29655,356304831.65948,-77255997.18867,   0.00084,   0.00096,  -0.00100,371998354.62813,   0.00000,274640135.82653,   0.00000,   0.00000,   0.00000,-102641781.19840,   0.00000
338616901.25215,358666099.46918,-77502604.79282,   0.00084,   0.00097,  -0.00101,373995099.94732,   0.00000,274640135.82653,   0.00000,   0.00000,   0.00000,-100645035.87920,   0.00000
340108877.25723,360996541.32835,-77743047.20686,   0.00084,   0.00098,  -0.00101,375960592.40604,   0.00000,274640135.82653,   0.00000,   0.00000,   0.00000,-98679543.42049,   0.00000
341610101.04747,363348561.35289,-77983489.62090,   0.00085,   0.00099,  -0.00101,377942288.41984,   0.00000,274640135.82653,   0.00000,   0.00000,   0.00000,-96697847.40669,   0.00000
343098994.45749,365712911.75763,-78217766.84484,   0.00085,   0.00099,  -0.00102,379922595.65654,   0.00000,274640135.82653,   0.00000,   0.00000,   0.00000,-94717540.16999,   0.00000
344578640.08237,368055683.99702,-78445878.87868,   0.00085,   0.00100,  -0.00102,381885540.96272,   0.00000,274640135.82653,   0.00000,   0.00000,   0.00000,-92754594.86381,   0.00000
346045955.32703,370410786.61661,-78680156.10261,   0.00085,   0.00101,  -0.00102,383854790.79327,   0.00000,274640135.82653,   0.00000,   0.00000,   0.00000,-90785345.03326,   0.00000
347491692.40634,372756641.45104,-78902102.94634,   0.00085,   0.00102,  -0.00103,385804068.65639,   0.00000,274640135.82653,   0.00000,   0.00000,   0.00000,-88836067.17014,   0.00000
348937429.48564,375102496.28547,-79130214.98018,   0.00086,   0.00103,  -0.00103,387758538.70233,   0.00000,274640135.82653,   0.00000,   0.00000,   0.00000,-86881597.12420,   0.00000
350392414.35010,377469929.28527,-79345996.63381,   0.00086,   0.00103,  -0.00103,389721892.15815,   0.00000,274640135.82653,   0.00000,   0.00000,   0.00000,-84918243.66838,   0.00000
351825821.04919,379828114.49991,-79561778.28743,   0.00086,   0.00104,  -0.00103,391672945.67378,   0.00000,274640135.82653,   0.00000,   0.00000,   0.00000,-82967190.15275,   0.00000
353237649.58292,382177051.92940,-79777559.94106,   0.00086,   0.00105,  -0.00104,393611724.63062,   0.00000,274640135.82653,   0.00000,   0.00000,   0.00000,-81028411.19591,   0.00000
354649478.11666,384525989.35888,-79987176.40458,   0.00086,   0.00106,  -0.00104,395548217.71809,   0.00000,274640135.82653,   0.00000,   0.00000,   0.00000,-79091918.10844,   0.00000
356048976.27018,386887257.16858,-80196792.86811,   0.00087,   0.00107,  -0.00104,397487594.99462,   0.00000,274640135.82653,   0.00000,   0.00000,   0.00000,-77152540.83191,   0.00000
357426896.25835,389239277.19311,-80400244.14153,   0.00087,   0.00107,  -0.00105,399411081.59860,   0.00000,274640135.82653,   0.00000,   0.00000,   0.00000,-75229054.22793,   0.00000
358835642.19703,391622123.16817,-80603695.41495,   0.00087,   0.00108,  -0.00105,401364916.93186,   0.00000,274640135.82653,   0.00000,   0.00000,   0.00000,-73275218.89467,   0.00000
360191984.01983,393964895.40755,-80800981.49826,   0.00087,   0.00109,  -0.00105,403274103.66630,   0.00000,274640135.82653,   0.00000,   0.00000,   0.00000,-71366032.16023,   0.00000
361557573.62778,396329245.81229,-80998267.58158,   0.00087,   0.00110,  -0.00105,405200034.19766,   0.00000,274640135.82653,   0.00000,   0.00000,   0.00000,-69440101.62887,   0.00000
362901585.07038,398684348.43188,-81189388.47479,   0.00087,   0.00111,  -0.00106,407110228.98620,   0.00000,274640135.82653,   0.00000,   0.00000,   0.00000,-67529906.84033,   0.00000
364245596.51297,401039451.05147,-81380509.36801,   0.00088,   0.00111,  -0.00106,409022008.84582,   0.00000,274640135.82653,   0.00000,   0.00000,   0.00000,-65618126.98071,   0.00000
365598855.74072,403416131.83643,-81565465.07112,   0.00088,   0.00112,  -0.00106,410946952.58007,   0.00000,274640135.82653,   0.00000,   0.00000,   0.00000,-63693183.24646,   0.00000
366930536.80310,405783564.83622,-81750420.77422,   0.00088,   0.00113,  -0.00106,412859943.50247,   0.00000,274640135.82653,   0.00000,   0.00000,   0.00000,-61780192.32406,   0.00000
368240639.70013,408141750.05086,-81929211.28723,   0.00088,   0.00114,  -0.00107,414757356.43955,   0.00000,274640135.82653,   0.00000,   0.00000,   0.00000,-59882779.38698,   0.00000
369538412.21694,410512265.64571,-82108001.80024,   0.00088,   0.00115,  -0.00107,416658228.51107,   0.00000,274640135.82653,   0.00000,   0.00000,   0.00000,-57981907.31546,   0.00000
370848515.11396,412870450.86035,-82280627.12314,   0.00088,   0.00116,  -0.00107,418555302.82055,   0.00000,274640135.82653,   0.00000,   0.00000,   0.00000,-56084833.00598,   0.00000
372124709.46542,415231718.67005,-82453252.44604,   0.00088,   0.00116,  -0.00107,420442402.03656,   0.00000,274640135.82653,   0.00000,   0.00000,   0.00000,-54197733.78997,   0.00000
373410151.60202,417614564.64510,-82625877.76894,   0.00088,   0.00117,  -0.00107,422346605.35997,   0.00000,274640135.82653,   0.00000,   0.00000,   0.00000,-52293530.46656,   0.00000
374686345.95348,419975832.45479,-82792337.90174,   0.00089,   0.00118,  -0.00108,424233498.54121,   0.00000,274640135.82653,   0.00000,   0.00000,   0.00000,-50406637.28532,   0.00000
375950209.92472,422349430.64469,-82952632.84443,   0.00089,   0.00119,  -0.00108,426120479.07059,   0.00000,274640135.82653,   0.00000,   0.00000,   0.00000,-48519656.75594,   0.00000
377192495.73061,424713781.04944,-83119092.97723,   0.00089,   0.00120,  -0.00108,427999386.04588,   0.00000,274640135.82653,   0.00000,   0.00000,   0.00000,-46640749.78065,   0.00000
378444029.32164,427099709.61955,-83273222.72982,   0.00089,   0.00121,  -0.00108,429888356.58483,   0.00000,274640135.82653,   0.00000,   0.00000,   0.00000,-44751779.24170,   0.00000
379686315.12753,429464060.02429,-83433517.67252,   0.00089,   0.00121,  -0.00108,431767189.50259,   0.00000,274640135.82653,   0.00000,   0.00000,   0.00000,-42872946.32394,   0.00000
380916270.55320,431840740.80924,-83581482.23500,   0.00089,   0.00122,  -0.00109,433642777.69917,   0.00000,274640135.82653,   0.00000,   0.00000,   0.00000,-40997358.12736,   0.00000
382124647.81352,434208173.80904,-83735611.98760,   0.00089,   0.00123,  -0.00109,435510387.15451,   0.00000,274640135.82653,   0.00000,   0.00000,   0.00000,-39129748.67202,   0.00000
383342272.85898,436597184.97420,-83883576.55008,   0.00089,   0.00124,  -0.00109,437391822.19235,   0.00000,274640135.82653,   0.00000,   0.00000,   0.00000,-37248313.63418,   0.00000
384529071.95393,438955370.18884,-84025375.92247,   0.00089,   0.00125,  -0.00109,439242660.11420,   0.00000,274640135.82653,   0.00000,   0.00000,   0.00000,-35397475.71233,   0.00000
385725118.83404,441335133.56884,-84167175.29485,   0.00089,   0.00126,  -0.00109,441110939.30170,   0.00000,274640135.82653,   0.00000,   0.00000,   0.00000,-33529196.52483,   0.00000
386908835.33394,443727227.32905,-84308974.66723,   0.00090,   0.00126,  -0.00110,442983435.38904,   0.00000,274640135.82653,   0.00000,   0.00000,   0.00000,-31656700.43749,   0.00000
388083304.04868,446097742.92390,-84444608.84951,   0.00090,   0.00127,  -0.00110,444838664.02530,   0.00000,274640135.82653,   0.00000,   0.00000,   0.00000,-29801471.80123,   0.00000
389245442.38322,448480588.89896,-84580243.03179,   0.00090,   0.00128,  -0.00110,446698198.27592,   0.00000,274640135.82653,   0.00000,   0.00000,   0.00000,-27941937.55061,   0.00000
390386002.55239,450854187.08886,-84709712.02397,   0.00090,   0.00129,  -0.00110,448542942.32137,   0.00000,274640135.82653,   0.00000,   0.00000,   0.00000,-26097193.50516,   0.00000
391526562.72156,453227785.27876,-84839181.01615,   0.00090,   0.00130,  -0.00110,450389628.73452,   0.00000,274640135.82653,   0.00000,   0.00000,   0.00000,-24250507.09200,   0.00000
392667122.89073,455601383.46866,-84968650.00832,   0.00090,   0.00131,  -0.00110,452238233.72077,   0.00000,274640135.82653,   0.00000,   0.00000,   0.00000,-22401902.10576,   0.00000
393795352.67970,457987312.03877,-85091953.81040,   0.00090,   0.00132,  -0.00111,454087881.93840,   0.00000,274640135.82653,   0.00000,   0.00000,   0.00000,-20552253.88813,   0.00000
394923582.46867,460373240.60887,-85215257.61247,   0.00090,   0.00132,  -0.00111,455939499.92791,   0.00000,274640135.82653,   0.00000,   0.00000,   0.00000,-18700635.89862,   0.00000
396030234.09227,462749921.39383,-85332396.22444,   0.00090,   0.00133,  -0.00111,457776506.50247,   0.00000,274640135.82653,   0.00000,   0.00000,   0.00000,-16863629.32406,   0.00000
397124555.33566,465138932.55899,-85455700.02651,   0.00090,   0.00134,  -0.00111,459621667.53965,   0.00000,274640135.82653,   0.00000,   0.00000,   0.00000,-15018468.28688,   0.00000
398218876.57906,467527943.72414,-85566673.44838,   0.00090,   0.00135,  -0.00111,461461987.73326,   0.00000,274640135.82653,   0.00000,   0.00000,   0.00000,-13178148.09327,   0.00000
399313197.82245,469916954.88930,-85677646.87024,   0.00090,   0.00136,  -0.00111,463304338.42072,   0.00000,274640135.82653,   0.00000,   0.00000,   0.00000,-11335797.40581,   0.00000
400385940.90049,472296718.26931,-85788620.29211,   0.00090,   0.00137,  -0.00112,465135666.17185,   0.00000,274640135.82653,   0.00000,   0.00000,   0.00000,-9504469.65468,   0.00000
401446353.59831,474688812.02952,-85899593.71397,   0.00090,   0.00138,  -0.00112,466971916.71544,   0.00000,274640135.82653,   0.00000,   0.00000,   0.00000,-7668219.11109,   0.00000
402497518.51098,477059327.62437,-86004401.94573,   0.00090,   0.00139,  -0.00112,468790923.96474,   0.00000,274640135.82653,   0.00000,   0.00000,   0.00000,-5849211.86179,   0.00000
403536353.04345,479442173.59942,-86109210.17750,   0.00090,   0.00139,  -0.00112,470614946.69845,   0.00000,274640135.82653,   0.00000,   0.00000,   0.00000,-4025189.12808,   0.00000
404584435.36106,481846597.73984,-86207853.21915,   0.00090,   0.00140,  -0.00112,472453656.22740,   0.00000,274640135.82653,   0.00000,   0.00000,   0.00000,-2186479.59913,   0.00000
405623269.89353,484229443.71490,-86306496.26081,   0.00090,   0.00141,  -0.00112,474278499.18761,   0.00000,274640135.82653,   0.00000,   0.00000,   0.00000,-361636.63892,   0.00000
405826217.13084,484702987.26862,-86325998.69803,   0.00090,   0.00141,  -0.00112,474640136.07811,   0.00000,274640135.82653,   0.00000,   0.00000,   0.00000,   0.25158,   0.00000
405453377.13852,485140207.78539,-86093966.35182,   0.00090,   0.00142,  -0.00112,474640136.07811,   0.00000,274645383.14133,   0.00000,   0.00000,  -0.00000,   0.00000,   2.00000
404980934.03489,485687979.05361,-85802875.87783,   0.00090,   0.00143,  -0.00112,476461277.74482,   0.00001,274651871.42686,   0.00001,   0.00001,  -0.00001,   0.00000,   2.00000
404508860.99955,486231144.01959,-85512624.70779,   0.00090,   0.00144,  -0.00113,476469923.58048,   0.00002,274658366.34903,   0.00001,   0.00002,  -0.00001,   0.00000,   2.00000
404039858.61345,486773092.18276,-85217772.40509,   0.00090,   0.00145,  -0.00113,476475235.24982,   0.00002,274664855.95655,   0.00001,   0.00002,  -0.00002,   0.00000,   2.00000
403553654.38063,487316095.12870,-84928553.19604,   0.00090,   0.00146,  -0.00113,476490444.03208,   0.00003,274671375.74503,   0.00002,   0.00003,  -0.00002,   0.00000,   2.00000
403062025.65856,487864924.52594,-84631926.21917,   0.00090,   0.00147,  -0.00113,476479738.70602,   0.00003,274677833.05121,   0.00002,   0.00003,  -0.00003,   0.00000,   2.00000
402568141.73948,488405721.42305,-84341606.33252,   0.00090,   0.00147,  -0.00113,476491733.23920,   0.00004,274684309.25236,   0.00002,   0.00004,  -0.00003,  -0.00000,   2.00000
402066095.52834,488948980.92742,-84049292.38109,   0.00090,   0.00148,  -0.00113,476484371.41492,   0.00005,274690735.21463,   0.00002,   0.00004,  -0.00004,   0.00000,   2.00000
401560718.79996,489492600.31746,-83754483.09753,   0.00090,   0.00149,  -0.00113,476509229.53831,   0.00005,274697226.17133,   0.00003,   0.00005,  -0.00004,   0.00000,   2.00000
401055793.33383,490031501.01870,-83460523.73597,   0.00090,   0.00150,  -0.00113,476517996.25898,   0.00006,274703724.46874,   0.00003,   0.00005,  -0.00005,   0.00000,   2.00000
400542600.32439,490572778.22122,-83164534.35488,   0.00090,   0.00151,  -0.00113,476510798.65316,   0.00006,274710173.15054,   0.00003,   0.00006,  -0.00005,  -0.00000,   2.00000
400018505.34662,491113084.40734,-82871971.39795,   0.00090,   0.00152,  -0.00114,476506859.12094,   0.00007,274716584.12698,   0.00004,   0.00007,  -0.00006,   0.00000,   2.00000
399497451.93092,491651951.38311,-82574743.63764,   0.00090,   0.00153,  -0.00114,476512376.52031,   0.00008,274722991.27403,   0.00004,   0.00007,  -0.00006,  -0.00000,   2.00000
398973127.38567,492190908.92926,-82275073.54159,   0.00090,   0.00154,  -0.00114,476537393.61059,   0.00008,274729464.20149,   0.00004,   0.00008,  -0.00007,   0.00000,   2.00000
398437834.60172,492728829.44322,-81978808.48649,   0.00090,   0.00155,  -0.00114,476533588.13521,   0.00009,274735899.92752,   0.00005,   0.00008,  -0.00007,  -0.00000,   2.00000
397903053.91269,493261969.56363,-81683384.62203,   0.00090,   0.00156,  -0.00114,476542397.60521,   0.00009,274742343.62695,   0.00005,   0.00009,  -0.00008,   0.00000,   2.00000
397359786.99517,493797350.02598,-81385813.38128,   0.00090,   0.00157,  -0.00114,476535437.59870,   0.00010,274748739.06902,   0.00005,   0.00009,  -0.00008,   0.00000,   2.00000
396813324.27408,494332592.80649,-81085826.38281,   0.00090,   0.00157,  -0.00114,476560598.72279,   0.00010,274755201.02913,   0.00005,   0.00010,  -0.00009,   0.00000,   2.00000
396259521.47499,494862113.17265,-80792432.24413,   0.00089,   0.00158,  -0.00114,476540554.54431,   0.00011,274761568.13200,   0.00006,   0.00011,  -0.00009,   0.00000,   2.00000
395693413.15216,495398382.47186,-80493571.21511,   0.00089,   0.00159,  -0.00114,476550076.79167,   0.00012,274767946.22034,   0.00006,   0.00011,  -0.00010,  -0.00000,   2.00000
395137068.68236,495922843.37899,-80198605.83408,   0.00089,   0.00160,  -0.00114,476574573.85695,   0.00012,274774388.67296,   0.00006,   0.00012,  -0.00010,   0.00000,   2.00000
394570825.83805,496457149.30429,-79892652.05812,   0.00089,   0.00161,  -0.00114,476581165.40097,   0.00013,274780831.39730,   0.00006,   0.00012,  -0.00010,   0.00000,   2.00000
393994671.28103,496982572.18427,-79598751.58203,   0.00089,   0.00162,  -0.00114,476564305.92673,   0.00013,274787190.91068,   0.00007,   0.00013,  -0.00011,   0.00000,   2.00000
393417871.01257,497510776.09014,-79296922.91966,   0.00089,   0.00163,  -0.00114,476586544.09533,   0.00014,274793606.92438,   0.00007,   0.00013,  -0.00011,  -0.00000,   2.00000
392829874.73274,498037757.42779,-78998354.06045,   0.00089,   0.00164,  -0.00115,476583074.58318,   0.00015,274799987.65426,   0.00007,   0.00014,  -0.00012,  -0.00000,   2.00000
392242508.37547,498559835.71469,-78700617.25243,   0.00089,   0.00165,  -0.00115,476592005.34116,   0.00015,274806377.48064,   0.00008,   0.00015,  -0.00012,  -0.00000,   2.00000
391658166.22876,499080226.14511,-78398165.53287,   0.00089,   0.00166,  -0.00115,476597868.45124,   0.00016,274812765.42070,   0.00008,   0.00015,  -0.00013,  -0.00000,   2.00000
391056550.01282,499600461.29363,-78101319.37844,   0.00089,   0.00167,  -0.00115,476614060.98281,   0.00016,274819188.45008,   0.00008,   0.00016,  -0.00013,   0.00000,   2.00000
390449659.26381,500118389.72103,-77805262.79371,   0.00089,   0.00168,  -0.00115,476591122.20108,   0.00017,274825506.95327,   0.00008,   0.00016,  -0.00014,   0.00000,   2.00000
389854144.99236,500635105.03566,-77498961.38674,   0.00088,   0.00169,  -0.00115,476625908.87374,   0.00017,274831927.08896,   0.00009,   0.00017,  -0.00014,   0.00000,   2.00000
389232941.23914,501151005.25181,-77203754.80777,   0.00088,   0.00170,  -0.00115,476613377.68454,   0.00018,274838279.94456,   0.00009,   0.00017,  -0.00015,  -0.00000,   2.00000
388623230.79764,501665559.23981,-76898339.22898,   0.00088,   0.00170,  -0.00115,476648262.90148,   0.00019,274844734.79215,   0.00009,   0.00018,  -0.00015,   0.00000,   2.00000
388005743.29898,502174731.94589,-76599228.74722,   0.00088,   0.00171,  -0.00115,476628449.83555,   0.00019,274851096.27892,   0.00009,   0.00019,  -0.00015,   0.00000,   2.00000
387379134.40700,502685717.66667,-76297655.47554,   0.00088,   0.00172,  -0.00115,476622254.18188,   0.00020,274857413.36183,   0.00010,   0.00019,  -0.00016,  -0.00000,   2.00000
386747416.09756,503192596.22845,-75999390.85998,   0.00088,   0.00173,  -0.00115,476650908.58103,   0.00020,274863810.58126,   0.00010,   0.00020,  -0.00016,   0.00000,   2.00000
386118738.39424,503697632.40197,-75696373.81751,   0.00088,   0.00174,  -0.00115,476657016.21935,   0.00021,274870207.21315,   0.00010,   0.00020,  -0.00017,  -0.00000,   2.00000
385478590.21466,504201285.84558,-75396458.84860,   0.00088,   0.00175,  -0.00115,476653949.95676,   0.00022,274876570.62732,   0.00010,   0.00021,  -0.00017,   0.00000,   2.00000
384829173.73245,504706612.99942,-75094008.88685,   0.00087,   0.00176,  -0.00115,476647979.12433,   0.00022,274882890.63218,   0.00011,   0.00022,  -0.00018,   0.00000,   2.00000
384187137.01015,505204116.40031,-74792708.12122,   0.00087,   0.00177,  -0.00115,476688820.81526,   0.00023,274889334.42499,   0.00011,   0.00022,  -0.00018,   0.00000,   2.00000
383539296.74894,505699520.02353,-74491932.04112,   0.00087,   0.00178,  -0.00115,476666188.72313,   0.00023,274895675.11640,   0.00011,   0.00023,  -0.00018,  -0.00000,   2.00000
382876381.64511,506197206.70207,-74191127.01990,   0.00087,   0.00179,  -0.00115,476680034.57002,   0.00024,274902043.35118,   0.00011,   0.00023,  -0.00019,  -0.00000,   2.00000
382214326.53681,506689885.58755,-73891161.73871,   0.00087,   0.00180,  -0.00115,476689172.33851,   0.00024,274908422.25964,   0.00012,   0.00024,  -0.00019,  -0.00000,   2.00000
381553153.82031,507177597.87858,-73592041.00545,   0.00087,   0.00181,  -0.00115,476698298.36639,   0.00025,274914811.79321,   0.00012,   0.00025,  -0.00020,  -0.00000,   2.00000
380882504.64210,507666876.27735,-73290288.32528,   0.00087,   0.00182,  -0.00115,476692609.70884,   0.00026,274921159.07769,   0.00012,   0.00025,  -0.00020,  -0.00000,   2.00000
380212746.07725,508151178.66624,-72989380.47595,   0.00086,   0.00183,  -0.00115,476701735.71356,   0.00026,274927517.18888,   0.00012,   0.00026,  -0.00021,   0.00000,   2.00000
379531299.10078,508633983.15298,-72691440.19484,   0.00086,   0.00184,  -0.00115,476698954.93203,   0.00027,274933843.66155,   0.00013,   0.00026,  -0.00021,   0.00000,   2.00000
378847366.58563,509115294.36899,-72391324.47033,   0.00086,   0.00185,  -0.00115,476725015.52347,   0.00027,274940241.65661,   0.00013,   0.00027,  -0.00021,   0.00000,   2.00000
378166489.38228,509594612.08912,-72086417.05423,   0.00086,   0.00186,  -0.00115,476731408.27582,   0.00028,274946640.65689,   0.00013,   0.00028,  -0.00022,   0.00000,   2.00000
377475163.60932,510065986.16747,-71793092.58186,   0.00086,   0.00187,  -0.00115,476714607.93471,   0.00029,274952957.91706,   0.00013,   0.00028,  -0.00022,  -0.00000,   2.00000
376783518.55129,510538786.81633,-71491956.69191,   0.00086,   0.00188,  -0.00115,476737918.85493,   0.00029,274959337.05648,   0.00014,   0.00029,  -0.00023,   0.00000,   2.00000
376080071.91447,511009997.71553,-71193728.15954,   0.00085,   0.00189,  -0.00116,476735348.07458,   0.00030,274965685.44929,   0.00014,   0.00029,  -0.00023,  -0.00000,   2.00000
375374303.21594,511479503.91196,-70893379.19301,   0.00085,   0.00190,  -0.00116,476761583.49573,   0.00030,274972106.21983,   0.00014,   0.00030,  -0.00023,  -0.00000,   2.00000
374674932.71715,511943728.30968,-70591171.61214,   0.00085,   0.00191,  -0.00116,476751056.32368,   0.00031,274978467.65043,   0.00014,   0.00031,  -0.00024,  -0.00000,   2.00000
373961663.98795,512403412.98117,-70297504.86696,   0.00085,   0.00191,  -0.00116,476751297.29014,   0.00031,274984808.58593,   0.00015,   0.00031,  -0.00024,   0.00000,   2.00000
373248176.79574,512864267.75671,-69996062.20913,   0.00085,   0.00192,  -0.00116,476774842.39539,   0.00032,274991212.45918,   0.00015,   0.00032,  -0.00025,   0.00000,   2.00000
372535777.46459,513320156.14291,-69695485.01413,   0.00084,   0.00193,  -0.00116,476784117.22105,   0.00033,274997628.02655,   0.00015,   0.00032,  -0.00025,   0.00000,   2.00000
371814698.45649,513771306.80907,-69400654.84866,   0.00084,   0.00194,  -0.00116,476764647.53726,   0.00033,275003952.45939,   0.00015,   0.00033,  -0.00025,  -0.00000,   2.00000
371091490.40600,514220621.96593,-69103756.10335,   0.00084,   0.00195,  -0.00116,476790969.51557,   0.00034,275010350.02062,   0.00015,   0.00034,  -0.00026,  -0.00000,   2.00000
370358244.85266,514671146.77395,-68803965.67970,   0.00084,   0.00196,  -0.00116,476786000.23808,   0.00034,275016708.48109,   0.00016,   0.00034,  -0.00026,   0.00000,   2.00000
369624208.97104,515113841.59700,-68510717.61214,   0.00084,   0.00197,  -0.00116,476797945.15858,   0.00035,275023088.61270,   0.00016,   0.00035,  -0.00027,   0.00000,   2.00000
368893273.92378,515554523.15157,-68212610.07430,   0.00083,   0.00198,  -0.00116,476804540.03397,   0.00036,275029471.16584,   0.00016,   0.00036,  -0.00027,   0.00000,   2.00000
368160355.92405,515993226.69707,-67912504.13533,   0.00083,   0.00199,  -0.00116,476831015.32471,   0.00036,275035927.40968,   0.00016,   0.00036,  -0.00027,  -0.00000,   2.00000
367418513.65594,516427331.13280,-67618020.32061,   0.00083,   0.00200,  -0.00116,476811679.47179,   0.00037,275042292.97843,   0.00016,   0.00037,  -0.00028,   0.00000,   2.00000
366664557.00466,516859718.46441,-67326256.63715,   0.00083,   0.00201,  -0.00116,476809523.11716,   0.00037,275048629.85650,   0.00017,   0.00037,  -0.00028,  -0.00000,   2.00000
365922104.38132,517286907.96965,-67030622.48028,   0.00082,   0.00202,  -0.00116,476847433.85929,   0.00038,275055081.80502,   0.00017,   0.00038,  -0.00028,   0.00000,   2.00000
365169367.08582,517715176.20417,-66731995.79147,   0.00082,   0.00203,  -0.00116,476842807.84840,   0.00038,275061495.90522,   0.00017,   0.00039,  -0.00029,   0.00000,   2.00000
364405673.20767,518136111.31361,-66444603.90590,   0.00082,   0.00204,  -0.00116,476826110.07138,   0.00039,275067829.07425,   0.00017,   0.00039,  -0.00029,   0.00000,   2.00000
363655549.58213,518554661.15267,-66147676.13372,   0.00082,   0.00205,  -0.00116,476861398.01614,   0.00040,275074268.11907,   0.00017,   0.00040,  -0.00030,   0.00000,   2.00000
362879659.02917,518974473.66729,-65855250.58785,   0.00082,   0.00206,  -0.00116,476848193.07456,   0.00040,275080638.73000,   0.00018,   0.00041,  -0.00030,   0.00000,   2.00000
362118676.60139,519386388.60770,-65561858.81225,   0.00081,   0.00207,  -0.00116,476868780.74535,   0.00041,275087062.46313,   0.00018,   0.00041,  -0.00030,   0.00000,   2.00000
361345421.76940,519796513.51414,-65271115.14677,   0.00081,   0.00208,  -0.00116,476866896.12217,   0.00041,275093458.49279,   0.00018,   0.00042,  -0.00031,  -0.00000,   2.00000
360573535.22407,520201836.41345,-64981213.00329,   0.00081,   0.00209,  -0.00116,476876227.86841,   0.00042,275099867.24518,   0.00018,   0.00043,  -0.00031,   0.00000,   2.00000
359803037.91750,520602400.30952,-64692156.66530,   0.00081,   0.00210,  -0.00116,476885548.86781,   0.00043,275106288.66203,   0.00018,   0.00043,  -0.00031,  -0.00000,   2.00000
359020200.70194,521001170.65263,-64405698.10296,   0.00080,   0.00211,  -0.00116,476883741.03930,   0.00043,275112682.76506,   0.00019,   0.00044,  -0.00032,   0.00000,   2.00000
358254313.12538,521395023.95823,-64112585.80192,   0.00080,   0.00212,  -0.00116,476901654.77840,   0.00044,275119120.51697,   0.00019,   0.00045,  -0.00032,   0.00000,   2.00000
357462181.99660,521789968.00896,-63823795.82707,   0.00080,   0.00213,  -0.00115,476888836.40547,   0.00044,275125491.32357,   0.00019,   0.00045,  -0.00033,   0.00000,   2.00000
356680809.07234,522176973.74689,-63537177.60456,   0.00080,   0.00214,  -0.00115,476929154.60097,   0.00045,275131986.72668,   0.00019,   0.00046,  -0.00033,  -0.00000,   2.00000
355891548.94822,522562487.13333,-63250056.15982,   0.00079,   0.00215,  -0.00115,476907582.29536,   0.00046,275138383.43821,   0.00019,   0.00046,  -0.00033,   0.00000,   2.00000
355103765.23268,522943327.26566,-62963776.10334,   0.00079,   0.00216,  -0.00115,476916898.38169,   0.00046,275144793.09190,   0.00019,   0.00047,  -0.00034,   0.00000,   2.00000
354300700.57016,523324605.13388,-62677337.24075,   0.00079,   0.00217,  -0.00115,476932787.20957,   0.00047,275151239.44832,   0.00020,   0.00048,  -0.00034,   0.00000,   2.00000
353501927.06801,523698916.91875,-62394409.89343,   0.00079,   0.00218,  -0.00115,476924660.46759,   0.00047,275157635.78660,   0.00020,   0.00048,  -0.00034,   0.00000,   2.00000
352701958.58115,524070835.18612,-62109656.17201,   0.00078,   0.00219,  -0.00115,476951525.94517,   0.00048,275164108.53900,   0.00020,   0.00049,  -0.00035,   0.00000,   2.00000
351906272.64075,524435935.49094,-61828401.39737,   0.00078,   0.00220,  -0.00115,476943347.38497,   0.00048,275170530.98729,   0.00020,   0.00050,  -0.00035,   0.00000,   2.00000
351111098.81881,524801298.19780,-61539568.97103,   0.00078,   0.00221,  -0.00115,476967826.51018,   0.00049,275177021.20315,   0.00020,   0.00050,  -0.00035,   0.00000,   2.00000
350304352.80580,525159996.29309,-61261635.76931,   0.00078,   0.00222,  -0.00115,476951203.23872,   0.00050,275183430.61569,   0.00021,   0.00051,  -0.00036,  -0.00000,   2.00000
349498180.01507,525518890.29592,-60976122.91316,   0.00077,   0.00223,  -0.00115,476975740.24476,   0.00050,275189908.21176,   0.00021,   0.00052,  -0.00036,   0.00000,   2.00000
348680361.03751,525871164.57865,-60701455.30693,   0.00077,   0.00224,  -0.00115,476959130.66281,   0.00051,275196305.13420,   0.00021,   0.00052,  -0.00036,   0.00000,   2.00000
347863177.66539,526223568.56198,-60419206.32044,   0.00077,   0.00225,  -0.00115,476983726.11855,   0.00051,275202770.65728,   0.00021,   0.00053,  -0.00037,   0.00000,   2.00000
347048651.12454,526566833.21444,-60146186.72116,   0.00076,   0.00226,  -0.00115,476977802.81206,   0.00052,275209194.17257,   0.00021,   0.00054,  -0.00037,   0.00000,   2.00000
346234825.35152,526910233.58420,-59865607.14608,   0.00076,   0.00227,  -0.00115,477002429.89067,   0.00053,275215686.39714,   0.00021,   0.00054,  -0.00037,   0.00000,   2.00000
345425200.82413,527247217.33363,-59588447.28873,   0.00076,   0.00228,  -0.00115,476994115.67099,   0.00053,275222127.82010,   0.00021,   0.00055,  -0.00038,  -0.00000,   2.00000
344600289.32126,527584242.69925,-59311101.34304,   0.00076,   0.00229,  -0.00115,477010516.58499,   0.00054,275228608.24756,   0.00022,   0.00056,  -0.00038,   0.00000,   2.00000
343779561.46551,527914919.99685,-59037138.85604,   0.00075,   0.00230,  -0.00115,477002181.58825,   0.00054,275235037.89388,   0.00022,   0.00056,  -0.00038,   0.00000,   2.00000
342958138.23055,528243111.82514,-58761468.73781,   0.00075,   0.00231,  -0.00115,477029198.59071,   0.00055,275241545.14235,   0.00022,   0.00057,  -0.00039,   0.00000,   2.00000
342140880.77280,528565094.41794,-58489168.16090,   0.00075,   0.00232,  -0.00115,477020816.40397,   0.00056,275248001.32097,   0.00022,   0.00058,  -0.00039,  -0.00000,   2.00000
341308347.39954,528886996.28945,-58216667.08254,   0.00074,   0.00233,  -0.00115,477037385.64637,   0.00056,275254497.25659,   0.00022,   0.00058,  -0.00039,   0.00000,   2.00000
340479959.86716,529202753.38122,-57947499.52636,   0.00074,   0.00234,  -0.00115,477028985.21622,   0.00057,275260942.14510,   0.00022,   0.00059,  -0.00040,   0.00000,   2.00000
339651054.97210,529516010.79402,-57676656.63160,   0.00074,   0.00234,  -0.00115,477056048.70032,   0.00057,275267465.01382,   0.00022,   0.00060,  -0.00040,  -0.00000,   2.00000
338826274.86263,529823258.92438,-57409133.07772,   0.00073,   0.00235,  -0.00115,477047602.66973,   0.00058,275273936.54588,   0.00023,   0.00060,  -0.00040,   0.00000,   2.00000
337986231.92488,530130303.12655,-57141395.17711,   0.00073,   0.00236,  -0.00115,477064341.13059,   0.00059,275280448.58720,   0.00023,   0.00061,  -0.00041,  -0.00000,   2.00000
337150291.61971,530431398.49530,-56876940.86348,   0.00073,   0.00237,  -0.00115,477055879.34087,   0.00059,275286909.31684,   0.00023,   0.00062,  -0.00041,  -0.00000,   2.00000
336317621.28338,530730766.67508,-56607457.08386,   0.00073,   0.00238,  -0.00115,477062943.36959,   0.00060,275293375.38373,   0.00023,   0.00063,  -0.00041,   0.00000,   2.00000
335485406.65047,531023530.93312,-56344642.89065,   0.00072,   0.00239,  -0.00115,477074408.31925,   0.00060,275299862.83552,   0.00023,   0.00063,  -0.00042,  -0.00000,   2.00000
334652942.45352,531313815.57642,-56080211.51250,   0.00072,   0.00240,  -0.00115,477101526.62337,   0.00061,275306428.67120,   0.00023,   0.00064,  -0.00042,   0.00000,   2.00000
333810868.26385,531602953.72289,-55814568.09556,   0.00072,   0.00241,  -0.00115,477080625.08374,   0.00062,275312897.63605,   0.00023,   0.00065,  -0.00042,  -0.00000,   2.00000
332969332.11642,531885565.83991,-55555590.64650,   0.00071,   0.00242,  -0.00115,477092063.08248,   0.00062,275319388.00669,   0.00024,   0.00065,  -0.00043,   0.00000,   2.00000
332129737.21435,532164130.89185,-55297413.36412,   0.00071,   0.00243,  -0.00115,477101318.17785,   0.00063,275325891.75873,   0.00024,   0.00066,  -0.00043,   0.00000,   2.00000
331293441.82832,532441074.96027,-55034185.76436,   0.00071,   0.00244,  -0.00115,477108422.09320,   0.00063,275332400.97555,   0.00024,   0.00067,  -0.00043,  -0.00000,   2.00000
330459759.36405,532710146.21512,-54780019.52150,   0.00070,   0.00245,  -0.00115,477101874.82936,   0.00064,275338865.78606,   0.00024,   0.00067,  -0.00044,   0.00000,   2.00000
329610822.25863,532978780.94307,-54525597.96185,   0.00070,   0.00246,  -0.00115,477118934.61236,   0.00065,275345372.70475,   0.00024,   0.00068,  -0.00044,  -0.00000,   2.00000
328780480.53359,533243860.92144,-54264791.45831,   0.00070,   0.00247,  -0.00115,477136067.62465,   0.00065,275351921.77060,   0.00024,   0.00069,  -0.00044,   0.00000,   2.00000
327935509.12112,533504631.43535,-54011986.42200,   0.00069,   0.00248,  -0.00115,477137433.09745,   0.00066,275358455.28298,   0.00024,   0.00069,  -0.00044,   0.00000,   2.00000
327094447.51111,533760108.17341,-53762315.36062,   0.00069,   0.00249,  -0.00115,477128692.63211,   0.00066,275364936.27764,   0.00024,   0.00070,  -0.00045,   0.00000,   2.00000
326239431.00104,534017348.19038,-53506507.81408,   0.00069,   0.00250,  -0.00115,477143839.54346,   0.00067,275371452.47189,   0.00024,   0.00071,  -0.00045,   0.00000,   2.00000
325402444.41295,534265165.16285,-53258420.17601,   0.00068,   0.00251,  -0.00115,477147044.62599,   0.00068,275377959.92943,   0.00025,   0.00071,  -0.00045,   0.00000,   2.00000
324567497.24825,534509249.88286,-53011115.82173,   0.00068,   0.00252,  -0.00115,477156170.92545,   0.00068,275384480.38593,   0.00025,   0.00072,  -0.00046,   0.00000,   2.00000
323720333.90112,534753703.76800,-52759971.97599,   0.00068,   0.00253,  -0.00115,477153428.43808,   0.00069,275390970.32309,   0.00025,   0.00073,  -0.00046,  -0.00000,   2.00000
322872254.48049,534993414.82077,-52513208.71217,   0.00068,   0.00254,  -0.00115,477182659.48666,   0.00069,275397547.22469,   0.00025,   0.00074,  -0.00046,  -0.00000,   2.00000
322027987.13212,535228111.72582,-52269513.71675,   0.00067,   0.00255,  -0.00114,477173836.45740,   0.00070,275404071.07525,   0.00025,   0.00074,  -0.00047,   0.00000,   2.00000
321187480.82550,535457886.01934,-52028860.74283,   0.00067,   0.00256,  -0.00114,477164909.29305,   0.00071,275410541.62821,   0.00025,   0.00075,  -0.00047,  -0.00000,   2.00000
320348624.67482,535687579.24726,-51780817.54396,   0.00067,   0.00257,  -0.00114,477189994.01672,   0.00071,275417084.06425,   0.00025,   0.00076,  -0.00047,   0.00000,   2.00000
319510667.88967,535911412.52466,-51539461.83694,   0.00066,   0.00258,  -0.00114,477201124.27377,   0.00072,275423646.87019,   0.00025,   0.00076,  -0.00047,   0.00000,   2.00000
318660664.85009,536132073.27826,-51302317.05163,   0.00066,   0.00259,  -0.00114,477182522.61899,   0.00072,275430120.63461,   0.00025,   0.00077,  -0.00048,   0.00000,   2.00000
317827025.90589,536348822.91837,-51062502.68161,   0.00066,   0.00260,  -0.00114,477219255.78167,   0.00073,275436709.29595,   0.00025,   0.00078,  -0.00048,   0.00000,   2.00000
316981224.74664,536562446.59168,-50826864.15057,   0.00065,   0.00261,  -0.00114,477200681.47778,   0.00074,275443208.82602,   0.00026,   0.00078,  -0.00048,   0.00000,   2.00000
316137563.29968,536772590.77672,-50591972.96546,   0.00065,   0.00262,  -0.00114,477209714.01435,   0.00074,275449721.24255,   0.00026,   0.00079,  -0.00049,   0.00000,   2.00000
315313106.16025,536980030.83352,-50350775.19654,   0.00065,   0.00263,  -0.00114,477226278.22218,   0.00075,275456274.17348,   0.00026,   0.00080,  -0.00049,  -0.00000,   2.00000
314473699.65247,537183344.14933,-50117416.01927,   0.00064,   0.00264,  -0.00114,477227758.79259,   0.00075,275462811.94599,   0.00026,   0.00081,  -0.00049,   0.00000,   2.00000
313636464.51126,537383283.40256,-49884809.08451,   0.00064,   0.00265,  -0.00114,477236771.54601,   0.00076,275469362.40940,   0.00026,   0.00081,  -0.00049,   0.00000,   2.00000
312785627.03147,537577989.05561,-49662163.24121,   0.00064,   0.00266,  -0.00114,477220148.92773,   0.00077,275475830.91347,   0.00026,   0.00082,  -0.00050,   0.00000,   2.00000
311954142.55310,537770202.12739,-49433187.96864,   0.00063,   0.00267,  -0.00114,477236539.21506,   0.00077,275482339.60385,   0.00026,   0.00083,  -0.00050,   0.00000,   2.00000
311123534.21859,537960230.11168,-49202797.72061,   0.00063,   0.00268,  -0.00114,477263623.12764,   0.00078,275488927.92124,   0.00026,   0.00083,  -0.00050,  -0.00000,   2.00000
310280271.50153,538147250.39640,-48976409.48602,   0.00062,   0.00268,  -0.00114,477245112.96328,   0.00078,275495426.99157,   0.00026,   0.00084,  -0.00050,   0.00000,   2.00000
309455366.14788,538329784.06703,-48749655.24457,   0.00062,   0.00269,  -0.00114,477263327.28192,   0.00079,275501972.94438,   0.00026,   0.00085,  -0.00051,  -0.00000,   2.00000
308616575.46445,538507247.67230,-48532770.27014,   0.00062,   0.00270,  -0.00114,477246653.44291,   0.00080,275508436.49495,   0.00026,   0.00086,  -0.00051,   0.00000,   2.00000
307796123.21687,538683519.96706,-48307462.55947,   0.00061,   0.00271,  -0.00114,477281032.29346,   0.00080,275515006.99932,   0.00026,   0.00086,  -0.00051,   0.00000,   2.00000
306962747.17058,538856876.89459,-48086071.75772,   0.00061,   0.00272,  -0.00114,477262501.41533,   0.00081,275521488.00558,   0.00027,   0.00087,  -0.00052,   0.00000,   2.00000
306145718.15308,539024902.97962,-47868164.05438,   0.00061,   0.00273,  -0.00114,477300578.22252,   0.00081,275528089.74904,   0.00027,   0.00088,  -0.00052,   0.00000,   2.00000
305316709.85954,539192157.73723,-47648190.99517,   0.00060,   0.00274,  -0.00114,477280215.58873,   0.00082,275534594.97467,   0.00027,   0.00088,  -0.00052,   0.00000,   2.00000
304489917.90550,539353365.86176,-47436941.70014,   0.00060,   0.00275,  -0.00114,477272631.84442,   0.00083,275541051.42752,   0.00027,   0.00089,  -0.00052,  -0.00000,   2.00000
303664326.37485,539512557.17597,-47224297.82772,   0.00060,   0.00276,  -0.00114,477299599.85501,   0.00083,275547587.66458,   0.00027,   0.00090,  -0.00053,  -0.00000,   2.00000
302840981.84916,539668811.11864,-47012348.69107,   0.00059,   0.00277,  -0.00114,477308393.41778,   0.00084,275554135.86403,   0.00027,   0.00090,  -0.00053,   0.00000,   2.00000
302021846.00387,539823307.29492,-46797213.77275,   0.00059,   0.00278,  -0.00114,477297093.73690,   0.00084,275560621.19141,   0.00027,   0.00091,  -0.00053,  -0.00000,   2.00000
301220430.15591,539971958.25270,-46587711.09028,   0.00059,   0.00279,  -0.00114,477316601.06476,   0.00085,275567158.43239,   0.00027,   0.00092,  -0.00053,  -0.00000,   2.00000
300404686.92884,540118746.43206,-46379902.06372,   0.00058,   0.00280,  -0.00114,477316312.12815,   0.00086,275573673.78373,   0.00027,   0.00093,  -0.00054,  -0.00000,   2.00000
299592032.90778,540261874.26587,-46174801.09620,   0.00058,   0.00281,  -0.00114,477306714.52454,   0.00086,275580132.59810,   0.00027,   0.00093,  -0.00054,   0.00000,   2.00000
298780777.02390,540403112.57929,-45968347.23928,   0.00058,   0.00282,  -0.00114,477333618.07386,   0.00087,275586671.13949,   0.00027,   0.00094,  -0.00054,   0.00000,   2.00000
297971586.72280,540538764.73027,-45770529.66587,   0.00057,   0.00283,  -0.00114,477325777.10925,   0.00087,275593159.55557,   0.00027,   0.00095,  -0.00054,  -0.00000,   2.00000
297165603.20878,540673755.37669,-45567410.84574,   0.00057,   0.00284,  -0.00114,477332593.12347,   0.00088,275599652.67171,   0.00027,   0.00095,  -0.00055,   0.00000,   2.00000
296361851.67618,540806087.64149,-45364959.47198,   0.00057,   0.00284,  -0.00114,477341186.08976,   0.00089,275606157.10011,   0.00027,   0.00096,  -0.00055,  -0.00000,   2.00000
295560078.24188,540932997.01360,-45171109.64880,   0.00056,   0.00285,  -0.00114,477333206.61054,   0.00089,275612610.88014,   0.00027,   0.00097,  -0.00055,   0.00000,   2.00000
294760813.84362,541060122.39372,-44969963.19619,   0.00056,   0.00286,  -0.00114,477358285.14259,   0.00090,275619137.73203,   0.00027,   0.00098,  -0.00055,  -0.00000,   2.00000
293963489.52956,541181917.55562,-44777405.91562,   0.00056,   0.00287,  -0.00114,477350268.16091,   0.00090,275625613.64189,   0.00027,   0.00098,  -0.00056,  -0.00000,   2.00000
293169923.40470,541302385.09861,-44581484.21369,   0.00055,   0.00288,  -0.00114,477338676.05712,   0.00091,275632025.33945,   0.00027,   0.00099,  -0.00056,   0.00000,   2.00000
292377066.30363,541419189.64629,-44390206.02348,   0.00055,   0.00289,  -0.00114,477367167.53503,   0.00092,275638523.12519,   0.00027,   0.00100,  -0.00056,  -0.00000,   2.00000
291586986.22246,541532781.56904,-44201502.50081,   0.00055,   0.00290,  -0.00114,477357289.23589,   0.00092,275644962.97113,   0.00028,   0.00100,  -0.00056,  -0.00000,   2.00000
290816061.25811,541643451.91130,-44012508.11931,   0.00054,   0.00291,  -0.00114,477374292.06232,   0.00093,275651445.70981,   0.00028,   0.00101,  -0.00057,   0.00000,   2.00000
290030367.07748,541752288.21382,-43825044.70458,   0.00054,   0.00292,  -0.00114,477374077.55820,   0.00093,275657906.72117,   0.00028,   0.00102,  -0.00057,   0.00000,   2.00000
289246897.28878,541858766.78634,-43638198.68204,   0.00054,   0.00293,  -0.00114,477382467.33754,   0.00094,275664378.34398,   0.00028,   0.00103,  -0.00057,  -0.00000,   2.00000
288465179.53055,541960277.59112,-43459845.15794,   0.00053,   0.00294,  -0.00114,477374161.36225,   0.00095,275670797.86124,   0.00028,   0.00103,  -0.00057,   0.00000,   2.00000
287703615.79360,542061031.44286,-43275226.31375,   0.00053,   0.00295,  -0.00114,477389267.64610,   0.00095,275677253.25078,   0.00028,   0.00104,  -0.00057,   0.00000,   2.00000
286927142.20939,542159940.66672,-43092096.16792,   0.00053,   0.00295,  -0.00114,477389073.28406,   0.00096,275683686.98191,   0.00028,   0.00105,  -0.00058,   0.00000,   2.00000
286169449.70978,542253689.75504,-42916558.65769,   0.00052,   0.00296,  -0.00114,477389077.63731,   0.00096,275690099.77181,   0.00028,   0.00105,  -0.00058,   0.00000,   2.00000
285396490.29532,542346313.15934,-42740580.04175,   0.00052,   0.00297,  -0.00114,477407252.55882,   0.00097,275696560.12741,   0.00028,   0.00106,  -0.00058,  -0.00000,   2.00000
284644044.54934,542437678.06768,-42560229.27920,   0.00052,   0.00298,  -0.00114,477403852.17550,   0.00098,275702986.57105,   0.00028,   0.00107,  -0.00058,   0.00000,   2.00000
283893141.29269,542524403.18662,-42388316.78774,   0.00051,   0.00299,  -0.00114,477395265.40769,   0.00098,275709359.67010,   0.00028,   0.00108,  -0.00059,   0.00000,   2.00000
283144190.56761,542609764.58750,-42215111.57306,   0.00051,   0.00300,  -0.00114,477421779.96125,   0.00099,275715811.82998,   0.00028,   0.00108,  -0.00059,  -0.00000,   2.00000
282380315.72386,542692605.35203,-42045168.12581,   0.00051,   0.00301,  -0.00114,477403220.50204,   0.00099,275722172.97489,   0.00028,   0.00109,  -0.00059,  -0.00000,   2.00000
281635221.48491,542770741.69707,-41882768.52664,   0.00050,   0.00302,  -0.00114,477402808.42772,   0.00100,275728511.72515,   0.00028,   0.00110,  -0.00059,   0.00000,   2.00000
280910303.87999,542849311.35689,-41712260.92815,   0.00050,   0.00303,  -0.00114,477435871.18844,   0.00100,275734954.34696,   0.00028,   0.00110,  -0.00060,   0.00000,   2.00000
280170238.51017,542925427.37250,-41544971.77653,   0.00049,   0.00303,  -0.00114,477417263.81872,   0.00101,275741305.53695,   0.00028,   0.00111,  -0.00060,  -0.00000,   2.00000
279431492.77957,542997804.93978,-41384213.77592,   0.00049,   0.00304,  -0.00114,477426876.48215,   0.00102,275747672.15998,   0.00028,   0.00112,  -0.00060,   0.00000,   2.00000
278694902.94265,543067666.89953,-41225796.30249,   0.00049,   0.00305,  -0.00114,477416420.56328,   0.00102,275753978.31482,   0.00028,   0.00112,  -0.00060,   0.00000,   2.00000
277978672.39410,543138121.67621,-41059303.84196,   0.00048,   0.00306,  -0.00114,477449335.51080,   0.00103,275760388.04184,   0.00028,   0.00113,  -0.00060,  -0.00000,   2.00000
277263670.08181,543203725.84675,-40902955.38788,   0.00048,   0.00307,  -0.00114,477421975.70042,   0.00103,275766673.03315,   0.00028,   0.00114,  -0.00061,   0.00000,   2.00000
276533312.36232,543268152.44334,-40746111.12155,   0.00048,   0.00308,  -0.00114,477440157.39537,   0.00104,275773006.08983,   0.00028,   0.00115,  -0.00061,  -0.00000,   2.00000
275822485.13846,543330263.70631,-40590784.59040,   0.00048,   0.00309,  -0.00114,477437661.91525,   0.00105,275779308.67337,   0.00028,   0.00115,  -0.00061,  -0.00000,   2.00000
275112947.32059,543388896.80542,-40441957.37706,   0.00047,   0.00310,  -0.00114,477447038.46035,   0.00105,275785625.84727,   0.00028,   0.00116,  -0.00061,  -0.00000,   2.00000
274423819.10219,543447785.86417,-40286857.86102,   0.00047,   0.00310,  -0.00114,477461281.16502,   0.00106,275791975.88943,   0.00028,   0.00117,  -0.00061,   0.00000,   2.00000
273718945.51792,543504287.30508,-40134807.55935,   0.00047,   0.00311,  -0.00114,477442586.63745,   0.00106,275798233.89995,   0.00028,   0.00117,  -0.00062,  -0.00000,   2.00000
273032970.51766,543557597.68538,-39988487.45124,   0.00046,   0.00312,  -0.00114,477459827.10188,   0.00107,275804536.37353,   0.00028,   0.00118,  -0.00062,   0.00000,   2.00000
272331126.41645,543608535.03125,-39845156.96125,   0.00046,   0.00313,  -0.00114,477441090.50016,   0.00107,275810746.72523,   0.00028,   0.00119,  -0.00062,   0.00000,   2.00000
271649245.23784,543658749.31090,-39699792.65986,   0.00046,   0.00314,  -0.00114,477475133.99485,   0.00108,275817065.51471,   0.00028,   0.00119,  -0.00062,  -0.00000,   2.00000
270969082.18029,543706864.35180,-39556651.19785,   0.00045,   0.00315,  -0.00114,477464325.18038,   0.00109,275823322.03700,   0.00028,   0.00120,  -0.00062,  -0.00000,   2.00000
270290582.89703,543752907.35577,-39415712.91620,   0.00045,   0.00316,  -0.00114,477453435.96927,   0.00109,275829516.16477,   0.00028,   0.00121,  -0.00063,  -0.00000,   2.00000
269614049.22881,543797486.12142,-39275231.25815,   0.00045,   0.00316,  -0.00114,477460969.34552,   0.00110,275835718.11186,   0.00028,   0.00122,  -0.00063,   0.00000,   2.00000
268957247.39950,543840988.41910,-39134478.17635,   0.00044,   0.00317,  -0.00114,477476317.64581,   0.00110,275841957.47282,   0.00028,   0.00122,  -0.00063,   0.00000,   2.00000
268301248.78983,543880823.19151,-39001906.44219,   0.00044,   0.00318,  -0.00114,477466831.54166,   0.00111,275848139.64216,   0.00028,   0.00123,  -0.00063,   0.00000,   2.00000
267647885.31035,543921026.10014,-38863763.59118,   0.00044,   0.00319,  -0.00114,477472746.66881,   0.00112,275854323.39615,   0.00028,   0.00124,  -0.00063,   0.00000,   2.00000
266995718.22429,543958184.15971,-38732075.91997,   0.00043,   0.00320,  -0.00114,477481682.33975,   0.00112,275860520.23250,   0.00028,   0.00124,  -0.00064,   0.00000,   2.00000
266344977.37139,543993464.73416,-38602515.46452,   0.00043,   0.00321,  -0.00114,477470587.65227,   0.00113,275866653.79096,   0.00028,   0.00125,  -0.00064,   0.00000,   2.00000
265696127.75842,544027454.40493,-38473372.47586,   0.00043,   0.00321,  -0.00114,477477936.46150,   0.00113,275872794.54857,   0.00028,   0.00126,  -0.00064,   0.00000,   2.00000
265067073.00811,544060699.51248,-38343947.22133,   0.00042,   0.00322,  -0.00114,477492960.65816,   0.00114,275878971.64522,   0.00028,   0.00126,  -0.00064,  -0.00000,   2.00000
264439306.23324,544092172.44518,-38216627.52122,   0.00042,   0.00323,  -0.00114,477481757.31193,   0.00114,275885084.91670,   0.00028,   0.00127,  -0.00064,   0.00000,   2.00000
263812682.99469,544120778.25306,-38095728.99279,   0.00042,   0.00324,  -0.00114,477490487.99230,   0.00115,275891210.62902,   0.00028,   0.00128,  -0.00065,   0.00000,   2.00000
263187963.38603,544149331.67241,-37970881.69319,   0.00042,   0.00325,  -0.00114,477477723.22192,   0.00115,275897266.66557,   0.00028,   0.00128,  -0.00065,   0.00000,   2.00000
262582361.65249,544175694.18768,-37851763.07647,   0.00041,   0.00325,  -0.00114,477493955.86063,   0.00116,275903363.89434,   0.00028,   0.00129,  -0.00065,   0.00000,   2.00000
261978541.01218,544200970.77297,-37733031.63039,   0.00041,   0.00326,  -0.00114,477501104.96575,   0.00117,275909467.47113,   0.00028,   0.00130,  -0.00065,  -0.00000,   2.00000
261375803.69773,544224622.33636,-37616339.84743,   0.00041,   0.00327,  -0.00114,477489712.06479,   0.00117,275915506.50412,   0.00028,   0.00130,  -0.00065,   0.00000,   2.00000
260774821.88302,544247215.13119,-37500022.84158,   0.00040,   0.00328,  -0.00114,477496786.23422,   0.00118,275921551.79123,   0.00028,   0.00131,  -0.00066,   0.00000,   2.00000
260174848.05438,544268212.56167,-37385722.78996,   0.00040,   0.00329,  -0.00114,477485313.52699,   0.00118,275927532.36887,   0.00028,   0.00132,  -0.00066,   0.00000,   2.00000
259594698.96416,544288936.70607,-37271124.17452,   0.00040,   0.00329,  -0.00114,477499792.91253,   0.00119,275933547.63967,   0.00028,   0.00132,  -0.00066,   0.00000,   2.00000
259014794.58382,544306508.98336,-37164543.58154,   0.00039,   0.00330,  -0.00114,477489666.51165,   0.00119,275939503.31830,   0.00028,   0.00133,  -0.00066,  -0.00000,   2.00000
258437221.81493,544324761.96248,-37052284.39097,   0.00039,   0.00331,  -0.00114,477495129.39977,   0.00120,275945459.26402,   0.00028,   0.00134,  -0.00066,   0.00000,   2.00000
257878823.55520,544341272.80762,-36945750.67363,   0.00039,   0.00332,  -0.00114,477510889.67111,   0.00121,275951454.82956,   0.00028,   0.00134,  -0.00066,   0.00000,   2.00000
257321201.56050,544356359.80500,-36841179.25934,   0.00039,   0.00333,  -0.00114,477499217.23116,   0.00121,275957384.77118,   0.00028,   0.00135,  -0.00067,  -0.00000,   2.00000
256765198.14155,544370577.75693,-36736940.87107,   0.00038,   0.00333,  -0.00115,477506028.91561,   0.00122,275963320.13884,   0.00028,   0.00136,  -0.00067,  -0.00000,   2.00000
256209900.59347,544383394.76755,-36634643.80141,   0.00038,   0.00334,  -0.00115,477494278.77659,   0.00122,275969189.74026,   0.00028,   0.00136,  -0.00067,  -0.00000,   2.00000
255673791.20199,544394683.26184,-36538053.34272,   0.00038,   0.00335,  -0.00115,477509776.58076,   0.00123,275975098.21190,   0.00028,   0.00137,  -0.00067,   0.00000,   2.00000
255139876.25719,544406788.07131,-36435749.56671,   0.00037,   0.00336,  -0.00115,477515080.01842,   0.00123,275981006.29335,   0.00028,   0.00138,  -0.00067,   0.00000,   2.00000
254605911.75876,544415970.61546,-36341390.57625,   0.00037,   0.00336,  -0.00115,477504647.02243,   0.00124,275986853.59593,   0.00028,   0.00138,  -0.00067,  -0.00000,   2.00000
254074111.51431,544425979.42737,-36241305.56135,   0.00037,   0.00337,  -0.00115,477509885.11252,   0.00124,275992700.46430,   0.00027,   0.00139,  -0.00068,  -0.00000,   2.00000
253560499.00538,544434104.81400,-36148525.46583,   0.00037,   0.00338,  -0.00115,477506631.50781,   0.00125,275998514.20814,   0.00027,   0.00140,  -0.00068,   0.00000,   2.00000
253047325.43630,544440986.05068,-36057620.25388,   0.00036,   0.00339,  -0.00115,477494618.30623,   0.00125,276004261.28281,   0.00027,   0.00140,  -0.00068,   0.00000,   2.00000
252555007.60177,544448762.51596,-35964803.44747,   0.00036,   0.00339,  -0.00115,477526906.69256,   0.00126,276010112.05114,   0.00027,   0.00141,  -0.00068,   0.00000,   2.00000
252043613.69513,544453736.25933,-35876045.07537,   0.00036,   0.00340,  -0.00115,477489091.23273,   0.00126,276015796.78135,   0.00027,   0.00142,  -0.00068,   0.00000,   2.00000
251552521.05499,544458093.73843,-35791404.76667,   0.00036,   0.00341,  -0.00115,477522665.67225,   0.00127,276021590.43811,   0.00027,   0.00142,  -0.00068,  -0.00000,   2.00000
251080710.73144,544463969.06473,-35701965.39117,   0.00035,   0.00342,  -0.00115,477516346.32238,   0.00128,276027339.11937,   0.00027,   0.00143,  -0.00069,  -0.00000,   2.00000
250590119.59632,544466017.83097,-35621002.00141,   0.00035,   0.00342,  -0.00115,477498381.70296,   0.00128,276032998.26626,   0.00027,   0.00144,  -0.00069,   0.00000,   2.00000
250119325.11337,544468613.47185,-35539685.66877,   0.00035,   0.00343,  -0.00115,477511850.10914,   0.00129,276038689.05420,   0.00027,   0.00144,  -0.00069,  -0.00000,   2.00000
249667117.92536,544471278.26756,-35459580.36288,   0.00035,   0.00344,  -0.00115,477506707.46753,   0.00129,276044339.64895,   0.00027,   0.00145,  -0.00069,   0.00000,   2.00000
249216200.30112,544473419.35756,-35379724.08189,   0.00034,   0.00345,  -0.00115,477512940.78422,   0.00130,276049993.98227,   0.00027,   0.00145,  -0.00069,   0.00000,   2.00000
248766569.97068,544475042.15442,-35300116.34521,   0.00034,   0.00345,  -0.00115,477519174.40864,   0.00130,276055652.03513,   0.00027,   0.00146,  -0.00069,   0.00000,   2.00000
248316984.30983,544475612.02869,-35222301.33678,   0.00034,   0.00346,  -0.00115,477506821.50121,   0.00131,276061242.19044,   0.00027,   0.00147,  -0.00070,   0.00000,   2.00000
247885306.13607,544474843.13725,-35151711.09202,   0.00034,   0.00347,  -0.00115,477502821.90727,   0.00131,276066796.79550,   0.00027,   0.00147,  -0.00070,   0.00000,   2.00000
247455428.18668,544475155.33611,-35075304.67384,   0.00033,   0.00347,  -0.00116,477507539.15510,   0.00132,276072349.55468,   0.00027,   0.00148,  -0.00070,   0.00000,   2.00000
247026180.41170,544473471.05957,-35005164.93716,   0.00033,   0.00348,  -0.00116,477514980.54209,   0.00132,276077910.97880,   0.00027,   0.00149,  -0.00070,   0.00000,   2.00000
246615357.91571,544472100.07000,-34936192.59332,   0.00033,   0.00349,  -0.00116,477509485.49543,   0.00133,276083431.07002,   0.00027,   0.00149,  -0.00070,   0.00000,   2.00000
246205693.27097,544470318.78882,-34867431.20895,   0.00033,   0.00350,  -0.00116,477515487.08874,   0.00133,276088954.30949,   0.00027,   0.00150,  -0.00070,   0.00000,   2.00000
245814388.30389,544468923.69445,-34799831.83730,   0.00033,   0.00350,  -0.00116,477509881.99275,   0.00134,276094435.82707,   0.00027,   0.00150,  -0.00071,  -0.00000,   2.00000
245403688.76800,544463739.48523,-34740567.86334,   0.00032,   0.00351,  -0.00116,477491588.91589,   0.00134,276099826.89714,   0.00027,   0.00151,  -0.00071,   0.00000,   2.00000
245031838.04958,544462425.26830,-34674304.46170,   0.00032,   0.00352,  -0.00116,477510016.75031,   0.00135,276105269.39352,   0.00027,   0.00152,  -0.00071,  -0.00000,   2.00000
244642444.25750,544459390.83695,-34608811.19342,   0.00032,   0.00352,  -0.00116,477508918.81662,   0.00135,276110687.83025,   0.00027,   0.00152,  -0.00071,   0.00000,   2.00000
244270756.99911,544455337.92474,-34550500.12803,   0.00032,   0.00353,  -0.00116,477504448.33632,   0.00136,276116069.19938,   0.00027,   0.00153,  -0.00071,  -0.00000,   2.00000
243917287.22444,544451835.41763,-34493312.40329,   0.00031,   0.00354,  -0.00116,477498545.78629,   0.00136,276121408.02402,   0.00027,   0.00153,  -0.00071,  -0.00000,   2.00000
243564795.99239,544448044.21058,-34436296.25335,   0.00031,   0.00354,  -0.00116,477504247.06892,   0.00137,276126749.27364,   0.00027,   0.00154,  -0.00071,   0.00000,   2.00000
243213281.25521,544443967.23772,-34379451.29919,   0.00031,   0.00355,  -0.00116,477509948.81611,   0.00137,276132092.93628,   0.00027,   0.00155,  -0.00072,  -0.00000,   2.00000
242861271.74872,544439058.54360,-34324280.73053,   0.00031,   0.00356,  -0.00116,477497050.84459,   0.00138,276137367.13125,   0.00027,   0.00155,  -0.00072,   0.00000,   2.00000
242526840.92846,544433294.08687,-34276257.36047,   0.00031,   0.00356,  -0.00116,477492281.41803,   0.00138,276142603.45592,   0.00027,   0.00156,  -0.00072,   0.00000,   2.00000
242212539.84366,544430271.71058,-34221783.22444,   0.00031,   0.00357,  -0.00116,477503367.28767,   0.00139,276147863.24708,   0.00026,   0.00156,  -0.00072,  -0.00000,   2.00000
241897044.50884,544424975.26406,-34175008.08781,   0.00030,   0.00358,  -0.00117,477491648.63873,   0.00139,276153058.26343,   0.00026,   0.00157,  -0.00072,   0.00000,   2.00000
241582956.92198,544420956.79812,-34122331.11265,   0.00030,   0.00358,  -0.00117,477495808.57953,   0.00140,276158250.12725,   0.00026,   0.00158,  -0.00072,   0.00000,   2.00000
241287868.63623,544416751.01647,-34075301.33441,   0.00030,   0.00359,  -0.00117,477509441.79382,   0.00140,276163475.41449,   0.00026,   0.00158,  -0.00072,   0.00000,   2.00000
240990498.04202,544411247.85206,-34031392.40705,   0.00030,   0.00359,  -0.00117,477477720.48865,   0.00141,276168558.58228,   0.00026,   0.00159,  -0.00073,   0.00000,   2.00000
240695482.98893,544406111.51427,-33986122.17188,   0.00030,   0.00360,  -0.00117,477501668.76432,   0.00141,276173715.50008,   0.00026,   0.00159,  -0.00073,   0.00000,   2.00000
240416303.18083,544399756.12624,-33949454.92785,   0.00029,   0.00361,  -0.00117,477477986.81897,   0.00142,276178761.55360,   0.00026,   0.00160,  -0.00073,  -0.00000,   2.00000
240157139.56959,544396302.06242,-33906309.77176,   0.00029,   0.00361,  -0.00117,477488729.75774,   0.00142,276183830.27663,   0.00026,   0.00160,  -0.00073,  -0.00000,   2.00000
239879398.62249,544389636.86278,-33869873.27968,   0.00029,   0.00362,  -0.00117,477488547.69713,   0.00143,276188879.38302,   0.00026,   0.00161,  -0.00073,  -0.00000,   2.00000
239638823.69673,544386933.02241,-33827902.37068,   0.00029,   0.00363,  -0.00117,477487434.43210,   0.00143,276193905.18919,   0.00026,   0.00162,  -0.00073,  -0.00000,   2.00000
239377990.48954,544380461.37045,-33794113.62159,   0.00029,   0.00363,  -0.00117,477468593.11302,   0.00144,276198839.24102,   0.00026,   0.00162,  -0.00073,  -0.00000,   2.00000
239155363.22001,544377091.08287,-33759347.16746,   0.00029,   0.00364,  -0.00117,477487226.21630,   0.00144,276203826.81126,   0.00026,   0.00163,  -0.00073,   0.00000,   2.00000
238914567.16235,544371995.54059,-33725217.62714,   0.00029,   0.00364,  -0.00117,477485632.22844,   0.00144,276208789.45409,   0.00026,   0.00163,  -0.00074,   0.00000,   2.00000
238691540.38147,544367861.65238,-33692126.63321,   0.00028,   0.00365,  -0.00118,477478897.43207,   0.00145,276213707.28791,   0.00026,   0.00164,  -0.00074,  -0.00000,   2.00000
238486231.46345,544364713.64670,-33660070.78946,   0.00028,   0.00366,  -0.00118,477472088.67068,   0.00145,276218580.12751,   0.00026,   0.00164,  -0.00074,   0.00000,   2.00000
238280933.09113,544360012.56100,-33634150.62535,   0.00028,   0.00366,  -0.00118,477478405.59064,   0.00146,276223458.98173,   0.00026,   0.00165,  -0.00074,   0.00000,   2.00000
238075036.68308,544356143.17112,-33603731.15760,   0.00028,   0.00367,  -0.00118,477463504.66044,   0.00146,276228261.64435,   0.00026,   0.00165,  -0.00074,   0.00000,   2.00000
237886267.42244,544351831.42202,-33580381.23753,   0.00028,   0.00367,  -0.00118,477457841.89086,   0.00147,276233024.12927,   0.00026,   0.00166,  -0.00074,   0.00000,   2.00000
237717321.42672,544350603.58044,-33550523.44808,   0.00028,   0.00368,  -0.00118,477468113.95167,   0.00147,276237808.23812,   0.00026,   0.00166,  -0.00074,   0.00000,   2.00000
237529480.12882,544346169.21329,-33527323.72466,   0.00028,   0.00368,  -0.00118,477467610.13296,   0.00148,276242572.21769,   0.00026,   0.00167,  -0.00075,   0.00000,   2.00000
237378057.97235,544344493.99824,-33504600.82827,   0.00027,   0.00369,  -0.00118,477467247.88882,   0.00148,276247316.55902,   0.00026,   0.00168,  -0.00075,  -0.00000,   2.00000
237225325.57743,544342213.41462,-33483407.61447,   0.00027,   0.00369,  -0.00118,477453464.29170,   0.00148,276251989.34393,   0.00026,   0.00168,  -0.00075,   0.00000,   2.00000
237071273.38591,544339327.75547,-33463737.81428,   0.00027,   0.00370,  -0.00118,477439609.00404,   0.00149,276256590.57548,   0.00026,   0.00169,  -0.00075,  -0.00000,   2.00000
236937637.46631,544337221.05727,-33448180.05949,   0.00027,   0.00371,  -0.00118,477470871.96251,   0.00149,276261295.28028,   0.00025,   0.00169,  -0.00075,  -0.00000,   2.00000
236801425.26373,544335415.53853,-33429545.69604,   0.00027,   0.00371,  -0.00119,477437122.33000,   0.00150,276265851.15009,   0.00025,   0.00170,  -0.00075,   0.00000,   2.00000
236684396.01451,544335303.25349,-33410439.14771,   0.00027,   0.00372,  -0.00119,477448406.10109,   0.00150,276270433.19633,   0.00025,   0.00170,  -0.00075,   0.00000,   2.00000
236565409.81014,544333140.30950,-33398893.20341,   0.00027,   0.00372,  -0.00119,477435728.69174,   0.00151,276274948.47926,   0.00025,   0.00171,  -0.00075,   0.00000,   2.00000
236465569.88887,544332692.80978,-33386856.77311,   0.00027,   0.00373,  -0.00119,477446949.97876,   0.00151,276279489.80149,   0.00025,   0.00171,  -0.00075,  -0.00000,   2.00000
236364242.56304,544331664.77329,-33376314.06679,   0.00027,   0.00373,  -0.00119,477432921.68156,   0.00151,276283959.22191,   0.00025,   0.00172,  -0.00076,   0.00000,   2.00000
236282543.12440,544333824.16890,-33359232.17588,   0.00027,   0.00374,  -0.00119,477442782.80159,   0.00152,276288449.52455,   0.00025,   0.00172,  -0.00076,  -0.00000,   2.00000
236198261.61556,544332486.11415,-33355750.36183,   0.00027,   0.00374,  -0.00119,477431284.41347,   0.00152,276292877.87556,   0.00025,   0.00173,  -0.00076,  -0.00000,   2.00000
236131816.14012,544333779.20495,-33347169.30533,   0.00026,   0.00375,  -0.00119,477422477.14196,   0.00153,276297254.88305,   0.00025,   0.00173,  -0.00076,   0.00000,   2.00000
236065538.08564,544335069.88669,-33338612.09390,   0.00026,   0.00375,  -0.00119,477426877.15273,   0.00153,276301631.92831,   0.00025,   0.00174,  -0.00076,   0.00000,   2.00000
236016529.69302,544337537.05089,-33331016.09716,   0.00026,   0.00376,  -0.00120,477419300.76866,   0.00153,276305962.54590,   0.00025,   0.00174,  -0.00076,   0.00000,   2.00000
235967126.25138,544338546.83268,-33329488.83544,   0.00026,   0.00376,  -0.00120,477424941.12950,   0.00154,276310298.13913,   0.00025,   0.00175,  -0.00076,  -0.00000,   2.00000
235935469.18169,544342198.77224,-33322856.48744,   0.00026,   0.00377,  -0.00120,477416018.07282,   0.00154,276314582.19638,   0.00025,   0.00175,  -0.00076,   0.00000,   2.00000
235920477.07368,544345576.67520,-33323227.81498,   0.00026,   0.00377,  -0.00120,477409625.13852,   0.00155,276318824.67776,   0.00025,   0.00176,  -0.00077,  -0.00000,   2.00000
235905525.96684,544348957.22197,-33323599.14857,   0.00026,   0.00378,  -0.00120,477413871.45179,   0.00155,276323066.97034,   0.00025,   0.00176,  -0.00077,   0.00000,   2.00000
235889370.81071,544353224.58358,-33319379.60485,   0.00026,   0.00378,  -0.00120,477398211.12604,   0.00155,276327231.95506,   0.00025,   0.00177,  -0.00077,   0.00000,   2.00000
235891606.84298,544357791.88413,-33320700.25238,   0.00026,   0.00379,  -0.00120,477410305.21672,   0.00156,276331427.40619,   0.00025,   0.00177,  -0.00077,  -0.00000,   2.00000
235892078.47885,544361787.16782,-33323475.63312,   0.00026,   0.00379,  -0.00120,477395888.48527,   0.00156,276335550.51345,   0.00025,   0.00177,  -0.00077,   0.00000,   2.00000
235909657.46023,544366967.43680,-33327182.50101,   0.00026,   0.00380,  -0.00120,477388031.43500,   0.00157,276339626.92498,   0.00025,   0.00178,  -0.00077,  -0.00000,   2.00000
235945547.11781,544372443.12985,-33336409.09067,   0.00026,   0.00380,  -0.00121,477400033.10171,   0.00157,276343733.69127,   0.00025,   0.00178,  -0.00077,   0.00000,   2.00000
235980115.09653,544378799.13087,-33341022.44859,   0.00026,   0.00381,  -0.00121,477384229.78748,   0.00157,276347763.00816,   0.00025,   0.00179,  -0.00077,  -0.00000,   2.00000
236031713.42056,544386327.64573,-33346562.53265,   0.00026,   0.00381,  -0.00121,477376279.37029,   0.00158,276351745.55063,   0.00025,   0.00179,  -0.00077,  -0.00000,   2.00000
236082676.70232,544392385.48135,-33358137.58760,   0.00026,   0.00381,  -0.00121,477381553.70151,   0.00158,276355732.72309,   0.00025,   0.00180,  -0.00078,   0.00000,   2.00000
236152907.79547,544401638.39601,-33363114.32457,   0.00026,   0.00382,  -0.00121,477390882.22827,   0.00159,276359740.13867,   0.00025,   0.00180,  -0.00078,  -0.00000,   2.00000
236218957.16512,544408268.90002,-33377046.24509,   0.00026,   0.00382,  -0.00121,477358959.40552,   0.00159,276363608.04264,   0.00025,   0.00181,  -0.00078,   0.00000,   2.00000
236303719.08597,544416624.13100,-33390422.47095,   0.00026,   0.00383,  -0.00121,477369471.37106,   0.00159,276367501.20893,   0.00024,   0.00181,  -0.00078,   0.00000,   2.00000
236388812.12702,544426414.32578,-33397716.56539,   0.00026,   0.00383,  -0.00121,477372068.17172,   0.00160,276371388.89395,   0.00024,   0.00181,  -0.00078,  -0.00000,   2.00000
236488566.69881,544435308.57648,-33413440.95827,   0.00026,   0.00384,  -0.00121,477346681.93833,   0.00160,276375162.79563,   0.00024,   0.00182,  -0.00078,   0.00000,   2.00000
236608686.57817,544446467.17350,-33427141.17533,   0.00026,   0.00384,  -0.00122,477375727.48447,   0.00160,276379033.93555,   0.00024,   0.00182,  -0.00078,   0.00000,   2.00000
236725073.88466,544456440.31212,-33443731.94447,   0.00026,   0.00384,  -0.00122,477342385.28082,   0.00161,276382760.56371,   0.00024,   0.00183,  -0.00078,   0.00000,   2.00000
236841205.54101,544466370.04820,-33460282.03436,   0.00026,   0.00385,  -0.00122,477346121.15500,   0.00161,276386486.70831,   0.00024,   0.00183,  -0.00078,   0.00000,   2.00000
236973678.57730,544475936.99099,-33483780.01308,   0.00026,   0.00385,  -0.00122,477339214.70677,   0.00161,276390171.16959,   0.00024,   0.00184,  -0.00078,   0.00000,   2.00000
237125222.33471,544488622.07953,-33500646.18847,   0.00026,   0.00386,  -0.00122,477348288.99817,   0.00162,276393875.86026,   0.00024,   0.00184,  -0.00079,   0.00000,   2.00000
237274723.03645,544500670.40642,-33518935.93382,   0.00026,   0.00386,  -0.00122,477333405.25669,   0.00162,276397508.07453,   0.00024,   0.00184,  -0.00079,   0.00000,   2.00000
237440498.79964,544512311.42649,-33544169.30333,   0.00026,   0.00386,  -0.00122,477326437.01162,   0.00162,276401098.67668,   0.00024,   0.00185,  -0.00079,  -0.00000,   2.00000
237625264.11116,544527026.09182,-33562763.97864,   0.00026,   0.00387,  -0.00122,477335447.92420,   0.00163,276404709.54350,   0.00024,   0.00185,  -0.00079,   0.00000,   2.00000
237807938.51155,544541077.17778,-33582780.21831,   0.00026,   0.00387,  -0.00123,477320488.58239,   0.00163,276408247.97238,   0.00024,   0.00186,  -0.00079,  -0.00000,   2.00000
237988011.86153,544552998.03101,-33610266.02371,   0.00026,   0.00387,  -0.00123,477306762.05126,   0.00163,276411719.04802,   0.00024,   0.00186,  -0.00079,  -0.00000,   2.00000
238186509.40800,544566488.87303,-33637155.23220,   0.00026,   0.00388,  -0.00123,477316986.06216,   0.00164,276415215.51958,   0.00024,   0.00186,  -0.00079,   0.00000,   2.00000
238402251.46336,544582432.49270,-33658870.99177,   0.00026,   0.00388,  -0.00123,477307337.54294,   0.00164,276418660.48481,   0.00024,   0.00187,  -0.00079,   0.00000,   2.00000
238616999.39691,544596773.15097,-33686580.27257,   0.00026,   0.00388,  -0.00123,477312151.81733,   0.00164,276422110.01222,   0.00024,   0.00187,  -0.00079,   0.00000,   2.00000
238848433.16179,544612060.31976,-33715162.90734,   0.00026,   0.00389,  -0.00123,477303791.29794,   0.00165,276425513.18206,   0.00024,   0.00188,  -0.00079,   0.00000,   2.00000
239096522.92100,544628266.05986,-33744616.66075,   0.00026,   0.00389,  -0.00123,477295406.45848,   0.00165,276428870.05892,   0.00024,   0.00188,  -0.00079,   0.00000,   2.00000
239325311.11739,544642691.19752,-33774534.63766,   0.00027,   0.00389,  -0.00123,477292101.39451,   0.00165,276432200.49407,   0.00024,   0.00188,  -0.00080,   0.00000,   2.00000
239589544.00570,544659625.03186,-33804784.65100,   0.00027,   0.00390,  -0.00124,477290421.74092,   0.00166,276435510.78074,   0.00024,   0.00189,  -0.00080,   0.00000,   2.00000
239851619.07303,544675815.81369,-33836441.15183,   0.00027,   0.00390,  -0.00124,477275230.58505,   0.00166,276438748.90787,   0.00024,   0.00189,  -0.00080,   0.00000,   2.00000
240131902.26644,544693405.46476,-33867480.31838,   0.00027,   0.00390,  -0.00124,477285353.65813,   0.00166,276442012.74238,   0.00024,   0.00189,  -0.00080,   0.00000,   2.00000
240410019.92411,544710233.19038,-33899926.62005,   0.00027,   0.00391,  -0.00124,477270132.79207,   0.00166,276445204.49114,   0.00024,   0.00190,  -0.00080,   0.00000,   2.00000
240704735.10676,544727861.37174,-33933236.79753,   0.00027,   0.00391,  -0.00124,477261640.32616,   0.00167,276448350.35853,   0.00024,   0.00190,  -0.00080,   0.00000,   2.00000
241017026.65670,544745320.42589,-33971968.42222,   0.00027,   0.00391,  -0.00124,477273054.72130,   0.00167,276451527.19410,   0.00024,   0.00190,  -0.00080,   0.00000,   2.00000
241327673.85385,544763463.38277,-34006047.60486,   0.00027,   0.00392,  -0.00124,477256466.61059,   0.00167,276454627.01803,   0.00024,   0.00191,  -0.00080,   0.00000,   2.00000
241636161.82054,544780806.51301,-34041534.62911,   0.00027,   0.00392,  -0.00124,477241118.93833,   0.00168,276457654.95450,   0.00024,   0.00191,  -0.00080,   0.00000,   2.00000
241980879.04063,544799421.34649,-34081884.99811,   0.00028,   0.00392,  -0.00125,477259316.16545,   0.00168,276460740.35284,   0.00024,   0.00192,  -0.00080,   0.00000,   2.00000
242305249.40428,544817187.80424,-34118135.31155,   0.00028,   0.00393,  -0.00125,477235816.70151,   0.00168,276463722.56087,   0.00024,   0.00192,  -0.00080,  -0.00000,   2.00000
242665776.26236,544836141.38959,-34159239.68302,   0.00028,   0.00393,  -0.00125,477254038.67456,   0.00169,276466762.44454,   0.00024,   0.00192,  -0.00080,   0.00000,   2.00000
243024647.79283,544855716.81116,-34195694.14184,   0.00028,   0.00393,  -0.00125,477237370.84612,   0.00169,276469725.57993,   0.00024,   0.00193,  -0.00081,   0.00000,   2.00000
243380788.95532,544872922.14455,-34239605.17416,   0.00028,   0.00393,  -0.00125,477223280.04120,   0.00169,276472622.22962,   0.00024,   0.00193,  -0.00081,  -0.00000,   2.00000
243755427.33956,544892737.53451,-34276808.16758,   0.00028,   0.00394,  -0.00125,477231974.60412,   0.00169,276475540.20943,   0.00024,   0.00193,  -0.00081,   0.00000,   2.00000
244144549.06483,544911026.70964,-34322413.09666,   0.00028,   0.00394,  -0.00125,477206187.98370,   0.00170,276478346.93056,   0.00024,   0.00194,  -0.00081,   0.00000,   2.00000
244534310.13638,544929475.67688,-34366403.36494,   0.00028,   0.00394,  -0.00126,477227861.98611,   0.00170,276481225.15841,   0.00023,   0.00194,  -0.00081,   0.00000,   2.00000
244939690.44393,544949353.07893,-34406693.76415,   0.00029,   0.00394,  -0.00126,477199425.34598,   0.00170,276483982.15730,   0.00023,   0.00194,  -0.00081,  -0.00000,   2.00000
245362313.10493,544968675.04306,-34452364.53537,   0.00029,   0.00395,  -0.00126,477210774.36223,   0.00170,276486771.12626,   0.00023,   0.00194,  -0.00081,   0.00000,   2.00000
245784096.47169,544987552.21505,-34497922.85196,   0.00029,   0.00395,  -0.00126,477213882.81938,   0.00171,276489560.30700,   0.00023,   0.00195,  -0.00081,   0.00000,   2.00000
246221516.94155,545007757.26592,-34539783.28510,   0.00029,   0.00395,  -0.00126,477185453.44746,   0.00171,276492228.72387,   0.00023,   0.00195,  -0.00081,   0.00000,   2.00000
246657521.22194,545025973.84824,-34587584.36514,   0.00029,   0.00395,  -0.00126,477189807.63176,   0.00171,276494902.60677,   0.00023,   0.00195,  -0.00081,  -0.00000,   2.00000
247109928.58774,545044476.13514,-34636215.35693,   0.00030,   0.00395,  -0.00126,477181260.27199,   0.00171,276497532.45942,   0.00023,   0.00196,  -0.00081,   0.00000,   2.00000
247561462.59748,545062472.63344,-34684728.53794,   0.00030,   0.00396,  -0.00126,477184265.00742,   0.00172,276500162.73429,   0.00023,   0.00196,  -0.00081,   0.00000,   2.00000
248029382.82536,545080686.56149,-34734069.25243,   0.00030,   0.00396,  -0.00127,477175736.41480,   0.00172,276502749.23625,   0.00023,   0.00196,  -0.00081,   0.00000,   2.00000
248514903.33349,545099593.12022,-34782708.09520,   0.00030,   0.00396,  -0.00127,477185803.54237,   0.00172,276505363.30098,   0.00023,   0.00197,  -0.00082,   0.00000,   2.00000
248997625.29275,545118392.79810,-34828237.16593,   0.00030,   0.00396,  -0.00127,477150320.06715,   0.00172,276507830.54462,   0.00023,   0.00197,  -0.00082,  -0.00000,   2.00000
249497329.81212,545136283.62365,-34879111.07092,   0.00031,   0.00397,  -0.00127,477161683.58117,   0.00173,276510330.76511,   0.00023,   0.00197,  -0.00082,   0.00000,   2.00000
249996079.99804,545153563.14406,-34929858.99088,   0.00031,   0.00397,  -0.00127,477164650.54803,   0.00173,276512831.71331,   0.00023,   0.00197,  -0.00082,  -0.00000,   2.00000
250511161.93569,545170857.00344,-34981426.14481,   0.00031,   0.00397,  -0.00127,477156177.52595,   0.00173,276515289.64368,   0.00023,   0.00198,  -0.00082,  -0.00000,   2.00000
251042554.04022,545188105.08489,-35033809.50542,   0.00031,   0.00397,  -0.00127,477147715.32568,   0.00173,276517704.76827,   0.00023,   0.00198,  -0.00082,   0.00000,   2.00000
251571829.93097,545204142.12991,-35087602.17965,   0.00031,   0.00397,  -0.00128,477132080.27878,   0.00173,276520049.91292,   0.00023,   0.00198,  -0.00082,   0.00000,   2.00000
252118509.97035,545220576.98538,-35140664.66188,   0.00032,   0.00397,  -0.00128,477142163.48854,   0.00174,276522423.50371,   0.00023,   0.00198,  -0.00082,   0.00000,   2.00000
252663092.83020,545235764.02532,-35195138.61519,   0.00032,   0.00398,  -0.00128,477126524.16683,   0.00174,276524727.30904,   0.00023,   0.00199,  -0.00082,   0.00000,   2.00000
253225018.29012,545251263.83072,-35248874.14663,   0.00032,   0.00398,  -0.00128,477136639.98690,   0.00174,276527059.80521,   0.00023,   0.00199,  -0.00082,   0.00000,   2.00000
253784866.76848,545265477.78106,-35304023.28887,   0.00032,   0.00398,  -0.00128,477120998.11772,   0.00174,276529322.71742,   0.00023,   0.00199,  -0.00082,   0.00000,   2.00000
254361003.74244,545279398.80678,-35359979.61301,   0.00033,   0.00398,  -0.00128,477112571.66828,   0.00175,276531543.82693,   0.00023,   0.00200,  -0.00082,  -0.00000,   2.00000
254953408.50068,545292959.04492,-35416739.76554,   0.00033,   0.00398,  -0.00128,477104164.60181,   0.00175,276533723.37854,   0.00023,   0.00200,  -0.00082,  -0.00000,   2.00000
255544723.62361,545305668.14336,-35473356.20909,   0.00033,   0.00398,  -0.00129,477107026.84645,   0.00175,276535904.44716,   0.00023,   0.00200,  -0.00082,  -0.00000,   2.00000
256153207.37951,545318441.58498,-35529210.77421,   0.00033,   0.00398,  -0.00129,477117236.46482,   0.00175,276538114.93206,   0.00023,   0.00200,  -0.00082,  -0.00000,   2.00000
256777005.47415,545330174.66679,-35587426.22342,   0.00034,   0.00399,  -0.00129,477090394.82569,   0.00175,276540213.84598,   0.00023,   0.00200,  -0.00083,   0.00000,   2.00000
257381442.40008,545340104.96444,-35646115.65102,   0.00034,   0.00399,  -0.00129,477085866.24759,   0.00176,276542286.52160,   0.00023,   0.00201,  -0.00083,   0.00000,   2.00000
258020973.26245,545351873.55937,-35698934.75239,   0.00034,   0.00399,  -0.00129,477083532.55651,   0.00176,276544341.35671,   0.00023,   0.00201,  -0.00083,   0.00000,   2.00000
258658707.59283,545361084.71493,-35757648.15461,   0.00034,   0.00399,  -0.00129,477087776.78017,   0.00176,276546403.40254,   0.00023,   0.00201,  -0.00083,   0.00000,   2.00000
259312641.91410,545369578.12039,-35817150.17722,   0.00035,   0.00399,  -0.00129,477079538.75373,   0.00176,276548425.25620,   0.00023,   0.00201,  -0.00083,  -0.00000,   2.00000
259964622.05898,545376523.26604,-35878073.60180,   0.00035,   0.00399,  -0.00129,477063847.48245,   0.00176,276550378.86613,   0.00023,   0.00202,  -0.00083,   0.00000,   2.00000
260633543.20992,545383162.69481,-35938200.75014,   0.00035,   0.00399,  -0.00130,477074156.87983,   0.00177,276552363.03731,   0.00023,   0.00202,  -0.00083,  -0.00000,   2.00000
261300538.15092,545388205.97557,-35999751.42294,   0.00036,   0.00399,  -0.00130,477058476.06137,   0.00177,276554279.21715,   0.00023,   0.00202,  -0.00083,   0.00000,   2.00000
261984401.15475,545392838.74912,-36060495.65617,   0.00036,   0.00399,  -0.00130,477068840.23230,   0.00177,276556226.26755,   0.00023,   0.00202,  -0.00083,  -0.00000,   2.00000
262684408.96594,545396465.70315,-36122015.55806,   0.00036,   0.00399,  -0.00130,477060751.49243,   0.00177,276558134.22274,   0.00023,   0.00203,  -0.00083,   0.00000,   2.00000
263382521.59099,545398392.63929,-36184960.11080,   0.00037,   0.00400,  -0.00130,477045094.89453,   0.00177,276559974.67559,   0.00023,   0.00203,  -0.00083,   0.00000,   2.00000
264097447.96125,545400799.72109,-36242639.39284,   0.00037,   0.00400,  -0.00130,477035596.44456,   0.00177,276561771.19463,   0.00023,   0.00203,  -0.00083,   0.00000,   2.00000
264810438.19597,545400372.90702,-36306191.53545,   0.00037,   0.00400,  -0.00130,477039834.33685,   0.00178,276563575.85776,   0.00023,   0.00203,  -0.00083,   0.00000,   2.00000
265539567.66010,545398717.53526,-36370510.46405,   0.00038,   0.00400,  -0.00131,477031810.99537,   0.00178,276565342.34015,   0.00023,   0.00203,  -0.00083,  -0.00000,   2.00000
266267387.48438,545395769.16420,-36434653.96788,   0.00038,   0.00400,  -0.00131,477034663.92854,   0.00178,276567111.84141,   0.00023,   0.00204,  -0.00083,  -0.00000,   2.00000
267011998.13231,545393083.71226,-36493523.39126,   0.00038,   0.00400,  -0.00131,477025295.42899,   0.00178,276568838.26657,   0.00023,   0.00204,  -0.00083,  -0.00000,   2.00000
267772036.36292,545387356.49604,-36559191.87406,   0.00039,   0.00400,  -0.00131,477018796.54259,   0.00178,276570532.61779,   0.00023,   0.00204,  -0.00083,  -0.00000,   2.00000
268530706.53944,545380221.29055,-36624676.50681,   0.00039,   0.00400,  -0.00131,477021681.64989,   0.00178,276572230.37164,   0.00023,   0.00204,  -0.00083,  -0.00000,   2.00000
269288320.87956,545372781.28458,-36685559.66227,   0.00039,   0.00400,  -0.00131,477004612.93651,   0.00179,276573856.46495,   0.00023,   0.00204,  -0.00084,   0.00000,   2.00000
270061366.03602,545362138.85295,-36753235.34890,   0.00040,   0.00400,  -0.00131,476998163.89451,   0.00179,276575451.15374,   0.00023,   0.00204,  -0.00084,   0.00000,   2.00000
270851491.10454,545351955.41795,-36814000.59850,   0.00040,   0.00400,  -0.00131,477007444.86101,   0.00179,276577073.65148,   0.00023,   0.00205,  -0.00084,   0.00000,   2.00000
271639226.99832,545338105.33942,-36882239.12189,   0.00040,   0.00400,  -0.00132,476993269.47809,   0.00179,276578635.77823,   0.00023,   0.00205,  -0.00084,   0.00000,   2.00000
272443726.22445,545324072.47207,-36945184.64389,   0.00041,   0.00400,  -0.00132,476984105.25399,   0.00179,276580156.61326,   0.00023,   0.00205,  -0.00084,   0.00000,   2.00000
273263772.35471,545307024.71864,-37013271.69812,   0.00041,   0.00400,  -0.00132,476996370.96413,   0.00179,276581716.67436,   0.00023,   0.00205,  -0.00084,  -0.00000,   2.00000
274083029.15840,545289960.77916,-37075124.46283,   0.00041,   0.00400,  -0.00132,476997904.67776,   0.00179,276583275.55734,   0.00023,   0.00205,  -0.00084,  -0.00000,   2.00000
274899816.10412,545268561.25867,-37146089.54467,   0.00042,   0.00400,  -0.00132,476965292.60744,   0.00180,276584705.46084,   0.00023,   0.00206,  -0.00084,   0.00000,   2.00000
275733467.60128,545247251.65297,-37210109.97390,   0.00042,   0.00400,  -0.00132,476974739.26894,   0.00180,276586164.34493,   0.00023,   0.00206,  -0.00084,   0.00000,   2.00000
276565560.84877,545223701.62378,-37275575.18390,   0.00043,   0.00400,  -0.00132,476959164.17630,   0.00180,276587558.53272,   0.00023,   0.00206,  -0.00084,  -0.00000,   2.00000
277412993.04855,545196824.47297,-37346150.63696,   0.00043,   0.00400,  -0.00133,476971581.90732,   0.00180,276588992.89865,   0.00023,   0.00206,  -0.00084,   0.00000,   2.00000
278277115.25430,545169273.80323,-37411409.39622,   0.00043,   0.00400,  -0.00133,476962738.07597,   0.00180,276590387.85228,   0.00023,   0.00206,  -0.00084,   0.00000,   2.00000
279139676.55064,545139879.22867,-37476458.09870,   0.00044,   0.00400,  -0.00133,476965724.00378,   0.00180,276591787.72024,   0.00023,   0.00206,  -0.00084,   0.00000,   2.00000
280018257.05186,545107479.28522,-37543875.26949,   0.00044,   0.00400,  -0.00133,476939937.23352,   0.00180,276593085.21956,   0.00023,   0.00206,  -0.00084,   0.87215,   1.00000
280895159.71687,545073708.55294,-37609418.41219,   0.00045,   0.00400,  -0.00133,476961376.59320,   0.00180,276594456.76528,   0.00023,   0.00207,  -0.00084,   0.97262,   1.00000
281770761.15734,545036930.77130,-37678071.47227,   0.00045,   0.00400,  -0.00133,476927443.58181,   0.00181,276595695.90995,   0.00023,   0.00207,  -0.00084,   0.79231,   1.00000
282679483.09751,544997860.35235,-37745015.53710,   0.00045,   0.00400,  -0.00133,476946926.28619,   0.00181,276597001.93747,   0.00023,   0.00207,  -0.00084,   0.87828,   1.00000
283569240.06555,544956960.78678,-37812485.03381,   0.00046,   0.00400,  -0.00133,476941693.15337,   0.00181,276598282.67893,   0.00023,   0.00207,  -0.00084,   0.84282,   1.00000
284492431.09799,544912431.93023,-37881564.64093,   0.00046,   0.00400,  -0.00134,476924476.44235,   0.00181,276599493.73769,   0.00023,   0.00207,  -0.00084,   0.75192,   1.00000
285396421.60865,544866636.17749,-37949498.92563,   0.00047,   0.00400,  -0.00134,476937615.93582,   0.00181,276600748.11764,   0.00023,   0.00207,  -0.00084,   0.80488,   1.00000
286316626.84321,544817311.79922,-38019797.70816,   0.00047,   0.00399,  -0.00134,476912166.31721,   0.00181,276601902.52230,   0.00023,   0.00207,  -0.00084,   0.68013,   1.00000
287253106.38312,544767157.01283,-38083069.28895,   0.00048,   0.00399,  -0.00134,476922158.52729,   0.00181,276603088.73911,   0.00023,   0.00208,  -0.00084,   0.71641,   1.00000
288187508.44934,544712538.16872,-38153817.96310,   0.00048,   0.00399,  -0.00134,476908299.38961,   0.00181,276604218.32609,   0.00023,   0.00208,  -0.00084,   0.64807,   1.00000
289137298.79035,544655254.91392,-38223549.50174,   0.00048,   0.00399,  -0.00134,476919881.35161,   0.00181,276605385.65025,   0.00023,   0.00208,  -0.00085,   0.69037,   1.00000
290086600.03313,544596790.74025,-38288702.80934,   0.00049,   0.00399,  -0.00134,476903122.52873,   0.00182,276606485.78679,   0.00023,   0.00208,  -0.00085,   0.61162,   1.00000
291050387.06975,544533818.47512,-38358851.99462,   0.00049,   0.00399,  -0.00134,476916296.89750,   0.00182,276607629.59407,   0.00023,   0.00208,  -0.00085,   0.65940,   1.00000
292014300.65193,544468981.53660,-38426120.23583,   0.00050,   0.00399,  -0.00135,476881167.64275,   0.00182,276608638.64594,   0.00023,   0.00208,  -0.00085,   0.51180,   1.00000
292992793.07290,544401770.34270,-38490645.59861,   0.00050,   0.00399,  -0.00135,476911330.20175,   0.00182,276609754.30579,   0.00023,   0.00208,  -0.00085,   0.62394,   1.00000
293969932.32624,544329196.25461,-38564346.20781,   0.00051,   0.00399,  -0.00135,476879250.74656,   0.00182,276610746.78073,   0.00023,   0.00208,  -0.00085,   0.49237,   1.00000
294962940.48106,544255180.60354,-38630959.87303,   0.00051,   0.00399,  -0.00135,476889629.17789,   0.00182,276611772.94524,   0.00023,   0.00209,  -0.00085,   0.52484,   1.00000
295954084.47320,544178640.08816,-38697314.67109,   0.00052,   0.00399,  -0.00135,476892872.29128,   0.00182,276612806.38455,   0.00023,   0.00209,  -0.00085,   0.53074,   1.00000
296944129.57060,544098945.97317,-38765122.12414,   0.00052,   0.00398,  -0.00135,476877725.52551,   0.00182,276613779.50699,   0.00023,   0.00209,  -0.00085,   0.46918,   1.00000
297949876.99945,544015269.24351,-38833561.87702,   0.00053,   0.00398,  -0.00135,476871369.91009,   0.00182,276614724.88849,   0.00023,   0.00209,  -0.00085,   0.44144,   1.00000
298970428.81024,543928120.59705,-38900906.80289,   0.00053,   0.00398,  -0.00135,476883490.90276,   0.00182,276615710.41752,   0.00023,   0.00209,  -0.00085,   0.47820,   1.00000
299989911.53566,543837622.33100,-38969698.76020,   0.00054,   0.00398,  -0.00136,476868472.42630,   0.00183,276616636.44506,   0.00023,   0.00209,  -0.00085,   0.42083,   1.00000
301007456.96435,543744423.95620,-39038217.81683,   0.00054,   0.00398,  -0.00136,476871777.48175,   0.00183,276617570.36672,   0.00023,   0.00209,  -0.00085,   0.42662,   1.00000
302041579.27838,543646202.01939,-39109072.22057,   0.00055,   0.00398,  -0.00136,476847349.39204,   0.00183,276618410.70000,   0.00023,   0.00209,  -0.00085,   0.34423,   1.00000
303073576.66081,543547591.32470,-39171899.13125,   0.00055,   0.00398,  -0.00136,476867494.25237,   0.00183,276619320.81883,   0.00023,   0.00209,  -0.00085,   0.40238,   1.00000
304120263.52385,543442713.67641,-39241343.78052,   0.00056,   0.00397,  -0.00136,476863090.39219,   0.00183,276620210.71301,   0.00023,   0.00209,  -0.00085,   0.38332,   1.00000
305166008.93292,543334258.96343,-39312235.22120,   0.00056,   0.00397,  -0.00136,476848180.51704,   0.00183,276621042.17441,   0.00023,   0.00210,  -0.00085,   0.33342,   1.00000
306226988.34536,543223506.16044,-39375955.34245,   0.00057,   0.00397,  -0.00136,476859169.18470,   0.00183,276621909.88134,   0.00023,   0.00210,  -0.00085,   0.36177,   1.00000
307286187.78297,543107329.70753,-39447140.07601,   0.00057,   0.00397,  -0.00136,476845860.60420,   0.00183,276622725.18067,   0.00023,   0.00210,  -0.00085,   0.31818,   1.00000
308361717.49596,542987953.05980,-39512879.49229,   0.00058,   0.00397,  -0.00136,476838670.49024,   0.00183,276623510.60029,   0.00023,   0.00210,  -0.00085,   0.29412,   1.00000
309435125.42657,542865506.20678,-39578318.45995,   0.00058,   0.00397,  -0.00137,476842171.82885,   0.00183,276624305.15513,   0.00023,   0.00210,  -0.00085,   0.29981,   1.00000
310506832.54467,542737491.77850,-39651221.21871,   0.00059,   0.00396,  -0.00137,476828916.76268,   0.00183,276625047.96453,   0.00023,   0.00210,  -0.00085,   0.26097,   1.00000
311593478.05835,542606782.31598,-39716911.30730,   0.00059,   0.00396,  -0.00137,476840176.63343,   0.00183,276625828.21533,   0.00023,   0.00210,  -0.00085,   0.28675,   1.00000
312679333.89096,542472136.96454,-39784046.87493,   0.00060,   0.00396,  -0.00137,476825472.31450,   0.00183,276626551.61894,   0.00023,   0.00210,  -0.00085,   0.24544,   1.00000
313763018.82508,542334318.95371,-39850872.91971,   0.00060,   0.00396,  -0.00137,476829007.89685,   0.00184,276627284.51916,   0.00023,   0.00210,  -0.00085,   0.25085,   1.00000
314862029.90824,542191037.51719,-39918239.12170,   0.00061,   0.00396,  -0.00137,476823728.47369,   0.00184,276627994.97219,   0.00023,   0.00210,  -0.00085,   0.23468,   1.00000
315974769.92572,542042946.22188,-39984370.01877,   0.00061,   0.00395,  -0.00137,476836826.55486,   0.00184,276628749.49211,   0.00023,   0.00210,  -0.00085,   0.26349,   1.00000
317087682.40108,541892440.05293,-40045926.65034,   0.00062,   0.00395,  -0.00137,476820756.54643,   0.00184,276629442.54722,   0.00023,   0.00211,  -0.00085,   0.22128,   1.00000
318198994.36154,541735961.23594,-40114938.96538,   0.00062,   0.00395,  -0.00137,476807752.23236,   0.00184,276630085.53599,   0.00023,   0.00211,  -0.00085,   0.18957,   1.00000
319308024.72685,541576098.05519,-40183623.35644,   0.00063,   0.00395,  -0.00138,476811401.11371,   0.00184,276630738.73064,   0.00023,   0.00211,  -0.00085,   0.19470,   1.00000
320431465.77661,541412914.25565,-40245029.21144,   0.00064,   0.00395,  -0.00138,476823142.91395,   0.00184,276631431.19012,   0.00023,   0.00211,  -0.00085,   0.21774,   1.00000
321570809.78962,541240969.08669,-40314717.99775,   0.00064,   0.00394,  -0.00138,476801739.76080,   0.00184,276632043.51612,   0.00023,   0.00211,  -0.00085,   0.16940,   1.00000
322691223.44615,541069910.94571,-40377221.83774,   0.00065,   0.00394,  -0.00138,476812455.74826,   0.00184,276632691.53202,   0.00023,   0.00211,  -0.00085,   0.18877,   1.00000
323844181.34626,540889859.04105,-40441039.52306,   0.00065,   0.00394,  -0.00138,476799346.51758,   0.00184,276633289.52804,   0.00023,   0.00211,  -0.00085,   0.15990,   1.00000
324976240.60560,540707150.70635,-40509689.72005,   0.00066,   0.00394,  -0.00138,476813175.87479,   0.00184,276633934.36195,   0.00023,   0.00211,  -0.00085,   0.18495,   1.00000
326126189.15036,540518822.79477,-40574587.57259,   0.00066,   0.00393,  -0.00138,476788944.17941,   0.00184,276634489.46043,   0.00023,   0.00211,  -0.00085,   0.13631,   1.00000
327273660.66057,540326786.54754,-40639130.27103,   0.00067,   0.00393,  -0.00138,476792801.11175,   0.00184,276635055.81276,   0.00023,   0.00211,  -0.00086,   0.14111,   1.00000
328434038.59497,540129020.01800,-40702335.92061,   0.00068,   0.00393,  -0.00138,476806602.92607,   0.00184,276635668.88977,   0.00023,   0.00211,  -0.00086,   0.16441,   1.00000
329578543.64273,539928538.78121,-40767955.94357,   0.00068,   0.00393,  -0.00139,476782481.61739,   0.00184,276636193.04345,   0.00023,   0.00211,  -0.00086,   0.11949,   1.00000
330751143.45469,539720107.30222,-40831232.84962,   0.00069,   0.00392,  -0.00139,476806358.39795,   0.00184,276636799.94673,   0.00023,   0.00211,  -0.00086,   0.15925,   1.00000
331908984.39539,539510705.23919,-40890924.48537,   0.00069,   0.00392,  -0.00139,476780682.66438,   0.00184,276637312.58874,   0.00023,   0.00211,  -0.00086,   0.11295,   1.00000
333080641.55652,539292423.64213,-40957052.00369,   0.00070,   0.00392,  -0.00139,476778191.85150,   0.00185,276637814.01430,   0.00023,   0.00211,  -0.00086,   0.10740,   1.00000
334249657.64492,539070200.37918,-41022801.14106,   0.00070,   0.00392,  -0.00139,476782212.14818,   0.00185,276638327.43809,   0.00023,   0.00212,  -0.00086,   0.11191,   1.00000
335432100.12549,538843551.52885,-41081149.57869,   0.00071,   0.00391,  -0.00139,476794836.83914,   0.00185,276638883.34700,   0.00023,   0.00212,  -0.00086,   0.13036,   1.00000
336613097.67211,538609965.60384,-41146921.47201,   0.00072,   0.00391,  -0.00139,476782515.73613,   0.00185,276639392.98941,   0.00023,   0.00212,  -0.00086,   0.10885,   1.00000
337794759.89336,538373011.61924,-41208109.69614,   0.00072,   0.00391,  -0.00139,476766989.19863,   0.00185,276639845.26202,   0.00023,   0.00212,  -0.00086,   0.08516,   1.00000
338973698.60423,538131990.67808,-41268909.30546,   0.00073,   0.00390,  -0.00139,476771076.90368,   0.00185,276640309.94014,   0.00023,   0.00212,  -0.00086,   0.08930,   1.00000
340163690.77674,537882620.42697,-41334278.57992,   0.00073,   0.00390,  -0.00139,476787139.27711,   0.00185,276640829.30723,   0.00023,   0.00212,  -0.00086,   0.11080,   1.00000
341354387.14009,537629718.13518,-41395059.16084,   0.00074,   0.00390,  -0.00140,476771756.95298,   0.00185,276641291.94304,   0.00024,   0.00212,  -0.00086,   0.08730,   1.00000
342559529.67509,537368859.91536,-41456201.40066,   0.00075,   0.00390,  -0.00140,476768399.72936,   0.00185,276641740.60746,   0.00024,   0.00212,  -0.00086,   0.08152,   1.00000
343747096.14870,537106314.02817,-41517992.03883,   0.00075,   0.00389,  -0.00140,476762208.05506,   0.00185,276642165.39132,   0.00024,   0.00212,  -0.00086,   0.07255,   1.00000
344946422.51370,536836920.59389,-41578311.41870,   0.00076,   0.00389,  -0.00140,476776926.48474,   0.00185,276642640.07865,   0.00024,   0.00212,  -0.00086,   0.08994,   1.00000
346160029.38673,536559259.90048,-41638965.79552,   0.00076,   0.00389,  -0.00140,476773858.95293,   0.00185,276643101.79857,   0.00024,   0.00212,  -0.00086,   0.08445,   1.00000
347359940.50763,536280449.50465,-41696101.23315,   0.00077,   0.00388,  -0.00140,476748087.15543,   0.00185,276643470.82293,   0.00024,   0.00212,  -0.00086,   0.05354,   1.00000
348570264.77722,535992689.40444,-41757733.73071,   0.00078,   0.00388,  -0.00140,476764629.06861,   0.00185,276643896.24664,   0.00024,   0.00212,  -0.00086,   0.07060,   1.00000
349777543.94868,535700501.38917,-41818937.34880,   0.00078,   0.00388,  -0.00140,476769034.65273,   0.00185,276644335.18428,   0.00024,   0.00212,  -0.00086,   0.07457,   1.00000
350985729.09300,535404336.92512,-41875545.29140,   0.00079,   0.00387,  -0.00140,476753917.64201,   0.00185,276644719.15290,   0.00024,   0.00212,  -0.00086,   0.05660,   1.00000
352203995.15640,535098973.99202,-41936615.19989,   0.00080,   0.00387,  -0.00140,476770724.02820,   0.00185,276645160.19783,   0.00024,   0.00212,  -0.00086,   0.07407,   1.00000
353408990.09335,534792429.37234,-41994193.40529,   0.00080,   0.00387,  -0.00140,476744905.44092,   0.00185,276645508.96260,   0.00024,   0.00212,  -0.00086,   0.04594,   1.00000
354639143.35912,534475401.42987,-42049102.48071,   0.00081,   0.00386,  -0.00141,476771047.02923,   0.00185,276645947.44545,   0.00024,   0.00212,  -0.00086,   0.07200,   1.00000
355853899.40733,534153436.74648,-42112516.51785,   0.00081,   0.00386,  -0.00141,476748540.62196,   0.00185,276646305.40944,   0.00024,   0.00212,  -0.00086,   0.04757,   1.00000
357066612.04418,533828715.84308,-42169488.97099,   0.00082,   0.00386,  -0.00141,476751403.44657,   0.00185,276646671.72922,   0.00024,   0.00212,  -0.00086,   0.04939,   1.00000
358293185.24767,533494723.06085,-42226718.33081,   0.00083,   0.00385,  -0.00141,476749105.76552,   0.00185,276647028.38592,   0.00024,   0.00212,  -0.00086,   0.04640,   1.00000
359516476.93981,533156017.33743,-42283489.51290,   0.00083,   0.00385,  -0.00141,476753715.09257,   0.00185,276647399.45857,   0.00024,   0.00212,  -0.00086,   0.04978,   1.00000
360739684.79643,532810996.38501,-42341645.47335,   0.00084,   0.00385,  -0.00141,476740551.91403,   0.00185,276647723.11658,   0.00024,   0.00213,  -0.00086,   0.03752,   1.00000
361973315.29178,532457969.48938,-42398181.92565,   0.00085,   0.00384,  -0.00141,476756308.18781,   0.00185,276648099.99645,   0.00024,   0.00213,  -0.00086,   0.05040,   1.00000
363189867.23038,532103424.73200,-42455410.00690,   0.00085,   0.00384,  -0.00141,476749856.40561,   0.00186,276648452.80767,   0.00024,   0.00213,  -0.00086,   0.04376,   1.00000
364421182.24173,531740951.71743,-42506859.40424,   0.00086,   0.00384,  -0.00141,476746343.45430,   0.00186,276648791.85801,   0.00024,   0.00213,  -0.00086,   0.04002,   1.00000
365647884.40089,531371778.64988,-42563825.87179,   0.00086,   0.00383,  -0.00141,476752726.84282,   0.00186,276649151.46756,   0.00024,   0.00213,  -0.00086,   0.04458,   1.00000
366874552.82944,530995994.01971,-42622165.30900,   0.00087,   0.00383,  -0.00141,476739781.28449,   0.00186,276649464.71545,   0.00024,   0.00213,  -0.00086,   0.03350,   1.00000
368098949.66194,530617177.30626,-42674034.72430,   0.00088,   0.00382,  -0.00142,476742864.88021,   0.00186,276649787.20348,   0.00024,   0.00213,  -0.00086,   0.03514,   1.00000
369335506.53012,530226285.94077,-42732070.10264,   0.00088,   0.00382,  -0.00142,476743022.35957,   0.00186,276650108.78598,   0.00024,   0.00213,  -0.00086,   0.03459,   1.00000
370569678.72563,529832241.02328,-42783621.81801,   0.00089,   0.00382,  -0.00142,476746231.81442,   0.00186,276650439.98414,   0.00024,   0.00213,  -0.00086,   0.03631,   1.00000
371787059.03173,529436803.00781,-42835891.47383,   0.00090,   0.00381,  -0.00142,476739592.97149,   0.00186,276650746.85227,   0.00024,   0.00213,  -0.00086,   0.03084,   1.00000
373029566.29003,529025398.06093,-42893086.08388,   0.00090,   0.00381,  -0.00142,476751517.11155,   0.00186,276651093.34742,   0.00024,   0.00213,  -0.00086,   0.03890,   1.00000
374260188.05015,528612441.06663,-42946864.10540,   0.00091,   0.00380,  -0.00142,476725672.17777,   0.00186,276651349.52072,   0.00024,   0.00213,  -0.00086,   0.02103,   1.00000
375483455.91053,528196422.18999,-42998284.77300,   0.00092,   0.00380,  -0.00142,476748109.10236,   0.00186,276651681.54564,   0.00024,   0.00213,  -0.00086,   0.03495,   1.00000
376706801.57098,527773356.07469,-43051064.66132,   0.00092,   0.00380,  -0.00142,476735457.73489,   0.00186,276651968.72736,   0.00024,   0.00213,  -0.00086,   0.02586,   1.00000
377943104.45919,527339359.28090,-43103957.32020,   0.00093,   0.00379,  -0.00142,476734552.48197,   0.00186,276652251.53276,   0.00024,   0.00213,  -0.00086,   0.02479,   1.00000
379175614.34864,526900179.18778,-43156333.93004,   0.00094,   0.00379,  -0.00142,476739567.08700,   0.00186,276652550.23930,   0.00024,   0.00213,  -0.00086,   0.02734,   1.00000
380404303.48918,526455826.95749,-43208193.21907,   0.00094,   0.00378,  -0.00142,476744596.42968,   0.00186,276652864.81275,   0.00024,   0.00213,  -0.00086,   0.02997,   1.00000
381633065.60131,526004120.62356,-43261395.62080,   0.00095,   0.00378,  -0.00142,476732164.66000,   0.00186,276653135.55351,   0.00024,   0.00213,  -0.00086,   0.02194,   1.00000
382859248.07586,525549069.98650,-43308091.96366,   0.00096,   0.00378,  -0.00143,476735520.30852,   0.00186,276653416.54626,   0.00024,   0.00213,  -0.00086,   0.02335,   1.00000
384080281.57947,525086964.43888,-43360251.77035,   0.00096,   0.00377,  -0.00143,476742244.05632,   0.00186,276653719.21518,   0.00024,   0.00213,  -0.00086,   0.02677,   1.00000
385301444.82479,524617364.38075,-43413751.05326,   0.00097,   0.00377,  -0.00143,476729895.44524,   0.00186,276653978.52199,   0.00024,   0.00213,  -0.00086,   0.01941,   1.00000
386535114.11893,524136106.88301,-43467295.63450,   0.00098,   0.00376,  -0.00143,476729615.58038,   0.00186,276654235.74000,   0.00024,   0.00213,  -0.00086,   0.01886,   1.00000
387749671.84275,523657852.02371,-43513749.94208,   0.00098,   0.00376,  -0.00143,476738388.48136,   0.00186,276654521.64047,   0.00024,   0.00213,  -0.00086,   0.02301,   1.00000
388975313.08686,523165945.43104,-43566218.61567,   0.00099,   0.00375,  -0.00143,476739951.53814,   0.00186,276654811.59901,   0.00024,   0.00213,  -0.00086,   0.02336,   1.00000
390190240.46657,522672270.84855,-43615338.31112,   0.00100,   0.00375,  -0.00143,476713959.63183,   0.00186,276655012.16204,   0.00024,   0.00213,  -0.00086,   0.01104,   1.00000
391407708.22792,522169725.40170,-43666721.17071,   0.00100,   0.00375,  -0.00143,476750268.40170,   0.00186,276655334.85671,   0.00024,   0.00213,  -0.00086,   0.02820,   1.00000
392626617.66364,521661167.98635,-43713442.33534,   0.00101,   0.00374,  -0.00143,476736535.05878,   0.00186,276655609.67338,   0.00024,   0.00213,  -0.00086,   0.02018,   1.00000
393845678.78263,521144640.95276,-43761481.17893,   0.00102,   0.00374,  -0.00143,476724508.68259,   0.00186,276655842.63790,   0.00024,   0.00213,  -0.00086,   0.01431,   1.00000
395047413.33565,520625162.59654,-43816287.16286,   0.00102,   0.00373,  -0.00143,476719076.74306,   0.00186,276656056.25182,   0.00024,   0.00213,  -0.00086,   0.01187,   1.00000
396258178.28813,520097867.70530,-43863224.70482,   0.00103,   0.00373,  -0.00143,476734916.33687,   0.00186,276656322.40700,   0.00024,   0.00213,  -0.00086,   0.01818,   1.00000
397464733.04132,519565185.52629,-43909607.99757,   0.00104,   0.00372,  -0.00143,476740183.53107,   0.00186,276656605.18240,   0.00024,   0.00213,  -0.00086,   0.02024,   1.00000
398671481.37598,519024345.00467,-43957302.15097,   0.00104,   0.00372,  -0.00143,476728293.85945,   0.00186,276656846.69386,   0.00024,   0.00213,  -0.00086,   0.01456,   1.00000
399873978.30185,518478078.18260,-44004437.01982,   0.00105,   0.00371,  -0.00144,476733577.90352,   0.00186,276657104.96157,   0.00024,   0.00214,  -0.00086,   0.01642,   1.00000
401075322.23546,517921655.09501,-44058855.49594,   0.00106,   0.00371,  -0.00144,476723461.84526,   0.00186,276657328.11318,   0.00024,   0.00214,  -0.00086,   0.01208,   1.00000
402280603.18084,517360022.86879,-44103485.07503,   0.00106,   0.00371,  -0.00144,476756799.82785,   0.00186,276657662.33099,   0.00024,   0.00214,  -0.00086,   0.02672,   1.00000
403479243.74172,516791546.41370,-44152658.20239,   0.00107,   0.00370,  -0.00144,476715428.40814,   0.00186,276657856.25174,   0.00024,   0.00214,  -0.00086,   0.00887,   1.00000
404668947.20687,516220583.99416,-44199395.39380,   0.00108,   0.00370,  -0.00144,476737804.63727,   0.00186,276658124.40885,   0.00024,   0.00214,  -0.00086,   0.01671,   1.00000
405858897.23234,515641130.94412,-44247430.12897,   0.00108,   0.00369,  -0.00144,476726126.15665,   0.00186,276658352.30182,   0.00024,   0.00214,  -0.00086,   0.01189,   1.00000
407044448.40190,515056200.77840,-44294892.40312,   0.00109,   0.00369,  -0.00144,476731481.59136,   0.00186,276658597.17347,   0.00024,   0.00214,  -0.00086,   0.01353,   1.00000
408225571.59629,514465809.41376,-44341780.99752,   0.00110,   0.00368,  -0.00144,476736852.88707,   0.00186,276658858.99432,   0.00024,   0.00214,  -0.00086,   0.01524,   1.00000
409408377.51771,513868619.19520,-44383984.87905,   0.00110,   0.00368,  -0.00144,476723563.53743,   0.00187,276659075.29885,   0.00024,   0.00214,  -0.00086,   0.01024,   1.00000
410585290.17291,513264063.11762,-44431585.46780,   0.00111,   0.00367,  -0.00144,476730672.31744,   0.00187,276659314.45184,   0.00024,   0.00214,  -0.00086,   0.01234,   1.00000
411762477.80189,512650700.27412,-44480469.55299,   0.00112,   0.00367,  -0.00144,476719179.47499,   0.00187,276659514.25754,   0.00024,   0.00214,  -0.00086,   0.00848,   1.00000
412930330.94181,512035163.43667,-44526905.02456,   0.00112,   0.00366,  -0.00144,476741475.85917,   0.00187,276659787.59895,   0.00024,   0.00214,  -0.00086,   0.01563,   1.00000
414098458.54326,511410751.04699,-44574620.68030,   0.00113,   0.00366,  -0.00144,476730066.22332,   0.00187,276660021.79640,   0.00024,   0.00214,  -0.00086,   0.01130,   1.00000
415262001.87803,510780826.93183,-44621748.79211,   0.00114,   0.00365,  -0.00144,476735517.59521,   0.00187,276660273.18822,   0.00024,   0.00214,  -0.00086,   0.01282,   1.00000
416427283.27960,510143741.48148,-44664178.02388,   0.00114,   0.00365,  -0.00145,476722452.92396,   0.00187,276660480.08265,   0.00024,   0.00214,  -0.00086,   0.00855,   1.00000
417586470.68074,509499240.98038,-44711987.03014,   0.00115,   0.00364,  -0.00145,476729656.80966,   0.00187,276660710.08874,   0.00024,   0.00214,  -0.00087,   0.01040,   1.00000
418730646.22602,508854149.55716,-44760673.37375,   0.00115,   0.00364,  -0.00145,476721903.03139,   0.00187,276660913.40336,   0.00024,   0.00214,  -0.00087,   0.00800,   1.00000
419880512.74073,508198639.93380,-44807296.34789,   0.00116,   0.00363,  -0.00145,476740573.92249,   0.00187,276661177.88817,   0.00024,   0.00214,  -0.00087,   0.01334,   1.00000
421020457.46163,507538882.68979,-44856666.82763,   0.00117,   0.00363,  -0.00145,476716075.17973,   0.00187,276661360.02858,   0.00024,   0.00214,  -0.00087,   0.00623,   1.00000
422162358.14254,506874270.10031,-44896126.29483,   0.00117,   0.00362,  -0.00145,476749782.44366,   0.00187,276661653.19708,   0.00024,   0.00214,  -0.00087,   0.01588,   1.00000
423298036.81080,506199675.69724,-44946171.01521,   0.00118,   0.00362,  -0.00145,476710382.89693,   0.00187,276661814.65398,   0.00024,   0.00214,  -0.00087,   0.00474,   1.00000
424433924.04941,505518384.78841,-44992256.57243,   0.00119,   0.00361,  -0.00145,476745893.25421,   0.00187,276662093.04853,   0.00024,   0.00214,  -0.00087,   0.01388,   1.00000
425560175.76396,504832715.82051,-45041103.99748,   0.00119,   0.00361,  -0.00145,476721396.54588,   0.00187,276662289.28294,   0.00024,   0.00214,  -0.00087,   0.00679,   1.00000
426678080.16588,504147426.40758,-45081528.61503,   0.00120,   0.00360,  -0.00145,476741672.36997,   0.00187,276662551.79390,   0.00024,   0.00214,  -0.00087,   0.01196,   1.00000
427799970.65244,503446724.95876,-45131033.76369,   0.00121,   0.00360,  -0.00145,476715855.39262,   0.00187,276662727.95362,   0.00024,   0.00214,  -0.00087,   0.00530,   1.00000
428911892.67523,502744616.66198,-45178079.46151,   0.00121,   0.00359,  -0.00145,476737856.92310,   0.00187,276662976.09284,   0.00024,   0.00214,  -0.00087,   0.01037,   1.00000
430014568.69091,502038052.71604,-45227911.73158,   0.00122,   0.00359,  -0.00145,476713240.13046,   0.00187,276663142.00983,   0.00024,   0.00214,  -0.00087,   0.00456,   1.00000
431116812.53076,501325100.05055,-45273750.85834,   0.00123,   0.00358,  -0.00145,476748800.63473,   0.00187,276663424.59836,   0.00024,   0.00214,  -0.00087,   0.01304,   1.00000
432215168.98067,500603343.00788,-45324235.39895,   0.00123,   0.00358,  -0.00146,476707782.07010,   0.00187,276663570.85206,   0.00024,   0.00214,  -0.00087,   0.00344,   1.00000
433314399.78847,499877076.27611,-45364743.55805,   0.00124,   0.00357,  -0.00146,476741641.85715,   0.00187,276663828.12215,   0.00024,   0.00214,  -0.00087,   0.01049,   1.00000
434397832.30372,499148780.35434,-45412169.86588,   0.00125,   0.00357,  -0.00146,476735144.44962,   0.00187,276664063.00874,   0.00024,   0.00214,  -0.00087,   0.00861,   1.00000
435481684.94471,498410631.67024,-45460840.27353,   0.00125,   0.00356,  -0.00146,476724299.00354,   0.00187,276664261.29872,   0.00024,   0.00214,  -0.00087,   0.00605,   1.00000
436560643.01587,497667054.68655,-45508902.46523,   0.00126,   0.00356,  -0.00146,476729793.66500,   0.00187,276664476.91546,   0.00024,   0.00214,  -0.00087,   0.00705,   1.00000
437625605.93988,496923385.91738,-45557938.46611,   0.00127,   0.00355,  -0.00146,476721345.36735,   0.00187,276664663.93568,   0.00024,   0.00214,  -0.00087,   0.00523,   1.00000
438700065.17289,496164384.53186,-45606628.07179,   0.00127,   0.00354,  -0.00146,476724514.34163,   0.00187,276664860.66919,   0.00024,   0.00214,  -0.00087,   0.00570,   1.00000
439755265.48174,495410012.50630,-45654455.64048,   0.00128,   0.00354,  -0.00146,476732222.36531,   0.00187,276665081.99268,   0.00024,   0.00214,  -0.00087,   0.00712,   1.00000
440810941.91464,494645560.00119,-45703521.61473,   0.00129,   0.00353,  -0.00146,476721484.84025,   0.00187,276665267.22829,   0.00024,   0.00214,  -0.00087,   0.00492,   1.00000
441861692.50529,493875753.90498,-45751979.55800,   0.00129,   0.00353,  -0.00146,476726938.65522,   0.00187,276665469.68075,   0.00024,   0.00214,  -0.00087,   0.00580,   1.00000
442907491.19315,493100616.10032,-45799828.32773,   0.00130,   0.00352,  -0.00146,476732408.47262,   0.00187,276665689.33463,   0.00024,   0.00214,  -0.00087,   0.00674,   1.00000
443943466.19981,492318756.80710,-45856486.13488,   0.00130,   0.00352,  -0.00146,476709399.23260,   0.00187,276665832.70954,   0.00024,   0.00214,  -0.00087,   0.00284,   1.00000
444979292.47410,491533031.17640,-45903112.41814,   0.00131,   0.00351,  -0.00146,476743294.21700,   0.00187,276666086.69835,   0.00025,   0.00214,  -0.00087,   0.00879,   1.00000
446007039.13579,490742366.28482,-45952594.40331,   0.00132,   0.00351,  -0.00146,476718521.34799,   0.00187,276666258.56432,   0.00025,   0.00214,  -0.00087,   0.00398,   1.00000
447029827.40877,489946419.12791,-46001468.10375,   0.00132,   0.00350,  -0.00147,476723938.03144,   0.00187,276666447.55600,   0.00025,   0.00214,  -0.00087,   0.00475,   1.00000
448037643.59161,489148839.78588,-46057339.18192,   0.00133,   0.00350,  -0.00147,476716803.19786,   0.00187,276666612.49756,   0.00025,   0.00214,  -0.00087,   0.00358,   1.00000
449050476.09484,488342433.52410,-46104995.97360,   0.00134,   0.00349,  -0.00147,476734740.65489,   0.00187,276666835.58323,   0.00025,   0.00214,  -0.00087,   0.00648,   1.00000
450048418.94664,487534465.68091,-46159659.55186,   0.00134,   0.00349,  -0.00147,476727564.42382,   0.00187,276667034.38189,   0.00025,   0.00214,  -0.00087,   0.00510,   1.00000
451048562.94354,486717753.10582,-46209587.66661,   0.00135,   0.00348,  -0.00147,476715283.22901,   0.00187,276667192.28225,   0.00025,   0.00214,  -0.00087,   0.00318,   1.00000
452042041.90770,485894001.26778,-46264864.11666,   0.00136,   0.00347,  -0.00147,476722461.32471,   0.00187,276667373.10997,   0.00025,   0.00214,  -0.00087,   0.00414,   1.00000
453022514.02035,485070565.78681,-46321208.50822,   0.00136,   0.00347,  -0.00147,476713325.35004,   0.00187,276667523.41892,   0.00025,   0.00214,  -0.00087,   0.00283,   1.00000
453999731.87376,484243829.73814,-46370994.08943,   0.00137,   0.00346,  -0.00147,476716827.49022,   0.00187,276667684.65433,   0.00025,   0.00215,  -0.00087,   0.00323,   1.00000
454970301.71581,483410174.56749,-46426133.40255,   0.00137,   0.00346,  -0.00147,476723936.09828,   0.00187,276667868.57039,   0.00025,   0.00215,  -0.00087,   0.00417,   1.00000
455935884.54473,482571443.25849,-46480667.85058,   0.00138,   0.00345,  -0.00147,476729268.98537,   0.00187,276668069.28185,   0.00025,   0.00215,  -0.00087,   0.00494,   1.00000
456888756.75035,481733197.27790,-46536301.35289,   0.00139,   0.00345,  -0.00147,476719924.12436,   0.00187,276668238.75971,   0.00025,   0.00215,  -0.00087,   0.00350,   1.00000
457842246.69370,480884078.03790,-46593153.42213,   0.00139,   0.00344,  -0.00147,476709542.30103,   0.00187,276668373.73078,   0.00025,   0.00215,  -0.00087,   0.00220,   1.00000
458790761.72723,480029897.33831,-46649401.71698,   0.00140,   0.00344,  -0.00148,476714814.91170,   0.00187,276668525.46839,   0.00025,   0.00215,  -0.00087,   0.00277,   1.00000
459721232.32218,479182252.87250,-46704957.06660,   0.00140,   0.00343,  -0.00148,476720857.92750,   0.00187,276668696.43261,   0.00025,   0.00215,  -0.00087,   0.00350,   1.00000
460658067.57924,478316277.76004,-46765954.90764,   0.00141,   0.00342,  -0.00148,476727154.31404,   0.00187,276668887.38678,   0.00025,   0.00215,  -0.00087,   0.00435,   1.00000
461576879.20251,477458245.69218,-46823865.52255,   0.00142,   0.00342,  -0.00148,476700919.35632,   0.00187,276668992.01003,   0.00025,   0.00215,  -0.00087,   0.00130,   1.00000
462496379.17273,476587951.14057,-46885396.24036,   0.00142,   0.00341,  -0.00148,476722742.21614,   0.00187,276669167.55623,   0.00025,   0.00215,  -0.00087,   0.00365,   1.00000
463410988.90816,475713838.57977,-46943930.08398,   0.00143,   0.00341,  -0.00148,476695794.40089,   0.00187,276669254.51294,   0.00025,   0.00215,  -0.00087,   0.00089,   1.00000
464313342.30022,474839333.35976,-47006013.81994,   0.00143,   0.00340,  -0.00148,476718149.21216,   0.00187,276669414.18400,   0.00025,   0.00215,  -0.00087,   0.00301,   1.00000
465210767.77454,473960007.97458,-47067503.89934,   0.00144,   0.00340,  -0.00148,476723300.67633,   0.00187,276669590.15111,   0.00025,   0.00215,  -0.00087,   0.00365,   1.00000
466101799.43494,473074968.97089,-47131969.08362,   0.00145,   0.00339,  -0.00148,476698099.16696,   0.00187,276669683.24665,   0.00025,   0.00215,  -0.00087,   0.00102,   1.00000
466987930.15818,472185090.65189,-47195842.32979,   0.00145,   0.00338,  -0.00148,476703181.48051,   0.00188,276669792.63489,   0.00025,   0.00215,  -0.00087,   0.00141,   1.00000
467863566.44256,471297022.31104,-47257324.56524,   0.00146,   0.00338,  -0.00148,476723529.50589,   0.00188,276669968.11540,   0.00025,   0.00215,  -0.00087,   0.00363,   1.00000
468733048.05390,470403141.70157,-47321802.36454,   0.00146,   0.00337,  -0.00148,476698256.41249,   0.00188,276670060.49555,   0.00025,   0.00215,  -0.00087,   0.00101,   1.00000
469595872.32678,469502729.74749,-47391641.59003,   0.00147,   0.00337,  -0.00149,476705106.49865,   0.00188,276670174.95060,   0.00025,   0.00215,  -0.00087,   0.00155,   1.00000
470448916.77464,468604965.58231,-47456746.66746,   0.00147,   0.00336,  -0.00149,476693084.87523,   0.00188,276670249.77605,   0.00025,   0.00215,  -0.00087,   0.00066,   1.00000
471295349.52541,467700749.78816,-47527219.28406,   0.00148,   0.00336,  -0.00149,476699854.59129,   0.00188,276670346.47599,   0.00025,   0.00215,  -0.00087,   0.00111,   1.00000
472136950.26421,466791895.96727,-47597110.39493,   0.00149,   0.00335,  -0.00149,476704806.65781,   0.00188,276670459.04678,   0.00025,   0.00215,  -0.00087,   0.00152,   1.00000
472967201.91458,465883987.98983,-47668239.38838,   0.00149,   0.00334,  -0.00149,476694457.48528,   0.00188,276670537.45152,   0.00025,   0.00215,  -0.00087,   0.00074,   1.00000
473792680.03458,464971515.85283,-47738794.06402,   0.00150,   0.00334,  -0.00149,476699324.75018,   0.00188,276670631.51428,   0.00025,   0.00215,  -0.00087,   0.00107,   1.00000
474613366.27761,464054502.66610,-47808772.92819,   0.00150,   0.00333,  -0.00149,476704206.93429,   0.00188,276670741.23834,   0.00025,   0.00215,  -0.00087,   0.00146,   1.00000
475428479.75093,463131278.32340,-47881798.16073,   0.00151,   0.00333,  -0.00149,476678755.91051,   0.00188,276670767.43449,   0.00025,   0.00215,  -0.00087,   0.00008,   1.00000
476231429.88439,462209009.25156,-47958409.14335,   0.00151,   0.00332,  -0.00149,476700337.18211,   0.00188,276670864.10154,   0.00025,   0.00215,  -0.00087,   0.00115,   1.00000
477031473.04204,461284072.82493,-48028506.89415,   0.00152,   0.00332,  -0.00149,476703298.19220,   0.00188,276670970.15260,   0.00025,   0.00215,  -0.00087,   0.00139,   1.00000
477824291.62548,460351016.64581,-48107612.36751,   0.00153,   0.00331,  -0.00150,476679656.65196,   0.00188,276670998.56125,   0.00025,   0.00215,  -0.00087,   0.00010,   1.00000
478600777.57832,459426516.26652,-48186236.57623,   0.00153,   0.00330,  -0.00150,476683677.11018,   0.00188,276671040.03499,   0.00025,   0.00215,  -0.00087,   0.00022,   1.00000
479384154.17335,458484582.35162,-48264206.98914,   0.00154,   0.00330,  -0.00150,476689132.19484,   0.00188,276671099.23188,   0.00025,   0.00215,  -0.00087,   0.00045,   1.00000
480145354.61067,457556878.39027,-48343588.93718,   0.00154,   0.00329,  -0.00150,476677451.03606,   0.00188,276671120.02001,   0.00025,   0.00215,  -0.00087,   0.00006,   1.00000
480913366.34399,456611684.33587,-48422307.62871,   0.00155,   0.00329,  -0.00150,476682956.65969,   0.00188,276671158.76930,   0.00025,   0.00215,  -0.00087,   0.00019,   1.00000
481663446.31056,455673628.37953,-48506518.45291,   0.00155,   0.00328,  -0.00150,476688542.40336,   0.00188,276671215.69387,   0.00025,   0.00215,  -0.00087,   0.00042,   1.00000
482400186.52794,454721106.50852,-48592831.11436,   0.00156,   0.00328,  -0.00150,476662844.97090,   0.00188,276671215.69387,   0.00025,   0.00215,  -0.00087,-8370.72297,   0.00000
483004025.20529,453967555.76241,-48662696.74645,   0.00156,   0.00327,  -0.00150,476671215.27052,   0.00188,276671215.69387,   0.00025,   0.00215,  -0.00087,  -0.42336,   0.00000
483143754.00674,453787917.69881,-48678852.88890,   0.00156,   0.00327,  -0.00150,476671215.27052,   0.00188,276671223.55034,   0.00025,   0.00215,  -0.00087,   0.00001,   1.00000
483879770.74453,452834727.69404,-48765078.61395,   0.00157,   0.00326,  -0.00150,476671938.95092,   0.00188,276671225.89520,   0.00025,   0.00215,  -0.00087,   0.00000,   1.00000
484594932.79655,451872958.03787,-48851391.27540,   0.00157,   0.00326,  -0.00150,476660726.98899,   0.00188,276671225.89520,   0.00025,   0.00215,  -0.00087,-10498.90621,   0.00000
485319342.63373,450932766.54707,-48937703.93685,   0.00158,   0.00325,  -0.00151,476669200.85887,   0.00188,276671225.89520,   0.00025,   0.00215,  -0.00087,-2025.03634,   0.00000
486012926.52039,449961749.10575,-49030181.78841,   0.00158,   0.00325,  -0.00151,476653742.32949,   0.00188,276671225.89520,   0.00025,   0.00215,  -0.00087,-17483.56571,   0.00000
486715758.19220,449012309.82979,-49122659.63996,   0.00159,   0.00324,  -0.00151,476657134.53715,   0.00188,276671225.89520,   0.00025,   0.00215,  -0.00087,-14091.35805,   0.00000
487387763.91350,448032044.60331,-49215137.49152,   0.00159,   0.00324,  -0.00151,476634659.14487,   0.00188,276671225.89520,   0.00025,   0.00215,  -0.00087,-36566.75033,   0.00000
488069017.41995,447073357.54219,-49307615.34307,   0.00160,   0.00323,  -0.00151,476630906.73133,   0.00188,276671225.89520,   0.00025,   0.00215,  -0.00087,-40319.16387,   0.00000
488719444.97588,446083844.53056,-49400093.19463,   0.00160,   0.00322,  -0.00151,476601249.43178,   0.00188,276671225.89520,   0.00025,   0.00215,  -0.00087,-69976.46343,   0.00000
489379120.31697,445115909.68429,-49498736.23628,   0.00161,   0.00322,  -0.00151,476592109.46350,   0.00188,276671225.89520,   0.00025,   0.00215,  -0.00087,-79116.43170,   0.00000
490029547.87291,444126396.67265,-49597379.27794,   0.00161,   0.00321,  -0.00151,476573034.00818,   0.00188,276671225.89520,   0.00025,   0.00215,  -0.00087,-98191.88703,   0.00000
490667645.04863,443149214.04123,-49696022.31960,   0.00162,   0.00321,  -0.00152,476556467.21804,   0.00188,276671225.89520,   0.00025,   0.00215,  -0.00087,-114758.67716,   0.00000
491284164.05900,442162783.62465,-49794665.36126,   0.00162,   0.00320,  -0.00152,476528078.54536,   0.00188,276671225.89520,   0.00025,   0.00215,  -0.00087,-143147.34985,   0.00000
491891435.28421,441154775.04270,-49899473.59302,   0.00163,   0.00320,  -0.00152,476491696.21860,   0.00188,276671225.89520,   0.00025,   0.00215,  -0.00087,-179529.67660,   0.00000
492486376.12921,440159096.84096,-49998116.63468,   0.00163,   0.00319,  -0.00152,476455598.85709,   0.00188,276671225.89520,   0.00025,   0.00215,  -0.00087,-215627.03811,   0.00000
493081316.97421,439163418.63923,-50102924.86644,   0.00164,   0.00318,  -0.00152,476425572.18405,   0.00188,276671225.89520,   0.00025,   0.00215,  -0.00087,-245653.71115,   0.00000
493676257.81921,438167740.43749,-50207733.09820,   0.00164,   0.00318,  -0.00152,476399680.19172,   0.00188,276671225.89520,   0.00025,   0.00215,  -0.00087,-271545.70348,   0.00000
494240372.71369,437141236.28523,-50318706.52007,   0.00165,   0.00317,  -0.00152,476349740.85074,   0.00188,276671225.89520,   0.00025,   0.00215,  -0.00087,-321485.04446,   0.00000
494792157.22797,436127062.51319,-50423514.75183,   0.00165,   0.00317,  -0.00153,476299733.30254,   0.00188,276671225.89520,   0.00025,   0.00215,  -0.00087,-371492.59266,   0.00000
495343941.74224,435112888.74114,-50534488.17370,   0.00165,   0.00316,  -0.00153,476255726.09937,   0.00188,276671225.89520,   0.00025,   0.00215,  -0.00087,-415499.79583,   0.00000
495874148.09115,434089467.18393,-50645461.59556,   0.00166,   0.00316,  -0.00153,476199516.87362,   0.00188,276671225.89520,   0.00025,   0.00215,  -0.00087,-471709.02159,   0.00000
496413602.22522,433087623.79209,-50756435.01743,   0.00166,   0.00315,  -0.00153,476161121.92969,   0.00188,276671225.89520,   0.00025,   0.00215,  -0.00087,-510103.96551,   0.00000
496922230.40877,432054954.44973,-50873573.62940,   0.00167,   0.00314,  -0.00153,476098557.64972,   0.00188,276671225.89520,   0.00025,   0.00215,  -0.00087,-572668.24548,   0.00000
497430858.59232,431022285.10737,-50990712.24136,   0.00167,   0.00314,  -0.00153,476039958.60677,   0.00188,276671225.89520,   0.00025,   0.00215,  -0.00087,-631267.28843,   0.00000
497927156.39567,430001946.14522,-51107850.85333,   0.00168,   0.00313,  -0.00153,475982686.37924,   0.00188,276671225.89520,   0.00025,   0.00215,  -0.00087,-688539.51596,   0.00000
498414206.41385,428960029.01771,-51224989.46530,   0.00168,   0.00313,  -0.00154,475915595.29087,   0.00188,276671225.89520,   0.00025,   0.00215,  -0.00087,-755630.60433,   0.00000
498888926.05183,427930442.27040,-51348293.26738,   0.00168,   0.00312,  -0.00154,475851664.75924,   0.00188,276671225.89520,   0.00025,   0.00215,  -0.00087,-819561.13596,   0.00000
499332819.73929,426870029.57258,-51465431.87934,   0.00169,   0.00312,  -0.00154,475759543.80653,   0.00188,276671225.89520,   0.00025,   0.00215,  -0.00087,-911682.08867,   0.00000
499785961.21191,425831195.04011,-51594900.87152,   0.00169,   0.00311,  -0.00154,475688828.91497,   0.00188,276671225.89520,   0.00025,   0.00215,  -0.00087,-982396.98024,   0.00000
500239102.68453,424792360.50765,-51718204.67359,   0.00170,   0.00311,  -0.00154,475619888.39479,   0.00188,276671225.89520,   0.00025,   0.00215,  -0.00087,-1051337.50041,   0.00000
500649087.82642,423735030.40488,-51841508.47567,   0.00170,   0.00310,  -0.00154,475521770.98893,   0.00188,276671225.89520,   0.00025,   0.00215,  -0.00087,-1149454.90628,   0.00000
501080651.13368,422686948.08726,-51970977.46784,   0.00170,   0.00309,  -0.00155,475445865.84330,   0.00188,276671225.89520,   0.00025,   0.00215,  -0.00087,-1225360.05190,   0.00000
501469058.11021,421620370.19933,-52106611.65012,   0.00171,   0.00309,  -0.00155,475342697.23852,   0.00188,276671225.89520,   0.00025,   0.00215,  -0.00087,-1328528.65668,   0.00000
501879043.25210,420563040.09655,-52236080.64230,   0.00171,   0.00308,  -0.00155,475257712.11276,   0.00188,276671225.89520,   0.00025,   0.00215,  -0.00087,-1413513.78245,   0.00000
502255119.84842,419508792.58883,-52371714.82458,   0.00172,   0.00308,  -0.00155,475158692.55978,   0.00188,276671225.89520,   0.00025,   0.00215,  -0.00087,-1512533.33542,   0.00000
502621948.65959,418432966.91575,-52507349.00686,   0.00172,   0.00307,  -0.00155,475049937.33381,   0.00188,276671225.89520,   0.00025,   0.00215,  -0.00087,-1621288.56140,   0.00000
502976447.09054,417369471.62287,-52642983.18914,   0.00172,   0.00307,  -0.00155,474941490.34045,   0.00188,276671225.89520,   0.00025,   0.00215,  -0.00087,-1729735.55475,   0.00000
503330945.52150,416305976.32999,-52784782.56152,   0.00173,   0.00306,  -0.00156,474838631.29006,   0.00188,276671225.89520,   0.00025,   0.00215,  -0.00087,-1832594.60515,   0.00000
503663865.78710,415233233.25196,-52926581.93391,   0.00173,   0.00306,  -0.00156,474722678.47570,   0.00188,276671225.89520,   0.00025,   0.00215,  -0.00087,-1948547.41950,   0.00000
503996786.05270,414160490.17393,-53068381.30629,   0.00173,   0.00305,  -0.00156,474610235.13858,   0.00188,276671225.89520,   0.00025,   0.00215,  -0.00087,-2060990.75662,   0.00000
504308128.15293,413078499.31074,-53210180.67867,   0.00174,   0.00304,  -0.00156,474484625.59906,   0.00188,276671225.89520,   0.00025,   0.00215,  -0.00087,-2186600.29615,   0.00000
504619470.25316,411996508.44755,-53358145.24116,   0.00174,   0.00304,  -0.00156,474364572.75320,   0.00188,276671225.89520,   0.00025,   0.00215,  -0.00087,-2306653.14200,   0.00000
504896903.80783,410917600.17941,-53506109.80365,   0.00174,   0.00303,  -0.00157,474227629.85740,   0.00188,276671225.89520,   0.00025,   0.00215,  -0.00087,-2443596.03780,   0.00000
505195915.52785,409847939.69643,-53660239.55624,   0.00175,   0.00303,  -0.00157,474112861.61102,   0.00188,276671225.89520,   0.00025,   0.00215,  -0.00087,-2558364.28418,   0.00000
505442523.13200,408738205.47778,-53814369.30883,   0.00175,   0.00302,  -0.00157,473955012.59341,   0.00188,276671225.89520,   0.00025,   0.00215,  -0.00087,-2716213.30179,   0.00000
505698378.52130,407650049.42449,-53968499.06142,   0.00175,   0.00302,  -0.00157,473813508.15442,   0.00188,276671225.89520,   0.00025,   0.00215,  -0.00087,-2857717.74079,   0.00000
505963481.69576,406583471.53656,-54122628.81401,   0.00176,   0.00301,  -0.00157,473688243.60231,   0.00188,276671225.89520,   0.00025,   0.00215,  -0.00087,-2982982.29289,   0.00000
506176180.75433,405476819.91296,-54282923.75671,   0.00176,   0.00301,  -0.00158,473521886.29095,   0.00188,276671225.89520,   0.00025,   0.00215,  -0.00087,-3149339.60425,   0.00000
506388879.81291,404370168.28935,-54443218.69940,   0.00176,   0.00300,  -0.00158,473358813.41513,   0.00188,276671225.89520,   0.00025,   0.00215,  -0.00087,-3312412.48007,   0.00000
506610826.65664,403285094.83111,-54603513.64210,   0.00177,   0.00299,  -0.00158,473211827.02270,   0.00188,276671225.89520,   0.00025,   0.00215,  -0.00087,-3459398.87251,   0.00000
506811195.33501,402190773.58772,-54769973.77489,   0.00177,   0.00299,  -0.00158,473053347.35439,   0.00188,276671225.89520,   0.00025,   0.00215,  -0.00087,-3617878.54082,   0.00000
506989985.84801,401087204.55917,-54936433.90769,   0.00177,   0.00298,  -0.00158,472881201.31748,   0.00188,276671225.89520,   0.00025,   0.00215,  -0.00087,-3790024.57772,   0.00000
507168776.36102,399983635.53061,-55109059.23059,   0.00178,   0.00298,  -0.00159,472714385.90249,   0.00188,276671225.89520,   0.00025,   0.00215,  -0.00087,-3956839.99271,   0.00000
507325988.70866,398870818.71691,-55281684.55350,   0.00178,   0.00297,  -0.00159,472533861.55041,   0.00188,276671225.89520,   0.00025,   0.00215,  -0.00087,-4137364.34479,   0.00000
507470870.67610,397770332.28341,-55454309.87640,   0.00178,   0.00297,  -0.00159,472352205.91020,   0.00188,276671225.89520,   0.00025,   0.00215,  -0.00087,-4319019.98500,   0.00000
507615752.64353,396669845.84991,-55626935.19930,   0.00178,   0.00296,  -0.00159,472173616.74002,   0.00188,276671225.89520,   0.00025,   0.00215,  -0.00087,-4497609.15518,   0.00000
507739056.44560,395560111.63126,-55805725.71230,   0.00179,   0.00296,  -0.00160,471983337.17798,   0.00188,276671225.89520,   0.00025,   0.00215,  -0.00087,-4687888.71722,   0.00000
507862360.24768,394450377.41260,-55984516.22531,   0.00179,   0.00295,  -0.00160,471796116.65939,   0.00188,276671225.89520,   0.00025,   0.00215,  -0.00087,-4875109.23581,   0.00000
507942507.71902,393322147.62364,-56169471.92842,   0.00179,   0.00295,  -0.00160,471580209.17330,   0.00188,276671225.89520,   0.00025,   0.00215,  -0.00087,-5091016.72191,   0.00000
508053481.14089,392224743.78519,-56354427.63153,   0.00180,   0.00294,  -0.00160,471396762.19519,   0.00188,276671225.89520,   0.00025,   0.00215,  -0.00087,-5274463.70002,   0.00000
508112050.44687,391087266.21107,-56539383.33464,   0.00180,   0.00294,  -0.00160,471169882.81000,   0.00188,276671225.89520,   0.00025,   0.00215,  -0.00087,-5501343.08520,   0.00000
508179867.53801,389971366.80231,-56730504.22785,   0.00180,   0.00293,  -0.00161,470960611.41165,   0.00188,276671225.89520,   0.00025,   0.00215,  -0.00087,-5710614.48355,   0.00000
508235354.24895,388867797.77376,-56921625.12106,   0.00180,   0.00293,  -0.00161,470749605.11474,   0.00188,276671225.89520,   0.00025,   0.00215,  -0.00087,-5921620.78047,   0.00000
508281593.17472,387742650.57984,-57112746.01428,   0.00181,   0.00292,  -0.00161,470529155.45403,   0.00188,276671225.89520,   0.00025,   0.00215,  -0.00087,-6142070.44118,   0.00000
508315501.72029,386629833.76614,-57310032.09759,   0.00181,   0.00292,  -0.00161,470309110.11100,   0.00188,276671225.89520,   0.00025,   0.00215,  -0.00087,-6362115.78420,   0.00000
508327832.10050,385507769.16728,-57507318.18091,   0.00181,   0.00291,  -0.00162,470074857.17777,   0.00188,276671225.89520,   0.00025,   0.00215,  -0.00087,-6596368.71743,   0.00000
508340162.48071,384385704.56841,-57710769.45433,   0.00181,   0.00291,  -0.00162,469845717.10821,   0.00188,276671225.89520,   0.00025,   0.00215,  -0.00087,-6825508.78699,   0.00000
508330914.69555,383254392.18440,-57914220.72775,   0.00181,   0.00290,  -0.00162,469602345.72580,   0.00188,276671225.89520,   0.00025,   0.00215,  -0.00087,-7068880.16940,   0.00000
508309336.53019,382135410.18059,-58117672.00117,   0.00182,   0.00290,  -0.00163,469356844.94909,   0.00188,276671225.89520,   0.00025,   0.00215,  -0.00087,-7314380.94611,   0.00000
508256932.41431,380985602.22626,-58327288.46469,   0.00182,   0.00289,  -0.00163,469087180.28561,   0.00188,276671225.89520,   0.00025,   0.00215,  -0.00087,-7584045.60959,   0.00000
508213776.08358,379857372.43729,-58536904.92822,   0.00182,   0.00289,  -0.00163,468832404.69519,   0.00188,276671225.89520,   0.00025,   0.00215,  -0.00087,-7838821.20001,   0.00000
508179867.53801,378750720.81369,-58746521.39174,   0.00182,   0.00288,  -0.00163,468592420.42708,   0.00188,276671225.89520,   0.00025,   0.00215,  -0.00087,-8078805.46813,   0.00000
508093554.87656,377603995.45441,-58962303.04537,   0.00182,   0.00288,  -0.00164,468311158.36103,   0.00188,276671225.89520,   0.00025,   0.00215,  -0.00087,-8360067.53417,   0.00000
508016490.00027,376478848.26050,-59184249.88910,   0.00183,   0.00287,  -0.00164,468046942.67980,   0.00188,276671225.89520,   0.00025,   0.00215,  -0.00087,-8624283.21540,   0.00000
507939425.12397,375353701.06659,-59400031.54272,   0.00183,   0.00287,  -0.00164,467783078.57763,   0.00188,276671225.89520,   0.00025,   0.00215,  -0.00087,-8888147.31757,   0.00000
507819203.91695,374210058.30236,-59628143.57656,   0.00183,   0.00286,  -0.00165,467492250.43400,   0.00188,276671225.89520,   0.00025,   0.00215,  -0.00087,-9178975.46121,   0.00000
507708230.49509,373087993.70350,-59850090.42029,   0.00183,   0.00286,  -0.00165,467213605.56595,   0.00188,276671225.89520,   0.00025,   0.00215,  -0.00087,-9457620.32925,   0.00000
507575678.90786,371956681.31948,-60078202.45413,   0.00183,   0.00285,  -0.00165,466922743.91197,   0.00188,276671225.89520,   0.00025,   0.00215,  -0.00087,-9748481.98323,   0.00000
507443127.32063,370825368.93546,-60312479.67806,   0.00183,   0.00285,  -0.00165,466636884.97950,   0.00188,276671225.89520,   0.00025,   0.00215,  -0.00087,-10034340.91570,   0.00000
507288997.56804,369684808.76629,-60540591.71190,   0.00184,   0.00284,  -0.00166,466334041.82565,   0.00188,276671225.89520,   0.00025,   0.00215,  -0.00087,-10337184.06955,   0.00000
507122537.43524,368556578.97733,-60781034.12594,   0.00184,   0.00284,  -0.00166,466033126.17350,   0.00188,276671225.89520,   0.00025,   0.00215,  -0.00087,-10638099.72170,   0.00000
506956077.30244,367428349.18836,-61015311.34988,   0.00184,   0.00283,  -0.00166,465732354.64619,   0.00188,276671225.89520,   0.00025,   0.00215,  -0.00087,-10938871.24901,   0.00000
506768039.00428,366290871.61424,-61255753.76392,   0.00184,   0.00283,  -0.00167,465419319.94558,   0.00188,276671225.89520,   0.00025,   0.00215,  -0.00087,-11251905.94962,   0.00000
506558422.54076,365144146.25496,-61502361.36807,   0.00184,   0.00282,  -0.00167,465094035.25081,   0.00188,276671225.89520,   0.00025,   0.00215,  -0.00087,-11577190.64439,   0.00000
506358053.86239,364018999.06105,-61748968.97221,   0.00184,   0.00282,  -0.00167,464782921.33277,   0.00188,276671225.89520,   0.00025,   0.00215,  -0.00087,-11888304.56244,   0.00000
506114528.85330,362875356.29682,-61995576.57636,   0.00184,   0.00281,  -0.00168,464439775.51929,   0.00188,276671225.89520,   0.00025,   0.00215,  -0.00087,-12231450.37591,   0.00000
505892582.00956,361740961.31776,-62248349.37061,   0.00185,   0.00281,  -0.00168,464118874.52013,   0.00188,276671225.89520,   0.00025,   0.00215,  -0.00087,-12552351.37507,   0.00000
505636726.62026,360609648.93374,-62501122.16485,   0.00185,   0.00280,  -0.00168,463777432.12928,   0.00188,276671225.89520,   0.00025,   0.00215,  -0.00087,-12893793.76592,   0.00000
505380871.23096,359478336.54972,-62760060.14921,   0.00185,   0.00280,  -0.00169,463440934.73749,   0.00188,276671225.89520,   0.00025,   0.00215,  -0.00087,-13230291.15771,   0.00000
505103437.67630,358337776.38055,-63018998.13356,   0.00185,   0.00279,  -0.00169,463089607.32449,   0.00188,276671225.89520,   0.00025,   0.00215,  -0.00087,-13581618.57071,   0.00000
504826004.12164,357197216.21137,-63284101.30802,   0.00185,   0.00279,  -0.00169,462743270.93790,   0.00188,276671225.89520,   0.00025,   0.00215,  -0.00087,-13927954.95731,   0.00000
504514662.02140,356059738.63725,-63549204.48247,   0.00185,   0.00278,  -0.00170,462376174.93342,   0.00188,276671225.89520,   0.00025,   0.00215,  -0.00087,-14295050.96178,   0.00000
504203319.92117,354922261.06313,-63814307.65693,   0.00185,   0.00278,  -0.00170,462011487.36902,   0.00188,276671225.89520,   0.00025,   0.00215,  -0.00087,-14659738.52618,   0.00000
503901225.60609,353806361.65437,-64085576.02149,   0.00185,   0.00278,  -0.00170,461663092.10459,   0.00188,276671225.89520,   0.00025,   0.00215,  -0.00087,-15008133.79061,   0.00000
503568305.34049,352659636.29510,-64363009.57615,   0.00185,   0.00277,  -0.00171,461291049.99910,   0.00188,276671225.89520,   0.00025,   0.00215,  -0.00087,-15380175.89610,   0.00000
503223054.69469,351525241.31603,-64640443.13082,   0.00185,   0.00277,  -0.00171,460915385.92854,   0.00188,276671225.89520,   0.00025,   0.00215,  -0.00087,-15755839.96667,   0.00000
502865473.66868,350403176.71717,-64917876.68548,   0.00185,   0.00276,  -0.00171,460535995.95110,   0.00188,276671225.89520,   0.00025,   0.00215,  -0.00087,-16135229.94410,   0.00000
502498644.85751,349259533.95294,-65201475.43025,   0.00185,   0.00276,  -0.00172,460150371.96615,   0.00188,276671225.89520,   0.00025,   0.00215,  -0.00087,-16520853.92905,   0.00000
502119485.66614,348128221.56893,-65485074.17501,   0.00185,   0.00275,  -0.00172,459760978.98521,   0.00188,276671225.89520,   0.00025,   0.00215,  -0.00087,-16910246.91000,   0.00000
501718748.30940,346987661.39975,-65774838.10989,   0.00186,   0.00275,  -0.00172,459359241.11492,   0.00188,276671225.89520,   0.00025,   0.00215,  -0.00087,-17311984.78028,   0.00000
501305680.57246,345859431.61079,-66064602.04476,   0.00186,   0.00274,  -0.00173,458953624.01042,   0.00188,276671225.89520,   0.00025,   0.00215,  -0.00087,-17717601.88478,   0.00000
500892612.83551,344731201.82182,-66360531.16973,   0.00186,   0.00274,  -0.00173,458553005.64671,   0.00188,276671225.89520,   0.00025,   0.00215,  -0.00087,-18118220.24849,   0.00000
500479545.09857,343602972.03286,-66656460.29471,   0.00186,   0.00274,  -0.00174,458154743.95822,   0.00188,276671225.89520,   0.00025,   0.00215,  -0.00087,-18516481.93698,   0.00000
500032568.81606,342477824.83894,-66958554.60978,   0.00186,   0.00273,  -0.00174,457737815.75564,   0.00188,276671225.89520,   0.00025,   0.00215,  -0.00087,-18933410.13957,   0.00000
499585592.53354,341352677.64503,-67260648.92486,   0.00186,   0.00273,  -0.00174,457323211.48144,   0.00188,276671225.89520,   0.00025,   0.00215,  -0.00087,-19348014.41376,   0.00000
499117038.08567,340218282.66596,-67562743.23994,   0.00186,   0.00272,  -0.00175,456893564.02020,   0.00188,276671225.89520,   0.00025,   0.00215,  -0.00087,-19777661.87501,   0.00000
498648483.63779,339083887.68689,-67871002.74512,   0.00186,   0.00272,  -0.00175,456468997.57041,   0.00188,276671225.89520,   0.00025,   0.00215,  -0.00087,-20202228.32479,   0.00000
498167598.80971,337961823.08803,-68185427.44041,   0.00186,   0.00271,  -0.00176,456043065.96789,   0.00188,276671225.89520,   0.00025,   0.00215,  -0.00087,-20628159.92731,   0.00000
497674383.60142,336852088.86937,-68499852.13569,   0.00186,   0.00271,  -0.00176,455612944.72790,   0.00188,276671225.89520,   0.00025,   0.00215,  -0.00087,-21058281.16730,   0.00000
497150342.44261,335711528.70020,-68814276.83098,   0.00186,   0.00271,  -0.00176,455156902.75454,   0.00188,276671225.89520,   0.00025,   0.00215,  -0.00087,-21514323.14066,   0.00000
496635549.06895,334592546.69639,-69134866.71637,   0.00186,   0.00270,  -0.00177,454716809.83721,   0.00188,276671225.89520,   0.00025,   0.00215,  -0.00087,-21954416.05800,   0.00000
496108425.31509,333485895.07279,-69461621.79186,   0.00186,   0.00270,  -0.00177,454275247.30898,   0.00188,276671225.89520,   0.00025,   0.00215,  -0.00087,-22395978.58623,   0.00000
495572053.77608,332357665.28382,-69788376.86735,   0.00186,   0.00269,  -0.00178,453825252.73630,   0.00188,276671225.89520,   0.00025,   0.00215,  -0.00087,-22845973.15890,   0.00000
495001773.69149,331232518.08991,-70115131.94285,   0.00186,   0.00269,  -0.00178,453353557.63597,   0.00188,276671225.89520,   0.00025,   0.00215,  -0.00087,-23317668.25924,   0.00000
494462319.55742,330138196.84651,-70448052.20844,   0.00185,   0.00269,  -0.00179,452915113.53876,   0.00188,276671225.89520,   0.00025,   0.00215,  -0.00087,-23756112.35644,   0.00000
493870461.30747,329003801.86744,-70787137.66414,   0.00185,   0.00268,  -0.00179,452436439.03995,   0.00188,276671225.89520,   0.00025,   0.00215,  -0.00087,-24234786.85525,   0.00000
493287850.84268,327890985.05374,-71126223.11984,   0.00185,   0.00268,  -0.00179,451970774.92525,   0.00188,276671225.89520,   0.00025,   0.00215,  -0.00087,-24700450.96995,   0.00000
492692909.99768,326790498.62024,-71465308.57554,   0.00185,   0.00267,  -0.00180,451500656.49458,   0.00188,276671225.89520,   0.00025,   0.00215,  -0.00087,-25170569.40062,   0.00000
492076390.98731,325680764.40158,-71810559.22135,   0.00185,   0.00267,  -0.00180,451018390.92727,   0.00188,276671225.89520,   0.00025,   0.00215,  -0.00087,-25652834.96793,   0.00000
491459871.97695,324571030.18293,-72161975.05725,   0.00185,   0.00267,  -0.00181,450541423.61049,   0.00188,276671225.89520,   0.00025,   0.00215,  -0.00087,-26129802.28471,   0.00000
490821774.80122,323452048.17912,-72513390.89316,   0.00185,   0.00266,  -0.00181,450049452.07877,   0.00188,276671225.89520,   0.00025,   0.00215,  -0.00087,-26621773.81644,   0.00000
490171347.24529,322345396.55552,-72864806.72907,   0.00185,   0.00266,  -0.00182,449552963.74493,   0.00188,276671225.89520,   0.00025,   0.00215,  -0.00087,-27118262.15027,   0.00000
489530167.47451,321260323.09728,-73222387.75508,   0.00185,   0.00266,  -0.00182,449072282.04503,   0.00188,276671225.89520,   0.00025,   0.00215,  -0.00087,-27598943.85017,   0.00000
488858161.75322,320144423.68852,-73586133.97119,   0.00185,   0.00265,  -0.00183,448569166.58432,   0.00188,276671225.89520,   0.00025,   0.00215,  -0.00087,-28102059.31088,   0.00000
488173825.65171,319040854.65997,-73949880.18731,   0.00185,   0.00265,  -0.00183,448061503.33876,   0.00188,276671225.89520,   0.00025,   0.00215,  -0.00087,-28609722.55644,   0.00000
487498737.33536,317958863.79678,-74313626.40342,   0.00185,   0.00264,  -0.00184,447566596.77938,   0.00188,276671225.89520,   0.00025,   0.00215,  -0.00087,-29104629.11582,   0.00000
486802070.85365,316867625.14843,-74683537.80964,   0.00185,   0.00264,  -0.00184,447059754.84846,   0.00188,276671225.89520,   0.00025,   0.00215,  -0.00087,-29611471.04674,   0.00000
486105404.37194,315776386.50009,-75059614.40596,   0.00184,   0.00264,  -0.00185,446558416.69847,   0.00188,276671225.89520,   0.00025,   0.00215,  -0.00087,-30112809.19673,   0.00000
485365581.55951,314666652.28144,-75435691.00228,   0.00184,   0.00263,  -0.00185,446024794.79242,   0.00188,276671225.89520,   0.00025,   0.00215,  -0.00087,-30646431.10278,   0.00000
484635006.53222,313578496.22814,-75811767.59861,   0.00184,   0.00263,  -0.00186,445503892.91742,   0.00188,276671225.89520,   0.00025,   0.00215,  -0.00087,-31167332.97778,   0.00000
483913679.29010,312511918.34021,-76194009.38503,   0.00184,   0.00263,  -0.00186,444998805.70766,   0.00188,276671225.89520,   0.00025,   0.00215,  -0.00087,-31672420.18755,   0.00000
483139947.93209,311405266.71661,-76582416.36156,   0.00184,   0.00262,  -0.00187,444454412.24804,   0.00188,276671225.89520,   0.00025,   0.00215,  -0.00087,-32216813.64716,   0.00000
482406290.30976,310351019.20889,-76970823.33809,   0.00184,   0.00262,  -0.00187,443950248.47390,   0.00188,276671225.89520,   0.00025,   0.00215,  -0.00087,-32720977.42130,   0.00000
481620228.57155,309256697.96549,-77359230.31462,   0.00184,   0.00262,  -0.00188,443403675.88577,   0.00188,276671225.89520,   0.00025,   0.00215,  -0.00087,-33267550.00943,   0.00000
480843414.61849,308183954.88746,-77759967.67136,   0.00184,   0.00261,  -0.00188,442876226.44490,   0.00188,276671225.89520,   0.00025,   0.00215,  -0.00087,-33794999.45030,   0.00000
480045022.50007,307101964.02427,-78154539.83799,   0.00183,   0.00261,  -0.00189,442330721.28971,   0.00188,276671225.89520,   0.00025,   0.00215,  -0.00087,-34340504.60550,   0.00000
479234300.00144,306032303.54129,-78555277.19472,   0.00183,   0.00261,  -0.00189,441783774.11200,   0.00188,276671225.89520,   0.00025,   0.00215,  -0.00087,-34887451.78321,   0.00000
478423577.50281,304962643.05831,-78962179.74156,   0.00183,   0.00260,  -0.00190,441242667.88656,   0.00188,276671225.89520,   0.00025,   0.00215,  -0.00087,-35428558.00865,   0.00000
477600524.62397,303905312.95554,-79369082.28840,   0.00183,   0.00260,  -0.00190,440696854.00514,   0.00188,276671225.89520,   0.00025,   0.00215,  -0.00087,-35974371.89006,   0.00000
476777471.74514,302847982.85276,-79782150.02535,   0.00183,   0.00260,  -0.00191,440156945.96589,   0.00188,276671225.89520,   0.00025,   0.00215,  -0.00087,-36514279.92931,   0.00000
475932840.70094,301781404.96483,-80195217.76229,   0.00183,   0.00259,  -0.00191,439602346.17255,   0.00188,276671225.89520,   0.00025,   0.00215,  -0.00087,-37068879.72266,   0.00000
475075879.27654,300727157.45711,-80614450.68934,   0.00182,   0.00259,  -0.00192,439046426.39608,   0.00188,276671225.89520,   0.00025,   0.00215,  -0.00087,-37624799.49912,   0.00000
474218917.85213,299672909.94939,-81033683.61639,   0.00182,   0.00259,  -0.00192,438493153.40368,   0.00188,276671225.89520,   0.00025,   0.00215,  -0.00087,-38178072.49152,   0.00000
473340378.26236,298609414.65651,-81459081.73354,   0.00182,   0.00258,  -0.00193,437928703.00936,   0.00188,276671225.89520,   0.00025,   0.00215,  -0.00087,-38742522.88584,   0.00000
472449508.29239,297558249.74384,-81884479.85069,   0.00182,   0.00258,  -0.00193,437359583.42966,   0.00188,276671225.89520,   0.00025,   0.00215,  -0.00087,-39311642.46554,   0.00000
471567886.10757,296528662.99654,-82316043.15794,   0.00182,   0.00258,  -0.00194,436806498.68155,   0.00188,276671225.89520,   0.00025,   0.00215,  -0.00087,-39864727.21365,   0.00000
470664685.75738,295489828.46407,-82747606.46520,   0.00181,   0.00257,  -0.00195,436238876.09134,   0.00188,276671225.89520,   0.00025,   0.00215,  -0.00087,-40432349.80386,   0.00000
469761485.40720,294450993.93161,-83185334.96256,   0.00181,   0.00257,  -0.00195,435677523.59842,   0.00188,276671225.89520,   0.00025,   0.00215,  -0.00087,-40993702.29678,   0.00000
468845954.67681,293424489.77936,-83629228.65002,   0.00181,   0.00257,  -0.00196,435115064.13444,   0.00188,276671225.89520,   0.00025,   0.00215,  -0.00087,-41556161.76076,   0.00000
467908845.78106,292388737.84194,-84073122.33748,   0.00181,   0.00257,  -0.00196,434538208.71436,   0.00188,276671225.89520,   0.00025,   0.00215,  -0.00087,-42133017.18085,   0.00000
466950158.71994,291343738.11938,-84517016.02494,   0.00181,   0.00256,  -0.00197,433946998.72949,   0.00188,276671225.89520,   0.00025,   0.00215,  -0.00087,-42724227.16572,   0.00000
466022297.60934,290329564.34733,-84967074.90251,   0.00180,   0.00256,  -0.00197,433389199.92843,   0.00188,276671225.89520,   0.00025,   0.00215,  -0.00087,-43282025.96677,   0.00000
465051280.16802,289296895.00497,-85417133.78007,   0.00180,   0.00256,  -0.00198,432799902.38486,   0.00188,276671225.89520,   0.00025,   0.00215,  -0.00087,-43871323.51034,   0.00000
464089510.51185,288285803.82797,-85873357.84774,   0.00180,   0.00255,  -0.00199,432226863.61906,   0.00188,276671225.89520,   0.00025,   0.00215,  -0.00087,-44444362.27614,   0.00000
463106162.69032,287265464.86582,-86335747.10551,   0.00180,   0.00255,  -0.00199,431643303.90228,   0.00188,276671225.89520,   0.00025,   0.00215,  -0.00087,-45027921.99293,   0.00000
462132062.65395,286266704.06903,-86798136.36329,   0.00179,   0.00255,  -0.00200,431072379.30444,   0.00188,276671225.89520,   0.00025,   0.00215,  -0.00087,-45598846.59076,   0.00000
461136384.45221,285258695.48709,-87266690.81116,   0.00179,   0.00255,  -0.00200,430491057.88806,   0.00188,276671225.89520,   0.00025,   0.00215,  -0.00087,-46180168.00715,   0.00000
460128375.87027,284263017.28535,-87735245.25904,   0.00179,   0.00254,  -0.00201,429905250.71890,   0.00188,276671225.89520,   0.00025,   0.00215,  -0.00087,-46765975.17630,   0.00000
459111119.50317,283245760.91825,-88203799.70692,   0.00179,   0.00254,  -0.00202,429312978.59268,   0.00188,276671225.89520,   0.00025,   0.00215,  -0.00087,-47358247.30252,   0.00000
458090780.54102,282262413.09672,-88678519.34490,   0.00178,   0.00254,  -0.00202,428729592.29636,   0.00188,276671225.89520,   0.00025,   0.00215,  -0.00087,-47941633.59884,   0.00000
457070441.57886,281279065.27519,-89159404.17298,   0.00178,   0.00254,  -0.00203,428153188.25440,   0.00188,276671225.89520,   0.00025,   0.00215,  -0.00087,-48518037.64081,   0.00000
456028524.45135,280286469.66851,-89640289.00106,   0.00178,   0.00253,  -0.00204,427562906.76634,   0.00188,276671225.89520,   0.00025,   0.00215,  -0.00087,-49108319.12886,   0.00000
454965029.15847,279284626.27666,-90127339.01925,   0.00177,   0.00253,  -0.00204,426962707.75123,   0.00188,276671225.89520,   0.00025,   0.00215,  -0.00087,-49708518.14397,   0.00000
453920029.43591,278325939.21555,-90614389.03744,   0.00177,   0.00253,  -0.00205,426384691.96689,   0.00188,276671225.89520,   0.00025,   0.00215,  -0.00087,-50286533.92831,   0.00000
452844203.76282,277336426.20391,-91107604.24573,   0.00177,   0.00253,  -0.00205,425787458.40688,   0.00188,276671225.89520,   0.00025,   0.00215,  -0.00087,-50883767.48832,   0.00000
451777625.87489,276368491.35764,-91600819.45402,   0.00177,   0.00252,  -0.00206,425203005.32595,   0.00188,276671225.89520,   0.00025,   0.00215,  -0.00087,-51468220.56926,   0.00000
450698717.60676,275412886.89158,-92100199.85241,   0.00176,   0.00252,  -0.00207,424618296.61766,   0.00188,276671225.89520,   0.00025,   0.00215,  -0.00087,-52052929.27754,   0.00000
449610561.55346,274435704.26015,-92599580.25081,   0.00176,   0.00252,  -0.00207,424027674.23641,   0.00188,276671225.89520,   0.00025,   0.00215,  -0.00087,-52643551.65879,   0.00000
448519322.90512,273492430.17430,-93105125.83931,   0.00176,   0.00252,  -0.00208,423446273.04195,   0.00188,276671225.89520,   0.00025,   0.00215,  -0.00087,-53224952.85325,   0.00000
447397258.30626,272518330.13792,-93610671.42781,   0.00175,   0.00252,  -0.00209,422842129.73012,   0.00188,276671225.89520,   0.00025,   0.00215,  -0.00087,-53829096.16508,   0.00000
446293689.27771,271587386.43227,-94122382.20641,   0.00175,   0.00251,  -0.00209,422264250.68042,   0.00188,276671225.89520,   0.00025,   0.00215,  -0.00087,-54406975.21478,   0.00000
445180872.46400,270634864.56126,-94634092.98501,   0.00175,   0.00251,  -0.00210,421680695.15289,   0.00188,276671225.89520,   0.00025,   0.00215,  -0.00087,-54990530.74231,   0.00000
444034147.10472,269685425.28530,-95151968.95372,   0.00174,   0.00251,  -0.00211,421080403.47481,   0.00188,276671225.89520,   0.00025,   0.00215,  -0.00087,-55590822.42039,   0.00000
442918247.69597,268766811.95986,-95676010.11252,   0.00174,   0.00251,  -0.00211,420514143.27487,   0.00188,276671225.89520,   0.00025,   0.00215,  -0.00087,-56157082.62034,   0.00000
441759191.95648,267829703.06411,-96193886.08123,   0.00174,   0.00251,  -0.00212,419913671.45180,   0.00188,276671225.89520,   0.00025,   0.00215,  -0.00087,-56757554.44340,   0.00000
440609384.00215,266914172.33372,-96724092.43014,   0.00173,   0.00250,  -0.00213,419334670.37588,   0.00188,276671225.89520,   0.00025,   0.00215,  -0.00087,-57336555.51932,   0.00000
439450328.26267,265977063.43796,-97254298.77906,   0.00173,   0.00250,  -0.00213,418750375.92833,   0.00188,276671225.89520,   0.00025,   0.00215,  -0.00087,-57920849.96688,   0.00000
438288189.92813,265073863.08778,-97784505.12797,   0.00173,   0.00250,  -0.00214,418171466.03053,   0.00188,276671225.89520,   0.00025,   0.00215,  -0.00087,-58499759.86467,   0.00000
437126051.59360,264170662.73760,-98320876.66698,   0.00172,   0.00250,  -0.00215,417600801.78248,   0.00188,276671225.89520,   0.00025,   0.00215,  -0.00087,-59070424.11272,   0.00000
435942335.09370,263258214.60226,-98857248.20600,   0.00172,   0.00250,  -0.00216,417017353.16986,   0.00188,276671225.89520,   0.00025,   0.00215,  -0.00087,-59653872.72534,   0.00000
434746288.21360,262358096.84713,-99399784.93512,   0.00172,   0.00249,  -0.00216,416434687.61034,   0.00188,276671225.89520,   0.00025,   0.00215,  -0.00087,-60236538.28487,   0.00000
433550241.33349,261457979.09200,-99948486.85434,   0.00171,   0.00249,  -0.00217,415860573.66708,   0.00188,276671225.89520,   0.00025,   0.00215,  -0.00087,-60810652.22812,   0.00000
432341864.07318,260570191.71707,-100497188.77357,   0.00171,   0.00249,  -0.00218,415282993.49606,   0.00188,276671225.89520,   0.00025,   0.00215,  -0.00087,-61388232.39914,   0.00000
431133486.81286,259682404.34215,-101045890.69279,   0.00170,   0.00249,  -0.00218,414709621.54990,   0.00188,276671225.89520,   0.00025,   0.00215,  -0.00087,-61961604.34531,   0.00000
429925109.55255,258794616.96723,-101600757.80212,   0.00170,   0.00249,  -0.00219,414145012.64851,   0.00188,276671225.89520,   0.00025,   0.00215,  -0.00087,-62526213.24669,   0.00000
428704401.91203,257919159.97251,-102155624.91145,   0.00170,   0.00249,  -0.00220,413577070.42963,   0.00188,276671225.89520,   0.00025,   0.00215,  -0.00087,-63094155.46557,   0.00000
427471363.89130,257056033.35800,-102716657.21088,   0.00169,   0.00248,  -0.00221,413010427.30485,   0.00188,276671225.89520,   0.00025,   0.00215,  -0.00087,-63660798.59035,   0.00000
426238325.87058,256192906.74349,-103283854.70041,   0.00169,   0.00248,  -0.00221,412452838.71213,   0.00188,276671225.89520,   0.00025,   0.00215,  -0.00087,-64218387.18307,   0.00000
424983709.68449,255320532.34383,-103844886.99984,   0.00168,   0.00248,  -0.00222,411878552.98310,   0.00188,276671225.89520,   0.00025,   0.00215,  -0.00087,-64792672.91210,   0.00000
423738341.28355,254469736.10953,-104418249.67948,   0.00168,   0.00248,  -0.00223,411327068.37972,   0.00188,276671225.89520,   0.00025,   0.00215,  -0.00087,-65344157.51548,   0.00000
422492972.88262,253618939.87522,-104991612.35912,   0.00168,   0.00248,  -0.00223,410780202.67377,   0.00188,276671225.89520,   0.00025,   0.00215,  -0.00087,-65891023.22143,   0.00000
421213695.93611,252771226.23597,-105564975.03876,   0.00167,   0.00248,  -0.00224,410213919.67197,   0.00188,276671225.89520,   0.00025,   0.00215,  -0.00087,-66457306.22323,   0.00000
419965244.94013,251954338.54724,-106144502.90850,   0.00167,   0.00248,  -0.00225,409682433.91895,   0.00188,276671225.89520,   0.00025,   0.00215,  -0.00087,-66988791.97625,   0.00000
418685967.99362,251106624.90799,-106724030.77824,   0.00166,   0.00247,  -0.00226,409130434.92863,   0.00188,276671225.89520,   0.00025,   0.00215,  -0.00087,-67540790.96657,   0.00000
417403608.45206,250292819.81431,-107309723.83809,   0.00166,   0.00247,  -0.00226,408589368.84100,   0.00188,276671225.89520,   0.00025,   0.00215,  -0.00087,-68081857.05420,   0.00000
416112001.12535,249457436.55527,-107895416.89793,   0.00166,   0.00247,  -0.00227,408044409.31765,   0.00188,276671225.89520,   0.00025,   0.00215,  -0.00087,-68626816.57755,   0.00000
414829641.58380,248643631.46159,-108487275.14788,   0.00165,   0.00247,  -0.00228,407518104.00113,   0.00188,276671225.89520,   0.00025,   0.00215,  -0.00087,-69153121.89407,   0.00000
413534951.66203,247842156.74812,-109079133.39783,   0.00165,   0.00247,  -0.00229,406989273.35434,   0.00188,276671225.89520,   0.00025,   0.00215,  -0.00087,-69681952.54086,   0.00000
412240261.74027,247040682.03464,-109677156.83788,   0.00164,   0.00247,  -0.00230,406470482.01991,   0.00188,276671225.89520,   0.00025,   0.00215,  -0.00087,-70200743.87529,   0.00000
410933241.43830,246251537.70138,-110275180.27794,   0.00164,   0.00247,  -0.00230,405949322.32790,   0.00188,276671225.89520,   0.00025,   0.00215,  -0.00087,-70721903.56730,   0.00000
409604642.97096,245453145.58296,-110879368.90809,   0.00163,   0.00247,  -0.00231,405422206.47826,   0.00188,276671225.89520,   0.00025,   0.00215,  -0.00087,-71249019.41694,   0.00000
408297622.66899,244664001.24969,-111483557.53825,   0.00163,   0.00246,  -0.00232,404916587.61513,   0.00188,276671225.89520,   0.00025,   0.00215,  -0.00087,-71754638.28007,   0.00000
406956693.82145,243877939.51148,-112087746.16841,   0.00162,   0.00246,  -0.00233,404392666.34079,   0.00188,276671225.89520,   0.00025,   0.00215,  -0.00087,-72278559.55442,   0.00000
405646590.92443,243122703.72378,-112698099.98867,   0.00162,   0.00246,  -0.00233,403904066.67408,   0.00188,276671225.89520,   0.00025,   0.00215,  -0.00087,-72767159.22113,   0.00000
404314909.86204,242358220.15093,-113314618.99903,   0.00162,   0.00246,  -0.00234,403409989.85339,   0.00188,276671225.89520,   0.00025,   0.00215,  -0.00087,-73261236.04181,   0.00000
402961650.63430,241584488.79292,-113931138.00939,   0.00161,   0.00246,  -0.00235,402905429.79707,   0.00188,276671225.89520,   0.00025,   0.00215,  -0.00087,-73765796.09813,   0.00000
401617639.19170,240832335.60028,-114547657.01976,   0.00161,   0.00246,  -0.00236,402415115.39944,   0.00188,276671225.89520,   0.00025,   0.00215,  -0.00087,-74256110.49577,   0.00000
400282875.53427,240101760.57300,-115170341.22022,   0.00160,   0.00246,  -0.00237,401944318.56114,   0.00188,276671225.89520,   0.00025,   0.00215,  -0.00087,-74726907.33406,   0.00000
398926533.71147,239361937.76056,-115793025.42069,   0.00160,   0.00246,  -0.00238,401463276.80435,   0.00188,276671225.89520,   0.00025,   0.00215,  -0.00087,-75207949.09085,   0.00000
397570191.88867,238622114.94813,-116421874.81126,   0.00159,   0.00246,  -0.00238,400993378.99223,   0.00188,276671225.89520,   0.00025,   0.00215,  -0.00087,-75677846.90297,   0.00000
396201519.68566,237894622.51590,-117050724.20183,   0.00159,   0.00246,  -0.00239,400522035.30628,   0.00188,276671225.89520,   0.00025,   0.00215,  -0.00087,-76149190.58893,   0.00000
394832847.48265,237167130.08367,-117685738.78251,   0.00158,   0.00246,  -0.00240,400062059.03774,   0.00188,276671225.89520,   0.00025,   0.00215,  -0.00087,-76609166.85747,   0.00000
393473423.06480,236461215.81680,-118320753.36318,   0.00158,   0.00246,  -0.00241,399616615.34987,   0.00188,276671225.89520,   0.00025,   0.00215,  -0.00087,-77054610.54534,   0.00000
392092420.48158,235746053.76478,-118961933.13396,   0.00157,   0.00246,  -0.00242,399166947.31662,   0.00188,276671225.89520,   0.00025,   0.00215,  -0.00087,-77504278.57859,   0.00000
390720665.68352,235052469.87812,-119603112.90474,   0.00157,   0.00246,  -0.00242,398731938.19427,   0.00188,276671225.89520,   0.00025,   0.00215,  -0.00087,-77939287.70094,   0.00000
389327332.72010,234349638.20631,-120244292.67552,   0.00156,   0.00245,  -0.00243,398287427.77886,   0.00188,276671225.89520,   0.00025,   0.00215,  -0.00087,-78383798.11634,   0.00000
387943247.54184,233668384.69985,-120891637.63640,   0.00156,   0.00245,  -0.00244,397863254.73014,   0.00188,276671225.89520,   0.00025,   0.00215,  -0.00087,-78807971.16506,   0.00000
386559162.36357,232987131.19340,-121538982.59728,   0.00155,   0.00245,  -0.00245,397445407.45326,   0.00188,276671225.89520,   0.00025,   0.00215,  -0.00087,-79225818.44194,   0.00000
385162746.80510,232318208.06716,-122192492.74827,   0.00155,   0.00245,  -0.00246,397032477.29386,   0.00188,276671225.89520,   0.00025,   0.00215,  -0.00087,-79638748.60134,   0.00000
383766331.24662,231649284.94091,-122846002.89925,   0.00154,   0.00245,  -0.00247,396626037.06693,   0.00188,276671225.89520,   0.00025,   0.00215,  -0.00087,-80045188.82827,   0.00000
382348337.52279,230971114.02951,-123499513.05024,   0.00154,   0.00245,  -0.00248,396210644.01205,   0.00188,276671225.89520,   0.00025,   0.00215,  -0.00087,-80460581.88316,   0.00000
380961169.74947,230323769.06863,-124159188.39133,   0.00153,   0.00245,  -0.00248,395831468.12166,   0.00188,276671225.89520,   0.00025,   0.00215,  -0.00087,-80839757.77354,   0.00000
379540093.43058,229679506.70280,-124818863.73242,   0.00153,   0.00245,  -0.00249,395436496.94713,   0.00188,276671225.89520,   0.00025,   0.00215,  -0.00087,-81234728.94807,   0.00000
378140595.27705,229044492.12213,-125484704.26361,   0.00152,   0.00245,  -0.00250,395069489.56399,   0.00188,276671225.89520,   0.00025,   0.00215,  -0.00087,-81601736.33121,   0.00000
376728766.74332,228421807.92166,-126150544.79480,   0.00152,   0.00245,  -0.00251,394702292.73037,   0.00188,276671225.89520,   0.00025,   0.00215,  -0.00087,-81968933.16483,   0.00000
375295360.04423,227789875.93604,-126822550.51610,   0.00151,   0.00245,  -0.00252,394332637.88845,   0.00188,276671225.89520,   0.00025,   0.00215,  -0.00087,-82338588.00676,   0.00000
373883531.51049,227167191.73557,-127488391.04729,   0.00151,   0.00245,  -0.00253,393979220.01274,   0.00188,276671225.89520,   0.00025,   0.00215,  -0.00087,-82692005.88246,   0.00000
372459372.59655,226556837.91531,-128166561.95869,   0.00150,   0.00245,  -0.00254,393637866.75921,   0.00188,276671225.89520,   0.00025,   0.00215,  -0.00087,-83033359.13600,   0.00000
371022883.30240,225958814.47526,-128838567.67999,   0.00150,   0.00245,  -0.00254,393290737.85735,   0.00188,276671225.89520,   0.00025,   0.00215,  -0.00087,-83380488.03785,   0.00000
369607972.17362,225370038.82036,-129522903.78149,   0.00149,   0.00245,  -0.00255,392977979.36662,   0.00188,276671225.89520,   0.00025,   0.00215,  -0.00087,-83693246.52858,   0.00000
368171482.87947,224772015.38031,-130201074.69289,   0.00149,   0.00245,  -0.00256,392651261.35665,   0.00188,276671225.89520,   0.00025,   0.00215,  -0.00087,-84019964.53855,   0.00000
366722663.20512,224186322.32046,-130885410.79439,   0.00148,   0.00245,  -0.00257,392331219.66619,   0.00188,276671225.89520,   0.00025,   0.00215,  -0.00087,-84340006.22901,   0.00000
