# sigma_xx, sigma_yy, sigma_xy, epsilon_xx, epsilon_yy, epsilon_xy, vonMises, epsPlastic, hardening, epsilonP__xx, epsilonP__yy, epsilonP__xy, yieldValue, iteration
   0.00000,   0.00000,   0.00000,   0.00000,   0.00000,   0.00000,   0.00000,   0.00000,274640135.82653,   0.00000,   0.00000,   0.00000,-474640135.82653,   0.00000
   0.00000,   0.00000,   0.00000,   0.00000,   0.00000,   0.00000,   0.00000,   0.00000,274640135.82653,   0.00000,   0.00000,   0.00000,-474640135.82653,   0.00000
-1458116.35173,-991152.87331,238059.81253,  -0.00000,  -0.00000,   0.00000,1353989.85404,   0.00000,274640135.82653,   0.00000,   0.00000,   0.00000,-473286145.97249,   0.00000
-2893342.33688,-1959415.38004,466963.47842,  -0.00001,  -0.00000,   0.00001,2682469.70269,   0.00000,274640135.82653,   0.00000,   0.00000,   0.00000,-471957666.12384,   0.00000
-4351458.68861,-2950568.25335,691289.07099,  -0.00001,  -0.00000,   0.00001,4029319.00115,   0.00000,274640135.82653,   0.00000,   0.00000,   0.00000,-470610816.82538,   0.00000
-5802707.93037,-3925697.87005,911036.59025,  -0.00002,  -0.00001,   0.00001,5365893.02313,   0.00000,274640135.82653,   0.00000,   0.00000,   0.00000,-469274242.80340,   0.00000
-7247090.06215,-4884804.23014,1126206.03619,  -0.00002,  -0.00001,   0.00001,6692236.59562,   0.00000,274640135.82653,   0.00000,   0.00000,   0.00000,-467947899.23091,   0.00000
-8682316.04729,-5853066.73686,1332219.33549,  -0.00003,  -0.00001,   0.00002,8009197.96169,   0.00000,274640135.82653,   0.00000,   0.00000,   0.00000,-466630937.86484,   0.00000
-10126698.17907,-6812173.09695,1533654.56148,  -0.00003,  -0.00001,   0.00002,9328836.28103,   0.00000,274640135.82653,   0.00000,   0.00000,   0.00000,-465311299.54550,   0.00000
-11564213.20087,-7755256.20043,1730511.71415,  -0.00004,  -0.00001,   0.00002,10638402.22678,   0.00000,274640135.82653,   0.00000,   0.00000,   0.00000,-464001733.59975,   0.00000
-12992572.07604,-8707495.45054,1922790.79349,  -0.00004,  -0.00001,   0.00002,11940938.70833,   0.00000,274640135.82653,   0.00000,   0.00000,   0.00000,-462699197.11820,   0.00000
-14430087.09784,-9650578.55402,2110491.79953,  -0.00005,  -0.00002,   0.00003,13246317.14505,   0.00000,274640135.82653,   0.00000,   0.00000,   0.00000,-461393818.68148,   0.00000
-15851578.86304,-10586794.54751,2289036.65892,  -0.00005,  -0.00002,   0.00003,14534594.21667,   0.00000,274640135.82653,   0.00000,   0.00000,   0.00000,-460105541.60986,   0.00000
-17282226.77486,-11513854.39438,2463003.44500,  -0.00006,  -0.00002,   0.00003,15825875.03194,   0.00000,274640135.82653,   0.00000,   0.00000,   0.00000,-458814260.79459,   0.00000
-18703718.54005,-12450070.38788,2627814.08444,  -0.00006,  -0.00002,   0.00003,17108095.98223,   0.00000,274640135.82653,   0.00000,   0.00000,   0.00000,-457532039.84430,   0.00000
-20134366.45188,-13377130.23474,2792624.72388,  -0.00007,  -0.00002,   0.00004,18395557.67190,   0.00000,274640135.82653,   0.00000,   0.00000,   0.00000,-456244578.15463,   0.00000
-21542123.99712,-14281299.71501,2948279.21669,  -0.00007,  -0.00002,   0.00004,19658233.63314,   0.00000,274640135.82653,   0.00000,   0.00000,   0.00000,-454981902.19339,   0.00000
-22956748.65233,-15201492.45190,3099355.63618,  -0.00007,  -0.00002,   0.00004,20926988.70290,   0.00000,274640135.82653,   0.00000,   0.00000,   0.00000,-453713147.12363,   0.00000
-24380529.45418,-16112529.04215,3245853.98235,  -0.00008,  -0.00003,   0.00004,22199065.83465,   0.00000,274640135.82653,   0.00000,   0.00000,   0.00000,-452441069.99188,   0.00000
-25788286.99942,-17016698.52243,3387774.25520,  -0.00008,  -0.00003,   0.00004,23456413.04422,   0.00000,274640135.82653,   0.00000,   0.00000,   0.00000,-451183722.78231,   0.00000
-27189177.43468,-17904844.74609,3520538.38142,  -0.00009,  -0.00003,   0.00005,24702214.59099,   0.00000,274640135.82653,   0.00000,   0.00000,   0.00000,-449937921.23554,   0.00000
-28590067.86994,-18792990.96975,3653302.50764,  -0.00009,  -0.00003,   0.00005,25948322.88857,   0.00000,274640135.82653,   0.00000,   0.00000,   0.00000,-448691812.93796,   0.00000
-29990958.30520,-19681137.19341,3776910.48722,  -0.00010,  -0.00003,   0.00005,27190875.94781,   0.00000,274640135.82653,   0.00000,   0.00000,   0.00000,-447449259.87872,   0.00000
-31391848.74046,-20569283.41707,3895940.39349,  -0.00010,  -0.00003,   0.00005,28431862.55869,   0.00000,274640135.82653,   0.00000,   0.00000,   0.00000,-446208273.26784,   0.00000
-32792739.17572,-21457429.64074,4005814.15311,  -0.00011,  -0.00003,   0.00005,29669458.65586,   0.00000,274640135.82653,   0.00000,   0.00000,   0.00000,-444970677.17067,   0.00000
-34170739.24439,-22322685.49781,4115687.91274,  -0.00011,  -0.00003,   0.00005,30886497.11358,   0.00000,274640135.82653,   0.00000,   0.00000,   0.00000,-443753638.71295,   0.00000
-35564762.56967,-23194808.46486,4216405.52573,  -0.00012,  -0.00004,   0.00005,32113359.32489,   0.00000,274640135.82653,   0.00000,   0.00000,   0.00000,-442526776.50164,   0.00000
-36942762.63834,-24060064.32193,4312545.06541,  -0.00012,  -0.00004,   0.00006,33325715.23679,   0.00000,274640135.82653,   0.00000,   0.00000,   0.00000,-441314420.58974,   0.00000
-38329918.85365,-24916164.03237,4404106.53177,  -0.00013,  -0.00004,   0.00006,34542029.86131,   0.00000,274640135.82653,   0.00000,   0.00000,   0.00000,-440098105.96522,   0.00000
-39701051.81234,-25765396.63283,4491089.92481,  -0.00013,  -0.00004,   0.00006,35743887.56285,   0.00000,274640135.82653,   0.00000,   0.00000,   0.00000,-438896248.26368,   0.00000
-41072184.77104,-26614629.23329,4573495.24453,  -0.00013,  -0.00004,   0.00006,36944450.97528,   0.00000,274640135.82653,   0.00000,   0.00000,   0.00000,-437695684.85125,   0.00000
-42443317.72973,-27463861.83375,4646744.41761,  -0.00014,  -0.00004,   0.00006,38142079.30728,   0.00000,274640135.82653,   0.00000,   0.00000,   0.00000,-436498056.51925,   0.00000
-43814450.68843,-28313094.43421,4719993.59070,  -0.00014,  -0.00004,   0.00006,39340179.76742,   0.00000,274640135.82653,   0.00000,   0.00000,   0.00000,-435299956.05910,   0.00000
-45178716.53715,-29146303.77806,4784086.61715,  -0.00015,  -0.00004,   0.00006,40527685.71795,   0.00000,274640135.82653,   0.00000,   0.00000,   0.00000,-434112450.10858,   0.00000
-46542982.38586,-29979513.12190,4843601.57028,  -0.00015,  -0.00005,   0.00006,41714097.06253,   0.00000,274640135.82653,   0.00000,   0.00000,   0.00000,-432926038.76400,   0.00000
-47907248.23458,-30812722.46575,4898538.45009,  -0.00016,  -0.00005,   0.00006,42899447.45626,   0.00000,274640135.82653,   0.00000,   0.00000,   0.00000,-431740688.37027,   0.00000
-49248623.71671,-31623041.44301,4948897.25659,  -0.00016,  -0.00005,   0.00006,44062764.00160,   0.00000,274640135.82653,   0.00000,   0.00000,   0.00000,-430577371.82493,   0.00000
-50612889.56543,-32456250.78686,4990099.91645,  -0.00017,  -0.00005,   0.00006,45244573.81882,   0.00000,274640135.82653,   0.00000,   0.00000,   0.00000,-429395562.00771,   0.00000
-51954265.04755,-33266569.76411,5031302.57631,  -0.00017,  -0.00005,   0.00007,46405949.56035,   0.00000,274640135.82653,   0.00000,   0.00000,   0.00000,-428234186.26618,   0.00000
-53295640.52968,-34076888.74137,5063349.08954,  -0.00018,  -0.00005,   0.00007,47564929.78065,   0.00000,274640135.82653,   0.00000,   0.00000,   0.00000,-427075206.04588,   0.00000
-54630148.90183,-34871184.46202,5095395.60276,  -0.00018,  -0.00005,   0.00007,48716771.69439,   0.00000,274640135.82653,   0.00000,   0.00000,   0.00000,-425923364.13214,   0.00000
-55971524.38396,-35681503.43928,5118285.96935,  -0.00019,  -0.00005,   0.00007,49874077.87153,   0.00000,274640135.82653,   0.00000,   0.00000,   0.00000,-424766057.95499,   0.00000
-57290009.49950,-36468932.04995,5136598.26262,  -0.00019,  -0.00005,   0.00007,51009574.14911,   0.00000,274640135.82653,   0.00000,   0.00000,   0.00000,-423630561.67742,   0.00000
-58624517.87165,-37263227.77059,5150332.48257,  -0.00019,  -0.00006,   0.00007,52157657.64696,   0.00000,274640135.82653,   0.00000,   0.00000,   0.00000,-422482478.17957,   0.00000
-59943002.98719,-38050656.38126,5159488.62921,  -0.00020,  -0.00006,   0.00007,53291710.59166,   0.00000,274640135.82653,   0.00000,   0.00000,   0.00000,-421348425.23487,   0.00000
-61261488.10273,-38838084.99193,5164066.70253,  -0.00020,  -0.00006,   0.00007,54425092.03906,   0.00000,274640135.82653,   0.00000,   0.00000,   0.00000,-420215043.78747,   0.00000
-62573106.10829,-39609490.34599,5164066.70253,  -0.00021,  -0.00006,   0.00007,55550150.72813,   0.00000,274640135.82653,   0.00000,   0.00000,   0.00000,-419089985.09840,   0.00000
-63884724.11386,-40380895.70004,5154910.55589,  -0.00021,  -0.00006,   0.00007,56673376.81744,   0.00000,274640135.82653,   0.00000,   0.00000,   0.00000,-417966759.00909,   0.00000
-65196342.11942,-41152301.05410,5145754.40926,  -0.00022,  -0.00006,   0.00007,57797333.62878,   0.00000,274640135.82653,   0.00000,   0.00000,   0.00000,-416842802.19775,   0.00000
-66491936.86837,-41916839.29818,5132020.18930,  -0.00022,  -0.00006,   0.00007,58907386.18026,   0.00000,274640135.82653,   0.00000,   0.00000,   0.00000,-415732749.64627,   0.00000
-67803554.87393,-42688244.65224,5109129.82271,  -0.00023,  -0.00006,   0.00007,60029185.97580,   0.00000,274640135.82653,   0.00000,   0.00000,   0.00000,-414610949.85072,   0.00000
-69092282.51290,-43436759.63971,5086239.45612,  -0.00023,  -0.00006,   0.00007,61130681.47652,   0.00000,274640135.82653,   0.00000,   0.00000,   0.00000,-413509454.35001,   0.00000
-70387877.26185,-44201297.88379,5054192.94290,  -0.00023,  -0.00006,   0.00007,62238308.69083,   0.00000,274640135.82653,   0.00000,   0.00000,   0.00000,-412401827.13570,   0.00000
-71676604.90083,-44949812.87125,5022146.42968,  -0.00024,  -0.00006,   0.00007,63339065.78104,   0.00000,274640135.82653,   0.00000,   0.00000,   0.00000,-411301070.04549,   0.00000
-72949309.28319,-45691460.74874,4980943.76981,  -0.00024,  -0.00007,   0.00006,64424996.78697,   0.00000,274640135.82653,   0.00000,   0.00000,   0.00000,-410215139.03956,   0.00000
-74231169.81218,-46423952.47960,4939741.10995,  -0.00025,  -0.00007,   0.00006,65517545.45423,   0.00000,274640135.82653,   0.00000,   0.00000,   0.00000,-409122590.37230,   0.00000
-75503874.19455,-47165600.35709,4889382.30346,  -0.00025,  -0.00007,   0.00006,66603014.17869,   0.00000,274640135.82653,   0.00000,   0.00000,   0.00000,-408037121.64784,   0.00000
-76769711.46693,-47891224.97797,4839023.49696,  -0.00026,  -0.00007,   0.00006,67681688.44275,   0.00000,274640135.82653,   0.00000,   0.00000,   0.00000,-406958447.38378,   0.00000
-78042415.84929,-48632872.85546,4779508.54383,  -0.00026,  -0.00007,   0.00006,68766846.75190,   0.00000,274640135.82653,   0.00000,   0.00000,   0.00000,-405873289.07463,   0.00000
-79292229.86506,-49351630.36636,4715415.51738,  -0.00026,  -0.00007,   0.00006,69830836.65596,   0.00000,274640135.82653,   0.00000,   0.00000,   0.00000,-404809299.17057,   0.00000
-80542043.88083,-50070387.87726,4651322.49093,  -0.00027,  -0.00007,   0.00006,70895681.10883,   0.00000,274640135.82653,   0.00000,   0.00000,   0.00000,-403744454.71770,   0.00000
-81801014.04324,-50779989.24153,4578073.31784,  -0.00027,  -0.00007,   0.00006,71965511.59216,   0.00000,274640135.82653,   0.00000,   0.00000,   0.00000,-402674624.23437,   0.00000
-83034804.80240,-51491879.64245,4504824.14476,  -0.00028,  -0.00007,   0.00006,73016810.56025,   0.00000,274640135.82653,   0.00000,   0.00000,   0.00000,-401623325.26628,   0.00000
-84284618.81817,-52210637.15335,4422418.82504,  -0.00028,  -0.00007,   0.00006,74080816.10884,   0.00000,274640135.82653,   0.00000,   0.00000,   0.00000,-400559319.71769,   0.00000
-85527565.72397,-52913371.40764,4340013.50532,  -0.00029,  -0.00007,   0.00006,75138170.54817,   0.00000,274640135.82653,   0.00000,   0.00000,   0.00000,-399501965.27836,   0.00000
-86754489.37315,-53609238.55196,4253030.11228,  -0.00029,  -0.00007,   0.00006,76182114.46045,   0.00000,274640135.82653,   0.00000,   0.00000,   0.00000,-398458021.36608,   0.00000
-87981413.02233,-54305105.69627,4156890.57260,  -0.00029,  -0.00008,   0.00005,77225467.47221,   0.00000,274640135.82653,   0.00000,   0.00000,   0.00000,-397414668.35432,   0.00000
-89192313.41490,-54994105.73060,4060751.03293,  -0.00030,  -0.00008,   0.00005,78256233.10618,   0.00000,274640135.82653,   0.00000,   0.00000,   0.00000,-396383902.72035,   0.00000
-90419237.06408,-55689972.87492,3960033.41994,  -0.00030,  -0.00008,   0.00005,79300770.76959,   0.00000,274640135.82653,   0.00000,   0.00000,   0.00000,-395339365.05694,   0.00000
-91623270.34667,-56362949.65264,3854737.73362,  -0.00031,  -0.00008,   0.00005,80324498.11851,   0.00000,274640135.82653,   0.00000,   0.00000,   0.00000,-394315637.70802,   0.00000
-92834170.73924,-57051949.68697,3744863.97400,  -0.00031,  -0.00008,   0.00005,81356067.99884,   0.00000,274640135.82653,   0.00000,   0.00000,   0.00000,-393284067.82769,   0.00000
-94038204.02184,-57724926.46470,3630412.14105,  -0.00032,  -0.00008,   0.00005,82380472.29724,   0.00000,274640135.82653,   0.00000,   0.00000,   0.00000,-392259663.52929,   0.00000
-95226214.04782,-58391036.13244,3511382.23479,  -0.00032,  -0.00008,   0.00005,83391708.53793,   0.00000,274640135.82653,   0.00000,   0.00000,   0.00000,-391248427.28860,   0.00000
-96414224.07380,-59057145.80019,3387774.25520,  -0.00032,  -0.00008,   0.00004,84403383.98839,   0.00000,274640135.82653,   0.00000,   0.00000,   0.00000,-390236751.83814,   0.00000
-97602234.09978,-59723255.46794,3264166.27562,  -0.00033,  -0.00008,   0.00004,85416067.15366,   0.00000,274640135.82653,   0.00000,   0.00000,   0.00000,-389224068.67287,   0.00000
-98790244.12576,-60389365.13568,3131402.14941,  -0.00033,  -0.00008,   0.00004,86428725.95282,   0.00000,274640135.82653,   0.00000,   0.00000,   0.00000,-388211409.87371,   0.00000
-99962230.89513,-61048607.69345,2998638.02319,  -0.00034,  -0.00008,   0.00004,87428831.50737,   0.00000,274640135.82653,   0.00000,   0.00000,   0.00000,-387211304.31916,   0.00000
-101127350.55452,-61691826.99461,2861295.82365,  -0.00034,  -0.00008,   0.00004,88422014.08387,   0.00000,274640135.82653,   0.00000,   0.00000,   0.00000,-386218121.74266,   0.00000
-102299337.32389,-62351069.55238,2719375.55080,  -0.00034,  -0.00008,   0.00004,89423275.52012,   0.00000,274640135.82653,   0.00000,   0.00000,   0.00000,-385216860.30641,   0.00000
-103464456.98328,-62994288.85354,2572877.20463,  -0.00035,  -0.00008,   0.00003,90417716.67687,   0.00000,274640135.82653,   0.00000,   0.00000,   0.00000,-384222419.14966,   0.00000
-104613553.38606,-63630641.04472,2421800.78514,  -0.00035,  -0.00009,   0.00003,91399244.66333,   0.00000,274640135.82653,   0.00000,   0.00000,   0.00000,-383240891.16320,   0.00000
-105762649.78884,-64266993.23590,2266146.29233,  -0.00036,  -0.00009,   0.00003,92381509.34253,   0.00000,274640135.82653,   0.00000,   0.00000,   0.00000,-382258626.48400,   0.00000
-106895722.93500,-64896478.31710,2110491.79953,  -0.00036,  -0.00009,   0.00003,93351245.52476,   0.00000,274640135.82653,   0.00000,   0.00000,   0.00000,-381288890.30177,   0.00000
-108044819.33778,-65532830.50828,1950259.23340,  -0.00036,  -0.00009,   0.00003,94335372.79532,   0.00000,274640135.82653,   0.00000,   0.00000,   0.00000,-380304763.03121,   0.00000
-109177892.48395,-66162315.58948,1780870.52064,  -0.00037,  -0.00009,   0.00002,95306434.89773,   0.00000,274640135.82653,   0.00000,   0.00000,   0.00000,-379333700.92880,   0.00000
-110294942.37350,-66784933.56071,1616059.88120,  -0.00037,  -0.00009,   0.00002,96265238.86640,   0.00000,274640135.82653,   0.00000,   0.00000,   0.00000,-378374896.96013,   0.00000
-111421148.40969,-67398395.38530,1442093.09512,  -0.00038,  -0.00009,   0.00002,97230901.96091,   0.00000,274640135.82653,   0.00000,   0.00000,   0.00000,-377409233.86562,   0.00000
-112538198.29925,-68021013.35653,1268126.30904,  -0.00038,  -0.00009,   0.00002,98191478.64180,   0.00000,274640135.82653,   0.00000,   0.00000,   0.00000,-376448657.18473,   0.00000
-113648381.07882,-68627608.07114,1085003.37633,  -0.00038,  -0.00009,   0.00001,99145439.90414,   0.00000,274640135.82653,   0.00000,   0.00000,   0.00000,-375494695.92238,   0.00000
-114742540.60179,-69227335.67578,901880.44362,  -0.00039,  -0.00009,   0.00001,100086934.30709,   0.00000,274640135.82653,   0.00000,   0.00000,   0.00000,-374553201.51944,   0.00000
-115843567.23473,-69843086.53703,718757.51090,  -0.00039,  -0.00009,   0.00001,101036955.38085,   0.00000,274640135.82653,   0.00000,   0.00000,   0.00000,-373603180.44568,   0.00000
-116937726.75769,-70442814.14167,526478.43155,  -0.00039,  -0.00009,   0.00001,101980542.21237,   0.00000,274640135.82653,   0.00000,   0.00000,   0.00000,-372659593.61415,   0.00000
-118015863.02405,-71035674.63633,334199.35220,  -0.00040,  -0.00009,   0.00000,102911659.28246,   0.00000,274640135.82653,   0.00000,   0.00000,   0.00000,-371728476.54407,   0.00000
-119110022.54701,-71635402.24097,137342.19954,  -0.00040,  -0.00009,   0.00000,103857549.25824,   0.00000,274640135.82653,   0.00000,   0.00000,   0.00000,-370782586.56829,   0.00000
-120172135.55675,-72221395.62565,-64093.02645,  -0.00041,  -0.00009,  -0.00000,104777312.09051,   0.00000,274640135.82653,   0.00000,   0.00000,   0.00000,-369862823.73602,   0.00000
-121243404.71313,-72798232.86370,-265528.25243,  -0.00041,  -0.00009,  -0.00000,105704549.57462,   0.00000,274640135.82653,   0.00000,   0.00000,   0.00000,-368935586.25191,   0.00000
-122305517.72287,-73384226.24838,-476119.62506,  -0.00041,  -0.00010,  -0.00001,106626772.49745,   0.00000,274640135.82653,   0.00000,   0.00000,   0.00000,-368013363.32907,   0.00000
-123367630.73261,-73970219.63307,-686710.99768,  -0.00042,  -0.00010,  -0.00001,107550219.34065,   0.00000,274640135.82653,   0.00000,   0.00000,   0.00000,-367089916.48588,   0.00000
-124406853.37576,-74533322.65116,-897302.37030,  -0.00042,  -0.00010,  -0.00001,108453864.21995,   0.00000,274640135.82653,   0.00000,   0.00000,   0.00000,-366186271.60658,   0.00000
-125452943.12888,-75112448.92587,-1112471.81624,  -0.00042,  -0.00010,  -0.00001,109366155.27940,   0.00000,274640135.82653,   0.00000,   0.00000,   0.00000,-365273980.54713,   0.00000
-126492165.77203,-75675551.94396,-1332219.33549,  -0.00043,  -0.00010,  -0.00002,110272467.67626,   0.00000,274640135.82653,   0.00000,   0.00000,   0.00000,-364367668.15027,   0.00000
-127522232.26855,-76247811.10869,-1556544.92807,  -0.00043,  -0.00010,  -0.00002,111173854.11952,   0.00000,274640135.82653,   0.00000,   0.00000,   0.00000,-363466281.70701,   0.00000
-128545431.65509,-76804047.01681,-1780870.52064,  -0.00044,  -0.00010,  -0.00002,112069151.68927,   0.00000,274640135.82653,   0.00000,   0.00000,   0.00000,-362570984.13725,   0.00000
-129552607.78501,-77353415.81495,-2009774.18653,  -0.00044,  -0.00010,  -0.00003,112952246.36578,   0.00000,274640135.82653,   0.00000,   0.00000,   0.00000,-361687889.46075,   0.00000
-130566651.02492,-77918807.86971,-2243255.92574,  -0.00044,  -0.00010,  -0.00003,113844146.86642,   0.00000,274640135.82653,   0.00000,   0.00000,   0.00000,-360795988.96011,   0.00000
-131573827.15484,-78468176.66785,-2476737.66495,  -0.00045,  -0.00010,  -0.00003,114729992.22558,   0.00000,274640135.82653,   0.00000,   0.00000,   0.00000,-359910143.60095,   0.00000
-132564980.02816,-79010678.35601,-2714797.47748,  -0.00045,  -0.00010,  -0.00004,115603730.91686,   0.00000,274640135.82653,   0.00000,   0.00000,   0.00000,-359036404.90967,   0.00000
-133556132.90147,-79553180.04418,-2957435.36333,  -0.00045,  -0.00010,  -0.00004,116479067.97277,   0.00000,274640135.82653,   0.00000,   0.00000,   0.00000,-358161067.85375,   0.00000
-134547285.77478,-80095681.73234,-3200073.24917,  -0.00046,  -0.00010,  -0.00004,117355678.04142,   0.00000,274640135.82653,   0.00000,   0.00000,   0.00000,-357284457.78511,   0.00000
-135522415.39148,-80631316.31053,-3447289.20834,  -0.00046,  -0.00010,  -0.00004,118220281.29543,   0.00000,274640135.82653,   0.00000,   0.00000,   0.00000,-356419854.53110,   0.00000
-136490677.89821,-81150927.63211,-3694505.16750,  -0.00046,  -0.00010,  -0.00005,119078886.41311,   0.00000,274640135.82653,   0.00000,   0.00000,   0.00000,-355561249.41342,   0.00000
-137449784.25829,-81679695.10032,-3946299.19998,  -0.00047,  -0.00010,  -0.00005,119932810.96780,   0.00000,274640135.82653,   0.00000,   0.00000,   0.00000,-354707324.85873,   0.00000
-138408890.61838,-82208462.56853,-4198093.23246,  -0.00047,  -0.00010,  -0.00005,120788005.10359,   0.00000,274640135.82653,   0.00000,   0.00000,   0.00000,-353852130.72294,   0.00000
-139367996.97847,-82737230.03674,-4459043.41158,  -0.00047,  -0.00010,  -0.00006,121645447.89928,   0.00000,274640135.82653,   0.00000,   0.00000,   0.00000,-352994687.92725,   0.00000
-140311080.08195,-83259130.39497,-4715415.51738,  -0.00048,  -0.00011,  -0.00006,122490035.94575,   0.00000,274640135.82653,   0.00000,   0.00000,   0.00000,-352150099.88078,   0.00000
-141247296.07545,-83765007.49660,-4976365.69650,  -0.00048,  -0.00011,  -0.00006,123329181.30569,   0.00000,274640135.82653,   0.00000,   0.00000,   0.00000,-351310954.52084,   0.00000
-142174355.92231,-84280040.74485,-5241893.94893,  -0.00048,  -0.00011,  -0.00007,124163781.33895,   0.00000,274640135.82653,   0.00000,   0.00000,   0.00000,-350476354.48757,   0.00000
-143094548.65920,-84779050.73650,-5512000.27468,  -0.00049,  -0.00011,  -0.00007,124993054.76686,   0.00000,274640135.82653,   0.00000,   0.00000,   0.00000,-349647081.05967,   0.00000
-144005585.24945,-85287216.87478,-5777528.52712,  -0.00049,  -0.00011,  -0.00008,125816620.01730,   0.00000,274640135.82653,   0.00000,   0.00000,   0.00000,-348823515.80923,   0.00000
-144909754.72972,-85779359.75645,-6052212.92619,  -0.00049,  -0.00011,  -0.00008,126635529.91474,   0.00000,274640135.82653,   0.00000,   0.00000,   0.00000,-348004605.91179,   0.00000
-145820791.31997,-86287525.89473,-6326897.32526,  -0.00050,  -0.00011,  -0.00008,127462990.26972,   0.00000,274640135.82653,   0.00000,   0.00000,   0.00000,-347177145.55681,   0.00000
-146708937.54363,-86772801.66642,-6601581.72433,  -0.00050,  -0.00011,  -0.00009,128270918.63648,   0.00000,274640135.82653,   0.00000,   0.00000,   0.00000,-346369217.19005,   0.00000
-147603950.87727,-87274100.69472,-6880844.19672,  -0.00050,  -0.00011,  -0.00009,129088074.37339,   0.00000,274640135.82653,   0.00000,   0.00000,   0.00000,-345552061.45314,   0.00000
-148476073.84432,-87752509.35644,-7164684.74243,  -0.00050,  -0.00011,  -0.00009,129886479.14899,   0.00000,274640135.82653,   0.00000,   0.00000,   0.00000,-344753656.67754,   0.00000
-149348196.81137,-88230918.01815,-7448525.28813,  -0.00051,  -0.00011,  -0.00010,130686234.40522,   0.00000,274640135.82653,   0.00000,   0.00000,   0.00000,-343953901.42131,   0.00000
-150211163.63179,-88718482.82650,-7732365.83384,  -0.00051,  -0.00011,  -0.00010,131480891.30288,   0.00000,274640135.82653,   0.00000,   0.00000,   0.00000,-343159244.52364,   0.00000
-151067263.34222,-89190024.37824,-8020784.45286,  -0.00051,  -0.00011,  -0.00010,132270497.66207,   0.00000,274640135.82653,   0.00000,   0.00000,   0.00000,-342369638.16446,   0.00000
-151907339.79605,-89654698.82000,-8309203.07189,  -0.00052,  -0.00011,  -0.00011,133047836.03473,   0.00000,274640135.82653,   0.00000,   0.00000,   0.00000,-341592299.79180,   0.00000
-152754283.35985,-90135396.51838,-8602199.76423,  -0.00052,  -0.00011,  -0.00011,133834548.64921,   0.00000,274640135.82653,   0.00000,   0.00000,   0.00000,-340805587.17732,   0.00000
-153594359.81367,-90600070.96014,-8895196.45657,  -0.00052,  -0.00011,  -0.00012,134615429.59988,   0.00000,274640135.82653,   0.00000,   0.00000,   0.00000,-340024706.22665,   0.00000
-154418413.01088,-91057878.29192,-9192771.22223,  -0.00053,  -0.00011,  -0.00012,135384975.33361,   0.00000,274640135.82653,   0.00000,   0.00000,   0.00000,-339255160.49292,   0.00000
-155226442.95148,-91508818.51373,-9490345.98789,  -0.00053,  -0.00011,  -0.00012,136142293.43404,   0.00000,274640135.82653,   0.00000,   0.00000,   0.00000,-338497842.39249,   0.00000
-156034472.89208,-91959758.73554,-9787920.75355,  -0.00053,  -0.00011,  -0.00013,136900955.63530,   0.00000,274640135.82653,   0.00000,   0.00000,   0.00000,-337739180.19123,   0.00000
-156849369.94266,-92426722.21396,-10090073.59253,  -0.00053,  -0.00011,  -0.00013,137669093.99284,   0.00000,274640135.82653,   0.00000,   0.00000,   0.00000,-336971041.83369,   0.00000
-157641376.62665,-92870795.32579,-10392226.43151,  -0.00054,  -0.00012,  -0.00014,138417857.72158,   0.00000,274640135.82653,   0.00000,   0.00000,   0.00000,-336222278.10495,   0.00000
-158433383.31063,-93314868.43762,-10698957.34380,  -0.00054,  -0.00012,  -0.00014,139169013.66238,   0.00000,274640135.82653,   0.00000,   0.00000,   0.00000,-335471122.16415,   0.00000
-159209366.73801,-93752074.43947,-11005688.25610,  -0.00054,  -0.00012,  -0.00014,139907973.46438,   0.00000,274640135.82653,   0.00000,   0.00000,   0.00000,-334732162.36215,   0.00000
-159969326.90877,-94182413.33135,-11316997.24171,  -0.00054,  -0.00012,  -0.00015,140635836.63138,   0.00000,274640135.82653,   0.00000,   0.00000,   0.00000,-334004299.19515,   0.00000
-160729287.07953,-94612752.22323,-11623728.15401,  -0.00055,  -0.00012,  -0.00015,141363961.33199,   0.00000,274640135.82653,   0.00000,   0.00000,   0.00000,-333276174.49454,   0.00000
-161489247.25029,-95043091.11510,-11939615.21294,  -0.00055,  -0.00012,  -0.00016,142095714.71357,   0.00000,274640135.82653,   0.00000,   0.00000,   0.00000,-332544421.11296,   0.00000
-162233184.16444,-95466562.89700,-12250924.19855,  -0.00055,  -0.00012,  -0.00016,142814150.65266,   0.00000,274640135.82653,   0.00000,   0.00000,   0.00000,-331825985.17386,   0.00000
-162983988.18857,-95906057.93552,-12566811.25748,  -0.00055,  -0.00012,  -0.00016,143542240.39060,   0.00000,274640135.82653,   0.00000,   0.00000,   0.00000,-331097895.43593,   0.00000
-163711901.84611,-96322662.60744,-12882698.31641,  -0.00056,  -0.00012,  -0.00017,144251057.53251,   0.00000,274640135.82653,   0.00000,   0.00000,   0.00000,-330389078.29402,   0.00000
-164423792.24703,-96732400.16939,-13203163.44866,  -0.00056,  -0.00012,  -0.00017,144948967.59058,   0.00000,274640135.82653,   0.00000,   0.00000,   0.00000,-329691168.23595,   0.00000
-165135682.64796,-97142137.73134,-13523628.58091,  -0.00056,  -0.00012,  -0.00018,145648278.28868,   0.00000,274640135.82653,   0.00000,   0.00000,   0.00000,-328991857.53784,   0.00000
-165847573.04888,-97551875.29328,-13844093.71316,  -0.00056,  -0.00012,  -0.00018,146348969.54847,   0.00000,274640135.82653,   0.00000,   0.00000,   0.00000,-328291166.27806,   0.00000
-166543440.19319,-97954745.74525,-14164558.84541,  -0.00057,  -0.00012,  -0.00018,147037524.21607,   0.00000,274640135.82653,   0.00000,   0.00000,   0.00000,-327602611.61046,   0.00000
-167223284.08089,-98350749.08725,-14489602.05098,  -0.00057,  -0.00012,  -0.00019,147715290.45236,   0.00000,274640135.82653,   0.00000,   0.00000,   0.00000,-326924845.37417,   0.00000
-167903127.96859,-98746752.42924,-14814645.25654,  -0.00057,  -0.00012,  -0.00019,148394454.17394,   0.00000,274640135.82653,   0.00000,   0.00000,   0.00000,-326245681.65259,   0.00000
-168566948.59968,-99135888.66126,-15139688.46211,  -0.00057,  -0.00012,  -0.00020,149061520.29517,   0.00000,274640135.82653,   0.00000,   0.00000,   0.00000,-325578615.53136,   0.00000
-169237636.34075,-99541048.14989,-15469309.74100,  -0.00058,  -0.00012,  -0.00020,149738454.46245,   0.00000,274640135.82653,   0.00000,   0.00000,   0.00000,-324901681.36408,   0.00000
-169885433.71522,-99923317.27193,-15798931.01988,  -0.00058,  -0.00012,  -0.00021,150396251.59672,   0.00000,274640135.82653,   0.00000,   0.00000,   0.00000,-324243884.22981,   0.00000
-170533231.08970,-100305586.39397,-16128552.29877,  -0.00058,  -0.00012,  -0.00021,151055448.16848,   0.00000,274640135.82653,   0.00000,   0.00000,   0.00000,-323584687.65805,   0.00000
-171165005.20756,-100680988.40603,-16458173.57765,  -0.00058,  -0.00012,  -0.00021,151702580.60374,   0.00000,274640135.82653,   0.00000,   0.00000,   0.00000,-322937555.22279,   0.00000
-171796779.32542,-101056390.41809,-16792372.92985,  -0.00058,  -0.00012,  -0.00022,152352605.46734,   0.00000,274640135.82653,   0.00000,   0.00000,   0.00000,-322287530.35919,   0.00000
-172412530.18667,-101424925.32018,-17121994.20874,  -0.00059,  -0.00013,  -0.00022,152989071.83253,   0.00000,274640135.82653,   0.00000,   0.00000,   0.00000,-321651063.99400,   0.00000
-173012257.79131,-101786593.11229,-17456193.56094,  -0.00059,  -0.00013,  -0.00023,153615037.27540,   0.00000,274640135.82653,   0.00000,   0.00000,   0.00000,-321025098.55113,   0.00000
-173611985.39595,-102148260.90440,-17794970.98646,  -0.00059,  -0.00013,  -0.00023,154243992.67325,   0.00000,274640135.82653,   0.00000,   0.00000,   0.00000,-320396143.15328,   0.00000
-174202556.85395,-102519084.84314,-18129170.33866,  -0.00059,  -0.00013,  -0.00024,154866417.65415,   0.00000,274640135.82653,   0.00000,   0.00000,   0.00000,-319773718.17237,   0.00000
-174786261.20197,-102873885.52528,-18467947.76418,  -0.00059,  -0.00013,  -0.00024,155484812.39533,   0.00000,274640135.82653,   0.00000,   0.00000,   0.00000,-319155323.43120,   0.00000
-175353942.29339,-103221819.09743,-18802147.11639,  -0.00060,  -0.00013,  -0.00024,156089584.26091,   0.00000,274640135.82653,   0.00000,   0.00000,   0.00000,-318550551.56562,   0.00000
-175921623.38480,-103569752.66959,-19140924.54191,  -0.00060,  -0.00013,  -0.00025,156697406.47549,   0.00000,274640135.82653,   0.00000,   0.00000,   0.00000,-317942729.35104,   0.00000
-176473281.21960,-103910819.13177,-19479701.96743,  -0.00060,  -0.00013,  -0.00025,157293262.65567,   0.00000,274640135.82653,   0.00000,   0.00000,   0.00000,-317346873.17086,   0.00000
-177015782.90776,-104261041.74058,-19823057.46627,  -0.00060,  -0.00013,  -0.00026,157885918.03807,   0.00000,274640135.82653,   0.00000,   0.00000,   0.00000,-316754217.78846,   0.00000
-177551417.48595,-104595241.09279,-20161834.89179,  -0.00060,  -0.00013,  -0.00026,158471245.81712,   0.00000,274640135.82653,   0.00000,   0.00000,   0.00000,-316168890.00941,   0.00000
-178071028.80753,-104922573.33501,-20505190.39062,  -0.00061,  -0.00013,  -0.00027,159046394.53876,   0.00000,274640135.82653,   0.00000,   0.00000,   0.00000,-315593741.28776,   0.00000
-178590640.12910,-105249905.57724,-20843967.81614,  -0.00061,  -0.00013,  -0.00027,159621190.12880,   0.00000,274640135.82653,   0.00000,   0.00000,   0.00000,-315018945.69773,   0.00000
-179101095.30404,-105586393.96610,-21187323.31498,  -0.00061,  -0.00013,  -0.00028,160192877.89755,   0.00000,274640135.82653,   0.00000,   0.00000,   0.00000,-314447257.92898,   0.00000
-179588660.11239,-105899991.98837,-21530678.81382,  -0.00061,  -0.00013,  -0.00028,160745662.04893,   0.00000,274640135.82653,   0.00000,   0.00000,   0.00000,-313894473.77760,   0.00000
-180076224.92074,-106213590.01064,-21874034.31266,  -0.00061,  -0.00013,  -0.00028,161299880.01109,   0.00000,274640135.82653,   0.00000,   0.00000,   0.00000,-313340255.81544,   0.00000
-180554633.58246,-106536344.17955,-22217389.81150,  -0.00061,  -0.00013,  -0.00029,161849235.34819,   0.00000,274640135.82653,   0.00000,   0.00000,   0.00000,-312790900.47834,   0.00000
-181026175.13419,-106843075.09185,-22565323.38365,  -0.00062,  -0.00013,  -0.00029,162394910.67633,   0.00000,274640135.82653,   0.00000,   0.00000,   0.00000,-312245225.15020,   0.00000
-181481693.42932,-107142938.89417,-22908678.88249,  -0.00062,  -0.00013,  -0.00030,162926839.77715,   0.00000,274640135.82653,   0.00000,   0.00000,   0.00000,-311713296.04938,   0.00000
-181928055.57781,-107451958.84312,-23256612.45465,  -0.00062,  -0.00013,  -0.00030,163455880.87857,   0.00000,274640135.82653,   0.00000,   0.00000,   0.00000,-311184254.94796,   0.00000
-182367550.61632,-107744955.53546,-23599967.95349,  -0.00062,  -0.00013,  -0.00031,163977409.39253,   0.00000,274640135.82653,   0.00000,   0.00000,   0.00000,-310662726.43400,   0.00000
-182797889.50820,-108047108.37444,-23947901.52564,  -0.00062,  -0.00014,  -0.00031,164496105.18448,   0.00000,274640135.82653,   0.00000,   0.00000,   0.00000,-310144030.64205,   0.00000
-183221361.29010,-108333237.95681,-24291257.02448,  -0.00062,  -0.00014,  -0.00032,165007241.81466,   0.00000,274640135.82653,   0.00000,   0.00000,   0.00000,-309632894.01187,   0.00000
-183635676.92537,-108628523.68581,-24639190.59664,  -0.00062,  -0.00014,  -0.00032,165515602.45887,   0.00000,274640135.82653,   0.00000,   0.00000,   0.00000,-309124533.36766,   0.00000
-184027102.19404,-108900919.04822,-24987124.16879,  -0.00062,  -0.00014,  -0.00032,166005220.02471,   0.00000,274640135.82653,   0.00000,   0.00000,   0.00000,-308634915.80182,   0.00000
-184425394.57269,-109189337.66724,-25330479.66763,  -0.00063,  -0.00014,  -0.00033,166501202.82349,   0.00000,274640135.82653,   0.00000,   0.00000,   0.00000,-308138933.00304,   0.00000
-184784773.32814,-109447998.80970,-25678413.23979,  -0.00063,  -0.00014,  -0.00033,166967349.99889,   0.00000,274640135.82653,   0.00000,   0.00000,   0.00000,-307672785.82764,   0.00000
-185167042.45018,-109729550.31875,-26026346.81194,  -0.00063,  -0.00014,  -0.00034,167455139.38401,   0.00000,274640135.82653,   0.00000,   0.00000,   0.00000,-307184996.44252,   0.00000
-185510397.94902,-109981344.35123,-26374280.38410,  -0.00063,  -0.00014,  -0.00034,167911074.35866,   0.00000,274640135.82653,   0.00000,   0.00000,   0.00000,-306729061.46786,   0.00000
-185860620.55784,-110249161.64032,-26722213.95626,  -0.00063,  -0.00014,  -0.00035,168375474.68161,   0.00000,274640135.82653,   0.00000,   0.00000,   0.00000,-306264661.14492,   0.00000
-186203976.05668,-110500955.67281,-27065569.45509,  -0.00063,  -0.00014,  -0.00035,168832164.43962,   0.00000,274640135.82653,   0.00000,   0.00000,   0.00000,-305807971.38691,   0.00000
-186538175.40888,-110761905.85192,-27413503.02725,  -0.00063,  -0.00014,  -0.00036,169286347.04273,   0.00000,274640135.82653,   0.00000,   0.00000,   0.00000,-305353788.78380,   0.00000
-186856351.50447,-111015988.92106,-27761436.59941,  -0.00063,  -0.00014,  -0.00036,169728887.73400,   0.00000,274640135.82653,   0.00000,   0.00000,   0.00000,-304911248.09253,   0.00000
-187151637.23347,-111247181.62361,-28109370.17156,  -0.00063,  -0.00014,  -0.00037,170152839.04250,   0.00000,274640135.82653,   0.00000,   0.00000,   0.00000,-304487296.78403,   0.00000
-187453790.07245,-111494397.58278,-28452725.67040,  -0.00064,  -0.00014,  -0.00037,170582969.54960,   0.00000,274640135.82653,   0.00000,   0.00000,   0.00000,-304057166.27693,   0.00000
-187739919.65481,-111734746.43196,-28800659.24256,  -0.00064,  -0.00014,  -0.00037,171003779.46946,   0.00000,274640135.82653,   0.00000,   0.00000,   0.00000,-303636356.35707,   0.00000
-188003158.87059,-111952204.91456,-29148592.81471,  -0.00064,  -0.00014,  -0.00038,171406059.26665,   0.00000,274640135.82653,   0.00000,   0.00000,   0.00000,-303234076.55988,   0.00000
-188273265.19634,-112185686.65377,-29491948.31355,  -0.00064,  -0.00014,  -0.00038,171814464.43492,   0.00000,274640135.82653,   0.00000,   0.00000,   0.00000,-302825671.39161,   0.00000
-188527348.26548,-112412301.28301,-29839881.88571,  -0.00064,  -0.00014,  -0.00039,172213672.81174,   0.00000,274640135.82653,   0.00000,   0.00000,   0.00000,-302426463.01479,   0.00000
-188765408.07801,-112632048.80226,-30183237.38455,  -0.00064,  -0.00014,  -0.00039,172598975.97166,   0.00000,274640135.82653,   0.00000,   0.00000,   0.00000,-302041159.85486,   0.00000
-188996600.78056,-112835773.06491,-30531170.95670,  -0.00064,  -0.00014,  -0.00040,172981231.45015,   0.00000,274640135.82653,   0.00000,   0.00000,   0.00000,-301658904.37638,   0.00000
-189218637.33648,-113048653.47419,-30874526.45554,  -0.00064,  -0.00015,  -0.00040,173356533.64166,   0.00000,274640135.82653,   0.00000,   0.00000,   0.00000,-301283602.18487,   0.00000
-189424650.63578,-113254666.77349,-31217881.95438,  -0.00064,  -0.00015,  -0.00041,173720351.68389,   0.00000,274640135.82653,   0.00000,   0.00000,   0.00000,-300919784.14264,   0.00000
-189630663.93508,-113460680.07279,-31561237.45322,  -0.00064,  -0.00015,  -0.00041,174085684.83091,   0.00000,274640135.82653,   0.00000,   0.00000,   0.00000,-300554450.99562,   0.00000
-189820653.97777,-113659826.26212,-31904592.95206,  -0.00064,  -0.00015,  -0.00041,174439569.43514,   0.00000,274640135.82653,   0.00000,   0.00000,   0.00000,-300200566.39139,   0.00000
-189994620.76385,-113852105.34147,-32247948.45089,  -0.00064,  -0.00015,  -0.00042,174782037.89360,   0.00000,274640135.82653,   0.00000,   0.00000,   0.00000,-299858097.93293,   0.00000
-190161720.43995,-114028361.16420,-32591303.94973,  -0.00064,  -0.00015,  -0.00042,175119093.79612,   0.00000,274640135.82653,   0.00000,   0.00000,   0.00000,-299521042.03041,   0.00000
-190319663.96942,-114213773.13358,-32930081.37525,  -0.00064,  -0.00015,  -0.00043,175449150.24451,   0.00000,274640135.82653,   0.00000,   0.00000,   0.00000,-299190985.58202,   0.00000
-190461584.24227,-114392317.99297,-33273436.87409,  -0.00064,  -0.00015,  -0.00043,175770418.96188,   0.00000,274640135.82653,   0.00000,   0.00000,   0.00000,-298869716.86464,   0.00000
-190587481.25851,-114563995.74239,-33612214.29961,  -0.00064,  -0.00015,  -0.00044,176077757.23197,   0.00000,274640135.82653,   0.00000,   0.00000,   0.00000,-298562378.59455,   0.00000
-190713378.27475,-114735673.49181,-33950991.72513,  -0.00064,  -0.00015,  -0.00044,176386646.43815,   0.00000,274640135.82653,   0.00000,   0.00000,   0.00000,-298253489.38838,   0.00000
-190823252.03438,-114900484.13125,-34289769.15065,  -0.00064,  -0.00015,  -0.00045,176684225.48020,   0.00000,274640135.82653,   0.00000,   0.00000,   0.00000,-297955910.34633,   0.00000
-190917102.53740,-115058427.66072,-34628546.57617,  -0.00064,  -0.00015,  -0.00045,176970531.16119,   0.00000,274640135.82653,   0.00000,   0.00000,   0.00000,-297669604.66534,   0.00000
-191010953.04041,-115216371.19018,-34967324.00169,  -0.00064,  -0.00015,  -0.00045,177258423.63133,   0.00000,274640135.82653,   0.00000,   0.00000,   0.00000,-297381712.19520,   0.00000
-191088780.28682,-115367447.60967,-35301523.35390,  -0.00064,  -0.00015,  -0.00046,177532356.83744,   0.00000,274640135.82653,   0.00000,   0.00000,   0.00000,-297107778.98909,   0.00000
-191150584.27661,-115511656.91919,-35640300.77942,  -0.00064,  -0.00015,  -0.00046,177797809.77724,   0.00000,274640135.82653,   0.00000,   0.00000,   0.00000,-296842326.04929,   0.00000
-191212388.26640,-115655866.22870,-35974500.13162,  -0.00064,  -0.00015,  -0.00047,178062113.88221,   0.00000,274640135.82653,   0.00000,   0.00000,   0.00000,-296578021.94432,   0.00000
-191242145.74296,-115786341.31826,-36308699.48382,  -0.00064,  -0.00015,  -0.00047,178302472.66213,   0.00000,274640135.82653,   0.00000,   0.00000,   0.00000,-296337663.16440,   0.00000
-191271903.21953,-115916816.40781,-36638320.76271,  -0.00064,  -0.00015,  -0.00048,178541644.56173,   0.00000,274640135.82653,   0.00000,   0.00000,   0.00000,-296098491.26480,   0.00000
-191301660.69610,-116047291.49737,-36972520.11491,  -0.00064,  -0.00015,  -0.00048,178785238.19704,   0.00000,274640135.82653,   0.00000,   0.00000,   0.00000,-295854897.62949,   0.00000
-191306238.76941,-116180055.62359,-37302141.39379,  -0.00064,  -0.00016,  -0.00048,179009111.81590,   0.00000,274640135.82653,   0.00000,   0.00000,   0.00000,-295631024.01063,   0.00000
-191303949.73275,-116296796.49320,-37631762.67268,  -0.00064,  -0.00016,  -0.00049,179227671.50492,   0.00000,274640135.82653,   0.00000,   0.00000,   0.00000,-295412464.32161,   0.00000
-191285637.43948,-116406670.25282,-37961383.95156,  -0.00064,  -0.00016,  -0.00049,179435180.11531,   0.00000,274640135.82653,   0.00000,   0.00000,   0.00000,-295204955.71122,   0.00000
-191267325.14621,-116516544.01245,-38291005.23045,  -0.00064,  -0.00016,  -0.00050,179644343.72761,   0.00000,274640135.82653,   0.00000,   0.00000,   0.00000,-294995792.09892,   0.00000
-191216966.33972,-116612683.55213,-38616048.43602,  -0.00064,  -0.00016,  -0.00050,179826917.30178,   0.00000,274640135.82653,   0.00000,   0.00000,   0.00000,-294813218.52475,   0.00000
-191166607.53322,-116708823.09180,-38941091.64158,  -0.00064,  -0.00016,  -0.00051,180011158.81604,   0.00000,274640135.82653,   0.00000,   0.00000,   0.00000,-294628977.01049,   0.00000
-191100225.47011,-116798095.52150,-39266134.84715,  -0.00064,  -0.00016,  -0.00051,180184452.55083,   0.00000,274640135.82653,   0.00000,   0.00000,   0.00000,-294455683.27570,   0.00000
-191033843.40700,-116887367.95120,-39591178.05272,  -0.00064,  -0.00016,  -0.00051,180359438.64065,   0.00000,274640135.82653,   0.00000,   0.00000,   0.00000,-294280697.18588,   0.00000
-190942281.94065,-116978929.41755,-39911643.18497,  -0.00064,  -0.00016,  -0.00052,180514872.02884,   0.00000,274640135.82653,   0.00000,   0.00000,   0.00000,-294125263.79769,   0.00000
-190843853.36431,-117054467.62730,-40232108.31721,  -0.00064,  -0.00016,  -0.00052,180665067.79644,   0.00000,274640135.82653,   0.00000,   0.00000,   0.00000,-293975068.03009,   0.00000
-190729401.53137,-117123138.72707,-40552573.44946,  -0.00064,  -0.00016,  -0.00053,180804429.47845,   0.00000,274640135.82653,   0.00000,   0.00000,   0.00000,-293835706.34808,   0.00000
-190614949.69842,-117191809.82683,-40873038.58171,  -0.00064,  -0.00016,  -0.00053,180945528.41261,   0.00000,274640135.82653,   0.00000,   0.00000,   0.00000,-293694607.41392,   0.00000
-190468451.35225,-117246746.70665,-41188925.64064,  -0.00064,  -0.00016,  -0.00054,181060230.55548,   0.00000,274640135.82653,   0.00000,   0.00000,   0.00000,-293579905.27105,   0.00000
-190321953.00608,-117301683.58646,-41504812.69958,  -0.00064,  -0.00016,  -0.00054,181176691.90288,   0.00000,274640135.82653,   0.00000,   0.00000,   0.00000,-293463443.92365,   0.00000
-190166298.51327,-117365776.61291,-41820699.75851,  -0.00064,  -0.00016,  -0.00054,181289393.19345,   0.00000,274640135.82653,   0.00000,   0.00000,   0.00000,-293350742.63307,   0.00000
-190003776.91049,-117413846.38275,-42132008.74412,  -0.00064,  -0.00016,  -0.00055,181393745.12583,   0.00000,274640135.82653,   0.00000,   0.00000,   0.00000,-293246390.70070,   0.00000
-189809208.79448,-117448181.93263,-42443317.72973,  -0.00063,  -0.00016,  -0.00055,181474985.48066,   0.00000,274640135.82653,   0.00000,   0.00000,   0.00000,-293165150.34587,   0.00000
-189614640.67847,-117482517.48252,-42754626.71535,  -0.00063,  -0.00016,  -0.00056,181558042.65279,   0.00000,274640135.82653,   0.00000,   0.00000,   0.00000,-293082093.17374,   0.00000
-189404049.30585,-117509985.92242,-43061357.62764,  -0.00063,  -0.00017,  -0.00056,181627269.64740,   0.00000,274640135.82653,   0.00000,   0.00000,   0.00000,-293012866.17913,   0.00000
-189193457.93323,-117537454.36233,-43368088.53994,  -0.00063,  -0.00017,  -0.00056,181698303.75118,   0.00000,274640135.82653,   0.00000,   0.00000,   0.00000,-292941832.07535,   0.00000
-188950820.04738,-117551188.58229,-43674819.45223,  -0.00063,  -0.00017,  -0.00057,181746445.40148,   0.00000,274640135.82653,   0.00000,   0.00000,   0.00000,-292893690.42505,   0.00000
-188715049.27151,-117580946.05885,-43976972.29121,  -0.00063,  -0.00017,  -0.00057,181800101.60741,   0.00000,274640135.82653,   0.00000,   0.00000,   0.00000,-292840034.21912,   0.00000
-188456388.12906,-117587813.16883,-44279125.13019,  -0.00063,  -0.00017,  -0.00058,181836333.66731,   0.00000,274640135.82653,   0.00000,   0.00000,   0.00000,-292803802.15922,   0.00000
-188181703.72999,-117587813.16883,-44581277.96917,  -0.00063,  -0.00017,  -0.00058,181862155.05334,   0.00000,274640135.82653,   0.00000,   0.00000,   0.00000,-292777980.77319,   0.00000
-187907019.33091,-117587813.16883,-44878852.73483,  -0.00063,  -0.00017,  -0.00058,181886504.46321,   0.00000,274640135.82653,   0.00000,   0.00000,   0.00000,-292753631.36332,   0.00000
-187616311.67523,-117580946.05885,-45176427.50049,  -0.00062,  -0.00017,  -0.00059,181900480.11203,   0.00000,274640135.82653,   0.00000,   0.00000,   0.00000,-292739655.71450,   0.00000
-187309580.76294,-117567211.83890,-45474002.26615,  -0.00062,  -0.00017,  -0.00059,181904144.62142,   0.00000,274640135.82653,   0.00000,   0.00000,   0.00000,-292735991.20510,   0.00000
-186986826.59403,-117546610.50897,-45766998.95849,  -0.00062,  -0.00017,  -0.00059,181894106.19065,   0.00000,274640135.82653,   0.00000,   0.00000,   0.00000,-292746029.63588,   0.00000
-186648049.16851,-117519142.06906,-46059995.65083,  -0.00062,  -0.00017,  -0.00060,181873840.89520,   0.00000,274640135.82653,   0.00000,   0.00000,   0.00000,-292766294.93132,   0.00000
-186309271.74299,-117491673.62915,-46348414.26985,  -0.00062,  -0.00017,  -0.00060,181852073.05901,   0.00000,274640135.82653,   0.00000,   0.00000,   0.00000,-292788062.76752,   0.00000
-185954471.06085,-117457338.07927,-46636832.88888,  -0.00062,  -0.00017,  -0.00061,181820122.50342,   0.00000,274640135.82653,   0.00000,   0.00000,   0.00000,-292820013.32311,   0.00000
-185583647.12211,-117416135.41941,-46925251.50790,  -0.00062,  -0.00017,  -0.00061,181778056.92958,   0.00000,274640135.82653,   0.00000,   0.00000,   0.00000,-292862078.89695,   0.00000
-185196799.92675,-117368065.64957,-47209092.05361,  -0.00061,  -0.00017,  -0.00061,181722377.49687,   0.00000,274640135.82653,   0.00000,   0.00000,   0.00000,-292917758.32966,   0.00000
-184793929.47478,-117313128.76976,-47492932.59932,  -0.00061,  -0.00017,  -0.00062,181656677.41315,   0.00000,274640135.82653,   0.00000,   0.00000,   0.00000,-292983458.41338,   0.00000
-184391059.02281,-117258191.88994,-47776773.14502,  -0.00061,  -0.00017,  -0.00062,181593073.07169,   0.00000,274640135.82653,   0.00000,   0.00000,   0.00000,-293047062.75484,   0.00000
-183972165.31423,-117196387.90015,-48056035.61741,  -0.00061,  -0.00017,  -0.00062,181515909.42955,   0.00000,274640135.82653,   0.00000,   0.00000,   0.00000,-293124226.39698,   0.00000
-183537248.34903,-117127716.80038,-48330720.01648,  -0.00061,  -0.00018,  -0.00063,181425191.79924,   0.00000,274640135.82653,   0.00000,   0.00000,   0.00000,-293214944.02729,   0.00000
-183086308.12722,-117052178.59064,-48609982.48887,  -0.00060,  -0.00018,  -0.00063,181328289.83026,   0.00000,274640135.82653,   0.00000,   0.00000,   0.00000,-293311845.99627,   0.00000
-182635367.90542,-116976640.38090,-48880088.81462,  -0.00060,  -0.00018,  -0.00064,181226183.26285,   0.00000,274640135.82653,   0.00000,   0.00000,   0.00000,-293413952.56368,   0.00000
-182168404.42700,-116894235.06117,-49154773.21369,  -0.00060,  -0.00018,  -0.00064,181117996.51960,   0.00000,274640135.82653,   0.00000,   0.00000,   0.00000,-293522139.30693,   0.00000
-181685417.69196,-116804962.63148,-49424879.53945,  -0.00060,  -0.00018,  -0.00064,180996375.72481,   0.00000,274640135.82653,   0.00000,   0.00000,   0.00000,-293643760.10172,   0.00000
-181186407.70032,-116708823.09180,-49690407.79188,  -0.00060,  -0.00018,  -0.00065,180861331.41016,   0.00000,274640135.82653,   0.00000,   0.00000,   0.00000,-293778804.41637,   0.00000
-180664507.34209,-116589793.18554,-49955936.04432,  -0.00059,  -0.00018,  -0.00065,180709693.09756,   0.00000,274640135.82653,   0.00000,   0.00000,   0.00000,-293930442.72897,   0.00000
-180149474.09383,-116486786.53589,-50221464.29675,  -0.00059,  -0.00018,  -0.00065,180567321.37557,   0.00000,274640135.82653,   0.00000,   0.00000,   0.00000,-294072814.45096,   0.00000
-179602394.33235,-116370045.66628,-50482414.47587,  -0.00059,  -0.00018,  -0.00066,180399809.48436,   0.00000,274640135.82653,   0.00000,   0.00000,   0.00000,-294240326.34216,   0.00000
-179055314.57086,-116253304.79668,-50743364.65498,  -0.00059,  -0.00018,  -0.00066,180234657.21518,   0.00000,274640135.82653,   0.00000,   0.00000,   0.00000,-294405478.61135,   0.00000
-178501367.69940,-116120540.67046,-50999736.76078,  -0.00059,  -0.00018,  -0.00066,180060996.21377,   0.00000,274640135.82653,   0.00000,   0.00000,   0.00000,-294579139.61276,   0.00000
-177922241.42470,-115990065.58090,-51256108.86658,  -0.00058,  -0.00018,  -0.00067,179873213.52644,   0.00000,274640135.82653,   0.00000,   0.00000,   0.00000,-294766922.30009,   0.00000
-177336248.04001,-115843567.23473,-51507902.89906,  -0.00058,  -0.00018,  -0.00067,179676947.73893,   0.00000,274640135.82653,   0.00000,   0.00000,   0.00000,-294963188.08760,   0.00000
-176725075.25208,-115699357.92522,-51759696.93155,  -0.00058,  -0.00018,  -0.00067,179466750.65467,   0.00000,274640135.82653,   0.00000,   0.00000,   0.00000,-295173385.17186,   0.00000
-176107035.35417,-115539125.35909,-52006912.89071,  -0.00058,  -0.00018,  -0.00068,179248100.46648,   0.00000,274640135.82653,   0.00000,   0.00000,   0.00000,-295392035.36005,   0.00000
-175495862.56624,-115394916.04958,-52254128.84987,  -0.00057,  -0.00018,  -0.00068,179038923.26993,   0.00000,274640135.82653,   0.00000,   0.00000,   0.00000,-295601212.55660,   0.00000
-174845776.15511,-115220949.26350,-52496766.73572,  -0.00057,  -0.00018,  -0.00068,178798064.41422,   0.00000,274640135.82653,   0.00000,   0.00000,   0.00000,-295842071.41231,   0.00000
-174202556.85395,-115063005.73404,-52739404.62157,  -0.00057,  -0.00018,  -0.00069,178566768.19707,   0.00000,274640135.82653,   0.00000,   0.00000,   0.00000,-296073367.62946,   0.00000
-173520423.92959,-114875304.72801,-52977464.43409,  -0.00057,  -0.00018,  -0.00069,178303944.97938,   0.00000,274640135.82653,   0.00000,   0.00000,   0.00000,-296336190.84715,   0.00000
-172838291.00523,-114687603.72197,-53215524.24662,  -0.00056,  -0.00018,  -0.00069,178043780.91030,   0.00000,274640135.82653,   0.00000,   0.00000,   0.00000,-296596354.91623,   0.00000
-172163025.19085,-114515925.97255,-53453584.05915,  -0.00056,  -0.00019,  -0.00069,177793287.95699,   0.00000,274640135.82653,   0.00000,   0.00000,   0.00000,-296846847.86954,   0.00000
-171448845.75326,-114314490.74657,-53687065.79836,  -0.00056,  -0.00019,  -0.00070,177511478.82747,   0.00000,274640135.82653,   0.00000,   0.00000,   0.00000,-297128656.99906,   0.00000
-170734666.31568,-114113055.52058,-53915969.46425,  -0.00055,  -0.00019,  -0.00070,177228261.16455,   0.00000,274640135.82653,   0.00000,   0.00000,   0.00000,-297411874.66198,   0.00000
-169988440.36487,-113897886.07465,-54144873.13014,  -0.00055,  -0.00019,  -0.00070,176925058.01640,   0.00000,274640135.82653,   0.00000,   0.00000,   0.00000,-297715077.81013,   0.00000
-169242214.41406,-113682716.62871,-54369198.72272,  -0.00055,  -0.00019,  -0.00071,176620502.22514,   0.00000,274640135.82653,   0.00000,   0.00000,   0.00000,-298019633.60139,   0.00000
-168495988.46326,-113467547.18277,-54593524.31529,  -0.00055,  -0.00019,  -0.00071,176318786.75375,   0.00000,274640135.82653,   0.00000,   0.00000,   0.00000,-298321349.07278,   0.00000
-167717715.99922,-113238643.51688,-54813271.83455,  -0.00054,  -0.00019,  -0.00071,175993125.71706,   0.00000,274640135.82653,   0.00000,   0.00000,   0.00000,-298647010.10947,   0.00000
-166939443.53519,-113009739.85098,-55033019.35380,  -0.00054,  -0.00019,  -0.00072,175670417.77668,   0.00000,274640135.82653,   0.00000,   0.00000,   0.00000,-298969718.04985,   0.00000
-166129124.55793,-112767101.96514,-55248188.79974,  -0.00054,  -0.00019,  -0.00072,175323964.36470,   0.00000,274640135.82653,   0.00000,   0.00000,   0.00000,-299316171.46183,   0.00000
-165311938.47069,-112508440.82268,-55463358.24568,  -0.00053,  -0.00019,  -0.00072,174973569.81625,   0.00000,274640135.82653,   0.00000,   0.00000,   0.00000,-299666566.01028,   0.00000
-164501619.49344,-112265802.93683,-55673949.61830,  -0.00053,  -0.00019,  -0.00072,174628900.60491,   0.00000,274640135.82653,   0.00000,   0.00000,   0.00000,-300011235.22162,   0.00000
-163659254.00295,-112009430.83103,-55884540.99092,  -0.00053,  -0.00019,  -0.00073,174265113.80678,   0.00000,274640135.82653,   0.00000,   0.00000,   0.00000,-300375022.01974,   0.00000
-162810021.40249,-111737035.46862,-56090554.29023,  -0.00052,  -0.00019,  -0.00073,173893098.97191,   0.00000,274640135.82653,   0.00000,   0.00000,   0.00000,-300747036.85462,   0.00000
-161935609.39878,-111466929.14287,-56291989.51621,  -0.00052,  -0.00019,  -0.00073,173504804.07302,   0.00000,274640135.82653,   0.00000,   0.00000,   0.00000,-301135331.75351,   0.00000
-161054330.28510,-111180799.56051,-56493424.74220,  -0.00052,  -0.00019,  -0.00073,173112793.86002,   0.00000,274640135.82653,   0.00000,   0.00000,   0.00000,-301527341.96651,   0.00000
-160179918.28139,-110910693.23475,-56694859.96818,  -0.00051,  -0.00019,  -0.00074,172731131.40371,   0.00000,274640135.82653,   0.00000,   0.00000,   0.00000,-301909004.42282,   0.00000
-159266592.65448,-110610829.43243,-56887139.04753,  -0.00051,  -0.00019,  -0.00074,172314923.83467,   0.00000,274640135.82653,   0.00000,   0.00000,   0.00000,-302325211.99186,   0.00000
-158353267.02757,-110310965.63011,-57083996.20020,  -0.00051,  -0.00019,  -0.00074,171906696.74743,   0.00000,274640135.82653,   0.00000,   0.00000,   0.00000,-302733439.07910,   0.00000
-157407894.88744,-109997367.60784,-57276275.27955,  -0.00050,  -0.00019,  -0.00074,171475733.86615,   0.00000,274640135.82653,   0.00000,   0.00000,   0.00000,-303164401.96038,   0.00000
-156462522.74730,-109683769.58557,-57463976.28558,  -0.00050,  -0.00019,  -0.00075,171043786.06897,   0.00000,274640135.82653,   0.00000,   0.00000,   0.00000,-303596349.75756,   0.00000
-155517150.60717,-109370171.56330,-57647099.21829,  -0.00049,  -0.00019,  -0.00075,170610800.54518,   0.00000,274640135.82653,   0.00000,   0.00000,   0.00000,-304029335.28135,   0.00000
-154539731.95381,-109042839.32107,-57830222.15101,  -0.00049,  -0.00019,  -0.00075,170159989.95504,   0.00000,274640135.82653,   0.00000,   0.00000,   0.00000,-304480145.87149,   0.00000
-153562313.30045,-108715507.07885,-58013345.08372,  -0.00049,  -0.00020,  -0.00075,169712950.03725,   0.00000,274640135.82653,   0.00000,   0.00000,   0.00000,-304927185.78928,   0.00000
-152552848.13386,-108374440.61667,-58191889.94312,  -0.00048,  -0.00020,  -0.00076,169243757.45415,   0.00000,274640135.82653,   0.00000,   0.00000,   0.00000,-305396378.37238,   0.00000
-151543382.96728,-108033374.15449,-58365856.72920,  -0.00048,  -0.00020,  -0.00076,168773764.41506,   0.00000,274640135.82653,   0.00000,   0.00000,   0.00000,-305866371.41147,   0.00000
-150527050.69072,-107676284.43570,-58539823.51527,  -0.00047,  -0.00020,  -0.00076,168300666.97931,   0.00000,274640135.82653,   0.00000,   0.00000,   0.00000,-306339468.84722,   0.00000
-149485539.01091,-107321483.75356,-58709212.22803,  -0.00047,  -0.00020,  -0.00076,167812789.15329,   0.00000,274640135.82653,   0.00000,   0.00000,   0.00000,-306827346.67324,   0.00000
-148437160.22112,-106950659.81482,-58878600.94079,  -0.00047,  -0.00020,  -0.00077,167321997.62400,   0.00000,274640135.82653,   0.00000,   0.00000,   0.00000,-307318138.20253,   0.00000
-147379625.28470,-106588992.02271,-59043411.58024,  -0.00046,  -0.00020,  -0.00077,166827140.53413,   0.00000,274640135.82653,   0.00000,   0.00000,   0.00000,-307812995.29240,   0.00000
-146299199.98169,-106204433.86401,-59203644.14636,  -0.00046,  -0.00020,  -0.00077,166314245.99075,   0.00000,274640135.82653,   0.00000,   0.00000,   0.00000,-308325889.83578,   0.00000
-145202751.42206,-105813008.59533,-59363876.71249,  -0.00045,  -0.00020,  -0.00077,165795360.00519,   0.00000,274640135.82653,   0.00000,   0.00000,   0.00000,-308844775.82134,   0.00000
-144090279.60583,-105414716.21668,-59519531.20529,  -0.00045,  -0.00020,  -0.00077,165265722.16401,   0.00000,274640135.82653,   0.00000,   0.00000,   0.00000,-309374413.66252,   0.00000
-142977807.78959,-105016423.83803,-59675185.69810,  -0.00045,  -0.00020,  -0.00078,164740608.52774,   0.00000,274640135.82653,   0.00000,   0.00000,   0.00000,-309899527.29879,   0.00000
-141849312.71674,-104611264.34940,-59826262.11759,  -0.00044,  -0.00020,  -0.00078,164204911.96516,   0.00000,274640135.82653,   0.00000,   0.00000,   0.00000,-310435223.86136,   0.00000
-140704794.38728,-104199237.75079,-59972760.46376,  -0.00044,  -0.00020,  -0.00078,163658742.45303,   0.00000,274640135.82653,   0.00000,   0.00000,   0.00000,-310981393.37350,   0.00000
-139560276.05782,-103787211.15219,-60119258.80993,  -0.00043,  -0.00020,  -0.00078,163117319.28885,   0.00000,274640135.82653,   0.00000,   0.00000,   0.00000,-311522816.53768,   0.00000
-138376844.10516,-103345427.07701,-60265757.15610,  -0.00043,  -0.00020,  -0.00078,162553679.40287,   0.00000,274640135.82653,   0.00000,   0.00000,   0.00000,-312086456.42366,   0.00000
-137200279.26247,-102919666.25846,-60403099.35564,  -0.00042,  -0.00020,  -0.00079,161991884.41244,   0.00000,274640135.82653,   0.00000,   0.00000,   0.00000,-312648251.41409,   0.00000
-136000824.05320,-102471015.07331,-60540441.55517,  -0.00042,  -0.00020,  -0.00079,161418170.51637,   0.00000,274640135.82653,   0.00000,   0.00000,   0.00000,-313221965.31016,   0.00000
-134785345.58731,-102015496.77818,-60677783.75471,  -0.00041,  -0.00020,  -0.00079,160839787.68834,   0.00000,274640135.82653,   0.00000,   0.00000,   0.00000,-313800348.13819,   0.00000
-133576734.23140,-101576001.73967,-60810547.88092,  -0.00041,  -0.00020,  -0.00079,160268542.35754,   0.00000,274640135.82653,   0.00000,   0.00000,   0.00000,-314371593.46899,   0.00000
-132329209.25229,-101106749.22459,-60938733.93382,  -0.00040,  -0.00020,  -0.00079,159670930.55880,   0.00000,274640135.82653,   0.00000,   0.00000,   0.00000,-314969205.26773,   0.00000
-131081684.27317,-100637496.70951,-61062341.91341,  -0.00040,  -0.00020,  -0.00079,159073599.08539,   0.00000,274640135.82653,   0.00000,   0.00000,   0.00000,-315566536.74114,   0.00000
-129818136.03745,-100161377.08445,-61190527.96631,  -0.00040,  -0.00020,  -0.00080,158477533.94734,   0.00000,274640135.82653,   0.00000,   0.00000,   0.00000,-316162601.87919,   0.00000
-128554587.80172,-99685257.45940,-61309557.87257,  -0.00039,  -0.00020,  -0.00080,157876600.78874,   0.00000,274640135.82653,   0.00000,   0.00000,   0.00000,-316763535.03779,   0.00000
-127252125.94280,-99179380.35778,-61428587.77883,  -0.00039,  -0.00020,  -0.00080,157255461.69975,   0.00000,274640135.82653,   0.00000,   0.00000,   0.00000,-317384674.12677,   0.00000
-125956531.19385,-98689526.51277,-61543039.61178,  -0.00038,  -0.00020,  -0.00080,156642003.12483,   0.00000,274640135.82653,   0.00000,   0.00000,   0.00000,-317998132.70170,   0.00000
-124638046.07831,-98176782.30117,-61652913.37141,  -0.00038,  -0.00020,  -0.00080,156012839.14634,   0.00000,274640135.82653,   0.00000,   0.00000,   0.00000,-318627296.68018,   0.00000
-123326428.07275,-97680061.34618,-61762787.13104,  -0.00037,  -0.00020,  -0.00080,155396894.46255,   0.00000,274640135.82653,   0.00000,   0.00000,   0.00000,-319243241.36398,   0.00000
-121975896.44398,-97153582.91463,-61872660.89066,  -0.00037,  -0.00020,  -0.00080,154761820.59791,   0.00000,274640135.82653,   0.00000,   0.00000,   0.00000,-319878315.22862,   0.00000
-120625364.81522,-96627104.48308,-61973378.50366,  -0.00036,  -0.00020,  -0.00081,154122338.28278,   0.00000,274640135.82653,   0.00000,   0.00000,   0.00000,-320517797.54375,   0.00000
-119258809.92984,-96093758.94155,-62074096.11665,  -0.00036,  -0.00020,  -0.00081,153480380.33065,   0.00000,274640135.82653,   0.00000,   0.00000,   0.00000,-321159755.49588,   0.00000
-117876231.78785,-95553546.29004,-62174813.72964,  -0.00035,  -0.00020,  -0.00081,152836241.26959,   0.00000,274640135.82653,   0.00000,   0.00000,   0.00000,-321803894.55694,   0.00000
-116493653.64586,-95013333.63854,-62270953.26932,  -0.00034,  -0.00021,  -0.00081,152193526.11544,   0.00000,274640135.82653,   0.00000,   0.00000,   0.00000,-322446609.71109,   0.00000
-115072161.88067,-94443363.51047,-62362514.73567,  -0.00034,  -0.00021,  -0.00081,151527552.17815,   0.00000,274640135.82653,   0.00000,   0.00000,   0.00000,-323112583.64838,   0.00000
-113657537.22546,-93889416.63901,-62454076.20203,  -0.00033,  -0.00021,  -0.00081,150875953.55454,   0.00000,274640135.82653,   0.00000,   0.00000,   0.00000,-323764182.27199,   0.00000
-112236045.46027,-93319446.51094,-62541059.59507,  -0.00033,  -0.00021,  -0.00081,150219159.10616,   0.00000,274640135.82653,   0.00000,   0.00000,   0.00000,-324420976.72037,   0.00000
-110782507.18185,-92735742.16291,-62623464.91479,  -0.00032,  -0.00021,  -0.00081,149546911.78232,   0.00000,274640135.82653,   0.00000,   0.00000,   0.00000,-325093224.04421,   0.00000
-109335836.01341,-92168061.07150,-62705870.23451,  -0.00032,  -0.00021,  -0.00082,148889499.27059,   0.00000,274640135.82653,   0.00000,   0.00000,   0.00000,-325750636.55594,   0.00000
-107866274.47839,-91577489.61350,-62783697.48092,  -0.00031,  -0.00021,  -0.00082,148218842.09233,   0.00000,274640135.82653,   0.00000,   0.00000,   0.00000,-326421293.73420,   0.00000
-106380689.68675,-90980051.04552,-62856946.65400,  -0.00031,  -0.00021,  -0.00082,147542154.91346,   0.00000,274640135.82653,   0.00000,   0.00000,   0.00000,-327097980.91307,   0.00000
-104888237.78513,-90366589.22093,-62930195.82709,  -0.00030,  -0.00021,  -0.00082,146866943.91715,   0.00000,274640135.82653,   0.00000,   0.00000,   0.00000,-327773191.90938,   0.00000
-103386629.73688,-89762283.54297,-62998866.92685,  -0.00030,  -0.00021,  -0.00082,146193072.62797,   0.00000,274640135.82653,   0.00000,   0.00000,   0.00000,-328447063.19856,   0.00000
-101862131.32203,-89135087.49843,-63067538.02662,  -0.00029,  -0.00021,  -0.00082,145512922.76245,   0.00000,274640135.82653,   0.00000,   0.00000,   0.00000,-329127213.06408,   0.00000
-100328476.76056,-88517047.60052,-63131631.05307,  -0.00028,  -0.00021,  -0.00082,144834729.71000,   0.00000,274640135.82653,   0.00000,   0.00000,   0.00000,-329805406.11653,   0.00000
-98787955.08910,-87882984.44600,-63191146.00620,  -0.00028,  -0.00021,  -0.00082,144152910.15448,   0.00000,274640135.82653,   0.00000,   0.00000,   0.00000,-330487225.67205,   0.00000
-97231410.16103,-87242054.18150,-63250660.95934,  -0.00027,  -0.00021,  -0.00082,143472622.89955,   0.00000,274640135.82653,   0.00000,   0.00000,   0.00000,-331167512.92698,   0.00000
-95658841.97635,-86594256.80702,-63305597.83915,  -0.00027,  -0.00021,  -0.00082,142788196.94068,   0.00000,274640135.82653,   0.00000,   0.00000,   0.00000,-331851938.88585,   0.00000
-94070250.53506,-85939592.32257,-63355956.64565,  -0.00026,  -0.00021,  -0.00082,142099958.87082,   0.00000,274640135.82653,   0.00000,   0.00000,   0.00000,-332540176.95571,   0.00000
-92474791.98379,-85268904.58151,-63406315.45214,  -0.00025,  -0.00021,  -0.00082,141415103.66564,   0.00000,274640135.82653,   0.00000,   0.00000,   0.00000,-333225032.16089,   0.00000
-90870177.28589,-84607372.98708,-63452096.18532,  -0.00025,  -0.00021,  -0.00082,140733845.36652,   0.00000,274640135.82653,   0.00000,   0.00000,   0.00000,-333906290.46001,   0.00000
-89258695.47801,-83929818.13604,-63493298.84518,  -0.00024,  -0.00021,  -0.00083,140050205.30862,   0.00000,274640135.82653,   0.00000,   0.00000,   0.00000,-334589930.51791,   0.00000
-87622034.26688,-83254552.32166,-63534501.50504,  -0.00024,  -0.00021,  -0.00083,139369676.68552,   0.00000,274640135.82653,   0.00000,   0.00000,   0.00000,-335270459.14101,   0.00000
-85978505.94577,-82563263.25066,-63575704.16490,  -0.00023,  -0.00021,  -0.00083,138693692.65816,   0.00000,274640135.82653,   0.00000,   0.00000,   0.00000,-335946443.16837,   0.00000
-84318954.36805,-81865107.06969,-63607750.67813,  -0.00022,  -0.00021,  -0.00083,138009562.83135,   0.00000,274640135.82653,   0.00000,   0.00000,   0.00000,-336630572.99518,   0.00000
-82652535.68036,-81150927.63211,-63639797.19135,  -0.00022,  -0.00021,  -0.00083,137330463.21922,   0.00000,274640135.82653,   0.00000,   0.00000,   0.00000,-337309672.60731,   0.00000
-80976960.84603,-80445904.34116,-63671843.70458,  -0.00021,  -0.00021,  -0.00083,136663301.25271,   0.00000,274640135.82653,   0.00000,   0.00000,   0.00000,-337976834.57382,   0.00000
-79285362.75508,-79734013.94023,-63694734.07117,  -0.00021,  -0.00021,  -0.00083,135988966.28861,   0.00000,274640135.82653,   0.00000,   0.00000,   0.00000,-338651169.53791,   0.00000
-77570874.29755,-78999233.17272,-63717624.43776,  -0.00020,  -0.00021,  -0.00083,135314030.26698,   0.00000,274640135.82653,   0.00000,   0.00000,   0.00000,-339326105.55955,   0.00000
-75856385.84002,-78264452.40521,-63740514.80434,  -0.00019,  -0.00021,  -0.00083,134652207.43218,   0.00000,274640135.82653,   0.00000,   0.00000,   0.00000,-339987928.39435,   0.00000
-74125874.12587,-77522804.52771,-63758827.09762,  -0.00019,  -0.00021,  -0.00083,133990853.73656,   0.00000,274640135.82653,   0.00000,   0.00000,   0.00000,-340649282.08997,   0.00000
-72379339.15512,-76774289.54025,-63772561.31757,  -0.00018,  -0.00021,  -0.00083,133330441.61377,   0.00000,274640135.82653,   0.00000,   0.00000,   0.00000,-341309694.21276,   0.00000
-70632804.18436,-76025774.55278,-63781717.46421,  -0.00017,  -0.00021,  -0.00083,132677504.59063,   0.00000,274640135.82653,   0.00000,   0.00000,   0.00000,-341962631.23590,   0.00000
-68863378.84701,-75254369.19872,-63790873.61084,  -0.00017,  -0.00021,  -0.00083,132026291.17643,   0.00000,274640135.82653,   0.00000,   0.00000,   0.00000,-342613844.65010,   0.00000
-67100820.61964,-74498987.10128,-63800029.75748,  -0.00016,  -0.00021,  -0.00083,131396375.24788,   0.00000,274640135.82653,   0.00000,   0.00000,   0.00000,-343243760.57865,   0.00000
-65299348.76907,-73713847.52727,-63800029.75748,  -0.00015,  -0.00021,  -0.00083,130750148.83093,   0.00000,274640135.82653,   0.00000,   0.00000,   0.00000,-343889986.99560,   0.00000
-63497876.91850,-72928707.95326,-63804607.83079,  -0.00015,  -0.00021,  -0.00083,130126256.52332,   0.00000,274640135.82653,   0.00000,   0.00000,   0.00000,-344513879.30321,   0.00000
-61696405.06793,-72143568.37925,-63800029.75748,  -0.00014,  -0.00021,  -0.00083,129504723.58254,   0.00000,274640135.82653,   0.00000,   0.00000,   0.00000,-345135412.24399,   0.00000
-59862886.70413,-71344694.58528,-63795451.68416,  -0.00013,  -0.00021,  -0.00083,128888751.44045,   0.00000,274640135.82653,   0.00000,   0.00000,   0.00000,-345751384.38608,   0.00000
-58022501.23036,-70529797.53471,-63786295.53752,  -0.00013,  -0.00021,  -0.00083,128276350.97819,   0.00000,274640135.82653,   0.00000,   0.00000,   0.00000,-346363784.84834,   0.00000
-56188982.86656,-69730923.74074,-63777139.39089,  -0.00012,  -0.00021,  -0.00083,127687369.65194,   0.00000,274640135.82653,   0.00000,   0.00000,   0.00000,-346952766.17459,   0.00000
-54332574.13617,-68909159.58019,-63763405.17093,  -0.00011,  -0.00021,  -0.00083,127097617.52974,   0.00000,274640135.82653,   0.00000,   0.00000,   0.00000,-347542518.29679,   0.00000
-52460142.14918,-68080528.30966,-63745092.87766,  -0.00011,  -0.00021,  -0.00083,126514114.84283,   0.00000,274640135.82653,   0.00000,   0.00000,   0.00000,-348126020.98370,   0.00000
-50571686.90557,-67245029.92915,-63726780.58439,  -0.00010,  -0.00021,  -0.00083,125944442.74389,   0.00000,274640135.82653,   0.00000,   0.00000,   0.00000,-348695693.08264,   0.00000
-48683231.66196,-66409531.54865,-63703890.21780,  -0.00009,  -0.00021,  -0.00083,125386638.85464,   0.00000,274640135.82653,   0.00000,   0.00000,   0.00000,-349253496.97189,   0.00000
-46778753.16173,-65567166.05816,-63676421.77789,  -0.00008,  -0.00021,  -0.00083,124836752.62928,   0.00000,274640135.82653,   0.00000,   0.00000,   0.00000,-349803383.19725,   0.00000
-44867407.55153,-64708777.31107,-63648953.33799,  -0.00008,  -0.00021,  -0.00083,124300292.92313,   0.00000,274640135.82653,   0.00000,   0.00000,   0.00000,-350339842.90340,   0.00000
-42940038.68472,-63843521.45400,-63616906.82476,  -0.00007,  -0.00021,  -0.00083,123772902.42513,   0.00000,274640135.82653,   0.00000,   0.00000,   0.00000,-350867233.40140,   0.00000
-40996646.56129,-62971398.48695,-63584860.31154,  -0.00006,  -0.00021,  -0.00083,123262359.50990,   0.00000,274640135.82653,   0.00000,   0.00000,   0.00000,-351377776.31663,   0.00000
-39053254.43787,-62099275.51990,-63548235.72500,  -0.00006,  -0.00021,  -0.00083,122765763.49405,   0.00000,274640135.82653,   0.00000,   0.00000,   0.00000,-351874372.33248,   0.00000
-37093839.05783,-61220285.44287,-63507033.06513,  -0.00005,  -0.00021,  -0.00083,122280049.79011,   0.00000,274640135.82653,   0.00000,   0.00000,   0.00000,-352360086.03642,   0.00000
-35118400.42118,-60334428.25587,-63465830.40527,  -0.00004,  -0.00021,  -0.00083,121813100.92730,   0.00000,274640135.82653,   0.00000,   0.00000,   0.00000,-352827034.89923,   0.00000
-33136094.67456,-59432547.81225,-63424627.74541,  -0.00003,  -0.00021,  -0.00082,121362746.31291,   0.00000,274640135.82653,   0.00000,   0.00000,   0.00000,-353277389.51362,   0.00000
-31137765.67132,-58523800.25866,-63374268.93892,  -0.00003,  -0.00021,  -0.00082,120918109.31244,   0.00000,274640135.82653,   0.00000,   0.00000,   0.00000,-353722026.51409,   0.00000
-29139436.66808,-57615052.70507,-63323910.13242,  -0.00002,  -0.00021,  -0.00082,120496820.17170,   0.00000,274640135.82653,   0.00000,   0.00000,   0.00000,-354143315.65483,   0.00000
-27125084.40823,-56699438.04150,-63268973.25261,  -0.00001,  -0.00021,  -0.00082,120089584.74788,   0.00000,274640135.82653,   0.00000,   0.00000,   0.00000,-354550551.07865,   0.00000
-25094708.89176,-55776956.26795,-63214036.37279,  -0.00001,  -0.00020,  -0.00082,119704427.52083,   0.00000,274640135.82653,   0.00000,   0.00000,   0.00000,-354935708.30570,   0.00000
-23057466.26532,-54838451.23780,-63154521.41966,   0.00000,  -0.00020,  -0.00082,119331251.03056,   0.00000,274640135.82653,   0.00000,   0.00000,   0.00000,-355308884.79597,   0.00000
-21027090.74886,-53915969.46425,-63095006.46653,   0.00001,  -0.00020,  -0.00082,118988713.11569,   0.00000,274640135.82653,   0.00000,   0.00000,   0.00000,-355651422.71084,   0.00000
-18957801.60919,-52963730.21414,-63030913.44008,   0.00002,  -0.00020,  -0.00082,118655666.60484,   0.00000,274640135.82653,   0.00000,   0.00000,   0.00000,-355984469.22169,   0.00000
-16888512.46953,-52011490.96403,-62962242.34031,   0.00002,  -0.00020,  -0.00082,118341675.72580,   0.00000,274640135.82653,   0.00000,   0.00000,   0.00000,-356298460.10073,   0.00000
-14819223.32986,-51059251.71392,-62893571.24054,   0.00003,  -0.00020,  -0.00082,118054233.39148,   0.00000,274640135.82653,   0.00000,   0.00000,   0.00000,-356585902.43505,   0.00000
-12727043.82361,-50084122.09722,-62820322.06746,   0.00004,  -0.00020,  -0.00082,117780103.19199,   0.00000,274640135.82653,   0.00000,   0.00000,   0.00000,-356860032.63454,   0.00000
-10625708.17072,-49118148.62715,-62747072.89437,   0.00005,  -0.00020,  -0.00082,117537945.17485,   0.00000,274640135.82653,   0.00000,   0.00000,   0.00000,-357102190.65168,   0.00000
-8517505.40785,-48136151.90047,-62669245.64797,   0.00006,  -0.00020,  -0.00081,117311295.85121,   0.00000,274640135.82653,   0.00000,   0.00000,   0.00000,-357328839.97532,   0.00000
-6409302.64498,-47154155.17380,-62591418.40157,   0.00006,  -0.00020,  -0.00081,117112873.89366,   0.00000,274640135.82653,   0.00000,   0.00000,   0.00000,-357527261.93287,   0.00000
-4269053.36889,-46158424.22716,-62504435.00853,   0.00007,  -0.00020,  -0.00081,116928120.46106,   0.00000,274640135.82653,   0.00000,   0.00000,   0.00000,-357712015.36547,   0.00000
-2144827.34941,-45169560.39051,-62422029.68881,   0.00008,  -0.00020,  -0.00081,116779869.55445,   0.00000,274640135.82653,   0.00000,   0.00000,   0.00000,-357860266.27208,   0.00000
18312.29327,-44150939.07729,-62330468.22245,   0.00009,  -0.00020,  -0.00081,116642085.32164,   0.00000,274640135.82653,   0.00000,   0.00000,   0.00000,-357998050.50489,   0.00000
2181451.93595,-43132317.76407,-62238906.75609,   0.00009,  -0.00020,  -0.00081,116534506.43015,   0.00000,274640135.82653,   0.00000,   0.00000,   0.00000,-358105629.39638,   0.00000
4337724.46866,-42129719.70746,-62147345.28973,   0.00010,  -0.00020,  -0.00081,116461812.76244,   0.00000,274640135.82653,   0.00000,   0.00000,   0.00000,-358178323.06409,   0.00000
6516887.36795,-41104231.28426,-62051205.75006,   0.00011,  -0.00020,  -0.00081,116408572.28388,   0.00000,274640135.82653,   0.00000,   0.00000,   0.00000,-358231563.54265,   0.00000
8702917.37722,-40062719.60445,-61950488.13707,   0.00012,  -0.00020,  -0.00081,116374454.89826,   0.00000,274640135.82653,   0.00000,   0.00000,   0.00000,-358265680.92827,   0.00000
10898103.53313,-39030364.07128,-61849770.52407,   0.00013,  -0.00020,  -0.00080,116377305.65012,   0.00000,274640135.82653,   0.00000,   0.00000,   0.00000,-358262830.17641,   0.00000
13116180.05562,-37975118.17152,-61744474.83776,   0.00013,  -0.00020,  -0.00080,116401773.12197,   0.00000,274640135.82653,   0.00000,   0.00000,   0.00000,-358238362.70456,   0.00000
15334256.57812,-36919872.27175,-61639179.15145,   0.00014,  -0.00020,  -0.00080,116458234.60369,   0.00000,274640135.82653,   0.00000,   0.00000,   0.00000,-358181901.22284,   0.00000
17552333.10061,-35864626.37199,-61529305.39183,   0.00015,  -0.00020,  -0.00080,116539392.29586,   0.00000,274640135.82653,   0.00000,   0.00000,   0.00000,-358100743.53066,   0.00000
19786432.87972,-34802513.36225,-61419431.63220,   0.00016,  -0.00020,  -0.00080,116654940.75772,   0.00000,274640135.82653,   0.00000,   0.00000,   0.00000,-357985195.06881,   0.00000
22036555.91544,-33733533.24254,-61304979.79925,   0.00017,  -0.00020,  -0.00080,116798260.25127,   0.00000,274640135.82653,   0.00000,   0.00000,   0.00000,-357841875.57526,   0.00000
24293546.06114,-32648529.86621,-61185949.89299,   0.00017,  -0.00020,  -0.00080,116963296.97689,   0.00000,274640135.82653,   0.00000,   0.00000,   0.00000,-357676838.84964,   0.00000
26543669.09686,-31579549.74649,-61066919.98672,   0.00018,  -0.00020,  -0.00079,117164745.55090,   0.00000,274640135.82653,   0.00000,   0.00000,   0.00000,-357475390.27563,   0.00000
28816682.49917,-30487679.26018,-60947890.08046,   0.00019,  -0.00019,  -0.00079,117398421.90629,   0.00000,274640135.82653,   0.00000,   0.00000,   0.00000,-357241713.92024,   0.00000
31112586.26807,-29372918.40729,-60819704.02756,   0.00020,  -0.00019,  -0.00079,117650915.89929,   0.00000,274640135.82653,   0.00000,   0.00000,   0.00000,-356989219.92724,   0.00000
33385599.67038,-28281047.92098,-60696096.04798,   0.00021,  -0.00019,  -0.00079,117943392.80945,   0.00000,274640135.82653,   0.00000,   0.00000,   0.00000,-356696743.01708,   0.00000
35690659.58591,-27175443.21472,-60563331.92176,   0.00022,  -0.00019,  -0.00079,118262373.17449,   0.00000,274640135.82653,   0.00000,   0.00000,   0.00000,-356377762.65204,   0.00000
38002586.61142,-26053815.25185,-60435145.86886,   0.00022,  -0.00019,  -0.00079,118618425.28703,   0.00000,274640135.82653,   0.00000,   0.00000,   0.00000,-356021710.53950,   0.00000
40314513.63694,-24932187.28898,-60297803.66933,   0.00023,  -0.00019,  -0.00078,118993606.37988,   0.00000,274640135.82653,   0.00000,   0.00000,   0.00000,-355646529.44665,   0.00000
42642463.91906,-23803692.21613,-60160461.46979,   0.00024,  -0.00019,  -0.00078,119406394.09784,   0.00000,274640135.82653,   0.00000,   0.00000,   0.00000,-355233741.72868,   0.00000
44977281.31116,-22659173.88667,-60023119.27026,   0.00025,  -0.00019,  -0.00078,119849349.49487,   0.00000,274640135.82653,   0.00000,   0.00000,   0.00000,-354790786.33166,   0.00000
47321254.84990,-21523811.70384,-59881198.99740,   0.00026,  -0.00019,  -0.00078,120326154.22222,   0.00000,274640135.82653,   0.00000,   0.00000,   0.00000,-354313981.60431,   0.00000
49672095.49861,-20372426.26441,-59739278.72455,   0.00027,  -0.00019,  -0.00078,120833100.57122,   0.00000,274640135.82653,   0.00000,   0.00000,   0.00000,-353807035.25531,   0.00000
52022936.14732,-19221040.82497,-59592780.37838,   0.00027,  -0.00019,  -0.00077,121365842.37331,   0.00000,274640135.82653,   0.00000,   0.00000,   0.00000,-353274293.45322,   0.00000
54389800.05265,-18062788.27555,-59441703.95889,   0.00028,  -0.00019,  -0.00077,121929875.83592,   0.00000,274640135.82653,   0.00000,   0.00000,   0.00000,-352710259.99061,   0.00000
56772687.21459,-16897668.61616,-59290627.53940,   0.00029,  -0.00019,  -0.00077,122532162.37085,   0.00000,274640135.82653,   0.00000,   0.00000,   0.00000,-352107973.45568,   0.00000
59146418.22989,-15723392.81014,-59139551.11991,   0.00030,  -0.00019,  -0.00077,123158295.53068,   0.00000,274640135.82653,   0.00000,   0.00000,   0.00000,-351481840.29585,   0.00000
61545328.64844,-14551406.04077,-58983896.62710,   0.00031,  -0.00019,  -0.00077,123824238.93259,   0.00000,274640135.82653,   0.00000,   0.00000,   0.00000,-350815896.89394,   0.00000
63935082.92035,-13370263.12476,-58823664.06098,   0.00032,  -0.00019,  -0.00076,124506859.27403,   0.00000,274640135.82653,   0.00000,   0.00000,   0.00000,-350133276.55250,   0.00000
66340860.44888,-12182253.09878,-58663431.49486,   0.00033,  -0.00018,  -0.00076,125227364.39251,   0.00000,274640135.82653,   0.00000,   0.00000,   0.00000,-349412771.43402,   0.00000
68762661.23402,-10987375.96283,-58498620.85541,   0.00033,  -0.00018,  -0.00076,125979415.57124,   0.00000,274640135.82653,   0.00000,   0.00000,   0.00000,-348660720.25529,   0.00000
71191329.12914,-9776475.57026,-58333810.21597,   0.00034,  -0.00018,  -0.00076,126760740.57346,   0.00000,274640135.82653,   0.00000,   0.00000,   0.00000,-347879395.25307,   0.00000
73619997.02425,-8565575.17769,-58168999.57653,   0.00035,  -0.00018,  -0.00076,127572599.70021,   0.00000,274640135.82653,   0.00000,   0.00000,   0.00000,-347067536.12632,   0.00000
76048664.91937,-7354674.78512,-57999610.86377,   0.00036,  -0.00018,  -0.00075,128408210.23822,   0.00000,274640135.82653,   0.00000,   0.00000,   0.00000,-346231925.58831,   0.00000
78493356.07110,-6136907.28257,-57825644.07769,   0.00037,  -0.00018,  -0.00075,129274863.62710,   0.00000,274640135.82653,   0.00000,   0.00000,   0.00000,-345365272.19943,   0.00000
80954070.47944,-4912272.67005,-57651677.29161,   0.00038,  -0.00018,  -0.00075,130178754.41687,   0.00000,274640135.82653,   0.00000,   0.00000,   0.00000,-344461381.40966,   0.00000
83414784.88778,-3687638.05752,-57477710.50553,   0.00039,  -0.00018,  -0.00075,131111746.85170,   0.00000,274640135.82653,   0.00000,   0.00000,   0.00000,-343528388.97483,   0.00000
85882366.40610,-2446980.18839,-57299165.64614,   0.00040,  -0.00018,  -0.00074,132066287.03765,   0.00000,274640135.82653,   0.00000,   0.00000,   0.00000,-342573848.78888,   0.00000
88349947.92442,-1206322.31925,-57116042.71342,   0.00040,  -0.00018,  -0.00074,133043128.46440,   0.00000,274640135.82653,   0.00000,   0.00000,   0.00000,-341597007.36213,   0.00000
90833552.69935,41202.65986,-56937497.85403,   0.00041,  -0.00018,  -0.00074,134062035.62269,   0.00000,274640135.82653,   0.00000,   0.00000,   0.00000,-340578100.20383,   0.00000
93317157.47428,1288727.63897,-56749796.84800,   0.00042,  -0.00018,  -0.00074,135096671.40550,   0.00000,274640135.82653,   0.00000,   0.00000,   0.00000,-339543464.42103,   0.00000
95823652.61580,2559142.98467,-56562095.84196,   0.00043,  -0.00018,  -0.00074,136166468.86513,   0.00000,274640135.82653,   0.00000,   0.00000,   0.00000,-338473666.96140,   0.00000
98323280.64734,3813535.07376,-56374394.83593,   0.00044,  -0.00017,  -0.00073,137263500.12677,   0.00000,274640135.82653,   0.00000,   0.00000,   0.00000,-337376635.69976,   0.00000
100829775.78886,5083950.41947,-56182115.75658,   0.00045,  -0.00017,  -0.00073,138380515.42483,   0.00000,274640135.82653,   0.00000,   0.00000,   0.00000,-336259620.40170,   0.00000
103336270.93038,6354365.76517,-55989836.67723,   0.00046,  -0.00017,  -0.00073,139523158.74149,   0.00000,274640135.82653,   0.00000,   0.00000,   0.00000,-335116977.08503,   0.00000
105865656.43849,7647671.47746,-55792979.52457,   0.00047,  -0.00017,  -0.00073,140694591.30926,   0.00000,274640135.82653,   0.00000,   0.00000,   0.00000,-333945544.51727,   0.00000
108388174.83662,8924953.93314,-55596122.37190,   0.00048,  -0.00017,  -0.00072,141891078.81816,   0.00000,274640135.82653,   0.00000,   0.00000,   0.00000,-332749057.00837,   0.00000
110933583.60134,10225126.75540,-55399265.21923,   0.00048,  -0.00017,  -0.00072,143121413.47310,   0.00000,274640135.82653,   0.00000,   0.00000,   0.00000,-331518722.35343,   0.00000
113472125.25609,11509276.32106,-55197829.99325,   0.00049,  -0.00017,  -0.00072,144370377.55422,   0.00000,274640135.82653,   0.00000,   0.00000,   0.00000,-330269758.27231,   0.00000
116024401.13078,12825472.39994,-54991816.69394,   0.00050,  -0.00017,  -0.00071,145637860.30946,   0.00000,274640135.82653,   0.00000,   0.00000,   0.00000,-329002275.51707,   0.00000
118569809.89551,14125645.22221,-54790381.46796,   0.00051,  -0.00017,  -0.00071,146933373.70102,   0.00000,274640135.82653,   0.00000,   0.00000,   0.00000,-327706762.12550,   0.00000
121131241.91684,15432685.15445,-54579790.09534,   0.00052,  -0.00017,  -0.00071,148251224.88895,   0.00000,274640135.82653,   0.00000,   0.00000,   0.00000,-326388910.93757,   0.00000
123699541.04815,16755748.34331,-54373776.79604,   0.00053,  -0.00016,  -0.00071,149596711.15127,   0.00000,274640135.82653,   0.00000,   0.00000,   0.00000,-325043424.67526,   0.00000
126267840.17946,18078811.53217,-54163185.42341,   0.00054,  -0.00016,  -0.00070,150958902.91883,   0.00000,274640135.82653,   0.00000,   0.00000,   0.00000,-323681232.90770,   0.00000
128852162.56738,19408741.83100,-53948015.97748,   0.00055,  -0.00016,  -0.00070,152347910.99269,   0.00000,274640135.82653,   0.00000,   0.00000,   0.00000,-322292224.83384,   0.00000
131436484.95531,20738672.12983,-53732846.53154,   0.00056,  -0.00016,  -0.00070,153757862.63107,   0.00000,274640135.82653,   0.00000,   0.00000,   0.00000,-320882273.19546,   0.00000
134020807.34323,22068602.42867,-53517677.08560,   0.00057,  -0.00016,  -0.00070,155188186.99107,   0.00000,274640135.82653,   0.00000,   0.00000,   0.00000,-319451948.83546,   0.00000
136611996.84113,23414555.98411,-53297929.56634,   0.00058,  -0.00016,  -0.00069,156634535.63277,   0.00000,274640135.82653,   0.00000,   0.00000,   0.00000,-318005600.19376,   0.00000
139219209.59564,24767376.64954,-53078182.04709,   0.00059,  -0.00016,  -0.00069,158111343.34354,   0.00000,274640135.82653,   0.00000,   0.00000,   0.00000,-316528792.48299,   0.00000
141826422.35015,26120197.31496,-52853856.45451,   0.00059,  -0.00016,  -0.00069,159602804.09347,   0.00000,274640135.82653,   0.00000,   0.00000,   0.00000,-315037331.73306,   0.00000
144433635.10467,27473017.98038,-52629530.86194,   0.00060,  -0.00016,  -0.00068,161113054.61861,   0.00000,274640135.82653,   0.00000,   0.00000,   0.00000,-313527081.20792,   0.00000
147047714.96916,28841861.90242,-52405205.26936,   0.00061,  -0.00016,  -0.00068,162642768.68467,   0.00000,274640135.82653,   0.00000,   0.00000,   0.00000,-311997367.14186,   0.00000
149670950.98028,30201549.67782,-52176301.60347,   0.00062,  -0.00015,  -0.00068,164196016.56549,   0.00000,274640135.82653,   0.00000,   0.00000,   0.00000,-310444119.26104,   0.00000
152301054.10138,31577260.70983,-51947397.93758,   0.00063,  -0.00015,  -0.00068,165768153.87777,   0.00000,274640135.82653,   0.00000,   0.00000,   0.00000,-308871981.94876,   0.00000
154931157.22248,32952971.74184,-51718494.27169,   0.00064,  -0.00015,  -0.00067,167357484.82881,   0.00000,274640135.82653,   0.00000,   0.00000,   0.00000,-307282650.99772,   0.00000
157561260.34358,34328682.77385,-51485012.53248,   0.00065,  -0.00015,  -0.00067,168959339.02768,   0.00000,274640135.82653,   0.00000,   0.00000,   0.00000,-305680796.79885,   0.00000
160198230.57466,35720417.06248,-51251530.79327,   0.00066,  -0.00015,  -0.00067,170579107.42975,   0.00000,274640135.82653,   0.00000,   0.00000,   0.00000,-304061028.39678,   0.00000
162844356.95238,37102995.20447,-51013470.98074,   0.00067,  -0.00015,  -0.00066,172220864.33938,   0.00000,274640135.82653,   0.00000,   0.00000,   0.00000,-302419271.48714,   0.00000
165497350.44007,38501596.60307,-50775411.16821,   0.00068,  -0.00015,  -0.00066,173880018.56467,   0.00000,274640135.82653,   0.00000,   0.00000,   0.00000,-300760117.26186,   0.00000
168150343.92776,39900198.00167,-50537351.35568,   0.00069,  -0.00015,  -0.00066,175554560.16000,   0.00000,274640135.82653,   0.00000,   0.00000,   0.00000,-299085575.66653,   0.00000
170819360.67206,41305666.51025,-50294713.46984,   0.00070,  -0.00015,  -0.00065,177252021.51144,   0.00000,274640135.82653,   0.00000,   0.00000,   0.00000,-297388114.31509,   0.00000
173479221.26973,42720291.16546,-50052075.58399,   0.00071,  -0.00014,  -0.00065,178954216.09062,   0.00000,274640135.82653,   0.00000,   0.00000,   0.00000,-295685919.73591,   0.00000
176148238.01403,44125759.67404,-49809437.69814,   0.00072,  -0.00014,  -0.00065,180680795.48215,   0.00000,274640135.82653,   0.00000,   0.00000,   0.00000,-293959340.34438,   0.00000
178824121.86831,45547251.43923,-49562221.73898,   0.00072,  -0.00014,  -0.00064,182419606.68913,   0.00000,274640135.82653,   0.00000,   0.00000,   0.00000,-292220529.13740,   0.00000
181500005.72259,46968743.20442,-49315005.77982,   0.00073,  -0.00014,  -0.00064,184172194.26479,   0.00000,274640135.82653,   0.00000,   0.00000,   0.00000,-290467941.56174,   0.00000
184175889.57687,48390234.96961,-49067789.82065,   0.00074,  -0.00014,  -0.00064,185938168.65597,   0.00000,274640135.82653,   0.00000,   0.00000,   0.00000,-288701967.17056,   0.00000
186851773.43115,49811726.73480,-48815995.78817,   0.00075,  -0.00014,  -0.00063,187713580.25187,   0.00000,274640135.82653,   0.00000,   0.00000,   0.00000,-286926555.57466,   0.00000
189550547.65202,51256108.86658,-48564201.75569,   0.00076,  -0.00014,  -0.00063,189516279.99107,   0.00000,274640135.82653,   0.00000,   0.00000,   0.00000,-285123855.83546,   0.00000
192249321.87289,52700490.99836,-48312407.72321,   0.00077,  -0.00014,  -0.00063,191331586.71608,   0.00000,274640135.82653,   0.00000,   0.00000,   0.00000,-283308549.11045,   0.00000
194941228.98378,54128849.87353,-48060613.69073,   0.00078,  -0.00013,  -0.00062,193156771.54452,   0.00000,274640135.82653,   0.00000,   0.00000,   0.00000,-281483364.28201,   0.00000
197646870.31463,55589255.26192,-47804241.58493,   0.00079,  -0.00013,  -0.00062,194995243.17437,   0.00000,274640135.82653,   0.00000,   0.00000,   0.00000,-279644892.65216,   0.00000
200345644.53550,57033637.39370,-47547869.47913,   0.00080,  -0.00013,  -0.00062,196843013.36565,   0.00000,274640135.82653,   0.00000,   0.00000,   0.00000,-277797122.46088,   0.00000
203044418.75637,58478019.52548,-47286919.30001,   0.00081,  -0.00013,  -0.00061,198698861.29975,   0.00000,274640135.82653,   0.00000,   0.00000,   0.00000,-275941274.52678,   0.00000
205750060.08721,59938424.91387,-47025969.12090,   0.00082,  -0.00013,  -0.00061,200568424.22167,   0.00000,274640135.82653,   0.00000,   0.00000,   0.00000,-274071711.60486,   0.00000
208471724.67467,61405697.41224,-46765018.94178,   0.00083,  -0.00013,  -0.00061,202461524.76214,   0.00000,274640135.82653,   0.00000,   0.00000,   0.00000,-272178611.06439,   0.00000
211193389.26213,62872969.91061,-46504068.76266,   0.00084,  -0.00013,  -0.00060,204365328.85853,   0.00000,274640135.82653,   0.00000,   0.00000,   0.00000,-270274806.96800,   0.00000
213915053.84959,64340242.40898,-46238540.51023,   0.00085,  -0.00012,  -0.00060,206276461.38775,   0.00000,274640135.82653,   0.00000,   0.00000,   0.00000,-268363674.43878,   0.00000
216627562.29041,65816671.05399,-45973012.25779,   0.00086,  -0.00012,  -0.00060,208187856.25532,   0.00000,274640135.82653,   0.00000,   0.00000,   0.00000,-266452279.57121,   0.00000
219349226.87787,67283943.55236,-45707484.00536,   0.00087,  -0.00012,  -0.00059,210119141.61892,   0.00000,274640135.82653,   0.00000,   0.00000,   0.00000,-264520994.20761,   0.00000
222077758.57530,68767239.30734,-45441955.75292,   0.00088,  -0.00012,  -0.00059,212062971.10752,   0.00000,274640135.82653,   0.00000,   0.00000,   0.00000,-262577164.71901,   0.00000
224822313.52935,70257402.17230,-45171849.42717,   0.00089,  -0.00012,  -0.00059,214026240.12902,   0.00000,274640135.82653,   0.00000,   0.00000,   0.00000,-260613895.69751,   0.00000
227550845.22679,71740697.92728,-44901743.10142,   0.00090,  -0.00012,  -0.00058,215986013.55792,   0.00000,274640135.82653,   0.00000,   0.00000,   0.00000,-258654122.26861,   0.00000
230279376.92422,73223993.68226,-44631636.77566,   0.00090,  -0.00012,  -0.00058,217954853.23837,   0.00000,274640135.82653,   0.00000,   0.00000,   0.00000,-256685282.58816,   0.00000
233030798.98825,74730179.80383,-44356952.37659,   0.00091,  -0.00011,  -0.00058,219945759.71091,   0.00000,274640135.82653,   0.00000,   0.00000,   0.00000,-254694376.11562,   0.00000
235766197.79566,76229498.81542,-44082267.97752,   0.00092,  -0.00011,  -0.00057,221932504.30529,   0.00000,274640135.82653,   0.00000,   0.00000,   0.00000,-252707631.52124,   0.00000
238517619.85968,77735684.93699,-43812161.65177,   0.00093,  -0.00011,  -0.00057,223943469.81464,   0.00000,274640135.82653,   0.00000,   0.00000,   0.00000,-250696666.01189,   0.00000
241269041.92371,79241871.05856,-43532899.17938,   0.00094,  -0.00011,  -0.00057,225957417.09886,   0.00000,274640135.82653,   0.00000,   0.00000,   0.00000,-248682718.72767,   0.00000
244004440.73112,80741190.07016,-43258214.78031,   0.00095,  -0.00011,  -0.00056,227969114.97252,   0.00000,274640135.82653,   0.00000,   0.00000,   0.00000,-246671020.85401,   0.00000
246755862.79514,82247376.19173,-42978952.30792,   0.00096,  -0.00011,  -0.00056,229999207.52870,   0.00000,274640135.82653,   0.00000,   0.00000,   0.00000,-244640928.29783,   0.00000
249514151.96914,83769585.56991,-42699689.83553,   0.00097,  -0.00011,  -0.00056,232040403.66131,   0.00000,274640135.82653,   0.00000,   0.00000,   0.00000,-242599732.16522,   0.00000
252272441.14314,85291794.94810,-42420427.36314,   0.00098,  -0.00010,  -0.00055,234089263.95238,   0.00000,274640135.82653,   0.00000,   0.00000,   0.00000,-240550871.87415,   0.00000
255030730.31715,86814004.32628,-42141164.89076,   0.00099,  -0.00010,  -0.00055,236145588.91333,   0.00000,274640135.82653,   0.00000,   0.00000,   0.00000,-238494546.91320,   0.00000
257789019.49115,88336213.70446,-41861902.41837,   0.00100,  -0.00010,  -0.00054,238209185.22943,   0.00000,274640135.82653,   0.00000,   0.00000,   0.00000,-236430950.59710,   0.00000
260547308.66515,89858423.08265,-41578061.87266,   0.00101,  -0.00010,  -0.00054,240277488.84100,   0.00000,274640135.82653,   0.00000,   0.00000,   0.00000,-234362646.98553,   0.00000
263312464.94913,91396655.71744,-41294221.32695,   0.00102,  -0.00010,  -0.00054,242356271.45558,   0.00000,274640135.82653,   0.00000,   0.00000,   0.00000,-232283864.37095,   0.00000
266077621.23310,92934888.35224,-41010380.78125,   0.00103,  -0.00010,  -0.00053,244441923.50587,   0.00000,274640135.82653,   0.00000,   0.00000,   0.00000,-230198212.32066,   0.00000
268835910.40711,94457097.73042,-40726540.23554,   0.00104,  -0.00009,  -0.00053,246530694.66493,   0.00000,274640135.82653,   0.00000,   0.00000,   0.00000,-228109441.16160,   0.00000
271601066.69108,95995330.36522,-40438121.61652,   0.00105,  -0.00009,  -0.00053,248627298.97323,   0.00000,274640135.82653,   0.00000,   0.00000,   0.00000,-226012836.85330,   0.00000
274373090.08504,97549586.25662,-40154281.07081,   0.00106,  -0.00009,  -0.00052,250736179.65672,   0.00000,274640135.82653,   0.00000,   0.00000,   0.00000,-223903956.16981,   0.00000
277138246.36902,99087818.89142,-39865862.45179,   0.00107,  -0.00009,  -0.00052,252845486.52513,   0.00000,274640135.82653,   0.00000,   0.00000,   0.00000,-221794649.30140,   0.00000
279910269.76297,100642074.78283,-39577443.83276,   0.00108,  -0.00009,  -0.00051,254964621.49563,   0.00000,274640135.82653,   0.00000,   0.00000,   0.00000,-219675514.33090,   0.00000
282675426.04695,102180307.41762,-39289025.21374,   0.00109,  -0.00009,  -0.00051,257086040.63355,   0.00000,274640135.82653,   0.00000,   0.00000,   0.00000,-217554095.19298,   0.00000
285447449.44090,103734563.30903,-38996028.52140,   0.00110,  -0.00008,  -0.00051,259214988.42298,   0.00000,274640135.82653,   0.00000,   0.00000,   0.00000,-215425147.40354,   0.00000
288219472.83486,105288819.20044,-38707609.90237,   0.00111,  -0.00008,  -0.00050,261351772.89916,   0.00000,274640135.82653,   0.00000,   0.00000,   0.00000,-213288362.92737,   0.00000
290998363.33879,106859098.34846,-38414613.21003,   0.00112,  -0.00008,  -0.00050,263495994.58563,   0.00000,274640135.82653,   0.00000,   0.00000,   0.00000,-211144141.24090,   0.00000
293770386.73274,108413354.23987,-38126194.59101,   0.00113,  -0.00008,  -0.00050,265643901.94126,   0.00000,274640135.82653,   0.00000,   0.00000,   0.00000,-208996233.88527,   0.00000
296549277.23667,109983633.38789,-37833197.89866,   0.00113,  -0.00008,  -0.00049,267799102.02141,   0.00000,274640135.82653,   0.00000,   0.00000,   0.00000,-206841033.80512,   0.00000
299328167.74061,111553912.53591,-37540201.20632,   0.00114,  -0.00008,  -0.00049,269959625.27975,   0.00000,274640135.82653,   0.00000,   0.00000,   0.00000,-204680510.54678,   0.00000
302100191.13456,113108168.42732,-37247204.51398,   0.00115,  -0.00007,  -0.00048,272121382.25444,   0.00000,274640135.82653,   0.00000,   0.00000,   0.00000,-202518753.57209,   0.00000
304885948.74847,114694470.83195,-36954207.82164,   0.00116,  -0.00007,  -0.00048,274296137.87847,   0.00000,274640135.82653,   0.00000,   0.00000,   0.00000,-200343997.94806,   0.00000
307664839.25240,116264749.97997,-36656633.05598,   0.00117,  -0.00007,  -0.00048,276470063.52914,   0.00000,274640135.82653,   0.00000,   0.00000,   0.00000,-198170072.29739,   0.00000
310443729.75633,117835029.12799,-36363636.36364,   0.00118,  -0.00007,  -0.00047,278650676.73512,   0.00000,274640135.82653,   0.00000,   0.00000,   0.00000,-195989459.09141,   0.00000
313229487.37024,119421331.53262,-36066061.59798,   0.00119,  -0.00007,  -0.00047,280838327.37677,   0.00000,274640135.82653,   0.00000,   0.00000,   0.00000,-193801808.44976,   0.00000
315999221.72754,121000766.82728,-35773064.90563,   0.00120,  -0.00007,  -0.00047,283018872.29931,   0.00000,274640135.82653,   0.00000,   0.00000,   0.00000,-191621263.52722,   0.00000
318784979.34144,122587069.23191,-35475490.13997,   0.00121,  -0.00006,  -0.00046,285215826.11416,   0.00000,274640135.82653,   0.00000,   0.00000,   0.00000,-189424309.71236,   0.00000
321554713.69874,124166504.52657,-35177915.37431,   0.00122,  -0.00006,  -0.00046,287403700.61024,   0.00000,274640135.82653,   0.00000,   0.00000,   0.00000,-187236435.21629,   0.00000
324340471.31265,125752806.93120,-34880340.60865,   0.00123,  -0.00006,  -0.00045,289609564.06231,   0.00000,274640135.82653,   0.00000,   0.00000,   0.00000,-185030571.76422,   0.00000
327117072.77992,127348265.48247,-34582765.84299,   0.00124,  -0.00006,  -0.00045,291810334.42516,   0.00000,274640135.82653,   0.00000,   0.00000,   0.00000,-182829801.40137,   0.00000
329902830.39383,128934567.88710,-34285191.07734,   0.00125,  -0.00006,  -0.00045,294024734.33057,   0.00000,274640135.82653,   0.00000,   0.00000,   0.00000,-180615401.49596,   0.00000
332679431.86110,130530026.43837,-33987616.31168,   0.00126,  -0.00005,  -0.00044,296233879.45464,   0.00000,274640135.82653,   0.00000,   0.00000,   0.00000,-178406256.37189,   0.00000
335456033.32837,132125484.98964,-33690041.54602,   0.00127,  -0.00005,  -0.00044,298447080.20361,   0.00000,274640135.82653,   0.00000,   0.00000,   0.00000,-176193055.62292,   0.00000
338232634.79565,133720943.54091,-33387888.70704,   0.00128,  -0.00005,  -0.00043,300662721.76313,   0.00000,274640135.82653,   0.00000,   0.00000,   0.00000,-173977414.06340,   0.00000
341009236.26292,135316402.09218,-33090313.94138,   0.00129,  -0.00005,  -0.00043,302883792.22188,   0.00000,274640135.82653,   0.00000,   0.00000,   0.00000,-171756343.60465,   0.00000
343792704.84017,136927883.90006,-32792739.17572,   0.00130,  -0.00005,  -0.00043,305113016.67508,   0.00000,274640135.82653,   0.00000,   0.00000,   0.00000,-169527119.15145,   0.00000
346569306.30744,138523342.45133,-32490586.33674,   0.00131,  -0.00005,  -0.00042,307340163.95369,   0.00000,274640135.82653,   0.00000,   0.00000,   0.00000,-167299971.87284,   0.00000
349352774.88469,140134824.25921,-32193011.57108,   0.00132,  -0.00004,  -0.00042,309576824.97065,   0.00000,274640135.82653,   0.00000,   0.00000,   0.00000,-165063310.85588,   0.00000
352120220.20533,141739438.95711,-31890858.73210,   0.00133,  -0.00004,  -0.00041,311801982.33491,   0.00000,274640135.82653,   0.00000,   0.00000,   0.00000,-162838153.49162,   0.00000
354903688.78258,143350920.76500,-31593283.96644,   0.00134,  -0.00004,  -0.00041,314045778.51187,   0.00000,274640135.82653,   0.00000,   0.00000,   0.00000,-160594357.31466,   0.00000
357671134.10321,144955535.46290,-31291131.12747,   0.00134,  -0.00004,  -0.00041,316277949.48458,   0.00000,274640135.82653,   0.00000,   0.00000,   0.00000,-158362186.34195,   0.00000
360438579.42385,146560150.16080,-30988978.28849,   0.00135,  -0.00004,  -0.00040,318513524.28779,   0.00000,274640135.82653,   0.00000,   0.00000,   0.00000,-156126611.53874,   0.00000
363212891.85446,148180788.11532,-30691403.52283,   0.00136,  -0.00003,  -0.00040,320758265.61092,   0.00000,274640135.82653,   0.00000,   0.00000,   0.00000,-153881870.21561,   0.00000
365987204.28508,149801426.06984,-30389250.68385,   0.00137,  -0.00003,  -0.00040,323004977.51447,   0.00000,274640135.82653,   0.00000,   0.00000,   0.00000,-151635158.31206,   0.00000
368754649.60571,151406040.76774,-30091675.91819,   0.00138,  -0.00003,  -0.00039,325251635.12886,   0.00000,274640135.82653,   0.00000,   0.00000,   0.00000,-149388500.69767,   0.00000
371528962.03633,153026678.72226,-29789523.07921,   0.00139,  -0.00003,  -0.00039,327504714.43762,   0.00000,274640135.82653,   0.00000,   0.00000,   0.00000,-147135421.38891,   0.00000
374294118.32030,154656472.82341,-29487370.24023,   0.00140,  -0.00003,  -0.00038,329751752.79055,   0.00000,274640135.82653,   0.00000,   0.00000,   0.00000,-144888383.03598,   0.00000
377068430.75092,156277110.77793,-29189795.47457,   0.00141,  -0.00002,  -0.00038,332012205.16463,   0.00000,274640135.82653,   0.00000,   0.00000,   0.00000,-142627930.66190,   0.00000
379826719.92492,157890881.62247,-28887642.63560,   0.00142,  -0.00002,  -0.00038,334260646.33285,   0.00000,274640135.82653,   0.00000,   0.00000,   0.00000,-140379489.49368,   0.00000
382591876.20890,159520675.72362,-28590067.86994,   0.00143,  -0.00002,  -0.00037,336517831.69332,   0.00000,274640135.82653,   0.00000,   0.00000,   0.00000,-138122304.13321,   0.00000
385357032.49287,161150469.82477,-28287915.03096,   0.00144,  -0.00002,  -0.00037,338776722.91695,   0.00000,274640135.82653,   0.00000,   0.00000,   0.00000,-135863412.90958,   0.00000
388115321.66688,162764240.66931,-27990340.26530,   0.00145,  -0.00002,  -0.00036,341034870.32048,   0.00000,274640135.82653,   0.00000,   0.00000,   0.00000,-133605265.50605,   0.00000
390864454.69424,164387167.66049,-27688187.42632,   0.00146,  -0.00001,  -0.00036,343285550.75532,   0.00000,274640135.82653,   0.00000,   0.00000,   0.00000,-131354585.07121,   0.00000
393636478.08820,166032985.01825,-27390612.66066,   0.00147,  -0.00001,  -0.00036,345558571.75372,   0.00000,274640135.82653,   0.00000,   0.00000,   0.00000,-129081564.07280,   0.00000
396385611.11556,167655912.00943,-27088459.82168,   0.00148,  -0.00001,  -0.00035,347814635.05538,   0.00000,274640135.82653,   0.00000,   0.00000,   0.00000,-126825500.77115,   0.00000
399134744.14293,169278839.00061,-26790885.05602,   0.00149,  -0.00001,  -0.00035,350074360.36986,   0.00000,274640135.82653,   0.00000,   0.00000,   0.00000,-124565775.45667,   0.00000
401890744.28027,170917789.24839,-26493310.29036,   0.00150,  -0.00001,  -0.00034,352341411.07505,   0.00000,274640135.82653,   0.00000,   0.00000,   0.00000,-122298724.75148,   0.00000
404646744.41761,172556739.49618,-26191157.45139,   0.00150,  -0.00000,  -0.00034,354609959.58208,   0.00000,274640135.82653,   0.00000,   0.00000,   0.00000,-120030176.24445,   0.00000
407402744.55495,174195689.74397,-25893582.68573,   0.00151,  -0.00000,  -0.00034,356882004.83893,   0.00000,274640135.82653,   0.00000,   0.00000,   0.00000,-117758130.98760,   0.00000
410142721.43568,175827772.88178,-25596007.92007,   0.00152,   0.00000,  -0.00033,359142650.28517,   0.00000,274640135.82653,   0.00000,   0.00000,   0.00000,-115497485.54136,   0.00000
412882698.31641,177459856.01959,-25298433.15441,   0.00153,   0.00000,  -0.00033,361405659.93289,   0.00000,274640135.82653,   0.00000,   0.00000,   0.00000,-113234475.89364,   0.00000
415622675.19714,179091939.15741,-25000858.38875,   0.00154,   0.00000,  -0.00033,363670989.64705,   0.00000,274640135.82653,   0.00000,   0.00000,   0.00000,-110969146.17948,   0.00000
418369519.18785,180740045.55183,-24703283.62309,   0.00155,   0.00001,  -0.00032,365943505.69634,   0.00000,274640135.82653,   0.00000,   0.00000,   0.00000,-108696630.13019,   0.00000
421109496.06858,182372128.68964,-24410286.93075,   0.00156,   0.00001,  -0.00032,368214274.73225,   0.00000,274640135.82653,   0.00000,   0.00000,   0.00000,-106425861.09428,   0.00000
423840316.80267,184013367.97409,-24112712.16509,   0.00157,   0.00001,  -0.00031,370477419.32048,   0.00000,274640135.82653,   0.00000,   0.00000,   0.00000,-104162716.50605,   0.00000
426587160.79338,185661474.36851,-23815137.39943,   0.00158,   0.00001,  -0.00031,372756582.64735,   0.00000,274640135.82653,   0.00000,   0.00000,   0.00000,-101883553.17918,   0.00000
429317981.52747,187302713.65296,-23522140.70708,   0.00159,   0.00002,  -0.00031,375024914.04547,   0.00000,274640135.82653,   0.00000,   0.00000,   0.00000,-99615221.78106,   0.00000
432032779.00495,188937085.82743,-23229144.01474,   0.00160,   0.00002,  -0.00030,377281472.75417,   0.00000,274640135.82653,   0.00000,   0.00000,   0.00000,-97358663.07236,   0.00000
434763599.73905,190578325.11188,-22931569.24908,   0.00161,   0.00002,  -0.00030,379553076.13995,   0.00000,274640135.82653,   0.00000,   0.00000,   0.00000,-95087059.68657,   0.00000
437501287.58312,192235587.65294,-22638572.55674,   0.00162,   0.00002,  -0.00029,381832549.13891,   0.00000,274640135.82653,   0.00000,   0.00000,   0.00000,-92807586.68762,   0.00000
440222952.17058,193885983.08402,-22345575.86440,   0.00162,   0.00002,  -0.00029,384100164.64280,   0.00000,274640135.82653,   0.00000,   0.00000,   0.00000,-90539971.18373,   0.00000
442937749.64806,195520355.25849,-22057157.24537,   0.00163,   0.00003,  -0.00029,386365458.82409,   0.00000,274640135.82653,   0.00000,   0.00000,   0.00000,-88274677.00244,   0.00000
445659414.23552,197170750.68957,-21764160.55303,   0.00164,   0.00003,  -0.00028,388636916.95627,   0.00000,274640135.82653,   0.00000,   0.00000,   0.00000,-86003218.87026,   0.00000
448365055.56636,198814279.01068,-21471163.86069,   0.00165,   0.00003,  -0.00028,390896403.11488,   0.00000,274640135.82653,   0.00000,   0.00000,   0.00000,-83743732.71165,   0.00000
451070696.89721,200457807.33178,-21182745.24167,   0.00166,   0.00003,  -0.00028,393158478.67735,   0.00000,274640135.82653,   0.00000,   0.00000,   0.00000,-81481657.14918,   0.00000
453792361.48467,202108202.76287,-20894326.62264,   0.00167,   0.00003,  -0.00027,395436205.99754,   0.00000,274640135.82653,   0.00000,   0.00000,   0.00000,-79203929.82899,   0.00000
456488846.66888,203760887.23061,-20605908.00362,   0.00168,   0.00004,  -0.00027,397693103.06305,   0.00000,274640135.82653,   0.00000,   0.00000,   0.00000,-76947032.76348,   0.00000
459194487.99972,205404415.55171,-20317489.38459,   0.00169,   0.00004,  -0.00026,399960469.83420,   0.00000,274640135.82653,   0.00000,   0.00000,   0.00000,-74679665.99233,   0.00000
461906996.44055,207063967.12943,-20029070.76557,   0.00170,   0.00004,  -0.00026,402234702.31133,   0.00000,274640135.82653,   0.00000,   0.00000,   0.00000,-72405433.51520,   0.00000
464603481.62476,208716651.59718,-19740652.14654,   0.00171,   0.00004,  -0.00026,404496764.91684,   0.00000,274640135.82653,   0.00000,   0.00000,   0.00000,-70143370.90969,   0.00000
467299966.80897,210369336.06492,-19456811.60084,   0.00172,   0.00005,  -0.00025,406761152.67846,   0.00000,274640135.82653,   0.00000,   0.00000,   0.00000,-67878983.14807,   0.00000
469980428.73657,212015153.42268,-19172971.05513,   0.00172,   0.00005,  -0.00025,409013281.48271,   0.00000,274640135.82653,   0.00000,   0.00000,   0.00000,-65626854.34382,   0.00000
472676913.92078,213667837.89042,-18889130.50943,   0.00173,   0.00005,  -0.00025,411280869.28336,   0.00000,274640135.82653,   0.00000,   0.00000,   0.00000,-63359266.54317,   0.00000
475357375.84837,215313655.24819,-18605289.96372,   0.00174,   0.00005,  -0.00024,413536142.56869,   0.00000,274640135.82653,   0.00000,   0.00000,   0.00000,-61103993.25784,   0.00000
478044704.88595,216975495.86257,-18321449.41801,   0.00175,   0.00006,  -0.00024,415798202.63383,   0.00000,274640135.82653,   0.00000,   0.00000,   0.00000,-58841933.19270,   0.00000
480725166.81355,218621313.22033,-18042186.94562,   0.00176,   0.00006,  -0.00023,418057123.92518,   0.00000,274640135.82653,   0.00000,   0.00000,   0.00000,-56583011.90135,   0.00000
483396472.59451,220276286.72473,-17762924.47324,   0.00177,   0.00006,  -0.00023,420308906.24471,   0.00000,274640135.82653,   0.00000,   0.00000,   0.00000,-54331229.58182,   0.00000
486067778.37547,221931260.22913,-17483662.00085,   0.00178,   0.00006,  -0.00023,422562149.44194,   0.00000,274640135.82653,   0.00000,   0.00000,   0.00000,-52077986.38459,   0.00000
488739084.15643,223586233.73353,-17204399.52846,   0.00179,   0.00006,  -0.00022,424816830.27124,   0.00000,274640135.82653,   0.00000,   0.00000,   0.00000,-49823305.55529,   0.00000
491410389.93739,225241207.23793,-16925137.05607,   0.00180,   0.00007,  -0.00022,427072925.96319,   0.00000,274640135.82653,   0.00000,   0.00000,   0.00000,-47567209.86334,   0.00000
494065672.46174,226889313.63236,-16650452.65700,   0.00181,   0.00007,  -0.00022,429317063.19751,   0.00000,274640135.82653,   0.00000,   0.00000,   0.00000,-45323072.62902,   0.00000
496736978.24271,228544287.13676,-16375768.25793,   0.00181,   0.00007,  -0.00021,431576430.66751,   0.00000,274640135.82653,   0.00000,   0.00000,   0.00000,-43063705.15902,   0.00000
499383104.62042,230201549.67782,-16101083.85886,   0.00182,   0.00007,  -0.00021,433814717.12258,   0.00000,274640135.82653,   0.00000,   0.00000,   0.00000,-40825418.70395,   0.00000
502038387.14477,231849656.07224,-15826399.45979,   0.00183,   0.00008,  -0.00021,436062842.43529,   0.00000,274640135.82653,   0.00000,   0.00000,   0.00000,-38577293.39124,   0.00000
504684513.52248,233506918.61330,-15556293.13403,   0.00184,   0.00008,  -0.00020,438304241.79265,   0.00000,274640135.82653,   0.00000,   0.00000,   0.00000,-36335894.03388,   0.00000
507346663.15681,235171048.26434,-15286186.80828,   0.00185,   0.00008,  -0.00020,440560795.43181,   0.00000,274640135.82653,   0.00000,   0.00000,   0.00000,-34079340.39472,   0.00000
509976766.27791,236821443.69542,-15016080.48253,   0.00186,   0.00008,  -0.00020,442790822.30256,   0.00000,274640135.82653,   0.00000,   0.00000,   0.00000,-31849313.52397,   0.00000
512622892.65563,238478706.23648,-14745974.15678,   0.00187,   0.00009,  -0.00019,445035965.32935,   0.00000,274640135.82653,   0.00000,   0.00000,   0.00000,-29604170.49718,   0.00000
515252995.77673,240129101.66756,-14480445.90434,   0.00188,   0.00009,  -0.00019,447268874.45690,   0.00000,274640135.82653,   0.00000,   0.00000,   0.00000,-27371261.36963,   0.00000
517883098.89783,241779497.09865,-14214917.65191,   0.00188,   0.00009,  -0.00018,449502954.14540,   0.00000,274640135.82653,   0.00000,   0.00000,   0.00000,-25137181.68113,   0.00000
520520069.12891,243445915.78634,-13949389.39947,   0.00189,   0.00009,  -0.00018,451743652.70429,   0.00000,274640135.82653,   0.00000,   0.00000,   0.00000,-22896483.12224,   0.00000
523150172.25001,245096311.21742,-13688439.22035,   0.00190,   0.00010,  -0.00018,453980448.00545,   0.00000,274640135.82653,   0.00000,   0.00000,   0.00000,-20659687.82108,   0.00000
525771119.22447,246755862.79514,-13422910.96792,   0.00191,   0.00010,  -0.00017,456209538.58275,   0.00000,274640135.82653,   0.00000,   0.00000,   0.00000,-18430597.24378,   0.00000
528392066.19894,248415414.37286,-13161960.78880,   0.00192,   0.00010,  -0.00017,458440150.16063,   0.00000,274640135.82653,   0.00000,   0.00000,   0.00000,-16199985.66590,   0.00000
530996989.91679,250068098.84060,-12905588.68300,   0.00193,   0.00010,  -0.00017,460658346.56244,   0.00000,274640135.82653,   0.00000,   0.00000,   0.00000,-13981789.26409,   0.00000
533617936.89126,251727650.41832,-12644638.50389,   0.00194,   0.00010,  -0.00016,462891114.33596,   0.00000,274640135.82653,   0.00000,   0.00000,   0.00000,-11749021.49057,   0.00000
536222860.60911,253380334.88606,-12388266.39809,   0.00195,   0.00011,  -0.00016,465111416.52849,   0.00000,274640135.82653,   0.00000,   0.00000,   0.00000,-9528719.29803,   0.00000
538811761.07035,255026152.24383,-12136472.36560,   0.00195,   0.00011,  -0.00016,467319209.82448,   0.00000,274640135.82653,   0.00000,   0.00000,   0.00000,-7320926.00205,   0.00000
541423551.89818,256694859.96818,-11880100.25981,   0.00196,   0.00011,  -0.00015,469547102.20882,   0.00000,274640135.82653,   0.00000,   0.00000,   0.00000,-5093033.61771,   0.00000
544012452.35942,258340677.32595,-11628306.22732,   0.00197,   0.00011,  -0.00015,471756887.58534,   0.00000,274640135.82653,   0.00000,   0.00000,   0.00000,-2883248.24119,   0.00000
546608219.93064,260002517.94032,-11376512.19484,   0.00198,   0.00012,  -0.00015,473973223.93925,   0.00000,274640135.82653,   0.00000,   0.00000,   0.00000,-666911.88728,   0.00000
547388877.94593,260498798.32316,-11301966.60187,   0.00198,   0.00012,  -0.00015,474640143.74423,   0.00000,274640135.82653,   0.00000,   0.00000,   0.00000,  -0.51984,   0.00000
547428017.58303,260935451.75525,-11088416.29561,   0.00199,   0.00012,  -0.00014,474647475.79012,   0.00001,274647477.82389,   0.00001,  -0.00000,  -0.00000,  -2.03378,   1.00000
547482856.07754,261570215.43319,-10784444.15429,   0.00200,   0.00012,  -0.00014,474657939.36008,   0.00002,274657947.04000,   0.00002,  -0.00000,  -0.00000,  -7.67993,   1.00000
547535921.22255,262201232.58917,-10482024.33173,   0.00201,   0.00012,  -0.00014,474668406.86018,   0.00003,274668413.37295,   0.00003,  -0.00000,  -0.00000,  -6.51278,   1.00000
547586891.63508,262828382.74193,-10185698.04462,   0.00201,   0.00013,  -0.00014,474678871.30158,   0.00004,274678878.27626,   0.00004,  -0.00000,  -0.00000,  -6.97467,   1.00000
547636045.84867,263451449.10461,-9891216.27974,   0.00202,   0.00013,  -0.00013,474689270.32936,   0.00004,274689274.44253,   0.00004,  -0.00000,  -0.00000,  -4.11317,   1.00000
547683862.79967,264084150.09452,-9598105.62284,   0.00203,   0.00013,  -0.00013,474699689.66602,   0.00005,274699694.53465,   0.00005,  -0.00000,  -0.00000,  -4.86863,   1.00000
547729337.42881,264699714.15720,-9311168.80063,   0.00204,   0.00013,  -0.00013,474710080.25477,   0.00006,274710086.22992,   0.00006,  -0.00000,  -0.00000,  -5.97515,   1.00000
547773511.26642,265324932.22827,-9025576.19661,   0.00205,   0.00014,  -0.00012,474720499.48461,   0.00007,274720501.85937,   0.00007,  -0.00000,  -0.00001,  -2.37477,   1.00000
547815652.13880,265932911.70630,-8741856.93437,   0.00206,   0.00014,  -0.00012,474730819.51067,   0.00008,274730822.04579,   0.00008,  -0.00000,  -0.00001,  -2.53512,   1.00000
547856211.32263,266550454.18293,-8464016.42273,   0.00206,   0.00014,  -0.00012,474741160.71490,   0.00009,274741167.55172,   0.00009,  -0.00000,  -0.00001,  -6.83681,   1.00000
547895208.10337,267164384.10520,-8187596.50467,   0.00207,   0.00014,  -0.00011,474751505.08386,   0.00010,274751510.09454,   0.00010,  -0.00000,  -0.00001,  -5.01068,   1.00000
547932566.58498,267774472.81490,-7912853.41525,   0.00208,   0.00015,  -0.00011,474761783.85355,   0.00011,274761784.25124,   0.00011,  -0.00000,  -0.00001,  -0.39769,   1.00000
547968135.96517,268380894.48943,-7644059.97429,   0.00209,   0.00015,  -0.00011,474772049.55297,   0.00012,274772056.64188,   0.00012,  -0.00000,  -0.00001,  -7.08891,   1.00000
548002228.33280,268983789.07116,-7376637.77567,   0.00210,   0.00015,  -0.00010,474782318.11960,   0.00013,274782326.06975,   0.00013,  -0.00000,  -0.00001,  -7.95015,   1.00000
548034628.33764,269583076.44401,-7115132.44163,   0.00211,   0.00016,  -0.00010,474792589.64949,   0.00014,274792593.51934,   0.00014,  -0.00000,  -0.00001,  -3.86985,   1.00000
548065666.37089,270191844.63390,-6855095.71116,   0.00211,   0.00016,  -0.00010,474802812.96092,   0.00015,274802820.09561,   0.00015,  -0.00000,  -0.00001,  -7.13469,   1.00000
548095132.44757,270783957.76816,-6596477.49792,   0.00212,   0.00016,  -0.00010,474813013.03338,   0.00016,274813016.31559,   0.00016,  -0.00000,  -0.00001,  -3.28222,   1.00000
548123032.20524,271385526.23831,-6343849.44018,   0.00213,   0.00016,  -0.00009,474823165.00390,   0.00017,274823172.80977,   0.00017,  -0.00000,  -0.00001,  -7.80588,   1.00000
548149442.29489,271983655.40313,-6096855.12581,   0.00214,   0.00017,  -0.00009,474833387.41012,   0.00018,274833392.24331,   0.00018,  -0.00000,  -0.00001,  -4.83318,   1.00000
548174610.42712,272578305.07888,-5846766.82207,   0.00215,   0.00017,  -0.00009,474843536.08943,   0.00019,274843542.80212,   0.00019,  -0.00000,  -0.00001,  -6.71269,   1.00000
548198168.89857,273169366.22047,-5602690.02804,   0.00216,   0.00017,  -0.00008,474853618.57150,   0.00019,274853626.19805,   0.00019,  -0.00000,  -0.00001,  -7.62655,   1.00000
548220324.95946,273757018.48094,-5364224.91842,   0.00216,   0.00017,  -0.00008,474863762.52732,   0.00020,274863772.32340,   0.00020,  -0.00000,  -0.00001,  -9.79609,   1.00000
548241130.44069,274341248.94959,-5127147.08141,   0.00217,   0.00018,  -0.00008,474873840.55458,   0.00021,274873850.49915,   0.00021,  -0.00000,  -0.00001,  -9.94457,   1.00000
548260689.18024,274922134.70931,-4891273.40249,   0.00218,   0.00018,  -0.00008,474883920.63049,   0.00022,274883925.65247,   0.00022,  -0.00000,  -0.00001,  -5.02198,   1.00000
548278768.84419,275512620.35125,-4661239.85655,   0.00219,   0.00018,  -0.00007,474893960.29208,   0.00023,274893961.47161,   0.00023,  -0.00000,  -0.00001,  -1.17952,   1.00000
548295710.86635,276086729.84703,-4432289.33563,   0.00220,   0.00018,  -0.00007,474904026.84762,   0.00024,274904031.19212,   0.00024,  -0.00000,  -0.00001,  -4.34451,   1.00000
548311130.54659,276670529.33678,-4209277.30329,   0.00220,   0.00019,  -0.00007,474913993.26768,   0.00025,274913996.95927,   0.00025,  -0.00000,  -0.00001,  -3.69160,   1.00000
548325508.09228,277238011.13126,-3987316.67564,   0.00221,   0.00019,  -0.00007,474923994.34799,   0.00026,274923996.39234,   0.00026,  -0.00000,  -0.00001,  -2.04435,   1.00000
548338465.45675,277815216.51850,-3771106.54007,   0.00222,   0.00019,  -0.00006,474933954.83583,   0.00027,274933956.72720,   0.00027,  -0.00000,  -0.00001,  -1.89137,   1.00000
548350281.56395,278389146.94917,-3555990.46840,   0.00223,   0.00019,  -0.00006,474943908.81562,   0.00028,274943914.02355,   0.00028,  -0.00000,  -0.00001,  -5.20793,   1.00000
548360982.18488,278959823.83651,-3341964.21015,   0.00224,   0.00020,  -0.00006,474953864.37305,   0.00029,274953868.24444,   0.00029,  -0.00000,  -0.00001,  -3.87139,   1.00000
548370395.01040,279527339.96161,-3133681.20097,   0.00224,   0.00020,  -0.00006,474963752.25119,   0.00030,274963755.40275,   0.00029,  -0.00000,  -0.00001,  -3.15156,   1.00000
548378712.33594,280091472.34508,-2930905.81462,   0.00225,   0.00020,  -0.00005,474973698.96603,   0.00030,274973704.31680,   0.00030,  -0.00000,  -0.00001,  -5.35077,   1.00000
548385746.20955,280665628.63734,-2724747.47316,   0.00226,   0.00021,  -0.00005,474983541.07792,   0.00031,274983549.29482,   0.00031,  -0.00000,  -0.00002,  -8.21690,   1.00000
548391807.03146,281223459.51100,-2528689.33850,   0.00227,   0.00021,  -0.00005,474993420.86707,   0.00032,274993427.91103,   0.00032,  -0.00000,  -0.00002,  -7.04396,   1.00000
548396582.45249,281791176.34755,-2333666.12132,   0.00228,   0.00021,  -0.00005,475003261.70601,   0.00033,275003267.50770,   0.00033,  -0.00000,  -0.00002,  -5.80170,   1.00000
548400557.47363,282342891.42047,-2139658.37965,   0.00228,   0.00021,  -0.00004,475013068.38160,   0.00034,275013075.59605,   0.00034,  -0.00000,  -0.00002,  -7.21445,   1.00000
548403257.15644,282904288.24709,-1951153.54527,   0.00229,   0.00022,  -0.00004,475022901.16438,   0.00035,275022909.33028,   0.00035,  -0.00000,  -0.00002,  -8.16590,   1.00000
548404899.40513,283462782.54545,-1763660.11172,   0.00230,   0.00022,  -0.00004,475032667.84927,   0.00036,275032675.81142,   0.00036,  -0.00000,  -0.00002,  -7.96215,   1.00000
548405527.10866,284018137.01037,-1581664.05124,   0.00231,   0.00022,  -0.00004,475042433.01213,   0.00037,275042439.40923,   0.00037,  -0.00000,  -0.00002,  -6.39709,   1.00000
548405213.07024,284570394.17454,-1400583.79157,   0.00232,   0.00022,  -0.00003,475052191.04575,   0.00038,275052199.88883,   0.00038,  -0.00000,  -0.00002,  -8.84308,   1.00000
548403859.21453,285119855.37003,-1225011.08390,   0.00232,   0.00023,  -0.00003,475061888.24244,   0.00039,275061893.41335,   0.00038,  -0.00000,  -0.00002,  -5.17091,   1.00000
548401245.58794,285678977.48566,-1054856.93652,   0.00233,   0.00023,  -0.00003,475071610.83115,   0.00039,275071612.67231,   0.00039,  -0.00000,  -0.00002,  -1.84116,   1.00000
548398089.25190,286222299.83346,-881016.52494,   0.00234,   0.00023,  -0.00003,475081293.52510,   0.00040,275081299.89901,   0.00040,  -0.00000,  -0.00002,  -6.37391,   1.00000
548394020.45937,286762593.61564,-717158.48099,   0.00235,   0.00024,  -0.00003,475090978.75184,   0.00041,275090984.17030,   0.00041,  -0.00000,  -0.00002,  -5.41846,   1.00000
548388651.90445,287312941.71848,-554133.38982,   0.00236,   0.00024,  -0.00002,475100625.57763,   0.00042,275100630.32822,   0.00042,   0.00000,  -0.00002,  -4.75060,   1.00000
548382431.16379,287860253.91267,-391924.82853,   0.00236,   0.00024,  -0.00002,475110273.02189,   0.00043,275110273.29851,   0.00043,   0.00000,  -0.00002,  -0.27661,   1.00000
548375669.74094,288392293.60907,-235095.90119,   0.00237,   0.00024,  -0.00002,475119815.23735,   0.00044,275119820.54562,   0.00044,   0.00000,  -0.00002,  -5.30827,   1.00000
548367787.39726,288933642.92097,-79042.53321,   0.00238,   0.00025,  -0.00002,475129452.39851,   0.00045,275129457.25775,   0.00045,   0.00000,  -0.00002,  -4.85924,   1.00000
548359005.21019,289472438.84539,71674.42078,   0.00239,   0.00025,  -0.00002,475139019.92664,   0.00046,275139027.18673,   0.00046,   0.00000,  -0.00002,  -7.26009,   1.00000
548349443.11287,290008286.41086,217083.56116,   0.00239,   0.00025,  -0.00001,475148584.10130,   0.00046,275148593.89202,   0.00046,   0.00000,  -0.00002,  -9.79073,   1.00000
548338553.65214,290554252.19723,361772.44799,   0.00240,   0.00025,  -0.00001,475158118.02158,   0.00047,275158122.99431,   0.00047,   0.00000,  -0.00002,  -4.97273,   1.00000
548327380.00239,291084671.66731,501192.54958,   0.00241,   0.00026,  -0.00001,475167612.47761,   0.00048,275167619.67124,   0.00048,   0.00000,  -0.00002,  -7.19363,   1.00000
548315476.13147,291612209.87057,639919.27463,   0.00242,   0.00026,  -0.00001,475177107.08744,   0.00049,275177113.11668,   0.00049,   0.00000,  -0.00002,  -6.02925,   1.00000
548302326.33439,292149414.81741,777943.50711,   0.00242,   0.00026,  -0.00001,475186630.12393,   0.00050,275186632.62398,   0.00050,   0.00000,  -0.00002,  -2.50005,   1.00000
548288930.56337,292671722.11308,906211.64146,   0.00243,   0.00027,  -0.00000,475196050.52868,   0.00051,275196056.05646,   0.00051,   0.00000,  -0.00002,  -5.52778,   1.00000
548274264.40746,293203702.89099,1038383.78434,   0.00244,   0.00027,  -0.00000,475205503.54461,   0.00052,275205505.74600,   0.00052,   0.00000,  -0.00002,  -2.20139,   1.00000
548258957.27897,293732828.38151,1160788.07246,   0.00245,   0.00027,  -0.00000,475214947.98189,   0.00053,275214951.93382,   0.00052,   0.00000,  -0.00002,  -3.95193,   1.00000
548242861.45552,294259668.82881,1282625.63898,   0.00245,   0.00027,   0.00000,475224326.36820,   0.00053,275224331.68128,   0.00053,   0.00000,  -0.00002,  -5.31308,   1.00000
548226193.39166,294783073.31570,1403813.71275,   0.00246,   0.00028,   0.00000,475233762.85026,   0.00054,275233771.31693,   0.00054,   0.00001,  -0.00002,  -8.46667,   1.00000
548208809.24519,295304280.12148,1519892.85617,   0.00247,   0.00028,   0.00000,475243136.55704,   0.00055,275243144.38879,   0.00055,   0.00001,  -0.00002,  -7.83175,   1.00000
548190726.34991,295823337.70074,1630895.42099,   0.00248,   0.00028,   0.00001,475252447.31473,   0.00056,275252450.94915,   0.00056,   0.00001,  -0.00002,  -3.63442,   1.00000
548172111.31297,296338970.24618,1741293.11402,   0.00248,   0.00029,   0.00001,475261808.08987,   0.00057,275261817.28458,   0.00057,   0.00001,  -0.00002,  -9.19471,   1.00000
548152837.58563,296852525.19436,1846648.74743,   0.00249,   0.00029,   0.00001,475271113.54729,   0.00058,275271117.10753,   0.00058,   0.00001,  -0.00002,  -3.56024,   1.00000
548132146.89063,297376388.06712,1951518.20736,   0.00250,   0.00029,   0.00001,475280373.96773,   0.00059,275280380.56619,   0.00058,   0.00001,  -0.00002,  -6.59845,   1.00000
548111719.25963,297884429.36000,2051280.20753,   0.00251,   0.00029,   0.00001,475289665.97136,   0.00059,275289673.55209,   0.00059,   0.00001,  -0.00002,  -7.58073,   1.00000
548089949.00816,298402850.61354,2146030.81324,   0.00251,   0.00030,   0.00001,475298923.44308,   0.00060,275298929.99240,   0.00060,   0.00001,  -0.00001,  -6.54932,   1.00000
548067587.62553,298918509.21973,2240313.88873,   0.00252,   0.00030,   0.00001,475308180.58824,   0.00061,275308183.12843,   0.00061,   0.00001,  -0.00001,  -2.54019,   1.00000
548044707.28495,299431449.26230,2329576.03939,   0.00253,   0.00030,   0.00002,475317424.25570,   0.00062,275317432.70990,   0.00062,   0.00001,  -0.00001,  -8.45420,   1.00000
548021141.05883,299942415.35776,2418477.22109,   0.00254,   0.00031,   0.00002,475326609.77266,   0.00063,275326616.29216,   0.00063,   0.00001,  -0.00001,  -6.51950,   1.00000
547997092.14755,300450712.24001,2502386.16931,   0.00254,   0.00031,   0.00002,475335789.37014,   0.00064,275335796.28847,   0.00064,   0.00001,  -0.00001,  -6.91833,   1.00000
547972586.46601,300956361.93273,2581327.02723,   0.00255,   0.00031,   0.00002,475344970.51301,   0.00064,275344972.62900,   0.00064,   0.00001,  -0.00001,  -2.11599,   1.00000
547947531.89468,301459329.48689,2659878.99115,   0.00256,   0.00032,   0.00002,475354135.72823,   0.00065,275354145.71381,   0.00065,   0.00001,  -0.00001,  -9.98558,   1.00000
547921835.50895,301960460.70009,2738134.74771,   0.00257,   0.00032,   0.00002,475363250.49532,   0.00066,275363252.95254,   0.00066,   0.00001,  -0.00001,  -2.45722,   1.00000
547894953.34144,302471266.13188,2806851.06810,   0.00257,   0.00032,   0.00002,475372382.16660,   0.00067,275372386.40919,   0.00067,   0.00001,  -0.00001,  -4.24259,   1.00000
547868403.68779,302967163.82295,2875275.20049,   0.00258,   0.00032,   0.00002,475381483.99288,   0.00068,275381486.30073,   0.00068,   0.00001,  -0.00001,  -2.30786,   1.00000
547840481.68068,303472648.01997,2943315.52966,   0.00259,   0.00033,   0.00002,475390606.88566,   0.00069,275390613.18077,   0.00069,   0.00001,  -0.00001,  -6.29511,   1.00000
547812108.05488,303976437.34171,3002009.31151,   0.00259,   0.00033,   0.00003,475399667.04978,   0.00070,275399673.64577,   0.00069,   0.00002,  -0.00001,  -6.59599,   1.00000
547784142.77273,304465419.73068,3060464.35685,   0.00260,   0.00033,   0.00003,475408697.08091,   0.00070,275408700.43037,   0.00070,   0.00002,  -0.00001,  -3.34947,   1.00000
547754789.32641,304963996.88762,3118582.21924,   0.00261,   0.00034,   0.00003,475417748.32829,   0.00071,275417754.34200,   0.00071,   0.00002,  -0.00001,  -6.01371,   1.00000
547724909.97635,305460931.85144,3171964.03073,   0.00262,   0.00034,   0.00003,475426735.22212,   0.00072,275426742.37251,   0.00072,   0.00002,  -0.00001,  -7.15039,   1.00000
547694816.65934,305954388.17094,3220422.09088,   0.00262,   0.00034,   0.00003,475435779.73948,   0.00073,275435788.80228,   0.00073,   0.00002,  -0.00001,  -9.06279,   1.00000
547664116.64002,306446213.69401,3268749.10213,   0.00263,   0.00034,   0.00003,475444766.28117,   0.00074,275444769.79946,   0.00074,   0.00002,  -0.00001,  -3.51829,   1.00000
547631926.84193,306948580.27476,3312338.75961,   0.00264,   0.00035,   0.00003,475453710.19292,   0.00074,275453715.65078,   0.00074,   0.00002,  -0.00001,  -5.45786,   1.00000
547600529.20096,307435326.23886,3351102.70707,   0.00264,   0.00035,   0.00003,475462681.73786,   0.00075,275462689.14320,   0.00075,   0.00002,  -0.00001,  -7.40534,   1.00000
547568542.21260,307920537.71138,3389787.53034,   0.00265,   0.00035,   0.00003,475471595.35756,   0.00076,275471597.36110,   0.00076,   0.00002,  -0.00001,  -2.00354,   1.00000
547535211.66256,308415330.93334,3423670.24853,   0.00266,   0.00036,   0.00003,475480531.05930,   0.00077,275480532.55968,   0.00077,   0.00002,  -0.00001,  -1.50038,   1.00000
547501545.78614,308907599.97888,3452829.61510,   0.00267,   0.00036,   0.00003,475489458.94358,   0.00078,275489464.01711,   0.00078,   0.00002,  -0.00001,  -5.07354,   1.00000
547468324.28665,309386335.04263,3482016.87271,   0.00267,   0.00036,   0.00003,475498291.61614,   0.00079,275498299.60837,   0.00078,   0.00002,  -0.00001,  -7.99223,   1.00000
547433927.52048,309873606.16605,3506330.16314,   0.00268,   0.00037,   0.00003,475507218.23551,   0.00079,275507224.00890,   0.00079,   0.00002,  -0.00001,  -5.77339,   1.00000
547398933.43901,310359409.80036,3530638.33992,   0.00269,   0.00037,   0.00004,475516079.53420,   0.00080,275516083.39340,   0.00080,   0.00002,  -0.00001,  -3.85920,   1.00000
547363452.88108,310843837.43062,3550387.39278,   0.00269,   0.00037,   0.00004,475524868.33769,   0.00081,275524877.42198,   0.00081,   0.00002,  -0.00001,  -9.08429,   1.00000
547327870.61180,311324732.45762,3565363.60833,   0.00270,   0.00037,   0.00004,475533720.73536,   0.00082,275533729.32063,   0.00082,   0.00003,  -0.00001,  -8.58527,   1.00000
547291821.81421,311804311.65709,3575826.10145,   0.00271,   0.00038,   0.00004,475542507.89310,   0.00083,275542515.90059,   0.00083,   0.00003,  -0.00001,  -8.00749,   1.00000
547255381.15061,312281422.90518,3586233.50882,   0.00271,   0.00038,   0.00004,475551294.16719,   0.00083,275551299.21720,   0.00083,   0.00003,  -0.00001,  -5.05000,   1.00000
547217512.54541,312768038.67406,3591970.10895,   0.00272,   0.00038,   0.00004,475560102.06205,   0.00084,275560109.88129,   0.00084,   0.00003,  -0.00001,  -7.81924,   1.00000
547180411.19752,313240245.53863,3597734.35723,   0.00273,   0.00039,   0.00004,475568878.86348,   0.00085,275568886.17280,   0.00085,   0.00003,  -0.00001,  -7.30932,   1.00000
547141793.81452,313723187.55211,3594413.37071,   0.00274,   0.00039,   0.00004,475577620.13198,   0.00086,275577628.01983,   0.00086,   0.00003,  -0.00001,  -7.88785,   1.00000
547103862.96541,314191723.25289,3595718.81464,   0.00274,   0.00039,   0.00004,475586330.65960,   0.00087,275586335.92548,   0.00087,   0.00003,  -0.00001,  -5.26588,   1.00000
547064598.81878,314669825.43507,3587840.67603,   0.00275,   0.00040,   0.00004,475595069.68663,   0.00088,275595070.87617,   0.00087,   0.00003,  -0.00001,  -1.18955,   1.00000
547024939.46994,315145455.61787,3579994.08374,   0.00276,   0.00040,   0.00004,475603792.97060,   0.00088,275603802.64697,   0.00088,   0.00003,  -0.00001,  -9.67637,   1.00000
546984830.15349,315619932.10817,3567741.96445,   0.00276,   0.00040,   0.00004,475612465.51467,   0.00089,275612469.45960,   0.00089,   0.00003,  -0.00001,  -3.94493,   1.00000
546944343.35332,316091972.82006,3555541.86060,   0.00277,   0.00041,   0.00004,475621129.81649,   0.00090,275621133.10732,   0.00090,   0.00003,  -0.00001,  -3.29083,   1.00000
546903719.58498,316561710.07681,3534282.22104,   0.00278,   0.00041,   0.00004,475629784.09253,   0.00091,275629792.67385,   0.00091,   0.00003,  -0.00001,  -8.58132,   1.00000
546862746.24782,317029043.27561,3513117.21021,   0.00278,   0.00041,   0.00004,475638444.87755,   0.00092,275638449.01139,   0.00091,   0.00004,  -0.00001,  -4.13384,   1.00000
546821413.21416,317493975.70708,3492046.36612,   0.00279,   0.00041,   0.00004,475647097.37384,   0.00092,275647102.18867,   0.00092,   0.00004,  -0.00001,  -4.81483,   1.00000
546779619.69950,317957880.72204,3466628.61547,   0.00280,   0.00042,   0.00004,475655684.15841,   0.00093,275655690.76752,   0.00093,   0.00004,  -0.00001,  -6.60911,   1.00000
546737595.52749,318419477.96608,3436768.56712,   0.00280,   0.00042,   0.00004,475664268.88472,   0.00094,275664275.76103,   0.00094,   0.00004,  -0.00001,  -6.87631,   1.00000
546694006.73598,318890483.40954,3402428.37798,   0.00281,   0.00042,   0.00004,475672882.22231,   0.00095,275672888.72248,   0.00094,   0.00004,  -0.00001,  -6.50018,   1.00000
546651411.65946,319347377.76308,3368302.23052,   0.00282,   0.00043,   0.00004,475681463.86973,   0.00096,275681466.95171,   0.00095,   0.00004,  -0.00001,  -3.08198,   1.00000
546606980.63689,319815020.10605,3329827.45236,   0.00282,   0.00043,   0.00004,475690003.17066,   0.00096,275690012.49388,   0.00096,   0.00004,  -0.00001,  -9.32322,   1.00000
546562315.06259,320280331.61866,3286970.95942,   0.00283,   0.00043,   0.00004,475698547.49000,   0.00097,275698554.48579,   0.00097,   0.00004,  -0.00001,  -6.99579,   1.00000
546518800.64570,320731672.70855,3239809.53657,   0.00284,   0.00044,   0.00004,475707058.32201,   0.00098,275707061.28319,   0.00098,   0.00004,  -0.00001,  -2.96119,   1.00000
546473550.46274,321192343.56674,3192806.88603,   0.00284,   0.00044,   0.00004,475715592.13286,   0.00099,275715596.78157,   0.00098,   0.00004,  -0.00001,  -4.64871,   1.00000
546428066.17871,321650709.19838,3141462.63519,   0.00285,   0.00044,   0.00004,475724123.40117,   0.00099,275724128.80277,   0.00099,   0.00005,  -0.00001,  -5.40160,   1.00000
546381987.20587,322108147.06098,3090455.63263,   0.00286,   0.00045,   0.00004,475732590.44107,   0.00100,275732597.20079,   0.00100,   0.00005,  -0.00001,  -6.75972,   1.00000
546335675.94725,322563305.82418,3035124.16743,   0.00286,   0.00045,   0.00003,475741054.87110,   0.00101,275741062.19526,   0.00101,   0.00005,  -0.00000,  -7.32417,   1.00000
546289133.07680,323016194.19796,2975488.42614,   0.00287,   0.00045,   0.00003,475749516.58187,   0.00102,275749523.80643,   0.00102,   0.00005,  -0.00000,  -7.22455,   1.00000
546240885.68153,323478374.26480,2911517.37115,   0.00288,   0.00046,   0.00003,475758006.71152,   0.00103,275758013.96458,   0.00102,   0.00005,  -0.00000,  -7.25306,   1.00000
546193504.78491,323928114.02741,2847984.07903,   0.00288,   0.00046,   0.00003,475766401.57490,   0.00103,275766408.80104,   0.00103,   0.00005,  -0.00000,  -7.22614,   1.00000
546146171.82613,324374127.95454,2780090.70025,   0.00289,   0.00046,   0.00003,475774856.81539,   0.00104,275774860.69272,   0.00104,   0.00005,  -0.00000,  -3.87734,   1.00000
546096815.51157,324830916.90976,2707993.86590,   0.00290,   0.00047,   0.00003,475783277.21823,   0.00105,275783281.00709,   0.00105,   0.00005,  -0.00000,  -3.78886,   1.00000
546048647.36882,325273871.35366,2636273.06545,   0.00290,   0.00047,   0.00003,475791665.55191,   0.00106,275791666.35429,   0.00105,   0.00005,  -0.00000,  -0.80238,   1.00000
545998702.94357,325726087.91759,2560277.14828,   0.00291,   0.00047,   0.00003,475800075.14238,   0.00106,275800080.60296,   0.00106,   0.00005,  -0.00000,  -5.46058,   1.00000
545948222.43488,326177572.26247,2480154.85784,   0.00292,   0.00047,   0.00003,475808425.68872,   0.00107,275808431.45493,   0.00107,   0.00006,  -0.00000,  -5.76621,   1.00000
545899349.36476,326613788.50724,2395803.78643,   0.00292,   0.00048,   0.00003,475816804.52419,   0.00108,275816807.13723,   0.00108,   0.00006,  -0.00000,  -2.61304,   1.00000
545848280.25941,327060771.20206,2311873.78057,   0.00293,   0.00048,   0.00003,475825144.25114,   0.00109,275825152.13255,   0.00108,   0.00006,  -0.00000,  -7.88141,   1.00000
545796965.22224,327505509.61853,2223769.75202,   0.00294,   0.00048,   0.00003,475833487.98574,   0.00110,275833494.01251,   0.00109,   0.00006,  -0.00000,  -6.02678,   1.00000
545745393.59925,327948006.06515,2131511.09305,   0.00294,   0.00049,   0.00002,475841828.43190,   0.00110,275841832.84348,   0.00110,   0.00006,  -0.00000,  -4.41158,   1.00000
545693184.77908,328389838.87179,2039741.41408,   0.00295,   0.00049,   0.00002,475850105.39103,   0.00111,275850108.97184,   0.00111,   0.00006,  -0.00000,  -3.58081,   1.00000
545641094.23383,328827864.27280,1939210.21528,   0.00296,   0.00049,   0.00002,475858439.00397,   0.00112,275858441.80610,   0.00112,   0.00006,  -0.00000,  -2.80214,   1.00000
545586657.94739,329276593.81734,1843723.77502,   0.00296,   0.00050,   0.00002,475866744.11764,   0.00113,275866744.65989,   0.00112,   0.00006,  -0.00000,  -0.54225,   1.00000
545533645.01418,329711727.96513,1739590.54727,   0.00297,   0.00050,   0.00002,475875003.71976,   0.00113,275875012.02187,   0.00113,   0.00006,  -0.00000,  -8.30211,   1.00000
545480319.34169,330144636.12220,1635931.21103,   0.00298,   0.00050,   0.00002,475883270.16325,   0.00114,275883276.71454,   0.00114,   0.00007,  -0.00000,  -6.55129,   1.00000
545426401.27365,330577025.84674,1528237.53291,   0.00298,   0.00051,   0.00002,475891477.33757,   0.00115,275891478.83713,   0.00115,   0.00007,  -0.00000,  -1.49956,   1.00000
545370842.47441,331016841.19773,1416401.43807,   0.00299,   0.00051,   0.00002,475899768.85858,   0.00116,275899770.43365,   0.00115,   0.00007,  -0.00000,  -1.57507,   1.00000
545316306.74115,331444788.64944,1305144.15831,   0.00300,   0.00051,   0.00001,475907958.00195,   0.00116,275907967.30315,   0.00116,   0.00007,  -0.00000,  -9.30120,   1.00000
545259834.58129,331881867.04869,1185255.21755,   0.00300,   0.00052,   0.00001,475916193.72074,   0.00117,275916193.83532,   0.00117,   0.00007,  -0.00000,  -0.11458,   1.00000
545203005.92771,332316677.80180,1065912.01541,   0.00301,   0.00052,   0.00001,475924415.07623,   0.00118,275924417.94083,   0.00118,   0.00007,  -0.00000,  -2.86460,   1.00000
545147588.80696,332738004.03598,947129.73298,   0.00301,   0.00052,   0.00001,475932603.91723,   0.00119,275932606.93488,   0.00118,   0.00007,  -0.00000,  -3.01765,   1.00000
545089803.50131,333170165.50980,819784.64619,   0.00302,   0.00053,   0.00001,475940762.23548,   0.00120,275940766.45361,   0.00119,   0.00007,  -0.00000,  -4.21813,   1.00000
545032032.94964,333598334.28252,692993.41969,   0.00303,   0.00053,   0.00001,475948976.22993,   0.00120,275948983.04912,   0.00120,   0.00007,  -0.00000,  -6.81920,   1.00000
544973575.66377,334026056.58108,566799.81588,   0.00303,   0.00053,   0.00001,475957134.63829,   0.00121,275957137.82451,   0.00121,   0.00008,  -0.00000,  -3.18622,   1.00000
544914812.99551,334451582.99566,432064.04800,   0.00304,   0.00054,   0.00000,475965285.52419,   0.00122,275965290.15606,   0.00121,   0.00008,  -0.00000,  -4.63187,   1.00000
544855714.63971,334874904.17110,297939.85930,   0.00305,   0.00054,   0.00000,475973436.54513,   0.00123,275973440.19149,   0.00122,   0.00008,  -0.00000,  -3.64636,   1.00000
544796288.73009,335296031.98099,159867.63154,   0.00305,   0.00054,   0.00000,475981583.78249,   0.00123,275981587.93214,   0.00123,   0.00008,  -0.00000,  -4.14965,   1.00000
544736151.99419,335716794.11067,17866.33830,   0.00306,   0.00055,  -0.00000,475989671.64354,   0.00124,275989674.19750,   0.00124,   0.00008,  -0.00000,  -2.55396,   1.00000
544676050.91846,336133537.02062,-123489.63175,   0.00307,   0.00055,  -0.00000,475997808.16464,   0.00125,275997817.51906,   0.00124,   0.00008,  -0.00000,  -9.35442,   1.00000
544615234.17744,336549955.07596,-268768.30987,   0.00307,   0.00055,  -0.00001,476005892.47707,   0.00126,276005899.50064,   0.00125,   0.00008,  -0.00000,  -7.02357,   1.00000
544552200.77009,336975290.57001,-417939.67840,   0.00308,   0.00056,  -0.00001,476014005.83803,   0.00126,276014012.37785,   0.00126,   0.00008,  -0.00000,  -6.53981,   1.00000
544490670.47999,337387311.97515,-571001.09307,   0.00308,   0.00056,  -0.00001,476022082.40745,   0.00127,276022090.26424,   0.00127,   0.00009,  -0.00000,  -7.85679,   1.00000
544428404.05481,337799067.56566,-723393.32341,   0.00309,   0.00056,  -0.00001,476030103.91951,   0.00128,276030107.08575,   0.00127,   0.00009,  -0.00000,  -3.16624,   1.00000
544364271.62295,338217817.30318,-879612.03536,   0.00310,   0.00057,  -0.00001,476038210.17515,   0.00129,276038214.07527,   0.00128,   0.00009,  -0.00000,  -3.90012,   1.00000
544301256.05740,338625218.57940,-1039730.33028,   0.00310,   0.00057,  -0.00002,476046223.92748,   0.00129,276046227.19123,   0.00129,   0.00009,  -0.00000,  -3.26375,   1.00000
544235975.72988,339041510.51981,-1199104.97723,   0.00311,   0.00057,  -0.00002,476054271.48779,   0.00130,276054271.51347,   0.00129,   0.00009,  -0.00000,  -0.02568,   1.00000
544172225.16169,339444583.99598,-1362340.81753,   0.00312,   0.00058,  -0.00002,476062274.88319,   0.00131,276062281.00845,   0.00130,   0.00009,  -0.00000,  -6.12526,   1.00000
544106143.67482,339856508.53526,-1529369.03141,   0.00312,   0.00058,  -0.00002,476070314.79126,   0.00132,276070322.00863,   0.00131,   0.00009,  -0.00000,  -7.21737,   1.00000
544041614.13267,340255257.04961,-1700229.09678,   0.00313,   0.00058,  -0.00002,476078324.36746,   0.00132,276078328.20042,   0.00132,   0.00010,  -0.00000,  -3.83297,   1.00000
543974323.48569,340664821.00919,-1870344.00556,   0.00313,   0.00059,  -0.00003,476086298.79591,   0.00133,276086307.19814,   0.00132,   0.00010,  -0.00000,  -8.40224,   1.00000
543906621.13821,341072196.94801,-2044249.48883,   0.00314,   0.00059,  -0.00003,476094283.42573,   0.00134,276094284.69464,   0.00133,   0.00010,  -0.00000,  -1.26891,   1.00000
543838473.77504,341477372.70204,-2221927.73866,   0.00315,   0.00059,  -0.00003,476102257.20437,   0.00135,276102260.85614,   0.00134,   0.00010,  -0.00000,  -3.65177,   1.00000
543771885.06253,341869440.00827,-2403406.41412,   0.00315,   0.00060,  -0.00003,476110193.38450,   0.00135,276110202.40848,   0.00135,   0.00010,  -0.00000,  -9.02398,   1.00000
543702938.84510,342270340.32721,-2584020.26611,   0.00316,   0.00060,  -0.00004,476118171.40632,   0.00136,276118175.74153,   0.00135,   0.00010,  -0.00000,  -4.33522,   1.00000
543633538.80913,342669055.39397,-2768374.68746,   0.00317,   0.00060,  -0.00004,476126145.58933,   0.00137,276126147.89295,   0.00136,   0.00010,  -0.00000,  -2.30362,   1.00000
543563204.32341,343067614.55508,-2956549.64350,   0.00317,   0.00061,  -0.00004,476134053.54068,   0.00137,276134060.47768,   0.00137,   0.00010,  -0.00000,  -6.93700,   1.00000
543492976.17571,343462014.49785,-3143775.26959,   0.00318,   0.00061,  -0.00004,476142025.09477,   0.00138,276142030.08643,   0.00137,   0.00011,  -0.00000,  -4.99167,   1.00000
543421795.32322,343856289.26628,-3334819.48403,   0.00318,   0.00061,  -0.00005,476149930.50193,   0.00139,276149940.31972,   0.00138,   0.00011,  -0.00000,  -9.81779,   1.00000
543350142.66056,344248398.57692,-3529560.75279,   0.00319,   0.00062,  -0.00005,476157846.06778,   0.00140,276157849.62476,   0.00139,   0.00011,  -0.00000,  -3.55698,   1.00000
543277991.56848,344638333.49925,-3727981.56138,   0.00320,   0.00062,  -0.00005,476165757.83902,   0.00140,276165758.14743,   0.00140,   0.00011,  -0.00000,  -0.30841,   1.00000
543204962.52911,345028251.17731,-3925637.48750,   0.00320,   0.00062,  -0.00006,476173601.81296,   0.00141,276173607.21783,   0.00140,   0.00011,  -0.00000,  -5.40488,   1.00000
543131930.17212,345413912.83022,-4126828.84948,   0.00321,   0.00063,  -0.00006,476181511.31103,   0.00142,276181513.86056,   0.00141,   0.00011,  -0.00000,  -2.54953,   1.00000
543057872.10843,345799512.16081,-4331811.11431,   0.00321,   0.00063,  -0.00006,476189354.75502,   0.00143,276189361.73804,   0.00142,   0.00011,  -0.00000,  -6.98303,   1.00000
542983434.75052,346183034.78765,-4535874.14249,   0.00322,   0.00063,  -0.00006,476197199.87586,   0.00143,276197208.57206,   0.00143,   0.00012,  -0.00001,  -8.69620,   1.00000
542906336.04446,346575145.26719,-4743486.59068,   0.00323,   0.00064,  -0.00007,476205082.65685,   0.00144,276205088.63983,   0.00143,   0.00012,  -0.00001,  -5.98298,   1.00000
542830832.93244,346954302.94631,-4954813.34662,   0.00323,   0.00064,  -0.00007,476212934.28796,   0.00145,276212934.62590,   0.00144,   0.00012,  -0.00001,  -0.33794,   1.00000
542754765.02389,347331294.85657,-5169745.88638,   0.00324,   0.00064,  -0.00007,476220775.30820,   0.00146,276220780.41344,   0.00145,   0.00012,  -0.00001,  -5.10523,   1.00000
542677786.14685,347708394.10598,-5383889.06406,   0.00324,   0.00065,  -0.00008,476228562.93513,   0.00146,276228567.33638,   0.00145,   0.00012,  -0.00001,  -4.40125,   1.00000
542600774.32976,348081170.21307,-5601446.21124,   0.00325,   0.00065,  -0.00008,476236409.22540,   0.00147,276236412.15822,   0.00146,   0.00012,  -0.00001,  -2.93281,   1.00000
542520458.43446,348464646.18422,-5822657.90831,   0.00326,   0.00065,  -0.00008,476244231.35563,   0.00148,276244232.84906,   0.00147,   0.00012,  -0.00001,  -1.49343,   1.00000
542441928.26538,348835353.30425,-6042991.46267,   0.00326,   0.00066,  -0.00009,476252013.95808,   0.00148,276252019.04324,   0.00147,   0.00013,  -0.00001,  -5.08516,   1.00000
542362260.52764,349206116.34651,-6267099.48117,   0.00327,   0.00066,  -0.00009,476259744.56636,   0.00149,276259747.49639,   0.00148,   0.00013,  -0.00001,  -2.93003,   1.00000
542282541.24090,349572517.24951,-6494551.04611,   0.00327,   0.00066,  -0.00009,476267533.98555,   0.00150,276267534.06743,   0.00149,   0.00013,  -0.00001,  -0.08188,   1.00000
542199965.99812,349947377.59465,-6725405.88373,   0.00328,   0.00067,  -0.00010,476275348.12720,   0.00151,276275354.98032,   0.00150,   0.00013,  -0.00001,  -6.85311,   1.00000
542118651.98717,350311782.16283,-6955583.27729,   0.00329,   0.00067,  -0.00010,476283074.28391,   0.00151,276283083.70974,   0.00150,   0.00013,  -0.00001,  -9.42583,   1.00000
542036715.05798,350674044.80289,-7189288.02750,   0.00329,   0.00067,  -0.00010,476290810.80285,   0.00152,276290812.92747,   0.00151,   0.00013,  -0.00001,  -2.12462,   1.00000
541954118.53275,351034149.36603,-7426502.87781,   0.00330,   0.00068,  -0.00011,476298537.11319,   0.00153,276298542.82821,   0.00152,   0.00014,  -0.00001,  -5.71502,   1.00000
541868850.96547,351402816.61986,-7662508.01462,   0.00330,   0.00068,  -0.00011,476306301.44309,   0.00154,276306306.55765,   0.00152,   0.00014,  -0.00001,  -5.11456,   1.00000
541784593.76008,351760989.42502,-7902420.08286,   0.00331,   0.00068,  -0.00011,476313971.75630,   0.00154,276313979.35289,   0.00153,   0.00014,  -0.00001,  -7.59659,   1.00000
541700258.02979,352114732.36589,-8145551.13614,   0.00332,   0.00069,  -0.00012,476321701.09065,   0.00155,276321710.65305,   0.00154,   0.00014,  -0.00001,  -9.56240,   1.00000
541612618.23988,352479304.56183,-8387704.43660,   0.00332,   0.00069,  -0.00012,476329413.45154,   0.00156,276329418.47775,   0.00155,   0.00014,  -0.00001,  -5.02620,   1.00000
541526576.47053,352831150.64619,-8633496.18470,   0.00333,   0.00069,  -0.00012,476337087.13235,   0.00156,276337093.20209,   0.00155,   0.00014,  -0.00001,  -6.06974,   1.00000
541439833.48246,353180848.60023,-8882745.05349,   0.00333,   0.00070,  -0.00013,476344764.55950,   0.00157,276344769.10053,   0.00156,   0.00014,  -0.00001,  -4.54103,   1.00000
541352367.60090,353528390.67327,-9135434.12516,   0.00334,   0.00070,  -0.00013,476352438.93989,   0.00158,276352446.31716,   0.00157,   0.00015,  -0.00001,  -7.37727,   1.00000
541261521.74732,353886761.87560,-9387118.97112,   0.00335,   0.00070,  -0.00014,476360096.88442,   0.00159,276360100.60037,   0.00157,   0.00015,  -0.00001,  -3.71595,   1.00000
541172898.80638,354230117.99107,-9642106.25044,   0.00335,   0.00071,  -0.00014,476367771.51225,   0.00159,276367779.47273,   0.00158,   0.00015,  -0.00001,  -7.96048,   1.00000
541082893.24712,354573668.36332,-9900829.55840,   0.00336,   0.00071,  -0.00014,476375394.61213,   0.00160,276375402.55347,   0.00159,   0.00015,  -0.00001,  -7.94134,   1.00000
540992458.90400,354915261.45965,-10158403.02000,   0.00336,   0.00071,  -0.00015,476383021.17530,   0.00161,276383026.08072,   0.00159,   0.00015,  -0.00002,  -4.90542,   1.00000
540901254.99345,355254697.83537,-10419381.05992,   0.00337,   0.00072,  -0.00015,476390644.94502,   0.00161,276390651.39175,   0.00160,   0.00015,  -0.00002,  -6.44673,   1.00000
540808965.78911,355594562.08157,-10679547.95174,   0.00338,   0.00072,  -0.00016,476398216.76164,   0.00162,276398219.98955,   0.00161,   0.00016,  -0.00002,  -3.22791,   1.00000
540716201.48246,355929675.08098,-10947303.91520,   0.00338,   0.00072,  -0.00016,476405848.65557,   0.00163,276405849.12562,   0.00161,   0.00016,  -0.00002,  -0.47005,   1.00000
540619918.16134,356275607.98791,-11214010.70616,   0.00339,   0.00073,  -0.00016,476413451.56805,   0.00164,276413456.30405,   0.00162,   0.00016,  -0.00002,  -4.73601,   1.00000
540525216.54963,356608947.93785,-11484306.31195,   0.00339,   0.00073,  -0.00017,476421022.35535,   0.00164,276421031.17722,   0.00163,   0.00016,  -0.00002,  -8.82186,   1.00000
540430075.41215,356940356.39205,-11753402.57137,   0.00340,   0.00073,  -0.00017,476428597.08951,   0.00165,276428606.90756,   0.00164,   0.00016,  -0.00002,  -9.81805,   1.00000
540333415.17784,357272019.90069,-12026246.40480,   0.00340,   0.00074,  -0.00018,476436120.49152,   0.00166,276436127.90399,   0.00164,   0.00016,  -0.00002,  -7.41247,   1.00000
540239042.87966,357588765.78104,-12302275.48741,   0.00341,   0.00074,  -0.00018,476443673.73361,   0.00166,276443673.89923,   0.00165,   0.00017,  -0.00002,  -0.16562,   1.00000
540141071.64834,357916392.25401,-12577243.30624,   0.00342,   0.00074,  -0.00018,476451192.25427,   0.00167,276451198.61067,   0.00166,   0.00017,  -0.00002,  -6.35640,   1.00000
540042246.82335,358241855.65760,-12855542.09488,   0.00342,   0.00075,  -0.00019,476458721.98038,   0.00168,276458725.98871,   0.00166,   0.00017,  -0.00002,  -4.00833,   1.00000
539942537.80435,358565141.81057,-13137154.83538,   0.00343,   0.00075,  -0.00019,476466249.51445,   0.00168,276466256.22244,   0.00167,   0.00017,  -0.00002,  -6.70799,   1.00000
539842378.08728,358886519.80377,-13417519.66394,   0.00343,   0.00075,  -0.00020,476473781.50666,   0.00169,276473787.74465,   0.00168,   0.00017,  -0.00002,  -6.23799,   1.00000
539743058.46506,359197920.13928,-13701909.76665,   0.00344,   0.00076,  -0.00020,476481225.20945,   0.00170,276481230.64416,   0.00168,   0.00017,  -0.00002,  -5.43472,   1.00000
539640357.88315,359517457.15807,-13989316.57323,   0.00344,   0.00076,  -0.00021,476488710.82765,   0.00171,276488711.46587,   0.00169,   0.00018,  -0.00003,  -0.63822,   1.00000
539537181.65564,359835084.97574,-14275454.61086,   0.00345,   0.00076,  -0.00021,476496187.78414,   0.00171,276496193.87160,   0.00170,   0.00018,  -0.00003,  -6.08746,   1.00000
539435574.60858,360140302.87068,-14565165.35794,   0.00346,   0.00077,  -0.00022,476503638.82350,   0.00172,276503644.80708,   0.00170,   0.00018,  -0.00003,  -5.98358,   1.00000
539330525.73198,360453610.73844,-14857845.06938,   0.00346,   0.00077,  -0.00022,476511125.55687,   0.00173,276511134.09555,   0.00171,   0.00018,  -0.00003,  -8.53869,   1.00000
539226747.10554,360757324.23251,-15150030.45909,   0.00347,   0.00077,  -0.00023,476518523.88943,   0.00173,276518533.49785,   0.00172,   0.00018,  -0.00003,  -9.60842,   1.00000
539122015.94124,361058909.79944,-15445479.15245,   0.00347,   0.00078,  -0.00023,476525933.78769,   0.00174,276525936.59221,   0.00172,   0.00018,  -0.00003,  -2.80451,   1.00000
539013774.40415,361368533.03764,-15743855.93922,   0.00348,   0.00078,  -0.00023,476533373.14734,   0.00175,276533378.50674,   0.00173,   0.00019,  -0.00003,  -5.35940,   1.00000
538907594.96104,361666107.38537,-16041241.65926,   0.00348,   0.00078,  -0.00024,476540786.63837,   0.00175,276540787.45138,   0.00174,   0.00019,  -0.00003,  -0.81301,   1.00000
538799606.78493,361964062.91020,-16342395.43872,   0.00349,   0.00079,  -0.00024,476548136.08889,   0.00176,276548143.82631,   0.00174,   0.00019,  -0.00003,  -7.73742,   1.00000
538690610.31861,362259870.96662,-16646774.33291,   0.00349,   0.00079,  -0.00025,476555497.35609,   0.00177,276555504.39626,   0.00175,   0.00019,  -0.00003,  -7.04017,   1.00000
538581137.82407,362553865.23410,-16949823.33551,   0.00350,   0.00079,  -0.00025,476562864.15233,   0.00177,276562867.22812,   0.00176,   0.00019,  -0.00003,  -3.07579,   1.00000
538470626.63059,362845701.03447,-17256084.35911,   0.00351,   0.00080,  -0.00026,476570229.70294,   0.00178,276570234.50288,   0.00176,   0.00019,  -0.00003,  -4.79994,   1.00000
538359643.80567,363135734.41904,-17561004.42287,   0.00351,   0.00080,  -0.00026,476577600.90535,   0.00179,276577604.15756,   0.00177,   0.00020,  -0.00004,  -3.25221,   1.00000
538246773.41999,363426176.55066,-17869708.07198,   0.00352,   0.00080,  -0.00027,476584921.49273,   0.00180,276584921.86807,   0.00178,   0.00020,  -0.00004,  -0.37533,   1.00000
538135404.90679,363704354.80875,-18181972.39821,   0.00352,   0.00081,  -0.00027,476592209.16895,   0.00180,276592209.23706,   0.00178,   0.00020,  -0.00004,  -0.06810,   1.00000
538020964.06554,363990868.17533,-18492504.46431,   0.00353,   0.00081,  -0.00028,476599528.16425,   0.00181,276599534.47770,   0.00179,   0.00020,  -0.00004,  -6.31345,   1.00000
537907172.27072,364267730.21355,-18807212.70587,   0.00353,   0.00081,  -0.00028,476606771.13933,   0.00182,276606772.97866,   0.00180,   0.00020,  -0.00004,  -1.83933,   1.00000
537789664.75702,364552517.49710,-19124704.40851,   0.00354,   0.00081,  -0.00029,476614045.44766,   0.00182,276614051.93215,   0.00180,   0.00020,  -0.00004,  -6.48448,   1.00000
537674270.71558,364825464.27554,-19441213.97544,   0.00354,   0.00082,  -0.00029,476621293.83095,   0.00183,276621298.51968,   0.00181,   0.00021,  -0.00004,  -4.68874,   1.00000
537557744.74001,365096275.76351,-19760885.13078,   0.00355,   0.00082,  -0.00030,476628541.56817,   0.00184,276628550.52071,   0.00181,   0.00021,  -0.00004,  -8.95254,   1.00000
537440734.61510,365365361.54664,-20079171.39360,   0.00355,   0.00082,  -0.00031,476635795.65613,   0.00184,276635805.56996,   0.00182,   0.00021,  -0.00004,  -9.91383,   1.00000
537321017.61135,365634512.23934,-20405801.97509,   0.00356,   0.00083,  -0.00031,476643005.38229,   0.00185,276643012.33865,   0.00183,   0.00021,  -0.00005,  -6.95636,   1.00000
537201465.11565,365902350.18538,-20726495.00342,   0.00357,   0.00083,  -0.00032,476650215.74538,   0.00186,276650219.87181,   0.00183,   0.00021,  -0.00005,  -4.12643,   1.00000
537079824.21903,366170668.33830,-21051018.08460,   0.00357,   0.00083,  -0.00032,476657375.72847,   0.00186,276657376.89020,   0.00184,   0.00022,  -0.00005,  -1.16173,   1.00000
536960547.99036,366424201.30038,-21378418.33378,   0.00358,   0.00084,  -0.00033,476664552.67925,   0.00187,276664560.84527,   0.00185,   0.00022,  -0.00005,  -8.16602,   1.00000
536836503.68829,366688248.67080,-21709196.39735,   0.00358,   0.00084,  -0.00033,476671725.26821,   0.00188,276671730.07884,   0.00185,   0.00022,  -0.00005,  -4.81063,   1.00000
536714589.71149,366940601.07749,-22039004.81778,   0.00359,   0.00084,  -0.00034,476678858.95282,   0.00188,276678867.46358,   0.00186,   0.00022,  -0.00005,  -8.51076,   1.00000
536591234.12405,367193949.85979,-22368129.54801,   0.00359,   0.00085,  -0.00034,476685949.33424,   0.00189,276685952.18251,   0.00187,   0.00022,  -0.00005,  -2.84827,   1.00000
536465904.68560,367444706.36910,-22704899.57116,   0.00360,   0.00085,  -0.00035,476693045.57355,   0.00190,276693046.19074,   0.00187,   0.00022,  -0.00005,  -0.61719,   1.00000
536340045.40978,367693787.43286,-23040233.06925,   0.00360,   0.00085,  -0.00035,476700136.35189,   0.00190,276700144.14641,   0.00188,   0.00023,  -0.00005,  -7.79452,   1.00000
536213689.57377,367941217.86353,-23374135.94629,   0.00361,   0.00086,  -0.00036,476707240.77367,   0.00191,276707245.97518,   0.00188,   0.00023,  -0.00006,  -5.20150,   1.00000
536085068.43395,368189174.87770,-23711902.75127,   0.00361,   0.00086,  -0.00037,476714288.73096,   0.00192,276714298.48949,   0.00189,   0.00023,  -0.00006,  -9.75853,   1.00000
535958619.70587,368425572.26545,-24048732.98075,   0.00362,   0.00086,  -0.00037,476721310.44704,   0.00192,276721319.39065,   0.00190,   0.00023,  -0.00006,  -8.94360,   1.00000
535827412.42445,368669271.73972,-24392669.57654,   0.00362,   0.00087,  -0.00038,476728384.82839,   0.00193,276728386.07570,   0.00190,   0.00023,  -0.00006,  -1.24731,   1.00000
535698139.71441,368904609.45269,-24731940.11408,   0.00363,   0.00087,  -0.00038,476735357.75990,   0.00194,276735362.20975,   0.00191,   0.00024,  -0.00006,  -4.44985,   1.00000
535566737.78417,369137318.55707,-25078814.02239,   0.00363,   0.00087,  -0.00039,476742343.21758,   0.00194,276742348.78346,   0.00192,   0.00024,  -0.00006,  -5.56588,   1.00000
535435631.32485,369368948.86962,-25419711.41959,   0.00364,   0.00088,  -0.00039,476749330.92502,   0.00195,276749336.71959,   0.00192,   0.00024,  -0.00006,  -5.79457,   1.00000
535301310.33285,369600623.70805,-25769033.17124,   0.00364,   0.00088,  -0.00040,476756274.13851,   0.00196,276756279.29944,   0.00193,   0.00024,  -0.00006,  -5.16093,   1.00000
535169157.91837,369820839.46171,-26117431.95387,   0.00365,   0.00088,  -0.00041,476763184.82810,   0.00196,276763190.71233,   0.00193,   0.00024,  -0.00007,  -5.88423,   1.00000
535033775.06668,370049355.47944,-26463825.20906,   0.00365,   0.00088,  -0.00041,476770137.97404,   0.00197,276770142.67817,   0.00194,   0.00024,  -0.00007,  -4.70413,   1.00000
534898652.30604,370268602.78122,-26814699.06133,   0.00366,   0.00089,  -0.00042,476777006.66319,   0.00198,276777010.66962,   0.00195,   0.00025,  -0.00007,  -4.00644,   1.00000
534762120.16071,370485739.49149,-27168622.30137,   0.00366,   0.00089,  -0.00042,476783882.80102,   0.00198,276783886.87333,   0.00195,   0.00025,  -0.00007,  -4.07231,   1.00000
534625056.01616,370701331.38291,-27521072.17184,   0.00367,   0.00089,  -0.00043,476790767.31199,   0.00199,276790768.04859,   0.00196,   0.00025,  -0.00007,  -0.73660,   1.00000
534485455.37567,370917518.76789,-27877460.98000,   0.00367,   0.00090,  -0.00044,476797595.74024,   0.00200,276797601.66099,   0.00196,   0.00025,  -0.00007,  -5.92076,   1.00000
534348053.63401,371122365.18891,-28232963.14432,   0.00368,   0.00090,  -0.00044,476804403.80815,   0.00200,276804404.35837,   0.00197,   0.00025,  -0.00007,  -0.55022,   1.00000
534205334.50387,371337637.61333,-28591829.47370,   0.00368,   0.00090,  -0.00045,476811190.87485,   0.00201,276811195.83825,   0.00198,   0.00025,  -0.00008,  -4.96340,   1.00000
534065939.80588,371538851.01380,-28948884.19079,   0.00369,   0.00091,  -0.00045,476818009.22363,   0.00201,276818012.52959,   0.00198,   0.00026,  -0.00008,  -3.30596,   1.00000
533922795.60912,371743438.67444,-29310859.01951,   0.00369,   0.00091,  -0.00046,476824725.88104,   0.00202,276824726.15985,   0.00199,   0.00026,  -0.00008,  -0.27881,   1.00000
533779274.88417,371943158.35315,-29674893.83273,   0.00370,   0.00091,  -0.00047,476831496.39014,   0.00203,276831504.98923,   0.00199,   0.00026,  -0.00008,  -8.59908,   1.00000
533636798.72847,372134367.82790,-30039030.25614,   0.00370,   0.00091,  -0.00047,476838188.43241,   0.00203,276838197.24442,   0.00200,   0.00026,  -0.00008,  -8.81201,   1.00000
533489863.81049,372336628.41118,-30402031.17893,   0.00371,   0.00092,  -0.00048,476844873.05812,   0.00204,276844875.35721,   0.00201,   0.00026,  -0.00008,  -2.29909,   1.00000
533344130.64531,372526999.75854,-30768694.58605,   0.00371,   0.00092,  -0.00049,476851524.18165,   0.00205,276851526.73534,   0.00201,   0.00027,  -0.00009,  -2.55369,   1.00000
533196834.36620,372715266.98711,-31138364.97450,   0.00372,   0.00092,  -0.00049,476858183.59947,   0.00205,276858187.79331,   0.00202,   0.00027,  -0.00009,  -4.19384,   1.00000
533048971.11793,372902078.53536,-31506535.06404,   0.00372,   0.00093,  -0.00050,476864846.41887,   0.00206,276864854.82488,   0.00202,   0.00027,  -0.00009,  -8.40601,   1.00000
532902113.28283,373080482.98043,-31874909.12445,   0.00373,   0.00093,  -0.00050,476871430.06521,   0.00206,276871435.52052,   0.00203,   0.00027,  -0.00009,  -5.45531,   1.00000
532752439.24406,373259565.34317,-32247333.35566,   0.00373,   0.00093,  -0.00051,476877963.69571,   0.00207,276877970.29331,   0.00203,   0.00027,  -0.00009,  -6.59760,   1.00000
532601146.84321,373436553.76546,-32622758.14388,   0.00374,   0.00093,  -0.00052,476884511.74787,   0.00208,276884515.26034,   0.00204,   0.00027,  -0.00009,  -3.51247,   1.00000
532449265.76393,373612120.69921,-32996681.70478,   0.00374,   0.00094,  -0.00052,476891057.80009,   0.00208,276891066.57965,   0.00205,   0.00028,  -0.00009,  -8.77956,   1.00000
532295575.15045,373789048.52904,-33370185.65991,   0.00374,   0.00094,  -0.00053,476897560.72580,   0.00209,276897568.26095,   0.00205,   0.00028,  -0.00010,  -7.53515,   1.00000
532143004.65075,373954175.99617,-33747397.14611,   0.00375,   0.00094,  -0.00054,476904041.46937,   0.00210,276904043.96984,   0.00206,   0.00028,  -0.00010,  -2.50047,   1.00000
531987482.74408,374119982.24617,-34128693.33109,   0.00375,   0.00095,  -0.00054,476910472.14159,   0.00210,276910474.51039,   0.00206,   0.00028,  -0.00010,  -2.36880,   1.00000
531831362.20019,374284406.62947,-34508488.22067,   0.00376,   0.00095,  -0.00055,476916907.13947,   0.00211,276916911.73441,   0.00207,   0.00028,  -0.00010,  -4.59494,   1.00000
531673366.31856,374450229.57168,-34887909.63890,   0.00376,   0.00095,  -0.00056,476923293.12016,   0.00211,276923299.71233,   0.00207,   0.00028,  -0.00010,  -6.59217,   1.00000
531516431.98842,374604278.45832,-35271064.31488,   0.00377,   0.00095,  -0.00056,476929656.60874,   0.00212,276929662.14211,   0.00208,   0.00029,  -0.00010,  -5.53337,   1.00000
531358906.64588,374756998.22396,-35652725.26162,   0.00377,   0.00096,  -0.00057,476936030.31361,   0.00213,276936031.42294,   0.00208,   0.00029,  -0.00011,  -1.10934,   1.00000
531198310.81152,374910404.21051,-36038524.67137,   0.00378,   0.00096,  -0.00058,476942353.91028,   0.00213,276942356.14602,   0.00209,   0.00029,  -0.00011,  -2.23574,   1.00000
531035771.55725,375065241.44507,-36423996.96132,   0.00378,   0.00096,  -0.00058,476948622.81223,   0.00214,276948632.00861,   0.00210,   0.00029,  -0.00011,  -9.19639,   1.00000
530874243.99992,375208333.68433,-36813229.07274,   0.00378,   0.00097,  -0.00059,476954880.07337,   0.00214,276954882.70427,   0.00210,   0.00029,  -0.00011,  -2.63090,   1.00000
530710738.96041,375352895.26212,-37202160.85188,   0.00379,   0.00097,  -0.00060,476961082.61599,   0.00215,276961084.72736,   0.00211,   0.00029,  -0.00011,  -2.11137,   1.00000
530545405.28558,375495351.02342,-37594070.40498,   0.00379,   0.00097,  -0.00060,476967289.13744,   0.00215,276967298.70156,   0.00211,   0.00030,  -0.00012,  -9.56413,   1.00000
530382246.78443,375626887.29567,-37985287.39003,   0.00380,   0.00097,  -0.00061,476973479.24316,   0.00216,276973483.18219,   0.00212,   0.00030,  -0.00012,  -3.93904,   1.00000
530215846.06904,375759126.41284,-38380705.05581,   0.00380,   0.00098,  -0.00062,476979618.99629,   0.00217,276979623.94811,   0.00212,   0.00030,  -0.00012,  -4.95181,   1.00000
530047414.41104,375892871.51269,-38775871.02393,   0.00381,   0.00098,  -0.00062,476985714.94127,   0.00217,276985716.34666,   0.00213,   0.00030,  -0.00012,  -1.40539,   1.00000
529878339.53795,376025331.85057,-39169551.63054,   0.00381,   0.00098,  -0.00063,476991811.00355,   0.00218,276991816.38648,   0.00213,   0.00030,  -0.00012,  -5.38292,   1.00000
529708737.18459,376148865.74806,-39568311.05462,   0.00381,   0.00098,  -0.00064,476997828.61515,   0.00218,276997836.04240,   0.00214,   0.00030,  -0.00012,  -7.42725,   1.00000
529537209.83049,376270307.20277,-39970038.26699,   0.00382,   0.00099,  -0.00065,477003861.55303,   0.00219,277003868.46352,   0.00214,   0.00031,  -0.00013,  -6.91049,   1.00000
529363582.81433,376393278.40907,-40371561.70040,   0.00382,   0.00099,  -0.00065,477009850.44136,   0.00219,277009852.86566,   0.00215,   0.00031,  -0.00013,  -2.42430,   1.00000
529192071.65595,376505401.82044,-40772464.44571,   0.00383,   0.00099,  -0.00066,477015800.88652,   0.00220,277015808.21536,   0.00215,   0.00031,  -0.00013,  -7.32885,   1.00000
529018443.21408,376619099.11287,-41173209.16710,   0.00383,   0.00099,  -0.00067,477021707.09435,   0.00221,277021715.57351,   0.00216,   0.00031,  -0.00013,  -8.47916,   1.00000
528842837.08086,376730703.66423,-41576929.94758,   0.00383,   0.00100,  -0.00067,477027628.74431,   0.00221,277027636.12000,   0.00216,   0.00031,  -0.00013,  -7.37569,   1.00000
528665023.84596,376836182.97793,-41987186.59107,   0.00384,   0.00100,  -0.00068,477033414.02136,   0.00222,277033420.93928,   0.00217,   0.00031,  -0.00013,  -6.91791,   1.00000
528488019.37774,376937675.83847,-42394615.29547,   0.00384,   0.00100,  -0.00069,477039267.33314,   0.00222,277039270.11346,   0.00217,   0.00032,  -0.00014,  -2.78031,   1.00000
528308813.38766,377040750.61246,-42801933.08433,   0.00385,   0.00100,  -0.00070,477045065.79346,   0.00223,277045071.67747,   0.00218,   0.00032,  -0.00014,  -5.88401,   1.00000
528128812.25496,377134935.20888,-43214516.03626,   0.00385,   0.00101,  -0.00070,477050793.40241,   0.00223,277050793.70193,   0.00218,   0.00032,  -0.00014,  -0.29952,   1.00000
527946555.34026,377230711.95464,-43627022.86392,   0.00385,   0.00101,  -0.00071,477056466.01252,   0.00224,277056468.30923,   0.00219,   0.00032,  -0.00014,  -2.29671,   1.00000
527763595.45105,377325309.36418,-44038073.08702,   0.00386,   0.00101,  -0.00072,477062150.55182,   0.00224,277062151.49332,   0.00219,   0.00032,  -0.00014,  -0.94150,   1.00000
527579732.19063,377411009.51300,-44454457.77718,   0.00386,   0.00101,  -0.00072,477067753.09602,   0.00225,277067755.42675,   0.00220,   0.00032,  -0.00015,  -2.33072,   1.00000
527395148.32649,377495554.77054,-44869388.16936,   0.00386,   0.00102,  -0.00073,477073367.76760,   0.00225,277073368.13059,   0.00220,   0.00033,  -0.00015,  -0.36299,   1.00000
527206808.93187,377580749.57537,-45288727.72087,   0.00387,   0.00102,  -0.00074,477078930.90349,   0.00226,277078939.26791,   0.00221,   0.00033,  -0.00015,  -8.36442,   1.00000
527018912.02881,377658009.57468,-45709039.16821,   0.00387,   0.00102,  -0.00075,477084417.36444,   0.00226,277084425.77566,   0.00221,   0.00033,  -0.00015,  -8.41122,   1.00000
526828805.02321,377733147.79719,-46132322.67157,   0.00388,   0.00102,  -0.00075,477089919.68028,   0.00227,277089927.06066,   0.00222,   0.00033,  -0.00015,  -7.38038,   1.00000
526640563.64832,377801360.92672,-46552212.21157,   0.00388,   0.00102,  -0.00076,477095331.47760,   0.00228,277095338.00754,   0.00222,   0.00033,  -0.00016,  -6.52994,   1.00000
526446949.16657,377869227.46879,-46980990.24912,   0.00388,   0.00103,  -0.00077,477100703.94430,   0.00228,277100713.67470,   0.00222,   0.00033,  -0.00016,  -9.73040,   1.00000
526254059.60769,377936967.73342,-47403916.23899,   0.00389,   0.00103,  -0.00078,477106085.80477,   0.00229,277106092.73261,   0.00223,   0.00034,  -0.00016,  -6.92783,   1.00000
526059996.52009,377995805.59088,-47832359.32800,   0.00389,   0.00103,  -0.00078,477111392.24076,   0.00229,277111393.19059,   0.00223,   0.00034,  -0.00016,  -0.94983,   1.00000
525863457.75017,378056285.70147,-48260906.63721,   0.00389,   0.00103,  -0.00079,477116643.03452,   0.00230,277116646.92179,   0.00224,   0.00034,  -0.00016,  -3.88727,   1.00000
525664587.15293,378114615.43384,-48692434.38242,   0.00390,   0.00104,  -0.00080,477121909.86276,   0.00230,277121916.20111,   0.00224,   0.00034,  -0.00016,  -6.33836,   1.00000
525465971.58204,378165059.14641,-49125138.01894,   0.00390,   0.00104,  -0.00081,477127096.88641,   0.00231,277127101.08024,   0.00225,   0.00034,  -0.00017,  -4.19383,   1.00000
525264826.86782,378217154.57608,-49557998.00218,   0.00390,   0.00104,  -0.00081,477132237.05930,   0.00231,277132239.35651,   0.00225,   0.00034,  -0.00017,  -2.29721,   1.00000
525064029.54365,378257561.68758,-49994908.72624,   0.00391,   0.00104,  -0.00082,477137350.50302,   0.00231,277137355.75852,   0.00225,   0.00034,  -0.00017,  -5.25550,   1.00000
524860503.34965,378303446.40216,-50429215.34800,   0.00391,   0.00104,  -0.00083,477142353.51779,   0.00232,277142363.09836,   0.00226,   0.00035,  -0.00017,  -9.58056,   1.00000
524655682.05769,378336567.20249,-50871996.90962,   0.00391,   0.00105,  -0.00084,477147349.66644,   0.00232,277147355.02125,   0.00226,   0.00035,  -0.00017,  -5.35480,   1.00000
524451611.51451,378369700.54392,-51308994.92991,   0.00392,   0.00105,  -0.00084,477152347.57202,   0.00233,277152350.49871,   0.00227,   0.00035,  -0.00018,  -2.92669,   1.00000
524241495.62404,378406134.46852,-51752258.99747,   0.00392,   0.00105,  -0.00085,477157248.06868,   0.00233,277157249.74521,   0.00227,   0.00035,  -0.00018,  -1.67653,   1.00000
524031578.51209,378430844.08451,-52199627.31988,   0.00392,   0.00105,  -0.00086,477162121.00933,   0.00234,277162127.66779,   0.00227,   0.00035,  -0.00018,  -6.65846,   1.00000
523820623.60409,378458332.75110,-52642898.23963,   0.00392,   0.00105,  -0.00087,477166951.57678,   0.00234,277166952.75832,   0.00228,   0.00035,  -0.00018,  -1.18154,   1.00000
523607996.52314,378476822.91145,-53091980.60955,   0.00393,   0.00105,  -0.00087,477171692.10269,   0.00235,277171700.24313,   0.00228,   0.00035,  -0.00018,  -8.14044,   1.00000
523392617.96065,378496968.30666,-53541388.37775,   0.00393,   0.00106,  -0.00088,477176392.15398,   0.00235,277176401.58273,   0.00229,   0.00036,  -0.00019,  -9.42875,   1.00000
523177333.65820,378505381.23500,-53994954.97684,   0.00393,   0.00106,  -0.00089,477181071.95969,   0.00236,277181081.91012,   0.00229,   0.00036,  -0.00019,  -9.95042,   1.00000
522959243.09356,378515449.58118,-54448875.41266,   0.00394,   0.00106,  -0.00090,477185710.80613,   0.00236,277185716.24576,   0.00229,   0.00036,  -0.00019,  -5.43963,   1.00000
522738318.31333,378527154.49912,-54903171.55902,   0.00394,   0.00106,  -0.00090,477190300.28822,   0.00236,277190304.61794,   0.00230,   0.00036,  -0.00019,  -4.32972,   1.00000
522517242.49687,378530976.18190,-55359049.15972,   0.00394,   0.00106,  -0.00091,477194802.70970,   0.00237,277194808.73310,   0.00230,   0.00036,  -0.00019,  -6.02340,   1.00000
522294234.99097,378525741.13325,-55820896.63487,   0.00394,   0.00107,  -0.00092,477199234.82657,   0.00237,277199235.61760,   0.00230,   0.00036,  -0.00019,  -0.79103,   1.00000
522068279.45502,378522127.55238,-56283185.28653,   0.00395,   0.00107,  -0.00093,477203608.98779,   0.00238,277203616.74092,   0.00231,   0.00036,  -0.00020,  -7.75313,   1.00000
521841324.88732,378517455.55636,-56744156.89252,   0.00395,   0.00107,  -0.00094,477208005.00918,   0.00238,277208008.58099,   0.00231,   0.00036,  -0.00020,  -3.57182,   1.00000
521612286.42571,378503665.29704,-57211166.33950,   0.00395,   0.00107,  -0.00094,477212313.73386,   0.00239,277212323.48106,   0.00232,   0.00037,  -0.00020,  -9.74720,   1.00000
521382919.78641,378481981.19654,-57679903.50300,   0.00395,   0.00107,  -0.00095,477216546.75526,   0.00239,277216554.18708,   0.00232,   0.00037,  -0.00020,  -7.43182,   1.00000
521147831.31150,378471422.28386,-58147922.75029,   0.00396,   0.00107,  -0.00096,477220767.97867,   0.00239,277220777.74417,   0.00232,   0.00037,  -0.00020,  -9.76550,   1.00000
520915023.04247,378443423.95762,-58618986.68798,   0.00396,   0.00108,  -0.00097,477224871.79309,   0.00240,277224878.46240,   0.00233,   0.00037,  -0.00020,  -6.66931,   1.00000
520677255.82103,378415768.34924,-59094949.57781,   0.00396,   0.00108,  -0.00097,477228932.31445,   0.00240,277228941.07058,   0.00233,   0.00037,  -0.00021,  -8.75613,   1.00000
520438379.20804,378387039.98465,-59569631.19416,   0.00396,   0.00108,  -0.00098,477233007.72257,   0.00241,277233014.88873,   0.00233,   0.00037,  -0.00021,  -7.16617,   1.00000
520196948.37457,378353014.64675,-60048074.40517,   0.00396,   0.00108,  -0.00099,477236942.07620,   0.00241,277236947.66181,   0.00233,   0.00037,  -0.00021,  -5.58561,   1.00000
519957018.58761,378308394.78748,-60526552.96000,   0.00397,   0.00108,  -0.00100,477240849.59745,   0.00241,277240852.98783,   0.00234,   0.00037,  -0.00021,  -3.39038,   1.00000
519709878.46612,378266686.10484,-61011906.08640,   0.00397,   0.00108,  -0.00101,477244662.81098,   0.00242,277244663.70362,   0.00234,   0.00037,  -0.00021,  -0.89264,   1.00000
519461535.76584,378223874.99720,-61496011.20835,   0.00397,   0.00108,  -0.00101,477248478.22949,   0.00242,277248485.94565,   0.00234,   0.00038,  -0.00022,  -7.71616,   1.00000
519212534.01783,378173078.32169,-61982130.31679,   0.00397,   0.00108,  -0.00102,477252222.40616,   0.00242,277252223.85106,   0.00235,   0.00038,  -0.00022,  -1.44491,   1.00000
518960675.37210,378116887.33037,-62472250.92161,   0.00397,   0.00109,  -0.00103,477255816.36492,   0.00243,277255820.49703,   0.00235,   0.00038,  -0.00022,  -4.13211,   1.00000
518705613.35812,378058263.72864,-62965457.16210,   0.00398,   0.00109,  -0.00104,477259433.55492,   0.00243,277259436.80522,   0.00235,   0.00038,  -0.00022,  -3.25030,   1.00000
518449726.76999,377991595.89561,-63460773.84082,   0.00398,   0.00109,  -0.00105,477262962.72766,   0.00243,277262968.86514,   0.00236,   0.00038,  -0.00022,  -6.13748,   1.00000
518190389.19629,377926421.66220,-63956880.28422,   0.00398,   0.00109,  -0.00105,477266453.59188,   0.00244,277266455.57151,   0.00236,   0.00038,  -0.00022,  -1.97963,   1.00000
517930144.45886,377853173.48442,-64455170.42641,   0.00398,   0.00109,  -0.00106,477269853.96995,   0.00244,277269857.92495,   0.00236,   0.00038,  -0.00022,  -3.95500,   1.00000
517666932.93236,377770466.40099,-64959959.65559,   0.00398,   0.00109,  -0.00107,477273180.80693,   0.00244,277273184.25203,   0.00236,   0.00038,  -0.00023,  -3.44511,   1.00000
517402158.47431,377690587.60356,-65461336.83037,   0.00398,   0.00109,  -0.00108,477276448.35624,   0.00245,277276456.91376,   0.00237,   0.00038,  -0.00023,  -8.55752,   1.00000
517131756.39119,377610754.39591,-65967875.55273,   0.00398,   0.00109,  -0.00109,477279692.07326,   0.00245,277279692.69346,   0.00237,   0.00038,  -0.00023,  -0.62020,   1.00000
516858181.34855,377521344.89036,-66480990.02490,   0.00399,   0.00110,  -0.00110,477282846.78851,   0.00245,277282852.73773,   0.00237,   0.00039,  -0.00023,  -5.94922,   1.00000
516583236.74288,377427719.37601,-66994274.29364,   0.00399,   0.00110,  -0.00110,477285856.99744,   0.00246,277285862.39289,   0.00237,   0.00039,  -0.00023,  -5.39545,   1.00000
516306840.44890,377332928.65223,-67506439.59390,   0.00399,   0.00110,  -0.00111,477288883.70647,   0.00246,277288884.11815,   0.00238,   0.00039,  -0.00023,  -0.41168,   1.00000
516027091.43688,377228482.03814,-68025282.66178,   0.00399,   0.00110,  -0.00112,477291826.46255,   0.00246,277291830.13024,   0.00238,   0.00039,  -0.00024,  -3.66769,   1.00000
515746026.64682,377115795.87401,-68546586.26928,   0.00399,   0.00110,  -0.00113,477294686.39344,   0.00246,277294691.62253,   0.00238,   0.00039,  -0.00024,  -5.22909,   1.00000
515458728.16640,377006930.21263,-69071061.95322,   0.00399,   0.00110,  -0.00114,477297441.76141,   0.00247,277297450.47982,   0.00238,   0.00039,  -0.00024,  -8.71841,   1.00000
515172370.82104,376887269.08377,-69595930.99072,   0.00399,   0.00110,  -0.00114,477300176.13661,   0.00247,277300182.20130,   0.00238,   0.00039,  -0.00024,  -6.06469,   1.00000
514879891.59127,376767402.25147,-70126114.79018,   0.00399,   0.00110,  -0.00115,477302875.39957,   0.00247,277302877.91149,   0.00239,   0.00039,  -0.00024,  -2.51193,   1.00000
514583455.11315,376641650.17267,-70661074.82443,   0.00399,   0.00110,  -0.00116,477305421.84395,   0.00247,277305431.45424,   0.00239,   0.00039,  -0.00024,  -9.61028,   1.00000
514287603.16762,376509017.98182,-71194467.63029,   0.00400,   0.00110,  -0.00117,477307883.47580,   0.00248,277307890.93481,   0.00239,   0.00039,  -0.00024,  -7.45900,   1.00000
513985432.62402,376376072.33189,-71733254.95847,   0.00400,   0.00110,  -0.00118,477310312.06926,   0.00248,277310314.57326,   0.00239,   0.00039,  -0.00024,  -2.50400,   1.00000
513681763.35456,376230695.11913,-72276742.19605,   0.00400,   0.00110,  -0.00118,477312712.42592,   0.00248,277312720.75467,   0.00239,   0.00039,  -0.00025,  -8.32875,   1.00000
513376068.22306,376080821.70266,-72821012.52019,   0.00400,   0.00110,  -0.00119,477314967.17608,   0.00248,277314974.79604,   0.00240,   0.00039,  -0.00025,  -7.61996,   1.00000
513063596.08022,375934490.57269,-73368794.32788,   0.00400,   0.00110,  -0.00120,477317120.10411,   0.00248,277317125.80224,   0.00240,   0.00039,  -0.00025,  -5.69812,   1.00000
512749452.18103,375775629.36014,-73921344.33911,   0.00400,   0.00111,  -0.00121,477319255.51172,   0.00249,277319259.49670,   0.00240,   0.00040,  -0.00025,  -3.98498,   1.00000
512430912.23722,375617815.23480,-74475188.49468,   0.00400,   0.00111,  -0.00122,477321342.83800,   0.00249,277321348.16378,   0.00240,   0.00040,  -0.00025,  -5.32578,   1.00000
512107774.05019,375453774.46390,-75034238.12271,   0.00400,   0.00111,  -0.00123,477323289.78832,   0.00249,277323293.84068,   0.00240,   0.00040,  -0.00025,  -4.05236,   1.00000
511782503.92999,375281062.54316,-75596243.21490,   0.00400,   0.00111,  -0.00123,477325152.62779,   0.00249,277325154.47279,   0.00240,   0.00040,  -0.00025,  -1.84499,   1.00000
511455026.77949,375099640.33385,-76161244.80283,   0.00400,   0.00111,  -0.00124,477326925.31892,   0.00249,277326930.01298,   0.00240,   0.00040,  -0.00025,  -4.69406,   1.00000
511122926.63537,374919141.88332,-76727669.01646,   0.00400,   0.00111,  -0.00125,477328655.76027,   0.00250,277328660.38497,   0.00241,   0.00040,  -0.00025,  -4.62470,   1.00000
510786143.21500,374728240.10068,-77301322.80073,   0.00400,   0.00111,  -0.00126,477330314.38917,   0.00250,277330315.79938,   0.00241,   0.00040,  -0.00025,  -1.41021,   1.00000
510444308.26736,374542141.24160,-77874668.36719,   0.00400,   0.00111,  -0.00127,477331850.10561,   0.00250,277331857.54222,   0.00241,   0.00040,  -0.00026,  -7.43661,   1.00000
510097611.82493,374345525.72270,-78455320.33262,   0.00400,   0.00111,  -0.00128,477333321.08192,   0.00250,277333324.32975,   0.00241,   0.00040,  -0.00026,  -3.24783,   1.00000
509748330.81411,374139971.93250,-79039162.60925,   0.00400,   0.00111,  -0.00128,477334705.27493,   0.00250,277334705.82044,   0.00241,   0.00040,  -0.00026,  -0.54551,   1.00000
509396387.05537,373925435.26962,-79626237.32461,   0.00400,   0.00111,  -0.00129,477336000.67837,   0.00250,277336001.94534,   0.00241,   0.00040,  -0.00026,  -1.26697,   1.00000
509036671.30013,373713859.67152,-80217345.70278,   0.00400,   0.00111,  -0.00130,477337187.05731,   0.00250,277337194.44679,   0.00241,   0.00040,  -0.00026,  -7.38947,   1.00000
508676918.69123,373490943.90820,-80809319.11004,   0.00400,   0.00111,  -0.00131,477338358.45177,   0.00250,277338359.91305,   0.00241,   0.00040,  -0.00026,  -1.46128,   1.00000
508311484.55918,373261157.48516,-81407116.85846,   0.00400,   0.00111,  -0.00132,477339376.08161,   0.00251,277339381.19503,   0.00241,   0.00040,  -0.00026,  -5.11342,   1.00000
507940579.62994,373020474.37694,-82012428.19963,   0.00400,   0.00111,  -0.00133,477340325.03858,   0.00251,277340327.84142,   0.00241,   0.00040,  -0.00026,  -2.80284,   1.00000
507564009.33835,372784228.95965,-82617854.70139,   0.00400,   0.00111,  -0.00133,477341153.48897,   0.00251,277341159.50394,   0.00241,   0.00040,  -0.00026,  -6.01498,   1.00000
507181751.95941,372536943.07359,-83230869.18877,   0.00400,   0.00111,  -0.00134,477341907.62526,   0.00251,277341916.60153,   0.00242,   0.00040,  -0.00026,  -8.97627,   1.00000
506796212.44815,372280280.41545,-83847410.56572,   0.00400,   0.00111,  -0.00135,477342578.06112,   0.00251,277342587.94922,   0.00242,   0.00040,  -0.00026,  -9.88810,   1.00000
506407689.76781,372025734.87925,-84461681.74879,   0.00399,   0.00111,  -0.00136,477343199.16130,   0.00251,277343202.58391,   0.00242,   0.00040,  -0.00026,  -3.42262,   1.00000
506010250.30440,371762116.01613,-85086209.47688,   0.00399,   0.00111,  -0.00137,477343683.38581,   0.00251,277343683.76515,   0.00242,   0.00040,  -0.00026,  -0.37935,   1.00000
505609236.25888,371488927.36932,-85714393.61201,   0.00399,   0.00111,  -0.00138,477344070.79096,   0.00251,277344079.02002,   0.00242,   0.00040,  -0.00026,  -8.22906,   1.00000
505201589.66172,371208249.40858,-86348885.55486,   0.00399,   0.00111,  -0.00138,477344323.35438,   0.00251,277344329.05639,   0.00242,   0.00040,  -0.00026,  -5.70200,   1.00000
504791057.32387,370925577.97922,-86982706.25749,   0.00399,   0.00111,  -0.00139,477344587.08610,   0.00251,277344592.96648,   0.00242,   0.00040,  -0.00026,  -5.88038,   1.00000
504375764.36891,370625428.91480,-87624761.93880,   0.00399,   0.00111,  -0.00140,477344668.92596,   0.00251,277344670.52931,   0.00242,   0.00040,  -0.00026,  -1.60335,   1.00000
503945425.47703,370323276.07582,-88270270.27661,   0.00399,   0.00110,  -0.00141,477339000.69112,   0.00251,277344670.52931,   0.00242,   0.00040,  -0.00026,-5669.83819,   0.00000
503499063.32854,370014256.12686,-88920356.68775,   0.00399,   0.00110,  -0.00142,477326423.56377,   0.00251,277344670.52931,   0.00242,   0.00040,  -0.00026,-18246.96554,   0.00000
503022943.70349,369666322.55471,-89565865.02556,   0.00398,   0.00110,  -0.00143,477284781.54773,   0.00251,277344670.52931,   0.00242,   0.00040,  -0.00026,-59888.98159,   0.00000
502530800.82182,369311521.87258,-90211373.36338,   0.00398,   0.00110,  -0.00143,477233765.33459,   0.00251,277344670.52931,   0.00242,   0.00040,  -0.00026,-110905.19473,   0.00000
501992877.20697,368910940.45726,-90861459.77451,   0.00398,   0.00110,  -0.00144,477146603.19381,   0.00251,277344670.52931,   0.00242,   0.00040,  -0.00026,-198067.33550,   0.00000
501429774.18888,368512648.07861,-91506968.11233,   0.00398,   0.00110,  -0.00145,477043763.15444,   0.00251,277344670.52931,   0.00242,   0.00040,  -0.00026,-300907.37488,   0.00000
500852936.95083,368082309.18673,-92157054.52346,   0.00398,   0.00110,  -0.00146,476929673.31464,   0.00251,277344670.52931,   0.00242,   0.00040,  -0.00026,-414997.21467,   0.00000
500237186.08958,367622212.81829,-92802562.86128,   0.00398,   0.00110,  -0.00147,476782947.93423,   0.00251,277344670.52931,   0.00242,   0.00040,  -0.00026,-561722.59508,   0.00000
499589388.71510,367148382.22989,-93452649.27241,   0.00397,   0.00110,  -0.00148,476617508.08472,   0.00251,277344670.52931,   0.00242,   0.00040,  -0.00026,-727162.44460,   0.00000
498918700.97404,366651661.27491,-94102735.68355,   0.00397,   0.00110,  -0.00149,476434586.20613,   0.00251,277344670.52931,   0.00242,   0.00040,  -0.00026,-910084.32319,   0.00000
498209099.60977,366125182.84336,-94748244.02136,   0.00397,   0.00110,  -0.00149,476219222.61980,   0.00251,277344670.52931,   0.00242,   0.00040,  -0.00026,-1125447.90952,   0.00000
497492631.13553,365582681.15519,-95398330.43250,   0.00397,   0.00110,  -0.00150,476001522.26355,   0.00251,277344670.52931,   0.00242,   0.00040,  -0.00026,-1343148.26576,   0.00000
496721225.78147,365003554.88048,-96048416.84363,   0.00397,   0.00109,  -0.00151,475742002.72513,   0.00251,277344670.52931,   0.00242,   0.00040,  -0.00026,-1602667.80419,   0.00000
495933797.17080,364417561.49580,-96693925.18145,   0.00396,   0.00109,  -0.00152,475470977.84770,   0.00251,277344670.52931,   0.00242,   0.00040,  -0.00026,-1873692.68162,   0.00000
495116611.08357,363792654.48791,-97344011.59258,   0.00396,   0.00109,  -0.00153,475177164.41544,   0.00251,277344670.52931,   0.00242,   0.00040,  -0.00026,-2167506.11387,   0.00000
494267378.48311,363154013.26008,-97994098.00371,   0.00396,   0.00109,  -0.00154,474862534.20382,   0.00251,277344670.52931,   0.00242,   0.00040,  -0.00026,-2482136.32550,   0.00000
493395255.51606,362492481.66565,-98644184.41485,   0.00396,   0.00109,  -0.00154,474530960.18323,   0.00251,277344670.52931,   0.00242,   0.00040,  -0.00026,-2813710.34609,   0.00000
492484218.92581,361801192.59465,-99294270.82598,   0.00395,   0.00109,  -0.00155,474170315.14959,   0.00251,277344670.52931,   0.00242,   0.00040,  -0.00026,-3174355.37972,   0.00000
491557159.07894,361103036.41368,-99939779.16380,   0.00395,   0.00109,  -0.00156,473798416.22000,   0.00251,277344670.52931,   0.00242,   0.00040,  -0.00026,-3546254.30931,   0.00000
490584318.49890,360359099.49953,-100589865.57493,   0.00395,   0.00109,  -0.00157,473392114.50492,   0.00251,277344670.52931,   0.00242,   0.00040,  -0.00026,-3952556.02439,   0.00000
489595454.66225,359608295.47541,-101239951.98607,   0.00394,   0.00108,  -0.00158,472977623.26720,   0.00251,277344670.52931,   0.00242,   0.00040,  -0.00026,-4367047.26212,   0.00000
488560810.09242,358811710.71810,-101890038.39720,   0.00394,   0.00108,  -0.00159,472526093.05865,   0.00251,277344670.52931,   0.00242,   0.00040,  -0.00026,-4818577.47066,   0.00000
