# sigma_xx, sigma_yy, sigma_xy, epsilon_xx, epsilon_yy, epsilon_xy, vonMises, epsPlastic, hardening, epsilonP__xx, epsilonP__yy, epsilonP__xy, yieldValue, iteration
   0.00000,   0.00000,   0.00000,   0.00000,   0.00000,   0.00000,   0.00000,   0.00000,274640135.82653,   0.00000,   0.00000,   0.00000,-474640135.82653,   0.00000
   0.00000,   0.00000,   0.00000,   0.00000,   0.00000,   0.00000,   0.00000,   0.00000,274640135.82653,   0.00000,   0.00000,   0.00000,-474640135.82653,   0.00000
-1133725.58335,725910.62531,-925739.95475,  -0.00001,   0.00001,  -0.00001,2281720.13466,   0.00000,274640135.82653,   0.00000,   0.00000,   0.00000,-472358415.69187,   0.00000
-2253177.64318,1457938.47500,-1843323.61035,  -0.00001,   0.00001,  -0.00002,4547627.32234,   0.00000,274640135.82653,   0.00000,   0.00000,   0.00000,-470092508.50418,   0.00000
-3401176.75006,2177731.87594,-2760907.26594,  -0.00002,   0.00002,  -0.00004,6825334.95341,   0.00000,274640135.82653,   0.00000,   0.00000,   0.00000,-467814800.87312,   0.00000
-4547136.78216,2875095.45419,-3670334.62237,  -0.00003,   0.00002,  -0.00005,9079105.01089,   0.00000,274640135.82653,   0.00000,   0.00000,   0.00000,-465561030.81564,   0.00000
-5701253.11341,3580615.33160,-4579761.97880,  -0.00003,   0.00003,  -0.00006,11342916.15374,   0.00000,274640135.82653,   0.00000,   0.00000,   0.00000,-463297219.67279,   0.00000
-6853330.36988,4263705.38632,-5481033.03607,  -0.00004,   0.00003,  -0.00007,13582822.67497,   0.00000,274640135.82653,   0.00000,   0.00000,   0.00000,-461057313.15156,   0.00000
-8013563.92550,4954951.74020,-6382304.09334,  -0.00005,   0.00004,  -0.00008,15832782.21518,   0.00000,274640135.82653,   0.00000,   0.00000,   0.00000,-458807353.61135,   0.00000
-9200305.45340,5611533.82264,-7275418.85145,  -0.00005,   0.00004,  -0.00009,18070913.53256,   0.00000,274640135.82653,   0.00000,   0.00000,   0.00000,-456569222.29397,   0.00000
-10366656.23340,6288506.65299,-8164455.45998,  -0.00006,   0.00005,  -0.00011,20302183.69913,   0.00000,274640135.82653,   0.00000,   0.00000,   0.00000,-454337952.12740,   0.00000
-11559514.98567,6930815.21191,-9053492.06851,  -0.00007,   0.00005,  -0.00012,22531591.25348,   0.00000,274640135.82653,   0.00000,   0.00000,   0.00000,-452108544.57304,   0.00000
-12752373.73794,7573123.77082,-9934372.37788,  -0.00007,   0.00006,  -0.00013,24751278.91476,   0.00000,274640135.82653,   0.00000,   0.00000,   0.00000,-449888856.91177,   0.00000
-13945232.49021,8215432.32973,-10811174.53767,  -0.00008,   0.00006,  -0.00014,26966153.52748,   0.00000,274640135.82653,   0.00000,   0.00000,   0.00000,-447673982.29905,   0.00000
-15144208.46685,8843467.36512,-11683898.54787,  -0.00009,   0.00007,  -0.00015,29172276.81041,   0.00000,274640135.82653,   0.00000,   0.00000,   0.00000,-445467859.01612,   0.00000
-16357457.96702,9465385.17613,-12552544.40850,  -0.00009,   0.00007,  -0.00016,31379749.85907,   0.00000,274640135.82653,   0.00000,   0.00000,   0.00000,-443260385.96746,   0.00000
-17576824.69156,10073029.46361,-13417112.11955,  -0.00010,   0.00008,  -0.00017,33578553.49316,   0.00000,274640135.82653,   0.00000,   0.00000,   0.00000,-441061582.33337,   0.00000
-18802308.64048,10666400.22756,-14277601.68101,  -0.00011,   0.00009,  -0.00019,35768723.52311,   0.00000,274640135.82653,   0.00000,   0.00000,   0.00000,-438871412.30342,   0.00000
-20021675.36502,11274044.51504,-15134013.09290,  -0.00011,   0.00009,  -0.00020,37958027.87776,   0.00000,274640135.82653,   0.00000,   0.00000,   0.00000,-436682107.94877,   0.00000
-21253276.53830,11853141.75546,-15982268.20562,  -0.00012,   0.00010,  -0.00021,40129982.85141,   0.00000,274640135.82653,   0.00000,   0.00000,   0.00000,-434510152.97512,   0.00000
-22499151.23512,12426121.77151,-16830523.31835,  -0.00013,   0.00010,  -0.00022,42308356.70518,   0.00000,274640135.82653,   0.00000,   0.00000,   0.00000,-432331779.12135,   0.00000
-23730752.40840,13005219.01193,-17674700.28149,  -0.00013,   0.00011,  -0.00023,44475758.04782,   0.00000,274640135.82653,   0.00000,   0.00000,   0.00000,-430164377.77871,   0.00000
-24982744.32959,13563925.50444,-18510720.94548,  -0.00014,   0.00011,  -0.00024,46636059.46127,   0.00000,274640135.82653,   0.00000,   0.00000,   0.00000,-428004076.36526,   0.00000
-26240853.47514,14108358.47343,-19342663.45988,  -0.00015,   0.00012,  -0.00025,48787902.46118,   0.00000,274640135.82653,   0.00000,   0.00000,   0.00000,-425852233.36535,   0.00000
-27507118.91986,14660947.74157,-20174605.97429,  -0.00015,   0.00012,  -0.00026,50950069.59378,   0.00000,274640135.82653,   0.00000,   0.00000,   0.00000,-423690066.23275,   0.00000
-28771345.28979,15191107.18702,-20998392.18953,  -0.00016,   0.00013,  -0.00027,53088850.62986,   0.00000,274640135.82653,   0.00000,   0.00000,   0.00000,-421551285.19667,   0.00000
-30049845.18325,15715149.40811,-21818100.25519,  -0.00017,   0.00013,  -0.00028,55229389.09166,   0.00000,274640135.82653,   0.00000,   0.00000,   0.00000,-419410746.73487,   0.00000
-31314071.55317,16245308.85356,-22633730.17127,  -0.00017,   0.00013,  -0.00029,57358914.95859,   0.00000,274640135.82653,   0.00000,   0.00000,   0.00000,-417281220.86794,   0.00000
-32598688.67100,16755077.55111,-23445281.93777,  -0.00018,   0.00014,  -0.00030,59486506.19246,   0.00000,274640135.82653,   0.00000,   0.00000,   0.00000,-415153629.63407,   0.00000
-33883305.78883,17264846.24866,-24252755.55469,  -0.00019,   0.00014,  -0.00032,61609511.01898,   0.00000,274640135.82653,   0.00000,   0.00000,   0.00000,-413030624.80755,   0.00000
-35174040.13103,17760341.42268,-25052072.87245,  -0.00019,   0.00015,  -0.00033,63719422.89563,   0.00000,274640135.82653,   0.00000,   0.00000,   0.00000,-410920712.93090,   0.00000
-36479047.99676,18249719.37233,-25851390.19022,  -0.00020,   0.00015,  -0.00034,65836074.55742,   0.00000,274640135.82653,   0.00000,   0.00000,   0.00000,-408804061.26911,   0.00000
-37775899.56333,18730941.02282,-26646629.35839,  -0.00021,   0.00016,  -0.00035,67938011.85430,   0.00000,274640135.82653,   0.00000,   0.00000,   0.00000,-406702123.97223,   0.00000
-39087024.65343,19206045.44894,-27433712.22741,  -0.00022,   0.00016,  -0.00036,70037136.93272,   0.00000,274640135.82653,   0.00000,   0.00000,   0.00000,-404602998.89381,   0.00000
-40389993.44437,19672993.57589,-28216716.94685,  -0.00022,   0.00017,  -0.00037,72121561.78295,   0.00000,274640135.82653,   0.00000,   0.00000,   0.00000,-402518574.04358,   0.00000
-41707235.75885,20133824.47848,-28999721.66629,  -0.00023,   0.00017,  -0.00038,74212816.52917,   0.00000,274640135.82653,   0.00000,   0.00000,   0.00000,-400427319.29736,   0.00000
-43030595.29769,20580381.85754,-29774570.08657,  -0.00024,   0.00018,  -0.00039,76291188.24202,   0.00000,274640135.82653,   0.00000,   0.00000,   0.00000,-398348947.58451,   0.00000
-44353954.83653,21026939.23659,-30545340.35727,  -0.00024,   0.00018,  -0.00040,78365086.92763,   0.00000,274640135.82653,   0.00000,   0.00000,   0.00000,-396275048.89890,   0.00000
-45677314.37538,21473496.61565,-31312032.47838,  -0.00025,   0.00019,  -0.00041,80434506.86666,   0.00000,274640135.82653,   0.00000,   0.00000,   0.00000,-394205628.95987,   0.00000
-47027181.88649,21885389.72327,-32074646.44992,  -0.00026,   0.00019,  -0.00042,82498988.82628,   0.00000,274640135.82653,   0.00000,   0.00000,   0.00000,-392141147.00025,   0.00000
-48356658.64970,22317673.57879,-32829104.12230,  -0.00026,   0.00020,  -0.00043,84551187.72233,   0.00000,274640135.82653,   0.00000,   0.00000,   0.00000,-390088948.10420,   0.00000
-49706526.16082,22729566.68641,-33583561.79467,  -0.00027,   0.00020,  -0.00044,86606850.85084,   0.00000,274640135.82653,   0.00000,   0.00000,   0.00000,-388033284.97569,   0.00000
-51042120.14840,23147577.01840,-34329863.16789,  -0.00028,   0.00020,  -0.00045,88646648.40682,   0.00000,274640135.82653,   0.00000,   0.00000,   0.00000,-385993487.41971,   0.00000
-52398104.88389,23545196.60249,-35076164.54110,  -0.00028,   0.00021,  -0.00046,90689984.65269,   0.00000,274640135.82653,   0.00000,   0.00000,   0.00000,-383950151.17384,   0.00000
-53754089.61938,23942816.18658,-35814309.61516,  -0.00029,   0.00021,  -0.00047,92724210.45453,   0.00000,274640135.82653,   0.00000,   0.00000,   0.00000,-381915925.37199,   0.00000
-55116191.57923,24326162.24714,-36548376.53963,  -0.00030,   0.00022,  -0.00048,94750586.51914,   0.00000,274640135.82653,   0.00000,   0.00000,   0.00000,-379889549.30739,   0.00000
-56478293.53909,24709508.30770,-37278365.31452,  -0.00031,   0.00022,  -0.00048,96772609.07340,   0.00000,274640135.82653,   0.00000,   0.00000,   0.00000,-377867526.75313,   0.00000
-57846512.72332,25078580.84473,-38004275.93984,  -0.00031,   0.00023,  -0.00049,98786829.41812,   0.00000,274640135.82653,   0.00000,   0.00000,   0.00000,-375853306.40841,   0.00000
-59214731.90754,25447653.38175,-38726108.41557,  -0.00032,   0.00023,  -0.00050,100796715.86535,   0.00000,274640135.82653,   0.00000,   0.00000,   0.00000,-373843419.96118,   0.00000
-60582951.09177,25816725.91878,-39439784.59214,  -0.00033,   0.00024,  -0.00051,102797570.83640,   0.00000,274640135.82653,   0.00000,   0.00000,   0.00000,-371842564.99013,   0.00000
-61971561.02390,26165407.70791,-40153460.76871,  -0.00033,   0.00024,  -0.00052,104802267.78013,   0.00000,274640135.82653,   0.00000,   0.00000,   0.00000,-369837868.04639,   0.00000
-63352014.65687,26505933.19787,-40858980.64612,  -0.00034,   0.00024,  -0.00053,106787711.94543,   0.00000,274640135.82653,   0.00000,   0.00000,   0.00000,-367852423.88110,   0.00000
-64732468.28984,26846458.68783,-41564500.52353,  -0.00035,   0.00025,  -0.00054,108773551.20612,   0.00000,274640135.82653,   0.00000,   0.00000,   0.00000,-365866584.62041,   0.00000
-66127195.44634,27180866.95343,-42261864.10178,  -0.00035,   0.00025,  -0.00055,110757372.12232,   0.00000,274640135.82653,   0.00000,   0.00000,   0.00000,-363882763.70421,   0.00000
-67521922.60284,27515275.21902,-42955149.53045,  -0.00036,   0.00026,  -0.00056,112736947.35821,   0.00000,274640135.82653,   0.00000,   0.00000,   0.00000,-361903188.46832,   0.00000
-68908493.46018,27841527.18545,-43644356.80954,  -0.00037,   0.00026,  -0.00057,114701954.84344,   0.00000,274640135.82653,   0.00000,   0.00000,   0.00000,-359938180.98309,   0.00000
-70315455.06542,28147388.40399,-44329485.93905,  -0.00037,   0.00027,  -0.00058,116666383.72047,   0.00000,274640135.82653,   0.00000,   0.00000,   0.00000,-357973752.10606,   0.00000
-71722416.67066,28453249.62252,-45006458.76940,  -0.00038,   0.00027,  -0.00059,118621972.18520,   0.00000,274640135.82653,   0.00000,   0.00000,   0.00000,-356018163.64133,   0.00000
-73115104.75237,28765228.06542,-45683431.59975,  -0.00039,   0.00027,  -0.00059,120570963.83467,   0.00000,274640135.82653,   0.00000,   0.00000,   0.00000,-354069171.99186,   0.00000
-74528183.58198,29056815.76042,-46356326.28051,  -0.00040,   0.00028,  -0.00060,122519497.82847,   0.00000,274640135.82653,   0.00000,   0.00000,   0.00000,-352120637.99806,   0.00000
-75941262.41159,29348403.45542,-47021064.66212,  -0.00040,   0.00028,  -0.00061,124459232.26541,   0.00000,274640135.82653,   0.00000,   0.00000,   0.00000,-350180903.56112,   0.00000
-77360458.46558,29625717.62688,-47681724.89415,  -0.00041,   0.00029,  -0.00062,126391548.14916,   0.00000,274640135.82653,   0.00000,   0.00000,   0.00000,-348248587.67736,   0.00000
-78779654.51956,29903031.79835,-48338306.97659,  -0.00042,   0.00029,  -0.00063,128319723.95234,   0.00000,274640135.82653,   0.00000,   0.00000,   0.00000,-346320411.87419,   0.00000
-80198850.57354,30180345.96982,-48990810.90946,  -0.00042,   0.00029,  -0.00064,130243758.52057,   0.00000,274640135.82653,   0.00000,   0.00000,   0.00000,-344396377.30596,   0.00000
-81624163.85189,30443386.61776,-49639236.69274,  -0.00043,   0.00030,  -0.00065,132160437.91199,   0.00000,274640135.82653,   0.00000,   0.00000,   0.00000,-342479697.91454,   0.00000
-83049477.13025,30706427.26569,-50283584.32645,  -0.00044,   0.00030,  -0.00065,134073001.06334,   0.00000,274640135.82653,   0.00000,   0.00000,   0.00000,-340567134.76319,   0.00000
-84480907.63297,30955194.39010,-50923853.81057,  -0.00044,   0.00031,  -0.00066,135978260.73682,   0.00000,274640135.82653,   0.00000,   0.00000,   0.00000,-338661875.08971,   0.00000
-85912338.13569,31203961.51450,-51555966.99554,  -0.00045,   0.00031,  -0.00067,137874854.66713,   0.00000,274640135.82653,   0.00000,   0.00000,   0.00000,-336765281.15940,   0.00000
-87343768.63842,31452728.63891,-52184002.03092,  -0.00046,   0.00031,  -0.00068,139767371.42827,   0.00000,274640135.82653,   0.00000,   0.00000,   0.00000,-334872764.39826,   0.00000
-88781316.36551,31687222.23978,-52812037.06630,  -0.00047,   0.00032,  -0.00069,141657224.55476,   0.00000,274640135.82653,   0.00000,   0.00000,   0.00000,-332982911.27177,   0.00000
-90218864.09261,31921715.84065,-53431915.80252,  -0.00047,   0.00032,  -0.00069,143538458.96618,   0.00000,274640135.82653,   0.00000,   0.00000,   0.00000,-331101676.86035,   0.00000
-91662529.04407,32141935.91800,-54047716.38917,  -0.00048,   0.00032,  -0.00070,145412521.29916,   0.00000,274640135.82653,   0.00000,   0.00000,   0.00000,-329227614.52737,   0.00000
-93106193.99554,32362155.99534,-54659438.82623,  -0.00049,   0.00033,  -0.00071,147282559.84200,   0.00000,274640135.82653,   0.00000,   0.00000,   0.00000,-327357575.98453,   0.00000
-94549858.94700,32582376.07268,-55267083.11371,  -0.00049,   0.00033,  -0.00072,149148575.41043,   0.00000,274640135.82653,   0.00000,   0.00000,   0.00000,-325491560.41609,   0.00000
-95999641.12284,32788322.62649,-55866571.10203,  -0.00050,   0.00034,  -0.00073,151002959.24792,   0.00000,274640135.82653,   0.00000,   0.00000,   0.00000,-323637176.57861,   0.00000
-97449423.29867,32994269.18030,-56466059.09035,  -0.00051,   0.00034,  -0.00073,152857881.35177,   0.00000,274640135.82653,   0.00000,   0.00000,   0.00000,-321782254.47476,   0.00000
-98905322.69888,33185942.21058,-57061468.92909,  -0.00051,   0.00034,  -0.00074,154705751.83558,   0.00000,274640135.82653,   0.00000,   0.00000,   0.00000,-319934383.99095,   0.00000
-100346948.57555,33383732.46523,-57648722.46867,  -0.00052,   0.00035,  -0.00075,156537742.96792,   0.00000,274640135.82653,   0.00000,   0.00000,   0.00000,-318102392.85861,   0.00000
-101802847.97576,33575405.49551,-58231897.85867,  -0.00053,   0.00035,  -0.00076,158373171.32713,   0.00000,274640135.82653,   0.00000,   0.00000,   0.00000,-316266964.49940,   0.00000
-103264864.60034,33752805.00226,-58810995.09908,  -0.00054,   0.00035,  -0.00076,160201630.38658,   0.00000,274640135.82653,   0.00000,   0.00000,   0.00000,-314438505.43995,   0.00000
-104726881.22491,33930204.50901,-59386014.18992,  -0.00054,   0.00036,  -0.00077,162026167.54947,   0.00000,274640135.82653,   0.00000,   0.00000,   0.00000,-312613968.27706,   0.00000
-106195015.07386,34093330.49222,-59956955.13118,  -0.00055,   0.00036,  -0.00078,163843790.12320,   0.00000,274640135.82653,   0.00000,   0.00000,   0.00000,-310796345.70333,   0.00000
-107657031.69844,34270729.99897,-60523817.92286,  -0.00056,   0.00037,  -0.00079,165660502.48169,   0.00000,274640135.82653,   0.00000,   0.00000,   0.00000,-308979633.34484,   0.00000
-109117009.24822,34425699.68303,-61086602.56495,  -0.00056,   0.00037,  -0.00079,167459842.75467,   0.00000,274640135.82653,   0.00000,   0.00000,   0.00000,-307180293.07186,   0.00000
-110585143.09717,34588825.66624,-61641230.90789,  -0.00057,   0.00037,  -0.00080,169261321.67207,   0.00000,274640135.82653,   0.00000,   0.00000,   0.00000,-305378814.15446,   0.00000
-112045120.64696,34743795.35030,-62195859.25082,  -0.00058,   0.00038,  -0.00081,171052880.24975,   0.00000,274640135.82653,   0.00000,   0.00000,   0.00000,-303587255.57678,   0.00000
-113525488.94465,34878374.28645,-62742331.29460,  -0.00058,   0.00038,  -0.00082,172840743.27627,   0.00000,274640135.82653,   0.00000,   0.00000,   0.00000,-301799392.55026,   0.00000
-114985466.49443,35033343.97051,-63288803.33837,  -0.00059,   0.00038,  -0.00082,174624557.20206,   0.00000,274640135.82653,   0.00000,   0.00000,   0.00000,-300015578.62447,   0.00000
-116465834.79212,35167922.90666,-63827119.08299,  -0.00060,   0.00039,  -0.00083,176404757.20888,   0.00000,274640135.82653,   0.00000,   0.00000,   0.00000,-298235378.61765,   0.00000
-117938046.79065,35294345.54365,-64361356.67802,  -0.00061,   0.00039,  -0.00084,178170627.72698,   0.00000,274640135.82653,   0.00000,   0.00000,   0.00000,-296469508.09955,   0.00000
-119410258.78918,35420768.18065,-64891516.12347,  -0.00061,   0.00039,  -0.00084,179932683.00111,   0.00000,274640135.82653,   0.00000,   0.00000,   0.00000,-294707452.82542,   0.00000
-120896744.31124,35541073.59327,-65417597.41935,  -0.00062,   0.00040,  -0.00085,181698588.16273,   0.00000,274640135.82653,   0.00000,   0.00000,   0.00000,-292941547.66380,   0.00000
-122368956.30976,35667496.23026,-65939600.56564,  -0.00063,   0.00040,  -0.00086,183453042.52539,   0.00000,274640135.82653,   0.00000,   0.00000,   0.00000,-291187093.30114,   0.00000
-123847285.53266,35779645.34372,-66453447.41277,  -0.00063,   0.00040,  -0.00086,185196455.49253,   0.00000,274640135.82653,   0.00000,   0.00000,   0.00000,-289443680.33399,   0.00000
-125325614.75556,35891794.45718,-66967294.25990,  -0.00064,   0.00041,  -0.00087,186940491.41296,   0.00000,274640135.82653,   0.00000,   0.00000,   0.00000,-287699644.41357,   0.00000
-126795787.67930,35995787.27148,-67472984.80787,  -0.00065,   0.00041,  -0.00088,188665825.49943,   0.00000,274640135.82653,   0.00000,   0.00000,   0.00000,-285974310.32710,   0.00000
-128280234.12657,36093662.86141,-67978675.35584,  -0.00065,   0.00041,  -0.00088,190399515.22542,   0.00000,274640135.82653,   0.00000,   0.00000,   0.00000,-284240620.60111,   0.00000
-129764680.57384,36191538.45134,-68476209.60465,  -0.00066,   0.00042,  -0.00089,192125107.81254,   0.00000,274640135.82653,   0.00000,   0.00000,   0.00000,-282515028.01399,   0.00000
-131240970.72194,36281257.74211,-68969665.70388,  -0.00067,   0.00042,  -0.00090,193836410.16690,   0.00000,274640135.82653,   0.00000,   0.00000,   0.00000,-280803725.65963,   0.00000
-132731534.39358,36364859.80851,-69463121.80311,  -0.00067,   0.00042,  -0.00090,195556137.11582,   0.00000,274640135.82653,   0.00000,   0.00000,   0.00000,-279083998.71071,   0.00000
-134207824.54169,36454579.09928,-69948421.60318,  -0.00068,   0.00043,  -0.00091,197260009.41738,   0.00000,274640135.82653,   0.00000,   0.00000,   0.00000,-277380126.40915,   0.00000
-135690231.91417,36530024.86652,-70429643.25367,  -0.00069,   0.00043,  -0.00092,198957415.66012,   0.00000,274640135.82653,   0.00000,   0.00000,   0.00000,-275682720.16640,   0.00000
-137186912.81018,36599353.40938,-70906786.75458,  -0.00070,   0.00043,  -0.00092,200658992.43501,   0.00000,274640135.82653,   0.00000,   0.00000,   0.00000,-273981143.39152,   0.00000
-138669320.18266,36674799.17662,-71375773.95633,  -0.00070,   0.00044,  -0.00093,202344740.59836,   0.00000,274640135.82653,   0.00000,   0.00000,   0.00000,-272295395.22817,   0.00000
-140143571.25598,36742088.64470,-71844761.15807,  -0.00071,   0.00044,  -0.00093,204020533.96168,   0.00000,274640135.82653,   0.00000,   0.00000,   0.00000,-270619601.86485,   0.00000
-141632095.85283,36803260.88840,-72309670.21024,  -0.00072,   0.00044,  -0.00094,205700556.09859,   0.00000,274640135.82653,   0.00000,   0.00000,   0.00000,-268939579.72794,   0.00000
-143120620.44968,36864433.13211,-72770501.11283,  -0.00072,   0.00045,  -0.00095,207376942.94950,   0.00000,274640135.82653,   0.00000,   0.00000,   0.00000,-267263192.87703,   0.00000
-144600988.74737,36917449.07666,-73223175.71625,  -0.00073,   0.00045,  -0.00095,209034791.40439,   0.00000,274640135.82653,   0.00000,   0.00000,   0.00000,-265605344.42214,   0.00000
-146095630.56859,36964347.79683,-73675850.31968,  -0.00074,   0.00045,  -0.00096,210701254.71908,   0.00000,274640135.82653,   0.00000,   0.00000,   0.00000,-263938881.10745,   0.00000
-147575998.86627,37017363.74138,-74120368.62394,  -0.00074,   0.00046,  -0.00096,212351883.02465,   0.00000,274640135.82653,   0.00000,   0.00000,   0.00000,-262288252.80188,   0.00000
-149062484.38833,37056106.16239,-74560808.77862,  -0.00075,   0.00046,  -0.00097,213996254.91917,   0.00000,274640135.82653,   0.00000,   0.00000,   0.00000,-260643880.90736,   0.00000
-150548969.91039,37094848.58340,-75001248.93331,  -0.00076,   0.00046,  -0.00098,215641307.26832,   0.00000,274640135.82653,   0.00000,   0.00000,   0.00000,-258998828.55821,   0.00000
-152035455.43245,37133591.00442,-75433532.78883,  -0.00076,   0.00047,  -0.00098,217278529.35034,   0.00000,274640135.82653,   0.00000,   0.00000,   0.00000,-257361606.47619,   0.00000
-153513784.65535,37164177.12627,-75861738.49478,  -0.00077,   0.00047,  -0.00099,218901534.31917,   0.00000,274640135.82653,   0.00000,   0.00000,   0.00000,-255738601.50736,   0.00000
-155006387.40178,37188646.02375,-76285866.05114,  -0.00078,   0.00047,  -0.00099,220529030.46641,   0.00000,274640135.82653,   0.00000,   0.00000,   0.00000,-254111105.36012,   0.00000
-156484716.62468,37219232.14561,-76705915.45792,  -0.00078,   0.00047,  -0.00100,222144932.80879,   0.00000,274640135.82653,   0.00000,   0.00000,   0.00000,-252495203.01774,   0.00000
-157969163.07195,37235544.74393,-77121886.71512,  -0.00079,   0.00048,  -0.00100,223754701.28079,   0.00000,274640135.82653,   0.00000,   0.00000,   0.00000,-250885434.54574,   0.00000
-159467883.04275,37245740.11788,-77533779.82274,  -0.00080,   0.00048,  -0.00101,225369055.65944,   0.00000,274640135.82653,   0.00000,   0.00000,   0.00000,-249271080.16709,   0.00000
-160938055.96649,37268169.94057,-77941594.78078,  -0.00080,   0.00048,  -0.00101,226963692.60208,   0.00000,274640135.82653,   0.00000,   0.00000,   0.00000,-247676443.22445,   0.00000
-162428619.63813,37270209.01536,-78345331.58924,  -0.00081,   0.00049,  -0.00102,228560378.25282,   0.00000,274640135.82653,   0.00000,   0.00000,   0.00000,-246079757.57371,   0.00000
-163913066.08539,37286521.61368,-78744990.24812,  -0.00082,   0.00049,  -0.00102,230156134.99634,   0.00000,274640135.82653,   0.00000,   0.00000,   0.00000,-244484000.83019,   0.00000
-165395473.45787,37280404.38931,-79140570.75742,  -0.00083,   0.00049,  -0.00103,231735174.59783,   0.00000,274640135.82653,   0.00000,   0.00000,   0.00000,-242904961.22870,   0.00000
-166871763.60598,37288560.68847,-79527994.96756,  -0.00083,   0.00050,  -0.00103,233309099.87029,   0.00000,274640135.82653,   0.00000,   0.00000,   0.00000,-241331035.95624,   0.00000
-168354170.97846,37282443.46410,-79915419.17770,  -0.00084,   0.00050,  -0.00104,234881214.67029,   0.00000,274640135.82653,   0.00000,   0.00000,   0.00000,-239758921.15624,   0.00000
-169836578.35094,37276326.23973,-80298765.23826,  -0.00085,   0.00050,  -0.00104,236449881.88262,   0.00000,274640135.82653,   0.00000,   0.00000,   0.00000,-238190253.94391,   0.00000
-171310829.42426,37262052.71620,-80678033.14924,  -0.00085,   0.00050,  -0.00105,238004388.83769,   0.00000,274640135.82653,   0.00000,   0.00000,   0.00000,-236635746.98884,   0.00000
-172793236.79674,37255935.49183,-81049144.76106,  -0.00086,   0.00051,  -0.00105,239562043.51918,   0.00000,274640135.82653,   0.00000,   0.00000,   0.00000,-235078092.30735,   0.00000
-174267487.87005,37241661.96830,-81420256.37287,  -0.00087,   0.00051,  -0.00106,241109692.94803,   0.00000,274640135.82653,   0.00000,   0.00000,   0.00000,-233530442.87850,   0.00000
-175747856.16774,37213114.92124,-81783211.68553,  -0.00087,   0.00051,  -0.00106,242647339.11426,   0.00000,274640135.82653,   0.00000,   0.00000,   0.00000,-231992796.71227,   0.00000
-177222107.24106,37198841.39770,-82146166.99819,  -0.00088,   0.00051,  -0.00107,244188174.18786,   0.00000,274640135.82653,   0.00000,   0.00000,   0.00000,-230451961.63867,   0.00000
-178688202.01522,37176411.57501,-82505044.16126,  -0.00089,   0.00052,  -0.00107,245714859.53214,   0.00000,274640135.82653,   0.00000,   0.00000,   0.00000,-228925276.29439,   0.00000
-180174687.53728,37133591.00442,-82855765.02518,  -0.00089,   0.00052,  -0.00108,247239940.46294,   0.00000,274640135.82653,   0.00000,   0.00000,   0.00000,-227400195.36359,   0.00000
-181640782.31143,37111161.18173,-83206485.88909,  -0.00090,   0.00052,  -0.00108,248759864.75824,   0.00000,274640135.82653,   0.00000,   0.00000,   0.00000,-225880271.06829,   0.00000
-183112994.30996,37074457.83550,-83549050.45385,  -0.00091,   0.00053,  -0.00109,250269915.47298,   0.00000,274640135.82653,   0.00000,   0.00000,   0.00000,-224370220.35355,   0.00000
-184570932.78496,37043871.71365,-83891615.01860,  -0.00091,   0.00053,  -0.00109,251772335.31127,   0.00000,274640135.82653,   0.00000,   0.00000,   0.00000,-222867800.51526,   0.00000
-186049262.00786,36992894.84389,-84226023.28420,  -0.00092,   0.00053,  -0.00109,253273314.70696,   0.00000,274640135.82653,   0.00000,   0.00000,   0.00000,-221366821.11957,   0.00000
-187507200.48285,36962308.72204,-84560431.54979,  -0.00093,   0.00053,  -0.00110,254769035.17204,   0.00000,274640135.82653,   0.00000,   0.00000,   0.00000,-219871100.65449,   0.00000
-188977373.40659,36903175.55312,-84886683.51622,  -0.00093,   0.00054,  -0.00110,256252618.18584,   0.00000,274640135.82653,   0.00000,   0.00000,   0.00000,-218387517.64069,   0.00000
-190441429.10596,36858315.90774,-85212935.48265,  -0.00094,   0.00054,  -0.00111,257739319.56164,   0.00000,274640135.82653,   0.00000,   0.00000,   0.00000,-216900816.26489,   0.00000
-191905484.80532,36813456.26236,-85531031.14993,  -0.00094,   0.00054,  -0.00111,259218675.44690,   0.00000,274640135.82653,   0.00000,   0.00000,   0.00000,-215421460.37963,   0.00000
-193361384.20553,36760440.31781,-85849126.81720,  -0.00095,   0.00054,  -0.00112,260687978.67167,   0.00000,274640135.82653,   0.00000,   0.00000,   0.00000,-213952157.15486,   0.00000
-194823400.83011,36693150.84973,-86159066.18531,  -0.00096,   0.00055,  -0.00112,262147636.50237,   0.00000,274640135.82653,   0.00000,   0.00000,   0.00000,-212492499.32416,   0.00000
-196279300.23031,36640134.90519,-86469005.55342,  -0.00096,   0.00055,  -0.00112,263610375.34304,   0.00000,274640135.82653,   0.00000,   0.00000,   0.00000,-211029760.48349,   0.00000
-197741316.85489,36572845.43711,-86774866.77195,  -0.00097,   0.00055,  -0.00113,265067532.04157,   0.00000,274640135.82653,   0.00000,   0.00000,   0.00000,-209572603.78496,   0.00000
-199189059.95594,36511673.19341,-87072571.69132,  -0.00098,   0.00055,  -0.00113,266508926.62188,   0.00000,274640135.82653,   0.00000,   0.00000,   0.00000,-208131209.20465,   0.00000
-200636803.05698,36450500.94970,-87370276.61069,  -0.00098,   0.00056,  -0.00114,267951065.39417,   0.00000,274640135.82653,   0.00000,   0.00000,   0.00000,-206689070.43236,   0.00000
-202090663.38240,36375055.18246,-87663903.38048,  -0.00099,   0.00056,  -0.00114,269387675.60148,   0.00000,274640135.82653,   0.00000,   0.00000,   0.00000,-205252460.22505,   0.00000
-203544523.70781,36299609.41522,-87949373.85111,  -0.00100,   0.00056,  -0.00114,270817094.30305,   0.00000,274640135.82653,   0.00000,   0.00000,   0.00000,-203823041.52348,   0.00000
-204984110.50970,36230280.87236,-88234844.32174,  -0.00100,   0.00056,  -0.00115,272238707.69808,   0.00000,274640135.82653,   0.00000,   0.00000,   0.00000,-202401428.12845,   0.00000
-206429814.53595,36146678.80596,-88516236.64279,  -0.00101,   0.00057,  -0.00115,273654847.14921,   0.00000,274640135.82653,   0.00000,   0.00000,   0.00000,-200985288.67732,   0.00000
-207869401.33784,36077350.26309,-88793550.81425,  -0.00102,   0.00057,  -0.00115,275070035.47135,   0.00000,274640135.82653,   0.00000,   0.00000,   0.00000,-199570100.35518,   0.00000
-209300831.84056,35999865.42106,-89066786.83614,  -0.00102,   0.00057,  -0.00116,276471170.01634,   0.00000,274640135.82653,   0.00000,   0.00000,   0.00000,-198168965.81019,   0.00000
-210738379.56765,35908107.05550,-89335944.70845,  -0.00103,   0.00057,  -0.00116,277866885.61285,   0.00000,274640135.82653,   0.00000,   0.00000,   0.00000,-196773250.21368,   0.00000
-212169810.07038,35830622.21348,-89601024.43117,  -0.00104,   0.00058,  -0.00116,279261649.42682,   0.00000,274640135.82653,   0.00000,   0.00000,   0.00000,-195378486.39971,   0.00000
-213607357.79747,35738863.84792,-89862026.00432,  -0.00104,   0.00058,  -0.00117,280651037.98917,   0.00000,274640135.82653,   0.00000,   0.00000,   0.00000,-193989097.83736,   0.00000
-215030632.00104,35653222.70673,-90118949.42789,  -0.00105,   0.00058,  -0.00117,282028606.94901,   0.00000,274640135.82653,   0.00000,   0.00000,   0.00000,-192611528.87752,   0.00000
-216474296.95250,35547190.81764,-90371794.70187,  -0.00105,   0.00058,  -0.00117,283409528.75636,   0.00000,274640135.82653,   0.00000,   0.00000,   0.00000,-191230607.07017,   0.00000
-217883297.63253,35467666.90082,-90620561.82628,  -0.00106,   0.00059,  -0.00118,284772115.35441,   0.00000,274640135.82653,   0.00000,   0.00000,   0.00000,-189868020.47212,   0.00000
-219312689.06047,35367752.23610,-90865250.80110,  -0.00107,   0.00059,  -0.00118,286138099.07024,   0.00000,274640135.82653,   0.00000,   0.00000,   0.00000,-188502036.75629,   0.00000
-220727806.96487,35273954.79575,-91109939.77593,  -0.00107,   0.00059,  -0.00118,287496126.43898,   0.00000,274640135.82653,   0.00000,   0.00000,   0.00000,-187144009.38755,   0.00000
-222149042.09364,35165883.83187,-91346472.45159,  -0.00108,   0.00059,  -0.00119,288845006.50777,   0.00000,274640135.82653,   0.00000,   0.00000,   0.00000,-185795129.31876,   0.00000
-223570277.22241,35057812.86799,-91583005.12725,  -0.00109,   0.00060,  -0.00119,290194666.60591,   0.00000,274640135.82653,   0.00000,   0.00000,   0.00000,-184445469.22062,   0.00000
-224971121.60328,34970132.65201,-91811381.50376,  -0.00109,   0.00060,  -0.00119,291530744.55255,   0.00000,274640135.82653,   0.00000,   0.00000,   0.00000,-183109391.27398,   0.00000
-226384200.43290,34853905.38897,-92039757.88026,  -0.00110,   0.00060,  -0.00120,292863322.25446,   0.00000,274640135.82653,   0.00000,   0.00000,   0.00000,-181776813.57207,   0.00000
-227791162.03814,34751951.64946,-92264056.10718,  -0.00110,   0.00060,  -0.00120,294194947.68521,   0.00000,274640135.82653,   0.00000,   0.00000,   0.00000,-180445188.14132,   0.00000
-229189967.34422,34641841.61079,-92484276.18452,  -0.00111,   0.00060,  -0.00120,295512579.92356,   0.00000,274640135.82653,   0.00000,   0.00000,   0.00000,-179127555.90297,   0.00000
-230588772.65030,34531731.57212,-92700418.11229,  -0.00112,   0.00061,  -0.00121,296827146.18616,   0.00000,274640135.82653,   0.00000,   0.00000,   0.00000,-177812989.64037,   0.00000
-231987577.95638,34421621.53345,-92912481.89047,  -0.00112,   0.00061,  -0.00121,298138660.42007,   0.00000,274640135.82653,   0.00000,   0.00000,   0.00000,-176501475.40646,   0.00000
-233378226.96330,34303355.19561,-93120467.51907,  -0.00113,   0.00061,  -0.00121,299436199.59110,   0.00000,274640135.82653,   0.00000,   0.00000,   0.00000,-175203936.23543,   0.00000
-234783149.49375,34178971.63341,-93324374.99809,  -0.00113,   0.00061,  -0.00121,300739576.54593,   0.00000,274640135.82653,   0.00000,   0.00000,   0.00000,-173900559.28060,   0.00000
-236159524.97714,34066822.51995,-93528282.47711,  -0.00114,   0.00062,  -0.00122,302025980.88108,   0.00000,274640135.82653,   0.00000,   0.00000,   0.00000,-172614154.94545,   0.00000
-237550173.98406,33948556.18212,-93724033.65697,  -0.00115,   0.00062,  -0.00122,303314454.83042,   0.00000,274640135.82653,   0.00000,   0.00000,   0.00000,-171325680.99611,   0.00000
-238932666.69182,33822133.54513,-93919784.83683,  -0.00115,   0.00062,  -0.00122,304592755.07231,   0.00000,274640135.82653,   0.00000,   0.00000,   0.00000,-170047380.75422,   0.00000
-240315159.39957,33695710.90813,-94107379.71753,  -0.00116,   0.00062,  -0.00122,305864289.61341,   0.00000,274640135.82653,   0.00000,   0.00000,   0.00000,-168775846.21312,   0.00000
-241683378.58380,33575405.49551,-94294974.59823,  -0.00117,   0.00062,  -0.00123,307127672.92900,   0.00000,274640135.82653,   0.00000,   0.00000,   0.00000,-167512462.89753,   0.00000
-243051597.76803,33455100.08289,-94478491.32934,  -0.00117,   0.00063,  -0.00123,308388058.13356,   0.00000,274640135.82653,   0.00000,   0.00000,   0.00000,-166252077.69297,   0.00000
-244425934.17663,33320521.14673,-94657929.91088,  -0.00118,   0.00063,  -0.00123,309643448.21292,   0.00000,274640135.82653,   0.00000,   0.00000,   0.00000,-164996687.61361,   0.00000
-245779879.83732,33206332.95848,-94837368.49242,  -0.00118,   0.00063,  -0.00123,310892646.73433,   0.00000,274640135.82653,   0.00000,   0.00000,   0.00000,-163747489.09220,   0.00000
-247146059.94676,33063597.72317,-95008650.77480,  -0.00119,   0.00063,  -0.00124,312131135.12224,   0.00000,274640135.82653,   0.00000,   0.00000,   0.00000,-162509000.70429,   0.00000
-248506122.83183,32935136.01139,-95175854.90759,  -0.00119,   0.00063,  -0.00124,313368679.50754,   0.00000,274640135.82653,   0.00000,   0.00000,   0.00000,-161271456.31899,   0.00000
-249872302.94126,32792400.77607,-95343059.04039,  -0.00120,   0.00064,  -0.00124,314605020.22100,   0.00000,274640135.82653,   0.00000,   0.00000,   0.00000,-160035115.60553,   0.00000
-251218092.30280,32670056.28866,-95506185.02361,  -0.00121,   0.00064,  -0.00124,315831388.28767,   0.00000,274640135.82653,   0.00000,   0.00000,   0.00000,-158808747.53886,   0.00000
-252555725.36517,32539555.50209,-95665232.85724,  -0.00121,   0.00064,  -0.00124,317043811.58254,   0.00000,274640135.82653,   0.00000,   0.00000,   0.00000,-157596324.24399,   0.00000
-253899475.65192,32394781.19198,-95820202.54130,  -0.00122,   0.00064,  -0.00125,318251342.79130,   0.00000,274640135.82653,   0.00000,   0.00000,   0.00000,-156388793.03523,   0.00000
-255237108.71429,32264280.40541,-95971094.07577,  -0.00122,   0.00064,  -0.00125,319457915.52979,   0.00000,274640135.82653,   0.00000,   0.00000,   0.00000,-155182220.29674,   0.00000
-256580859.00104,32119506.09530,-96121985.61025,  -0.00123,   0.00065,  -0.00125,320663310.49110,   0.00000,274640135.82653,   0.00000,   0.00000,   0.00000,-153976825.33543,   0.00000
-257910335.76425,31980849.00957,-96264720.84556,  -0.00124,   0.00065,  -0.00125,321853067.31785,   0.00000,274640135.82653,   0.00000,   0.00000,   0.00000,-152787068.50868,   0.00000
-259245929.75183,31827918.40031,-96407456.08088,  -0.00124,   0.00065,  -0.00125,323041668.43350,   0.00000,274640135.82653,   0.00000,   0.00000,   0.00000,-151598467.39303,   0.00000
-260561132.99152,31695378.53894,-96546113.16661,  -0.00125,   0.00065,  -0.00126,324220204.01571,   0.00000,274640135.82653,   0.00000,   0.00000,   0.00000,-150419931.81081,   0.00000
-261882453.45557,31548565.15405,-96680692.10277,  -0.00125,   0.00065,  -0.00126,325393939.26922,   0.00000,274640135.82653,   0.00000,   0.00000,   0.00000,-149246196.55731,   0.00000
-263203773.91962,31401751.76915,-96815271.03892,  -0.00126,   0.00066,  -0.00126,326568440.47159,   0.00000,274640135.82653,   0.00000,   0.00000,   0.00000,-148071695.35494,   0.00000
-264510820.86014,31261055.60863,-96941693.67591,  -0.00126,   0.00066,  -0.00126,327727312.48422,   0.00000,274640135.82653,   0.00000,   0.00000,   0.00000,-146912823.34231,   0.00000
-265823985.02503,31106085.92457,-97068116.31290,  -0.00127,   0.00066,  -0.00126,328885057.32055,   0.00000,274640135.82653,   0.00000,   0.00000,   0.00000,-145755078.50598,   0.00000
-267131031.96556,30965389.76405,-97190460.80032,  -0.00128,   0.00066,  -0.00126,330041841.49414,   0.00000,274640135.82653,   0.00000,   0.00000,   0.00000,-144598294.33239,   0.00000
-268429922.60692,30816537.30436,-97308727.13815,  -0.00128,   0.00066,  -0.00127,331184734.21574,   0.00000,274640135.82653,   0.00000,   0.00000,   0.00000,-143455401.61079,   0.00000
-269734930.47265,30653411.32115,-97422915.32640,  -0.00129,   0.00067,  -0.00127,332322935.42013,   0.00000,274640135.82653,   0.00000,   0.00000,   0.00000,-142317200.40640,   0.00000
-271019547.59048,30510676.08583,-97537103.51465,  -0.00129,   0.00067,  -0.00127,333454563.39194,   0.00000,274640135.82653,   0.00000,   0.00000,   0.00000,-141185572.43459,   0.00000
-272310281.93268,30353667.32699,-97643135.40374,  -0.00130,   0.00067,  -0.00127,334577937.33056,   0.00000,274640135.82653,   0.00000,   0.00000,   0.00000,-140062198.49597,   0.00000
-273580625.52697,30217049.31604,-97749167.29283,  -0.00130,   0.00067,  -0.00127,335694693.29420,   0.00000,274640135.82653,   0.00000,   0.00000,   0.00000,-138945442.53233,   0.00000
-274877477.09354,30045767.03367,-97851121.03234,  -0.00131,   0.00067,  -0.00127,336814200.75669,   0.00000,274640135.82653,   0.00000,   0.00000,   0.00000,-137825935.06984,   0.00000
-276139664.38868,29900992.72356,-97953074.77185,  -0.00131,   0.00067,  -0.00127,337917812.91003,   0.00000,274640135.82653,   0.00000,   0.00000,   0.00000,-136722322.91650,   0.00000
-277422242.43172,29735827.66556,-98046872.21220,  -0.00132,   0.00068,  -0.00127,339022517.66826,   0.00000,274640135.82653,   0.00000,   0.00000,   0.00000,-135617618.15827,   0.00000
-278684429.72686,29591053.35545,-98140669.65255,  -0.00133,   0.00068,  -0.00128,340120538.57390,   0.00000,274640135.82653,   0.00000,   0.00000,   0.00000,-134519597.25263,   0.00000
-279938460.72283,29438122.74619,-98230388.94332,  -0.00133,   0.00068,  -0.00128,341204682.80300,   0.00000,274640135.82653,   0.00000,   0.00000,   0.00000,-133435453.02353,   0.00000
-281198608.94318,29270918.61339,-98316030.08451,  -0.00134,   0.00068,  -0.00128,342284255.05617,   0.00000,274640135.82653,   0.00000,   0.00000,   0.00000,-132355880.77036,   0.00000
-282452639.93915,29117988.00412,-98401671.22570,  -0.00134,   0.00068,  -0.00128,343366379.12806,   0.00000,274640135.82653,   0.00000,   0.00000,   0.00000,-131273756.69846,   0.00000
-283698514.63597,28956901.09570,-98479156.06773,  -0.00135,   0.00068,  -0.00128,344431142.16991,   0.00000,274640135.82653,   0.00000,   0.00000,   0.00000,-130208993.65662,   0.00000
-284944389.33278,28795814.18727,-98556640.90975,  -0.00135,   0.00069,  -0.00128,345496662.81762,   0.00000,274640135.82653,   0.00000,   0.00000,   0.00000,-129143473.00890,   0.00000
-286175990.50607,28640844.50322,-98630047.60220,  -0.00136,   0.00069,  -0.00128,346550106.66664,   0.00000,274640135.82653,   0.00000,   0.00000,   0.00000,-128090029.15989,   0.00000
-287407591.67935,28485874.81916,-98703454.29465,  -0.00136,   0.00069,  -0.00128,347604288.18828,   0.00000,274640135.82653,   0.00000,   0.00000,   0.00000,-127035847.63825,   0.00000
-288645310.07701,28316631.61157,-98772782.83752,  -0.00137,   0.00069,  -0.00128,348653979.54926,   0.00000,274640135.82653,   0.00000,   0.00000,   0.00000,-125986156.27727,   0.00000
-289868754.95113,28153505.62836,-98838033.23080,  -0.00137,   0.00069,  -0.00128,349691588.45886,   0.00000,274640135.82653,   0.00000,   0.00000,   0.00000,-124948547.36767,   0.00000
-291092199.82525,27990379.64514,-98899205.47451,  -0.00138,   0.00069,  -0.00129,350726488.68755,   0.00000,274640135.82653,   0.00000,   0.00000,   0.00000,-123913647.13898,   0.00000
-292301371.17584,27833370.88629,-98956299.56863,  -0.00138,   0.00070,  -0.00129,351749297.47426,   0.00000,274640135.82653,   0.00000,   0.00000,   0.00000,-122890838.35227,   0.00000
-293516659.75080,27662088.60392,-99013393.66276,  -0.00139,   0.00070,  -0.00129,352771116.90132,   0.00000,274640135.82653,   0.00000,   0.00000,   0.00000,-121869018.92521,   0.00000
-294711557.57786,27511197.06944,-99066409.60730,  -0.00139,   0.00070,  -0.00129,353782555.26634,   0.00000,274640135.82653,   0.00000,   0.00000,   0.00000,-120857580.56019,   0.00000
-295912572.62930,27346032.01144,-99115347.40227,  -0.00140,   0.00070,  -0.00129,354789581.38957,   0.00000,274640135.82653,   0.00000,   0.00000,   0.00000,-119850554.43696,   0.00000
-297119704.90510,27166593.42990,-99164285.19723,  -0.00140,   0.00070,  -0.00129,355795642.80733,   0.00000,274640135.82653,   0.00000,   0.00000,   0.00000,-118844493.01920,   0.00000
-298306446.43300,27007545.59626,-99209144.84262,  -0.00141,   0.00070,  -0.00129,356791299.94652,   0.00000,274640135.82653,   0.00000,   0.00000,   0.00000,-117848835.88001,   0.00000
-299493187.96089,26848497.76263,-99249926.33842,  -0.00142,   0.00071,  -0.00129,357784288.76703,   0.00000,274640135.82653,   0.00000,   0.00000,   0.00000,-116855847.05950,   0.00000
-300671773.18963,26681293.62983,-99290707.83423,  -0.00142,   0.00071,  -0.00129,358766849.74521,   0.00000,274640135.82653,   0.00000,   0.00000,   0.00000,-115873286.08132,   0.00000
-301836084.89484,26520206.72140,-99323333.03087,  -0.00143,   0.00071,  -0.00129,359733890.99397,   0.00000,274640135.82653,   0.00000,   0.00000,   0.00000,-114906244.83256,   0.00000
-303014670.12358,26353002.58861,-99355958.22751,  -0.00143,   0.00071,  -0.00129,360711154.17687,   0.00000,274640135.82653,   0.00000,   0.00000,   0.00000,-113928981.64966,   0.00000
-304185099.05316,26177642.15665,-99388583.42416,  -0.00144,   0.00071,  -0.00129,361677983.36703,   0.00000,274640135.82653,   0.00000,   0.00000,   0.00000,-112962152.45950,   0.00000
-305341254.45920,26008398.94906,-99413052.32164,  -0.00144,   0.00071,  -0.00129,362629315.64879,   0.00000,274640135.82653,   0.00000,   0.00000,   0.00000,-112010820.17774,   0.00000
-306491292.64088,25853429.26501,-99437521.21912,  -0.00144,   0.00072,  -0.00129,363583037.42430,   0.00000,274640135.82653,   0.00000,   0.00000,   0.00000,-111057098.40223,   0.00000
-307633174.52339,25690303.28179,-99461990.11660,  -0.00145,   0.00072,  -0.00129,364526286.75716,   0.00000,274640135.82653,   0.00000,   0.00000,   0.00000,-110113849.06937,   0.00000
-308781173.63028,25512903.77504,-99478302.71493,  -0.00145,   0.00072,  -0.00129,365461932.28711,   0.00000,274640135.82653,   0.00000,   0.00000,   0.00000,-109178203.53942,   0.00000
-309923055.51279,25349777.79182,-99494615.31325,  -0.00146,   0.00072,  -0.00129,366399955.77413,   0.00000,274640135.82653,   0.00000,   0.00000,   0.00000,-108240180.05240,   0.00000
-311056781.09615,25178495.50945,-99506849.76199,  -0.00146,   0.00072,  -0.00129,367324187.76429,   0.00000,274640135.82653,   0.00000,   0.00000,   0.00000,-107315948.06224,   0.00000
-312190506.67950,25007213.22707,-99519084.21073,  -0.00147,   0.00072,  -0.00129,368249144.07044,   0.00000,274640135.82653,   0.00000,   0.00000,   0.00000,-106390991.75608,   0.00000
-313309958.73932,24842048.16906,-99527240.50989,  -0.00147,   0.00072,  -0.00129,369161933.98001,   0.00000,274640135.82653,   0.00000,   0.00000,   0.00000,-105478201.84652,   0.00000
-314415137.27561,24683000.33543,-99531318.65947,  -0.00148,   0.00073,  -0.00129,370062546.30092,   0.00000,274640135.82653,   0.00000,   0.00000,   0.00000,-104577589.52561,   0.00000
-315540706.55981,24503561.75389,-99535396.80905,  -0.00148,   0.00073,  -0.00129,370971857.25840,   0.00000,274640135.82653,   0.00000,   0.00000,   0.00000,-103668278.56813,   0.00000
-316631611.57256,24350631.14462,-99535396.80905,  -0.00149,   0.00073,  -0.00129,371860990.04886,   0.00000,274640135.82653,   0.00000,   0.00000,   0.00000,-102779145.77767,   0.00000
-317742907.33323,24177309.78746,-99531318.65947,  -0.00149,   0.00073,  -0.00129,372755571.86281,   0.00000,274640135.82653,   0.00000,   0.00000,   0.00000,-101884563.96372,   0.00000
-318831773.27120,24001949.35550,-99527240.50989,  -0.00150,   0.00073,  -0.00129,373630020.34853,   0.00000,274640135.82653,   0.00000,   0.00000,   0.00000,-101010115.47800,   0.00000
-319928795.50833,23834745.22270,-99519084.21073,  -0.00150,   0.00073,  -0.00129,374513143.92423,   0.00000,274640135.82653,   0.00000,   0.00000,   0.00000,-100126991.90230,   0.00000
-320997270.69839,23679775.53865,-99506849.76199,  -0.00151,   0.00073,  -0.00129,375374429.51365,   0.00000,274640135.82653,   0.00000,   0.00000,   0.00000,-99265706.31288,   0.00000
-322086136.63636,23504415.10669,-99494615.31325,  -0.00151,   0.00074,  -0.00129,376244493.15232,   0.00000,274640135.82653,   0.00000,   0.00000,   0.00000,-98395642.67420,   0.00000
-323160729.05080,23335171.89910,-99478302.71493,  -0.00152,   0.00074,  -0.00129,377102368.52183,   0.00000,274640135.82653,   0.00000,   0.00000,   0.00000,-97537767.30470,   0.00000
-324221047.94171,23172045.91589,-99457911.96702,  -0.00152,   0.00074,  -0.00129,377948045.91196,   0.00000,274640135.82653,   0.00000,   0.00000,   0.00000,-96692089.91457,   0.00000
-325281366.83261,23008919.93267,-99437521.21912,  -0.00152,   0.00074,  -0.00129,378794420.24482,   0.00000,274640135.82653,   0.00000,   0.00000,   0.00000,-95845715.58171,   0.00000
-326333529.42436,22837637.65029,-99413052.32164,  -0.00153,   0.00074,  -0.00129,379627030.03587,   0.00000,274640135.82653,   0.00000,   0.00000,   0.00000,-95013105.79066,   0.00000
-327385692.01610,22666355.36792,-99388583.42416,  -0.00153,   0.00074,  -0.00129,380460335.62688,   0.00000,274640135.82653,   0.00000,   0.00000,   0.00000,-94179800.19965,   0.00000
-328437854.60785,22495073.08554,-99360036.37709,  -0.00154,   0.00074,  -0.00129,381291144.24881,   0.00000,274640135.82653,   0.00000,   0.00000,   0.00000,-93348991.57772,   0.00000
-329475743.67606,22329908.02753,-99327411.18045,  -0.00154,   0.00074,  -0.00129,382109745.16810,   0.00000,274640135.82653,   0.00000,   0.00000,   0.00000,-92530390.65842,   0.00000
-330499359.22075,22170860.19390,-99294785.98381,  -0.00155,   0.00075,  -0.00129,382919302.39311,   0.00000,274640135.82653,   0.00000,   0.00000,   0.00000,-91720833.43342,   0.00000
-331529091.98980,21997538.83673,-99258082.63758,  -0.00155,   0.00075,  -0.00129,383724843.51899,   0.00000,274640135.82653,   0.00000,   0.00000,   0.00000,-90915292.30754,   0.00000
-332538434.01095,21844608.22746,-99221379.29136,  -0.00156,   0.00075,  -0.00129,384522840.85611,   0.00000,274640135.82653,   0.00000,   0.00000,   0.00000,-90117294.97042,   0.00000
-333553893.25647,21677404.09467,-99180597.79556,  -0.00156,   0.00075,  -0.00129,385316837.19188,   0.00000,274640135.82653,   0.00000,   0.00000,   0.00000,-89323298.63465,   0.00000
-334569352.50200,21510199.96187,-99135738.15017,  -0.00156,   0.00075,  -0.00129,386108375.64753,   0.00000,274640135.82653,   0.00000,   0.00000,   0.00000,-88531760.17900,   0.00000
-335570538.22399,21349113.05344,-99090878.50479,  -0.00157,   0.00075,  -0.00129,386890825.32234,   0.00000,274640135.82653,   0.00000,   0.00000,   0.00000,-87749310.50419,   0.00000
-336563567.64682,21179869.84586,-99041940.70982,  -0.00157,   0.00075,  -0.00129,387659531.76745,   0.00000,274640135.82653,   0.00000,   0.00000,   0.00000,-86980604.05908,   0.00000
-337556597.06965,21010626.63827,-98993002.91486,  -0.00158,   0.00075,  -0.00129,388428915.20276,   0.00000,274640135.82653,   0.00000,   0.00000,   0.00000,-86211220.62377,   0.00000
-338543509.26810,20855656.95421,-98939986.97031,  -0.00158,   0.00076,  -0.00129,389197348.97990,   0.00000,274640135.82653,   0.00000,   0.00000,   0.00000,-85442786.84663,   0.00000
-339507991.64387,20698648.19537,-98882892.87619,  -0.00159,   0.00076,  -0.00129,389942234.71742,   0.00000,274640135.82653,   0.00000,   0.00000,   0.00000,-84697901.10911,   0.00000
-340492864.76754,20521248.68862,-98825798.78206,  -0.00159,   0.00076,  -0.00128,390696131.12325,   0.00000,274640135.82653,   0.00000,   0.00000,   0.00000,-83944004.70328,   0.00000
-341457347.14331,20364239.92977,-98764626.53835,  -0.00159,   0.00076,  -0.00128,391439262.07632,   0.00000,274640135.82653,   0.00000,   0.00000,   0.00000,-83200873.75021,   0.00000
-342407555.99554,20213348.39530,-98703454.29465,  -0.00160,   0.00076,  -0.00128,392173217.78495,   0.00000,274640135.82653,   0.00000,   0.00000,   0.00000,-82466918.04158,   0.00000
-343363882.07215,20048183.33729,-98638203.90136,  -0.00160,   0.00076,  -0.00128,392903287.12373,   0.00000,274640135.82653,   0.00000,   0.00000,   0.00000,-81736848.70280,   0.00000
-344320208.14875,19883018.27929,-98572953.50808,  -0.00161,   0.00076,  -0.00128,393634026.27055,   0.00000,274640135.82653,   0.00000,   0.00000,   0.00000,-81006109.55598,   0.00000
-345247987.17830,19730087.67002,-98503624.96521,  -0.00161,   0.00076,  -0.00128,394342635.86242,   0.00000,274640135.82653,   0.00000,   0.00000,   0.00000,-80297499.96411,   0.00000
-346196156.95574,19556766.31285,-98430218.27276,  -0.00161,   0.00076,  -0.00128,395057270.71806,   0.00000,274640135.82653,   0.00000,   0.00000,   0.00000,-79582865.10847,   0.00000
-347123935.98529,19403835.70359,-98356811.58031,  -0.00162,   0.00077,  -0.00128,395764145.35592,   0.00000,274640135.82653,   0.00000,   0.00000,   0.00000,-78875990.47060,   0.00000
-348043558.71567,19242748.79516,-98279326.73829,  -0.00162,   0.00077,  -0.00128,396457305.52885,   0.00000,274640135.82653,   0.00000,   0.00000,   0.00000,-78182830.29768,   0.00000
-348963181.44605,19081661.88674,-98201841.89626,  -0.00162,   0.00077,  -0.00128,397151123.02502,   0.00000,274640135.82653,   0.00000,   0.00000,   0.00000,-77489012.80151,   0.00000
-349868530.65290,18926692.20268,-98124357.05423,  -0.00163,   0.00077,  -0.00128,397835683.10541,   0.00000,274640135.82653,   0.00000,   0.00000,   0.00000,-76804452.72112,   0.00000
-350773879.85975,18771722.51862,-98038715.91304,  -0.00163,   0.00077,  -0.00127,398514857.62933,   0.00000,274640135.82653,   0.00000,   0.00000,   0.00000,-76125278.19720,   0.00000
-351664955.54307,18622870.05894,-97957152.92143,  -0.00164,   0.00077,  -0.00127,399187768.40370,   0.00000,274640135.82653,   0.00000,   0.00000,   0.00000,-75452367.42283,   0.00000
-352562148.45076,18459744.07572,-97867433.63066,  -0.00164,   0.00077,  -0.00127,399853900.06739,   0.00000,274640135.82653,   0.00000,   0.00000,   0.00000,-74786235.75914,   0.00000
-353438950.61055,18317008.84041,-97781792.48948,  -0.00164,   0.00077,  -0.00127,400515150.56461,   0.00000,274640135.82653,   0.00000,   0.00000,   0.00000,-74124985.26192,   0.00000
-354321869.99471,18160000.08156,-97687995.04913,  -0.00165,   0.00077,  -0.00127,401169654.23330,   0.00000,274640135.82653,   0.00000,   0.00000,   0.00000,-73470481.59323,   0.00000
-355190515.85534,18009108.54709,-97594197.60878,  -0.00165,   0.00077,  -0.00127,401814854.52865,   0.00000,274640135.82653,   0.00000,   0.00000,   0.00000,-72825281.29788,   0.00000
-356065278.94033,17843943.48908,-97500400.16843,  -0.00165,   0.00078,  -0.00127,402459292.35259,   0.00000,274640135.82653,   0.00000,   0.00000,   0.00000,-72180843.47394,   0.00000
-356919651.27743,17699169.17898,-97402524.57850,  -0.00166,   0.00078,  -0.00127,403092836.36860,   0.00000,274640135.82653,   0.00000,   0.00000,   0.00000,-71547299.45793,   0.00000
-357780140.83890,17540121.34534,-97304648.98857,  -0.00166,   0.00078,  -0.00126,403725620.02571,   0.00000,274640135.82653,   0.00000,   0.00000,   0.00000,-70914515.80082,   0.00000
-358620239.65246,17401464.25961,-97202695.24906,  -0.00167,   0.00078,  -0.00126,404347494.63907,   0.00000,274640135.82653,   0.00000,   0.00000,   0.00000,-70292641.18746,   0.00000
-359452182.16686,17254650.87471,-97096663.35997,  -0.00167,   0.00078,  -0.00126,404955679.37453,   0.00000,274640135.82653,   0.00000,   0.00000,   0.00000,-69684456.45200,   0.00000
-360284124.68127,17107837.48982,-96990631.47088,  -0.00167,   0.00078,  -0.00126,405564493.80523,   0.00000,274640135.82653,   0.00000,   0.00000,   0.00000,-69075642.02130,   0.00000
-361122184.42004,16946750.58139,-96884599.58179,  -0.00168,   0.00078,  -0.00126,406172560.53642,   0.00000,274640135.82653,   0.00000,   0.00000,   0.00000,-68467575.29011,   0.00000
-361939853.41091,16806054.42087,-96774489.54311,  -0.00168,   0.00078,  -0.00126,406769698.11529,   0.00000,274640135.82653,   0.00000,   0.00000,   0.00000,-67870437.71124,   0.00000
-362749366.10262,16657201.96118,-96664379.50444,  -0.00168,   0.00078,  -0.00126,407356061.98071,   0.00000,274640135.82653,   0.00000,   0.00000,   0.00000,-67284073.84582,   0.00000
-363552761.56996,16522623.02503,-96550191.31619,  -0.00169,   0.00078,  -0.00126,407941504.47764,   0.00000,274640135.82653,   0.00000,   0.00000,   0.00000,-66698631.34889,   0.00000
-364362274.26168,16373770.56534,-96436003.12794,  -0.00169,   0.00079,  -0.00125,408526204.35778,   0.00000,274640135.82653,   0.00000,   0.00000,   0.00000,-66113931.46875,   0.00000
-365157513.42986,16231035.33003,-96317736.79011,  -0.00169,   0.00079,  -0.00125,409098594.33243,   0.00000,274640135.82653,   0.00000,   0.00000,   0.00000,-65541541.49410,   0.00000
-365944596.29888,16080143.79555,-96195392.30270,  -0.00170,   0.00079,  -0.00125,409657321.20314,   0.00000,274640135.82653,   0.00000,   0.00000,   0.00000,-64982814.62339,   0.00000
-366725561.94352,15943525.78461,-96077125.96486,  -0.00170,   0.00079,  -0.00125,410220885.19597,   0.00000,274640135.82653,   0.00000,   0.00000,   0.00000,-64419250.63056,   0.00000
-367498371.28901,15798751.47451,-95950703.32787,  -0.00170,   0.00079,  -0.00125,410767916.57924,   0.00000,274640135.82653,   0.00000,   0.00000,   0.00000,-63872219.24729,   0.00000
-368265063.41013,15668250.68793,-95828358.84046,  -0.00171,   0.00079,  -0.00125,411319758.11450,   0.00000,274640135.82653,   0.00000,   0.00000,   0.00000,-63320377.71203,   0.00000
-369023599.23208,15529593.60220,-95697858.05389,  -0.00171,   0.00079,  -0.00124,411855085.80282,   0.00000,274640135.82653,   0.00000,   0.00000,   0.00000,-62785050.02371,   0.00000
-369782135.05404,15390936.51647,-95571435.41689,  -0.00171,   0.00079,  -0.00124,412393864.52814,   0.00000,274640135.82653,   0.00000,   0.00000,   0.00000,-62246271.29839,   0.00000
-370526397.35247,15258396.65510,-95440934.63032,  -0.00172,   0.00079,  -0.00124,412920312.59651,   0.00000,274640135.82653,   0.00000,   0.00000,   0.00000,-61719823.23002,   0.00000
-371276776.87526,15111583.27021,-95306355.69417,  -0.00172,   0.00079,  -0.00124,413443211.61795,   0.00000,274640135.82653,   0.00000,   0.00000,   0.00000,-61196924.20858,   0.00000
-372006765.65015,14985160.63321,-95171776.75801,  -0.00172,   0.00079,  -0.00124,413957934.02523,   0.00000,274640135.82653,   0.00000,   0.00000,   0.00000,-60682201.80130,   0.00000
-372728598.12589,14850581.69706,-95037197.82186,  -0.00172,   0.00079,  -0.00124,414461808.90937,   0.00000,274640135.82653,   0.00000,   0.00000,   0.00000,-60178326.91716,   0.00000
-373450430.60162,14716002.76091,-94898540.73613,  -0.00173,   0.00080,  -0.00123,414963470.10686,   0.00000,274640135.82653,   0.00000,   0.00000,   0.00000,-59676665.71967,   0.00000
-374172263.07735,14581423.82475,-94755805.50081,  -0.00173,   0.00080,  -0.00123,415462937.88605,   0.00000,274640135.82653,   0.00000,   0.00000,   0.00000,-59177197.94048,   0.00000
-374879822.02955,14452962.11297,-94613070.26550,  -0.00173,   0.00080,  -0.00123,415952872.49717,   0.00000,274640135.82653,   0.00000,   0.00000,   0.00000,-58687263.32936,   0.00000
-375573107.45822,14330617.62556,-94470335.03018,  -0.00174,   0.00080,  -0.00123,416433251.36560,   0.00000,274640135.82653,   0.00000,   0.00000,   0.00000,-58206884.46093,   0.00000
-376272510.11126,14193999.61461,-94327599.79487,  -0.00174,   0.00080,  -0.00123,416912906.49629,   0.00000,274640135.82653,   0.00000,   0.00000,   0.00000,-57727229.33024,   0.00000
-376965795.53993,14071655.12720,-94176708.26039,  -0.00174,   0.00080,  -0.00122,417388922.09898,   0.00000,274640135.82653,   0.00000,   0.00000,   0.00000,-57251213.72755,   0.00000
-377650924.66944,13941154.34063,-94029894.87550,  -0.00175,   0.00080,  -0.00122,417856829.43638,   0.00000,274640135.82653,   0.00000,   0.00000,   0.00000,-56783306.39015,   0.00000
-378321780.27542,13816770.77843,-93879003.34102,  -0.00175,   0.00080,  -0.00122,418312394.87848,   0.00000,274640135.82653,   0.00000,   0.00000,   0.00000,-56327740.94805,   0.00000
-378992635.88139,13692387.21622,-93728111.80655,  -0.00175,   0.00080,  -0.00122,418768540.21172,   0.00000,274640135.82653,   0.00000,   0.00000,   0.00000,-55871595.61481,   0.00000
-379649217.96384,13574120.87839,-93573142.12249,  -0.00175,   0.00080,  -0.00122,419212343.10816,   0.00000,274640135.82653,   0.00000,   0.00000,   0.00000,-55427792.71837,   0.00000
-380305800.04629,13455854.54056,-93414094.28886,  -0.00176,   0.00080,  -0.00121,419654000.49569,   0.00000,274640135.82653,   0.00000,   0.00000,   0.00000,-54986135.33084,   0.00000
-380954225.82957,13329431.90357,-93259124.60480,  -0.00176,   0.00080,  -0.00121,420087481.73448,   0.00000,274640135.82653,   0.00000,   0.00000,   0.00000,-54552654.09205,   0.00000
-381596534.38849,13217282.79011,-93100076.77117,  -0.00176,   0.00080,  -0.00121,420520099.17813,   0.00000,274640135.82653,   0.00000,   0.00000,   0.00000,-54120036.64840,   0.00000
-382230686.64824,13096977.37748,-92936950.78795,  -0.00176,   0.00080,  -0.00121,420939099.81529,   0.00000,274640135.82653,   0.00000,   0.00000,   0.00000,-53701036.01124,   0.00000
-382850565.38446,12982789.18923,-92773824.80473,  -0.00177,   0.00081,  -0.00121,421348459.25718,   0.00000,274640135.82653,   0.00000,   0.00000,   0.00000,-53291676.56935,   0.00000
-383484717.64422,12862483.77661,-92610698.82152,  -0.00177,   0.00081,  -0.00120,421768612.77657,   0.00000,274640135.82653,   0.00000,   0.00000,   0.00000,-52871523.04996,   0.00000
-384090322.85691,12754412.81273,-92447572.83830,  -0.00177,   0.00081,  -0.00120,422168874.81752,   0.00000,274640135.82653,   0.00000,   0.00000,   0.00000,-52471261.00901,   0.00000
-384695928.06960,12646341.84885,-92276290.55592,  -0.00178,   0.00081,  -0.00120,422564343.79393,   0.00000,274640135.82653,   0.00000,   0.00000,   0.00000,-52075792.03259,   0.00000
-385307650.50666,12523997.36144,-92109086.42313,  -0.00178,   0.00081,  -0.00120,422961794.31749,   0.00000,274640135.82653,   0.00000,   0.00000,   0.00000,-51678341.50904,   0.00000
-385898982.19582,12422043.62193,-91937804.14075,  -0.00178,   0.00081,  -0.00120,423348160.62985,   0.00000,274640135.82653,   0.00000,   0.00000,   0.00000,-51291975.19668,   0.00000
-386482157.58582,12311933.58326,-91766521.85837,  -0.00178,   0.00081,  -0.00119,423723575.10293,   0.00000,274640135.82653,   0.00000,   0.00000,   0.00000,-50916560.72360,   0.00000
-387065332.97582,12201823.54458,-91591161.42641,  -0.00178,   0.00081,  -0.00119,424096901.58855,   0.00000,274640135.82653,   0.00000,   0.00000,   0.00000,-50543234.23798,   0.00000
-387634234.84228,12097830.73028,-91415800.99446,  -0.00179,   0.00081,  -0.00119,424460524.55193,   0.00000,274640135.82653,   0.00000,   0.00000,   0.00000,-50179611.27460,   0.00000
-388203136.70875,11993837.91598,-91240440.56250,  -0.00179,   0.00081,  -0.00119,424824701.47197,   0.00000,274640135.82653,   0.00000,   0.00000,   0.00000,-49815434.35456,   0.00000
-388772038.57522,11889845.10168,-91061001.98096,  -0.00179,   0.00081,  -0.00118,425186810.65895,   0.00000,274640135.82653,   0.00000,   0.00000,   0.00000,-49453325.16758,   0.00000
-389312393.39462,11798086.73612,-90881563.39942,  -0.00179,   0.00081,  -0.00118,425528908.04711,   0.00000,274640135.82653,   0.00000,   0.00000,   0.00000,-49111227.77942,   0.00000
-389873138.96193,11685937.62266,-90698046.66830,  -0.00180,   0.00081,  -0.00118,425877994.04659,   0.00000,274640135.82653,   0.00000,   0.00000,   0.00000,-48762141.77994,   0.00000
-390413493.78133,11594179.25710,-90518608.08677,  -0.00180,   0.00081,  -0.00118,426221187.15566,   0.00000,274640135.82653,   0.00000,   0.00000,   0.00000,-48418948.67087,   0.00000
-390945692.30157,11494264.59238,-90331013.20607,  -0.00180,   0.00081,  -0.00117,426548193.66251,   0.00000,274640135.82653,   0.00000,   0.00000,   0.00000,-48091942.16402,   0.00000
-391463617.29829,11400467.15203,-90147496.47495,  -0.00180,   0.00082,  -0.00117,426868030.88528,   0.00000,274640135.82653,   0.00000,   0.00000,   0.00000,-47772104.94125,   0.00000
-391995815.81853,11300552.48731,-89959901.59425,  -0.00181,   0.00082,  -0.00117,427196141.22995,   0.00000,274640135.82653,   0.00000,   0.00000,   0.00000,-47443994.59658,   0.00000
-392499467.29171,11212872.27134,-89768228.56397,  -0.00181,   0.00082,  -0.00117,427501592.16160,   0.00000,274640135.82653,   0.00000,   0.00000,   0.00000,-47138543.66493,   0.00000
-393017392.28842,11119074.83099,-89580633.68327,  -0.00181,   0.00082,  -0.00116,427820481.10664,   0.00000,274640135.82653,   0.00000,   0.00000,   0.00000,-46819654.71989,   0.00000
-393506770.23807,11037511.83938,-89388960.65299,  -0.00181,   0.00082,  -0.00116,428116688.98333,   0.00000,274640135.82653,   0.00000,   0.00000,   0.00000,-46523446.84320,   0.00000
-394002265.41209,10941675.32424,-89193209.47313,  -0.00181,   0.00082,  -0.00116,428409659.23082,   0.00000,274640135.82653,   0.00000,   0.00000,   0.00000,-46230476.59571,   0.00000
-394491643.36174,10860112.33263,-88997458.29327,  -0.00182,   0.00082,  -0.00116,428704402.85972,   0.00000,274640135.82653,   0.00000,   0.00000,   0.00000,-45935732.96681,   0.00000
-394972865.01223,10770393.04186,-88801707.11341,  -0.00182,   0.00082,  -0.00115,428988121.06871,   0.00000,274640135.82653,   0.00000,   0.00000,   0.00000,-45652014.75781,   0.00000
-395454086.66272,10680673.75109,-88605955.93355,  -0.00182,   0.00082,  -0.00115,429272377.18481,   0.00000,274640135.82653,   0.00000,   0.00000,   0.00000,-45367758.64172,   0.00000
-395921034.78967,10597071.68469,-88406126.60411,  -0.00182,   0.00082,  -0.00115,429544289.87916,   0.00000,274640135.82653,   0.00000,   0.00000,   0.00000,-45095845.94737,   0.00000
-396373709.39310,10519586.84267,-88206297.27467,  -0.00182,   0.00082,  -0.00115,429806374.42949,   0.00000,274640135.82653,   0.00000,   0.00000,   0.00000,-44833761.39704,   0.00000
-396826383.99653,10442102.00064,-88002389.79565,  -0.00183,   0.00082,  -0.00114,430066483.15978,   0.00000,274640135.82653,   0.00000,   0.00000,   0.00000,-44573652.66675,   0.00000
-397279058.59995,10364617.15861,-87802560.46621,  -0.00183,   0.00082,  -0.00114,430329629.36765,   0.00000,274640135.82653,   0.00000,   0.00000,   0.00000,-44310506.45888,   0.00000
-397717459.67984,10293249.54095,-87594574.83761,  -0.00183,   0.00082,  -0.00114,430577939.98593,   0.00000,274640135.82653,   0.00000,   0.00000,   0.00000,-44062195.84060,   0.00000
-398147704.46058,10213725.62414,-87390667.35859,  -0.00183,   0.00082,  -0.00114,430817678.83147,   0.00000,274640135.82653,   0.00000,   0.00000,   0.00000,-43822456.99506,   0.00000
-398571832.01694,10148475.23085,-87182681.72999,  -0.00183,   0.00082,  -0.00113,431056670.48857,   0.00000,274640135.82653,   0.00000,   0.00000,   0.00000,-43583465.33796,   0.00000
-399002076.79767,10068951.31403,-86974696.10139,  -0.00184,   0.00082,  -0.00113,431294988.19333,   0.00000,274640135.82653,   0.00000,   0.00000,   0.00000,-43345147.63320,   0.00000
-399418048.05488,9995544.62158,-86766710.47279,  -0.00184,   0.00082,  -0.00113,431523435.15162,   0.00000,274640135.82653,   0.00000,   0.00000,   0.00000,-43116700.67491,   0.00000
-399819745.78855,9928255.15351,-86554646.69461,  -0.00184,   0.00082,  -0.00113,431739542.33739,   0.00000,274640135.82653,   0.00000,   0.00000,   0.00000,-42900593.48914,   0.00000
-400221443.52222,9860965.68543,-86342582.91643,  -0.00184,   0.00083,  -0.00112,431956175.20119,   0.00000,274640135.82653,   0.00000,   0.00000,   0.00000,-42683960.62534,   0.00000
-400623141.25589,9793676.21735,-86126440.98867,  -0.00184,   0.00083,  -0.00112,432170894.72377,   0.00000,274640135.82653,   0.00000,   0.00000,   0.00000,-42469241.10276,   0.00000
-401010565.46603,9732503.97365,-85914377.21048,  -0.00184,   0.00083,  -0.00112,432378159.49149,   0.00000,274640135.82653,   0.00000,   0.00000,   0.00000,-42261976.33504,   0.00000
-401383716.15263,9677448.95431,-85698235.28272,  -0.00185,   0.00083,  -0.00111,432573084.72285,   0.00000,274640135.82653,   0.00000,   0.00000,   0.00000,-42067051.10368,   0.00000
-401762984.06361,9608120.41144,-85478015.20538,  -0.00185,   0.00083,  -0.00111,432764915.07473,   0.00000,274640135.82653,   0.00000,   0.00000,   0.00000,-41875220.75180,   0.00000
-402136134.75022,9553065.39211,-85261873.27762,  -0.00185,   0.00083,  -0.00111,432960882.55922,   0.00000,274640135.82653,   0.00000,   0.00000,   0.00000,-41679253.26731,   0.00000
-402501129.13766,9489854.07361,-85041653.20028,  -0.00185,   0.00083,  -0.00111,433143326.86136,   0.00000,274640135.82653,   0.00000,   0.00000,   0.00000,-41496808.96517,   0.00000
-402845732.77721,9447033.50302,-84817354.97335,  -0.00185,   0.00083,  -0.00110,433314642.15618,   0.00000,274640135.82653,   0.00000,   0.00000,   0.00000,-41325493.67035,   0.00000
-403196453.64112,9389939.40889,-84597134.89601,  -0.00185,   0.00083,  -0.00110,433487678.20815,   0.00000,274640135.82653,   0.00000,   0.00000,   0.00000,-41152457.61838,   0.00000
-403547174.50504,9332845.31477,-84372836.66909,  -0.00185,   0.00083,  -0.00110,433658845.30620,   0.00000,274640135.82653,   0.00000,   0.00000,   0.00000,-40981290.52033,   0.00000
-403883621.84542,9281868.44501,-84148538.44217,  -0.00186,   0.00083,  -0.00109,433820074.78646,   0.00000,274640135.82653,   0.00000,   0.00000,   0.00000,-40820061.04007,   0.00000
-404220069.18581,9230891.57526,-83924240.21524,  -0.00186,   0.00083,  -0.00109,433981819.44658,   0.00000,274640135.82653,   0.00000,   0.00000,   0.00000,-40658316.37994,   0.00000
-404542243.00266,9186031.92987,-83695863.83874,  -0.00186,   0.00083,  -0.00109,434131247.88315,   0.00000,274640135.82653,   0.00000,   0.00000,   0.00000,-40508887.94338,   0.00000
-404850143.29598,9147289.50886,-83467487.46224,  -0.00186,   0.00083,  -0.00109,434270718.89588,   0.00000,274640135.82653,   0.00000,   0.00000,   0.00000,-40369416.93065,   0.00000
-405158043.58930,9108547.08784,-83239111.08574,  -0.00186,   0.00083,  -0.00108,434410699.54163,   0.00000,274640135.82653,   0.00000,   0.00000,   0.00000,-40229436.28490,   0.00000
-405472061.10699,9055531.14330,-83006656.55965,  -0.00186,   0.00083,  -0.00108,434547667.07390,   0.00000,274640135.82653,   0.00000,   0.00000,   0.00000,-40092468.75263,   0.00000
-405765687.87678,9022905.94666,-82774202.03357,  -0.00186,   0.00083,  -0.00108,434675853.36066,   0.00000,274640135.82653,   0.00000,   0.00000,   0.00000,-39964282.46587,   0.00000
-406065431.87094,8976007.22648,-82541747.50749,  -0.00187,   0.00083,  -0.00107,434803369.53838,   0.00000,274640135.82653,   0.00000,   0.00000,   0.00000,-39836766.28815,   0.00000
-406344785.11720,8949499.25421,-82309292.98140,  -0.00187,   0.00083,  -0.00107,434922084.30189,   0.00000,274640135.82653,   0.00000,   0.00000,   0.00000,-39718051.52464,   0.00000
-406630255.58783,8908717.75840,-82072760.30574,  -0.00187,   0.00083,  -0.00107,435037812.31428,   0.00000,274640135.82653,   0.00000,   0.00000,   0.00000,-39602323.51225,   0.00000
-406901452.53493,8874053.48697,-81836227.63008,  -0.00187,   0.00083,  -0.00106,435143551.73001,   0.00000,274640135.82653,   0.00000,   0.00000,   0.00000,-39496584.09652,   0.00000
-407172649.48202,8839389.21554,-81599694.95441,  -0.00187,   0.00083,  -0.00106,435249801.22289,   0.00000,274640135.82653,   0.00000,   0.00000,   0.00000,-39390334.60364,   0.00000
-407429572.90559,8810842.16847,-81359084.12917,  -0.00187,   0.00083,  -0.00106,435343757.49561,   0.00000,274640135.82653,   0.00000,   0.00000,   0.00000,-39296378.33092,   0.00000
-407686496.32916,8782295.12141,-81118473.30392,  -0.00187,   0.00083,  -0.00105,435438228.98087,   0.00000,274640135.82653,   0.00000,   0.00000,   0.00000,-39201906.84566,   0.00000
-407929146.22919,8759865.29872,-80877862.47868,  -0.00187,   0.00084,  -0.00105,435522690.42276,   0.00000,274640135.82653,   0.00000,   0.00000,   0.00000,-39117445.40377,   0.00000
-408171796.12922,8737435.47603,-80637251.65343,  -0.00187,   0.00084,  -0.00105,435607658.02328,   0.00000,274640135.82653,   0.00000,   0.00000,   0.00000,-39032477.80325,   0.00000
-408414446.02926,8715005.65333,-80396640.82819,  -0.00188,   0.00084,  -0.00105,435693131.48631,   0.00000,274640135.82653,   0.00000,   0.00000,   0.00000,-38947004.34022,   0.00000
-408642822.40576,8698693.05501,-80151951.85337,  -0.00188,   0.00084,  -0.00104,435766322.93417,   0.00000,274640135.82653,   0.00000,   0.00000,   0.00000,-38873812.89236,   0.00000
-408877316.00663,8668106.93316,-79907262.87854,  -0.00188,   0.00084,  -0.00104,435838846.25226,   0.00000,274640135.82653,   0.00000,   0.00000,   0.00000,-38801289.57427,   0.00000
-409091418.85961,8657911.55921,-79658495.75414,  -0.00188,   0.00084,  -0.00104,435900279.39735,   0.00000,274640135.82653,   0.00000,   0.00000,   0.00000,-38739856.42918,   0.00000
-409291248.18905,8653833.40963,-79413806.77931,  -0.00188,   0.00084,  -0.00103,435953909.34848,   0.00000,274640135.82653,   0.00000,   0.00000,   0.00000,-38686226.47805,   0.00000
-409511468.26639,8629364.51215,-79165039.65491,  -0.00188,   0.00084,  -0.00103,436015186.45093,   0.00000,274640135.82653,   0.00000,   0.00000,   0.00000,-38624949.37560,   0.00000
-409703141.29667,8617130.06341,-78916272.53050,  -0.00188,   0.00084,  -0.00103,436055866.12859,   0.00000,274640135.82653,   0.00000,   0.00000,   0.00000,-38584269.69794,   0.00000
-409902970.62611,8613051.91382,-78667505.40610,  -0.00188,   0.00084,  -0.00102,436108787.77831,   0.00000,274640135.82653,   0.00000,   0.00000,   0.00000,-38531348.04822,   0.00000
-410094643.65639,8600817.46508,-78414660.13211,  -0.00188,   0.00084,  -0.00102,436148273.82569,   0.00000,274640135.82653,   0.00000,   0.00000,   0.00000,-38491862.00084,   0.00000
-410272043.16313,8594700.24071,-78161814.85813,  -0.00188,   0.00084,  -0.00102,436177706.22461,   0.00000,274640135.82653,   0.00000,   0.00000,   0.00000,-38462429.60192,   0.00000
-410443325.44551,8602856.53987,-77908969.58414,  -0.00188,   0.00084,  -0.00101,436208826.38360,   0.00000,274640135.82653,   0.00000,   0.00000,   0.00000,-38431309.44293,   0.00000
-410620724.95226,8596739.31550,-77656124.31016,  -0.00189,   0.00084,  -0.00101,436239273.73147,   0.00000,274640135.82653,   0.00000,   0.00000,   0.00000,-38400862.09506,   0.00000
-410783850.93548,8596739.31550,-77399200.88659,  -0.00189,   0.00084,  -0.00101,436257477.51918,   0.00000,274640135.82653,   0.00000,   0.00000,   0.00000,-38382658.30735,   0.00000
-410946976.91869,8596739.31550,-77146355.61260,  -0.00189,   0.00084,  -0.00100,436278358.79339,   0.00000,274640135.82653,   0.00000,   0.00000,   0.00000,-38361777.03314,   0.00000
-411095829.37838,8602856.53987,-76889432.18904,  -0.00189,   0.00084,  -0.00100,436286995.98347,   0.00000,274640135.82653,   0.00000,   0.00000,   0.00000,-38353139.84306,   0.00000
-411244681.83806,8608973.76424,-76628430.61589,  -0.00189,   0.00084,  -0.00100,436293990.99914,   0.00000,274640135.82653,   0.00000,   0.00000,   0.00000,-38346144.82739,   0.00000
-411393534.29775,8615090.98861,-76371507.19233,  -0.00189,   0.00084,  -0.00099,436303648.75545,   0.00000,274640135.82653,   0.00000,   0.00000,   0.00000,-38336487.07108,   0.00000
-411534230.45827,8613051.91382,-76110505.61918,  -0.00189,   0.00084,  -0.00099,436299897.30715,   0.00000,274640135.82653,   0.00000,   0.00000,   0.00000,-38340238.51938,   0.00000
-411654535.87089,8631403.58694,-75853582.19561,  -0.00189,   0.00084,  -0.00099,436289367.58094,   0.00000,274640135.82653,   0.00000,   0.00000,   0.00000,-38350768.24559,   0.00000
-411789114.80705,8643638.03568,-75588502.47289,  -0.00189,   0.00084,  -0.00098,436285696.21954,   0.00000,274640135.82653,   0.00000,   0.00000,   0.00000,-38354439.60699,   0.00000
-411909420.21967,8661989.70879,-75327500.89974,  -0.00189,   0.00084,  -0.00098,436274057.06244,   0.00000,274640135.82653,   0.00000,   0.00000,   0.00000,-38366078.76409,   0.00000
-412021569.33313,8672185.08274,-75066499.32660,  -0.00189,   0.00084,  -0.00098,436251126.83022,   0.00000,274640135.82653,   0.00000,   0.00000,   0.00000,-38389008.99631,   0.00000
-412127601.22222,8696653.98022,-74801419.60387,  -0.00189,   0.00084,  -0.00097,436227784.24514,   0.00000,274640135.82653,   0.00000,   0.00000,   0.00000,-38412351.58139,   0.00000
-412239750.33568,8706849.35417,-74536339.88114,  -0.00189,   0.00084,  -0.00097,436203769.21240,   0.00000,274640135.82653,   0.00000,   0.00000,   0.00000,-38436366.61412,   0.00000
-412331508.70124,8737435.47603,-74271260.15842,  -0.00189,   0.00084,  -0.00097,436170833.56766,   0.00000,274640135.82653,   0.00000,   0.00000,   0.00000,-38469302.25887,   0.00000
-412429384.29117,8753748.07435,-74002102.28611,  -0.00189,   0.00084,  -0.00096,436135141.31400,   0.00000,274640135.82653,   0.00000,   0.00000,   0.00000,-38504994.51253,   0.00000
-412506869.13320,8790451.42057,-73737022.56338,  -0.00189,   0.00084,  -0.00096,436092600.48934,   0.00000,274640135.82653,   0.00000,   0.00000,   0.00000,-38547535.33719,   0.00000
-412590471.19960,8812881.24326,-73467864.69108,  -0.00189,   0.00084,  -0.00096,436047309.41963,   0.00000,274640135.82653,   0.00000,   0.00000,   0.00000,-38592826.40690,   0.00000
-412667956.04163,8849584.58949,-73198706.81877,  -0.00189,   0.00084,  -0.00095,436003726.03358,   0.00000,274640135.82653,   0.00000,   0.00000,   0.00000,-38636409.79295,   0.00000
-412737284.58449,8878131.63655,-72929548.94646,  -0.00190,   0.00085,  -0.00095,435948827.93740,   0.00000,274640135.82653,   0.00000,   0.00000,   0.00000,-38691307.88913,   0.00000
-412800495.90299,8920952.20715,-72656312.92457,  -0.00190,   0.00085,  -0.00094,435893594.49808,   0.00000,274640135.82653,   0.00000,   0.00000,   0.00000,-38746541.32845,   0.00000
-412869824.44586,8949499.25421,-72387155.05227,  -0.00190,   0.00085,  -0.00094,435839723.19019,   0.00000,274640135.82653,   0.00000,   0.00000,   0.00000,-38800412.63634,   0.00000
-412924879.46519,8984163.52564,-72113919.03038,  -0.00190,   0.00085,  -0.00094,435773688.82286,   0.00000,274640135.82653,   0.00000,   0.00000,   0.00000,-38866447.00367,   0.00000
-412979934.48453,9018827.79708,-71840683.00849,  -0.00190,   0.00085,  -0.00093,435708172.58782,   0.00000,274640135.82653,   0.00000,   0.00000,   0.00000,-38931963.23871,   0.00000
-413014598.75596,9073882.81641,-71567446.98660,  -0.00190,   0.00085,  -0.00093,435633720.69897,   0.00000,274640135.82653,   0.00000,   0.00000,   0.00000,-39006415.12755,   0.00000
-413055380.25176,9114664.31221,-71290132.81514,  -0.00190,   0.00085,  -0.00093,435556580.14109,   0.00000,274640135.82653,   0.00000,   0.00000,   0.00000,-39083555.68544,   0.00000
-413096161.74757,9155445.80802,-71016896.79325,  -0.00190,   0.00085,  -0.00092,435481962.25714,   0.00000,274640135.82653,   0.00000,   0.00000,   0.00000,-39158173.56939,   0.00000
-413136943.24337,9196227.30382,-70739582.62178,  -0.00190,   0.00085,  -0.00092,435405869.68401,   0.00000,274640135.82653,   0.00000,   0.00000,   0.00000,-39234266.14252,   0.00000
-413157333.99127,9257399.54753,-70462268.45031,  -0.00190,   0.00085,  -0.00092,435320845.37660,   0.00000,274640135.82653,   0.00000,   0.00000,   0.00000,-39319290.44993,   0.00000
-413169568.44002,9310415.49207,-70184954.27885,  -0.00190,   0.00085,  -0.00091,435224470.69733,   0.00000,274640135.82653,   0.00000,   0.00000,   0.00000,-39415665.12920,   0.00000
-413196076.41229,9357314.21225,-69903561.95780,  -0.00190,   0.00085,  -0.00091,435137318.93874,   0.00000,274640135.82653,   0.00000,   0.00000,   0.00000,-39502816.88779,   0.00000
-413208310.86103,9410330.15679,-69626247.78633,  -0.00190,   0.00085,  -0.00091,435041989.06477,   0.00000,274640135.82653,   0.00000,   0.00000,   0.00000,-39598146.76176,   0.00000
-413206271.78624,9469463.32571,-69344855.46528,  -0.00190,   0.00085,  -0.00090,434934549.50636,   0.00000,274640135.82653,   0.00000,   0.00000,   0.00000,-39705586.32017,   0.00000
-413204232.71145,9528596.49463,-69063463.14423,  -0.00190,   0.00085,  -0.00090,434827637.47216,   0.00000,274640135.82653,   0.00000,   0.00000,   0.00000,-39812498.35437,   0.00000
-413196076.41229,9602003.18707,-68782070.82318,  -0.00190,   0.00085,  -0.00089,434722469.93972,   0.00000,274640135.82653,   0.00000,   0.00000,   0.00000,-39917665.88681,   0.00000
-413194037.33750,9661136.35599,-68500678.50214,  -0.00190,   0.00085,  -0.00089,434616615.93744,   0.00000,274640135.82653,   0.00000,   0.00000,   0.00000,-40023519.88909,   0.00000
-413177724.73918,9726386.74928,-68219286.18109,  -0.00190,   0.00085,  -0.00089,434500603.20788,   0.00000,274640135.82653,   0.00000,   0.00000,   0.00000,-40139532.61865,   0.00000
-413161412.14085,9791637.14256,-67933815.71046,  -0.00190,   0.00085,  -0.00088,434383200.89536,   0.00000,274640135.82653,   0.00000,   0.00000,   0.00000,-40256934.93117,   0.00000
-413145099.54253,9856887.53585,-67652423.38941,  -0.00190,   0.00085,  -0.00088,434268243.67142,   0.00000,274640135.82653,   0.00000,   0.00000,   0.00000,-40371892.15511,   0.00000
-413114513.42068,9928255.15351,-67366952.91878,  -0.00190,   0.00085,  -0.00088,434141217.55800,   0.00000,274640135.82653,   0.00000,   0.00000,   0.00000,-40498918.26853,   0.00000
-413083927.29883,9999622.77116,-67081482.44815,  -0.00190,   0.00085,  -0.00087,434014726.42796,   0.00000,274640135.82653,   0.00000,   0.00000,   0.00000,-40625409.39857,   0.00000
-413053341.17697,10070990.38882,-66791933.82794,  -0.00190,   0.00085,  -0.00087,433886887.34204,   0.00000,274640135.82653,   0.00000,   0.00000,   0.00000,-40753248.48449,   0.00000
-413016637.83075,10156631.53001,-66506463.35732,  -0.00190,   0.00085,  -0.00086,433762708.28664,   0.00000,274640135.82653,   0.00000,   0.00000,   0.00000,-40877427.53989,   0.00000
-412971778.18537,10234116.37204,-66220992.88669,  -0.00190,   0.00085,  -0.00086,433627129.74226,   0.00000,274640135.82653,   0.00000,   0.00000,   0.00000,-41013006.08427,   0.00000
-412912645.01645,10317718.43844,-65931444.26648,  -0.00190,   0.00085,  -0.00086,433479515.28117,   0.00000,274640135.82653,   0.00000,   0.00000,   0.00000,-41160620.54536,   0.00000
-412867785.37107,10395203.28046,-65641895.64627,  -0.00190,   0.00085,  -0.00085,433343153.16784,   0.00000,274640135.82653,   0.00000,   0.00000,   0.00000,-41296982.65869,   0.00000
-412808652.20215,10478805.34686,-65352347.02606,  -0.00190,   0.00085,  -0.00085,433196627.40126,   0.00000,274640135.82653,   0.00000,   0.00000,   0.00000,-41443508.42527,   0.00000
-412749519.03323,10562407.41326,-65062798.40585,  -0.00190,   0.00085,  -0.00085,433050645.65405,   0.00000,274640135.82653,   0.00000,   0.00000,   0.00000,-41589490.17248,   0.00000
-412684268.63995,10660283.00319,-64773249.78564,  -0.00190,   0.00085,  -0.00084,432906456.37902,   0.00000,274640135.82653,   0.00000,   0.00000,   0.00000,-41733679.44751,   0.00000
-412610861.94750,10750002.29396,-64479623.01585,  -0.00190,   0.00085,  -0.00084,432749025.43117,   0.00000,274640135.82653,   0.00000,   0.00000,   0.00000,-41891110.39536,   0.00000
-412537455.25505,10839721.58473,-64190074.39564,  -0.00190,   0.00085,  -0.00083,432593966.28171,   0.00000,274640135.82653,   0.00000,   0.00000,   0.00000,-42046169.54482,   0.00000
-412464048.56260,10929440.87550,-63896447.62585,  -0.00190,   0.00085,  -0.00083,432437641.19714,   0.00000,274640135.82653,   0.00000,   0.00000,   0.00000,-42202494.62939,   0.00000
-412384524.64579,11033433.68980,-63602820.85606,  -0.00190,   0.00085,  -0.00083,432283132.44475,   0.00000,274640135.82653,   0.00000,   0.00000,   0.00000,-42357003.38178,   0.00000
-412296844.42981,11129270.20494,-63309194.08628,  -0.00190,   0.00085,  -0.00082,432117199.07444,   0.00000,274640135.82653,   0.00000,   0.00000,   0.00000,-42522936.75209,   0.00000
-412209164.21383,11225106.72008,-63015567.31649,  -0.00190,   0.00085,  -0.00082,431951820.36275,   0.00000,274640135.82653,   0.00000,   0.00000,   0.00000,-42688315.46378,   0.00000
-412121483.99785,11320943.23522,-62721940.54670,  -0.00190,   0.00086,  -0.00082,431786996.94700,   0.00000,274640135.82653,   0.00000,   0.00000,   0.00000,-42853138.87953,   0.00000
-412013413.03397,11437170.49826,-62424235.62733,  -0.00190,   0.00086,  -0.00081,431611497.32406,   0.00000,274640135.82653,   0.00000,   0.00000,   0.00000,-43028638.50247,   0.00000
-411925732.81799,11533007.01340,-62130608.85754,  -0.00190,   0.00086,  -0.00081,431447794.80839,   0.00000,274640135.82653,   0.00000,   0.00000,   0.00000,-43192341.01814,   0.00000
-411817661.85411,11649234.27644,-61832903.93817,  -0.00190,   0.00086,  -0.00080,431273434.98598,   0.00000,274640135.82653,   0.00000,   0.00000,   0.00000,-43366700.84055,   0.00000
-411701434.59107,11757305.24032,-61535199.01880,  -0.00190,   0.00086,  -0.00080,431087632.69209,   0.00000,274640135.82653,   0.00000,   0.00000,   0.00000,-43552503.13444,   0.00000
-411593363.62719,11873532.50336,-61237494.09943,  -0.00190,   0.00086,  -0.00080,430914419.56377,   0.00000,274640135.82653,   0.00000,   0.00000,   0.00000,-43725716.26276,   0.00000
-411477136.36415,11981603.46724,-60939789.18006,  -0.00190,   0.00086,  -0.00079,430729755.38238,   0.00000,274640135.82653,   0.00000,   0.00000,   0.00000,-43910380.44415,   0.00000
-411354791.87673,12103947.95466,-60642084.26069,  -0.00190,   0.00086,  -0.00079,430546948.07681,   0.00000,274640135.82653,   0.00000,   0.00000,   0.00000,-44093187.74972,   0.00000
-411238564.61369,12212018.91854,-60344379.34132,  -0.00189,   0.00086,  -0.00078,430363423.07050,   0.00000,274640135.82653,   0.00000,   0.00000,   0.00000,-44276712.75603,   0.00000
-411116220.12628,12334363.40595,-60042596.27237,  -0.00189,   0.00086,  -0.00078,430180055.24902,   0.00000,274640135.82653,   0.00000,   0.00000,   0.00000,-44460080.57751,   0.00000
-410979602.11534,12462825.11773,-59744891.35300,  -0.00189,   0.00086,  -0.00078,429988230.53807,   0.00000,274640135.82653,   0.00000,   0.00000,   0.00000,-44651905.28846,   0.00000
-410863374.85229,12570896.08161,-59443108.28405,  -0.00189,   0.00086,  -0.00077,429804735.17602,   0.00000,274640135.82653,   0.00000,   0.00000,   0.00000,-44835400.65051,   0.00000
-410726756.84135,12699357.79339,-59141325.21510,  -0.00189,   0.00086,  -0.00077,429612380.59304,   0.00000,274640135.82653,   0.00000,   0.00000,   0.00000,-45027755.23349,   0.00000
-410575865.30688,12833936.72955,-58839542.14615,  -0.00189,   0.00086,  -0.00076,429409863.58303,   0.00000,274640135.82653,   0.00000,   0.00000,   0.00000,-45230272.24350,   0.00000
-410439247.29593,12962398.44133,-58537759.07720,  -0.00189,   0.00086,  -0.00076,429218690.49117,   0.00000,274640135.82653,   0.00000,   0.00000,   0.00000,-45421445.33536,   0.00000
-410288355.76146,13096977.37748,-58235976.00825,  -0.00189,   0.00086,  -0.00076,429017353.62153,   0.00000,274640135.82653,   0.00000,   0.00000,   0.00000,-45622782.20500,   0.00000
-410151737.75051,13225439.08927,-57934192.93930,  -0.00189,   0.00086,  -0.00075,428827365.23971,   0.00000,274640135.82653,   0.00000,   0.00000,   0.00000,-45812770.58682,   0.00000
-410000846.21604,13360018.02542,-57632409.87035,  -0.00189,   0.00086,  -0.00075,428627211.77940,   0.00000,274640135.82653,   0.00000,   0.00000,   0.00000,-46012924.04713,   0.00000
-409849954.68156,13494596.96157,-57326548.65181,  -0.00189,   0.00086,  -0.00075,428426013.44196,   0.00000,274640135.82653,   0.00000,   0.00000,   0.00000,-46214122.38457,   0.00000
-409684789.62356,13635293.12210,-57024765.58286,  -0.00189,   0.00086,  -0.00074,428216291.06206,   0.00000,274640135.82653,   0.00000,   0.00000,   0.00000,-46423844.76447,   0.00000
-409533898.08908,13769872.05825,-56718904.36433,  -0.00189,   0.00086,  -0.00074,428016301.99983,   0.00000,274640135.82653,   0.00000,   0.00000,   0.00000,-46623833.82669,   0.00000
-409368733.03107,13910568.21878,-56413043.14580,  -0.00189,   0.00086,  -0.00073,427806158.77990,   0.00000,274640135.82653,   0.00000,   0.00000,   0.00000,-46833977.04663,   0.00000
-409197450.74870,14065537.90283,-56107181.92727,  -0.00189,   0.00086,  -0.00073,427597968.77492,   0.00000,274640135.82653,   0.00000,   0.00000,   0.00000,-47042167.05161,   0.00000
-409032285.69069,14206234.06336,-55805398.85832,  -0.00189,   0.00086,  -0.00073,427390645.47415,   0.00000,274640135.82653,   0.00000,   0.00000,   0.00000,-47249490.35238,   0.00000
-408867120.63268,14346930.22388,-55499537.63979,  -0.00189,   0.00086,  -0.00072,427182327.38090,   0.00000,274640135.82653,   0.00000,   0.00000,   0.00000,-47457808.44563,   0.00000
-408695838.35031,14501899.90794,-55189598.27168,  -0.00189,   0.00086,  -0.00072,426974395.95193,   0.00000,274640135.82653,   0.00000,   0.00000,   0.00000,-47665739.87460,   0.00000
-408510282.54440,14662986.81636,-54883737.05315,  -0.00189,   0.00086,  -0.00071,426757904.19503,   0.00000,274640135.82653,   0.00000,   0.00000,   0.00000,-47882231.63150,   0.00000
-408345117.48639,14803682.97689,-54577875.83462,  -0.00189,   0.00086,  -0.00071,426551438.00126,   0.00000,274640135.82653,   0.00000,   0.00000,   0.00000,-48088697.82527,   0.00000
-408159561.68048,14964769.88531,-54272014.61609,  -0.00189,   0.00086,  -0.00071,426336182.79174,   0.00000,274640135.82653,   0.00000,   0.00000,   0.00000,-48303953.03479,   0.00000
-407974005.87457,15125856.79374,-53962075.24798,  -0.00189,   0.00086,  -0.00070,426119999.64414,   0.00000,274640135.82653,   0.00000,   0.00000,   0.00000,-48520136.18239,   0.00000
-407794567.29304,15272670.17863,-53652135.87987,  -0.00189,   0.00086,  -0.00070,425903076.47212,   0.00000,274640135.82653,   0.00000,   0.00000,   0.00000,-48737059.35441,   0.00000
-407609011.48713,15433757.08706,-53346274.66134,  -0.00188,   0.00087,  -0.00069,425689699.93864,   0.00000,274640135.82653,   0.00000,   0.00000,   0.00000,-48950435.88789,   0.00000
-407423455.68122,15594843.99549,-53036335.29322,  -0.00188,   0.00087,  -0.00069,425475422.57330,   0.00000,274640135.82653,   0.00000,   0.00000,   0.00000,-49164713.25323,   0.00000
-407223626.35178,15762048.12828,-52726395.92511,  -0.00188,   0.00087,  -0.00069,425251009.28696,   0.00000,274640135.82653,   0.00000,   0.00000,   0.00000,-49389126.53957,   0.00000
-407031953.32150,15937408.56024,-52420534.70658,  -0.00188,   0.00087,  -0.00068,425040920.30093,   0.00000,274640135.82653,   0.00000,   0.00000,   0.00000,-49599215.52560,   0.00000
-406832123.99206,16104612.69304,-52110595.33847,  -0.00188,   0.00087,  -0.00068,424817786.69148,   0.00000,274640135.82653,   0.00000,   0.00000,   0.00000,-49822349.13505,   0.00000
-406646568.18615,16265699.60146,-51800655.97036,  -0.00188,   0.00087,  -0.00067,424606075.32166,   0.00000,274640135.82653,   0.00000,   0.00000,   0.00000,-50034060.50487,   0.00000
-406446738.85671,16432903.73426,-51490716.60225,  -0.00188,   0.00087,  -0.00067,424384228.82309,   0.00000,274640135.82653,   0.00000,   0.00000,   0.00000,-50255907.00344,   0.00000
-406240792.30290,16614381.39059,-51176699.08456,  -0.00188,   0.00087,  -0.00067,424162966.37871,   0.00000,274640135.82653,   0.00000,   0.00000,   0.00000,-50477169.44782,   0.00000
-406040962.97346,16781585.52338,-50866759.71645,  -0.00188,   0.00087,  -0.00066,423942423.09939,   0.00000,274640135.82653,   0.00000,   0.00000,   0.00000,-50697712.72714,   0.00000
-405835016.41965,16963063.17971,-50556820.34834,  -0.00188,   0.00087,  -0.00066,423723951.81302,   0.00000,274640135.82653,   0.00000,   0.00000,   0.00000,-50916184.01351,   0.00000
-405629069.86584,17144540.83604,-50246880.98022,  -0.00188,   0.00087,  -0.00065,423506137.96972,   0.00000,274640135.82653,   0.00000,   0.00000,   0.00000,-51133997.85681,   0.00000
-405408849.78850,17332135.71674,-49932863.46253,  -0.00188,   0.00087,  -0.00065,423276756.01353,   0.00000,274640135.82653,   0.00000,   0.00000,   0.00000,-51363379.81300,   0.00000
-405202903.23469,17513613.37307,-49622924.09442,  -0.00188,   0.00087,  -0.00065,423060267.82852,   0.00000,274640135.82653,   0.00000,   0.00000,   0.00000,-51579867.99801,   0.00000
-404996956.68088,17695091.02940,-49308906.57673,  -0.00188,   0.00087,  -0.00064,422843013.40543,   0.00000,274640135.82653,   0.00000,   0.00000,   0.00000,-51797122.42110,   0.00000
-404776736.60353,17882685.91010,-48998967.20862,  -0.00188,   0.00087,  -0.00064,422617070.83090,   0.00000,274640135.82653,   0.00000,   0.00000,   0.00000,-52023064.99563,   0.00000
-404570790.04972,18064163.56642,-48684949.69093,  -0.00188,   0.00087,  -0.00063,422401164.85598,   0.00000,274640135.82653,   0.00000,   0.00000,   0.00000,-52238970.97055,   0.00000
-404350569.97238,18251758.44712,-48370932.17324,  -0.00188,   0.00087,  -0.00063,422175153.57067,   0.00000,274640135.82653,   0.00000,   0.00000,   0.00000,-52464982.25586,   0.00000
-404138506.19420,18447509.62698,-48060992.80512,  -0.00187,   0.00087,  -0.00062,421963468.64653,   0.00000,274640135.82653,   0.00000,   0.00000,   0.00000,-52676667.18000,   0.00000
-403918286.11686,18635104.50768,-47746975.28743,  -0.00187,   0.00087,  -0.00062,421738816.56926,   0.00000,274640135.82653,   0.00000,   0.00000,   0.00000,-52901319.25727,   0.00000
-403691948.81514,18836972.91191,-47432957.76974,  -0.00187,   0.00087,  -0.00062,421516324.52326,   0.00000,274640135.82653,   0.00000,   0.00000,   0.00000,-53123811.30327,   0.00000
-403486002.26133,19018450.56824,-47118940.25205,  -0.00187,   0.00087,  -0.00061,421303830.58223,   0.00000,274640135.82653,   0.00000,   0.00000,   0.00000,-53336305.24430,   0.00000
-403259664.95962,19220318.97247,-46809000.88394,  -0.00187,   0.00087,  -0.00061,421084083.20104,   0.00000,274640135.82653,   0.00000,   0.00000,   0.00000,-53556052.62549,   0.00000
-403033327.65791,19422187.37670,-46494983.36625,  -0.00187,   0.00087,  -0.00060,420863664.15861,   0.00000,274640135.82653,   0.00000,   0.00000,   0.00000,-53776471.66792,   0.00000
-402821263.87973,19617938.55656,-46180965.84856,  -0.00187,   0.00087,  -0.00060,420654729.88076,   0.00000,274640135.82653,   0.00000,   0.00000,   0.00000,-53985405.94577,   0.00000
-402594926.57801,19819806.96079,-45866948.33086,  -0.00187,   0.00088,  -0.00060,420435707.60587,   0.00000,274640135.82653,   0.00000,   0.00000,   0.00000,-54204428.22066,   0.00000
-402362472.05193,20035948.88855,-45552930.81317,  -0.00187,   0.00088,  -0.00059,420218896.05933,   0.00000,274640135.82653,   0.00000,   0.00000,   0.00000,-54421239.76720,   0.00000
-402136134.75022,20237817.29278,-45238913.29548,  -0.00187,   0.00088,  -0.00059,420001280.43970,   0.00000,274640135.82653,   0.00000,   0.00000,   0.00000,-54638855.38683,   0.00000
-401909797.44851,20439685.69701,-44924895.77779,  -0.00187,   0.00088,  -0.00058,419784366.97527,   0.00000,274640135.82653,   0.00000,   0.00000,   0.00000,-54855768.85126,   0.00000
-401691616.44595,20649710.40040,-44610878.26010,  -0.00187,   0.00088,  -0.00058,419580471.64981,   0.00000,274640135.82653,   0.00000,   0.00000,   0.00000,-55059664.17672,   0.00000
-401459161.91987,20865852.32816,-44292782.59283,  -0.00187,   0.00088,  -0.00058,419365212.95959,   0.00000,274640135.82653,   0.00000,   0.00000,   0.00000,-55274922.86694,   0.00000
-401226707.39379,21081994.25593,-43978765.07513,  -0.00187,   0.00088,  -0.00057,419151972.05914,   0.00000,274640135.82653,   0.00000,   0.00000,   0.00000,-55488163.76739,   0.00000
-400994252.86770,21298136.18369,-43664747.55744,  -0.00187,   0.00088,  -0.00057,418939449.30269,   0.00000,274640135.82653,   0.00000,   0.00000,   0.00000,-55700686.52383,   0.00000
-400761798.34162,21514278.11145,-43350730.03975,  -0.00187,   0.00088,  -0.00056,418727645.78371,   0.00000,274640135.82653,   0.00000,   0.00000,   0.00000,-55912490.04282,   0.00000
-400543617.33907,21724302.81484,-43036712.52206,  -0.00186,   0.00088,  -0.00056,418527348.48705,   0.00000,274640135.82653,   0.00000,   0.00000,   0.00000,-56112787.33948,   0.00000
-400311162.81299,21940444.74260,-42718616.85479,  -0.00186,   0.00088,  -0.00056,418315736.99024,   0.00000,274640135.82653,   0.00000,   0.00000,   0.00000,-56324398.83628,   0.00000
-400072591.06253,22170860.19390,-42404599.33710,  -0.00186,   0.00088,  -0.00055,418107676.05953,   0.00000,274640135.82653,   0.00000,   0.00000,   0.00000,-56532459.76700,   0.00000
-399854410.05998,22380884.89729,-42090581.81941,  -0.00186,   0.00088,  -0.00055,417909559.61082,   0.00000,274640135.82653,   0.00000,   0.00000,   0.00000,-56730576.21571,   0.00000
-399615838.30953,22611300.34858,-41776564.30171,  -0.00186,   0.00088,  -0.00054,417702964.85650,   0.00000,274640135.82653,   0.00000,   0.00000,   0.00000,-56937170.97003,   0.00000
-399391540.08260,22835598.57550,-41462546.78402,  -0.00186,   0.00088,  -0.00054,417507892.25245,   0.00000,274640135.82653,   0.00000,   0.00000,   0.00000,-57132243.57408,   0.00000
-399152968.33215,23066014.02680,-41144451.11675,  -0.00186,   0.00088,  -0.00053,417301568.01878,   0.00000,274640135.82653,   0.00000,   0.00000,   0.00000,-57338567.80775,   0.00000
-398928670.10523,23290312.25372,-40830433.59906,  -0.00186,   0.00088,  -0.00053,417107982.05521,   0.00000,274640135.82653,   0.00000,   0.00000,   0.00000,-57532153.77132,   0.00000
-398704371.87830,23514610.48064,-40516416.08137,  -0.00186,   0.00088,  -0.00053,416915136.42324,   0.00000,274640135.82653,   0.00000,   0.00000,   0.00000,-57724999.40329,   0.00000
-398459682.90348,23759299.45547,-40202398.56368,  -0.00186,   0.00089,  -0.00052,416713864.28580,   0.00000,274640135.82653,   0.00000,   0.00000,   0.00000,-57926271.54073,   0.00000
-398235384.67656,23983597.68239,-39884302.89640,  -0.00186,   0.00089,  -0.00052,416521337.59010,   0.00000,274640135.82653,   0.00000,   0.00000,   0.00000,-58118798.23643,   0.00000
-398004969.22526,24222169.43284,-39570285.37871,  -0.00186,   0.00089,  -0.00051,416332361.55094,   0.00000,274640135.82653,   0.00000,   0.00000,   0.00000,-58307774.27559,   0.00000
-397774553.77397,24460741.18330,-39256267.86102,  -0.00186,   0.00089,  -0.00051,416144142.81305,   0.00000,274640135.82653,   0.00000,   0.00000,   0.00000,-58495993.01347,   0.00000
-397544138.32268,24699312.93375,-38942250.34333,  -0.00186,   0.00089,  -0.00051,415956682.40447,   0.00000,274640135.82653,   0.00000,   0.00000,   0.00000,-58683453.42206,   0.00000
-397313722.87138,24937884.68420,-38628232.82564,  -0.00186,   0.00089,  -0.00050,415769981.35093,   0.00000,274640135.82653,   0.00000,   0.00000,   0.00000,-58870154.47560,   0.00000
-397097580.94362,25170339.21029,-38310137.15837,  -0.00186,   0.00089,  -0.00050,415593690.28710,   0.00000,274640135.82653,   0.00000,   0.00000,   0.00000,-59046445.53943,   0.00000
-396861048.26796,25423184.48427,-37996119.64067,  -0.00186,   0.00089,  -0.00049,415410179.11174,   0.00000,274640135.82653,   0.00000,   0.00000,   0.00000,-59229956.71479,   0.00000
-396644906.34020,25655639.01036,-37682102.12298,  -0.00185,   0.00089,  -0.00049,415236552.50018,   0.00000,274640135.82653,   0.00000,   0.00000,   0.00000,-59403583.32635,   0.00000
-396408373.66453,25908484.28434,-37368084.60529,  -0.00185,   0.00089,  -0.00049,415054586.32540,   0.00000,274640135.82653,   0.00000,   0.00000,   0.00000,-59585549.50113,   0.00000
-396186114.51240,26155212.33396,-37054067.08760,  -0.00185,   0.00089,  -0.00048,414884171.88018,   0.00000,274640135.82653,   0.00000,   0.00000,   0.00000,-59755963.94635,   0.00000
-395963855.36027,26401940.38357,-36740049.56991,  -0.00185,   0.00089,  -0.00048,414714534.39475,   0.00000,274640135.82653,   0.00000,   0.00000,   0.00000,-59925601.43178,   0.00000
-395741596.20814,26648668.43319,-36426032.05222,  -0.00185,   0.00089,  -0.00047,414545674.82294,   0.00000,274640135.82653,   0.00000,   0.00000,   0.00000,-60094461.00359,   0.00000
-395519337.05600,26895396.48280,-36112014.53453,  -0.00185,   0.00089,  -0.00047,414377594.11574,   0.00000,274640135.82653,   0.00000,   0.00000,   0.00000,-60262541.71079,   0.00000
-395290960.67950,27156398.05595,-35797997.01683,  -0.00185,   0.00089,  -0.00047,414212001.27191,   0.00000,274640135.82653,   0.00000,   0.00000,   0.00000,-60428134.55462,   0.00000
-395082975.05090,27397008.88119,-35483979.49914,  -0.00185,   0.00090,  -0.00046,414056256.38344,   0.00000,274640135.82653,   0.00000,   0.00000,   0.00000,-60583879.44309,   0.00000
-394854598.67440,27658010.45434,-35169961.98145,  -0.00185,   0.00090,  -0.00046,413892245.55676,   0.00000,274640135.82653,   0.00000,   0.00000,   0.00000,-60747890.26976,   0.00000
-394640495.82143,27912894.80311,-34855944.46376,  -0.00185,   0.00090,  -0.00045,413739797.30836,   0.00000,274640135.82653,   0.00000,   0.00000,   0.00000,-60900338.51817,   0.00000
-394426392.96845,28167779.15189,-34541926.94607,  -0.00185,   0.00090,  -0.00045,413588144.09109,   0.00000,274640135.82653,   0.00000,   0.00000,   0.00000,-61051991.73544,   0.00000
-394206172.89111,28436937.02419,-34231987.57796,  -0.00185,   0.00090,  -0.00045,413440043.01282,   0.00000,274640135.82653,   0.00000,   0.00000,   0.00000,-61200092.81371,   0.00000
-393992070.03814,28691821.37297,-33917970.06026,  -0.00185,   0.00090,  -0.00044,413289980.57244,   0.00000,274640135.82653,   0.00000,   0.00000,   0.00000,-61350155.25409,   0.00000
-393771849.96080,28960979.24528,-33603952.54257,  -0.00185,   0.00090,  -0.00044,413142473.48092,   0.00000,274640135.82653,   0.00000,   0.00000,   0.00000,-61497662.34561,   0.00000
-393565903.40699,29224019.89321,-33294013.17446,  -0.00185,   0.00090,  -0.00043,413007524.62094,   0.00000,274640135.82653,   0.00000,   0.00000,   0.00000,-61632611.20559,   0.00000
-393359956.85318,29487060.54115,-32979995.65677,  -0.00185,   0.00090,  -0.00043,412872391.42094,   0.00000,274640135.82653,   0.00000,   0.00000,   0.00000,-61767744.40559,   0.00000
-393139736.77584,29756218.41346,-32665978.13908,  -0.00185,   0.00090,  -0.00042,412727313.63977,   0.00000,274640135.82653,   0.00000,   0.00000,   0.00000,-61912822.18676,   0.00000
-392933790.22202,30019259.06139,-32356038.77097,  -0.00185,   0.00090,  -0.00042,412594765.34529,   0.00000,274640135.82653,   0.00000,   0.00000,   0.00000,-62045370.48124,   0.00000
-392735999.96737,30290456.00849,-32046099.40286,  -0.00185,   0.00090,  -0.00042,412475559.74427,   0.00000,274640135.82653,   0.00000,   0.00000,   0.00000,-62164576.08226,   0.00000
-392530053.41356,30553496.65643,-31732081.88517,  -0.00185,   0.00090,  -0.00041,412343667.01528,   0.00000,274640135.82653,   0.00000,   0.00000,   0.00000,-62296468.81125,   0.00000
-392332263.15891,30824693.60352,-31422142.51705,  -0.00185,   0.00091,  -0.00041,412226080.41569,   0.00000,274640135.82653,   0.00000,   0.00000,   0.00000,-62414055.41084,   0.00000
-392134472.90426,31095890.55062,-31112203.14894,  -0.00184,   0.00091,  -0.00040,412109302.79956,   0.00000,274640135.82653,   0.00000,   0.00000,   0.00000,-62530833.02697,   0.00000
-391936682.64961,31367087.49772,-30802263.78083,  -0.00184,   0.00091,  -0.00040,411993334.85480,   0.00000,274640135.82653,   0.00000,   0.00000,   0.00000,-62646800.97173,   0.00000
-391732775.17059,31652557.96835,-30492324.41272,  -0.00184,   0.00091,  -0.00040,411880008.60354,   0.00000,274640135.82653,   0.00000,   0.00000,   0.00000,-62760127.22299,   0.00000
-391549258.43948,31917637.69107,-30182385.04461,  -0.00184,   0.00091,  -0.00039,411776412.45014,   0.00000,274640135.82653,   0.00000,   0.00000,   0.00000,-62863723.37639,   0.00000
-391359624.48399,32196990.93733,-29872445.67650,  -0.00184,   0.00091,  -0.00039,411675470.74911,   0.00000,274640135.82653,   0.00000,   0.00000,   0.00000,-62964665.07742,   0.00000
-391169990.52850,32476344.18359,-29562506.30839,  -0.00184,   0.00091,  -0.00038,411575352.76786,   0.00000,274640135.82653,   0.00000,   0.00000,   0.00000,-63064783.05867,   0.00000
-390980356.57301,32755697.42985,-29252566.94028,  -0.00184,   0.00091,  -0.00038,411476059.10767,   0.00000,274640135.82653,   0.00000,   0.00000,   0.00000,-63164076.71886,   0.00000
-390798878.91668,33043206.97527,-28946705.72175,  -0.00184,   0.00091,  -0.00038,411391055.86767,   0.00000,274640135.82653,   0.00000,   0.00000,   0.00000,-63249079.95886,   0.00000
-390609244.96119,33322560.22153,-28636766.35363,  -0.00184,   0.00091,  -0.00037,411293409.28193,   0.00000,274640135.82653,   0.00000,   0.00000,   0.00000,-63346726.54460,   0.00000
-390427767.30486,33610069.76694,-28326826.98552,  -0.00184,   0.00091,  -0.00037,411209204.84794,   0.00000,274640135.82653,   0.00000,   0.00000,   0.00000,-63430930.97859,   0.00000
-390260563.17207,33891462.08799,-28020965.76699,  -0.00184,   0.00092,  -0.00036,411137401.62939,   0.00000,274640135.82653,   0.00000,   0.00000,   0.00000,-63502734.19714,   0.00000
-390079085.51574,34178971.63341,-27715104.54846,  -0.00184,   0.00092,  -0.00036,411055687.36819,   0.00000,274640135.82653,   0.00000,   0.00000,   0.00000,-63584448.45834,   0.00000
-389911881.38294,34460363.95446,-27409243.32993,  -0.00184,   0.00092,  -0.00036,410985519.36758,   0.00000,274640135.82653,   0.00000,   0.00000,   0.00000,-63654616.45895,   0.00000
-389738560.02577,34756029.79904,-27103382.11140,  -0.00184,   0.00092,  -0.00035,410918083.99008,   0.00000,274640135.82653,   0.00000,   0.00000,   0.00000,-63722051.83645,   0.00000
-389565238.66861,35051695.64362,-26797520.89287,  -0.00184,   0.00092,  -0.00035,410851481.80769,   0.00000,274640135.82653,   0.00000,   0.00000,   0.00000,-63788654.01883,   0.00000
-389406190.83497,35341244.26383,-26491659.67434,  -0.00184,   0.00092,  -0.00034,410796431.83914,   0.00000,274640135.82653,   0.00000,   0.00000,   0.00000,-63843703.98739,   0.00000
-389247143.00133,35630792.88404,-26185798.45581,  -0.00184,   0.00092,  -0.00034,410742211.35833,   0.00000,274640135.82653,   0.00000,   0.00000,   0.00000,-63897924.46819,   0.00000
-389088095.16770,35920341.50425,-25879937.23728,  -0.00184,   0.00092,  -0.00034,410688820.69383,   0.00000,274640135.82653,   0.00000,   0.00000,   0.00000,-63951315.13270,   0.00000
-388922930.10969,36224163.64799,-25578154.16833,  -0.00184,   0.00092,  -0.00033,410638976.93208,   0.00000,274640135.82653,   0.00000,   0.00000,   0.00000,-64001158.89445,   0.00000
-388778155.79959,36507595.04382,-25272292.94980,  -0.00184,   0.00092,  -0.00033,410597955.14524,   0.00000,274640135.82653,   0.00000,   0.00000,   0.00000,-64042180.68129,   0.00000
-388627264.26511,36805299.96319,-24970509.88085,  -0.00184,   0.00093,  -0.00032,410560473.94001,   0.00000,274640135.82653,   0.00000,   0.00000,   0.00000,-64079661.88652,   0.00000
-388484529.02980,37111161.18173,-24668726.81190,  -0.00184,   0.00093,  -0.00032,410536499.96164,   0.00000,274640135.82653,   0.00000,   0.00000,   0.00000,-64103635.86489,   0.00000
-388333637.49532,37408866.10110,-24362865.59337,  -0.00184,   0.00093,  -0.00032,410499946.38330,   0.00000,274640135.82653,   0.00000,   0.00000,   0.00000,-64140189.44323,   0.00000
-388197019.48438,37700453.79609,-24061082.52442,  -0.00184,   0.00093,  -0.00031,410475652.17267,   0.00000,274640135.82653,   0.00000,   0.00000,   0.00000,-64164483.65386,   0.00000
-388068557.77260,38000197.79025,-23763377.60505,  -0.00184,   0.00093,  -0.00031,410465585.47695,   0.00000,274640135.82653,   0.00000,   0.00000,   0.00000,-64174550.34957,   0.00000
-387925822.53728,38306059.00879,-23461594.53610,  -0.00184,   0.00093,  -0.00031,410444937.41754,   0.00000,274640135.82653,   0.00000,   0.00000,   0.00000,-64195198.40899,   0.00000
-387791243.60113,38620076.52648,-23159811.46714,  -0.00184,   0.00093,  -0.00030,410437835.76855,   0.00000,274640135.82653,   0.00000,   0.00000,   0.00000,-64202300.05797,   0.00000
-387677055.41288,38913703.29627,-22862106.54778,  -0.00184,   0.00093,  -0.00030,410440925.41356,   0.00000,274640135.82653,   0.00000,   0.00000,   0.00000,-64199210.41297,   0.00000
-387542476.47672,39227720.81396,-22564401.62841,  -0.00184,   0.00093,  -0.00029,410436170.29606,   0.00000,274640135.82653,   0.00000,   0.00000,   0.00000,-64203965.53047,   0.00000
-387422171.06410,39535621.10728,-22262618.55945,  -0.00184,   0.00094,  -0.00029,410442264.74314,   0.00000,274640135.82653,   0.00000,   0.00000,   0.00000,-64197871.08339,   0.00000
-387316139.17501,39837404.17623,-21964913.64008,  -0.00184,   0.00094,  -0.00029,410460536.84962,   0.00000,274640135.82653,   0.00000,   0.00000,   0.00000,-64179598.97691,   0.00000
-387195833.76239,40145304.46955,-21667208.72072,  -0.00184,   0.00094,  -0.00028,410468948.38815,   0.00000,274640135.82653,   0.00000,   0.00000,   0.00000,-64171187.43837,   0.00000
-387083684.64893,40461361.06203,-21373581.95093,  -0.00184,   0.00094,  -0.00028,410491563.13184,   0.00000,274640135.82653,   0.00000,   0.00000,   0.00000,-64148572.69469,   0.00000
-386991926.28337,40757026.90661,-21075877.03156,  -0.00184,   0.00094,  -0.00027,410522964.49882,   0.00000,274640135.82653,   0.00000,   0.00000,   0.00000,-64117171.32771,   0.00000
-386887933.46907,41081239.79825,-20778172.11219,  -0.00184,   0.00094,  -0.00027,410559343.58652,   0.00000,274640135.82653,   0.00000,   0.00000,   0.00000,-64080792.24001,   0.00000
-386790057.87914,41391179.16637,-20484545.34240,  -0.00184,   0.00094,  -0.00027,410595086.38807,   0.00000,274640135.82653,   0.00000,   0.00000,   0.00000,-64045049.43846,   0.00000
-386692182.28921,41701118.53448,-20190918.57261,  -0.00184,   0.00094,  -0.00026,410631639.35458,   0.00000,274640135.82653,   0.00000,   0.00000,   0.00000,-64008496.47195,   0.00000
-386602462.99844,42019214.20175,-19897291.80282,  -0.00184,   0.00095,  -0.00026,410681771.11421,   0.00000,274640135.82653,   0.00000,   0.00000,   0.00000,-63958364.71232,   0.00000
-386512743.70767,42337309.86902,-19603665.03303,  -0.00184,   0.00095,  -0.00025,410732722.95038,   0.00000,274640135.82653,   0.00000,   0.00000,   0.00000,-63907412.87615,   0.00000
-386437297.94043,42649288.31192,-19310038.26324,  -0.00184,   0.00095,  -0.00025,410795150.28849,   0.00000,274640135.82653,   0.00000,   0.00000,   0.00000,-63844985.53804,   0.00000
-386355734.94882,42975540.27835,-19020489.64303,  -0.00184,   0.00095,  -0.00025,410861089.07745,   0.00000,274640135.82653,   0.00000,   0.00000,   0.00000,-63779046.74908,   0.00000
-386280289.18159,43287518.72126,-18730941.02282,  -0.00184,   0.00095,  -0.00024,410925699.84324,   0.00000,274640135.82653,   0.00000,   0.00000,   0.00000,-63714435.98329,   0.00000
-386212999.71351,43607653.46332,-18437314.25303,  -0.00184,   0.00095,  -0.00024,411003351.46251,   0.00000,274640135.82653,   0.00000,   0.00000,   0.00000,-63636784.36402,   0.00000
-386145710.24543,43927788.20538,-18147765.63282,  -0.00184,   0.00095,  -0.00024,411082365.57415,   0.00000,274640135.82653,   0.00000,   0.00000,   0.00000,-63557770.25238,   0.00000
-386086577.07652,44256079.24660,-17862295.16219,  -0.00184,   0.00095,  -0.00023,411175520.26534,   0.00000,274640135.82653,   0.00000,   0.00000,   0.00000,-63464615.56119,   0.00000
-386033561.13197,44570096.76429,-17572746.54198,  -0.00184,   0.00096,  -0.00023,411266776.29346,   0.00000,274640135.82653,   0.00000,   0.00000,   0.00000,-63373359.53307,   0.00000
-385988701.48659,44892270.58115,-17283197.92178,  -0.00184,   0.00096,  -0.00022,411371644.20125,   0.00000,274640135.82653,   0.00000,   0.00000,   0.00000,-63268491.62527,   0.00000
-385929568.31767,45220561.62237,-16997727.45115,  -0.00184,   0.00096,  -0.00022,411467193.02615,   0.00000,274640135.82653,   0.00000,   0.00000,   0.00000,-63172942.80038,   0.00000
-385892864.97145,45550891.73838,-16712256.98052,  -0.00184,   0.00096,  -0.00022,411586989.21262,   0.00000,274640135.82653,   0.00000,   0.00000,   0.00000,-63053146.61391,   0.00000
-385848005.32606,45873065.55524,-16426786.50989,  -0.00185,   0.00096,  -0.00021,411694753.60434,   0.00000,274640135.82653,   0.00000,   0.00000,   0.00000,-62945382.22219,   0.00000
-385825575.50337,46197278.44688,-16141316.03926,  -0.00185,   0.00096,  -0.00021,411826760.95939,   0.00000,274640135.82653,   0.00000,   0.00000,   0.00000,-62813374.86714,   0.00000
-385788872.15715,46527608.56289,-15859923.71821,  -0.00185,   0.00096,  -0.00021,411949411.22856,   0.00000,274640135.82653,   0.00000,   0.00000,   0.00000,-62690724.59797,   0.00000
-385760325.11008,46866094.97806,-15578531.39716,  -0.00185,   0.00097,  -0.00020,412085684.34779,   0.00000,274640135.82653,   0.00000,   0.00000,   0.00000,-62554451.47874,   0.00000
-385752168.81092,47184190.64534,-15293060.92654,  -0.00185,   0.00097,  -0.00020,412230664.31516,   0.00000,274640135.82653,   0.00000,   0.00000,   0.00000,-62409471.51136,   0.00000
-385723621.76386,47522677.06051,-15015746.75507,  -0.00185,   0.00097,  -0.00020,412368954.07530,   0.00000,274640135.82653,   0.00000,   0.00000,   0.00000,-62271181.75123,   0.00000
-385723621.76386,47848929.02694,-14734354.43402,  -0.00185,   0.00097,  -0.00019,412528784.69170,   0.00000,274640135.82653,   0.00000,   0.00000,   0.00000,-62111351.13483,   0.00000
-385703231.01596,48195571.74128,-14452962.11297,  -0.00185,   0.00097,  -0.00019,412681048.31020,   0.00000,274640135.82653,   0.00000,   0.00000,   0.00000,-61959087.51633,   0.00000
-385717504.53949,48515706.48334,-14175647.94150,  -0.00185,   0.00097,  -0.00018,412853450.15291,   0.00000,274640135.82653,   0.00000,   0.00000,   0.00000,-61786685.67362,   0.00000
-385711387.31512,48856231.97330,-13898333.77004,  -0.00185,   0.00097,  -0.00018,413018282.60423,   0.00000,274640135.82653,   0.00000,   0.00000,   0.00000,-61621853.22230,   0.00000
-385733817.13781,49184523.01453,-13621019.59857,  -0.00185,   0.00098,  -0.00018,413205064.48867,   0.00000,274640135.82653,   0.00000,   0.00000,   0.00000,-61435071.33786,   0.00000
-385735856.21260,49533204.80365,-13343705.42710,  -0.00185,   0.00098,  -0.00017,413384307.55854,   0.00000,274640135.82653,   0.00000,   0.00000,   0.00000,-61255828.26799,   0.00000
-385758286.03529,49861495.84488,-13070469.40521,  -0.00185,   0.00098,  -0.00017,413572993.19524,   0.00000,274640135.82653,   0.00000,   0.00000,   0.00000,-61067142.63129,   0.00000
-385788872.15715,50197943.18526,-12797233.38332,  -0.00185,   0.00098,  -0.00017,413775304.74059,   0.00000,274640135.82653,   0.00000,   0.00000,   0.00000,-60864831.08594,   0.00000
-385813341.05463,50548664.04917,-12523997.36144,  -0.00185,   0.00098,  -0.00016,413980678.37193,   0.00000,274640135.82653,   0.00000,   0.00000,   0.00000,-60659457.45460,   0.00000
-385843927.17648,50885111.38956,-12250761.33955,  -0.00185,   0.00098,  -0.00016,414184482.29461,   0.00000,274640135.82653,   0.00000,   0.00000,   0.00000,-60455653.53192,   0.00000
-385882669.59750,51229715.02910,-11977525.31766,  -0.00186,   0.00099,  -0.00016,414401931.62437,   0.00000,274640135.82653,   0.00000,   0.00000,   0.00000,-60238204.20216,   0.00000
-385935685.54204,51568201.44428,-11708367.44536,  -0.00186,   0.00099,  -0.00015,414631040.27108,   0.00000,274640135.82653,   0.00000,   0.00000,   0.00000,-60009095.55545,   0.00000
-385988701.48659,51906687.85945,-11439209.57305,  -0.00186,   0.00099,  -0.00015,414860872.47672,   0.00000,274640135.82653,   0.00000,   0.00000,   0.00000,-59779263.34981,   0.00000
-386035600.20676,52259447.79816,-11170051.70074,  -0.00186,   0.00099,  -0.00015,415093786.96072,   0.00000,274640135.82653,   0.00000,   0.00000,   0.00000,-59546348.86581,   0.00000
-386096772.45047,52606090.51249,-10900893.82843,  -0.00186,   0.00099,  -0.00014,415337993.29289,   0.00000,274640135.82653,   0.00000,   0.00000,   0.00000,-59302142.53364,   0.00000
-386172218.21771,52946616.00246,-10635814.10571,  -0.00186,   0.00099,  -0.00014,415593792.11335,   0.00000,274640135.82653,   0.00000,   0.00000,   0.00000,-59046343.71318,   0.00000
-386247663.98494,53287141.49242,-10370734.38298,  -0.00186,   0.00100,  -0.00013,415850294.81662,   0.00000,274640135.82653,   0.00000,   0.00000,   0.00000,-58789841.00991,   0.00000
-386316992.52781,53641940.50591,-10105654.66025,  -0.00186,   0.00100,  -0.00013,416109892.20987,   0.00000,274640135.82653,   0.00000,   0.00000,   0.00000,-58530243.61666,   0.00000
-386400594.59421,53990622.29504,-9840574.93753,  -0.00186,   0.00100,  -0.00013,416380746.55438,   0.00000,274640135.82653,   0.00000,   0.00000,   0.00000,-58259389.27215,   0.00000
-386484196.66061,54339304.08416,-9579573.36438,  -0.00186,   0.00100,  -0.00012,416652590.53598,   0.00000,274640135.82653,   0.00000,   0.00000,   0.00000,-57987545.29055,   0.00000
-386582072.25054,54681868.64892,-9318571.79124,  -0.00187,   0.00100,  -0.00012,416935657.84420,   0.00000,274640135.82653,   0.00000,   0.00000,   0.00000,-57704477.98233,   0.00000
-386688104.13963,55032589.51283,-9057570.21809,  -0.00187,   0.00100,  -0.00012,417232359.99976,   0.00000,274640135.82653,   0.00000,   0.00000,   0.00000,-57407775.82677,   0.00000
-386794136.02872,55383310.37675,-8796568.64494,  -0.00187,   0.00101,  -0.00011,417529751.37330,   0.00000,274640135.82653,   0.00000,   0.00000,   0.00000,-57110384.45323,   0.00000
-386894050.69344,55748304.76420,-8539645.22138,  -0.00187,   0.00101,  -0.00011,417830520.68643,   0.00000,274640135.82653,   0.00000,   0.00000,   0.00000,-56809615.14010,   0.00000
-387028629.62959,56086791.17937,-8282721.79781,  -0.00187,   0.00101,  -0.00011,418150562.20143,   0.00000,274640135.82653,   0.00000,   0.00000,   0.00000,-56489573.62510,   0.00000
-387142817.81784,56445668.34245,-8025798.37425,  -0.00187,   0.00101,  -0.00010,418463200.62450,   0.00000,274640135.82653,   0.00000,   0.00000,   0.00000,-56176935.20203,   0.00000
-387265162.30526,56812701.80468,-7768874.95068,  -0.00187,   0.00101,  -0.00010,418789488.24087,   0.00000,274640135.82653,   0.00000,   0.00000,   0.00000,-55850647.58566,   0.00000
-387407897.54057,57159344.51902,-7516029.67669,  -0.00187,   0.00102,  -0.00010,419124710.95589,   0.00000,274640135.82653,   0.00000,   0.00000,   0.00000,-55515424.87064,   0.00000
-387544515.55151,57520260.75688,-7263184.40271,  -0.00188,   0.00102,  -0.00009,419463055.66048,   0.00000,274640135.82653,   0.00000,   0.00000,   0.00000,-55177080.16605,   0.00000
-387695407.08599,57875059.77038,-7010339.12872,  -0.00188,   0.00102,  -0.00009,419812554.17257,   0.00000,274640135.82653,   0.00000,   0.00000,   0.00000,-54827581.65396,   0.00000
-387846298.62046,58229858.78388,-6761572.00432,  -0.00188,   0.00102,  -0.00009,420162896.47470,   0.00000,274640135.82653,   0.00000,   0.00000,   0.00000,-54477239.35183,   0.00000
-388005346.45410,58592814.09653,-6512804.87991,  -0.00188,   0.00102,  -0.00008,420526862.11011,   0.00000,274640135.82653,   0.00000,   0.00000,   0.00000,-54113273.71642,   0.00000
-388178667.81127,58949652.18482,-6264037.75551,  -0.00188,   0.00103,  -0.00008,420901950.09822,   0.00000,274640135.82653,   0.00000,   0.00000,   0.00000,-53738185.72830,   0.00000
-388337715.64490,59312607.49747,-6015270.63110,  -0.00188,   0.00103,  -0.00008,421267183.32581,   0.00000,274640135.82653,   0.00000,   0.00000,   0.00000,-53372952.50072,   0.00000
-388519193.30123,59677601.88492,-5770581.65628,  -0.00188,   0.00103,  -0.00008,421656699.59176,   0.00000,274640135.82653,   0.00000,   0.00000,   0.00000,-52983436.23477,   0.00000
-388700670.95756,60042596.27237,-5525892.68145,  -0.00189,   0.00103,  -0.00007,422046832.58718,   0.00000,274640135.82653,   0.00000,   0.00000,   0.00000,-52593303.23935,   0.00000
-388896422.13742,60401473.43544,-5281203.70663,  -0.00189,   0.00103,  -0.00007,422448050.52586,   0.00000,274640135.82653,   0.00000,   0.00000,   0.00000,-52192085.30066,   0.00000
-389086056.09291,60774624.12205,-5040592.88139,  -0.00189,   0.00104,  -0.00007,422852569.48856,   0.00000,274640135.82653,   0.00000,   0.00000,   0.00000,-51787566.33797,   0.00000
-389296080.79630,61127384.06076,-4795903.90656,  -0.00189,   0.00104,  -0.00006,423265458.94095,   0.00000,274640135.82653,   0.00000,   0.00000,   0.00000,-51374676.88558,   0.00000
-389493871.05095,61508691.04652,-4559371.23090,  -0.00189,   0.00104,  -0.00006,423684335.84163,   0.00000,274640135.82653,   0.00000,   0.00000,   0.00000,-50955799.98490,   0.00000
-389712052.05350,61869607.28439,-4318760.40565,  -0.00189,   0.00104,  -0.00006,424111563.75433,   0.00000,274640135.82653,   0.00000,   0.00000,   0.00000,-50528572.07220,   0.00000
-389924115.83168,62244797.04579,-4082227.72999,  -0.00190,   0.00104,  -0.00005,424542073.37944,   0.00000,274640135.82653,   0.00000,   0.00000,   0.00000,-50098062.44709,   0.00000
-390150453.13340,62613869.58282,-3845695.05433,  -0.00190,   0.00105,  -0.00005,424983611.97327,   0.00000,274640135.82653,   0.00000,   0.00000,   0.00000,-49656523.85325,   0.00000
-390391063.95864,62976824.89547,-3609162.37866,  -0.00190,   0.00105,  -0.00005,425436165.74943,   0.00000,274640135.82653,   0.00000,   0.00000,   0.00000,-49203970.07709,   0.00000
-390625557.55951,63354053.73166,-3376707.85258,  -0.00190,   0.00105,  -0.00004,425891983.22258,   0.00000,274640135.82653,   0.00000,   0.00000,   0.00000,-48748152.60395,   0.00000
-390874324.68392,63725165.34348,-3144253.32650,  -0.00190,   0.00105,  -0.00004,426358797.67059,   0.00000,274640135.82653,   0.00000,   0.00000,   0.00000,-48281338.15594,   0.00000
-391123091.80832,64096276.95529,-2911798.80041,  -0.00190,   0.00105,  -0.00004,426826165.31575,   0.00000,274640135.82653,   0.00000,   0.00000,   0.00000,-47813970.51078,   0.00000
-391380015.23189,64475544.86627,-2683422.42391,  -0.00191,   0.00106,  -0.00003,427307212.91394,   0.00000,274640135.82653,   0.00000,   0.00000,   0.00000,-47332922.91259,   0.00000
-391651212.17899,64848695.55288,-2455046.04741,  -0.00191,   0.00106,  -0.00003,427799225.44457,   0.00000,274640135.82653,   0.00000,   0.00000,   0.00000,-46840910.38196,   0.00000
-391922409.12608,65221846.23949,-2226669.67090,  -0.00191,   0.00106,  -0.00003,428291771.20438,   0.00000,274640135.82653,   0.00000,   0.00000,   0.00000,-46348364.62215,   0.00000
-392207879.59671,65588879.70172,-2002371.44398,  -0.00191,   0.00106,  -0.00003,428795319.31379,   0.00000,274640135.82653,   0.00000,   0.00000,   0.00000,-45844816.51274,   0.00000
-392487232.84297,65970186.68749,-1778073.21706,  -0.00191,   0.00107,  -0.00002,429302031.36314,   0.00000,274640135.82653,   0.00000,   0.00000,   0.00000,-45338104.46339,   0.00000
-392780859.61276,66345376.44889,-1553774.99014,  -0.00192,   0.00107,  -0.00002,429819670.67291,   0.00000,274640135.82653,   0.00000,   0.00000,   0.00000,-44820465.15362,   0.00000
-393068369.15818,66734839.73382,-1333554.91279,  -0.00192,   0.00107,  -0.00002,430340529.57314,   0.00000,274640135.82653,   0.00000,   0.00000,   0.00000,-44299606.25339,   0.00000
-393370152.22713,67118185.79438,-1113334.83545,  -0.00192,   0.00107,  -0.00001,430872297.82620,   0.00000,274640135.82653,   0.00000,   0.00000,   0.00000,-43767838.00032,   0.00000
-393686208.81961,67495414.63057,-893114.75811,  -0.00192,   0.00107,  -0.00001,431414961.34399,   0.00000,274640135.82653,   0.00000,   0.00000,   0.00000,-43225174.48254,   0.00000
-394016538.93562,67866526.24238,-676972.83035,  -0.00193,   0.00108,  -0.00001,431968525.46831,   0.00000,274640135.82653,   0.00000,   0.00000,   0.00000,-42671610.35822,   0.00000
-394326478.30373,68258028.60210,-456752.75301,  -0.00193,   0.00108,  -0.00001,432514859.70302,   0.00000,274640135.82653,   0.00000,   0.00000,   0.00000,-42125276.12351,   0.00000
-394664964.71891,68637296.51308,-244688.97482,  -0.00193,   0.00108,  -0.00000,433082473.29351,   0.00000,274640135.82653,   0.00000,   0.00000,   0.00000,-41557662.53302,   0.00000
-394997333.90971,69030837.94759,-28547.04706,  -0.00193,   0.00108,  -0.00000,433653259.84614,   0.00000,274640135.82653,   0.00000,   0.00000,   0.00000,-40986875.98039,   0.00000
-395343976.62405,69418262.15773,183516.73112,  -0.00193,   0.00109,   0.00000,434234899.35846,   0.00000,274640135.82653,   0.00000,   0.00000,   0.00000,-40405236.46807,   0.00000
-395690619.33838,69805686.36787,391502.35972,  -0.00194,   0.00109,   0.00001,434816990.44105,   0.00000,274640135.82653,   0.00000,   0.00000,   0.00000,-39823145.38547,   0.00000
-396051535.57625,70186993.35364,599487.98832,  -0.00194,   0.00109,   0.00001,435409895.98430,   0.00000,274640135.82653,   0.00000,   0.00000,   0.00000,-39230239.84223,   0.00000
-396420608.11327,70576456.63856,807473.61692,  -0.00194,   0.00109,   0.00001,436016344.49711,   0.00000,274640135.82653,   0.00000,   0.00000,   0.00000,-38623791.32942,   0.00000
-396789680.65030,70965919.92349,1015459.24552,  -0.00194,   0.00110,   0.00001,436623236.48323,   0.00000,274640135.82653,   0.00000,   0.00000,   0.00000,-38016899.34330,   0.00000
-397166909.48649,71363539.50758,1219366.72454,  -0.00195,   0.00110,   0.00002,437243645.76740,   0.00000,274640135.82653,   0.00000,   0.00000,   0.00000,-37396490.05913,   0.00000
-397544138.32268,71761159.09167,1423274.20356,  -0.00195,   0.00110,   0.00002,437864489.48666,   0.00000,274640135.82653,   0.00000,   0.00000,   0.00000,-36775646.33987,   0.00000
-397935640.68240,72152661.45139,1623103.53300,  -0.00195,   0.00110,   0.00002,438496065.70261,   0.00000,274640135.82653,   0.00000,   0.00000,   0.00000,-36144070.12392,   0.00000
-398335299.34128,72552320.11027,1827011.01202,  -0.00195,   0.00111,   0.00002,439141223.19754,   0.00000,274640135.82653,   0.00000,   0.00000,   0.00000,-35498912.62899,   0.00000
-398741075.22453,72937705.24562,2022762.19188,  -0.00196,   0.00111,   0.00003,439783910.15636,   0.00000,274640135.82653,   0.00000,   0.00000,   0.00000,-34856225.67017,   0.00000
-399148890.18257,73345520.20366,2222591.52132,  -0.00196,   0.00111,   0.00003,440442964.06719,   0.00000,274640135.82653,   0.00000,   0.00000,   0.00000,-34197171.75934,   0.00000
-399577095.88851,73732944.41380,2418342.70118,  -0.00196,   0.00111,   0.00003,441109899.67928,   0.00000,274640135.82653,   0.00000,   0.00000,   0.00000,-33530236.14725,   0.00000
-399999184.37008,74134642.14747,2610015.73146,  -0.00196,   0.00112,   0.00003,441779951.56184,   0.00000,274640135.82653,   0.00000,   0.00000,   0.00000,-32860184.26469,   0.00000
-400435546.37519,74530222.65677,2805766.91132,  -0.00197,   0.00112,   0.00004,442460787.30773,   0.00000,274640135.82653,   0.00000,   0.00000,   0.00000,-32179348.51880,   0.00000
-400865791.15592,74940076.68960,2993361.79202,  -0.00197,   0.00112,   0.00004,443144661.92116,   0.00000,274640135.82653,   0.00000,   0.00000,   0.00000,-31495473.90537,   0.00000
-401310309.46019,75343813.49806,3185034.82230,  -0.00197,   0.00113,   0.00004,443839314.57537,   0.00000,274640135.82653,   0.00000,   0.00000,   0.00000,-30800821.25116,   0.00000
-401769101.28798,75741433.08215,3372629.70300,  -0.00198,   0.00113,   0.00004,444544561.12758,   0.00000,274640135.82653,   0.00000,   0.00000,   0.00000,-30095574.69895,   0.00000
-402221775.89141,76153326.18977,3560224.58370,  -0.00198,   0.00113,   0.00005,445253004.24405,   0.00000,274640135.82653,   0.00000,   0.00000,   0.00000,-29387131.58248,   0.00000
-402688724.01836,76559102.07303,3743741.31482,  -0.00198,   0.00113,   0.00005,445972015.36043,   0.00000,274640135.82653,   0.00000,   0.00000,   0.00000,-28668120.46610,   0.00000
-403169945.66885,76958760.73191,3927258.04593,  -0.00198,   0.00114,   0.00005,446701673.82082,   0.00000,274640135.82653,   0.00000,   0.00000,   0.00000,-27938462.00571,   0.00000
-403645050.09497,77372692.91432,4110774.77705,  -0.00199,   0.00114,   0.00005,447434531.51290,   0.00000,274640135.82653,   0.00000,   0.00000,   0.00000,-27205604.31363,   0.00000
-404134428.04462,77780507.87236,4290213.35859,  -0.00199,   0.00114,   0.00006,448177913.54532,   0.00000,274640135.82653,   0.00000,   0.00000,   0.00000,-26462222.28121,   0.00000
-404631962.29343,78196479.12956,4469651.94013,  -0.00199,   0.00114,   0.00006,448934786.37517,   0.00000,274640135.82653,   0.00000,   0.00000,   0.00000,-25705349.45136,   0.00000
-405135613.76661,78598176.86323,4645012.37209,  -0.00200,   0.00115,   0.00006,449688990.29496,   0.00000,274640135.82653,   0.00000,   0.00000,   0.00000,-24951145.53157,   0.00000
-405641304.31458,79022304.41959,4820372.80404,  -0.00200,   0.00115,   0.00006,450459555.31927,   0.00000,274640135.82653,   0.00000,   0.00000,   0.00000,-24180580.50726,   0.00000
-406153112.08692,79432158.45242,4991655.08642,  -0.00200,   0.00115,   0.00006,451227422.11776,   0.00000,274640135.82653,   0.00000,   0.00000,   0.00000,-23412713.70877,   0.00000
-406673076.15842,79850168.78442,5167015.51838,  -0.00201,   0.00116,   0.00007,452008902.83985,   0.00000,274640135.82653,   0.00000,   0.00000,   0.00000,-22631232.98668,   0.00000
-407207313.75346,80262061.89204,5334219.65118,  -0.00201,   0.00116,   0.00007,452800679.40618,   0.00000,274640135.82653,   0.00000,   0.00000,   0.00000,-21839456.42035,   0.00000
-407735434.12412,80688228.52319,5505501.93355,  -0.00201,   0.00116,   0.00007,453595806.86204,   0.00000,274640135.82653,   0.00000,   0.00000,   0.00000,-21044328.96449,   0.00000
-408277828.01832,81108277.92997,5672706.06635,  -0.00202,   0.00117,   0.00007,454401351.15338,   0.00000,274640135.82653,   0.00000,   0.00000,   0.00000,-20238784.67315,   0.00000
-408834495.43604,81522210.11238,5835832.04957,  -0.00202,   0.00117,   0.00008,455217286.40871,   0.00000,274640135.82653,   0.00000,   0.00000,   0.00000,-19422849.41782,   0.00000
-409385045.62940,81950415.81833,5998958.03278,  -0.00202,   0.00117,   0.00008,456036427.76575,   0.00000,274640135.82653,   0.00000,   0.00000,   0.00000,-18603708.06077,   0.00000
-409949869.34628,82372504.29990,6162084.01600,  -0.00203,   0.00117,   0.00008,456866102.98358,   0.00000,274640135.82653,   0.00000,   0.00000,   0.00000,-17774032.84295,   0.00000
-410514693.06317,82794592.78147,6321131.84963,  -0.00203,   0.00118,   0.00008,457695886.78636,   0.00000,274640135.82653,   0.00000,   0.00000,   0.00000,-16944249.04017,   0.00000
-411101946.60275,83218720.33783,6480179.68327,  -0.00203,   0.00118,   0.00008,458549367.05451,   0.00000,274640135.82653,   0.00000,   0.00000,   0.00000,-16090768.77202,   0.00000
-411668809.39443,83663238.64210,6639227.51691,  -0.00204,   0.00118,   0.00009,459395831.49638,   0.00000,274640135.82653,   0.00000,   0.00000,   0.00000,-15244304.33015,   0.00000
-412270336.45754,84081248.97409,6794197.20096,  -0.00204,   0.00119,   0.00009,460259899.29928,   0.00000,274640135.82653,   0.00000,   0.00000,   0.00000,-14380236.52724,   0.00000
-412865746.29628,84513532.82961,6945088.73544,  -0.00204,   0.00119,   0.00009,461126996.90279,   0.00000,274640135.82653,   0.00000,   0.00000,   0.00000,-13513138.92374,   0.00000
-413475429.65855,84939699.46077,7100058.41949,  -0.00205,   0.00119,   0.00009,462004756.13796,   0.00000,274640135.82653,   0.00000,   0.00000,   0.00000,-12635379.68857,   0.00000
-414078995.79645,85380139.61545,7246871.80439,  -0.00205,   0.00120,   0.00009,462885360.45799,   0.00000,274640135.82653,   0.00000,   0.00000,   0.00000,-11754775.36854,   0.00000
-414696835.45788,85814462.54576,7397763.33886,  -0.00205,   0.00120,   0.00010,463776620.88801,   0.00000,274640135.82653,   0.00000,   0.00000,   0.00000,-10863514.93852,   0.00000
-415322831.41847,86256941.77524,7544576.72376,  -0.00206,   0.00120,   0.00010,464681130.99553,   0.00000,274640135.82653,   0.00000,   0.00000,   0.00000,-9959004.83100,   0.00000
-415948827.37906,86699421.00471,7687311.95907,  -0.00206,   0.00121,   0.00010,465585677.82675,   0.00000,274640135.82653,   0.00000,   0.00000,   0.00000,-9054457.99978,   0.00000
-416589096.86319,87135783.00982,7830047.19439,  -0.00207,   0.00121,   0.00010,466500660.63377,   0.00000,274640135.82653,   0.00000,   0.00000,   0.00000,-8139475.19276,   0.00000
-417243639.87084,87566027.79055,7972782.42970,  -0.00207,   0.00121,   0.00010,467426067.07271,   0.00000,274640135.82653,   0.00000,   0.00000,   0.00000,-7214068.75382,   0.00000
-417892065.65413,88010546.09481,8111439.51543,  -0.00207,   0.00122,   0.00011,468354491.83341,   0.00000,274640135.82653,   0.00000,   0.00000,   0.00000,-6285643.99312,   0.00000
-418548647.73658,88463220.69824,8250096.60117,  -0.00208,   0.00122,   0.00011,469296351.59234,   0.00000,274640135.82653,   0.00000,   0.00000,   0.00000,-5343784.23419,   0.00000
-419205229.81902,88915895.30167,8384675.53732,  -0.00208,   0.00122,   0.00011,470238213.90973,   0.00000,274640135.82653,   0.00000,   0.00000,   0.00000,-4401921.91680,   0.00000
-419876085.42500,89362452.68072,8519254.47348,  -0.00208,   0.00123,   0.00011,471190476.31170,   0.00000,274640135.82653,   0.00000,   0.00000,   0.00000,-3449659.51483,   0.00000
-420561214.55451,89802892.83540,8653833.40963,  -0.00209,   0.00123,   0.00011,472153126.56868,   0.00000,274640135.82653,   0.00000,   0.00000,   0.00000,-2487009.25785,   0.00000
-421254499.98318,90251489.28925,8784334.19620,  -0.00209,   0.00123,   0.00011,473128972.53296,   0.00000,274640135.82653,   0.00000,   0.00000,   0.00000,-1511163.29357,   0.00000
-421941668.18748,90714359.26663,8910756.83319,  -0.00210,   0.00124,   0.00012,474107834.95901,   0.00000,274640135.82653,   0.00000,   0.00000,   0.00000,-532300.86751,   0.00000
-422319794.42379,90959029.18424,8979709.26452,  -0.00210,   0.00124,   0.00012,474640135.04317,   0.00000,274640135.82653,   0.00000,   0.00000,   0.00000,  -0.78336,   0.00000
-422260142.81780,91050244.96351,9028604.46490,  -0.00210,   0.00124,   0.00012,474640135.04317,   0.00000,274642192.84157,  -0.00000,   0.00000,   0.00000,   0.66641,   1.00000
-422123090.14574,91260019.91510,9135421.33736,  -0.00210,   0.00124,   0.00012,475644835.59260,   0.00001,274646841.18979,  -0.00001,   0.00000,   0.00000,   0.00000,   2.00000
-421995066.55554,91455972.81680,9238003.04295,  -0.00211,   0.00125,   0.00012,475646341.67181,   0.00001,274651474.87127,  -0.00001,   0.00001,   0.00000,   0.00000,   2.00000
-421858482.06836,91665004.71918,9340302.54518,  -0.00211,   0.00125,   0.00012,475654197.75254,   0.00001,274656123.40695,  -0.00001,   0.00001,   0.00000,   0.00000,   2.00000
-421733627.02735,91856287.70139,9437906.66990,  -0.00212,   0.00125,   0.00012,475679083.28387,   0.00002,274660865.65086,  -0.00002,   0.00001,   0.00000,  -0.00000,   2.00000
-421594517.17552,92069349.30993,9535439.94147,  -0.00212,   0.00126,   0.00013,475676889.39748,   0.00002,274665575.65135,  -0.00002,   0.00002,   0.00000,  -0.00000,   2.00000
-421466963.00064,92264576.82763,9632341.70083,  -0.00213,   0.00126,   0.00013,475702065.84455,   0.00003,274670380.41801,  -0.00003,   0.00002,   0.00000,   0.00000,   2.00000
-421331062.35177,92472927.93880,9724899.10080,  -0.00213,   0.00126,   0.00013,475709853.13265,   0.00003,274675198.90852,  -0.00003,   0.00002,   0.00000,  -0.00000,   2.00000
-421201246.50959,92672211.27423,9812972.68604,  -0.00213,   0.00127,   0.00013,475724715.14785,   0.00004,274680063.84090,  -0.00004,   0.00002,   0.00000,   0.00000,   2.00000
-421071591.87497,92871088.70194,9900847.21692,  -0.00214,   0.00127,   0.00013,475729715.12068,   0.00004,274684929.28103,  -0.00004,   0.00003,   0.00000,   0.00000,   2.00000
-420939106.61790,93074292.83534,9988240.65163,  -0.00214,   0.00127,   0.00013,475747963.60209,   0.00005,274689856.63927,  -0.00005,   0.00003,   0.00000,   0.00000,   2.00000
-420812733.59948,93268426.36394,10071152.64339,  -0.00215,   0.00128,   0.00013,475762910.15240,   0.00005,274694830.30606,  -0.00005,   0.00003,   0.00000,   0.00000,   2.00000
-420686528.43504,93462157.87263,10153873.17420,  -0.00215,   0.00128,   0.00014,475768009.82339,   0.00005,274699804.42142,  -0.00006,   0.00004,   0.00000,   0.00000,   2.00000
-420557726.92122,93660272.78531,10232050.20904,  -0.00216,   0.00129,   0.00014,475786099.05689,   0.00006,274704839.19085,  -0.00006,   0.00004,   0.00000,   0.00000,   2.00000
-420420379.23439,93871411.83265,10309975.86240,  -0.00216,   0.00129,   0.00014,475794380.16087,   0.00006,274709888.88356,  -0.00007,   0.00004,   0.00000,   0.00000,   2.00000
-420303662.00509,94051282.18314,10383276.10118,  -0.00217,   0.00129,   0.00014,475816430.69293,   0.00007,274715017.20591,  -0.00007,   0.00005,   0.00000,  -0.00000,   2.00000
-420172637.76054,94252937.76931,10456558.29950,  -0.00217,   0.00130,   0.00014,475814668.16155,   0.00007,274720113.45046,  -0.00007,   0.00005,   0.00000,   0.00000,   2.00000
-420044578.71191,94450128.87258,10529141.67298,  -0.00218,   0.00130,   0.00014,475843271.99566,   0.00008,274725318.48848,  -0.00008,   0.00005,   0.00001,   0.00000,   2.00000
-419916938.97863,94646967.40140,10597487.52017,  -0.00218,   0.00130,   0.00014,475848322.80518,   0.00008,274730522.65416,  -0.00008,   0.00005,   0.00001,  -0.00000,   2.00000
-419789722.28760,94843455.64968,10661606.18038,  -0.00218,   0.00131,   0.00014,475853366.99298,   0.00009,274735725.92010,  -0.00009,   0.00006,   0.00001,   0.00000,   2.00000
-419659729.68964,95044204.20578,10725266.53365,  -0.00219,   0.00131,   0.00015,475871946.17185,   0.00009,274740991.01353,  -0.00009,   0.00006,   0.00001,   0.00000,   2.00000
-419535713.24382,95235772.57070,10788538.50721,  -0.00219,   0.00132,   0.00015,475887439.56124,   0.00010,274746303.32977,  -0.00010,   0.00006,   0.00001,   0.00000,   2.00000
-419409161.39827,95431667.02414,10847285.93261,  -0.00220,   0.00132,   0.00015,475905847.49163,   0.00010,274751676.15245,  -0.00010,   0.00007,   0.00001,   0.00000,   2.00000
-419282816.03808,95627130.93113,10905886.95220,  -0.00220,   0.00132,   0.00015,475911327.28921,   0.00011,274757049.29156,  -0.00011,   0.00007,   0.00001,   0.00000,   2.00000
-419148162.30783,95835653.28634,10960206.54648,  -0.00221,   0.00133,   0.00015,475919689.84409,   0.00011,274762436.11728,  -0.00011,   0.00007,   0.00001,  -0.00000,   2.00000
-419025552.51413,96026276.47766,11009854.33323,  -0.00221,   0.00133,   0.00015,475945113.05167,   0.00012,274767915.58422,  -0.00012,   0.00008,   0.00001,   0.00000,   2.00000
-418897118.21324,96225159.47983,11063675.49901,  -0.00222,   0.00134,   0.00015,475940873.92104,   0.00012,274773349.83824,  -0.00012,   0.00008,   0.00001,   0.00000,   2.00000
-418772223.85348,96419633.88131,11108684.93360,  -0.00222,   0.00134,   0.00015,475969215.80294,   0.00013,274778890.02721,  -0.00013,   0.00008,   0.00001,  -0.00000,   2.00000
-418647309.35081,96613594.91921,11157639.64364,  -0.00223,   0.00134,   0.00015,475975140.82690,   0.00013,274784431.79698,  -0.00013,   0.00009,   0.00001,   0.00000,   2.00000
-418528666.29573,96798427.35243,11202166.61729,  -0.00223,   0.00135,   0.00015,475990586.02006,   0.00014,274790019.22881,  -0.00014,   0.00009,   0.00001,  -0.00000,   2.00000
-418401712.19134,96996317.37557,11242441.22313,  -0.00224,   0.00135,   0.00016,475999164.87374,   0.00014,274795620.31387,  -0.00015,   0.00009,   0.00001,   0.00000,   2.00000
-418272037.74806,97198381.76702,11282291.72263,  -0.00224,   0.00136,   0.00016,476018146.53389,   0.00015,274801283.17759,  -0.00015,   0.00010,   0.00001,  -0.00000,   2.00000
-418151614.22353,97386664.44872,11318054.11992,  -0.00225,   0.00136,   0.00016,476020418.53094,   0.00015,274806930.10996,  -0.00016,   0.00010,   0.00001,   0.00000,   2.00000
-418019694.13026,97592523.50614,11353323.95567,  -0.00225,   0.00136,   0.00016,476042644.21885,   0.00016,274812653.62774,  -0.00016,   0.00011,   0.00001,   0.00000,   2.00000
-417902630.54056,97775734.17288,11388333.12332,  -0.00226,   0.00137,   0.00016,476055340.22748,   0.00016,274818409.19832,  -0.00017,   0.00011,   0.00001,  -0.00000,   2.00000
-417777255.54187,97971985.10772,11419110.69363,  -0.00226,   0.00137,   0.00016,476064098.74813,   0.00017,274824178.44865,  -0.00017,   0.00011,   0.00001,  -0.00000,   2.00000
-417649425.76048,98172455.55829,11445421.57355,  -0.00227,   0.00138,   0.00016,476082956.84438,   0.00017,274830008.09006,  -0.00018,   0.00012,   0.00001,   0.00000,   2.00000
-417521841.48271,98372453.98568,11471661.17418,  -0.00227,   0.00138,   0.00016,476088880.81862,   0.00018,274835837.93542,  -0.00018,   0.00012,   0.00001,  -0.00000,   2.00000
-417400356.72487,98563189.66730,11497582.96437,  -0.00228,   0.00139,   0.00016,476104873.38000,   0.00018,274841714.59612,  -0.00019,   0.00012,   0.00001,  -0.00000,   2.00000
-417276425.54361,98758136.18741,11519047.95878,  -0.00229,   0.00139,   0.00016,476123836.42407,   0.00019,274847651.60725,  -0.00019,   0.00013,   0.00001,  -0.00000,   2.00000
-417152740.70333,98952616.49020,11540453.74162,  -0.00229,   0.00139,   0.00016,476129862.39217,   0.00019,274853588.77542,  -0.00020,   0.00013,   0.00001,  -0.00000,   2.00000
-417020753.16862,99160084.22047,11557661.14086,  -0.00230,   0.00140,   0.00016,476138829.11569,   0.00020,274859539.73249,  -0.00020,   0.00013,   0.00001,   0.00000,   2.00000
-416895146.62208,99358330.74850,11570513.11736,  -0.00230,   0.00140,   0.00016,476154637.58441,   0.00021,274865536.07636,  -0.00021,   0.00014,   0.00001,  -0.00000,   2.00000
-416766620.94652,99560580.70389,11587060.30247,  -0.00231,   0.00141,   0.00017,476174325.28145,   0.00021,274871595.55407,  -0.00022,   0.00014,   0.00001,   0.00000,   2.00000
-416644735.10022,99753689.55671,11595193.61819,  -0.00231,   0.00141,   0.00017,476189933.52589,   0.00022,274877698.96329,  -0.00022,   0.00015,   0.00002,  -0.00000,   2.00000
-416522853.90402,99946244.41124,11607362.94472,  -0.00232,   0.00142,   0.00017,476196421.41160,   0.00022,274883803.87102,  -0.00023,   0.00015,   0.00002,   0.00000,   2.00000
-416392664.32551,100151767.91134,11615357.76225,  -0.00232,   0.00142,   0.00017,476205573.35527,   0.00023,274889922.61914,  -0.00023,   0.00015,   0.00002,   0.00000,   2.00000
-416268886.97301,100348049.40150,11619021.60761,  -0.00233,   0.00142,   0.00017,476221532.52011,   0.00023,274896086.63798,  -0.00024,   0.00016,   0.00002,  -0.00000,   2.00000
-416142454.73067,100548380.93332,11622345.17876,  -0.00233,   0.00143,   0.00017,476241095.91081,   0.00024,274902312.39775,  -0.00024,   0.00016,   0.00002,  -0.00000,   2.00000
-416016537.72024,100748292.11482,11621599.65456,  -0.00234,   0.00143,   0.00017,476247113.24484,   0.00024,274908536.90287,  -0.00025,   0.00016,   0.00002,   0.00000,   2.00000
-415882065.43369,100961053.18989,11620774.72696,  -0.00235,   0.00144,   0.00017,476256706.91412,   0.00025,274914776.72878,  -0.00026,   0.00017,   0.00002,  -0.00000,   2.00000
-415759953.00587,101155705.66284,11615396.09280,  -0.00235,   0.00144,   0.00017,476282815.93939,   0.00026,274921108.21001,  -0.00026,   0.00017,   0.00002,   0.00000,   2.00000
-415632184.92699,101358693.47462,11610280.68164,  -0.00236,   0.00145,   0.00017,476279203.16139,   0.00026,274927393.36954,  -0.00027,   0.00018,   0.00002,   0.00000,   2.00000
-415507709.33601,101556845.04325,11604602.71901,  -0.00236,   0.00145,   0.00017,476308930.59103,   0.00027,274933786.70812,  -0.00027,   0.00018,   0.00002,   0.00000,   2.00000
-415377823.28002,101763404.86870,11595129.70788,  -0.00237,   0.00146,   0.00017,476305089.25922,   0.00027,274940132.38098,  -0.00028,   0.00018,   0.00002,   0.00000,   2.00000
-415251496.52144,101965179.12454,11581049.36603,  -0.00237,   0.00146,   0.00017,476334580.30682,   0.00028,274946584.84402,  -0.00029,   0.00019,   0.00002,   0.00000,   2.00000
-415125446.39680,102166430.07365,11567010.30092,  -0.00238,   0.00147,   0.00017,476341126.66814,   0.00029,274953037.41858,  -0.00029,   0.00019,   0.00002,   0.00000,   2.00000
-414990832.29723,102380491.24424,11552931.11214,  -0.00239,   0.00147,   0.00017,476350982.65456,   0.00029,274959505.43436,  -0.00030,   0.00020,   0.00002,   0.00000,   2.00000
-414862704.67972,102585229.14310,11534588.54666,  -0.00239,   0.00148,   0.00017,476367272.12278,   0.00030,274966018.56747,  -0.00030,   0.00020,   0.00002,  -0.00000,   2.00000
-414735104.38098,102789511.97213,11512241.70384,  -0.00240,   0.00148,   0.00017,476373585.91093,   0.00030,274972530.44944,  -0.00031,   0.00020,   0.00002,   0.00000,   2.00000
-414604649.26696,102997650.03072,11493693.89058,  -0.00240,   0.00148,   0.00017,476393824.69386,   0.00031,274979105.50853,  -0.00032,   0.00021,   0.00002,  -0.00000,   2.00000
-414472083.98628,103209866.14570,11466759.08440,  -0.00241,   0.00149,   0.00017,476413243.95159,   0.00032,274985739.65415,  -0.00032,   0.00021,   0.00002,  -0.00000,   2.00000
-414339812.48312,103421514.80027,11439905.77612,  -0.00242,   0.00149,   0.00017,476419984.21597,   0.00032,274992373.95319,  -0.00033,   0.00022,   0.00002,   0.00000,   2.00000
-414207834.34499,103632597.56940,11413133.72767,  -0.00242,   0.00150,   0.00017,476426724.12040,   0.00033,274999008.40209,  -0.00033,   0.00022,   0.00002,   0.00000,   2.00000
-414073509.38914,103847646.46080,11382061.14600,  -0.00243,   0.00150,   0.00017,476446510.93249,   0.00033,275005703.34777,  -0.00034,   0.00022,   0.00002,  -0.00000,   2.00000
-413945466.46457,104053247.73624,11350842.13021,  -0.00243,   0.00151,   0.00017,476463311.24856,   0.00034,275012444.67230,  -0.00035,   0.00023,   0.00002,   0.00000,   2.00000
-413808847.99443,104271598.92862,11319638.69751,  -0.00244,   0.00151,   0.00017,476473506.87553,   0.00035,275019201.62613,  -0.00035,   0.00023,   0.00003,  -0.00000,   2.00000
-413673015.37021,104489515.88528,11280414.44595,  -0.00245,   0.00152,   0.00017,476479795.71446,   0.00035,275025956.06606,  -0.00036,   0.00024,   0.00003,   0.00000,   2.00000
-413543243.60248,104697881.85812,11245130.87784,  -0.00245,   0.00152,   0.00017,476496942.66997,   0.00036,275032758.19898,  -0.00037,   0.00024,   0.00003,   0.00000,   2.00000
-413411133.24765,104910178.26194,11205580.44807,  -0.00246,   0.00153,   0.00017,476516912.67730,   0.00036,275039620.85291,  -0.00037,   0.00025,   0.00003,  -0.00000,   2.00000
-413270683.13538,105135263.60689,11162015.72605,  -0.00246,   0.00153,   0.00017,476526970.66564,   0.00037,275046497.92470,  -0.00038,   0.00025,   0.00003,   0.00000,   2.00000
-413139428.24761,105346428.09176,11118667.51912,  -0.00247,   0.00154,   0.00017,476530597.08813,   0.00038,275053359.58860,  -0.00039,   0.00025,   0.00003,  -0.00000,   2.00000
-412996722.00765,105574702.94958,11075061.39491,  -0.00248,   0.00154,   0.00017,476554307.89758,   0.00038,275060298.79560,  -0.00039,   0.00026,   0.00003,   0.00000,   2.00000
-412863458.56479,105789127.34462,11027614.22051,  -0.00248,   0.00155,   0.00017,476557705.67975,   0.00039,275067221.24627,  -0.00040,   0.00026,   0.00003,  -0.00000,   2.00000
-412718979.61056,106020708.64246,10975867.99607,  -0.00249,   0.00155,   0.00017,476581213.54684,   0.00040,275074220.00687,  -0.00040,   0.00027,   0.00003,   0.00000,   2.00000
-412589751.40474,106229453.16643,10924134.45964,  -0.00250,   0.00156,   0.00017,476594919.38506,   0.00040,275081249.36598,  -0.00041,   0.00027,   0.00003,   0.00000,   2.00000
-412445887.70536,106459783.73403,10872719.14528,  -0.00250,   0.00156,   0.00017,476595501.64408,   0.00041,275088248.54936,  -0.00042,   0.00028,   0.00003,   0.00000,   2.00000
-412305766.40157,106685010.69983,10816873.35251,  -0.00251,   0.00157,   0.00017,476625682.91268,   0.00042,275095354.49585,  -0.00042,   0.00028,   0.00003,   0.00000,   2.00000
-412159916.72914,106918493.91895,10761436.72488,  -0.00252,   0.00157,   0.00017,476622965.02439,   0.00042,275102414.65568,  -0.00043,   0.00028,   0.00003,   0.00000,   2.00000
-412020676.97928,107142476.46870,10701893.82405,  -0.00252,   0.00158,   0.00017,476639844.28698,   0.00043,275109519.79985,  -0.00044,   0.00029,   0.00003,   0.00000,   2.00000
-411878905.89382,107370169.38499,10642242.02612,  -0.00253,   0.00159,   0.00017,476660456.12663,   0.00044,275116686.96437,  -0.00044,   0.00029,   0.00003,   0.00000,   2.00000
-411728772.82973,107610541.68457,10578650.19175,  -0.00253,   0.00159,   0.00017,476670914.90421,   0.00044,275123868.95261,  -0.00045,   0.00030,   0.00003,   0.00000,   2.00000
-411587892.84922,107836948.55227,10515343.53458,  -0.00254,   0.00160,   0.00017,476674819.42314,   0.00045,275131035.38707,  -0.00046,   0.00030,   0.00003,   0.00000,   2.00000
-411435796.10688,108080369.34662,10447812.52908,  -0.00255,   0.00160,   0.00017,476698670.58016,   0.00046,275138278.52719,  -0.00046,   0.00031,   0.00003,  -0.00000,   2.00000
-411292963.49455,108309814.92767,10380580.75207,  -0.00255,   0.00161,   0.00017,476702632.09913,   0.00046,275145506.08965,  -0.00047,   0.00031,   0.00003,   0.00000,   2.00000
-411147619.64381,108542911.05533,10313278.03865,  -0.00256,   0.00161,   0.00017,476723387.99997,   0.00047,275152795.74096,  -0.00048,   0.00032,   0.00003,   0.00000,   2.00000
-410993899.51983,108788640.42691,10242065.88210,  -0.00257,   0.00162,   0.00017,476734015.23247,   0.00048,275160100.40993,  -0.00048,   0.00032,   0.00003,  -0.00000,   2.00000
-410846839.64013,109024777.52124,10166818.13140,  -0.00257,   0.00162,   0.00017,476751152.54758,   0.00048,275167450.08013,  -0.00049,   0.00033,   0.00003,   0.00000,   2.00000
-410699902.01317,109260131.66714,10095882.00035,  -0.00258,   0.00163,   0.00017,476758922.11309,   0.00049,275174801.26295,  -0.00050,   0.00033,   0.00004,   0.00000,   2.00000
-410544788.91395,109508168.84862,10016992.85377,  -0.00259,   0.00163,   0.00017,476769379.85329,   0.00050,275182166.38547,  -0.00051,   0.00033,   0.00004,   0.00000,   2.00000
-410387199.11916,109759751.62508,9938086.61576,  -0.00259,   0.00164,   0.00017,476790312.29855,   0.00050,275189593.76216,  -0.00051,   0.00034,   0.00004,   0.00000,   2.00000
-410238909.63379,109997335.13747,9859520.85505,  -0.00260,   0.00164,   0.00016,476794439.66524,   0.00051,275197005.46064,  -0.00052,   0.00034,   0.00004,   0.00000,   2.00000
-410073066.50207,110260661.02607,9781076.82042,  -0.00261,   0.00165,   0.00016,476808983.47534,   0.00052,275204449.69837,  -0.00053,   0.00035,   0.00004,  -0.00000,   2.00000
-409922883.80252,110501073.81327,9698708.07005,  -0.00261,   0.00166,   0.00016,476822787.65606,   0.00052,275211922.86637,  -0.00053,   0.00035,   0.00004,  -0.00000,   2.00000
-409761478.04836,110758314.27487,9612217.04192,  -0.00262,   0.00166,   0.00016,476847080.81920,   0.00053,275219473.28175,  -0.00054,   0.00036,   0.00004,   0.00000,   2.00000
-409603251.78295,111010496.81083,9526295.34741,  -0.00263,   0.00167,   0.00016,476841419.72287,   0.00054,275226962.25935,  -0.00055,   0.00036,   0.00004,   0.00000,   2.00000
-409442571.75587,111266158.18075,9440399.14253,  -0.00263,   0.00167,   0.00016,476862500.87740,   0.00054,275234513.56693,  -0.00055,   0.00037,   0.00004,   0.00000,   2.00000
-409279645.98635,111525344.07783,9350474.09477,  -0.00264,   0.00168,   0.00016,476883409.48993,   0.00055,275242126.11095,  -0.00056,   0.00037,   0.00004,   0.00000,   2.00000
-409117285.22496,111783788.16096,9256802.64554,  -0.00265,   0.00168,   0.00016,476890981.78107,   0.00056,275249738.02801,  -0.00057,   0.00038,   0.00004,  -0.00000,   2.00000
-408955098.06602,112041353.93260,9167516.30852,  -0.00265,   0.00169,   0.00016,476899031.28985,   0.00056,275257351.52230,  -0.00058,   0.00038,   0.00004,  -0.00000,   2.00000
-408784688.22146,112311454.25780,9070354.03914,  -0.00266,   0.00170,   0.00016,476909902.38725,   0.00057,275264979.62871,  -0.00058,   0.00039,   0.00004,  -0.00000,   2.00000
-408620648.85902,112571655.72728,8977401.51272,  -0.00267,   0.00170,   0.00016,476927861.42968,   0.00058,275272654.97536,  -0.00059,   0.00039,   0.00004,   0.00000,   2.00000
-408454375.09856,112835314.90691,8880462.82121,  -0.00268,   0.00171,   0.00016,476948930.45054,   0.00059,275280391.69147,  -0.00060,   0.00040,   0.00004,   0.00000,   2.00000
-408282473.31253,113107187.98744,8779991.39499,  -0.00268,   0.00171,   0.00016,476946777.14482,   0.00059,275288082.32087,  -0.00060,   0.00040,   0.00004,  -0.00000,   2.00000
-408108165.23482,113382395.48541,8679625.86762,  -0.00269,   0.00172,   0.00015,476968115.83811,   0.00060,275295835.50082,  -0.00061,   0.00041,   0.00004,   0.00000,   2.00000
-407934250.29154,113656721.79203,8579615.83853,  -0.00270,   0.00172,   0.00015,476976096.44834,   0.00061,275303589.28591,  -0.00062,   0.00041,   0.00004,  -0.00000,   2.00000
-407767116.06888,113921234.82027,8475723.06536,  -0.00270,   0.00173,   0.00015,476993722.23318,   0.00061,275311388.16172,  -0.00063,   0.00042,   0.00004,   0.00000,   2.00000
-407591362.08647,114198075.00221,8372137.32768,  -0.00271,   0.00174,   0.00015,477005312.82310,   0.00062,275319204.08271,  -0.00063,   0.00042,   0.00004,  -0.00000,   2.00000
-407407176.24215,114487258.94751,8264799.14125,  -0.00272,   0.00174,   0.00015,477016726.47879,   0.00063,275327036.16874,  -0.00064,   0.00043,   0.00004,   0.00000,   2.00000
-407232407.63425,114762332.24869,8157906.84285,  -0.00272,   0.00175,   0.00015,477021226.99547,   0.00064,275334852.42540,  -0.00065,   0.00043,   0.00004,  -0.00000,   2.00000
-407046248.36278,115053837.99455,8051105.81648,  -0.00273,   0.00175,   0.00015,477046307.24046,   0.00064,275342747.89200,  -0.00065,   0.00044,   0.00004,   0.00000,   2.00000
-406869689.23242,115331286.63576,7940690.53053,  -0.00274,   0.00176,   0.00015,477050656.30391,   0.00065,275350626.53132,  -0.00066,   0.00044,   0.00004,   0.00000,   2.00000
-406681742.23344,115625128.97606,7830389.99814,  -0.00275,   0.00177,   0.00015,477075823.95505,   0.00066,275358584.47837,  -0.00067,   0.00045,   0.00005,   0.00000,   2.00000
-406503402.66924,115904904.02166,7716489.43024,  -0.00275,   0.00177,   0.00015,477080236.26963,   0.00066,275366525.59491,  -0.00068,   0.00045,   0.00005,   0.00000,   2.00000
-406316439.73068,116196909.96096,7602944.09901,  -0.00276,   0.00178,   0.00014,477092043.19876,   0.00067,275374484.08582,  -0.00068,   0.00046,   0.00005,   0.00000,   2.00000
-406120868.66778,116501099.79778,7489754.26417,  -0.00277,   0.00178,   0.00014,477103887.08480,   0.00068,275382460.05611,  -0.00069,   0.00046,   0.00005,   0.00000,   2.00000
-405925890.47906,116804338.12191,7372916.58822,  -0.00277,   0.00179,   0.00014,477111950.60101,   0.00069,275390435.98532,  -0.00070,   0.00047,   0.00005,   0.00000,   2.00000
-405737781.20734,117097584.96455,7252293.34204,  -0.00278,   0.00180,   0.00014,477129842.59783,   0.00069,275398457.17881,  -0.00071,   0.00047,   0.00005,   0.00000,   2.00000
-405540902.81656,117402934.13679,7136117.63159,  -0.00279,   0.00180,   0.00014,477141964.64792,   0.00070,275406496.83077,  -0.00071,   0.00048,   0.00005,  -0.00000,   2.00000
-405351058.26202,117698322.29840,7012102.05547,  -0.00280,   0.00181,   0.00014,477159739.53864,   0.00071,275414580.89864,  -0.00072,   0.00048,   0.00005,   0.00000,   2.00000
-405152446.61364,118005790.23983,6892551.82519,  -0.00280,   0.00181,   0.00014,477171939.34029,   0.00072,275422683.48216,  -0.00073,   0.00049,   0.00005,   0.00000,   2.00000
-404948112.44408,118321329.85745,6769524.39948,  -0.00281,   0.00182,   0.00014,477170353.91281,   0.00072,275430740.95044,  -0.00074,   0.00049,   0.00005,   0.00000,   2.00000
-404756869.67756,118617687.20496,6646673.86256,  -0.00282,   0.00183,   0.00013,477198317.86801,   0.00073,275438889.71224,  -0.00074,   0.00050,   0.00005,   0.00000,   2.00000
-404550810.27506,118935270.16399,6520305.05498,  -0.00282,   0.00183,   0.00013,477200460.67697,   0.00074,275447010.33065,  -0.00075,   0.00050,   0.00005,   0.00000,   2.00000
-404342478.13263,119255818.88225,6394222.74238,  -0.00283,   0.00184,   0.00013,477222368.75633,   0.00075,275455194.05275,  -0.00076,   0.00051,   0.00005,   0.00000,   2.00000
-404137470.45603,119571285.56624,6264730.01730,  -0.00284,   0.00185,   0.00013,477217231.47251,   0.00075,275463315.90676,  -0.00077,   0.00051,   0.00005,   0.00000,   2.00000
-403927467.92555,119893733.74036,6135367.81325,  -0.00285,   0.00185,   0.00013,477252627.74902,   0.00076,275471563.01871,  -0.00077,   0.00052,   0.00005,  -0.00000,   2.00000
-403720658.19246,120211051.61687,6006664.63746,  -0.00285,   0.00186,   0.00013,477247717.71096,   0.00077,275479749.01478,  -0.00078,   0.00052,   0.00005,   0.00000,   2.00000
-403496271.21081,120553519.17337,5874289.96481,  -0.00286,   0.00186,   0.00013,477263490.43292,   0.00078,275487969.54464,  -0.00079,   0.00053,   0.00005,  -0.00000,   2.00000
-403287836.70786,120872626.34507,5742338.85056,  -0.00287,   0.00187,   0.00013,477278116.97922,   0.00078,275496219.12102,  -0.00080,   0.00053,   0.00005,   0.00000,   2.00000
-403070780.74569,121203717.45914,5610841.22751,  -0.00287,   0.00188,   0.00012,477290416.31452,   0.00079,275504486.89810,  -0.00080,   0.00054,   0.00005,  -0.00000,   2.00000
-402854325.17660,121533705.49418,5475779.55718,  -0.00288,   0.00188,   0.00012,477298882.08120,   0.00080,275512755.12124,  -0.00081,   0.00055,   0.00005,  -0.00000,   2.00000
-402635648.99371,121866524.11238,5341075.90130,  -0.00289,   0.00189,   0.00012,477320989.19128,   0.00081,275521086.64261,  -0.00082,   0.00055,   0.00005,   0.00000,   2.00000
-402401959.96990,122220358.60711,5206951.58815,  -0.00290,   0.00190,   0.00012,477323663.48060,   0.00081,275529391.65936,  -0.00083,   0.00056,   0.00005,   0.00000,   2.00000
-402184414.05260,122550821.54724,5069210.84655,  -0.00290,   0.00190,   0.00012,477338202.01069,   0.00082,275537724.91801,  -0.00084,   0.00056,   0.00005,   0.00000,   2.00000
-401958346.20007,122893230.73766,4927894.61767,  -0.00291,   0.00191,   0.00012,477350519.38694,   0.00083,275546076.06794,  -0.00084,   0.00057,   0.00005,   0.00000,   2.00000
-401723565.42126,123247456.80498,4791141.10789,  -0.00292,   0.00192,   0.00011,477363133.92740,   0.00084,275554446.40947,  -0.00085,   0.00057,   0.00005,   0.00000,   2.00000
-401489406.77730,123600474.39736,4650849.64819,  -0.00293,   0.00192,   0.00011,477371762.54588,   0.00085,275562817.48701,  -0.00086,   0.00058,   0.00005,   0.00000,   2.00000
-401255768.76260,123952248.59137,4511095.18878,  -0.00293,   0.00193,   0.00011,477380516.13605,   0.00085,275571189.86952,  -0.00087,   0.00058,   0.00005,   0.00000,   2.00000
-401020066.34953,124306729.98361,4367689.56372,  -0.00294,   0.00194,   0.00011,477402670.95911,   0.00086,275579625.27457,  -0.00087,   0.00059,   0.00005,   0.00000,   2.00000
-400784890.09174,124659952.08937,4224837.19069,  -0.00295,   0.00194,   0.00011,477411496.71870,   0.00087,275588062.00914,  -0.00088,   0.00059,   0.00005,  -0.00000,   2.00000
-400541187.08097,125024986.10384,4078441.83786,  -0.00296,   0.00195,   0.00011,477424024.97080,   0.00088,275596517.13484,  -0.00089,   0.00060,   0.00005,   0.00000,   2.00000
-400307085.13657,125375657.25747,3936705.83305,  -0.00296,   0.00196,   0.00010,477429174.59075,   0.00088,275604956.56116,  -0.00090,   0.00061,   0.00005,  -0.00000,   2.00000
-400055296.09525,125751161.60005,3791394.29888,  -0.00297,   0.00196,   0.00010,477445547.95497,   0.00089,275613432.08328,  -0.00091,   0.00061,   0.00005,  -0.00000,   2.00000
-399804142.03265,126125352.29831,3642584.55569,  -0.00298,   0.00197,   0.00010,477454352.34454,   0.00090,275621908.67301,  -0.00091,   0.00062,   0.00005,   0.00000,   2.00000
-399553542.44693,126498202.35190,3494351.87656,  -0.00299,   0.00198,   0.00010,477463256.17006,   0.00091,275630386.77962,  -0.00092,   0.00062,   0.00005,   0.00000,   2.00000
-399300851.77995,126873560.46005,3346598.47381,  -0.00299,   0.00198,   0.00010,477485693.61660,   0.00092,275638928.70547,  -0.00093,   0.00063,   0.00005,   0.00000,   2.00000
-399042204.83141,127256733.84462,3199488.06212,  -0.00300,   0.00199,   0.00010,477484982.70526,   0.00092,275647427.58696,  -0.00094,   0.00063,   0.00005,   0.00000,   2.00000
-398790727.76175,127629382.06395,3048825.68003,  -0.00301,   0.00200,   0.00009,477503514.67131,   0.00093,275655972.19621,  -0.00094,   0.00064,   0.00005,  -0.00000,   2.00000
-398530638.10585,128013676.52607,2898728.82250,  -0.00302,   0.00200,   0.00009,477516362.65712,   0.00094,275664536.16530,  -0.00095,   0.00064,   0.00005,   0.00000,   2.00000
-398271129.91550,128396579.07335,2749220.30858,  -0.00302,   0.00201,   0.00009,477525371.05970,   0.00095,275673101.72391,  -0.00096,   0.00065,   0.00006,   0.00000,   2.00000
-398003073.16951,128791097.81221,2596214.95286,  -0.00303,   0.00202,   0.00009,477538202.58810,   0.00096,275681686.47787,  -0.00097,   0.00066,   0.00006,   0.00000,   2.00000
-397735611.90807,129184181.36722,2443810.88822,  -0.00304,   0.00202,   0.00009,477547252.21215,   0.00096,275690272.92484,  -0.00098,   0.00066,   0.00006,   0.00000,   2.00000
-397468746.79068,129575835.12689,2292005.95477,  -0.00305,   0.00203,   0.00009,477556300.28984,   0.00097,275698861.04584,  -0.00098,   0.00067,   0.00006,   0.00000,   2.00000
-397193323.89413,129979047.12283,2136718.51186,  -0.00305,   0.00204,   0.00008,477569209.31790,   0.00098,275707468.61736,  -0.00099,   0.00067,   0.00006,  -0.00000,   2.00000
-396925109.12398,130371578.87436,1982002.80362,  -0.00306,   0.00204,   0.00008,477587934.54969,   0.00099,275716122.29142,  -0.00100,   0.00068,   0.00006,   0.00000,   2.00000
-396641682.31673,130784836.62653,1827922.32430,  -0.00307,   0.00205,   0.00008,477591359.38225,   0.00100,275724751.47254,  -0.00101,   0.00068,   0.00006,  -0.00000,   2.00000
-396368132.95560,131183646.56621,1670402.86136,  -0.00308,   0.00206,   0.00008,477596496.61930,   0.00100,275733364.13376,  -0.00102,   0.00069,   0.00006,   0.00000,   2.00000
-396083381.48669,131597659.90267,1513448.93759,  -0.00308,   0.00207,   0.00008,477623113.16557,   0.00101,275742059.20313,  -0.00102,   0.00069,   0.00006,   0.00000,   2.00000
-395792630.08496,132019370.90062,1357147.79212,  -0.00309,   0.00207,   0.00007,477622699.08073,   0.00102,275750711.93207,  -0.00103,   0.00070,   0.00006,   0.00000,   2.00000
-395509171.74273,132430298.46874,1201441.94417,  -0.00310,   0.00208,   0.00007,477641470.14820,   0.00103,275759410.76808,  -0.00104,   0.00071,   0.00006,  -0.00000,   2.00000
-395226373.55874,132839717.32429,1042294.99304,  -0.00311,   0.00209,   0.00007,477650637.49482,   0.00104,275768111.30465,  -0.00105,   0.00071,   0.00006,   0.00000,   2.00000
-394928303.54136,133269782.02776,883793.15612,  -0.00311,   0.00209,   0.00007,477654233.92417,   0.00104,275776787.93775,  -0.00106,   0.00072,   0.00006,  -0.00000,   2.00000
-394637586.59135,133689016.79171,721845.21557,  -0.00312,   0.00210,   0.00007,477673009.58176,   0.00105,275785510.58578,  -0.00106,   0.00072,   0.00006,   0.00000,   2.00000
-394331569.80132,134128847.35714,564613.35668,  -0.00313,   0.00211,   0.00006,477676694.85332,   0.00106,275794209.64745,  -0.00107,   0.00073,   0.00006,   0.00000,   2.00000
-394032941.20865,134557794.37728,403938.60129,  -0.00314,   0.00212,   0.00006,477695501.68858,   0.00107,275802954.76744,  -0.00108,   0.00073,   0.00006,   0.00000,   2.00000
-393734981.10726,134985143.42536,243908.20334,  -0.00314,   0.00212,   0.00006,477704780.39371,   0.00108,275811701.89801,  -0.00109,   0.00074,   0.00006,   0.00000,   2.00000
-393421708.85684,135433056.06647,80458.97915,  -0.00315,   0.00213,   0.00006,477708530.30664,   0.00108,275820425.63309,  -0.00110,   0.00075,   0.00006,   0.00000,   2.00000
-393115857.06841,135870026.28473,-82334.49260,  -0.00316,   0.00214,   0.00006,477727378.89796,   0.00109,275829195.50084,  -0.00110,   0.00075,   0.00006,  -0.00000,   2.00000
-392810689.04778,136305361.50135,-244472.96439,  -0.00317,   0.00214,   0.00005,477736699.70180,   0.00110,275837967.46114,  -0.00111,   0.00076,   0.00006,   0.00000,   2.00000
-392490174.69336,136761219.07030,-405963.50925,  -0.00317,   0.00215,   0.00005,477740542.48257,   0.00111,275846716.34436,  -0.00112,   0.00076,   0.00006,  -0.00000,   2.00000
-392177135.05731,137206084.28682,-566794.21162,  -0.00318,   0.00216,   0.00005,477759405.88533,   0.00112,275855511.30796,  -0.00113,   0.00077,   0.00006,   0.00000,   2.00000
-391848722.62199,137671422.48257,-731045.72001,  -0.00319,   0.00217,   0.00005,477763336.86077,   0.00112,275864283.50291,  -0.00114,   0.00078,   0.00006,   0.00000,   2.00000
-391537115.84636,138112865.96039,-894625.45704,  -0.00320,   0.00217,   0.00004,477778135.89119,   0.00113,275873082.96710,  -0.00114,   0.00078,   0.00006,   0.00000,   2.00000
-391200813.98825,138587638.16903,-1057547.22188,  -0.00320,   0.00218,   0.00004,477786191.97094,   0.00114,275881878.61816,  -0.00115,   0.00079,   0.00006,  -0.00000,   2.00000
-390874538.72038,139047776.40464,-1223883.03441,  -0.00321,   0.00219,   0.00004,477791517.57341,   0.00115,275890657.89764,  -0.00116,   0.00079,   0.00006,   0.00000,   2.00000
-390546494.96791,139509697.71759,-1389508.14745,  -0.00322,   0.00220,   0.00004,477814520.97699,   0.00116,275899502.14860,  -0.00117,   0.00080,   0.00006,   0.00000,   2.00000
-390212355.59170,139979189.95932,-1554491.41144,  -0.00323,   0.00220,   0.00004,477814470.02248,   0.00117,275908305.09309,  -0.00118,   0.00081,   0.00006,   0.00000,   2.00000
-389869637.95891,140459725.50006,-1718792.26984,  -0.00323,   0.00221,   0.00003,477828030.12167,   0.00117,275917129.50773,  -0.00119,   0.00081,   0.00006,   0.00000,   2.00000
-389537009.45938,140925635.36242,-1882443.17429,  -0.00324,   0.00222,   0.00003,477833325.32647,   0.00118,275925937.27702,  -0.00119,   0.00082,   0.00006,   0.00000,   2.00000
-389186421.37692,141415370.66172,-2049456.98661,  -0.00325,   0.00223,   0.00003,477851122.54037,   0.00119,275934785.97483,  -0.00120,   0.00082,   0.00006,   0.00000,   2.00000
-388845947.67666,141890451.15838,-2215810.69166,  -0.00326,   0.00223,   0.00003,477856443.24659,   0.00120,275943618.03947,  -0.00121,   0.00083,   0.00006,  -0.00000,   2.00000
-388496890.85913,142376517.41040,-2381467.72916,  -0.00326,   0.00224,   0.00002,477870087.29582,   0.00121,275952471.81630,  -0.00122,   0.00083,   0.00006,   0.00000,   2.00000
-388148562.75398,142860713.48270,-2550511.31714,  -0.00327,   0.00225,   0.00002,477879647.83689,   0.00121,275961328.43018,  -0.00123,   0.00084,   0.00006,   0.00000,   2.00000
-387791709.30211,143355861.65104,-2714780.84650,  -0.00328,   0.00226,   0.00002,477893290.03119,   0.00122,275970206.63738,  -0.00123,   0.00085,   0.00005,  -0.00000,   2.00000
-387428672.21401,143858459.50205,-2882497.55382,  -0.00329,   0.00226,   0.00002,477893461.90253,   0.00123,275979044.44617,  -0.00124,   0.00085,   0.00005,   0.00000,   2.00000
-387073374.86138,144349775.58783,-3049471.29632,  -0.00329,   0.00227,   0.00002,477912403.02810,   0.00124,275987928.27303,  -0.00125,   0.00086,   0.00005,  -0.00000,   2.00000
-386711922.78509,144848589.68978,-3215825.92472,  -0.00330,   0.00228,   0.00001,477912520.46534,   0.00125,275996771.41766,  -0.00126,   0.00086,   0.00005,   0.00000,   2.00000
-386341830.96858,145358216.71244,-3385533.74525,  -0.00331,   0.00229,   0.00001,477926370.49604,   0.00126,276005637.18218,  -0.00127,   0.00087,   0.00005,   0.00000,   2.00000
-385972625.98952,145865926.74969,-3550487.49733,  -0.00331,   0.00229,   0.00001,477935838.22096,   0.00126,276014505.31909,  -0.00127,   0.00088,   0.00005,  -0.00000,   2.00000
-385604171.63390,146371664.87153,-3718828.00240,  -0.00332,   0.00230,   0.00001,477945481.60506,   0.00127,276023376.61855,  -0.00128,   0.00088,   0.00005,   0.00000,   2.00000
-385227143.96012,146888187.55549,-3886445.21217,  -0.00333,   0.00231,   0.00000,477959323.58916,   0.00128,276032270.36584,  -0.00129,   0.00089,   0.00005,   0.00000,   2.00000
-384843940.41831,147412130.87026,-4053455.16072,  -0.00334,   0.00232,   0.00000,477959538.65575,   0.00129,276041123.86452,  -0.00130,   0.00089,   0.00005,   0.00000,   2.00000
-384468526.36203,147924624.52431,-4223760.41138,  -0.00334,   0.00232,  -0.00000,477978588.27040,   0.00130,276050023.80339,  -0.00131,   0.00090,   0.00005,   0.00000,   2.00000
-384077584.23664,148457297.05504,-4389352.78874,  -0.00335,   0.00233,  -0.00000,477983032.62121,   0.00130,276058902.90053,  -0.00131,   0.00091,   0.00005,   0.00000,   2.00000
-383687418.32359,148987884.33583,-4558326.99794,  -0.00336,   0.00234,  -0.00001,477992757.86556,   0.00131,276067785.50545,  -0.00132,   0.00091,   0.00005,  -0.00000,   2.00000
-383298113.68055,149516432.78492,-4726608.38089,  -0.00337,   0.00235,  -0.00001,478002372.75520,   0.00132,276076671.08866,  -0.00133,   0.00092,   0.00005,   0.00000,   2.00000
-382902591.33008,150052380.77798,-4894295.59789,  -0.00337,   0.00235,  -0.00001,478002645.35842,   0.00133,276085516.73809,  -0.00134,   0.00092,   0.00005,   0.00000,   2.00000
-382505599.08451,150589501.69135,-5061151.84480,  -0.00338,   0.00236,  -0.00001,478025930.66234,   0.00134,276094428.32796,  -0.00135,   0.00093,   0.00005,   0.00000,   2.00000
-382102280.80531,151133945.43409,-5231483.76001,  -0.00339,   0.00237,  -0.00002,478026394.62070,   0.00135,276103300.74843,  -0.00136,   0.00094,   0.00005,   0.00000,   2.00000
-381699951.74569,151676343.20370,-5397057.18052,  -0.00340,   0.00238,  -0.00002,478035891.06533,   0.00135,276112175.65901,  -0.00136,   0.00094,   0.00005,   0.00000,   2.00000
-381298404.93392,152216604.64493,-5566011.15061,  -0.00340,   0.00239,  -0.00002,478045657.62438,   0.00136,276121054.28215,  -0.00137,   0.00095,   0.00005,   0.00000,   2.00000
-380888289.57871,152767414.77045,-5734218.34805,  -0.00341,   0.00239,  -0.00002,478059703.62855,   0.00137,276129956.26122,  -0.00138,   0.00095,   0.00005,  -0.00000,   2.00000
-380471918.32439,153325562.00692,-5901848.11103,  -0.00342,   0.00240,  -0.00003,478060088.45230,   0.00138,276138818.76664,  -0.00139,   0.00096,   0.00005,   0.00000,   2.00000
-380063634.68396,153872089.12785,-6068671.80574,  -0.00343,   0.00241,  -0.00003,478079015.83498,   0.00139,276147727.10216,  -0.00140,   0.00097,   0.00005,   0.00000,   2.00000
-379639598.23096,154438583.67480,-6234870.97768,  -0.00343,   0.00242,  -0.00003,478083865.14102,   0.00140,276156616.43878,  -0.00140,   0.00097,   0.00005,   0.00000,   2.00000
-379209165.44564,155012310.89023,-6404569.78750,  -0.00344,   0.00242,  -0.00003,478084456.50408,   0.00140,276165467.32673,  -0.00141,   0.00098,   0.00005,   0.00000,   2.00000
-378787010.80875,155574397.66031,-6569385.40374,  -0.00345,   0.00243,  -0.00004,478103213.46279,   0.00141,276174363.32363,  -0.00142,   0.00099,   0.00005,   0.00000,   2.00000
-378358428.72327,156143741.99174,-6737711.54020,  -0.00345,   0.00244,  -0.00004,478103826.28973,   0.00142,276183220.92918,  -0.00143,   0.00099,   0.00005,   0.00000,   2.00000
-377930782.04128,156710888.77722,-6905346.37149,  -0.00346,   0.00245,  -0.00004,478113494.05963,   0.00143,276192081.88626,  -0.00144,   0.00100,   0.00005,  -0.00000,   2.00000
-377494570.90864,157288404.12409,-7072225.32962,  -0.00347,   0.00246,  -0.00004,478127673.40323,   0.00144,276200966.89787,  -0.00144,   0.00100,   0.00005,   0.00000,   2.00000
-377052040.25423,157873193.41357,-7238556.38873,  -0.00348,   0.00246,  -0.00005,478128166.62148,   0.00145,276209813.03653,  -0.00145,   0.00101,   0.00005,   0.00000,   2.00000
-376610470.96668,158455723.71762,-7404204.16678,  -0.00348,   0.00247,  -0.00005,478137851.62430,   0.00145,276218662.67011,  -0.00146,   0.00102,   0.00005,   0.00000,   2.00000
-376160199.41563,159048461.03833,-7573157.25607,  -0.00349,   0.00248,  -0.00005,478152280.96967,   0.00146,276227537.56631,  -0.00147,   0.00102,   0.00005,   0.00000,   2.00000
-375720579.09103,159626450.55198,-7737429.27751,  -0.00350,   0.00249,  -0.00005,478157253.93473,   0.00147,276236394.18196,  -0.00148,   0.00103,   0.00005,   0.00000,   2.00000
-375265059.72263,160224252.50897,-7901101.69286,  -0.00350,   0.00250,  -0.00006,478162330.15152,   0.00148,276245233.10093,  -0.00148,   0.00103,   0.00005,   0.00000,   2.00000
-374810374.00300,160819664.97231,-8068159.16897,  -0.00351,   0.00250,  -0.00006,478172238.30543,   0.00149,276254076.57522,  -0.00149,   0.00104,   0.00005,   0.00000,   2.00000
-374356673.62473,161412771.38889,-8234529.27490,  -0.00352,   0.00251,  -0.00006,478181945.97056,   0.00149,276262923.65630,  -0.00150,   0.00105,   0.00005,   0.00000,   2.00000
-373887031.62205,162025614.72336,-8400294.44091,  -0.00353,   0.00252,  -0.00006,478187118.23225,   0.00150,276271753.53717,  -0.00151,   0.00105,   0.00004,  -0.00000,   2.00000
-373428117.24084,162623692.86723,-8561402.93792,  -0.00353,   0.00253,  -0.00007,478191997.92087,   0.00151,276280564.93497,  -0.00152,   0.00106,   0.00004,   0.00000,   2.00000
-372960474.63376,163231841.44267,-8725822.64189,  -0.00354,   0.00254,  -0.00007,478206534.64076,   0.00152,276289402.25659,  -0.00152,   0.00107,   0.00004,  -0.00000,   2.00000
-372486248.37395,163847114.39888,-8893792.57945,  -0.00355,   0.00254,  -0.00007,478207367.60176,   0.00153,276298202.50891,  -0.00153,   0.00107,   0.00004,   0.00000,   2.00000
-372011076.96220,164462959.87451,-9056753.79897,  -0.00355,   0.00255,  -0.00007,478230626.31818,   0.00154,276307068.75365,  -0.00154,   0.00108,   0.00004,   0.00000,   2.00000
-371531602.45388,165083138.05576,-9219483.32661,  -0.00356,   0.00256,  -0.00008,478217511.15587,   0.00154,276315833.80221,  -0.00155,   0.00108,   0.00004,   0.00000,   2.00000
-371051040.76646,165703758.38840,-9381275.26208,  -0.00357,   0.00257,  -0.00008,478240974.18883,   0.00155,276324665.94064,  -0.00156,   0.00109,   0.00004,   0.00000,   2.00000
-370573438.52696,166319055.04605,-9546732.43290,  -0.00357,   0.00258,  -0.00008,478237171.94097,   0.00156,276333439.76096,  -0.00156,   0.00110,   0.00004,   0.00000,   2.00000
-370079942.74623,166954070.90931,-9707543.23115,  -0.00358,   0.00258,  -0.00009,478242257.34551,   0.00157,276342196.33197,  -0.00157,   0.00110,   0.00004,  -0.00000,   2.00000
-369595016.07915,167577028.02938,-9867507.33222,  -0.00359,   0.00259,  -0.00009,478261014.56678,   0.00158,276350998.43033,  -0.00158,   0.00111,   0.00004,   0.00000,   2.00000
-369093803.90748,168219462.75955,-10030959.47191,  -0.00360,   0.00260,  -0.00009,478266690.13567,   0.00159,276359785.85412,  -0.00159,   0.00111,   0.00004,   0.00000,   2.00000
-368595716.05089,168856647.53069,-10194033.65457,  -0.00360,   0.00261,  -0.00009,478262639.28673,   0.00159,276368514.05120,  -0.00160,   0.00112,   0.00004,   0.00000,   2.00000
-368089256.11244,169503835.37133,-10352281.00980,  -0.00361,   0.00262,  -0.00010,478276833.31015,   0.00160,276377266.99262,  -0.00160,   0.00113,   0.00004,   0.00000,   2.00000
-367593297.80344,170136063.02082,-10514039.78147,  -0.00362,   0.00262,  -0.00010,478282028.64673,   0.00161,276386003.26723,  -0.00161,   0.00113,   0.00004,   0.00000,   2.00000
-367081162.56837,170787821.13365,-10675230.04072,  -0.00362,   0.00263,  -0.00010,478287504.68632,   0.00162,276394724.26094,  -0.00162,   0.00114,   0.00004,   0.00000,   2.00000
-366570307.51971,171437167.48215,-10831704.38927,  -0.00363,   0.00264,  -0.00010,478296930.84474,   0.00163,276403448.15457,  -0.00163,   0.00114,   0.00004,   0.00000,   2.00000
-366060328.90234,172083893.56573,-10991592.48104,  -0.00364,   0.00265,  -0.00011,478306905.22657,   0.00163,276412177.44103,  -0.00164,   0.00115,   0.00004,   0.00000,   2.00000
-365534131.06783,172750073.88409,-11150921.11865,  -0.00364,   0.00266,  -0.00011,478312480.53473,   0.00164,276420891.94007,  -0.00164,   0.00116,   0.00004,   0.00000,   2.00000
-365018688.09513,173401377.98177,-11309711.11433,  -0.00365,   0.00266,  -0.00011,478317345.80549,   0.00165,276429588.44506,  -0.00165,   0.00116,   0.00004,  -0.00000,   2.00000
-364486986.40404,174072113.41349,-11467949.22294,  -0.00366,   0.00267,  -0.00011,478322948.16066,   0.00166,276438270.43946,  -0.00166,   0.00117,   0.00003,  -0.00000,   2.00000
-363966274.56997,174728101.89543,-11621603.80494,  -0.00366,   0.00268,  -0.00012,478327463.02987,   0.00167,276446932.98506,  -0.00167,   0.00118,   0.00003,   0.00000,   2.00000
-363429048.64576,175403380.41055,-11778784.70015,  -0.00367,   0.00269,  -0.00012,478333386.29115,   0.00167,276455582.64953,  -0.00167,   0.00118,   0.00003,  -0.00000,   2.00000
-362892934.23842,176076052.10247,-11935323.48725,  -0.00368,   0.00270,  -0.00012,478343070.14565,   0.00168,276464236.72819,  -0.00168,   0.00119,   0.00003,  -0.00000,   2.00000
-362357934.09361,176746126.47002,-12091222.30674,  -0.00368,   0.00270,  -0.00012,478352751.05192,   0.00169,276472895.17882,  -0.00169,   0.00119,   0.00003,   0.00000,   2.00000
-361816280.41656,177423305.27498,-12246711.45052,  -0.00369,   0.00271,  -0.00013,478353534.33836,   0.00170,276481517.19352,  -0.00170,   0.00120,   0.00003,   0.00000,   2.00000
-361267958.55408,178107572.62118,-12401797.01138,  -0.00370,   0.00272,  -0.00013,478354309.65656,   0.00171,276490102.91301,  -0.00170,   0.00121,   0.00003,   0.00000,   2.00000
-360720759.04674,178789208.64524,-12556251.73152,  -0.00370,   0.00273,  -0.00013,478363948.82140,   0.00171,276498693.13541,  -0.00171,   0.00121,   0.00003,   0.00000,   2.00000
-360174684.73877,179468222.84137,-12710077.69069,  -0.00371,   0.00274,  -0.00014,478373585.03967,   0.00172,276507287.81807,  -0.00172,   0.00122,   0.00003,  -0.00000,   2.00000
-359612185.89928,180166518.35809,-12863380.42219,  -0.00372,   0.00275,  -0.00014,478379380.96590,   0.00173,276515869.35254,  -0.00173,   0.00122,   0.00003,   0.00000,   2.00000
-359060551.52991,180849955.42361,-13016194.82512,  -0.00372,   0.00275,  -0.00014,478384023.31478,   0.00174,276524432.49367,  -0.00174,   0.00123,   0.00003,   0.00000,   2.00000
-358492694.41900,181552787.82117,-13164439.41913,  -0.00373,   0.00276,  -0.00014,478389513.04055,   0.00175,276532981.22836,  -0.00174,   0.00124,   0.00003,   0.00000,   2.00000
-357927583.75992,182250368.49865,-13316519.41476,  -0.00373,   0.00277,  -0.00015,478385624.22924,   0.00175,276541472.63187,  -0.00175,   0.00124,   0.00003,  -0.00000,   2.00000
-357361787.03243,182947672.66945,-13467593.59602,  -0.00374,   0.00278,  -0.00015,478409070.44767,   0.00176,276550032.24904,  -0.00176,   0.00125,   0.00003,   0.00000,   2.00000
-356781289.57156,183661779.23919,-13618552.79168,  -0.00375,   0.00279,  -0.00015,478401135.01220,   0.00177,276558515.94954,  -0.00177,   0.00126,   0.00003,   0.00000,   2.00000
-356211950.32942,184361189.55312,-13764994.95293,  -0.00375,   0.00280,  -0.00015,478405288.18553,   0.00178,276566979.47389,  -0.00177,   0.00126,   0.00003,   0.00000,   2.00000
-355633754.11157,185069875.55047,-13914748.35025,  -0.00376,   0.00280,  -0.00016,478420303.99946,   0.00179,276575472.70047,  -0.00178,   0.00127,   0.00002,   0.00000,   2.00000
-355048739.46836,185785602.98196,-14064151.42255,  -0.00377,   0.00281,  -0.00016,478421155.08539,   0.00179,276583930.58229,  -0.00179,   0.00127,   0.00002,   0.00000,   2.00000
-354465151.42882,186498742.32578,-14208898.07187,  -0.00377,   0.00282,  -0.00016,478430375.61822,   0.00180,276592391.62999,  -0.00180,   0.00128,   0.00002,   0.00000,   2.00000
-353874455.59651,187218770.02176,-14357371.19506,  -0.00378,   0.00283,  -0.00016,478431590.65963,   0.00181,276600819.14951,  -0.00180,   0.00129,   0.00002,   0.00000,   2.00000
-353277157.48374,187945978.93473,-14501457.33684,  -0.00379,   0.00284,  -0.00017,478432069.79196,   0.00182,276609209.93070,  -0.00181,   0.00129,   0.00002,   0.00000,   2.00000
-352680770.37698,188670256.52501,-14649013.06118,  -0.00379,   0.00284,  -0.00017,478441985.49668,   0.00183,276617607.37553,  -0.00182,   0.00130,   0.00002,  -0.00000,   2.00000
-352077753.39010,189401718.31221,-14792191.31390,  -0.00380,   0.00285,  -0.00017,478442462.98171,   0.00183,276625968.21305,  -0.00183,   0.00130,   0.00002,   0.00000,   2.00000
-351475647.86748,190130232.42241,-14938843.25854,  -0.00380,   0.00286,  -0.00017,478452366.87293,   0.00184,276634335.79468,  -0.00183,   0.00131,   0.00002,   0.00000,   2.00000
-350876681.70108,190853944.84144,-15081292.25504,  -0.00381,   0.00287,  -0.00018,478447600.91507,   0.00185,276642642.87500,  -0.00184,   0.00132,   0.00002,   0.00000,   2.00000
-350269085.32902,191586894.01284,-15223003.37310,  -0.00382,   0.00288,  -0.00018,478462304.14679,   0.00186,276650978.93187,  -0.00185,   0.00132,   0.00002,   0.00000,   2.00000
-349654529.42563,192326866.18747,-15364421.18064,  -0.00382,   0.00289,  -0.00018,478463165.47339,   0.00187,276659280.42228,  -0.00186,   0.00133,   0.00002,   0.00000,   2.00000
-349032996.23126,193073844.84049,-15505550.21764,  -0.00383,   0.00289,  -0.00019,478464024.44394,   0.00187,276667547.50127,  -0.00186,   0.00133,   0.00002,   0.00000,   2.00000
-348412656.18444,193817992.17446,-15646113.37120,  -0.00383,   0.00290,  -0.00019,478473492.33007,   0.00188,276675819.75673,  -0.00187,   0.00134,   0.00002,   0.00000,   2.00000
-347785305.54685,194569144.38986,-15786396.03600,  -0.00384,   0.00291,  -0.00019,478474359.52404,   0.00189,276684057.77196,  -0.00188,   0.00135,   0.00001,   0.00000,   2.00000
-347159152.81068,195317452.87499,-15926116.87940,  -0.00385,   0.00292,  -0.00019,478483809.54583,   0.00190,276692301.01146,  -0.00188,   0.00135,   0.00001,  -0.00000,   2.00000
-346526243.56042,196072944.13372,-16061516.29544,  -0.00385,   0.00293,  -0.00020,478484273.28893,   0.00190,276700508.29528,  -0.00189,   0.00136,   0.00001,   0.00000,   2.00000
-345894250.75842,196825400.30786,-16200422.18630,  -0.00386,   0.00293,  -0.00020,478494112.64776,   0.00191,276708722.72367,  -0.00190,   0.00136,   0.00001,   0.00000,   2.00000
-345257032.67993,197583023.87774,-16335490.20749,  -0.00386,   0.00294,  -0.00020,478480647.17142,   0.00192,276716837.53832,  -0.00191,   0.00137,   0.00001,   0.00000,   2.00000
-344619167.31526,198339620.37105,-16473591.01102,  -0.00387,   0.00295,  -0.00020,478504341.75521,   0.00193,276725023.37332,  -0.00191,   0.00138,   0.00001,  -0.00000,   2.00000
-343966162.13069,199113261.86986,-16607682.14333,  -0.00387,   0.00296,  -0.00021,478496294.25990,   0.00193,276733134.54866,  -0.00192,   0.00138,   0.00001,   0.00000,   2.00000
-343324230.08768,199872170.49290,-16741428.67962,  -0.00388,   0.00297,  -0.00021,478500236.38515,   0.00194,276741226.30204,  -0.00193,   0.00139,   0.00001,  -0.00000,   2.00000
-342665270.88760,200649913.16584,-16874751.21777,  -0.00389,   0.00298,  -0.00021,478506518.48861,   0.00195,276749309.44938,  -0.00193,   0.00139,   0.00001,   0.00000,   2.00000
-342017399.60961,201412939.22913,-17007736.80555,  -0.00389,   0.00298,  -0.00021,478510411.30320,   0.00196,276757373.07487,  -0.00194,   0.00140,   0.00001,   0.00000,   2.00000
-341362332.87636,202182988.54774,-17140497.60775,  -0.00390,   0.00299,  -0.00022,478511251.17953,   0.00196,276765403.29409,  -0.00195,   0.00141,   0.00001,   0.00000,   2.00000
-340690169.66058,202971808.13885,-17272838.86217,  -0.00390,   0.00300,  -0.00022,478517595.85920,   0.00197,276773425.47663,  -0.00196,   0.00141,   0.00001,  -0.00000,   2.00000
-340029420.66792,203746120.53757,-17400807.55133,  -0.00391,   0.00301,  -0.00022,478520963.76236,   0.00198,276781426.01607,  -0.00196,   0.00142,   0.00001,  -0.00000,   2.00000
-339361116.49565,204527236.23295,-17532623.81087,  -0.00391,   0.00302,  -0.00022,478522258.58518,   0.00199,276789395.52503,  -0.00197,   0.00142,   0.00000,   0.00000,   2.00000
-338685852.25218,205315542.27377,-17660182.40192,  -0.00392,   0.00302,  -0.00023,478522661.04855,   0.00199,276797330.06591,  -0.00198,   0.00143,   0.00000,  -0.00000,   2.00000
-338021704.49457,206089210.98688,-17787443.51287,  -0.00392,   0.00303,  -0.00023,478526329.56042,   0.00200,276805244.73889,  -0.00198,   0.00144,   0.00000,   0.00000,   2.00000
-337340334.03695,206881612.33671,-17914308.15927,  -0.00393,   0.00304,  -0.00023,478532718.42517,   0.00201,276813152.09780,  -0.00199,   0.00144,   0.00000,   0.00000,   2.00000
-336651640.83118,207680980.93578,-18040986.33808,  -0.00393,   0.00305,  -0.00023,478533582.15790,   0.00202,276821026.88785,  -0.00200,   0.00145,   0.00000,   0.00000,   2.00000
-335974082.99037,208465722.18942,-18167377.70507,  -0.00394,   0.00306,  -0.00024,478537173.75429,   0.00202,276828881.73298,  -0.00200,   0.00145,   0.00000,   0.00000,   2.00000
-335279549.83154,209269343.74114,-18289329.85288,  -0.00394,   0.00307,  -0.00024,478543162.11227,   0.00203,276836727.70411,  -0.00201,   0.00146,  -0.00000,  -0.00000,   2.00000
-334587246.05882,210068068.53714,-18415382.00732,  -0.00395,   0.00307,  -0.00024,478538851.92866,   0.00204,276844517.70395,  -0.00202,   0.00147,  -0.00000,   0.00000,   2.00000
-333887849.71988,210873998.59379,-18537216.16758,  -0.00396,   0.00308,  -0.00024,478539202.21527,   0.00205,276852273.32534,  -0.00202,   0.00147,  -0.00000,   0.00000,   2.00000
-333189665.51147,211676962.27293,-18658572.47252,  -0.00396,   0.00309,  -0.00025,478548312.08421,   0.00205,276860034.80800,  -0.00203,   0.00148,  -0.00000,   0.00000,   2.00000
-332484033.57520,212486910.21305,-18779776.35706,  -0.00397,   0.00310,  -0.00025,478549146.06568,   0.00206,276867764.25332,  -0.00204,   0.00148,  -0.00000,   0.00000,   2.00000
-331780877.19672,213292259.43716,-18901056.05220,  -0.00397,   0.00311,  -0.00025,478544258.79115,   0.00207,276875435.62678,  -0.00205,   0.00149,  -0.00001,   0.00000,   2.00000
-331068974.68136,214106212.57571,-19021635.63859,  -0.00398,   0.00311,  -0.00025,478559028.12570,   0.00208,276883139.14159,  -0.00205,   0.00149,  -0.00001,   0.00000,   2.00000
-330351121.23632,214925779.39184,-19138584.62163,  -0.00398,   0.00312,  -0.00026,478545404.84118,   0.00208,276890744.73921,  -0.00206,   0.00150,  -0.00001,   0.00000,   2.00000
-329634471.59200,215742358.24139,-19255077.69857,  -0.00399,   0.00313,  -0.00026,478554403.35157,   0.00209,276898356.37349,  -0.00206,   0.00151,  -0.00001,   0.00000,   2.00000
-328919030.73356,216555958.10751,-19371116.13519,  -0.00399,   0.00314,  -0.00026,478563399.08292,   0.00210,276905973.99470,  -0.00207,   0.00151,  -0.00001,   0.00000,   2.00000
-328187224.98503,217386524.40959,-19487366.06628,  -0.00400,   0.00315,  -0.00026,478556028.41130,   0.00210,276913522.70824,  -0.00208,   0.00152,  -0.00001,  -0.00000,   2.00000
-327466597.42243,218202598.37617,-19603401.25768,  -0.00400,   0.00315,  -0.00027,478559174.82124,   0.00211,276921050.93728,  -0.00208,   0.00152,  -0.00001,   0.00000,   2.00000
