# sigma_xx, sigma_yy, sigma_xy, epsilon_xx, epsilon_yy, epsilon_xy, vonMises, epsPlastic, hardening, epsilonP__xx, epsilonP__yy, epsilonP__xy, yieldValue, iteration
   0.00000,   0.00000,   0.00000,   0.00000,   0.00000,   0.00000,   0.00000,   0.00000,274640135.82653,   0.00000,   0.00000,   0.00000,-474640135.82653,   0.00000
   0.00000,   0.00000,   0.00000,   0.00000,   0.00000,   0.00000,   0.00000,   0.00000,274640135.82653,   0.00000,   0.00000,   0.00000,-474640135.82653,   0.00000
-2472271.32545,-1268480.50942,832528.22791,  -0.00001,  -0.00000,   0.00001,2581559.61967,   0.00000,274640135.82653,   0.00000,   0.00000,   0.00000,-472058576.20686,   0.00000
-4936104.86481,-2517272.85128,1665056.45582,  -0.00002,  -0.00000,   0.00002,5156889.57416,   0.00000,274640135.82653,   0.00000,   0.00000,   0.00000,-469483246.25237,   0.00000
-7399938.40416,-3766065.19315,2497584.68373,  -0.00003,  -0.00000,   0.00003,7732235.94611,   0.00000,274640135.82653,   0.00000,   0.00000,   0.00000,-466907899.88042,   0.00000
-9852521.56206,-5026107.91647,3324487.72091,  -0.00004,  -0.00000,   0.00004,10294210.07742,   0.00000,274640135.82653,   0.00000,   0.00000,   0.00000,-464345925.74911,   0.00000
-12296666.93386,-6266462.47224,4157015.94882,  -0.00004,  -0.00000,   0.00005,12855439.02478,   0.00000,274640135.82653,   0.00000,   0.00000,   0.00000,-461784696.80174,   0.00000
-14721124.13812,-7498379.24192,4983918.98600,  -0.00005,  -0.00001,   0.00006,15397108.84769,   0.00000,274640135.82653,   0.00000,   0.00000,   0.00000,-459243026.97884,   0.00000
-17145581.34237,-8730296.01160,5810822.02318,  -0.00006,  -0.00001,   0.00008,17938784.38923,   0.00000,274640135.82653,   0.00000,   0.00000,   0.00000,-456701351.43730,   0.00000
-19541912.59297,-9934086.82763,6637725.06037,  -0.00007,  -0.00001,   0.00009,20460194.38678,   0.00000,274640135.82653,   0.00000,   0.00000,   0.00000,-454179941.43975,   0.00000
-21946681.62967,-11157565.81122,7459002.90682,  -0.00008,  -0.00001,   0.00010,22982313.58799,   0.00000,274640135.82653,   0.00000,   0.00000,   0.00000,-451657822.23854,   0.00000
-24331762.49882,-12372607.00871,8285905.94400,  -0.00009,  -0.00001,   0.00011,25495831.95744,   0.00000,274640135.82653,   0.00000,   0.00000,   0.00000,-449144303.86909,   0.00000
-26708405.58188,-13567960.03865,9107183.79045,  -0.00010,  -0.00001,   0.00012,27997719.16576,   0.00000,274640135.82653,   0.00000,   0.00000,   0.00000,-446642416.66077,   0.00000
-29085048.66493,-14763313.06858,9928461.63690,  -0.00010,  -0.00001,   0.00013,30499620.34146,   0.00000,274640135.82653,   0.00000,   0.00000,   0.00000,-444140515.48507,   0.00000
-31442003.58043,-15950228.31243,10749739.48335,  -0.00011,  -0.00001,   0.00014,32987466.30983,   0.00000,274640135.82653,   0.00000,   0.00000,   0.00000,-441652669.51669,   0.00000
-33798958.49594,-17137143.55627,11571017.32981,  -0.00012,  -0.00001,   0.00015,35475329.55479,   0.00000,274640135.82653,   0.00000,   0.00000,   0.00000,-439164806.27174,   0.00000
-36136225.24389,-18315621.01403,12392295.17626,  -0.00013,  -0.00001,   0.00016,37949153.88738,   0.00000,274640135.82653,   0.00000,   0.00000,   0.00000,-436690981.93914,   0.00000
-38473491.99184,-19494098.47178,13207947.83198,  -0.00014,  -0.00001,   0.00017,40417484.80087,   0.00000,274640135.82653,   0.00000,   0.00000,   0.00000,-434222651.02566,   0.00000
-40810758.73979,-20672575.92953,14023600.48770,  -0.00015,  -0.00001,   0.00018,42885825.48588,   0.00000,274640135.82653,   0.00000,   0.00000,   0.00000,-431754310.34065,   0.00000
-43119899.53409,-21822927.43363,14839253.14343,  -0.00015,  -0.00002,   0.00019,45334024.31607,   0.00000,274640135.82653,   0.00000,   0.00000,   0.00000,-429306111.51046,   0.00000
-45437478.11449,-22992967.10529,15654905.79915,  -0.00016,  -0.00002,   0.00020,47788353.61065,   0.00000,274640135.82653,   0.00000,   0.00000,   0.00000,-426851782.21588,   0.00000
-47726930.74125,-24134880.82330,16470558.45487,  -0.00017,  -0.00002,   0.00021,50222569.55074,   0.00000,274640135.82653,   0.00000,   0.00000,   0.00000,-424417566.27579,   0.00000
-50016383.36800,-25276794.54131,17280585.91987,  -0.00018,  -0.00002,   0.00022,52651277.76804,   0.00000,274640135.82653,   0.00000,   0.00000,   0.00000,-421988858.05849,   0.00000
-52286147.82720,-26410270.47323,18090613.38486,  -0.00019,  -0.00002,   0.00024,55065989.62044,   0.00000,274640135.82653,   0.00000,   0.00000,   0.00000,-419574146.20609,   0.00000
-54555912.28640,-27543746.40515,18900640.84985,  -0.00019,  -0.00002,   0.00025,57480727.13632,   0.00000,274640135.82653,   0.00000,   0.00000,   0.00000,-417159408.69021,   0.00000
-56825676.74560,-28677222.33707,19710668.31485,  -0.00020,  -0.00002,   0.00026,59895487.21174,   0.00000,274640135.82653,   0.00000,   0.00000,   0.00000,-414744648.61479,   0.00000
-59075753.03725,-29802260.48289,20520695.77984,  -0.00021,  -0.00002,   0.00027,62296269.65104,   0.00000,274640135.82653,   0.00000,   0.00000,   0.00000,-412343866.17548,   0.00000
-61317391.54281,-30907610.46117,21325098.05411,  -0.00022,  -0.00002,   0.00028,64685456.31581,   0.00000,274640135.82653,   0.00000,   0.00000,   0.00000,-409954679.51072,   0.00000
-63547779.66690,-32024210.82090,22135125.51910,  -0.00023,  -0.00002,   0.00029,67072305.99346,   0.00000,274640135.82653,   0.00000,   0.00000,   0.00000,-407567829.83307,   0.00000
-65769730.00491,-33121123.01308,22939527.79336,  -0.00023,  -0.00002,   0.00030,69447567.72331,   0.00000,274640135.82653,   0.00000,   0.00000,   0.00000,-405192568.10322,   0.00000
-67991680.34291,-34218035.20526,23743930.06763,  -0.00024,  -0.00002,   0.00031,71822861.69941,   0.00000,274640135.82653,   0.00000,   0.00000,   0.00000,-402817274.12712,   0.00000
-70193942.51336,-35306509.61134,24542707.15116,  -0.00025,  -0.00002,   0.00032,74178632.39116,   0.00000,274640135.82653,   0.00000,   0.00000,   0.00000,-400461503.43537,   0.00000
-72376516.51626,-36386546.23133,25347109.42543,  -0.00026,  -0.00002,   0.00033,76526056.30807,   0.00000,274640135.82653,   0.00000,   0.00000,   0.00000,-398114079.51846,   0.00000
-74570340.90062,-37455332.46987,26145886.50896,  -0.00027,  -0.00003,   0.00034,78875870.23709,   0.00000,274640135.82653,   0.00000,   0.00000,   0.00000,-395764265.58944,   0.00000
-76752914.90352,-38535369.08986,26944663.59250,  -0.00027,  -0.00003,   0.00035,81217777.61604,   0.00000,274640135.82653,   0.00000,   0.00000,   0.00000,-393422358.21049,   0.00000
-78907362.95278,-39587279.75620,27743440.67604,  -0.00028,  -0.00003,   0.00036,83539764.76059,   0.00000,274640135.82653,   0.00000,   0.00000,   0.00000,-391100371.06594,   0.00000
-81070248.78812,-40658878.59010,28542217.75957,  -0.00029,  -0.00003,   0.00037,85867798.55063,   0.00000,274640135.82653,   0.00000,   0.00000,   0.00000,-388772337.27590,   0.00000
-83224696.83738,-41710789.25645,29340994.84311,  -0.00030,  -0.00003,   0.00038,88189876.11117,   0.00000,274640135.82653,   0.00000,   0.00000,   0.00000,-386450259.71536,   0.00000
-85359456.71908,-42754262.13670,30134146.73591,  -0.00031,  -0.00003,   0.00039,90492450.47141,   0.00000,274640135.82653,   0.00000,   0.00000,   0.00000,-384147685.35512,   0.00000
-87494216.60078,-43797735.01695,30927298.62872,  -0.00031,  -0.00003,   0.00040,92795066.77843,   0.00000,274640135.82653,   0.00000,   0.00000,   0.00000,-381845069.04810,   0.00000
-89620538.69639,-44821519.72965,31720450.52153,  -0.00032,  -0.00003,   0.00041,95091754.57215,   0.00000,274640135.82653,   0.00000,   0.00000,   0.00000,-379548381.25438,   0.00000
-91735610.41054,-45856554.82381,32513602.41433,  -0.00033,  -0.00003,   0.00042,97380541.25691,   0.00000,274640135.82653,   0.00000,   0.00000,   0.00000,-377259594.56962,   0.00000
-93822556.17105,-46863463.96433,33301129.11641,  -0.00034,  -0.00003,   0.00043,99643875.48829,   0.00000,274640135.82653,   0.00000,   0.00000,   0.00000,-374996260.33824,   0.00000
-95937627.88520,-47898499.05848,34094281.00922,  -0.00034,  -0.00003,   0.00044,101932753.66617,   0.00000,274640135.82653,   0.00000,   0.00000,   0.00000,-372707382.16036,   0.00000
-98004885.47815,-48896970.41290,34881807.71129,  -0.00035,  -0.00003,   0.00045,104182296.16985,   0.00000,274640135.82653,   0.00000,   0.00000,   0.00000,-370457839.65668,   0.00000
-100091831.23865,-49903879.55342,35669334.41337,  -0.00036,  -0.00003,   0.00046,106445786.37622,   0.00000,274640135.82653,   0.00000,   0.00000,   0.00000,-368194349.45031,   0.00000
-102150651.04551,-50882662.74028,36456861.11545,  -0.00037,  -0.00003,   0.00047,108689520.73630,   0.00000,274640135.82653,   0.00000,   0.00000,   0.00000,-365950615.09023,   0.00000
-104217908.63846,-51881134.09470,37238762.62680,  -0.00037,  -0.00003,   0.00048,110933572.86552,   0.00000,274640135.82653,   0.00000,   0.00000,   0.00000,-363706562.96100,   0.00000
-106257040.27777,-52851479.49548,38026289.32887,  -0.00038,  -0.00003,   0.00049,113163561.92844,   0.00000,274640135.82653,   0.00000,   0.00000,   0.00000,-361476573.89809,   0.00000
-108304609.70317,-53841513.06380,38808190.84022,  -0.00039,  -0.00003,   0.00050,115393847.24770,   0.00000,274640135.82653,   0.00000,   0.00000,   0.00000,-359246288.57883,   0.00000
-110324053.17493,-54803420.67848,39590092.35157,  -0.00040,  -0.00003,   0.00051,117604431.74950,   0.00000,274640135.82653,   0.00000,   0.00000,   0.00000,-357035704.07703,   0.00000
-112343496.64668,-55765328.29316,40371993.86292,  -0.00040,  -0.00003,   0.00052,119815085.74360,   0.00000,274640135.82653,   0.00000,   0.00000,   0.00000,-354825050.08293,   0.00000
-114362940.11844,-56727235.90784,41148270.18354,  -0.00041,  -0.00004,   0.00053,122020114.32693,   0.00000,274640135.82653,   0.00000,   0.00000,   0.00000,-352620021.49960,   0.00000
-116362695.42264,-57680705.73643,41930171.69488,  -0.00042,  -0.00004,   0.00055,124217052.78258,   0.00000,274640135.82653,   0.00000,   0.00000,   0.00000,-350423083.04395,   0.00000
-118354012.94075,-58614487.39746,42706448.01550,  -0.00042,  -0.00004,   0.00056,126402503.21253,   0.00000,274640135.82653,   0.00000,   0.00000,   0.00000,-348237632.61400,   0.00000
-120353768.24495,-59567957.22605,43482724.33612,  -0.00043,  -0.00004,   0.00057,128593875.77606,   0.00000,274640135.82653,   0.00000,   0.00000,   0.00000,-346046260.05047,   0.00000
-122325397.59551,-60493301.10099,44253375.46601,  -0.00044,  -0.00004,   0.00058,130759928.82515,   0.00000,274640135.82653,   0.00000,   0.00000,   0.00000,-343880207.00138,   0.00000
-124297026.94607,-61418644.97593,45029651.78663,  -0.00045,  -0.00004,   0.00059,132931766.36464,   0.00000,274640135.82653,   0.00000,   0.00000,   0.00000,-341708369.46189,   0.00000
-126248968.12908,-62335551.06478,45800302.91652,  -0.00045,  -0.00004,   0.00060,135084148.30118,   0.00000,274640135.82653,   0.00000,   0.00000,   0.00000,-339555987.52535,   0.00000
-128200909.31208,-63252457.15363,46576579.23714,  -0.00046,  -0.00004,   0.00061,137242330.06401,   0.00000,274640135.82653,   0.00000,   0.00000,   0.00000,-337397805.76252,   0.00000
-130144412.70899,-64149675.07492,47347230.36703,  -0.00047,  -0.00004,   0.00062,139389052.13027,   0.00000,274640135.82653,   0.00000,   0.00000,   0.00000,-335251083.69626,   0.00000
-132076665.72445,-65058143.37767,48112256.30619,  -0.00047,  -0.00004,   0.00063,141522127.64691,   0.00000,274640135.82653,   0.00000,   0.00000,   0.00000,-333118008.17962,   0.00000
-134000480.95381,-65946923.51288,48882907.43608,  -0.00048,  -0.00004,   0.00064,143655219.42042,   0.00000,274640135.82653,   0.00000,   0.00000,   0.00000,-330984916.40611,   0.00000
-135904608.01562,-66827265.86198,49647933.37524,  -0.00049,  -0.00004,   0.00065,145768873.34419,   0.00000,274640135.82653,   0.00000,   0.00000,   0.00000,-328871262.48234,   0.00000
-137808735.07742,-67707608.21109,50412959.31440,  -0.00049,  -0.00004,   0.00066,147882613.01155,   0.00000,274640135.82653,   0.00000,   0.00000,   0.00000,-326757522.81498,   0.00000
-139712862.13923,-68587950.56020,51177985.25356,  -0.00050,  -0.00004,   0.00067,149996434.79762,   0.00000,274640135.82653,   0.00000,   0.00000,   0.00000,-324643701.02891,   0.00000
-141588863.24739,-69440166.95566,51943011.19272,  -0.00051,  -0.00004,   0.00068,152090821.27091,   0.00000,274640135.82653,   0.00000,   0.00000,   0.00000,-322549314.55562,   0.00000
-143473302.14165,-70312071.51867,52708037.13188,  -0.00052,  -0.00004,   0.00069,154191057.72502,   0.00000,274640135.82653,   0.00000,   0.00000,   0.00000,-320449078.10151,   0.00000
-145349303.24981,-71164287.91414,53467437.88032,  -0.00052,  -0.00004,   0.00070,156279867.24271,   0.00000,274640135.82653,   0.00000,   0.00000,   0.00000,-318360268.58382,   0.00000
-147205616.19042,-72008066.52351,54226838.62875,  -0.00053,  -0.00004,   0.00070,158355023.16689,   0.00000,274640135.82653,   0.00000,   0.00000,   0.00000,-316285112.65964,   0.00000
-149061929.13103,-72851845.13287,54986239.37718,  -0.00054,  -0.00004,   0.00071,160430274.70463,   0.00000,274640135.82653,   0.00000,   0.00000,   0.00000,-314209861.12190,   0.00000
-150898553.90409,-73687185.95615,55745640.12561,  -0.00054,  -0.00004,   0.00072,162491890.01756,   0.00000,274640135.82653,   0.00000,   0.00000,   0.00000,-312148245.80897,   0.00000
-152726740.89106,-74502838.61187,56499415.68331,  -0.00055,  -0.00004,   0.00073,164542111.73367,   0.00000,274640135.82653,   0.00000,   0.00000,   0.00000,-310098024.09286,   0.00000
-154563365.66412,-75338179.43515,57258816.43174,  -0.00056,  -0.00004,   0.00074,166603928.18602,   0.00000,274640135.82653,   0.00000,   0.00000,   0.00000,-308036207.64051,   0.00000
-156371864.48353,-76145394.30478,58012591.98945,  -0.00056,  -0.00004,   0.00075,168640642.44605,   0.00000,274640135.82653,   0.00000,   0.00000,   0.00000,-305999493.38048,   0.00000
-158180363.30294,-76952609.17440,58766367.54715,  -0.00057,  -0.00004,   0.00076,170677466.53013,   0.00000,274640135.82653,   0.00000,   0.00000,   0.00000,-303962669.29640,   0.00000
-159969173.95480,-77751386.25794,59520143.10485,  -0.00058,  -0.00004,   0.00077,172700700.49932,   0.00000,274640135.82653,   0.00000,   0.00000,   0.00000,-301939435.32721,   0.00000
-161749546.82057,-78530475.17392,60268293.47183,  -0.00058,  -0.00004,   0.00078,174712576.10926,   0.00000,274640135.82653,   0.00000,   0.00000,   0.00000,-299927559.71727,   0.00000
-163538357.47243,-79329252.25746,61022069.02953,  -0.00059,  -0.00004,   0.00079,176736039.73367,   0.00000,274640135.82653,   0.00000,   0.00000,   0.00000,-297904096.09286,   0.00000
-165299042.17065,-80099903.38735,61770219.39650,  -0.00060,  -0.00004,   0.00080,178734469.45170,   0.00000,274640135.82653,   0.00000,   0.00000,   0.00000,-295905666.37483,   0.00000
-167059726.86886,-80870554.51724,62518369.76347,  -0.00060,  -0.00004,   0.00081,180733023.69431,   0.00000,274640135.82653,   0.00000,   0.00000,   0.00000,-293907112.13222,   0.00000
-168820411.56708,-81641205.64713,63260894.93972,  -0.00061,  -0.00004,   0.00082,182725855.77508,   0.00000,274640135.82653,   0.00000,   0.00000,   0.00000,-291914280.05145,   0.00000
-170561408.09774,-82403418.99093,64009045.30669,  -0.00062,  -0.00004,   0.00083,184710984.68077,   0.00000,274640135.82653,   0.00000,   0.00000,   0.00000,-289929151.14576,   0.00000
-172302404.62841,-83165632.33472,64751570.48294,  -0.00062,  -0.00004,   0.00084,186690386.06385,   0.00000,274640135.82653,   0.00000,   0.00000,   0.00000,-287949749.76268,   0.00000
-174034963.37298,-83908157.51097,65494095.65918,  -0.00063,  -0.00004,   0.00085,188664315.52534,   0.00000,274640135.82653,   0.00000,   0.00000,   0.00000,-285975820.30119,   0.00000
-175747833.94999,-84642244.90112,66236620.83543,  -0.00063,  -0.00004,   0.00086,190624734.43147,   0.00000,274640135.82653,   0.00000,   0.00000,   0.00000,-284015401.39506,   0.00000
-177469142.31311,-85396020.45882,66979146.01167,  -0.00064,  -0.00004,   0.00087,192590852.00791,   0.00000,274640135.82653,   0.00000,   0.00000,   0.00000,-282049283.81862,   0.00000
-179153886.93648,-86101981.89532,67716045.99718,  -0.00065,  -0.00004,   0.00088,194526477.42081,   0.00000,274640135.82653,   0.00000,   0.00000,   0.00000,-280113658.40572,   0.00000
-180847069.34595,-86827631.49938,68458571.17343,  -0.00065,  -0.00004,   0.00089,196473675.81745,   0.00000,274640135.82653,   0.00000,   0.00000,   0.00000,-278166460.00908,   0.00000
-182540251.75541,-87553281.10344,69195471.15894,  -0.00066,  -0.00004,   0.00090,198415126.07409,   0.00000,274640135.82653,   0.00000,   0.00000,   0.00000,-276225009.75244,   0.00000
-184205308.21123,-88250804.75385,69932371.14446,  -0.00067,  -0.00004,   0.00091,200337572.67418,   0.00000,274640135.82653,   0.00000,   0.00000,   0.00000,-274302563.15235,   0.00000
-185870364.66705,-88948328.40426,70669271.12997,  -0.00067,  -0.00004,   0.00092,202260171.55257,   0.00000,274640135.82653,   0.00000,   0.00000,   0.00000,-272379964.27396,   0.00000
-187535421.12287,-89645852.05467,71400545.92476,  -0.00068,  -0.00004,   0.00093,204177016.88587,   0.00000,274640135.82653,   0.00000,   0.00000,   0.00000,-270463118.94066,   0.00000
-189180789.41114,-90334937.91899,72131820.71955,  -0.00068,  -0.00004,   0.00094,206080411.25997,   0.00000,274640135.82653,   0.00000,   0.00000,   0.00000,-268559724.56656,   0.00000
-190826157.69941,-91024023.78331,72863095.51433,  -0.00069,  -0.00004,   0.00095,207983948.21454,   0.00000,274640135.82653,   0.00000,   0.00000,   0.00000,-266656187.61199,   0.00000
-192443400.03403,-91684983.69398,73594370.30912,  -0.00070,  -0.00004,   0.00096,209868583.83540,   0.00000,274640135.82653,   0.00000,   0.00000,   0.00000,-264771551.99113,   0.00000
-194080330.53621,-92354381.39074,74325645.10390,  -0.00070,  -0.00004,   0.00097,211766952.46582,   0.00000,274640135.82653,   0.00000,   0.00000,   0.00000,-262873183.36071,   0.00000
-195677884.70328,-93006903.51532,75056919.89869,  -0.00071,  -0.00004,   0.00098,213638358.43503,   0.00000,274640135.82653,   0.00000,   0.00000,   0.00000,-261001777.39150,   0.00000
-197295127.03790,-93667863.42599,75782569.50275,  -0.00072,  -0.00004,   0.00099,215517554.50313,   0.00000,274640135.82653,   0.00000,   0.00000,   0.00000,-259122581.32340,   0.00000
-198892681.20497,-94320385.55057,76508219.10680,  -0.00072,  -0.00004,   0.00099,217383353.00928,   0.00000,274640135.82653,   0.00000,   0.00000,   0.00000,-257256782.81725,   0.00000
-200462109.41840,-94944781.72151,77233868.71086,  -0.00073,  -0.00004,   0.00100,219230356.23425,   0.00000,274640135.82653,   0.00000,   0.00000,   0.00000,-255409779.59228,   0.00000
-202059663.58547,-95597303.84608,77959518.31492,  -0.00073,  -0.00004,   0.00101,221096477.99949,   0.00000,274640135.82653,   0.00000,   0.00000,   0.00000,-253543657.82704,   0.00000
-203629091.79889,-96221700.01702,78679542.72825,  -0.00074,  -0.00004,   0.00102,222937875.93627,   0.00000,274640135.82653,   0.00000,   0.00000,   0.00000,-251702259.89026,   0.00000
-205178831.84477,-96837658.40186,79399567.14157,  -0.00074,  -0.00004,   0.00103,224765925.52981,   0.00000,274640135.82653,   0.00000,   0.00000,   0.00000,-249874210.29672,   0.00000
-206748260.05819,-97462054.57279,80125216.74563,  -0.00075,  -0.00004,   0.00104,226613627.10486,   0.00000,274640135.82653,   0.00000,   0.00000,   0.00000,-248026508.72167,   0.00000
-208289562.31797,-98058324.79007,80839615.96823,  -0.00076,  -0.00004,   0.00105,228430693.66607,   0.00000,274640135.82653,   0.00000,   0.00000,   0.00000,-246209442.16046,   0.00000
-209811176.41020,-98646157.22127,81559640.38156,  -0.00076,  -0.00004,   0.00106,230240423.47885,   0.00000,274640135.82653,   0.00000,   0.00000,   0.00000,-244399712.34768,   0.00000
-211341228.28852,-99253677.82001,82279664.79488,  -0.00077,  -0.00004,   0.00107,232055689.15444,   0.00000,274640135.82653,   0.00000,   0.00000,   0.00000,-242584446.67209,   0.00000
-212862842.38075,-99841510.25121,82994064.01748,  -0.00077,  -0.00004,   0.00108,233859815.19365,   0.00000,274640135.82653,   0.00000,   0.00000,   0.00000,-240780320.63288,   0.00000
-214376018.68688,-100409654.51485,83708463.24008,  -0.00078,  -0.00004,   0.00109,235658809.70008,   0.00000,274640135.82653,   0.00000,   0.00000,   0.00000,-238981326.12645,   0.00000
-215877944.61156,-100989049.15995,84422862.46268,  -0.00079,  -0.00004,   0.00110,237449838.44634,   0.00000,274640135.82653,   0.00000,   0.00000,   0.00000,-237190297.38019,   0.00000
-217351744.58259,-101540317.85140,85137261.68528,  -0.00079,  -0.00004,   0.00111,239222306.17940,   0.00000,274640135.82653,   0.00000,   0.00000,   0.00000,-235417829.64713,   0.00000
-218853670.50727,-102119712.49650,85846035.71715,  -0.00080,  -0.00004,   0.00112,241007710.26860,   0.00000,274640135.82653,   0.00000,   0.00000,   0.00000,-233632425.55793,   0.00000
-220327470.47830,-102670981.18796,86560434.93975,  -0.00080,  -0.00004,   0.00113,242780587.64998,   0.00000,274640135.82653,   0.00000,   0.00000,   0.00000,-231859548.17655,   0.00000
-221773144.49568,-103194123.92576,87269208.97162,  -0.00081,  -0.00004,   0.00113,244528963.47756,   0.00000,274640135.82653,   0.00000,   0.00000,   0.00000,-230111172.34897,   0.00000
-223246944.46671,-103745392.61722,87977983.00349,  -0.00081,  -0.00004,   0.00114,246296242.92468,   0.00000,274640135.82653,   0.00000,   0.00000,   0.00000,-228343892.90184,   0.00000
-224701056.27019,-104288223.52258,88681131.84463,  -0.00082,  -0.00004,   0.00115,248044257.55921,   0.00000,274640135.82653,   0.00000,   0.00000,   0.00000,-226595878.26732,   0.00000
-226127042.12002,-104802928.47429,89389905.87650,  -0.00082,  -0.00004,   0.00116,249779868.26635,   0.00000,274640135.82653,   0.00000,   0.00000,   0.00000,-224860267.56018,   0.00000
-227572716.13741,-105326071.21210,90093054.71764,  -0.00083,  -0.00004,   0.00117,251523076.13096,   0.00000,274640135.82653,   0.00000,   0.00000,   0.00000,-223117059.69557,   0.00000
-228998701.98724,-105840776.16382,90796203.55878,  -0.00084,  -0.00004,   0.00118,253253088.41952,   0.00000,274640135.82653,   0.00000,   0.00000,   0.00000,-221387047.40701,   0.00000
-230396561.88343,-106327355.16189,91499352.39992,  -0.00084,  -0.00003,   0.00119,254964741.85421,   0.00000,274640135.82653,   0.00000,   0.00000,   0.00000,-219675393.97232,   0.00000
-231802859.56571,-106833622.32751,92202501.24106,  -0.00085,  -0.00003,   0.00120,256681812.97961,   0.00000,274640135.82653,   0.00000,   0.00000,   0.00000,-217958322.84692,   0.00000
-233200719.46189,-107320201.32558,92905650.08220,  -0.00085,  -0.00003,   0.00121,258393948.18721,   0.00000,274640135.82653,   0.00000,   0.00000,   0.00000,-216246187.63932,   0.00000
-234598579.35808,-107806780.32365,93603173.73261,  -0.00086,  -0.00003,   0.00122,260100250.30733,   0.00000,274640135.82653,   0.00000,   0.00000,   0.00000,-214539885.51920,   0.00000
-235976751.08672,-108284921.53562,94300697.38302,  -0.00086,  -0.00003,   0.00123,261793414.52858,   0.00000,274640135.82653,   0.00000,   0.00000,   0.00000,-212846721.29795,   0.00000
-237354922.81535,-108763062.74760,94998221.03343,  -0.00087,  -0.00003,   0.00123,263486813.40411,   0.00000,274640135.82653,   0.00000,   0.00000,   0.00000,-211153322.42242,   0.00000
-238704968.59034,-109213078.00593,95695744.68384,  -0.00087,  -0.00003,   0.00124,265161989.61007,   0.00000,274640135.82653,   0.00000,   0.00000,   0.00000,-209478146.21646,   0.00000
-240063452.15142,-109682781.43181,96387643.14353,  -0.00088,  -0.00003,   0.00125,266836428.73805,   0.00000,274640135.82653,   0.00000,   0.00000,   0.00000,-207803707.08848,   0.00000
-241413497.92641,-110132796.69014,97085166.79394,  -0.00088,  -0.00003,   0.00126,268512113.38912,   0.00000,274640135.82653,   0.00000,   0.00000,   0.00000,-206128022.43741,   0.00000
-242743855.53385,-110574374.16237,97777065.25362,  -0.00089,  -0.00003,   0.00127,270168623.60802,   0.00000,274640135.82653,   0.00000,   0.00000,   0.00000,-204471512.21851,   0.00000
-244065775.35520,-110996263.46706,98468963.71330,  -0.00089,  -0.00003,   0.00128,271820335.04335,   0.00000,274640135.82653,   0.00000,   0.00000,   0.00000,-202819800.78318,   0.00000
-245396132.96263,-111437840.93929,99160862.17298,  -0.00090,  -0.00003,   0.00129,273477364.68433,   0.00000,274640135.82653,   0.00000,   0.00000,   0.00000,-201162771.14220,   0.00000
-246698364.61643,-111851292.45788,99847135.44194,  -0.00090,  -0.00003,   0.00130,275110187.31993,   0.00000,274640135.82653,   0.00000,   0.00000,   0.00000,-199529948.50660,   0.00000
-248000596.27022,-112264743.97648,100539033.90162,  -0.00091,  -0.00003,   0.00131,276749412.02794,   0.00000,274640135.82653,   0.00000,   0.00000,   0.00000,-197890723.79859,   0.00000
-249302827.92401,-112678195.49507,101225307.17057,  -0.00091,  -0.00003,   0.00132,278382778.56931,   0.00000,274640135.82653,   0.00000,   0.00000,   0.00000,-196257357.25722,   0.00000
-250585371.41025,-113083209.22756,101911580.43952,  -0.00092,  -0.00003,   0.00132,280003130.82627,   0.00000,274640135.82653,   0.00000,   0.00000,   0.00000,-194637005.00026,   0.00000
-251867914.89649,-113488222.96006,102597853.70848,  -0.00092,  -0.00003,   0.00133,281623756.06372,   0.00000,274640135.82653,   0.00000,   0.00000,   0.00000,-193016379.76281,   0.00000
-253142020.59664,-113873548.52500,103278501.78670,  -0.00093,  -0.00002,   0.00134,283233533.10160,   0.00000,274640135.82653,   0.00000,   0.00000,   0.00000,-191406602.72493,   0.00000
-254396438.12923,-114250436.30386,103964775.05565,  -0.00093,  -0.00002,   0.00135,284836495.61664,   0.00000,274640135.82653,   0.00000,   0.00000,   0.00000,-189803640.20989,   0.00000
-255650855.66182,-114627324.08271,104645423.13388,  -0.00094,  -0.00002,   0.00136,286433593.86011,   0.00000,274640135.82653,   0.00000,   0.00000,   0.00000,-188206541.96641,   0.00000
-256905273.19442,-115004211.86156,105326071.21210,  -0.00094,  -0.00002,   0.00137,288030976.64162,   0.00000,274640135.82653,   0.00000,   0.00000,   0.00000,-186609159.18491,   0.00000
-258131564.77337,-115352973.68676,106006719.29033,  -0.00095,  -0.00002,   0.00138,289610502.70285,   0.00000,274640135.82653,   0.00000,   0.00000,   0.00000,-185029633.12368,   0.00000
-259366294.13841,-115721423.67952,106687367.36855,  -0.00095,  -0.00002,   0.00139,291195241.52950,   0.00000,274640135.82653,   0.00000,   0.00000,   0.00000,-183444894.29703,   0.00000
-260572897.54981,-116061747.71863,107362390.25604,  -0.00096,  -0.00002,   0.00140,292755985.16126,   0.00000,274640135.82653,   0.00000,   0.00000,   0.00000,-181884150.66527,   0.00000
-261779500.96120,-116402071.75775,108037413.14354,  -0.00096,  -0.00002,   0.00140,294317041.79956,   0.00000,274640135.82653,   0.00000,   0.00000,   0.00000,-180323094.02697,   0.00000
-262986104.37260,-116742395.79686,108712436.03103,  -0.00097,  -0.00002,   0.00141,295878406.49012,   0.00000,274640135.82653,   0.00000,   0.00000,   0.00000,-178761729.33641,   0.00000
-264184269.99790,-117063031.66842,109387458.91853,  -0.00097,  -0.00002,   0.00142,297435234.69593,   0.00000,274640135.82653,   0.00000,   0.00000,   0.00000,-177204901.13060,   0.00000
-265371185.24175,-117394917.92144,110062481.80602,  -0.00098,  -0.00002,   0.00143,298984036.20282,   0.00000,274640135.82653,   0.00000,   0.00000,   0.00000,-175656099.62371,   0.00000
-266549662.69950,-117707116.00690,110737504.69352,  -0.00098,  -0.00002,   0.00144,300528335.78907,   0.00000,274640135.82653,   0.00000,   0.00000,   0.00000,-174111800.03746,   0.00000
-267708451.98970,-118010876.30627,111406902.39028,  -0.00099,  -0.00001,   0.00145,302053582.79615,   0.00000,274640135.82653,   0.00000,   0.00000,   0.00000,-172586553.03038,   0.00000
-268867241.27990,-118314636.60565,112076300.08705,  -0.00099,  -0.00001,   0.00146,303579162.40250,   0.00000,274640135.82653,   0.00000,   0.00000,   0.00000,-171060973.42403,   0.00000
-270017592.78401,-118598708.73747,112745697.78382,  -0.00100,  -0.00001,   0.00147,305100300.54518,   0.00000,274640135.82653,   0.00000,   0.00000,   0.00000,-169539835.28135,   0.00000
-271156693.90665,-118894031.25075,113415095.48058,  -0.00100,  -0.00001,   0.00147,306613408.91563,   0.00000,274640135.82653,   0.00000,   0.00000,   0.00000,-168026726.91090,   0.00000
-272287357.24321,-119169665.59647,114078867.98662,  -0.00101,  -0.00001,   0.00148,308115863.21929,   0.00000,274640135.82653,   0.00000,   0.00000,   0.00000,-166524272.60724,   0.00000
-273418020.57976,-119445299.94220,114742640.49265,  -0.00101,  -0.00001,   0.00149,309618663.55238,   0.00000,274640135.82653,   0.00000,   0.00000,   0.00000,-165021472.27415,   0.00000
-274528995.74876,-119712496.50183,115412038.18942,  -0.00102,  -0.00001,   0.00150,311114955.53799,   0.00000,274640135.82653,   0.00000,   0.00000,   0.00000,-163525180.28854,   0.00000
-275631533.13167,-119960004.89392,116075810.69546,  -0.00102,  -0.00001,   0.00151,312600649.79634,   0.00000,274640135.82653,   0.00000,   0.00000,   0.00000,-162039486.03019,   0.00000
-276742508.30067,-120227201.45355,116733958.01076,  -0.00102,  -0.00001,   0.00152,314085130.86781,   0.00000,274640135.82653,   0.00000,   0.00000,   0.00000,-160555004.95872,   0.00000
-277825357.51603,-120466272.05954,117397730.51680,  -0.00103,  -0.00001,   0.00153,315558470.44685,   0.00000,274640135.82653,   0.00000,   0.00000,   0.00000,-159081665.37968,   0.00000
-278908206.73138,-120705342.66552,118055877.83211,  -0.00103,  -0.00001,   0.00153,317025910.19743,   0.00000,274640135.82653,   0.00000,   0.00000,   0.00000,-157614225.62910,   0.00000
-279991055.94674,-120944413.27151,118719650.33814,  -0.00104,  -0.00000,   0.00154,318500007.31279,   0.00000,274640135.82653,   0.00000,   0.00000,   0.00000,-156140128.51374,   0.00000
-281054216.99454,-121175046.09141,119377797.65345,  -0.00104,  -0.00000,   0.00155,319955126.08011,   0.00000,274640135.82653,   0.00000,   0.00000,   0.00000,-154685009.74642,   0.00000
-282108940.25626,-121385990.74375,120030319.77803,  -0.00105,  -0.00000,   0.00156,321399708.63198,   0.00000,274640135.82653,   0.00000,   0.00000,   0.00000,-153240427.19455,   0.00000
-283152413.13651,-121608185.77755,120688467.09334,  -0.00105,  -0.00000,   0.00157,322842541.99391,   0.00000,274640135.82653,   0.00000,   0.00000,   0.00000,-151797593.83262,   0.00000
-284187448.23067,-121810692.64380,121346614.40864,  -0.00106,  -0.00000,   0.00158,324281179.14842,   0.00000,274640135.82653,   0.00000,   0.00000,   0.00000,-150358956.67811,   0.00000
-285222483.32483,-122013199.51005,121999136.53322,  -0.00106,   0.00000,   0.00159,325713902.11434,   0.00000,274640135.82653,   0.00000,   0.00000,   0.00000,-148926233.71219,   0.00000
-286249080.63289,-122196018.20874,122651658.65780,  -0.00106,   0.00000,   0.00159,327142466.32702,   0.00000,274640135.82653,   0.00000,   0.00000,   0.00000,-147497669.49951,   0.00000
-287264427.55950,-122390087.28890,123304180.78238,  -0.00107,   0.00000,   0.00160,328562976.36665,   0.00000,274640135.82653,   0.00000,   0.00000,   0.00000,-146077159.45988,   0.00000
-288271336.70001,-122564468.20150,123951077.71623,  -0.00107,   0.00000,   0.00161,329973026.69915,   0.00000,274640135.82653,   0.00000,   0.00000,   0.00000,-144667109.12738,   0.00000
-289258557.67297,-122730411.32801,124603599.84081,  -0.00108,   0.00001,   0.00162,331376849.77726,   0.00000,274640135.82653,   0.00000,   0.00000,   0.00000,-143263286.04927,   0.00000
-290245778.64593,-122896354.45452,125250496.77466,  -0.00108,   0.00001,   0.00163,332774756.69812,   0.00000,274640135.82653,   0.00000,   0.00000,   0.00000,-141865379.12841,   0.00000
-291232999.61889,-123062297.58103,125897393.70851,  -0.00109,   0.00001,   0.00164,334173081.37582,   0.00000,274640135.82653,   0.00000,   0.00000,   0.00000,-140467054.45071,   0.00000
-292200532.42430,-123219802.92144,126544290.64235,  -0.00109,   0.00001,   0.00165,335558864.35127,   0.00000,274640135.82653,   0.00000,   0.00000,   0.00000,-139081271.47526,   0.00000
-293159627.44362,-123357620.09431,127191187.57620,  -0.00109,   0.00001,   0.00165,336940633.10941,   0.00000,274640135.82653,   0.00000,   0.00000,   0.00000,-137699502.71712,   0.00000
-294118722.46293,-123495437.26717,127832459.31932,  -0.00110,   0.00001,   0.00166,338316477.06976,   0.00000,274640135.82653,   0.00000,   0.00000,   0.00000,-136323658.75677,   0.00000
-295058129.31470,-123624816.65394,128479356.25317,  -0.00110,   0.00001,   0.00167,339686212.22875,   0.00000,274640135.82653,   0.00000,   0.00000,   0.00000,-134953923.59778,   0.00000
-295997536.16646,-123754196.04071,129120627.99629,  -0.00111,   0.00001,   0.00168,341050018.41146,   0.00000,274640135.82653,   0.00000,   0.00000,   0.00000,-133590117.41507,   0.00000
-296936943.01822,-123883575.42748,129761899.73941,  -0.00111,   0.00002,   0.00169,342414266.76476,   0.00000,274640135.82653,   0.00000,   0.00000,   0.00000,-132225869.06177,   0.00000
-297848223.91634,-123984828.86060,130403171.48253,  -0.00111,   0.00002,   0.00170,343761694.50234,   0.00000,274640135.82653,   0.00000,   0.00000,   0.00000,-130878441.32419,   0.00000
-298767942.60055,-124105770.46128,131038818.03492,  -0.00112,   0.00002,   0.00170,345107542.04733,   0.00000,274640135.82653,   0.00000,   0.00000,   0.00000,-129532593.77920,   0.00000
-299679223.49867,-124207023.89440,131680089.77804,  -0.00112,   0.00002,   0.00171,346455906.91974,   0.00000,274640135.82653,   0.00000,   0.00000,   0.00000,-128184228.90679,   0.00000
-300570816.22924,-124299839.54143,132315736.33044,  -0.00113,   0.00002,   0.00172,347785456.41329,   0.00000,274640135.82653,   0.00000,   0.00000,   0.00000,-126854679.41324,   0.00000
-301462408.95980,-124392655.18846,132951382.88283,  -0.00113,   0.00002,   0.00173,349115479.20714,   0.00000,274640135.82653,   0.00000,   0.00000,   0.00000,-125524656.61939,   0.00000
-302325875.73672,-124457344.88185,133587029.43522,  -0.00113,   0.00002,   0.00174,350428842.06600,   0.00000,274640135.82653,   0.00000,   0.00000,   0.00000,-124211293.76053,   0.00000
-303209030.68120,-124530472.36133,134222675.98761,  -0.00114,   0.00002,   0.00174,351755556.12675,   0.00000,274640135.82653,   0.00000,   0.00000,   0.00000,-122884579.69978,   0.00000
-304061247.07666,-124606412.43617,134852697.34927,  -0.00114,   0.00003,   0.00175,353054909.01849,   0.00000,274640135.82653,   0.00000,   0.00000,   0.00000,-121585226.80804,   0.00000
-304924713.85358,-124671102.12956,135482718.71093,  -0.00114,   0.00003,   0.00176,354363324.69675,   0.00000,274640135.82653,   0.00000,   0.00000,   0.00000,-120276811.12978,   0.00000
-305760054.67685,-124707665.86930,136112740.07259,  -0.00115,   0.00003,   0.00177,355655204.17667,   0.00000,274640135.82653,   0.00000,   0.00000,   0.00000,-118984931.64986,   0.00000
-306603833.28622,-124763917.77659,136742761.43425,  -0.00115,   0.00003,   0.00178,356951815.70158,   0.00000,274640135.82653,   0.00000,   0.00000,   0.00000,-117688320.12495,   0.00000
-307427923.72804,-124811731.89778,137372782.79592,  -0.00116,   0.00003,   0.00179,358236136.46881,   0.00000,274640135.82653,   0.00000,   0.00000,   0.00000,-116403999.35772,   0.00000
-308243576.38376,-124839857.85143,137997178.96685,  -0.00116,   0.00003,   0.00179,359510323.13312,   0.00000,274640135.82653,   0.00000,   0.00000,   0.00000,-115129812.69341,   0.00000
-309059229.03948,-124867983.80508,138627200.32851,  -0.00116,   0.00003,   0.00180,360791518.24880,   0.00000,274640135.82653,   0.00000,   0.00000,   0.00000,-113848617.57773,   0.00000
-309855193.52766,-124887671.97263,139251596.49944,  -0.00117,   0.00004,   0.00181,362054000.36657,   0.00000,274640135.82653,   0.00000,   0.00000,   0.00000,-112586135.45996,   0.00000
-310651158.01583,-124907360.14018,139875992.67038,  -0.00117,   0.00004,   0.00182,363317016.52701,   0.00000,274640135.82653,   0.00000,   0.00000,   0.00000,-111323119.29952,   0.00000
-311438684.71790,-124907360.14018,140500388.84131,  -0.00117,   0.00004,   0.00183,364576462.20792,   0.00000,274640135.82653,   0.00000,   0.00000,   0.00000,-110063673.61861,   0.00000
-312214961.03852,-124918610.52164,141119159.82151,  -0.00118,   0.00004,   0.00183,365821314.08672,   0.00000,274640135.82653,   0.00000,   0.00000,   0.00000,-108818821.73981,   0.00000
-312982799.57305,-124910172.73554,141737930.80172,  -0.00118,   0.00004,   0.00184,367062626.27424,   0.00000,274640135.82653,   0.00000,   0.00000,   0.00000,-107577509.55229,   0.00000
-313730949.94002,-124893297.16336,142362326.97265,  -0.00118,   0.00004,   0.00185,368298314.26386,   0.00000,274640135.82653,   0.00000,   0.00000,   0.00000,-106341821.56267,   0.00000
-314479100.30699,-124876421.59117,142981097.95285,  -0.00119,   0.00005,   0.00186,369528055.23150,   0.00000,274640135.82653,   0.00000,   0.00000,   0.00000,-105112080.59503,   0.00000
-315218812.88787,-124839857.85143,143594243.74233,  -0.00119,   0.00005,   0.00187,370747810.27213,   0.00000,274640135.82653,   0.00000,   0.00000,   0.00000,-103892325.55440,   0.00000
-315966963.25485,-124822982.27924,144213014.72253,  -0.00119,   0.00005,   0.00187,371978683.48129,   0.00000,274640135.82653,   0.00000,   0.00000,   0.00000,-102661452.34524,   0.00000
-316686987.66818,-124777980.75341,144826160.51200,  -0.00120,   0.00005,   0.00188,373186923.79701,   0.00000,274640135.82653,   0.00000,   0.00000,   0.00000,-101453212.02952,   0.00000
-317395761.70004,-124744229.60904,145444931.49221,  -0.00120,   0.00005,   0.00189,374393625.58914,   0.00000,274640135.82653,   0.00000,   0.00000,   0.00000,-100246510.23739,   0.00000
-318115786.11337,-124699228.08320,146058077.28168,  -0.00120,   0.00005,   0.00190,375603040.06667,   0.00000,274640135.82653,   0.00000,   0.00000,   0.00000,-99037095.75986,   0.00000
-318807684.57305,-124626100.60372,146665597.88043,  -0.00121,   0.00005,   0.00191,376789913.51753,   0.00000,274640135.82653,   0.00000,   0.00000,   0.00000,-97850222.30900,   0.00000
-319488332.65128,-124564223.50570,147278743.66990,  -0.00121,   0.00006,   0.00191,377975276.19275,   0.00000,274640135.82653,   0.00000,   0.00000,   0.00000,-96664859.63377,   0.00000
-320188668.89705,-124510784.19378,147891889.45938,  -0.00121,   0.00006,   0.00192,379173851.57718,   0.00000,274640135.82653,   0.00000,   0.00000,   0.00000,-95466284.24934,   0.00000
-320860879.18918,-124429218.92820,148499410.05812,  -0.00122,   0.00006,   0.00193,380349957.40481,   0.00000,274640135.82653,   0.00000,   0.00000,   0.00000,-94290178.42172,   0.00000
-321513401.31376,-124339215.87654,149106930.65687,  -0.00122,   0.00006,   0.00194,381514107.11233,   0.00000,274640135.82653,   0.00000,   0.00000,   0.00000,-93126028.71420,   0.00000
-322165923.43834,-124249212.82487,149714451.25561,  -0.00122,   0.00006,   0.00195,382678896.03501,   0.00000,274640135.82653,   0.00000,   0.00000,   0.00000,-91961239.79152,   0.00000
-322818445.56292,-124159209.77321,150316346.66363,  -0.00123,   0.00006,   0.00195,383837709.57106,   0.00000,274640135.82653,   0.00000,   0.00000,   0.00000,-90802426.25546,   0.00000
-323470967.68750,-124069206.72154,150923867.26237,  -0.00123,   0.00007,   0.00196,385003752.92074,   0.00000,274640135.82653,   0.00000,   0.00000,   0.00000,-89636382.90579,   0.00000
-324095363.85843,-123951077.71623,151525762.67039,  -0.00123,   0.00007,   0.00197,386147478.51953,   0.00000,274640135.82653,   0.00000,   0.00000,   0.00000,-88492657.30700,   0.00000
-324700071.86181,-123824510.92482,152127658.07841,  -0.00124,   0.00007,   0.00198,387279345.73710,   0.00000,274640135.82653,   0.00000,   0.00000,   0.00000,-87360790.08943,   0.00000
-325332905.81884,-123726070.08706,152729553.48642,  -0.00124,   0.00007,   0.00199,388428149.91351,   0.00000,274640135.82653,   0.00000,   0.00000,   0.00000,-86211985.91302,   0.00000
-325937613.82222,-123599503.29566,153331448.89444,  -0.00124,   0.00007,   0.00199,389561340.23471,   0.00000,274640135.82653,   0.00000,   0.00000,   0.00000,-85078795.59182,   0.00000
-326514195.87195,-123444810.55061,153927719.11173,  -0.00124,   0.00008,   0.00200,390672351.77205,   0.00000,274640135.82653,   0.00000,   0.00000,   0.00000,-83967784.05448,   0.00000
-327118903.87533,-123318243.75920,154529614.51974,  -0.00125,   0.00008,   0.00201,391806895.14220,   0.00000,274640135.82653,   0.00000,   0.00000,   0.00000,-82833240.68433,   0.00000
-327703923.71116,-123183239.18170,155125884.73703,  -0.00125,   0.00008,   0.00202,392922971.53772,   0.00000,274640135.82653,   0.00000,   0.00000,   0.00000,-81717164.28881,   0.00000
-328260817.59335,-123020108.65056,155722154.95432,  -0.00125,   0.00008,   0.00202,394023601.68427,   0.00000,274640135.82653,   0.00000,   0.00000,   0.00000,-80616534.14226,   0.00000
-328817711.47553,-122856978.11941,156312799.98087,  -0.00126,   0.00008,   0.00203,395118271.38491,   0.00000,274640135.82653,   0.00000,   0.00000,   0.00000,-79521864.44162,   0.00000
-329374605.35771,-122693847.58827,156909070.19816,  -0.00126,   0.00008,   0.00204,396220320.26729,   0.00000,274640135.82653,   0.00000,   0.00000,   0.00000,-78419815.55924,   0.00000
-329911811.07234,-122522279.27103,157499715.22472,  -0.00126,   0.00009,   0.00205,397303971.58774,   0.00000,274640135.82653,   0.00000,   0.00000,   0.00000,-77336164.23879,   0.00000
-330449016.78698,-122350710.95379,158090360.25128,  -0.00126,   0.00009,   0.00206,398388331.95972,   0.00000,274640135.82653,   0.00000,   0.00000,   0.00000,-76251803.86681,   0.00000
-330986222.50161,-122179142.63655,158681005.27784,  -0.00127,   0.00009,   0.00206,399473395.60912,   0.00000,274640135.82653,   0.00000,   0.00000,   0.00000,-75166740.21741,   0.00000
-331495302.26259,-121979448.36567,159271650.30439,  -0.00127,   0.00009,   0.00207,400543234.76001,   0.00000,274640135.82653,   0.00000,   0.00000,   0.00000,-74096901.06652,   0.00000
-332004382.02358,-121779754.09479,159856670.14022,  -0.00127,   0.00009,   0.00208,401607110.43753,   0.00000,274640135.82653,   0.00000,   0.00000,   0.00000,-73033025.38900,   0.00000
-332521899.57066,-121599747.99146,160447315.16678,  -0.00128,   0.00010,   0.00209,402681953.96481,   0.00000,274640135.82653,   0.00000,   0.00000,   0.00000,-71958181.86172,   0.00000
-333011291.16409,-121391615.93448,161032335.00261,  -0.00128,   0.00010,   0.00209,403734943.31343,   0.00000,274640135.82653,   0.00000,   0.00000,   0.00000,-70905192.51310,   0.00000
-333472556.80388,-121155357.92385,161617354.83844,  -0.00128,   0.00010,   0.00210,404772884.55693,   0.00000,274640135.82653,   0.00000,   0.00000,   0.00000,-69867251.26960,   0.00000
-333961948.39731,-120947225.86688,162202374.67427,  -0.00128,   0.00010,   0.00211,405827394.67461,   0.00000,274640135.82653,   0.00000,   0.00000,   0.00000,-68812741.15192,   0.00000
-334431651.82319,-120730656.02381,162781769.31937,  -0.00129,   0.00010,   0.00212,406863590.89211,   0.00000,274640135.82653,   0.00000,   0.00000,   0.00000,-67776544.93442,   0.00000
-334873229.29543,-120485960.22709,163361163.96447,  -0.00129,   0.00010,   0.00212,407884828.59756,   0.00000,274640135.82653,   0.00000,   0.00000,   0.00000,-66755307.22897,   0.00000
-335334494.93522,-120249702.21647,163946183.80029,  -0.00129,   0.00011,   0.00213,408925903.75981,   0.00000,274640135.82653,   0.00000,   0.00000,   0.00000,-65714232.06672,   0.00000
-335756384.23990,-119996568.63366,164519953.25467,  -0.00129,   0.00011,   0.00214,409929697.74441,   0.00000,274640135.82653,   0.00000,   0.00000,   0.00000,-64710438.08212,   0.00000
-336197961.71214,-119751872.83694,165099347.89976,  -0.00130,   0.00011,   0.00215,410953317.27478,   0.00000,274640135.82653,   0.00000,   0.00000,   0.00000,-63686818.55175,   0.00000
-336619851.01682,-119498739.25413,165678742.54486,  -0.00130,   0.00011,   0.00215,411965486.62629,   0.00000,274640135.82653,   0.00000,   0.00000,   0.00000,-62674649.20024,   0.00000
-337041740.32151,-119245605.67132,166252511.99924,  -0.00130,   0.00011,   0.00216,412971664.84867,   0.00000,274640135.82653,   0.00000,   0.00000,   0.00000,-61668470.97786,   0.00000
-337435503.67255,-118964346.13486,166826281.45361,  -0.00130,   0.00012,   0.00217,413963120.68089,   0.00000,274640135.82653,   0.00000,   0.00000,   0.00000,-60677015.14564,   0.00000
-337837704.80968,-118702774.76596,167400050.90798,  -0.00131,   0.00012,   0.00218,414958698.76256,   0.00000,274640135.82653,   0.00000,   0.00000,   0.00000,-59681437.06397,   0.00000
-338211779.99317,-118413077.44341,167973820.36235,  -0.00131,   0.00012,   0.00218,415939635.42866,   0.00000,274640135.82653,   0.00000,   0.00000,   0.00000,-58700500.39787,   0.00000
-338605543.34420,-118131817.90695,168541964.62599,  -0.00131,   0.00012,   0.00219,416926772.36748,   0.00000,274640135.82653,   0.00000,   0.00000,   0.00000,-57713363.45905,   0.00000
-338959930.36014,-117833682.79831,169115734.08036,  -0.00131,   0.00012,   0.00220,417897246.72075,   0.00000,274640135.82653,   0.00000,   0.00000,   0.00000,-56742889.10578,   0.00000
-339334005.54363,-117543985.47576,169683878.34400,  -0.00131,   0.00013,   0.00221,418873895.26007,   0.00000,274640135.82653,   0.00000,   0.00000,   0.00000,-55766240.56646,   0.00000
-339688392.55956,-117245850.36711,170246397.41691,  -0.00132,   0.00013,   0.00221,419832402.89767,   0.00000,274640135.82653,   0.00000,   0.00000,   0.00000,-54807732.92886,   0.00000
-340014653.62185,-116919589.30482,170814541.68055,  -0.00132,   0.00013,   0.00222,420783322.30534,   0.00000,274640135.82653,   0.00000,   0.00000,   0.00000,-53856813.52119,   0.00000
-340369040.63778,-116621454.19618,171382685.94420,  -0.00132,   0.00013,   0.00223,421750388.31674,   0.00000,274640135.82653,   0.00000,   0.00000,   0.00000,-52889747.50979,   0.00000
-340675613.53252,-116286755.34780,171945205.01711,  -0.00132,   0.00014,   0.00224,422684139.73839,   0.00000,274640135.82653,   0.00000,   0.00000,   0.00000,-51955996.08813,   0.00000
-341001874.59481,-115960494.28551,172507724.09002,  -0.00133,   0.00014,   0.00224,423630869.26471,   0.00000,274640135.82653,   0.00000,   0.00000,   0.00000,-51009266.56182,   0.00000
-341308447.48955,-115625795.43713,173070243.16293,  -0.00133,   0.00014,   0.00225,424566422.80476,   0.00000,274640135.82653,   0.00000,   0.00000,   0.00000,-50073713.02177,   0.00000
-341595332.21673,-115282658.80265,173627137.04512,  -0.00133,   0.00014,   0.00226,425483950.85573,   0.00000,274640135.82653,   0.00000,   0.00000,   0.00000,-49156184.97080,   0.00000
-341901905.11147,-114947959.95427,174189656.11803,  -0.00133,   0.00014,   0.00226,426421304.12892,   0.00000,274640135.82653,   0.00000,   0.00000,   0.00000,-48218831.69761,   0.00000
-342188789.83866,-114604823.31979,174746550.00021,  -0.00133,   0.00015,   0.00227,427340634.42278,   0.00000,274640135.82653,   0.00000,   0.00000,   0.00000,-47299501.40375,   0.00000
-342447548.61219,-114233560.73167,175303443.88239,  -0.00134,   0.00015,   0.00228,428245863.28092,   0.00000,274640135.82653,   0.00000,   0.00000,   0.00000,-46394272.54561,   0.00000
-342714745.17183,-113881986.31110,175860337.76458,  -0.00134,   0.00015,   0.00229,429155033.34121,   0.00000,274640135.82653,   0.00000,   0.00000,   0.00000,-45485102.48532,   0.00000
-342973503.94537,-113510723.72298,176411606.45603,  -0.00134,   0.00015,   0.00229,430055232.30770,   0.00000,274640135.82653,   0.00000,   0.00000,   0.00000,-44584903.51883,   0.00000
-343212574.55136,-113131023.34876,176962875.14749,  -0.00134,   0.00015,   0.00230,430944413.50404,   0.00000,274640135.82653,   0.00000,   0.00000,   0.00000,-43695722.32249,   0.00000
-343451645.15734,-112751322.97454,177519769.02967,  -0.00134,   0.00016,   0.00231,431841488.52740,   0.00000,274640135.82653,   0.00000,   0.00000,   0.00000,-42798647.29913,   0.00000
-343671027.59578,-112363184.81424,178065412.53039,  -0.00134,   0.00016,   0.00231,432713719.14945,   0.00000,274640135.82653,   0.00000,   0.00000,   0.00000,-41926416.67708,   0.00000
-343890410.03421,-111975046.65393,178616681.22185,  -0.00135,   0.00016,   0.00232,433593861.70857,   0.00000,274640135.82653,   0.00000,   0.00000,   0.00000,-41046274.11796,   0.00000
-344109792.47265,-111586908.49362,179167949.91330,  -0.00135,   0.00016,   0.00233,434474973.18803,   0.00000,274640135.82653,   0.00000,   0.00000,   0.00000,-40165162.63850,   0.00000
-344301048.95744,-111170644.37966,179713593.41403,  -0.00135,   0.00017,   0.00234,435335367.25740,   0.00000,274640135.82653,   0.00000,   0.00000,   0.00000,-39304768.56913,   0.00000
-344500743.22832,-110774068.43326,180259236.91475,  -0.00135,   0.00017,   0.00234,436199592.95683,   0.00000,274640135.82653,   0.00000,   0.00000,   0.00000,-38440542.86970,   0.00000
-344672311.54556,-110349366.53321,180804880.41548,  -0.00135,   0.00017,   0.00235,437050143.74327,   0.00000,274640135.82653,   0.00000,   0.00000,   0.00000,-37589992.08325,   0.00000
-344843879.86280,-109924664.63316,181344898.72547,  -0.00135,   0.00017,   0.00236,437894738.96141,   0.00000,274640135.82653,   0.00000,   0.00000,   0.00000,-36745396.86512,   0.00000
-345023885.96613,-109519650.90066,181890542.22620,  -0.00136,   0.00017,   0.00236,438750097.81332,   0.00000,274640135.82653,   0.00000,   0.00000,   0.00000,-35890038.01321,   0.00000
-345175766.11582,-109086511.21452,182430560.53619,  -0.00136,   0.00018,   0.00237,439584900.34790,   0.00000,274640135.82653,   0.00000,   0.00000,   0.00000,-35055235.47863,   0.00000
-345319208.47941,-108633683.36083,182970578.84619,  -0.00136,   0.00018,   0.00238,440418021.34217,   0.00000,274640135.82653,   0.00000,   0.00000,   0.00000,-34222114.48436,   0.00000
-345451400.46155,-108192105.88859,183504971.96546,  -0.00136,   0.00018,   0.00239,441236117.70512,   0.00000,274640135.82653,   0.00000,   0.00000,   0.00000,-33404018.12141,   0.00000
-345583592.44368,-107750528.41635,184044990.27545,  -0.00136,   0.00018,   0.00239,442062276.58434,   0.00000,274640135.82653,   0.00000,   0.00000,   0.00000,-32577859.24219,   0.00000
-345715784.42582,-107308950.94412,184579383.39472,  -0.00136,   0.00019,   0.00240,442882447.97627,   0.00000,274640135.82653,   0.00000,   0.00000,   0.00000,-31757687.85026,   0.00000
-345819850.45430,-106839247.51824,185113776.51399,  -0.00137,   0.00019,   0.00241,443689296.63099,   0.00000,274640135.82653,   0.00000,   0.00000,   0.00000,-30950839.19554,   0.00000
-345923916.48279,-106369544.09235,185648169.63325,  -0.00137,   0.00019,   0.00241,444497238.77975,   0.00000,274640135.82653,   0.00000,   0.00000,   0.00000,-30142897.04678,   0.00000
-346016732.12982,-105911091.04793,186176937.56179,  -0.00137,   0.00019,   0.00242,445290113.00467,   0.00000,274640135.82653,   0.00000,   0.00000,   0.00000,-29350022.82186,   0.00000
-346101109.99076,-105432949.83596,186711330.68106,  -0.00137,   0.00020,   0.00243,446088541.98936,   0.00000,274640135.82653,   0.00000,   0.00000,   0.00000,-28551593.83717,   0.00000
-346165799.68415,-104946370.83789,187240098.60959,  -0.00137,   0.00020,   0.00243,446869355.42723,   0.00000,274640135.82653,   0.00000,   0.00000,   0.00000,-27770780.39929,   0.00000
-346250177.54508,-104468229.62591,187768866.53813,  -0.00137,   0.00020,   0.00244,447662925.78057,   0.00000,274640135.82653,   0.00000,   0.00000,   0.00000,-26977210.04595,   0.00000
-346295179.07092,-103973212.84175,188292009.27594,  -0.00137,   0.00020,   0.00245,448427251.56740,   0.00000,274640135.82653,   0.00000,   0.00000,   0.00000,-26212884.25913,   0.00000
-346331742.81065,-103458507.89003,188820777.20448,  -0.00137,   0.00020,   0.00245,449197318.89144,   0.00000,274640135.82653,   0.00000,   0.00000,   0.00000,-25442816.93509,   0.00000
-346376744.33649,-102963491.10587,189343919.94229,  -0.00138,   0.00021,   0.00246,449963921.59863,   0.00000,274640135.82653,   0.00000,   0.00000,   0.00000,-24676214.22790,   0.00000
-346421745.86232,-102468474.32171,189867062.68009,  -0.00138,   0.00021,   0.00247,450731639.60171,   0.00000,274640135.82653,   0.00000,   0.00000,   0.00000,-23908496.22482,   0.00000
-346438621.43451,-101945331.58390,190384580.22717,  -0.00138,   0.00021,   0.00247,451479383.89523,   0.00000,274640135.82653,   0.00000,   0.00000,   0.00000,-23160751.93130,   0.00000
-346444246.62524,-101433439.22755,190907722.96498,  -0.00138,   0.00021,   0.00248,452226274.38096,   0.00000,274640135.82653,   0.00000,   0.00000,   0.00000,-22413861.44557,   0.00000
-346441434.02987,-100901858.70365,191425240.51206,  -0.00138,   0.00022,   0.00249,452964828.42739,   0.00000,274640135.82653,   0.00000,   0.00000,   0.00000,-21675307.39914,   0.00000
-346438621.43451,-100370278.17974,191942758.05914,  -0.00138,   0.00022,   0.00250,453704570.69748,   0.00000,274640135.82653,   0.00000,   0.00000,   0.00000,-20935565.12905,   0.00000
-346416120.67159,-99830259.86975,192460275.60622,  -0.00138,   0.00022,   0.00250,454434011.88332,   0.00000,274640135.82653,   0.00000,   0.00000,   0.00000,-20206123.94321,   0.00000
-346393619.90867,-99290241.55975,192972167.96257,  -0.00138,   0.00022,   0.00251,455157509.67271,   0.00000,274640135.82653,   0.00000,   0.00000,   0.00000,-19482626.15382,   0.00000
-346351430.97821,-98741785.46366,193484060.31892,  -0.00138,   0.00023,   0.00252,455870749.26673,   0.00000,274640135.82653,   0.00000,   0.00000,   0.00000,-18769386.55980,   0.00000
-346309242.04774,-98193329.36757,193995952.67527,  -0.00138,   0.00023,   0.00252,456585208.42850,   0.00000,274640135.82653,   0.00000,   0.00000,   0.00000,-18054927.39803,   0.00000
-346267053.11727,-97644873.27148,194507845.03162,  -0.00139,   0.00023,   0.00253,457300881.44189,   0.00000,274640135.82653,   0.00000,   0.00000,   0.00000,-17339254.38464,   0.00000
-346196738.23316,-97068291.22175,195019737.38797,  -0.00139,   0.00023,   0.00254,458004151.54207,   0.00000,274640135.82653,   0.00000,   0.00000,   0.00000,-16635984.28446,   0.00000
-346134861.13514,-96511397.33957,195526004.55359,  -0.00139,   0.00024,   0.00254,458703704.10916,   0.00000,274640135.82653,   0.00000,   0.00000,   0.00000,-15936431.71737,   0.00000
-346053295.86956,-95946065.67129,196032271.71921,  -0.00139,   0.00024,   0.00255,459393114.35295,   0.00000,274640135.82653,   0.00000,   0.00000,   0.00000,-15247021.47358,   0.00000
-345963292.81790,-95361045.83546,196538538.88483,  -0.00139,   0.00024,   0.00256,460081622.55995,   0.00000,274640135.82653,   0.00000,   0.00000,   0.00000,-14558513.26658,   0.00000
-345853601.59868,-94767588.21354,197039180.85973,  -0.00139,   0.00024,   0.00256,460752877.57944,   0.00000,274640135.82653,   0.00000,   0.00000,   0.00000,-13887258.24709,   0.00000
-345752348.16555,-94193818.75917,197545448.02535,  -0.00139,   0.00025,   0.00257,461434762.28214,   0.00000,274640135.82653,   0.00000,   0.00000,   0.00000,-13205373.54439,   0.00000
-345622968.77878,-93591923.35115,198046090.00024,  -0.00139,   0.00025,   0.00257,462097313.94462,   0.00000,274640135.82653,   0.00000,   0.00000,   0.00000,-12542821.88191,   0.00000
-345493589.39202,-92990027.94313,198541106.78440,  -0.00139,   0.00025,   0.00258,462753952.25285,   0.00000,274640135.82653,   0.00000,   0.00000,   0.00000,-11886183.57368,   0.00000
-345364210.00525,-92388132.53512,199041748.75929,  -0.00139,   0.00025,   0.00259,463419144.43244,   0.00000,274640135.82653,   0.00000,   0.00000,   0.00000,-11220991.39409,   0.00000
-345215142.45092,-91777799.34101,199536765.54346,  -0.00139,   0.00026,   0.00259,464067166.86982,   0.00000,274640135.82653,   0.00000,   0.00000,   0.00000,-10572968.95671,   0.00000
-345066074.89660,-91167466.14690,200031782.32762,  -0.00139,   0.00026,   0.00260,464716521.17189,   0.00000,274640135.82653,   0.00000,   0.00000,   0.00000,-9923614.65464,   0.00000
-344897319.17473,-90548695.16670,200526799.11178,  -0.00139,   0.00026,   0.00261,465356010.21003,   0.00000,274640135.82653,   0.00000,   0.00000,   0.00000,-9284125.61650,   0.00000
-344728563.45285,-89929924.18649,201016190.70522,  -0.00139,   0.00026,   0.00261,465989578.12931,   0.00000,274640135.82653,   0.00000,   0.00000,   0.00000,-8650557.69722,   0.00000
-344531681.77734,-89283027.25264,201511207.48938,  -0.00139,   0.00027,   0.00262,466618695.94099,   0.00000,274640135.82653,   0.00000,   0.00000,   0.00000,-8021439.88554,   0.00000
-344343237.88791,-88655818.48635,202000599.08281,  -0.00139,   0.00027,   0.00263,467243848.67526,   0.00000,274640135.82653,   0.00000,   0.00000,   0.00000,-7396287.15127,   0.00000
-344154793.99848,-88028609.72005,202484365.48552,  -0.00139,   0.00027,   0.00263,467863062.35417,   0.00000,274640135.82653,   0.00000,   0.00000,   0.00000,-6777073.47236,   0.00000
-343938224.15541,-87373275.00011,202973757.07895,  -0.00139,   0.00027,   0.00264,468477982.79693,   0.00000,274640135.82653,   0.00000,   0.00000,   0.00000,-6162153.02960,   0.00000
-343710403.93088,-86729190.66162,203457523.48166,  -0.00139,   0.00028,   0.00264,469077776.82609,   0.00000,274640135.82653,   0.00000,   0.00000,   0.00000,-5562359.00043,   0.00000
-343493834.08781,-86073855.94168,203941289.88436,  -0.00140,   0.00028,   0.00265,469688229.68005,   0.00000,274640135.82653,   0.00000,   0.00000,   0.00000,-4951906.14648,   0.00000
-343237887.90964,-85401645.64955,204425056.28706,  -0.00140,   0.00028,   0.00266,470278023.31543,   0.00000,274640135.82653,   0.00000,   0.00000,   0.00000,-4362112.51110,   0.00000
-343001629.89901,-84737873.14351,204903197.49904,  -0.00140,   0.00028,   0.00266,470872974.05124,   0.00000,274640135.82653,   0.00000,   0.00000,   0.00000,-3767161.77529,   0.00000
-342734433.33938,-84076913.23284,205381338.71102,  -0.00140,   0.00029,   0.00267,471449094.59414,   0.00000,274640135.82653,   0.00000,   0.00000,   0.00000,-3191041.23239,   0.00000
-342478487.16121,-83404702.94071,205859479.92299,  -0.00140,   0.00029,   0.00268,472035929.32963,   0.00000,274640135.82653,   0.00000,   0.00000,   0.00000,-2604206.49690,   0.00000
-342202852.81548,-82724054.86249,206331995.94424,  -0.00140,   0.00029,   0.00268,472605894.80934,   0.00000,274640135.82653,   0.00000,   0.00000,   0.00000,-2034241.01719,   0.00000
-341907530.30220,-82034968.99817,206810137.15621,  -0.00140,   0.00029,   0.00269,473173773.84954,   0.00000,274640135.82653,   0.00000,   0.00000,   0.00000,-1466361.97699,   0.00000
-341612207.78892,-81345883.13385,207282653.17746,  -0.00140,   0.00030,   0.00269,473735792.82783,   0.00000,274640135.82653,   0.00000,   0.00000,   0.00000,-904342.99870,   0.00000
-341316885.27564,-80656797.26953,207749544.00798,  -0.00140,   0.00030,   0.00270,474291922.13895,   0.00000,274640135.82653,   0.00000,   0.00000,   0.00000,-348213.68757,   0.00000
-341118833.17317,-80218253.32834,208046622.16168,  -0.00140,   0.00030,   0.00270,474640137.91143,   0.00000,274640135.82653,   0.00000,   0.00000,   0.00000,  -2.14434,   0.00000
-340865699.51666,-79939296.53353,208129374.06421,  -0.00140,   0.00030,   0.00271,474641613.27317,   0.00000,274641617.63462,  -0.00000,   0.00000,   0.00000,  -4.36145,   1.00000
-340176406.12309,-79181979.08237,208354186.86199,  -0.00140,   0.00030,   0.00271,474645481.98527,   0.00000,274645486.37675,  -0.00000,   0.00000,   0.00000,  -4.39148,   1.00000
-339479469.41926,-78405750.77479,208578825.97592,  -0.00140,   0.00031,   0.00272,474649353.91906,   0.00001,274649356.41192,  -0.00000,   0.00000,   0.00001,  -2.49286,   1.00000
-338789705.14140,-77649676.99394,208801882.95668,  -0.00140,   0.00031,   0.00273,474653246.54185,   0.00001,274653250.22230,  -0.00001,   0.00000,   0.00001,  -3.68045,   1.00000
-338091982.96519,-76887452.55997,209026669.31231,  -0.00139,   0.00031,   0.00273,474657016.65176,   0.00002,274657025.12631,  -0.00001,   0.00000,   0.00001,  -8.47454,   1.00000
-337394011.71463,-76125828.28683,209250579.87004,  -0.00139,   0.00031,   0.00274,474660802.89012,   0.00002,274660812.55429,  -0.00001,   0.00000,   0.00002,  -9.66417,   1.00000
-336675659.03522,-75337787.24650,209479132.25299,  -0.00139,   0.00032,   0.00274,474664516.21216,   0.00002,274664524.47317,  -0.00001,   0.00000,   0.00002,  -8.26101,   1.00000
-335969360.97544,-74570546.69049,209703873.30694,  -0.00139,   0.00032,   0.00275,474668202.50421,   0.00003,274668206.04616,  -0.00001,   0.00000,   0.00002,  -3.54195,   1.00000
-335250432.32240,-73783708.14112,209930611.14317,  -0.00139,   0.00032,   0.00276,474671941.86257,   0.00003,274671944.03724,  -0.00001,   0.00000,   0.00003,  -2.17467,   1.00000
-334518095.18702,-73002599.98150,210163250.62487,  -0.00139,   0.00032,   0.00276,474675489.84725,   0.00003,274675496.89312,  -0.00001,   0.00000,   0.00003,  -7.04587,   1.00000
-333795504.91794,-72210674.77091,210388527.27543,  -0.00139,   0.00033,   0.00277,474679069.72611,   0.00004,274679076.08276,  -0.00002,   0.00000,   0.00003,  -6.35665,   1.00000
-333067361.00953,-71431334.02348,210617115.71418,  -0.00139,   0.00033,   0.00277,474682593.77074,   0.00004,274682601.15935,  -0.00002,   0.00001,   0.00003,  -7.38861,   1.00000
-332313668.47307,-70624816.41320,210852438.62001,  -0.00139,   0.00033,   0.00278,474686106.53351,   0.00004,274686107.18428,  -0.00002,   0.00001,   0.00004,  -0.65077,   1.00000
-331569243.44244,-69820055.43766,211082378.71448,  -0.00139,   0.00033,   0.00278,474689511.35560,   0.00004,274689518.52599,  -0.00002,   0.00001,   0.00004,  -7.17039,   1.00000
-330827266.72214,-69034858.12429,211313011.05743,  -0.00139,   0.00034,   0.00279,474693000.31468,   0.00005,274693006.97385,  -0.00002,   0.00001,   0.00004,  -6.65918,   1.00000
-330069211.56366,-68223584.12532,211545898.68112,  -0.00139,   0.00034,   0.00280,474696365.03482,   0.00005,274696368.80501,  -0.00002,   0.00001,   0.00005,  -3.77019,   1.00000
-329310772.22314,-67412872.68783,211777831.11718,  -0.00139,   0.00034,   0.00280,474699741.10138,   0.00005,274699744.51410,  -0.00002,   0.00001,   0.00005,  -3.41272,   1.00000
-328543761.17865,-66595602.60525,212011421.18782,  -0.00139,   0.00035,   0.00281,474702997.33635,   0.00006,274703003.24283,  -0.00002,   0.00001,   0.00005,  -5.90648,   1.00000
-327758541.76895,-65770657.99950,212251016.23463,  -0.00139,   0.00035,   0.00281,474706254.30575,   0.00006,274706254.63940,  -0.00003,   0.00001,   0.00005,  -0.33365,   1.00000
-326998418.53537,-64974083.90869,212482136.36610,  -0.00139,   0.00035,   0.00282,474709542.18826,   0.00006,274709550.00207,  -0.00003,   0.00001,   0.00006,  -7.81381,   1.00000
-326208826.64592,-64143528.93020,212720225.75377,  -0.00139,   0.00035,   0.00282,474712638.24580,   0.00007,274712644.26897,  -0.00003,   0.00001,   0.00006,  -6.02317,   1.00000
-325414004.53559,-63312996.42326,212959479.69614,  -0.00139,   0.00036,   0.00283,474715803.54576,   0.00007,274715808.04460,  -0.00003,   0.00001,   0.00006,  -4.49884,   1.00000
-324623492.82080,-62483496.02258,213195583.15775,  -0.00139,   0.00036,   0.00284,474718925.97388,   0.00007,274718931.36042,  -0.00003,   0.00001,   0.00006,  -5.38654,   1.00000
-323837290.26401,-61655011.56194,213428558.75467,  -0.00138,   0.00036,   0.00284,474722011.51528,   0.00007,274722013.91222,  -0.00003,   0.00001,   0.00007,  -2.39694,   1.00000
-323019481.04749,-60811001.67517,213672188.17430,  -0.00138,   0.00036,   0.00285,474725011.82835,   0.00008,274725015.57444,  -0.00003,   0.00001,   0.00007,  -3.74610,   1.00000
-322219145.12660,-59975778.21129,213907917.55427,  -0.00138,   0.00037,   0.00285,474728047.46701,   0.00008,274728052.09520,  -0.00003,   0.00001,   0.00007,  -4.62819,   1.00000
-321405075.39607,-59133253.96364,214147386.47797,  -0.00138,   0.00037,   0.00286,474731024.55192,   0.00008,274731028.23781,  -0.00003,   0.00001,   0.00007,  -3.68588,   1.00000
-320581934.26546,-58283839.67420,214388449.92192,  -0.00138,   0.00037,   0.00286,474733882.15415,   0.00009,274733888.98842,  -0.00004,   0.00001,   0.00008,  -6.83426,   1.00000
-319758266.01378,-57434924.33170,214628488.81670,  -0.00138,   0.00037,   0.00287,474736760.78371,   0.00009,274736764.82162,  -0.00004,   0.00001,   0.00008,  -4.03791,   1.00000
-318920704.96695,-56578633.95278,214872210.48011,  -0.00138,   0.00038,   0.00287,474739571.30211,   0.00009,274739581.29264,  -0.00004,   0.00001,   0.00008,  -9.99053,   1.00000
-318082595.24545,-55722839.73825,215114886.25684,  -0.00138,   0.00038,   0.00288,474742403.47379,   0.00009,274742413.17556,  -0.00004,   0.00001,   0.00008,  -9.70177,   1.00000
-317235210.47437,-54860025.23746,215359127.57243,  -0.00138,   0.00038,   0.00289,474745122.10997,   0.00010,274745130.35280,  -0.00004,   0.00001,   0.00009,  -8.24283,   1.00000
-316387248.94218,-53997693.40024,215602313.55334,  -0.00138,   0.00038,   0.00289,474747862.92334,   0.00010,274747863.12076,  -0.00004,   0.00001,   0.00009,  -0.19741,   1.00000
-315543387.75074,-53136216.83946,215842362.49168,  -0.00137,   0.00039,   0.00290,474750546.66362,   0.00010,274750555.55902,  -0.00004,   0.00001,   0.00009,  -8.89539,   1.00000
-314672799.84938,-52247263.92689,216088471.33750,  -0.00137,   0.00039,   0.00290,474753238.07583,   0.00010,274753240.07536,  -0.00004,   0.00001,   0.00009,  -1.99953,   1.00000
-313805336.60928,-51371155.26115,216333678.30127,  -0.00137,   0.00039,   0.00291,474755751.21389,   0.00011,274755760.32898,  -0.00004,   0.00001,   0.00009,  -9.11509,   1.00000
-312932581.44480,-50495169.92446,216579861.56035,  -0.00137,   0.00040,   0.00291,474758347.09983,   0.00011,274758352.86844,  -0.00004,   0.00001,   0.00010,  -5.76862,   1.00000
-312063850.93106,-49619978.42809,216822908.32350,  -0.00137,   0.00040,   0.00292,474760896.12280,   0.00011,274760905.17816,  -0.00005,   0.00002,   0.00010,  -9.05536,   1.00000
-311180842.46605,-48737221.99150,217069523.60969,  -0.00137,   0.00040,   0.00292,474763391.56149,   0.00011,274763400.26437,  -0.00005,   0.00002,   0.00010,  -8.70288,   1.00000
-310283489.46170,-47846876.09592,217319674.61216,  -0.00137,   0.00040,   0.00293,474765831.36362,   0.00011,274765838.67408,  -0.00005,   0.00002,   0.00010,  -7.31046,   1.00000
-309390080.94369,-46957268.47805,217566680.22906,  -0.00136,   0.00041,   0.00293,474768233.13236,   0.00012,274768237.08969,  -0.00005,   0.00002,   0.00010,  -3.95733,   1.00000
-308487907.12859,-46048453.05552,217812846.79382,  -0.00136,   0.00041,   0.00294,474770646.36418,   0.00012,274770647.77369,  -0.00005,   0.00002,   0.00011,  -1.40951,   1.00000
-307579337.11724,-45151657.23092,218062225.42181,  -0.00136,   0.00041,   0.00294,474773005.17099,   0.00012,274773006.97932,  -0.00005,   0.00002,   0.00011,  -1.80833,   1.00000
-306674665.10786,-44255557.00937,218308468.65751,  -0.00136,   0.00041,   0.00295,474775324.63575,   0.00012,274775326.11886,  -0.00005,   0.00002,   0.00011,  -1.48311,   1.00000
-305755426.71264,-43351763.76603,218558180.11377,  -0.00136,   0.00042,   0.00295,474777583.33850,   0.00013,274777589.83433,  -0.00005,   0.00002,   0.00011,  -6.49583,   1.00000
-304826148.15797,-42440478.37856,218809348.04459,  -0.00136,   0.00042,   0.00296,474779738.01628,   0.00013,274779741.40652,  -0.00005,   0.00002,   0.00011,  -3.39024,   1.00000
-303896089.69380,-41529608.58043,219059351.28381,  -0.00136,   0.00042,   0.00296,474781901.74076,   0.00013,274781910.41516,  -0.00005,   0.00002,   0.00012,  -8.67440,   1.00000
-302965271.55148,-40619161.60703,219308198.35301,  -0.00135,   0.00042,   0.00297,474784092.32406,   0.00013,274784096.71663,  -0.00005,   0.00002,   0.00012,  -4.39257,   1.00000
-302011496.57966,-39681274.77209,219560628.77889,  -0.00135,   0.00043,   0.00297,474786220.92796,   0.00013,274786225.93063,  -0.00005,   0.00002,   0.00012,  -5.00267,   1.00000
-301069670.84031,-38763662.97636,219809718.27656,  -0.00135,   0.00043,   0.00298,474788312.57819,   0.00014,274788318.48317,  -0.00006,   0.00002,   0.00012,  -5.90499,   1.00000
-300112993.83708,-37838234.25999,220062176.09427,  -0.00135,   0.00043,   0.00298,474790353.01756,   0.00014,274790357.39581,  -0.00006,   0.00002,   0.00012,  -4.37825,   1.00000
-299160025.09077,-36913365.64392,220311492.16911,  -0.00135,   0.00043,   0.00299,474792348.85220,   0.00014,274792356.59233,  -0.00006,   0.00002,   0.00012,  -7.74013,   1.00000
-298192107.09024,-35980635.63823,220564146.18481,  -0.00134,   0.00044,   0.00299,474794297.63124,   0.00014,274794302.70677,  -0.00006,   0.00002,   0.00013,  -5.07554,   1.00000
-297209163.90041,-35040021.50041,220820097.15917,  -0.00134,   0.00044,   0.00300,474796188.53577,   0.00014,274796196.41222,  -0.00006,   0.00002,   0.00013,  -7.87644,   1.00000
-296225337.76161,-34099801.93472,221074811.03992,  -0.00134,   0.00044,   0.00300,474798102.46805,   0.00014,274798108.72374,  -0.00006,   0.00002,   0.00013,  -6.25570,   1.00000
-295245129.24267,-33160081.37614,221326375.42654,  -0.00134,   0.00045,   0.00301,474799977.04838,   0.00015,274799981.54814,  -0.00006,   0.00002,   0.00013,  -4.49976,   1.00000
-294254253.95549,-32212508.08335,221579291.70926,  -0.00134,   0.00045,   0.00301,474801739.31542,   0.00015,274801744.51269,  -0.00006,   0.00002,   0.00013,  -5.19727,   1.00000
-293257991.22035,-31265242.59223,221832860.83673,  -0.00133,   0.00045,   0.00302,474803577.29524,   0.00015,274803584.51624,  -0.00006,   0.00002,   0.00013,  -7.22101,   1.00000
-292250948.91184,-30310067.92645,222087751.21574,  -0.00133,   0.00045,   0.00302,474805306.37798,   0.00015,274805315.23206,  -0.00006,   0.00002,   0.00014,  -8.85408,   1.00000
-291247425.79845,-29355318.61537,222339496.80821,  -0.00133,   0.00046,   0.00303,474807005.32721,   0.00015,274807006.52532,  -0.00006,   0.00002,   0.00014,  -1.19811,   1.00000
-290224101.34863,-28392516.05757,222596294.36416,  -0.00133,   0.00046,   0.00303,474808700.74993,   0.00015,274808706.09322,  -0.00006,   0.00002,   0.00014,  -5.34329,   1.00000
-289208680.46226,-27430132.58032,222848067.78177,  -0.00133,   0.00046,   0.00304,474810303.72332,   0.00016,274810307.81378,  -0.00006,   0.00002,   0.00014,  -4.09046,   1.00000
-288173379.37184,-26459680.68394,223104844.11476,  -0.00132,   0.00046,   0.00304,474811910.21614,   0.00016,274811918.60591,  -0.00006,   0.00002,   0.00014,  -8.38976,   1.00000
-287126971.17727,-25481147.23697,223362870.45480,  -0.00132,   0.00047,   0.00305,474813413.36055,   0.00016,274813421.52398,  -0.00006,   0.00002,   0.00014,  -8.16343,   1.00000
-286079526.86653,-24502970.53705,223619569.75922,  -0.00132,   0.00047,   0.00305,474814941.82171,   0.00016,274814944.53574,  -0.00006,   0.00002,   0.00014,  -2.71403,   1.00000
-285035437.33494,-23525122.07969,223873099.29646,  -0.00132,   0.00047,   0.00306,474816419.48342,   0.00016,274816428.68735,  -0.00007,   0.00002,   0.00014,  -9.20393,   1.00000
-283984192.70572,-22558820.26721,224129745.72382,  -0.00131,   0.00047,   0.00306,474817862.41807,   0.00016,274817863.69080,  -0.00007,   0.00002,   0.00015,  -1.27273,   1.00000
-282923402.60466,-21573187.11321,224385003.35040,  -0.00131,   0.00048,   0.00306,474819317.03143,   0.00016,274819319.75780,  -0.00007,   0.00002,   0.00015,  -2.72637,   1.00000
-281851216.46638,-20579315.41471,224641459.12044,  -0.00131,   0.00048,   0.00307,474820668.07388,   0.00016,274820669.03933,  -0.00007,   0.00002,   0.00015,  -0.96546,   1.00000
-280777936.58720,-19585791.37932,224896548.85777,  -0.00131,   0.00048,   0.00307,474822038.10756,   0.00017,274822039.04931,  -0.00007,   0.00002,   0.00015,  -0.94175,   1.00000
-279701683.48375,-18603640.09362,225152913.39536,  -0.00130,   0.00048,   0.00308,474823294.44386,   0.00017,274823301.19575,  -0.00007,   0.00002,   0.00015,  -6.75189,   1.00000
-278611443.59268,-17602263.04269,225409591.46033,  -0.00130,   0.00049,   0.00308,474824637.11895,   0.00017,274824645.43027,  -0.00007,   0.00002,   0.00015,  -8.31132,   1.00000
-277522458.04384,-16612069.52843,225665761.47251,  -0.00130,   0.00049,   0.00309,474825821.65136,   0.00017,274825822.18187,  -0.00007,   0.00002,   0.00015,  -0.53051,   1.00000
-276404548.74270,-15594070.54072,225926471.45594,  -0.00130,   0.00049,   0.00309,474827009.64079,   0.00017,274827015.32367,  -0.00007,   0.00002,   0.00015,  -5.68288,   1.00000
-275308948.51301,-14584704.70904,226177924.29611,  -0.00129,   0.00050,   0.00310,474828170.33287,   0.00017,274828177.05771,  -0.00007,   0.00002,   0.00015,  -6.72484,   1.00000
-274186643.68138,-13578262.42172,226438465.26356,  -0.00129,   0.00050,   0.00310,474829276.93641,   0.00017,274829284.56952,  -0.00007,   0.00002,   0.00016,  -7.63311,   1.00000
-273073760.66064,-12560930.21422,226691370.32121,  -0.00129,   0.00050,   0.00310,474830419.63686,   0.00017,274830422.85838,  -0.00007,   0.00003,   0.00016,  -3.22152,   1.00000
-271938300.47041,-11546288.89950,226951550.76536,  -0.00129,   0.00050,   0.00311,474831440.67597,   0.00017,274831447.84295,  -0.00007,   0.00003,   0.00016,  -7.16698,   1.00000
-270805852.52745,-10531747.99185,227208543.13836,  -0.00128,   0.00051,   0.00311,474832428.03174,   0.00018,274832434.63779,  -0.00007,   0.00003,   0.00016,  -6.60604,   1.00000
-269663490.84777,-9497855.28665,227463852.91303,  -0.00128,   0.00051,   0.00312,474833440.15054,   0.00018,274833447.13075,  -0.00007,   0.00003,   0.00016,  -6.98021,   1.00000
-268513453.66206,-8475258.28140,227722147.37966,  -0.00128,   0.00051,   0.00312,474834406.03042,   0.00018,274834412.98213,  -0.00007,   0.00003,   0.00016,  -6.95170,   1.00000
-267366366.75202,-7452721.85375,227977251.54255,  -0.00127,   0.00051,   0.00312,474835331.06903,   0.00018,274835340.74966,  -0.00007,   0.00003,   0.00016,  -9.68063,   1.00000
-266194087.93172,-6402107.52777,228234795.36703,  -0.00127,   0.00052,   0.00313,474836226.19288,   0.00018,274836230.38837,  -0.00007,   0.00003,   0.00016,  -4.19549,   1.00000
-265033419.90943,-5371187.69229,228489407.66869,  -0.00127,   0.00052,   0.00313,474837074.51442,   0.00018,274837077.99922,  -0.00007,   0.00003,   0.00016,  -3.48481,   1.00000
-263856182.58758,-4331819.89820,228746687.12459,  -0.00126,   0.00052,   0.00314,474837880.65270,   0.00018,274837884.02093,  -0.00007,   0.00003,   0.00016,  -3.36823,   1.00000
-262677633.40356,-3292767.43794,229002443.66973,  -0.00126,   0.00052,   0.00314,474838712.26983,   0.00018,274838713.27825,  -0.00007,   0.00003,   0.00016,  -1.00842,   1.00000
-261486544.94226,-2244909.02645,229259132.92128,  -0.00126,   0.00053,   0.00314,474839435.36820,   0.00018,274839440.84846,  -0.00007,   0.00003,   0.00016,  -5.48026,   1.00000
-260282820.99507,-1188199.68905,229516730.88709,  -0.00126,   0.00053,   0.00315,474840057.31189,   0.00018,274840067.18128,  -0.00007,   0.00003,   0.00016,  -9.86939,   1.00000
-259089046.47103,-140976.59059,229770314.57125,  -0.00125,   0.00053,   0.00315,474840837.29156,   0.00018,274840842.15495,  -0.00007,   0.00003,   0.00017,  -4.86340,   1.00000
-257867081.83528,923966.89067,230028880.01977,  -0.00125,   0.00053,   0.00316,474841450.57516,   0.00018,274841453.06561,  -0.00007,   0.00003,   0.00017,  -2.49045,   1.00000
-256672137.17420,1960512.05976,230280525.48866,  -0.00125,   0.00054,   0.00316,474842078.68242,   0.00018,274842083.72561,  -0.00007,   0.00003,   0.00017,  -5.04319,   1.00000
-255435888.78302,3034114.23265,230538346.26513,  -0.00124,   0.00054,   0.00316,474842614.01987,   0.00018,274842618.87390,  -0.00007,   0.00003,   0.00017,  -4.85403,   1.00000
-254213780.75442,4098537.46794,230790489.00178,  -0.00124,   0.00054,   0.00317,474843235.69065,   0.00019,274843241.38093,  -0.00007,   0.00003,   0.00017,  -5.69028,   1.00000
-252963061.80623,5180857.63183,231047484.79141,  -0.00124,   0.00054,   0.00317,474843698.72499,   0.00019,274843702.12319,  -0.00007,   0.00003,   0.00017,  -3.39820,   1.00000
-251719756.77282,6243243.12245,231303287.41690,  -0.00123,   0.00055,   0.00318,474844178.63580,   0.00019,274844181.07227,  -0.00007,   0.00003,   0.00017,  -2.43647,   1.00000
-250470097.18141,7325430.16913,231555383.79180,  -0.00123,   0.00055,   0.00318,474844627.22504,   0.00019,274844630.28233,  -0.00007,   0.00003,   0.00017,  -3.05729,   1.00000
-249212154.30590,8396608.36131,231810314.18710,  -0.00123,   0.00055,   0.00318,474845030.54672,   0.00019,274845035.68235,  -0.00007,   0.00003,   0.00017,  -5.13563,   1.00000
-247956709.42026,9467992.78004,232062009.74230,  -0.00122,   0.00055,   0.00319,474845400.17281,   0.00019,274845404.13723,  -0.00007,   0.00003,   0.00017,  -3.96442,   1.00000
-246675019.11558,10567645.87435,232315489.39072,  -0.00122,   0.00056,   0.00319,474845737.34594,   0.00019,274845745.00268,  -0.00007,   0.00003,   0.00017,  -7.65674,   1.00000
-245400761.08266,11647373.82222,232567804.03002,  -0.00121,   0.00056,   0.00319,474846101.03857,   0.00019,274846103.65574,  -0.00008,   0.00003,   0.00017,  -2.61717,   1.00000
-244113040.75999,12736321.36651,232820802.15451,  -0.00121,   0.00056,   0.00320,474846365.08614,   0.00019,274846365.18250,  -0.00008,   0.00003,   0.00017,  -0.09636,   1.00000
-242823772.00478,13824964.35620,233072085.84159,  -0.00121,   0.00056,   0.00320,474846644.16897,   0.00019,274846652.95781,  -0.00008,   0.00003,   0.00017,  -8.78883,   1.00000
-241527877.84567,14933484.47800,233319531.51701,  -0.00120,   0.00057,   0.00320,474846911.02717,   0.00019,274846913.17151,  -0.00008,   0.00003,   0.00017,  -2.14434,   1.00000
-240207429.91654,16040114.39749,233573605.19890,  -0.00120,   0.00057,   0.00321,474847066.37908,   0.00019,274847071.50196,  -0.00008,   0.00003,   0.00017,  -5.12288,   1.00000
-238901414.61421,17137409.75966,233822041.03191,  -0.00120,   0.00057,   0.00321,474847311.00568,   0.00019,274847316.31873,  -0.00008,   0.00003,   0.00017,  -5.31305,   1.00000
-237590657.90671,18224465.11229,234071700.91384,  -0.00119,   0.00057,   0.00321,474847447.09780,   0.00019,274847455.94111,  -0.00008,   0.00003,   0.00017,  -8.84331,   1.00000
-236256998.84824,19340499.28581,234321288.80567,  -0.00119,   0.00058,   0.00322,474847503.83417,   0.00019,274847510.32930,  -0.00008,   0.00003,   0.00017,  -6.49513,   1.00000
-234921696.84851,20456226.51613,234569078.89328,  -0.00118,   0.00058,   0.00322,474847586.72259,   0.00019,274847592.26394,  -0.00008,   0.00003,   0.00017,  -5.54134,   1.00000
-233568575.76220,21580705.63505,234818867.72363,  -0.00118,   0.00058,   0.00322,474847641.91838,   0.00019,274847643.53150,  -0.00008,   0.00003,   0.00017,  -1.61312,   1.00000
-232226652.99446,22685996.76917,235066031.58171,  -0.00118,   0.00058,   0.00323,474847642.42932,   0.00019,274847648.81045,  -0.00008,   0.00003,   0.00017,  -6.38114,   1.00000
-230856919.05191,23819472.70109,235313539.97379,  -0.00117,   0.00059,   0.00323,474845828.36969,   0.00019,274847648.81045,  -0.00008,   0.00003,   0.00017,-1820.44076,   0.00000
-229495622.89547,24933260.46545,235555423.17514,  -0.00117,   0.00059,   0.00323,474837924.67389,   0.00019,274847648.81045,  -0.00008,   0.00003,   0.00017,-9724.13656,   0.00000
-228134326.73902,26047048.22982,235797306.37649,  -0.00116,   0.00059,   0.00324,474833712.63299,   0.00019,274847648.81045,  -0.00008,   0.00003,   0.00017,-13936.17747,   0.00000
-226744904.62892,27188961.94783,236039189.57784,  -0.00116,   0.00059,   0.00324,474827281.29342,   0.00019,274847648.81045,  -0.00008,   0.00003,   0.00017,-20367.51704,   0.00000
-225344232.13737,28319625.28439,236275447.58847,  -0.00116,   0.00060,   0.00324,474807276.42629,   0.00019,274847648.81045,  -0.00008,   0.00003,   0.00017,-40372.38417,   0.00000
-223943559.64582,29450288.62094,236506080.40836,  -0.00115,   0.00060,   0.00325,474782706.17562,   0.00019,274847648.81045,  -0.00008,   0.00003,   0.00017,-64942.63483,   0.00000
-222542887.15427,30580951.95749,236736713.22825,  -0.00115,   0.00060,   0.00325,474761960.09841,   0.00019,274847648.81045,  -0.00008,   0.00003,   0.00017,-85688.71205,   0.00000
-221122526.49517,31720053.08014,236967346.04815,  -0.00114,   0.00060,   0.00325,474737739.22869,   0.00019,274847648.81045,  -0.00008,   0.00003,   0.00017,-109909.58177,   0.00000
-219702165.83606,32859154.20279,237192353.67731,  -0.00114,   0.00061,   0.00325,474708996.08373,   0.00019,274847648.81045,  -0.00008,   0.00003,   0.00017,-138652.72672,   0.00000
-218262117.00941,34006693.11153,237411736.11575,  -0.00113,   0.00061,   0.00326,474668491.75536,   0.00019,274847648.81045,  -0.00008,   0.00003,   0.00017,-179157.05510,   0.00000
-216802380.01520,35162669.80637,237636743.74491,  -0.00113,   0.00061,   0.00326,474633228.67550,   0.00019,274847648.81045,  -0.00008,   0.00003,   0.00017,-214420.13495,   0.00000
-215370768.97464,36290520.54755,237850500.99262,  -0.00113,   0.00061,   0.00326,474590423.20139,   0.00019,274847648.81045,  -0.00008,   0.00003,   0.00017,-257225.60906,   0.00000
-213891343.81288,37454935.02848,238069883.43106,  -0.00112,   0.00062,   0.00327,474547651.65615,   0.00019,274847648.81045,  -0.00008,   0.00003,   0.00017,-299997.15431,   0.00000
-212440044.60476,38591223.55577,238278015.48803,  -0.00112,   0.00062,   0.00327,474497222.68470,   0.00019,274847648.81045,  -0.00008,   0.00003,   0.00017,-350426.12575,   0.00000
-210940931.27545,39764075.82279,238491772.73574,  -0.00111,   0.00062,   0.00327,474447158.68753,   0.00019,274847648.81045,  -0.00008,   0.00003,   0.00017,-400490.12292,   0.00000
-209469943.89979,40908802.13616,238694279.60199,  -0.00111,   0.00062,   0.00327,474389322.52129,   0.00019,274847648.81045,  -0.00008,   0.00003,   0.00017,-458326.28917,   0.00000
-207979268.35657,42061966.23563,238902411.65897,  -0.00110,   0.00062,   0.00328,474337104.72878,   0.00019,274847648.81045,  -0.00008,   0.00003,   0.00017,-510544.08168,   0.00000
-206468904.64580,43223568.12120,239104918.52522,  -0.00110,   0.00063,   0.00328,474273649.25798,   0.00019,274847648.81045,  -0.00008,   0.00003,   0.00017,-573999.55247,   0.00000
-204958540.93503,44385170.00676,239301800.20073,  -0.00109,   0.00063,   0.00328,474205884.86482,   0.00019,274847648.81045,  -0.00008,   0.00003,   0.00017,-641763.94564,   0.00000
-203448177.22426,45546771.89233,239498681.87625,  -0.00109,   0.00063,   0.00328,474142312.84185,   0.00019,274847648.81045,  -0.00008,   0.00003,   0.00017,-705335.96860,   0.00000
-201918125.34594,46716811.56398,239689938.36104,  -0.00109,   0.00063,   0.00329,474067675.01447,   0.00019,274847648.81045,  -0.00008,   0.00003,   0.00017,-779973.79598,   0.00000
-200368385.30007,47895289.02174,239881194.84583,  -0.00108,   0.00064,   0.00329,473990625.62987,   0.00019,274847648.81045,  -0.00008,   0.00003,   0.00017,-857023.18059,   0.00000
-198827083.04029,49054078.31193,240072451.33062,  -0.00108,   0.00064,   0.00329,473915748.32983,   0.00019,274847648.81045,  -0.00008,   0.00003,   0.00017,-931900.48063,   0.00000
-197277342.99441,50232555.76969,240258082.62469,  -0.00107,   0.00064,   0.00329,473838837.21327,   0.00019,274847648.81045,  -0.00008,   0.00003,   0.00017,-1008811.59718,   0.00000
-195716352.56708,51399782.84598,240438088.72802,  -0.00107,   0.00064,   0.00330,473748910.17677,   0.00019,274847648.81045,  -0.00008,   0.00003,   0.00017,-1098738.63368,   0.00000
-194155362.13975,52567009.92227,240618094.83135,  -0.00106,   0.00065,   0.00330,473663345.32942,   0.00019,274847648.81045,  -0.00008,   0.00003,   0.00017,-1184303.48104,   0.00000
-192585933.92632,53753925.16612,240792475.74395,  -0.00106,   0.00065,   0.00330,473575891.93504,   0.00019,274847648.81045,  -0.00008,   0.00003,   0.00017,-1271756.87541,   0.00000
-190985567.16389,54938027.81460,240966856.65656,  -0.00105,   0.00065,   0.00330,473477689.21770,   0.00019,274847648.81045,  -0.00008,   0.00003,   0.00017,-1369959.59276,   0.00000
-189404888.56901,56113692.67698,241141237.56916,  -0.00105,   0.00065,   0.00331,473390383.71889,   0.00019,274847648.81045,  -0.00008,   0.00003,   0.00017,-1457265.09156,   0.00000
-187804521.80657,57297795.32546,241309993.29103,  -0.00104,   0.00065,   0.00331,473292614.98377,   0.00019,274847648.81045,  -0.00008,   0.00003,   0.00017,-1555033.82668,   0.00000
-186204155.04413,58481897.97395,241473123.82218,  -0.00104,   0.00066,   0.00331,473190765.68470,   0.00019,274847648.81045,  -0.00008,   0.00003,   0.00017,-1656883.12576,   0.00000
-184592537.90024,59654750.24097,241636254.35332,  -0.00103,   0.00066,   0.00331,473084722.08819,   0.00019,274847648.81045,  -0.00008,   0.00003,   0.00017,-1762926.72227,   0.00000
-182972482.97025,60847290.67554,241799384.88447,  -0.00103,   0.00066,   0.00331,472985760.62635,   0.00019,274847648.81045,  -0.00008,   0.00003,   0.00017,-1861888.18410,   0.00000
-181332739.87271,62048268.89621,241956890.22488,  -0.00102,   0.00066,   0.00332,472876667.86167,   0.00019,274847648.81045,  -0.00008,   0.00003,   0.00017,-1970980.94878,   0.00000
-179701434.56127,63229558.94933,242108770.37457,  -0.00102,   0.00067,   0.00332,472761033.96434,   0.00019,274847648.81045,  -0.00008,   0.00003,   0.00017,-2086614.84612,   0.00000
-178050441.08227,64419286.78853,242260650.52425,  -0.00101,   0.00067,   0.00332,472644004.38823,   0.00019,274847648.81045,  -0.00008,   0.00003,   0.00017,-2203644.42222,   0.00000
-176399447.60327,65609014.62774,242412530.67394,  -0.00101,   0.00067,   0.00332,472531699.39860,   0.00019,274847648.81045,  -0.00008,   0.00003,   0.00017,-2315949.41186,   0.00000
-174740016.33818,66818430.63451,242558785.63290,  -0.00100,   0.00067,   0.00332,472418165.51251,   0.00019,274847648.81045,  -0.00008,   0.00003,   0.00017,-2429483.29794,   0.00000
-173069334.69163,68016596.25981,242699415.40113,  -0.00100,   0.00067,   0.00333,472292131.78730,   0.00019,274847648.81045,  -0.00008,   0.00003,   0.00017,-2555517.02315,   0.00000
-171407090.83118,69195073.71756,242840045.16935,  -0.00099,   0.00068,   0.00333,472168124.62652,   0.00019,274847648.81045,  -0.00008,   0.00003,   0.00017,-2679524.18394,   0.00000
-169716721.01707,70401677.12896,242975049.74685,  -0.00099,   0.00068,   0.00333,472037210.11192,   0.00019,274847648.81045,  -0.00008,   0.00003,   0.00017,-2810438.69854,   0.00000
-168026351.20297,71608280.54035,243110054.32435,  -0.00098,   0.00068,   0.00333,471911193.10355,   0.00019,274847648.81045,  -0.00008,   0.00003,   0.00017,-2936455.70691,   0.00000
-166344419.17496,72795195.78420,243245058.90185,  -0.00097,   0.00068,   0.00333,471787194.52934,   0.00019,274847648.81045,  -0.00008,   0.00003,   0.00017,-3060454.28112,   0.00000
-164634361.19331,74010236.98169,243368813.09789,  -0.00097,   0.00069,   0.00333,471647912.87240,   0.00019,274847648.81045,  -0.00008,   0.00003,   0.00017,-3199735.93805,   0.00000
-162932740.99775,75205590.01163,243498192.48466,  -0.00096,   0.00069,   0.00334,471519375.00688,   0.00019,274847648.81045,  -0.00008,   0.00003,   0.00017,-3328273.80358,   0.00000
-161211432.63464,76409380.82766,243621946.68070,  -0.00096,   0.00069,   0.00334,471381526.95456,   0.00019,274847648.81045,  -0.00008,   0.00003,   0.00017,-3466121.85589,   0.00000
-159490124.27153,77613171.64369,243740075.68601,  -0.00095,   0.00069,   0.00334,471239972.86900,   0.00019,274847648.81045,  -0.00008,   0.00003,   0.00017,-3607675.94146,   0.00000
-157768815.90842,78816962.45973,243858204.69132,  -0.00095,   0.00069,   0.00334,471103432.03072,   0.00019,274847648.81045,  -0.00008,   0.00003,   0.00017,-3744216.77974,   0.00000
-156027819.37775,80029191.06185,243970708.50591,  -0.00094,   0.00070,   0.00334,470957802.60694,   0.00019,274847648.81045,  -0.00008,   0.00003,   0.00017,-3889846.20351,   0.00000
-154286822.84709,81241419.66398,244083212.32049,  -0.00094,   0.00070,   0.00334,470817285.26773,   0.00019,274847648.81045,  -0.00008,   0.00003,   0.00017,-4030363.54272,   0.00000
-152534575.93497,82442397.88465,244190090.94434,  -0.00093,   0.00070,   0.00335,470664703.97858,   0.00019,274847648.81045,  -0.00008,   0.00003,   0.00017,-4182944.83187,   0.00000
-150773891.23675,83663064.27286,244291344.37747,  -0.00092,   0.00070,   0.00335,470511703.54058,   0.00019,274847648.81045,  -0.00008,   0.00003,   0.00017,-4335945.26987,   0.00000
-149021644.32463,84864042.49353,244398223.00132,  -0.00092,   0.00070,   0.00335,470369439.44159,   0.00019,274847648.81045,  -0.00008,   0.00003,   0.00017,-4478209.36887,   0.00000
-147249709.24496,86073458.50029,244493851.24372,  -0.00091,   0.00071,   0.00335,470209675.31172,   0.00019,274847648.81045,  -0.00008,   0.00003,   0.00017,-4637973.49873,   0.00000
-145477774.16528,87282874.50706,244589479.48611,  -0.00091,   0.00071,   0.00335,470055147.49888,   0.00019,274847648.81045,  -0.00008,   0.00003,   0.00017,-4792501.31157,   0.00000
-143705839.08561,88492290.51382,244685107.72851,  -0.00090,   0.00071,   0.00335,469905861.16892,   0.00019,274847648.81045,  -0.00008,   0.00003,   0.00017,-4941787.64153,   0.00000
-141914215.83838,89710144.30667,244775110.78017,  -0.00090,   0.00071,   0.00335,469748085.68307,   0.00019,274847648.81045,  -0.00008,   0.00003,   0.00017,-5099563.12738,   0.00000
-140122592.59116,90927998.09953,244859488.64111,  -0.00089,   0.00071,   0.00335,469586856.88426,   0.00019,274847648.81045,  -0.00008,   0.00003,   0.00017,-5260791.92619,   0.00000
-138319718.96247,92134601.51092,244943866.50205,  -0.00088,   0.00072,   0.00336,469422682.50273,   0.00019,274847648.81045,  -0.00008,   0.00003,   0.00017,-5424966.30772,   0.00000
-136508407.54770,93360893.08987,245022619.17225,  -0.00088,   0.00072,   0.00336,469258564.38724,   0.00019,274847648.81045,  -0.00008,   0.00003,   0.00017,-5589084.42322,   0.00000
-134705533.91901,94567496.50127,245101371.84246,  -0.00087,   0.00072,   0.00336,469096370.49084,   0.00019,274847648.81045,  -0.00008,   0.00003,   0.00017,-5751278.31961,   0.00000
-132882972.12278,95782537.69876,245174499.32194,  -0.00087,   0.00072,   0.00336,468926062.88024,   0.00019,274847648.81045,  -0.00008,   0.00003,   0.00017,-5921585.93022,   0.00000
-131051972.54045,97017267.06380,245247626.80142,  -0.00086,   0.00072,   0.00336,468764833.56759,   0.00019,274847648.81045,  -0.00008,   0.00003,   0.00017,-6082815.24287,   0.00000
-129237848.53030,98212620.09374,245315129.09017,  -0.00086,   0.00073,   0.00336,468593070.41338,   0.00019,274847648.81045,  -0.00008,   0.00003,   0.00017,-6254578.39708,   0.00000
-127415286.73407,99427661.29123,245382631.37892,  -0.00085,   0.00073,   0.00336,468430385.90960,   0.00019,274847648.81045,  -0.00008,   0.00003,   0.00017,-6417262.90086,   0.00000
-125573036.77028,100651140.27482,245444508.47694,  -0.00084,   0.00073,   0.00336,468259894.89330,   0.00019,274847648.81045,  -0.00008,   0.00003,   0.00017,-6587753.91715,   0.00000
-123719536.42503,101863368.87694,245506385.57496,  -0.00084,   0.00073,   0.00336,468086866.36411,   0.00019,274847648.81045,  -0.00008,   0.00003,   0.00017,-6760782.44634,   0.00000
-121877286.46125,103086847.86053,245562637.48225,  -0.00083,   0.00073,   0.00336,467918735.70715,   0.00019,274847648.81045,  -0.00008,   0.00003,   0.00017,-6928913.10331,   0.00000
-120023786.11600,104299076.46265,245613264.19881,  -0.00083,   0.00074,   0.00336,467739247.10379,   0.00019,274847648.81045,  -0.00008,   0.00003,   0.00017,-7108401.70667,   0.00000
-118150597.60320,105519742.85087,245663890.91537,  -0.00082,   0.00074,   0.00336,467561164.36368,   0.00019,274847648.81045,  -0.00008,   0.00003,   0.00017,-7286484.44678,   0.00000
-116297097.25796,106731971.45300,245708892.44121,  -0.00081,   0.00074,   0.00337,467384131.63000,   0.00019,274847648.81045,  -0.00008,   0.00003,   0.00017,-7463517.18046,   0.00000
-114423908.74516,107952637.84122,245753893.96704,  -0.00081,   0.00074,   0.00337,467208620.30835,   0.00019,274847648.81045,  -0.00008,   0.00003,   0.00017,-7639028.50211,   0.00000
-112550720.23236,109173304.22944,245793270.30214,  -0.00080,   0.00074,   0.00337,467029982.09947,   0.00019,274847648.81045,  -0.00008,   0.00003,   0.00017,-7817666.71098,   0.00000
-110666281.33810,110382720.23620,245832646.63725,  -0.00079,   0.00075,   0.00337,466849104.51075,   0.00019,274847648.81045,  -0.00008,   0.00003,   0.00017,-7998544.29970,   0.00000
-108773404.65775,111611824.41051,245866397.78162,  -0.00079,   0.00075,   0.00337,466669163.03160,   0.00019,274847648.81045,  -0.00008,   0.00003,   0.00017,-8178485.77886,   0.00000
-106888965.76350,112821240.41727,245900148.92600,  -0.00078,   0.00075,   0.00337,466491027.48190,   0.00019,274847648.81045,  -0.00008,   0.00003,   0.00017,-8356621.32855,   0.00000
-105004526.86924,114030656.42404,245928274.87964,  -0.00078,   0.00075,   0.00337,466309795.68282,   0.00019,274847648.81045,  -0.00008,   0.00003,   0.00017,-8537853.12763,   0.00000
-103100399.80743,115248510.21689,245950775.64256,  -0.00077,   0.00075,   0.00337,466121691.34869,   0.00019,274847648.81045,  -0.00008,   0.00003,   0.00017,-8725957.46176,   0.00000
-101196272.74562,116466364.00975,245973276.40548,  -0.00076,   0.00076,   0.00337,465939502.10109,   0.00019,274847648.81045,  -0.00008,   0.00003,   0.00017,-8908146.70936,   0.00000
-99292145.68382,117684217.80260,245990151.97766,  -0.00076,   0.00076,   0.00337,465754321.95851,   0.00019,274847648.81045,  -0.00008,   0.00003,   0.00017,-9093326.85195,   0.00000
-97376768.24055,118890821.21400,246007027.54985,  -0.00075,   0.00076,   0.00337,465567222.98389,   0.00019,274847648.81045,  -0.00008,   0.00003,   0.00017,-9280425.82656,   0.00000
-95452953.01119,120117112.79295,246018277.93131,  -0.00074,   0.00076,   0.00337,465381455.77192,   0.00019,274847648.81045,  -0.00008,   0.00003,   0.00017,-9466193.03853,   0.00000
-93537575.56792,121323716.20434,246029528.31277,  -0.00074,   0.00076,   0.00337,465197414.90555,   0.00019,274847648.81045,  -0.00008,   0.00003,   0.00017,-9650233.90490,   0.00000
-91622198.12466,122530319.61574,246035153.50350,  -0.00073,   0.00076,   0.00337,465010423.44544,   0.00019,274847648.81045,  -0.00008,   0.00003,   0.00017,-9837225.36501,   0.00000
-89687132.51384,123745360.81323,246035153.50350,  -0.00072,   0.00077,   0.00337,464817117.70657,   0.00019,274847648.81045,  -0.00008,   0.00003,   0.00017,-10030531.10388,   0.00000
-87752066.90302,124960402.01072,246035153.50350,  -0.00072,   0.00077,   0.00337,464629907.72482,   0.00019,274847648.81045,  -0.00008,   0.00003,   0.00017,-10217741.08564,   0.00000
-85817001.29220,126175443.20821,246029528.31277,  -0.00071,   0.00077,   0.00337,464439861.29296,   0.00019,274847648.81045,  -0.00008,   0.00003,   0.00017,-10407787.51749,   0.00000
-83890373.46748,127370796.23815,246023903.12204,  -0.00071,   0.00077,   0.00337,464251419.90340,   0.00019,274847648.81045,  -0.00008,   0.00003,   0.00017,-10596228.90705,   0.00000
-81944057.47520,128574587.05418,246012652.74058,  -0.00070,   0.00077,   0.00337,464056949.38061,   0.00019,274847648.81045,  -0.00008,   0.00003,   0.00017,-10790699.42984,   0.00000
-79989303.69683,129798066.03777,246001402.35912,  -0.00069,   0.00077,   0.00337,463873208.39273,   0.00019,274847648.81045,  -0.00008,   0.00003,   0.00017,-10974440.41772,   0.00000
-78042987.70455,131001856.85380,245984526.78693,  -0.00069,   0.00078,   0.00337,463682146.50608,   0.00019,274847648.81045,  -0.00008,   0.00003,   0.00017,-11165502.30437,   0.00000
-76096671.71228,132205647.66983,245962026.02402,  -0.00068,   0.00078,   0.00337,463488296.75435,   0.00019,274847648.81045,  -0.00008,   0.00003,   0.00017,-11359352.05611,   0.00000
-74158793.50609,133389750.31831,245939525.26110,  -0.00067,   0.00078,   0.00337,463295937.11894,   0.00019,274847648.81045,  -0.00008,   0.00003,   0.00017,-11551711.69152,   0.00000
-72192789.34627,134601978.92044,245911399.30745,  -0.00067,   0.00078,   0.00337,463102615.84312,   0.00019,274847648.81045,  -0.00008,   0.00003,   0.00017,-11745032.96734,   0.00000
-70235222.97253,135794519.35501,245883273.35381,  -0.00066,   0.00078,   0.00337,462910843.16935,   0.00019,274847648.81045,  -0.00008,   0.00003,   0.00017,-11936805.64110,   0.00000
-68269218.81270,137006747.95714,245849522.20943,  -0.00065,   0.00078,   0.00337,462721127.23541,   0.00019,274847648.81045,  -0.00008,   0.00003,   0.00017,-12126521.57504,   0.00000
-66291964.27142,138207726.17781,245810145.87433,  -0.00065,   0.00079,   0.00337,462521291.60969,   0.00019,274847648.81045,  -0.00008,   0.00003,   0.00017,-12326357.20077,   0.00000
-64334397.89768,139400266.61238,245770769.53923,  -0.00064,   0.00079,   0.00337,462330395.69496,   0.00019,274847648.81045,  -0.00008,   0.00003,   0.00017,-12517253.11550,   0.00000
-62365581.14249,140581556.66550,245731393.20412,  -0.00063,   0.00079,   0.00337,462138337.60381,   0.00019,274847648.81045,  -0.00008,   0.00003,   0.00017,-12709311.20665,   0.00000
-60388326.60120,141782534.88617,245686391.67829,  -0.00063,   0.00079,   0.00337,461948542.99931,   0.00019,274847648.81045,  -0.00008,   0.00003,   0.00017,-12899105.81114,   0.00000
-58411072.05991,142983513.10683,245635764.96173,  -0.00062,   0.00079,   0.00336,461756153.97309,   0.00019,274847648.81045,  -0.00008,   0.00003,   0.00017,-13091494.83736,   0.00000
-56422567.13717,144173240.94604,245579513.05444,  -0.00061,   0.00079,   0.00336,461553838.19232,   0.00019,274847648.81045,  -0.00008,   0.00003,   0.00017,-13293810.61814,   0.00000
-54453750.38198,145354530.99916,245523261.14715,  -0.00061,   0.00080,   0.00336,461360233.71499,   0.00019,274847648.81045,  -0.00008,   0.00003,   0.00017,-13487415.09546,   0.00000
-52465245.45923,146544258.83837,245467009.23985,  -0.00060,   0.00080,   0.00336,461170749.46884,   0.00019,274847648.81045,  -0.00008,   0.00003,   0.00017,-13676899.34161,   0.00000
-50476740.53649,147733986.67758,245405132.14183,  -0.00059,   0.00080,   0.00336,460978740.19681,   0.00019,274847648.81045,  -0.00008,   0.00003,   0.00017,-13868908.61365,   0.00000
-48496673.39983,148904026.34924,245337629.85308,  -0.00059,   0.00080,   0.00336,460779062.23420,   0.00019,274847648.81045,  -0.00008,   0.00003,   0.00017,-14068586.57625,   0.00000
-46508168.47709,150093754.18844,245270127.56433,  -0.00058,   0.00080,   0.00336,460590964.75605,   0.00019,274847648.81045,  -0.00008,   0.00003,   0.00017,-14256684.05441,   0.00000
-44528101.34044,151263793.86010,245197000.08486,  -0.00057,   0.00080,   0.00336,460395138.15408,   0.00019,274847648.81045,  -0.00008,   0.00003,   0.00017,-14452510.65637,   0.00000
-42548034.20379,152433833.53176,245118247.41465,  -0.00057,   0.00080,   0.00336,460196734.48386,   0.00019,274847648.81045,  -0.00008,   0.00003,   0.00017,-14650914.32660,   0.00000
-40548278.89958,153612310.98951,245039494.74444,  -0.00056,   0.00081,   0.00336,460002914.98153,   0.00019,274847648.81045,  -0.00008,   0.00003,   0.00017,-14844733.82893,   0.00000
-38548523.59538,154790788.44726,244955116.88350,  -0.00055,   0.00081,   0.00336,459806656.19644,   0.00019,274847648.81045,  -0.00008,   0.00003,   0.00017,-15040992.61402,   0.00000
-36548768.29118,155969265.90501,244870739.02257,  -0.00055,   0.00081,   0.00335,459616955.10396,   0.00019,274847648.81045,  -0.00008,   0.00003,   0.00017,-15230693.70650,   0.00000
-34577138.94062,157119617.40912,244780735.97090,  -0.00054,   0.00081,   0.00335,459421076.63986,   0.00019,274847648.81045,  -0.00008,   0.00003,   0.00017,-15426572.17059,   0.00000
-32566133.25496,158286844.48541,244690732.91924,  -0.00053,   0.00081,   0.00335,459228410.45824,   0.00019,274847648.81045,  -0.00008,   0.00003,   0.00017,-15619238.35221,   0.00000
-30566377.95075,159465321.94316,244595104.67684,  -0.00053,   0.00081,   0.00335,459040374.43306,   0.00019,274847648.81045,  -0.00008,   0.00003,   0.00017,-15807274.37740,   0.00000
-28583498.21874,160604423.06581,244493851.24372,  -0.00052,   0.00081,   0.00335,458838929.48103,   0.00019,274847648.81045,  -0.00008,   0.00003,   0.00017,-16008719.32942,   0.00000
-26592180.70063,161763212.35601,244392597.81059,  -0.00051,   0.00082,   0.00335,458649477.39386,   0.00019,274847648.81045,  -0.00008,   0.00003,   0.00017,-16198171.41659,   0.00000
-24581175.01497,162930439.43230,244285719.18674,  -0.00051,   0.00082,   0.00335,458456237.49865,   0.00019,274847648.81045,  -0.00008,   0.00003,   0.00017,-16391411.31181,   0.00000
-22598295.28295,164069540.55495,244178840.56288,  -0.00050,   0.00082,   0.00335,458265324.40052,   0.00019,274847648.81045,  -0.00008,   0.00003,   0.00017,-16582324.40994,   0.00000
-20595727.38338,165217079.46369,244066336.74830,  -0.00049,   0.00082,   0.00334,458070697.01290,   0.00019,274847648.81045,  -0.00008,   0.00003,   0.00017,-16776951.79755,   0.00000
-18584721.69772,166384306.53999,243948207.74299,  -0.00048,   0.00082,   0.00334,457879372.27870,   0.00019,274847648.81045,  -0.00008,   0.00003,   0.00017,-16968276.53175,   0.00000
-16610279.75180,167503719.49508,243830078.73768,  -0.00048,   0.00082,   0.00334,457684392.31644,   0.00019,274847648.81045,  -0.00008,   0.00003,   0.00017,-17163256.49401,   0.00000
-14607711.85223,168651258.40382,243706324.54164,  -0.00047,   0.00082,   0.00334,457491594.52149,   0.00019,274847648.81045,  -0.00008,   0.00003,   0.00017,-17356054.28897,   0.00000
-12605143.95266,169798797.31256,243582570.34560,  -0.00046,   0.00083,   0.00334,457305439.76043,   0.00019,274847648.81045,  -0.00008,   0.00003,   0.00017,-17542209.05003,   0.00000
-10611013.83919,170926648.05375,243453190.95883,  -0.00046,   0.00083,   0.00334,457111131.15049,   0.00019,274847648.81045,  -0.00008,   0.00003,   0.00017,-17736517.65997,   0.00000
-8616883.72572,172054498.79494,243318186.38133,  -0.00045,   0.00083,   0.00333,456914427.79039,   0.00019,274847648.81045,  -0.00008,   0.00003,   0.00017,-17933221.02006,   0.00000
-6622753.61224,173182349.53613,243183181.80383,  -0.00044,   0.00083,   0.00333,456724326.94562,   0.00019,274847648.81045,  -0.00008,   0.00003,   0.00017,-18123321.86483,   0.00000
-4628623.49877,174310200.27732,243042552.03560,  -0.00044,   0.00083,   0.00333,456531852.84844,   0.00019,274847648.81045,  -0.00008,   0.00003,   0.00017,-18315795.96202,   0.00000
-2642931.17139,175418362.85096,242896297.07664,  -0.00043,   0.00083,   0.00333,456331063.12231,   0.00019,274847648.81045,  -0.00008,   0.00003,   0.00017,-18516585.68815,   0.00000
-648801.05791,176546213.59215,242750042.11769,  -0.00042,   0.00083,   0.00333,456142827.07405,   0.00019,274847648.81045,  -0.00008,   0.00003,   0.00017,-18704821.73641,   0.00000
1336891.26947,177654376.16578,242603787.15873,  -0.00042,   0.00083,   0.00332,455955209.08957,   0.00019,274847648.81045,  -0.00008,   0.00003,   0.00017,-18892439.72088,   0.00000
3322583.59685,178762538.73942,242451907.00904,  -0.00041,   0.00083,   0.00332,455765195.00324,   0.00019,274847648.81045,  -0.00008,   0.00003,   0.00017,-19082453.80721,   0.00000
5308275.92423,179870701.31306,242294401.66863,  -0.00040,   0.00084,   0.00332,455572798.69496,   0.00019,274847648.81045,  -0.00008,   0.00003,   0.00017,-19274850.11549,   0.00000
7293968.25161,180978863.88670,242131271.13748,  -0.00040,   0.00084,   0.00332,455378034.65597,   0.00019,274847648.81045,  -0.00008,   0.00003,   0.00017,-19469614.15448,   0.00000
9271222.79290,182067338.29278,241968140.60634,  -0.00039,   0.00084,   0.00332,455183729.49166,   0.00019,274847648.81045,  -0.00008,   0.00003,   0.00017,-19663919.31879,   0.00000
11248477.33418,183155812.69887,241805010.07519,  -0.00038,   0.00084,   0.00331,454995983.11672,   0.00019,274847648.81045,  -0.00008,   0.00003,   0.00017,-19851665.69374,   0.00000
13225731.87547,184244287.10495,241636254.35332,  -0.00037,   0.00084,   0.00331,454805837.72345,   0.00019,274847648.81045,  -0.00008,   0.00003,   0.00017,-20041811.08701,   0.00000
15202986.41676,185332761.51104,241461873.44072,  -0.00037,   0.00084,   0.00331,454613309.09463,   0.00019,274847648.81045,  -0.00008,   0.00003,   0.00017,-20234339.71583,   0.00000
17180240.95804,186421235.91712,241281867.33739,  -0.00036,   0.00084,   0.00331,454418413.62883,   0.00019,274847648.81045,  -0.00008,   0.00003,   0.00017,-20429235.18163,   0.00000
19149057.71324,187490022.15566,241101861.23405,  -0.00035,   0.00084,   0.00331,454223799.50405,   0.00019,274847648.81045,  -0.00008,   0.00003,   0.00017,-20623849.30640,   0.00000
21126312.25452,188578496.56174,240921855.13072,  -0.00035,   0.00084,   0.00330,454042093.94174,   0.00019,274847648.81045,  -0.00008,   0.00003,   0.00017,-20805554.86872,   0.00000
23075440.84216,189638845.01418,240730598.64593,  -0.00034,   0.00085,   0.00330,453842517.76597,   0.00019,274847648.81045,  -0.00008,   0.00003,   0.00017,-21005131.04448,   0.00000
25044257.59736,190707631.25271,240544967.35187,  -0.00033,   0.00085,   0.00330,453658603.32268,   0.00019,274847648.81045,  -0.00008,   0.00003,   0.00017,-21189045.48777,   0.00000
27013074.35255,191776417.49125,240348085.67635,  -0.00033,   0.00085,   0.00330,453463379.70321,   0.00019,274847648.81045,  -0.00008,   0.00003,   0.00017,-21384269.10724,   0.00000
28953765.15410,192817077.77614,240151204.00083,  -0.00032,   0.00085,   0.00329,453267876.60306,   0.00019,274847648.81045,  -0.00008,   0.00003,   0.00017,-21579772.20739,   0.00000
30914144.12320,193866175.84712,239954322.32531,  -0.00031,   0.00085,   0.00329,453079244.67085,   0.00019,274847648.81045,  -0.00008,   0.00003,   0.00017,-21768404.13961,   0.00000
32854834.92474,194906836.13200,239746190.26834,  -0.00031,   0.00085,   0.00329,452878780.98520,   0.00019,274847648.81045,  -0.00008,   0.00003,   0.00017,-21968867.82525,   0.00000
34795525.72629,195947496.41689,239538058.21136,  -0.00030,   0.00085,   0.00329,452684766.48220,   0.00019,274847648.81045,  -0.00008,   0.00003,   0.00017,-22162882.32825,   0.00000
36736216.52784,196988156.70178,239329926.15438,  -0.00029,   0.00085,   0.00328,452497209.45738,   0.00019,274847648.81045,  -0.00008,   0.00003,   0.00017,-22350439.35308,   0.00000
38676907.32939,198028816.98667,239116168.90667,  -0.00029,   0.00085,   0.00328,452307196.50739,   0.00019,274847648.81045,  -0.00008,   0.00003,   0.00017,-22540452.30306,   0.00000
40609160.34484,199049789.10400,238896786.46824,  -0.00028,   0.00085,   0.00328,452108063.85032,   0.00019,274847648.81045,  -0.00008,   0.00003,   0.00017,-22739584.96014,   0.00000
42541413.36029,200070761.22134,238677404.02980,  -0.00027,   0.00086,   0.00327,451915365.94275,   0.00019,274847648.81045,  -0.00008,   0.00003,   0.00017,-22932282.86770,   0.00000
44453978.20820,201083295.55258,238452396.40064,  -0.00027,   0.00086,   0.00327,451719306.13813,   0.00019,274847648.81045,  -0.00008,   0.00003,   0.00017,-23128342.67232,   0.00000
46386231.22365,202104267.66992,238227388.77147,  -0.00026,   0.00086,   0.00327,451530539.88488,   0.00019,274847648.81045,  -0.00008,   0.00003,   0.00017,-23317108.92558,   0.00000
48290358.28546,203097113.83361,237996755.95158,  -0.00025,   0.00086,   0.00327,451331509.52214,   0.00019,274847648.81045,  -0.00008,   0.00003,   0.00017,-23516139.28831,   0.00000
50194485.34727,204089959.99730,237760497.94096,  -0.00025,   0.00086,   0.00326,451129882.37065,   0.00019,274847648.81045,  -0.00008,   0.00003,   0.00017,-23717766.43980,   0.00000
52107050.19517,205102494.32854,237524239.93033,  -0.00024,   0.00086,   0.00326,450941443.60010,   0.00019,274847648.81045,  -0.00008,   0.00003,   0.00017,-23906205.21035,   0.00000
54002739.47088,206075652.32468,237282356.72898,  -0.00023,   0.00086,   0.00326,450736698.12008,   0.00019,274847648.81045,  -0.00008,   0.00003,   0.00017,-24110950.69037,   0.00000
55887178.36514,207060060.70228,237040473.52763,  -0.00023,   0.00086,   0.00325,450543894.83100,   0.00019,274847648.81045,  -0.00008,   0.00003,   0.00017,-24303753.97945,   0.00000
57782867.64085,208033218.69841,236787339.94482,  -0.00022,   0.00086,   0.00325,450333939.43639,   0.00019,274847648.81045,  -0.00008,   0.00003,   0.00017,-24513709.37406,   0.00000
59667306.53511,209017627.07601,236539831.55274,  -0.00021,   0.00086,   0.00325,450144768.71851,   0.00019,274847648.81045,  -0.00008,   0.00003,   0.00017,-24702880.09194,   0.00000
61543307.64327,209982347.28605,236286697.96993,  -0.00020,   0.00086,   0.00324,449945960.75678,   0.00019,274847648.81045,  -0.00008,   0.00003,   0.00017,-24901688.05367,   0.00000
63419308.75144,210947067.49610,236027939.19639,  -0.00020,   0.00086,   0.00324,449744506.41208,   0.00019,274847648.81045,  -0.00008,   0.00003,   0.00017,-25103142.39837,   0.00000
65267183.90595,211883661.75250,235763555.23212,  -0.00019,   0.00086,   0.00324,449531760.19215,   0.00019,274847648.81045,  -0.00008,   0.00003,   0.00017,-25315888.61830,   0.00000
67143185.01411,212848381.96254,235499171.26785,  -0.00019,   0.00087,   0.00323,449333842.16123,   0.00019,274847648.81045,  -0.00008,   0.00003,   0.00017,-25513806.64922,   0.00000
68991060.16863,213784976.21894,235234787.30358,  -0.00018,   0.00087,   0.00323,449133327.37166,   0.00019,274847648.81045,  -0.00008,   0.00003,   0.00017,-25714321.43880,   0.00000
70819247.15560,214713132.68925,234959152.95785,  -0.00017,   0.00087,   0.00323,448919462.02126,   0.00019,274847648.81045,  -0.00008,   0.00003,   0.00017,-25928186.78919,   0.00000
72658684.52402,215630038.77809,234689143.80285,  -0.00017,   0.00087,   0.00322,448715038.47706,   0.00019,274847648.81045,  -0.00008,   0.00003,   0.00017,-26132610.33339,   0.00000
74486871.51099,216558195.24840,234407884.26640,  -0.00016,   0.00087,   0.00322,448504372.45513,   0.00019,274847648.81045,  -0.00008,   0.00003,   0.00017,-26343276.35533,   0.00000
76306620.71186,217466663.55115,234126624.72994,  -0.00015,   0.00087,   0.00321,448292463.83334,   0.00019,274847648.81045,  -0.00008,   0.00003,   0.00017,-26555184.97711,   0.00000
78126369.91273,218375131.85391,233839740.00276,  -0.00015,   0.00087,   0.00321,448077720.45780,   0.00019,274847648.81045,  -0.00008,   0.00003,   0.00017,-26769928.35265,   0.00000
79946119.11360,219283600.15666,233552855.27557,  -0.00014,   0.00087,   0.00321,447868970.86461,   0.00019,274847648.81045,  -0.00008,   0.00003,   0.00017,-26978677.94584,   0.00000
81746180.14692,220183630.67332,233260345.35766,  -0.00013,   0.00087,   0.00320,447655296.62430,   0.00019,274847648.81045,  -0.00008,   0.00003,   0.00017,-27192352.18615,   0.00000
83537803.39414,221063973.02243,232967835.43974,  -0.00013,   0.00087,   0.00320,447440144.70870,   0.00019,274847648.81045,  -0.00008,   0.00003,   0.00017,-27407504.10176,   0.00000
85309738.47382,221935877.58544,232669700.33110,  -0.00012,   0.00087,   0.00320,447219813.87212,   0.00019,274847648.81045,  -0.00008,   0.00003,   0.00017,-27627834.93834,   0.00000
87081673.55349,222807782.14846,232371565.22246,  -0.00011,   0.00087,   0.00319,447005239.42831,   0.00019,274847648.81045,  -0.00008,   0.00003,   0.00017,-27842409.38214,   0.00000
88853608.63317,223679686.71147,232062179.73235,  -0.00011,   0.00087,   0.00319,446778898.85112,   0.00019,274847648.81045,  -0.00008,   0.00003,   0.00017,-28068749.95933,   0.00000
90625543.71284,224551591.27448,231758419.43298,  -0.00010,   0.00087,   0.00318,446567118.36021,   0.00019,274847648.81045,  -0.00008,   0.00003,   0.00017,-28280530.45025,   0.00000
92369352.83887,225395369.88385,231443408.75215,  -0.00009,   0.00087,   0.00318,446333619.64381,   0.00019,274847648.81045,  -0.00008,   0.00003,   0.00017,-28514029.16664,   0.00000
94113161.96490,226239148.49322,231128398.07132,  -0.00009,   0.00087,   0.00318,446105780.19800,   0.00019,274847648.81045,  -0.00008,   0.00003,   0.00017,-28741868.61245,   0.00000
95856971.09092,227082927.10259,230813387.39049,  -0.00008,   0.00087,   0.00317,445883608.69817,   0.00019,274847648.81045,  -0.00008,   0.00003,   0.00017,-28964040.11228,   0.00000
97572654.26331,227898579.75831,230492751.51893,  -0.00008,   0.00087,   0.00317,445648114.20479,   0.00019,274847648.81045,  -0.00008,   0.00003,   0.00017,-29199534.60566,   0.00000
99296775.22178,228733920.58159,230166490.45664,  -0.00007,   0.00087,   0.00316,445417057.69297,   0.00019,274847648.81045,  -0.00008,   0.00003,   0.00017,-29430591.11749,   0.00000
100992770.22661,229541135.45122,229840229.39435,  -0.00006,   0.00088,   0.00316,445181165.92713,   0.00019,274847648.81045,  -0.00008,   0.00003,   0.00017,-29666482.88332,   0.00000
102688765.23144,230348350.32085,229508343.14133,  -0.00006,   0.00088,   0.00315,444942014.25263,   0.00019,274847648.81045,  -0.00008,   0.00003,   0.00017,-29905634.55783,   0.00000
104376322.45018,231135877.02292,229170831.69758,  -0.00005,   0.00088,   0.00315,444691924.60435,   0.00019,274847648.81045,  -0.00008,   0.00003,   0.00017,-30155724.20611,   0.00000
106052629.28746,231934654.10646,228833320.25384,  -0.00005,   0.00088,   0.00315,444452055.27546,   0.00019,274847648.81045,  -0.00008,   0.00003,   0.00017,-30395593.53499,   0.00000
107720498.33864,232713743.02244,228495808.81009,  -0.00004,   0.00088,   0.00314,444209810.24347,   0.00019,274847648.81045,  -0.00008,   0.00003,   0.00017,-30637838.56698,   0.00000
109368679.22228,233484394.15233,228147046.98488,  -0.00003,   0.00088,   0.00314,443952492.55277,   0.00019,274847648.81045,  -0.00008,   0.00003,   0.00017,-30895156.25768,   0.00000
111016860.10591,234255045.28222,227803910.35041,  -0.00003,   0.00088,   0.00313,443709110.32968,   0.00019,274847648.81045,  -0.00008,   0.00003,   0.00017,-31138538.48077,   0.00000
112656603.20345,235006008.24456,227449523.33447,  -0.00002,   0.00088,   0.00313,443445839.45549,   0.00019,274847648.81045,  -0.00008,   0.00003,   0.00017,-31401809.35496,   0.00000
114276658.13344,235748533.42080,227095136.31854,  -0.00002,   0.00088,   0.00312,443184582.15920,   0.00019,274847648.81045,  -0.00008,   0.00003,   0.00017,-31663066.65125,   0.00000
115877024.89587,236482620.81095,226740749.30260,  -0.00001,   0.00088,   0.00312,442925179.33405,   0.00019,274847648.81045,  -0.00008,   0.00003,   0.00017,-31922469.47640,   0.00000
117497079.82586,237225145.98720,226380737.09594,  -0.00000,   0.00088,   0.00311,442665546.57641,   0.00019,274847648.81045,  -0.00008,   0.00003,   0.00017,-32182102.23404,   0.00000
119077758.42074,237950795.59126,226015099.69855,   0.00000,   0.00088,   0.00311,442395662.49548,   0.00019,274847648.81045,  -0.00008,   0.00003,   0.00017,-32451986.31498,   0.00000
120649999.22953,238656757.02776,225649462.30115,   0.00001,   0.00088,   0.00310,442122801.88650,   0.00019,274847648.81045,  -0.00008,   0.00003,   0.00017,-32724846.92395,   0.00000
122222240.03832,239362718.46426,225278199.71303,   0.00001,   0.00088,   0.00310,441846286.75146,   0.00019,274847648.81045,  -0.00008,   0.00003,   0.00017,-33001362.05899,   0.00000
123774792.67956,240060242.11468,224906937.12491,   0.00002,   0.00088,   0.00309,441571176.08535,   0.00019,274847648.81045,  -0.00008,   0.00003,   0.00017,-33276472.72510,   0.00000
125318907.53471,240738077.59754,224530049.34606,   0.00003,   0.00088,   0.00309,441284315.24647,   0.00019,274847648.81045,  -0.00008,   0.00003,   0.00017,-33563333.56398,   0.00000
126851772.00839,241427163.46185,224147536.37648,   0.00003,   0.00088,   0.00309,440998115.65781,   0.00019,274847648.81045,  -0.00008,   0.00003,   0.00017,-33849533.15264,   0.00000
128376198.69598,242096561.15862,223765023.40690,   0.00004,   0.00088,   0.00308,440708649.99273,   0.00019,274847648.81045,  -0.00008,   0.00003,   0.00017,-34138998.81772,   0.00000
129872499.42993,242737832.90174,223376885.24659,   0.00004,   0.00088,   0.00308,440403509.46860,   0.00019,274847648.81045,  -0.00008,   0.00003,   0.00017,-34444139.34186,   0.00000
131377237.94997,243398792.81241,222988747.08628,   0.00005,   0.00088,   0.00307,440111160.79370,   0.00019,274847648.81045,  -0.00008,   0.00003,   0.00017,-34736488.01676,   0.00000
132853850.51637,244031626.76944,222594983.73524,   0.00005,   0.00088,   0.00306,439802932.62886,   0.00019,274847648.81045,  -0.00008,   0.00003,   0.00017,-35044716.18159,   0.00000
134310774.91521,244656022.94037,222201220.38420,   0.00006,   0.00088,   0.00306,439495347.88347,   0.00019,274847648.81045,  -0.00008,   0.00003,   0.00017,-35352300.92698,   0.00000
135767699.31405,245280419.11130,221801831.84243,   0.00006,   0.00088,   0.00305,439183733.54770,   0.00019,274847648.81045,  -0.00008,   0.00003,   0.00017,-35663915.26276,   0.00000
137224623.71290,245904815.28224,221402443.30067,   0.00007,   0.00088,   0.00305,438876640.39495,   0.00019,274847648.81045,  -0.00008,   0.00003,   0.00017,-35971008.41551,   0.00000
138633733.99054,246492647.71343,220997429.56817,   0.00007,   0.00088,   0.00304,438549122.73361,   0.00019,274847648.81045,  -0.00008,   0.00003,   0.00017,-36298526.07684,   0.00000
140062532.43574,247088917.93072,220586790.64494,   0.00008,   0.00088,   0.00304,438221568.83865,   0.00019,274847648.81045,  -0.00008,   0.00003,   0.00017,-36626079.97180,   0.00000
141451954.54583,247668312.57582,220176151.72172,   0.00009,   0.00088,   0.00303,437890048.94725,   0.00019,274847648.81045,  -0.00008,   0.00003,   0.00017,-36957599.86321,   0.00000
142832938.86983,248228019.05336,219759887.60776,   0.00009,   0.00088,   0.00303,437545980.44348,   0.00019,274847648.81045,  -0.00008,   0.00003,   0.00017,-37301668.36697,   0.00000
144222360.97992,248807413.69846,219343623.49381,   0.00010,   0.00088,   0.00302,437214479.84624,   0.00019,274847648.81045,  -0.00008,   0.00003,   0.00017,-37633168.96421,   0.00000
145563968.96882,249350244.60382,218921734.18912,   0.00010,   0.00088,   0.00302,436861739.43157,   0.00019,274847648.81045,  -0.00008,   0.00003,   0.00017,-37985909.37888,   0.00000
146897139.17162,249873387.34163,218499844.88444,   0.00011,   0.00088,   0.00301,436504685.06804,   0.00019,274847648.81045,  -0.00008,   0.00003,   0.00017,-38342963.74241,   0.00000
148238747.16052,250416218.24699,218072330.38902,   0.00011,   0.00088,   0.00301,436151631.77860,   0.00019,274847648.81045,  -0.00008,   0.00003,   0.00017,-38696017.03185,   0.00000
149552229.19577,250930923.19871,217644815.89361,   0.00012,   0.00088,   0.00300,435789761.45884,   0.00019,274847648.81045,  -0.00008,   0.00003,   0.00017,-39057887.35161,   0.00000
150846023.06347,251437190.36433,217211676.20747,   0.00012,   0.00088,   0.00299,435418901.74662,   0.00019,274847648.81045,  -0.00008,   0.00003,   0.00017,-39428747.06383,   0.00000
152120128.76361,251935019.74386,216772911.33060,   0.00013,   0.00088,   0.00299,435038946.95202,   0.00019,274847648.81045,  -0.00008,   0.00003,   0.00017,-39808701.85843,   0.00000
153385796.67767,252413160.95583,216334146.45373,   0.00013,   0.00088,   0.00298,434654347.06972,   0.00019,274847648.81045,  -0.00008,   0.00003,   0.00017,-40193301.74073,   0.00000
154631776.42417,252882864.38171,215889756.38612,   0.00013,   0.00088,   0.00298,434260478.93954,   0.00019,274847648.81045,  -0.00008,   0.00003,   0.00017,-40587169.87091,   0.00000
155877756.17067,253352567.80759,215445366.31852,   0.00014,   0.00088,   0.00297,433870356.55590,   0.00019,274847648.81045,  -0.00008,   0.00003,   0.00017,-40977292.25455,   0.00000
157104047.74962,253813833.44738,214995351.06019,   0.00014,   0.00088,   0.00297,433470836.61029,   0.00019,274847648.81045,  -0.00008,   0.00003,   0.00017,-41376812.20016,   0.00000
158302213.37492,254246973.13352,214545335.80186,   0.00015,   0.00088,   0.00296,433061610.92742,   0.00019,274847648.81045,  -0.00008,   0.00003,   0.00017,-41786037.88303,   0.00000
159480690.83267,254671675.03357,214089695.35281,   0.00015,   0.00088,   0.00295,432642729.17937,   0.00019,274847648.81045,  -0.00008,   0.00003,   0.00017,-42204919.63108,   0.00000
160659168.29042,255096376.93362,213634054.90375,   0.00016,   0.00088,   0.00295,432227354.95596,   0.00019,274847648.81045,  -0.00008,   0.00003,   0.00017,-42620293.85449,   0.00000
161798269.41307,255504203.26148,213172789.26396,   0.00016,   0.00087,   0.00294,431797237.37144,   0.00019,274847648.81045,  -0.00008,   0.00003,   0.00017,-43050411.43902,   0.00000
162928932.74962,255892341.42179,212711523.62417,   0.00017,   0.00087,   0.00294,431361841.48132,   0.00019,274847648.81045,  -0.00008,   0.00003,   0.00017,-43485807.32914,   0.00000
164059596.08618,256280479.58210,212244632.79365,   0.00017,   0.00087,   0.00293,430921472.85430,   0.00019,274847648.81045,  -0.00008,   0.00003,   0.00017,-43926175.95615,   0.00000
165150883.08763,256651742.17023,211777741.96314,   0.00018,   0.00087,   0.00292,430474279.19826,   0.00019,274847648.81045,  -0.00008,   0.00003,   0.00017,-44373369.61220,   0.00000
166233732.30298,257003316.59080,211305225.94189,   0.00018,   0.00087,   0.00292,430013294.55492,   0.00019,274847648.81045,  -0.00008,   0.00003,   0.00017,-44834354.25554,   0.00000
167296893.35079,257346453.22527,210827084.72991,   0.00018,   0.00087,   0.00291,429542040.24771,   0.00019,274847648.81045,  -0.00008,   0.00003,   0.00017,-45305608.56275,   0.00000
168340366.23104,257681152.07365,210348943.51794,   0.00019,   0.00087,   0.00291,429068700.37703,   0.00019,274847648.81045,  -0.00008,   0.00003,   0.00017,-45778948.43343,   0.00000
169383839.11129,258015850.92204,209870802.30596,   0.00019,   0.00087,   0.00290,428598424.96212,   0.00019,274847648.81045,  -0.00008,   0.00003,   0.00017,-46249223.84834,   0.00000
170399186.03790,258322423.81677,209387035.90326,   0.00020,   0.00087,   0.00289,428108886.74296,   0.00019,274847648.81045,  -0.00008,   0.00003,   0.00017,-46738762.06750,   0.00000
171375156.62940,258612121.13932,208897644.30982,   0.00020,   0.00087,   0.00289,427603388.82895,   0.00019,274847648.81045,  -0.00008,   0.00003,   0.00017,-47244259.98151,   0.00000
172351127.22091,258901818.46187,208408252.71639,   0.00020,   0.00087,   0.00288,427100739.64655,   0.00019,274847648.81045,  -0.00008,   0.00003,   0.00017,-47746909.16390,   0.00000
173318660.02631,259171827.61687,207918861.12296,   0.00021,   0.00087,   0.00287,426592122.16878,   0.00019,274847648.81045,  -0.00008,   0.00003,   0.00017,-48255526.64168,   0.00000
174246816.49662,259424961.19968,207423844.33879,   0.00021,   0.00087,   0.00287,426067181.96162,   0.00019,274847648.81045,  -0.00008,   0.00003,   0.00017,-48780466.84884,   0.00000
175155284.79937,259669656.99640,206923202.36390,   0.00022,   0.00087,   0.00286,425531229.00959,   0.00019,274847648.81045,  -0.00008,   0.00003,   0.00017,-49316419.80086,   0.00000
176063753.10213,259914352.79312,206422560.38901,   0.00022,   0.00087,   0.00285,424997929.19386,   0.00019,274847648.81045,  -0.00008,   0.00003,   0.00017,-49849719.61659,   0.00000
176944095.45123,260130922.63619,205921918.41412,   0.00022,   0.00087,   0.00285,424452810.65380,   0.00019,274847648.81045,  -0.00008,   0.00003,   0.00017,-50394838.15666,   0.00000
177804749.63279,260339054.69317,205415651.24850,   0.00023,   0.00087,   0.00284,423896451.13481,   0.00019,274847648.81045,  -0.00008,   0.00003,   0.00017,-50951197.67564,   0.00000
178645715.64679,260538748.96405,204903758.89215,   0.00023,   0.00086,   0.00283,423328774.58625,   0.00019,274847648.81045,  -0.00008,   0.00003,   0.00017,-51518874.22420,   0.00000
179466993.49325,260730005.44884,204391866.53580,   0.00023,   0.00086,   0.00283,422757865.23900,   0.00019,274847648.81045,  -0.00008,   0.00003,   0.00017,-52089783.57145,   0.00000
180260145.38605,260893135.97998,203879974.17945,   0.00024,   0.00086,   0.00282,422174662.20550,   0.00019,274847648.81045,  -0.00008,   0.00003,   0.00017,-52672986.60495,   0.00000
181033609.11131,261047828.72503,203362456.63237,   0.00024,   0.00086,   0.00281,421579852.72996,   0.00019,274847648.81045,  -0.00008,   0.00003,   0.00017,-53267796.08050,   0.00000
181798635.05047,261182833.30253,202839313.89456,   0.00024,   0.00086,   0.00281,420970183.39638,   0.00019,274847648.81045,  -0.00008,   0.00003,   0.00017,-53877465.41407,   0.00000
182524284.65452,261300962.30785,202316171.15675,   0.00025,   0.00086,   0.00280,420351086.00009,   0.00019,274847648.81045,  -0.00008,   0.00003,   0.00017,-54496562.81036,   0.00000
183249934.25858,261419091.31316,201793028.41894,   0.00025,   0.00086,   0.00279,419734115.08616,   0.00019,274847648.81045,  -0.00008,   0.00003,   0.00017,-55113533.72430,   0.00000
183936207.52753,261520344.74628,201264260.49040,   0.00025,   0.00086,   0.00279,419099351.47188,   0.00019,274847648.81045,  -0.00008,   0.00003,   0.00017,-55748297.33857,   0.00000
184622480.79649,261621598.17941,200735492.56187,   0.00025,   0.00086,   0.00278,418466613.34656,   0.00019,274847648.81045,  -0.00008,   0.00003,   0.00017,-56381035.46390,   0.00000
185280628.11179,261694725.65888,200201099.44260,   0.00026,   0.00086,   0.00277,417812778.76776,   0.00019,274847648.81045,  -0.00008,   0.00003,   0.00017,-57034870.04270,   0.00000
185890961.30590,261731289.39862,199661081.13260,   0.00026,   0.00086,   0.00277,417131727.77011,   0.00019,274847648.81045,  -0.00008,   0.00003,   0.00017,-57715921.04034,   0.00000
186509732.28611,261787541.30591,199126688.01334,   0.00026,   0.00086,   0.00276,416469670.46006,   0.00019,274847648.81045,  -0.00008,   0.00003,   0.00017,-58377978.35039,   0.00000
187100377.31267,261815667.25956,198581044.51261,   0.00027,   0.00085,   0.00275,415778160.08256,   0.00019,274847648.81045,  -0.00008,   0.00003,   0.00017,-59069488.72789,   0.00000
187671334.17167,261835355.42711,198041026.20262,   0.00027,   0.00085,   0.00275,415090395.83355,   0.00019,274847648.81045,  -0.00008,   0.00003,   0.00017,-59757252.97690,   0.00000
188222602.86313,261846605.80857,197489757.51116,   0.00027,   0.00085,   0.00274,414382138.21463,   0.00019,274847648.81045,  -0.00008,   0.00003,   0.00017,-60465510.59582,   0.00000
188726057.43338,261821292.45029,196944114.01044,   0.00027,   0.00085,   0.00273,413662139.66050,   0.00019,274847648.81045,  -0.00008,   0.00003,   0.00017,-61185509.14996,   0.00000
189229512.00364,261795979.09201,196392845.31898,   0.00027,   0.00085,   0.00272,412935668.82899,   0.00019,274847648.81045,  -0.00008,   0.00003,   0.00017,-61911979.98147,   0.00000
189704840.62025,261742539.78008,195835951.43680,   0.00028,   0.00085,   0.00272,412187356.08729,   0.00019,274847648.81045,  -0.00008,   0.00003,   0.00017,-62660292.72316,   0.00000
190168918.85540,261700350.84961,195279057.55462,   0.00028,   0.00085,   0.00271,411443494.91340,   0.00019,274847648.81045,  -0.00008,   0.00003,   0.00017,-63404153.89706,   0.00000
190585182.96936,261621598.17941,194722163.67243,   0.00028,   0.00085,   0.00270,410679358.52618,   0.00019,274847648.81045,  -0.00008,   0.00003,   0.00017,-64168290.28427,   0.00000
191001447.08331,261542845.50920,194159644.59952,   0.00028,   0.00085,   0.00270,409908591.80000,   0.00019,274847648.81045,  -0.00008,   0.00003,   0.00017,-64939057.01045,   0.00000
191369897.07607,261427529.09925,193591500.33588,   0.00029,   0.00084,   0.00269,409109322.97879,   0.00019,274847648.81045,  -0.00008,   0.00003,   0.00017,-65738325.83167,   0.00000
191738347.06883,261312212.68930,193023356.07224,   0.00029,   0.00084,   0.00268,408311330.32956,   0.00019,274847648.81045,  -0.00008,   0.00003,   0.00017,-66536318.48090,   0.00000
192067420.72648,261180020.70717,192455211.80860,   0.00029,   0.00084,   0.00267,407501840.55472,   0.00019,274847648.81045,  -0.00008,   0.00003,   0.00017,-67345808.25574,   0.00000
192388056.59804,261028140.55748,191887067.54496,   0.00029,   0.00084,   0.00267,406684272.96641,   0.00019,274847648.81045,  -0.00008,   0.00003,   0.00017,-68163375.84404,   0.00000
192669316.13450,260859384.83561,191307672.89986,   0.00029,   0.00084,   0.00266,405839083.73157,   0.00019,274847648.81045,  -0.00008,   0.00003,   0.00017,-69008565.07888,   0.00000
192930887.50340,260682191.32764,190733903.44549,   0.00029,   0.00084,   0.00265,404996483.28067,   0.00019,274847648.81045,  -0.00008,   0.00003,   0.00017,-69851165.52978,   0.00000
193172770.70475,260496560.03358,190154508.80039,   0.00030,   0.00084,   0.00264,404140503.44117,   0.00019,274847648.81045,  -0.00008,   0.00003,   0.00017,-70707145.36928,   0.00000
193386527.95246,260282802.78587,189575114.15529,   0.00030,   0.00084,   0.00264,403269724.65591,   0.00019,274847648.81045,  -0.00008,   0.00003,   0.00017,-71577924.15454,   0.00000
193580597.03262,260060607.75207,188990094.31946,   0.00030,   0.00083,   0.00263,402385445.55091,   0.00019,274847648.81045,  -0.00008,   0.00003,   0.00017,-72462203.25955,   0.00000
193746540.15913,259810286.76463,188405074.48363,   0.00030,   0.00083,   0.00262,401486212.77386,   0.00019,274847648.81045,  -0.00008,   0.00003,   0.00017,-73361436.03659,   0.00000
193873106.95053,259543090.20499,187814429.45707,   0.00030,   0.00083,   0.00261,400566788.09292,   0.00019,274847648.81045,  -0.00008,   0.00003,   0.00017,-74280860.71753,   0.00000
193999673.74194,259275893.64536,187223784.43051,   0.00030,   0.00083,   0.00261,399648170.30818,   0.00019,274847648.81045,  -0.00008,   0.00003,   0.00017,-75199478.50227,   0.00000
194086864.19824,258991821.51354,186627514.21323,   0.00030,   0.00083,   0.00260,398709231.34394,   0.00019,274847648.81045,  -0.00008,   0.00003,   0.00017,-76138417.46651,   0.00000
194145928.70089,258679623.42807,186036869.18667,   0.00030,   0.00083,   0.00259,397762923.82764,   0.00019,274847648.81045,  -0.00008,   0.00003,   0.00017,-77084724.98281,   0.00000
194185305.03600,258358987.55651,185434973.77865,   0.00030,   0.00082,   0.00258,396794869.97259,   0.00019,274847648.81045,  -0.00008,   0.00003,   0.00017,-78052778.83786,   0.00000
194196555.41745,258010225.73131,184838703.56136,   0.00030,   0.00082,   0.00257,395819302.99211,   0.00019,274847648.81045,  -0.00008,   0.00003,   0.00017,-79028345.81834,   0.00000
194176867.24990,257664276.50147,184231182.96262,   0.00031,   0.00082,   0.00257,394824618.62726,   0.00019,274847648.81045,  -0.00008,   0.00003,   0.00017,-80023030.18319,   0.00000
194148741.29626,257298639.10407,183629287.55460,   0.00031,   0.00082,   0.00256,393828975.89673,   0.00019,274847648.81045,  -0.00008,   0.00003,   0.00017,-81018672.91372,   0.00000
194072801.22141,256896437.96694,183021766.95586,   0.00031,   0.00082,   0.00255,392803159.62695,   0.00019,274847648.81045,  -0.00008,   0.00003,   0.00017,-82044489.18350,   0.00000
193977172.97902,256485799.04372,182414246.35711,   0.00031,   0.00082,   0.00254,391771094.34255,   0.00019,274847648.81045,  -0.00008,   0.00003,   0.00017,-83076554.46790,   0.00000
193861856.56907,256066722.33440,181801100.56764,   0.00031,   0.00081,   0.00253,390724885.34133,   0.00019,274847648.81045,  -0.00008,   0.00003,   0.00017,-84122763.46912,   0.00000
193707163.82402,255630770.05289,181187954.77816,   0.00031,   0.00081,   0.00253,389665586.53744,   0.00019,274847648.81045,  -0.00008,   0.00003,   0.00017,-85182062.27302,   0.00000
193524345.12532,255166691.81774,180574808.98869,   0.00031,   0.00081,   0.00252,388590440.90337,   0.00019,274847648.81045,  -0.00008,   0.00003,   0.00017,-86257207.90708,   0.00000
193341526.42663,254702613.58258,179956038.00849,   0.00031,   0.00081,   0.00251,387507808.90068,   0.00019,274847648.81045,  -0.00008,   0.00003,   0.00017,-87339839.90978,   0.00000
193091205.43918,254193533.82160,179337267.02828,   0.00031,   0.00081,   0.00250,386395647.52949,   0.00019,274847648.81045,  -0.00008,   0.00003,   0.00017,-88452001.28097,   0.00000
192849322.23783,253704142.22816,178712870.85735,   0.00031,   0.00081,   0.00249,385285415.79447,   0.00019,274847648.81045,  -0.00008,   0.00003,   0.00017,-89562233.01599,   0.00000
192551187.12919,253158498.72744,178094099.87715,   0.00031,   0.00080,   0.00249,384150674.75423,   0.00019,274847648.81045,  -0.00008,   0.00003,   0.00017,-90696974.05622,   0.00000
192261489.80664,252632543.39427,177464078.51548,   0.00031,   0.00080,   0.00248,383010013.92647,   0.00019,274847648.81045,  -0.00008,   0.00003,   0.00017,-91837634.88399,   0.00000
191904290.19534,252061586.53526,176839682.34455,   0.00031,   0.00080,   0.00247,381847377.76716,   0.00019,274847648.81045,  -0.00008,   0.00003,   0.00017,-93000271.04330,   0.00000
191547090.58404,251490629.67625,176209660.98289,   0.00031,   0.00080,   0.00246,380677107.49879,   0.00019,274847648.81045,  -0.00008,   0.00003,   0.00017,-94170541.31166,   0.00000
191142076.85154,250883109.07751,175574014.43050,   0.00030,   0.00080,   0.00245,379475971.67303,   0.00019,274847648.81045,  -0.00008,   0.00003,   0.00017,-95371677.13742,   0.00000
190717374.95149,250267150.69267,174943993.06884,   0.00030,   0.00079,   0.00245,378275920.38105,   0.00019,274847648.81045,  -0.00008,   0.00003,   0.00017,-96571728.42941,   0.00000
190272984.88389,249642754.52174,174308346.51645,   0.00030,   0.00079,   0.00244,377061322.06875,   0.00019,274847648.81045,  -0.00008,   0.00003,   0.00017,-97786326.74171,   0.00000
189780780.69509,248981794.61107,173667074.77333,   0.00030,   0.00079,   0.00243,375815750.05554,   0.00019,274847648.81045,  -0.00008,   0.00003,   0.00017,-99031898.75492,   0.00000
189268888.33874,248312396.91430,173031428.22094,   0.00030,   0.00079,   0.00242,374571185.07186,   0.00019,274847648.81045,  -0.00008,   0.00003,   0.00017,-100276463.73859,   0.00000
188737307.81484,247634561.43144,172390156.47782,   0.00030,   0.00079,   0.00241,373312021.07807,   0.00019,274847648.81045,  -0.00008,   0.00003,   0.00017,-101535627.73238,   0.00000
188177601.33729,246928599.99494,171743259.54397,   0.00030,   0.00078,   0.00240,372028699.28038,   0.00019,274847648.81045,  -0.00008,   0.00003,   0.00017,-102818949.53007,   0.00000
187578518.52464,246205762.98624,171101987.80085,   0.00030,   0.00078,   0.00240,370739445.91121,   0.00019,274847648.81045,  -0.00008,   0.00003,   0.00017,-104108202.89924,   0.00000
186940059.37689,245466050.40536,170455090.86700,   0.00030,   0.00078,   0.00239,369428671.96670,   0.00019,274847648.81045,  -0.00008,   0.00003,   0.00017,-105418976.84375,   0.00000
186293162.44304,244706649.65693,169802568.74242,   0.00029,   0.00078,   0.00238,368100595.18899,   0.00019,274847648.81045,  -0.00008,   0.00003,   0.00017,-106747053.62146,   0.00000
185606889.17408,243930373.33631,169155671.80857,   0.00029,   0.00078,   0.00237,366766561.30279,   0.00019,274847648.81045,  -0.00008,   0.00003,   0.00017,-108081087.50766,   0.00000
184900927.73758,243145659.22960,168503149.68399,   0.00029,   0.00077,   0.00236,365417899.22467,   0.00019,274847648.81045,  -0.00008,   0.00003,   0.00017,-109429749.58578,   0.00000
184147152.17988,242324381.38315,167845002.36868,   0.00029,   0.00077,   0.00235,364038142.49836,   0.00019,274847648.81045,  -0.00008,   0.00003,   0.00017,-110809506.31209,   0.00000
183373688.45462,241494665.75060,167192480.24411,   0.00029,   0.00077,   0.00234,362659333.19463,   0.00019,274847648.81045,  -0.00008,   0.00003,   0.00017,-112188315.61583,   0.00000
182572098.77572,240636824.16441,166534332.92880,   0.00029,   0.00077,   0.00234,361256327.96811,   0.00019,274847648.81045,  -0.00008,   0.00003,   0.00017,-113591320.84234,   0.00000
181731132.76172,239762107.00603,165876185.61349,   0.00028,   0.00076,   0.00233,359839631.13077,   0.00019,274847648.81045,  -0.00008,   0.00003,   0.00017,-115008017.67968,   0.00000
180870478.58016,238878952.06156,165212413.10745,   0.00028,   0.00076,   0.00232,358408367.24623,   0.00019,274847648.81045,  -0.00008,   0.00003,   0.00017,-116439281.56422,   0.00000
179962010.27741,237959233.37735,164548640.60142,   0.00028,   0.00076,   0.00231,356953869.93460,   0.00019,274847648.81045,  -0.00008,   0.00003,   0.00017,-117893778.87586,   0.00000
179033853.80710,237031076.90704,163884868.09538,   0.00028,   0.00076,   0.00230,355492637.09667,   0.00019,274847648.81045,  -0.00008,   0.00003,   0.00017,-119355011.71379,   0.00000
178086009.16925,236094482.65064,163221095.58934,   0.00027,   0.00075,   0.00229,354024695.93791,   0.00019,274847648.81045,  -0.00008,   0.00003,   0.00017,-120822952.87254,   0.00000
177090350.41019,235121324.65451,162551697.89258,   0.00027,   0.00075,   0.00228,352525850.40958,   0.00019,274847648.81045,  -0.00008,   0.00003,   0.00017,-122321798.40087,   0.00000
176075003.48358,234139728.87227,161882300.19581,   0.00027,   0.00075,   0.00228,351020374.42484,   0.00019,274847648.81045,  -0.00008,   0.00003,   0.00017,-123827274.38561,   0.00000
175011842.43578,233121569.35030,161212902.49905,   0.00027,   0.00075,   0.00227,349491881.91158,   0.00019,274847648.81045,  -0.00008,   0.00003,   0.00017,-125355766.89887,   0.00000
173928993.22042,232094972.04224,160543504.80228,   0.00026,   0.00074,   0.00226,347956860.42055,   0.00019,274847648.81045,  -0.00008,   0.00003,   0.00017,-126890788.38990,   0.00000
172826455.83752,231059936.94808,159868481.91479,   0.00026,   0.00074,   0.00225,346407567.52739,   0.00019,274847648.81045,  -0.00008,   0.00003,   0.00017,-128440081.28306,   0.00000
171676104.33341,229988338.11418,159193459.02729,   0.00026,   0.00074,   0.00224,344835454.57114,   0.00019,274847648.81045,  -0.00008,   0.00003,   0.00017,-130012194.23932,   0.00000
170506064.66175,228908301.49419,158518436.13980,   0.00025,   0.00074,   0.00223,343256986.39916,   0.00019,274847648.81045,  -0.00008,   0.00003,   0.00017,-131590662.41129,   0.00000
169296648.65499,227811389.30201,157837788.06157,   0.00025,   0.00073,   0.00222,341657696.57329,   0.00019,274847648.81045,  -0.00008,   0.00003,   0.00017,-133189952.23716,   0.00000
168059106.69458,226686351.15619,157157139.98335,   0.00025,   0.00073,   0.00221,340042584.70310,   0.00019,274847648.81045,  -0.00008,   0.00003,   0.00017,-134805064.10736,   0.00000
166782188.39907,225544437.43817,156476491.90513,   0.00024,   0.00073,   0.00221,338414648.50995,   0.00019,274847648.81045,  -0.00008,   0.00003,   0.00017,-136433000.30050,   0.00000
165477144.14992,224374397.76652,155795843.82690,   0.00024,   0.00073,   0.00220,336771073.44240,   0.00019,274847648.81045,  -0.00008,   0.00003,   0.00017,-138076575.36805,   0.00000
164132723.56566,223187482.52267,155115195.74868,   0.00024,   0.00072,   0.00219,335114914.29677,   0.00019,274847648.81045,  -0.00008,   0.00003,   0.00017,-139732734.51368,   0.00000
162768614.81384,221992129.49273,154428922.47972,   0.00023,   0.00072,   0.00218,333445126.52425,   0.00019,274847648.81045,  -0.00008,   0.00003,   0.00017,-141402522.28620,   0.00000
161356691.94083,220760212.72305,153742649.21077,   0.00023,   0.00072,   0.00217,331753406.12797,   0.00019,274847648.81045,  -0.00008,   0.00003,   0.00017,-143094242.68248,   0.00000
159925080.90027,219519858.16728,153056375.94182,   0.00022,   0.00071,   0.00216,330056103.11499,   0.00019,274847648.81045,  -0.00008,   0.00003,   0.00017,-144791545.69546,   0.00000
158465343.90606,218251377.65787,152364477.48214,   0.00022,   0.00071,   0.00215,328335882.05603,   0.00019,274847648.81045,  -0.00008,   0.00003,   0.00017,-146511766.75442,   0.00000
156966230.57675,216966021.57626,151672579.02245,   0.00022,   0.00071,   0.00214,326603777.03268,   0.00019,274847648.81045,  -0.00008,   0.00003,   0.00017,-148243871.77777,   0.00000
155427740.91234,215663789.92247,150986305.75350,   0.00021,   0.00071,   0.00213,324867835.95774,   0.00019,274847648.81045,  -0.00008,   0.00003,   0.00017,-149979812.85272,   0.00000
153861125.29428,214333432.31503,150288782.10309,   0.00021,   0.00070,   0.00212,323101589.40909,   0.00019,274847648.81045,  -0.00008,   0.00003,   0.00017,-151746059.40137,   0.00000
152255133.34111,212986199.13541,149596883.64341,   0.00020,   0.00070,   0.00212,321331895.84781,   0.00019,274847648.81045,  -0.00008,   0.00003,   0.00017,-153515752.96264,   0.00000
150621015.43430,211610840.00214,148904985.18373,   0.00020,   0.00070,   0.00211,319547934.02014,   0.00019,274847648.81045,  -0.00008,   0.00003,   0.00017,-155299714.79031,   0.00000
148967209.35994,210227043.08277,148207461.53331,   0.00019,   0.00069,   0.00210,317751566.68414,   0.00019,274847648.81045,  -0.00008,   0.00003,   0.00017,-157096082.12631,   0.00000
147254338.78292,208817932.80513,147509937.88290,   0.00019,   0.00069,   0.00209,315938234.55356,   0.00019,274847648.81045,  -0.00008,   0.00003,   0.00017,-158909414.25689,   0.00000
145533030.41981,207389134.35993,146812414.23249,   0.00018,   0.00069,   0.00208,314117496.66727,   0.00019,274847648.81045,  -0.00008,   0.00003,   0.00017,-160730152.14319,   0.00000
143772345.72159,205943460.34254,146109265.39135,   0.00018,   0.00068,   0.00207,312278680.30380,   0.00019,274847648.81045,  -0.00008,   0.00003,   0.00017,-162568968.50665,   0.00000
141972284.68828,204480910.75297,145411741.74094,   0.00017,   0.00068,   0.00206,310437875.13066,   0.00019,274847648.81045,  -0.00008,   0.00003,   0.00017,-164409773.67980,   0.00000
140124409.53376,202981797.42366,144708592.89980,   0.00017,   0.00068,   0.00205,308570067.08291,   0.00019,274847648.81045,  -0.00008,   0.00003,   0.00017,-166277581.72754,   0.00000
138268096.59315,201462995.92680,144005444.05866,   0.00016,   0.00067,   0.00204,306695621.15905,   0.00019,274847648.81045,  -0.00008,   0.00003,   0.00017,-168152027.65140,   0.00000
136352719.14988,199918881.07165,143302295.21752,   0.00016,   0.00067,   0.00203,304806140.73344,   0.00019,274847648.81045,  -0.00008,   0.00003,   0.00017,-170041508.07701,   0.00000
134417653.53906,198366328.43042,142599146.37638,   0.00015,   0.00067,   0.00202,302914045.68120,   0.00019,274847648.81045,  -0.00008,   0.00003,   0.00017,-171933603.12926,   0.00000
132462899.76069,196805338.00308,141895997.53524,   0.00014,   0.00067,   0.00202,301019563.26593,   0.00019,274847648.81045,  -0.00008,   0.00003,   0.00017,-173828085.54453,   0.00000
130460331.86113,195207783.83601,141187223.50337,   0.00014,   0.00066,   0.00201,299099650.68541,   0.00019,274847648.81045,  -0.00008,   0.00003,   0.00017,-175747998.12505,   0.00000
128409949.84036,193573665.92920,140478449.47150,   0.00013,   0.00066,   0.00200,297162714.55995,   0.00019,274847648.81045,  -0.00008,   0.00003,   0.00017,-177684934.25050,   0.00000
126339879.65204,191931110.23630,139769675.43963,   0.00013,   0.00065,   0.00199,295224405.18323,   0.00019,274847648.81045,  -0.00008,   0.00003,   0.00017,-179623243.62722,   0.00000
124230433.12862,190271678.97121,139060901.40776,   0.00012,   0.00065,   0.00198,293279358.53749,   0.00019,274847648.81045,  -0.00008,   0.00003,   0.00017,-181568290.27297,   0.00000
122092860.65155,188584121.75247,138352127.37589,   0.00011,   0.00065,   0.00197,291324211.40254,   0.00019,274847648.81045,  -0.00008,   0.00003,   0.00017,-183523437.40791,   0.00000
119915911.83938,186879688.96155,137643353.34402,   0.00011,   0.00064,   0.00196,289363221.42234,   0.00019,274847648.81045,  -0.00008,   0.00003,   0.00017,-185484427.38812,   0.00000
117719274.85966,185166818.38453,136928954.12142,   0.00010,   0.00064,   0.00195,287394311.26276,   0.00019,274847648.81045,  -0.00008,   0.00003,   0.00017,-187453337.54769,   0.00000
115455135.59119,183408946.28168,136220180.08955,   0.00009,   0.00064,   0.00194,285413800.54202,   0.00019,274847648.81045,  -0.00008,   0.00003,   0.00017,-189433848.26844,   0.00000
113190996.32272,181651074.17883,135505780.86695,   0.00009,   0.00063,   0.00193,283431646.56500,   0.00019,274847648.81045,  -0.00008,   0.00003,   0.00017,-191416002.24545,   0.00000
110879042.93305,179856638.33624,134791381.64436,   0.00008,   0.00063,   0.00192,281436298.81070,   0.00019,274847648.81045,  -0.00008,   0.00003,   0.00017,-193411349.99975,   0.00000
108527713.20827,178045326.92146,134076982.42176,   0.00007,   0.00063,   0.00191,279437761.30035,   0.00019,274847648.81045,  -0.00008,   0.00003,   0.00017,-195409887.51010,   0.00000
106128569.36230,176197451.76694,133362583.19916,   0.00006,   0.00062,   0.00190,277427409.52437,   0.00019,274847648.81045,  -0.00008,   0.00003,   0.00017,-197420239.28609,   0.00000
103709737.34878,174341138.82633,132648183.97656,   0.00006,   0.00062,   0.00190,275420207.55254,   0.00019,274847648.81045,  -0.00008,   0.00003,   0.00017,-199427441.25791,   0.00000
101262779.38161,172456699.93207,131933784.75396,   0.00005,   0.00062,   0.00189,273407369.61531,   0.00019,274847648.81045,  -0.00008,   0.00003,   0.00017,-201440279.19515,   0.00000
98765194.69788,170566635.84709,131213760.34063,   0.00004,   0.00061,   0.00188,271390211.05724,   0.00019,274847648.81045,  -0.00008,   0.00003,   0.00017,-203457437.75322,   0.00000
96250734.44196,168637195.42700,130499361.11803,   0.00003,   0.00061,   0.00187,269372425.10076,   0.00019,274847648.81045,  -0.00008,   0.00003,   0.00017,-205475223.70969,   0.00000
93677209.68339,166682441.64863,129779336.70471,   0.00003,   0.00060,   0.00186,267342736.27256,   0.00019,274847648.81045,  -0.00008,   0.00003,   0.00017,-207504912.53790,   0.00000
91083996.75726,164719250.08417,129059312.29138,   0.00002,   0.00060,   0.00185,265319348.03254,   0.00019,274847648.81045,  -0.00008,   0.00003,   0.00017,-209528300.77791,   0.00000
88451407.49603,162739182.94751,128344913.06878,   0.00001,   0.00060,   0.00184,263306728.93014,   0.00019,274847648.81045,  -0.00008,   0.00003,   0.00017,-211540919.88031,   0.00000
85790692.28116,160730989.85722,127624888.65545,   0.00000,   0.00059,   0.00183,261284533.99431,   0.00019,274847648.81045,  -0.00008,   0.00003,   0.00017,-213563114.81614,   0.00000
83082162.94509,158686233.02718,126904864.24213,  -0.00001,   0.00059,   0.00182,259257602.75722,   0.00019,274847648.81045,  -0.00008,   0.00003,   0.00017,-215590046.05323,   0.00000
80353945.44146,156633038.41105,126184839.82880,  -0.00002,   0.00058,   0.00181,257240012.54652,   0.00019,274847648.81045,  -0.00008,   0.00003,   0.00017,-217607636.26394,   0.00000
77586351.60273,154562968.22273,125464815.41547,  -0.00002,   0.00058,   0.00180,255228595.62609,   0.00019,274847648.81045,  -0.00008,   0.00003,   0.00017,-219619053.18436,   0.00000
74770943.64281,152456334.29468,124739165.81141,  -0.00003,   0.00058,   0.00179,253207232.04966,   0.00019,274847648.81045,  -0.00008,   0.00003,   0.00017,-221640416.76079,   0.00000
71935847.51533,150341262.58053,124019141.39808,  -0.00004,   0.00057,   0.00178,251206245.04808,   0.00019,274847648.81045,  -0.00008,   0.00003,   0.00017,-223641403.76238,   0.00000
69052937.26665,148189627.12664,123299116.98476,  -0.00005,   0.00057,   0.00177,249205861.59880,   0.00019,274847648.81045,  -0.00008,   0.00003,   0.00017,-225641787.21165,   0.00000
66130650.68287,146021116.10056,122579092.57143,  -0.00006,   0.00056,   0.00176,247216220.52917,   0.00019,274847648.81045,  -0.00008,   0.00003,   0.00017,-227631428.28128,   0.00000
63180238.14545,143824479.12084,121853442.96737,  -0.00007,   0.00056,   0.00176,245224678.88348,   0.00019,274847648.81045,  -0.00008,   0.00003,   0.00017,-229622969.92698,   0.00000
60190449.27292,141610966.56893,121133418.55404,  -0.00008,   0.00055,   0.00175,243254688.76935,   0.00019,274847648.81045,  -0.00008,   0.00003,   0.00017,-231592960.04110,   0.00000
57161284.06529,139380578.44483,120407768.94999,  -0.00009,   0.00055,   0.00174,241290857.00971,   0.00019,274847648.81045,  -0.00008,   0.00003,   0.00017,-233556791.80074,   0.00000
54103992.90401,137122064.36709,119687744.53666,  -0.00010,   0.00055,   0.00173,239345607.78040,   0.00019,274847648.81045,  -0.00008,   0.00003,   0.00017,-235502041.03006,   0.00000
50998887.62153,134826986.54960,118962094.93260,  -0.00011,   0.00054,   0.00172,237400751.04672,   0.00019,274847648.81045,  -0.00008,   0.00003,   0.00017,-237446897.76373,   0.00000
47882531.95760,132543159.11358,118242070.51928,  -0.00012,   0.00054,   0.00171,235494130.63709,   0.00019,274847648.81045,  -0.00008,   0.00003,   0.00017,-239353518.17337,   0.00000
44709924.38637,130203079.77027,117516420.91522,  -0.00013,   0.00053,   0.00170,233582484.40982,   0.00019,274847648.81045,  -0.00008,   0.00003,   0.00017,-241265164.40063,   0.00000
41506378.26614,127865813.02231,116790771.31116,  -0.00014,   0.00053,   0.00169,231701211.83193,   0.00019,274847648.81045,  -0.00008,   0.00003,   0.00017,-243146436.97852,   0.00000
38266268.40616,125480732.15317,116070746.89783,  -0.00015,   0.00052,   0.00168,229837544.62514,   0.00019,274847648.81045,  -0.00008,   0.00003,   0.00017,-245010104.18531,   0.00000
34995219.99718,123098463.87938,115345097.29378,  -0.00016,   0.00052,   0.00167,227998933.80556,   0.00019,274847648.81045,  -0.00008,   0.00003,   0.00017,-246848715.00489,   0.00000
31676357.46699,120679631.86586,114619447.68972,  -0.00017,   0.00052,   0.00166,226179414.13351,   0.00019,274847648.81045,  -0.00008,   0.00003,   0.00017,-248668234.67694,   0.00000
28329368.98316,118232673.89869,113899423.27639,  -0.00018,   0.00051,   0.00165,224390947.11588,   0.00019,274847648.81045,  -0.00008,   0.00003,   0.00017,-250456701.69458,   0.00000
24943004.16423,115768840.35934,113173773.67234,  -0.00019,   0.00051,   0.00164,222624940.94198,   0.00019,274847648.81045,  -0.00008,   0.00003,   0.00017,-252222707.86847,   0.00000
21536951.17775,113296569.03389,112448124.06828,  -0.00020,   0.00050,   0.00163,220892806.50220,   0.00019,274847648.81045,  -0.00008,   0.00003,   0.00017,-253954842.30825,   0.00000
18083084.07007,110787733.96870,111722474.46422,  -0.00021,   0.00050,   0.00162,219187750.39071,   0.00019,274847648.81045,  -0.00008,   0.00003,   0.00017,-255659898.41974,   0.00000
14589840.62728,108262023.33132,111002450.05089,  -0.00022,   0.00049,   0.00161,217528469.93172,   0.00019,274847648.81045,  -0.00008,   0.00003,   0.00017,-257319178.87874,   0.00000
11048783.06330,105699748.95420,110276800.44684,  -0.00023,   0.00049,   0.00160,215892512.81713,   0.00019,274847648.81045,  -0.00008,   0.00003,   0.00017,-258955135.99332,   0.00000
7479599.54567,103109348.62344,109556776.03351,  -0.00024,   0.00048,   0.00160,214299619.85586,   0.00019,274847648.81045,  -0.00008,   0.00003,   0.00017,-260548028.95459,   0.00000
3899165.64658,100530198.67414,108831126.42945,  -0.00025,   0.00048,   0.00159,212749107.35605,   0.00019,274847648.81045,  -0.00008,   0.00003,   0.00017,-262098541.45440,   0.00000
242791.67265,97886359.03145,108105476.82540,  -0.00027,   0.00047,   0.00158,211230714.14529,   0.00019,274847648.81045,  -0.00008,   0.00003,   0.00017,-263616934.66516,   0.00000
-3424832.68274,95253769.77022,107385452.41207,  -0.00028,   0.00047,   0.00157,209776415.56533,   0.00019,274847648.81045,  -0.00008,   0.00003,   0.00017,-265071233.24512,   0.00000
-7120582.99177,92593054.55535,106659802.80801,  -0.00029,   0.00046,   0.00156,208356505.99054,   0.00019,274847648.81045,  -0.00008,   0.00003,   0.00017,-266491142.81991,   0.00000
-10864147.42200,89895775.60073,105939778.39468,  -0.00030,   0.00046,   0.00155,206991862.32253,   0.00019,274847648.81045,  -0.00008,   0.00003,   0.00017,-267855786.48792,   0.00000
-14647088.18734,87181621.07393,105219753.98136,  -0.00031,   0.00045,   0.00154,205683540.95873,   0.00019,274847648.81045,  -0.00008,   0.00003,   0.00017,-269164107.85172,   0.00000
-18477843.07387,84430902.80739,104494104.37730,  -0.00032,   0.00045,   0.00153,204419085.59387,   0.00019,274847648.81045,  -0.00008,   0.00003,   0.00017,-270428563.21658,   0.00000
-22328286.12795,81671746.75476,103774079.96397,  -0.00034,   0.00044,   0.00152,203223019.67691,   0.00019,274847648.81045,  -0.00008,   0.00003,   0.00017,-271624629.13355,   0.00000
-26218105.51714,78895715.12993,103054055.55064,  -0.00035,   0.00044,   0.00151,202091153.20371,   0.00019,274847648.81045,  -0.00008,   0.00003,   0.00017,-272756495.60675,   0.00000
-30136050.85998,76091557.55147,102334031.13732,  -0.00036,   0.00043,   0.00150,201017331.40918,   0.00019,274847648.81045,  -0.00008,   0.00003,   0.00017,-273830317.40127,   0.00000
-34093372.53791,73270524.40081,101614006.72399,  -0.00037,   0.00043,   0.00149,200012965.00210,   0.00019,274847648.81045,  -0.00008,   0.00003,   0.00017,-274834683.80835,   0.00000
-38098508.33705,70412927.51042,100888357.11993,  -0.00039,   0.00042,   0.00148,199066536.64281,   0.00019,274847648.81045,  -0.00008,   0.00003,   0.00017,-275781112.16764,   0.00000
-42131770.08983,67527204.66638,100173957.89733,  -0.00040,   0.00042,   0.00147,198203217.94870,   0.00019,274847648.81045,  -0.00008,   0.00003,   0.00017,-276644430.86176,   0.00000
-46204408.17772,64624606.25015,99453933.48400,  -0.00041,   0.00041,   0.00146,197409177.62320,   0.00019,274847648.81045,  -0.00008,   0.00003,   0.00017,-277438471.18725,   0.00000
-50296734.43315,61713570.04783,98733909.07068,  -0.00042,   0.00041,   0.00145,196691310.60480,   0.00019,274847648.81045,  -0.00008,   0.00003,   0.00017,-278156338.20565,   0.00000
-54456562.97734,58757532.31967,98013884.65735,  -0.00044,   0.00040,   0.00145,196055764.69881,   0.00019,274847648.81045,  -0.00008,   0.00003,   0.00017,-278791884.11165,   0.00000
-58616391.52153,55801494.59152,97299485.43475,  -0.00045,   0.00040,   0.00144,195504833.71445,   0.00019,274847648.81045,  -0.00008,   0.00003,   0.00017,-279342815.09600,   0.00000
-62843722.35446,52800455.33753,96579461.02142,  -0.00046,   0.00039,   0.00143,195033780.54122,   0.00019,274847648.81045,  -0.00008,   0.00003,   0.00017,-279813868.26923,   0.00000
-67090741.35495,49790978.29745,95865061.79882,  -0.00048,   0.00039,   0.00142,194656499.92542,   0.00019,274847648.81045,  -0.00008,   0.00003,   0.00017,-280191148.88503,   0.00000
-71365886.30908,46753375.30372,95150662.57622,  -0.00049,   0.00038,   0.00141,194361800.93719,   0.00019,274847648.81045,  -0.00008,   0.00003,   0.00017,-280485847.87327,   0.00000
-75700095.76587,43690458.95172,94430638.16290,  -0.00051,   0.00037,   0.00140,194160163.01144,   0.00019,274847648.81045,  -0.00008,   0.00003,   0.00017,-280687485.79901,   0.00000
-80042743.00876,40607854.43216,93716238.94030,  -0.00052,   0.00037,   0.00139,194047424.43471,   0.00019,274847648.81045,  -0.00008,   0.00003,   0.00017,-280800224.37574,   0.00000
-84444454.75430,37499936.55432,93007464.90843,  -0.00053,   0.00036,   0.00138,194048804.33039,   0.00019,274847648.81045,  -0.00008,   0.00003,   0.00017,-280798844.48006,   0.00000
-88865854.66739,34383580.89038,92293065.68583,  -0.00055,   0.00036,   0.00137,194136361.82855,   0.00019,274847648.81045,  -0.00008,   0.00003,   0.00017,-280711286.98190,   0.00000
-93335068.70168,31230661.48671,91578666.46323,  -0.00056,   0.00035,   0.00136,194323600.35635,   0.00019,274847648.81045,  -0.00008,   0.00003,   0.00017,-280524048.45410,   0.00000
-97832408.68961,28049616.12939,90869892.43136,  -0.00058,   0.00035,   0.00135,194612781.47962,   0.00019,274847648.81045,  -0.00008,   0.00003,   0.00017,-280234867.33083,   0.00000
-102369125.01265,24851695.19988,90155493.20876,  -0.00059,   0.00034,   0.00134,195000332.48690,   0.00019,274847648.81045,  -0.00008,   0.00003,   0.00017,-279847316.32355,   0.00000
-106933967.28933,21625648.31673,89446719.17689,  -0.00060,   0.00033,   0.00133,195492212.40141,   0.00019,274847648.81045,  -0.00008,   0.00003,   0.00017,-279355436.40905,   0.00000
-111538185.90112,18382725.86139,88737945.14502,  -0.00062,   0.00033,   0.00132,196092672.33731,   0.00019,274847648.81045,  -0.00008,   0.00003,   0.00017,-278754976.47314,   0.00000
-116181780.84801,15122927.83386,88029171.11315,  -0.00063,   0.00032,   0.00132,196802750.83256,   0.00019,274847648.81045,  -0.00008,   0.00003,   0.00017,-278044897.97789,   0.00000
-120853501.74855,11835003.85269,87320397.08129,  -0.00065,   0.00032,   0.00131,197611976.10262,   0.00019,274847648.81045,  -0.00008,   0.00003,   0.00017,-277235672.70783,   0.00000
-125573036.77028,8510516.13178,86617248.24014,  -0.00066,   0.00031,   0.00130,198538033.84182,   0.00019,274847648.81045,  -0.00008,   0.00003,   0.00017,-276309614.96864,   0.00000
-130312259.95957,5177590.62477,85908474.20828,  -0.00068,   0.00031,   0.00129,199558497.43443,   0.00019,274847648.81045,  -0.00008,   0.00003,   0.00017,-275289151.37602,   0.00000
-135090859.48396,1827789.54558,85205325.36714,  -0.00069,   0.00030,   0.00128,200697885.40033,   0.00019,274847648.81045,  -0.00008,   0.00003,   0.00017,-274149763.41013,   0.00000
-139897584.96199,-1550137.48726,84502176.52599,  -0.00071,   0.00029,   0.00127,201937441.36859,   0.00019,274847648.81045,  -0.00008,   0.00003,   0.00017,-272910207.44187,   0.00000
-144752124.56123,-4964628.25983,83799027.68485,  -0.00072,   0.00029,   0.00126,203288011.77949,   0.00019,274847648.81045,  -0.00008,   0.00003,   0.00017,-271559637.03096,   0.00000
-149646040.49556,-8395994.60460,83095878.84371,  -0.00074,   0.00028,   0.00125,204750526.38571,   0.00019,274847648.81045,  -0.00008,   0.00003,   0.00017,-270097122.42474,   0.00000
-154559644.59745,-11835798.73546,82398355.19330,  -0.00076,   0.00028,   0.00124,206319896.85777,   0.00019,274847648.81045,  -0.00008,   0.00003,   0.00017,-268527751.95268,   0.00000
-159521062.82054,-15312166.60606,81695206.35216,  -0.00077,   0.00027,   0.00123,207993122.62969,   0.00019,274847648.81045,  -0.00008,   0.00003,   0.00017,-266854526.18076,   0.00000
-164510606.99727,-18816660.43030,80997682.70175,  -0.00079,   0.00026,   0.00122,209771637.98872,   0.00019,274847648.81045,  -0.00008,   0.00003,   0.00017,-265076010.82174,   0.00000
-169539527.50911,-22338029.82673,80300159.05134,  -0.00080,   0.00026,   0.00122,211659647.95694,   0.00019,274847648.81045,  -0.00008,   0.00003,   0.00017,-263188000.85352,   0.00000
-174588136.18849,-25867837.00926,79602635.40093,  -0.00082,   0.00025,   0.00121,213643823.98505,   0.00019,274847648.81045,  -0.00008,   0.00003,   0.00017,-261203824.82540,   0.00000
-179684558.98908,-29434207.93152,78910736.94125,  -0.00084,   0.00024,   0.00120,215742332.14212,   0.00019,274847648.81045,  -0.00008,   0.00003,   0.00017,-259105316.66834,   0.00000
-184800669.95722,-33009016.63988,78213213.29084,  -0.00085,   0.00024,   0.00119,217928232.69674,   0.00019,274847648.81045,  -0.00008,   0.00003,   0.00017,-256919416.11372,   0.00000
-189964595.04655,-36620389.08798,77521314.83115,  -0.00087,   0.00023,   0.00118,220226441.74591,   0.00019,274847648.81045,  -0.00008,   0.00003,   0.00017,-254621207.06455,   0.00000
-195176334.25709,-40268325.27581,76829416.37147,  -0.00089,   0.00023,   0.00117,222630170.95733,   0.00019,274847648.81045,  -0.00008,   0.00003,   0.00017,-252217477.85312,   0.00000
-200407761.63517,-43924699.24974,76143143.10252,  -0.00090,   0.00022,   0.00116,225129150.03449,   0.00019,274847648.81045,  -0.00008,   0.00003,   0.00017,-249718498.77596,   0.00000
-205658877.18081,-47589511.00977,75451244.64284,  -0.00092,   0.00021,   0.00115,227709905.08984,   0.00019,274847648.81045,  -0.00008,   0.00003,   0.00017,-247137743.72061,   0.00000
-210957806.84764,-51290886.50953,74764971.37388,  -0.00094,   0.00021,   0.00114,230397789.08052,   0.00019,274847648.81045,  -0.00008,   0.00003,   0.00017,-244449859.72994,   0.00000
-216296112.84958,-55009137.58148,74078698.10493,  -0.00095,   0.00020,   0.00113,233183857.84607,   0.00019,274847648.81045,  -0.00008,   0.00003,   0.00017,-241663790.96438,   0.00000
-221662544.80516,-58755514.60708,73392424.83598,  -0.00097,   0.00019,   0.00113,236054954.29458,   0.00019,274847648.81045,  -0.00008,   0.00003,   0.00017,-238792694.51588,   0.00000
-227057102.71439,-62530017.58632,72711776.75775,  -0.00099,   0.00019,   0.00112,239014756.45737,   0.00019,274847648.81045,  -0.00008,   0.00003,   0.00017,-235832892.35308,   0.00000
-232482599.17263,-66301707.97019,72031128.67953,  -0.00100,   0.00018,   0.00111,242065141.01760,   0.00019,274847648.81045,  -0.00008,   0.00003,   0.00017,-232782507.79285,   0.00000
-237964347.53816,-70129650.26136,71350480.60130,  -0.00102,   0.00017,   0.00110,245213203.81177,   0.00019,274847648.81045,  -0.00008,   0.00003,   0.00017,-229634444.99869,   0.00000
-243465784.07124,-73966030.33862,70669832.52308,  -0.00104,   0.00017,   0.00109,248437194.82592,   0.00019,274847648.81045,  -0.00008,   0.00003,   0.00017,-226410453.98454,   0.00000
-248986908.77188,-77810848.20198,69989184.44486,  -0.00106,   0.00016,   0.00108,251735146.71719,   0.00019,274847648.81045,  -0.00008,   0.00003,   0.00017,-223112502.09326,   0.00000
-254555847.59371,-81692229.80507,69314161.55736,  -0.00107,   0.00015,   0.00107,255128250.36053,   0.00019,274847648.81045,  -0.00008,   0.00003,   0.00017,-219719398.44992,   0.00000
-260144474.58309,-85582049.19426,68639138.66987,  -0.00109,   0.00015,   0.00106,258591824.40874,   0.00019,274847648.81045,  -0.00008,   0.00003,   0.00017,-216255824.40171,   0.00000
-265780915.69367,-89508432.32319,67969740.97310,  -0.00111,   0.00014,   0.00105,262147436.68900,   0.00019,274847648.81045,  -0.00008,   0.00003,   0.00017,-212700212.12146,   0.00000
-271445482.75790,-93462941.40577,67294718.08561,  -0.00113,   0.00013,   0.00105,265769854.42802,   0.00019,274847648.81045,  -0.00008,   0.00003,   0.00017,-209077794.38243,   0.00000
-277149426.15723,-97434326.06053,66625320.38884,  -0.00115,   0.00012,   0.00104,269477614.48627,   0.00019,274847648.81045,  -0.00008,   0.00003,   0.00017,-205370034.32419,   0.00000
-282873057.72412,-101414148.50138,65955922.69208,  -0.00116,   0.00012,   0.00103,273249368.22227,   0.00019,274847648.81045,  -0.00008,   0.00003,   0.00017,-201598280.58819,   0.00000
-288624815.24464,-105422096.89588,65292150.18604,  -0.00118,   0.00011,   0.00102,277091796.84249,   0.00019,274847648.81045,  -0.00008,   0.00003,   0.00017,-197755851.96796,   0.00000
-294415949.10028,-109446920.86257,64628377.68000,  -0.00120,   0.00010,   0.00101,281010572.92156,   0.00019,274847648.81045,  -0.00008,   0.00003,   0.00017,-193837075.88889,   0.00000
-300254897.07711,-113508308.56900,63964605.17397,  -0.00122,   0.00010,   0.00100,285008992.79037,   0.00019,274847648.81045,  -0.00008,   0.00003,   0.00017,-189838656.02008,   0.00000
-306102282.84003,-117589384.44297,63300832.66793,  -0.00124,   0.00009,   0.00099,289054455.29721,   0.00019,274847648.81045,  -0.00008,   0.00003,   0.00017,-185793193.51324,   0.00000
-311989044.93806,-121687335.88914,62642685.35262,  -0.00126,   0.00008,   0.00099,293176012.41679,   0.00019,274847648.81045,  -0.00008,   0.00003,   0.00017,-181671636.39366,   0.00000
-317915183.37119,-125802162.90749,61984538.03731,  -0.00128,   0.00008,   0.00098,297368591.46186,   0.00019,274847648.81045,  -0.00008,   0.00003,   0.00017,-177479057.34859,   0.00000
-323869447.75797,-129945115.87949,61326390.72201,  -0.00130,   0.00007,   0.00097,301620088.87044,   0.00019,274847648.81045,  -0.00008,   0.00003,   0.00017,-173227559.94001,   0.00000
-329843400.31229,-134096506.63759,60673868.59743,  -0.00131,   0.00006,   0.00096,305927522.61667,   0.00019,274847648.81045,  -0.00008,   0.00003,   0.00017,-168920126.19378,   0.00000
-335865166.98782,-138284461.13542,60015721.28212,  -0.00133,   0.00005,   0.00095,310304252.88617,   0.00019,274847648.81045,  -0.00008,   0.00003,   0.00017,-164543395.92429,   0.00000
-341915059.61699,-142500541.58690,59368824.34827,  -0.00135,   0.00005,   0.00094,314743074.72413,   0.00019,274847648.81045,  -0.00008,   0.00003,   0.00017,-160104574.08632,   0.00000
-347984640.41372,-146725059.82447,58716302.22369,  -0.00137,   0.00004,   0.00093,319227659.20598,   0.00019,274847648.81045,  -0.00008,   0.00003,   0.00017,-155619989.60447,   0.00000
-354093597.54554,-150966453.63423,58069405.28984,  -0.00139,   0.00003,   0.00093,323779336.52683,   0.00019,274847648.81045,  -0.00008,   0.00003,   0.00017,-151068312.28362,   0.00000
-360230680.63102,-155235973.39763,57428133.54672,  -0.00141,   0.00002,   0.00092,328386299.83166,   0.00019,274847648.81045,  -0.00008,   0.00003,   0.00017,-146461348.97879,   0.00000
-366387451.88404,-159513930.94713,56781236.61288,  -0.00143,   0.00002,   0.00091,333035858.21713,   0.00019,274847648.81045,  -0.00008,   0.00003,   0.00017,-141811790.59332,   0.00000
-372592037.25827,-163828452.23637,56139964.86976,  -0.00145,   0.00001,   0.00090,337755086.08686,   0.00019,274847648.81045,  -0.00008,   0.00003,   0.00017,-137092562.72359,   0.00000
-378824748.58613,-168171099.47925,55498693.12664,  -0.00147,   0.00000,   0.00089,342523939.56922,   0.00019,274847648.81045,  -0.00008,   0.00003,   0.00017,-132323709.24123,   0.00000
-385077148.08155,-172522184.50823,54863046.57424,  -0.00149,  -0.00001,   0.00088,347338199.69751,   0.00019,274847648.81045,  -0.00008,   0.00003,   0.00017,-127509449.11294,   0.00000
-391368923.91208,-176890145.10939,54227400.02185,  -0.00151,  -0.00001,   0.00088,352210569.17446,   0.00019,274847648.81045,  -0.00008,   0.00003,   0.00017,-122637079.63599,   0.00000
-397688825.69625,-181286231.66420,53591753.46946,  -0.00153,  -0.00002,   0.00087,357129975.51176,   0.00019,274847648.81045,  -0.00008,   0.00003,   0.00017,-117717673.29870,   0.00000
-404028415.64797,-185690756.00510,52961732.10780,  -0.00155,  -0.00003,   0.00086,362091854.05242,   0.00019,274847648.81045,  -0.00008,   0.00003,   0.00017,-112755794.75804,   0.00000
-410415819.72089,-190131844.08575,52331710.74614,  -0.00157,  -0.00004,   0.00085,367115745.25750,   0.00019,274847648.81045,  -0.00008,   0.00003,   0.00017,-107731903.55295,   0.00000
-416811661.57990,-194592620.33394,51707314.57521,  -0.00159,  -0.00004,   0.00084,372170276.68339,   0.00019,274847648.81045,  -0.00008,   0.00003,   0.00017,-102677372.12707,   0.00000
-423246879.77402,-199070272.15432,51082918.40427,  -0.00161,  -0.00005,   0.00084,377278963.90741,   0.00019,274847648.81045,  -0.00008,   0.00003,   0.00017,-97568684.90304,   0.00000
-429721474.30324,-203564799.54689,50458522.23334,  -0.00163,  -0.00006,   0.00083,382441099.66412,   0.00019,274847648.81045,  -0.00008,   0.00003,   0.00017,-92406549.14633,   0.00000
-436204506.61855,-208079015.10701,49834126.06241,  -0.00165,  -0.00007,   0.00082,387629416.27413,   0.00019,274847648.81045,  -0.00008,   0.00003,   0.00017,-87218232.53632,   0.00000
-442735353.05507,-212629794.40687,49220980.27293,  -0.00168,  -0.00008,   0.00081,392880910.60096,   0.00019,274847648.81045,  -0.00008,   0.00003,   0.00017,-81966738.20950,   0.00000
-449277449.87304,-217169323.32528,48602209.29273,  -0.00170,  -0.00008,   0.00080,398158242.94889,   0.00019,274847648.81045,  -0.00008,   0.00003,   0.00017,-76689405.86156,   0.00000
-455856110.43075,-221756666.36488,47989063.50326,  -0.00172,  -0.00009,   0.00079,403485478.98393,   0.00019,274847648.81045,  -0.00008,   0.00003,   0.00017,-71362169.82653,   0.00000
-462474147.32356,-226360884.97666,47375917.71378,  -0.00174,  -0.00010,   0.00079,408863012.09666,   0.00019,274847648.81045,  -0.00008,   0.00003,   0.00017,-65984636.71380,   0.00000
-469092184.21637,-230965103.58845,46762771.92431,  -0.00176,  -0.00011,   0.00078,414256806.77881,   0.00019,274847648.81045,  -0.00008,   0.00003,   0.00017,-60590842.03164,   0.00000
-475758035.23038,-235605885.93998,46155251.32556,  -0.00178,  -0.00012,   0.00077,419708672.61363,   0.00019,274847648.81045,  -0.00008,   0.00003,   0.00017,-55138976.19682,   0.00000
-482452012.19804,-240274794.24515,45553355.91755,  -0.00180,  -0.00012,   0.00076,425201349.43988,   0.00019,274847648.81045,  -0.00008,   0.00003,   0.00017,-49646299.37057,   0.00000
-489165677.33325,-244952140.33642,44951460.50953,  -0.00182,  -0.00013,   0.00076,430725356.46304,   0.00019,274847648.81045,  -0.00008,   0.00003,   0.00017,-44122292.34741,   0.00000
-495899030.63601,-249637924.21378,44349565.10151,  -0.00185,  -0.00014,   0.00075,436280172.52447,   0.00019,274847648.81045,  -0.00008,   0.00003,   0.00017,-38567476.28599,   0.00000
-502680198.05997,-254360271.83087,43753294.88423,  -0.00187,  -0.00015,   0.00074,441891061.26356,   0.00019,274847648.81045,  -0.00008,   0.00003,   0.00017,-32956587.54690,   0.00000
-509461365.48393,-259082619.44797,43157024.66694,  -0.00189,  -0.00016,   0.00073,447515014.13691,   0.00019,274847648.81045,  -0.00008,   0.00003,   0.00017,-27332634.67354,   0.00000
-516290347.02908,-263841530.80481,42560754.44965,  -0.00191,  -0.00017,   0.00072,453192557.05595,   0.00019,274847648.81045,  -0.00008,   0.00003,   0.00017,-21655091.75451,   0.00000
-523147454.52788,-268628568.11530,41970109.42309,  -0.00193,  -0.00017,   0.00072,458908144.85979,   0.00019,274847648.81045,  -0.00008,   0.00003,   0.00017,-15939503.95067,   0.00000
-530024250.19424,-273424043.21187,41379464.39654,  -0.00195,  -0.00018,   0.00071,464652364.60506,   0.00019,274847648.81045,  -0.00008,   0.00003,   0.00017,-10195284.20539,   0.00000
-536920734.02814,-278227956.09454,40794444.56071,  -0.00198,  -0.00019,   0.00070,470426266.15601,   0.00019,274847648.81045,  -0.00008,   0.00003,   0.00017,-4421382.65445,   0.00000
-542190894.76720,-281905509.36413,40353480.66459,  -0.00199,  -0.00020,   0.00070,474847651.80172,   0.00019,274847648.81045,  -0.00008,   0.00003,   0.00017,  -2.55288,   0.00000
-542268344.34454,-282348918.16829,40081518.16201,  -0.00200,  -0.00020,   0.00069,474854264.78120,   0.00020,274854269.85960,  -0.00008,   0.00003,   0.00017,  -5.07839,   1.00000
-542580714.64012,-284181396.27191,38950239.50143,  -0.00202,  -0.00021,   0.00069,474882002.48214,   0.00022,274882011.73502,  -0.00011,   0.00003,   0.00018,  -9.25288,   1.00000
-542872044.01126,-285997331.68564,37836395.16007,  -0.00204,  -0.00022,   0.00068,474909835.92936,   0.00025,274909843.22781,  -0.00013,   0.00003,   0.00019,  -7.29845,   1.00000
-543143387.89613,-287796371.13793,36738515.94496,  -0.00206,  -0.00023,   0.00067,474937838.74618,   0.00027,274937843.13596,  -0.00015,   0.00003,   0.00019,  -4.38977,   1.00000
-543396590.79852,-289549196.03822,35655445.80139,  -0.00209,  -0.00023,   0.00066,474965765.36431,   0.00030,274965772.80707,  -0.00018,   0.00002,   0.00020,  -7.44276,   1.00000
-543631370.45147,-291302022.95491,34583728.71482,  -0.00211,  -0.00024,   0.00066,474993810.94680,   0.00032,274993820.86210,  -0.00020,   0.00002,   0.00021,  -9.91530,   1.00000
-543848260.20593,-293022800.74027,33528816.24002,  -0.00213,  -0.00025,   0.00065,475021995.33790,   0.00035,275021998.35144,  -0.00023,   0.00002,   0.00021,  -3.01355,   1.00000
-544047018.45155,-294713059.95220,32493354.09453,  -0.00215,  -0.00026,   0.00064,475050143.25607,   0.00037,275050147.03298,  -0.00025,   0.00002,   0.00022,  -3.77691,   1.00000
-544229794.69054,-296387638.84562,31468583.84083,  -0.00218,  -0.00027,   0.00063,475078449.68854,   0.00040,275078455.02712,  -0.00028,   0.00002,   0.00023,  -5.33858,   1.00000
-544396884.38604,-298032888.56936,30457665.51530,  -0.00220,  -0.00028,   0.00063,475106727.57015,   0.00043,275106728.30652,  -0.00030,   0.00002,   0.00023,  -0.73637,   1.00000
-544547639.30581,-299662032.56395,29463015.92124,  -0.00222,  -0.00029,   0.00062,475135160.48924,   0.00045,275135165.31271,  -0.00033,   0.00002,   0.00024,  -4.82348,   1.00000
-544683800.78941,-301262426.04615,28482052.24945,  -0.00225,  -0.00030,   0.00061,475163562.19388,   0.00048,275163567.47236,  -0.00036,   0.00001,   0.00024,  -5.27848,   1.00000
-544804230.05955,-302847915.93663,27518485.19404,  -0.00227,  -0.00030,   0.00061,475192050.32604,   0.00050,275192054.77818,  -0.00038,   0.00001,   0.00025,  -4.45213,   1.00000
-544911919.57761,-304403259.71201,26566226.91752,  -0.00229,  -0.00031,   0.00060,475220657.46724,   0.00053,275220662.00444,  -0.00041,   0.00001,   0.00025,  -4.53720,   1.00000
-545004451.17063,-305945109.55725,25632371.69639,  -0.00232,  -0.00032,   0.00059,475249272.24726,   0.00056,275249276.58337,  -0.00043,   0.00001,   0.00026,  -4.33610,   1.00000
-545084854.67551,-307458302.18349,24710766.86327,  -0.00234,  -0.00033,   0.00058,475277927.54410,   0.00058,275277933.43455,  -0.00046,   0.00001,   0.00026,  -5.89044,   1.00000
-545151447.14522,-308957366.27121,23806382.27585,  -0.00236,  -0.00034,   0.00058,475306670.14049,   0.00061,275306674.51791,  -0.00048,   0.00000,   0.00027,  -4.37742,   1.00000
-545206886.59242,-310428259.28777,22914102.91287,  -0.00239,  -0.00035,   0.00057,475335457.26418,   0.00064,275335457.56650,  -0.00051,   0.00000,   0.00027,  -0.30232,   1.00000
-545250751.65229,-311870902.02339,22039377.64808,  -0.00241,  -0.00036,   0.00056,475364281.85223,   0.00066,275364286.34448,  -0.00054,  -0.00000,   0.00028,  -4.49225,   1.00000
-545281695.70277,-313315086.19363,21175703.82000,  -0.00243,  -0.00037,   0.00056,475393227.45797,   0.00069,275393233.71500,  -0.00056,  -0.00001,   0.00028,  -6.25704,   1.00000
-545303423.24419,-314716845.10415,20329860.08684,  -0.00246,  -0.00038,   0.00055,475422183.57970,   0.00072,275422187.67928,  -0.00059,  -0.00001,   0.00028,  -4.09958,   1.00000
-545314025.20365,-316107527.28445,19496141.42915,  -0.00248,  -0.00039,   0.00054,475451138.79442,   0.00074,275451146.32484,  -0.00061,  -0.00001,   0.00029,  -7.53042,   1.00000
-545313817.11553,-317483822.78987,18678443.75465,  -0.00250,  -0.00040,   0.00054,475480256.55719,   0.00077,275480264.15048,  -0.00064,  -0.00001,   0.00029,  -7.59329,   1.00000
-545304763.70805,-318834998.88425,17873038.61679,  -0.00253,  -0.00040,   0.00053,475509342.32250,   0.00080,275509348.17668,  -0.00067,  -0.00002,   0.00030,  -5.85419,   1.00000
-545286971.51738,-320159533.08592,17084606.20943,  -0.00255,  -0.00041,   0.00052,475538470.62203,   0.00082,275538476.86390,  -0.00069,  -0.00002,   0.00030,  -6.24187,   1.00000
-545259250.16384,-321471988.85666,16312647.70021,  -0.00257,  -0.00042,   0.00052,475567683.23868,   0.00085,275567689.07128,  -0.00072,  -0.00002,   0.00030,  -5.83260,   1.00000
-545223217.69364,-322773101.65918,15546008.32641,  -0.00260,  -0.00043,   0.00051,475596970.46971,   0.00088,275596979.49486,  -0.00075,  -0.00003,   0.00031,  -9.02515,   1.00000
-545178667.47936,-324049645.29922,14802196.13077,  -0.00262,  -0.00044,   0.00050,475626232.77382,   0.00090,275626241.94657,  -0.00077,  -0.00003,   0.00031,  -9.17275,   1.00000
-545127703.49722,-325300958.94036,14069292.20876,  -0.00265,  -0.00045,   0.00050,475655544.76411,   0.00093,275655546.16712,  -0.00080,  -0.00003,   0.00031,  -1.40301,   1.00000
-545068777.64208,-326541329.93679,13346928.29513,  -0.00267,  -0.00046,   0.00049,475684927.70278,   0.00096,275684931.82979,  -0.00083,  -0.00004,   0.00032,  -4.12701,   1.00000
-545003578.35078,-327756650.71298,12640853.03658,  -0.00269,  -0.00047,   0.00048,475714356.02826,   0.00099,275714361.51088,  -0.00085,  -0.00004,   0.00032,  -5.48262,   1.00000
-544930566.37004,-328961164.89986,11950636.85987,  -0.00272,  -0.00048,   0.00048,475743869.57489,   0.00101,275743874.75621,  -0.00088,  -0.00005,   0.00032,  -5.18132,   1.00000
-544852103.14159,-330143407.45916,11271318.53635,  -0.00274,  -0.00049,   0.00047,475773351.24905,   0.00104,275773356.08119,  -0.00091,  -0.00005,   0.00032,  -4.83214,   1.00000
-544766877.20136,-331315496.12212,10602090.30039,  -0.00277,  -0.00050,   0.00046,475802914.27409,   0.00107,275802919.40137,  -0.00093,  -0.00005,   0.00033,  -5.12728,   1.00000
-544676363.52327,-332465637.21987,9949043.29181,  -0.00279,  -0.00051,   0.00046,475832446.37462,   0.00109,275832453.06969,  -0.00096,  -0.00006,   0.00033,  -6.69507,   1.00000
-544581870.41748,-333590077.63290,9311194.43224,  -0.00282,  -0.00052,   0.00045,475862101.95576,   0.00112,275862103.86565,  -0.00099,  -0.00006,   0.00033,  -1.90989,   1.00000
-544481003.25708,-334707241.93286,8683403.01555,  -0.00284,  -0.00053,   0.00044,475891763.20768,   0.00115,275891763.90763,  -0.00102,  -0.00007,   0.00033,  -0.69995,   1.00000
-544373612.93550,-335817014.79460,8071080.62872,  -0.00286,  -0.00054,   0.00044,475921425.53641,   0.00118,275921434.89960,  -0.00104,  -0.00007,   0.00033,  -9.36319,   1.00000
-544263533.93287,-336901755.76315,7468062.31885,  -0.00289,  -0.00055,   0.00043,475951219.23359,   0.00120,275951221.02349,  -0.00107,  -0.00008,   0.00033,  -1.78990,   1.00000
-544149744.60506,-337966146.16643,6880393.75579,  -0.00291,  -0.00056,   0.00043,475980974.24312,   0.00123,275980978.05051,  -0.00110,  -0.00008,   0.00034,  -3.80739,   1.00000
-544030229.52055,-339024011.44714,6307699.64108,  -0.00294,  -0.00057,   0.00042,476010736.67892,   0.00126,276010746.63941,  -0.00112,  -0.00009,   0.00034,  -9.96049,   1.00000
-543908368.07561,-340059907.90752,5744147.06258,  -0.00296,  -0.00058,   0.00041,476040554.93965,   0.00129,276040557.74914,  -0.00115,  -0.00009,   0.00034,  -2.80949,   1.00000
-543781974.43249,-341087474.86796,5189527.59721,  -0.00299,  -0.00059,   0.00041,476070450.96462,   0.00132,276070452.26406,  -0.00118,  -0.00010,   0.00034,  -1.29945,   1.00000
-543652740.21113,-342095679.30777,4655129.96510,  -0.00301,  -0.00060,   0.00040,476100318.18413,   0.00134,276100318.90336,  -0.00121,  -0.00010,   0.00034,  -0.71923,   1.00000
-543519588.16184,-343096022.11904,4123783.23388,  -0.00304,  -0.00061,   0.00040,476130267.08234,   0.00137,276130268.43031,  -0.00123,  -0.00011,   0.00034,  -1.34797,   1.00000
-543384690.80683,-344075073.98661,3612188.36140,  -0.00306,  -0.00062,   0.00039,476160261.63871,   0.00140,276160261.97094,  -0.00126,  -0.00011,   0.00034,  -0.33223,   1.00000
-543248038.67116,-345035898.52814,3109134.33011,  -0.00309,  -0.00063,   0.00038,476190222.28042,   0.00143,276190226.60772,  -0.00129,  -0.00012,   0.00034,  -4.32730,   1.00000
-543107844.26680,-345989397.61319,2614324.00474,  -0.00311,  -0.00064,   0.00038,476220266.21932,   0.00146,276220275.32557,  -0.00132,  -0.00012,   0.00034,  -9.10625,   1.00000
-542963553.51628,-346938115.10230,2133306.92349,  -0.00314,  -0.00065,   0.00037,476250330.52678,   0.00148,276250337.01597,  -0.00134,  -0.00013,   0.00034,  -6.48919,   1.00000
-542820602.46753,-347856115.70409,1665961.08861,  -0.00316,  -0.00066,   0.00037,476280320.47995,   0.00151,276280329.44750,  -0.00137,  -0.00013,   0.00034,  -8.96754,   1.00000
-542671956.32809,-348780366.26652,1206380.89113,  -0.00319,  -0.00067,   0.00036,476310443.35795,   0.00154,276310447.62396,  -0.00140,  -0.00014,   0.00035,  -4.26602,   1.00000
-542525751.14927,-349671792.46192,760105.81664,  -0.00321,  -0.00068,   0.00036,476340565.69335,   0.00157,276340567.61992,  -0.00142,  -0.00014,   0.00035,  -1.92658,   1.00000
-542376138.54413,-350559521.47964,321401.29440,  -0.00324,  -0.00069,   0.00035,476370700.26235,   0.00160,276370701.34560,  -0.00145,  -0.00015,   0.00035,  -1.08325,   1.00000
-542223896.11122,-351440844.75070,-104299.60803,  -0.00326,  -0.00070,   0.00034,476400912.48338,   0.00162,276400919.82706,  -0.00148,  -0.00016,   0.00035,  -7.34369,   1.00000
-542071293.17240,-352305770.36441,-517191.32116,  -0.00329,  -0.00071,   0.00034,476431107.96915,   0.00165,276431110.57467,  -0.00151,  -0.00016,   0.00035,  -2.60552,   1.00000
-541918448.48090,-353154620.21085,-923015.11962,  -0.00331,  -0.00072,   0.00033,476461270.82106,   0.00168,276461273.97808,  -0.00153,  -0.00017,   0.00034,  -3.15702,   1.00000
-541763430.37662,-353997659.40050,-1316272.61750,  -0.00334,  -0.00073,   0.00033,476491520.14823,   0.00171,276491522.26255,  -0.00156,  -0.00018,   0.00034,  -2.11432,   1.00000
-541608429.99336,-354825026.93863,-1702761.32822,  -0.00336,  -0.00074,   0.00032,476521734.66455,   0.00174,276521743.46959,  -0.00159,  -0.00018,   0.00034,  -8.80504,   1.00000
-541453659.47171,-355637096.99925,-2077064.16830,  -0.00339,  -0.00075,   0.00032,476551933.25586,   0.00176,276551937.53981,  -0.00162,  -0.00019,   0.00034,  -4.28395,   1.00000
-541297093.32599,-356443904.09150,-2439229.47801,  -0.00341,  -0.00076,   0.00031,476582207.29482,   0.00179,276582216.66402,  -0.00165,  -0.00019,   0.00034,  -9.36920,   1.00000
-541138773.69402,-357245417.11801,-2794943.72735,  -0.00344,  -0.00077,   0.00031,476612577.10131,   0.00182,276612580.96979,  -0.00167,  -0.00020,   0.00034,  -3.86847,   1.00000
-540980254.49661,-358035044.68245,-3139069.40864,  -0.00346,  -0.00078,   0.00030,476642843.91484,   0.00185,276642848.27020,  -0.00170,  -0.00021,   0.00034,  -4.35537,   1.00000
-540823146.38784,-358807095.26443,-3477079.79678,  -0.00349,  -0.00079,   0.00030,476673153.56068,   0.00188,276673158.94090,  -0.00173,  -0.00021,   0.00034,  -5.38022,   1.00000
-540664684.74383,-359574417.39692,-3803431.80894,  -0.00351,  -0.00080,   0.00029,476703547.53474,   0.00191,276703554.61701,  -0.00176,  -0.00022,   0.00034,  -7.08228,   1.00000
-540506332.78999,-360330629.72252,-4118713.73740,  -0.00354,  -0.00081,   0.00029,476733848.85871,   0.00194,276733853.80656,  -0.00178,  -0.00023,   0.00034,  -4.94785,   1.00000
-540349727.20264,-361069848.70561,-4428312.72445,  -0.00357,  -0.00082,   0.00028,476764196.37368,   0.00196,276764196.38695,  -0.00181,  -0.00023,   0.00034,  -0.01327,   1.00000
-540191160.20222,-361807881.96759,-4726847.98291,  -0.00359,  -0.00083,   0.00028,476794549.84267,   0.00199,276794554.74149,  -0.00184,  -0.00024,   0.00034,  -4.89882,   1.00000
-540034734.67052,-362529334.79167,-5014419.49770,  -0.00362,  -0.00085,   0.00027,476824950.39516,   0.00202,276824955.63118,  -0.00187,  -0.00025,   0.00034,  -5.23602,   1.00000
-539875391.36722,-363252870.74743,-5297010.73655,  -0.00364,  -0.00086,   0.00027,476855298.30165,   0.00205,276855304.00953,  -0.00189,  -0.00026,   0.00033,  -5.70788,   1.00000
-539718155.47741,-363959942.23417,-5574408.00868,  -0.00367,  -0.00087,   0.00026,476885688.90950,   0.00208,276885695.72194,  -0.00192,  -0.00026,   0.00033,  -6.81244,   1.00000
-539562634.24913,-364654270.12814,-5835864.81329,  -0.00369,  -0.00088,   0.00026,476916057.99593,   0.00211,276916060.12894,  -0.00195,  -0.00027,   0.00033,  -2.13301,   1.00000
-539406178.41004,-365344853.15680,-6092312.67308,  -0.00372,  -0.00089,   0.00025,476946500.99683,   0.00214,276946510.50554,  -0.00198,  -0.00028,   0.00033,  -9.50871,   1.00000
-539250404.96563,-366026069.71885,-6338945.54034,  -0.00374,  -0.00090,   0.00025,476976858.28271,   0.00216,276976865.67742,  -0.00200,  -0.00029,   0.00033,  -7.39471,   1.00000
-539097049.43099,-366691575.56037,-6580953.30378,  -0.00377,  -0.00091,   0.00024,477007254.34264,   0.00219,277007264.21397,  -0.00203,  -0.00029,   0.00033,  -9.87133,   1.00000
-538942189.33390,-367357136.61342,-6812976.08182,  -0.00380,  -0.00092,   0.00024,477037671.17517,   0.00222,277037679.30909,  -0.00206,  -0.00030,   0.00033,  -8.13392,   1.00000
-538785594.30496,-368022546.19752,-7040698.71504,  -0.00382,  -0.00093,   0.00023,477068107.49073,   0.00225,277068111.95843,  -0.00209,  -0.00031,   0.00032,  -4.46770,   1.00000
-538634463.90286,-368664059.94688,-7253506.78882,  -0.00385,  -0.00094,   0.00023,477098466.34936,   0.00228,277098474.42289,  -0.00211,  -0.00032,   0.00032,  -8.07353,   1.00000
-538481357.90042,-369305677.28498,-7467863.08545,  -0.00387,  -0.00095,   0.00022,477128850.97595,   0.00231,277128855.95638,  -0.00214,  -0.00032,   0.00032,  -4.98042,   1.00000
-538327177.81637,-369947902.85542,-7667164.99474,  -0.00390,  -0.00096,   0.00022,477159246.97818,   0.00234,277159253.21503,  -0.00217,  -0.00033,   0.00032,  -6.23685,   1.00000
-538179166.60025,-370563120.58780,-7862795.84917,  -0.00392,  -0.00098,   0.00022,477189648.84758,   0.00236,277189650.51412,  -0.00220,  -0.00034,   0.00032,  -1.66655,   1.00000
-538028745.66936,-371182574.84519,-8049526.71887,  -0.00395,  -0.00099,   0.00021,477219995.93287,   0.00239,277219997.04287,  -0.00222,  -0.00035,   0.00032,  -1.11001,   1.00000
-537877806.24061,-371799254.33715,-8232385.81873,  -0.00397,  -0.00100,   0.00021,477250426.10344,   0.00242,277250429.75957,  -0.00225,  -0.00036,   0.00031,  -3.65613,   1.00000
-537727915.30539,-372408264.61623,-8406779.56489,  -0.00400,  -0.00101,   0.00020,477280764.86124,   0.00245,277280768.68112,  -0.00228,  -0.00036,   0.00031,  -3.81989,   1.00000
