# sigma_xx, sigma_yy, sigma_xy, epsilon_xx, epsilon_yy, epsilon_xy, vonMises, epsPlastic, hardening, epsilonP__xx, epsilonP__yy, epsilonP__xy, yieldValue, iteration
   0.00000,   0.00000,   0.00000,   0.00000,   0.00000,   0.00000,   0.00000,   0.00000,274640135.82653,   0.00000,   0.00000,   0.00000,-474640135.82653,   0.00000
   0.00000,   0.00000,   0.00000,   0.00000,   0.00000,   0.00000,   0.00000,   0.00000,274640135.82653,   0.00000,   0.00000,   0.00000,-474640135.82653,   0.00000
-2853380.67692,-2654802.40280,-264771.03216,  -0.00001,  -0.00001,  -0.00000,2797303.39908,   0.00000,274640135.82653,   0.00000,   0.00000,   0.00000,-471842832.42744,   0.00000
-5723309.54334,-5316696.88681,-534270.11846,  -0.00002,  -0.00001,  -0.00001,5608098.56923,   0.00000,274640135.82653,   0.00000,   0.00000,   0.00000,-469032037.25730,   0.00000
-8576690.22026,-7971499.28961,-803769.20476,  -0.00002,  -0.00002,  -0.00001,8406751.50484,   0.00000,274640135.82653,   0.00000,   0.00000,   0.00000,-466233384.32169,   0.00000
-11439527.00546,-10616845.58412,-1077996.34521,  -0.00003,  -0.00003,  -0.00001,11207797.50237,   0.00000,274640135.82653,   0.00000,   0.00000,   0.00000,-463432338.32415,   0.00000
-14302363.79067,-13262191.87862,-1352223.48566,  -0.00004,  -0.00003,  -0.00002,14008860.60970,   0.00000,274640135.82653,   0.00000,   0.00000,   0.00000,-460631275.21683,   0.00000
-17148652.38637,-15900446.09191,-1626450.62611,  -0.00005,  -0.00004,  -0.00002,16797775.64707,   0.00000,274640135.82653,   0.00000,   0.00000,   0.00000,-457842360.17946,   0.00000
-20011489.17157,-18545792.38641,-1905405.82071,  -0.00005,  -0.00005,  -0.00002,19600227.15710,   0.00000,274640135.82653,   0.00000,   0.00000,   0.00000,-455039908.66943,   0.00000
-22874325.95678,-21191138.68092,-2184361.01530,  -0.00006,  -0.00005,  -0.00003,22402688.05576,   0.00000,274640135.82653,   0.00000,   0.00000,   0.00000,-452237447.77077,   0.00000
-25730070.66077,-23819936.78592,-2468044.26404,  -0.00007,  -0.00006,  -0.00003,25195455.85070,   0.00000,274640135.82653,   0.00000,   0.00000,   0.00000,-449444679.97583,   0.00000
-28585815.36476,-26448734.89091,-2746999.45864,  -0.00008,  -0.00006,  -0.00004,27986850.18454,   0.00000,274640135.82653,   0.00000,   0.00000,   0.00000,-446653285.64199,   0.00000
-31441560.06875,-29077532.99591,-3035410.76152,  -0.00009,  -0.00007,  -0.00004,30781045.78822,   0.00000,274640135.82653,   0.00000,   0.00000,   0.00000,-443859090.03831,   0.00000
-34290212.69152,-31689782.91139,-3319094.01026,  -0.00009,  -0.00008,  -0.00004,33562788.71560,   0.00000,274640135.82653,   0.00000,   0.00000,   0.00000,-441077347.11093,   0.00000
-37155413.50380,-34309124.90810,-3607505.31315,  -0.00010,  -0.00008,  -0.00005,36358126.53915,   0.00000,274640135.82653,   0.00000,   0.00000,   0.00000,-438282009.28738,   0.00000
-40004066.12657,-36921374.82358,-3900644.67018,  -0.00011,  -0.00009,  -0.00005,39142728.47062,   0.00000,274640135.82653,   0.00000,   0.00000,   0.00000,-435497407.35591,   0.00000
-42869266.93884,-39540716.82029,-4193784.02721,  -0.00012,  -0.00010,  -0.00005,41939531.03713,   0.00000,274640135.82653,   0.00000,   0.00000,   0.00000,-432700604.78940,   0.00000
-45717919.56161,-42152966.73578,-4486923.38425,  -0.00013,  -0.00010,  -0.00006,44724179.98721,   0.00000,274640135.82653,   0.00000,   0.00000,   0.00000,-429915955.83932,   0.00000
-48576028.29268,-44755760.54297,-4780062.74128,  -0.00013,  -0.00011,  -0.00006,47509983.53511,   0.00000,274640135.82653,   0.00000,   0.00000,   0.00000,-427130152.29142,   0.00000
-51434137.02374,-47358554.35016,-5077930.15246,  -0.00014,  -0.00012,  -0.00007,50297245.17030,   0.00000,274640135.82653,   0.00000,   0.00000,   0.00000,-424342890.65623,   0.00000
-54285153.67358,-49944799.96785,-5380525.61778,  -0.00015,  -0.00012,  -0.00007,53074946.81592,   0.00000,274640135.82653,   0.00000,   0.00000,   0.00000,-421565189.01061,   0.00000
-57143262.40464,-52547593.77504,-5683121.08310,  -0.00016,  -0.00013,  -0.00007,55863715.46638,   0.00000,274640135.82653,   0.00000,   0.00000,   0.00000,-418776420.36015,   0.00000
-59994279.05448,-55133839.39273,-5985716.54843,  -0.00017,  -0.00013,  -0.00008,58641497.48576,   0.00000,274640135.82653,   0.00000,   0.00000,   0.00000,-415998638.34077,   0.00000
-62838203.62311,-57703536.82090,-6288312.01375,  -0.00017,  -0.00014,  -0.00008,61408305.65682,   0.00000,274640135.82653,   0.00000,   0.00000,   0.00000,-413231830.16971,   0.00000
-65689220.27295,-60289782.43859,-6595635.53322,  -0.00018,  -0.00015,  -0.00009,64187615.25407,   0.00000,274640135.82653,   0.00000,   0.00000,   0.00000,-410452520.57246,   0.00000
-68533144.84157,-62859479.86676,-6907687.10683,  -0.00019,  -0.00015,  -0.00009,66957424.80203,   0.00000,274640135.82653,   0.00000,   0.00000,   0.00000,-407682711.02450,   0.00000
-71393617.59971,-65436269.37616,-7215010.62630,  -0.00020,  -0.00016,  -0.00009,69738017.79419,   0.00000,274640135.82653,   0.00000,   0.00000,   0.00000,-404902118.03234,   0.00000
-74230450.08711,-67989418.61482,-7527062.19992,  -0.00021,  -0.00016,  -0.00010,72496935.21013,   0.00000,274640135.82653,   0.00000,   0.00000,   0.00000,-402143200.61640,   0.00000
-77083830.76403,-70549659.93471,-7843841.82768,  -0.00021,  -0.00017,  -0.00010,75269588.80681,   0.00000,274640135.82653,   0.00000,   0.00000,   0.00000,-399370547.01972,   0.00000
-79920663.25144,-73102809.17337,-8160621.45544,  -0.00022,  -0.00018,  -0.00011,78030092.63435,   0.00000,274640135.82653,   0.00000,   0.00000,   0.00000,-396610043.19218,   0.00000
-82774043.92835,-75663050.49325,-8477401.08320,  -0.00023,  -0.00018,  -0.00011,80802858.11957,   0.00000,274640135.82653,   0.00000,   0.00000,   0.00000,-393837277.70696,   0.00000
-85620332.52405,-78206743.62363,-8794180.71096,  -0.00024,  -0.00019,  -0.00011,83564714.67188,   0.00000,274640135.82653,   0.00000,   0.00000,   0.00000,-391075421.15465,   0.00000
-88466621.11975,-80750436.75400,-9115688.39286,  -0.00025,  -0.00019,  -0.00012,86328124.72980,   0.00000,274640135.82653,   0.00000,   0.00000,   0.00000,-388312011.09673,   0.00000
-91305817.63422,-83277581.69487,-9441924.12892,  -0.00025,  -0.00020,  -0.00012,89082153.39403,   0.00000,274640135.82653,   0.00000,   0.00000,   0.00000,-385557982.43250,   0.00000
-94145014.14870,-85804726.63573,-9768159.86497,  -0.00026,  -0.00021,  -0.00013,91836258.85448,   0.00000,274640135.82653,   0.00000,   0.00000,   0.00000,-382803876.97204,   0.00000
-96984210.66318,-88331871.57659,-10094395.60102,  -0.00027,  -0.00021,  -0.00013,94590434.40315,   0.00000,274640135.82653,   0.00000,   0.00000,   0.00000,-380049701.42338,   0.00000
-99823407.17766,-90859016.51746,-10420631.33707,  -0.00028,  -0.00022,  -0.00014,97344674.09099,   0.00000,274640135.82653,   0.00000,   0.00000,   0.00000,-377295461.73554,   0.00000
-102672059.80043,-93376705.35003,-10751595.12727,  -0.00029,  -0.00022,  -0.00014,100101811.58883,   0.00000,274640135.82653,   0.00000,   0.00000,   0.00000,-374538324.23770,   0.00000
-105504164.23369,-95887302.10138,-11082558.91746,  -0.00029,  -0.00023,  -0.00014,102846794.03160,   0.00000,274640135.82653,   0.00000,   0.00000,   0.00000,-371793341.79493,   0.00000
-108345724.77524,-98388442.74445,-11418250.76181,  -0.00030,  -0.00024,  -0.00015,105594715.56604,   0.00000,274640135.82653,   0.00000,   0.00000,   0.00000,-369045420.26049,   0.00000
-111170737.12728,-100882491.30629,-11753942.60615,  -0.00031,  -0.00024,  -0.00015,108330487.04864,   0.00000,274640135.82653,   0.00000,   0.00000,   0.00000,-366309648.77789,   0.00000
-114012297.66883,-103383631.94935,-12089634.45049,  -0.00032,  -0.00025,  -0.00016,111078583.61678,   0.00000,274640135.82653,   0.00000,   0.00000,   0.00000,-363561552.20975,   0.00000
-116846766.12917,-105868224.40291,-12430054.34898,  -0.00033,  -0.00025,  -0.00016,113817427.44021,   0.00000,274640135.82653,   0.00000,   0.00000,   0.00000,-360822708.38632,   0.00000
-119681234.58950,-108352816.85646,-12770474.24747,  -0.00033,  -0.00026,  -0.00017,116556368.24507,   0.00000,274640135.82653,   0.00000,   0.00000,   0.00000,-358083767.58146,   0.00000
-122508610.96861,-110820861.12050,-13115622.20011,  -0.00034,  -0.00027,  -0.00017,119286092.63371,   0.00000,274640135.82653,   0.00000,   0.00000,   0.00000,-355354043.19282,   0.00000
-125335987.34773,-113288905.38454,-13460770.15274,  -0.00035,  -0.00027,  -0.00017,122015925.16986,   0.00000,274640135.82653,   0.00000,   0.00000,   0.00000,-352624210.65667,   0.00000
-128163363.72684,-115756949.64859,-13805918.10537,  -0.00036,  -0.00028,  -0.00018,124745858.75371,   0.00000,274640135.82653,   0.00000,   0.00000,   0.00000,-349894277.07282,   0.00000
-130983648.02474,-118208445.72312,-14155794.11215,  -0.00037,  -0.00028,  -0.00018,127466618.22937,   0.00000,274640135.82653,   0.00000,   0.00000,   0.00000,-347173517.59716,   0.00000
-133803932.32263,-120659941.79765,-14505670.11893,  -0.00037,  -0.00029,  -0.00019,130187490.06746,   0.00000,274640135.82653,   0.00000,   0.00000,   0.00000,-344452645.75907,   0.00000
-136640764.81004,-123118529.95341,-14855546.12571,  -0.00038,  -0.00029,  -0.00019,132920738.34703,   0.00000,274640135.82653,   0.00000,   0.00000,   0.00000,-341719397.47950,   0.00000
-139453957.02672,-125553477.83843,-15210150.18664,  -0.00039,  -0.00030,  -0.00020,135632586.90595,   0.00000,274640135.82653,   0.00000,   0.00000,   0.00000,-339007548.92058,   0.00000
-142276605.35168,-127978969.61516,-15564754.24757,  -0.00040,  -0.00030,  -0.00020,138346017.16445,   0.00000,274640135.82653,   0.00000,   0.00000,   0.00000,-336294118.66208,   0.00000
-145089797.56836,-130413917.50018,-15919358.30849,  -0.00041,  -0.00031,  -0.00021,141058102.40052,   0.00000,274640135.82653,   0.00000,   0.00000,   0.00000,-333582033.42601,   0.00000
-147905353.81211,-132822861.08741,-16278690.42356,  -0.00041,  -0.00032,  -0.00021,143762586.00894,   0.00000,274640135.82653,   0.00000,   0.00000,   0.00000,-330877549.81759,   0.00000
-150728002.13708,-135248352.86414,-16638022.53863,  -0.00042,  -0.00032,  -0.00022,146478001.56728,   0.00000,274640135.82653,   0.00000,   0.00000,   0.00000,-328162134.25925,   0.00000
-153543558.38083,-137657296.45136,-17002082.70785,  -0.00043,  -0.00033,  -0.00022,149184372.17595,   0.00000,274640135.82653,   0.00000,   0.00000,   0.00000,-325455763.65058,   0.00000
-156352022.54336,-140049691.84907,-17361414.82292,  -0.00044,  -0.00033,  -0.00023,151878486.74912,   0.00000,274640135.82653,   0.00000,   0.00000,   0.00000,-322761649.07741,   0.00000
-159160486.70589,-142442087.24678,-17730203.04629,  -0.00045,  -0.00034,  -0.00023,154575991.39020,   0.00000,274640135.82653,   0.00000,   0.00000,   0.00000,-320064144.43633,   0.00000
-161968950.86843,-144834482.64450,-18094263.21550,  -0.00045,  -0.00034,  -0.00024,157272013.68569,   0.00000,274640135.82653,   0.00000,   0.00000,   0.00000,-317368122.14084,   0.00000
-164770322.94974,-147210329.85270,-18463051.43887,  -0.00046,  -0.00035,  -0.00024,159959056.49333,   0.00000,274640135.82653,   0.00000,   0.00000,   0.00000,-314681079.33320,   0.00000
-167571695.03105,-149586177.06090,-18831839.66223,  -0.00047,  -0.00035,  -0.00024,162646250.04947,   0.00000,274640135.82653,   0.00000,   0.00000,   0.00000,-311993885.77705,   0.00000
-170382523.22066,-151952568.16081,-19205355.93974,  -0.00048,  -0.00036,  -0.00025,165336814.73562,   0.00000,274640135.82653,   0.00000,   0.00000,   0.00000,-309303321.09091,   0.00000
-173176803.22075,-154311867.17950,-19578872.21724,  -0.00049,  -0.00036,  -0.00025,168015232.58595,   0.00000,274640135.82653,   0.00000,   0.00000,   0.00000,-306624903.24058,   0.00000
-175987631.41035,-156678258.27941,-19952388.49475,  -0.00050,  -0.00037,  -0.00026,170706124.31527,   0.00000,274640135.82653,   0.00000,   0.00000,   0.00000,-303934011.51126,   0.00000
-178767727.24801,-159004460.91909,-20330632.82641,  -0.00050,  -0.00037,  -0.00026,173365096.51644,   0.00000,274640135.82653,   0.00000,   0.00000,   0.00000,-301275039.31009,   0.00000
-181571463.35640,-161354303.82949,-20708877.15806,  -0.00051,  -0.00038,  -0.00027,176047275.99129,   0.00000,274640135.82653,   0.00000,   0.00000,   0.00000,-298592859.83524,   0.00000
-184368107.38357,-163687598.55038,-21087121.48972,  -0.00052,  -0.00039,  -0.00027,178718930.92412,   0.00000,274640135.82653,   0.00000,   0.00000,   0.00000,-295921204.90241,   0.00000
-187141111.14000,-165997253.00054,-21470093.87552,  -0.00053,  -0.00039,  -0.00028,181369423.83655,   0.00000,274640135.82653,   0.00000,   0.00000,   0.00000,-293270711.98998,   0.00000
-189930663.08595,-168313999.53192,-21853066.26131,  -0.00054,  -0.00040,  -0.00028,184032440.60768,   0.00000,274640135.82653,   0.00000,   0.00000,   0.00000,-290607695.21885,   0.00000
-192720215.03190,-170630746.06330,-22236038.64711,  -0.00054,  -0.00040,  -0.00029,186695642.57324,   0.00000,274640135.82653,   0.00000,   0.00000,   0.00000,-287944493.25329,   0.00000
-195502674.89663,-172930944.40518,-22623739.08706,  -0.00055,  -0.00041,  -0.00029,189350061.87438,   0.00000,274640135.82653,   0.00000,   0.00000,   0.00000,-285290073.95215,   0.00000
-198285134.76136,-175231142.74705,-23011439.52701,  -0.00056,  -0.00041,  -0.00030,192004677.93545,   0.00000,274640135.82653,   0.00000,   0.00000,   0.00000,-282635457.89108,   0.00000
-201077050.73438,-177521884.98063,-23399139.96695,  -0.00057,  -0.00042,  -0.00030,194661198.39346,   0.00000,274640135.82653,   0.00000,   0.00000,   0.00000,-279978937.43307,   0.00000
-203845326.43668,-179788986.94348,-23791568.46104,  -0.00058,  -0.00042,  -0.00031,197296650.73826,   0.00000,274640135.82653,   0.00000,   0.00000,   0.00000,-277343485.08827,   0.00000
-206613602.13897,-182056088.90633,-24183996.95513,  -0.00059,  -0.00043,  -0.00031,199932320.80536,   0.00000,274640135.82653,   0.00000,   0.00000,   0.00000,-274707815.02117,   0.00000
-209381877.84126,-184323190.86918,-24576425.44922,  -0.00059,  -0.00043,  -0.00032,202568200.09624,   0.00000,274640135.82653,   0.00000,   0.00000,   0.00000,-272071935.73029,   0.00000
-212159609.65185,-186580836.72374,-24973581.99746,  -0.00060,  -0.00044,  -0.00032,205207773.98940,   0.00000,274640135.82653,   0.00000,   0.00000,   0.00000,-269432361.83713,   0.00000
-214913701.19171,-188814842.30757,-25370738.54570,  -0.00061,  -0.00044,  -0.00033,207824613.93773,   0.00000,274640135.82653,   0.00000,   0.00000,   0.00000,-266815521.88880,   0.00000
-217691433.00229,-191072488.16213,-25767895.09393,  -0.00062,  -0.00044,  -0.00033,210464641.28791,   0.00000,274640135.82653,   0.00000,   0.00000,   0.00000,-264175494.53862,   0.00000
-220438432.46093,-193289945.55646,-26169779.69632,  -0.00063,  -0.00045,  -0.00034,213073097.92226,   0.00000,274640135.82653,   0.00000,   0.00000,   0.00000,-261567037.90427,   0.00000
-223201980.10908,-195514495.03200,-26571664.29870,  -0.00063,  -0.00045,  -0.00035,215694180.01390,   0.00000,274640135.82653,   0.00000,   0.00000,   0.00000,-258945955.81263,   0.00000
-225965527.75722,-197739044.50754,-26973548.90108,  -0.00064,  -0.00046,  -0.00035,218315503.17821,   0.00000,274640135.82653,   0.00000,   0.00000,   0.00000,-256324632.64831,   0.00000
-228698343.05342,-199923405.52284,-27375433.50346,  -0.00065,  -0.00046,  -0.00036,220903580.07300,   0.00000,274640135.82653,   0.00000,   0.00000,   0.00000,-253736555.75353,   0.00000
-231454798.62035,-202131406.80887,-27782046.15999,  -0.00066,  -0.00047,  -0.00036,223516602.58610,   0.00000,274640135.82653,   0.00000,   0.00000,   0.00000,-251123533.24043,   0.00000
-234204162.10606,-204322859.90539,-28188658.81652,  -0.00067,  -0.00047,  -0.00037,226119344.33411,   0.00000,274640135.82653,   0.00000,   0.00000,   0.00000,-248520791.49242,   0.00000
-236946433.51056,-206497764.81240,-28599999.52719,  -0.00068,  -0.00048,  -0.00037,228713598.73116,   0.00000,274640135.82653,   0.00000,   0.00000,   0.00000,-245926537.09537,   0.00000
-239688704.91505,-208672669.71941,-29006612.18372,  -0.00068,  -0.00048,  -0.00038,231306348.91113,   0.00000,274640135.82653,   0.00000,   0.00000,   0.00000,-243333786.91539,   0.00000
-242423884.23832,-210831026.43691,-29417952.89440,  -0.00069,  -0.00049,  -0.00038,233890642.96876,   0.00000,274640135.82653,   0.00000,   0.00000,   0.00000,-240749492.85777,   0.00000
-245159063.56160,-212989383.15442,-29834021.65922,  -0.00070,  -0.00049,  -0.00039,236477002.27567,   0.00000,274640135.82653,   0.00000,   0.00000,   0.00000,-238163133.55086,   0.00000
-247887150.80365,-215131191.68241,-30245362.36989,  -0.00071,  -0.00050,  -0.00039,239051368.63812,   0.00000,274640135.82653,   0.00000,   0.00000,   0.00000,-235588767.18841,   0.00000
-250615238.04571,-217273000.21040,-30661431.13471,  -0.00072,  -0.00050,  -0.00040,241627812.07921,   0.00000,274640135.82653,   0.00000,   0.00000,   0.00000,-233012323.74732,   0.00000
-253352781.39605,-219405352.63010,-31077499.89953,  -0.00072,  -0.00050,  -0.00040,244206505.36350,   0.00000,274640135.82653,   0.00000,   0.00000,   0.00000,-230433630.46303,   0.00000
-256066684.47567,-221514064.77907,-31498296.71849,  -0.00073,  -0.00051,  -0.00041,246764429.66745,   0.00000,274640135.82653,   0.00000,   0.00000,   0.00000,-227875706.15908,   0.00000
-258780587.55529,-223622776.92804,-31914365.48331,  -0.00074,  -0.00051,  -0.00041,249320848.35587,   0.00000,274640135.82653,   0.00000,   0.00000,   0.00000,-225319287.47066,   0.00000
-261494490.63491,-225731489.07701,-32335162.30228,  -0.00075,  -0.00052,  -0.00042,251879378.27505,   0.00000,274640135.82653,   0.00000,   0.00000,   0.00000,-222760757.55148,   0.00000
-264210757.74160,-227814196.92818,-32760687.17539,  -0.00076,  -0.00052,  -0.00043,254431639.35789,   0.00000,274640135.82653,   0.00000,   0.00000,   0.00000,-220208496.46864,   0.00000
-266917568.74000,-229906360.88764,-33181483.99435,  -0.00077,  -0.00053,  -0.00043,256980367.01835,   0.00000,274640135.82653,   0.00000,   0.00000,   0.00000,-217659768.80818,   0.00000
-269626743.76547,-231972520.54931,-33607008.86747,  -0.00077,  -0.00053,  -0.00044,259522887.27556,   0.00000,274640135.82653,   0.00000,   0.00000,   0.00000,-215117248.55097,   0.00000
-272319370.60143,-234031588.12975,-34032533.74058,  -0.00078,  -0.00053,  -0.00044,262053294.43714,   0.00000,274640135.82653,   0.00000,   0.00000,   0.00000,-212586841.38939,   0.00000
-275028545.62690,-236097747.79141,-34462786.66783,  -0.00079,  -0.00054,  -0.00045,264598333.73569,   0.00000,274640135.82653,   0.00000,   0.00000,   0.00000,-210041802.09084,   0.00000
-277714080.38165,-238140267.18234,-34888311.54094,  -0.00080,  -0.00054,  -0.00045,267119027.47661,   0.00000,274640135.82653,   0.00000,   0.00000,   0.00000,-207521108.34992,   0.00000
-280409071.24468,-240173330.46498,-35318564.46820,  -0.00081,  -0.00055,  -0.00046,269644021.55027,   0.00000,274640135.82653,   0.00000,   0.00000,   0.00000,-204996114.27626,   0.00000
-283087513.91821,-242199301.66640,-35748817.39546,  -0.00082,  -0.00055,  -0.00046,272156899.44982,   0.00000,274640135.82653,   0.00000,   0.00000,   0.00000,-202483236.37671,   0.00000
-285775412.70003,-244215816.75953,-36183798.37686,  -0.00082,  -0.00055,  -0.00047,274674129.89213,   0.00000,274640135.82653,   0.00000,   0.00000,   0.00000,-199966005.93440,   0.00000
-288446763.29233,-246225239.77145,-36618779.35826,  -0.00083,  -0.00056,  -0.00048,277179247.97222,   0.00000,274640135.82653,   0.00000,   0.00000,   0.00000,-197460887.85431,   0.00000
-291127569.99293,-248225206.67507,-37053760.33966,  -0.00084,  -0.00056,  -0.00048,279686891.85318,   0.00000,274640135.82653,   0.00000,   0.00000,   0.00000,-194953243.97335,   0.00000
-293801284.61231,-250208625.38918,-37488741.32107,  -0.00085,  -0.00057,  -0.00049,282184607.44002,   0.00000,274640135.82653,   0.00000,   0.00000,   0.00000,-192455528.38651,   0.00000
-296474999.23169,-252192044.10329,-37923722.30247,  -0.00086,  -0.00057,  -0.00049,284682704.66695,   0.00000,274640135.82653,   0.00000,   0.00000,   0.00000,-189957431.15958,   0.00000
-299125073.58034,-254151822.54667,-38363431.33802,  -0.00087,  -0.00057,  -0.00050,287160294.12241,   0.00000,274640135.82653,   0.00000,   0.00000,   0.00000,-187479841.70412,   0.00000
-301791696.11850,-256118693.07127,-38803140.37356,  -0.00087,  -0.00058,  -0.00050,289650770.93897,   0.00000,274640135.82653,   0.00000,   0.00000,   0.00000,-184989364.88756,   0.00000
-304451226.57545,-258069015.40636,-39242849.40911,  -0.00088,  -0.00058,  -0.00051,292131377.09558,   0.00000,274640135.82653,   0.00000,   0.00000,   0.00000,-182508758.73095,   0.00000
-307103664.95117,-260002789.55195,-39682558.44466,  -0.00089,  -0.00058,  -0.00052,294602135.71263,   0.00000,274640135.82653,   0.00000,   0.00000,   0.00000,-180038000.11390,   0.00000
-309739555.13739,-261929471.61631,-40126995.53435,  -0.00090,  -0.00059,  -0.00052,297062702.83215,   0.00000,274640135.82653,   0.00000,   0.00000,   0.00000,-177577432.99438,   0.00000
-312384901.43189,-263846697.57238,-40571432.62405,  -0.00091,  -0.00059,  -0.00053,299525967.62833,   0.00000,274640135.82653,   0.00000,   0.00000,   0.00000,-175114168.19820,   0.00000
-315030247.72640,-265763923.52845,-41015869.71374,  -0.00092,  -0.00059,  -0.00053,301989652.25817,   0.00000,274640135.82653,   0.00000,   0.00000,   0.00000,-172650483.56836,   0.00000
-317668501.93968,-267664601.29501,-41460306.80343,  -0.00092,  -0.00060,  -0.00054,304443548.32392,   0.00000,274640135.82653,   0.00000,   0.00000,   0.00000,-170196587.50261,   0.00000
-320299664.07175,-269548730.87207,-41909471.94727,  -0.00093,  -0.00060,  -0.00054,306889616.45293,   0.00000,274640135.82653,   0.00000,   0.00000,   0.00000,-167750519.37360,   0.00000
-322914278.01431,-271425768.36790,-42358637.09111,  -0.00094,  -0.00061,  -0.00055,309323592.79767,   0.00000,274640135.82653,   0.00000,   0.00000,   0.00000,-165316543.02886,   0.00000
-325538348.06516,-273293349.75544,-42807802.23495,  -0.00095,  -0.00061,  -0.00056,311760371.53802,   0.00000,274640135.82653,   0.00000,   0.00000,   0.00000,-162879764.28851,   0.00000
-328155326.03479,-275144382.95347,-43256967.37879,  -0.00096,  -0.00061,  -0.00056,314187444.78661,   0.00000,274640135.82653,   0.00000,   0.00000,   0.00000,-160452691.03992,   0.00000
-330772304.00443,-276995416.15151,-43706132.52263,  -0.00096,  -0.00062,  -0.00057,316614977.10390,   0.00000,274640135.82653,   0.00000,   0.00000,   0.00000,-158025158.72263,   0.00000
-333382189.89284,-278829901.16003,-44160025.72061,  -0.00097,  -0.00062,  -0.00057,319034792.58109,   0.00000,274640135.82653,   0.00000,   0.00000,   0.00000,-155605343.24544,   0.00000
-335968435.51052,-280640745.89782,-44613918.91860,  -0.00098,  -0.00062,  -0.00058,321432404.80932,   0.00000,274640135.82653,   0.00000,   0.00000,   0.00000,-153207731.01721,   0.00000
-338571229.31772,-282458682.71683,-45067812.11658,  -0.00099,  -0.00062,  -0.00059,323843055.18548,   0.00000,274640135.82653,   0.00000,   0.00000,   0.00000,-150797080.64105,   0.00000
-341174023.12491,-284276619.53585,-45521705.31457,  -0.00100,  -0.00063,  -0.00059,326254179.23271,   0.00000,274640135.82653,   0.00000,   0.00000,   0.00000,-148385956.59382,   0.00000
-343762632.76967,-286061459.97584,-45980326.56670,  -0.00101,  -0.00063,  -0.00060,328647588.23176,   0.00000,274640135.82653,   0.00000,   0.00000,   0.00000,-145992547.59477,   0.00000
-346334694.22492,-287839208.33461,-46434219.76468,  -0.00101,  -0.00063,  -0.00060,331026942.05989,   0.00000,274640135.82653,   0.00000,   0.00000,   0.00000,-143613193.76664,   0.00000
-348923303.86968,-289624048.77461,-46892841.01682,  -0.00102,  -0.00064,  -0.00061,333421350.91992,   0.00000,274640135.82653,   0.00000,   0.00000,   0.00000,-141218784.90661,   0.00000
-351497729.35200,-291375792.83558,-47351462.26895,  -0.00103,  -0.00064,  -0.00062,335796158.04436,   0.00000,274640135.82653,   0.00000,   0.00000,   0.00000,-138843977.78217,   0.00000
-354055606.64481,-293120444.81533,-47814811.57522,  -0.00104,  -0.00064,  -0.00062,338160907.66704,   0.00000,274640135.82653,   0.00000,   0.00000,   0.00000,-136479228.15949,   0.00000
-356630032.12713,-294872188.87631,-48273432.82735,  -0.00105,  -0.00065,  -0.00063,340536756.23368,   0.00000,274640135.82653,   0.00000,   0.00000,   0.00000,-134103379.59285,   0.00000
-359197365.52823,-296607384.74777,-48736782.13363,  -0.00106,  -0.00065,  -0.00063,342905116.16180,   0.00000,274640135.82653,   0.00000,   0.00000,   0.00000,-131735019.66473,   0.00000
-361741058.65860,-298318940.34850,-49195403.38576,  -0.00106,  -0.00065,  -0.00064,345249384.55178,   0.00000,274640135.82653,   0.00000,   0.00000,   0.00000,-129390751.27475,   0.00000
-364294207.89727,-300021039.84095,-49658752.69204,  -0.00107,  -0.00065,  -0.00065,347598823.86187,   0.00000,274640135.82653,   0.00000,   0.00000,   0.00000,-127041311.96466,   0.00000
-366847357.13593,-301723139.33339,-50126830.05246,  -0.00108,  -0.00066,  -0.00065,349950849.79027,   0.00000,274640135.82653,   0.00000,   0.00000,   0.00000,-124689286.03626,   0.00000
-369376866.10387,-303401598.55511,-50590179.35873,  -0.00109,  -0.00066,  -0.00066,352278818.99990,   0.00000,274640135.82653,   0.00000,   0.00000,   0.00000,-122361316.82662,   0.00000
-371922923.26132,-305087149.85804,-51053528.66501,  -0.00110,  -0.00066,  -0.00066,354619956.57115,   0.00000,274640135.82653,   0.00000,   0.00000,   0.00000,-120020179.25538,   0.00000
-374438248.06682,-306732512.70074,-51521606.02543,  -0.00111,  -0.00067,  -0.00067,356931196.37344,   0.00000,274640135.82653,   0.00000,   0.00000,   0.00000,-117708939.45309,   0.00000
-376960664.95354,-308394423.73294,-51989683.38585,  -0.00111,  -0.00067,  -0.00068,359252944.32911,   0.00000,274640135.82653,   0.00000,   0.00000,   0.00000,-115387191.49742,   0.00000
-379485445.86733,-310030330.46734,-52457760.74628,  -0.00112,  -0.00067,  -0.00068,361568058.92191,   0.00000,274640135.82653,   0.00000,   0.00000,   0.00000,-113072076.90462,   0.00000
-381993678.59161,-311659145.12053,-52925838.10670,  -0.00113,  -0.00067,  -0.00069,363871135.05717,   0.00000,274640135.82653,   0.00000,   0.00000,   0.00000,-110769000.76936,   0.00000
-384494819.23467,-313271411.58421,-53393915.46712,  -0.00114,  -0.00068,  -0.00069,366164907.10134,   0.00000,274640135.82653,   0.00000,   0.00000,   0.00000,-108475228.72519,   0.00000
-387012508.06724,-314890770.12910,-53866720.88169,  -0.00115,  -0.00068,  -0.00070,368473991.82811,   0.00000,274640135.82653,   0.00000,   0.00000,   0.00000,-106166143.99842,   0.00000
-389506556.62909,-316486488.40327,-54334798.24211,  -0.00116,  -0.00068,  -0.00071,370759091.02991,   0.00000,274640135.82653,   0.00000,   0.00000,   0.00000,-103881044.79662,   0.00000
-391993513.10971,-318065658.48792,-54807603.65668,  -0.00116,  -0.00068,  -0.00071,373037026.06441,   0.00000,274640135.82653,   0.00000,   0.00000,   0.00000,-101603109.76212,   0.00000
-394473377.50912,-319628280.38307,-55280409.07124,  -0.00117,  -0.00069,  -0.00072,375305751.02868,   0.00000,274640135.82653,   0.00000,   0.00000,   0.00000,-99334384.79785,   0.00000
-396953241.90853,-321190902.27821,-55753214.48581,  -0.00118,  -0.00069,  -0.00072,377575111.48594,   0.00000,274640135.82653,   0.00000,   0.00000,   0.00000,-97065024.34059,   0.00000
-399426014.22671,-322736975.98385,-56226019.90038,  -0.00119,  -0.00069,  -0.00073,379835291.26312,   0.00000,274640135.82653,   0.00000,   0.00000,   0.00000,-94804844.56341,   0.00000
-401898786.54490,-324283049.68949,-56698825.31495,  -0.00120,  -0.00069,  -0.00074,382096109.83518,   0.00000,274640135.82653,   0.00000,   0.00000,   0.00000,-92544025.99135,   0.00000
-404364466.78187,-325812575.20561,-57176358.78366,  -0.00120,  -0.00069,  -0.00074,384349887.37520,   0.00000,274640135.82653,   0.00000,   0.00000,   0.00000,-90290248.45133,   0.00000
-406806506.74812,-327318460.45101,-57649164.19823,  -0.00121,  -0.00070,  -0.00075,386579755.53906,   0.00000,274640135.82653,   0.00000,   0.00000,   0.00000,-88060380.28747,   0.00000
-409258002.82265,-328814889.58812,-58126697.66694,  -0.00122,  -0.00070,  -0.00076,388815326.88802,   0.00000,274640135.82653,   0.00000,   0.00000,   0.00000,-85824808.93851,   0.00000
-411709498.89718,-330311318.72522,-58604231.13565,  -0.00123,  -0.00070,  -0.00076,391051580.95671,   0.00000,274640135.82653,   0.00000,   0.00000,   0.00000,-83588554.86982,   0.00000
-414137354.70099,-331784107.59160,-59081764.60437,  -0.00124,  -0.00070,  -0.00077,393266086.36592,   0.00000,274640135.82653,   0.00000,   0.00000,   0.00000,-81374049.46061,   0.00000
-416581758.69430,-333263988.53920,-59559298.07308,  -0.00125,  -0.00070,  -0.00077,395493968.65139,   0.00000,274640135.82653,   0.00000,   0.00000,   0.00000,-79146167.17514,   0.00000
-419002522.41689,-334720229.21606,-60036831.54179,  -0.00125,  -0.00071,  -0.00078,397700124.11038,   0.00000,274640135.82653,   0.00000,   0.00000,   0.00000,-76940011.71615,   0.00000
-421432742.24776,-336167013.78464,-60514365.01051,  -0.00126,  -0.00071,  -0.00079,399909984.92251,   0.00000,274640135.82653,   0.00000,   0.00000,   0.00000,-74730150.90402,   0.00000
-423839321.80791,-337590158.08249,-60996626.53337,  -0.00127,  -0.00071,  -0.00079,402100319.86980,   0.00000,274640135.82653,   0.00000,   0.00000,   0.00000,-72539815.95673,   0.00000
-426245901.36806,-339013302.38034,-61474160.00208,  -0.00128,  -0.00071,  -0.00080,404289220.75528,   0.00000,274640135.82653,   0.00000,   0.00000,   0.00000,-70350915.07125,   0.00000
-428645388.84699,-340419898.48868,-61956421.52494,  -0.00129,  -0.00071,  -0.00081,406471341.44048,   0.00000,274640135.82653,   0.00000,   0.00000,   0.00000,-68168794.38605,   0.00000
-431044876.32592,-341826494.59702,-62438683.04780,  -0.00129,  -0.00071,  -0.00081,408654188.95326,   0.00000,274640135.82653,   0.00000,   0.00000,   0.00000,-65985946.87327,   0.00000
-433437271.72364,-343216542.51584,-62920944.57066,  -0.00130,  -0.00072,  -0.00082,410828136.29821,   0.00000,274640135.82653,   0.00000,   0.00000,   0.00000,-63811999.52832,   0.00000
-435822575.04013,-344590042.24516,-63398478.03937,  -0.00131,  -0.00072,  -0.00082,412991035.78381,   0.00000,274640135.82653,   0.00000,   0.00000,   0.00000,-61649100.04272,   0.00000
-438200786.27540,-345946993.78497,-63880739.56223,  -0.00132,  -0.00072,  -0.00083,415147267.33547,   0.00000,274640135.82653,   0.00000,   0.00000,   0.00000,-59492868.49106,   0.00000
-440562449.32117,-347296853.24356,-64367729.13923,  -0.00133,  -0.00072,  -0.00084,417293706.37700,   0.00000,274640135.82653,   0.00000,   0.00000,   0.00000,-57346429.44953,   0.00000
-442933568.47523,-348637256.59386,-64849990.66209,  -0.00134,  -0.00072,  -0.00084,419441894.03013,   0.00000,274640135.82653,   0.00000,   0.00000,   0.00000,-55198241.79640,   0.00000
-445281047.35855,-349954019.67343,-65332252.18495,  -0.00134,  -0.00072,  -0.00085,421568552.12584,   0.00000,274640135.82653,   0.00000,   0.00000,   0.00000,-53071583.70069,   0.00000
-447645074.43139,-351277874.83422,-65814513.70781,  -0.00135,  -0.00073,  -0.00086,423708742.21363,   0.00000,274640135.82653,   0.00000,   0.00000,   0.00000,-50931393.61290,   0.00000
-449985461.23350,-352578089.72428,-66301503.28482,  -0.00136,  -0.00073,  -0.00086,425829635.37455,   0.00000,274640135.82653,   0.00000,   0.00000,   0.00000,-48810500.45198,   0.00000
-452318755.95439,-353861756.42483,-66783764.80767,  -0.00137,  -0.00073,  -0.00087,427939603.13103,   0.00000,274640135.82653,   0.00000,   0.00000,   0.00000,-46700532.69550,   0.00000
-454652050.67528,-355145423.12539,-67270754.38468,  -0.00138,  -0.00073,  -0.00087,430052586.34812,   0.00000,274640135.82653,   0.00000,   0.00000,   0.00000,-44587549.47841,   0.00000
-456978253.31496,-356412541.63643,-67757743.96168,  -0.00138,  -0.00073,  -0.00088,432156891.30488,   0.00000,274640135.82653,   0.00000,   0.00000,   0.00000,-42483244.52165,   0.00000
-459297363.87341,-357663111.95796,-68240005.48454,  -0.00139,  -0.00073,  -0.00089,434250320.30507,   0.00000,274640135.82653,   0.00000,   0.00000,   0.00000,-40389815.52146,   0.00000
-461616474.43187,-358913682.27949,-68726995.06155,  -0.00140,  -0.00073,  -0.00089,436346802.10319,   0.00000,274640135.82653,   0.00000,   0.00000,   0.00000,-38293333.72334,   0.00000
-463911944.71959,-360140612.33029,-69213984.63855,  -0.00141,  -0.00073,  -0.00090,438421883.88941,   0.00000,274640135.82653,   0.00000,   0.00000,   0.00000,-36218251.93712,   0.00000
-466216871.11561,-361358086.27280,-69700974.21556,  -0.00142,  -0.00074,  -0.00091,440501167.43652,   0.00000,274640135.82653,   0.00000,   0.00000,   0.00000,-34138968.39001,   0.00000
-468505249.32212,-362568468.13410,-70187963.79256,  -0.00142,  -0.00074,  -0.00091,442568506.50721,   0.00000,274640135.82653,   0.00000,   0.00000,   0.00000,-32071629.31932,   0.00000
-470786535.44740,-363762301.80588,-70674953.36957,  -0.00143,  -0.00074,  -0.00092,444627290.52712,   0.00000,274640135.82653,   0.00000,   0.00000,   0.00000,-30012845.29941,   0.00000
-473077277.68098,-364946679.36937,-71161942.94657,  -0.00144,  -0.00074,  -0.00093,446690356.10566,   0.00000,274640135.82653,   0.00000,   0.00000,   0.00000,-27949779.72087,   0.00000
-475351471.72505,-366123964.85165,-71653660.57772,  -0.00145,  -0.00074,  -0.00093,448743752.05275,   0.00000,274640135.82653,   0.00000,   0.00000,   0.00000,-25896383.77378,   0.00000
-477594933.41718,-367261061.87368,-72140650.15473,  -0.00146,  -0.00074,  -0.00094,450764246.38196,   0.00000,274640135.82653,   0.00000,   0.00000,   0.00000,-23875889.44457,   0.00000
-479862035.38003,-368421799.16644,-72627639.73173,  -0.00146,  -0.00074,  -0.00094,452807776.91282,   0.00000,274640135.82653,   0.00000,   0.00000,   0.00000,-21832358.91371,   0.00000
-482114953.18044,-369549440.08019,-73114629.30873,  -0.00147,  -0.00074,  -0.00095,454833544.05596,   0.00000,274640135.82653,   0.00000,   0.00000,   0.00000,-19806591.77057,   0.00000
-484351322.79135,-370669988.91271,-73606346.93989,  -0.00148,  -0.00074,  -0.00096,456849677.73969,   0.00000,274640135.82653,   0.00000,   0.00000,   0.00000,-17790458.08684,   0.00000
-486597148.51054,-371781081.63695,-74093336.51689,  -0.00149,  -0.00074,  -0.00096,458867966.80052,   0.00000,274640135.82653,   0.00000,   0.00000,   0.00000,-15772169.02601,   0.00000
-488826426.04023,-372885082.27996,-74585054.14804,  -0.00150,  -0.00074,  -0.00097,460876630.12390,   0.00000,274640135.82653,   0.00000,   0.00000,   0.00000,-13763505.70262,   0.00000
-491048611.48870,-373972534.73347,-75072043.72504,  -0.00151,  -0.00074,  -0.00098,462874644.92165,   0.00000,274640135.82653,   0.00000,   0.00000,   0.00000,-11765490.90488,   0.00000
-493263704.85595,-375043438.99746,-75563761.35620,  -0.00151,  -0.00074,  -0.00098,464866640.61034,   0.00000,274640135.82653,   0.00000,   0.00000,   0.00000,-9773495.21619,   0.00000
-495478798.22320,-376114343.26146,-76050750.93320,  -0.00152,  -0.00075,  -0.00099,466857265.18339,   0.00000,274640135.82653,   0.00000,   0.00000,   0.00000,-7782870.64313,   0.00000
-497663159.23850,-377145059.06522,-76542468.56435,  -0.00153,  -0.00075,  -0.00100,468819861.49985,   0.00000,274640135.82653,   0.00000,   0.00000,   0.00000,-5820274.32668,   0.00000
-499871160.52453,-378199415.13970,-77029458.14135,  -0.00154,  -0.00075,  -0.00100,470803150.41982,   0.00000,274640135.82653,   0.00000,   0.00000,   0.00000,-3836985.40671,   0.00000
-502048429.45861,-379213582.75395,-77521175.77250,  -0.00154,  -0.00075,  -0.00101,472758480.93441,   0.00000,274640135.82653,   0.00000,   0.00000,   0.00000,-1881654.89212,   0.00000
-504142633.86858,-380189059.07521,-77994133.98887,  -0.00155,  -0.00075,  -0.00101,474640134.33787,   0.00000,274640135.82653,   0.00000,   0.00000,   0.00000,  -8.95308,   0.00000
-504146925.51824,-380171665.51418,-77998619.31164,  -0.00155,  -0.00075,  -0.00101,474640490.55550,   0.00000,274640494.80191,  -0.00000,  -0.00000,  -0.00000,  -4.24641,   1.00000
-504263661.61138,-379710218.51240,-78112851.03791,  -0.00156,  -0.00075,  -0.00102,474649847.59077,   0.00001,274649857.48505,  -0.00001,  -0.00000,  -0.00001,  -9.89428,   1.00000
-504376746.69956,-379248727.00914,-78230707.84836,  -0.00157,  -0.00075,  -0.00103,474659237.11841,   0.00002,274659239.34463,  -0.00001,  -0.00001,  -0.00001,  -2.22622,   1.00000
-504491145.83946,-378779226.83524,-78349652.22377,  -0.00158,  -0.00075,  -0.00103,474668575.69969,   0.00003,274668585.42703,  -0.00002,  -0.00001,  -0.00001,  -9.72733,   1.00000
-504606377.26247,-378305975.56803,-78467893.05305,  -0.00158,  -0.00075,  -0.00104,474677817.06844,   0.00003,274677822.37762,  -0.00003,  -0.00001,  -0.00002,  -5.30918,   1.00000
-504720840.09972,-377830176.08577,-78587264.62134,  -0.00159,  -0.00075,  -0.00105,474687138.00242,   0.00004,274687140.99492,  -0.00003,  -0.00001,  -0.00002,  -2.99250,   1.00000
-504833624.36611,-377348811.79819,-78710191.20738,  -0.00160,  -0.00075,  -0.00105,474696353.83633,   0.00005,274696362.11250,  -0.00004,  -0.00002,  -0.00003,  -8.27617,   1.00000
-504947657.92246,-376859386.00883,-78834187.59340,  -0.00161,  -0.00075,  -0.00106,474705547.82266,   0.00006,274705547.95476,  -0.00005,  -0.00002,  -0.00003,  -0.13210,   1.00000
-505065355.38290,-376363610.04813,-78954990.21676,  -0.00162,  -0.00075,  -0.00107,474714683.94684,   0.00007,274714687.34895,  -0.00005,  -0.00002,  -0.00004,  -3.40211,   1.00000
-505179271.31166,-375867811.54191,-79079374.55454,  -0.00162,  -0.00075,  -0.00107,474723838.89146,   0.00008,274723846.89798,  -0.00006,  -0.00002,  -0.00004,  -8.00652,   1.00000
-505289016.68969,-375376165.89285,-79205566.47139,  -0.00163,  -0.00075,  -0.00108,474732943.70105,   0.00008,274732952.83993,  -0.00006,  -0.00003,  -0.00005,  -9.13888,   1.00000
-505405256.15091,-374864087.60175,-79332060.69551,  -0.00164,  -0.00075,  -0.00108,474742039.91737,   0.00009,274742042.86572,  -0.00007,  -0.00003,  -0.00005,  -2.94835,   1.00000
-505519771.44797,-374357888.23087,-79456109.41317,  -0.00165,  -0.00075,  -0.00109,474751064.95563,   0.00010,274751067.97705,  -0.00008,  -0.00003,  -0.00006,  -3.02142,   1.00000
-505630482.72237,-373851663.40084,-79583723.19669,  -0.00166,  -0.00075,  -0.00110,474760109.15751,   0.00011,274760113.57009,  -0.00008,  -0.00003,  -0.00006,  -4.41258,   1.00000
-505742286.87911,-373337227.37317,-79712381.72469,  -0.00166,  -0.00075,  -0.00110,474769116.86866,   0.00012,274769124.82114,  -0.00009,  -0.00004,  -0.00007,  -7.95247,   1.00000
-505854794.69344,-372818668.44445,-79840350.92361,  -0.00167,  -0.00075,  -0.00111,474778018.42335,   0.00013,274778027.69566,  -0.00010,  -0.00004,  -0.00007,  -9.27231,   1.00000
-505968682.59284,-372287767.68087,-79971089.83430,  -0.00168,  -0.00075,  -0.00112,474786966.96358,   0.00013,274786970.78387,  -0.00010,  -0.00004,  -0.00008,  -3.82029,   1.00000
-506078342.30521,-371760937.97513,-80103633.78837,  -0.00169,  -0.00075,  -0.00112,474795851.67581,   0.00014,274795860.73864,  -0.00011,  -0.00004,  -0.00008,  -9.06283,   1.00000
-506191528.04670,-371227556.55672,-80232962.80035,  -0.00169,  -0.00075,  -0.00113,474804699.49865,   0.00015,274804705.21588,  -0.00011,  -0.00004,  -0.00009,  -5.71723,   1.00000
-506300822.50733,-370694166.12805,-80365824.69098,  -0.00170,  -0.00075,  -0.00114,474813567.41194,   0.00016,274813570.90820,  -0.00012,  -0.00005,  -0.00009,  -3.49626,   1.00000
-506411062.44072,-370152440.23401,-80499705.18160,  -0.00171,  -0.00075,  -0.00114,474822398.64245,   0.00017,274822403.15067,  -0.00013,  -0.00005,  -0.00010,  -4.50822,   1.00000
-506521922.23239,-369606375.79780,-80632905.39224,  -0.00172,  -0.00075,  -0.00115,474831122.70565,   0.00017,274831127.45115,  -0.00013,  -0.00005,  -0.00010,  -4.74550,   1.00000
-506631677.00810,-369058040.85587,-80767072.88282,  -0.00172,  -0.00074,  -0.00115,474839930.61079,   0.00018,274839936.26814,  -0.00014,  -0.00005,  -0.00010,  -5.65735,   1.00000
-506742029.31795,-368505297.63012,-80900568.84267,  -0.00173,  -0.00074,  -0.00116,474848631.08199,   0.00019,274848637.21264,  -0.00015,  -0.00006,  -0.00011,  -6.13065,   1.00000
-506850665.14320,-367942387.94328,-81039311.52308,  -0.00174,  -0.00074,  -0.00117,474857308.64596,   0.00020,274857317.12141,  -0.00015,  -0.00006,  -0.00011,  -8.47545,   1.00000
-506960446.86295,-367382963.38947,-81173078.23761,  -0.00175,  -0.00074,  -0.00117,474865992.75402,   0.00021,274865995.25982,  -0.00016,  -0.00006,  -0.00012,  -2.50581,   1.00000
-507065655.23479,-366815524.43440,-81314649.05920,  -0.00176,  -0.00074,  -0.00118,474874583.32913,   0.00021,274874589.52655,  -0.00016,  -0.00006,  -0.00012,  -6.19742,   1.00000
-507174815.38132,-366249374.42861,-81448669.16699,  -0.00176,  -0.00074,  -0.00119,474883244.48678,   0.00022,274883245.29068,  -0.00017,  -0.00006,  -0.00013,  -0.80390,   1.00000
-507279359.65982,-365675139.71263,-81590496.30541,  -0.00177,  -0.00074,  -0.00119,474891811.98024,   0.00023,274891817.35821,  -0.00018,  -0.00007,  -0.00013,  -5.37797,   1.00000
-507387214.11911,-365094096.86054,-81729078.28762,  -0.00178,  -0.00074,  -0.00120,474900341.78741,   0.00024,274900345.26941,  -0.00018,  -0.00007,  -0.00014,  -3.48200,   1.00000
-507490836.11785,-364516924.54283,-81869498.33449,  -0.00179,  -0.00074,  -0.00121,474908814.90980,   0.00025,274908820.27765,  -0.00019,  -0.00007,  -0.00014,  -5.36785,   1.00000
-507595341.19703,-363927293.39354,-82012538.51048,  -0.00179,  -0.00074,  -0.00121,474917336.00646,   0.00025,274917338.75240,  -0.00019,  -0.00007,  -0.00015,  -2.74594,   1.00000
-507698202.09623,-363343242.04821,-82153185.01079,  -0.00180,  -0.00074,  -0.00122,474925786.45975,   0.00026,274925792.39358,  -0.00020,  -0.00007,  -0.00015,  -5.93384,   1.00000
-507801723.90661,-362750540.76080,-82294817.26330,  -0.00181,  -0.00074,  -0.00122,474934212.83751,   0.00027,274934214.20388,  -0.00021,  -0.00008,  -0.00015,  -1.36637,   1.00000
-507905846.81999,-362149161.83811,-82437425.25142,  -0.00182,  -0.00074,  -0.00123,474942601.98648,   0.00028,274942604.49310,  -0.00021,  -0.00008,  -0.00016,  -2.50662,   1.00000
-508008472.18412,-361549520.45549,-82579270.75347,  -0.00182,  -0.00073,  -0.00124,474950999.49518,   0.00028,274951005.68190,  -0.00022,  -0.00008,  -0.00016,  -6.18673,   1.00000
-508111657.79662,-360941163.74255,-82722089.45934,  -0.00183,  -0.00073,  -0.00124,474959366.31458,   0.00029,274959375.56129,  -0.00022,  -0.00008,  -0.00017,  -9.24671,   1.00000
-508212633.24105,-360326092.59827,-82868492.39598,  -0.00184,  -0.00073,  -0.00125,474967643.47065,   0.00030,274967650.57251,  -0.00023,  -0.00008,  -0.00017,  -7.10186,   1.00000
-508312094.62100,-359712753.86596,-83014119.77896,  -0.00185,  -0.00073,  -0.00126,474975935.91713,   0.00031,274975936.75478,  -0.00024,  -0.00009,  -0.00018,  -0.83764,   1.00000
-508410043.43608,-359101140.20078,-83158973.37107,  -0.00185,  -0.00073,  -0.00126,474984230.71629,   0.00031,274984234.11010,  -0.00024,  -0.00009,  -0.00018,  -3.39381,   1.00000
-508505767.38081,-358482669.73740,-83307419.98257,  -0.00186,  -0.00073,  -0.00127,474992435.27294,   0.00032,274992436.65257,  -0.00025,  -0.00009,  -0.00019,  -1.37963,   1.00000
-508604647.34809,-357853379.67280,-83454175.50697,  -0.00187,  -0.00073,  -0.00127,475000668.32075,   0.00033,275000672.64601,  -0.00025,  -0.00009,  -0.00019,  -4.32526,   1.00000
-508699281.44431,-357227765.85079,-83602792.50013,  -0.00188,  -0.00073,  -0.00128,475008851.05218,   0.00034,275008856.00023,  -0.00026,  -0.00009,  -0.00019,  -4.94805,   1.00000
-508796961.55056,-356594959.86548,-83748150.27293,  -0.00188,  -0.00073,  -0.00129,475016988.56268,   0.00034,275016996.60693,  -0.00026,  -0.00009,  -0.00020,  -8.04424,   1.00000
-508892355.56601,-355951500.29261,-83898663.93060,  -0.00189,  -0.00072,  -0.00129,475025115.22123,   0.00035,275025119.38343,  -0.00027,  -0.00010,  -0.00020,  -4.16220,   1.00000
-508986139.79894,-355313366.34008,-84046839.31236,  -0.00190,  -0.00072,  -0.00130,475033171.10507,   0.00036,275033177.21625,  -0.00028,  -0.00010,  -0.00021,  -6.11118,   1.00000
-509075731.66962,-354675224.89201,-84198435.52434,  -0.00191,  -0.00072,  -0.00131,475041256.88660,   0.00037,275041259.05610,  -0.00028,  -0.00010,  -0.00021,  -2.16950,   1.00000
-509168305.85753,-354029774.62469,-84346765.16726,  -0.00191,  -0.00072,  -0.00131,475049297.25703,   0.00037,275049298.52835,  -0.00029,  -0.00010,  -0.00022,  -1.27131,   1.00000
-509258483.01470,-353373556.80381,-84500228.64913,  -0.00192,  -0.00072,  -0.00132,475057320.35245,   0.00038,275057320.82127,  -0.00029,  -0.00010,  -0.00022,  -0.46882,   1.00000
-509349746.55716,-352720777.28423,-84648694.15627,  -0.00193,  -0.00072,  -0.00133,475065339.50368,   0.00039,275065342.55271,  -0.00030,  -0.00011,  -0.00022,  -3.04903,   1.00000
-509438572.67940,-352060686.94722,-84800777.20568,  -0.00194,  -0.00072,  -0.00133,475073266.15640,   0.00040,275073270.23014,  -0.00030,  -0.00011,  -0.00023,  -4.07374,   1.00000
-509525821.67961,-351402302.86597,-84952066.93536,  -0.00194,  -0.00071,  -0.00134,475081209.20498,   0.00040,275081209.86789,  -0.00031,  -0.00011,  -0.00023,  -0.66291,   1.00000
-509613246.73307,-350734748.07610,-85104280.64445,  -0.00195,  -0.00071,  -0.00134,475089114.58450,   0.00041,275089120.31367,  -0.00032,  -0.00011,  -0.00024,  -5.72916,   1.00000
-509699079.73435,-350068907.08545,-85255698.44337,  -0.00196,  -0.00071,  -0.00135,475097036.56851,   0.00042,275097042.85596,  -0.00032,  -0.00011,  -0.00024,  -6.28745,   1.00000
-509782405.75956,-349395563.37730,-85410738.65864,  -0.00196,  -0.00071,  -0.00136,475104865.16578,   0.00042,275104871.61841,  -0.00033,  -0.00011,  -0.00025,  -6.45263,   1.00000
-509865833.47354,-348712964.11969,-85566687.17489,  -0.00197,  -0.00071,  -0.00136,475112667.96114,   0.00043,275112671.64934,  -0.00033,  -0.00011,  -0.00025,  -3.68820,   1.00000
-509947627.50161,-348032057.78655,-85721822.76785,  -0.00198,  -0.00071,  -0.00137,475120475.85306,   0.00044,275120484.15899,  -0.00034,  -0.00012,  -0.00025,  -8.30594,   1.00000
-510027816.63834,-347352855.81657,-85876152.28462,  -0.00199,  -0.00070,  -0.00138,475128300.70121,   0.00045,275128309.02404,  -0.00034,  -0.00012,  -0.00026,  -8.32283,   1.00000
-510108148.31844,-346667663.91054,-86029933.17493,  -0.00199,  -0.00070,  -0.00138,475136022.91241,   0.00045,275136027.50078,  -0.00035,  -0.00012,  -0.00026,  -4.58837,   1.00000
-510185758.44727,-345971387.24755,-86188799.20405,  -0.00200,  -0.00070,  -0.00139,475143727.34697,   0.00046,275143730.54948,  -0.00035,  -0.00012,  -0.00027,  -3.20251,   1.00000
-510264454.57087,-345278499.53998,-86342669.72552,  -0.00201,  -0.00070,  -0.00139,475151428.96372,   0.00047,275151433.38769,  -0.00036,  -0.00012,  -0.00027,  -4.42397,   1.00000
-510338792.06970,-344585597.72830,-86499912.53391,  -0.00202,  -0.00070,  -0.00140,475159156.22955,   0.00047,275159161.67905,  -0.00037,  -0.00012,  -0.00028,  -5.44950,   1.00000
-510413213.78534,-343886502.00944,-86656617.91419,  -0.00202,  -0.00069,  -0.00141,475166779.86567,   0.00048,275166783.74768,  -0.00037,  -0.00013,  -0.00028,  -3.88201,   1.00000
-510490136.66088,-343176377.08676,-86811469.47071,  -0.00203,  -0.00069,  -0.00141,475174434.78750,   0.00049,275174443.42627,  -0.00038,  -0.00013,  -0.00028,  -8.63877,   1.00000
-510562805.72585,-342469466.21411,-86968266.11936,  -0.00204,  -0.00069,  -0.00142,475182049.60766,   0.00050,275182050.44786,  -0.00038,  -0.00013,  -0.00029,  -0.84020,   1.00000
-510631231.85168,-341765712.37989,-87127007.53114,  -0.00204,  -0.00069,  -0.00143,475189600.79918,   0.00050,275189604.78692,  -0.00039,  -0.00013,  -0.00029,  -3.98774,   1.00000
-510702113.14149,-341050903.79223,-87283874.59705,  -0.00205,  -0.00069,  -0.00143,475197195.26024,   0.00051,275197197.14182,  -0.00039,  -0.00013,  -0.00030,  -1.88158,   1.00000
-510770201.62508,-340327947.11376,-87444390.44389,  -0.00206,  -0.00068,  -0.00144,475204693.31558,   0.00052,275204696.66263,  -0.00040,  -0.00013,  -0.00030,  -3.34704,   1.00000
-510836615.68745,-339606652.93639,-87604081.16698,  -0.00206,  -0.00068,  -0.00144,475212203.65857,   0.00052,275212209.28968,  -0.00040,  -0.00013,  -0.00031,  -5.63111,   1.00000
-510904150.61651,-338888717.87561,-87758794.52028,  -0.00207,  -0.00068,  -0.00145,475219717.29691,   0.00053,275219721.72002,  -0.00041,  -0.00013,  -0.00031,  -4.42311,   1.00000
-510966082.52749,-338160787.78757,-87921338.00798,  -0.00208,  -0.00068,  -0.00146,475227154.02397,   0.00054,275227154.47819,  -0.00041,  -0.00014,  -0.00031,  -0.45423,   1.00000
-511026348.38979,-337434503.12253,-88083051.70069,  -0.00209,  -0.00068,  -0.00146,475234597.52573,   0.00054,275234600.43913,  -0.00042,  -0.00014,  -0.00032,  -2.91339,   1.00000
-511089109.59421,-336700147.09111,-88241477.45723,  -0.00209,  -0.00067,  -0.00147,475242005.35248,   0.00055,275242006.39774,  -0.00042,  -0.00014,  -0.00032,  -1.04527,   1.00000
-511150187.90868,-335967439.81368,-88399087.56697,  -0.00210,  -0.00067,  -0.00147,475249420.06288,   0.00056,275249425.56065,  -0.00043,  -0.00014,  -0.00033,  -5.49777,   1.00000
-511205550.39774,-335224537.31200,-88564522.59567,  -0.00211,  -0.00067,  -0.00148,475256756.98288,   0.00056,275256765.51063,  -0.00043,  -0.00014,  -0.00033,  -8.52775,   1.00000
-511264597.83638,-334483682.11746,-88722164.84524,  -0.00211,  -0.00067,  -0.00149,475264163.37392,   0.00057,275264171.61967,  -0.00044,  -0.00014,  -0.00033,  -8.24575,   1.00000
-511320679.12091,-333734223.94607,-88883487.50546,  -0.00212,  -0.00066,  -0.00149,475271482.57491,   0.00058,275271485.28875,  -0.00045,  -0.00014,  -0.00034,  -2.71383,   1.00000
-511371274.41581,-332999184.96692,-89045122.44588,  -0.00213,  -0.00066,  -0.00150,475278782.80492,   0.00058,275278785.58219,  -0.00045,  -0.00014,  -0.00034,  -2.77727,   1.00000
-511425222.88210,-332241405.04821,-89206473.52696,  -0.00213,  -0.00066,  -0.00151,475286082.22661,   0.00059,275286086.66592,  -0.00046,  -0.00015,  -0.00035,  -4.43931,   1.00000
-511477743.55204,-331488134.71824,-89365684.57975,  -0.00214,  -0.00066,  -0.00151,475293319.10866,   0.00060,275293321.40812,  -0.00046,  -0.00015,  -0.00035,  -2.29945,   1.00000
-511525745.43412,-330734816.36233,-89528219.47652,  -0.00215,  -0.00066,  -0.00152,475300578.33261,   0.00060,275300583.14575,  -0.00047,  -0.00015,  -0.00035,  -4.81315,   1.00000
-511570684.79559,-329972610.19769,-89694437.15113,  -0.00216,  -0.00065,  -0.00152,475307743.49663,   0.00061,275307752.75598,  -0.00047,  -0.00015,  -0.00036,  -9.25935,   1.00000
-511619315.67207,-329212566.82435,-89852841.93769,  -0.00216,  -0.00065,  -0.00153,475314979.55288,   0.00062,275314988.95482,  -0.00048,  -0.00015,  -0.00036,  -9.40194,   1.00000
-511663733.31645,-328455259.14026,-90013283.14986,  -0.00217,  -0.00065,  -0.00154,475322167.12388,   0.00062,275322171.96922,  -0.00048,  -0.00015,  -0.00037,  -4.84534,   1.00000
-511704721.16008,-327686162.10051,-90178706.44666,  -0.00218,  -0.00065,  -0.00154,475329342.21779,   0.00063,275329343.25146,  -0.00049,  -0.00015,  -0.00037,  -1.03367,   1.00000
-511745394.22957,-326909623.90172,-90343684.07921,  -0.00218,  -0.00064,  -0.00155,475336407.30826,   0.00064,275336409.02709,  -0.00049,  -0.00015,  -0.00037,  -1.71882,   1.00000
-511785847.15365,-326145453.94452,-90503305.15434,  -0.00219,  -0.00064,  -0.00155,475343589.16970,   0.00064,275343594.18777,  -0.00050,  -0.00015,  -0.00038,  -5.01807,   1.00000
-511823128.47917,-325372092.12464,-90666640.56586,  -0.00220,  -0.00064,  -0.00156,475350681.29037,   0.00065,275350687.31853,  -0.00050,  -0.00016,  -0.00038,  -6.02815,   1.00000
-511859711.40832,-324588481.12679,-90830807.20984,  -0.00220,  -0.00064,  -0.00157,475357745.89498,   0.00066,275357755.63361,  -0.00051,  -0.00016,  -0.00039,  -9.73862,   1.00000
-511892068.41124,-323807441.54927,-90997020.75944,  -0.00221,  -0.00063,  -0.00157,475364766.51588,   0.00066,275364770.81221,  -0.00051,  -0.00016,  -0.00039,  -4.29633,   1.00000
-511928131.09943,-323028704.37825,-91155399.21703,  -0.00222,  -0.00063,  -0.00158,475371848.93373,   0.00067,275371853.04310,  -0.00052,  -0.00016,  -0.00039,  -4.10938,   1.00000
-511957103.80045,-322250842.27302,-91319972.29376,  -0.00222,  -0.00063,  -0.00158,475378886.35199,   0.00068,275378895.77294,  -0.00052,  -0.00016,  -0.00040,  -9.42094,   1.00000
-511985696.35955,-321465152.07855,-91484147.53684,  -0.00223,  -0.00062,  -0.00159,475385827.81465,   0.00068,275385832.76707,  -0.00053,  -0.00016,  -0.00040,  -4.95241,   1.00000
-512013090.49649,-320666532.47145,-91650361.47832,  -0.00224,  -0.00062,  -0.00160,475392820.57562,   0.00069,275392826.76606,  -0.00053,  -0.00016,  -0.00041,  -6.19044,   1.00000
-512038303.24111,-319884017.21554,-91812882.55814,  -0.00224,  -0.00062,  -0.00160,475399784.66328,   0.00070,275399791.59959,  -0.00054,  -0.00016,  -0.00041,  -6.93630,   1.00000
-512062695.56160,-319091041.41019,-91976232.60599,  -0.00225,  -0.00062,  -0.00161,475406731.32925,   0.00070,275406732.11132,  -0.00054,  -0.00016,  -0.00041,  -0.78207,   1.00000
-512086186.08443,-318287567.32387,-92140396.36249,  -0.00226,  -0.00061,  -0.00161,475413639.88424,   0.00071,275413648.72080,  -0.00055,  -0.00016,  -0.00042,  -8.83657,   1.00000
-512104685.30751,-317498554.72931,-92305012.87379,  -0.00226,  -0.00061,  -0.00162,475420539.85787,   0.00071,275420549.70674,  -0.00055,  -0.00016,  -0.00042,  -9.84887,   1.00000
-512124804.07797,-316698242.31977,-92467524.21046,  -0.00227,  -0.00061,  -0.00163,475427487.04857,   0.00072,275427494.32071,  -0.00056,  -0.00017,  -0.00042,  -7.27215,   1.00000
-512141451.33582,-315888089.08074,-92633770.74783,  -0.00228,  -0.00060,  -0.00163,475434341.46769,   0.00073,275434347.67237,  -0.00056,  -0.00017,  -0.00043,  -6.20468,   1.00000
-512153177.73797,-315092388.50680,-92800484.87173,  -0.00228,  -0.00060,  -0.00164,475441176.89205,   0.00073,275441185.10905,  -0.00057,  -0.00017,  -0.00043,  -8.21700,   1.00000
-512169391.92849,-314286992.07964,-92960970.33134,  -0.00229,  -0.00060,  -0.00164,475448049.53774,   0.00074,275448052.38632,  -0.00057,  -0.00017,  -0.00044,  -2.84858,   1.00000
-512179125.81004,-313469958.84728,-93129303.38190,  -0.00230,  -0.00060,  -0.00165,475454839.04398,   0.00075,275454842.79524,  -0.00058,  -0.00017,  -0.00044,  -3.75125,   1.00000
-512189470.08731,-312668373.78270,-93291082.18363,  -0.00230,  -0.00059,  -0.00166,475461664.69695,   0.00075,275461670.45882,  -0.00058,  -0.00017,  -0.00044,  -5.76187,   1.00000
-512198782.64925,-311856065.57118,-93453672.90500,  -0.00231,  -0.00059,  -0.00166,475468472.53195,   0.00076,275468474.72968,  -0.00059,  -0.00017,  -0.00045,  -2.19773,   1.00000
-512203912.49092,-311045897.37641,-93618402.01468,  -0.00232,  -0.00059,  -0.00167,475475223.57385,   0.00076,275475225.06791,  -0.00059,  -0.00017,  -0.00045,  -1.49406,   1.00000
-512207938.14456,-310224927.16698,-93783926.25445,  -0.00232,  -0.00058,  -0.00167,475481946.55519,   0.00077,275481952.40831,  -0.00060,  -0.00017,  -0.00046,  -5.85312,   1.00000
-512210283.30036,-309405512.37656,-93948626.44703,  -0.00233,  -0.00058,  -0.00168,475488689.13193,   0.00078,275488693.96140,  -0.00060,  -0.00017,  -0.00046,  -4.82947,   1.00000
-512210953.21200,-308587653.32004,-94112504.19048,  -0.00233,  -0.00058,  -0.00169,475495441.25093,   0.00078,275495449.71630,  -0.00061,  -0.00017,  -0.00046,  -8.46537,   1.00000
-512207469.73537,-307771834.05246,-94278539.93414,  -0.00234,  -0.00058,  -0.00169,475502145.93547,   0.00079,275502151.28864,  -0.00061,  -0.00017,  -0.00047,  -5.35316,   1.00000
-512205329.78596,-306959157.42078,-94439677.14902,  -0.00235,  -0.00057,  -0.00170,475508849.11652,   0.00080,275508852.29228,  -0.00062,  -0.00017,  -0.00047,  -3.17576,   1.00000
-512199020.59933,-306133945.45311,-94605692.80970,  -0.00235,  -0.00057,  -0.00170,475515545.02910,   0.00080,275515545.21636,  -0.00062,  -0.00018,  -0.00047,  -0.18726,   1.00000
-512191526.92805,-305312271.00317,-94769795.07979,  -0.00236,  -0.00057,  -0.00171,475522162.45451,   0.00081,275522169.27820,  -0.00063,  -0.00018,  -0.00048,  -6.82369,   1.00000
-512182307.78341,-304477628.55306,-94935765.95236,  -0.00237,  -0.00056,  -0.00172,475528850.02468,   0.00081,275528854.14376,  -0.00063,  -0.00018,  -0.00048,  -4.11908,   1.00000
-512171551.81561,-303659046.50896,-95098243.39029,  -0.00237,  -0.00056,  -0.00172,475535506.17210,   0.00082,275535506.39461,  -0.00063,  -0.00018,  -0.00049,  -0.22251,   1.00000
-512159516.67184,-302829409.18209,-95261506.32185,  -0.00238,  -0.00056,  -0.00173,475542134.30832,   0.00083,275542136.35070,  -0.00064,  -0.00018,  -0.00049,  -2.04238,   1.00000
-512143330.89609,-302001606.75127,-95426964.91009,  -0.00239,  -0.00055,  -0.00173,475548704.06718,   0.00083,275548711.79132,  -0.00064,  -0.00018,  -0.00049,  -7.72414,   1.00000
-512125536.52873,-301175327.96549,-95591613.82681,  -0.00239,  -0.00055,  -0.00174,475555293.12422,   0.00084,275555301.28835,  -0.00065,  -0.00018,  -0.00050,  -8.16414,   1.00000
-512106396.75163,-300337907.47570,-95757035.61331,  -0.00240,  -0.00055,  -0.00175,475561863.76102,   0.00084,275561868.83290,  -0.00065,  -0.00018,  -0.00050,  -5.07187,   1.00000
-512088416.05546,-299516287.73857,-95916003.03055,  -0.00240,  -0.00054,  -0.00175,475568470.38055,   0.00085,275568471.55465,  -0.00066,  -0.00018,  -0.00050,  -1.17410,   1.00000
-512066033.43406,-298681902.80915,-96079816.99724,  -0.00241,  -0.00054,  -0.00176,475575060.46389,   0.00086,275575067.30239,  -0.00066,  -0.00018,  -0.00051,  -6.83850,   1.00000
-512042563.89721,-297850800.53044,-96241795.00504,  -0.00242,  -0.00054,  -0.00176,475581589.60791,   0.00086,275581593.15892,  -0.00067,  -0.00018,  -0.00051,  -3.55101,   1.00000
-512014625.47865,-297006873.80388,-96408601.64405,  -0.00242,  -0.00053,  -0.00177,475588111.65588,   0.00087,275588112.43484,  -0.00067,  -0.00018,  -0.00052,  -0.77896,   1.00000
-511987970.78982,-296178829.82278,-96568969.21291,  -0.00243,  -0.00053,  -0.00178,475594660.23215,   0.00087,275594666.48704,  -0.00068,  -0.00018,  -0.00052,  -6.25489,   1.00000
-511957336.98503,-295339578.99131,-96733153.29505,  -0.00244,  -0.00053,  -0.00178,475601120.98702,   0.00088,275601129.81241,  -0.00068,  -0.00018,  -0.00052,  -8.82539,   1.00000
-511927647.99827,-294501770.14354,-96893490.40850,  -0.00244,  -0.00052,  -0.00179,475607670.59882,   0.00089,275607676.38451,  -0.00069,  -0.00018,  -0.00053,  -5.78569,   1.00000
-511893849.98835,-293665535.46509,-97056084.65310,  -0.00245,  -0.00052,  -0.00179,475614160.34675,   0.00089,275614167.74309,  -0.00069,  -0.00018,  -0.00053,  -7.39634,   1.00000
-511855969.22628,-292830833.23105,-97220941.36780,  -0.00245,  -0.00052,  -0.00180,475620599.30356,   0.00090,275620603.73106,  -0.00070,  -0.00018,  -0.00053,  -4.42751,   1.00000
-511819078.37333,-291997635.74642,-97381941.70037,  -0.00246,  -0.00052,  -0.00180,475627117.77347,   0.00090,275627123.01067,  -0.00070,  -0.00018,  -0.00054,  -5.23719,   1.00000
-511781149.82732,-291154513.18568,-97542720.89057,  -0.00247,  -0.00051,  -0.00181,475633526.49660,   0.00091,275633536.49375,  -0.00071,  -0.00019,  -0.00054,  -9.99715,   1.00000
-511738666.55474,-290324339.12167,-97705215.38805,  -0.00247,  -0.00051,  -0.00182,475640012.93544,   0.00092,275640014.05250,  -0.00071,  -0.00019,  -0.00055,  -1.11706,   1.00000
-511697661.03618,-289484200.40115,-97864422.11167,  -0.00248,  -0.00051,  -0.00182,475646450.30247,   0.00092,275646455.28574,  -0.00071,  -0.00019,  -0.00055,  -4.98327,   1.00000
-511652584.48271,-288645460.01829,-98025927.33322,  -0.00248,  -0.00050,  -0.00183,475652836.07697,   0.00093,275652840.76395,  -0.00072,  -0.00019,  -0.00055,  -4.68699,   1.00000
-511602915.79490,-287806680.63586,-98190686.67603,  -0.00249,  -0.00050,  -0.00183,475659252.74260,   0.00093,275659255.48164,  -0.00072,  -0.00019,  -0.00056,  -2.73903,   1.00000
-511554829.14016,-286970928.09208,-98350621.10506,  -0.00250,  -0.00050,  -0.00184,475665666.94850,   0.00094,275665668.58947,  -0.00073,  -0.00019,  -0.00056,  -1.64097,   1.00000
-511505061.17278,-286123566.28587,-98511305.41247,  -0.00250,  -0.00049,  -0.00185,475672053.41043,   0.00095,275672061.05027,  -0.00073,  -0.00019,  -0.00056,  -7.63984,   1.00000
-511453991.99470,-285290845.75969,-98669685.92837,  -0.00251,  -0.00049,  -0.00185,475678495.85814,   0.00095,275678501.67049,  -0.00074,  -0.00019,  -0.00057,  -5.81235,   1.00000
-511398667.34631,-284446236.95746,-98831916.47524,  -0.00251,  -0.00049,  -0.00186,475684848.73247,   0.00096,275684851.83123,  -0.00074,  -0.00019,  -0.00057,  -3.09876,   1.00000
-511345207.67494,-283617808.82228,-98987823.31986,  -0.00252,  -0.00048,  -0.00186,475691226.57197,   0.00096,275691234.30975,  -0.00075,  -0.00019,  -0.00058,  -7.73778,   1.00000
-511286933.25182,-282776160.94866,-99148515.93634,  -0.00253,  -0.00048,  -0.00187,475697607.54485,   0.00097,275697611.76221,  -0.00075,  -0.00019,  -0.00058,  -4.21736,   1.00000
-511227729.83110,-281937197.13324,-99307522.61537,  -0.00253,  -0.00048,  -0.00187,475703913.97827,   0.00098,275703917.24146,  -0.00076,  -0.00019,  -0.00058,  -3.26319,   1.00000
-511166531.97261,-281098550.18747,-99466670.09896,  -0.00254,  -0.00047,  -0.00188,475710313.81112,   0.00098,275710322.08207,  -0.00076,  -0.00019,  -0.00059,  -8.27095,   1.00000
-511104443.05492,-280262543.87117,-99624152.60500,  -0.00254,  -0.00047,  -0.00189,475716647.97439,   0.00099,275716654.61301,  -0.00076,  -0.00019,  -0.00059,  -6.63862,   1.00000
-511040936.99394,-279428025.48042,-99780880.56235,  -0.00255,  -0.00046,  -0.00189,475723000.41205,   0.00099,275723000.54910,  -0.00077,  -0.00019,  -0.00059,  -0.13705,   1.00000
-510973420.88606,-278594564.54599,-99939978.95747,  -0.00256,  -0.00046,  -0.00190,475729280.93854,   0.00100,275729289.73925,  -0.00077,  -0.00019,  -0.00060,  -8.80070,   1.00000
-510903984.89857,-277761541.35792,-100099206.64628,  -0.00256,  -0.00046,  -0.00190,475735673.27359,   0.00101,275735678.32873,  -0.00078,  -0.00019,  -0.00060,  -5.05513,   1.00000
-510836838.05169,-276932518.56632,-100252790.52816,  -0.00257,  -0.00045,  -0.00191,475741977.16627,   0.00101,275741978.18102,  -0.00078,  -0.00019,  -0.00060,  -1.01475,   1.00000
-510765178.78935,-276103484.06761,-100409646.01309,  -0.00257,  -0.00045,  -0.00191,475748302.58369,   0.00102,275748307.12206,  -0.00079,  -0.00019,  -0.00061,  -4.53837,   1.00000
-510689038.12288,-275261984.88060,-100570380.04341,  -0.00258,  -0.00045,  -0.00192,475754537.25113,   0.00102,275754545.72588,  -0.00079,  -0.00019,  -0.00061,  -8.47474,   1.00000
-510614673.48110,-274435952.65070,-100725733.45569,  -0.00258,  -0.00044,  -0.00193,475760898.63277,   0.00103,275760901.17994,  -0.00080,  -0.00019,  -0.00062,  -2.54717,   1.00000
-510539502.92349,-273612300.14964,-100879494.27662,  -0.00259,  -0.00044,  -0.00193,475767174.38566,   0.00103,275767183.21562,  -0.00080,  -0.00019,  -0.00062,  -8.82996,   1.00000
-510459272.06951,-272775161.13914,-101038000.44108,  -0.00260,  -0.00044,  -0.00194,475773453.84320,   0.00104,275773461.37939,  -0.00081,  -0.00019,  -0.00062,  -7.53619,   1.00000
-510381472.27154,-271954478.93063,-101190292.79290,  -0.00260,  -0.00043,  -0.00194,475779764.77313,   0.00105,275779769.41425,  -0.00081,  -0.00019,  -0.00063,  -4.64111,   1.00000
-510299748.18908,-271134613.71566,-101345024.56929,  -0.00261,  -0.00043,  -0.00195,475786011.42424,   0.00105,275786019.65093,  -0.00081,  -0.00019,  -0.00063,  -8.22669,   1.00000
-510216079.15667,-270302651.65303,-101500496.23053,  -0.00261,  -0.00043,  -0.00195,475792248.79535,   0.00106,275792250.06506,  -0.00082,  -0.00019,  -0.00063,  -1.26971,   1.00000
-510131786.77084,-269485726.88626,-101653777.10137,  -0.00262,  -0.00042,  -0.00196,475798521.12067,   0.00106,275798525.98734,  -0.00082,  -0.00019,  -0.00064,  -4.86666,   1.00000
-510045513.98595,-268656665.05198,-101807794.77601,  -0.00263,  -0.00042,  -0.00196,475804775.54698,   0.00107,275804782.22190,  -0.00083,  -0.00019,  -0.00064,  -6.67492,   1.00000
-509958712.19393,-267842702.41916,-101959639.30217,  -0.00263,  -0.00042,  -0.00197,475811082.18006,   0.00108,275811083.56860,  -0.00083,  -0.00019,  -0.00065,  -1.38854,   1.00000
-509868021.13561,-267029425.53749,-102113951.58700,  -0.00264,  -0.00041,  -0.00198,475817323.79348,   0.00108,275817326.65421,  -0.00084,  -0.00019,  -0.00065,  -2.86073,   1.00000
-509779290.66531,-266219039.76726,-102263566.71346,  -0.00264,  -0.00041,  -0.00198,475823560.05409,   0.00109,275823565.91161,  -0.00084,  -0.00019,  -0.00065,  -5.85752,   1.00000
-509685346.57765,-265394982.24227,-102417907.95698,  -0.00265,  -0.00041,  -0.00199,475829800.68727,   0.00109,275829801.93608,  -0.00085,  -0.00019,  -0.00066,  -1.24881,   1.00000
-509594194.32693,-264587528.49258,-102566113.24540,  -0.00265,  -0.00040,  -0.00199,475836061.55188,   0.00110,275836066.14688,  -0.00085,  -0.00019,  -0.00066,  -4.59501,   1.00000
-509498667.46129,-263780105.17592,-102717606.91007,  -0.00266,  -0.00040,  -0.00200,475842352.30748,   0.00110,275842359.07580,  -0.00086,  -0.00019,  -0.00066,  -6.76832,   1.00000
-509402488.91339,-262974667.57851,-102867621.97980,  -0.00266,  -0.00040,  -0.00200,475848572.83474,   0.00111,275848576.73211,  -0.00086,  -0.00019,  -0.00067,  -3.89737,   1.00000
-509305142.71907,-262170669.70262,-103016945.85283,  -0.00267,  -0.00039,  -0.00201,475854800.85978,   0.00112,275854806.59728,  -0.00086,  -0.00019,  -0.00067,  -5.73750,   1.00000
-509206649.49320,-261368119.34432,-103165583.58956,  -0.00268,  -0.00039,  -0.00202,475861045.13202,   0.00112,275861048.57323,  -0.00087,  -0.00019,  -0.00067,  -3.44120,   1.00000
-509107011.23140,-260567015.99173,-103313535.94502,  -0.00268,  -0.00039,  -0.00202,475867296.73214,   0.00113,275867302.65726,  -0.00087,  -0.00019,  -0.00068,  -5.92511,   1.00000
-509003541.73844,-259766357.19978,-103464018.40704,  -0.00269,  -0.00038,  -0.00203,475873490.86783,   0.00113,275873497.53868,  -0.00088,  -0.00019,  -0.00068,  -6.67085,   1.00000
-508898956.74838,-258967132.51625,-103613817.51766,  -0.00269,  -0.00038,  -0.00203,475879701.05416,   0.00114,275879704.41547,  -0.00088,  -0.00019,  -0.00069,  -3.36132,   1.00000
-508793258.08021,-258169341.39439,-103762933.98872,  -0.00270,  -0.00038,  -0.00204,475885918.43977,   0.00114,275885923.28548,  -0.00089,  -0.00019,  -0.00069,  -4.84572,   1.00000
-508690758.15099,-257388288.39321,-103906006.60827,  -0.00270,  -0.00037,  -0.00204,475892161.62501,   0.00115,275892168.31911,  -0.00089,  -0.00019,  -0.00069,  -6.69410,   1.00000
-508582890.23652,-256593351.67827,-104053788.47301,  -0.00271,  -0.00037,  -0.00205,475898401.59594,   0.00116,275898410.69641,  -0.00090,  -0.00019,  -0.00070,  -9.10047,   1.00000
-508475568.87996,-255814063.52526,-104198772.34406,  -0.00271,  -0.00037,  -0.00205,475904602.03767,   0.00116,275904607.42920,  -0.00090,  -0.00019,  -0.00070,  -5.39153,   1.00000
-508366730.19426,-255035954.02351,-104343830.61266,  -0.00272,  -0.00036,  -0.00206,475910896.22423,   0.00117,275910903.88889,  -0.00090,  -0.00019,  -0.00070,  -7.66465,   1.00000
-508257369.18040,-254259497.81442,-104487513.15821,  -0.00273,  -0.00036,  -0.00207,475917118.12531,   0.00117,275917123.38706,  -0.00091,  -0.00019,  -0.00071,  -5.26175,   1.00000
-508146998.62112,-253484459.74479,-104630549.05779,  -0.00273,  -0.00036,  -0.00207,475923346.25626,   0.00118,275923354.21692,  -0.00091,  -0.00019,  -0.00071,  -7.96066,   1.00000
-508032882.52860,-252709621.63475,-104776185.17079,  -0.00274,  -0.00035,  -0.00208,475929524.20723,   0.00118,275929524.68702,  -0.00092,  -0.00019,  -0.00071,  -0.47979,   1.00000
-507920536.14980,-251937433.28406,-104917928.67916,  -0.00274,  -0.00035,  -0.00208,475935773.41654,   0.00119,275935778.06859,  -0.00092,  -0.00019,  -0.00072,  -4.65205,   1.00000
-507805712.81000,-251179453.91775,-105060909.05551,  -0.00275,  -0.00035,  -0.00209,475941994.60404,   0.00120,275942001.19714,  -0.00093,  -0.00019,  -0.00072,  -6.59310,   1.00000
-507688674.47189,-250408803.44889,-105204630.60347,  -0.00275,  -0.00034,  -0.00209,475948199.31786,   0.00120,275948205.04716,  -0.00093,  -0.00019,  -0.00073,  -5.72930,   1.00000
-507575245.06585,-249655019.55436,-105342402.96295,  -0.00276,  -0.00034,  -0.00210,475954426.43823,   0.00121,275954432.98874,  -0.00094,  -0.00019,  -0.00073,  -6.55051,   1.00000
-507457655.65261,-248901276.62932,-105483507.68011,  -0.00276,  -0.00034,  -0.00210,475960681.81983,   0.00121,275960688.69530,  -0.00094,  -0.00019,  -0.00073,  -6.87548,   1.00000
-507339628.55050,-248148931.24122,-105623309.97334,  -0.00277,  -0.00033,  -0.00211,475966863.34446,   0.00122,275966866.21404,  -0.00094,  -0.00019,  -0.00074,  -2.86958,   1.00000
-507217441.57639,-247396612.84295,-105766437.59348,  -0.00277,  -0.00033,  -0.00212,475973064.39361,   0.00123,275973071.56581,  -0.00095,  -0.00019,  -0.00074,  -7.17219,   1.00000
-507097643.25770,-246647037.35276,-105905006.87080,  -0.00278,  -0.00033,  -0.00212,475979265.21566,   0.00123,275979270.37571,  -0.00095,  -0.00019,  -0.00074,  -5.16005,   1.00000
-506978399.20649,-245913030.21825,-106041619.95510,  -0.00278,  -0.00032,  -0.00213,475985500.59548,   0.00124,275985509.32595,  -0.00096,  -0.00019,  -0.00075,  -8.73047,   1.00000
-506858335.19113,-245180405.26427,-106177641.07529,  -0.00279,  -0.00032,  -0.00213,475991749.33761,   0.00124,275991758.46638,  -0.00096,  -0.00019,  -0.00075,  -9.12877,   1.00000
-506737459.85082,-244449164.24292,-106313072.69781,  -0.00280,  -0.00032,  -0.00214,475998011.38593,   0.00125,275998017.75392,  -0.00097,  -0.00019,  -0.00076,  -6.36799,   1.00000
-506612934.08346,-243717801.94975,-106451193.07265,  -0.00280,  -0.00031,  -0.00214,476004212.95772,   0.00125,276004215.20446,  -0.00097,  -0.00019,  -0.00076,  -2.24674,   1.00000
-506489124.08939,-243002054.10581,-106587385.99304,  -0.00281,  -0.00031,  -0.00215,476010447.51454,   0.00126,276010452.03347,  -0.00098,  -0.00019,  -0.00076,  -4.51893,   1.00000
-506363019.62856,-242273396.01609,-106724332.08921,  -0.00281,  -0.00031,  -0.00215,476016666.57988,   0.00127,276016669.52627,  -0.00098,  -0.00019,  -0.00077,  -2.94640,   1.00000
-506237692.00765,-241560389.32806,-106859362.48179,  -0.00282,  -0.00031,  -0.00216,476022918.12233,   0.00127,276022926.13447,  -0.00098,  -0.00019,  -0.00077,  -8.01214,   1.00000
-506114919.10481,-240850065.96138,-106989897.60331,  -0.00282,  -0.00030,  -0.00216,476029167.73149,   0.00128,276029174.98978,  -0.00099,  -0.00019,  -0.00077,  -7.25829,   1.00000
-505988127.25257,-240139780.75976,-107123796.09817,  -0.00283,  -0.00030,  -0.00217,476035444.42603,   0.00128,276035450.89722,  -0.00099,  -0.00019,  -0.00078,  -6.47119,   1.00000
-505862651.65004,-239444869.26781,-107255183.06266,  -0.00283,  -0.00030,  -0.00218,476041672.69546,   0.00129,276041675.57399,  -0.00100,  -0.00019,  -0.00078,  -2.87853,   1.00000
-505736488.92407,-238751282.66547,-107386019.26194,  -0.00284,  -0.00029,  -0.00218,476047904.29228,   0.00129,276047909.55986,  -0.00100,  -0.00019,  -0.00078,  -5.26758,   1.00000
-505606356.42484,-238057716.75632,-107520224.81564,  -0.00284,  -0.00029,  -0.00219,476054162.47489,   0.00130,276054170.35227,  -0.00101,  -0.00019,  -0.00079,  -7.87738,   1.00000
-505478864.86538,-237366791.67225,-107649959.55198,  -0.00285,  -0.00029,  -0.00219,476060417.99101,   0.00131,276060422.82367,  -0.00101,  -0.00019,  -0.00079,  -4.83266,   1.00000
-505352433.34048,-236691594.46362,-107777848.90514,  -0.00285,  -0.00028,  -0.00220,476066711.40010,   0.00131,276066712.87351,  -0.00102,  -0.00019,  -0.00080,  -1.47342,   1.00000
-505222452.17534,-236015968.62394,-107908513.04931,  -0.00286,  -0.00028,  -0.00220,476072934.29933,   0.00132,276072939.56835,  -0.00102,  -0.00019,  -0.00080,  -5.26902,   1.00000
-505094797.97942,-235343410.05114,-108035335.30923,  -0.00286,  -0.00028,  -0.00221,476079241.79797,   0.00132,276079247.39034,  -0.00102,  -0.00019,  -0.00080,  -5.59236,   1.00000
-504966913.86416,-234671678.26941,-108161036.71986,  -0.00287,  -0.00027,  -0.00221,476085472.49962,   0.00133,276085473.95446,  -0.00103,  -0.00019,  -0.00081,  -1.45483,   1.00000
-504836906.30684,-234014409.19530,-108288834.49338,  -0.00287,  -0.00027,  -0.00222,476091745.71600,   0.00134,276091755.10139,  -0.00103,  -0.00019,  -0.00081,  -9.38539,   1.00000
-504706354.39639,-233358433.73872,-108416117.92501,  -0.00288,  -0.00027,  -0.00222,476098038.52038,   0.00134,276098044.68837,  -0.00104,  -0.00019,  -0.00081,  -6.16799,   1.00000
-504578565.91517,-232705027.60265,-108538982.47072,  -0.00288,  -0.00027,  -0.00223,476104318.49638,   0.00135,276104324.95797,  -0.00104,  -0.00019,  -0.00082,  -6.46160,   1.00000
-504449118.16819,-232065540.52822,-108663387.16970,  -0.00289,  -0.00026,  -0.00223,476110560.45651,   0.00135,276110569.00590,  -0.00105,  -0.00019,  -0.00082,  -8.54939,   1.00000
-504318829.07250,-231427921.80769,-108787875.35510,  -0.00289,  -0.00026,  -0.00224,476116909.25798,   0.00136,276116911.36357,  -0.00105,  -0.00019,  -0.00083,  -2.10558,   1.00000
-504188365.98997,-230790939.77061,-108911289.54131,  -0.00290,  -0.00026,  -0.00225,476123163.09990,   0.00136,276123171.57774,  -0.00106,  -0.00019,  -0.00083,  -8.47783,   1.00000
-504059332.15927,-230169757.01118,-109032943.87634,  -0.00290,  -0.00025,  -0.00225,476129459.21056,   0.00137,276129467.36936,  -0.00106,  -0.00019,  -0.00083,  -8.15880,   1.00000
-503929841.91596,-229549814.09555,-109154119.84440,  -0.00291,  -0.00025,  -0.00226,476135765.12667,   0.00138,276135770.88638,  -0.00106,  -0.00019,  -0.00084,  -5.75972,   1.00000
-503799900.87254,-228931111.03131,-109274819.36482,  -0.00292,  -0.00025,  -0.00226,476142080.80639,   0.00138,276142082.09557,  -0.00107,  -0.00019,  -0.00084,  -1.28918,   1.00000
-503669505.60642,-228313644.39883,-109395042.12697,  -0.00292,  -0.00025,  -0.00227,476148397.48215,   0.00139,276148401.01205,  -0.00107,  -0.00019,  -0.00084,  -3.52990,   1.00000
-503543998.79717,-227713267.83741,-109509643.56116,  -0.00293,  -0.00024,  -0.00227,476154730.84544,   0.00139,276154736.82160,  -0.00108,  -0.00019,  -0.00085,  -5.97616,   1.00000
-503411712.32994,-227110836.74475,-109631023.97711,  -0.00293,  -0.00024,  -0.00228,476161016.16818,   0.00140,276161025.39104,  -0.00108,  -0.00019,  -0.00085,  -9.22286,   1.00000
-503284402.38956,-226525486.02675,-109746800.57794,  -0.00294,  -0.00024,  -0.00228,476167326.00901,   0.00141,276167330.35705,  -0.00109,  -0.00019,  -0.00086,  -4.34803,   1.00000
-503156417.05592,-225942123.71672,-109862673.18485,  -0.00294,  -0.00023,  -0.00229,476173723.27841,   0.00141,276173733.07847,  -0.00109,  -0.00019,  -0.00086,  -9.80006,   1.00000
-503028374.87698,-225359141.53170,-109977565.59686,  -0.00295,  -0.00023,  -0.00229,476180050.69380,   0.00142,276180052.01830,  -0.00110,  -0.00019,  -0.00086,  -1.32449,   1.00000
-502902042.87712,-224791995.49424,-110090772.00717,  -0.00295,  -0.00023,  -0.00230,476186398.85573,   0.00142,276186404.88599,  -0.00110,  -0.00019,  -0.00087,  -6.03026,   1.00000
-502772314.99597,-224223907.94078,-110206901.36669,  -0.00296,  -0.00023,  -0.00230,476192683.34610,   0.00143,276192691.79699,  -0.00111,  -0.00019,  -0.00087,  -8.45090,   1.00000
-502645339.61612,-223659096.60610,-110319244.64350,  -0.00296,  -0.00022,  -0.00231,476199048.27371,   0.00144,276199058.07767,  -0.00111,  -0.00019,  -0.00088,  -9.80395,   1.00000
-502520186.05753,-223110143.05638,-110429929.38703,  -0.00297,  -0.00022,  -0.00231,476205450.03516,   0.00144,276205457.65109,  -0.00111,  -0.00019,  -0.00088,  -7.61593,   1.00000
-502391655.81362,-222560175.91158,-110543557.76756,  -0.00297,  -0.00022,  -0.00232,476211787.89514,   0.00145,276211790.90151,  -0.00112,  -0.00019,  -0.00088,  -3.00637,   1.00000
-502265004.48973,-222026051.91332,-110655535.71653,  -0.00298,  -0.00022,  -0.00233,476218153.01009,   0.00145,276218157.13671,  -0.00112,  -0.00019,  -0.00089,  -4.12662,   1.00000
-502141461.73389,-221494264.23856,-110763232.64570,  -0.00298,  -0.00021,  -0.00233,476224510.27932,   0.00146,276224511.20029,  -0.00113,  -0.00019,  -0.00089,  -0.92097,   1.00000
-502014293.36958,-220962355.90055,-110874403.74628,  -0.00299,  -0.00021,  -0.00234,476230881.74966,   0.00146,276230889.67677,  -0.00113,  -0.00018,  -0.00089,  -7.92711,   1.00000
-501892473.98359,-220447527.86594,-110980080.97726,  -0.00299,  -0.00021,  -0.00234,476237281.15355,   0.00147,276237282.16357,  -0.00114,  -0.00018,  -0.00090,  -1.01002,   1.00000
-501767058.13159,-219932562.24404,-111089241.36209,  -0.00300,  -0.00021,  -0.00235,476243694.40019,   0.00148,276243698.83746,  -0.00114,  -0.00018,  -0.00090,  -4.43727,   1.00000
-501647049.57938,-219434666.43863,-111192925.39947,  -0.00300,  -0.00020,  -0.00235,476250125.63676,   0.00148,276250129.12026,  -0.00115,  -0.00018,  -0.00091,  -3.48349,   1.00000
-501523701.94277,-218935557.89637,-111299607.12100,  -0.00301,  -0.00020,  -0.00236,476256483.70867,   0.00149,276256492.14863,  -0.00115,  -0.00018,  -0.00091,  -8.43996,   1.00000
-501405603.81869,-218454572.87186,-111401329.33255,  -0.00301,  -0.00020,  -0.00236,476262954.11550,   0.00149,276262959.52820,  -0.00116,  -0.00018,  -0.00091,  -5.41270,   1.00000
-501284182.68562,-217972321.31316,-111506064.34703,  -0.00302,  -0.00020,  -0.00237,476269351.19781,   0.00150,276269359.36804,  -0.00116,  -0.00018,  -0.00092,  -8.17024,   1.00000
-501165980.46594,-217492299.33227,-111606572.05384,  -0.00302,  -0.00019,  -0.00237,476275739.02457,   0.00151,276275745.96870,  -0.00116,  -0.00018,  -0.00092,  -6.94412,   1.00000
-501046563.16842,-217026909.62029,-111709382.46102,  -0.00303,  -0.00019,  -0.00238,476282173.89630,   0.00151,276282182.14063,  -0.00117,  -0.00018,  -0.00093,  -8.24433,   1.00000
-500930396.69979,-216563720.03864,-111807979.25515,  -0.00303,  -0.00019,  -0.00238,476288599.12915,   0.00152,276288604.77521,  -0.00117,  -0.00018,  -0.00093,  -5.64606,   1.00000
-500813066.88821,-216115160.41553,-111908891.28950,  -0.00304,  -0.00019,  -0.00239,476295070.40027,   0.00152,276295076.65690,  -0.00118,  -0.00018,  -0.00093,  -6.25663,   1.00000
-500699018.17941,-215668770.71737,-112005603.05061,  -0.00304,  -0.00019,  -0.00239,476301531.66099,   0.00153,276301534.71052,  -0.00118,  -0.00018,  -0.00094,  -3.04953,   1.00000
-500584855.31375,-215223346.48700,-112101981.23503,  -0.00304,  -0.00018,  -0.00240,476307989.72060,   0.00154,276307997.46312,  -0.00119,  -0.00018,  -0.00094,  -7.74252,   1.00000
-500469787.14868,-214791355.97076,-112200225.91331,  -0.00305,  -0.00018,  -0.00240,476314415.41206,   0.00154,276314417.52393,  -0.00119,  -0.00018,  -0.00094,  -2.11187,   1.00000
-500360239.57485,-214377573.26880,-112293558.45158,  -0.00305,  -0.00018,  -0.00241,476320930.84067,   0.00155,276320940.56555,  -0.00120,  -0.00018,  -0.00095,  -9.72488,   1.00000
-500247427.22596,-213962287.36273,-112389972.13615,  -0.00306,  -0.00018,  -0.00241,476327390.13560,   0.00155,276327394.85581,  -0.00120,  -0.00018,  -0.00095,  -4.72022,   1.00000
-500134547.46581,-213547904.57982,-112486064.41769,  -0.00306,  -0.00017,  -0.00242,476333845.70541,   0.00156,276333853.44871,  -0.00121,  -0.00018,  -0.00096,  -7.74330,   1.00000
-500027455.11530,-213150505.57425,-112576807.76769,  -0.00307,  -0.00017,  -0.00242,476340321.59613,   0.00157,276340322.90603,  -0.00121,  -0.00018,  -0.00096,  -1.30990,   1.00000
-499919377.02833,-212767698.98599,-112669916.41818,  -0.00307,  -0.00017,  -0.00243,476346839.94795,   0.00157,276346840.38565,  -0.00121,  -0.00018,  -0.00096,  -0.43770,   1.00000
-499814670.41945,-212386920.51584,-112758876.22068,  -0.00308,  -0.00017,  -0.00243,476353337.96809,   0.00158,276353342.98095,  -0.00122,  -0.00018,  -0.00097,  -5.01286,   1.00000
-499709943.33799,-212006988.64329,-112847547.79830,  -0.00308,  -0.00017,  -0.00244,476359840.40904,   0.00159,276359849.29059,  -0.00122,  -0.00018,  -0.00097,  -8.88155,   1.00000
-499607691.90336,-211642825.82648,-112934756.19940,  -0.00309,  -0.00017,  -0.00244,476366377.15859,   0.00159,276366384.45331,  -0.00123,  -0.00018,  -0.00098,  -7.29472,   1.00000
-499507934.77735,-211294407.42950,-113020508.59173,  -0.00309,  -0.00016,  -0.00245,476372938.48245,   0.00160,276372948.27912,  -0.00123,  -0.00018,  -0.00098,  -9.79667,   1.00000
-499404929.21276,-210944262.88468,-113109393.70893,  -0.00310,  -0.00016,  -0.00245,476379434.40897,   0.00160,276379442.46032,  -0.00124,  -0.00018,  -0.00098,  -8.05134,   1.00000
-499308614.56978,-210598596.58507,-113190754.94279,  -0.00310,  -0.00016,  -0.00246,476385987.39837,   0.00161,276385994.12403,  -0.00124,  -0.00018,  -0.00099,  -6.72566,   1.00000
-499208157.25155,-210264954.36062,-113277932.04785,  -0.00311,  -0.00016,  -0.00246,476392511.02943,   0.00162,276392519.90804,  -0.00125,  -0.00017,  -0.00099,  -8.87861,   1.00000
-499113686.46927,-209948187.29444,-113359833.64958,  -0.00311,  -0.00016,  -0.00247,476399050.47794,   0.00162,276399054.91792,  -0.00125,  -0.00017,  -0.00100,  -4.43998,   1.00000
-499022543.19101,-209634694.40332,-113438073.48733,  -0.00312,  -0.00015,  -0.00247,476405662.13862,   0.00163,276405665.80488,  -0.00126,  -0.00017,  -0.00100,  -3.66626,   1.00000
-498928141.99353,-209319355.73927,-113519480.53118,  -0.00312,  -0.00015,  -0.00248,476412199.35908,   0.00163,276412206.57326,  -0.00126,  -0.00017,  -0.00100,  -7.21418,   1.00000
-498836357.87993,-209019706.60028,-113599474.08278,  -0.00313,  -0.00015,  -0.00248,476418767.53569,   0.00164,276418775.03641,  -0.00127,  -0.00017,  -0.00101,  -7.50072,   1.00000
-498747212.10930,-208735722.01688,-113678062.23123,  -0.00313,  -0.00015,  -0.00249,476425365.93585,   0.00165,276425370.98451,  -0.00127,  -0.00017,  -0.00101,  -5.04867,   1.00000
-498658134.82909,-208452393.00222,-113756414.24909,  -0.00314,  -0.00015,  -0.00250,476431967.26590,   0.00165,276431969.46455,  -0.00127,  -0.00017,  -0.00102,  -2.19865,   1.00000
-498571811.70019,-208183259.99661,-113832953.34688,  -0.00314,  -0.00015,  -0.00250,476438495.36502,   0.00166,276438503.30167,  -0.00128,  -0.00017,  -0.00102,  -7.93665,   1.00000
-498485480.87838,-207916200.21101,-113909681.90215,  -0.00315,  -0.00014,  -0.00251,476445128.85042,   0.00166,276445131.38114,  -0.00128,  -0.00017,  -0.00102,  -2.53073,   1.00000
-498405255.00314,-207665914.12805,-113981193.78036,  -0.00315,  -0.00014,  -0.00251,476451765.47655,   0.00167,276451767.48778,  -0.00129,  -0.00017,  -0.00103,  -2.01123,   1.00000
-498321777.60292,-207413588.05178,-114055914.81310,  -0.00316,  -0.00014,  -0.00252,476458327.40801,   0.00168,276458332.74444,  -0.00129,  -0.00017,  -0.00103,  -5.33643,   1.00000
-498244355.71746,-207179486.90524,-114125841.29400,  -0.00316,  -0.00014,  -0.00252,476464994.28692,   0.00168,276464997.70537,  -0.00130,  -0.00017,  -0.00104,  -3.41845,   1.00000
-498163681.88676,-206943297.51589,-114198986.19611,  -0.00317,  -0.00014,  -0.00252,476471586.40372,   0.00169,276471591.64973,  -0.00130,  -0.00017,  -0.00104,  -5.24601,   1.00000
-498089170.59231,-206723826.80688,-114266941.50503,  -0.00317,  -0.00014,  -0.00253,476478189.17329,   0.00170,276478193.05504,  -0.00131,  -0.00017,  -0.00104,  -3.88176,   1.00000
-498013978.51352,-206518738.25240,-114337372.72266,  -0.00317,  -0.00014,  -0.00253,476484834.98735,   0.00170,276484839.82040,  -0.00131,  -0.00017,  -0.00105,  -4.83305,   1.00000
-497945672.29110,-206317943.67915,-114400353.08086,  -0.00318,  -0.00014,  -0.00254,476491533.63043,   0.00171,276491542.20695,  -0.00132,  -0.00017,  -0.00105,  -8.57652,   1.00000
-497876774.25472,-206129992.75330,-114465431.59700,  -0.00318,  -0.00013,  -0.00254,476498190.42433,   0.00171,276498197.58135,  -0.00132,  -0.00017,  -0.00106,  -7.15702,   1.00000
-497807985.34003,-205942489.38046,-114530327.21263,  -0.00319,  -0.00013,  -0.00255,476504848.89498,   0.00172,276504854.44031,  -0.00133,  -0.00017,  -0.00106,  -5.54533,   1.00000
-497738606.02089,-205767786.68496,-114597319.66399,  -0.00319,  -0.00013,  -0.00255,476511455.97434,   0.00173,276511464.22875,  -0.00133,  -0.00017,  -0.00106,  -8.25442,   1.00000
-497676149.65602,-205597328.71444,-114656876.76484,  -0.00320,  -0.00013,  -0.00256,476518124.25677,   0.00173,276518129.24752,  -0.00133,  -0.00017,  -0.00107,  -4.99075,   1.00000
-497613048.61880,-205441170.62639,-114718937.03938,  -0.00320,  -0.00013,  -0.00256,476524833.62691,   0.00174,276524839.04510,  -0.00134,  -0.00016,  -0.00107,  -5.41819,   1.00000
-497556183.82783,-205301577.30711,-114775859.30003,  -0.00321,  -0.00013,  -0.00257,476531549.85323,   0.00175,276531555.22863,  -0.00134,  -0.00016,  -0.00108,  -5.37540,   1.00000
-497496046.80645,-205159625.83130,-114836059.65133,  -0.00321,  -0.00013,  -0.00257,476538191.15855,   0.00175,276538199.46762,  -0.00135,  -0.00016,  -0.00108,  -8.30908,   1.00000
-497442117.51178,-205035764.99948,-114891514.66517,  -0.00322,  -0.00013,  -0.00258,476544940.71672,   0.00176,276544941.99691,  -0.00135,  -0.00016,  -0.00109,  -1.28019,   1.00000
-497384901.21334,-204909498.53009,-114950252.29226,  -0.00322,  -0.00013,  -0.00258,476551606.19282,   0.00176,276551612.51342,  -0.00136,  -0.00016,  -0.00109,  -6.32060,   1.00000
-497337337.00259,-204802441.02260,-115000431.53043,  -0.00323,  -0.00012,  -0.00259,476558352.93528,   0.00177,276558362.00272,  -0.00136,  -0.00016,  -0.00109,  -9.06744,   1.00000
-497286491.58457,-204692938.03043,-115053916.20818,  -0.00323,  -0.00012,  -0.00259,476565033.85293,   0.00178,276565039.18434,  -0.00137,  -0.00016,  -0.00110,  -5.33141,   1.00000
-497241170.21785,-204613807.24511,-115104962.53837,  -0.00324,  -0.00012,  -0.00260,476571757.15787,   0.00178,276571765.65076,  -0.00137,  -0.00016,  -0.00110,  -8.49289,   1.00000
-497193250.96186,-204519816.13520,-115157019.40271,  -0.00324,  -0.00012,  -0.00260,476578460.56737,   0.00179,276578468.41563,  -0.00138,  -0.00016,  -0.00111,  -7.84826,   1.00000
-497154281.12970,-204458889.89891,-115203203.17924,  -0.00325,  -0.00012,  -0.00261,476585289.89498,   0.00180,276585293.19243,  -0.00138,  -0.00016,  -0.00111,  -3.29745,   1.00000
-497112004.99985,-204395393.54133,-115252705.07249,  -0.00325,  -0.00012,  -0.00261,476592044.20490,   0.00180,276592045.41136,  -0.00139,  -0.00016,  -0.00111,  -1.20646,   1.00000
-497073271.56954,-204333195.07475,-115298262.44398,  -0.00325,  -0.00012,  -0.00262,476598772.67996,   0.00181,276598778.86424,  -0.00139,  -0.00016,  -0.00112,  -6.18428,   1.00000
-497033949.50238,-204283485.23736,-115345998.27171,  -0.00326,  -0.00012,  -0.00262,476605455.03059,   0.00181,276605463.93916,  -0.00140,  -0.00016,  -0.00112,  -8.90857,   1.00000
-497000873.48328,-204251686.69971,-115389016.80908,  -0.00326,  -0.00012,  -0.00263,476612241.41133,   0.00182,276612246.44971,  -0.00140,  -0.00016,  -0.00113,  -5.03838,   1.00000
-496967890.82154,-204219966.89912,-115431920.35728,  -0.00327,  -0.00012,  -0.00263,476619028.03655,   0.00183,276619029.14244,  -0.00141,  -0.00016,  -0.00113,  -1.10590,   1.00000
-496943884.98294,-204219589.47289,-115468605.64401,  -0.00327,  -0.00012,  -0.00264,476625834.41548,   0.00183,276625841.16185,  -0.00141,  -0.00016,  -0.00114,  -6.74636,   1.00000
-496910374.11328,-204200279.85214,-115513597.89308,  -0.00328,  -0.00012,  -0.00264,476632574.03616,   0.00184,276632575.25267,  -0.00142,  -0.00016,  -0.00114,  -1.21651,   1.00000
-496886541.15920,-204199949.50454,-115550063.64113,  -0.00328,  -0.00012,  -0.00265,476639380.63385,   0.00185,276639387.37389,  -0.00142,  -0.00016,  -0.00114,  -6.74004,   1.00000
-496865543.19817,-204213099.75753,-115584931.17363,  -0.00329,  -0.00012,  -0.00265,476646131.14366,   0.00185,276646131.36040,  -0.00142,  -0.00016,  -0.00115,  -0.21674,   1.00000
-496847297.60226,-204242854.34406,-115618906.88027,  -0.00329,  -0.00012,  -0.00265,476652982.08909,   0.00186,276652991.68709,  -0.00143,  -0.00015,  -0.00115,  -9.59800,   1.00000
-496829152.84370,-204270954.18463,-115652440.86488,  -0.00330,  -0.00011,  -0.00266,476659759.10997,   0.00187,276659759.51389,  -0.00143,  -0.00015,  -0.00116,  -0.40392,   1.00000
-496810321.67774,-204312886.67607,-115688533.48736,  -0.00330,  -0.00011,  -0.00266,476666561.42042,   0.00187,276666570.75102,  -0.00144,  -0.00015,  -0.00116,  -9.33060,   1.00000
-496798443.29137,-204358587.55918,-115717272.40397,  -0.00331,  -0.00011,  -0.00267,476673429.91941,   0.00188,276673435.26997,  -0.00144,  -0.00015,  -0.00116,  -5.35056,   1.00000
-496789341.51991,-204417646.29105,-115744428.88451,  -0.00331,  -0.00011,  -0.00267,476680222.49762,   0.00188,276680231.51579,  -0.00145,  -0.00015,  -0.00117,  -9.01817,   1.00000
-496779549.01559,-204490460.95468,-115774162.55169,  -0.00332,  -0.00011,  -0.00268,476687067.28227,   0.00189,276687070.85106,  -0.00145,  -0.00015,  -0.00117,  -3.56878,   1.00000
-496773233.49444,-204564230.89095,-115800005.92258,  -0.00332,  -0.00011,  -0.00268,476693884.74632,   0.00190,276693890.51520,  -0.00146,  -0.00015,  -0.00118,  -5.76888,   1.00000
-496769657.18520,-204652860.84153,-115824621.55754,  -0.00332,  -0.00011,  -0.00269,476700726.98198,   0.00190,276700733.95419,  -0.00146,  -0.00015,  -0.00118,  -6.97221,   1.00000
-496769549.47227,-204742409.38651,-115845362.58590,  -0.00333,  -0.00011,  -0.00269,476707550.92976,   0.00191,276707557.54255,  -0.00147,  -0.00015,  -0.00119,  -6.61279,   1.00000
-496771409.51758,-204860668.46114,-115867532.03864,  -0.00333,  -0.00011,  -0.00270,476714441.47671,   0.00192,276714448.41262,  -0.00147,  -0.00015,  -0.00119,  -6.93592,   1.00000
-496770572.61493,-204962006.56877,-115890442.87604,  -0.00334,  -0.00011,  -0.00270,476721215.00454,   0.00192,276721222.25641,  -0.00148,  -0.00015,  -0.00119,  -7.25186,   1.00000
-496778580.28127,-205095877.97652,-115907511.49160,  -0.00334,  -0.00011,  -0.00270,476728110.73719,   0.00193,276728116.92739,  -0.00148,  -0.00015,  -0.00120,  -6.19020,   1.00000
-496786555.56779,-205229390.46232,-115924520.51392,  -0.00335,  -0.00011,  -0.00271,476735005.93363,   0.00194,276735010.87823,  -0.00149,  -0.00015,  -0.00120,  -4.94461,   1.00000
-496797214.13551,-205376041.44424,-115939969.16717,  -0.00335,  -0.00011,  -0.00271,476741832.11030,   0.00194,276741836.33845,  -0.00149,  -0.00015,  -0.00121,  -4.22815,   1.00000
-496811263.89410,-205524998.28659,-115951901.70745,  -0.00336,  -0.00011,  -0.00272,476748731.74544,   0.00195,276748733.81338,  -0.00150,  -0.00015,  -0.00121,  -2.06794,   1.00000
-496824508.23044,-205685896.05485,-115966083.43931,  -0.00336,  -0.00011,  -0.00272,476755580.12642,   0.00196,276755582.09670,  -0.00150,  -0.00015,  -0.00122,  -1.97029,   1.00000
-496840373.13850,-205861392.18327,-115979044.61726,  -0.00337,  -0.00011,  -0.00273,476762450.95004,   0.00196,276762454.00664,  -0.00151,  -0.00015,  -0.00122,  -3.05660,   1.00000
-496863058.06399,-206040259.42129,-115984690.16986,  -0.00337,  -0.00011,  -0.00273,476769376.79776,   0.00197,276769378.49910,  -0.00151,  -0.00015,  -0.00122,  -1.70133,   1.00000
-496884884.60211,-206230986.98185,-115992593.09989,  -0.00337,  -0.00011,  -0.00274,476776250.80515,   0.00197,276776253.78065,  -0.00152,  -0.00015,  -0.00123,  -2.97549,   1.00000
-496909275.26096,-206436216.67773,-115999281.90567,  -0.00338,  -0.00011,  -0.00274,476783146.50115,   0.00198,276783152.64703,  -0.00152,  -0.00014,  -0.00123,  -6.14588,   1.00000
-496937010.29397,-206642053.72819,-116002126.44979,  -0.00338,  -0.00012,  -0.00274,476790023.18719,   0.00199,276790031.27028,  -0.00153,  -0.00014,  -0.00124,  -8.08310,   1.00000
-496967281.35278,-206862345.32416,-116003766.79064,  -0.00339,  -0.00012,  -0.00275,476796930.57635,   0.00199,276796933.39838,  -0.00153,  -0.00014,  -0.00124,  -2.82203,   1.00000
-496997401.08183,-207082030.20266,-116005369.46272,  -0.00339,  -0.00012,  -0.00275,476803827.92720,   0.00200,276803834.58209,  -0.00154,  -0.00014,  -0.00125,  -6.65489,   1.00000
-497029234.46095,-207328474.90419,-116008050.85005,  -0.00340,  -0.00012,  -0.00276,476810703.35872,   0.00201,276810711.26387,  -0.00154,  -0.00014,  -0.00125,  -7.90515,   1.00000
-497065159.17988,-207563056.99636,-116004603.28827,  -0.00340,  -0.00012,  -0.00276,476817611.97196,   0.00201,276817615.69725,  -0.00155,  -0.00014,  -0.00125,  -3.72529,   1.00000
-497106161.74682,-207826979.64334,-115998772.74758,  -0.00341,  -0.00012,  -0.00277,476824562.27970,   0.00202,276824568.38516,  -0.00155,  -0.00014,  -0.00126,  -6.10546,   1.00000
-497146993.66341,-208088720.05390,-115992579.84548,  -0.00341,  -0.00012,  -0.00277,476831419.75944,   0.00203,276831428.07796,  -0.00155,  -0.00014,  -0.00126,  -8.31852,   1.00000
-497193660.39950,-208367341.77352,-115981718.62613,  -0.00342,  -0.00012,  -0.00277,476838380.23122,   0.00203,276838383.98034,  -0.00156,  -0.00014,  -0.00127,  -3.74911,   1.00000
-497236660.74476,-208642571.62123,-115974300.93570,  -0.00342,  -0.00012,  -0.00278,476845257.19750,   0.00204,276845266.20572,  -0.00156,  -0.00014,  -0.00127,  -9.00822,   1.00000
-497285456.56644,-208934612.85023,-115962209.97401,  -0.00342,  -0.00012,  -0.00278,476852236.90550,   0.00205,276852244.67962,  -0.00157,  -0.00014,  -0.00128,  -7.77412,   1.00000
-497336631.44634,-209239393.67458,-115948578.28582,  -0.00343,  -0.00012,  -0.00279,476859153.25934,   0.00205,276859154.98019,  -0.00157,  -0.00014,  -0.00128,  -1.72085,   1.00000
-497387521.82305,-209543316.04981,-115934926.25220,  -0.00343,  -0.00012,  -0.00279,476866059.66156,   0.00206,276866064.20886,  -0.00158,  -0.00014,  -0.00128,  -4.54730,   1.00000
-497440710.95767,-209861342.57948,-115920065.34036,  -0.00344,  -0.00012,  -0.00279,476872994.85041,   0.00207,276872997.19124,  -0.00158,  -0.00014,  -0.00129,  -2.34083,   1.00000
-497499618.04663,-210194610.05337,-115900189.61325,  -0.00344,  -0.00012,  -0.00280,476879930.05806,   0.00207,276879934.78425,  -0.00159,  -0.00014,  -0.00129,  -4.72619,   1.00000
-497558196.62216,-210526931.56222,-115880303.60930,  -0.00345,  -0.00012,  -0.00280,476886864.80564,   0.00208,276886871.21302,  -0.00159,  -0.00014,  -0.00130,  -6.40738,   1.00000
-497618990.81721,-210873247.04853,-115859209.26816,  -0.00345,  -0.00013,  -0.00281,476893827.88292,   0.00209,276893831.48756,  -0.00160,  -0.00014,  -0.00130,  -3.60464,   1.00000
-497685416.92528,-211234698.80490,-115833099.39831,  -0.00346,  -0.00013,  -0.00281,476900790.31612,   0.00209,276900796.50399,  -0.00160,  -0.00014,  -0.00131,  -6.18787,   1.00000
-497748060.49523,-211592589.18868,-115810448.26055,  -0.00346,  -0.00013,  -0.00282,476907679.13867,   0.00210,276907687.90129,  -0.00161,  -0.00014,  -0.00131,  -8.76262,   1.00000
-497819699.55474,-211968094.70694,-115779315.85707,  -0.00346,  -0.00013,  -0.00282,476914649.76162,   0.00211,276914656.55920,  -0.00161,  -0.00014,  -0.00131,  -6.79758,   1.00000
-497890027.53606,-212354924.01321,-115750441.57104,  -0.00347,  -0.00013,  -0.00282,476921574.76868,   0.00211,276921576.80790,  -0.00162,  -0.00013,  -0.00132,  -2.03922,   1.00000
-497963304.81202,-212743126.24049,-115718097.09323,  -0.00347,  -0.00013,  -0.00283,476928563.27522,   0.00212,276928568.36428,  -0.00162,  -0.00013,  -0.00132,  -5.08906,   1.00000
-498038690.12123,-213143826.68485,-115684200.77432,  -0.00348,  -0.00013,  -0.00283,476935486.61047,   0.00212,276935492.50870,  -0.00163,  -0.00013,  -0.00133,  -5.89822,   1.00000
-498113612.19865,-213543367.87128,-115650306.18357,  -0.00348,  -0.00013,  -0.00283,476942409.78238,   0.00213,276942415.50668,  -0.00163,  -0.00013,  -0.00133,  -5.72430,   1.00000
-498190524.70332,-213956630.26068,-115615194.59738,  -0.00349,  -0.00014,  -0.00284,476949360.31902,   0.00214,276949362.76628,  -0.00164,  -0.00013,  -0.00134,  -2.44725,   1.00000
-498272835.81280,-214384773.51163,-115575054.42400,  -0.00349,  -0.00014,  -0.00284,476956308.88497,   0.00214,276956315.30402,  -0.00164,  -0.00013,  -0.00134,  -6.41905,   1.00000
-498354621.89831,-214811662.71422,-115534921.53791,  -0.00350,  -0.00014,  -0.00285,476963257.43026,   0.00215,276963266.70323,  -0.00165,  -0.00013,  -0.00134,  -9.27297,   1.00000
-498441763.81265,-215253381.86295,-115489766.38426,  -0.00350,  -0.00014,  -0.00285,476970222.77304,   0.00216,276970223.39325,  -0.00165,  -0.00013,  -0.00135,  -0.62021,   1.00000
-498527363.11300,-215706232.84736,-115446848.44466,  -0.00350,  -0.00014,  -0.00285,476977122.76438,   0.00216,276977132.44118,  -0.00166,  -0.00013,  -0.00135,  -9.67681,   1.00000
-498615755.51284,-216160147.03309,-115400478.35793,  -0.00351,  -0.00014,  -0.00286,476984105.60736,   0.00217,276984112.61037,  -0.00166,  -0.00013,  -0.00136,  -7.00301,   1.00000
-498706034.75772,-216626396.30981,-115352534.49865,  -0.00351,  -0.00014,  -0.00286,476991022.13795,   0.00218,276991026.17680,  -0.00167,  -0.00013,  -0.00136,  -4.03885,   1.00000
-498802494.87965,-217094864.83838,-115297334.77630,  -0.00352,  -0.00015,  -0.00286,476997982.43804,   0.00218,276997991.88784,  -0.00167,  -0.00013,  -0.00137,  -9.44979,   1.00000
-498896221.10254,-217587964.34899,-115246946.04537,  -0.00352,  -0.00015,  -0.00287,477004951.97343,   0.00219,277004954.99020,  -0.00168,  -0.00013,  -0.00137,  -3.01676,   1.00000
-498990391.48774,-218066029.92044,-115193995.77481,  -0.00353,  -0.00015,  -0.00287,477011866.25688,   0.00220,277011872.25098,  -0.00168,  -0.00013,  -0.00137,  -5.99410,   1.00000
-499091996.12735,-218573492.34492,-115134756.19231,  -0.00353,  -0.00015,  -0.00288,477018812.84669,   0.00220,277018821.47902,  -0.00169,  -0.00013,  -0.00138,  -8.63233,   1.00000
-499192881.30912,-219079428.41864,-115075537.65825,  -0.00354,  -0.00015,  -0.00288,477025759.99634,   0.00221,277025769.70549,  -0.00169,  -0.00013,  -0.00138,  -9.70914,   1.00000
-499293051.12941,-219583841.80215,-115016340.97017,  -0.00354,  -0.00015,  -0.00288,477032707.68899,   0.00222,277032716.91975,  -0.00170,  -0.00013,  -0.00139,  -9.23076,   1.00000
-499397183.23920,-220115229.81691,-114954290.85556,  -0.00354,  -0.00016,  -0.00289,477039623.32735,   0.00222,277039624.51502,  -0.00170,  -0.00013,  -0.00139,  -1.18767,   1.00000
-499507292.69515,-220648526.91675,-114884990.01748,  -0.00355,  -0.00016,  -0.00289,477046583.01131,   0.00223,277046584.39701,  -0.00171,  -0.00013,  -0.00140,  -1.38570,   1.00000
-499609841.14001,-221176692.79930,-114822984.72575,  -0.00355,  -0.00016,  -0.00289,477053481.18659,   0.00224,277053490.24325,  -0.00171,  -0.00013,  -0.00140,  -9.05667,   1.00000
-499720753.00678,-221720521.11697,-114752102.45133,  -0.00356,  -0.00016,  -0.00290,477060383.75810,   0.00224,277060383.78101,  -0.00172,  -0.00013,  -0.00140,  -0.02291,   1.00000
-499832882.56107,-222278344.22223,-114680344.84551,  -0.00356,  -0.00016,  -0.00290,477067387.01953,   0.00225,277067393.74320,  -0.00172,  -0.00013,  -0.00141,  -6.72368,   1.00000
-499947755.69152,-222834796.47131,-114604430.31001,  -0.00357,  -0.00017,  -0.00290,477074286.55676,   0.00226,277074293.23610,  -0.00173,  -0.00013,  -0.00141,  -6.67934,   1.00000
-500057210.90860,-223400784.98177,-114534538.18717,  -0.00357,  -0.00017,  -0.00291,477081159.52386,   0.00226,277081165.37341,  -0.00173,  -0.00013,  -0.00142,  -5.84956,   1.00000
-500178113.51827,-223984437.17561,-114452298.48902,  -0.00357,  -0.00017,  -0.00291,477088090.38152,   0.00227,277088097.77193,  -0.00174,  -0.00013,  -0.00142,  -7.39041,   1.00000
-500294639.30955,-224565002.08625,-114373920.11690,  -0.00358,  -0.00017,  -0.00291,477095043.33236,   0.00227,277095048.10815,  -0.00174,  -0.00013,  -0.00143,  -4.77579,   1.00000
-500412528.07936,-225157576.83996,-114293904.09621,  -0.00358,  -0.00017,  -0.00292,477101928.27652,   0.00228,277101933.98308,  -0.00174,  -0.00012,  -0.00143,  -5.70656,   1.00000
-500536164.11339,-225751716.27566,-114206654.95114,  -0.00359,  -0.00018,  -0.00292,477108867.01622,   0.00229,277108872.23301,  -0.00175,  -0.00012,  -0.00144,  -5.21679,   1.00000
-500657648.78476,-226356540.02924,-114121595.48829,  -0.00359,  -0.00018,  -0.00292,477115758.54605,   0.00229,277115764.93512,  -0.00175,  -0.00012,  -0.00144,  -6.38907,   1.00000
-500783645.00710,-226975393.59499,-114031448.30112,  -0.00360,  -0.00018,  -0.00293,477122664.60286,   0.00230,277122665.33453,  -0.00176,  -0.00012,  -0.00144,  -0.73167,   1.00000
-500908592.18173,-227592306.98844,-113941338.56658,  -0.00360,  -0.00018,  -0.00293,477129562.84417,   0.00231,277129565.16795,  -0.00176,  -0.00012,  -0.00145,  -2.32378,   1.00000
-501032696.59548,-228206557.32875,-113850874.81230,  -0.00360,  -0.00018,  -0.00293,477136368.50796,   0.00231,277136374.14248,  -0.00177,  -0.00012,  -0.00145,  -5.63452,   1.00000
-501163030.62633,-228850066.71844,-113754402.53080,  -0.00361,  -0.00019,  -0.00294,477143307.18702,   0.00232,277143308.62695,  -0.00177,  -0.00012,  -0.00146,  -1.43992,   1.00000
-501292437.43243,-229490843.61085,-113657568.91552,  -0.00361,  -0.00019,  -0.00294,477150143.75081,   0.00233,277150152.53697,  -0.00178,  -0.00012,  -0.00146,  -8.78616,   1.00000
-501420747.79730,-230129610.02735,-113560780.07318,  -0.00362,  -0.00019,  -0.00294,477156991.87502,   0.00233,277156995.90973,  -0.00178,  -0.00012,  -0.00147,  -4.03471,   1.00000
-501556537.42079,-230784171.19191,-113455454.85521,  -0.00362,  -0.00019,  -0.00294,477163918.18424,   0.00234,277163919.30612,  -0.00179,  -0.00012,  -0.00147,  -1.12189,   1.00000
-501686676.99731,-231447282.16834,-113355710.18018,  -0.00362,  -0.00020,  -0.00295,477170723.64090,   0.00235,277170726.83464,  -0.00179,  -0.00012,  -0.00147,  -3.19373,   1.00000
-501822264.48556,-232111538.50553,-113248742.05387,  -0.00363,  -0.00020,  -0.00295,477177583.61547,   0.00235,277177587.06568,  -0.00180,  -0.00012,  -0.00148,  -3.45021,   1.00000
-501961959.89262,-232789491.22994,-113136658.42603,  -0.00363,  -0.00020,  -0.00295,477184448.18076,   0.00236,277184456.23183,  -0.00180,  -0.00012,  -0.00148,  -8.05107,   1.00000
-502097237.69199,-233463395.54740,-113028054.31642,  -0.00364,  -0.00020,  -0.00296,477191251.32338,   0.00237,277191253.61191,  -0.00181,  -0.00012,  -0.00149,  -2.28853,   1.00000
-502233133.67686,-234149607.73889,-112918157.72219,  -0.00364,  -0.00021,  -0.00296,477198071.19619,   0.00237,277198078.65782,  -0.00181,  -0.00012,  -0.00149,  -7.46163,   1.00000
-502371193.25851,-234834961.15907,-112804467.99945,  -0.00365,  -0.00021,  -0.00296,477204881.72711,   0.00238,277204885.10890,  -0.00182,  -0.00012,  -0.00149,  -3.38179,   1.00000
-502513200.31002,-235533885.62686,-112685643.15247,  -0.00365,  -0.00021,  -0.00296,477211696.87524,   0.00239,277211701.09591,  -0.00182,  -0.00012,  -0.00150,  -4.22066,   1.00000
-502655675.52295,-236244963.80399,-112565527.84337,  -0.00365,  -0.00022,  -0.00297,477218538.37038,   0.00239,277218545.03843,  -0.00183,  -0.00012,  -0.00150,  -6.66805,   1.00000
-502797062.39545,-236953310.58701,-112445031.31917,  -0.00366,  -0.00022,  -0.00297,477225296.97064,   0.00240,277225299.40246,  -0.00183,  -0.00012,  -0.00151,  -2.43182,   1.00000
-502943639.05114,-237662474.57158,-112317336.22962,  -0.00366,  -0.00022,  -0.00297,477232100.87725,   0.00240,277232106.68127,  -0.00184,  -0.00012,  -0.00151,  -5.80402,   1.00000
-503087443.72536,-238381969.38159,-112191759.37275,  -0.00367,  -0.00022,  -0.00297,477238867.20113,   0.00241,277238871.00936,  -0.00184,  -0.00012,  -0.00152,  -3.80823,   1.00000
-503234951.95255,-239114833.69963,-112061025.58484,  -0.00367,  -0.00023,  -0.00298,477245638.09352,   0.00242,277245645.68491,  -0.00185,  -0.00012,  -0.00152,  -7.59139,   1.00000
-503377914.49587,-239843620.10562,-111933757.42626,  -0.00367,  -0.00023,  -0.00298,477252348.10146,   0.00242,277252349.29661,  -0.00185,  -0.00012,  -0.00152,  -1.19515,   1.00000
-503527605.42319,-240587380.74800,-111797920.27071,  -0.00368,  -0.00023,  -0.00298,477259127.10590,   0.00243,277259134.65555,  -0.00186,  -0.00012,  -0.00153,  -7.54965,   1.00000
-503676104.79267,-241328425.93634,-111661691.32806,  -0.00368,  -0.00024,  -0.00298,477265823.29284,   0.00244,277265831.06849,  -0.00186,  -0.00012,  -0.00153,  -7.77565,   1.00000
-503824747.15654,-242081331.28775,-111524154.62704,  -0.00369,  -0.00024,  -0.00299,477272555.75180,   0.00244,277272556.38820,  -0.00187,  -0.00012,  -0.00154,  -0.63640,   1.00000
-503975249.02343,-242833132.09273,-111382821.75183,  -0.00369,  -0.00024,  -0.00299,477279260.38831,   0.00245,277279264.00629,  -0.00187,  -0.00012,  -0.00154,  -3.61798,   1.00000
-504125791.86893,-243596697.83853,-111240177.30550,  -0.00369,  -0.00024,  -0.00299,477285992.01284,   0.00246,277286000.79972,  -0.00188,  -0.00012,  -0.00155,  -8.78688,   1.00000
-504275090.14279,-244357570.54432,-111097122.85548,  -0.00370,  -0.00025,  -0.00299,477292640.86912,   0.00246,277292649.13601,  -0.00188,  -0.00012,  -0.00155,  -8.26688,   1.00000
-504427735.76057,-245131540.33436,-110948878.07548,  -0.00370,  -0.00025,  -0.00300,477299303.84979,   0.00247,277299309.08911,  -0.00188,  -0.00012,  -0.00155,  -5.23933,   1.00000
-504580269.36047,-245917130.91063,-110799309.02864,  -0.00371,  -0.00025,  -0.00300,477305994.08727,   0.00247,277305998.69701,  -0.00189,  -0.00012,  -0.00156,  -4.60974,   1.00000
-504733054.90315,-246687318.50763,-110647344.44532,  -0.00371,  -0.00026,  -0.00300,477312633.86436,   0.00248,277312641.64956,  -0.00189,  -0.00012,  -0.00156,  -7.78520,   1.00000
-504887461.88298,-247483208.51307,-110492147.43041,  -0.00371,  -0.00026,  -0.00300,477319245.98647,   0.00249,277319255.45162,  -0.00190,  -0.00012,  -0.00157,  -9.46515,   1.00000
-505038762.15359,-248262302.83399,-110338437.44121,  -0.00372,  -0.00026,  -0.00300,477325830.54376,   0.00249,277325840.29038,  -0.00190,  -0.00012,  -0.00157,  -9.74661,   1.00000
-505194592.94695,-249068455.34507,-110178103.79979,  -0.00372,  -0.00027,  -0.00301,477332461.65287,   0.00250,277332467.14675,  -0.00191,  -0.00012,  -0.00157,  -5.49388,   1.00000
-505350667.74701,-249859206.24194,-110015389.81510,  -0.00373,  -0.00027,  -0.00301,477339042.61814,   0.00251,277339047.32735,  -0.00191,  -0.00012,  -0.00158,  -4.70921,   1.00000
-505511092.87644,-250676881.41641,-109846044.11597,  -0.00373,  -0.00027,  -0.00301,477345660.75111,   0.00251,277345670.06444,  -0.00192,  -0.00012,  -0.00158,  -9.31334,   1.00000
-505665408.27498,-251476392.46426,-109681572.18820,  -0.00373,  -0.00028,  -0.00301,477352186.81683,   0.00252,277352193.16385,  -0.00192,  -0.00012,  -0.00159,  -6.34702,   1.00000
-505822649.11922,-252288691.59710,-109511875.44683,  -0.00374,  -0.00028,  -0.00301,477358727.30572,   0.00252,277358729.37599,  -0.00193,  -0.00012,  -0.00159,  -2.07027,   1.00000
-505979374.36623,-253112260.71408,-109340837.71320,  -0.00374,  -0.00028,  -0.00302,477365286.61264,   0.00253,277365296.43482,  -0.00193,  -0.00012,  -0.00159,  -9.82217,   1.00000
-506134663.28590,-253933211.50816,-109169343.00780,  -0.00374,  -0.00029,  -0.00302,477371772.45921,   0.00254,277371776.58058,  -0.00194,  -0.00012,  -0.00160,  -4.12137,   1.00000
-506292694.62570,-254766802.32168,-108992601.03471,  -0.00375,  -0.00029,  -0.00302,477378263.63261,   0.00254,277378270.52632,  -0.00194,  -0.00012,  -0.00160,  -6.89371,   1.00000
-506452199.99985,-255599000.68094,-108812058.86693,  -0.00375,  -0.00029,  -0.00302,477384746.59936,   0.00255,277384748.05116,  -0.00195,  -0.00012,  -0.00161,  -1.45180,   1.00000
-506609820.76284,-256428356.46280,-108631617.60031,  -0.00376,  -0.00030,  -0.00302,477391216.73196,   0.00255,277391226.54338,  -0.00195,  -0.00012,  -0.00161,  -9.81142,   1.00000
-506767127.46951,-257269102.72462,-108449255.90567,  -0.00376,  -0.00030,  -0.00302,477397645.41260,   0.00256,277397649.10452,  -0.00196,  -0.00012,  -0.00161,  -3.69192,   1.00000
-506925841.38347,-258108430.45332,-108263086.08743,  -0.00376,  -0.00030,  -0.00303,477404047.62132,   0.00257,277404055.58537,  -0.00196,  -0.00012,  -0.00162,  -7.96405,   1.00000
-507087064.54347,-258960228.56640,-108071660.80906,  -0.00377,  -0.00031,  -0.00303,477410473.78469,   0.00257,277410476.61570,  -0.00196,  -0.00012,  -0.00162,  -2.83101,   1.00000
-507246317.34818,-259809092.97638,-107880347.03486,  -0.00377,  -0.00031,  -0.00303,477416896.91479,   0.00258,277416898.76825,  -0.00197,  -0.00012,  -0.00163,  -1.85345,   1.00000
-507404011.29195,-260655445.76738,-107688540.72015,  -0.00377,  -0.00032,  -0.00303,477423228.11442,   0.00259,277423235.15692,  -0.00197,  -0.00012,  -0.00163,  -7.04250,   1.00000
-507564086.27751,-261514185.16058,-107491464.47831,  -0.00378,  -0.00032,  -0.00303,477429583.37996,   0.00259,277429586.62353,  -0.00198,  -0.00012,  -0.00163,  -3.24357,   1.00000
-507719265.45783,-262368965.47084,-107297799.44734,  -0.00378,  -0.00032,  -0.00303,477435861.06431,   0.00260,277435869.64693,  -0.00198,  -0.00012,  -0.00164,  -8.58262,   1.00000
-507882898.40880,-263238503.25233,-107091633.58639,  -0.00378,  -0.00033,  -0.00303,477442214.34501,   0.00260,277442220.93926,  -0.00199,  -0.00012,  -0.00164,  -6.59424,   1.00000
-508041593.46420,-264104073.77712,-106888885.45445,  -0.00379,  -0.00033,  -0.00304,477448499.31095,   0.00261,277448503.91917,  -0.00199,  -0.00012,  -0.00165,  -4.60822,   1.00000
-508199572.45098,-264980938.32723,-106684129.22529,  -0.00379,  -0.00033,  -0.00304,477454724.38364,   0.00262,277454733.30052,  -0.00200,  -0.00012,  -0.00165,  -8.91689,   1.00000
-508358333.06413,-265855662.25817,-106476210.24080,  -0.00380,  -0.00034,  -0.00304,477461031.59418,   0.00262,277461033.62783,  -0.00200,  -0.00012,  -0.00165,  -2.03365,   1.00000
-508518690.96670,-266729441.76180,-106263825.19050,  -0.00380,  -0.00034,  -0.00304,477467223.20010,   0.00263,277467232.59815,  -0.00201,  -0.00012,  -0.00166,  -9.39805,   1.00000
-508674130.41293,-267599367.07818,-106054841.71302,  -0.00380,  -0.00035,  -0.00304,477473355.50455,   0.00263,277473363.62142,  -0.00201,  -0.00012,  -0.00166,  -8.11687,   1.00000
-508834394.67594,-268482228.50737,-105837283.86681,  -0.00381,  -0.00035,  -0.00304,477479578.59434,   0.00264,277479580.56848,  -0.00201,  -0.00012,  -0.00167,  -1.97414,   1.00000
-508993716.73966,-269376321.16331,-105617679.41487,  -0.00381,  -0.00035,  -0.00304,477485741.97384,   0.00264,277485745.11560,  -0.00202,  -0.00012,  -0.00167,  -3.14175,   1.00000
-509153356.87501,-270255201.49070,-105395764.32487,  -0.00381,  -0.00036,  -0.00304,477491856.59111,   0.00265,277491862.97838,  -0.00202,  -0.00012,  -0.00167,  -6.38727,   1.00000
-509308783.04242,-271143863.59088,-105175736.71441,  -0.00382,  -0.00036,  -0.00304,477497944.32281,   0.00266,277497945.23825,  -0.00203,  -0.00012,  -0.00168,  -0.91545,   1.00000
-509469202.79696,-272045974.71373,-104946427.16761,  -0.00382,  -0.00037,  -0.00304,477504023.87909,   0.00266,277504028.61079,  -0.00203,  -0.00012,  -0.00168,  -4.73170,   1.00000
-509624595.41621,-272944252.23379,-104720493.35627,  -0.00382,  -0.00037,  -0.00305,477510035.65487,   0.00267,277510044.86067,  -0.00204,  -0.00012,  -0.00168,  -9.20580,   1.00000
-509783779.97952,-273841547.33558,-104487504.74709,  -0.00383,  -0.00037,  -0.00305,477516106.75033,   0.00267,277516115.64522,  -0.00204,  -0.00012,  -0.00169,  -8.89489,   1.00000
-509937959.48241,-274735069.26284,-104257894.05312,  -0.00383,  -0.00038,  -0.00305,477522110.06713,   0.00268,277522119.34840,  -0.00205,  -0.00012,  -0.00169,  -9.28127,   1.00000
-510094184.92144,-275641357.89981,-104022199.36816,  -0.00383,  -0.00038,  -0.00305,477528047.10419,   0.00268,277528056.19576,  -0.00205,  -0.00012,  -0.00169,  -9.09157,   1.00000
-510251355.37681,-276545998.83058,-103782680.79464,  -0.00384,  -0.00039,  -0.00305,477533976.70167,   0.00269,277533978.95303,  -0.00205,  -0.00012,  -0.00170,  -2.25137,   1.00000
-510406232.80681,-277447460.11298,-103543309.20617,  -0.00384,  -0.00039,  -0.00305,477539897.11561,   0.00270,277539903.80298,  -0.00206,  -0.00012,  -0.00170,  -6.68737,   1.00000
-510562537.16791,-278360643.76842,-103298589.90610,  -0.00384,  -0.00039,  -0.00305,477545842.67708,   0.00270,277545847.33133,  -0.00206,  -0.00012,  -0.00171,  -4.65425,   1.00000
-510716981.13511,-279271650.59220,-103053247.72114,  -0.00385,  -0.00040,  -0.00305,477551704.98576,   0.00271,277551708.46770,  -0.00207,  -0.00012,  -0.00171,  -3.48194,   1.00000
-510869578.10128,-280180542.70909,-102807269.05558,  -0.00385,  -0.00040,  -0.00305,477557483.87829,   0.00271,277557487.40965,  -0.00207,  -0.00012,  -0.00171,  -3.53136,   1.00000
-511023043.59685,-281087789.48730,-102557457.01316,  -0.00385,  -0.00041,  -0.00305,477563246.85967,   0.00272,277563252.76374,  -0.00208,  -0.00012,  -0.00172,  -5.90407,   1.00000
-511177745.65570,-282006655.80493,-102302277.96608,  -0.00386,  -0.00041,  -0.00305,477569035.03976,   0.00272,277569037.61904,  -0.00208,  -0.00012,  -0.00172,  -2.57928,   1.00000
-511330062.38697,-282922266.42845,-102047261.32555,  -0.00386,  -0.00041,  -0.00305,477574823.48872,   0.00273,277574824.81716,  -0.00208,  -0.00012,  -0.00172,  -1.32844,   1.00000
-511483652.13622,-283837392.02866,-101787589.52472,  -0.00386,  -0.00042,  -0.00305,477580512.34568,   0.00273,277580514.77220,  -0.00209,  -0.00012,  -0.00173,  -2.42652,   1.00000
-511632476.42645,-284762178.92050,-101529692.94308,  -0.00386,  -0.00042,  -0.00305,477586166.39458,   0.00274,277586172.36318,  -0.00209,  -0.00012,  -0.00173,  -5.96860,   1.00000
-511784711.21098,-285685518.07579,-101264800.87431,  -0.00387,  -0.00043,  -0.00305,477591881.41163,   0.00275,277591885.00229,  -0.00210,  -0.00012,  -0.00173,  -3.59067,   1.00000
-511932346.36050,-286606643.13790,-101002368.36720,  -0.00387,  -0.00043,  -0.00305,477597444.59555,   0.00275,277597448.64572,  -0.00210,  -0.00013,  -0.00174,  -4.05017,   1.00000
-512083354.18923,-287526290.53686,-100732949.39503,  -0.00387,  -0.00044,  -0.00305,477603060.49411,   0.00276,277603067.40939,  -0.00210,  -0.00013,  -0.00174,  -6.91528,   1.00000
-512232427.36157,-288444052.44752,-100462831.86817,  -0.00388,  -0.00044,  -0.00305,477608600.89699,   0.00276,277608605.43833,  -0.00211,  -0.00013,  -0.00174,  -4.54134,   1.00000
-512379708.88196,-289373031.77522,-100190437.65404,  -0.00388,  -0.00044,  -0.00305,477614090.25006,   0.00277,277614096.79797,  -0.00211,  -0.00013,  -0.00175,  -6.54791,   1.00000
-512527640.45041,-290300291.66873,-99914193.12827,  -0.00388,  -0.00045,  -0.00305,477619572.48734,   0.00277,277619575.69166,  -0.00212,  -0.00013,  -0.00175,  -3.20432,   1.00000
-512676196.67730,-291225827.28963,-99634101.69973,  -0.00389,  -0.00045,  -0.00305,477625039.41431,   0.00278,277625042.20184,  -0.00212,  -0.00013,  -0.00175,  -2.78753,   1.00000
-512819711.98094,-292160980.19294,-99355728.46114,  -0.00389,  -0.00046,  -0.00305,477630472.18852,   0.00278,277630478.01608,  -0.00212,  -0.00013,  -0.00176,  -5.82756,   1.00000
-512966878.67730,-293083004.32591,-99071036.92603,  -0.00389,  -0.00046,  -0.00305,477635847.89565,   0.00279,277635852.49471,  -0.00213,  -0.00013,  -0.00176,  -4.59905,   1.00000
-513108960.62117,-294014674.71755,-98788048.68516,  -0.00389,  -0.00047,  -0.00305,477641189.55171,   0.00279,277641196.66579,  -0.00213,  -0.00013,  -0.00176,  -7.11408,   1.00000
-513254685.60648,-294946185.55750,-98497162.04935,  -0.00390,  -0.00047,  -0.00305,477646507.08249,   0.00280,277646513.96923,  -0.00214,  -0.00013,  -0.00177,  -6.88674,   1.00000
-513395298.16020,-295874448.64495,-98209534.74257,  -0.00390,  -0.00047,  -0.00305,477651765.30288,   0.00280,277651767.06319,  -0.00214,  -0.00013,  -0.00177,  -1.76031,   1.00000
-513539512.37460,-296802578.58236,-97913995.15702,  -0.00390,  -0.00048,  -0.00305,477656991.24915,   0.00281,277656993.65570,  -0.00214,  -0.00013,  -0.00177,  -2.40654,   1.00000
-513678494.50338,-297740336.42888,-97620123.49902,  -0.00390,  -0.00048,  -0.00304,477662183.36625,   0.00281,277662190.87739,  -0.00215,  -0.00013,  -0.00178,  -7.51114,   1.00000
-513818107.06803,-298663578.65137,-97323955.97750,  -0.00391,  -0.00049,  -0.00304,477667335.02756,   0.00282,277667342.05718,  -0.00215,  -0.00013,  -0.00178,  -7.02962,   1.00000
-513958551.02362,-299599641.54472,-97021327.13844,  -0.00391,  -0.00049,  -0.00304,477672433.25067,   0.00282,277672434.92841,  -0.00216,  -0.00013,  -0.00178,  -1.67774,   1.00000
-514096384.16712,-300532390.12855,-96718879.44865,  -0.00391,  -0.00050,  -0.00304,477677526.75346,   0.00283,277677531.28312,  -0.00216,  -0.00013,  -0.00178,  -4.52966,   1.00000
-514232128.49139,-301463650.25129,-96415579.77489,  -0.00391,  -0.00050,  -0.00304,477682543.04935,   0.00283,277682549.76191,  -0.00216,  -0.00013,  -0.00179,  -6.71256,   1.00000
-514368308.62229,-302393212.82313,-96108395.26715,  -0.00392,  -0.00050,  -0.00304,477687552.25591,   0.00284,277687557.26953,  -0.00217,  -0.00013,  -0.00179,  -5.01363,   1.00000
-514504602.11257,-303333698.87178,-95795745.36724,  -0.00392,  -0.00051,  -0.00304,477692588.29532,   0.00284,277692588.91327,  -0.00217,  -0.00013,  -0.00179,  -0.61795,   1.00000
-514642049.93546,-304261714.85881,-95479721.10824,  -0.00392,  -0.00051,  -0.00304,477697487.39919,   0.00285,277697493.97856,  -0.00217,  -0.00013,  -0.00180,  -6.57937,   1.00000
-514774394.22685,-305186820.66519,-95166885.31046,  -0.00392,  -0.00052,  -0.00304,477702333.99523,   0.00285,277702336.16216,  -0.00218,  -0.00013,  -0.00180,  -2.16693,   1.00000
-514906729.02182,-306122806.28699,-94848563.09889,  -0.00393,  -0.00052,  -0.00304,477707200.09492,   0.00285,277707203.14310,  -0.00218,  -0.00013,  -0.00180,  -3.04818,   1.00000
-515036896.14352,-307057476.17908,-94529316.36202,  -0.00393,  -0.00053,  -0.00303,477711988.07785,   0.00286,277711993.55855,  -0.00218,  -0.00013,  -0.00180,  -5.48070,   1.00000
-515167373.69685,-307990441.19129,-94206162.90524,  -0.00393,  -0.00053,  -0.00303,477716769.08253,   0.00286,277716773.81930,  -0.00219,  -0.00014,  -0.00181,  -4.73677,   1.00000
-515298629.42577,-308923759.50429,-93877964.68642,  -0.00393,  -0.00054,  -0.00303,477721460.23150,   0.00287,277721463.94797,  -0.00219,  -0.00014,  -0.00181,  -3.71646,   1.00000
-515427197.85717,-309853793.85741,-93549955.86603,  -0.00394,  -0.00054,  -0.00303,477726155.73464,   0.00287,277726158.11728,  -0.00220,  -0.00014,  -0.00181,  -2.38264,   1.00000
-515553576.92256,-310782669.71108,-93220973.01913,  -0.00394,  -0.00055,  -0.00303,477730772.38881,   0.00288,277730776.53509,  -0.00220,  -0.00014,  -0.00182,  -4.14629,   1.00000
-515677768.04437,-311710440.49482,-92890995.91338,  -0.00394,  -0.00055,  -0.00303,477735309.87728,   0.00288,277735319.46374,  -0.00220,  -0.00014,  -0.00182,  -9.58645,   1.00000
-515805137.91465,-312638161.56360,-92552975.53649,  -0.00394,  -0.00055,  -0.00302,477739835.22865,   0.00289,277739839.16264,  -0.00221,  -0.00014,  -0.00182,  -3.93399,   1.00000
-515929795.78950,-313562627.01348,-92215145.07780,  -0.00394,  -0.00056,  -0.00302,477744358.48670,   0.00289,277744363.14641,  -0.00221,  -0.00014,  -0.00182,  -4.65971,   1.00000
-516049825.25969,-314486745.15576,-91879189.36876,  -0.00395,  -0.00056,  -0.00302,477748743.02533,   0.00289,277748746.61079,  -0.00221,  -0.00014,  -0.00183,  -3.58545,   1.00000
-516174674.93121,-315422395.33771,-91530672.66510,  -0.00395,  -0.00057,  -0.00302,477753202.24675,   0.00290,277753209.07740,  -0.00222,  -0.00014,  -0.00183,  -6.83065,   1.00000
-516295057.15873,-316343238.20046,-91186825.72387,  -0.00395,  -0.00057,  -0.00302,477757565.83228,   0.00290,277757574.54549,  -0.00222,  -0.00014,  -0.00183,  -8.71321,   1.00000
-516416088.94057,-317264797.11279,-90837771.53971,  -0.00395,  -0.00058,  -0.00301,477761849.60195,   0.00291,277761852.41247,  -0.00222,  -0.00014,  -0.00183,  -2.81052,   1.00000
-516531217.93501,-318196070.51108,-90490169.33806,  -0.00395,  -0.00058,  -0.00301,477766100.50044,   0.00291,277766105.93654,  -0.00223,  -0.00014,  -0.00184,  -5.43610,   1.00000
-516650104.95073,-319115166.75831,-90136044.71017,  -0.00396,  -0.00059,  -0.00301,477770296.13792,   0.00292,277770301.53583,  -0.00223,  -0.00014,  -0.00184,  -5.39791,   1.00000
-516766255.94707,-320031072.93935,-89782104.77218,  -0.00396,  -0.00059,  -0.00301,477774497.63946,   0.00292,277774501.84720,  -0.00223,  -0.00014,  -0.00184,  -4.20774,   1.00000
-516879734.10246,-320960750.51560,-89424121.49604,  -0.00396,  -0.00059,  -0.00301,477778584.73309,   0.00292,277778587.26466,  -0.00223,  -0.00014,  -0.00184,  -2.53157,   1.00000
-516994132.84304,-321876770.68794,-89063737.09326,  -0.00396,  -0.00060,  -0.00300,477782622.90873,   0.00293,277782628.30528,  -0.00224,  -0.00014,  -0.00185,  -5.39655,   1.00000
-517108597.27977,-322791222.65504,-88699368.87818,  -0.00396,  -0.00060,  -0.00300,477786660.09066,   0.00293,277786661.37312,  -0.00224,  -0.00014,  -0.00185,  -1.28247,   1.00000
-517220734.77314,-323705039.36380,-88333816.05595,  -0.00397,  -0.00061,  -0.00300,477790615.07766,   0.00293,277790621.95990,  -0.00224,  -0.00014,  -0.00185,  -6.88223,   1.00000
-517329572.33163,-324630208.44161,-87965471.42577,  -0.00397,  -0.00061,  -0.00300,477794541.86096,   0.00294,277794546.98535,  -0.00225,  -0.00014,  -0.00185,  -5.12439,   1.00000
-517439382.72554,-325541863.86829,-87594704.10990,  -0.00397,  -0.00062,  -0.00299,477798425.48841,   0.00294,277798427.90137,  -0.00225,  -0.00015,  -0.00185,  -2.41296,   1.00000
-517546841.76514,-326452999.95514,-87222698.56946,  -0.00397,  -0.00062,  -0.00299,477802232.02331,   0.00295,277802237.07416,  -0.00225,  -0.00015,  -0.00186,  -5.05085,   1.00000
-517651955.14438,-327363670.02025,-86849433.47938,  -0.00397,  -0.00063,  -0.00299,477805972.72509,   0.00295,277805974.74270,  -0.00226,  -0.00015,  -0.00186,  -2.01761,   1.00000
-517759764.12089,-328274391.42127,-86467946.83118,  -0.00397,  -0.00063,  -0.00298,477809685.36010,   0.00295,277809693.01418,  -0.00226,  -0.00015,  -0.00186,  -7.65407,   1.00000
-517862445.89372,-329183122.67260,-86089363.30089,  -0.00398,  -0.00064,  -0.00298,477813352.14286,   0.00296,277813352.70093,  -0.00226,  -0.00015,  -0.00186,  -0.55807,   1.00000
-517967759.98382,-330091904.94212,-85702538.05290,  -0.00398,  -0.00064,  -0.00298,477816990.68308,   0.00296,277816993.43817,  -0.00226,  -0.00015,  -0.00186,  -2.75509,   1.00000
-518069119.81298,-330987044.92001,-85320167.96304,  -0.00398,  -0.00064,  -0.00298,477820534.26071,   0.00296,277820538.83802,  -0.00227,  -0.00015,  -0.00187,  -4.57731,   1.00000
-518169600.55178,-331895206.23635,-84930664.38516,  -0.00398,  -0.00065,  -0.00297,477824036.31132,   0.00297,277824038.93112,  -0.00227,  -0.00015,  -0.00187,  -2.61980,   1.00000
-518268873.47701,-332791450.61227,-84541359.51162,  -0.00398,  -0.00065,  -0.00297,477827425.96921,   0.00297,277827431.96247,  -0.00227,  -0.00015,  -0.00187,  -5.99326,   1.00000
-518366742.92893,-333697874.36328,-84146402.52688,  -0.00398,  -0.00066,  -0.00297,477830851.29360,   0.00297,277830856.29454,  -0.00227,  -0.00015,  -0.00187,  -5.00094,   1.00000
-518463439.92685,-334592508.39628,-83751607.33247,  -0.00398,  -0.00066,  -0.00296,477834173.67442,   0.00298,277834173.91106,  -0.00228,  -0.00015,  -0.00187,  -0.23664,   1.00000
-518559956.33951,-335485699.49296,-83352719.05752,  -0.00398,  -0.00067,  -0.00296,477837483.38150,   0.00298,277837485.86518,  -0.00228,  -0.00015,  -0.00188,  -2.48369,   1.00000
-518651742.44780,-336380167.56384,-82955029.92257,  -0.00399,  -0.00067,  -0.00296,477840661.73873,   0.00298,277840665.54817,  -0.00228,  -0.00015,  -0.00188,  -3.80944,   1.00000
-518745949.32355,-337274784.02165,-82548985.56991,  -0.00399,  -0.00068,  -0.00295,477843820.62772,   0.00299,277843828.26569,  -0.00228,  -0.00015,  -0.00188,  -7.63797,   1.00000
-518837278.88296,-338166401.60089,-82143063.65924,  -0.00399,  -0.00068,  -0.00295,477846994.58728,   0.00299,277846997.51142,  -0.00229,  -0.00015,  -0.00188,  -2.92414,   1.00000
-518930145.98588,-339048157.97153,-81732947.72604,  -0.00399,  -0.00068,  -0.00295,477850043.37801,   0.00299,277850049.47735,  -0.00229,  -0.00015,  -0.00188,  -6.09934,   1.00000
-519019023.45411,-339941399.62704,-81319738.79196,  -0.00399,  -0.00069,  -0.00294,477853061.48771,   0.00299,277853071.36036,  -0.00229,  -0.00015,  -0.00188,  -9.87265,   1.00000
-519106854.76841,-340823365.99468,-80906524.94338,  -0.00399,  -0.00069,  -0.00294,477855987.98974,   0.00300,277855988.04922,  -0.00229,  -0.00015,  -0.00189,  -0.05948,   1.00000
-519192135.35642,-341705497.99943,-80491718.86491,  -0.00399,  -0.00070,  -0.00293,477858832.73947,   0.00300,277858837.64402,  -0.00230,  -0.00015,  -0.00189,  -4.90455,   1.00000
-519277093.40545,-342586276.19304,-80072736.82954,  -0.00399,  -0.00070,  -0.00293,477861674.73383,   0.00300,277861683.03614,  -0.00230,  -0.00016,  -0.00189,  -8.30230,   1.00000
-519361081.01369,-343456023.95440,-79653674.06451,  -0.00399,  -0.00071,  -0.00293,477864420.47570,   0.00300,277864423.83873,  -0.00230,  -0.00016,  -0.00189,  -3.36302,   1.00000
-519445645.52616,-344337235.57373,-79224604.12249,  -0.00399,  -0.00071,  -0.00292,477867185.04460,   0.00301,277867187.56785,  -0.00230,  -0.00016,  -0.00189,  -2.52325,   1.00000
-519524474.34704,-345207619.27029,-78802202.46454,  -0.00399,  -0.00071,  -0.00292,477869787.96072,   0.00301,277869796.00578,  -0.00230,  -0.00016,  -0.00189,  -8.04506,   1.00000
-519605449.41473,-346078257.35474,-78371298.66939,  -0.00400,  -0.00072,  -0.00291,477872384.84253,   0.00301,277872389.94768,  -0.00231,  -0.00016,  -0.00189,  -5.10515,   1.00000
-519685990.35110,-346947574.84601,-77936172.60998,  -0.00400,  -0.00072,  -0.00291,477874978.65890,   0.00301,277874980.59684,  -0.00231,  -0.00016,  -0.00190,  -1.93794,   1.00000
-519763401.41016,-347807926.47122,-77503317.79041,  -0.00400,  -0.00073,  -0.00290,477877399.61954,   0.00302,277877405.87525,  -0.00231,  -0.00016,  -0.00190,  -6.25571,   1.00000
-519838617.88912,-348678098.25683,-77064684.07651,  -0.00400,  -0.00073,  -0.00290,477879860.17646,   0.00302,277879866.40221,  -0.00231,  -0.00016,  -0.00190,  -6.22575,   1.00000
-519915379.93339,-349539223.66729,-76621472.95108,  -0.00400,  -0.00074,  -0.00290,477882206.45907,   0.00302,277882213.52959,  -0.00231,  -0.00016,  -0.00190,  -7.07052,   1.00000
-519986994.39415,-350399377.58529,-76180739.05511,  -0.00400,  -0.00074,  -0.00289,477884498.56844,   0.00302,277884507.00158,  -0.00232,  -0.00016,  -0.00190,  -8.43314,   1.00000
-520060199.86072,-351250674.28547,-75735351.43737,  -0.00400,  -0.00074,  -0.00289,477886683.39585,   0.00303,277886687.67009,  -0.00232,  -0.00016,  -0.00190,  -4.27424,   1.00000
-520130461.65167,-352099251.45508,-75289973.19246,  -0.00400,  -0.00075,  -0.00288,477888872.01590,   0.00303,277888876.62468,  -0.00232,  -0.00016,  -0.00190,  -4.60877,   1.00000
-520200426.24303,-352950021.69725,-74838372.61563,  -0.00400,  -0.00075,  -0.00288,477890987.14810,   0.00303,277890991.76966,  -0.00232,  -0.00016,  -0.00190,  -4.62156,   1.00000
-520267631.66209,-353801493.19268,-74384837.20819,  -0.00400,  -0.00076,  -0.00287,477893034.28513,   0.00303,277893043.89311,  -0.00232,  -0.00016,  -0.00191,  -9.60799,   1.00000
-520336406.26785,-354644365.64749,-73926503.94252,  -0.00400,  -0.00076,  -0.00287,477894979.05354,   0.00303,277894984.61881,  -0.00232,  -0.00016,  -0.00191,  -5.56527,   1.00000
-520400204.82013,-355495369.66714,-73466655.15376,  -0.00400,  -0.00077,  -0.00286,477896972.26774,   0.00304,277896972.71712,  -0.00233,  -0.00016,  -0.00191,  -0.44939,   1.00000
-520465385.73690,-356329097.92777,-73005773.72348,  -0.00400,  -0.00077,  -0.00286,477898745.93779,   0.00304,277898750.58037,  -0.00233,  -0.00016,  -0.00191,  -4.64258,   1.00000
-520525558.27340,-357170965.54523,-72543360.98012,  -0.00400,  -0.00077,  -0.00285,477900572.16093,   0.00304,277900576.09448,  -0.00233,  -0.00016,  -0.00191,  -3.93355,   1.00000
-520587283.26755,-358004487.75676,-72076000.82795,  -0.00400,  -0.00078,  -0.00285,477902289.97258,   0.00304,277902291.59792,  -0.00233,  -0.00016,  -0.00191,  -1.62535,   1.00000
-520648291.41811,-358836856.18849,-71604224.46492,  -0.00400,  -0.00078,  -0.00284,477903998.23304,   0.00304,277904006.67934,  -0.00233,  -0.00016,  -0.00191,  -8.44631,   1.00000
-520708709.11142,-359663138.93108,-71129719.60651,  -0.00400,  -0.00079,  -0.00284,477905550.81143,   0.00304,277905551.81320,  -0.00233,  -0.00016,  -0.00191,  -1.00177,   1.00000
-520763935.67866,-360497453.97914,-70653662.85150,  -0.00400,  -0.00079,  -0.00283,477907144.03078,   0.00305,277907145.39916,  -0.00233,  -0.00016,  -0.00191,  -1.36839,   1.00000
-520820577.26111,-361311623.41221,-70178324.21497,  -0.00400,  -0.00079,  -0.00283,477908596.07621,   0.00305,277908601.18027,  -0.00233,  -0.00017,  -0.00191,  -5.10407,   1.00000
-520874386.04188,-362138925.54155,-69694935.00809,  -0.00400,  -0.00080,  -0.00282,477910021.67868,   0.00305,277910026.35285,  -0.00234,  -0.00017,  -0.00191,  -4.67416,   1.00000
-520927440.64662,-362956810.91608,-69210726.71995,  -0.00400,  -0.00080,  -0.00281,477911347.96377,   0.00305,277911353.20866,  -0.00234,  -0.00017,  -0.00191,  -5.24489,   1.00000
-520979645.41760,-363773606.46391,-68722005.16878,  -0.00400,  -0.00081,  -0.00281,477912675.26046,   0.00305,277912680.93946,  -0.00234,  -0.00017,  -0.00191,  -5.67900,   1.00000
-521029011.78075,-364583415.02345,-68234600.39195,  -0.00400,  -0.00081,  -0.00280,477913845.01604,   0.00305,277913850.85137,  -0.00234,  -0.00017,  -0.00192,  -5.83533,   1.00000
-521079687.30374,-365393603.26368,-67738248.38155,  -0.00400,  -0.00081,  -0.00280,477915005.18037,   0.00305,277915012.98071,  -0.00234,  -0.00017,  -0.00192,  -7.80034,   1.00000
-521127475.06713,-366193246.20076,-67245324.36239,  -0.00400,  -0.00082,  -0.00279,477916078.40652,   0.00305,277916086.92612,  -0.00234,  -0.00017,  -0.00192,  -8.51960,   1.00000
-521172039.47847,-367005988.31708,-66744163.25808,  -0.00400,  -0.00082,  -0.00278,477917127.49156,   0.00306,277917132.97548,  -0.00234,  -0.00017,  -0.00192,  -5.48392,   1.00000
-521218257.12212,-367799395.22943,-66243354.48611,  -0.00400,  -0.00082,  -0.00278,477918040.02069,   0.00306,277918043.46373,  -0.00234,  -0.00017,  -0.00192,  -3.44303,   1.00000
-521258985.69450,-368604497.98129,-65738648.23663,  -0.00400,  -0.00083,  -0.00277,477918935.56866,   0.00306,277918935.81718,  -0.00234,  -0.00017,  -0.00192,  -0.24852,   1.00000
-521301087.46188,-369398280.98107,-65230693.76328,  -0.00399,  -0.00083,  -0.00277,477919782.41672,   0.00306,277919791.63960,  -0.00234,  -0.00017,  -0.00192,  -9.22288,   1.00000
-521342519.83112,-370183284.12191,-64721572.83402,  -0.00399,  -0.00084,  -0.00276,477920544.28952,   0.00306,277920551.65313,  -0.00234,  -0.00017,  -0.00192,  -7.36360,   1.00000
-521380791.01936,-370973657.18315,-64207507.49963,  -0.00399,  -0.00084,  -0.00275,477921182.61933,   0.00306,277921187.75692,  -0.00234,  -0.00017,  -0.00192,  -5.13759,   1.00000
-521417937.18672,-371763023.81354,-63688732.78428,  -0.00399,  -0.00084,  -0.00275,477921820.12008,   0.00306,277921827.18117,  -0.00234,  -0.00017,  -0.00192,  -7.06109,   1.00000
-521454383.38270,-372543789.57169,-63168653.25747,  -0.00399,  -0.00085,  -0.00274,477922371.61112,   0.00306,277922371.91231,  -0.00235,  -0.00017,  -0.00192,  -0.30119,   1.00000
-521490137.52257,-373316037.08873,-62647217.41179,  -0.00399,  -0.00085,  -0.00273,477922815.01146,   0.00306,277922822.29674,  -0.00235,  -0.00017,  -0.00192,  -7.28528,   1.00000
-521522138.19422,-374097382.49090,-62119675.39018,  -0.00399,  -0.00085,  -0.00273,477923307.25279,   0.00306,277923315.77743,  -0.00235,  -0.00017,  -0.00192,  -8.52464,   1.00000
-521553963.48795,-374862891.41299,-61594040.48019,  -0.00399,  -0.00086,  -0.00272,477923607.78217,   0.00306,277923617.59462,  -0.00235,  -0.00017,  -0.00192,  -9.81245,   1.00000
-521583916.45189,-375638789.90676,-61057813.02624,  -0.00399,  -0.00086,  -0.00271,477923948.72797,   0.00306,277923955.02829,  -0.00235,  -0.00017,  -0.00192,  -6.30032,   1.00000
-521613723.78589,-376399087.79298,-60523341.92341,  -0.00399,  -0.00086,  -0.00271,477924099.69847,   0.00306,277924101.74028,  -0.00235,  -0.00017,  -0.00192,  -2.04181,   1.00000
-521637596.65471,-377167060.60534,-59987164.79543,  -0.00398,  -0.00087,  -0.00270,477924298.02058,   0.00306,277924300.58673,  -0.00235,  -0.00017,  -0.00192,  -2.56615,   1.00000
-521662690.42187,-377928174.53200,-59444899.45998,  -0.00398,  -0.00087,  -0.00269,477924395.26154,   0.00306,277924399.19071,  -0.00235,  -0.00017,  -0.00192,  -3.92917,   1.00000
-521688694.71967,-378682299.16823,-58896445.17908,  -0.00398,  -0.00087,  -0.00269,477924133.41380,   0.00306,277924399.19071,  -0.00235,  -0.00017,  -0.00192,-265.77691,   0.00000
-521698150.82796,-379429331.72325,-58347990.89818,  -0.00398,  -0.00088,  -0.00268,477913655.11452,   0.00306,277924399.19071,  -0.00235,  -0.00017,  -0.00192,-10744.07618,   0.00000
-521683966.66553,-380152724.00754,-57790080.50899,  -0.00398,  -0.00088,  -0.00267,477880480.73026,   0.00306,277924399.19071,  -0.00235,  -0.00017,  -0.00192,-43918.46045,   0.00000
-521653234.31358,-380869024.21061,-57232170.11980,  -0.00398,  -0.00088,  -0.00266,477837122.91272,   0.00306,277924399.19071,  -0.00235,  -0.00017,  -0.00192,-87276.27799,   0.00000
-521598861.69091,-381561684.14295,-56664803.62232,  -0.00398,  -0.00089,  -0.00266,477771128.38481,   0.00306,277924399.19071,  -0.00235,  -0.00017,  -0.00192,-153270.80590,   0.00000
-521537396.98701,-382237795.88578,-56092709.07070,  -0.00397,  -0.00089,  -0.00265,477697456.55169,   0.00306,277924399.19071,  -0.00235,  -0.00017,  -0.00192,-226942.63902,   0.00000
-521442835.90410,-382899723.46618,-55515886.46492,  -0.00397,  -0.00089,  -0.00264,477598735.99607,   0.00306,277924399.19071,  -0.00235,  -0.00017,  -0.00192,-325663.19464,   0.00000
-521348274.82118,-383561651.04657,-54929607.75086,  -0.00397,  -0.00090,  -0.00263,477499889.18836,   0.00306,277924399.19071,  -0.00235,  -0.00017,  -0.00192,-424510.00235,   0.00000
-521213525.27803,-384192846.27502,-54343329.03680,  -0.00397,  -0.00090,  -0.00263,477368585.58189,   0.00306,277924399.19071,  -0.00235,  -0.00017,  -0.00192,-555813.60882,   0.00000
-521071683.65366,-384807493.31396,-53747594.21444,  -0.00397,  -0.00090,  -0.00262,477228068.79322,   0.00306,277924399.19071,  -0.00235,  -0.00017,  -0.00192,-696330.39749,   0.00000
-520896745.65027,-385407956.19046,-53151859.39208,  -0.00397,  -0.00091,  -0.00261,477064275.19479,   0.00306,277924399.19071,  -0.00235,  -0.00017,  -0.00192,-860123.99592,   0.00000
-520721807.64688,-386008419.06696,-52546668.46144,  -0.00396,  -0.00091,  -0.00260,476900572.34746,   0.00306,277924399.19071,  -0.00235,  -0.00017,  -0.00192,-1023826.84325,   0.00000
-520516137.29155,-386568693.48322,-51936749.47665,  -0.00396,  -0.00091,  -0.00260,476706868.70561,   0.00306,277924399.19071,  -0.00235,  -0.00017,  -0.00192,-1217530.48509,   0.00000
-520293918.74670,-387121875.81827,-51317374.38356,  -0.00396,  -0.00092,  -0.00259,476500125.45713,   0.00306,277924399.19071,  -0.00235,  -0.00017,  -0.00192,-1424273.73358,   0.00000
-520055152.01234,-387667966.07209,-50697999.29048,  -0.00396,  -0.00092,  -0.00258,476283478.00789,   0.00306,277924399.19071,  -0.00235,  -0.00017,  -0.00192,-1640921.18282,   0.00000
-519792745.00726,-388190416.05519,-50073896.14325,  -0.00396,  -0.00092,  -0.00257,476046132.38355,   0.00306,277924399.19071,  -0.00235,  -0.00017,  -0.00192,-1878266.80715,   0.00000
-519506697.73144,-388689225.76756,-49440336.88773,  -0.00395,  -0.00092,  -0.00256,475786620.05991,   0.00306,277924399.19071,  -0.00235,  -0.00017,  -0.00192,-2137779.13080,   0.00000
-519204102.26612,-389180943.39871,-48802049.57806,  -0.00395,  -0.00093,  -0.00255,475515808.68287,   0.00306,277924399.19071,  -0.00235,  -0.00017,  -0.00192,-2408590.50783,   0.00000
-518877866.53007,-389649020.75913,-48159034.21425,  -0.00395,  -0.00093,  -0.00255,475224394.25567,   0.00306,277924399.19071,  -0.00235,  -0.00017,  -0.00192,-2700004.93504,   0.00000
-518527990.52329,-390093457.84882,-47511290.79629,  -0.00395,  -0.00093,  -0.00254,474912385.87484,   0.00306,277924399.19071,  -0.00235,  -0.00017,  -0.00192,-3012013.31587,   0.00000
-518178114.51651,-390537894.93852,-46858819.32419,  -0.00394,  -0.00094,  -0.00253,474602425.76895,   0.00306,277924399.19071,  -0.00235,  -0.00017,  -0.00192,-3321973.42175,   0.00000
-517788050.04949,-390951599.67626,-46201619.79794,  -0.00394,  -0.00094,  -0.00252,474258706.42429,   0.00306,277924399.19071,  -0.00235,  -0.00017,  -0.00192,-3665692.76642,   0.00000
-517374345.31174,-391341664.14328,-45534964.16340,  -0.00394,  -0.00094,  -0.00251,473893102.80477,   0.00306,277924399.19071,  -0.00235,  -0.00017,  -0.00192,-4031296.38593,   0.00000
-516944092.38449,-391724636.52908,-44868308.52886,  -0.00394,  -0.00094,  -0.00250,473517839.31613,   0.00306,277924399.19071,  -0.00235,  -0.00017,  -0.00192,-4406559.87458,   0.00000
-516506747.37601,-392091060.72537,-44192196.78603,  -0.00393,  -0.00095,  -0.00249,473134010.93723,   0.00306,277924399.19071,  -0.00235,  -0.00017,  -0.00192,-4790388.25348,   0.00000
-516036305.98852,-392443300.75922,-43516085.04320,  -0.00393,  -0.00095,  -0.00249,472727375.07764,   0.00306,277924399.19071,  -0.00235,  -0.00017,  -0.00192,-5197024.11306,   0.00000
-515542224.33029,-392771900.52235,-42830517.19207,  -0.00393,  -0.00095,  -0.00248,472299069.72855,   0.00306,277924399.19071,  -0.00235,  -0.00017,  -0.00192,-5625329.46215,   0.00000
-515041050.59085,-393083952.09596,-42140221.28681,  -0.00392,  -0.00095,  -0.00247,471863645.85705,   0.00306,277924399.19071,  -0.00235,  -0.00017,  -0.00192,-6060753.33366,   0.00000
-514499688.39117,-393365271.31763,-41445197.32739,  -0.00392,  -0.00096,  -0.00246,471394706.86580,   0.00306,277924399.19071,  -0.00235,  -0.00017,  -0.00192,-6529692.32490,   0.00000
-513958326.19149,-393646590.53930,-40745445.31383,  -0.00392,  -0.00096,  -0.00245,470928264.66637,   0.00306,277924399.19071,  -0.00235,  -0.00017,  -0.00192,-6996134.52434,   0.00000
-513376775.53157,-393897177.40902,-40036237.19198,  -0.00391,  -0.00096,  -0.00244,470427186.78052,   0.00306,277924399.19071,  -0.00235,  -0.00017,  -0.00192,-7497212.41019,   0.00000
-512771584.60093,-394124124.00801,-39327029.07013,  -0.00391,  -0.00096,  -0.00243,469907136.72878,   0.00306,277924399.19071,  -0.00235,  -0.00017,  -0.00192,-8017262.46193,   0.00000
-512166393.67028,-394351070.60700,-38613092.89413,  -0.00391,  -0.00096,  -0.00242,469389740.88689,   0.00306,277924399.19071,  -0.00235,  -0.00017,  -0.00192,-8534658.30382,   0.00000
-511521014.27940,-394547284.85405,-37889700.60984,  -0.00390,  -0.00097,  -0.00241,468837891.96513,   0.00306,277924399.19071,  -0.00235,  -0.00017,  -0.00192,-9086507.22557,   0.00000
-510868542.80729,-394726950.91159,-37166308.32555,  -0.00390,  -0.00097,  -0.00240,468280316.70217,   0.00306,277924399.19071,  -0.00235,  -0.00017,  -0.00192,-9644082.48853,   0.00000
-510182974.95617,-394892432.80668,-36433459.93297,  -0.00390,  -0.00097,  -0.00239,467698082.39310,   0.00306,277924399.19071,  -0.00235,  -0.00017,  -0.00192,-10226316.79761,   0.00000
-509483222.94261,-395024818.32276,-35695883.48625,  -0.00389,  -0.00097,  -0.00238,467099381.57004,   0.00306,277924399.19071,  -0.00235,  -0.00017,  -0.00192,-10825017.62067,   0.00000
-508750374.55003,-395143019.67641,-34953578.98538,  -0.00389,  -0.00097,  -0.00237,466477275.32458,   0.00306,277924399.19071,  -0.00235,  -0.00017,  -0.00192,-11447123.86613,   0.00000
-508017526.15745,-395261221.03005,-34211274.48451,  -0.00389,  -0.00098,  -0.00237,465859255.51094,   0.00306,277924399.19071,  -0.00235,  -0.00017,  -0.00192,-12065143.67977,   0.00000
-507237397.22341,-395332141.84223,-33459513.87534,  -0.00388,  -0.00098,  -0.00236,465197431.26447,   0.00306,277924399.19071,  -0.00235,  -0.00017,  -0.00192,-12726967.92624,   0.00000
-506457268.28938,-395403062.65442,-32703025.21204,  -0.00388,  -0.00098,  -0.00235,464538755.27073,   0.00306,277924399.19071,  -0.00235,  -0.00017,  -0.00192,-13385643.91998,   0.00000
-505636950.89510,-395443251.11466,-31941808.49458,  -0.00388,  -0.00098,  -0.00234,463847182.38519,   0.00306,277924399.19071,  -0.00235,  -0.00017,  -0.00192,-14077216.80552,   0.00000
-504809541.41961,-395466891.38538,-31171135.66884,  -0.00387,  -0.00098,  -0.00233,463148134.29405,   0.00306,277924399.19071,  -0.00235,  -0.00017,  -0.00192,-14776264.89666,   0.00000
-503949035.56510,-395476347.49368,-30400462.84309,  -0.00387,  -0.00099,  -0.00232,462427088.72741,   0.00306,277924399.19071,  -0.00235,  -0.00017,  -0.00192,-15497310.46330,   0.00000
-503057797.35864,-395445615.14173,-29625061.96320,  -0.00386,  -0.00099,  -0.00231,461676634.43019,   0.00306,277924399.19071,  -0.00235,  -0.00017,  -0.00192,-16247764.76052,   0.00000
-502166559.15218,-395414882.78978,-28844933.02916,  -0.00386,  -0.00099,  -0.00230,460929649.75000,   0.00306,277924399.19071,  -0.00235,  -0.00017,  -0.00192,-16994749.44071,   0.00000
-501235132.48548,-395353418.08589,-28060076.04098,  -0.00386,  -0.00099,  -0.00229,460150045.02808,   0.00306,277924399.19071,  -0.00235,  -0.00017,  -0.00192,-17774354.16263,   0.00000
-500303705.81878,-395291953.38199,-27265762.94451,  -0.00385,  -0.00099,  -0.00227,459373228.20778,   0.00306,277924399.19071,  -0.00235,  -0.00017,  -0.00192,-18551170.98292,   0.00000
-499324998.61063,-395183208.13664,-26471449.84803,  -0.00385,  -0.00099,  -0.00226,458554882.59103,   0.00306,277924399.19071,  -0.00235,  -0.00017,  -0.00192,-19369516.59968,   0.00000
-498329743.21296,-395067370.81007,-25672408.69742,  -0.00384,  -0.00099,  -0.00225,457727164.04738,   0.00306,277924399.19071,  -0.00235,  -0.00017,  -0.00192,-20197235.14333,   0.00000
-497327395.73408,-394934985.29400,-24868639.49265,  -0.00384,  -0.00100,  -0.00224,456893358.59357,   0.00306,277924399.19071,  -0.00235,  -0.00017,  -0.00192,-21031040.59713,   0.00000
-496284859.79496,-394771867.42597,-24055414.17959,  -0.00384,  -0.00100,  -0.00223,456026509.48191,   0.00306,277924399.19071,  -0.00235,  -0.00017,  -0.00192,-21897889.70880,   0.00000
-495225775.66632,-394601657.47673,-23242188.86654,  -0.00383,  -0.00100,  -0.00222,455151318.89789,   0.00306,277924399.19071,  -0.00235,  -0.00017,  -0.00192,-22773080.29282,   0.00000
-494152507.37526,-394398351.14846,-22424235.49934,  -0.00383,  -0.00100,  -0.00221,454260239.09471,   0.00306,277924399.19071,  -0.00235,  -0.00017,  -0.00192,-23664160.09599,   0.00000
-493046142.70517,-394180860.65776,-21596826.02384,  -0.00382,  -0.00100,  -0.00220,453346407.89659,   0.00306,277924399.19071,  -0.00235,  -0.00017,  -0.00192,-24577991.29412,   0.00000
-491916137.76435,-393939729.89633,-20769416.54835,  -0.00382,  -0.00100,  -0.00219,452414403.98437,   0.00306,277924399.19071,  -0.00235,  -0.00017,  -0.00192,-25509995.20634,   0.00000
-490762492.55281,-393674958.86417,-19937279.01871,  -0.00381,  -0.00100,  -0.00218,451463596.04021,   0.00306,277924399.19071,  -0.00235,  -0.00017,  -0.00192,-26460803.15050,   0.00000
-489585207.07053,-393386547.56129,-19100413.43493,  -0.00381,  -0.00100,  -0.00217,450494055.25277,   0.00306,277924399.19071,  -0.00235,  -0.00017,  -0.00192,-27430343.93794,   0.00000
-488400829.50704,-393081588.06889,-18254091.74285,  -0.00380,  -0.00101,  -0.00216,449518372.32888,   0.00306,277924399.19071,  -0.00235,  -0.00017,  -0.00192,-28406026.86183,   0.00000
-487183355.56453,-392762444.41406,-17407770.05077,  -0.00380,  -0.00101,  -0.00215,448521711.23177,   0.00306,277924399.19071,  -0.00235,  -0.00017,  -0.00192,-29402687.95894,   0.00000
-485935149.27007,-392403112.29899,-16556720.30455,  -0.00379,  -0.00101,  -0.00214,447496460.15442,   0.00306,277924399.19071,  -0.00235,  -0.00017,  -0.00192,-30427939.03629,   0.00000
-484670394.78610,-392036688.10270,-15700942.50418,  -0.00379,  -0.00101,  -0.00212,446462919.84199,   0.00306,277924399.19071,  -0.00235,  -0.00017,  -0.00192,-31461479.34872,   0.00000
-483382000.03141,-391646623.63568,-14840436.64967,  -0.00378,  -0.00101,  -0.00211,445411072.15794,   0.00306,277924399.19071,  -0.00235,  -0.00017,  -0.00192,-32513327.03277,   0.00000
-482069965.00598,-391232918.89793,-13975202.74101,  -0.00378,  -0.00101,  -0.00210,444341003.44545,   0.00306,277924399.19071,  -0.00235,  -0.00017,  -0.00192,-33583395.74526,   0.00000
-480734289.70983,-390795573.88946,-13105240.77821,  -0.00377,  -0.00101,  -0.00209,443252802.86364,   0.00306,277924399.19071,  -0.00235,  -0.00017,  -0.00192,-34671596.32707,   0.00000
-479382066.22416,-390351136.79976,-12230550.76126,  -0.00377,  -0.00101,  -0.00208,442156759.55702,   0.00306,277924399.19071,  -0.00235,  -0.00017,  -0.00192,-35767639.63369,   0.00000
-477999110.38655,-389866511.24983,-11355860.74431,  -0.00376,  -0.00101,  -0.00207,441032954.88802,   0.00306,277924399.19071,  -0.00235,  -0.00017,  -0.00192,-36891444.30269,   0.00000
-476599606.35943,-389374793.61868,-10471714.61907,  -0.00376,  -0.00101,  -0.00206,439901138.60252,   0.00306,277924399.19071,  -0.00235,  -0.00017,  -0.00192,-38023260.58818,   0.00000
-475176462.06158,-388859435.71680,-9582840.43968,  -0.00375,  -0.00101,  -0.00204,438751606.75815,   0.00306,277924399.19071,  -0.00235,  -0.00017,  -0.00192,-39172792.43256,   0.00000
-473706037.22228,-388296797.27347,-8693966.26029,  -0.00375,  -0.00101,  -0.00203,437561459.13364,   0.00306,277924399.19071,  -0.00235,  -0.00017,  -0.00192,-40362940.05707,   0.00000
-472235612.38297,-387734158.83013,-7800364.02676,  -0.00374,  -0.00101,  -0.00202,436377028.06901,   0.00306,277924399.19071,  -0.00235,  -0.00017,  -0.00192,-41547371.12170,   0.00000
-470741547.27294,-387147880.11607,-6897305.68494,  -0.00373,  -0.00101,  -0.00201,435174920.89405,   0.00306,277924399.19071,  -0.00235,  -0.00017,  -0.00192,-42749478.29665,   0.00000
-469223841.89218,-386537961.13128,-5994247.34311,  -0.00373,  -0.00101,  -0.00200,433955729.35499,   0.00306,277924399.19071,  -0.00235,  -0.00017,  -0.00192,-43968669.83571,   0.00000
-467689588.32191,-385920950.06526,-5086460.94714,  -0.00372,  -0.00101,  -0.00199,432729634.66588,   0.00306,277924399.19071,  -0.00235,  -0.00017,  -0.00192,-45194764.52482,   0.00000
-466108054.21018,-385256658.45780,-4178674.55117,  -0.00372,  -0.00101,  -0.00197,431463281.87159,   0.00306,277924399.19071,  -0.00235,  -0.00017,  -0.00192,-46461117.31912,   0.00000
-464519428.01723,-384575818.66082,-3261432.04691,  -0.00371,  -0.00101,  -0.00196,430192783.30477,   0.00306,277924399.19071,  -0.00235,  -0.00017,  -0.00192,-47731615.88594,   0.00000
-462914253.63477,-383887886.78262,-2339461.48850,  -0.00370,  -0.00101,  -0.00195,428915796.50023,   0.00306,277924399.19071,  -0.00235,  -0.00017,  -0.00192,-49008602.69048,   0.00000
-461261798.71086,-383152674.36297,-1417490.93010,  -0.00370,  -0.00101,  -0.00194,427598824.72423,   0.00306,277924399.19071,  -0.00235,  -0.00017,  -0.00192,-50325574.46647,   0.00000
-459609343.78695,-382417461.94332,-490792.31754,  -0.00369,  -0.00101,  -0.00193,426288573.60982,   0.00306,277924399.19071,  -0.00235,  -0.00017,  -0.00192,-51635825.58089,   0.00000
-457916700.40279,-381651517.17172,440634.34915,  -0.00369,  -0.00101,  -0.00191,424948895.86414,   0.00306,277924399.19071,  -0.00235,  -0.00017,  -0.00192,-52975503.32657,   0.00000
-456209872.85621,-380852476.02110,1376789.07000,  -0.00368,  -0.00101,  -0.00190,423595424.39072,   0.00306,277924399.19071,  -0.00235,  -0.00017,  -0.00192,-54328974.79999,   0.00000
-454469948.93060,-380039250.70804,2317671.84499,  -0.00367,  -0.00101,  -0.00189,422223237.76309,   0.00306,277924399.19071,  -0.00235,  -0.00017,  -0.00192,-55701161.42762,   0.00000
-452722932.92377,-379209477.20548,3258554.61998,  -0.00367,  -0.00101,  -0.00188,420847845.92443,   0.00306,277924399.19071,  -0.00235,  -0.00017,  -0.00192,-57076553.26628,   0.00000
-450935728.45670,-378348971.35096,4208893.50326,  -0.00366,  -0.00101,  -0.00187,419443739.57384,   0.00306,277924399.19071,  -0.00235,  -0.00017,  -0.00192,-58480659.61687,   0.00000
-449141431.90842,-377471917.30694,5159232.38654,  -0.00365,  -0.00101,  -0.00185,418036660.83745,   0.00306,277924399.19071,  -0.00235,  -0.00017,  -0.00192,-59887738.35326,   0.00000
-447306946.89990,-376564130.91097,6114299.32396,  -0.00365,  -0.00101,  -0.00184,416601070.20087,   0.00306,277924399.19071,  -0.00235,  -0.00017,  -0.00192,-61323328.98983,   0.00000
-445472461.89137,-375656344.51500,7069366.26139,  -0.00364,  -0.00101,  -0.00183,415173186.36894,   0.00306,277924399.19071,  -0.00235,  -0.00017,  -0.00192,-62751212.82177,   0.00000
-443590696.34140,-374701277.57758,8033889.30711,  -0.00363,  -0.00101,  -0.00182,413706880.27934,   0.00306,277924399.19071,  -0.00235,  -0.00017,  -0.00192,-64217518.91137,   0.00000
-441701838.71020,-373729662.45064,8998412.35283,  -0.00363,  -0.00101,  -0.00180,412238050.28777,   0.00306,277924399.19071,  -0.00235,  -0.00017,  -0.00192,-65686348.90293,   0.00000
-439772792.61876,-372727314.97176,9967663.45269,  -0.00362,  -0.00101,  -0.00179,410741392.12825,   0.00306,277924399.19071,  -0.00235,  -0.00017,  -0.00192,-67183007.06245,   0.00000
-437827198.33782,-371717875.41165,10941642.60670,  -0.00361,  -0.00101,  -0.00178,409240512.62079,   0.00306,277924399.19071,  -0.00235,  -0.00017,  -0.00192,-68683886.56992,   0.00000
-435867419.89443,-370675339.47253,11915621.76071,  -0.00361,  -0.00101,  -0.00177,407726939.64215,   0.00306,277924399.19071,  -0.00235,  -0.00017,  -0.00192,-70197459.54856,   0.00000
-433867452.99081,-369602071.18146,12894328.96886,  -0.00360,  -0.00100,  -0.00175,406186089.99005,   0.00306,277924399.19071,  -0.00235,  -0.00017,  -0.00192,-71738309.20066,   0.00000
-431850937.89768,-368521710.80918,13877764.23116,  -0.00359,  -0.00100,  -0.00174,404641587.67037,   0.00306,277924399.19071,  -0.00235,  -0.00017,  -0.00192,-73282811.52034,   0.00000
-429820238.64211,-367408254.05787,14861199.49347,  -0.00359,  -0.00100,  -0.00173,403084761.56900,   0.00306,277924399.19071,  -0.00235,  -0.00017,  -0.00192,-74839637.62171,   0.00000
-427756443.00753,-366280613.14413,15854090.86406,  -0.00358,  -0.00100,  -0.00171,401512423.80519,   0.00306,277924399.19071,  -0.00235,  -0.00017,  -0.00192,-76411975.38552,   0.00000
-425661915.02099,-365112783.77014,16846982.23465,  -0.00357,  -0.00100,  -0.00170,399915324.11840,   0.00306,277924399.19071,  -0.00235,  -0.00017,  -0.00192,-78009075.07231,   0.00000
-423567387.03446,-363944954.39616,17839873.60524,  -0.00356,  -0.00100,  -0.00169,398327542.48535,   0.00306,277924399.19071,  -0.00235,  -0.00017,  -0.00192,-79596856.70536,   0.00000
-421432670.58769,-362746392.67023,18842221.08412,  -0.00356,  -0.00100,  -0.00168,396714441.52062,   0.00306,277924399.19071,  -0.00235,  -0.00017,  -0.00192,-81209957.67008,   0.00000
-419267221.78897,-361507642.48407,19844568.56301,  -0.00355,  -0.00100,  -0.00166,395077074.28502,   0.00306,277924399.19071,  -0.00235,  -0.00017,  -0.00192,-82847324.90569,   0.00000
-417101772.99025,-360268892.29790,20846916.04189,  -0.00354,  -0.00099,  -0.00165,393449554.30633,   0.00306,277924399.19071,  -0.00235,  -0.00017,  -0.00192,-84474844.88438,   0.00000
-414889043.65007,-358982861.57028,21858719.62907,  -0.00353,  -0.00099,  -0.00164,391786891.29406,   0.00306,277924399.19071,  -0.00235,  -0.00017,  -0.00192,-86137507.89665,   0.00000
-412659766.12038,-357689738.76143,22870523.21624,  -0.00353,  -0.00099,  -0.00162,390121840.38496,   0.00306,277924399.19071,  -0.00235,  -0.00017,  -0.00192,-87802558.80574,   0.00000
-410406848.31997,-356372975.68186,23882326.80342,  -0.00352,  -0.00099,  -0.00161,388443902.98846,   0.00306,277924399.19071,  -0.00235,  -0.00017,  -0.00192,-89480496.20225,   0.00000
-408139746.35712,-355023116.22327,24898858.44474,  -0.00351,  -0.00099,  -0.00160,386756099.44590,   0.00306,277924399.19071,  -0.00235,  -0.00017,  -0.00192,-91168299.74481,   0.00000
-405839548.01525,-353659072.60224,25920118.14020,  -0.00350,  -0.00099,  -0.00158,385054798.39098,   0.00306,277924399.19071,  -0.00235,  -0.00017,  -0.00192,-92869600.79973,   0.00000
-403532257.59216,-352278480.79171,26946105.88981,  -0.00350,  -0.00099,  -0.00157,383354872.35615,   0.00306,277924399.19071,  -0.00235,  -0.00017,  -0.00192,-94569526.83456,   0.00000
-401177686.62761,-350850608.43971,27972093.63943,  -0.00349,  -0.00098,  -0.00156,381619659.23204,   0.00306,277924399.19071,  -0.00235,  -0.00017,  -0.00192,-96304739.95866,   0.00000
-398806567.47355,-349415644.00650,28998081.38904,  -0.00348,  -0.00098,  -0.00154,379883380.92296,   0.00306,277924399.19071,  -0.00235,  -0.00017,  -0.00192,-98041018.26775,   0.00000
-396428356.23828,-347964131.38378,30033525.24694,  -0.00347,  -0.00098,  -0.00153,378150324.13231,   0.00306,277924399.19071,  -0.00235,  -0.00017,  -0.00192,-99774075.05839,   0.00000
-394009956.54276,-346481886.40911,31064241.05070,  -0.00346,  -0.00098,  -0.00152,376392337.42693,   0.00306,277924399.19071,  -0.00235,  -0.00017,  -0.00192,-101532061.76378,   0.00000
-391577372.68481,-344966545.05542,32104412.96275,  -0.00346,  -0.00098,  -0.00150,374627471.79605,   0.00306,277924399.19071,  -0.00235,  -0.00017,  -0.00192,-103296927.39465,   0.00000
-389111692.44784,-343437019.53929,33144584.87479,  -0.00345,  -0.00097,  -0.00149,372850139.04657,   0.00306,277924399.19071,  -0.00235,  -0.00017,  -0.00192,-105074260.14414,   0.00000
-386638920.12965,-341890945.83366,34184756.78684,  -0.00344,  -0.00097,  -0.00148,371074817.37859,   0.00306,277924399.19071,  -0.00235,  -0.00017,  -0.00192,-106849581.81212,   0.00000
-384118867.27001,-340297591.58656,35229656.75304,  -0.00343,  -0.00097,  -0.00146,369267404.14269,   0.00306,277924399.19071,  -0.00235,  -0.00017,  -0.00192,-108656995.04802,   0.00000
-381598814.41036,-338704237.33947,36274556.71923,  -0.00342,  -0.00097,  -0.00145,367473278.67769,   0.00306,277924399.19071,  -0.00235,  -0.00017,  -0.00192,-110451120.51302,   0.00000
-379038573.09048,-337080150.74043,37324184.73957,  -0.00341,  -0.00096,  -0.00144,365658546.81561,   0.00306,277924399.19071,  -0.00235,  -0.00017,  -0.00192,-112265852.37510,   0.00000
-376464147.60816,-335422967.76237,38378540.81406,  -0.00341,  -0.00096,  -0.00142,363837652.36029,   0.00306,277924399.19071,  -0.00235,  -0.00017,  -0.00192,-114086746.83042,   0.00000
-373873173.93633,-333758692.70309,39432896.88854,  -0.00340,  -0.00096,  -0.00141,362018581.63004,   0.00306,277924399.19071,  -0.00235,  -0.00017,  -0.00192,-115905817.56067,   0.00000
-371251467.91255,-332054229.18358,40487252.96303,  -0.00339,  -0.00096,  -0.00139,360180088.97276,   0.00306,277924399.19071,  -0.00235,  -0.00017,  -0.00192,-117744310.21794,   0.00000
-368596665.50975,-330335581.50162,41546337.09166,  -0.00338,  -0.00095,  -0.00138,358333362.62118,   0.00306,277924399.19071,  -0.00235,  -0.00017,  -0.00192,-119591036.56953,   0.00000
-365934771.02574,-328600385.63016,42610149.27444,  -0.00337,  -0.00095,  -0.00137,356492689.50566,   0.00306,277924399.19071,  -0.00235,  -0.00017,  -0.00192,-121431709.68505,   0.00000
-363242144.18978,-326825001.29846,43673961.45722,  -0.00336,  -0.00095,  -0.00135,354633708.59373,   0.00306,277924399.19071,  -0.00235,  -0.00017,  -0.00192,-123290690.59697,   0.00000
-360532969.16430,-325042524.88554,44737773.63999,  -0.00335,  -0.00094,  -0.00134,352778292.14329,   0.00306,277924399.19071,  -0.00235,  -0.00017,  -0.00192,-125146107.04741,   0.00000
-357793061.78689,-323219860.01238,45806313.87692,  -0.00334,  -0.00094,  -0.00132,350907088.55489,   0.00306,277924399.19071,  -0.00235,  -0.00017,  -0.00192,-127017310.63582,   0.00000
-355036606.21996,-321390103.05800,46874854.11384,  -0.00334,  -0.00094,  -0.00131,349040247.65348,   0.00306,277924399.19071,  -0.00235,  -0.00017,  -0.00192,-128884151.53723,   0.00000
-352265966.49059,-319527249.72461,47948122.40491,  -0.00333,  -0.00094,  -0.00130,347170658.82109,   0.00306,277924399.19071,  -0.00235,  -0.00017,  -0.00192,-130753740.36962,   0.00000
-349462230.38220,-317650212.22877,49021390.69598,  -0.00332,  -0.00093,  -0.00128,345294144.72757,   0.00306,277924399.19071,  -0.00235,  -0.00017,  -0.00192,-132630254.46314,   0.00000
-346627761.92187,-315732986.27270,50094658.98704,  -0.00331,  -0.00093,  -0.00127,343401703.74667,   0.00306,277924399.19071,  -0.00235,  -0.00017,  -0.00192,-134522695.44404,   0.00000
-343793293.46154,-313815760.31663,51172655.33226,  -0.00330,  -0.00093,  -0.00126,341529395.85650,   0.00306,277924399.19071,  -0.00235,  -0.00017,  -0.00192,-136395003.33420,   0.00000
-340911544.45975,-311851253.81910,52250651.67747,  -0.00329,  -0.00092,  -0.00124,339630070.62900,   0.00306,277924399.19071,  -0.00235,  -0.00017,  -0.00192,-138294328.56171,   0.00000
-338029795.45796,-309886747.32157,53328648.02269,  -0.00328,  -0.00092,  -0.00123,337749639.63035,   0.00306,277924399.19071,  -0.00235,  -0.00017,  -0.00192,-140174759.56035,   0.00000
-335100765.91471,-307874960.28259,54411372.42205,  -0.00327,  -0.00092,  -0.00121,335845458.26247,   0.00306,277924399.19071,  -0.00235,  -0.00017,  -0.00192,-142078940.92824,   0.00000
-332171736.37147,-305863173.24360,55498824.87555,  -0.00326,  -0.00091,  -0.00120,333963471.84979,   0.00306,277924399.19071,  -0.00235,  -0.00017,  -0.00192,-143960927.34091,   0.00000
-329211974.47627,-303811197.74438,56581549.27491,  -0.00325,  -0.00091,  -0.00118,332066106.20637,   0.00306,277924399.19071,  -0.00235,  -0.00017,  -0.00192,-145858292.98434,   0.00000
-326228572.31035,-301735581.97443,57669001.72842,  -0.00324,  -0.00091,  -0.00117,330169374.68427,   0.00306,277924399.19071,  -0.00235,  -0.00017,  -0.00192,-147755024.50644,   0.00000
-323228621.95492,-299652874.12326,58756454.18192,  -0.00323,  -0.00090,  -0.00116,328282141.11890,   0.00306,277924399.19071,  -0.00235,  -0.00017,  -0.00192,-149642258.07180,   0.00000
-320197939.24754,-297529977.81185,59848634.68957,  -0.00322,  -0.00090,  -0.00114,326386120.19813,   0.00306,277924399.19071,  -0.00235,  -0.00017,  -0.00192,-151538278.99258,   0.00000
-317160164.45894,-295390533.31093,60936087.14308,  -0.00321,  -0.00089,  -0.00113,324499071.05223,   0.00306,277924399.19071,  -0.00235,  -0.00017,  -0.00192,-153425328.13848,   0.00000
-314089293.29133,-293236904.64758,62032995.70488,  -0.00320,  -0.00089,  -0.00111,322616912.03067,   0.00306,277924399.19071,  -0.00235,  -0.00017,  -0.00192,-155307487.16003,   0.00000
-311004237.96127,-291050179.60520,63125176.21253,  -0.00319,  -0.00089,  -0.00110,320734106.97503,   0.00306,277924399.19071,  -0.00235,  -0.00017,  -0.00192,-157190292.21567,   0.00000
-307878994.17098,-288832722.21088,64222084.77432,  -0.00318,  -0.00088,  -0.00109,318844346.02453,   0.00306,277924399.19071,  -0.00235,  -0.00017,  -0.00192,-159080053.16617,   0.00000
-304746658.29947,-286598716.62705,65314265.28197,  -0.00317,  -0.00088,  -0.00107,316965627.00067,   0.00306,277924399.19071,  -0.00235,  -0.00017,  -0.00192,-160958772.19004,   0.00000
-301590682.15723,-284341070.77249,66411173.84377,  -0.00316,  -0.00087,  -0.00106,315092841.28085,   0.00306,277924399.19071,  -0.00235,  -0.00017,  -0.00192,-162831557.90985,   0.00000
-298418157.82548,-282076332.83671,67512810.45971,  -0.00315,  -0.00087,  -0.00104,313237439.62651,   0.00306,277924399.19071,  -0.00235,  -0.00017,  -0.00192,-164686959.56420,   0.00000
-295214901.14179,-279771406.44069,68609719.02151,  -0.00314,  -0.00087,  -0.00103,311372879.76942,   0.00306,277924399.19071,  -0.00235,  -0.00017,  -0.00192,-166551519.42128,   0.00000
-292004552.37688,-277449931.85516,69711355.63745,  -0.00313,  -0.00086,  -0.00101,309527865.38748,   0.00306,277924399.19071,  -0.00235,  -0.00017,  -0.00192,-168396533.80323,   0.00000
-288754015.15172,-275097724.91769,70812992.25340,  -0.00312,  -0.00086,  -0.00100,307677601.56970,   0.00306,277924399.19071,  -0.00235,  -0.00017,  -0.00192,-170246797.62101,   0.00000
-285496385.84535,-272728969.79071,71914628.86934,  -0.00311,  -0.00085,  -0.00099,305845195.54757,   0.00306,277924399.19071,  -0.00235,  -0.00017,  -0.00192,-172079203.64314,   0.00000
-282215116.26825,-270336574.39299,73016265.48528,  -0.00310,  -0.00085,  -0.00097,304020217.43169,   0.00306,277924399.19071,  -0.00235,  -0.00017,  -0.00192,-173904181.75901,   0.00000
-278910206.42043,-267920538.72455,74122630.15537,  -0.00309,  -0.00084,  -0.00096,302206946.41165,   0.00306,277924399.19071,  -0.00235,  -0.00017,  -0.00192,-175717452.77906,   0.00000
-275588748.38309,-265497410.97490,75228994.82546,  -0.00308,  -0.00084,  -0.00094,300413280.77759,   0.00306,277924399.19071,  -0.00235,  -0.00017,  -0.00192,-177511118.41312,   0.00000
-272236557.99380,-263034094.76500,76330631.44140,  -0.00307,  -0.00083,  -0.00093,298615602.09079,   0.00306,277924399.19071,  -0.00235,  -0.00017,  -0.00192,-179308797.09992,   0.00000
-268877275.52330,-260554230.36559,77436996.11149,  -0.00306,  -0.00083,  -0.00091,296843140.00458,   0.00306,277924399.19071,  -0.00235,  -0.00017,  -0.00192,-181081259.18613,   0.00000
-265494352.78207,-258050725.69546,78543360.78158,  -0.00305,  -0.00083,  -0.00090,295082355.54885,   0.00306,277924399.19071,  -0.00235,  -0.00017,  -0.00192,-182842043.64186,   0.00000
-262087789.77011,-255523580.75459,79649725.45166,  -0.00304,  -0.00082,  -0.00088,293334170.61040,   0.00306,277924399.19071,  -0.00235,  -0.00017,  -0.00192,-184590228.58031,   0.00000
-258657586.48742,-252972795.54300,80760818.17590,  -0.00303,  -0.00082,  -0.00087,291603461.65218,   0.00306,277924399.19071,  -0.00235,  -0.00017,  -0.00192,-186320937.53853,   0.00000
-255203742.93401,-250398370.06068,81867182.84599,  -0.00302,  -0.00081,  -0.00086,289883424.42079,   0.00306,277924399.19071,  -0.00235,  -0.00017,  -0.00192,-188040974.76991,   0.00000
-251742807.29937,-247807396.38885,82973547.51608,  -0.00301,  -0.00081,  -0.00084,288189253.54308,   0.00306,277924399.19071,  -0.00235,  -0.00017,  -0.00192,-189735145.64763,   0.00000
-248241683.20450,-245185690.36507,84084640.24031,  -0.00300,  -0.00080,  -0.00083,286505371.22215,   0.00306,277924399.19071,  -0.00235,  -0.00017,  -0.00192,-191419027.96856,   0.00000
-244733467.02841,-242547436.15178,85191004.91040,  -0.00299,  -0.00080,  -0.00081,284845178.39030,   0.00306,277924399.19071,  -0.00235,  -0.00017,  -0.00192,-193079220.80041,   0.00000
-241201610.58159,-239885541.66777,86302097.63463,  -0.00298,  -0.00079,  -0.00080,283207816.29627,   0.00306,277924399.19071,  -0.00235,  -0.00017,  -0.00192,-194716582.89444,   0.00000
-237662662.05355,-237207098.99424,87408462.30472,  -0.00297,  -0.00078,  -0.00078,281595802.50795,   0.00306,277924399.19071,  -0.00235,  -0.00017,  -0.00192,-196328596.68275,   0.00000
-234083525.06527,-234497923.96877,88519555.02895,  -0.00295,  -0.00078,  -0.00077,279998941.52857,   0.00306,277924399.19071,  -0.00235,  -0.00017,  -0.00192,-197925457.66214,   0.00000
-230497295.99578,-231772200.75379,89630647.75319,  -0.00294,  -0.00077,  -0.00076,278433923.92603,   0.00306,277924399.19071,  -0.00235,  -0.00017,  -0.00192,-199490475.26467,   0.00000
-226894518.73677,-229039385.45759,90737012.42328,  -0.00293,  -0.00077,  -0.00074,276897088.93183,   0.00306,277924399.19071,  -0.00235,  -0.00017,  -0.00192,-201027310.25888,   0.00000
-223277557.31533,-226273473.78237,91848105.14751,  -0.00292,  -0.00076,  -0.00073,275388792.95357,   0.00306,277924399.19071,  -0.00235,  -0.00017,  -0.00192,-202535606.23714,   0.00000
-219620407.43365,-223476829.75520,92954469.81760,  -0.00291,  -0.00076,  -0.00071,273891483.57178,   0.00306,277924399.19071,  -0.00235,  -0.00017,  -0.00192,-204032915.61893,   0.00000
-215956165.47075,-220663637.53852,94065562.54183,  -0.00290,  -0.00075,  -0.00070,272434989.46326,   0.00306,277924399.19071,  -0.00235,  -0.00017,  -0.00192,-205489409.72744,   0.00000
-212268283.23712,-217826805.05112,95176655.26607,  -0.00289,  -0.00075,  -0.00068,271006284.50073,   0.00306,277924399.19071,  -0.00235,  -0.00017,  -0.00192,-206918114.68998,   0.00000
-208556760.73277,-214966332.29298,96283019.93615,  -0.00288,  -0.00074,  -0.00067,269601602.96499,   0.00306,277924399.19071,  -0.00235,  -0.00017,  -0.00192,-208322796.22572,   0.00000
-204838146.14719,-212089311.34534,97389384.60624,  -0.00287,  -0.00073,  -0.00065,268236159.85227,   0.00306,277924399.19071,  -0.00235,  -0.00017,  -0.00192,-209688239.33844,   0.00000
-201102983.37211,-209205198.31648,98500477.33048,  -0.00285,  -0.00073,  -0.00064,266916592.79332,   0.00306,277924399.19071,  -0.00235,  -0.00017,  -0.00192,-211007806.39739,   0.00000
-197337088.24508,-206280896.82738,99606842.00056,  -0.00284,  -0.00072,  -0.00063,265615195.67304,   0.00306,277924399.19071,  -0.00235,  -0.00017,  -0.00192,-212309203.51766,   0.00000
-193547552.84732,-203332955.06755,100713206.67065,  -0.00283,  -0.00072,  -0.00061,264347876.77756,   0.00306,277924399.19071,  -0.00235,  -0.00017,  -0.00192,-213576522.41315,   0.00000
-189758017.44956,-200385013.30772,101819571.34074,  -0.00282,  -0.00071,  -0.00060,263133561.55550,   0.00306,277924399.19071,  -0.00235,  -0.00017,  -0.00192,-214790837.63521,   0.00000
-185937749.69985,-197396883.08765,102925936.01083,  -0.00281,  -0.00070,  -0.00058,261946729.10383,   0.00306,277924399.19071,  -0.00235,  -0.00017,  -0.00192,-215977670.08687,   0.00000
-182110389.86893,-194392204.67807,104032300.68092,  -0.00280,  -0.00070,  -0.00057,260806138.56139,   0.00306,277924399.19071,  -0.00235,  -0.00017,  -0.00192,-217118260.62932,   0.00000
-178249933.65898,-191373342.10606,105133937.29686,  -0.00278,  -0.00069,  -0.00055,259699718.32559,   0.00306,277924399.19071,  -0.00235,  -0.00017,  -0.00192,-218224680.86512,   0.00000
-174375293.28660,-188321383.15502,106240301.96695,  -0.00277,  -0.00069,  -0.00054,258638928.09958,   0.00306,277924399.19071,  -0.00235,  -0.00017,  -0.00192,-219285471.09113,   0.00000
-170500652.91422,-185269424.20399,107341938.58289,  -0.00276,  -0.00068,  -0.00052,257630645.95158,   0.00306,277924399.19071,  -0.00235,  -0.00017,  -0.00192,-220293753.23912,   0.00000
-166578732.00038,-182170184.71150,108443575.19883,  -0.00275,  -0.00067,  -0.00051,256649174.51820,   0.00306,277924399.19071,  -0.00235,  -0.00017,  -0.00192,-221275224.67251,   0.00000
-162656811.08654,-179070945.21901,109545211.81477,  -0.00274,  -0.00067,  -0.00050,255728357.83606,   0.00306,277924399.19071,  -0.00235,  -0.00017,  -0.00192,-222196041.35465,   0.00000
-158704157.82076,-175931517.26628,110646848.43072,  -0.00273,  -0.00066,  -0.00048,254845090.98330,   0.00306,277924399.19071,  -0.00235,  -0.00017,  -0.00192,-223079308.20740,   0.00000
-154751504.55497,-172792089.31355,111743756.99251,  -0.00271,  -0.00065,  -0.00047,254018306.77199,   0.00306,277924399.19071,  -0.00235,  -0.00017,  -0.00192,-223906092.41872,   0.00000
-150775211.01846,-169629021.09009,112845393.60846,  -0.00270,  -0.00065,  -0.00045,253246058.56730,   0.00306,277924399.19071,  -0.00235,  -0.00017,  -0.00192,-224678340.62341,   0.00000
-146775277.21122,-166442312.59591,113942302.17025,  -0.00269,  -0.00064,  -0.00044,252517234.11153,   0.00306,277924399.19071,  -0.00235,  -0.00017,  -0.00192,-225407165.07918,   0.00000
-142768251.32276,-163239055.91221,115039210.73205,  -0.00268,  -0.00063,  -0.00042,251846120.51462,   0.00306,277924399.19071,  -0.00235,  -0.00017,  -0.00192,-226078278.67609,   0.00000
-138737585.16357,-160012158.95779,116131391.23970,  -0.00267,  -0.00063,  -0.00041,251220636.32302,   0.00306,277924399.19071,  -0.00235,  -0.00017,  -0.00192,-226703762.86769,   0.00000
-134699826.92316,-156768713.81386,117228299.80150,  -0.00265,  -0.00062,  -0.00040,250661479.30892,   0.00306,277924399.19071,  -0.00235,  -0.00017,  -0.00192,-227262919.88179,   0.00000
-130621880.22251,-153494536.31797,118320480.30915,  -0.00264,  -0.00061,  -0.00038,250144181.45614,   0.00306,277924399.19071,  -0.00235,  -0.00017,  -0.00192,-227780217.73457,   0.00000
-126553389.63016,-150210902.71380,119407932.76265,  -0.00263,  -0.00061,  -0.00037,249688085.50488,   0.00306,277924399.19071,  -0.00235,  -0.00017,  -0.00192,-228236313.68583,   0.00000
-122444710.57757,-146896536.75768,120500113.27031,  -0.00262,  -0.00060,  -0.00035,249289846.61665,   0.00306,277924399.19071,  -0.00235,  -0.00017,  -0.00192,-228634552.57405,   0.00000
-118336031.52497,-143582170.80156,121587565.72381,  -0.00261,  -0.00059,  -0.00034,248955659.21404,   0.00306,277924399.19071,  -0.00235,  -0.00017,  -0.00192,-228968739.97667,   0.00000
-114213168.30994,-140234708.46643,122675018.17732,  -0.00259,  -0.00058,  -0.00033,248679012.31809,   0.00306,277924399.19071,  -0.00235,  -0.00017,  -0.00192,-229245386.87261,   0.00000
-110057208.71590,-136873061.96885,123762470.63082,  -0.00258,  -0.00058,  -0.00031,248464091.05605,   0.00306,277924399.19071,  -0.00235,  -0.00017,  -0.00192,-229460308.13466,   0.00000
-105903613.14892,-133485411.17347,124845195.03018,  -0.00257,  -0.00057,  -0.00030,248306888.93903,   0.00306,277924399.19071,  -0.00235,  -0.00017,  -0.00192,-229617510.25168,   0.00000
-101716921.20292,-130083576.21566,125927919.42954,  -0.00256,  -0.00056,  -0.00028,248213397.43030,   0.00306,277924399.19071,  -0.00235,  -0.00017,  -0.00192,-229711001.76040,   0.00000
-97523137.17571,-126665193.06834,127005915.77476,  -0.00254,  -0.00056,  -0.00027,248180487.44008,   0.00306,277924399.19071,  -0.00235,  -0.00017,  -0.00192,-229743911.75063,   0.00000
-93322261.06728,-123230261.73150,128083912.11997,  -0.00253,  -0.00055,  -0.00026,248215794.80826,   0.00306,277924399.19071,  -0.00235,  -0.00017,  -0.00192,-229708604.38245,   0.00000
-89097744.68811,-119771690.12394,129161908.46518,  -0.00252,  -0.00054,  -0.00024,248315674.47753,   0.00306,277924399.19071,  -0.00235,  -0.00017,  -0.00192,-229608724.71317,   0.00000
-84849588.03822,-116289478.24565,130235176.75625,  -0.00251,  -0.00053,  -0.00023,248473710.50631,   0.00306,277924399.19071,  -0.00235,  -0.00017,  -0.00192,-229450688.68439,   0.00000
-80594339.30712,-112790718.17785,131308445.04732,  -0.00249,  -0.00053,  -0.00021,248701876.64379,   0.00306,277924399.19071,  -0.00235,  -0.00017,  -0.00192,-229222522.54692,   0.00000
-76322542.38650,-109284866.02883,132381713.33839,  -0.00248,  -0.00052,  -0.00020,249002344.72553,   0.00306,277924399.19071,  -0.00235,  -0.00017,  -0.00192,-228922054.46517,   0.00000
-72036561.30344,-105745917.50079,133450253.57531,  -0.00247,  -0.00051,  -0.00019,249360789.82434,   0.00306,277924399.19071,  -0.00235,  -0.00017,  -0.00192,-228563609.36636,   0.00000
-67734032.03088,-102199876.89153,134514065.75809,  -0.00246,  -0.00050,  -0.00017,249784719.02260,   0.00306,277924399.19071,  -0.00235,  -0.00017,  -0.00192,-228139680.16811,   0.00000
-63424410.67709,-98637288.09277,135582605.99501,  -0.00244,  -0.00049,  -0.00016,250287610.05922,   0.00306,277924399.19071,  -0.00235,  -0.00017,  -0.00192,-227636789.13148,   0.00000
-59091149.05258,-95051059.02327,136641690.12364,  -0.00243,  -0.00049,  -0.00014,250843867.49727,   0.00306,277924399.19071,  -0.00235,  -0.00017,  -0.00192,-227080531.69344,   0.00000
-54750795.34685,-91448281.76427,137705502.30642,  -0.00242,  -0.00048,  -0.00013,251479597.11564,   0.00306,277924399.19071,  -0.00235,  -0.00017,  -0.00192,-226444802.07507,   0.00000
-50386801.37039,-87821864.23453,138759858.38091,  -0.00240,  -0.00047,  -0.00012,252169271.82842,   0.00306,277924399.19071,  -0.00235,  -0.00017,  -0.00192,-225755127.36229,   0.00000
-46022807.39393,-84195446.70480,139818942.50954,  -0.00239,  -0.00046,  -0.00010,252942822.14081,   0.00306,277924399.19071,  -0.00235,  -0.00017,  -0.00192,-224981577.04990,   0.00000
-41628081.06553,-80528840.71483,140873298.58402,  -0.00238,  -0.00045,  -0.00009,253774287.45346,   0.00306,277924399.19071,  -0.00235,  -0.00017,  -0.00192,-224150111.73724,   0.00000
-37233354.73712,-76862234.72486,141922926.60436,  -0.00237,  -0.00045,  -0.00008,254673591.61940,   0.00306,277924399.19071,  -0.00235,  -0.00017,  -0.00192,-223250807.57131,   0.00000
-32814988.13799,-73171988.46416,142972554.62470,  -0.00235,  -0.00044,  -0.00006,255642874.99665,   0.00306,277924399.19071,  -0.00235,  -0.00017,  -0.00192,-222281524.19406,   0.00000
-28389529.45763,-69465194.01395,144017454.59090,  -0.00234,  -0.00043,  -0.00005,256675624.22444,   0.00306,277924399.19071,  -0.00235,  -0.00017,  -0.00192,-221248774.96627,   0.00000
-23940430.50655,-65734759.29301,145062354.55709,  -0.00233,  -0.00042,  -0.00003,257778479.48262,   0.00306,277924399.19071,  -0.00235,  -0.00017,  -0.00192,-220145919.70808,   0.00000
-19484239.47425,-61987776.38256,146102526.46914,  -0.00231,  -0.00041,  -0.00002,258944357.05616,   0.00306,277924399.19071,  -0.00235,  -0.00017,  -0.00192,-218980042.13454,   0.00000
-15011500.25244,-58233701.39089,147142698.38119,  -0.00230,  -0.00040,  -0.00001,260183118.12083,   0.00306,277924399.19071,  -0.00235,  -0.00017,  -0.00192,-217741281.06988,   0.00000
-10531668.94941,-54463078.20972,148178142.23909,  -0.00229,  -0.00040,   0.00001,261483921.76490,   0.00306,277924399.19071,  -0.00235,  -0.00017,  -0.00192,-216440477.42580,   0.00000
-6028197.37566,-50668814.75781,149208858.04285,  -0.00228,  -0.00039,   0.00002,262846107.62149,   0.00306,277924399.19071,  -0.00235,  -0.00017,  -0.00192,-215078291.56922,   0.00000
-1534181.91019,-46865095.19761,150239573.84661,  -0.00226,  -0.00038,   0.00003,264277467.69177,   0.00306,277924399.19071,  -0.00235,  -0.00017,  -0.00192,-213646931.49894,   0.00000
3000022.01551,-43030643.28547,151265561.59622,  -0.00225,  -0.00037,   0.00005,265769711.67895,   0.00306,277924399.19071,  -0.00235,  -0.00017,  -0.00192,-212154687.51176,   0.00000
7534225.94121,-39196191.37333,152291549.34583,  -0.00224,  -0.00036,   0.00006,267332315.56812,   0.00306,277924399.19071,  -0.00235,  -0.00017,  -0.00192,-210592083.62259,   0.00000
12075521.94814,-35345191.27168,153312809.04130,  -0.00222,  -0.00035,   0.00007,268954205.50293,   0.00306,277924399.19071,  -0.00235,  -0.00017,  -0.00192,-208970193.68777,   0.00000
16623910.03628,-31477642.98051,154334068.73676,  -0.00221,  -0.00034,   0.00009,270642739.07884,   0.00306,277924399.19071,  -0.00235,  -0.00017,  -0.00192,-207281660.11187,   0.00000
21195938.39515,-27586454.41862,155350600.37808,  -0.00220,  -0.00034,   0.00010,272390213.06525,   0.00306,277924399.19071,  -0.00235,  -0.00017,  -0.00192,-205534186.12546,   0.00000
25791607.02474,-23671625.58600,156362403.96526,  -0.00218,  -0.00033,   0.00011,274196437.31628,   0.00306,277924399.19071,  -0.00235,  -0.00017,  -0.00192,-203727961.87443,   0.00000
30387275.65434,-19756796.75338,157369479.49829,  -0.00217,  -0.00032,   0.00013,276060739.69568,   0.00306,277924399.19071,  -0.00235,  -0.00017,  -0.00192,-201863659.49503,   0.00000
34990036.36516,-15825419.73125,158376555.03132,  -0.00216,  -0.00031,   0.00014,277988989.20130,   0.00306,277924399.19071,  -0.00235,  -0.00017,  -0.00192,-199935409.98941,   0.00000
39599889.15719,-11877494.51961,159378902.51020,  -0.00214,  -0.00030,   0.00015,279972279.44894,   0.00306,277924399.19071,  -0.00235,  -0.00017,  -0.00192,-197952119.74177,   0.00000
44226290.13873,-7922477.22675,160381249.98908,  -0.00213,  -0.00029,   0.00016,282020474.79833,   0.00306,277924399.19071,  -0.00235,  -0.00017,  -0.00192,-195903924.39238,   0.00000
48883423.47222,-3927271.47366,161378869.41382,  -0.00212,  -0.00028,   0.00018,284123933.35652,   0.00306,277924399.19071,  -0.00235,  -0.00017,  -0.00192,-193800465.83419,   0.00000
53524008.61621,60842.19822,162371760.78441,  -0.00210,  -0.00027,   0.00019,286278418.29672,   0.00306,277924399.19071,  -0.00235,  -0.00017,  -0.00192,-191645980.89399,   0.00000
58188234.03091,4072596.14083,163359924.10086,  -0.00209,  -0.00026,   0.00020,288487216.09167,   0.00306,277924399.19071,  -0.00235,  -0.00017,  -0.00192,-189437183.09904,   0.00000
62869007.63513,8091442.16465,164348087.41731,  -0.00208,  -0.00025,   0.00022,290757913.27371,   0.00306,277924399.19071,  -0.00235,  -0.00017,  -0.00192,-187166485.91700,   0.00000
67540325.13106,12119744.29677,165331522.67961,  -0.00206,  -0.00025,   0.00023,293076013.04950,   0.00306,277924399.19071,  -0.00235,  -0.00017,  -0.00192,-184848386.14121,   0.00000
72235282.89772,16171686.69961,166310229.88776,  -0.00205,  -0.00024,   0.00024,295446392.56269,   0.00306,277924399.19071,  -0.00235,  -0.00017,  -0.00192,-182478006.62802,   0.00000
76953880.93510,20247269.37318,167288937.09592,  -0.00204,  -0.00023,   0.00025,297876671.08299,   0.00306,277924399.19071,  -0.00235,  -0.00017,  -0.00192,-180047728.10772,   0.00000
81655930.78298,24315759.96554,168258188.19578,  -0.00202,  -0.00022,   0.00027,300342928.81111,   0.00306,277924399.19071,  -0.00235,  -0.00017,  -0.00192,-177581470.37960,   0.00000
86381620.90158,28407890.82862,169227439.29564,  -0.00201,  -0.00021,   0.00028,302867382.96889,   0.00306,277924399.19071,  -0.00235,  -0.00017,  -0.00192,-175057016.22181,   0.00000
91114403.10140,32516569.88121,170196690.39551,  -0.00200,  -0.00020,   0.00029,305445861.28885,   0.00306,277924399.19071,  -0.00235,  -0.00017,  -0.00192,-172478537.90186,   0.00000
95870825.57195,36648889.20453,171156485.38708,  -0.00198,  -0.00019,   0.00030,308065617.16883,   0.00306,277924399.19071,  -0.00235,  -0.00017,  -0.00192,-169858782.02188,   0.00000
100627248.04250,40781208.52786,172116280.37865,  -0.00197,  -0.00018,   0.00032,310736691.01949,   0.00306,277924399.19071,  -0.00235,  -0.00017,  -0.00192,-167187708.17122,   0.00000
105390762.59427,44930076.04069,173066619.26193,  -0.00196,  -0.00017,   0.00033,313443573.39742,   0.00306,277924399.19071,  -0.00235,  -0.00017,  -0.00192,-164480825.79329,   0.00000
110154277.14604,49078943.55352,174016958.14521,  -0.00194,  -0.00016,   0.00034,316199552.64043,   0.00306,277924399.19071,  -0.00235,  -0.00017,  -0.00192,-161724846.55028,   0.00000
114941431.96854,53251451.33708,174967297.02849,  -0.00193,  -0.00015,   0.00035,319009587.42610,   0.00306,277924399.19071,  -0.00235,  -0.00017,  -0.00192,-158914811.76461,   0.00000
119735678.87225,57440507.31015,175908179.80348,  -0.00191,  -0.00014,   0.00037,321853118.21206,   0.00306,277924399.19071,  -0.00235,  -0.00017,  -0.00192,-156071280.97865,   0.00000
124537017.85719,61646111.47272,176849062.57847,  -0.00190,  -0.00013,   0.00038,324744918.04464,   0.00306,277924399.19071,  -0.00235,  -0.00017,  -0.00192,-153179481.14607,   0.00000
129354905.03163,65858807.71652,177780489.24517,  -0.00189,  -0.00012,   0.00039,327671514.26493,   0.00306,277924399.19071,  -0.00235,  -0.00017,  -0.00192,-150252884.92577,   0.00000
134156244.01657,70064411.87910,178711915.91187,  -0.00187,  -0.00011,   0.00040,330637547.70192,   0.00306,277924399.19071,  -0.00235,  -0.00017,  -0.00192,-147286851.48879,   0.00000
138988315.35345,74310204.50192,179638614.52442,  -0.00186,  -0.00010,   0.00042,333648922.73972,   0.00306,277924399.19071,  -0.00235,  -0.00017,  -0.00192,-144275476.45099,   0.00000
143820386.69033,78555997.12473,180560585.08283,  -0.00185,  -0.00009,   0.00043,336695365.40477,   0.00306,277924399.19071,  -0.00235,  -0.00017,  -0.00192,-141229033.78593,   0.00000
148676098.29794,82825430.01828,181482555.64124,  -0.00183,  -0.00008,   0.00044,339791445.29265,   0.00306,277924399.19071,  -0.00235,  -0.00017,  -0.00192,-138132953.89806,   0.00000
153515261.71604,87087770.83061,182395070.09135,  -0.00182,  -0.00007,   0.00045,342907856.80347,   0.00306,277924399.19071,  -0.00235,  -0.00017,  -0.00192,-135016542.38724,   0.00000
158378065.40486,91373751.91366,183307584.54147,  -0.00180,  -0.00006,   0.00046,346072518.02849,   0.00306,277924399.19071,  -0.00235,  -0.00017,  -0.00192,-131851881.16222,   0.00000
163240869.09369,95659732.99672,184210642.88329,  -0.00179,  -0.00005,   0.00047,349261321.59493,   0.00306,277924399.19071,  -0.00235,  -0.00017,  -0.00192,-128663077.59577,   0.00000
168110764.86374,99962262.26928,185113701.22512,  -0.00178,  -0.00004,   0.00049,352491415.38093,   0.00306,277924399.19071,  -0.00235,  -0.00017,  -0.00192,-125432983.80978,   0.00000
173004300.90451,104288431.81258,186012031.51279,  -0.00176,  -0.00003,   0.00050,355760657.61376,   0.00306,277924399.19071,  -0.00235,  -0.00017,  -0.00192,-122163741.57695,   0.00000
177897836.94529,108614601.35587,186905633.74633,  -0.00175,  -0.00002,   0.00051,359059350.46169,   0.00306,277924399.19071,  -0.00235,  -0.00017,  -0.00192,-118865048.72902,   0.00000
182781916.87777,112950227.00746,187794507.92571,  -0.00174,  -0.00001,   0.00052,362383851.09650,   0.00306,277924399.19071,  -0.00235,  -0.00017,  -0.00192,-115540548.09421,   0.00000
187682544.99976,117292944.74026,188678654.05096,  -0.00172,  -0.00000,   0.00053,365742310.49675,   0.00306,277924399.19071,  -0.00235,  -0.00017,  -0.00192,-112182088.69396,   0.00000
192590265.20298,121652210.66257,189558072.12205,  -0.00171,   0.00001,   0.00054,369131449.77893,   0.00306,277924399.19071,  -0.00235,  -0.00017,  -0.00192,-108792949.41177,   0.00000
197521625.67692,126035116.85561,190432762.13900,  -0.00169,   0.00002,   0.00056,372557234.26720,   0.00306,277924399.19071,  -0.00235,  -0.00017,  -0.00192,-105367164.92350,   0.00000
202436437.96135,130410930.96744,191302724.10181,  -0.00168,   0.00003,   0.00057,376002386.61518,   0.00306,277924399.19071,  -0.00235,  -0.00017,  -0.00192,-101922012.57552,   0.00000
207374890.51650,134810385.34999,192172686.06461,  -0.00167,   0.00004,   0.00058,379490342.59170,   0.00306,277924399.19071,  -0.00235,  -0.00017,  -0.00192,-98434056.59901,   0.00000
212313343.07166,139209839.73254,193033191.91912,  -0.00165,   0.00005,   0.00059,382995650.37999,   0.00306,277924399.19071,  -0.00235,  -0.00017,  -0.00192,-94928748.81071,   0.00000
217242339.51853,143618750.22338,193888969.71949,  -0.00164,   0.00006,   0.00060,386522061.38151,   0.00306,277924399.19071,  -0.00235,  -0.00017,  -0.00192,-91402337.80920,   0.00000
222187884.15491,148034752.79544,194744747.51986,  -0.00162,   0.00007,   0.00061,390085587.34609,   0.00306,277924399.19071,  -0.00235,  -0.00017,  -0.00192,-87838811.84461,   0.00000
227157069.06201,152474395.63823,195591069.21193,  -0.00161,   0.00008,   0.00062,393675929.66336,   0.00306,277924399.19071,  -0.00235,  -0.00017,  -0.00192,-84248469.52735,   0.00000
232109705.77961,156906946.39981,196432662.84986,  -0.00160,   0.00009,   0.00063,397281327.63174,   0.00306,277924399.19071,  -0.00235,  -0.00017,  -0.00192,-80643071.55897,   0.00000
237069434.57842,161356045.35089,197274256.48779,  -0.00158,   0.00010,   0.00064,400919568.69664,   0.00306,277924399.19071,  -0.00235,  -0.00017,  -0.00192,-77004830.49406,   0.00000
242045711.56675,165812236.38319,198106394.01743,  -0.00157,   0.00011,   0.00066,404578933.62381,   0.00306,277924399.19071,  -0.00235,  -0.00017,  -0.00192,-73345465.56690,   0.00000
247012532.44678,170277883.52378,198938531.54707,  -0.00156,   0.00012,   0.00067,408262900.07364,   0.00306,277924399.19071,  -0.00235,  -0.00017,  -0.00192,-69661499.11707,   0.00000
251995901.51632,174750622.74559,199761212.96842,  -0.00154,   0.00013,   0.00068,411967110.86144,   0.00306,277924399.19071,  -0.00235,  -0.00017,  -0.00192,-65957288.32926,   0.00000
