# sigma_xx, sigma_yy, sigma_xy, epsilon_xx, epsilon_yy, epsilon_xy, vonMises, epsPlastic, hardening, epsilonP__xx, epsilonP__yy, epsilonP__xy, yieldValue, iteration
   0.00000,   0.00000,   0.00000,   0.00000,   0.00000,   0.00000,   0.00000,   0.00000,274640135.82653,   0.00000,   0.00000,   0.00000,-474640135.82653,   0.00000
   0.00000,   0.00000,   0.00000,   0.00000,   0.00000,   0.00000,   0.00000,   0.00000,274640135.82653,   0.00000,   0.00000,   0.00000,-474640135.82653,   0.00000
-1718636.45096,-139913.29552,334121.30274,  -0.00001,   0.00000,   0.00000,1751495.93948,   0.00000,274640135.82653,   0.00000,   0.00000,   0.00000,-472888639.88705,   0.00000
-3414302.06236,-281914.84919,668242.60548,  -0.00001,   0.00001,   0.00001,3480522.46704,   0.00000,274640135.82653,   0.00000,   0.00000,   0.00000,-471159613.35949,   0.00000
-5109967.67376,-423916.40285,1006540.42450,  -0.00002,   0.00001,   0.00001,5211971.46069,   0.00000,274640135.82653,   0.00000,   0.00000,   0.00000,-469428164.36584,   0.00000
-6791015.47817,-559653.18209,1340661.72724,  -0.00003,   0.00001,   0.00002,6929834.85284,   0.00000,274640135.82653,   0.00000,   0.00000,   0.00000,-467710300.97369,   0.00000
-8449092.44301,-697478.21947,1678959.54626,  -0.00004,   0.00001,   0.00002,8627705.16985,   0.00000,274640135.82653,   0.00000,   0.00000,   0.00000,-466012430.65668,   0.00000
-10113434.18228,-849921.06384,2017257.36529,  -0.00004,   0.00002,   0.00003,10325515.86451,   0.00000,274640135.82653,   0.00000,   0.00000,   0.00000,-464314619.96202,   0.00000
-11763158.11455,-996099.13379,2355555.18431,  -0.00005,   0.00002,   0.00003,12012191.78097,   0.00000,274640135.82653,   0.00000,   0.00000,   0.00000,-462627944.04556,   0.00000
-13398264.23983,-1136012.42931,2693853.00333,  -0.00006,   0.00002,   0.00004,13687729.76731,   0.00000,274640135.82653,   0.00000,   0.00000,   0.00000,-460952406.05922,   0.00000
-15025017.33254,-1284278.75740,3036327.33864,  -0.00007,   0.00002,   0.00004,15354545.20011,   0.00000,274640135.82653,   0.00000,   0.00000,   0.00000,-459285590.62642,   0.00000
-16643417.39268,-1440898.11806,3374625.15766,  -0.00007,   0.00003,   0.00004,17007714.30730,   0.00000,274640135.82653,   0.00000,   0.00000,   0.00000,-457632421.51923,   0.00000
-18247199.64583,-1591252.70429,3717099.49297,  -0.00008,   0.00003,   0.00005,18652264.21171,   0.00000,274640135.82653,   0.00000,   0.00000,   0.00000,-455987871.61482,   0.00000
-19836364.09198,-1735342.51610,4059573.82828,  -0.00009,   0.00003,   0.00005,20285716.33110,   0.00000,274640135.82653,   0.00000,   0.00000,   0.00000,-454354419.49543,   0.00000
-21417175.50557,-1887785.36048,4402048.16359,  -0.00009,   0.00003,   0.00006,21908039.48155,   0.00000,274640135.82653,   0.00000,   0.00000,   0.00000,-452732096.34498,   0.00000
-22983369.11216,-2033963.43042,4744522.49889,  -0.00010,   0.00004,   0.00006,23519277.45334,   0.00000,274640135.82653,   0.00000,   0.00000,   0.00000,-451120858.37319,   0.00000
-24526591.87918,-2182229.75851,5086996.83420,  -0.00011,   0.00004,   0.00007,25108281.25593,   0.00000,274640135.82653,   0.00000,   0.00000,   0.00000,-449531854.57060,   0.00000
-26069814.64621,-2330496.08660,5429471.16951,  -0.00011,   0.00004,   0.00007,26697346.65144,   0.00000,274640135.82653,   0.00000,   0.00000,   0.00000,-447942789.17509,   0.00000
-27604684.38066,-2487115.44726,5776122.02110,  -0.00012,   0.00004,   0.00008,28277890.00035,   0.00000,274640135.82653,   0.00000,   0.00000,   0.00000,-446362245.82618,   0.00000
-29124936.30813,-2637470.03350,6118596.35641,  -0.00013,   0.00004,   0.00008,29844826.69589,   0.00000,274640135.82653,   0.00000,   0.00000,   0.00000,-444795309.13064,   0.00000
-30630570.42859,-2781559.84530,6465247.20800,  -0.00013,   0.00005,   0.00008,31403286.76417,   0.00000,274640135.82653,   0.00000,   0.00000,   0.00000,-443236849.06236,   0.00000
-32134116.29092,-2948620.49667,6811898.05959,  -0.00014,   0.00005,   0.00009,32950726.00439,   0.00000,274640135.82653,   0.00000,   0.00000,   0.00000,-441689409.82214,   0.00000
-33616779.57182,-3094798.56662,7158548.91118,  -0.00015,   0.00005,   0.00009,34487141.85398,   0.00000,274640135.82653,   0.00000,   0.00000,   0.00000,-440152993.97255,   0.00000
-35076472.01316,-3243064.89471,7501023.24649,  -0.00015,   0.00005,   0.00010,35998849.05130,   0.00000,274640135.82653,   0.00000,   0.00000,   0.00000,-438641286.77523,   0.00000
-36536164.45451,-3391331.22280,7847674.09808,  -0.00016,   0.00006,   0.00010,37513253.27778,   0.00000,274640135.82653,   0.00000,   0.00000,   0.00000,-437126882.54875,   0.00000
-37987503.86328,-3547950.58346,8194324.94967,  -0.00017,   0.00006,   0.00011,39016682.33912,   0.00000,274640135.82653,   0.00000,   0.00000,   0.00000,-435623453.48741,   0.00000
-39409607.65806,-3692040.39527,8540975.80126,  -0.00017,   0.00006,   0.00011,40498040.41581,   0.00000,274640135.82653,   0.00000,   0.00000,   0.00000,-434142095.41072,   0.00000
-40837976.22727,-3850748.01407,8891803.16914,  -0.00018,   0.00006,   0.00012,41982190.24238,   0.00000,274640135.82653,   0.00000,   0.00000,   0.00000,-432657945.58415,   0.00000
-42237109.18249,-3996926.08401,9238454.02073,  -0.00018,   0.00006,   0.00012,43441654.03031,   0.00000,274640135.82653,   0.00000,   0.00000,   0.00000,-431198481.79622,   0.00000
-43621624.33071,-4136839.37954,9585104.87232,  -0.00019,   0.00007,   0.00012,44890161.53025,   0.00000,274640135.82653,   0.00000,   0.00000,   0.00000,-429749974.29628,   0.00000
-45012404.25336,-4291370.48205,9931755.72392,  -0.00020,   0.00007,   0.00013,46338826.15714,   0.00000,274640135.82653,   0.00000,   0.00000,   0.00000,-428301309.66939,   0.00000
-46380213.33645,-4447989.84271,10278406.57551,  -0.00020,   0.00007,   0.00013,47765542.07948,   0.00000,274640135.82653,   0.00000,   0.00000,   0.00000,-426874593.74705,   0.00000
-47733404.61254,-4598344.42894,10629233.94338,  -0.00021,   0.00007,   0.00014,49184041.05893,   0.00000,274640135.82653,   0.00000,   0.00000,   0.00000,-425456094.76760,   0.00000
-49071978.08164,-4742434.24075,10975884.79497,  -0.00021,   0.00007,   0.00014,50588923.95925,   0.00000,274640135.82653,   0.00000,   0.00000,   0.00000,-424051211.86728,   0.00000
-50395933.74375,-4880259.27813,11322535.64657,  -0.00022,   0.00008,   0.00015,51982894.16429,   0.00000,274640135.82653,   0.00000,   0.00000,   0.00000,-422657241.66224,   0.00000
-51711536.37328,-5026437.34808,11669186.49816,  -0.00023,   0.00008,   0.00015,53366028.60746,   0.00000,274640135.82653,   0.00000,   0.00000,   0.00000,-421274107.21907,   0.00000
-53018785.97025,-5180968.45060,12020013.86603,  -0.00023,   0.00008,   0.00016,54741096.46749,   0.00000,274640135.82653,   0.00000,   0.00000,   0.00000,-419899039.35904,   0.00000
-54296799.95322,-5322970.00426,12366664.71763,  -0.00024,   0.00008,   0.00016,56091527.39998,   0.00000,274640135.82653,   0.00000,   0.00000,   0.00000,-418548608.42655,   0.00000
-55574813.93620,-5464971.55792,12713315.56922,  -0.00024,   0.00008,   0.00017,57442112.24321,   0.00000,274640135.82653,   0.00000,   0.00000,   0.00000,-417198023.58332,   0.00000
-56829857.07961,-5609061.36973,13059966.42081,  -0.00025,   0.00009,   0.00017,58770913.19593,   0.00000,274640135.82653,   0.00000,   0.00000,   0.00000,-415869222.63060,   0.00000
-58070282.41603,-5746886.40711,13406617.27240,  -0.00025,   0.00009,   0.00017,60088877.89472,   0.00000,274640135.82653,   0.00000,   0.00000,   0.00000,-414551257.93181,   0.00000
-59310707.75245,-5884711.44449,13753268.12399,  -0.00026,   0.00009,   0.00018,61407008.02401,   0.00000,274640135.82653,   0.00000,   0.00000,   0.00000,-413233127.80252,   0.00000
-60528162.24930,-6024624.74001,14099918.97558,  -0.00026,   0.00009,   0.00018,62703414.66089,   0.00000,274640135.82653,   0.00000,   0.00000,   0.00000,-411936721.16564,   0.00000
-61716381.13217,-6152008.48668,14446569.82718,  -0.00027,   0.00009,   0.00019,63978038.00753,   0.00000,274640135.82653,   0.00000,   0.00000,   0.00000,-410662097.81899,   0.00000
-62910864.78946,-6294010.04035,14793220.67877,  -0.00027,   0.00009,   0.00019,65252953.88307,   0.00000,274640135.82653,   0.00000,   0.00000,   0.00000,-409387181.94346,   0.00000
-64090730.63976,-6429746.81958,15139871.53036,  -0.00028,   0.00010,   0.00020,66517090.70963,   0.00000,274640135.82653,   0.00000,   0.00000,   0.00000,-408123045.11690,   0.00000
-65241360.87607,-6552954.04997,15486522.38195,  -0.00028,   0.00010,   0.00020,67759500.16215,   0.00000,274640135.82653,   0.00000,   0.00000,   0.00000,-406880635.66438,   0.00000
-66398255.88680,-6690779.08735,15828996.71726,  -0.00029,   0.00010,   0.00021,68999349.69915,   0.00000,274640135.82653,   0.00000,   0.00000,   0.00000,-405640786.12738,   0.00000
-67525915.28354,-6816074.57587,16175647.56885,  -0.00029,   0.00010,   0.00021,70220375.64655,   0.00000,274640135.82653,   0.00000,   0.00000,   0.00000,-404419760.17998,   0.00000
-68638956.87329,-6935105.28998,16518121.90416,  -0.00030,   0.00010,   0.00021,71427786.93792,   0.00000,274640135.82653,   0.00000,   0.00000,   0.00000,-403212348.88861,   0.00000
-69743645.43047,-7062489.03664,16860596.23946,  -0.00030,   0.00010,   0.00022,72624584.09345,   0.00000,274640135.82653,   0.00000,   0.00000,   0.00000,-402015551.73308,   0.00000
-70833716.18066,-7183608.00889,17203070.57477,  -0.00031,   0.00011,   0.00022,73810668.82731,   0.00000,274640135.82653,   0.00000,   0.00000,   0.00000,-400829466.99922,   0.00000
-71900816.09128,-7306815.23927,17545544.91008,  -0.00031,   0.00011,   0.00023,74975258.34151,   0.00000,274640135.82653,   0.00000,   0.00000,   0.00000,-399664877.48502,   0.00000
-72967916.00190,-7430022.46966,17888019.24539,  -0.00032,   0.00011,   0.00023,76140084.32930,   0.00000,274640135.82653,   0.00000,   0.00000,   0.00000,-398500051.49723,   0.00000
-74005780.29854,-7540700.15119,18230493.58069,  -0.00032,   0.00011,   0.00024,77283342.10078,   0.00000,274640135.82653,   0.00000,   0.00000,   0.00000,-397356793.72575,   0.00000
-75035291.56260,-7659730.86529,18572967.91600,  -0.00033,   0.00011,   0.00024,78416080.81045,   0.00000,274640135.82653,   0.00000,   0.00000,   0.00000,-396224055.01608,   0.00000
-76050185.01967,-7772496.80497,18911265.73503,  -0.00033,   0.00011,   0.00025,79535215.11337,   0.00000,274640135.82653,   0.00000,   0.00000,   0.00000,-395104920.71316,   0.00000
-77035842.86275,-7872733.19579,19249563.55405,  -0.00034,   0.00011,   0.00025,80632843.60135,   0.00000,274640135.82653,   0.00000,   0.00000,   0.00000,-394007292.22518,   0.00000
-78027765.48026,-7987587.39360,19587861.37307,  -0.00034,   0.00012,   0.00025,81730857.58649,   0.00000,274640135.82653,   0.00000,   0.00000,   0.00000,-392909278.24004,   0.00000
-78990452.48377,-8089912.04257,19926159.19209,  -0.00034,   0.00012,   0.00026,82807414.57199,   0.00000,274640135.82653,   0.00000,   0.00000,   0.00000,-391832721.25454,   0.00000
-79938521.68030,-8185971.91710,20264457.01112,  -0.00035,   0.00012,   0.00026,83873401.89211,   0.00000,274640135.82653,   0.00000,   0.00000,   0.00000,-390766733.93442,   0.00000
-80878237.84425,-8290384.82421,20602754.83014,  -0.00035,   0.00012,   0.00027,84928962.32419,   0.00000,274640135.82653,   0.00000,   0.00000,   0.00000,-389711173.50234,   0.00000
-81803336.20121,-8388532.95689,20936876.13288,  -0.00036,   0.00012,   0.00027,85970934.99387,   0.00000,274640135.82653,   0.00000,   0.00000,   0.00000,-388669200.83266,   0.00000
-82720081.52560,-8495034.12214,21270997.43562,  -0.00036,   0.00012,   0.00028,87002491.76265,   0.00000,274640135.82653,   0.00000,   0.00000,   0.00000,-387637644.06388,   0.00000
-83601326.46157,-8574387.93154,21605118.73836,  -0.00036,   0.00012,   0.00028,88012585.33277,   0.00000,274640135.82653,   0.00000,   0.00000,   0.00000,-386627550.49376,   0.00000
-84474218.36498,-8662094.77351,21939240.04110,  -0.00037,   0.00013,   0.00029,89012316.72969,   0.00000,274640135.82653,   0.00000,   0.00000,   0.00000,-385627819.09684,   0.00000
-85338757.23581,-8758154.64804,22269184.82755,  -0.00037,   0.00013,   0.00029,89998602.79304,   0.00000,274640135.82653,   0.00000,   0.00000,   0.00000,-384641533.03349,   0.00000
-86188678.29966,-8847949.74816,22599129.61401,  -0.00037,   0.00013,   0.00029,90974410.49693,   0.00000,274640135.82653,   0.00000,   0.00000,   0.00000,-383665725.32960,   0.00000
-87009363.74951,-8925215.29941,22929074.40046,  -0.00038,   0.00013,   0.00030,91928988.36761,   0.00000,274640135.82653,   0.00000,   0.00000,   0.00000,-382711147.45892,   0.00000
-87815431.39237,-8996216.07625,23259019.18692,  -0.00038,   0.00013,   0.00030,92873145.84580,   0.00000,274640135.82653,   0.00000,   0.00000,   0.00000,-381766989.98073,   0.00000
-88627763.80965,-9081834.66007,23584787.45709,  -0.00039,   0.00013,   0.00031,93814626.46980,   0.00000,274640135.82653,   0.00000,   0.00000,   0.00000,-380825509.35673,   0.00000
-89396242.80595,-9148658.92062,23910555.72726,  -0.00039,   0.00013,   0.00031,94724202.18301,   0.00000,274640135.82653,   0.00000,   0.00000,   0.00000,-379915933.64352,   0.00000
-90164721.80225,-9215483.18117,24236323.99743,  -0.00039,   0.00013,   0.00032,95634140.94015,   0.00000,274640135.82653,   0.00000,   0.00000,   0.00000,-379005994.88638,   0.00000
-90903965.18456,-9269777.89286,24562092.26760,  -0.00040,   0.00014,   0.00032,96522998.45790,   0.00000,274640135.82653,   0.00000,   0.00000,   0.00000,-378117137.36863,   0.00000
-91649473.34130,-9338690.41155,24883684.02148,  -0.00040,   0.00014,   0.00032,97409158.89108,   0.00000,274640135.82653,   0.00000,   0.00000,   0.00000,-377230976.93545,   0.00000
-92365745.88404,-9395073.38139,25205275.77537,  -0.00040,   0.00014,   0.00033,98274275.55972,   0.00000,274640135.82653,   0.00000,   0.00000,   0.00000,-376365860.26681,   0.00000
-93059047.58723,-9453544.60937,25526867.52926,  -0.00040,   0.00014,   0.00033,99118519.37665,   0.00000,274640135.82653,   0.00000,   0.00000,   0.00000,-375521616.44987,   0.00000
-93752349.29041,-9512015.83735,25844282.76686,  -0.00041,   0.00014,   0.00034,99959934.30731,   0.00000,274640135.82653,   0.00000,   0.00000,   0.00000,-374680201.51922,   0.00000
-94416415.37960,-9557957.51648,26165874.52074,  -0.00041,   0.00014,   0.00034,100783654.06290,   0.00000,274640135.82653,   0.00000,   0.00000,   0.00000,-373856481.76363,   0.00000
-95065863.66180,-9597634.42118,26479113.24206,  -0.00041,   0.00014,   0.00034,101590629.14042,   0.00000,274640135.82653,   0.00000,   0.00000,   0.00000,-373049506.68611,   0.00000
-95706958.91143,-9645664.35845,26796528.47966,  -0.00042,   0.00014,   0.00035,102390748.79230,   0.00000,274640135.82653,   0.00000,   0.00000,   0.00000,-372249387.03423,   0.00000
-96312553.77265,-9666546.93987,27109767.20098,  -0.00042,   0.00014,   0.00035,103166655.24811,   0.00000,274640135.82653,   0.00000,   0.00000,   0.00000,-371473480.57842,   0.00000
-96916060.37572,-9710400.36085,27423005.92230,  -0.00042,   0.00014,   0.00036,103932596.65628,   0.00000,274640135.82653,   0.00000,   0.00000,   0.00000,-370707539.17025,   0.00000
-97513302.20437,-9739635.97484,27732068.12733,  -0.00042,   0.00015,   0.00036,104695574.67918,   0.00000,274640135.82653,   0.00000,   0.00000,   0.00000,-369944561.14735,   0.00000
-98072955.38645,-9764695.07255,28041130.33237,  -0.00043,   0.00015,   0.00036,105427303.45993,   0.00000,274640135.82653,   0.00000,   0.00000,   0.00000,-369212832.36660,   0.00000
-98632608.56854,-9789754.17025,28350192.53740,  -0.00043,   0.00015,   0.00037,106159512.14759,   0.00000,274640135.82653,   0.00000,   0.00000,   0.00000,-368480623.67893,   0.00000
-99163026.13664,-9802283.71910,28655078.22615,  -0.00043,   0.00015,   0.00037,106867707.59443,   0.00000,274640135.82653,   0.00000,   0.00000,   0.00000,-367772428.23209,   0.00000
-99685090.67217,-9823166.30053,28959963.91490,  -0.00043,   0.00015,   0.00038,107565920.27677,   0.00000,274640135.82653,   0.00000,   0.00000,   0.00000,-367074215.54976,   0.00000
-100186272.62628,-9823166.30053,29260673.08736,  -0.00044,   0.00015,   0.00038,108250627.57533,   0.00000,274640135.82653,   0.00000,   0.00000,   0.00000,-366389508.25120,   0.00000
-100664483.74082,-9825254.55867,29561382.25983,  -0.00044,   0.00015,   0.00038,108914855.27472,   0.00000,274640135.82653,   0.00000,   0.00000,   0.00000,-365725280.55181,   0.00000
-101148959.62979,-9841960.62380,29862091.43229,  -0.00044,   0.00015,   0.00039,109579677.21903,   0.00000,274640135.82653,   0.00000,   0.00000,   0.00000,-365060458.60750,   0.00000
-101597935.13035,-9831519.33309,30158624.08848,  -0.00044,   0.00015,   0.00039,110220528.72510,   0.00000,274640135.82653,   0.00000,   0.00000,   0.00000,-364419607.10143,   0.00000
-102023939.79134,-9823166.30053,30455156.74466,  -0.00045,   0.00015,   0.00040,110841014.41495,   0.00000,274640135.82653,   0.00000,   0.00000,   0.00000,-363799121.41158,   0.00000
-102449944.45233,-9814813.26796,30751689.40084,  -0.00045,   0.00016,   0.00040,111462073.40022,   0.00000,274640135.82653,   0.00000,   0.00000,   0.00000,-363178062.42631,   0.00000
-102846713.49934,-9793930.68654,31044045.54073,  -0.00045,   0.00016,   0.00040,112059324.74882,   0.00000,274640135.82653,   0.00000,   0.00000,   0.00000,-362580811.07771,   0.00000
-103235129.51377,-9781401.13768,31332225.16435,  -0.00045,   0.00016,   0.00041,112643280.14540,   0.00000,274640135.82653,   0.00000,   0.00000,   0.00000,-361996855.68113,   0.00000
-103588045.13979,-9741724.23298,31620404.78796,  -0.00045,   0.00016,   0.00041,113206926.08755,   0.00000,274640135.82653,   0.00000,   0.00000,   0.00000,-361433209.73898,   0.00000
-103947225.54023,-9716665.13528,31908584.41157,  -0.00045,   0.00016,   0.00041,113771227.35559,   0.00000,274640135.82653,   0.00000,   0.00000,   0.00000,-360868908.47093,   0.00000
-104283435.10111,-9693694.29571,32192587.51890,  -0.00046,   0.00016,   0.00042,114311849.25062,   0.00000,274640135.82653,   0.00000,   0.00000,   0.00000,-360328286.57591,   0.00000
-104598762.08057,-9649840.87473,32476590.62623,  -0.00046,   0.00016,   0.00042,114842700.52570,   0.00000,274640135.82653,   0.00000,   0.00000,   0.00000,-359797435.30083,   0.00000
-104891118.22047,-9608075.71189,32756417.21727,  -0.00046,   0.00016,   0.00043,115349939.75636,   0.00000,274640135.82653,   0.00000,   0.00000,   0.00000,-359290196.07017,   0.00000
-105183474.36037,-9566310.54904,33036243.80831,  -0.00046,   0.00016,   0.00043,115857843.97514,   0.00000,274640135.82653,   0.00000,   0.00000,   0.00000,-358782291.85139,   0.00000
-105446594.88627,-9512015.83735,33311893.88307,  -0.00046,   0.00016,   0.00043,116342167.59232,   0.00000,274640135.82653,   0.00000,   0.00000,   0.00000,-358297968.23421,   0.00000
-105680479.79819,-9445191.57680,33587543.95783,  -0.00046,   0.00016,   0.00044,116806559.76457,   0.00000,274640135.82653,   0.00000,   0.00000,   0.00000,-357833576.06196,   0.00000
-105920629.48453,-9392985.12325,33859017.51631,  -0.00046,   0.00016,   0.00044,117268052.87222,   0.00000,274640135.82653,   0.00000,   0.00000,   0.00000,-357372082.95431,   0.00000
-106125278.78246,-9313631.31385,34130491.07478,  -0.00046,   0.00016,   0.00044,117709719.51485,   0.00000,274640135.82653,   0.00000,   0.00000,   0.00000,-356930416.31168,   0.00000
-106321575.04782,-9242630.53702,34397788.11698,  -0.00047,   0.00017,   0.00045,118138207.13738,   0.00000,274640135.82653,   0.00000,   0.00000,   0.00000,-356501928.68915,   0.00000
-106503253.50619,-9165364.98576,34660908.64288,  -0.00047,   0.00017,   0.00045,118553538.52172,   0.00000,274640135.82653,   0.00000,   0.00000,   0.00000,-356086597.30481,   0.00000
-106661961.12499,-9090187.69264,34928205.68507,  -0.00047,   0.00017,   0.00045,118952792.62868,   0.00000,274640135.82653,   0.00000,   0.00000,   0.00000,-355687343.19785,   0.00000
-106799786.16237,-8994127.81810,35187149.69470,  -0.00047,   0.00017,   0.00046,119335343.64452,   0.00000,274640135.82653,   0.00000,   0.00000,   0.00000,-355304792.18201,   0.00000
-106929258.16718,-8906420.97614,35446093.70432,  -0.00047,   0.00017,   0.00046,119708438.61470,   0.00000,274640135.82653,   0.00000,   0.00000,   0.00000,-354931697.21182,   0.00000
-107029494.55800,-8806184.58531,35705037.71394,  -0.00047,   0.00017,   0.00046,120062022.56169,   0.00000,274640135.82653,   0.00000,   0.00000,   0.00000,-354578113.26484,   0.00000
-107129730.94882,-8705948.19449,35959805.20728,  -0.00047,   0.00017,   0.00047,120412747.12853,   0.00000,274640135.82653,   0.00000,   0.00000,   0.00000,-354227388.69800,   0.00000
-107206996.50008,-8607800.06181,36210396.18433,  -0.00047,   0.00017,   0.00047,120740201.69294,   0.00000,274640135.82653,   0.00000,   0.00000,   0.00000,-353899934.13359,   0.00000
-107248761.66292,-8482504.57329,36460987.16139,  -0.00047,   0.00017,   0.00047,121048429.99862,   0.00000,274640135.82653,   0.00000,   0.00000,   0.00000,-353591705.82791,   0.00000
-107296791.60019,-8371826.89175,36707401.62216,  -0.00047,   0.00017,   0.00048,121353693.01935,   0.00000,274640135.82653,   0.00000,   0.00000,   0.00000,-353286442.80718,   0.00000
-107315585.92347,-8248619.66137,36953816.08293,  -0.00047,   0.00017,   0.00048,121639725.52447,   0.00000,274640135.82653,   0.00000,   0.00000,   0.00000,-353000410.30206,   0.00000
-107319762.43975,-8119147.65656,37196054.02741,  -0.00047,   0.00017,   0.00048,121912863.45874,   0.00000,274640135.82653,   0.00000,   0.00000,   0.00000,-352727272.36779,   0.00000
-107294703.34205,-7977146.10289,37434115.45562,  -0.00047,   0.00017,   0.00049,122163094.67434,   0.00000,274640135.82653,   0.00000,   0.00000,   0.00000,-352477041.15219,   0.00000
-107269644.24434,-7835144.54923,37672176.88382,  -0.00047,   0.00017,   0.00049,122414344.05948,   0.00000,274640135.82653,   0.00000,   0.00000,   0.00000,-352225791.76705,   0.00000
-107221614.30707,-7695231.25371,37906061.79573,  -0.00047,   0.00017,   0.00049,122642588.86602,   0.00000,274640135.82653,   0.00000,   0.00000,   0.00000,-351997546.96051,   0.00000
-107144348.75582,-7542788.40933,38139946.70765,  -0.00047,   0.00017,   0.00050,122851962.05174,   0.00000,274640135.82653,   0.00000,   0.00000,   0.00000,-351788173.77479,   0.00000
-107060818.43013,-7375727.75796,38369655.10329,  -0.00047,   0.00018,   0.00050,123058766.65577,   0.00000,274640135.82653,   0.00000,   0.00000,   0.00000,-351581369.17076,   0.00000
-106954317.26488,-7210755.36474,38595186.98263,  -0.00047,   0.00018,   0.00050,123242707.41996,   0.00000,274640135.82653,   0.00000,   0.00000,   0.00000,-351397428.40657,   0.00000
-106839463.06707,-7054136.00408,38820718.86198,  -0.00047,   0.00018,   0.00050,123417649.62528,   0.00000,274640135.82653,   0.00000,   0.00000,   0.00000,-351222486.20125,   0.00000
-106703726.28783,-6876634.06200,39042074.22505,  -0.00047,   0.00018,   0.00051,123580182.47429,   0.00000,274640135.82653,   0.00000,   0.00000,   0.00000,-351059953.35223,   0.00000
-106545018.66903,-6701220.37806,39259253.07183,  -0.00047,   0.00018,   0.00051,123719976.40934,   0.00000,274640135.82653,   0.00000,   0.00000,   0.00000,-350920159.41719,   0.00000
-106365428.46881,-6504924.11270,39476431.91861,  -0.00047,   0.00018,   0.00051,123851465.07706,   0.00000,274640135.82653,   0.00000,   0.00000,   0.00000,-350788670.74947,   0.00000
-106177485.23601,-6316980.87991,39689434.24910,  -0.00047,   0.00018,   0.00052,123970137.72442,   0.00000,274640135.82653,   0.00000,   0.00000,   0.00000,-350669998.10211,   0.00000
-105960306.38923,-6116508.09827,39898260.06332,  -0.00047,   0.00018,   0.00052,124066532.94717,   0.00000,274640135.82653,   0.00000,   0.00000,   0.00000,-350573602.87936,   0.00000
-105743127.54245,-5916035.31662,40107085.87753,  -0.00047,   0.00018,   0.00052,124164259.88205,   0.00000,274640135.82653,   0.00000,   0.00000,   0.00000,-350475875.94448,   0.00000
-105496713.08168,-5703032.98613,40311735.17546,  -0.00047,   0.00018,   0.00052,124239839.82691,   0.00000,274640135.82653,   0.00000,   0.00000,   0.00000,-350400295.99962,   0.00000
-105227327.78135,-5492118.91377,40512207.95710,  -0.00047,   0.00018,   0.00053,124293000.06714,   0.00000,274640135.82653,   0.00000,   0.00000,   0.00000,-350347135.75939,   0.00000
-104951677.70659,-5266587.03442,40712680.73874,  -0.00047,   0.00018,   0.00053,124347985.77449,   0.00000,274640135.82653,   0.00000,   0.00000,   0.00000,-350292150.05204,   0.00000
-104653056.79227,-5043143.41322,40908977.00410,  -0.00047,   0.00018,   0.00053,124380659.33248,   0.00000,274640135.82653,   0.00000,   0.00000,   0.00000,-350259476.49405,   0.00000
-104339818.07095,-4813435.01758,41101096.75318,  -0.00047,   0.00018,   0.00053,124401102.57011,   0.00000,274640135.82653,   0.00000,   0.00000,   0.00000,-350239033.25642,   0.00000
-104005696.76821,-4562844.04053,41293216.50225,  -0.00046,   0.00018,   0.00054,124413953.87819,   0.00000,274640135.82653,   0.00000,   0.00000,   0.00000,-350226181.94834,   0.00000
-103654869.40034,-4328959.12861,41476983.21876,  -0.00046,   0.00018,   0.00054,124400058.50163,   0.00000,274640135.82653,   0.00000,   0.00000,   0.00000,-350240077.32490,   0.00000
-103283159.45104,-4074191.63527,41660749.93526,  -0.00046,   0.00018,   0.00054,124378731.84301,   0.00000,274640135.82653,   0.00000,   0.00000,   0.00000,-350261403.98352,   0.00000
-102896831.69475,-3813159.36751,41844516.65177,  -0.00046,   0.00018,   0.00054,124349615.44362,   0.00000,274640135.82653,   0.00000,   0.00000,   0.00000,-350290520.38291,   0.00000
-102495886.13146,-3545862.32532,42019930.33571,  -0.00046,   0.00018,   0.00055,124304332.78299,   0.00000,274640135.82653,   0.00000,   0.00000,   0.00000,-350335803.04354,   0.00000
-102071969.72861,-3280653.54127,42195344.01965,  -0.00046,   0.00018,   0.00055,124241410.54331,   0.00000,274640135.82653,   0.00000,   0.00000,   0.00000,-350398725.28322,   0.00000
-101627170.74434,-2994562.17580,42366581.18730,  -0.00046,   0.00018,   0.00055,124167233.83840,   0.00000,274640135.82653,   0.00000,   0.00000,   0.00000,-350472901.98813,   0.00000
-101174018.72750,-2716823.84290,42537818.35495,  -0.00046,   0.00018,   0.00055,124085007.88614,   0.00000,274640135.82653,   0.00000,   0.00000,   0.00000,-350555127.94039,   0.00000
-100691631.09667,-2426555.96114,42700702.49004,  -0.00045,   0.00019,   0.00056,123977452.98438,   0.00000,274640135.82653,   0.00000,   0.00000,   0.00000,-350662682.84215,   0.00000
-100209243.46584,-2136288.07939,42863586.62512,  -0.00045,   0.00019,   0.00056,123871875.60380,   0.00000,274640135.82653,   0.00000,   0.00000,   0.00000,-350768260.22273,   0.00000
-99697620.22102,-1833490.64878,43022294.24393,  -0.00045,   0.00019,   0.00056,123745448.06718,   0.00000,274640135.82653,   0.00000,   0.00000,   0.00000,-350894687.75935,   0.00000
-99156761.36221,-1518163.66932,43176825.34644,  -0.00045,   0.00019,   0.00056,123598328.03519,   0.00000,274640135.82653,   0.00000,   0.00000,   0.00000,-351041807.79134,   0.00000
-98615902.50340,-1202836.68986,43331356.44896,  -0.00045,   0.00019,   0.00056,123453406.48216,   0.00000,274640135.82653,   0.00000,   0.00000,   0.00000,-351186729.34437,   0.00000
-98045808.03061,-874980.16155,43477534.51891,  -0.00044,   0.00019,   0.00057,123283599.67666,   0.00000,274640135.82653,   0.00000,   0.00000,   0.00000,-351356536.14986,   0.00000
-97467360.52524,-555476.66580,43623712.58886,  -0.00044,   0.00019,   0.00057,123106210.15099,   0.00000,274640135.82653,   0.00000,   0.00000,   0.00000,-351533925.67554,   0.00000
-96868030.43845,-215090.58864,43765714.14252,  -0.00044,   0.00019,   0.00057,122918425.74046,   0.00000,274640135.82653,   0.00000,   0.00000,   0.00000,-351721710.08607,   0.00000
-96260347.31909,116942.45596,43907715.69618,  -0.00044,   0.00019,   0.00057,122723215.22812,   0.00000,274640135.82653,   0.00000,   0.00000,   0.00000,-351916920.59841,   0.00000
-95617163.81132,476122.85640,44041364.21728,  -0.00044,   0.00019,   0.00057,122504365.27654,   0.00000,274640135.82653,   0.00000,   0.00000,   0.00000,-352135770.54999,   0.00000
-94965627.27098,826950.22428,44175012.73837,  -0.00043,   0.00019,   0.00057,122278294.50774,   0.00000,274640135.82653,   0.00000,   0.00000,   0.00000,-352361841.31879,   0.00000
-94299472.92364,1184042.36658,44300308.22690,  -0.00043,   0.00019,   0.00058,122036875.77157,   0.00000,274640135.82653,   0.00000,   0.00000,   0.00000,-352603260.05496,   0.00000
-93618700.76931,1547399.28331,44425603.71543,  -0.00043,   0.00019,   0.00058,121789260.13895,   0.00000,274640135.82653,   0.00000,   0.00000,   0.00000,-352850875.68758,   0.00000
-92908693.00099,1923285.74889,44550899.20396,  -0.00043,   0.00019,   0.00058,121526795.76153,   0.00000,274640135.82653,   0.00000,   0.00000,   0.00000,-353113340.06500,   0.00000
-92184067.42568,2305436.98890,44667841.65991,  -0.00042,   0.00019,   0.00058,121249289.15811,   0.00000,274640135.82653,   0.00000,   0.00000,   0.00000,-353390846.66842,   0.00000
-91444824.04337,2693853.00333,44780607.59959,  -0.00042,   0.00019,   0.00058,120961399.02126,   0.00000,274640135.82653,   0.00000,   0.00000,   0.00000,-353678736.80527,   0.00000
-90690962.85406,3088533.79219,44893373.53926,  -0.00042,   0.00019,   0.00058,120667878.29001,   0.00000,274640135.82653,   0.00000,   0.00000,   0.00000,-353972257.53652,   0.00000
-89907866.05077,3495744.12991,45001962.96265,  -0.00042,   0.00019,   0.00059,120355596.09457,   0.00000,274640135.82653,   0.00000,   0.00000,   0.00000,-354284539.73195,   0.00000
-89131034.02190,3888336.66062,45106375.86976,  -0.00041,   0.00019,   0.00059,120040773.43677,   0.00000,274640135.82653,   0.00000,   0.00000,   0.00000,-354599362.38976,   0.00000
-88318701.60462,4308076.54719,45206612.26058,  -0.00041,   0.00019,   0.00059,119708603.19943,   0.00000,274640135.82653,   0.00000,   0.00000,   0.00000,-354931532.62710,   0.00000
-87477133.57334,4740345.98261,45302672.13512,  -0.00041,   0.00019,   0.00059,119358233.75324,   0.00000,274640135.82653,   0.00000,   0.00000,   0.00000,-355281902.07328,   0.00000
-86641830.31650,5157997.61103,45394555.49337,  -0.00040,   0.00019,   0.00059,119005491.71806,   0.00000,274640135.82653,   0.00000,   0.00000,   0.00000,-355634644.10846,   0.00000
-85785644.47823,5596531.82088,45486438.85163,  -0.00040,   0.00019,   0.00059,118649266.38742,   0.00000,274640135.82653,   0.00000,   0.00000,   0.00000,-355990869.43911,   0.00000
-84906487.80040,6032977.77258,45569969.17731,  -0.00040,   0.00019,   0.00059,118269242.48305,   0.00000,274640135.82653,   0.00000,   0.00000,   0.00000,-356370893.34348,   0.00000
-84012713.31557,6475688.49871,45653499.50299,  -0.00039,   0.00019,   0.00059,117884845.30316,   0.00000,274640135.82653,   0.00000,   0.00000,   0.00000,-356755290.52337,   0.00000
-83098056.24932,6939281.80626,45732853.31240,  -0.00039,   0.00019,   0.00059,117492821.18729,   0.00000,274640135.82653,   0.00000,   0.00000,   0.00000,-357147314.63924,   0.00000
-82160428.34351,7400786.85567,45803854.08923,  -0.00039,   0.00019,   0.00060,117077489.71555,   0.00000,274640135.82653,   0.00000,   0.00000,   0.00000,-357562646.11098,   0.00000
-81222800.43770,7862291.90508,45874854.86606,  -0.00038,   0.00019,   0.00060,116666461.49720,   0.00000,274640135.82653,   0.00000,   0.00000,   0.00000,-357973674.32933,   0.00000
-80255936.91790,8336326.50334,45941679.12661,  -0.00038,   0.00019,   0.00060,116238819.19150,   0.00000,274640135.82653,   0.00000,   0.00000,   0.00000,-358401316.63503,   0.00000
-79274455.59110,8816625.87602,46008503.38715,  -0.00038,   0.00019,   0.00060,115807826.02809,   0.00000,274640135.82653,   0.00000,   0.00000,   0.00000,-358832309.79844,   0.00000
-78272091.68289,9317807.83013,46066974.61513,  -0.00037,   0.00020,   0.00060,115365352.85133,   0.00000,274640135.82653,   0.00000,   0.00000,   0.00000,-359274782.97520,   0.00000
-77261374.74210,9810636.75167,46121269.32683,  -0.00037,   0.00020,   0.00060,114913299.29993,   0.00000,274640135.82653,   0.00000,   0.00000,   0.00000,-359726836.52660,   0.00000
-76221422.18733,10315995.22207,46175564.03852,  -0.00037,   0.00020,   0.00060,114450744.54809,   0.00000,274640135.82653,   0.00000,   0.00000,   0.00000,-360189391.27844,   0.00000
-75181469.63255,10821353.69246,46221505.71765,  -0.00036,   0.00020,   0.00060,113983345.79350,   0.00000,274640135.82653,   0.00000,   0.00000,   0.00000,-360656790.03303,   0.00000
-74112281.46379,11339241.71170,46267447.39678,  -0.00036,   0.00020,   0.00060,113506016.60497,   0.00000,274640135.82653,   0.00000,   0.00000,   0.00000,-361134119.22156,   0.00000
-73028475.48803,11863394.50538,46305036.04334,  -0.00036,   0.00020,   0.00060,113016516.77989,   0.00000,274640135.82653,   0.00000,   0.00000,   0.00000,-361623619.04664,   0.00000
-71930051.70527,12393812.07347,46342624.68989,  -0.00035,   0.00020,   0.00060,112525299.59414,   0.00000,274640135.82653,   0.00000,   0.00000,   0.00000,-362114836.23239,   0.00000
-70808657.08295,12922141.38343,46376036.82017,  -0.00035,   0.00020,   0.00060,112018112.40714,   0.00000,274640135.82653,   0.00000,   0.00000,   0.00000,-362622023.41939,   0.00000
-69680997.68621,13465088.50038,46405272.43416,  -0.00034,   0.00020,   0.00060,111513939.83074,   0.00000,274640135.82653,   0.00000,   0.00000,   0.00000,-363126195.99579,   0.00000
-68524102.67548,14020565.16618,46426155.01558,  -0.00034,   0.00020,   0.00060,110991166.99389,   0.00000,274640135.82653,   0.00000,   0.00000,   0.00000,-363648968.83264,   0.00000
-67352589.85775,14582306.60641,46447037.59700,  -0.00033,   0.00020,   0.00060,110467882.42364,   0.00000,274640135.82653,   0.00000,   0.00000,   0.00000,-364172253.40289,   0.00000
-66181077.04002,15144048.04664,46463743.66214,  -0.00033,   0.00020,   0.00060,109946191.31735,   0.00000,274640135.82653,   0.00000,   0.00000,   0.00000,-364693944.50918,   0.00000
-64980328.60830,15718319.03573,46476273.21099,  -0.00033,   0.00020,   0.00060,109412166.18919,   0.00000,274640135.82653,   0.00000,   0.00000,   0.00000,-365227969.63734,   0.00000
-63756609.33702,16290501.76667,46484626.24356,  -0.00032,   0.00020,   0.00060,108864017.33362,   0.00000,274640135.82653,   0.00000,   0.00000,   0.00000,-365776118.49291,   0.00000
-62526625.29131,16877302.30460,46488802.75984,  -0.00032,   0.00020,   0.00060,108320493.47496,   0.00000,274640135.82653,   0.00000,   0.00000,   0.00000,-366319642.35157,   0.00000
-61282023.43861,17470367.61696,46488802.75984,  -0.00031,   0.00020,   0.00060,107772658.70951,   0.00000,274640135.82653,   0.00000,   0.00000,   0.00000,-366867477.11702,   0.00000
-60008185.97192,18075962.47818,46488802.75984,  -0.00031,   0.00020,   0.00060,107219657.09372,   0.00000,274640135.82653,   0.00000,   0.00000,   0.00000,-367420478.73281,   0.00000
-58740613.27965,18666939.53240,46480449.72727,  -0.00030,   0.00020,   0.00060,106661700.60857,   0.00000,274640135.82653,   0.00000,   0.00000,   0.00000,-367978435.21796,   0.00000
-57437540.19897,19285063.94246,46467920.17842,  -0.00030,   0.00020,   0.00060,106096532.30871,   0.00000,274640135.82653,   0.00000,   0.00000,   0.00000,-368543603.51782,   0.00000
-56119849.31129,19909453.12696,46451214.11328,  -0.00029,   0.00020,   0.00060,105528598.95633,   0.00000,274640135.82653,   0.00000,   0.00000,   0.00000,-369111536.87020,   0.00000
-54787540.61662,20540107.08588,46430331.53186,  -0.00029,   0.00020,   0.00060,104958275.59383,   0.00000,274640135.82653,   0.00000,   0.00000,   0.00000,-369681860.23270,   0.00000
-53446878.88938,21162408.01223,46405272.43416,  -0.00028,   0.00020,   0.00060,104383087.53335,   0.00000,274640135.82653,   0.00000,   0.00000,   0.00000,-370257048.29318,   0.00000
-52085334.58072,21805591.52000,46380213.33645,  -0.00028,   0.00020,   0.00060,103814690.66263,   0.00000,274640135.82653,   0.00000,   0.00000,   0.00000,-370825445.16390,   0.00000
-50694554.65807,22461304.57663,46346801.20618,  -0.00027,   0.00020,   0.00060,103233675.96841,   0.00000,274640135.82653,   0.00000,   0.00000,   0.00000,-371406459.85812,   0.00000
-49303774.73542,23117017.63325,46309212.55962,  -0.00027,   0.00020,   0.00060,102657900.04202,   0.00000,274640135.82653,   0.00000,   0.00000,   0.00000,-371982235.78451,   0.00000
-47890023.97320,23770642.43173,46267447.39678,  -0.00026,   0.00020,   0.00060,102073035.32043,   0.00000,274640135.82653,   0.00000,   0.00000,   0.00000,-372567100.50610,   0.00000
-46470008.43656,24438885.03721,46225682.23394,  -0.00026,   0.00020,   0.00060,101502891.94793,   0.00000,274640135.82653,   0.00000,   0.00000,   0.00000,-373137243.87860,   0.00000
-45020757.28593,25119657.19154,46175564.03852,  -0.00025,   0.00020,   0.00060,100922345.87233,   0.00000,274640135.82653,   0.00000,   0.00000,   0.00000,-373717789.95420,   0.00000
-43571506.13530,25800429.34587,46121269.32683,  -0.00025,   0.00020,   0.00060,100348474.42697,   0.00000,274640135.82653,   0.00000,   0.00000,   0.00000,-374291661.39956,   0.00000
-42093019.37068,26493731.04906,46062798.09885,  -0.00024,   0.00020,   0.00060,99771164.69690,   0.00000,274640135.82653,   0.00000,   0.00000,   0.00000,-374868971.12963,   0.00000
-40606179.57349,27178679.71967,46000150.35459,  -0.00024,   0.00020,   0.00060,99192773.41652,   0.00000,274640135.82653,   0.00000,   0.00000,   0.00000,-375447362.41001,   0.00000
-39098457.19488,27884510.97171,45933326.09404,  -0.00023,   0.00020,   0.00060,98620930.86137,   0.00000,274640135.82653,   0.00000,   0.00000,   0.00000,-376019204.96516,   0.00000
-37576117.00928,28596606.99817,45866501.83349,  -0.00023,   0.00020,   0.00060,98058594.33655,   0.00000,274640135.82653,   0.00000,   0.00000,   0.00000,-376581541.48998,   0.00000
-36039159.01668,29314967.79906,45791324.54037,  -0.00022,   0.00020,   0.00060,97494673.26605,   0.00000,274640135.82653,   0.00000,   0.00000,   0.00000,-377145462.56048,   0.00000
-34487583.21709,30039593.37437,45711970.73097,  -0.00022,   0.00020,   0.00059,96935629.91433,   0.00000,274640135.82653,   0.00000,   0.00000,   0.00000,-377704505.91220,   0.00000
-32921389.61050,30770483.72412,45628440.40529,  -0.00021,   0.00020,   0.00059,96382111.24034,   0.00000,274640135.82653,   0.00000,   0.00000,   0.00000,-378258024.58619,   0.00000
-31340578.19691,31507638.84828,45540733.56332,  -0.00020,   0.00020,   0.00059,95834784.95354,   0.00000,274640135.82653,   0.00000,   0.00000,   0.00000,-378805350.87299,   0.00000
-29745148.97634,32251058.74688,45448850.20507,  -0.00020,   0.00020,   0.00059,95294339.70534,   0.00000,274640135.82653,   0.00000,   0.00000,   0.00000,-379345796.12119,   0.00000
-28141366.72319,32986125.61290,45352790.33053,  -0.00019,   0.00020,   0.00059,94757176.16067,   0.00000,274640135.82653,   0.00000,   0.00000,   0.00000,-379882959.66586,   0.00000
-26516701.88862,33742075.06035,45252553.93971,  -0.00019,   0.00021,   0.00059,94232545.16411,   0.00000,274640135.82653,   0.00000,   0.00000,   0.00000,-380407590.66242,   0.00000
-24871154.47263,34518907.08922,45148141.03260,  -0.00018,   0.00021,   0.00059,93721493.04176,   0.00000,274640135.82653,   0.00000,   0.00000,   0.00000,-380918642.78477,   0.00000
-23202636.21708,35293650.85994,45039551.60921,  -0.00017,   0.00021,   0.00059,93212625.15131,   0.00000,274640135.82653,   0.00000,   0.00000,   0.00000,-381427510.67522,   0.00000
-21534117.96153,36068394.63067,44926785.66954,  -0.00017,   0.00021,   0.00058,92717833.25803,   0.00000,274640135.82653,   0.00000,   0.00000,   0.00000,-381922302.56850,   0.00000
-19850981.89898,36849403.17582,44805666.69729,  -0.00016,   0.00021,   0.00058,92228412.84966,   0.00000,274640135.82653,   0.00000,   0.00000,   0.00000,-382411722.97687,   0.00000
-18153228.02944,37636676.49540,44684547.72505,  -0.00016,   0.00021,   0.00058,91757357.70159,   0.00000,274640135.82653,   0.00000,   0.00000,   0.00000,-382882778.12494,   0.00000
-16440856.35290,38430214.58941,44559252.23652,  -0.00015,   0.00021,   0.00058,91299450.53676,   0.00000,274640135.82653,   0.00000,   0.00000,   0.00000,-383340685.28977,   0.00000
-14713866.86937,39230017.45784,44429780.23171,  -0.00014,   0.00021,   0.00058,90855564.03691,   0.00000,274640135.82653,   0.00000,   0.00000,   0.00000,-383784571.78962,   0.00000
-12965994.80441,40050702.90769,44291955.19433,  -0.00014,   0.00021,   0.00058,90425687.25364,   0.00000,274640135.82653,   0.00000,   0.00000,   0.00000,-384214448.57289,   0.00000
-11209769.70689,40863035.32497,44154130.15695,  -0.00013,   0.00021,   0.00057,90012629.32567,   0.00000,274640135.82653,   0.00000,   0.00000,   0.00000,-384627506.50086,   0.00000
-9438926.80238,41681632.51669,44007952.08701,  -0.00012,   0.00021,   0.00057,89610162.63483,   0.00000,274640135.82653,   0.00000,   0.00000,   0.00000,-385029973.19169,   0.00000
-7653466.09086,42506494.48282,43861774.01706,  -0.00012,   0.00021,   0.00057,89231526.32539,   0.00000,274640135.82653,   0.00000,   0.00000,   0.00000,-385408609.50114,   0.00000
-5847122.79793,43352239.03038,43707242.91454,  -0.00011,   0.00021,   0.00057,88871033.46259,   0.00000,274640135.82653,   0.00000,   0.00000,   0.00000,-385769102.36394,   0.00000
-4032426.47243,44189630.54537,43552711.81202,  -0.00010,   0.00021,   0.00057,88530737.40545,   0.00000,274640135.82653,   0.00000,   0.00000,   0.00000,-386109398.42108,   0.00000
-2196847.56551,45047904.64178,43389827.67694,  -0.00010,   0.00021,   0.00056,88210740.09999,   0.00000,274640135.82653,   0.00000,   0.00000,   0.00000,-386429395.72654,   0.00000
-352915.62602,45897825.70562,43222767.02557,  -0.00009,   0.00021,   0.00056,87906517.28896,   0.00000,274640135.82653,   0.00000,   0.00000,   0.00000,-386733618.53757,   0.00000
1497281.08790,46762364.57646,43055706.37420,  -0.00008,   0.00021,   0.00056,87637467.68064,   0.00000,274640135.82653,   0.00000,   0.00000,   0.00000,-387002668.14589,   0.00000
3370448.64138,47624815.18915,42880292.69026,  -0.00008,   0.00021,   0.00056,87379199.21699,   0.00000,274640135.82653,   0.00000,   0.00000,   0.00000,-387260936.60954,   0.00000
5249880.96929,48501883.60884,42700702.49004,  -0.00007,   0.00021,   0.00056,87151677.13529,   0.00000,274640135.82653,   0.00000,   0.00000,   0.00000,-387488458.69124,   0.00000
7158548.91118,49391481.57739,42516935.77353,  -0.00006,   0.00021,   0.00055,86949763.77753,   0.00000,274640135.82653,   0.00000,   0.00000,   0.00000,-387690372.04900,   0.00000
9060952.07865,50266461.73893,42328992.54074,  -0.00006,   0.00021,   0.00055,86767429.69505,   0.00000,274640135.82653,   0.00000,   0.00000,   0.00000,-387872706.13148,   0.00000
10984237.82754,51162324.48190,42136872.79167,  -0.00005,   0.00021,   0.00055,86618738.92587,   0.00000,274640135.82653,   0.00000,   0.00000,   0.00000,-388021396.90066,   0.00000
12922141.38343,52064451.99930,41940576.52631,  -0.00004,   0.00021,   0.00055,86498211.35846,   0.00000,274640135.82653,   0.00000,   0.00000,   0.00000,-388141924.46807,   0.00000
14874662.74631,52972844.29112,41740103.74466,  -0.00004,   0.00021,   0.00054,86406790.31425,   0.00000,274640135.82653,   0.00000,   0.00000,   0.00000,-388233345.51228,   0.00000
16841801.91619,53887501.35737,41531277.93045,  -0.00003,   0.00021,   0.00054,86339374.62314,   0.00000,274640135.82653,   0.00000,   0.00000,   0.00000,-388300761.20339,   0.00000
18823558.89306,54808423.19804,41322452.11624,  -0.00002,   0.00021,   0.00054,86308951.95546,   0.00000,274640135.82653,   0.00000,   0.00000,   0.00000,-388331183.87107,   0.00000
20805315.86993,55729345.03872,41109449.78574,  -0.00001,   0.00021,   0.00053,86308255.83452,   0.00000,274640135.82653,   0.00000,   0.00000,   0.00000,-388331879.99201,   0.00000
22816308.46079,56662796.42824,40888094.42268,  -0.00001,   0.00021,   0.00053,86336141.82857,   0.00000,274640135.82653,   0.00000,   0.00000,   0.00000,-388303993.99796,   0.00000
24827301.05165,57596247.81777,40666739.05962,   0.00000,   0.00021,   0.00053,86400892.66557,   0.00000,274640135.82653,   0.00000,   0.00000,   0.00000,-388239243.16096,   0.00000
26852911.44950,58535963.98172,40437030.66398,   0.00001,   0.00021,   0.00053,86493567.51766,   0.00000,274640135.82653,   0.00000,   0.00000,   0.00000,-388146568.30887,   0.00000
28893139.65435,59481944.92010,40207322.26835,   0.00002,   0.00021,   0.00052,86626678.57564,   0.00000,274640135.82653,   0.00000,   0.00000,   0.00000,-388013457.25089,   0.00000
30954250.44062,60448808.43990,39969260.84015,   0.00002,   0.00021,   0.00052,86796900.53903,   0.00000,274640135.82653,   0.00000,   0.00000,   0.00000,-387843235.28750,   0.00000
33023714.25946,61407318.92714,39731199.41195,   0.00003,   0.00022,   0.00052,87001329.80453,   0.00000,274640135.82653,   0.00000,   0.00000,   0.00000,-387638806.02200,   0.00000
35093178.07830,62365829.41437,39484784.95118,   0.00004,   0.00022,   0.00051,87232777.07640,   0.00000,274640135.82653,   0.00000,   0.00000,   0.00000,-387407358.75013,   0.00000
37198142.28556,63351487.25745,39234193.97412,   0.00005,   0.00022,   0.00051,87512976.29849,   0.00000,274640135.82653,   0.00000,   0.00000,   0.00000,-387127159.52804,   0.00000
39296841.71839,64322527.29353,38979426.48078,   0.00005,   0.00022,   0.00051,87818814.49211,   0.00000,274640135.82653,   0.00000,   0.00000,   0.00000,-386821321.33442,   0.00000
41416423.73264,65314449.91104,38720482.47116,   0.00006,   0.00022,   0.00050,88170481.89163,   0.00000,274640135.82653,   0.00000,   0.00000,   0.00000,-386469653.93490,   0.00000
43550623.55388,66312637.30297,38457361.94525,   0.00007,   0.00022,   0.00050,88560555.76455,   0.00000,274640135.82653,   0.00000,   0.00000,   0.00000,-386079580.06198,   0.00000
45678558.60070,67296206.88791,38190064.90306,   0.00008,   0.00022,   0.00050,88976174.44746,   0.00000,274640135.82653,   0.00000,   0.00000,   0.00000,-385663961.37907,   0.00000
47827376.22894,68300659.05427,37918591.34459,   0.00008,   0.00022,   0.00049,89438556.20253,   0.00000,274640135.82653,   0.00000,   0.00000,   0.00000,-385201579.62400,   0.00000
50005429.47117,69317640.76948,37642941.26983,   0.00009,   0.00022,   0.00049,89945500.07737,   0.00000,274640135.82653,   0.00000,   0.00000,   0.00000,-384694635.74916,   0.00000
52168864.90640,70328357.71027,37363114.67878,   0.00010,   0.00022,   0.00049,90480521.58818,   0.00000,274640135.82653,   0.00000,   0.00000,   0.00000,-384159614.23835,   0.00000
54355271.18120,71336986.39291,37079111.57146,   0.00011,   0.00022,   0.00048,91052190.73121,   0.00000,274640135.82653,   0.00000,   0.00000,   0.00000,-383587945.09532,   0.00000
56547942.23043,72360232.88255,36786755.43156,   0.00012,   0.00022,   0.00048,91660498.19870,   0.00000,274640135.82653,   0.00000,   0.00000,   0.00000,-382979637.62783,   0.00000
58755231.08665,73389744.14661,36494399.29166,   0.00012,   0.00022,   0.00047,92313183.71828,   0.00000,274640135.82653,   0.00000,   0.00000,   0.00000,-382326952.10825,   0.00000
60977137.74986,74425520.18510,36197866.63548,   0.00013,   0.00022,   0.00047,93005219.38815,   0.00000,274640135.82653,   0.00000,   0.00000,   0.00000,-381634916.43838,   0.00000
63219926.99450,75482178.80502,35892980.94673,   0.00014,   0.00022,   0.00047,93740380.28849,   0.00000,274640135.82653,   0.00000,   0.00000,   0.00000,-380899755.53804,   0.00000
65456451.46470,76524219.61793,35588095.25798,   0.00015,   0.00022,   0.00046,94504163.56681,   0.00000,274640135.82653,   0.00000,   0.00000,   0.00000,-380135972.25972,   0.00000
67707593.74191,77572525.20528,35274856.53667,   0.00016,   0.00022,   0.00046,95302216.16498,   0.00000,274640135.82653,   0.00000,   0.00000,   0.00000,-379337919.66155,   0.00000
69973353.82611,78627095.56705,34961617.81535,   0.00017,   0.00022,   0.00045,96143814.07740,   0.00000,274640135.82653,   0.00000,   0.00000,   0.00000,-378496321.74913,   0.00000
72259996.49173,79702548.51024,34640026.06146,   0.00017,   0.00022,   0.00045,97028303.46294,   0.00000,274640135.82653,   0.00000,   0.00000,   0.00000,-377611832.36359,   0.00000
74540374.38292,80763383.64643,34314257.79129,   0.00018,   0.00022,   0.00045,97934996.61016,   0.00000,274640135.82653,   0.00000,   0.00000,   0.00000,-376705139.21637,   0.00000
76841634.85553,81845101.36405,33988489.52112,   0.00019,   0.00022,   0.00044,98892862.89017,   0.00000,274640135.82653,   0.00000,   0.00000,   0.00000,-375747272.93636,   0.00000
79136630.55372,82912201.27467,33654368.21838,   0.00020,   0.00022,   0.00044,99867395.45755,   0.00000,274640135.82653,   0.00000,   0.00000,   0.00000,-374772740.36898,   0.00000
81467126.64033,84006448.54114,33316070.39936,   0.00021,   0.00022,   0.00043,100896450.77101,   0.00000,274640135.82653,   0.00000,   0.00000,   0.00000,-373743685.05552,   0.00000
83776740.14551,85079813.22619,32977772.58034,   0.00022,   0.00022,   0.00043,101941198.03501,   0.00000,274640135.82653,   0.00000,   0.00000,   0.00000,-372698937.79152,   0.00000
86121854.03911,86180325.26709,32631121.72874,   0.00022,   0.00022,   0.00042,103035834.19572,   0.00000,274640135.82653,   0.00000,   0.00000,   0.00000,-371604301.63081,   0.00000
88466967.93271,87280837.30798,32280294.36087,   0.00023,   0.00022,   0.00042,104158197.72441,   0.00000,274640135.82653,   0.00000,   0.00000,   0.00000,-370481938.10212,   0.00000
90826699.63330,88387614.12331,31925290.47671,   0.00024,   0.00023,   0.00042,105316555.83750,   0.00000,274640135.82653,   0.00000,   0.00000,   0.00000,-369323579.98903,   0.00000
93201049.14089,89500655.71306,31566110.07626,   0.00025,   0.00023,   0.00041,106510590.26602,   0.00000,274640135.82653,   0.00000,   0.00000,   0.00000,-368129545.56051,   0.00000
95575398.64848,90613697.30281,31202753.15953,   0.00026,   0.00023,   0.00041,107730655.51261,   0.00000,274640135.82653,   0.00000,   0.00000,   0.00000,-366909480.31392,   0.00000
97964365.96306,91733003.66698,30835219.72652,   0.00027,   0.00023,   0.00040,108985447.39981,   0.00000,274640135.82653,   0.00000,   0.00000,   0.00000,-365654688.42672,   0.00000
100353333.27765,92852310.03116,30463509.77722,   0.00028,   0.00023,   0.00040,110265046.35532,   0.00000,274640135.82653,   0.00000,   0.00000,   0.00000,-364375089.47121,   0.00000
102756918.39922,93977881.16976,30087623.31164,   0.00028,   0.00023,   0.00039,111578421.70868,   0.00000,274640135.82653,   0.00000,   0.00000,   0.00000,-363061714.11785,   0.00000
105175121.32780,95109717.08279,29707560.32978,   0.00029,   0.00023,   0.00039,112925222.24239,   0.00000,274640135.82653,   0.00000,   0.00000,   0.00000,-361714913.58414,   0.00000
107593324.25637,96241552.99582,29323320.83163,   0.00030,   0.00023,   0.00038,114295156.34073,   0.00000,274640135.82653,   0.00000,   0.00000,   0.00000,-360344979.48580,   0.00000
110026144.99194,97379653.68327,28934904.81719,   0.00031,   0.00023,   0.00038,115697570.36421,   0.00000,274640135.82653,   0.00000,   0.00000,   0.00000,-358942565.46232,   0.00000
112479848.30893,98538636.95215,28542312.28648,   0.00032,   0.00023,   0.00037,117140766.10223,   0.00000,274640135.82653,   0.00000,   0.00000,   0.00000,-357499369.72430,   0.00000
114927286.85149,99683002.41403,28145543.23947,   0.00033,   0.00023,   0.00037,118596796.05032,   0.00000,274640135.82653,   0.00000,   0.00000,   0.00000,-356043339.77621,   0.00000
117380990.16848,100841985.68290,27744597.67619,   0.00034,   0.00023,   0.00036,120082300.52772,   0.00000,274640135.82653,   0.00000,   0.00000,   0.00000,-354557835.29881,   0.00000
119857664.32503,101998880.69364,27339475.59662,   0.00035,   0.00023,   0.00036,121600265.35413,   0.00000,274640135.82653,   0.00000,   0.00000,   0.00000,-353039870.47240,   0.00000
122325985.44902,103164128.73694,26930177.00076,   0.00036,   0.00023,   0.00035,123136240.65752,   0.00000,274640135.82653,   0.00000,   0.00000,   0.00000,-351503895.16901,   0.00000
124823542.18699,104341906.32909,26516701.88862,   0.00036,   0.00023,   0.00034,124712590.34719,   0.00000,274640135.82653,   0.00000,   0.00000,   0.00000,-349927545.47934,   0.00000
127300216.34354,105498801.33983,26099050.26020,   0.00037,   0.00023,   0.00034,126288571.15417,   0.00000,274640135.82653,   0.00000,   0.00000,   0.00000,-348351564.67236,   0.00000
129812390.88851,106682843.70641,25677222.11549,   0.00038,   0.00023,   0.00033,127912822.53108,   0.00000,274640135.82653,   0.00000,   0.00000,   0.00000,-346727313.29545,   0.00000
132324565.43348,107866886.07299,25251217.45450,   0.00039,   0.00023,   0.00033,129554964.60103,   0.00000,274640135.82653,   0.00000,   0.00000,   0.00000,-345085171.22550,   0.00000
134836739.97845,109050928.43957,24821036.27722,   0.00040,   0.00023,   0.00032,131214447.69826,   0.00000,274640135.82653,   0.00000,   0.00000,   0.00000,-343425688.12827,   0.00000
137363532.33041,110241235.58058,24386678.58366,   0.00041,   0.00023,   0.00032,132901748.61841,   0.00000,274640135.82653,   0.00000,   0.00000,   0.00000,-341738387.20812,   0.00000
139904942.48937,111437807.49601,23948144.37381,   0.00042,   0.00023,   0.00031,134616561.68707,   0.00000,274640135.82653,   0.00000,   0.00000,   0.00000,-340023574.13946,   0.00000
142431734.84133,112628114.63702,23505433.64769,   0.00043,   0.00023,   0.00031,136336311.26681,   0.00000,274640135.82653,   0.00000,   0.00000,   0.00000,-338303824.55972,   0.00000
144987762.80729,113830951.32688,23062722.92156,   0.00044,   0.00024,   0.00030,138096015.28793,   0.00000,274640135.82653,   0.00000,   0.00000,   0.00000,-336544120.53860,   0.00000
147543790.77324,115033788.01674,22611659.16286,   0.00045,   0.00024,   0.00029,139868805.74494,   0.00000,274640135.82653,   0.00000,   0.00000,   0.00000,-334771330.08159,   0.00000
150099818.73919,116236624.70660,22156418.88788,   0.00046,   0.00024,   0.00029,141656390.26606,   0.00000,274640135.82653,   0.00000,   0.00000,   0.00000,-332983745.56047,   0.00000
152670464.51214,117445726.17089,21697002.09661,   0.00047,   0.00024,   0.00028,143469702.23927,   0.00000,274640135.82653,   0.00000,   0.00000,   0.00000,-331170433.58726,   0.00000
155255728.09208,118661092.40960,21237585.30535,   0.00048,   0.00024,   0.00028,145310311.91142,   0.00000,274640135.82653,   0.00000,   0.00000,   0.00000,-329329823.91511,   0.00000
157832638.63946,119884811.68088,20769815.48151,   0.00048,   0.00024,   0.00027,147159537.36226,   0.00000,274640135.82653,   0.00000,   0.00000,   0.00000,-327480598.46427,   0.00000
160432520.02640,121106442.69402,20297869.14139,   0.00049,   0.00024,   0.00026,149036782.79616,   0.00000,274640135.82653,   0.00000,   0.00000,   0.00000,-325603353.03037,   0.00000
163024048.38076,122336426.73973,19825922.80127,   0.00050,   0.00024,   0.00026,150925358.21100,   0.00000,274640135.82653,   0.00000,   0.00000,   0.00000,-323714777.61553,   0.00000
165623929.76770,123558057.75287,19345623.42859,   0.00051,   0.00024,   0.00025,152828230.72124,   0.00000,274640135.82653,   0.00000,   0.00000,   0.00000,-321811905.10529,   0.00000
168244693.73606,124800571.34743,18865324.05590,   0.00052,   0.00024,   0.00025,154764747.37405,   0.00000,274640135.82653,   0.00000,   0.00000,   0.00000,-319875388.45248,   0.00000
170859192.92999,126028467.13499,18380848.16693,   0.00053,   0.00024,   0.00024,156705082.54107,   0.00000,274640135.82653,   0.00000,   0.00000,   0.00000,-317935053.28546,   0.00000
173479956.89835,127270980.72955,17888019.24539,   0.00054,   0.00024,   0.00023,158663724.35914,   0.00000,274640135.82653,   0.00000,   0.00000,   0.00000,-315976411.46739,   0.00000
176109073.89928,128505141.29155,17395190.32385,   0.00055,   0.00024,   0.00023,160638830.18461,   0.00000,274640135.82653,   0.00000,   0.00000,   0.00000,-314001305.64192,   0.00000
178744455.67463,129753919.66053,16898184.88602,   0.00056,   0.00024,   0.00022,162633060.34644,   0.00000,274640135.82653,   0.00000,   0.00000,   0.00000,-312007075.48009,   0.00000
181394455.25698,131008962.80395,16397002.93191,   0.00057,   0.00024,   0.00021,164649878.24710,   0.00000,274640135.82653,   0.00000,   0.00000,   0.00000,-309990257.57942,   0.00000
184044454.83933,132264005.94736,15891644.46152,   0.00058,   0.00024,   0.00021,166677247.54140,   0.00000,274640135.82653,   0.00000,   0.00000,   0.00000,-307962888.28513,   0.00000
186694454.42168,133519049.09077,15382109.47484,   0.00059,   0.00024,   0.00020,168714900.44657,   0.00000,274640135.82653,   0.00000,   0.00000,   0.00000,-305925235.37996,   0.00000
189352807.03659,134765739.20162,14872574.48817,   0.00060,   0.00024,   0.00019,170767676.68598,   0.00000,274640135.82653,   0.00000,   0.00000,   0.00000,-303872459.14055,   0.00000
192017424.42594,136027047.11946,14354686.46892,   0.00061,   0.00024,   0.00019,172837081.26999,   0.00000,274640135.82653,   0.00000,   0.00000,   0.00000,-301803054.55654,   0.00000
194682041.81528,137288355.03730,13836798.44968,   0.00062,   0.00025,   0.00018,174917076.15925,   0.00000,274640135.82653,   0.00000,   0.00000,   0.00000,-299723059.66727,   0.00000
197361277.01162,138555927.72956,13310557.39786,   0.00063,   0.00025,   0.00017,177017391.10366,   0.00000,274640135.82653,   0.00000,   0.00000,   0.00000,-297622744.72287,   0.00000
200040512.20796,139823500.42183,12784316.34605,   0.00064,   0.00025,   0.00017,179127801.81996,   0.00000,274640135.82653,   0.00000,   0.00000,   0.00000,-295512334.00657,   0.00000
202719747.40430,141091073.11409,12253898.77795,   0.00065,   0.00025,   0.00016,181247108.39966,   0.00000,274640135.82653,   0.00000,   0.00000,   0.00000,-293393027.42687,   0.00000
205413600.40763,142364910.58079,11719304.69357,   0.00066,   0.00025,   0.00015,183387165.44647,   0.00000,274640135.82653,   0.00000,   0.00000,   0.00000,-291252970.38005,   0.00000
208107453.41096,143638748.04748,11180534.09290,   0.00067,   0.00025,   0.00015,185535767.62002,   0.00000,274640135.82653,   0.00000,   0.00000,   0.00000,-289104368.20651,   0.00000
210807571.18872,144927203.32117,10637586.97595,   0.00068,   0.00025,   0.00014,187700424.53784,   0.00000,274640135.82653,   0.00000,   0.00000,   0.00000,-286939711.28869,   0.00000
213516041.99905,146207305.56228,10090463.34272,   0.00069,   0.00025,   0.00013,189877654.15427,   0.00000,274640135.82653,   0.00000,   0.00000,   0.00000,-284762481.67226,   0.00000
216209895.00238,147481143.02898,9543339.70948,   0.00070,   0.00025,   0.00012,192051424.87204,   0.00000,274640135.82653,   0.00000,   0.00000,   0.00000,-282588710.95449,   0.00000
218932983.61970,148767510.04452,8992039.55996,   0.00071,   0.00025,   0.00012,194257249.15198,   0.00000,274640135.82653,   0.00000,   0.00000,   0.00000,-280382886.67455,   0.00000
221647719.20446,150062230.09264,8436562.89416,   0.00072,   0.00025,   0.00011,196466180.47528,   0.00000,274640135.82653,   0.00000,   0.00000,   0.00000,-278173955.35124,   0.00000
224370807.82178,151348597.10818,7876909.71207,   0.00073,   0.00025,   0.00010,198687159.55792,   0.00000,274640135.82653,   0.00000,   0.00000,   0.00000,-275952976.26861,   0.00000
227093896.43910,152634964.12373,7313080.01370,   0.00074,   0.00025,   0.00010,200915516.46178,   0.00000,274640135.82653,   0.00000,   0.00000,   0.00000,-273724619.36475,   0.00000
229816985.05642,153921331.13927,6745073.79904,   0.00075,   0.00025,   0.00009,203151112.73009,   0.00000,274640135.82653,   0.00000,   0.00000,   0.00000,-271489023.09644,   0.00000
232546338.44817,155222315.96181,6177067.58439,   0.00076,   0.00025,   0.00008,205401689.78775,   0.00000,274640135.82653,   0.00000,   0.00000,   0.00000,-269238446.03878,   0.00000
235284044.87249,156514947.75178,5600708.33716,   0.00077,   0.00025,   0.00007,207663536.64736,   0.00000,274640135.82653,   0.00000,   0.00000,   0.00000,-266976599.17916,   0.00000
238028016.07123,157822197.34875,5024349.08994,   0.00078,   0.00025,   0.00007,209940015.56445,   0.00000,274640135.82653,   0.00000,   0.00000,   0.00000,-264700120.26208,   0.00000
240765722.49555,159114829.13872,4443813.32643,   0.00079,   0.00025,   0.00006,212215710.10165,   0.00000,274640135.82653,   0.00000,   0.00000,   0.00000,-262424425.72488,   0.00000
243503428.91987,160407460.92869,3863277.56292,   0.00080,   0.00026,   0.00005,214498208.37816,   0.00000,274640135.82653,   0.00000,   0.00000,   0.00000,-260141927.44837,   0.00000
246262017.92561,161720975.30008,3274388.76684,   0.00081,   0.00026,   0.00004,216806564.64207,   0.00000,274640135.82653,   0.00000,   0.00000,   0.00000,-257833571.18446,   0.00000
248999724.34993,163013607.09005,2685499.97076,   0.00082,   0.00026,   0.00003,219101783.01971,   0.00000,274640135.82653,   0.00000,   0.00000,   0.00000,-255538352.80682,   0.00000
251758313.35566,164327121.46145,2092434.65840,   0.00083,   0.00026,   0.00003,221422824.25750,   0.00000,274640135.82653,   0.00000,   0.00000,   0.00000,-253217311.56903,   0.00000
254510637.58698,165626018.02584,1495192.82976,   0.00084,   0.00026,   0.00002,223742633.05877,   0.00000,274640135.82653,   0.00000,   0.00000,   0.00000,-250897502.76776,   0.00000
257283844.39971,166945797.17166,893774.48483,   0.00085,   0.00026,   0.00001,226088070.84445,   0.00000,274640135.82653,   0.00000,   0.00000,   0.00000,-248552064.98208,   0.00000
260036168.63102,168244693.73606,292356.13990,   0.00086,   0.00026,   0.00000,228419869.60717,   0.00000,274640135.82653,   0.00000,   0.00000,   0.00000,-246220266.21936,   0.00000
262809375.44375,169564472.88188,-313238.72132,   0.00087,   0.00026,  -0.00000,230777034.00642,   0.00000,274640135.82653,   0.00000,   0.00000,   0.00000,-243863101.82011,   0.00000
265561699.67507,170863369.44628,-923010.09882,   0.00088,   0.00026,  -0.00001,233120347.44614,   0.00000,274640135.82653,   0.00000,   0.00000,   0.00000,-241519788.38039,   0.00000
268334906.48780,172183148.59210,-1536957.99260,   0.00089,   0.00026,  -0.00002,235488845.47316,   0.00000,274640135.82653,   0.00000,   0.00000,   0.00000,-239151290.35337,   0.00000
271101848.52611,173488309.93092,-2150905.88638,   0.00090,   0.00026,  -0.00003,237855594.05953,   0.00000,274640135.82653,   0.00000,   0.00000,   0.00000,-236784541.76700,   0.00000
273875055.33884,174808089.07674,-2773206.81273,   0.00091,   0.00026,  -0.00004,240235115.88031,   0.00000,274640135.82653,   0.00000,   0.00000,   0.00000,-234405019.94622,   0.00000
276662879.95857,176134132.99698,-3395507.73908,   0.00092,   0.00026,  -0.00004,242632219.37335,   0.00000,274640135.82653,   0.00000,   0.00000,   0.00000,-232007916.45318,   0.00000
279429821.99688,177439294.33581,-4017808.66544,   0.00093,   0.00026,  -0.00005,245014951.63256,   0.00000,274640135.82653,   0.00000,   0.00000,   0.00000,-229625184.19397,   0.00000
282203028.80961,178759073.48163,-4648462.62436,   0.00094,   0.00026,  -0.00006,247410243.26394,   0.00000,274640135.82653,   0.00000,   0.00000,   0.00000,-227229892.56259,   0.00000
284984588.65491,180070499.59488,-5279116.58328,   0.00095,   0.00026,  -0.00007,249815713.18659,   0.00000,274640135.82653,   0.00000,   0.00000,   0.00000,-224824422.63994,   0.00000
287772413.27464,181396543.51512,-5909770.54220,   0.00096,   0.00026,  -0.00008,252233072.60885,   0.00000,274640135.82653,   0.00000,   0.00000,   0.00000,-222407063.21768,   0.00000
290539355.31295,182701704.85395,-6548777.53368,   0.00097,   0.00026,  -0.00009,254636316.85389,   0.00000,274640135.82653,   0.00000,   0.00000,   0.00000,-220003818.97264,   0.00000
293327179.93267,184027748.77419,-7187784.52517,   0.00098,   0.00027,  -0.00009,257063608.79751,   0.00000,274640135.82653,   0.00000,   0.00000,   0.00000,-217576527.02902,   0.00000
296108739.77798,185339174.88744,-7830968.03294,   0.00099,   0.00027,  -0.00010,259488763.13715,   0.00000,274640135.82653,   0.00000,   0.00000,   0.00000,-215151372.68938,   0.00000
298896564.39770,186665218.80769,-8474151.54072,   0.00100,   0.00027,  -0.00011,261925373.45609,   0.00000,274640135.82653,   0.00000,   0.00000,   0.00000,-212714762.37043,   0.00000
301678124.24301,187976644.92094,-9125688.08106,   0.00101,   0.00027,  -0.00012,264360175.87777,   0.00000,274640135.82653,   0.00000,   0.00000,   0.00000,-210279959.94876,   0.00000
304459684.08831,189288071.03419,-9773048.10511,   0.00102,   0.00027,  -0.00013,266798845.89338,   0.00000,274640135.82653,   0.00000,   0.00000,   0.00000,-207841289.93315,   0.00000
307247508.70804,190614114.95443,-10428761.16174,   0.00103,   0.00027,  -0.00014,269249582.47122,   0.00000,274640135.82653,   0.00000,   0.00000,   0.00000,-205390553.35531,   0.00000
310029068.55334,191925541.06768,-11084474.21836,   0.00104,   0.00027,  -0.00014,271697509.44655,   0.00000,274640135.82653,   0.00000,   0.00000,   0.00000,-202942626.37998,   0.00000
312816893.17307,193251584.98793,-11744363.79127,   0.00105,   0.00027,  -0.00015,274156914.15809,   0.00000,274640135.82653,   0.00000,   0.00000,   0.00000,-200483221.66844,   0.00000
315598453.01837,194563011.10118,-12404253.36418,   0.00106,   0.00027,  -0.00016,276613376.43503,   0.00000,274640135.82653,   0.00000,   0.00000,   0.00000,-198026759.39150,   0.00000
318380012.86367,195874437.21443,-13072495.96966,   0.00107,   0.00027,  -0.00017,279074886.64833,   0.00000,274640135.82653,   0.00000,   0.00000,   0.00000,-195565249.17820,   0.00000
321167837.48340,197200481.13468,-13736562.05886,   0.00108,   0.00027,  -0.00018,281546509.35217,   0.00000,274640135.82653,   0.00000,   0.00000,   0.00000,-193093626.47436,   0.00000
323949397.32870,198511907.24793,-14408981.18062,   0.00109,   0.00027,  -0.00019,284016254.55120,   0.00000,274640135.82653,   0.00000,   0.00000,   0.00000,-190623881.27533,   0.00000
326730957.17400,199823333.36118,-15081400.30238,   0.00110,   0.00027,  -0.00020,286489720.34238,   0.00000,274640135.82653,   0.00000,   0.00000,   0.00000,-188150415.48415,   0.00000
329512517.01930,201134759.47443,-15753819.42414,   0.00111,   0.00027,  -0.00020,288966811.18441,   0.00000,274640135.82653,   0.00000,   0.00000,   0.00000,-185673324.64212,   0.00000
332300341.63903,202460803.39467,-16434591.57847,   0.00112,   0.00027,  -0.00021,291455635.09585,   0.00000,274640135.82653,   0.00000,   0.00000,   0.00000,-183184500.73068,   0.00000
335081901.48433,203772229.50792,-17111187.21652,   0.00113,   0.00027,  -0.00022,293940460.41953,   0.00000,274640135.82653,   0.00000,   0.00000,   0.00000,-180699675.40700,   0.00000
337863461.32964,205083655.62117,-17796135.88713,   0.00114,   0.00027,  -0.00023,296430190.62137,   0.00000,274640135.82653,   0.00000,   0.00000,   0.00000,-178209945.20516,   0.00000
340645021.17494,206395081.73442,-18481084.55775,   0.00115,   0.00027,  -0.00024,298923325.76582,   0.00000,274640135.82653,   0.00000,   0.00000,   0.00000,-175716810.06071,   0.00000
343426581.02024,207706507.84767,-19166033.22836,   0.00116,   0.00028,  -0.00025,301419781.36293,   0.00000,274640135.82653,   0.00000,   0.00000,   0.00000,-173220354.46360,   0.00000
346208140.86554,209017933.96092,-19855158.41526,   0.00117,   0.00028,  -0.00026,303920294.06044,   0.00000,274640135.82653,   0.00000,   0.00000,   0.00000,-170719841.76609,   0.00000
348975082.90385,210323095.29975,-20548460.11845,   0.00118,   0.00028,  -0.00027,306412484.93674,   0.00000,274640135.82653,   0.00000,   0.00000,   0.00000,-168227650.88979,   0.00000
351756642.74915,211634521.41300,-21241761.82163,   0.00119,   0.00028,  -0.00028,308920208.08886,   0.00000,274640135.82653,   0.00000,   0.00000,   0.00000,-165719927.73767,   0.00000
354517320.01303,212925064.94483,-21939240.04110,   0.00120,   0.00028,  -0.00029,311412878.41687,   0.00000,274640135.82653,   0.00000,   0.00000,   0.00000,-163227257.40966,   0.00000
357298879.85833,214236491.05808,-22640894.77685,   0.00121,   0.00028,  -0.00029,313928551.93173,   0.00000,274640135.82653,   0.00000,   0.00000,   0.00000,-160711583.89480,   0.00000
360065821.89664,215541652.39690,-23338372.99632,   0.00122,   0.00028,  -0.00030,316433969.02859,   0.00000,274640135.82653,   0.00000,   0.00000,   0.00000,-158206166.79794,   0.00000
362832763.93495,216846813.73573,-24044204.24835,   0.00123,   0.00028,  -0.00031,318944192.15217,   0.00000,274640135.82653,   0.00000,   0.00000,   0.00000,-155695943.67436,   0.00000
365593441.19883,218137357.26756,-24750035.50039,   0.00124,   0.00028,  -0.00032,321450737.37296,   0.00000,274640135.82653,   0.00000,   0.00000,   0.00000,-153189398.45357,   0.00000
368360383.23713,219442518.60638,-25455866.75242,   0.00125,   0.00028,  -0.00033,323966763.90473,   0.00000,274640135.82653,   0.00000,   0.00000,   0.00000,-150673371.92180,   0.00000
371121060.50102,220733062.13821,-26165874.52074,   0.00126,   0.00028,  -0.00034,326480010.30422,   0.00000,274640135.82653,   0.00000,   0.00000,   0.00000,-148160125.52231,   0.00000
373873384.73233,222031958.70261,-26880058.80535,   0.00127,   0.00028,  -0.00035,328991293.59569,   0.00000,274640135.82653,   0.00000,   0.00000,   0.00000,-145648842.23084,   0.00000
376634061.99621,223322502.23444,-27590066.57367,   0.00128,   0.00028,  -0.00036,331510076.51189,   0.00000,274640135.82653,   0.00000,   0.00000,   0.00000,-143130059.31464,   0.00000
379380121.45309,224606780.99184,-28308427.37456,   0.00129,   0.00028,  -0.00037,334021310.62354,   0.00000,274640135.82653,   0.00000,   0.00000,   0.00000,-140618825.20299,   0.00000
382126180.90998,225891059.74924,-29026788.17545,   0.00130,   0.00028,  -0.00038,336535234.92072,   0.00000,274640135.82653,   0.00000,   0.00000,   0.00000,-138104900.90581,   0.00000
384872240.36687,227175338.50664,-29745148.97634,   0.00131,   0.00028,  -0.00039,339051789.56369,   0.00000,274640135.82653,   0.00000,   0.00000,   0.00000,-135588346.26284,   0.00000
387618299.82375,228459617.26405,-30467686.29351,   0.00132,   0.00028,  -0.00040,341572033.95573,   0.00000,274640135.82653,   0.00000,   0.00000,   0.00000,-133068101.87080,   0.00000
390364359.28064,229743896.02145,-31190223.61068,   0.00133,   0.00028,  -0.00041,344094830.14614,   0.00000,274640135.82653,   0.00000,   0.00000,   0.00000,-130545305.68039,   0.00000
393095800.93053,231021910.00443,-31916937.44414,   0.00134,   0.00028,  -0.00041,346608946.15266,   0.00000,274640135.82653,   0.00000,   0.00000,   0.00000,-128031189.67387,   0.00000
395841860.38741,232306188.76183,-32643651.27760,   0.00135,   0.00029,  -0.00042,349137872.10674,   0.00000,274640135.82653,   0.00000,   0.00000,   0.00000,-125502263.71979,   0.00000
398573302.03730,233584202.74481,-33374541.62734,   0.00136,   0.00029,  -0.00043,351658086.73142,   0.00000,274640135.82653,   0.00000,   0.00000,   0.00000,-122982049.09511,   0.00000
401298478.91277,234847598.92079,-34105431.97708,   0.00137,   0.00029,  -0.00044,354174280.74941,   0.00000,274640135.82653,   0.00000,   0.00000,   0.00000,-120465855.07712,   0.00000
404015302.75567,236119348.12934,-34836322.32682,   0.00138,   0.00029,  -0.00045,356686962.98099,   0.00000,274640135.82653,   0.00000,   0.00000,   0.00000,-117953172.84553,   0.00000
406740479.63113,237382744.30532,-35571389.19285,   0.00139,   0.00029,  -0.00046,359209110.37572,   0.00000,274640135.82653,   0.00000,   0.00000,   0.00000,-115431025.45081,   0.00000
409457303.47403,238654493.51387,-36306456.05887,   0.00140,   0.00029,  -0.00047,361727662.09000,   0.00000,274640135.82653,   0.00000,   0.00000,   0.00000,-112912473.73653,   0.00000
412167862.54250,239911624.91543,-37045699.44118,   0.00141,   0.00029,  -0.00048,364243359.01040,   0.00000,274640135.82653,   0.00000,   0.00000,   0.00000,-110396776.81613,   0.00000
414878421.61097,241168756.31698,-37784942.82349,   0.00142,   0.00029,  -0.00049,366761320.87741,   0.00000,274640135.82653,   0.00000,   0.00000,   0.00000,-107878814.94912,   0.00000
417574362.87244,242419622.94411,-38524186.20580,   0.00143,   0.00029,  -0.00050,369269198.94094,   0.00000,274640135.82653,   0.00000,   0.00000,   0.00000,-105370936.88559,   0.00000
420270304.13392,243670489.57124,-39267606.10440,   0.00144,   0.00029,  -0.00051,371780580.35842,   0.00000,274640135.82653,   0.00000,   0.00000,   0.00000,-102859555.46811,   0.00000
422966245.39539,244921356.19837,-40011026.00299,   0.00145,   0.00029,  -0.00052,374294129.82705,   0.00000,274640135.82653,   0.00000,   0.00000,   0.00000,-100346005.99948,   0.00000
425662186.65687,246172222.82550,-40758622.41787,   0.00146,   0.00029,  -0.00053,376811159.17987,   0.00000,274640135.82653,   0.00000,   0.00000,   0.00000,-97828976.64666,   0.00000
428337245.33692,247402206.87120,-41506218.83275,   0.00147,   0.00029,  -0.00054,379311701.02101,   0.00000,274640135.82653,   0.00000,   0.00000,   0.00000,-95328434.80552,   0.00000
431018568.79140,248646808.72391,-42253815.24763,   0.00148,   0.00029,  -0.00055,381820645.34253,   0.00000,274640135.82653,   0.00000,   0.00000,   0.00000,-92819490.48400,   0.00000
433693627.47145,249876792.76961,-43001411.66250,   0.00149,   0.00029,  -0.00056,384325338.23818,   0.00000,274640135.82653,   0.00000,   0.00000,   0.00000,-90314797.58835,   0.00000
436368686.15151,251106776.81532,-43753184.59367,   0.00150,   0.00029,  -0.00057,386833469.10498,   0.00000,274640135.82653,   0.00000,   0.00000,   0.00000,-87806666.72155,   0.00000
439029127.02457,252330496.08660,-44504957.52483,   0.00151,   0.00029,  -0.00058,389331336.96833,   0.00000,274640135.82653,   0.00000,   0.00000,   0.00000,-85308798.85820,   0.00000
441689567.89763,253554215.35789,-45260906.97228,   0.00152,   0.00029,  -0.00059,391832632.37658,   0.00000,274640135.82653,   0.00000,   0.00000,   0.00000,-82807503.44995,   0.00000
444335390.96369,254771669.85474,-46016856.41972,   0.00152,   0.00029,  -0.00060,394323632.45982,   0.00000,274640135.82653,   0.00000,   0.00000,   0.00000,-80316503.36671,   0.00000
446995831.83675,255995389.12602,-46772805.86717,   0.00153,   0.00029,  -0.00061,396828838.58222,   0.00000,274640135.82653,   0.00000,   0.00000,   0.00000,-77811297.24431,   0.00000
449635390.12839,257198225.81588,-47528755.31462,   0.00154,   0.00029,  -0.00062,399317460.87413,   0.00000,274640135.82653,   0.00000,   0.00000,   0.00000,-75322674.95240,   0.00000
452266595.38746,258409415.53831,-48288881.27835,   0.00155,   0.00029,  -0.00063,401803435.68215,   0.00000,274640135.82653,   0.00000,   0.00000,   0.00000,-72836700.14438,   0.00000
454906153.67909,259612252.22817,-49049007.24208,   0.00156,   0.00029,  -0.00064,404297334.13332,   0.00000,274640135.82653,   0.00000,   0.00000,   0.00000,-70342801.69321,   0.00000
457516476.35674,260802559.36918,-49809133.20581,   0.00157,   0.00029,  -0.00065,406768585.77837,   0.00000,274640135.82653,   0.00000,   0.00000,   0.00000,-67871550.04815,   0.00000
460141416.84138,261999131.28461,-50573435.68583,   0.00158,   0.00029,  -0.00066,409255463.00249,   0.00000,274640135.82653,   0.00000,   0.00000,   0.00000,-65384672.82404,   0.00000
462751739.51903,263189438.42562,-51333561.64956,   0.00159,   0.00030,  -0.00067,411730356.09131,   0.00000,274640135.82653,   0.00000,   0.00000,   0.00000,-62909779.73522,   0.00000
465362062.19668,264379745.56663,-52097864.12957,   0.00160,   0.00030,  -0.00068,414208591.82119,   0.00000,274640135.82653,   0.00000,   0.00000,   0.00000,-60431544.00534,   0.00000
467972384.87433,265570052.70764,-52862166.60959,   0.00161,   0.00030,  -0.00069,416688589.90773,   0.00000,274640135.82653,   0.00000,   0.00000,   0.00000,-57951545.91880,   0.00000
470561824.97056,266739477.26722,-53630645.60589,   0.00162,   0.00030,  -0.00070,419153555.49269,   0.00000,274640135.82653,   0.00000,   0.00000,   0.00000,-55486580.33383,   0.00000
473136647.25979,267902637.05238,-54394948.08590,   0.00163,   0.00030,  -0.00071,421606434.44406,   0.00000,274640135.82653,   0.00000,   0.00000,   0.00000,-53033701.38246,   0.00000
475726087.35601,269072061.61197,-55163427.08220,   0.00164,   0.00030,  -0.00072,424074871.34474,   0.00000,274640135.82653,   0.00000,   0.00000,   0.00000,-50565264.48179,   0.00000
478300909.64525,270235221.39713,-55931906.07850,   0.00165,   0.00030,  -0.00073,426532785.59956,   0.00000,274640135.82653,   0.00000,   0.00000,   0.00000,-48107350.22697,   0.00000
480861114.12748,271392116.40786,-56704561.59109,   0.00166,   0.00030,  -0.00074,428981815.91144,   0.00000,274640135.82653,   0.00000,   0.00000,   0.00000,-45658319.91509,   0.00000
483421318.60972,272549011.41860,-57473040.58739,   0.00167,   0.00030,  -0.00075,431430856.11595,   0.00000,274640135.82653,   0.00000,   0.00000,   0.00000,-43209279.71058,   0.00000
485975258.31753,273691288.62233,-58245696.09997,   0.00168,   0.00030,  -0.00076,433877127.55982,   0.00000,274640135.82653,   0.00000,   0.00000,   0.00000,-40763008.26671,   0.00000
488514580.21835,274827301.05165,-59014175.09627,   0.00169,   0.00030,  -0.00077,436311145.25111,   0.00000,274640135.82653,   0.00000,   0.00000,   0.00000,-38328990.57542,   0.00000
491053902.11916,275963313.48096,-59786830.60885,   0.00170,   0.00030,  -0.00078,438748468.47601,   0.00000,274640135.82653,   0.00000,   0.00000,   0.00000,-35891667.35052,   0.00000
493593224.01998,277099325.91027,-60559486.12144,   0.00171,   0.00030,  -0.00079,441187388.35831,   0.00000,274640135.82653,   0.00000,   0.00000,   0.00000,-33452747.46822,   0.00000
496117928.11380,278229073.56516,-61336318.15030,   0.00171,   0.00030,  -0.00080,443617421.01432,   0.00000,274640135.82653,   0.00000,   0.00000,   0.00000,-31022714.81221,   0.00000
498621749.62620,279337938.63862,-62108973.66289,   0.00172,   0.00030,  -0.00081,446029074.49019,   0.00000,274640135.82653,   0.00000,   0.00000,   0.00000,-28611061.33634,   0.00000
501146453.72002,280467686.29351,-62881629.17547,   0.00173,   0.00030,  -0.00082,448460480.56124,   0.00000,274640135.82653,   0.00000,   0.00000,   0.00000,-26179655.26528,   0.00000
503635657.42543,281570286.59255,-63658461.20434,   0.00174,   0.00030,  -0.00083,450864796.11006,   0.00000,274640135.82653,   0.00000,   0.00000,   0.00000,-23775339.71647,   0.00000
506124861.13083,282672886.89159,-64435293.23321,   0.00175,   0.00030,  -0.00084,453270649.23401,   0.00000,274640135.82653,   0.00000,   0.00000,   0.00000,-21369486.59252,   0.00000
508607800.06181,283760869.38363,-65212125.26208,   0.00176,   0.00030,  -0.00085,455672028.54666,   0.00000,274640135.82653,   0.00000,   0.00000,   0.00000,-18968107.27987,   0.00000
511097003.76722,284863469.68267,-65988957.29094,   0.00177,   0.00030,  -0.00086,458080893.76765,   0.00000,274640135.82653,   0.00000,   0.00000,   0.00000,-16559242.05888,   0.00000
513550707.08421,285938922.62586,-66765789.31981,   0.00178,   0.00030,  -0.00087,460460934.49088,   0.00000,274640135.82653,   0.00000,   0.00000,   0.00000,-14179201.33565,   0.00000
516019028.20819,287020640.34348,-67542621.34868,   0.00179,   0.00030,  -0.00088,462854610.70008,   0.00000,274640135.82653,   0.00000,   0.00000,   0.00000,-11785525.12645,   0.00000
518472731.52518,288096093.28667,-68319453.37755,   0.00180,   0.00030,  -0.00089,465237581.24594,   0.00000,274640135.82653,   0.00000,   0.00000,   0.00000,-9402554.58059,   0.00000
520911817.03517,289165281.45543,-69096285.40642,   0.00181,   0.00030,  -0.00090,467609836.19952,   0.00000,274640135.82653,   0.00000,   0.00000,   0.00000,-7030299.62701,   0.00000
523350902.54517,290234469.62420,-69877293.95157,   0.00182,   0.00030,  -0.00091,469985373.76744,   0.00000,274640135.82653,   0.00000,   0.00000,   0.00000,-4654762.05909,   0.00000
525769105.47374,291282775.21154,-70654125.98044,   0.00182,   0.00030,  -0.00092,472342396.78108,   0.00000,274640135.82653,   0.00000,   0.00000,   0.00000,-2297739.04545,   0.00000
528123219.71501,292303297.96553,-71414435.76129,   0.00183,   0.00030,  -0.00093,474640136.58151,   0.00000,274640135.82653,   0.00000,   0.00000,   0.00000,   0.75498,   0.00000
528118345.67139,292297491.94437,-71424420.63584,   0.00183,   0.00030,  -0.00093,474640136.58151,   0.00000,274640375.97383,   0.00000,   0.00000,  -0.00000,   0.02846,   1.00000
527935913.55421,292081512.57528,-71796993.95147,   0.00184,   0.00030,  -0.00094,476988058.43891,   0.00001,274649390.24111,   0.00001,   0.00000,  -0.00001,   0.00000,   2.00000
527751647.36841,291853746.56379,-72172195.49086,   0.00185,   0.00030,  -0.00095,476994210.38924,   0.00002,274658395.63798,   0.00002,   0.00000,  -0.00001,   0.00000,   2.00000
527569485.03501,291627677.06961,-72541346.00997,   0.00186,   0.00030,  -0.00096,477002452.40031,   0.00002,274667400.18919,   0.00003,   0.00000,  -0.00002,  -0.00000,   2.00000
527383753.39595,291412885.93620,-72913207.87994,   0.00187,   0.00030,  -0.00097,477008270.75219,   0.00003,274676394.51811,   0.00004,   0.00000,  -0.00002,   0.00000,   2.00000
527199292.63884,291177098.90317,-73283226.45083,   0.00188,   0.00030,  -0.00098,476992576.00310,   0.00004,274685296.11450,   0.00005,   0.00000,  -0.00003,   0.00000,   2.00000
527012529.97703,290952422.36727,-73653851.18730,   0.00189,   0.00030,  -0.00099,477010433.01947,   0.00005,274694234.22200,   0.00006,   0.00000,  -0.00003,   0.00000,   2.00000
526826810.89103,290718190.41828,-74021657.66402,   0.00190,   0.00030,  -0.00100,477000566.03463,   0.00006,274703102.15713,   0.00006,   0.00000,  -0.00004,   0.00000,   2.00000
526638803.01323,290495065.42296,-74390077.43179,   0.00190,   0.00030,  -0.00101,477018386.28178,   0.00007,274712006.58886,   0.00007,   0.00001,  -0.00004,   0.00000,   2.00000
526451999.45550,290250912.13612,-74756780.34993,   0.00191,   0.00030,  -0.00102,477002613.06766,   0.00007,274720818.28540,   0.00008,   0.00001,  -0.00005,   0.00000,   2.00000
526261555.00737,290018063.05588,-75126266.69025,   0.00192,   0.00030,  -0.00103,477008295.32053,   0.00008,274729620.07219,   0.00009,   0.00001,  -0.00005,   0.00000,   2.00000
526073471.70152,289775495.11364,-75490865.35251,   0.00193,   0.00030,  -0.00104,477010383.68324,   0.00009,274738398.19736,   0.00010,   0.00001,  -0.00006,   0.00000,   2.00000
525883109.23578,289544078.31561,-75856088.49401,   0.00194,   0.00030,  -0.00105,477028123.52887,   0.00010,274747212.93182,   0.00011,   0.00001,  -0.00006,   0.00000,   2.00000
525693880.17306,289291595.92751,-76219717.91253,   0.00195,   0.00030,  -0.00106,477012275.46750,   0.00011,274755934.93615,   0.00012,   0.00001,  -0.00007,   0.00000,   2.00000
525503173.91755,289051486.52222,-76582392.91011,   0.00196,   0.00030,  -0.00107,477015872.48693,   0.00011,274764639.34946,   0.00013,   0.00001,  -0.00007,   0.00000,   2.00000
525310428.12810,288799552.68279,-76947838.09078,   0.00196,   0.00030,  -0.00108,477021884.69675,   0.00012,274773335.63232,   0.00014,   0.00001,  -0.00008,   0.00000,   2.00000
525118527.68960,288549554.57169,-77309628.81087,   0.00197,   0.00030,  -0.00109,477017599.67134,   0.00013,274781984.09887,   0.00015,   0.00001,  -0.00009,   0.00000,   2.00000
524926680.35191,288300321.19792,-77669355.85330,   0.00198,   0.00030,  -0.00110,477027356.34214,   0.00014,274790639.03292,   0.00015,   0.00001,  -0.00009,  -0.00000,   2.00000
524733540.76206,288040426.62162,-78030351.09071,   0.00199,   0.00030,  -0.00111,477019239.65263,   0.00014,274799231.56982,   0.00016,   0.00001,  -0.00010,   0.00000,   2.00000
524538923.85816,287792910.72361,-78390464.27449,   0.00200,   0.00030,  -0.00112,477022694.75582,   0.00015,274807806.47288,   0.00017,   0.00001,  -0.00010,   0.00000,   2.00000
524346693.07995,287535708.35540,-78745863.36439,   0.00201,   0.00030,  -0.00113,477024489.88573,   0.00016,274816357.44335,   0.00018,   0.00001,  -0.00011,  -0.00000,   2.00000
524150845.51557,287266738.22685,-79106380.04621,   0.00201,   0.00030,  -0.00114,477018374.93569,   0.00017,274824854.13900,   0.00019,   0.00001,  -0.00011,   0.00000,   2.00000
523955041.99742,286998599.40714,-79464873.72362,   0.00202,   0.00030,  -0.00115,477027992.54826,   0.00018,274833357.46169,   0.00020,   0.00001,  -0.00012,   0.00000,   2.00000
523760077.54686,286732414.87297,-79819885.56438,   0.00203,   0.00030,  -0.00116,477023461.04605,   0.00018,274841812.72951,   0.00021,   0.00001,  -0.00012,   0.00000,   2.00000
523563666.32719,286467070.81858,-80175211.36012,   0.00204,   0.00030,  -0.00117,477020973.85116,   0.00019,274850227.99982,   0.00022,   0.00001,  -0.00013,   0.00000,   2.00000
523367318.94010,286202540.02787,-80528563.91909,   0.00205,   0.00030,  -0.00118,477030480.68196,   0.00020,274858649.73203,   0.00022,   0.00002,  -0.00013,   0.00000,   2.00000
523169517.36793,285927261.26649,-80883375.09889,   0.00206,   0.00030,  -0.00119,477022197.98249,   0.00021,274867009.23667,   0.00023,   0.00002,  -0.00014,  -0.00000,   2.00000
522971767.36843,285641266.10152,-81237340.36117,   0.00206,   0.00030,  -0.00120,477025902.06274,   0.00021,274875353.12431,   0.00024,   0.00002,  -0.00015,   0.00000,   2.00000
522772526.93099,285367717.20258,-81590568.50296,   0.00207,   0.00030,  -0.00121,477029085.18029,   0.00022,274883679.35171,   0.00025,   0.00002,  -0.00015,   0.00000,   2.00000
522574095.70745,285084508.16845,-81941578.34754,   0.00208,   0.00030,  -0.00122,477018584.62206,   0.00023,274891935.10948,   0.00026,   0.00002,  -0.00016,  -0.00000,   2.00000
522373378.17304,284801055.89879,-82294405.44838,   0.00209,   0.00030,  -0.00123,477030101.68130,   0.00024,274900205.82453,   0.00027,   0.00002,  -0.00016,   0.00000,   2.00000
522173435.73103,284507949.32130,-82645059.11828,   0.00210,   0.00029,  -0.00124,477019557.72744,   0.00024,274908406.12718,   0.00027,   0.00002,  -0.00017,  -0.00000,   2.00000
521974359.32138,284228417.06926,-82991323.19248,   0.00210,   0.00029,  -0.00125,477020388.67292,   0.00025,274916580.18406,   0.00028,   0.00002,  -0.00017,   0.00000,   2.00000
521772851.25994,283925389.34143,-83341705.00405,   0.00211,   0.00029,  -0.00126,477020393.37985,   0.00026,274924725.04786,   0.00029,   0.00002,  -0.00018,  -0.00000,   2.00000
521569837.28186,283634836.97369,-83691445.17370,   0.00212,   0.00029,  -0.00127,477023364.79399,   0.00027,274932852.22783,   0.00030,   0.00002,  -0.00018,   0.00000,   2.00000
521367542.54708,283334582.52685,-84039121.63519,   0.00213,   0.00029,  -0.00128,477012677.10803,   0.00027,274940908.91632,   0.00031,   0.00002,  -0.00019,   0.00000,   2.00000
521165296.95656,283035249.87007,-84384944.99370,   0.00214,   0.00029,  -0.00129,477021824.18532,   0.00028,274948972.20427,   0.00032,   0.00002,  -0.00019,  -0.00000,   2.00000
520961335.61088,282725077.24227,-84732477.38786,   0.00214,   0.00029,  -0.00130,477013304.58843,   0.00029,274956973.65672,   0.00032,   0.00002,  -0.00020,   0.00000,   2.00000
520759950.39848,282428653.80251,-85073317.03569,   0.00215,   0.00029,  -0.00131,477025842.06229,   0.00030,274964995.02256,   0.00033,   0.00002,  -0.00021,   0.00000,   2.00000
520552577.76223,282108395.38270,-85423202.02901,   0.00216,   0.00029,  -0.00132,477001890.12694,   0.00030,274972894.87943,   0.00034,   0.00002,  -0.00021,   0.00000,   2.00000
520349500.22141,281802078.48392,-85763969.25532,   0.00217,   0.00029,  -0.00133,477026277.99481,   0.00031,274980861.07268,   0.00035,   0.00002,  -0.00022,   0.00000,   2.00000
520145349.40890,281485857.71732,-86105288.36243,   0.00217,   0.00029,  -0.00134,477003460.51863,   0.00032,274988710.22631,   0.00036,   0.00002,  -0.00022,   0.00000,   2.00000
519938795.18154,281169443.87835,-86448522.44201,   0.00218,   0.00029,  -0.00135,477014668.29667,   0.00033,274996574.84127,   0.00036,   0.00002,  -0.00023,   0.00000,   2.00000
519732829.17142,280843273.45920,-86789902.64576,   0.00219,   0.00029,  -0.00136,477003735.36469,   0.00033,275004368.92820,   0.00037,   0.00002,  -0.00023,   0.00000,   2.00000
519525149.44837,280517897.70653,-87131984.49593,   0.00220,   0.00029,  -0.00137,477000673.54782,   0.00034,275012123.29867,   0.00038,   0.00002,  -0.00024,   0.00000,   2.00000
519317502.65446,280193501.79964,-87472306.32338,   0.00220,   0.00029,  -0.00138,477009518.60206,   0.00035,275019884.34170,   0.00039,   0.00003,  -0.00024,  -0.00000,   2.00000
519110393.89689,279859316.57655,-87810855.00587,   0.00221,   0.00029,  -0.00139,476998486.27228,   0.00035,275027574.81361,   0.00040,   0.00003,  -0.00025,   0.00000,   2.00000
518903313.45035,279526141.62769,-88147675.57254,   0.00222,   0.00029,  -0.00140,477007261.26255,   0.00036,275035271.95666,   0.00040,   0.00003,  -0.00025,   0.00000,   2.00000
518692443.98349,279181754.37651,-88488950.48679,   0.00223,   0.00029,  -0.00141,476986574.11093,   0.00037,275042861.22825,   0.00041,   0.00003,  -0.00026,   0.00000,   2.00000
518484085.99070,278839566.09377,-88824836.66238,   0.00223,   0.00028,  -0.00142,476992927.79490,   0.00037,275050448.16850,   0.00042,   0.00003,  -0.00026,   0.00000,   2.00000
518273238.55125,278497225.52414,-89162690.92113,   0.00224,   0.00028,  -0.00143,477003948.68187,   0.00038,275058050.95799,   0.00043,   0.00003,  -0.00027,   0.00000,   2.00000
518063522.52638,278145950.26456,-89497752.82821,   0.00225,   0.00028,  -0.00144,476978509.98545,   0.00039,275065527.62162,   0.00043,   0.00003,  -0.00028,  -0.00000,   2.00000
517851285.09502,277794531.51052,-89834801.15802,   0.00226,   0.00028,  -0.00145,476989444.35805,   0.00040,275073020.25470,   0.00044,   0.00003,  -0.00028,   0.00000,   2.00000
517641297.57241,277433558.40807,-90167706.09562,   0.00226,   0.00028,  -0.00146,476990088.83735,   0.00040,275080488.74540,   0.00045,   0.00003,  -0.00029,   0.00000,   2.00000
517427888.39107,277084818.34295,-90502858.45607,   0.00227,   0.00028,  -0.00147,476980406.26172,   0.00041,275087892.86481,   0.00046,   0.00003,  -0.00029,   0.00000,   2.00000
517216403.29000,276714688.94189,-90835101.34750,   0.00228,   0.00028,  -0.00148,476975397.88996,   0.00042,275095251.15164,   0.00046,   0.00003,  -0.00030,   0.00000,   2.00000
517003013.91346,276345308.30682,-91168275.50724,   0.00228,   0.00028,  -0.00149,476971963.76737,   0.00042,275102569.89435,   0.00047,   0.00003,  -0.00030,   0.00000,   2.00000
516787707.24626,275976650.06851,-91502391.96241,   0.00229,   0.00028,  -0.00150,476968497.07302,   0.00043,275109849.09388,   0.00048,   0.00003,  -0.00031,   0.00000,   2.00000
516574962.78076,275610252.03018,-91831250.23505,   0.00230,   0.00028,  -0.00151,476974456.47710,   0.00044,275117125.63409,   0.00048,   0.00003,  -0.00031,   0.00000,   2.00000
516359918.65126,275232706.02351,-92162300.82145,   0.00230,   0.00028,  -0.00152,476965417.43940,   0.00044,275124341.03106,   0.00049,   0.00003,  -0.00032,   0.00000,   2.00000
516142527.30579,274844011.24340,-92495552.22510,   0.00231,   0.00027,  -0.00153,476956354.91142,   0.00045,275131495.45807,   0.00050,   0.00003,  -0.00032,  -0.00000,   2.00000
515927691.39888,274457628.55651,-92823582.11546,   0.00232,   0.00027,  -0.00153,476962185.59233,   0.00046,275138647.26763,   0.00051,   0.00003,  -0.00033,   0.00000,   2.00000
515713467.31281,274073144.25086,-93149031.89566,   0.00233,   0.00027,  -0.00154,476956115.21706,   0.00046,275145749.93123,   0.00051,   0.00003,  -0.00033,   0.00000,   2.00000
515494202.22822,273676246.20956,-93480376.74664,   0.00233,   0.00027,  -0.00155,476949429.57368,   0.00047,275152801.28789,   0.00052,   0.00003,  -0.00034,   0.00000,   2.00000
515275515.43663,273281230.22607,-93809164.60938,   0.00234,   0.00027,  -0.00156,476943278.58864,   0.00047,275159803.57411,   0.00053,   0.00003,  -0.00034,  -0.00000,   2.00000
515059409.56876,272888530.00985,-94132797.39029,   0.00235,   0.00027,  -0.00157,476948908.95663,   0.00048,275166803.01223,   0.00053,   0.00003,  -0.00035,  -0.00000,   2.00000
514840326.79082,272472659.91741,-94459983.15089,   0.00235,   0.00027,  -0.00158,476934245.82120,   0.00049,275173720.30627,   0.00054,   0.00003,  -0.00035,   0.00000,   2.00000
514619613.15757,272069376.02515,-94787071.22633,   0.00236,   0.00027,  -0.00159,476935898.52939,   0.00049,275180619.54385,   0.00055,   0.00003,  -0.00036,   0.00000,   2.00000
514398961.79040,271655999.49680,-95112917.36004,   0.00237,   0.00027,  -0.00160,476924134.48637,   0.00050,275187448.27128,   0.00055,   0.00003,  -0.00036,   0.00000,   2.00000
514178232.88328,271243753.08539,-95437261.04715,   0.00237,   0.00026,  -0.00161,476932085.55758,   0.00051,275194283.95688,   0.00056,   0.00003,  -0.00037,   0.00000,   2.00000
513957519.39287,270821389.75767,-95760412.63570,   0.00238,   0.00026,  -0.00162,476920269.72261,   0.00051,275201049.13273,   0.00057,   0.00003,  -0.00037,   0.00000,   2.00000
513734108.46698,270387682.42202,-96085987.95019,   0.00238,   0.00026,  -0.00163,476910932.89922,   0.00052,275207753.80824,   0.00057,   0.00003,  -0.00038,   0.00000,   2.00000
513513267.36889,269956364.24924,-96406498.93830,   0.00239,   0.00026,  -0.00164,476916244.78141,   0.00052,275214455.61190,   0.00058,   0.00003,  -0.00038,   0.00000,   2.00000
513288123.16387,269525078.76639,-96730938.44813,   0.00240,   0.00026,  -0.00165,476900445.37314,   0.00053,275221071.71157,   0.00059,   0.00003,  -0.00039,   0.00000,   2.00000
513064991.22074,269084171.67943,-97051573.75096,   0.00240,   0.00026,  -0.00166,476900267.80818,   0.00054,275227663.74340,   0.00059,   0.00003,  -0.00039,   0.00000,   2.00000
512841740.10932,268644433.36127,-97370771.22444,   0.00241,   0.00026,  -0.00167,476907997.73114,   0.00054,275234262.82751,   0.00060,   0.00003,  -0.00040,   0.00000,   2.00000
512616206.23600,268193867.08068,-97691629.22259,   0.00242,   0.00026,  -0.00167,476884199.84351,   0.00055,275240745.11485,   0.00061,   0.00003,  -0.00040,   0.00000,   2.00000
512390531.20029,267744470.03932,-98011066.45992,   0.00242,   0.00025,  -0.00168,476891834.04206,   0.00056,275247234.51778,   0.00061,   0.00003,  -0.00041,   0.00000,   2.00000
512161925.95740,267283574.63169,-98333052.41624,   0.00243,   0.00025,  -0.00169,476882346.69581,   0.00056,275253663.74246,   0.00062,   0.00003,  -0.00041,   0.00000,   2.00000
511933717.27507,266824442.23653,-98652798.15460,   0.00244,   0.00025,  -0.00170,476875561.63873,   0.00057,275260043.59204,   0.00063,   0.00004,  -0.00042,   0.00000,   2.00000
511707431.81384,266355662.65414,-98968829.65980,   0.00244,   0.00025,  -0.00171,476875180.46610,   0.00057,275266399.45226,   0.00063,   0.00004,  -0.00042,   0.00000,   2.00000
511478777.81659,265887397.66649,-99286231.82803,   0.00245,   0.00025,  -0.00172,476870919.70364,   0.00058,275272716.12322,   0.00064,   0.00004,  -0.00043,   0.00000,   2.00000
511249802.65728,265408780.36702,-99602706.35890,   0.00245,   0.00025,  -0.00173,476858713.61190,   0.00058,275278962.47248,   0.00064,   0.00004,  -0.00043,   0.00000,   2.00000
511018409.99895,264930644.62766,-99920580.95004,   0.00246,   0.00024,  -0.00174,476854368.62746,   0.00059,275285169.69840,   0.00065,   0.00004,  -0.00044,   0.00000,   2.00000
510788872.28306,264442831.55003,-100234795.61839,   0.00247,   0.00024,  -0.00175,476853846.16058,   0.00060,275291353.01791,   0.00066,   0.00004,  -0.00044,   0.00000,   2.00000
510556878.57195,263955481.50951,-100550443.60384,   0.00247,   0.00024,  -0.00176,476849452.68736,   0.00060,275297497.23871,   0.00066,   0.00004,  -0.00045,  -0.00000,   2.00000
510324442.36656,263457684.65321,-100865244.66710,   0.00248,   0.00024,  -0.00176,476837126.38184,   0.00061,275303571.22264,   0.00067,   0.00004,  -0.00045,   0.00000,   2.00000
510089499.88169,262960314.71285,-101181507.10549,   0.00248,   0.00024,  -0.00177,476832650.25736,   0.00061,275309606.17606,   0.00067,   0.00004,  -0.00046,   0.00000,   2.00000
509856339.81130,262453231.14886,-101494160.89283,   0.00249,   0.00024,  -0.00178,476831991.37796,   0.00062,275315617.31870,   0.00068,   0.00004,  -0.00046,  -0.00000,   2.00000
509623436.85959,261947796.64225,-101804787.29214,   0.00249,   0.00023,  -0.00179,476824783.56205,   0.00062,275321578.83531,   0.00069,   0.00004,  -0.00047,   0.00000,   2.00000
509387160.83945,261430569.49185,-102118178.67049,   0.00250,   0.00023,  -0.00180,476815007.31399,   0.00063,275327480.78325,   0.00069,   0.00004,  -0.00047,   0.00000,   2.00000
509147453.43090,260901528.68278,-102434337.04075,   0.00251,   0.00023,  -0.00181,476805220.14806,   0.00063,275333323.35746,   0.00070,   0.00004,  -0.00048,   0.00000,   2.00000
508910274.38428,260374946.00473,-102745681.19536,   0.00251,   0.00023,  -0.00182,476809608.24178,   0.00064,275339162.78767,   0.00070,   0.00004,  -0.00048,  -0.00000,   2.00000
508670929.70457,259849078.86596,-103057902.56397,   0.00252,   0.00023,  -0.00183,476790521.59952,   0.00064,275344906.17553,   0.00071,   0.00004,  -0.00049,   0.00000,   2.00000
508433249.79299,259313423.99030,-103366601.66395,   0.00252,   0.00023,  -0.00183,476789622.69314,   0.00065,275350625.85523,   0.00071,   0.00004,  -0.00049,   0.00000,   2.00000
508194367.90100,258766745.88734,-103675296.89884,   0.00253,   0.00022,  -0.00184,476791442.56036,   0.00066,275356332.70694,   0.00072,   0.00004,  -0.00049,  -0.00000,   2.00000
507950371.79406,258219451.09894,-103988442.84173,   0.00253,   0.00022,  -0.00185,476774993.83279,   0.00066,275361954.38354,   0.00073,   0.00004,  -0.00050,   0.00000,   2.00000
507707964.01464,257662344.16430,-104298088.60863,   0.00254,   0.00022,  -0.00186,476774028.85611,   0.00067,275367552.56063,   0.00073,   0.00004,  -0.00050,  -0.00000,   2.00000
507465648.23732,257106745.16707,-104605869.43188,   0.00254,   0.00022,  -0.00187,476766449.24883,   0.00067,275373101.05614,   0.00074,   0.00004,  -0.00051,   0.00000,   2.00000
507224888.81106,256541315.19525,-104910190.02899,   0.00255,   0.00022,  -0.00188,476765413.83508,   0.00068,275378626.01499,   0.00074,   0.00004,  -0.00051,   0.00000,   2.00000
506977885.37631,255962832.64397,-105220306.36694,   0.00256,   0.00021,  -0.00189,476743767.95671,   0.00068,275384045.73865,   0.00075,   0.00004,  -0.00052,  -0.00000,   2.00000
506730478.43992,255385557.54084,-105529200.19495,   0.00256,   0.00021,  -0.00189,476750503.54934,   0.00069,275389473.27685,   0.00075,   0.00004,  -0.00052,   0.00000,   2.00000
506482070.22786,254797393.54432,-105837544.69168,   0.00257,   0.00021,  -0.00190,476737731.90530,   0.00069,275394831.11134,   0.00076,   0.00004,  -0.00053,   0.00000,   2.00000
506233647.89441,254210643.84324,-106144110.02349,   0.00257,   0.00021,  -0.00191,476729946.74019,   0.00070,275400139.26729,   0.00076,   0.00004,  -0.00053,   0.00000,   2.00000
505986653.13473,253613990.58003,-106447267.38581,   0.00258,   0.00020,  -0.00192,476728750.24457,   0.00070,275405424.12598,   0.00077,   0.00004,  -0.00053,   0.00000,   2.00000
505736709.13833,253017471.21191,-106752156.99403,   0.00258,   0.00020,  -0.00193,476723695.53175,   0.00071,275410670.40187,   0.00077,   0.00004,  -0.00054,   0.00000,   2.00000
505485621.87557,252409925.66912,-107056575.94832,   0.00259,   0.00020,  -0.00193,476710804.21869,   0.00071,275415847.03934,   0.00078,   0.00004,  -0.00054,   0.00000,   2.00000
505230416.09621,251790074.92437,-107363996.91805,   0.00259,   0.00020,  -0.00194,476700704.78221,   0.00071,275420965.41790,   0.00078,   0.00004,  -0.00055,   0.00000,   2.00000
504980567.93159,251173912.83863,-107663339.42422,   0.00260,   0.00020,  -0.00195,476701530.04385,   0.00072,275426069.21818,   0.00079,   0.00004,  -0.00055,   0.00000,   2.00000
504723589.88813,250544136.85581,-107969170.31465,   0.00260,   0.00019,  -0.00196,476694239.64903,   0.00072,275431126.17749,   0.00079,   0.00004,  -0.00056,   0.00000,   2.00000
504469391.65094,249916875.46921,-108269891.96064,   0.00261,   0.00019,  -0.00197,476683347.94393,   0.00073,275436122.04082,   0.00080,   0.00004,  -0.00056,   0.00000,   2.00000
504210900.54543,249277161.93937,-108573673.96362,   0.00261,   0.00019,  -0.00198,476673168.68823,   0.00073,275441059.88061,   0.00080,   0.00004,  -0.00056,  -0.00000,   2.00000
503953611.91432,248627414.47330,-108874123.60442,   0.00262,   0.00019,  -0.00198,476671746.90428,   0.00074,275445974.86604,   0.00081,   0.00004,  -0.00057,   0.00000,   2.00000
503693137.60182,247977630.82874,-109176403.06939,   0.00262,   0.00018,  -0.00199,476666456.62904,   0.00074,275450851.60605,   0.00081,   0.00004,  -0.00057,   0.00000,   2.00000
503434145.69438,247317775.13952,-109474905.36348,   0.00262,   0.00018,  -0.00200,476650499.96822,   0.00075,275455647.58621,   0.00082,   0.00004,  -0.00058,   0.00000,   2.00000
503168941.44255,246656581.95590,-109778695.93130,   0.00263,   0.00018,  -0.00201,476648006.07709,   0.00075,275460416.91515,   0.00082,   0.00004,  -0.00058,  -0.00000,   2.00000
502906524.74610,245973999.93232,-110077004.23691,   0.00263,   0.00018,  -0.00201,476638752.01951,   0.00076,275465132.66102,   0.00083,   0.00004,  -0.00058,  -0.00000,   2.00000
502642087.93717,245303817.62759,-110375949.17147,   0.00264,   0.00017,  -0.00202,476638164.41643,   0.00076,275469829.64614,   0.00083,   0.00004,  -0.00059,  -0.00000,   2.00000
502374684.68609,244609615.00109,-110675851.25360,   0.00264,   0.00017,  -0.00203,476620190.20332,   0.00076,275474438.33417,   0.00083,   0.00004,  -0.00059,  -0.00000,   2.00000
502106888.41628,243916457.55477,-110974238.45937,   0.00265,   0.00017,  -0.00204,476611791.10120,   0.00077,275478997.35920,   0.00084,   0.00004,  -0.00060,  -0.00000,   2.00000
501838414.21009,243224439.94347,-111271538.00741,   0.00265,   0.00016,  -0.00205,476617849.37383,   0.00077,275483564.84315,   0.00084,   0.00004,  -0.00060,  -0.00000,   2.00000
501566772.90148,242508238.64125,-111569830.93987,   0.00266,   0.00016,  -0.00205,476599877.11759,   0.00078,275488044.39042,   0.00085,   0.00004,  -0.00060,  -0.00000,   2.00000
501294658.09961,241793003.95468,-111866651.83057,   0.00266,   0.00016,  -0.00206,476591384.50912,   0.00078,275492474.31231,   0.00085,   0.00004,  -0.00061,   0.00000,   2.00000
501024827.39812,241080127.00012,-112159004.02044,   0.00267,   0.00016,  -0.00207,476594401.42604,   0.00078,275496900.97090,   0.00086,   0.00004,  -0.00061,   0.00000,   2.00000
500748605.19180,240341665.62280,-112455787.71148,   0.00267,   0.00015,  -0.00208,476579373.89103,   0.00079,275501251.91760,   0.00086,   0.00004,  -0.00061,   0.00000,   2.00000
500471826.22089,239604087.24901,-112751140.20387,   0.00267,   0.00015,  -0.00208,476570791.12607,   0.00079,275505553.28368,   0.00086,   0.00004,  -0.00062,   0.00000,   2.00000
500194483.53919,238867350.91920,-113045084.12647,   0.00268,   0.00015,  -0.00209,476562146.12883,   0.00080,275509804.95283,   0.00087,   0.00004,  -0.00062,   0.00000,   2.00000
499914838.66640,238119030.33356,-113339205.73933,   0.00268,   0.00014,  -0.00210,476563325.93975,   0.00080,275514046.65490,   0.00087,   0.00004,  -0.00063,  -0.00000,   2.00000
499633054.28262,237358806.01608,-113633168.64972,   0.00269,   0.00014,  -0.00211,476550003.01928,   0.00080,275518220.01538,   0.00088,   0.00004,  -0.00063,  -0.00000,   2.00000
499349063.58930,236586626.28126,-113926983.88952,   0.00269,   0.00014,  -0.00211,476536655.75997,   0.00081,275522325.16029,   0.00088,   0.00004,  -0.00063,   0.00000,   2.00000
499064376.97915,235815162.16886,-114219441.83545,   0.00270,   0.00014,  -0.00212,476527882.83488,   0.00081,275526380.72758,   0.00088,   0.00004,  -0.00064,   0.00000,   2.00000
498777203.29896,235032019.25479,-114512083.08952,   0.00270,   0.00013,  -0.00213,476529017.11341,   0.00082,275530426.86731,   0.00089,   0.00004,  -0.00064,  -0.00000,   2.00000
498487666.57867,234236779.16408,-114804607.05667,   0.00270,   0.00013,  -0.00214,476515642.02079,   0.00082,275534405.03933,   0.00089,   0.00004,  -0.00064,   0.00000,   2.00000
498200251.80336,233443807.04108,-115092734.46535,   0.00271,   0.00013,  -0.00214,476518307.71373,   0.00082,275538380.23139,   0.00090,   0.00003,  -0.00065,   0.00000,   2.00000
497907465.25546,232636973.47388,-115383856.96183,   0.00271,   0.00012,  -0.00215,476493388.02674,   0.00083,275542240.96213,   0.00090,   0.00003,  -0.00065,  -0.00000,   2.00000
497611998.60798,231818358.66118,-115675163.86838,   0.00272,   0.00012,  -0.00216,476494486.89067,   0.00083,275546092.83592,   0.00090,   0.00003,  -0.00065,  -0.00000,   2.00000
497318604.12425,231001978.96947,-115962092.36906,   0.00272,   0.00012,  -0.00216,476497059.01958,   0.00083,275549941.81968,   0.00091,   0.00003,  -0.00066,   0.00000,   2.00000
497017890.74912,230158681.89838,-116253261.15763,   0.00272,   0.00011,  -0.00217,476467670.51865,   0.00084,275553658.54184,   0.00091,   0.00003,  -0.00066,   0.00000,   2.00000
496720942.07649,229330432.57020,-116538861.32652,   0.00273,   0.00011,  -0.00218,476474603.72333,   0.00084,275557390.52711,   0.00091,   0.00003,  -0.00066,   0.00000,   2.00000
496416385.25414,228475657.27618,-116828960.77415,   0.00273,   0.00011,  -0.00218,476459773.21762,   0.00084,275561049.54009,   0.00092,   0.00003,  -0.00067,   0.00000,   2.00000
496116922.75144,227624253.69927,-117111371.36198,   0.00273,   0.00010,  -0.00219,476459128.04529,   0.00085,275564693.31783,   0.00092,   0.00003,  -0.00067,  -0.00000,   2.00000
495808464.50660,226757262.20940,-117400209.32664,   0.00274,   0.00010,  -0.00220,476437264.65124,   0.00085,275568235.79708,   0.00092,   0.00003,  -0.00067,   0.00000,   2.00000
495496981.35930,225878298.78644,-117689223.04284,   0.00274,   0.00009,  -0.00220,476438335.81175,   0.00085,275571770.45832,   0.00093,   0.00003,  -0.00068,   0.00000,   2.00000
495190551.01843,225002657.06652,-117970573.41470,   0.00275,   0.00009,  -0.00221,476437583.56581,   0.00086,275575289.88261,   0.00093,   0.00003,  -0.00068,  -0.00000,   2.00000
494874886.61508,224111198.87749,-118258374.14905,   0.00275,   0.00009,  -0.00222,476415754.21877,   0.00086,275578708.41749,   0.00093,   0.00003,  -0.00068,   0.00000,   2.00000
494562320.21829,223210041.04176,-118539716.35702,   0.00275,   0.00008,  -0.00223,476410580.69668,   0.00086,275582094.14352,   0.00094,   0.00003,  -0.00068,   0.00000,   2.00000
494243396.43279,222295637.41170,-118824547.69018,   0.00276,   0.00008,  -0.00223,476414781.74267,   0.00087,275585485.35933,   0.00094,   0.00003,  -0.00069,  -0.00000,   2.00000
493926340.29327,221382512.34179,-119104895.55113,   0.00276,   0.00008,  -0.00224,476402473.04782,   0.00087,275588814.74767,   0.00094,   0.00003,  -0.00069,  -0.00000,   2.00000
493605993.89871,220456424.25990,-119385265.05388,   0.00276,   0.00007,  -0.00224,476388978.24223,   0.00087,275592077.66529,   0.00095,   0.00003,  -0.00069,   0.00000,   2.00000
493279121.15987,219516140.45898,-119668958.27033,   0.00277,   0.00007,  -0.00225,476378628.67813,   0.00088,275595287.15996,   0.00095,   0.00003,  -0.00070,   0.00000,   2.00000
492954018.78607,218577873.51822,-119948346.61457,   0.00277,   0.00006,  -0.00226,476380765.52685,   0.00088,275598494.34925,   0.00095,   0.00003,  -0.00070,   0.00000,   2.00000
492625436.20588,217626466.07461,-120227768.93079,   0.00277,   0.00006,  -0.00226,476367280.17668,   0.00088,275601635.42552,   0.00096,   0.00003,  -0.00070,   0.00000,   2.00000
492293289.10047,216661846.76687,-120507227.37127,   0.00278,   0.00006,  -0.00227,476353789.53948,   0.00088,275604710.57011,   0.00096,   0.00003,  -0.00070,   0.00000,   2.00000
491957540.07821,215684936.44461,-120786833.97277,   0.00278,   0.00005,  -0.00228,476354883.76842,   0.00089,275607779.65378,   0.00096,   0.00003,  -0.00071,   0.00000,   2.00000
491623410.11932,214708964.47597,-121062046.26011,   0.00278,   0.00005,  -0.00228,476342359.87123,   0.00089,275610786.92444,   0.00096,   0.00003,  -0.00071,  -0.00000,   2.00000
491282341.77312,213718452.74830,-121340590.67775,   0.00279,   0.00005,  -0.00229,476332057.69841,   0.00089,275613741.68013,   0.00097,   0.00003,  -0.00071,  -0.00000,   2.00000
490940692.94281,212716691.10910,-121615992.96432,   0.00279,   0.00004,  -0.00230,476329972.70393,   0.00090,275616677.76064,   0.00097,   0.00003,  -0.00071,  -0.00000,   2.00000
490595124.08461,211701408.96835,-121891443.12483,   0.00279,   0.00004,  -0.00230,476316531.27074,   0.00090,275619548.64600,   0.00097,   0.00003,  -0.00072,   0.00000,   2.00000
490242350.62086,210671403.41654,-122170206.63890,   0.00279,   0.00003,  -0.00231,476306309.88224,   0.00090,275622367.75704,   0.00097,   0.00003,  -0.00072,   0.00000,   2.00000
489894291.53362,209644363.26449,-122441421.46523,   0.00280,   0.00003,  -0.00231,476305028.47010,   0.00090,275625171.93858,   0.00098,   0.00003,  -0.00072,   0.00000,   2.00000
489538906.30221,208602487.88947,-122715956.13582,   0.00280,   0.00002,  -0.00232,476294824.37616,   0.00091,275627924.57434,   0.00098,   0.00003,  -0.00072,   0.00000,   2.00000
489182654.47389,207549179.42225,-122987331.77100,   0.00280,   0.00002,  -0.00233,476292775.25230,   0.00091,275630659.35846,   0.00098,   0.00003,  -0.00073,   0.00000,   2.00000
488824494.28209,206495289.69527,-123257649.32668,   0.00281,   0.00002,  -0.00233,476283317.83454,   0.00091,275633345.83707,   0.00099,   0.00003,  -0.00073,  -0.00000,   2.00000
488461995.33889,205427482.28321,-123528027.19404,   0.00281,   0.00001,  -0.00234,476269919.07072,   0.00091,275635967.92245,   0.00099,   0.00003,  -0.00073,   0.00000,   2.00000
488095251.24118,204347026.01269,-123798487.03884,   0.00281,   0.00001,  -0.00234,476271126.24436,   0.00092,275638586.01010,   0.00099,   0.00003,  -0.00073,   0.00000,   2.00000
487727214.65810,203253613.06964,-124065752.49555,   0.00282,   0.00000,  -0.00235,476254532.54875,   0.00092,275641126.69030,   0.00099,   0.00003,  -0.00074,   0.00000,   2.00000
487354787.89762,202147484.15234,-124333080.35182,   0.00282,  -0.00000,  -0.00236,476255789.72916,   0.00092,275643663.87251,   0.00099,   0.00003,  -0.00074,   0.00000,   2.00000
486976742.39387,201037990.28009,-124602598.94582,   0.00282,  -0.00001,  -0.00236,476234982.94131,   0.00092,275646106.42426,   0.00100,   0.00003,  -0.00074,   0.00000,   2.00000
486598334.98274,199905962.70053,-124866770.37859,   0.00282,  -0.00001,  -0.00237,476240515.76343,   0.00092,275648563.50286,   0.00100,   0.00003,  -0.00074,   0.00000,   2.00000
486214153.85033,198770406.56301,-125133143.33545,   0.00283,  -0.00002,  -0.00237,476219726.02241,   0.00093,275650926.17920,   0.00100,   0.00003,  -0.00075,  -0.00000,   2.00000
485831445.65448,197638012.86095,-125395230.62818,   0.00283,  -0.00002,  -0.00238,476236055.48410,   0.00093,275653348.35646,   0.00100,   0.00003,  -0.00075,  -0.00000,   2.00000
485437605.25510,196475098.36861,-125661664.13070,   0.00283,  -0.00003,  -0.00238,476207878.06923,   0.00093,275655645.53228,   0.00101,   0.00003,  -0.00075,  -0.00000,   2.00000
485048119.05927,195314794.48279,-125920598.97918,   0.00283,  -0.00003,  -0.00239,476206311.47791,   0.00093,275657928.34798,   0.00101,   0.00003,  -0.00075,   0.00000,   2.00000
484650232.74292,194138826.00318,-126182784.63749,   0.00284,  -0.00004,  -0.00239,476196432.72270,   0.00094,275660162.37372,   0.00101,   0.00003,  -0.00075,   0.00000,   2.00000
484250675.84998,192950900.37685,-126441735.62014,   0.00284,  -0.00004,  -0.00240,476194544.83605,   0.00094,275662380.92154,   0.00101,   0.00003,  -0.00076,   0.00000,   2.00000
483842517.97046,191747181.65208,-126703907.70735,   0.00284,  -0.00005,  -0.00240,476184776.09971,   0.00094,275664551.30497,   0.00101,   0.00003,  -0.00076,  -0.00000,   2.00000
483435791.47199,190532451.19889,-126959612.49334,   0.00284,  -0.00005,  -0.00241,476179628.43482,   0.00094,275666692.86692,   0.00102,   0.00003,  -0.00076,   0.00000,   2.00000
483023103.23128,189315327.26861,-127217496.33782,   0.00285,  -0.00006,  -0.00242,476173457.90225,   0.00094,275668801.42685,   0.00102,   0.00003,  -0.00076,   0.00000,   2.00000
482608086.88671,188084232.00084,-127472180.45620,   0.00285,  -0.00006,  -0.00242,476157075.17246,   0.00095,275670834.55588,   0.00102,   0.00002,  -0.00076,   0.00000,   2.00000
482187785.89332,186839955.82225,-127726780.43945,   0.00285,  -0.00007,  -0.00243,476158646.15349,   0.00095,275672867.27993,   0.00102,   0.00002,  -0.00077,   0.00000,   2.00000
481761691.42809,185580544.95473,-127981357.72544,   0.00285,  -0.00007,  -0.00243,476145703.08872,   0.00095,275674839.08186,   0.00102,   0.00002,  -0.00077,  -0.00000,   2.00000
481336382.82537,184322484.10241,-128231632.74991,   0.00286,  -0.00008,  -0.00244,476147398.64459,   0.00095,275676811.20586,   0.00103,   0.00002,  -0.00077,   0.00000,   2.00000
480902604.57059,183037541.26675,-128482768.73966,   0.00286,  -0.00008,  -0.00244,476145726.63309,   0.00095,275678769.60760,   0.00103,   0.00002,  -0.00077,   0.00000,   2.00000
480465283.63572,181748840.97813,-128732968.49150,   0.00286,  -0.00009,  -0.00245,476121697.48637,   0.00095,275680620.87384,   0.00103,   0.00002,  -0.00077,  -0.00000,   2.00000
480022295.63035,180446777.34380,-128983006.36629,   0.00286,  -0.00009,  -0.00245,476123449.47553,   0.00096,275682473.13747,   0.00103,   0.00002,  -0.00077,   0.00000,   2.00000
479576847.75569,179132297.52868,-129229685.48342,   0.00287,  -0.00010,  -0.00246,476121884.71765,   0.00096,275684312.51365,   0.00103,   0.00002,  -0.00078,  -0.00000,   2.00000
479125041.27836,177802237.87429,-129476281.14545,   0.00287,  -0.00010,  -0.00246,476109197.56688,   0.00096,275686092.44960,   0.00103,   0.00002,  -0.00078,   0.00000,   2.00000
478673771.11023,176473388.84257,-129718540.75344,   0.00287,  -0.00011,  -0.00247,476110926.58387,   0.00096,275687873.53285,   0.00104,   0.00002,  -0.00078,  -0.00000,   2.00000
478212787.81109,175115081.64747,-129961645.27947,   0.00287,  -0.00011,  -0.00247,476095113.97651,   0.00096,275689582.18074,   0.00104,   0.00002,  -0.00078,   0.00000,   2.00000
477752233.79344,173757930.38159,-130200396.47500,   0.00287,  -0.00012,  -0.00247,476096869.71526,   0.00096,275691292.34486,   0.00104,   0.00002,  -0.00078,   0.00000,   2.00000
477281653.53731,172383975.49102,-130442181.03132,   0.00288,  -0.00012,  -0.00248,476087778.95569,   0.00097,275692958.45149,   0.00104,   0.00002,  -0.00078,   0.00000,   2.00000
476807519.98584,171007836.60696,-130682903.82553,   0.00288,  -0.00013,  -0.00248,476078402.73352,   0.00097,275694579.41220,   0.00104,   0.00002,  -0.00078,   0.00000,   2.00000
476330378.73296,169606082.15179,-130917932.21823,   0.00288,  -0.00014,  -0.00249,476070566.54557,   0.00097,275696161.83956,   0.00104,   0.00002,  -0.00079,   0.00000,   2.00000
475846830.26719,168190667.87878,-131152630.09779,   0.00288,  -0.00014,  -0.00249,476072774.19490,   0.00097,275697748.14572,   0.00104,   0.00002,  -0.00079,   0.00000,   2.00000
475356205.34772,166772011.77319,-131389387.02825,   0.00288,  -0.00015,  -0.00250,476066951.48769,   0.00097,275699304.46631,   0.00105,   0.00002,  -0.00079,  -0.00000,   2.00000
474861633.54317,165337961.24318,-131622797.83547,   0.00289,  -0.00015,  -0.00250,476051238.35344,   0.00097,275700789.15934,   0.00105,   0.00002,  -0.00079,   0.00000,   2.00000
474367765.68421,163894500.04282,-131849373.72096,   0.00289,  -0.00016,  -0.00251,476061202.78269,   0.00097,275702310.82380,   0.00105,   0.00002,  -0.00079,   0.00000,   2.00000
473859074.17503,162430251.55562,-132082162.23072,   0.00289,  -0.00017,  -0.00251,476041479.91338,   0.00098,275703743.92912,   0.00105,   0.00002,  -0.00079,   0.97615,   1.00000
473350404.89970,160966937.40803,-132310522.91185,   0.00289,  -0.00017,  -0.00251,476043338.98088,   0.00098,275705179.96996,   0.00105,   0.00002,  -0.00079,   0.97649,   1.00000
472837908.42072,159477546.36236,-132533021.58094,   0.00289,  -0.00018,  -0.00252,476036060.92542,   0.00098,275706580.27771,   0.00105,   0.00002,  -0.00080,   0.92493,   1.00000
472314590.96322,157983768.38124,-132760643.54423,   0.00289,  -0.00018,  -0.00252,476033906.05900,   0.00098,275707966.64606,   0.00105,   0.00002,  -0.00080,   0.90306,   1.00000
471790842.24296,156477743.26854,-132981515.87979,   0.00290,  -0.00019,  -0.00253,476029575.79930,   0.00098,275709329.88895,   0.00106,   0.00002,  -0.00080,   0.86971,   1.00000
471263269.11484,154958613.99615,-133198747.37998,   0.00290,  -0.00020,  -0.00253,476028798.07181,   0.00098,275710685.13900,   0.00106,   0.00002,  -0.00080,   0.85604,   1.00000
470723381.62056,153418871.11225,-133418948.55863,   0.00290,  -0.00020,  -0.00254,476006041.29163,   0.00098,275711939.11062,   0.00106,   0.00002,  -0.00080,   0.72982,   1.00000
470180347.08723,151868884.04461,-133635253.16298,   0.00290,  -0.00021,  -0.00254,476019908.54324,   0.00098,275713247.68923,   0.00106,   0.00002,  -0.00080,   0.79138,   1.00000
469628948.01745,150301871.04315,-133851157.44625,   0.00290,  -0.00021,  -0.00254,476008359.37670,   0.00099,275714502.65009,   0.00106,   0.00002,  -0.00080,   0.72469,   1.00000
469077171.06753,148735635.82148,-134062543.27768,   0.00291,  -0.00022,  -0.00255,476010436.89263,   0.00099,275715762.12137,   0.00106,   0.00002,  -0.00080,   0.72669,   1.00000
468516846.51192,147152228.00041,-134273500.56955,   0.00291,  -0.00023,  -0.00255,475998984.20362,   0.00099,275716968.46461,   0.00106,   0.00002,  -0.00081,   0.66368,   1.00000
467952153.20422,145555479.01557,-134480682.03076,   0.00291,  -0.00023,  -0.00255,475998580.08157,   0.00099,275718168.91923,   0.00106,   0.00002,  -0.00081,   0.65419,   1.00000
467375335.81781,143940653.84786,-134690483.07445,   0.00291,  -0.00024,  -0.00256,475990841.10979,   0.00099,275719332.21358,   0.00106,   0.00002,  -0.00081,   0.61143,   1.00000
466797254.93014,142313142.66266,-134893350.17561,   0.00291,  -0.00025,  -0.00256,475987058.57143,   0.00099,275720475.33733,   0.00107,   0.00002,  -0.00081,   0.58758,   1.00000
466206786.76235,140667414.65578,-135098776.38395,   0.00291,  -0.00025,  -0.00257,475979504.15300,   0.00099,275721582.23072,   0.00107,   0.00002,  -0.00081,   0.54822,   1.00000
465620034.67144,139026421.92405,-135296282.63090,   0.00291,  -0.00026,  -0.00257,475992701.00089,   0.00099,275722741.72632,   0.00107,   0.00002,  -0.00081,   0.59859,   1.00000
465015476.69526,137349547.21634,-135497234.76449,   0.00292,  -0.00027,  -0.00257,475968527.38441,   0.00099,275723793.74381,   0.00107,   0.00002,  -0.00081,   0.49024,   1.00000
464414547.64578,135677437.02965,-135690231.18733,   0.00292,  -0.00027,  -0.00258,475981787.50077,   0.00100,275724898.91429,   0.00107,   0.00002,  -0.00081,   0.53824,   1.00000
463804120.41866,133987575.11287,-135882597.46268,   0.00292,  -0.00028,  -0.00258,475971020.79162,   0.00100,275725954.09011,   0.00107,   0.00002,  -0.00081,   0.48806,   1.00000
463180722.81992,132279198.93205,-136077382.19326,   0.00292,  -0.00029,  -0.00258,475963923.36354,   0.00100,275726975.15269,   0.00107,   0.00002,  -0.00081,   0.45455,   1.00000
462564228.65654,130576333.05054,-136261096.97861,   0.00292,  -0.00029,  -0.00259,475973663.04984,   0.00100,275728034.48366,   0.00107,   0.00002,  -0.00082,   0.48660,   1.00000
461925692.43690,128836309.10111,-136451148.28192,   0.00292,  -0.00030,  -0.00259,475953756.31603,   0.00100,275729004.58122,   0.00107,   0.00001,  -0.00082,   0.40579,   1.00000
461286284.52648,127086926.91571,-136633799.50752,   0.00292,  -0.00031,  -0.00259,475965104.27841,   0.00100,275730020.11560,   0.00107,   0.00001,  -0.00082,   0.44215,   1.00000
460641110.99904,125333699.89521,-136815041.72952,   0.00293,  -0.00031,  -0.00260,475956885.75372,   0.00100,275730996.73034,   0.00107,   0.00001,  -0.00082,   0.40654,   1.00000
459990343.19305,123566729.16954,-136992165.13298,   0.00293,  -0.00032,  -0.00260,475957507.73475,   0.00100,275731972.61702,   0.00108,   0.00001,  -0.00082,   0.40355,   1.00000
459330574.49916,121785409.26046,-137168208.98528,   0.00293,  -0.00033,  -0.00260,475961847.04388,   0.00100,275732963.80660,   0.00108,   0.00001,  -0.00082,   0.41380,   1.00000
458663609.49259,119986374.81259,-137340312.37775,   0.00293,  -0.00033,  -0.00261,475948276.46025,   0.00100,275733892.96975,   0.00108,   0.00001,  -0.00082,   0.36141,   1.00000
457987414.12163,118172948.01049,-137511263.37651,   0.00293,  -0.00034,  -0.00261,475952819.79797,   0.00100,275734838.50692,   0.00108,   0.00001,  -0.00082,   0.37192,   1.00000
457305038.52878,116355414.83979,-137680714.50295,   0.00293,  -0.00035,  -0.00261,475944894.69337,   0.00101,275735746.47476,   0.00108,   0.00001,  -0.00082,   0.34078,   1.00000
456611926.70404,114509667.21034,-137846440.04509,   0.00293,  -0.00036,  -0.00262,475944201.77738,   0.00101,275736648.26604,   0.00108,   0.00001,  -0.00082,   0.33397,   1.00000
455913955.82756,112663865.78210,-138010371.66485,   0.00294,  -0.00036,  -0.00262,475950816.29355,   0.00101,275737575.53005,   0.00108,   0.00001,  -0.00082,   0.35078,   1.00000
455213011.47417,110804707.73648,-138166911.51827,   0.00294,  -0.00037,  -0.00262,475948495.77344,   0.00101,275738489.47834,   0.00108,   0.00001,  -0.00083,   0.33850,   1.00000
454497502.13476,108926371.44342,-138325441.95350,   0.00294,  -0.00038,  -0.00262,475942816.11878,   0.00101,275739375.58199,   0.00108,   0.00001,  -0.00083,   0.31601,   1.00000
453775478.72927,107034106.97987,-138479563.15804,   0.00294,  -0.00039,  -0.00263,475944349.75422,   0.00101,275740265.22269,   0.00108,   0.00001,  -0.00083,   0.31632,   1.00000
453046841.47155,105127908.98681,-138629241.60050,   0.00294,  -0.00039,  -0.00263,475946002.26798,   0.00101,275741158.90570,   0.00108,   0.00001,  -0.00083,   0.31694,   1.00000
452311420.08924,103217282.95346,-138777273.31077,   0.00294,  -0.00040,  -0.00263,475938580.94397,   0.00101,275742017.16854,   0.00108,   0.00001,  -0.00083,   0.29022,   1.00000
451564267.23507,101278250.05121,-138921260.33773,   0.00294,  -0.00041,  -0.00264,475938922.43135,   0.00101,275742873.88684,   0.00109,   0.00001,  -0.00083,   0.28704,   1.00000
450811868.12962,99339242.82098,-139063304.46645,   0.00294,  -0.00042,  -0.00264,475945996.71476,   0.00101,275743758.37681,   0.00109,   0.00001,  -0.00083,   0.30368,   1.00000
450052492.81632,97386273.48052,-139200782.66358,   0.00294,  -0.00042,  -0.00264,475948062.49276,   0.00101,275744648.73343,   0.00109,   0.00001,  -0.00083,   0.30538,   1.00000
449284214.07859,95414662.98015,-139333896.17766,   0.00295,  -0.00043,  -0.00264,475935947.80010,   0.00101,275745483.09171,   0.00109,   0.00001,  -0.00083,   0.26611,   1.00000
448502156.56949,93428251.58106,-139468450.07403,   0.00295,  -0.00044,  -0.00265,475945577.78160,   0.00102,275746356.52334,   0.00109,   0.00001,  -0.00083,   0.28931,   1.00000
447721220.43899,91442718.37173,-139594899.18748,   0.00295,  -0.00045,  -0.00265,475945583.22504,   0.00102,275747226.86661,   0.00109,   0.00001,  -0.00083,   0.28499,   1.00000
446922523.17227,89423486.29161,-139720290.98910,   0.00295,  -0.00045,  -0.00265,475936290.97642,   0.00102,275748053.48476,   0.00109,   0.00001,  -0.00083,   0.25497,   1.00000
446123475.30150,87409637.74523,-139840338.77766,   0.00295,  -0.00046,  -0.00265,475954370.08721,   0.00102,275748956.25894,   0.00109,   0.00001,  -0.00084,   0.30160,   1.00000
445311615.84480,85376525.60784,-139958881.24432,   0.00295,  -0.00047,  -0.00266,475946573.79405,   0.00102,275749821.66421,   0.00109,   0.00001,  -0.00084,   0.27482,   1.00000
444492060.43096,83329418.99078,-140072608.43465,   0.00295,  -0.00048,  -0.00266,475949463.47038,   0.00102,275750696.63619,   0.00109,   0.00001,  -0.00084,   0.27852,   1.00000
443664705.87880,81268328.13370,-140181482.73441,   0.00295,  -0.00049,  -0.00266,475952490.83268,   0.00102,275751581.74986,   0.00109,   0.00001,  -0.00084,   0.28253,   1.00000
442820836.28650,79187538.08366,-140291748.74162,   0.00295,  -0.00049,  -0.00266,475948835.85467,   0.00102,275752447.64427,   0.00109,   0.00001,  -0.00084,   0.26799,   1.00000
441974397.46765,77107305.92755,-140396795.62531,   0.00296,  -0.00050,  -0.00266,475953044.17277,   0.00102,275753328.91156,   0.00109,   0.00001,  -0.00084,   0.27509,   1.00000
441117606.42316,74998813.47751,-140494119.90573,   0.00296,  -0.00051,  -0.00267,475951867.79178,   0.00102,275754201.83490,   0.00110,   0.00001,  -0.00084,   0.26742,   1.00000
440251652.35304,72890419.57810,-140592241.09642,   0.00296,  -0.00052,  -0.00267,475963650.64636,   0.00102,275755123.45579,   0.00110,   0.00001,  -0.00084,   0.29531,   1.00000
439380658.80754,70768337.24064,-140682300.66151,   0.00296,  -0.00053,  -0.00267,475963621.05613,   0.00102,275756041.61424,   0.00110,   0.00001,  -0.00084,   0.29033,   1.00000
438495753.56058,68626682.23601,-140770517.02127,   0.00296,  -0.00054,  -0.00267,475956988.30367,   0.00102,275756927.21886,   0.00110,   0.00001,  -0.00084,   0.26749,   1.00000
437604664.29991,66476595.90057,-140853420.20834,   0.00296,  -0.00054,  -0.00267,475975058.15719,   0.00103,275757889.31180,   0.00110,   0.00001,  -0.00084,   0.31260,   1.00000
436705139.79261,64321490.06306,-140934204.34365,   0.00296,  -0.00055,  -0.00268,475969372.05750,   0.00103,275758822.80862,   0.00110,   0.00001,  -0.00084,   0.29137,   1.00000
435796967.77792,62152513.34216,-141009816.55612,   0.00296,  -0.00056,  -0.00268,475973538.07047,   0.00103,275759771.31020,   0.00110,   0.00001,  -0.00084,   0.29777,   1.00000
434871004.30327,59954948.36220,-141083395.72055,   0.00296,  -0.00057,  -0.00268,475981079.91228,   0.00103,275760749.70032,   0.00110,   0.00001,  -0.00085,   0.31355,   1.00000
433939476.95044,57752432.06860,-141151724.35313,   0.00296,  -0.00058,  -0.00268,475972048.39741,   0.00103,275761684.56008,   0.00110,   0.00001,  -0.00085,   0.28327,   1.00000
433001494.03205,55541893.81179,-141214580.18566,   0.00296,  -0.00059,  -0.00268,475990722.08107,   0.00103,275762698.68240,   0.00110,   0.00001,  -0.00085,   0.32978,   1.00000
432054647.80628,53326246.86769,-141275181.71325,   0.00297,  -0.00060,  -0.00269,475985555.13319,   0.00103,275763686.18964,   0.00110,   0.00000,  -0.00085,   0.30933,   1.00000
431095301.59384,51088175.01441,-141330359.55494,   0.00297,  -0.00060,  -0.00269,476004143.39496,   0.00103,275764752.50196,   0.00110,   0.00000,  -0.00085,   0.35669,   1.00000
430130083.74774,48845067.98224,-141380194.39548,   0.00297,  -0.00061,  -0.00269,475995524.54952,   0.00103,275765776.63960,   0.00111,   0.00000,  -0.00085,   0.32536,   1.00000
429152372.50821,46588228.25311,-141427613.92261,   0.00297,  -0.00062,  -0.00269,476004430.78890,   0.00103,275766836.55663,   0.00111,   0.00000,  -0.00085,   0.34453,   1.00000
428165239.68500,44317767.77578,-141469550.61838,   0.00297,  -0.00063,  -0.00269,476009794.29680,   0.00104,275767916.39756,   0.00111,   0.00000,  -0.00085,   0.35347,   1.00000
427165431.19953,42033704.55937,-141508988.06801,   0.00297,  -0.00064,  -0.00269,476019050.09786,   0.00104,275769033.41252,   0.00111,   0.00000,  -0.00085,   0.37378,   1.00000
426159389.37396,39744498.13665,-141542971.68887,   0.00297,  -0.00065,  -0.00269,476010859.47387,   0.00104,275770109.82620,   0.00111,   0.00000,  -0.00085,   0.34297,   1.00000
425140271.75212,37433438.92610,-141571243.64878,   0.00297,  -0.00066,  -0.00270,476030553.20641,   0.00104,275771269.96904,   0.00111,   0.00000,  -0.00086,   0.39355,   1.00000
424111587.68109,35117232.55858,-141597022.26914,   0.00297,  -0.00067,  -0.00270,476026361.21070,   0.00104,275772407.10627,   0.00111,   0.00000,  -0.00086,   0.37343,   1.00000
423079136.41679,32793978.33716,-141614003.66895,   0.00297,  -0.00067,  -0.00270,476042615.87558,   0.00104,275773612.51225,   0.00111,   0.00000,  -0.00086,   0.41437,   1.00000
422033903.09926,30465636.55076,-141631485.83592,   0.00297,  -0.00068,  -0.00270,476042322.07083,   0.00104,275774812.09754,   0.00111,   0.00000,  -0.00086,   0.40517,   1.00000
420972215.43042,28109376.15225,-141643167.49219,   0.00297,  -0.00069,  -0.00270,476048935.42149,   0.00104,275776036.73782,   0.00111,   0.00000,  -0.00086,   0.41678,   1.00000
419913099.30455,25760983.33994,-141646041.87334,   0.00298,  -0.00070,  -0.00270,476065368.48326,   0.00104,275777330.24312,   0.00112,  -0.00000,  -0.00086,   0.45889,   1.00000
418837578.24989,23392874.88796,-141646216.45116,   0.00298,  -0.00071,  -0.00270,476062029.54938,   0.00104,275778603.94349,   0.00112,  -0.00000,  -0.00086,   0.43901,   1.00000
417748690.73548,21011751.97717,-141643569.88257,   0.00298,  -0.00072,  -0.00270,476072657.82222,   0.00105,275779920.42630,   0.00112,  -0.00000,  -0.00086,   0.46263,   1.00000
416649433.08413,18617567.65157,-141635031.50561,   0.00298,  -0.00073,  -0.00271,476079751.21117,   0.00105,275781263.71679,   0.00112,  -0.00000,  -0.00086,   0.47501,   1.00000
415546397.73843,16224973.70384,-141620719.40483,   0.00298,  -0.00074,  -0.00271,476086505.02426,   0.00105,275782632.19742,   0.00112,  -0.00000,  -0.00087,   0.48610,   1.00000
414429829.69283,13819610.53393,-141603497.57998,   0.00298,  -0.00075,  -0.00271,476097577.71427,   0.00105,275784045.16028,   0.00112,  -0.00000,  -0.00087,   0.51085,   1.00000
413305749.20257,11401192.79375,-141577261.39449,   0.00298,  -0.00076,  -0.00271,476101390.72723,   0.00105,275785469.86683,   0.00112,  -0.00000,  -0.00087,   0.51188,   1.00000
412167963.96781,8970178.89140,-141548035.47022,   0.00298,  -0.00077,  -0.00271,476112830.42246,   0.00105,275786940.53711,   0.00112,  -0.00000,  -0.00087,   0.53742,   1.00000
411016402.21086,6526675.81466,-141515779.62952,   0.00298,  -0.00078,  -0.00271,476124469.92199,   0.00105,275788457.91803,   0.00112,  -0.00000,  -0.00087,   0.56354,   1.00000
409863941.68527,4084859.13204,-141474627.46817,   0.00298,  -0.00079,  -0.00271,476128057.07357,   0.00106,275789985.62312,   0.00113,  -0.00001,  -0.00087,   0.56260,   1.00000
408697623.76871,1630720.09024,-141430400.55437,   0.00298,  -0.00080,  -0.00271,476139954.29851,   0.00106,275791561.02085,   0.00113,  -0.00001,  -0.00087,   0.58906,   1.00000
407510699.48513,-842626.83219,-141386059.52166,   0.00298,  -0.00081,  -0.00271,476142214.71358,   0.00106,275793140.54658,   0.00113,  -0.00001,  -0.00087,   0.58285,   1.00000
406329468.35860,-3307123.86957,-141329772.06745,   0.00299,  -0.00081,  -0.00271,476155921.33408,   0.00106,275794775.76102,   0.00113,  -0.00001,  -0.00088,   0.61478,   1.00000
405127151.61226,-5798174.54251,-141270014.55419,   0.00299,  -0.00082,  -0.00271,476169311.74753,   0.00106,275796465.05689,   0.00113,  -0.00001,  -0.00088,   0.64548,   1.00000
403920782.72257,-8286932.75829,-141204314.83851,   0.00299,  -0.00083,  -0.00271,476177190.87459,   0.00106,275798183.36957,   0.00113,  -0.00001,  -0.00088,   0.65690,   1.00000
402703230.04584,-10787846.11749,-141132337.42077,   0.00299,  -0.00084,  -0.00272,476186231.94455,   0.00106,275799935.84293,   0.00113,  -0.00001,  -0.00088,   0.67189,   1.00000
401478672.99725,-13285970.16784,-141057453.72126,   0.00299,  -0.00085,  -0.00272,476197981.01789,   0.00107,275801734.58717,   0.00114,  -0.00001,  -0.00088,   0.69590,   1.00000
400242858.19834,-15796077.31500,-140976248.26036,   0.00299,  -0.00086,  -0.00272,476207305.26965,   0.00107,275803568.47586,   0.00114,  -0.00001,  -0.00088,   0.71094,   1.00000
398992774.52246,-18317674.07090,-140891732.50742,   0.00299,  -0.00087,  -0.00272,476220537.10016,   0.00107,275805455.06352,   0.00114,  -0.00001,  -0.00089,   0.73924,   1.00000
397734195.67603,-20851461.96087,-140797765.92123,   0.00299,  -0.00088,  -0.00272,476226560.89724,   0.00107,275807361.53118,   0.00114,  -0.00001,  -0.00089,   0.74149,   1.00000
396465684.10948,-23381636.62289,-140703903.62360,   0.00299,  -0.00089,  -0.00272,476242456.92238,   0.00107,275809332.51778,   0.00114,  -0.00001,  -0.00089,   0.77826,   1.00000
395188271.18953,-25930847.60919,-140597202.01154,   0.00299,  -0.00090,  -0.00272,476259863.48893,   0.00108,275811374.64401,   0.00114,  -0.00001,  -0.00089,   0.82013,   1.00000
393904167.39406,-28469677.42746,-140490884.97715,   0.00299,  -0.00091,  -0.00272,476261212.79936,   0.00108,275813414.82426,   0.00115,  -0.00002,  -0.00089,   0.80340,   1.00000
392600999.66605,-31034316.13043,-140377603.28302,   0.00299,  -0.00092,  -0.00272,476273123.16217,   0.00108,275815500.98693,   0.00115,  -0.00002,  -0.00089,   0.82410,   1.00000
391300910.03963,-33588294.92898,-140255413.32144,   0.00300,  -0.00093,  -0.00272,476291599.36392,   0.00108,275817662.76416,   0.00115,  -0.00002,  -0.00090,   0.86800,   1.00000
389979041.39834,-36160514.96184,-140132604.69089,   0.00300,  -0.00094,  -0.00272,476296492.51646,   0.00108,275819838.18014,   0.00115,  -0.00002,  -0.00090,   0.86182,   1.00000
388652733.84816,-38736168.56413,-140000373.02717,   0.00300,  -0.00095,  -0.00272,476316880.54990,   0.00109,275822097.60580,   0.00115,  -0.00002,  -0.00090,   0.91125,   1.00000
387319497.97824,-41307866.07432,-139865163.43812,   0.00300,  -0.00096,  -0.00272,476329831.68903,   0.00109,275824406.90572,   0.00116,  -0.00002,  -0.00090,   0.93282,   1.00000
385969896.61913,-43898680.03653,-139723087.49668,   0.00300,  -0.00097,  -0.00272,476327944.26800,   0.00109,275826698.37158,   0.00116,  -0.00002,  -0.00090,   0.89966,   1.00000
384610257.32901,-46491322.26436,-139577707.42531,   0.00300,  -0.00098,  -0.00272,476356097.99780,   0.00109,275829108.83096,   0.00116,  -0.00002,  -0.00091,   0.97481,   1.00000
383249316.96429,-49080872.98459,-139423180.82508,   0.00300,  -0.00100,  -0.00272,476362028.60871,   0.00109,275831536.60383,   0.00116,  -0.00002,  -0.00091,   0.96806,   1.00000
381881266.32434,-51672480.07650,-139262295.18206,   0.00300,  -0.00101,  -0.00272,476386727.68307,   0.00110,275834067.16059,   0.00116,  -0.00003,  -0.00091,   0.00000,   2.00000
380493740.19995,-54282308.03778,-139097490.46767,   0.00300,  -0.00102,  -0.00272,476389327.20864,   0.00110,275836599.34104,   0.00117,  -0.00003,  -0.00091,   0.00000,   2.00000
379099377.04589,-56887518.96529,-138929691.81435,   0.00300,  -0.00103,  -0.00272,476402909.50386,   0.00110,275839183.22784,   0.00117,  -0.00003,  -0.00091,   0.00000,   2.00000
377700727.50969,-59494924.10994,-138752428.10072,   0.00300,  -0.00104,  -0.00272,476424374.40172,   0.00110,275841854.59792,   0.00117,  -0.00003,  -0.00092,   0.00000,   2.00000
376279648.21486,-62119626.95125,-138574239.06894,   0.00300,  -0.00105,  -0.00272,476431218.29453,   0.00111,275844546.34925,   0.00117,  -0.00003,  -0.00092,   0.00000,   2.00000
374865002.73075,-64732728.28733,-138384153.16640,   0.00301,  -0.00106,  -0.00272,476447027.52734,   0.00111,275847299.34380,   0.00117,  -0.00003,  -0.00092,   0.00000,   2.00000
373432947.97875,-67354166.24765,-138193503.62370,   0.00301,  -0.00107,  -0.00272,476467013.11094,   0.00111,275850132.43553,   0.00118,  -0.00003,  -0.00092,   0.00000,   2.00000
371991527.07755,-69985948.08285,-137992953.16474,   0.00301,  -0.00108,  -0.00272,476476312.21675,   0.00111,275852996.43612,   0.00118,  -0.00004,  -0.00093,   0.00000,   2.00000
370551378.29986,-72604250.10409,-137786772.64643,   0.00301,  -0.00109,  -0.00272,476499618.07204,   0.00112,275855955.29378,   0.00118,  -0.00004,  -0.00093,   0.00000,   2.00000
369088591.66573,-75239326.52604,-137579560.68580,   0.00301,  -0.00110,  -0.00272,476507377.33753,   0.00112,275858937.47491,   0.00118,  -0.00004,  -0.00093,   0.00000,   2.00000
367629911.44035,-77861394.69630,-137363647.50151,   0.00301,  -0.00111,  -0.00272,476527182.97520,   0.00112,275861998.03228,   0.00119,  -0.00004,  -0.00093,   0.00000,   2.00000
366159190.33154,-80492581.37116,-137140917.90460,   0.00301,  -0.00112,  -0.00272,476540694.11637,   0.00113,275865107.81286,   0.00119,  -0.00004,  -0.00094,   0.00000,   2.00000
364676376.34338,-83132741.12501,-136911345.04963,   0.00301,  -0.00113,  -0.00272,476554420.71879,   0.00113,275868267.60013,   0.00119,  -0.00004,  -0.00094,   0.00000,   2.00000
363184556.95377,-85766127.73124,-136681989.12959,   0.00301,  -0.00114,  -0.00272,476572693.58098,   0.00113,275871498.02725,   0.00119,  -0.00005,  -0.00094,   0.00000,   2.00000
361683238.82888,-88409069.97453,-136442640.28458,   0.00301,  -0.00115,  -0.00272,476583133.67997,   0.00113,275874762.87068,   0.00120,  -0.00005,  -0.00094,   0.00000,   2.00000
360183843.28437,-91037446.42733,-136197837.70579,   0.00302,  -0.00117,  -0.00272,476606869.81558,   0.00114,275878122.98876,   0.00120,  -0.00005,  -0.00095,   0.00000,   2.00000
358672404.04643,-93674274.13489,-135946184.10566,   0.00302,  -0.00118,  -0.00272,476621178.81775,   0.00114,275881534.71119,   0.00120,  -0.00005,  -0.00095,   0.00000,   2.00000
357146342.87887,-96318507.15427,-135690800.57437,   0.00302,  -0.00119,  -0.00272,476639277.42921,   0.00114,275885015.22471,   0.00120,  -0.00005,  -0.00095,   0.00000,   2.00000
355616671.04097,-98957078.90412,-135429427.96907,   0.00302,  -0.00120,  -0.00272,476650853.76422,   0.00115,275888534.26345,   0.00121,  -0.00005,  -0.00096,   0.00000,   2.00000
354072412.98662,-101602765.04316,-135164320.99556,   0.00302,  -0.00121,  -0.00272,476669240.91425,   0.00115,275892122.96286,   0.00121,  -0.00006,  -0.00096,  -0.00000,   2.00000
352533092.93750,-104234025.74859,-134890753.79958,   0.00302,  -0.00122,  -0.00271,476689735.06140,   0.00115,275895790.70230,   0.00121,  -0.00006,  -0.00096,   0.00000,   2.00000
350979285.65499,-106872095.04785,-134613478.95071,   0.00302,  -0.00123,  -0.00271,476708384.33975,   0.00116,275899528.66208,   0.00122,  -0.00006,  -0.00096,   0.00000,   2.00000
349422080.17651,-109504089.12402,-134330281.97030,   0.00302,  -0.00124,  -0.00271,476720297.81374,   0.00116,275903305.53797,   0.00122,  -0.00006,  -0.00097,  -0.00000,   2.00000
347861489.06568,-112134918.41113,-134037763.23309,   0.00302,  -0.00125,  -0.00271,476744344.10449,   0.00116,275907176.99401,   0.00122,  -0.00006,  -0.00097,   0.00000,   2.00000
346286526.87695,-114767167.16723,-133744975.98481,   0.00303,  -0.00126,  -0.00271,476751323.78252,   0.00117,275911064.04188,   0.00123,  -0.00007,  -0.00097,   0.00000,   2.00000
344705880.68578,-117396909.96856,-133446072.49461,   0.00303,  -0.00128,  -0.00271,476779118.90902,   0.00117,275915062.46676,   0.00123,  -0.00007,  -0.00098,   0.00000,   2.00000
343124457.17372,-120021189.76146,-133138136.05833,   0.00303,  -0.00129,  -0.00271,476787859.59747,   0.00118,275919083.99225,   0.00123,  -0.00007,  -0.00098,   0.00000,   2.00000
341535148.89025,-122641567.63939,-132827338.92836,   0.00303,  -0.00130,  -0.00271,476819342.28192,   0.00118,275923233.31053,   0.00124,  -0.00007,  -0.00098,  -0.00000,   2.00000
339934000.22879,-125268708.48641,-132509698.29029,   0.00303,  -0.00131,  -0.00271,476835507.86134,   0.00118,275927439.25900,   0.00124,  -0.00008,  -0.00099,  -0.00000,   2.00000
338329826.45300,-127889020.91481,-132186264.18362,   0.00303,  -0.00132,  -0.00271,476848061.56158,   0.00119,275931684.91505,   0.00124,  -0.00008,  -0.00099,  -0.00000,   2.00000
336720354.91492,-130501367.67928,-131860269.13740,   0.00303,  -0.00133,  -0.00271,476864107.85042,   0.00119,275935986.19248,   0.00125,  -0.00008,  -0.00099,   0.00000,   2.00000
335108092.59344,-133111210.40140,-131525126.91756,   0.00303,  -0.00134,  -0.00271,476889028.42855,   0.00119,275940383.77574,   0.00125,  -0.00008,  -0.00100,   0.00000,   2.00000
333481683.00334,-135721783.52787,-131189794.92029,   0.00303,  -0.00135,  -0.00271,476896859.29180,   0.00120,275944798.36164,   0.00125,  -0.00009,  -0.00100,   0.00000,   2.00000
331861691.62436,-138320566.52448,-130843065.44360,   0.00304,  -0.00137,  -0.00270,476930318.79350,   0.00120,275949348.15453,   0.00126,  -0.00009,  -0.00100,   0.00000,   2.00000
330227643.53749,-140919907.64704,-130496185.57768,   0.00304,  -0.00138,  -0.00270,476938343.46757,   0.00121,275953915.10980,   0.00126,  -0.00009,  -0.00101,   0.00000,   2.00000
328591127.59720,-143516080.80180,-130140262.31392,   0.00304,  -0.00139,  -0.00270,476963686.68037,   0.00121,275958579.11031,   0.00126,  -0.00010,  -0.00101,   0.00000,   2.00000
326949809.61802,-146103606.83156,-129781962.40019,   0.00304,  -0.00140,  -0.00270,476980143.89289,   0.00122,275963298.65849,   0.00127,  -0.00010,  -0.00101,   0.00000,   2.00000
325296956.94444,-148696695.85838,-129416911.21090,   0.00304,  -0.00141,  -0.00270,476997503.24196,   0.00122,275968077.65757,   0.00127,  -0.00010,  -0.00102,   0.00000,   2.00000
323648744.41585,-151271829.15111,-129047323.98658,   0.00304,  -0.00142,  -0.00270,477022255.18828,   0.00123,275972949.97848,   0.00127,  -0.00010,  -0.00102,   0.00000,   2.00000
321996022.79613,-153838024.26173,-128675472.18573,   0.00304,  -0.00143,  -0.00270,477038839.09441,   0.00123,275977877.42607,   0.00128,  -0.00011,  -0.00103,  -0.00000,   2.00000
320331936.18545,-156409408.95295,-128296929.38023,   0.00305,  -0.00145,  -0.00270,477056527.82268,   0.00123,275982864.84078,   0.00128,  -0.00011,  -0.00103,  -0.00000,   2.00000
318675077.44208,-158963694.57258,-127910749.87357,   0.00305,  -0.00146,  -0.00270,477077932.49189,   0.00124,275987929.10423,   0.00129,  -0.00011,  -0.00103,   0.00000,   2.00000
317004796.14850,-161521675.53287,-127521192.78053,   0.00305,  -0.00147,  -0.00269,477099235.28174,   0.00124,275993069.38071,   0.00129,  -0.00012,  -0.00104,   0.00000,   2.00000
315332458.02423,-164071527.53002,-127126223.31027,   0.00305,  -0.00148,  -0.00269,477112737.85016,   0.00125,275998249.21617,   0.00129,  -0.00012,  -0.00104,   0.00000,   2.00000
313665597.87551,-166602724.00450,-126727047.45852,   0.00305,  -0.00149,  -0.00269,477137527.92121,   0.00125,276003520.61885,   0.00130,  -0.00012,  -0.00104,   0.00000,   2.00000
311985543.50683,-169137218.08904,-126324579.20200,   0.00305,  -0.00150,  -0.00269,477159118.05701,   0.00126,276008868.34656,   0.00130,  -0.00013,  -0.00105,   0.00000,   2.00000
310313349.91228,-171654077.87178,-125914728.20758,   0.00305,  -0.00152,  -0.00269,477180628.22629,   0.00126,276014291.64790,   0.00131,  -0.00013,  -0.00105,   0.00000,   2.00000
308618397.41370,-174183240.46884,-125503703.06649,   0.00306,  -0.00153,  -0.00269,477194613.26539,   0.00127,276019755.32791,   0.00131,  -0.00013,  -0.00106,   0.00000,   2.00000
306940820.31923,-176681889.25165,-125086661.84453,   0.00306,  -0.00154,  -0.00269,477211280.72346,   0.00127,276025271.56957,   0.00132,  -0.00014,  -0.00106,   0.97848,   1.00000
305250809.00057,-179186618.58770,-124663119.53987,   0.00306,  -0.00155,  -0.00269,477245964.60534,   0.00128,276030923.52522,   0.00132,  -0.00014,  -0.00106,   0.97717,   1.00000
303566655.41307,-181668763.24237,-124239041.83641,   0.00306,  -0.00156,  -0.00268,477258087.68744,   0.00128,276036606.07391,   0.00132,  -0.00014,  -0.00107,   0.93914,   1.00000
301871768.18347,-184154758.31992,-123808532.60179,   0.00306,  -0.00157,  -0.00268,477276969.29543,   0.00129,276042350.34167,   0.00133,  -0.00015,  -0.00107,   0.91140,   1.00000
300185477.95844,-186622561.96004,-123370951.20659,   0.00306,  -0.00159,  -0.00268,477298548.26442,   0.00129,276048168.49702,   0.00133,  -0.00015,  -0.00108,   0.88748,   1.00000
298495997.35976,-189080198.22815,-122931668.41847,   0.00306,  -0.00160,  -0.00268,477315691.35362,   0.00130,276054039.61870,   0.00134,  -0.00016,  -0.00108,   0.85710,   1.00000
296794005.60525,-191539993.75730,-122489373.49516,   0.00307,  -0.00161,  -0.00268,477338102.79836,   0.00131,276059987.83422,   0.00134,  -0.00016,  -0.00109,   0.83349,   1.00000
295100990.00576,-193981340.23131,-122040164.81517,   0.00307,  -0.00162,  -0.00268,477359704.30645,   0.00131,276066008.99405,   0.00135,  -0.00016,  -0.00109,   0.80875,   1.00000
293405080.02531,-196412294.04844,-121589381.91259,   0.00307,  -0.00163,  -0.00268,477376939.61929,   0.00132,276072082.49542,   0.00135,  -0.00017,  -0.00109,   0.77866,   1.00000
291707053.77659,-198835569.52098,-121133797.56690,   0.00307,  -0.00165,  -0.00267,477407079.22147,   0.00132,276078267.84311,   0.00136,  -0.00017,  -0.00110,   0.76368,   1.00000
290008227.47781,-201249667.68963,-120673364.22904,   0.00307,  -0.00166,  -0.00267,477421222.37876,   0.00133,276084490.36359,   0.00136,  -0.00018,  -0.00110,   0.73042,   1.00000
288306801.44443,-203653160.87913,-120211485.39672,   0.00307,  -0.00167,  -0.00267,477438543.73615,   0.00133,276090764.56938,   0.00137,  -0.00018,  -0.00111,   0.70143,   1.00000
286614997.08784,-206037883.75357,-119742981.60153,   0.00308,  -0.00168,  -0.00267,477460071.61101,   0.00134,276097109.66639,   0.00137,  -0.00019,  -0.00111,   0.67750,   1.00000
284920807.08530,-208411941.96610,-119273140.41780,   0.00308,  -0.00169,  -0.00267,477477348.87451,   0.00135,276103505.58667,   0.00138,  -0.00019,  -0.00112,   0.64993,   1.00000
283226950.48556,-210779158.98588,-118795388.24416,   0.00308,  -0.00171,  -0.00267,477504491.42651,   0.00135,276109997.76519,   0.00138,  -0.00019,  -0.00112,   0.63210,   1.00000
281529104.48860,-213134136.19472,-118319785.85235,   0.00308,  -0.00172,  -0.00266,477524968.98613,   0.00136,276116554.82386,   0.00139,  -0.00020,  -0.00113,   0.60864,   1.00000
279841409.48365,-215470112.91910,-117837797.99088,   0.00308,  -0.00173,  -0.00266,477546433.34171,   0.00136,276123180.98485,   0.00139,  -0.00020,  -0.00113,   0.58696,   1.00000
278143920.10382,-217808519.27985,-117349827.99865,   0.00309,  -0.00174,  -0.00266,477566513.84161,   0.00137,276129869.47068,   0.00140,  -0.00021,  -0.00114,   0.56485,   1.00000
276454123.40098,-220124122.39256,-116862184.76633,   0.00309,  -0.00175,  -0.00266,477578033.51790,   0.00138,276136580.27200,   0.00140,  -0.00021,  -0.00114,   0.53756,   1.00000
274763483.33176,-222430940.41634,-116370304.68419,   0.00309,  -0.00177,  -0.00266,477608410.13127,   0.00138,276143400.61916,   0.00141,  -0.00022,  -0.00114,   0.52542,   1.00000
273072873.55861,-224728184.48737,-115873989.12782,   0.00309,  -0.00178,  -0.00266,477622733.74866,   0.00139,276150255.56477,   0.00141,  -0.00022,  -0.00115,   0.50289,   1.00000
271391299.23850,-227004729.54676,-115375009.73136,   0.00309,  -0.00179,  -0.00265,477647149.43057,   0.00140,276157191.66050,   0.00142,  -0.00023,  -0.00115,   0.48876,   1.00000
269708241.82639,-229270219.74690,-114875128.33240,   0.00310,  -0.00180,  -0.00265,477664468.97159,   0.00140,276164175.59727,   0.00142,  -0.00023,  -0.00116,   0.47136,   1.00000
268025458.52718,-231526102.59811,-114370936.21865,   0.00310,  -0.00181,  -0.00265,477678765.27576,   0.00141,276171193.09681,   0.00143,  -0.00024,  -0.00116,   0.45382,   1.00000
266342449.99451,-233772718.88329,-113862795.09823,   0.00310,  -0.00183,  -0.00265,477709228.99171,   0.00142,276178318.85645,   0.00143,  -0.00024,  -0.00117,   0.44753,   1.00000
264678714.72344,-235986995.84491,-113353733.50578,   0.00310,  -0.00184,  -0.00265,477727236.60070,   0.00142,276185494.60412,   0.00144,  -0.00025,  -0.00117,   0.43571,   1.00000
263005829.68164,-238203090.58531,-112839026.89586,   0.00310,  -0.00185,  -0.00264,477747785.78543,   0.00143,276192731.83105,   0.00144,  -0.00025,  -0.00118,   0.42706,   1.00000
261331921.22582,-240407975.45014,-112323653.05579,   0.00311,  -0.00186,  -0.00264,477765107.69221,   0.00144,276200015.24858,   0.00145,  -0.00026,  -0.00118,   0.41858,   1.00000
259668000.84008,-242591929.65768,-111806065.64882,   0.00311,  -0.00187,  -0.00264,477789207.98793,   0.00144,276207375.98350,   0.00145,  -0.00026,  -0.00119,   0.41577,   1.00000
258015790.79197,-244756466.92489,-111282861.84089,   0.00311,  -0.00189,  -0.00264,477810288.91891,   0.00145,276214799.63286,   0.00146,  -0.00027,  -0.00119,   0.41343,   1.00000
256361302.14977,-246908312.05713,-110762649.39884,   0.00311,  -0.00190,  -0.00264,477830410.29149,   0.00146,276222281.40421,   0.00147,  -0.00027,  -0.00120,   0.41275,   1.00000
254709274.43155,-249051980.62608,-110234978.39429,   0.00312,  -0.00191,  -0.00263,477841785.42989,   0.00146,276229780.47432,   0.00147,  -0.00028,  -0.00120,   0.40986,   1.00000
253066215.45464,-251173186.34903,-109708863.57440,   0.00312,  -0.00192,  -0.00263,477868512.13675,   0.00147,276237367.79190,   0.00148,  -0.00029,  -0.00121,   0.41713,   1.00000
251424220.05128,-253284726.87175,-109178874.66965,   0.00312,  -0.00193,  -0.00263,477882754.55603,   0.00148,276244985.08801,   0.00148,  -0.00029,  -0.00121,   0.42041,   1.00000
249792982.18244,-255375326.55921,-108647067.72992,   0.00312,  -0.00195,  -0.00263,477906449.43953,   0.00149,276252675.92768,   0.00149,  -0.00030,  -0.00122,   0.43098,   1.00000
248153190.92820,-257467248.19193,-108109952.87924,   0.00312,  -0.00196,  -0.00263,477927411.22664,   0.00149,276260427.25661,   0.00149,  -0.00030,  -0.00122,   0.44274,   1.00000
246532685.71231,-259525695.58970,-107576192.59346,   0.00313,  -0.00197,  -0.00262,477947129.04528,   0.00150,276268232.97898,   0.00150,  -0.00031,  -0.00123,   0.45639,   1.00000
244914977.47510,-261576067.89510,-107035193.32915,   0.00313,  -0.00198,  -0.00262,477958472.87314,   0.00151,276276054.03886,   0.00150,  -0.00031,  -0.00123,   0.46805,   1.00000
243307057.71587,-263603998.34130,-106496173.24772,   0.00313,  -0.00199,  -0.00262,477984706.08886,   0.00151,276283959.20533,   0.00151,  -0.00032,  -0.00124,   0.49064,   1.00000
241699198.31981,-265620832.87286,-105957078.53729,   0.00313,  -0.00201,  -0.00262,478001618.45572,   0.00152,276291904.90381,   0.00152,  -0.00033,  -0.00124,   0.51070,   1.00000
240094458.61065,-267629047.80184,-105411456.51327,   0.00314,  -0.00202,  -0.00262,478029093.70218,   0.00153,276299939.74556,   0.00152,  -0.00033,  -0.00125,   0.54005,   1.00000
238499704.63775,-269615431.28508,-104867382.60035,   0.00314,  -0.00203,  -0.00261,478039039.21485,   0.00154,276307982.18410,   0.00153,  -0.00034,  -0.00125,   0.56125,   1.00000
236918025.74996,-271582516.51619,-104318424.72403,   0.00314,  -0.00204,  -0.00261,478059431.13945,   0.00154,276316080.44520,   0.00153,  -0.00034,  -0.00126,   0.59181,   1.00000
235335339.24488,-273537047.26094,-103773151.45802,   0.00314,  -0.00205,  -0.00261,478078945.32377,   0.00155,276324230.15245,   0.00154,  -0.00035,  -0.00126,   0.62479,   1.00000
233754443.80187,-275482116.90289,-103224440.85997,   0.00315,  -0.00207,  -0.00261,478092977.23398,   0.00156,276332405.66995,   0.00155,  -0.00036,  -0.00127,   0.65675,   1.00000
232208197.81636,-277387683.01512,-102671205.96246,   0.00315,  -0.00208,  -0.00261,478112234.96113,   0.00157,276340630.98829,   0.00155,  -0.00036,  -0.00127,   0.69493,   1.00000
230639861.18106,-279301106.70467,-102121599.22755,   0.00315,  -0.00209,  -0.00260,478132529.64544,   0.00157,276348910.60439,   0.00156,  -0.00037,  -0.00128,   0.73743,   1.00000
229096646.35391,-281185555.66270,-101566059.40349,   0.00315,  -0.00210,  -0.00260,478158798.64411,   0.00158,276357271.81080,   0.00156,  -0.00038,  -0.00128,   0.78792,   1.00000
227563942.54318,-283048836.53096,-101012406.12360,   0.00316,  -0.00211,  -0.00260,478168054.88535,   0.00159,276365635.58457,   0.00157,  -0.00038,  -0.00129,   0.82639,   1.00000
226022228.66403,-284911663.29734,-100457589.16918,   0.00316,  -0.00213,  -0.00260,478191859.72734,   0.00160,276374069.05632,   0.00158,  -0.00039,  -0.00129,   0.88138,   1.00000
224502842.15707,-286743653.99181,-99903458.61565,   0.00316,  -0.00214,  -0.00259,478207030.42675,   0.00161,276382531.98049,   0.00158,  -0.00040,  -0.00130,   0.93077,   1.00000
222985621.98580,-288566534.07635,-99346166.33610,   0.00317,  -0.00215,  -0.00259,478220776.84808,   0.00161,276391017.59841,   0.00159,  -0.00040,  -0.00130,   0.98147,   1.00000
221481103.27283,-290368972.40142,-98788134.06216,   0.00317,  -0.00216,  -0.00259,478243107.26171,   0.00162,276399565.38448,   0.00159,  -0.00041,  -0.00131,   0.00000,   2.00000
219977618.98767,-292160826.81117,-98230643.60468,   0.00317,  -0.00217,  -0.00259,478259401.07360,   0.00163,276408147.12894,   0.00160,  -0.00042,  -0.00131,  -0.00000,   2.00000
218496821.36287,-293922290.23837,-97674057.57709,   0.00317,  -0.00219,  -0.00259,478274020.67713,   0.00164,276416754.91123,   0.00161,  -0.00042,  -0.00132,  -0.00000,   2.00000
217019213.58183,-295673558.73952,-97115362.73112,   0.00318,  -0.00220,  -0.00258,478303604.44725,   0.00165,276425457.58089,   0.00161,  -0.00043,  -0.00132,   0.00000,   2.00000
215553800.85102,-297405997.39965,-96555223.84277,   0.00318,  -0.00221,  -0.00258,478309577.73597,   0.00165,276434145.75360,   0.00162,  -0.00044,  -0.00133,   0.00000,   2.00000
214089637.40922,-299128116.70450,-95995783.48835,   0.00318,  -0.00222,  -0.00258,478325614.77595,   0.00166,276442865.86744,   0.00163,  -0.00044,  -0.00133,   0.00000,   2.00000
212638696.11510,-300830152.95258,-95435915.43143,   0.00319,  -0.00223,  -0.00258,478347414.65910,   0.00167,276451644.29316,   0.00163,  -0.00045,  -0.00134,  -0.00000,   2.00000
211211986.43691,-302503914.97508,-94873546.90454,   0.00319,  -0.00225,  -0.00257,478358876.06222,   0.00168,276460433.07230,   0.00164,  -0.00046,  -0.00134,   0.00000,   2.00000
209775753.17935,-304175836.57404,-94314141.61871,   0.00319,  -0.00226,  -0.00257,478384954.35818,   0.00169,276469299.45336,   0.00164,  -0.00047,  -0.00135,   0.00000,   2.00000
208363888.83202,-305819675.63030,-93752315.57972,   0.00320,  -0.00227,  -0.00257,478396229.56970,   0.00170,276478174.83824,   0.00165,  -0.00047,  -0.00135,   0.00000,   2.00000
206963292.73465,-307443888.22495,-93192907.79738,   0.00320,  -0.00228,  -0.00257,478404093.32026,   0.00170,276487043.45010,   0.00166,  -0.00048,  -0.00135,  -0.00000,   2.00000
205566496.66257,-309058108.01982,-92631797.71805,   0.00320,  -0.00229,  -0.00256,478433222.59872,   0.00171,276496003.19326,   0.00166,  -0.00049,  -0.00136,  -0.00000,   2.00000
204181065.06467,-310652895.64763,-92073166.81904,   0.00320,  -0.00231,  -0.00256,478440936.15242,   0.00172,276504955.00910,   0.00167,  -0.00049,  -0.00136,   0.00000,   2.00000
202810422.35132,-312229703.69379,-91510747.30655,   0.00321,  -0.00232,  -0.00256,478459621.76874,   0.00173,276513949.40506,   0.00168,  -0.00050,  -0.00137,   0.00000,   2.00000
201450139.12731,-313785839.98789,-90954575.86992,   0.00321,  -0.00233,  -0.00256,478469491.00525,   0.00174,276522945.58405,   0.00168,  -0.00051,  -0.00137,   0.00000,   2.00000
200094981.08396,-315333645.24373,-90393172.81016,   0.00321,  -0.00234,  -0.00255,478496002.15000,   0.00175,276532020.04685,   0.00169,  -0.00052,  -0.00138,   0.00000,   2.00000
198761075.89156,-316853098.16692,-89835879.53696,   0.00322,  -0.00235,  -0.00255,478495262.90541,   0.00175,276541047.08337,   0.00170,  -0.00052,  -0.00138,   0.00000,   2.00000
197432370.95092,-318364324.31143,-89273436.75620,   0.00322,  -0.00236,  -0.00255,478521650.67976,   0.00176,276550151.60983,   0.00170,  -0.00053,  -0.00139,   0.00000,   2.00000
196126414.99930,-319845617.57162,-88716371.16153,   0.00322,  -0.00238,  -0.00255,478536515.73822,   0.00177,276559280.26220,   0.00171,  -0.00054,  -0.00139,   0.00000,   2.00000
194822269.11161,-321317743.58054,-88160481.17782,   0.00323,  -0.00239,  -0.00254,478551583.63449,   0.00178,276568433.82266,   0.00171,  -0.00055,  -0.00140,   0.00000,   2.00000
193542974.61576,-322763264.79630,-87602563.41400,   0.00323,  -0.00240,  -0.00254,478561496.64870,   0.00179,276577588.47912,   0.00172,  -0.00055,  -0.00140,   0.00000,   2.00000
192265518.21922,-324199810.69705,-87045879.21598,   0.00323,  -0.00241,  -0.00254,478576408.12583,   0.00180,276586767.15557,   0.00173,  -0.00056,  -0.00141,  -0.00000,   2.00000
191002259.76114,-325617678.65756,-86489485.27482,   0.00324,  -0.00242,  -0.00254,478596615.11663,   0.00181,276595994.02353,   0.00173,  -0.00057,  -0.00141,   0.00000,   2.00000
189750638.28632,-327017588.32938,-85935864.78435,   0.00324,  -0.00243,  -0.00253,478603158.52959,   0.00181,276605206.11077,   0.00174,  -0.00058,  -0.00142,   0.00000,   2.00000
188513300.61034,-328399041.05790,-85382602.75205,   0.00324,  -0.00245,  -0.00253,478623139.85600,   0.00182,276614465.13927,   0.00175,  -0.00058,  -0.00142,   0.00000,   2.00000
187288555.53842,-329764309.10714,-84828386.96871,   0.00325,  -0.00246,  -0.00253,478627222.47112,   0.00183,276623697.92585,   0.00175,  -0.00059,  -0.00143,   0.00000,   2.00000
186077234.80031,-331109846.22038,-84278371.81789,   0.00325,  -0.00247,  -0.00253,478649216.41698,   0.00184,276632986.73475,   0.00176,  -0.00060,  -0.00143,  -0.00000,   2.00000
184868795.80262,-332448420.34242,-83725954.94213,   0.00326,  -0.00248,  -0.00252,478661516.69520,   0.00185,276642286.81242,   0.00177,  -0.00061,  -0.00144,  -0.00000,   2.00000
183684502.16750,-333759970.21205,-83175503.60498,   0.00326,  -0.00249,  -0.00252,478672730.01936,   0.00186,276651593.12032,   0.00177,  -0.00062,  -0.00144,  -0.00000,   2.00000
182524361.37424,-335044719.63415,-82627049.57169,   0.00326,  -0.00250,  -0.00252,478683746.52897,   0.00187,276660904.72746,   0.00178,  -0.00062,  -0.00145,   0.00000,   2.00000
181366190.54876,-336321405.30310,-82080040.80683,   0.00327,  -0.00252,  -0.00252,478697961.24069,   0.00188,276670236.23843,   0.00179,  -0.00063,  -0.00145,   0.00000,   2.00000
180222530.42618,-337580370.82669,-81533623.72059,   0.00327,  -0.00253,  -0.00251,478717238.88398,   0.00188,276679610.72855,   0.00179,  -0.00064,  -0.00145,  -0.00000,   2.00000
179090570.13461,-338822648.74106,-80990140.78419,   0.00327,  -0.00254,  -0.00251,478722833.56660,   0.00189,276688965.32365,   0.00180,  -0.00065,  -0.00146,   0.00000,   2.00000
177982853.50206,-340038719.56952,-80448745.90206,   0.00328,  -0.00255,  -0.00251,478733322.67067,   0.00190,276698322.53641,   0.00180,  -0.00066,  -0.00146,  -0.00000,   2.00000
176877969.16759,-341248581.52604,-79905055.47190,   0.00328,  -0.00256,  -0.00251,478745123.53337,   0.00191,276707688.33944,   0.00181,  -0.00066,  -0.00147,  -0.00000,   2.00000
175797344.37421,-342432508.19356,-79363502.50626,   0.00329,  -0.00257,  -0.00250,478755376.45656,   0.00192,276717055.61556,   0.00182,  -0.00067,  -0.00147,   0.00000,   2.00000
174717883.80841,-343607548.02690,-78827318.42347,   0.00329,  -0.00258,  -0.00250,478771215.86946,   0.00193,276726449.89020,   0.00182,  -0.00068,  -0.00148,   0.00000,   2.00000
173663538.42677,-344758384.71430,-78289477.44981,   0.00329,  -0.00259,  -0.00250,478779143.36103,   0.00194,276735834.85993,   0.00183,  -0.00069,  -0.00148,  -0.00000,   2.00000
172623815.11242,-345892316.10297,-77752416.74840,   0.00330,  -0.00261,  -0.00250,478797679.62207,   0.00195,276745259.06134,   0.00184,  -0.00070,  -0.00149,   0.00000,   2.00000
171595725.16991,-347010588.92274,-77218370.44363,   0.00330,  -0.00262,  -0.00249,478802524.28786,   0.00195,276754659.72641,   0.00184,  -0.00070,  -0.00149,   0.00000,   2.00000
170591928.99010,-348103713.68929,-76686552.27465,   0.00331,  -0.00263,  -0.00249,478812111.77519,   0.00196,276764058.65693,   0.00185,  -0.00071,  -0.00149,   0.00000,   2.00000
169590852.96891,-349191354.98549,-76152514.32258,   0.00331,  -0.00264,  -0.00249,478823458.03730,   0.00197,276773463.88157,   0.00186,  -0.00072,  -0.00150,   0.00000,   2.00000
168613301.55847,-350252714.11070,-75624587.29309,   0.00331,  -0.00265,  -0.00249,478834818.64358,   0.00198,276782875.44765,   0.00186,  -0.00073,  -0.00150,  -0.00000,   2.00000
167637685.56437,-351307390.68729,-75098301.64538,   0.00332,  -0.00266,  -0.00248,478848026.25352,   0.00199,276792301.74094,   0.00187,  -0.00074,  -0.00151,   0.00000,   2.00000
166687129.58225,-352338856.33685,-74570445.67493,   0.00332,  -0.00267,  -0.00248,478855194.03734,   0.00200,276801715.14025,   0.00188,  -0.00074,  -0.00151,  -0.00000,   2.00000
165747351.55859,-353354149.01648,-74049492.80756,   0.00333,  -0.00268,  -0.00248,478861355.62833,   0.00201,276811111.12551,   0.00188,  -0.00075,  -0.00152,   0.00000,   2.00000
164822977.85500,-354354828.81518,-73525606.66144,   0.00333,  -0.00269,  -0.00248,478877141.12702,   0.00202,276820533.68226,   0.00189,  -0.00076,  -0.00152,   0.00000,   2.00000
163919693.37595,-355332739.83070,-73006134.24564,   0.00333,  -0.00271,  -0.00247,478872262.88977,   0.00203,276829888.47599,   0.00190,  -0.00077,  -0.00152,  -0.00000,   2.00000
163020729.02910,-356301770.35201,-72490137.15194,   0.00334,  -0.00272,  -0.00247,478900587.58670,   0.00203,276839327.19441,   0.00190,  -0.00078,  -0.00153,   0.00000,   2.00000
162156342.62632,-357240129.05002,-71973953.70440,   0.00334,  -0.00273,  -0.00247,478898274.74471,   0.00204,276848709.82237,   0.00191,  -0.00079,  -0.00153,   0.00000,   2.00000
161293739.70763,-358172602.91279,-71459474.55164,   0.00335,  -0.00274,  -0.00246,478910906.00720,   0.00205,276858104.72341,   0.00191,  -0.00079,  -0.00154,   0.00000,   2.00000
160455355.97640,-359081534.88221,-70947350.09942,   0.00335,  -0.00275,  -0.00246,478919175.74222,   0.00206,276867491.99053,   0.00192,  -0.00080,  -0.00154,   0.00000,   2.00000
159628302.64491,-359976688.77984,-70438272.46010,   0.00336,  -0.00276,  -0.00246,478922664.96847,   0.00207,276876849.90293,   0.00193,  -0.00081,  -0.00154,   0.00000,   2.00000
158812555.66814,-360858194.92635,-69932229.13096,   0.00336,  -0.00277,  -0.00246,478926041.02940,   0.00208,276886178.10445,   0.00193,  -0.00082,  -0.00155,   0.00000,   2.00000
158024947.67547,-361716395.51263,-69422660.21707,   0.00336,  -0.00278,  -0.00245,478945735.92319,   0.00209,276895551.03772,   0.00194,  -0.00083,  -0.00155,  -0.00000,   2.00000
157235006.75738,-362569463.46246,-68920703.77927,   0.00337,  -0.00279,  -0.00245,478946190.42560,   0.00210,276904880.92625,   0.00195,  -0.00083,  -0.00156,  -0.00000,   2.00000
156482105.55892,-363390140.93316,-68420456.30960,   0.00337,  -0.00280,  -0.00245,478958431.29457,   0.00210,276914221.64262,   0.00195,  -0.00084,  -0.00156,   0.00000,   2.00000
155730805.29981,-364205701.95126,-67921939.60943,   0.00338,  -0.00281,  -0.00245,478970522.57428,   0.00211,276923572.44501,   0.00196,  -0.00085,  -0.00156,   0.00000,   2.00000
155000850.60719,-365001632.17253,-67423826.96765,   0.00338,  -0.00282,  -0.00244,478962573.18124,   0.00212,276932842.19711,   0.00197,  -0.00086,  -0.00157,   0.00000,   2.00000
154284740.71373,-365781793.77021,-66930719.32939,   0.00339,  -0.00283,  -0.00244,478980781.31010,   0.00213,276942150.21357,   0.00197,  -0.00087,  -0.00157,  -0.00000,   2.00000
153580331.88159,-366550516.86609,-66436700.18162,   0.00339,  -0.00284,  -0.00244,478981766.87792,   0.00214,276951418.05051,   0.00198,  -0.00088,  -0.00157,   0.00000,   2.00000
152899292.53921,-367295824.31766,-65948980.31349,   0.00340,  -0.00285,  -0.00244,478990632.47518,   0.00215,276960681.73815,   0.00198,  -0.00088,  -0.00158,  -0.00000,   2.00000
152242822.16690,-368020437.26165,-65459708.30167,   0.00340,  -0.00286,  -0.00243,478995904.85048,   0.00216,276969925.00600,   0.00199,  -0.00089,  -0.00158,   0.00000,   2.00000
151596658.56071,-368731504.82151,-64977352.74135,   0.00341,  -0.00287,  -0.00243,479000041.60841,   0.00217,276979142.81395,   0.00200,  -0.00090,  -0.00159,   0.00000,   2.00000
150952476.01432,-369439431.03146,-64492781.63676,   0.00341,  -0.00288,  -0.00243,479009885.76216,   0.00217,276988361.19654,   0.00200,  -0.00091,  -0.00159,   0.00000,   2.00000
150341695.07995,-370117967.20063,-64011823.28139,   0.00341,  -0.00289,  -0.00242,479007382.19121,   0.00218,276997524.15725,   0.00201,  -0.00092,  -0.00159,   0.00000,   2.00000
149744616.09232,-370781574.23792,-63535929.75343,   0.00342,  -0.00290,  -0.00242,479024856.43514,   0.00219,277006722.63632,   0.00202,  -0.00093,  -0.00160,   0.00000,   2.00000
149158899.57268,-371434607.43251,-63059037.76296,   0.00342,  -0.00291,  -0.00242,479025285.84918,   0.00220,277015879.14752,   0.00202,  -0.00093,  -0.00160,   0.00000,   2.00000
148593423.69501,-372068242.66008,-62586299.67968,   0.00343,  -0.00292,  -0.00242,479018012.50695,   0.00221,277024959.00047,   0.00203,  -0.00094,  -0.00160,   0.00000,   2.00000
148041584.88032,-372687278.26246,-62118632.68719,   0.00343,  -0.00293,  -0.00241,479035169.18192,   0.00222,277034073.36588,   0.00203,  -0.00095,  -0.00161,   0.00000,   2.00000
147514008.51752,-373286581.69960,-61649348.40338,   0.00344,  -0.00294,  -0.00241,479039725.08425,   0.00223,277043164.97973,   0.00204,  -0.00096,  -0.00161,   0.00000,   2.00000
146997013.37255,-373874564.67888,-61182964.08230,   0.00344,  -0.00295,  -0.00241,479041455.52462,   0.00223,277052221.16631,   0.00205,  -0.00097,  -0.00161,   0.00000,   2.00000
146490569.94887,-374451324.65227,-60719460.80889,   0.00345,  -0.00296,  -0.00241,479043096.86594,   0.00224,277061241.71533,   0.00205,  -0.00097,  -0.00162,   0.00000,   2.00000
146020773.21350,-374997993.92418,-60257723.66860,   0.00345,  -0.00297,  -0.00240,479053325.62031,   0.00225,277070265.75601,   0.00206,  -0.00098,  -0.00162,  -0.00000,   2.00000
145548329.66164,-375543197.10797,-59799390.43675,   0.00346,  -0.00298,  -0.00240,479050466.06799,   0.00226,277079233.99164,   0.00206,  -0.00099,  -0.00162,  -0.00000,   2.00000
145098852.71304,-376066861.02743,-59347317.73812,   0.00346,  -0.00299,  -0.00240,479057724.02906,   0.00227,277088192.54753,   0.00207,  -0.00100,  -0.00163,   0.00000,   2.00000
144673365.54493,-376571469.35183,-58893555.05924,   0.00347,  -0.00300,  -0.00239,479061768.33360,   0.00228,277097126.95610,   0.00208,  -0.00101,  -0.00163,   0.00000,   2.00000
144258175.97908,-377065445.54442,-58442603.51867,   0.00347,  -0.00301,  -0.00239,479062987.35833,   0.00229,277106024.56637,   0.00208,  -0.00102,  -0.00163,   0.00000,   2.00000
143853254.75004,-377548876.08860,-57994443.11477,   0.00348,  -0.00302,  -0.00239,479064124.57557,   0.00229,277114885.20805,   0.00209,  -0.00102,  -0.00164,  -0.00000,   2.00000
143471672.94400,-378012380.77640,-57548536.91514,   0.00348,  -0.00303,  -0.00239,479069463.54175,   0.00230,277123728.10870,   0.00209,  -0.00103,  -0.00164,  -0.00000,   2.00000
143113369.93260,-378456086.41014,-57104877.94515,   0.00349,  -0.00304,  -0.00238,479074719.79808,   0.00231,277132553.01582,   0.00210,  -0.00104,  -0.00164,   0.00000,   2.00000
142765173.98112,-378889577.82646,-56663965.94031,   0.00349,  -0.00305,  -0.00238,479075628.55683,   0.00232,277141340.37375,   0.00211,  -0.00105,  -0.00164,   0.00000,   2.00000
142427056.36031,-379312934.41335,-56225780.37790,   0.00350,  -0.00306,  -0.00238,479076460.13061,   0.00233,277150090.03659,   0.00211,  -0.00106,  -0.00165,   0.00000,   2.00000
142111610.66522,-379715670.20208,-55793790.90910,   0.00350,  -0.00307,  -0.00238,479082933.80560,   0.00234,277158827.73154,   0.00212,  -0.00106,  -0.00165,   0.00000,   2.00000
141829236.98442,-380092717.90878,-55361098.15916,   0.00351,  -0.00308,  -0.00237,479076940.84442,   0.00234,277167497.22018,   0.00212,  -0.00107,  -0.00165,   0.00000,   2.00000
141547291.35528,-380467379.52333,-54929982.15170,   0.00351,  -0.00309,  -0.00237,479086971.27152,   0.00235,277176171.25072,   0.00213,  -0.00108,  -0.00166,   0.00000,   2.00000
141284691.60897,-380824898.56051,-54502609.66382,   0.00352,  -0.00310,  -0.00237,479078047.07119,   0.00236,277184764.19235,   0.00213,  -0.00109,  -0.00166,   0.00000,   2.00000
141035603.50682,-381170697.53553,-54076307.27591,   0.00353,  -0.00310,  -0.00236,479092179.81571,   0.00237,277193380.62057,   0.00214,  -0.00109,  -0.00166,   0.00000,   2.00000
140805765.01458,-381499554.52376,-53653698.56084,   0.00353,  -0.00311,  -0.00236,479083108.44585,   0.00238,277201915.64828,   0.00215,  -0.00110,  -0.00166,   0.00000,   2.00000
140598807.17246,-381809491.39329,-53233210.66581,   0.00354,  -0.00312,  -0.00236,479087621.28685,   0.00238,277210431.05397,   0.00215,  -0.00111,  -0.00167,   0.00000,   2.00000
140401520.94867,-382110059.08194,-52815300.83545,   0.00354,  -0.00313,  -0.00236,479087857.00087,   0.00239,277218907.63905,   0.00216,  -0.00112,  -0.00167,   0.00000,   2.00000
140236017.51271,-382383493.21009,-52404540.24847,   0.00355,  -0.00314,  -0.00235,479084106.29664,   0.00240,277227327.64765,   0.00216,  -0.00113,  -0.00167,   0.00000,   2.00000
140071080.67830,-382656138.42808,-51991248.67765,   0.00355,  -0.00315,  -0.00235,479092302.53257,   0.00241,277235745.28117,   0.00217,  -0.00113,  -0.00168,   0.00000,   2.00000
139925149.72650,-382912320.08707,-51581510.24512,   0.00356,  -0.00316,  -0.00235,479082833.57547,   0.00242,277244080.86245,   0.00217,  -0.00114,  -0.00168,  -0.00000,   2.00000
139801872.43408,-383149999.82801,-51173809.70331,   0.00356,  -0.00316,  -0.00235,479086971.92794,   0.00242,277252396.22448,   0.00218,  -0.00115,  -0.00168,   0.00000,   2.00000
139700736.74685,-383368250.40049,-50772154.07949,   0.00357,  -0.00317,  -0.00234,479092394.07690,   0.00243,277260697.29097,   0.00219,  -0.00116,  -0.00168,   0.00000,   2.00000
139609422.93474,-383578652.09033,-50368925.15452,   0.00357,  -0.00318,  -0.00234,479090898.63822,   0.00244,277268952.94340,   0.00219,  -0.00116,  -0.00169,   0.00000,   2.00000
139527452.99701,-383780229.74060,-49968134.42200,   0.00358,  -0.00319,  -0.00234,479090680.15815,   0.00245,277277169.17819,   0.00220,  -0.00117,  -0.00169,   0.00000,   2.00000
139477417.23900,-383956306.44966,-49570318.14752,   0.00359,  -0.00320,  -0.00234,479085056.26537,   0.00245,277285321.85905,   0.00220,  -0.00118,  -0.00169,   0.00000,   2.00000
139436174.93743,-384122738.10375,-49178920.08064,   0.00359,  -0.00321,  -0.00233,479085979.05858,   0.00246,277293440.82868,   0.00221,  -0.00119,  -0.00169,   0.00000,   2.00000
139404575.62143,-384281556.86133,-48785850.39539,   0.00360,  -0.00321,  -0.00233,479084258.05812,   0.00247,277301514.34681,   0.00221,  -0.00119,  -0.00170,   0.00000,   2.00000
139404776.56035,-384415095.34548,-48395675.02097,   0.00360,  -0.00322,  -0.00233,479078418.86998,   0.00248,277309524.11677,   0.00222,  -0.00120,  -0.00170,   0.00000,   2.00000
139417345.40899,-384537012.37497,-48010468.79680,   0.00361,  -0.00323,  -0.00232,479092868.45845,   0.00249,277317561.90847,   0.00222,  -0.00121,  -0.00170,   0.00000,   2.00000
139435697.06583,-384653689.52869,-47624908.71060,   0.00361,  -0.00324,  -0.00232,479077296.01771,   0.00249,277325492.30239,   0.00223,  -0.00122,  -0.00170,   0.00000,   2.00000
139498461.71991,-384734873.28888,-47245784.06767,   0.00362,  -0.00325,  -0.00232,479076700.93672,   0.00250,277333383.36759,   0.00223,  -0.00122,  -0.00170,   0.00000,   2.00000
139547939.52298,-384825472.45138,-46864338.32077,   0.00363,  -0.00325,  -0.00232,479080093.49772,   0.00251,277341253.24323,   0.00224,  -0.00123,  -0.00171,   0.00000,   2.00000
139628595.38864,-384890159.62128,-46489703.57143,   0.00363,  -0.00326,  -0.00231,479075197.52725,   0.00252,277349064.73649,   0.00225,  -0.00124,  -0.00171,   0.00000,   2.00000
139731697.93679,-384938146.20370,-46112823.90634,   0.00364,  -0.00327,  -0.00231,479077352.93601,   0.00252,277356849.92108,   0.00225,  -0.00124,  -0.00171,   0.00000,   2.00000
139839525.82551,-384979319.64491,-45743516.18648,   0.00364,  -0.00328,  -0.00231,479063928.68429,   0.00253,277364538.76303,   0.00226,  -0.00125,  -0.00171,  -0.00000,   2.00000
139973404.49598,-385001636.26871,-45370600.81163,   0.00365,  -0.00328,  -0.00231,479079747.20970,   0.00254,277372263.45364,   0.00226,  -0.00126,  -0.00172,  -0.00000,   2.00000
140121420.90521,-385010010.32583,-45006108.96348,   0.00365,  -0.00329,  -0.00230,479056658.77549,   0.00254,277379848.64181,   0.00227,  -0.00127,  -0.00172,   0.00000,   2.00000
140282213.74020,-385009086.52274,-44638380.63908,   0.00366,  -0.00330,  -0.00230,479068183.75127,   0.00255,277387450.86425,   0.00227,  -0.00127,  -0.00172,   0.00000,   2.00000
140460767.69168,-384992084.04980,-44277710.71708,   0.00367,  -0.00331,  -0.00230,479058725.53529,   0.00256,277394975.59299,   0.00228,  -0.00128,  -0.00172,   0.00000,   2.00000
140661099.80855,-384957717.05828,-43918723.40468,   0.00367,  -0.00331,  -0.00229,479061801.56843,   0.00257,277402479.65399,   0.00228,  -0.00129,  -0.00172,   0.00000,   2.00000
140879497.93900,-384908272.52937,-43562668.25974,   0.00368,  -0.00332,  -0.00229,479051069.57450,   0.00257,277409901.01309,   0.00229,  -0.00129,  -0.00173,   0.00000,   2.00000
141119951.18627,-384842414.79715,-43204195.79150,   0.00368,  -0.00333,  -0.00229,479052926.66334,   0.00258,277417296.75648,   0.00229,  -0.00130,  -0.00173,  -0.00000,   2.00000
141355356.30455,-384777427.67357,-42852187.58764,   0.00369,  -0.00333,  -0.00229,479048564.27967,   0.00259,277424639.00909,   0.00230,  -0.00131,  -0.00173,   0.00000,   2.00000
141621896.35922,-384687944.73500,-42502641.26824,   0.00370,  -0.00334,  -0.00228,479041921.95949,   0.00259,277431917.80300,   0.00230,  -0.00131,  -0.00173,  -0.00000,   2.00000
141909981.15886,-384581269.33177,-42154679.18904,   0.00370,  -0.00335,  -0.00228,479044803.84738,   0.00260,277439176.32601,   0.00231,  -0.00132,  -0.00173,  -0.00000,   2.00000
142206426.99148,-384466942.48235,-41808662.02358,   0.00371,  -0.00335,  -0.00228,479043424.89530,   0.00261,277446395.51134,   0.00231,  -0.00133,  -0.00174,   0.00000,   2.00000
142520736.50848,-384337718.22099,-41465403.05069,   0.00371,  -0.00336,  -0.00228,479032452.54203,   0.00261,277453532.40032,   0.00232,  -0.00133,  -0.00174,   0.00000,   2.00000
142852877.73465,-384193622.04929,-41124865.97242,   0.00372,  -0.00337,  -0.00227,479021409.95951,   0.00262,277460587.08674,   0.00232,  -0.00134,  -0.00174,   0.00000,   2.00000
143206399.03684,-384032426.59730,-40785829.47493,   0.00373,  -0.00337,  -0.00227,479024135.26644,   0.00263,277467621.92588,   0.00233,  -0.00135,  -0.00174,   0.00000,   2.00000
143568137.09235,-383863684.13916,-40448644.70691,   0.00373,  -0.00338,  -0.00227,479022576.84642,   0.00263,277474617.74863,   0.00233,  -0.00135,  -0.00174,  -0.00000,   2.00000
143960712.01096,-383670586.57473,-40113734.83901,   0.00374,  -0.00339,  -0.00227,479015745.32665,   0.00264,277481551.05142,   0.00233,  -0.00136,  -0.00174,   0.00000,   2.00000
144348323.47508,-383479529.34120,-39780992.36783,   0.00374,  -0.00339,  -0.00226,479009812.86882,   0.00265,277488426.16606,   0.00234,  -0.00137,  -0.00175,   0.00000,   2.00000
144766725.47465,-383264123.08563,-39450468.34192,   0.00375,  -0.00340,  -0.00226,479002909.37933,   0.00265,277495239.03119,   0.00234,  -0.00137,  -0.00175,   0.00000,   2.00000
145206285.24064,-383031691.87693,-39121349.45838,   0.00376,  -0.00341,  -0.00226,479005526.09671,   0.00266,277502032.78385,   0.00235,  -0.00138,  -0.00175,  -0.00000,   2.00000
145653516.96926,-382791030.15396,-38798056.20908,   0.00376,  -0.00341,  -0.00225,479004840.42516,   0.00267,277508792.66759,   0.00235,  -0.00139,  -0.00175,   0.00000,   2.00000
146118688.78992,-382536379.76780,-38473166.78540,   0.00377,  -0.00342,  -0.00225,478992566.72979,   0.00267,277515466.73710,   0.00236,  -0.00139,  -0.00175,   0.00000,   2.00000
146601418.24755,-382266957.61930,-38150739.21510,   0.00377,  -0.00342,  -0.00225,478981261.76604,   0.00268,277522059.76673,   0.00236,  -0.00140,  -0.00175,   0.00000,   2.00000
147092101.86014,-381990105.68386,-37829983.81994,   0.00378,  -0.00343,  -0.00225,478979413.62115,   0.00269,277528614.67378,   0.00237,  -0.00140,  -0.00176,   0.00000,   2.00000
147613011.88142,-381688141.23094,-37515372.65707,   0.00379,  -0.00343,  -0.00224,478973407.83112,   0.00269,277535112.96695,   0.00237,  -0.00141,  -0.00176,   0.00000,   2.00000
148142142.13461,-381379519.37338,-37198293.38023,   0.00379,  -0.00344,  -0.00224,478970535.70447,   0.00270,277541569.00855,   0.00238,  -0.00142,  -0.00176,   0.00000,   2.00000
148691817.03647,-381053150.37133,-36886574.56268,   0.00380,  -0.00345,  -0.00224,478974006.44578,   0.00270,277548011.54084,   0.00238,  -0.00142,  -0.00176,   0.00000,   2.00000
149255845.56414,-380714948.68297,-36574148.27519,   0.00381,  -0.00345,  -0.00224,478947762.99628,   0.00271,277554307.00236,   0.00238,  -0.00143,  -0.00176,   0.00000,   2.00000
149830735.72816,-380366394.76133,-36266314.73550,   0.00381,  -0.00346,  -0.00223,478960617.80427,   0.00272,277560631.91957,   0.00239,  -0.00143,  -0.00176,   0.00000,   2.00000
150445982.60686,-379986716.39034,-35957025.86406,   0.00382,  -0.00346,  -0.00223,478943223.94635,   0.00272,277566850.15558,   0.00239,  -0.00144,  -0.00176,  -0.00000,   2.00000
151045960.60987,-379615965.14123,-35652978.27431,   0.00383,  -0.00347,  -0.00223,478947176.07333,   0.00273,277573058.18455,   0.00240,  -0.00144,  -0.00176,  -0.00000,   2.00000
151686270.07149,-379213996.80060,-35347407.10520,   0.00383,  -0.00347,  -0.00223,478929793.20340,   0.00273,277579160.13836,   0.00240,  -0.00145,  -0.00177,   0.00000,   2.00000
152333899.97830,-378803901.35625,-35047411.68450,   0.00384,  -0.00348,  -0.00222,478928674.35757,   0.00274,277585229.65357,   0.00241,  -0.00146,  -0.00177,   0.00000,   2.00000
152989180.37988,-378386378.26190,-34748868.98605,   0.00384,  -0.00348,  -0.00222,478926607.80197,   0.00274,277591262.62118,   0.00241,  -0.00146,  -0.00177,   0.00000,   2.00000
153662093.49408,-377954620.32927,-34448344.74695,   0.00385,  -0.00349,  -0.00222,478914197.17330,   0.00275,277597212.69936,   0.00241,  -0.00147,  -0.00177,   0.00000,   2.00000
154364902.47432,-377497560.42919,-34153692.39726,   0.00386,  -0.00349,  -0.00222,478908107.51339,   0.00276,277603108.71994,   0.00242,  -0.00147,  -0.00177,   0.00000,   2.00000
155075262.41553,-377033032.69342,-33860428.69621,   0.00386,  -0.00350,  -0.00221,478906003.37040,   0.00276,277608968.85839,   0.00242,  -0.00148,  -0.00177,   0.00000,   2.00000
155802854.80245,-376553498.48398,-33569199.75434,   0.00387,  -0.00350,  -0.00221,478894491.60589,   0.00277,277614750.97740,   0.00243,  -0.00148,  -0.00177,  -0.00000,   2.00000
156538290.93235,-376067116.21666,-33275215.23983,   0.00388,  -0.00350,  -0.00221,478891469.08225,   0.00277,277620493.61781,   0.00243,  -0.00149,  -0.00177,   0.00000,   2.00000
157303515.46034,-375555293.81259,-32987009.39699,   0.00388,  -0.00351,  -0.00220,478885415.64039,   0.00278,277626183.34862,   0.00243,  -0.00149,  -0.00178,  -0.00000,   2.00000
158073025.67509,-375038063.53611,-32701073.48563,   0.00389,  -0.00351,  -0.00220,478869295.91239,   0.00278,277631775.13102,   0.00244,  -0.00150,  -0.00178,   0.00000,   2.00000
158862876.85565,-374503544.07136,-32416108.35313,   0.00390,  -0.00352,  -0.00220,478871717.09303,   0.00279,277637352.82216,   0.00244,  -0.00150,  -0.00178,   0.00000,   2.00000
159669883.63887,-373953824.28277,-32133045.12925,   0.00390,  -0.00352,  -0.00220,478860207.22383,   0.00279,277642853.82945,   0.00245,  -0.00151,  -0.00178,   0.00000,   2.00000
160494034.82835,-373388854.91383,-31851854.12786,   0.00391,  -0.00353,  -0.00219,478848684.81637,   0.00280,277648278.45241,   0.00245,  -0.00151,  -0.00178,  -0.00000,   2.00000
161338395.00399,-372806486.06049,-31571578.69733,   0.00391,  -0.00353,  -0.00219,478851163.70491,   0.00280,277653690.03456,   0.00245,  -0.00152,  -0.00178,   0.00000,   2.00000
162190088.02955,-372216440.27175,-31292516.34070,   0.00392,  -0.00353,  -0.00219,478849002.42154,   0.00281,277659067.76081,   0.00246,  -0.00152,  -0.00178,   0.00000,   2.00000
163055850.14473,-371613084.14584,-31016168.50188,   0.00393,  -0.00354,  -0.00219,478823521.40608,   0.00281,277664306.87327,   0.00246,  -0.00153,  -0.00178,  -0.00000,   2.00000
163941736.48327,-370992204.65996,-30740681.30595,   0.00393,  -0.00354,  -0.00218,478826016.64146,   0.00282,277669533.87753,   0.00247,  -0.00153,  -0.00178,   0.00000,   2.00000
164834913.46598,-370363548.68140,-30466348.13370,   0.00394,  -0.00354,  -0.00218,478823818.23975,   0.00282,277674727.71006,   0.00247,  -0.00154,  -0.00179,   0.00000,   2.00000
165767723.71947,-369701794.44425,-30194022.73785,   0.00395,  -0.00355,  -0.00218,478807911.63280,   0.00283,277679826.86078,   0.00247,  -0.00154,  -0.00179,  -0.00000,   2.00000
166695002.24956,-369041978.75455,-29923109.99089,   0.00395,  -0.00355,  -0.00218,478800935.37270,   0.00283,277684871.93055,   0.00248,  -0.00155,  -0.00179,   0.00000,   2.00000
167641950.86937,-368363886.43022,-29657112.04563,   0.00396,  -0.00356,  -0.00217,478804327.39463,   0.00284,277689909.82949,   0.00248,  -0.00155,  -0.00179,  -0.00000,   2.00000
168603350.85244,-367672641.08813,-29389503.56380,   0.00397,  -0.00356,  -0.00217,478778116.44969,   0.00284,277694807.36846,   0.00248,  -0.00156,  -0.00179,   0.00000,   2.00000
169584652.40091,-366963577.36054,-29122651.48849,   0.00397,  -0.00356,  -0.00217,478780757.93772,   0.00285,277699695.03740,   0.00249,  -0.00156,  -0.00179,  -0.00000,   2.00000
170573115.22473,-366246492.85763,-28856841.34128,   0.00398,  -0.00356,  -0.00217,478778590.65056,   0.00285,277704551.23583,   0.00249,  -0.00157,  -0.00179,   0.00000,   2.00000
171578593.09309,-365513469.43140,-28592608.95866,   0.00399,  -0.00357,  -0.00216,478767267.15931,   0.00286,277709334.89559,   0.00249,  -0.00157,  -0.00179,   0.00000,   2.00000
172601078.11264,-364764430.35907,-28329927.50146,   0.00399,  -0.00357,  -0.00216,478755957.51028,   0.00286,277714046.40712,   0.00250,  -0.00157,  -0.00179,   0.00000,   2.00000
173652888.76332,-363988883.98533,-28072602.59150,   0.00400,  -0.00357,  -0.00216,478750371.54659,   0.00287,277718711.87060,   0.00250,  -0.00158,  -0.00179,   0.00000,   2.00000
